    1C
    1UUSER                                                              
    1UDATE              27.october.2022                                 
    1UTIME              00:01:10                                        
    1UHOST                                                              
    1UPGM               CalculiX                                        
    1UVERSION           Version 2.17                             
    1UCOMPILETIME       Thu Jul 23 21:43:50 CEST 2020                    
    1UDIR                                                               
    1UDBN                                                               
    1UMAT    1SOLIDMATERIAL                                             
    2C                          4361                                     1
 -1         1 5.69915E+01 3.09091E+01 0.00000E+00
 -1         2 5.94904E+01 2.55481E+01 0.00000E+00
 -1         3 1.50000E+02 0.00000E+00 0.00000E+00
 -1         4 1.50000E+02 5.00000E+01 0.00000E+00
 -1         5 0.00000E+00 0.00000E+00 0.00000E+00
 -1         6 0.00000E+00 5.00000E+01 0.00000E+00
 -1         7 0.00000E+00 4.70500E+01 0.00000E+00
 -1         8 0.00000E+00 4.41000E+01 0.00000E+00
 -1         9 0.00000E+00 4.11500E+01 0.00000E+00
 -1        10 0.00000E+00 3.82000E+01 0.00000E+00
 -1        11 0.00000E+00 3.52500E+01 0.00000E+00
 -1        12 0.00000E+00 3.23500E+01 0.00000E+00
 -1        13 0.00000E+00 2.94000E+01 0.00000E+00
 -1        14 0.00000E+00 2.64500E+01 0.00000E+00
 -1        15 0.00000E+00 2.35000E+01 0.00000E+00
 -1        16 0.00000E+00 2.05500E+01 0.00000E+00
 -1        17 0.00000E+00 1.76000E+01 0.00000E+00
 -1        18 0.00000E+00 1.47000E+01 0.00000E+00
 -1        19 0.00000E+00 1.17500E+01 0.00000E+00
 -1        20 0.00000E+00 8.80000E+00 0.00000E+00
 -1        21 0.00000E+00 5.85000E+00 0.00000E+00
 -1        22 0.00000E+00 2.90000E+00 0.00000E+00
 -1        23 3.15000E+00 5.00000E+01 0.00000E+00
 -1        24 6.15000E+00 5.00000E+01 0.00000E+00
 -1        25 9.15000E+00 5.00000E+01 0.00000E+00
 -1        26 1.21500E+01 5.00000E+01 0.00000E+00
 -1        27 1.51500E+01 5.00000E+01 0.00000E+00
 -1        28 1.81500E+01 5.00000E+01 0.00000E+00
 -1        29 2.11500E+01 5.00000E+01 0.00000E+00
 -1        30 2.41500E+01 5.00000E+01 0.00000E+00
 -1        31 2.71500E+01 5.00000E+01 0.00000E+00
 -1        32 3.01500E+01 5.00000E+01 0.00000E+00
 -1        33 3.31500E+01 5.00000E+01 0.00000E+00
 -1        34 3.61500E+01 5.00000E+01 0.00000E+00
 -1        35 3.91500E+01 5.00000E+01 0.00000E+00
 -1        36 4.21500E+01 5.00000E+01 0.00000E+00
 -1        37 4.51500E+01 5.00000E+01 0.00000E+00
 -1        38 4.81500E+01 5.00000E+01 0.00000E+00
 -1        39 5.11500E+01 5.00000E+01 0.00000E+00
 -1        40 5.41500E+01 5.00000E+01 0.00000E+00
 -1        41 5.71500E+01 5.00000E+01 0.00000E+00
 -1        42 6.01500E+01 5.00000E+01 0.00000E+00
 -1        43 6.31500E+01 5.00000E+01 0.00000E+00
 -1        44 6.61500E+01 5.00000E+01 0.00000E+00
 -1        45 6.91500E+01 5.00000E+01 0.00000E+00
 -1        46 7.21500E+01 5.00000E+01 0.00000E+00
 -1        47 7.51500E+01 5.00000E+01 0.00000E+00
 -1        48 7.81500E+01 5.00000E+01 0.00000E+00
 -1        49 8.11500E+01 5.00000E+01 0.00000E+00
 -1        50 8.41500E+01 5.00000E+01 0.00000E+00
 -1        51 8.71500E+01 5.00000E+01 0.00000E+00
 -1        52 9.01500E+01 5.00000E+01 0.00000E+00
 -1        53 9.31500E+01 5.00000E+01 0.00000E+00
 -1        54 9.61500E+01 5.00000E+01 0.00000E+00
 -1        55 9.91500E+01 5.00000E+01 0.00000E+00
 -1        56 1.02150E+02 5.00000E+01 0.00000E+00
 -1        57 1.05150E+02 5.00000E+01 0.00000E+00
 -1        58 1.08150E+02 5.00000E+01 0.00000E+00
 -1        59 1.11150E+02 5.00000E+01 0.00000E+00
 -1        60 1.14150E+02 5.00000E+01 0.00000E+00
 -1        61 1.17150E+02 5.00000E+01 0.00000E+00
 -1        62 1.20150E+02 5.00000E+01 0.00000E+00
 -1        63 1.23150E+02 5.00000E+01 0.00000E+00
 -1        64 1.26150E+02 5.00000E+01 0.00000E+00
 -1        65 1.29150E+02 5.00000E+01 0.00000E+00
 -1        66 1.32150E+02 5.00000E+01 0.00000E+00
 -1        67 1.35150E+02 5.00000E+01 0.00000E+00
 -1        68 1.38150E+02 5.00000E+01 0.00000E+00
 -1        69 1.41150E+02 5.00000E+01 0.00000E+00
 -1        70 1.44150E+02 5.00000E+01 0.00000E+00
 -1        71 1.47150E+02 5.00000E+01 0.00000E+00
 -1        72 3.15000E+00 0.00000E+00 0.00000E+00
 -1        73 6.15000E+00 0.00000E+00 0.00000E+00
 -1        74 9.15000E+00 0.00000E+00 0.00000E+00
 -1        75 1.21500E+01 0.00000E+00 0.00000E+00
 -1        76 1.51500E+01 0.00000E+00 0.00000E+00
 -1        77 1.81500E+01 0.00000E+00 0.00000E+00
 -1        78 2.11500E+01 0.00000E+00 0.00000E+00
 -1        79 2.41500E+01 0.00000E+00 0.00000E+00
 -1        80 2.71500E+01 0.00000E+00 0.00000E+00
 -1        81 3.01500E+01 0.00000E+00 0.00000E+00
 -1        82 3.31500E+01 0.00000E+00 0.00000E+00
 -1        83 3.61500E+01 0.00000E+00 0.00000E+00
 -1        84 3.91500E+01 0.00000E+00 0.00000E+00
 -1        85 4.21500E+01 0.00000E+00 0.00000E+00
 -1        86 4.51500E+01 0.00000E+00 0.00000E+00
 -1        87 4.81500E+01 0.00000E+00 0.00000E+00
 -1        88 5.11500E+01 0.00000E+00 0.00000E+00
 -1        89 5.41500E+01 0.00000E+00 0.00000E+00
 -1        90 5.71500E+01 0.00000E+00 0.00000E+00
 -1        91 6.01500E+01 0.00000E+00 0.00000E+00
 -1        92 6.31500E+01 0.00000E+00 0.00000E+00
 -1        93 6.61500E+01 0.00000E+00 0.00000E+00
 -1        94 6.91500E+01 0.00000E+00 0.00000E+00
 -1        95 7.21500E+01 0.00000E+00 0.00000E+00
 -1        96 7.51500E+01 0.00000E+00 0.00000E+00
 -1        97 7.81500E+01 0.00000E+00 0.00000E+00
 -1        98 8.11500E+01 0.00000E+00 0.00000E+00
 -1        99 8.41500E+01 0.00000E+00 0.00000E+00
 -1       100 8.71500E+01 0.00000E+00 0.00000E+00
 -1       101 9.01500E+01 0.00000E+00 0.00000E+00
 -1       102 9.31500E+01 0.00000E+00 0.00000E+00
 -1       103 9.61500E+01 0.00000E+00 0.00000E+00
 -1       104 9.91500E+01 0.00000E+00 0.00000E+00
 -1       105 1.02150E+02 0.00000E+00 0.00000E+00
 -1       106 1.05150E+02 0.00000E+00 0.00000E+00
 -1       107 1.08150E+02 0.00000E+00 0.00000E+00
 -1       108 1.11150E+02 0.00000E+00 0.00000E+00
 -1       109 1.14150E+02 0.00000E+00 0.00000E+00
 -1       110 1.17150E+02 0.00000E+00 0.00000E+00
 -1       111 1.20150E+02 0.00000E+00 0.00000E+00
 -1       112 1.23150E+02 0.00000E+00 0.00000E+00
 -1       113 1.26150E+02 0.00000E+00 0.00000E+00
 -1       114 1.29150E+02 0.00000E+00 0.00000E+00
 -1       115 1.32150E+02 0.00000E+00 0.00000E+00
 -1       116 1.35150E+02 0.00000E+00 0.00000E+00
 -1       117 1.38150E+02 0.00000E+00 0.00000E+00
 -1       118 1.41150E+02 0.00000E+00 0.00000E+00
 -1       119 1.44150E+02 0.00000E+00 0.00000E+00
 -1       120 1.47150E+02 0.00000E+00 0.00000E+00
 -1       121 1.50000E+02 2.95000E+00 0.00000E+00
 -1       122 1.50000E+02 5.90000E+00 0.00000E+00
 -1       123 1.50000E+02 8.85000E+00 0.00000E+00
 -1       124 1.50000E+02 1.18000E+01 0.00000E+00
 -1       125 1.50000E+02 1.47500E+01 0.00000E+00
 -1       126 1.50000E+02 1.76500E+01 0.00000E+00
 -1       127 1.50000E+02 2.06000E+01 0.00000E+00
 -1       128 1.50000E+02 2.35500E+01 0.00000E+00
 -1       129 1.50000E+02 2.65000E+01 0.00000E+00
 -1       130 1.50000E+02 2.94500E+01 0.00000E+00
 -1       131 1.50000E+02 3.24000E+01 0.00000E+00
 -1       132 1.50000E+02 3.53000E+01 0.00000E+00
 -1       133 1.50000E+02 3.82500E+01 0.00000E+00
 -1       134 1.50000E+02 4.12000E+01 0.00000E+00
 -1       135 1.50000E+02 4.41500E+01 0.00000E+00
 -1       136 1.50000E+02 4.71000E+01 0.00000E+00
 -1       137 5.93127E+01 2.39808E+01 0.00000E+00
 -1       138 5.88575E+01 2.26394E+01 0.00000E+00
 -1       139 5.80192E+01 2.12547E+01 0.00000E+00
 -1       140 5.70303E+01 2.02199E+01 0.00000E+00
 -1       141 5.58655E+01 1.94155E+01 0.00000E+00
 -1       142 5.45070E+01 1.88448E+01 0.00000E+00
 -1       143 5.30248E+01 1.85685E+01 0.00000E+00
 -1       144 5.15385E+01 1.86131E+01 0.00000E+00
 -1       145 5.00113E+01 1.90018E+01 0.00000E+00
 -1       146 4.86885E+01 1.96705E+01 0.00000E+00
 -1       147 4.75809E+01 2.05584E+01 0.00000E+00
 -1       148 4.66279E+01 2.17231E+01 0.00000E+00
 -1       149 4.59394E+01 2.30816E+01 0.00000E+00
 -1       150 4.55553E+01 2.45975E+01 0.00000E+00
 -1       151 4.55078E+01 2.60415E+01 0.00000E+00
 -1       152 4.57885E+01 2.75689E+01 0.00000E+00
 -1       153 4.64243E+01 2.90412E+01 0.00000E+00
 -1       154 4.72942E+01 3.02384E+01 0.00000E+00
 -1       155 4.85149E+01 3.13096E+01 0.00000E+00
 -1       156 4.98033E+01 3.20118E+01 0.00000E+00
 -1       157 5.12612E+01 3.24393E+01 0.00000E+00
 -1       158 5.28761E+01 3.25374E+01 0.00000E+00
 -1       159 5.42838E+01 3.23144E+01 0.00000E+00
 -1       160 5.56725E+01 3.17830E+01 0.00000E+00
 -1       161 5.80236E+01 2.98357E+01 0.00000E+00
 -1       162 5.88117E+01 2.85549E+01 0.00000E+00
 -1       163 5.93131E+01 2.71138E+01 0.00000E+00
 -1       164 2.59800E+00 4.55750E+01 0.00000E+00
 -1       165 2.59800E+00 4.26250E+01 0.00000E+00
 -1       166 2.59800E+00 3.96750E+01 0.00000E+00
 -1       167 2.59800E+00 3.67250E+01 0.00000E+00
 -1       168 2.59800E+00 3.38250E+01 0.00000E+00
 -1       169 2.59800E+00 3.08750E+01 0.00000E+00
 -1       170 2.59800E+00 2.79250E+01 0.00000E+00
 -1       171 2.59800E+00 2.49750E+01 0.00000E+00
 -1       172 2.59800E+00 2.20250E+01 0.00000E+00
 -1       173 2.59800E+00 1.90750E+01 0.00000E+00
 -1       174 2.59800E+00 1.61750E+01 0.00000E+00
 -1       175 2.59800E+00 1.32250E+01 0.00000E+00
 -1       176 2.59800E+00 1.02750E+01 0.00000E+00
 -1       177 2.59800E+00 7.32500E+00 0.00000E+00
 -1       178 2.59800E+00 4.37500E+00 0.00000E+00
 -1       179 2.87400E+00 2.18750E+00 0.00000E+00
 -1       180 4.65000E+00 4.74020E+01 0.00000E+00
 -1       181 7.65000E+00 4.74020E+01 0.00000E+00
 -1       182 1.06500E+01 4.74020E+01 0.00000E+00
 -1       183 1.36500E+01 4.74020E+01 0.00000E+00
 -1       184 1.66500E+01 4.74020E+01 0.00000E+00
 -1       185 1.96500E+01 4.74020E+01 0.00000E+00
 -1       186 2.26500E+01 4.74020E+01 0.00000E+00
 -1       187 2.56500E+01 4.74020E+01 0.00000E+00
 -1       188 2.86500E+01 4.74020E+01 0.00000E+00
 -1       189 3.16500E+01 4.74020E+01 0.00000E+00
 -1       190 3.46500E+01 4.74020E+01 0.00000E+00
 -1       191 3.76500E+01 4.74020E+01 0.00000E+00
 -1       192 4.06500E+01 4.74020E+01 0.00000E+00
 -1       193 4.36500E+01 4.74020E+01 0.00000E+00
 -1       194 4.66500E+01 4.74020E+01 0.00000E+00
 -1       195 4.96500E+01 4.74020E+01 0.00000E+00
 -1       196 5.26500E+01 4.74020E+01 0.00000E+00
 -1       197 5.56500E+01 4.74020E+01 0.00000E+00
 -1       198 5.86500E+01 4.74020E+01 0.00000E+00
 -1       199 6.16500E+01 4.74020E+01 0.00000E+00
 -1       200 6.46500E+01 4.74020E+01 0.00000E+00
 -1       201 6.76500E+01 4.74020E+01 0.00000E+00
 -1       202 7.06500E+01 4.74020E+01 0.00000E+00
 -1       203 7.36500E+01 4.74020E+01 0.00000E+00
 -1       204 7.66500E+01 4.74020E+01 0.00000E+00
 -1       205 7.96500E+01 4.74020E+01 0.00000E+00
 -1       206 8.26500E+01 4.74020E+01 0.00000E+00
 -1       207 8.56500E+01 4.74020E+01 0.00000E+00
 -1       208 8.86500E+01 4.74020E+01 0.00000E+00
 -1       209 9.16500E+01 4.74020E+01 0.00000E+00
 -1       210 9.46500E+01 4.74020E+01 0.00000E+00
 -1       211 9.76500E+01 4.74020E+01 0.00000E+00
 -1       212 1.00650E+02 4.74020E+01 0.00000E+00
 -1       213 1.03650E+02 4.74020E+01 0.00000E+00
 -1       214 1.06650E+02 4.74020E+01 0.00000E+00
 -1       215 1.09650E+02 4.74020E+01 0.00000E+00
 -1       216 1.12650E+02 4.74020E+01 0.00000E+00
 -1       217 1.15650E+02 4.74020E+01 0.00000E+00
 -1       218 1.18650E+02 4.74020E+01 0.00000E+00
 -1       219 1.21650E+02 4.74020E+01 0.00000E+00
 -1       220 1.24650E+02 4.74020E+01 0.00000E+00
 -1       221 1.27650E+02 4.74020E+01 0.00000E+00
 -1       222 1.30650E+02 4.74020E+01 0.00000E+00
 -1       223 1.33650E+02 4.74020E+01 0.00000E+00
 -1       224 1.36650E+02 4.74020E+01 0.00000E+00
 -1       225 1.39650E+02 4.74020E+01 0.00000E+00
 -1       226 1.42650E+02 4.74020E+01 0.00000E+00
 -1       227 1.45650E+02 4.74020E+01 0.00000E+00
 -1       228 5.87400E+00 2.18750E+00 0.00000E+00
 -1       229 8.87400E+00 2.18750E+00 0.00000E+00
 -1       230 1.18740E+01 2.18750E+00 0.00000E+00
 -1       231 1.48740E+01 2.18750E+00 0.00000E+00
 -1       232 1.78740E+01 2.18750E+00 0.00000E+00
 -1       233 2.08740E+01 2.18750E+00 0.00000E+00
 -1       234 2.38740E+01 2.18750E+00 0.00000E+00
 -1       235 2.68740E+01 2.18750E+00 0.00000E+00
 -1       236 2.98740E+01 2.18750E+00 0.00000E+00
 -1       237 3.28740E+01 2.18750E+00 0.00000E+00
 -1       238 3.58740E+01 2.18750E+00 0.00000E+00
 -1       239 3.88740E+01 2.18750E+00 0.00000E+00
 -1       240 4.18740E+01 2.18750E+00 0.00000E+00
 -1       241 4.48740E+01 2.18750E+00 0.00000E+00
 -1       242 4.78740E+01 2.18750E+00 0.00000E+00
 -1       243 5.08740E+01 2.18750E+00 0.00000E+00
 -1       244 5.38740E+01 2.18750E+00 0.00000E+00
 -1       245 5.68740E+01 2.18750E+00 0.00000E+00
 -1       246 5.98740E+01 2.18750E+00 0.00000E+00
 -1       247 6.28740E+01 2.18750E+00 0.00000E+00
 -1       248 6.58740E+01 2.18750E+00 0.00000E+00
 -1       249 6.88740E+01 2.18750E+00 0.00000E+00
 -1       250 7.18740E+01 2.18750E+00 0.00000E+00
 -1       251 7.48740E+01 2.18750E+00 0.00000E+00
 -1       252 7.78740E+01 2.18750E+00 0.00000E+00
 -1       253 8.08740E+01 2.18750E+00 0.00000E+00
 -1       254 8.38740E+01 2.18750E+00 0.00000E+00
 -1       255 8.68740E+01 2.18750E+00 0.00000E+00
 -1       256 8.98740E+01 2.18750E+00 0.00000E+00
 -1       257 9.28740E+01 2.18750E+00 0.00000E+00
 -1       258 9.58740E+01 2.18750E+00 0.00000E+00
 -1       259 9.88740E+01 2.18750E+00 0.00000E+00
 -1       260 1.01874E+02 2.18750E+00 0.00000E+00
 -1       261 1.04874E+02 2.18750E+00 0.00000E+00
 -1       262 1.07874E+02 2.18750E+00 0.00000E+00
 -1       263 1.10874E+02 2.18750E+00 0.00000E+00
 -1       264 1.13874E+02 2.18750E+00 0.00000E+00
 -1       265 1.16874E+02 2.18750E+00 0.00000E+00
 -1       266 1.19874E+02 2.18750E+00 0.00000E+00
 -1       267 1.22874E+02 2.18750E+00 0.00000E+00
 -1       268 1.25874E+02 2.18750E+00 0.00000E+00
 -1       269 1.28874E+02 2.18750E+00 0.00000E+00
 -1       270 1.31874E+02 2.18750E+00 0.00000E+00
 -1       271 1.34874E+02 2.18750E+00 0.00000E+00
 -1       272 1.37874E+02 2.18750E+00 0.00000E+00
 -1       273 1.40874E+02 2.18750E+00 0.00000E+00
 -1       274 1.43874E+02 2.18750E+00 0.00000E+00
 -1       275 1.46874E+02 2.18750E+00 0.00000E+00
 -1       276 1.47402E+02 4.42500E+00 0.00000E+00
 -1       277 1.47402E+02 7.37500E+00 0.00000E+00
 -1       278 1.47402E+02 1.03250E+01 0.00000E+00
 -1       279 1.47402E+02 1.32750E+01 0.00000E+00
 -1       280 1.47402E+02 1.61750E+01 0.00000E+00
 -1       281 1.47402E+02 1.91250E+01 0.00000E+00
 -1       282 1.47402E+02 2.20750E+01 0.00000E+00
 -1       283 1.47402E+02 2.50250E+01 0.00000E+00
 -1       284 1.47402E+02 2.79750E+01 0.00000E+00
 -1       285 1.47402E+02 3.09250E+01 0.00000E+00
 -1       286 1.47402E+02 3.38250E+01 0.00000E+00
 -1       287 1.47402E+02 3.67750E+01 0.00000E+00
 -1       288 1.47402E+02 3.97250E+01 0.00000E+00
 -1       289 1.47402E+02 4.26750E+01 0.00000E+00
 -1       290 1.46526E+02 4.50385E+01 0.00000E+00
 -1       291 6.08560E+01 2.45995E+01 0.00000E+00
 -1       292 6.04712E+01 2.28397E+01 0.00000E+00
 -1       293 5.96905E+01 2.11889E+01 0.00000E+00
 -1       294 5.84013E+01 1.98997E+01 0.00000E+00
 -1       295 5.71368E+01 1.88201E+01 0.00000E+00
 -1       296 5.56557E+01 1.80123E+01 0.00000E+00
 -1       297 5.40034E+01 1.74324E+01 0.00000E+00
 -1       298 5.22453E+01 1.73789E+01 0.00000E+00
 -1       299 5.03932E+01 1.73077E+01 0.00000E+00
 -1       300 4.87273E+01 1.81046E+01 0.00000E+00
 -1       301 4.73764E+01 1.91685E+01 0.00000E+00
 -1       302 4.61661E+01 2.03730E+01 0.00000E+00
 -1       303 4.52022E+01 2.18542E+01 0.00000E+00
 -1       304 4.43284E+01 2.34800E+01 0.00000E+00
 -1       305 4.42361E+01 2.52769E+01 0.00000E+00
 -1       306 4.43733E+01 2.70394E+01 0.00000E+00
 -1       307 4.47626E+01 2.88853E+01 0.00000E+00
 -1       308 4.58106E+01 3.04017E+01 0.00000E+00
 -1       309 4.68286E+01 3.20002E+01 0.00000E+00
 -1       310 4.85789E+01 3.27252E+01 0.00000E+00
 -1       311 5.01911E+01 3.33889E+01 0.00000E+00
 -1       312 5.19748E+01 3.40330E+01 0.00000E+00
 -1       313 5.37827E+01 3.37062E+01 0.00000E+00
 -1       314 5.54115E+01 3.31810E+01 0.00000E+00
 -1       315 5.70942E+01 3.24964E+01 0.00000E+00
 -1       316 5.83815E+01 3.12127E+01 0.00000E+00
 -1       317 5.94503E+01 2.98306E+01 0.00000E+00
 -1       318 6.02075E+01 2.82327E+01 0.00000E+00
 -1       319 6.07729E+01 2.64862E+01 0.00000E+00
 -1       320 5.19600E+00 4.11500E+01 0.00000E+00
 -1       321 5.19600E+00 4.41000E+01 0.00000E+00
 -1       322 5.19600E+00 3.52750E+01 0.00000E+00
 -1       323 5.19600E+00 3.23250E+01 0.00000E+00
 -1       324 5.19600E+00 2.93750E+01 0.00000E+00
 -1       325 5.19600E+00 2.64250E+01 0.00000E+00
 -1       326 5.19600E+00 2.34750E+01 0.00000E+00
 -1       327 5.19600E+00 2.05250E+01 0.00000E+00
 -1       328 5.19600E+00 1.76250E+01 0.00000E+00
 -1       329 5.19600E+00 1.46750E+01 0.00000E+00
 -1       330 5.19600E+00 1.17250E+01 0.00000E+00
 -1       331 5.19600E+00 8.77500E+00 0.00000E+00
 -1       332 5.19600E+00 5.82500E+00 0.00000E+00
 -1       333 5.53500E+00 4.00625E+00 0.00000E+00
 -1       334 8.53500E+00 4.00625E+00 0.00000E+00
 -1       335 9.15000E+00 4.48040E+01 0.00000E+00
 -1       336 1.21500E+01 4.48040E+01 0.00000E+00
 -1       337 1.51500E+01 4.48040E+01 0.00000E+00
 -1       338 1.81500E+01 4.48040E+01 0.00000E+00
 -1       339 2.11500E+01 4.48040E+01 0.00000E+00
 -1       340 2.41500E+01 4.48040E+01 0.00000E+00
 -1       341 2.71500E+01 4.48040E+01 0.00000E+00
 -1       342 3.01500E+01 4.48040E+01 0.00000E+00
 -1       343 3.31500E+01 4.48040E+01 0.00000E+00
 -1       344 3.61500E+01 4.48040E+01 0.00000E+00
 -1       345 3.91500E+01 4.48040E+01 0.00000E+00
 -1       346 4.21500E+01 4.48040E+01 0.00000E+00
 -1       347 4.51500E+01 4.48040E+01 0.00000E+00
 -1       348 4.81500E+01 4.48040E+01 0.00000E+00
 -1       349 5.11500E+01 4.48040E+01 0.00000E+00
 -1       350 5.41500E+01 4.48040E+01 0.00000E+00
 -1       351 5.71500E+01 4.48040E+01 0.00000E+00
 -1       352 6.01500E+01 4.48040E+01 0.00000E+00
 -1       353 6.31500E+01 4.48040E+01 0.00000E+00
 -1       354 6.61500E+01 4.48040E+01 0.00000E+00
 -1       355 6.91500E+01 4.48040E+01 0.00000E+00
 -1       356 7.21500E+01 4.48040E+01 0.00000E+00
 -1       357 7.51500E+01 4.48040E+01 0.00000E+00
 -1       358 7.81500E+01 4.48040E+01 0.00000E+00
 -1       359 8.11500E+01 4.48040E+01 0.00000E+00
 -1       360 8.41500E+01 4.48040E+01 0.00000E+00
 -1       361 8.71500E+01 4.48040E+01 0.00000E+00
 -1       362 9.01500E+01 4.48040E+01 0.00000E+00
 -1       363 9.31500E+01 4.48040E+01 0.00000E+00
 -1       364 9.61500E+01 4.48040E+01 0.00000E+00
 -1       365 9.91500E+01 4.48040E+01 0.00000E+00
 -1       366 1.02150E+02 4.48040E+01 0.00000E+00
 -1       367 1.05150E+02 4.48040E+01 0.00000E+00
 -1       368 1.08150E+02 4.48040E+01 0.00000E+00
 -1       369 1.11150E+02 4.48040E+01 0.00000E+00
 -1       370 1.14150E+02 4.48040E+01 0.00000E+00
 -1       371 1.17150E+02 4.48040E+01 0.00000E+00
 -1       372 1.20150E+02 4.48040E+01 0.00000E+00
 -1       373 1.23150E+02 4.48040E+01 0.00000E+00
 -1       374 1.26150E+02 4.48040E+01 0.00000E+00
 -1       375 1.29150E+02 4.48040E+01 0.00000E+00
 -1       376 1.32150E+02 4.48040E+01 0.00000E+00
 -1       377 1.35150E+02 4.48040E+01 0.00000E+00
 -1       378 1.38150E+02 4.48040E+01 0.00000E+00
 -1       379 1.41150E+02 4.48040E+01 0.00000E+00
 -1       380 1.43838E+02 4.49212E+01 0.00000E+00
 -1       381 1.15350E+01 4.00625E+00 0.00000E+00
 -1       382 1.45350E+01 4.00625E+00 0.00000E+00
 -1       383 1.75350E+01 4.00625E+00 0.00000E+00
 -1       384 2.05350E+01 4.00625E+00 0.00000E+00
 -1       385 2.35350E+01 4.00625E+00 0.00000E+00
 -1       386 2.65350E+01 4.00625E+00 0.00000E+00
 -1       387 2.95350E+01 4.00625E+00 0.00000E+00
 -1       388 3.25350E+01 4.00625E+00 0.00000E+00
 -1       389 3.55350E+01 4.00625E+00 0.00000E+00
 -1       390 3.85350E+01 4.00625E+00 0.00000E+00
 -1       391 4.15350E+01 4.00625E+00 0.00000E+00
 -1       392 4.45350E+01 4.00625E+00 0.00000E+00
 -1       393 4.75350E+01 4.00625E+00 0.00000E+00
 -1       394 5.05350E+01 4.00625E+00 0.00000E+00
 -1       395 5.35350E+01 4.00625E+00 0.00000E+00
 -1       396 5.65350E+01 4.00625E+00 0.00000E+00
 -1       397 5.95350E+01 4.00625E+00 0.00000E+00
 -1       398 6.25350E+01 4.00625E+00 0.00000E+00
 -1       399 6.55350E+01 4.00625E+00 0.00000E+00
 -1       400 6.85350E+01 4.00625E+00 0.00000E+00
 -1       401 7.15350E+01 4.00625E+00 0.00000E+00
 -1       402 7.45350E+01 4.00625E+00 0.00000E+00
 -1       403 7.75350E+01 4.00625E+00 0.00000E+00
 -1       404 8.05350E+01 4.00625E+00 0.00000E+00
 -1       405 8.35350E+01 4.00625E+00 0.00000E+00
 -1       406 8.65350E+01 4.00625E+00 0.00000E+00
 -1       407 8.95350E+01 4.00625E+00 0.00000E+00
 -1       408 9.25350E+01 4.00625E+00 0.00000E+00
 -1       409 9.55350E+01 4.00625E+00 0.00000E+00
 -1       410 9.85350E+01 4.00625E+00 0.00000E+00
 -1       411 1.01535E+02 4.00625E+00 0.00000E+00
 -1       412 1.04535E+02 4.00625E+00 0.00000E+00
 -1       413 1.07535E+02 4.00625E+00 0.00000E+00
 -1       414 1.10535E+02 4.00625E+00 0.00000E+00
 -1       415 1.13535E+02 4.00625E+00 0.00000E+00
 -1       416 1.16535E+02 4.00625E+00 0.00000E+00
 -1       417 1.19535E+02 4.00625E+00 0.00000E+00
 -1       418 1.22535E+02 4.00625E+00 0.00000E+00
 -1       419 1.25535E+02 4.00625E+00 0.00000E+00
 -1       420 1.28535E+02 4.00625E+00 0.00000E+00
 -1       421 1.31535E+02 4.00625E+00 0.00000E+00
 -1       422 1.34535E+02 4.00625E+00 0.00000E+00
 -1       423 1.37535E+02 4.00625E+00 0.00000E+00
 -1       424 1.40535E+02 4.00625E+00 0.00000E+00
 -1       425 1.43535E+02 4.00625E+00 0.00000E+00
 -1       426 1.45469E+02 4.21562E+00 0.00000E+00
 -1       427 1.44804E+02 1.18000E+01 0.00000E+00
 -1       428 1.44804E+02 8.85000E+00 0.00000E+00
 -1       429 1.45136E+02 6.53281E+00 0.00000E+00
 -1       430 1.44804E+02 1.47000E+01 0.00000E+00
 -1       431 1.44804E+02 1.76500E+01 0.00000E+00
 -1       432 1.44804E+02 2.06000E+01 0.00000E+00
 -1       433 1.44804E+02 2.35500E+01 0.00000E+00
 -1       434 1.44804E+02 2.65000E+01 0.00000E+00
 -1       435 1.44804E+02 2.94500E+01 0.00000E+00
 -1       436 1.44804E+02 3.23500E+01 0.00000E+00
 -1       437 1.44804E+02 3.53000E+01 0.00000E+00
 -1       438 1.44804E+02 3.82500E+01 0.00000E+00
 -1       439 1.44804E+02 4.12000E+01 0.00000E+00
 -1       440 6.13283E+01 2.14243E+01 0.00000E+00
 -1       441 6.21094E+01 2.55999E+01 0.00000E+00
 -1       442 6.20936E+01 2.34070E+01 0.00000E+00
 -1       443 6.01402E+01 1.94501E+01 0.00000E+00
 -1       444 5.86107E+01 1.83741E+01 0.00000E+00
 -1       445 5.19600E+00 3.82125E+01 0.00000E+00
 -1       446 5.53143E+01 1.63412E+01 0.00000E+00
 -1       447 5.31740E+01 1.57751E+01 0.00000E+00
 -1       448 5.13219E+01 1.57039E+01 0.00000E+00
 -1       449 4.90009E+01 1.65369E+01 0.00000E+00
 -1       450 4.71980E+01 1.75524E+01 0.00000E+00
 -1       451 4.56796E+01 1.86738E+01 0.00000E+00
 -1       452 4.45977E+01 2.04066E+01 0.00000E+00
 -1       453 4.36235E+01 2.20535E+01 0.00000E+00
 -1       454 4.29877E+01 2.43120E+01 0.00000E+00
 -1       455 4.28453E+01 2.62718E+01 0.00000E+00
 -1       456 4.30537E+01 2.82817E+01 0.00000E+00
 -1       457 4.42203E+01 3.03805E+01 0.00000E+00
 -1       458 4.52383E+01 3.19790E+01 0.00000E+00
 -1       459 4.71757E+01 3.36376E+01 0.00000E+00
 -1       460 4.87878E+01 3.43013E+01 0.00000E+00
 -1       461 5.05573E+01 3.51665E+01 0.00000E+00
 -1       462 5.31839E+01 3.55573E+01 0.00000E+00
 -1       463 5.49949E+01 3.46772E+01 0.00000E+00
 -1       464 5.68360E+01 3.42722E+01 0.00000E+00
 -1       465 5.87714E+01 3.28910E+01 0.00000E+00
 -1       466 5.99412E+01 3.13146E+01 0.00000E+00
 -1       467 6.11516E+01 2.96585E+01 0.00000E+00
 -1       468 6.18031E+01 2.77845E+01 0.00000E+00
 -1       469 5.70971E+01 1.71311E+01 0.00000E+00
 -1       470 4.55853E+01 3.36164E+01 0.00000E+00
 -1       471 4.22829E+01 2.28854E+01 0.00000E+00
 -1       472 4.99296E+01 1.49331E+01 0.00000E+00
 -1       473 1.00350E+01 6.60425E+00 0.00000E+00
 -1       474 7.79400E+00 3.08500E+01 0.00000E+00
 -1       475 7.79400E+00 3.38000E+01 0.00000E+00
 -1       476 7.79400E+00 2.49500E+01 0.00000E+00
 -1       477 7.79400E+00 2.20000E+01 0.00000E+00
 -1       478 7.79400E+00 1.91000E+01 0.00000E+00
 -1       479 7.79400E+00 1.61500E+01 0.00000E+00
 -1       480 7.79400E+00 1.32000E+01 0.00000E+00
 -1       481 7.79400E+00 1.02500E+01 0.00000E+00
 -1       482 1.30350E+01 6.60425E+00 0.00000E+00
 -1       483 1.06500E+01 4.22060E+01 0.00000E+00
 -1       484 5.89424E+01 1.64272E+01 0.00000E+00
 -1       485 1.36500E+01 4.22060E+01 0.00000E+00
 -1       486 1.66500E+01 4.22060E+01 0.00000E+00
 -1       487 1.96500E+01 4.22060E+01 0.00000E+00
 -1       488 2.26500E+01 4.22060E+01 0.00000E+00
 -1       489 2.56500E+01 4.22060E+01 0.00000E+00
 -1       490 2.86500E+01 4.22060E+01 0.00000E+00
 -1       491 3.16500E+01 4.22060E+01 0.00000E+00
 -1       492 3.46500E+01 4.22060E+01 0.00000E+00
 -1       493 3.76500E+01 4.22060E+01 0.00000E+00
 -1       494 4.06500E+01 4.22060E+01 0.00000E+00
 -1       495 4.36500E+01 4.22060E+01 0.00000E+00
 -1       496 4.66500E+01 4.22060E+01 0.00000E+00
 -1       497 4.96500E+01 4.22060E+01 0.00000E+00
 -1       498 5.26500E+01 4.22060E+01 0.00000E+00
 -1       499 5.56500E+01 4.22060E+01 0.00000E+00
 -1       500 5.86500E+01 4.22060E+01 0.00000E+00
 -1       501 6.16500E+01 4.22060E+01 0.00000E+00
 -1       502 6.46500E+01 4.22060E+01 0.00000E+00
 -1       503 6.76500E+01 4.22060E+01 0.00000E+00
 -1       504 7.06500E+01 4.22060E+01 0.00000E+00
 -1       505 7.36500E+01 4.22060E+01 0.00000E+00
 -1       506 7.66500E+01 4.22060E+01 0.00000E+00
 -1       507 7.96500E+01 4.22060E+01 0.00000E+00
 -1       508 8.26500E+01 4.22060E+01 0.00000E+00
 -1       509 8.56500E+01 4.22060E+01 0.00000E+00
 -1       510 8.86500E+01 4.22060E+01 0.00000E+00
 -1       511 9.16500E+01 4.22060E+01 0.00000E+00
 -1       512 9.46500E+01 4.22060E+01 0.00000E+00
 -1       513 9.76500E+01 4.22060E+01 0.00000E+00
 -1       514 1.00650E+02 4.22060E+01 0.00000E+00
 -1       515 1.03650E+02 4.22060E+01 0.00000E+00
 -1       516 1.06650E+02 4.22060E+01 0.00000E+00
 -1       517 1.09650E+02 4.22060E+01 0.00000E+00
 -1       518 1.12650E+02 4.22060E+01 0.00000E+00
 -1       519 1.15650E+02 4.22060E+01 0.00000E+00
 -1       520 1.18650E+02 4.22060E+01 0.00000E+00
 -1       521 1.21650E+02 4.22060E+01 0.00000E+00
 -1       522 1.24650E+02 4.22060E+01 0.00000E+00
 -1       523 1.27650E+02 4.22060E+01 0.00000E+00
 -1       524 1.30650E+02 4.22060E+01 0.00000E+00
 -1       525 1.33650E+02 4.22060E+01 0.00000E+00
 -1       526 1.36650E+02 4.22060E+01 0.00000E+00
 -1       527 1.39650E+02 4.22060E+01 0.00000E+00
 -1       528 1.90350E+01 6.60425E+00 0.00000E+00
 -1       529 2.20350E+01 6.60425E+00 0.00000E+00
 -1       530 2.50350E+01 6.60425E+00 0.00000E+00
 -1       531 2.80350E+01 6.60425E+00 0.00000E+00
 -1       532 3.10350E+01 6.60425E+00 0.00000E+00
 -1       533 3.40350E+01 6.60425E+00 0.00000E+00
 -1       534 3.70350E+01 6.60425E+00 0.00000E+00
 -1       535 4.00350E+01 6.60425E+00 0.00000E+00
 -1       536 4.30350E+01 6.60425E+00 0.00000E+00
 -1       537 4.60350E+01 6.60425E+00 0.00000E+00
 -1       538 4.90350E+01 6.60425E+00 0.00000E+00
 -1       539 5.20350E+01 6.60425E+00 0.00000E+00
 -1       540 5.50350E+01 6.60425E+00 0.00000E+00
 -1       541 5.80350E+01 6.60425E+00 0.00000E+00
 -1       542 6.10350E+01 6.60425E+00 0.00000E+00
 -1       543 6.40350E+01 6.60425E+00 0.00000E+00
 -1       544 6.70350E+01 6.60425E+00 0.00000E+00
 -1       545 7.00350E+01 6.60425E+00 0.00000E+00
 -1       546 7.30350E+01 6.60425E+00 0.00000E+00
 -1       547 7.60350E+01 6.60425E+00 0.00000E+00
 -1       548 7.90350E+01 6.60425E+00 0.00000E+00
 -1       549 8.20350E+01 6.60425E+00 0.00000E+00
 -1       550 8.50350E+01 6.60425E+00 0.00000E+00
 -1       551 8.80350E+01 6.60425E+00 0.00000E+00
 -1       552 9.10350E+01 6.60425E+00 0.00000E+00
 -1       553 9.40350E+01 6.60425E+00 0.00000E+00
 -1       554 9.70350E+01 6.60425E+00 0.00000E+00
 -1       555 1.00035E+02 6.60425E+00 0.00000E+00
 -1       556 1.03035E+02 6.60425E+00 0.00000E+00
 -1       557 1.06035E+02 6.60425E+00 0.00000E+00
 -1       558 1.09035E+02 6.60425E+00 0.00000E+00
 -1       559 1.12035E+02 6.60425E+00 0.00000E+00
 -1       560 1.15035E+02 6.60425E+00 0.00000E+00
 -1       561 1.18035E+02 6.60425E+00 0.00000E+00
 -1       562 1.21035E+02 6.60425E+00 0.00000E+00
 -1       563 1.24035E+02 6.60425E+00 0.00000E+00
 -1       564 1.27035E+02 6.60425E+00 0.00000E+00
 -1       565 1.30035E+02 6.60425E+00 0.00000E+00
 -1       566 1.33035E+02 6.60425E+00 0.00000E+00
 -1       567 1.36035E+02 6.60425E+00 0.00000E+00
 -1       568 1.39035E+02 6.60425E+00 0.00000E+00
 -1       569 1.42035E+02 6.60425E+00 0.00000E+00
 -1       570 1.42206E+02 1.61750E+01 0.00000E+00
 -1       571 1.42206E+02 1.91250E+01 0.00000E+00
 -1       572 1.42206E+02 1.03250E+01 0.00000E+00
 -1       573 1.42206E+02 1.32500E+01 0.00000E+00
 -1       574 1.42206E+02 2.20750E+01 0.00000E+00
 -1       575 1.42206E+02 2.50250E+01 0.00000E+00
 -1       576 1.42206E+02 2.79750E+01 0.00000E+00
 -1       577 1.42206E+02 3.08750E+01 0.00000E+00
 -1       578 1.42206E+02 3.38250E+01 0.00000E+00
 -1       579 1.42206E+02 3.67750E+01 0.00000E+00
 -1       580 1.42206E+02 3.97250E+01 0.00000E+00
 -1       581 6.36490E+01 2.44923E+01 0.00000E+00
 -1       582 6.22038E+01 1.95528E+01 0.00000E+00
 -1       583 1.60350E+01 6.60425E+00 0.00000E+00
 -1       584 6.34888E+01 2.69071E+01 0.00000E+00
 -1       585 6.33110E+01 2.17980E+01 0.00000E+00
 -1       586 7.92300E+00 4.16780E+01 0.00000E+00
 -1       587 6.29391E+01 2.92297E+01 0.00000E+00
 -1       588 4.21379E+01 3.01644E+01 0.00000E+00
 -1       589 7.79400E+00 2.79000E+01 0.00000E+00
 -1       590 5.46827E+01 1.44001E+01 0.00000E+00
 -1       591 4.73400E+01 1.56963E+01 0.00000E+00
 -1       592 5.23139E+01 1.40257E+01 0.00000E+00
 -1       593 5.16182E+01 3.70584E+01 0.00000E+00
 -1       594 4.53204E+01 1.65987E+01 0.00000E+00
 -1       595 4.37549E+01 1.86763E+01 0.00000E+00
 -1       596 4.27807E+01 2.03231E+01 0.00000E+00
 -1       597 4.14566E+01 2.51858E+01 0.00000E+00
 -1       598 4.12435E+01 2.74536E+01 0.00000E+00
 -1       599 4.32826E+01 3.21010E+01 0.00000E+00
 -1       600 4.73926E+01 3.54005E+01 0.00000E+00
 -1       601 4.91621E+01 3.62657E+01 0.00000E+00
 -1       602 5.47658E+01 3.65092E+01 0.00000E+00
 -1       603 5.66070E+01 3.61041E+01 0.00000E+00
 -1       604 5.88973E+01 3.51141E+01 0.00000E+00
 -1       605 6.07336E+01 3.31249E+01 0.00000E+00
 -1       606 6.19440E+01 3.14687E+01 0.00000E+00
 -1       607 5.69684E+01 1.50149E+01 0.00000E+00
 -1       608 7.61550E+00 6.21462E+00 0.00000E+00
 -1       609 6.04719E+01 1.75031E+01 0.00000E+00
 -1       610 7.79400E+00 3.67375E+01 0.00000E+00
 -1       611 5.32001E+01 3.80102E+01 0.00000E+00
 -1       612 4.36297E+01 3.37385E+01 0.00000E+00
 -1       613 4.14401E+01 2.11551E+01 0.00000E+00
 -1       614 4.07518E+01 2.37593E+01 0.00000E+00
 -1       615 5.09216E+01 1.32548E+01 0.00000E+00
 -1       616 4.58023E+01 3.53793E+01 0.00000E+00
 -1       617 4.82687E+01 1.40925E+01 0.00000E+00
 -1       618 1.41678E+02 4.22645E+01 0.00000E+00
 -1       619 1.03920E+01 2.05500E+01 0.00000E+00
 -1       620 1.03920E+01 2.35000E+01 0.00000E+00
 -1       621 1.03920E+01 1.46750E+01 0.00000E+00
 -1       622 1.03920E+01 1.17250E+01 0.00000E+00
 -1       623 1.15350E+01 9.20225E+00 0.00000E+00
 -1       624 3.97437E+01 2.94514E+01 0.00000E+00
 -1       625 6.06940E+01 1.55624E+01 0.00000E+00
 -1       626 5.63581E+01 1.27276E+01 0.00000E+00
 -1       627 6.39323E+01 3.10117E+01 0.00000E+00
 -1       628 1.51500E+01 3.96080E+01 0.00000E+00
 -1       629 1.81500E+01 3.96080E+01 0.00000E+00
 -1       630 2.11500E+01 3.96080E+01 0.00000E+00
 -1       631 2.41500E+01 3.96080E+01 0.00000E+00
 -1       632 2.71500E+01 3.96080E+01 0.00000E+00
 -1       633 3.01500E+01 3.96080E+01 0.00000E+00
 -1       634 3.31500E+01 3.96080E+01 0.00000E+00
 -1       635 3.61500E+01 3.96080E+01 0.00000E+00
 -1       636 3.91500E+01 3.96080E+01 0.00000E+00
 -1       637 4.21500E+01 3.96080E+01 0.00000E+00
 -1       638 4.51500E+01 3.96080E+01 0.00000E+00
 -1       639 4.81500E+01 3.96080E+01 0.00000E+00
 -1       640 5.41500E+01 3.96530E+01 0.00000E+00
 -1       641 5.71500E+01 3.96530E+01 0.00000E+00
 -1       642 6.01500E+01 3.96530E+01 0.00000E+00
 -1       643 6.31500E+01 3.96530E+01 0.00000E+00
 -1       644 6.61500E+01 3.96530E+01 0.00000E+00
 -1       645 6.91500E+01 3.96530E+01 0.00000E+00
 -1       646 7.21500E+01 3.96530E+01 0.00000E+00
 -1       647 7.51500E+01 3.96530E+01 0.00000E+00
 -1       648 7.81500E+01 3.96530E+01 0.00000E+00
 -1       649 8.11500E+01 3.96530E+01 0.00000E+00
 -1       650 8.41500E+01 3.96530E+01 0.00000E+00
 -1       651 8.71500E+01 3.96530E+01 0.00000E+00
 -1       652 9.01500E+01 3.96530E+01 0.00000E+00
 -1       653 9.31500E+01 3.96530E+01 0.00000E+00
 -1       654 9.61500E+01 3.96530E+01 0.00000E+00
 -1       655 9.91500E+01 3.96530E+01 0.00000E+00
 -1       656 1.02150E+02 3.96530E+01 0.00000E+00
 -1       657 1.05150E+02 3.96530E+01 0.00000E+00
 -1       658 1.08150E+02 3.96530E+01 0.00000E+00
 -1       659 1.11150E+02 3.96530E+01 0.00000E+00
 -1       660 1.14150E+02 3.96530E+01 0.00000E+00
 -1       661 1.17150E+02 3.96530E+01 0.00000E+00
 -1       662 1.20150E+02 3.96530E+01 0.00000E+00
 -1       663 1.23150E+02 3.96530E+01 0.00000E+00
 -1       664 1.26150E+02 3.96530E+01 0.00000E+00
 -1       665 1.29150E+02 3.96530E+01 0.00000E+00
 -1       666 1.32150E+02 3.96530E+01 0.00000E+00
 -1       667 1.35150E+02 3.96530E+01 0.00000E+00
 -1       668 1.38150E+02 3.96530E+01 0.00000E+00
 -1       669 2.35350E+01 9.20225E+00 0.00000E+00
 -1       670 1.39206E+02 1.03250E+01 0.00000E+00
 -1       671 2.05350E+01 9.20225E+00 0.00000E+00
 -1       672 2.95350E+01 9.20225E+00 0.00000E+00
 -1       673 3.25350E+01 9.20225E+00 0.00000E+00
 -1       674 3.55350E+01 9.20225E+00 0.00000E+00
 -1       675 3.85350E+01 9.20225E+00 0.00000E+00
 -1       676 4.15350E+01 9.20225E+00 0.00000E+00
 -1       677 4.45350E+01 9.20225E+00 0.00000E+00
 -1       678 4.75350E+01 9.20225E+00 0.00000E+00
 -1       679 5.05350E+01 9.20225E+00 0.00000E+00
 -1       680 5.35350E+01 9.20225E+00 0.00000E+00
 -1       681 5.65350E+01 9.20225E+00 0.00000E+00
 -1       682 5.95350E+01 9.20225E+00 0.00000E+00
 -1       683 6.25350E+01 9.20225E+00 0.00000E+00
 -1       684 6.55350E+01 9.20225E+00 0.00000E+00
 -1       685 6.85350E+01 9.20225E+00 0.00000E+00
 -1       686 7.15350E+01 9.20225E+00 0.00000E+00
 -1       687 7.45350E+01 9.20225E+00 0.00000E+00
 -1       688 7.75350E+01 9.20225E+00 0.00000E+00
 -1       689 8.05350E+01 9.20225E+00 0.00000E+00
 -1       690 8.35350E+01 9.20225E+00 0.00000E+00
 -1       691 8.65350E+01 9.20225E+00 0.00000E+00
 -1       692 8.95350E+01 9.20225E+00 0.00000E+00
 -1       693 9.25350E+01 9.20225E+00 0.00000E+00
 -1       694 9.55350E+01 9.20225E+00 0.00000E+00
 -1       695 9.85350E+01 9.20225E+00 0.00000E+00
 -1       696 1.01535E+02 9.20225E+00 0.00000E+00
 -1       697 1.04535E+02 9.20225E+00 0.00000E+00
 -1       698 1.07535E+02 9.20225E+00 0.00000E+00
 -1       699 1.10535E+02 9.20225E+00 0.00000E+00
 -1       700 1.13535E+02 9.20225E+00 0.00000E+00
 -1       701 1.16535E+02 9.20225E+00 0.00000E+00
 -1       702 1.19535E+02 9.20225E+00 0.00000E+00
 -1       703 1.22535E+02 9.20225E+00 0.00000E+00
 -1       704 1.25535E+02 9.20225E+00 0.00000E+00
 -1       705 1.28535E+02 9.20225E+00 0.00000E+00
 -1       706 1.31535E+02 9.20225E+00 0.00000E+00
 -1       707 1.34535E+02 9.20225E+00 0.00000E+00
 -1       708 1.36870E+02 9.76363E+00 0.00000E+00
 -1       709 6.31963E+01 1.69576E+01 0.00000E+00
 -1       710 1.39608E+02 2.35500E+01 0.00000E+00
 -1       711 6.10757E+01 3.52828E+01 0.00000E+00
 -1       712 1.39608E+02 1.76500E+01 0.00000E+00
 -1       713 1.39608E+02 2.65000E+01 0.00000E+00
 -1       714 1.39608E+02 2.06000E+01 0.00000E+00
 -1       715 1.39608E+02 2.94000E+01 0.00000E+00
 -1       716 1.39608E+02 3.23500E+01 0.00000E+00
 -1       717 1.39608E+02 3.53000E+01 0.00000E+00
 -1       718 6.51818E+01 2.29317E+01 0.00000E+00
 -1       719 6.44459E+01 1.98427E+01 0.00000E+00
 -1       720 9.78035E+00 3.93914E+01 0.00000E+00
 -1       721 4.10895E+01 3.20907E+01 0.00000E+00
 -1       722 1.75350E+01 9.20225E+00 0.00000E+00
 -1       723 4.31679E+01 1.66053E+01 0.00000E+00
 -1       724 2.65350E+01 9.20225E+00 0.00000E+00
 -1       725 1.24652E+01 3.94997E+01 0.00000E+00
 -1       726 5.85656E+01 3.74910E+01 0.00000E+00
 -1       727 1.03920E+01 1.76125E+01 0.00000E+00
 -1       728 1.45350E+01 9.20225E+00 0.00000E+00
 -1       729 5.87199E+01 1.41501E+01 0.00000E+00
 -1       730 1.03920E+01 3.23250E+01 0.00000E+00
 -1       731 4.54938E+01 1.42756E+01 0.00000E+00
 -1       732 6.51131E+01 2.58021E+01 0.00000E+00
 -1       733 3.94757E+01 2.61436E+01 0.00000E+00
 -1       734 5.37922E+01 1.23533E+01 0.00000E+00
 -1       735 4.17916E+01 1.86265E+01 0.00000E+00
 -1       736 1.40178E+02 3.96665E+01 0.00000E+00
 -1       737 4.73768E+01 3.76749E+01 0.00000E+00
 -1       738 4.98634E+01 3.82942E+01 0.00000E+00
 -1       739 5.60910E+01 3.81453E+01 0.00000E+00
 -1       740 6.29941E+01 3.35066E+01 0.00000E+00
 -1       741 6.50460E+01 2.85020E+01 0.00000E+00
 -1       742 1.03920E+01 3.52625E+01 0.00000E+00
 -1       743 1.03920E+01 2.64500E+01 0.00000E+00
 -1       744 5.11500E+01 3.96305E+01 0.00000E+00
 -1       745 4.04510E+01 1.94584E+01 0.00000E+00
 -1       746 4.33413E+01 1.42823E+01 0.00000E+00
 -1       747 1.39608E+02 1.47250E+01 0.00000E+00
 -1       748 4.14366E+01 3.37281E+01 0.00000E+00
 -1       749 6.63167E+01 2.09763E+01 0.00000E+00
 -1       750 4.38467E+01 3.55013E+01 0.00000E+00
 -1       751 1.38879E+02 3.74765E+01 0.00000E+00
 -1       752 3.99090E+01 2.20289E+01 0.00000E+00
 -1       753 4.92606E+01 1.24143E+01 0.00000E+00
 -1       754 1.03920E+01 2.93875E+01 0.00000E+00
 -1       755 1.29900E+01 1.32000E+01 0.00000E+00
 -1       756 6.57024E+01 1.75853E+01 0.00000E+00
 -1       757 1.96500E+01 3.70100E+01 0.00000E+00
 -1       758 2.26500E+01 3.70100E+01 0.00000E+00
 -1       759 2.56500E+01 3.70100E+01 0.00000E+00
 -1       760 2.86500E+01 3.70100E+01 0.00000E+00
 -1       761 3.16500E+01 3.70100E+01 0.00000E+00
 -1       762 3.46500E+01 3.70100E+01 0.00000E+00
 -1       763 3.76500E+01 3.70100E+01 0.00000E+00
 -1       764 4.06500E+01 3.70100E+01 0.00000E+00
 -1       765 6.16500E+01 3.72677E+01 0.00000E+00
 -1       766 6.46500E+01 3.72677E+01 0.00000E+00
 -1       767 6.76500E+01 3.72677E+01 0.00000E+00
 -1       768 7.06500E+01 3.72677E+01 0.00000E+00
 -1       769 7.36500E+01 3.72677E+01 0.00000E+00
 -1       770 7.66500E+01 3.72677E+01 0.00000E+00
 -1       771 7.96500E+01 3.72677E+01 0.00000E+00
 -1       772 8.26500E+01 3.72677E+01 0.00000E+00
 -1       773 8.56500E+01 3.72677E+01 0.00000E+00
 -1       774 8.86500E+01 3.72677E+01 0.00000E+00
 -1       775 9.16500E+01 3.72677E+01 0.00000E+00
 -1       776 9.46500E+01 3.72677E+01 0.00000E+00
 -1       777 9.76500E+01 3.72677E+01 0.00000E+00
 -1       778 1.00650E+02 3.72677E+01 0.00000E+00
 -1       779 1.03650E+02 3.72677E+01 0.00000E+00
 -1       780 1.06650E+02 3.72677E+01 0.00000E+00
 -1       781 1.09650E+02 3.72677E+01 0.00000E+00
 -1       782 1.12650E+02 3.72677E+01 0.00000E+00
 -1       783 1.15650E+02 3.72677E+01 0.00000E+00
 -1       784 1.18650E+02 3.72677E+01 0.00000E+00
 -1       785 1.21650E+02 3.72677E+01 0.00000E+00
 -1       786 1.24650E+02 3.72677E+01 0.00000E+00
 -1       787 1.27650E+02 3.72677E+01 0.00000E+00
 -1       788 1.30650E+02 3.72677E+01 0.00000E+00
 -1       789 1.33650E+02 3.72677E+01 0.00000E+00
 -1       790 1.36264E+02 3.73721E+01 0.00000E+00
 -1       791 2.20350E+01 1.18003E+01 0.00000E+00
 -1       792 3.40350E+01 1.18003E+01 0.00000E+00
 -1       793 3.10350E+01 1.18003E+01 0.00000E+00
 -1       794 4.00350E+01 1.18003E+01 0.00000E+00
 -1       795 6.10350E+01 1.18003E+01 0.00000E+00
 -1       796 6.40350E+01 1.18003E+01 0.00000E+00
 -1       797 6.70350E+01 1.18003E+01 0.00000E+00
 -1       798 7.00350E+01 1.18003E+01 0.00000E+00
 -1       799 7.30350E+01 1.18003E+01 0.00000E+00
 -1       800 7.60350E+01 1.18003E+01 0.00000E+00
 -1       801 7.90350E+01 1.18003E+01 0.00000E+00
 -1       802 8.20350E+01 1.18003E+01 0.00000E+00
 -1       803 8.50350E+01 1.18003E+01 0.00000E+00
 -1       804 8.80350E+01 1.18003E+01 0.00000E+00
 -1       805 9.10350E+01 1.18003E+01 0.00000E+00
 -1       806 9.40350E+01 1.18003E+01 0.00000E+00
 -1       807 9.70350E+01 1.18003E+01 0.00000E+00
 -1       808 1.00035E+02 1.18003E+01 0.00000E+00
 -1       809 1.03035E+02 1.18003E+01 0.00000E+00
 -1       810 1.06035E+02 1.18003E+01 0.00000E+00
 -1       811 1.09035E+02 1.18003E+01 0.00000E+00
 -1       812 1.12035E+02 1.18003E+01 0.00000E+00
 -1       813 1.15035E+02 1.18003E+01 0.00000E+00
 -1       814 1.18035E+02 1.18003E+01 0.00000E+00
 -1       815 1.21035E+02 1.18003E+01 0.00000E+00
 -1       816 1.24035E+02 1.18003E+01 0.00000E+00
 -1       817 1.27035E+02 1.18003E+01 0.00000E+00
 -1       818 1.30035E+02 1.18003E+01 0.00000E+00
 -1       819 1.33035E+02 1.18003E+01 0.00000E+00
 -1       820 6.69616E+01 2.71988E+01 0.00000E+00
 -1       821 5.16425E+01 1.19426E+01 0.00000E+00
 -1       822 1.37010E+02 2.79500E+01 0.00000E+00
 -1       823 1.37010E+02 2.50000E+01 0.00000E+00
 -1       824 1.90350E+01 1.18003E+01 0.00000E+00
 -1       825 1.37010E+02 3.09000E+01 0.00000E+00
 -1       826 1.37010E+02 3.38500E+01 0.00000E+00
 -1       827 3.70350E+01 1.18003E+01 0.00000E+00
 -1       828 6.08024E+01 1.33250E+01 0.00000E+00
 -1       829 6.71971E+01 2.44160E+01 0.00000E+00
 -1       830 3.85901E+01 3.17024E+01 0.00000E+00
 -1       831 6.33047E+01 1.47203E+01 0.00000E+00
 -1       832 1.66500E+01 3.70100E+01 0.00000E+00
 -1       833 4.64857E+01 1.25974E+01 0.00000E+00
 -1       834 6.52254E+01 3.29218E+01 0.00000E+00
 -1       835 1.37625E+01 1.12011E+01 0.00000E+00
 -1       836 6.34377E+01 3.50947E+01 0.00000E+00
 -1       837 3.86016E+01 2.41421E+01 0.00000E+00
 -1       838 3.75661E+01 2.79631E+01 0.00000E+00
 -1       839 4.09236E+01 1.65563E+01 0.00000E+00
 -1       840 6.63391E+01 3.04121E+01 0.00000E+00
 -1       841 1.29900E+01 2.20250E+01 0.00000E+00
 -1       842 1.29900E+01 2.49750E+01 0.00000E+00
 -1       843 1.29900E+01 1.61375E+01 0.00000E+00
 -1       844 6.75732E+01 1.87189E+01 0.00000E+00
 -1       845 1.29900E+01 3.37938E+01 0.00000E+00
 -1       846 1.39652E+01 3.69017E+01 0.00000E+00
 -1       847 1.37273E+02 1.41636E+01 0.00000E+00
 -1       848 4.10970E+01 1.42332E+01 0.00000E+00
 -1       849 2.80350E+01 1.18003E+01 0.00000E+00
 -1       850 6.82547E+01 2.91089E+01 0.00000E+00
 -1       851 1.34937E+02 1.36023E+01 0.00000E+00
 -1       852 1.37010E+02 1.91250E+01 0.00000E+00
 -1       853 1.37141E+02 1.66443E+01 0.00000E+00
 -1       854 1.37010E+02 2.20625E+01 0.00000E+00
 -1       855 3.95829E+01 1.73882E+01 0.00000E+00
 -1       856 3.66921E+01 2.59616E+01 0.00000E+00
 -1       857 3.89372E+01 3.33398E+01 0.00000E+00
 -1       858 6.83320E+01 2.24606E+01 0.00000E+00
 -1       859 2.50350E+01 1.18003E+01 0.00000E+00
 -1       860 3.64126E+01 3.02141E+01 0.00000E+00
 -1       861 1.29900E+01 1.90812E+01 0.00000E+00
 -1       862 6.58109E+01 1.53480E+01 0.00000E+00
 -1       863 1.29900E+01 3.08563E+01 0.00000E+00
 -1       864 1.63988E+01 1.15007E+01 0.00000E+00
 -1       865 1.36637E+02 3.56110E+01 0.00000E+00
 -1       866 2.41500E+01 3.44120E+01 0.00000E+00
 -1       867 2.71500E+01 3.44120E+01 0.00000E+00
 -1       868 3.01500E+01 3.44120E+01 0.00000E+00
 -1       869 3.31500E+01 3.44120E+01 0.00000E+00
 -1       870 3.61500E+01 3.44120E+01 0.00000E+00
 -1       871 1.34412E+02 2.94250E+01 0.00000E+00
 -1       872 6.61500E+01 3.48823E+01 0.00000E+00
 -1       873 6.91500E+01 3.48823E+01 0.00000E+00
 -1       874 7.21500E+01 3.48823E+01 0.00000E+00
 -1       875 7.51500E+01 3.48823E+01 0.00000E+00
 -1       876 7.81500E+01 3.48823E+01 0.00000E+00
 -1       877 8.11500E+01 3.48823E+01 0.00000E+00
 -1       878 8.41500E+01 3.48823E+01 0.00000E+00
 -1       879 8.71500E+01 3.48823E+01 0.00000E+00
 -1       880 9.01500E+01 3.48823E+01 0.00000E+00
 -1       881 9.31500E+01 3.48823E+01 0.00000E+00
 -1       882 9.61500E+01 3.48823E+01 0.00000E+00
 -1       883 9.91500E+01 3.48823E+01 0.00000E+00
 -1       884 1.02150E+02 3.48823E+01 0.00000E+00
 -1       885 1.05150E+02 3.48823E+01 0.00000E+00
 -1       886 1.08150E+02 3.48823E+01 0.00000E+00
 -1       887 1.11150E+02 3.48823E+01 0.00000E+00
 -1       888 1.14150E+02 3.48823E+01 0.00000E+00
 -1       889 1.17150E+02 3.48823E+01 0.00000E+00
 -1       890 1.20150E+02 3.48823E+01 0.00000E+00
 -1       891 1.23150E+02 3.48823E+01 0.00000E+00
 -1       892 1.26150E+02 3.48823E+01 0.00000E+00
 -1       893 1.29150E+02 3.48823E+01 0.00000E+00
 -1       894 1.32150E+02 3.48823E+01 0.00000E+00
 -1       895 6.85350E+01 1.43982E+01 0.00000E+00
 -1       896 7.15350E+01 1.43982E+01 0.00000E+00
 -1       897 7.45350E+01 1.43982E+01 0.00000E+00
 -1       898 7.75350E+01 1.43982E+01 0.00000E+00
 -1       899 8.05350E+01 1.43982E+01 0.00000E+00
 -1       900 8.35350E+01 1.43982E+01 0.00000E+00
 -1       901 8.65350E+01 1.43982E+01 0.00000E+00
 -1       902 8.95350E+01 1.43982E+01 0.00000E+00
 -1       903 9.25350E+01 1.43982E+01 0.00000E+00
 -1       904 9.55350E+01 1.43982E+01 0.00000E+00
 -1       905 9.85350E+01 1.43982E+01 0.00000E+00
 -1       906 1.01535E+02 1.43982E+01 0.00000E+00
 -1       907 1.04535E+02 1.43982E+01 0.00000E+00
 -1       908 1.07535E+02 1.43982E+01 0.00000E+00
 -1       909 1.10535E+02 1.43982E+01 0.00000E+00
 -1       910 1.13535E+02 1.43982E+01 0.00000E+00
 -1       911 1.16535E+02 1.43982E+01 0.00000E+00
 -1       912 1.19535E+02 1.43982E+01 0.00000E+00
 -1       913 1.22535E+02 1.43982E+01 0.00000E+00
 -1       914 1.25535E+02 1.43982E+01 0.00000E+00
 -1       915 1.28535E+02 1.43982E+01 0.00000E+00
 -1       916 1.31535E+02 1.43982E+01 0.00000E+00
 -1       917 2.05350E+01 1.43982E+01 0.00000E+00
 -1       918 3.73692E+01 2.19186E+01 0.00000E+00
 -1       919 1.34412E+02 2.64750E+01 0.00000E+00
 -1       920 1.81500E+01 3.44120E+01 0.00000E+00
 -1       921 3.25350E+01 1.43982E+01 0.00000E+00
 -1       922 1.29900E+01 2.79188E+01 0.00000E+00
 -1       923 2.11500E+01 3.44120E+01 0.00000E+00
 -1       924 6.96681E+01 2.60264E+01 0.00000E+00
 -1       925 1.34412E+02 3.23750E+01 0.00000E+00
 -1       926 3.84761E+01 1.96534E+01 0.00000E+00
 -1       927 6.75031E+01 3.24306E+01 0.00000E+00
 -1       928 1.55880E+01 1.46687E+01 0.00000E+00
 -1       929 6.76817E+01 1.64816E+01 0.00000E+00
 -1       930 1.75351E+01 1.43983E+01 0.00000E+00
 -1       931 1.55700E+01 3.41029E+01 0.00000E+00
 -1       932 1.34412E+02 2.35375E+01 0.00000E+00
 -1       933 1.34394E+02 3.52467E+01 0.00000E+00
 -1       934 3.97564E+01 1.50652E+01 0.00000E+00
 -1       935 2.95350E+01 1.43982E+01 0.00000E+00
 -1       936 3.55350E+01 1.43982E+01 0.00000E+00
 -1       937 1.34481E+02 1.77474E+01 0.00000E+00
 -1       938 3.54597E+01 2.37381E+01 0.00000E+00
 -1       939 1.34338E+02 1.55213E+01 0.00000E+00
 -1       940 2.35350E+01 1.43982E+01 0.00000E+00
 -1       941 6.94187E+01 3.11274E+01 0.00000E+00
 -1       942 3.55385E+01 2.82126E+01 0.00000E+00
 -1       943 6.95885E+01 2.02032E+01 0.00000E+00
 -1       944 1.55700E+01 3.11654E+01 0.00000E+00
 -1       945 7.08030E+01 2.40711E+01 0.00000E+00
 -1       946 1.34447E+02 2.06424E+01 0.00000E+00
 -1       947 3.62813E+01 3.23130E+01 0.00000E+00
 -1       948 1.55880E+01 2.05531E+01 0.00000E+00
 -1       949 1.55880E+01 2.35031E+01 0.00000E+00
 -1       950 2.26500E+01 3.18140E+01 0.00000E+00
 -1       951 1.90351E+01 1.69963E+01 0.00000E+00
 -1       952 2.86500E+01 3.18140E+01 0.00000E+00
 -1       953 3.16500E+01 3.18140E+01 0.00000E+00
 -1       954 3.39656E+01 3.20635E+01 0.00000E+00
 -1       955 2.65350E+01 1.43982E+01 0.00000E+00
 -1       956 7.60350E+01 1.69963E+01 0.00000E+00
 -1       957 7.36500E+01 3.22843E+01 0.00000E+00
 -1       958 7.66500E+01 3.22843E+01 0.00000E+00
 -1       959 7.96500E+01 3.22843E+01 0.00000E+00
 -1       960 8.26500E+01 3.22843E+01 0.00000E+00
 -1       961 8.56500E+01 3.22843E+01 0.00000E+00
 -1       962 8.86500E+01 3.22843E+01 0.00000E+00
 -1       963 9.16500E+01 3.22843E+01 0.00000E+00
 -1       964 9.46500E+01 3.22843E+01 0.00000E+00
 -1       965 9.76500E+01 3.22843E+01 0.00000E+00
 -1       966 1.00650E+02 3.22843E+01 0.00000E+00
 -1       967 1.03650E+02 3.22843E+01 0.00000E+00
 -1       968 1.06650E+02 3.22843E+01 0.00000E+00
 -1       969 1.09650E+02 3.22843E+01 0.00000E+00
 -1       970 1.12650E+02 3.22843E+01 0.00000E+00
 -1       971 1.15650E+02 3.22843E+01 0.00000E+00
 -1       972 1.18650E+02 3.22843E+01 0.00000E+00
 -1       973 1.21650E+02 3.22843E+01 0.00000E+00
 -1       974 1.24650E+02 3.22843E+01 0.00000E+00
 -1       975 1.27650E+02 3.22843E+01 0.00000E+00
 -1       976 1.30650E+02 3.22843E+01 0.00000E+00
 -1       977 7.30350E+01 1.69963E+01 0.00000E+00
 -1       978 3.85350E+01 1.43982E+01 0.00000E+00
 -1       979 7.90350E+01 1.69963E+01 0.00000E+00
 -1       980 8.20350E+01 1.69963E+01 0.00000E+00
 -1       981 8.50350E+01 1.69963E+01 0.00000E+00
 -1       982 8.80350E+01 1.69963E+01 0.00000E+00
 -1       983 9.10350E+01 1.69963E+01 0.00000E+00
 -1       984 9.40350E+01 1.69963E+01 0.00000E+00
 -1       985 9.70350E+01 1.69963E+01 0.00000E+00
 -1       986 1.00035E+02 1.69963E+01 0.00000E+00
 -1       987 1.03035E+02 1.69963E+01 0.00000E+00
 -1       988 1.06035E+02 1.69963E+01 0.00000E+00
 -1       989 1.09035E+02 1.69963E+01 0.00000E+00
 -1       990 1.12035E+02 1.69963E+01 0.00000E+00
 -1       991 1.15035E+02 1.69963E+01 0.00000E+00
 -1       992 1.18035E+02 1.69963E+01 0.00000E+00
 -1       993 1.21035E+02 1.69963E+01 0.00000E+00
 -1       994 1.24035E+02 1.69963E+01 0.00000E+00
 -1       995 1.27035E+02 1.69963E+01 0.00000E+00
 -1       996 1.30035E+02 1.69963E+01 0.00000E+00
 -1       997 1.96500E+01 3.18140E+01 0.00000E+00
 -1       998 1.31814E+02 2.79500E+01 0.00000E+00
 -1       999 2.56500E+01 3.18140E+01 0.00000E+00
 -1      1000 1.55880E+01 1.76109E+01 0.00000E+00
 -1      1001 1.76100E+01 3.14897E+01 0.00000E+00
 -1      1002 1.55880E+01 2.64469E+01 0.00000E+00
 -1      1003 7.13230E+01 2.86505E+01 0.00000E+00
 -1      1004 1.73115E+01 1.73036E+01 0.00000E+00
 -1      1005 1.55790E+01 2.88061E+01 0.00000E+00
 -1      1006 7.07843E+01 3.30049E+01 0.00000E+00
 -1      1007 6.96970E+01 1.79659E+01 0.00000E+00
 -1      1008 3.10350E+01 1.69963E+01 0.00000E+00
 -1      1009 7.20595E+01 2.18137E+01 0.00000E+00
 -1      1010 3.43061E+01 2.59891E+01 0.00000E+00
 -1      1011 3.47689E+01 2.11014E+01 0.00000E+00
 -1      1012 2.20351E+01 1.69963E+01 0.00000E+00
 -1      1013 1.31814E+02 2.50125E+01 0.00000E+00
 -1      1014 3.40350E+01 1.69963E+01 0.00000E+00
 -1      1015 7.24579E+01 2.66952E+01 0.00000E+00
 -1      1016 1.81860E+01 2.20281E+01 0.00000E+00
 -1      1017 1.77488E+01 1.96659E+01 0.00000E+00
 -1      1018 3.35942E+01 3.00133E+01 0.00000E+00
 -1      1019 3.71874E+01 1.76207E+01 0.00000E+00
 -1      1020 2.11500E+01 2.92160E+01 0.00000E+00
 -1      1021 7.29266E+01 1.92336E+01 0.00000E+00
 -1      1022 2.71500E+01 2.92160E+01 0.00000E+00
 -1      1023 2.50351E+01 1.69963E+01 0.00000E+00
 -1      1024 8.05350E+01 1.95942E+01 0.00000E+00
 -1      1025 7.51500E+01 2.96863E+01 0.00000E+00
 -1      1026 7.81500E+01 2.96863E+01 0.00000E+00
 -1      1027 8.11500E+01 2.96863E+01 0.00000E+00
 -1      1028 8.41500E+01 2.96863E+01 0.00000E+00
 -1      1029 8.71500E+01 2.96863E+01 0.00000E+00
 -1      1030 9.01500E+01 2.96863E+01 0.00000E+00
 -1      1031 9.31500E+01 2.96863E+01 0.00000E+00
 -1      1032 9.61500E+01 2.96863E+01 0.00000E+00
 -1      1033 9.91500E+01 2.96863E+01 0.00000E+00
 -1      1034 1.02150E+02 2.96863E+01 0.00000E+00
 -1      1035 1.05150E+02 2.96863E+01 0.00000E+00
 -1      1036 1.08150E+02 2.96863E+01 0.00000E+00
 -1      1037 1.11150E+02 2.96863E+01 0.00000E+00
 -1      1038 1.14150E+02 2.96863E+01 0.00000E+00
 -1      1039 1.17150E+02 2.96863E+01 0.00000E+00
 -1      1040 1.20150E+02 2.96863E+01 0.00000E+00
 -1      1041 1.23150E+02 2.96863E+01 0.00000E+00
 -1      1042 1.26150E+02 2.96863E+01 0.00000E+00
 -1      1043 1.28982E+02 2.88181E+01 0.00000E+00
 -1      1044 8.35350E+01 1.95942E+01 0.00000E+00
 -1      1045 7.59266E+01 1.92336E+01 0.00000E+00
 -1      1046 7.82308E+01 1.94139E+01 0.00000E+00
 -1      1047 8.65350E+01 1.95942E+01 0.00000E+00
 -1      1048 8.95350E+01 1.95942E+01 0.00000E+00
 -1      1049 9.25350E+01 1.95942E+01 0.00000E+00
 -1      1050 9.55350E+01 1.95942E+01 0.00000E+00
 -1      1051 9.85350E+01 1.95942E+01 0.00000E+00
 -1      1052 1.01535E+02 1.95942E+01 0.00000E+00
 -1      1053 1.04535E+02 1.95942E+01 0.00000E+00
 -1      1054 1.07535E+02 1.95942E+01 0.00000E+00
 -1      1055 1.10535E+02 1.95942E+01 0.00000E+00
 -1      1056 1.13535E+02 1.95942E+01 0.00000E+00
 -1      1057 1.16535E+02 1.95942E+01 0.00000E+00
 -1      1058 1.19535E+02 1.95942E+01 0.00000E+00
 -1      1059 1.22535E+02 1.95942E+01 0.00000E+00
 -1      1060 1.25535E+02 1.95942E+01 0.00000E+00
 -1      1061 1.28535E+02 1.95942E+01 0.00000E+00
 -1      1062 2.41500E+01 2.92160E+01 0.00000E+00
 -1      1063 3.26447E+01 2.30668E+01 0.00000E+00
 -1      1064 7.22843E+01 3.04069E+01 0.00000E+00
 -1      1065 1.31849E+02 2.21174E+01 0.00000E+00
 -1      1066 1.31866E+02 1.91638E+01 0.00000E+00
 -1      1067 1.81860E+01 2.49719E+01 0.00000E+00
 -1      1068 3.01500E+01 2.92160E+01 0.00000E+00
 -1      1069 2.80350E+01 1.69963E+01 0.00000E+00
 -1      1070 1.91100E+01 2.88917E+01 0.00000E+00
 -1      1071 1.28982E+02 2.58806E+01 0.00000E+00
 -1      1072 3.18399E+01 2.00315E+01 0.00000E+00
 -1      1073 7.37144E+01 2.44378E+01 0.00000E+00
 -1      1074 2.07840E+01 2.35000E+01 0.00000E+00
 -1      1075 3.23619E+01 2.77898E+01 0.00000E+00
 -1      1076 2.88399E+01 2.00315E+01 0.00000E+00
 -1      1077 2.07656E+01 2.05036E+01 0.00000E+00
 -1      1078 7.38039E+01 2.81907E+01 0.00000E+00
 -1      1079 2.56500E+01 2.66180E+01 0.00000E+00
 -1      1080 2.37656E+01 2.05036E+01 0.00000E+00
 -1      1081 7.50595E+01 2.18137E+01 0.00000E+00
 -1      1082 2.96447E+01 2.30668E+01 0.00000E+00
 -1      1083 8.20350E+01 2.21922E+01 0.00000E+00
 -1      1084 7.96500E+01 2.70883E+01 0.00000E+00
 -1      1085 8.26500E+01 2.70883E+01 0.00000E+00
 -1      1086 8.56500E+01 2.70883E+01 0.00000E+00
 -1      1087 8.86500E+01 2.70883E+01 0.00000E+00
 -1      1088 9.16500E+01 2.70883E+01 0.00000E+00
 -1      1089 9.46500E+01 2.70883E+01 0.00000E+00
 -1      1090 9.76500E+01 2.70883E+01 0.00000E+00
 -1      1091 1.00650E+02 2.70883E+01 0.00000E+00
 -1      1092 1.03650E+02 2.70883E+01 0.00000E+00
 -1      1093 1.06650E+02 2.70883E+01 0.00000E+00
 -1      1094 1.09650E+02 2.70883E+01 0.00000E+00
 -1      1095 1.12650E+02 2.70883E+01 0.00000E+00
 -1      1096 1.15650E+02 2.70883E+01 0.00000E+00
 -1      1097 1.18650E+02 2.70883E+01 0.00000E+00
 -1      1098 1.21650E+02 2.70883E+01 0.00000E+00
 -1      1099 1.24650E+02 2.70883E+01 0.00000E+00
 -1      1100 1.26816E+02 2.64845E+01 0.00000E+00
 -1      1101 9.10350E+01 2.21922E+01 0.00000E+00
 -1      1102 9.40350E+01 2.21922E+01 0.00000E+00
 -1      1103 9.70350E+01 2.21922E+01 0.00000E+00
 -1      1104 1.00035E+02 2.21922E+01 0.00000E+00
 -1      1105 1.03035E+02 2.21922E+01 0.00000E+00
 -1      1106 1.06035E+02 2.21922E+01 0.00000E+00
 -1      1107 1.09035E+02 2.21922E+01 0.00000E+00
 -1      1108 1.12035E+02 2.21922E+01 0.00000E+00
 -1      1109 1.15035E+02 2.21922E+01 0.00000E+00
 -1      1110 1.18035E+02 2.21922E+01 0.00000E+00
 -1      1111 1.21035E+02 2.21922E+01 0.00000E+00
 -1      1112 1.24035E+02 2.21922E+01 0.00000E+00
 -1      1113 1.27035E+02 2.21922E+01 0.00000E+00
 -1      1114 2.11680E+01 2.70939E+01 0.00000E+00
 -1      1115 8.50350E+01 2.21922E+01 0.00000E+00
 -1      1116 7.66500E+01 2.70883E+01 0.00000E+00
 -1      1117 2.63028E+01 2.02676E+01 0.00000E+00
 -1      1118 3.10033E+01 2.54283E+01 0.00000E+00
 -1      1119 1.29424E+02 2.36024E+01 0.00000E+00
 -1      1120 8.80350E+01 2.21922E+01 0.00000E+00
 -1      1121 2.86500E+01 2.66180E+01 0.00000E+00
 -1      1122 7.73638E+01 2.19940E+01 0.00000E+00
 -1      1123 7.97308E+01 2.20119E+01 0.00000E+00
 -1      1124 2.41496E+01 2.40976E+01 0.00000E+00
 -1      1125 7.53039E+01 2.55927E+01 0.00000E+00
 -1      1126 8.11500E+01 2.44903E+01 0.00000E+00
 -1      1127 9.55350E+01 2.47903E+01 0.00000E+00
 -1      1128 7.82270E+01 2.50415E+01 0.00000E+00
 -1      1129 9.91500E+01 2.44903E+01 0.00000E+00
 -1      1130 2.71076E+01 2.33028E+01 0.00000E+00
 -1      1131 7.66374E+01 2.38865E+01 0.00000E+00
 -1      1132 0.00000E+00 4.85250E+01 0.00000E+00
 -1      1133 0.00000E+00 4.55750E+01 0.00000E+00
 -1      1134 0.00000E+00 4.26250E+01 0.00000E+00
 -1      1135 0.00000E+00 3.96750E+01 0.00000E+00
 -1      1136 0.00000E+00 3.67250E+01 0.00000E+00
 -1      1137 0.00000E+00 3.38000E+01 0.00000E+00
 -1      1138 0.00000E+00 3.08750E+01 0.00000E+00
 -1      1139 0.00000E+00 2.79250E+01 0.00000E+00
 -1      1140 0.00000E+00 2.49750E+01 0.00000E+00
 -1      1141 0.00000E+00 2.20250E+01 0.00000E+00
 -1      1142 0.00000E+00 1.90750E+01 0.00000E+00
 -1      1143 0.00000E+00 1.61500E+01 0.00000E+00
 -1      1144 0.00000E+00 1.32250E+01 0.00000E+00
 -1      1145 0.00000E+00 1.02750E+01 0.00000E+00
 -1      1146 0.00000E+00 7.32500E+00 0.00000E+00
 -1      1147 0.00000E+00 4.37500E+00 0.00000E+00
 -1      1148 0.00000E+00 1.45000E+00 0.00000E+00
 -1      1149 1.57500E+00 5.00000E+01 0.00000E+00
 -1      1150 4.65000E+00 5.00000E+01 0.00000E+00
 -1      1151 7.65000E+00 5.00000E+01 0.00000E+00
 -1      1152 1.06500E+01 5.00000E+01 0.00000E+00
 -1      1153 1.36500E+01 5.00000E+01 0.00000E+00
 -1      1154 1.66500E+01 5.00000E+01 0.00000E+00
 -1      1155 1.96500E+01 5.00000E+01 0.00000E+00
 -1      1156 2.26500E+01 5.00000E+01 0.00000E+00
 -1      1157 2.56500E+01 5.00000E+01 0.00000E+00
 -1      1158 2.86500E+01 5.00000E+01 0.00000E+00
 -1      1159 3.16500E+01 5.00000E+01 0.00000E+00
 -1      1160 3.46500E+01 5.00000E+01 0.00000E+00
 -1      1161 3.76500E+01 5.00000E+01 0.00000E+00
 -1      1162 4.06500E+01 5.00000E+01 0.00000E+00
 -1      1163 4.36500E+01 5.00000E+01 0.00000E+00
 -1      1164 4.66500E+01 5.00000E+01 0.00000E+00
 -1      1165 4.96500E+01 5.00000E+01 0.00000E+00
 -1      1166 5.26500E+01 5.00000E+01 0.00000E+00
 -1      1167 5.56500E+01 5.00000E+01 0.00000E+00
 -1      1168 5.86500E+01 5.00000E+01 0.00000E+00
 -1      1169 6.16500E+01 5.00000E+01 0.00000E+00
 -1      1170 6.46500E+01 5.00000E+01 0.00000E+00
 -1      1171 6.76500E+01 5.00000E+01 0.00000E+00
 -1      1172 7.06500E+01 5.00000E+01 0.00000E+00
 -1      1173 7.36500E+01 5.00000E+01 0.00000E+00
 -1      1174 7.66500E+01 5.00000E+01 0.00000E+00
 -1      1175 7.96500E+01 5.00000E+01 0.00000E+00
 -1      1176 8.26500E+01 5.00000E+01 0.00000E+00
 -1      1177 8.56500E+01 5.00000E+01 0.00000E+00
 -1      1178 8.86500E+01 5.00000E+01 0.00000E+00
 -1      1179 9.16500E+01 5.00000E+01 0.00000E+00
 -1      1180 9.46500E+01 5.00000E+01 0.00000E+00
 -1      1181 9.76500E+01 5.00000E+01 0.00000E+00
 -1      1182 1.00650E+02 5.00000E+01 0.00000E+00
 -1      1183 1.03650E+02 5.00000E+01 0.00000E+00
 -1      1184 1.06650E+02 5.00000E+01 0.00000E+00
 -1      1185 1.09650E+02 5.00000E+01 0.00000E+00
 -1      1186 1.12650E+02 5.00000E+01 0.00000E+00
 -1      1187 1.15650E+02 5.00000E+01 0.00000E+00
 -1      1188 1.18650E+02 5.00000E+01 0.00000E+00
 -1      1189 1.21650E+02 5.00000E+01 0.00000E+00
 -1      1190 1.24650E+02 5.00000E+01 0.00000E+00
 -1      1191 1.27650E+02 5.00000E+01 0.00000E+00
 -1      1192 1.30650E+02 5.00000E+01 0.00000E+00
 -1      1193 1.33650E+02 5.00000E+01 0.00000E+00
 -1      1194 1.36650E+02 5.00000E+01 0.00000E+00
 -1      1195 1.39650E+02 5.00000E+01 0.00000E+00
 -1      1196 1.42650E+02 5.00000E+01 0.00000E+00
 -1      1197 1.45650E+02 5.00000E+01 0.00000E+00
 -1      1198 1.48575E+02 5.00000E+01 0.00000E+00
 -1      1199 1.57500E+00 0.00000E+00 0.00000E+00
 -1      1200 4.65000E+00 0.00000E+00 0.00000E+00
 -1      1201 7.65000E+00 0.00000E+00 0.00000E+00
 -1      1202 1.06500E+01 0.00000E+00 0.00000E+00
 -1      1203 1.36500E+01 0.00000E+00 0.00000E+00
 -1      1204 1.66500E+01 0.00000E+00 0.00000E+00
 -1      1205 1.96500E+01 0.00000E+00 0.00000E+00
 -1      1206 2.26500E+01 0.00000E+00 0.00000E+00
 -1      1207 2.56500E+01 0.00000E+00 0.00000E+00
 -1      1208 2.86500E+01 0.00000E+00 0.00000E+00
 -1      1209 3.16500E+01 0.00000E+00 0.00000E+00
 -1      1210 3.46500E+01 0.00000E+00 0.00000E+00
 -1      1211 3.76500E+01 0.00000E+00 0.00000E+00
 -1      1212 4.06500E+01 0.00000E+00 0.00000E+00
 -1      1213 4.36500E+01 0.00000E+00 0.00000E+00
 -1      1214 4.66500E+01 0.00000E+00 0.00000E+00
 -1      1215 4.96500E+01 0.00000E+00 0.00000E+00
 -1      1216 5.26500E+01 0.00000E+00 0.00000E+00
 -1      1217 5.56500E+01 0.00000E+00 0.00000E+00
 -1      1218 5.86500E+01 0.00000E+00 0.00000E+00
 -1      1219 6.16500E+01 0.00000E+00 0.00000E+00
 -1      1220 6.46500E+01 0.00000E+00 0.00000E+00
 -1      1221 6.76500E+01 0.00000E+00 0.00000E+00
 -1      1222 7.06500E+01 0.00000E+00 0.00000E+00
 -1      1223 7.36500E+01 0.00000E+00 0.00000E+00
 -1      1224 7.66500E+01 0.00000E+00 0.00000E+00
 -1      1225 7.96500E+01 0.00000E+00 0.00000E+00
 -1      1226 8.26500E+01 0.00000E+00 0.00000E+00
 -1      1227 8.56500E+01 0.00000E+00 0.00000E+00
 -1      1228 8.86500E+01 0.00000E+00 0.00000E+00
 -1      1229 9.16500E+01 0.00000E+00 0.00000E+00
 -1      1230 9.46500E+01 0.00000E+00 0.00000E+00
 -1      1231 9.76500E+01 0.00000E+00 0.00000E+00
 -1      1232 1.00650E+02 0.00000E+00 0.00000E+00
 -1      1233 1.03650E+02 0.00000E+00 0.00000E+00
 -1      1234 1.06650E+02 0.00000E+00 0.00000E+00
 -1      1235 1.09650E+02 0.00000E+00 0.00000E+00
 -1      1236 1.12650E+02 0.00000E+00 0.00000E+00
 -1      1237 1.15650E+02 0.00000E+00 0.00000E+00
 -1      1238 1.18650E+02 0.00000E+00 0.00000E+00
 -1      1239 1.21650E+02 0.00000E+00 0.00000E+00
 -1      1240 1.24650E+02 0.00000E+00 0.00000E+00
 -1      1241 1.27650E+02 0.00000E+00 0.00000E+00
 -1      1242 1.30650E+02 0.00000E+00 0.00000E+00
 -1      1243 1.33650E+02 0.00000E+00 0.00000E+00
 -1      1244 1.36650E+02 0.00000E+00 0.00000E+00
 -1      1245 1.39650E+02 0.00000E+00 0.00000E+00
 -1      1246 1.42650E+02 0.00000E+00 0.00000E+00
 -1      1247 1.45650E+02 0.00000E+00 0.00000E+00
 -1      1248 1.48575E+02 0.00000E+00 0.00000E+00
 -1      1249 1.50000E+02 1.47500E+00 0.00000E+00
 -1      1250 1.50000E+02 4.42500E+00 0.00000E+00
 -1      1251 1.50000E+02 7.37500E+00 0.00000E+00
 -1      1252 1.50000E+02 1.03250E+01 0.00000E+00
 -1      1253 1.50000E+02 1.32750E+01 0.00000E+00
 -1      1254 1.50000E+02 1.62000E+01 0.00000E+00
 -1      1255 1.50000E+02 1.91250E+01 0.00000E+00
 -1      1256 1.50000E+02 2.20750E+01 0.00000E+00
 -1      1257 1.50000E+02 2.50250E+01 0.00000E+00
 -1      1258 1.50000E+02 2.79750E+01 0.00000E+00
 -1      1259 1.50000E+02 3.09250E+01 0.00000E+00
 -1      1260 1.50000E+02 3.38500E+01 0.00000E+00
 -1      1261 1.50000E+02 3.67750E+01 0.00000E+00
 -1      1262 1.50000E+02 3.97250E+01 0.00000E+00
 -1      1263 1.50000E+02 4.26750E+01 0.00000E+00
 -1      1264 1.50000E+02 4.56250E+01 0.00000E+00
 -1      1265 1.50000E+02 4.85500E+01 0.00000E+00
 -1      1266 5.94459E+01 2.47594E+01 0.00000E+00
 -1      1267 5.91191E+01 2.32986E+01 0.00000E+00
 -1      1268 5.84785E+01 2.19227E+01 0.00000E+00
 -1      1269 5.75512E+01 2.07119E+01 0.00000E+00
 -1      1270 5.64683E+01 1.97881E+01 0.00000E+00
 -1      1271 5.52013E+01 1.90943E+01 0.00000E+00
 -1      1272 5.37733E+01 1.86666E+01 0.00000E+00
 -1      1273 5.22805E+01 1.85512E+01 0.00000E+00
 -1      1274 5.07639E+01 1.87643E+01 0.00000E+00
 -1      1275 4.93321E+01 1.93010E+01 0.00000E+00
 -1      1276 4.81121E+01 2.00863E+01 0.00000E+00
 -1      1277 4.70730E+01 2.11151E+01 0.00000E+00
 -1      1278 4.62466E+01 2.23836E+01 0.00000E+00
 -1      1279 4.57048E+01 2.38288E+01 0.00000E+00
 -1      1280 4.54942E+01 2.53183E+01 0.00000E+00
 -1      1281 4.56057E+01 2.68130E+01 0.00000E+00
 -1      1282 4.60641E+01 2.83233E+01 0.00000E+00
 -1      1283 4.68275E+01 2.96629E+01 0.00000E+00
 -1      1284 4.78734E+01 3.08095E+01 0.00000E+00
 -1      1285 4.91407E+01 3.16945E+01 0.00000E+00
 -1      1286 5.05206E+01 3.22652E+01 0.00000E+00
 -1      1287 5.20658E+01 3.25352E+01 0.00000E+00
 -1      1288 5.35856E+01 3.24619E+01 0.00000E+00
 -1      1289 5.49923E+01 3.20857E+01 0.00000E+00
 -1      1290 5.63568E+01 3.13834E+01 0.00000E+00
 -1      1291 5.75362E+01 3.03999E+01 0.00000E+00
 -1      1292 5.84522E+01 2.92165E+01 0.00000E+00
 -1      1293 5.91018E+01 2.78480E+01 0.00000E+00
 -1      1294 5.94459E+01 2.63359E+01 0.00000E+00
 -1      1295 1.57500E+00 4.85250E+01 0.00000E+00
 -1      1296 1.29900E+00 4.48375E+01 0.00000E+00
 -1      1297 1.29900E+00 4.63125E+01 0.00000E+00
 -1      1298 1.29900E+00 4.18875E+01 0.00000E+00
 -1      1299 1.29900E+00 4.33625E+01 0.00000E+00
 -1      1300 2.59800E+00 4.41000E+01 0.00000E+00
 -1      1301 1.29900E+00 3.89375E+01 0.00000E+00
 -1      1302 1.29900E+00 4.04125E+01 0.00000E+00
 -1      1303 2.59800E+00 4.11500E+01 0.00000E+00
 -1      1304 1.29900E+00 3.59875E+01 0.00000E+00
 -1      1305 1.29900E+00 3.74625E+01 0.00000E+00
 -1      1306 2.59800E+00 3.82000E+01 0.00000E+00
 -1      1307 1.29900E+00 3.30875E+01 0.00000E+00
 -1      1308 1.29900E+00 3.45375E+01 0.00000E+00
 -1      1309 2.59800E+00 3.52750E+01 0.00000E+00
 -1      1310 1.29900E+00 3.01375E+01 0.00000E+00
 -1      1311 1.29900E+00 3.16125E+01 0.00000E+00
 -1      1312 2.59800E+00 3.23500E+01 0.00000E+00
 -1      1313 1.29900E+00 2.71875E+01 0.00000E+00
 -1      1314 1.29900E+00 2.86625E+01 0.00000E+00
 -1      1315 2.59800E+00 2.94000E+01 0.00000E+00
 -1      1316 1.29900E+00 2.42375E+01 0.00000E+00
 -1      1317 1.29900E+00 2.57125E+01 0.00000E+00
 -1      1318 2.59800E+00 2.64500E+01 0.00000E+00
 -1      1319 1.29900E+00 2.12875E+01 0.00000E+00
 -1      1320 1.29900E+00 2.27625E+01 0.00000E+00
 -1      1321 2.59800E+00 2.35000E+01 0.00000E+00
 -1      1322 1.29900E+00 1.83375E+01 0.00000E+00
 -1      1323 1.29900E+00 1.98125E+01 0.00000E+00
 -1      1324 2.59800E+00 2.05500E+01 0.00000E+00
 -1      1325 1.29900E+00 1.54375E+01 0.00000E+00
 -1      1326 1.29900E+00 1.68875E+01 0.00000E+00
 -1      1327 2.59800E+00 1.76250E+01 0.00000E+00
 -1      1328 1.29900E+00 1.24875E+01 0.00000E+00
 -1      1329 1.29900E+00 1.39625E+01 0.00000E+00
 -1      1330 2.59800E+00 1.47000E+01 0.00000E+00
 -1      1331 1.29900E+00 9.53750E+00 0.00000E+00
 -1      1332 1.29900E+00 1.10125E+01 0.00000E+00
 -1      1333 2.59800E+00 1.17500E+01 0.00000E+00
 -1      1334 1.29900E+00 6.58750E+00 0.00000E+00
 -1      1335 1.29900E+00 8.06250E+00 0.00000E+00
 -1      1336 2.59800E+00 8.80000E+00 0.00000E+00
 -1      1337 1.29900E+00 3.63750E+00 0.00000E+00
 -1      1338 1.29900E+00 5.11250E+00 0.00000E+00
 -1      1339 2.59800E+00 5.85000E+00 0.00000E+00
 -1      1340 1.43700E+00 1.09375E+00 0.00000E+00
 -1      1341 1.43700E+00 2.54375E+00 0.00000E+00
 -1      1342 2.73600E+00 3.28125E+00 0.00000E+00
 -1      1343 3.01200E+00 1.09375E+00 0.00000E+00
 -1      1344 3.90000E+00 4.87010E+01 0.00000E+00
 -1      1345 5.40000E+00 4.87010E+01 0.00000E+00
 -1      1346 6.90000E+00 4.87010E+01 0.00000E+00
 -1      1347 8.40000E+00 4.87010E+01 0.00000E+00
 -1      1348 6.15000E+00 4.74020E+01 0.00000E+00
 -1      1349 9.90000E+00 4.87010E+01 0.00000E+00
 -1      1350 1.14000E+01 4.87010E+01 0.00000E+00
 -1      1351 9.15000E+00 4.74020E+01 0.00000E+00
 -1      1352 1.29000E+01 4.87010E+01 0.00000E+00
 -1      1353 1.44000E+01 4.87010E+01 0.00000E+00
 -1      1354 1.21500E+01 4.74020E+01 0.00000E+00
 -1      1355 1.59000E+01 4.87010E+01 0.00000E+00
 -1      1356 1.74000E+01 4.87010E+01 0.00000E+00
 -1      1357 1.51500E+01 4.74020E+01 0.00000E+00
 -1      1358 1.89000E+01 4.87010E+01 0.00000E+00
 -1      1359 2.04000E+01 4.87010E+01 0.00000E+00
 -1      1360 1.81500E+01 4.74020E+01 0.00000E+00
 -1      1361 2.19000E+01 4.87010E+01 0.00000E+00
 -1      1362 2.34000E+01 4.87010E+01 0.00000E+00
 -1      1363 2.11500E+01 4.74020E+01 0.00000E+00
 -1      1364 2.49000E+01 4.87010E+01 0.00000E+00
 -1      1365 2.64000E+01 4.87010E+01 0.00000E+00
 -1      1366 2.41500E+01 4.74020E+01 0.00000E+00
 -1      1367 2.79000E+01 4.87010E+01 0.00000E+00
 -1      1368 2.94000E+01 4.87010E+01 0.00000E+00
 -1      1369 2.71500E+01 4.74020E+01 0.00000E+00
 -1      1370 3.09000E+01 4.87010E+01 0.00000E+00
 -1      1371 3.24000E+01 4.87010E+01 0.00000E+00
 -1      1372 3.01500E+01 4.74020E+01 0.00000E+00
 -1      1373 3.39000E+01 4.87010E+01 0.00000E+00
 -1      1374 3.54000E+01 4.87010E+01 0.00000E+00
 -1      1375 3.31500E+01 4.74020E+01 0.00000E+00
 -1      1376 3.69000E+01 4.87010E+01 0.00000E+00
 -1      1377 3.84000E+01 4.87010E+01 0.00000E+00
 -1      1378 3.61500E+01 4.74020E+01 0.00000E+00
 -1      1379 3.99000E+01 4.87010E+01 0.00000E+00
 -1      1380 4.14000E+01 4.87010E+01 0.00000E+00
 -1      1381 3.91500E+01 4.74020E+01 0.00000E+00
 -1      1382 4.29000E+01 4.87010E+01 0.00000E+00
 -1      1383 4.44000E+01 4.87010E+01 0.00000E+00
 -1      1384 4.21500E+01 4.74020E+01 0.00000E+00
 -1      1385 4.59000E+01 4.87010E+01 0.00000E+00
 -1      1386 4.74000E+01 4.87010E+01 0.00000E+00
 -1      1387 4.51500E+01 4.74020E+01 0.00000E+00
 -1      1388 4.89000E+01 4.87010E+01 0.00000E+00
 -1      1389 5.04000E+01 4.87010E+01 0.00000E+00
 -1      1390 4.81500E+01 4.74020E+01 0.00000E+00
 -1      1391 5.19000E+01 4.87010E+01 0.00000E+00
 -1      1392 5.34000E+01 4.87010E+01 0.00000E+00
 -1      1393 5.11500E+01 4.74020E+01 0.00000E+00
 -1      1394 5.49000E+01 4.87010E+01 0.00000E+00
 -1      1395 5.64000E+01 4.87010E+01 0.00000E+00
 -1      1396 5.41500E+01 4.74020E+01 0.00000E+00
 -1      1397 5.79000E+01 4.87010E+01 0.00000E+00
 -1      1398 5.94000E+01 4.87010E+01 0.00000E+00
 -1      1399 5.71500E+01 4.74020E+01 0.00000E+00
 -1      1400 6.09000E+01 4.87010E+01 0.00000E+00
 -1      1401 6.24000E+01 4.87010E+01 0.00000E+00
 -1      1402 6.01500E+01 4.74020E+01 0.00000E+00
 -1      1403 6.39000E+01 4.87010E+01 0.00000E+00
 -1      1404 6.54000E+01 4.87010E+01 0.00000E+00
 -1      1405 6.31500E+01 4.74020E+01 0.00000E+00
 -1      1406 6.69000E+01 4.87010E+01 0.00000E+00
 -1      1407 6.84000E+01 4.87010E+01 0.00000E+00
 -1      1408 6.61500E+01 4.74020E+01 0.00000E+00
 -1      1409 6.99000E+01 4.87010E+01 0.00000E+00
 -1      1410 7.14000E+01 4.87010E+01 0.00000E+00
 -1      1411 6.91500E+01 4.74020E+01 0.00000E+00
 -1      1412 7.29000E+01 4.87010E+01 0.00000E+00
 -1      1413 7.44000E+01 4.87010E+01 0.00000E+00
 -1      1414 7.21500E+01 4.74020E+01 0.00000E+00
 -1      1415 7.59000E+01 4.87010E+01 0.00000E+00
 -1      1416 7.74000E+01 4.87010E+01 0.00000E+00
 -1      1417 7.51500E+01 4.74020E+01 0.00000E+00
 -1      1418 7.89000E+01 4.87010E+01 0.00000E+00
 -1      1419 8.04000E+01 4.87010E+01 0.00000E+00
 -1      1420 7.81500E+01 4.74020E+01 0.00000E+00
 -1      1421 8.19000E+01 4.87010E+01 0.00000E+00
 -1      1422 8.34000E+01 4.87010E+01 0.00000E+00
 -1      1423 8.11500E+01 4.74020E+01 0.00000E+00
 -1      1424 8.49000E+01 4.87010E+01 0.00000E+00
 -1      1425 8.64000E+01 4.87010E+01 0.00000E+00
 -1      1426 8.41500E+01 4.74020E+01 0.00000E+00
 -1      1427 8.79000E+01 4.87010E+01 0.00000E+00
 -1      1428 8.94000E+01 4.87010E+01 0.00000E+00
 -1      1429 8.71500E+01 4.74020E+01 0.00000E+00
 -1      1430 9.09000E+01 4.87010E+01 0.00000E+00
 -1      1431 9.24000E+01 4.87010E+01 0.00000E+00
 -1      1432 9.01500E+01 4.74020E+01 0.00000E+00
 -1      1433 9.39000E+01 4.87010E+01 0.00000E+00
 -1      1434 9.54000E+01 4.87010E+01 0.00000E+00
 -1      1435 9.31500E+01 4.74020E+01 0.00000E+00
 -1      1436 9.69000E+01 4.87010E+01 0.00000E+00
 -1      1437 9.84000E+01 4.87010E+01 0.00000E+00
 -1      1438 9.61500E+01 4.74020E+01 0.00000E+00
 -1      1439 9.99000E+01 4.87010E+01 0.00000E+00
 -1      1440 1.01400E+02 4.87010E+01 0.00000E+00
 -1      1441 9.91500E+01 4.74020E+01 0.00000E+00
 -1      1442 1.02900E+02 4.87010E+01 0.00000E+00
 -1      1443 1.04400E+02 4.87010E+01 0.00000E+00
 -1      1444 1.02150E+02 4.74020E+01 0.00000E+00
 -1      1445 1.05900E+02 4.87010E+01 0.00000E+00
 -1      1446 1.07400E+02 4.87010E+01 0.00000E+00
 -1      1447 1.05150E+02 4.74020E+01 0.00000E+00
 -1      1448 1.08900E+02 4.87010E+01 0.00000E+00
 -1      1449 1.10400E+02 4.87010E+01 0.00000E+00
 -1      1450 1.08150E+02 4.74020E+01 0.00000E+00
 -1      1451 1.11900E+02 4.87010E+01 0.00000E+00
 -1      1452 1.13400E+02 4.87010E+01 0.00000E+00
 -1      1453 1.11150E+02 4.74020E+01 0.00000E+00
 -1      1454 1.14900E+02 4.87010E+01 0.00000E+00
 -1      1455 1.16400E+02 4.87010E+01 0.00000E+00
 -1      1456 1.14150E+02 4.74020E+01 0.00000E+00
 -1      1457 1.17900E+02 4.87010E+01 0.00000E+00
 -1      1458 1.19400E+02 4.87010E+01 0.00000E+00
 -1      1459 1.17150E+02 4.74020E+01 0.00000E+00
 -1      1460 1.20900E+02 4.87010E+01 0.00000E+00
 -1      1461 1.22400E+02 4.87010E+01 0.00000E+00
 -1      1462 1.20150E+02 4.74020E+01 0.00000E+00
 -1      1463 1.23900E+02 4.87010E+01 0.00000E+00
 -1      1464 1.25400E+02 4.87010E+01 0.00000E+00
 -1      1465 1.23150E+02 4.74020E+01 0.00000E+00
 -1      1466 1.26900E+02 4.87010E+01 0.00000E+00
 -1      1467 1.28400E+02 4.87010E+01 0.00000E+00
 -1      1468 1.26150E+02 4.74020E+01 0.00000E+00
 -1      1469 1.29900E+02 4.87010E+01 0.00000E+00
 -1      1470 1.31400E+02 4.87010E+01 0.00000E+00
 -1      1471 1.29150E+02 4.74020E+01 0.00000E+00
 -1      1472 1.32900E+02 4.87010E+01 0.00000E+00
 -1      1473 1.34400E+02 4.87010E+01 0.00000E+00
 -1      1474 1.32150E+02 4.74020E+01 0.00000E+00
 -1      1475 1.35900E+02 4.87010E+01 0.00000E+00
 -1      1476 1.37400E+02 4.87010E+01 0.00000E+00
 -1      1477 1.35150E+02 4.74020E+01 0.00000E+00
 -1      1478 1.38900E+02 4.87010E+01 0.00000E+00
 -1      1479 1.40400E+02 4.87010E+01 0.00000E+00
 -1      1480 1.38150E+02 4.74020E+01 0.00000E+00
 -1      1481 1.41900E+02 4.87010E+01 0.00000E+00
 -1      1482 1.43400E+02 4.87010E+01 0.00000E+00
 -1      1483 1.41150E+02 4.74020E+01 0.00000E+00
 -1      1484 1.44900E+02 4.87010E+01 0.00000E+00
 -1      1485 1.46400E+02 4.87010E+01 0.00000E+00
 -1      1486 1.44150E+02 4.74020E+01 0.00000E+00
 -1      1487 1.48575E+02 4.85500E+01 0.00000E+00
 -1      1488 1.47825E+02 4.72510E+01 0.00000E+00
 -1      1489 6.01200E+00 1.09375E+00 0.00000E+00
 -1      1490 4.51200E+00 1.09375E+00 0.00000E+00
 -1      1491 4.37400E+00 2.18750E+00 0.00000E+00
 -1      1492 9.01200E+00 1.09375E+00 0.00000E+00
 -1      1493 7.51200E+00 1.09375E+00 0.00000E+00
 -1      1494 7.37400E+00 2.18750E+00 0.00000E+00
 -1      1495 1.20120E+01 1.09375E+00 0.00000E+00
 -1      1496 1.05120E+01 1.09375E+00 0.00000E+00
 -1      1497 1.03740E+01 2.18750E+00 0.00000E+00
 -1      1498 1.50120E+01 1.09375E+00 0.00000E+00
 -1      1499 1.35120E+01 1.09375E+00 0.00000E+00
 -1      1500 1.33740E+01 2.18750E+00 0.00000E+00
 -1      1501 1.80120E+01 1.09375E+00 0.00000E+00
 -1      1502 1.65120E+01 1.09375E+00 0.00000E+00
 -1      1503 1.63740E+01 2.18750E+00 0.00000E+00
 -1      1504 2.10120E+01 1.09375E+00 0.00000E+00
 -1      1505 1.95120E+01 1.09375E+00 0.00000E+00
 -1      1506 1.93740E+01 2.18750E+00 0.00000E+00
 -1      1507 2.40120E+01 1.09375E+00 0.00000E+00
 -1      1508 2.25120E+01 1.09375E+00 0.00000E+00
 -1      1509 2.23740E+01 2.18750E+00 0.00000E+00
 -1      1510 2.70120E+01 1.09375E+00 0.00000E+00
 -1      1511 2.55120E+01 1.09375E+00 0.00000E+00
 -1      1512 2.53740E+01 2.18750E+00 0.00000E+00
 -1      1513 3.00120E+01 1.09375E+00 0.00000E+00
 -1      1514 2.85120E+01 1.09375E+00 0.00000E+00
 -1      1515 2.83740E+01 2.18750E+00 0.00000E+00
 -1      1516 3.30120E+01 1.09375E+00 0.00000E+00
 -1      1517 3.15120E+01 1.09375E+00 0.00000E+00
 -1      1518 3.13740E+01 2.18750E+00 0.00000E+00
 -1      1519 3.60120E+01 1.09375E+00 0.00000E+00
 -1      1520 3.45120E+01 1.09375E+00 0.00000E+00
 -1      1521 3.43740E+01 2.18750E+00 0.00000E+00
 -1      1522 3.90120E+01 1.09375E+00 0.00000E+00
 -1      1523 3.75120E+01 1.09375E+00 0.00000E+00
 -1      1524 3.73740E+01 2.18750E+00 0.00000E+00
 -1      1525 4.20120E+01 1.09375E+00 0.00000E+00
 -1      1526 4.05120E+01 1.09375E+00 0.00000E+00
 -1      1527 4.03740E+01 2.18750E+00 0.00000E+00
 -1      1528 4.50120E+01 1.09375E+00 0.00000E+00
 -1      1529 4.35120E+01 1.09375E+00 0.00000E+00
 -1      1530 4.33740E+01 2.18750E+00 0.00000E+00
 -1      1531 4.80120E+01 1.09375E+00 0.00000E+00
 -1      1532 4.65120E+01 1.09375E+00 0.00000E+00
 -1      1533 4.63740E+01 2.18750E+00 0.00000E+00
 -1      1534 5.10120E+01 1.09375E+00 0.00000E+00
 -1      1535 4.95120E+01 1.09375E+00 0.00000E+00
 -1      1536 4.93740E+01 2.18750E+00 0.00000E+00
 -1      1537 5.40120E+01 1.09375E+00 0.00000E+00
 -1      1538 5.25120E+01 1.09375E+00 0.00000E+00
 -1      1539 5.23740E+01 2.18750E+00 0.00000E+00
 -1      1540 5.70120E+01 1.09375E+00 0.00000E+00
 -1      1541 5.55120E+01 1.09375E+00 0.00000E+00
 -1      1542 5.53740E+01 2.18750E+00 0.00000E+00
 -1      1543 6.00120E+01 1.09375E+00 0.00000E+00
 -1      1544 5.85120E+01 1.09375E+00 0.00000E+00
 -1      1545 5.83740E+01 2.18750E+00 0.00000E+00
 -1      1546 6.30120E+01 1.09375E+00 0.00000E+00
 -1      1547 6.15120E+01 1.09375E+00 0.00000E+00
 -1      1548 6.13740E+01 2.18750E+00 0.00000E+00
 -1      1549 6.60120E+01 1.09375E+00 0.00000E+00
 -1      1550 6.45120E+01 1.09375E+00 0.00000E+00
 -1      1551 6.43740E+01 2.18750E+00 0.00000E+00
 -1      1552 6.90120E+01 1.09375E+00 0.00000E+00
 -1      1553 6.75120E+01 1.09375E+00 0.00000E+00
 -1      1554 6.73740E+01 2.18750E+00 0.00000E+00
 -1      1555 7.20120E+01 1.09375E+00 0.00000E+00
 -1      1556 7.05120E+01 1.09375E+00 0.00000E+00
 -1      1557 7.03740E+01 2.18750E+00 0.00000E+00
 -1      1558 7.50120E+01 1.09375E+00 0.00000E+00
 -1      1559 7.35120E+01 1.09375E+00 0.00000E+00
 -1      1560 7.33740E+01 2.18750E+00 0.00000E+00
 -1      1561 7.80120E+01 1.09375E+00 0.00000E+00
 -1      1562 7.65120E+01 1.09375E+00 0.00000E+00
 -1      1563 7.63740E+01 2.18750E+00 0.00000E+00
 -1      1564 8.10120E+01 1.09375E+00 0.00000E+00
 -1      1565 7.95120E+01 1.09375E+00 0.00000E+00
 -1      1566 7.93740E+01 2.18750E+00 0.00000E+00
 -1      1567 8.40120E+01 1.09375E+00 0.00000E+00
 -1      1568 8.25120E+01 1.09375E+00 0.00000E+00
 -1      1569 8.23740E+01 2.18750E+00 0.00000E+00
 -1      1570 8.70120E+01 1.09375E+00 0.00000E+00
 -1      1571 8.55120E+01 1.09375E+00 0.00000E+00
 -1      1572 8.53740E+01 2.18750E+00 0.00000E+00
 -1      1573 9.00120E+01 1.09375E+00 0.00000E+00
 -1      1574 8.85120E+01 1.09375E+00 0.00000E+00
 -1      1575 8.83740E+01 2.18750E+00 0.00000E+00
 -1      1576 9.30120E+01 1.09375E+00 0.00000E+00
 -1      1577 9.15120E+01 1.09375E+00 0.00000E+00
 -1      1578 9.13740E+01 2.18750E+00 0.00000E+00
 -1      1579 9.60120E+01 1.09375E+00 0.00000E+00
 -1      1580 9.45120E+01 1.09375E+00 0.00000E+00
 -1      1581 9.43740E+01 2.18750E+00 0.00000E+00
 -1      1582 9.90120E+01 1.09375E+00 0.00000E+00
 -1      1583 9.75120E+01 1.09375E+00 0.00000E+00
 -1      1584 9.73740E+01 2.18750E+00 0.00000E+00
 -1      1585 1.02012E+02 1.09375E+00 0.00000E+00
 -1      1586 1.00512E+02 1.09375E+00 0.00000E+00
 -1      1587 1.00374E+02 2.18750E+00 0.00000E+00
 -1      1588 1.05012E+02 1.09375E+00 0.00000E+00
 -1      1589 1.03512E+02 1.09375E+00 0.00000E+00
 -1      1590 1.03374E+02 2.18750E+00 0.00000E+00
 -1      1591 1.08012E+02 1.09375E+00 0.00000E+00
 -1      1592 1.06512E+02 1.09375E+00 0.00000E+00
 -1      1593 1.06374E+02 2.18750E+00 0.00000E+00
 -1      1594 1.11012E+02 1.09375E+00 0.00000E+00
 -1      1595 1.09512E+02 1.09375E+00 0.00000E+00
 -1      1596 1.09374E+02 2.18750E+00 0.00000E+00
 -1      1597 1.14012E+02 1.09375E+00 0.00000E+00
 -1      1598 1.12512E+02 1.09375E+00 0.00000E+00
 -1      1599 1.12374E+02 2.18750E+00 0.00000E+00
 -1      1600 1.17012E+02 1.09375E+00 0.00000E+00
 -1      1601 1.15512E+02 1.09375E+00 0.00000E+00
 -1      1602 1.15374E+02 2.18750E+00 0.00000E+00
 -1      1603 1.20012E+02 1.09375E+00 0.00000E+00
 -1      1604 1.18512E+02 1.09375E+00 0.00000E+00
 -1      1605 1.18374E+02 2.18750E+00 0.00000E+00
 -1      1606 1.23012E+02 1.09375E+00 0.00000E+00
 -1      1607 1.21512E+02 1.09375E+00 0.00000E+00
 -1      1608 1.21374E+02 2.18750E+00 0.00000E+00
 -1      1609 1.26012E+02 1.09375E+00 0.00000E+00
 -1      1610 1.24512E+02 1.09375E+00 0.00000E+00
 -1      1611 1.24374E+02 2.18750E+00 0.00000E+00
 -1      1612 1.29012E+02 1.09375E+00 0.00000E+00
 -1      1613 1.27512E+02 1.09375E+00 0.00000E+00
 -1      1614 1.27374E+02 2.18750E+00 0.00000E+00
 -1      1615 1.32012E+02 1.09375E+00 0.00000E+00
 -1      1616 1.30512E+02 1.09375E+00 0.00000E+00
 -1      1617 1.30374E+02 2.18750E+00 0.00000E+00
 -1      1618 1.35012E+02 1.09375E+00 0.00000E+00
 -1      1619 1.33512E+02 1.09375E+00 0.00000E+00
 -1      1620 1.33374E+02 2.18750E+00 0.00000E+00
 -1      1621 1.38012E+02 1.09375E+00 0.00000E+00
 -1      1622 1.36512E+02 1.09375E+00 0.00000E+00
 -1      1623 1.36374E+02 2.18750E+00 0.00000E+00
 -1      1624 1.41012E+02 1.09375E+00 0.00000E+00
 -1      1625 1.39512E+02 1.09375E+00 0.00000E+00
 -1      1626 1.39374E+02 2.18750E+00 0.00000E+00
 -1      1627 1.44012E+02 1.09375E+00 0.00000E+00
 -1      1628 1.42512E+02 1.09375E+00 0.00000E+00
 -1      1629 1.42374E+02 2.18750E+00 0.00000E+00
 -1      1630 1.47012E+02 1.09375E+00 0.00000E+00
 -1      1631 1.45512E+02 1.09375E+00 0.00000E+00
 -1      1632 1.45374E+02 2.18750E+00 0.00000E+00
 -1      1633 1.48575E+02 1.47500E+00 0.00000E+00
 -1      1634 1.48701E+02 5.16250E+00 0.00000E+00
 -1      1635 1.48701E+02 3.68750E+00 0.00000E+00
 -1      1636 1.48701E+02 8.11250E+00 0.00000E+00
 -1      1637 1.48701E+02 6.63750E+00 0.00000E+00
 -1      1638 1.47402E+02 5.90000E+00 0.00000E+00
 -1      1639 1.48701E+02 1.10625E+01 0.00000E+00
 -1      1640 1.48701E+02 9.58750E+00 0.00000E+00
 -1      1641 1.47402E+02 8.85000E+00 0.00000E+00
 -1      1642 1.48701E+02 1.40125E+01 0.00000E+00
 -1      1643 1.48701E+02 1.25375E+01 0.00000E+00
 -1      1644 1.47402E+02 1.18000E+01 0.00000E+00
 -1      1645 1.48701E+02 1.69125E+01 0.00000E+00
 -1      1646 1.48701E+02 1.54625E+01 0.00000E+00
 -1      1647 1.47402E+02 1.47250E+01 0.00000E+00
 -1      1648 1.48701E+02 1.98625E+01 0.00000E+00
 -1      1649 1.48701E+02 1.83875E+01 0.00000E+00
 -1      1650 1.47402E+02 1.76500E+01 0.00000E+00
 -1      1651 1.48701E+02 2.28125E+01 0.00000E+00
 -1      1652 1.48701E+02 2.13375E+01 0.00000E+00
 -1      1653 1.47402E+02 2.06000E+01 0.00000E+00
 -1      1654 1.48701E+02 2.57625E+01 0.00000E+00
 -1      1655 1.48701E+02 2.42875E+01 0.00000E+00
 -1      1656 1.47402E+02 2.35500E+01 0.00000E+00
 -1      1657 1.48701E+02 2.87125E+01 0.00000E+00
 -1      1658 1.48701E+02 2.72375E+01 0.00000E+00
 -1      1659 1.47402E+02 2.65000E+01 0.00000E+00
 -1      1660 1.48701E+02 3.16625E+01 0.00000E+00
 -1      1661 1.48701E+02 3.01875E+01 0.00000E+00
 -1      1662 1.47402E+02 2.94500E+01 0.00000E+00
 -1      1663 1.48701E+02 3.45625E+01 0.00000E+00
 -1      1664 1.48701E+02 3.31125E+01 0.00000E+00
 -1      1665 1.47402E+02 3.23750E+01 0.00000E+00
 -1      1666 1.48701E+02 3.75125E+01 0.00000E+00
 -1      1667 1.48701E+02 3.60375E+01 0.00000E+00
 -1      1668 1.47402E+02 3.53000E+01 0.00000E+00
 -1      1669 1.48701E+02 4.04625E+01 0.00000E+00
 -1      1670 1.48701E+02 3.89875E+01 0.00000E+00
 -1      1671 1.47402E+02 3.82500E+01 0.00000E+00
 -1      1672 1.48701E+02 4.34125E+01 0.00000E+00
 -1      1673 1.48701E+02 4.19375E+01 0.00000E+00
 -1      1674 1.47402E+02 4.12000E+01 0.00000E+00
 -1      1675 1.48263E+02 4.60692E+01 0.00000E+00
 -1      1676 1.48263E+02 4.45942E+01 0.00000E+00
 -1      1677 1.46964E+02 4.38568E+01 0.00000E+00
 -1      1678 1.46088E+02 4.62202E+01 0.00000E+00
 -1      1679 6.00844E+01 2.42902E+01 0.00000E+00
 -1      1680 6.01732E+01 2.50738E+01 0.00000E+00
 -1      1681 5.96644E+01 2.27395E+01 0.00000E+00
 -1      1682 5.98920E+01 2.34103E+01 0.00000E+00
 -1      1683 5.88548E+01 2.12218E+01 0.00000E+00
 -1      1684 5.92740E+01 2.19142E+01 0.00000E+00
 -1      1685 5.77158E+01 2.00598E+01 0.00000E+00
 -1      1686 5.82102E+01 2.05772E+01 0.00000E+00
 -1      1687 5.65012E+01 1.91178E+01 0.00000E+00
 -1      1688 5.70836E+01 1.95200E+01 0.00000E+00
 -1      1689 5.50814E+01 1.84286E+01 0.00000E+00
 -1      1690 5.57606E+01 1.87139E+01 0.00000E+00
 -1      1691 5.35141E+01 1.80005E+01 0.00000E+00
 -1      1692 5.42552E+01 1.81386E+01 0.00000E+00
 -1      1693 5.18919E+01 1.79960E+01 0.00000E+00
 -1      1694 5.26350E+01 1.79737E+01 0.00000E+00
 -1      1695 5.02023E+01 1.81547E+01 0.00000E+00
 -1      1696 5.09659E+01 1.79604E+01 0.00000E+00
 -1      1697 4.87079E+01 1.88876E+01 0.00000E+00
 -1      1698 4.93693E+01 1.85532E+01 0.00000E+00
 -1      1699 4.74786E+01 1.98635E+01 0.00000E+00
 -1      1700 4.80324E+01 1.94195E+01 0.00000E+00
 -1      1701 4.63970E+01 2.10480E+01 0.00000E+00
 -1      1702 4.68735E+01 2.04657E+01 0.00000E+00
 -1      1703 4.55708E+01 2.24679E+01 0.00000E+00
 -1      1704 4.59150E+01 2.17887E+01 0.00000E+00
 -1      1705 4.49418E+01 2.40388E+01 0.00000E+00
 -1      1706 4.51339E+01 2.32808E+01 0.00000E+00
 -1      1707 4.48719E+01 2.56592E+01 0.00000E+00
 -1      1708 4.48957E+01 2.49372E+01 0.00000E+00
 -1      1709 4.50809E+01 2.73041E+01 0.00000E+00
 -1      1710 4.49406E+01 2.65404E+01 0.00000E+00
 -1      1711 4.55934E+01 2.89633E+01 0.00000E+00
 -1      1712 4.52755E+01 2.82271E+01 0.00000E+00
 -1      1713 4.65524E+01 3.03201E+01 0.00000E+00
 -1      1714 4.61175E+01 2.97214E+01 0.00000E+00
 -1      1715 4.76718E+01 3.16549E+01 0.00000E+00
 -1      1716 4.70614E+01 3.11193E+01 0.00000E+00
 -1      1717 4.91911E+01 3.23685E+01 0.00000E+00
 -1      1718 4.85469E+01 3.20174E+01 0.00000E+00
 -1      1719 5.07262E+01 3.29141E+01 0.00000E+00
 -1      1720 4.99972E+01 3.27004E+01 0.00000E+00
 -1      1721 5.24254E+01 3.32852E+01 0.00000E+00
 -1      1722 5.16180E+01 3.32362E+01 0.00000E+00
 -1      1723 5.40333E+01 3.30103E+01 0.00000E+00
 -1      1724 5.33294E+01 3.31218E+01 0.00000E+00
 -1      1725 5.55420E+01 3.24820E+01 0.00000E+00
 -1      1726 5.48476E+01 3.27477E+01 0.00000E+00
 -1      1727 5.70428E+01 3.17028E+01 0.00000E+00
 -1      1728 5.63833E+01 3.21397E+01 0.00000E+00
 -1      1729 5.82025E+01 3.05242E+01 0.00000E+00
 -1      1730 5.76865E+01 3.10609E+01 0.00000E+00
 -1      1731 5.91310E+01 2.91928E+01 0.00000E+00
 -1      1732 5.87369E+01 2.98332E+01 0.00000E+00
 -1      1733 5.97603E+01 2.76732E+01 0.00000E+00
 -1      1734 5.95096E+01 2.83938E+01 0.00000E+00
 -1      1735 6.01317E+01 2.60171E+01 0.00000E+00
 -1      1736 6.00430E+01 2.68000E+01 0.00000E+00
 -1      1737 5.77690E+01 1.93599E+01 0.00000E+00
 -1      1738 5.90459E+01 2.05443E+01 0.00000E+00
 -1      1739 1.48437E+02 2.56875E+00 0.00000E+00
 -1      1740 1.47138E+02 3.30625E+00 0.00000E+00
 -1      1741 6.06636E+01 2.37196E+01 0.00000E+00
 -1      1742 6.00808E+01 2.20143E+01 0.00000E+00
 -1      1743 6.08145E+01 2.55429E+01 0.00000E+00
 -1      1744 5.63963E+01 1.84162E+01 0.00000E+00
 -1      1745 5.48296E+01 1.77224E+01 0.00000E+00
 -1      1746 5.31244E+01 1.74057E+01 0.00000E+00
 -1      1747 5.13193E+01 1.73433E+01 0.00000E+00
 -1      1748 4.95603E+01 1.77062E+01 0.00000E+00
 -1      1749 4.80518E+01 1.86366E+01 0.00000E+00
 -1      1750 4.67712E+01 1.97707E+01 0.00000E+00
 -1      1751 4.56841E+01 2.11136E+01 0.00000E+00
 -1      1752 4.47653E+01 2.26671E+01 0.00000E+00
 -1      1753 4.42822E+01 2.43785E+01 0.00000E+00
 -1      1754 4.43047E+01 2.61582E+01 0.00000E+00
 -1      1755 4.45679E+01 2.79624E+01 0.00000E+00
 -1      1756 4.52866E+01 2.96435E+01 0.00000E+00
 -1      1757 4.63196E+01 3.12010E+01 0.00000E+00
 -1      1758 4.77038E+01 3.23627E+01 0.00000E+00
 -1      1759 4.93850E+01 3.30571E+01 0.00000E+00
 -1      1760 5.10829E+01 3.37110E+01 0.00000E+00
 -1      1761 5.28788E+01 3.38696E+01 0.00000E+00
 -1      1762 5.45971E+01 3.34436E+01 0.00000E+00
 -1      1763 5.62528E+01 3.28387E+01 0.00000E+00
 -1      1764 5.77378E+01 3.18546E+01 0.00000E+00
 -1      1765 5.89159E+01 3.05217E+01 0.00000E+00
 -1      1766 5.98289E+01 2.90317E+01 0.00000E+00
 -1      1767 6.04902E+01 2.73594E+01 0.00000E+00
 -1      1768 2.87400E+00 4.77875E+01 0.00000E+00
 -1      1769 3.89700E+00 4.04125E+01 0.00000E+00
 -1      1770 3.89700E+00 4.18875E+01 0.00000E+00
 -1      1771 3.89700E+00 4.33625E+01 0.00000E+00
 -1      1772 3.89700E+00 4.48375E+01 0.00000E+00
 -1      1773 5.19600E+00 4.26250E+01 0.00000E+00
 -1      1774 3.89700E+00 3.45500E+01 0.00000E+00
 -1      1775 3.89700E+00 3.60000E+01 0.00000E+00
 -1      1776 3.89700E+00 3.16000E+01 0.00000E+00
 -1      1777 3.89700E+00 3.30750E+01 0.00000E+00
 -1      1778 5.19600E+00 3.38000E+01 0.00000E+00
 -1      1779 3.89700E+00 2.86500E+01 0.00000E+00
 -1      1780 3.89700E+00 3.01250E+01 0.00000E+00
 -1      1781 5.19600E+00 3.08500E+01 0.00000E+00
 -1      1782 3.89700E+00 2.57000E+01 0.00000E+00
 -1      1783 3.89700E+00 2.71750E+01 0.00000E+00
 -1      1784 5.19600E+00 2.79000E+01 0.00000E+00
 -1      1785 3.89700E+00 2.27500E+01 0.00000E+00
 -1      1786 3.89700E+00 2.42250E+01 0.00000E+00
 -1      1787 5.19600E+00 2.49500E+01 0.00000E+00
 -1      1788 3.89700E+00 1.98000E+01 0.00000E+00
 -1      1789 3.89700E+00 2.12750E+01 0.00000E+00
 -1      1790 5.19600E+00 2.20000E+01 0.00000E+00
 -1      1791 3.89700E+00 1.69000E+01 0.00000E+00
 -1      1792 3.89700E+00 1.83500E+01 0.00000E+00
 -1      1793 5.19600E+00 1.90750E+01 0.00000E+00
 -1      1794 3.89700E+00 1.39500E+01 0.00000E+00
 -1      1795 3.89700E+00 1.54250E+01 0.00000E+00
 -1      1796 5.19600E+00 1.61500E+01 0.00000E+00
 -1      1797 3.89700E+00 1.10000E+01 0.00000E+00
 -1      1798 3.89700E+00 1.24750E+01 0.00000E+00
 -1      1799 5.19600E+00 1.32000E+01 0.00000E+00
 -1      1800 3.89700E+00 8.05000E+00 0.00000E+00
 -1      1801 3.89700E+00 9.52500E+00 0.00000E+00
 -1      1802 5.19600E+00 1.02500E+01 0.00000E+00
 -1      1803 3.89700E+00 5.10000E+00 0.00000E+00
 -1      1804 3.89700E+00 6.57500E+00 0.00000E+00
 -1      1805 5.19600E+00 7.30000E+00 0.00000E+00
 -1      1806 4.20450E+00 3.09687E+00 0.00000E+00
 -1      1807 4.06650E+00 4.19063E+00 0.00000E+00
 -1      1808 5.36550E+00 4.91563E+00 0.00000E+00
 -1      1809 5.70450E+00 3.09687E+00 0.00000E+00
 -1      1810 3.62400E+00 4.64885E+01 0.00000E+00
 -1      1811 8.70450E+00 3.09687E+00 0.00000E+00
 -1      1812 7.20450E+00 3.09687E+00 0.00000E+00
 -1      1813 7.03500E+00 4.00625E+00 0.00000E+00
 -1      1814 4.92300E+00 4.57510E+01 0.00000E+00
 -1      1815 8.40000E+00 4.61030E+01 0.00000E+00
 -1      1816 9.90000E+00 4.61030E+01 0.00000E+00
 -1      1817 1.14000E+01 4.61030E+01 0.00000E+00
 -1      1818 1.29000E+01 4.61030E+01 0.00000E+00
 -1      1819 1.06500E+01 4.48040E+01 0.00000E+00
 -1      1820 1.44000E+01 4.61030E+01 0.00000E+00
 -1      1821 1.59000E+01 4.61030E+01 0.00000E+00
 -1      1822 1.36500E+01 4.48040E+01 0.00000E+00
 -1      1823 1.74000E+01 4.61030E+01 0.00000E+00
 -1      1824 1.89000E+01 4.61030E+01 0.00000E+00
 -1      1825 1.66500E+01 4.48040E+01 0.00000E+00
 -1      1826 2.04000E+01 4.61030E+01 0.00000E+00
 -1      1827 2.19000E+01 4.61030E+01 0.00000E+00
 -1      1828 1.96500E+01 4.48040E+01 0.00000E+00
 -1      1829 2.34000E+01 4.61030E+01 0.00000E+00
 -1      1830 2.49000E+01 4.61030E+01 0.00000E+00
 -1      1831 2.26500E+01 4.48040E+01 0.00000E+00
 -1      1832 2.64000E+01 4.61030E+01 0.00000E+00
 -1      1833 2.79000E+01 4.61030E+01 0.00000E+00
 -1      1834 2.56500E+01 4.48040E+01 0.00000E+00
 -1      1835 2.94000E+01 4.61030E+01 0.00000E+00
 -1      1836 3.09000E+01 4.61030E+01 0.00000E+00
 -1      1837 2.86500E+01 4.48040E+01 0.00000E+00
 -1      1838 3.24000E+01 4.61030E+01 0.00000E+00
 -1      1839 3.39000E+01 4.61030E+01 0.00000E+00
 -1      1840 3.16500E+01 4.48040E+01 0.00000E+00
 -1      1841 3.54000E+01 4.61030E+01 0.00000E+00
 -1      1842 3.69000E+01 4.61030E+01 0.00000E+00
 -1      1843 3.46500E+01 4.48040E+01 0.00000E+00
 -1      1844 3.84000E+01 4.61030E+01 0.00000E+00
 -1      1845 3.99000E+01 4.61030E+01 0.00000E+00
 -1      1846 3.76500E+01 4.48040E+01 0.00000E+00
 -1      1847 4.14000E+01 4.61030E+01 0.00000E+00
 -1      1848 4.29000E+01 4.61030E+01 0.00000E+00
 -1      1849 4.06500E+01 4.48040E+01 0.00000E+00
 -1      1850 4.44000E+01 4.61030E+01 0.00000E+00
 -1      1851 4.59000E+01 4.61030E+01 0.00000E+00
 -1      1852 4.36500E+01 4.48040E+01 0.00000E+00
 -1      1853 4.74000E+01 4.61030E+01 0.00000E+00
 -1      1854 4.89000E+01 4.61030E+01 0.00000E+00
 -1      1855 4.66500E+01 4.48040E+01 0.00000E+00
 -1      1856 5.04000E+01 4.61030E+01 0.00000E+00
 -1      1857 5.19000E+01 4.61030E+01 0.00000E+00
 -1      1858 4.96500E+01 4.48040E+01 0.00000E+00
 -1      1859 5.34000E+01 4.61030E+01 0.00000E+00
 -1      1860 5.49000E+01 4.61030E+01 0.00000E+00
 -1      1861 5.26500E+01 4.48040E+01 0.00000E+00
 -1      1862 5.64000E+01 4.61030E+01 0.00000E+00
 -1      1863 5.79000E+01 4.61030E+01 0.00000E+00
 -1      1864 5.56500E+01 4.48040E+01 0.00000E+00
 -1      1865 5.94000E+01 4.61030E+01 0.00000E+00
 -1      1866 6.09000E+01 4.61030E+01 0.00000E+00
 -1      1867 5.86500E+01 4.48040E+01 0.00000E+00
 -1      1868 6.24000E+01 4.61030E+01 0.00000E+00
 -1      1869 6.39000E+01 4.61030E+01 0.00000E+00
 -1      1870 6.16500E+01 4.48040E+01 0.00000E+00
 -1      1871 6.54000E+01 4.61030E+01 0.00000E+00
 -1      1872 6.69000E+01 4.61030E+01 0.00000E+00
 -1      1873 6.46500E+01 4.48040E+01 0.00000E+00
 -1      1874 6.84000E+01 4.61030E+01 0.00000E+00
 -1      1875 6.99000E+01 4.61030E+01 0.00000E+00
 -1      1876 6.76500E+01 4.48040E+01 0.00000E+00
 -1      1877 7.14000E+01 4.61030E+01 0.00000E+00
 -1      1878 7.29000E+01 4.61030E+01 0.00000E+00
 -1      1879 7.06500E+01 4.48040E+01 0.00000E+00
 -1      1880 7.44000E+01 4.61030E+01 0.00000E+00
 -1      1881 7.59000E+01 4.61030E+01 0.00000E+00
 -1      1882 7.36500E+01 4.48040E+01 0.00000E+00
 -1      1883 7.74000E+01 4.61030E+01 0.00000E+00
 -1      1884 7.89000E+01 4.61030E+01 0.00000E+00
 -1      1885 7.66500E+01 4.48040E+01 0.00000E+00
 -1      1886 8.04000E+01 4.61030E+01 0.00000E+00
 -1      1887 8.19000E+01 4.61030E+01 0.00000E+00
 -1      1888 7.96500E+01 4.48040E+01 0.00000E+00
 -1      1889 8.34000E+01 4.61030E+01 0.00000E+00
 -1      1890 8.49000E+01 4.61030E+01 0.00000E+00
 -1      1891 8.26500E+01 4.48040E+01 0.00000E+00
 -1      1892 8.64000E+01 4.61030E+01 0.00000E+00
 -1      1893 8.79000E+01 4.61030E+01 0.00000E+00
 -1      1894 8.56500E+01 4.48040E+01 0.00000E+00
 -1      1895 8.94000E+01 4.61030E+01 0.00000E+00
 -1      1896 9.09000E+01 4.61030E+01 0.00000E+00
 -1      1897 8.86500E+01 4.48040E+01 0.00000E+00
 -1      1898 9.24000E+01 4.61030E+01 0.00000E+00
 -1      1899 9.39000E+01 4.61030E+01 0.00000E+00
 -1      1900 9.16500E+01 4.48040E+01 0.00000E+00
 -1      1901 9.54000E+01 4.61030E+01 0.00000E+00
 -1      1902 9.69000E+01 4.61030E+01 0.00000E+00
 -1      1903 9.46500E+01 4.48040E+01 0.00000E+00
 -1      1904 9.84000E+01 4.61030E+01 0.00000E+00
 -1      1905 9.99000E+01 4.61030E+01 0.00000E+00
 -1      1906 9.76500E+01 4.48040E+01 0.00000E+00
 -1      1907 1.01400E+02 4.61030E+01 0.00000E+00
 -1      1908 1.02900E+02 4.61030E+01 0.00000E+00
 -1      1909 1.00650E+02 4.48040E+01 0.00000E+00
 -1      1910 1.04400E+02 4.61030E+01 0.00000E+00
 -1      1911 1.05900E+02 4.61030E+01 0.00000E+00
 -1      1912 1.03650E+02 4.48040E+01 0.00000E+00
 -1      1913 1.07400E+02 4.61030E+01 0.00000E+00
 -1      1914 1.08900E+02 4.61030E+01 0.00000E+00
 -1      1915 1.06650E+02 4.48040E+01 0.00000E+00
 -1      1916 1.10400E+02 4.61030E+01 0.00000E+00
 -1      1917 1.11900E+02 4.61030E+01 0.00000E+00
 -1      1918 1.09650E+02 4.48040E+01 0.00000E+00
 -1      1919 1.13400E+02 4.61030E+01 0.00000E+00
 -1      1920 1.14900E+02 4.61030E+01 0.00000E+00
 -1      1921 1.12650E+02 4.48040E+01 0.00000E+00
 -1      1922 1.16400E+02 4.61030E+01 0.00000E+00
 -1      1923 1.17900E+02 4.61030E+01 0.00000E+00
 -1      1924 1.15650E+02 4.48040E+01 0.00000E+00
 -1      1925 1.19400E+02 4.61030E+01 0.00000E+00
 -1      1926 1.20900E+02 4.61030E+01 0.00000E+00
 -1      1927 1.18650E+02 4.48040E+01 0.00000E+00
 -1      1928 1.22400E+02 4.61030E+01 0.00000E+00
 -1      1929 1.23900E+02 4.61030E+01 0.00000E+00
 -1      1930 1.21650E+02 4.48040E+01 0.00000E+00
 -1      1931 1.25400E+02 4.61030E+01 0.00000E+00
 -1      1932 1.26900E+02 4.61030E+01 0.00000E+00
 -1      1933 1.24650E+02 4.48040E+01 0.00000E+00
 -1      1934 1.28400E+02 4.61030E+01 0.00000E+00
 -1      1935 1.29900E+02 4.61030E+01 0.00000E+00
 -1      1936 1.27650E+02 4.48040E+01 0.00000E+00
 -1      1937 1.31400E+02 4.61030E+01 0.00000E+00
 -1      1938 1.32900E+02 4.61030E+01 0.00000E+00
 -1      1939 1.30650E+02 4.48040E+01 0.00000E+00
 -1      1940 1.34400E+02 4.61030E+01 0.00000E+00
 -1      1941 1.35900E+02 4.61030E+01 0.00000E+00
 -1      1942 1.33650E+02 4.48040E+01 0.00000E+00
 -1      1943 1.37400E+02 4.61030E+01 0.00000E+00
 -1      1944 1.38900E+02 4.61030E+01 0.00000E+00
 -1      1945 1.36650E+02 4.48040E+01 0.00000E+00
 -1      1946 1.40400E+02 4.61030E+01 0.00000E+00
 -1      1947 1.41900E+02 4.61030E+01 0.00000E+00
 -1      1948 1.39650E+02 4.48040E+01 0.00000E+00
 -1      1949 1.43244E+02 4.61616E+01 0.00000E+00
 -1      1950 1.44744E+02 4.61616E+01 0.00000E+00
 -1      1951 1.45182E+02 4.49799E+01 0.00000E+00
 -1      1952 1.42494E+02 4.48626E+01 0.00000E+00
 -1      1953 1.17045E+01 3.09687E+00 0.00000E+00
 -1      1954 1.02045E+01 3.09687E+00 0.00000E+00
 -1      1955 1.00350E+01 4.00625E+00 0.00000E+00
 -1      1956 1.47045E+01 3.09687E+00 0.00000E+00
 -1      1957 1.32045E+01 3.09687E+00 0.00000E+00
 -1      1958 1.30350E+01 4.00625E+00 0.00000E+00
 -1      1959 1.77045E+01 3.09687E+00 0.00000E+00
 -1      1960 1.62045E+01 3.09687E+00 0.00000E+00
 -1      1961 1.60350E+01 4.00625E+00 0.00000E+00
 -1      1962 2.07045E+01 3.09687E+00 0.00000E+00
 -1      1963 1.92045E+01 3.09687E+00 0.00000E+00
 -1      1964 1.90350E+01 4.00625E+00 0.00000E+00
 -1      1965 2.37045E+01 3.09687E+00 0.00000E+00
 -1      1966 2.22045E+01 3.09687E+00 0.00000E+00
 -1      1967 2.20350E+01 4.00625E+00 0.00000E+00
 -1      1968 2.67045E+01 3.09687E+00 0.00000E+00
 -1      1969 2.52045E+01 3.09687E+00 0.00000E+00
 -1      1970 2.50350E+01 4.00625E+00 0.00000E+00
 -1      1971 2.97045E+01 3.09687E+00 0.00000E+00
 -1      1972 2.82045E+01 3.09687E+00 0.00000E+00
 -1      1973 2.80350E+01 4.00625E+00 0.00000E+00
 -1      1974 3.27045E+01 3.09687E+00 0.00000E+00
 -1      1975 3.12045E+01 3.09687E+00 0.00000E+00
 -1      1976 3.10350E+01 4.00625E+00 0.00000E+00
 -1      1977 3.57045E+01 3.09687E+00 0.00000E+00
 -1      1978 3.42045E+01 3.09687E+00 0.00000E+00
 -1      1979 3.40350E+01 4.00625E+00 0.00000E+00
 -1      1980 3.87045E+01 3.09687E+00 0.00000E+00
 -1      1981 3.72045E+01 3.09687E+00 0.00000E+00
 -1      1982 3.70350E+01 4.00625E+00 0.00000E+00
 -1      1983 4.17045E+01 3.09687E+00 0.00000E+00
 -1      1984 4.02045E+01 3.09687E+00 0.00000E+00
 -1      1985 4.00350E+01 4.00625E+00 0.00000E+00
 -1      1986 4.47045E+01 3.09687E+00 0.00000E+00
 -1      1987 4.32045E+01 3.09687E+00 0.00000E+00
 -1      1988 4.30350E+01 4.00625E+00 0.00000E+00
 -1      1989 4.77045E+01 3.09687E+00 0.00000E+00
 -1      1990 4.62045E+01 3.09687E+00 0.00000E+00
 -1      1991 4.60350E+01 4.00625E+00 0.00000E+00
 -1      1992 5.07045E+01 3.09687E+00 0.00000E+00
 -1      1993 4.92045E+01 3.09687E+00 0.00000E+00
 -1      1994 4.90350E+01 4.00625E+00 0.00000E+00
 -1      1995 5.37045E+01 3.09687E+00 0.00000E+00
 -1      1996 5.22045E+01 3.09687E+00 0.00000E+00
 -1      1997 5.20350E+01 4.00625E+00 0.00000E+00
 -1      1998 5.67045E+01 3.09687E+00 0.00000E+00
 -1      1999 5.52045E+01 3.09687E+00 0.00000E+00
 -1      2000 5.50350E+01 4.00625E+00 0.00000E+00
 -1      2001 5.97045E+01 3.09687E+00 0.00000E+00
 -1      2002 5.82045E+01 3.09687E+00 0.00000E+00
 -1      2003 5.80350E+01 4.00625E+00 0.00000E+00
 -1      2004 6.27045E+01 3.09687E+00 0.00000E+00
 -1      2005 6.12045E+01 3.09687E+00 0.00000E+00
 -1      2006 6.10350E+01 4.00625E+00 0.00000E+00
 -1      2007 6.57045E+01 3.09687E+00 0.00000E+00
 -1      2008 6.42045E+01 3.09687E+00 0.00000E+00
 -1      2009 6.40350E+01 4.00625E+00 0.00000E+00
 -1      2010 6.87045E+01 3.09687E+00 0.00000E+00
 -1      2011 6.72045E+01 3.09687E+00 0.00000E+00
 -1      2012 6.70350E+01 4.00625E+00 0.00000E+00
 -1      2013 7.17045E+01 3.09687E+00 0.00000E+00
 -1      2014 7.02045E+01 3.09687E+00 0.00000E+00
 -1      2015 7.00350E+01 4.00625E+00 0.00000E+00
 -1      2016 7.47045E+01 3.09687E+00 0.00000E+00
 -1      2017 7.32045E+01 3.09687E+00 0.00000E+00
 -1      2018 7.30350E+01 4.00625E+00 0.00000E+00
 -1      2019 7.77045E+01 3.09687E+00 0.00000E+00
 -1      2020 7.62045E+01 3.09687E+00 0.00000E+00
 -1      2021 7.60350E+01 4.00625E+00 0.00000E+00
 -1      2022 8.07045E+01 3.09687E+00 0.00000E+00
 -1      2023 7.92045E+01 3.09687E+00 0.00000E+00
 -1      2024 7.90350E+01 4.00625E+00 0.00000E+00
 -1      2025 8.37045E+01 3.09687E+00 0.00000E+00
 -1      2026 8.22045E+01 3.09687E+00 0.00000E+00
 -1      2027 8.20350E+01 4.00625E+00 0.00000E+00
 -1      2028 8.67045E+01 3.09687E+00 0.00000E+00
 -1      2029 8.52045E+01 3.09687E+00 0.00000E+00
 -1      2030 8.50350E+01 4.00625E+00 0.00000E+00
 -1      2031 8.97045E+01 3.09687E+00 0.00000E+00
 -1      2032 8.82045E+01 3.09687E+00 0.00000E+00
 -1      2033 8.80350E+01 4.00625E+00 0.00000E+00
 -1      2034 9.27045E+01 3.09687E+00 0.00000E+00
 -1      2035 9.12045E+01 3.09687E+00 0.00000E+00
 -1      2036 9.10350E+01 4.00625E+00 0.00000E+00
 -1      2037 9.57045E+01 3.09687E+00 0.00000E+00
 -1      2038 9.42045E+01 3.09687E+00 0.00000E+00
 -1      2039 9.40350E+01 4.00625E+00 0.00000E+00
 -1      2040 9.87045E+01 3.09687E+00 0.00000E+00
 -1      2041 9.72045E+01 3.09687E+00 0.00000E+00
 -1      2042 9.70350E+01 4.00625E+00 0.00000E+00
 -1      2043 1.01704E+02 3.09687E+00 0.00000E+00
 -1      2044 1.00204E+02 3.09687E+00 0.00000E+00
 -1      2045 1.00035E+02 4.00625E+00 0.00000E+00
 -1      2046 1.04704E+02 3.09687E+00 0.00000E+00
 -1      2047 1.03204E+02 3.09687E+00 0.00000E+00
 -1      2048 1.03035E+02 4.00625E+00 0.00000E+00
 -1      2049 1.07704E+02 3.09687E+00 0.00000E+00
 -1      2050 1.06204E+02 3.09687E+00 0.00000E+00
 -1      2051 1.06035E+02 4.00625E+00 0.00000E+00
 -1      2052 1.10704E+02 3.09687E+00 0.00000E+00
 -1      2053 1.09204E+02 3.09687E+00 0.00000E+00
 -1      2054 1.09035E+02 4.00625E+00 0.00000E+00
 -1      2055 1.13704E+02 3.09687E+00 0.00000E+00
 -1      2056 1.12204E+02 3.09687E+00 0.00000E+00
 -1      2057 1.12035E+02 4.00625E+00 0.00000E+00
 -1      2058 1.16704E+02 3.09687E+00 0.00000E+00
 -1      2059 1.15204E+02 3.09687E+00 0.00000E+00
 -1      2060 1.15035E+02 4.00625E+00 0.00000E+00
 -1      2061 1.19704E+02 3.09687E+00 0.00000E+00
 -1      2062 1.18204E+02 3.09687E+00 0.00000E+00
 -1      2063 1.18035E+02 4.00625E+00 0.00000E+00
 -1      2064 1.22704E+02 3.09687E+00 0.00000E+00
 -1      2065 1.21204E+02 3.09687E+00 0.00000E+00
 -1      2066 1.21035E+02 4.00625E+00 0.00000E+00
 -1      2067 1.25704E+02 3.09687E+00 0.00000E+00
 -1      2068 1.24204E+02 3.09687E+00 0.00000E+00
 -1      2069 1.24035E+02 4.00625E+00 0.00000E+00
 -1      2070 1.28704E+02 3.09687E+00 0.00000E+00
 -1      2071 1.27204E+02 3.09687E+00 0.00000E+00
 -1      2072 1.27035E+02 4.00625E+00 0.00000E+00
 -1      2073 1.31704E+02 3.09687E+00 0.00000E+00
 -1      2074 1.30204E+02 3.09687E+00 0.00000E+00
 -1      2075 1.30035E+02 4.00625E+00 0.00000E+00
 -1      2076 1.34704E+02 3.09687E+00 0.00000E+00
 -1      2077 1.33204E+02 3.09687E+00 0.00000E+00
 -1      2078 1.33035E+02 4.00625E+00 0.00000E+00
 -1      2079 1.37704E+02 3.09687E+00 0.00000E+00
 -1      2080 1.36204E+02 3.09687E+00 0.00000E+00
 -1      2081 1.36035E+02 4.00625E+00 0.00000E+00
 -1      2082 1.40704E+02 3.09687E+00 0.00000E+00
 -1      2083 1.39204E+02 3.09687E+00 0.00000E+00
 -1      2084 1.39035E+02 4.00625E+00 0.00000E+00
 -1      2085 1.43704E+02 3.09687E+00 0.00000E+00
 -1      2086 1.42204E+02 3.09687E+00 0.00000E+00
 -1      2087 1.42035E+02 4.00625E+00 0.00000E+00
 -1      2088 1.46171E+02 3.20156E+00 0.00000E+00
 -1      2089 1.44671E+02 3.20156E+00 0.00000E+00
 -1      2090 1.44502E+02 4.11094E+00 0.00000E+00
 -1      2091 1.46435E+02 4.32031E+00 0.00000E+00
 -1      2092 1.46103E+02 1.25375E+01 0.00000E+00
 -1      2093 1.46103E+02 1.10625E+01 0.00000E+00
 -1      2094 1.46103E+02 9.58750E+00 0.00000E+00
 -1      2095 1.46103E+02 8.11250E+00 0.00000E+00
 -1      2096 1.44804E+02 1.03250E+01 0.00000E+00
 -1      2097 1.46269E+02 6.95391E+00 0.00000E+00
 -1      2098 1.46269E+02 5.47891E+00 0.00000E+00
 -1      2099 1.45302E+02 5.37422E+00 0.00000E+00
 -1      2100 1.44970E+02 7.69141E+00 0.00000E+00
 -1      2101 1.46103E+02 1.54375E+01 0.00000E+00
 -1      2102 1.46103E+02 1.39875E+01 0.00000E+00
 -1      2103 1.44804E+02 1.32500E+01 0.00000E+00
 -1      2104 1.46103E+02 1.83875E+01 0.00000E+00
 -1      2105 1.46103E+02 1.69125E+01 0.00000E+00
 -1      2106 1.44804E+02 1.61750E+01 0.00000E+00
 -1      2107 1.46103E+02 2.13375E+01 0.00000E+00
 -1      2108 1.46103E+02 1.98625E+01 0.00000E+00
 -1      2109 1.44804E+02 1.91250E+01 0.00000E+00
 -1      2110 1.46103E+02 2.42875E+01 0.00000E+00
 -1      2111 1.46103E+02 2.28125E+01 0.00000E+00
 -1      2112 1.44804E+02 2.20750E+01 0.00000E+00
 -1      2113 1.46103E+02 2.72375E+01 0.00000E+00
 -1      2114 1.46103E+02 2.57625E+01 0.00000E+00
 -1      2115 1.44804E+02 2.50250E+01 0.00000E+00
 -1      2116 1.46103E+02 3.01875E+01 0.00000E+00
 -1      2117 1.46103E+02 2.87125E+01 0.00000E+00
 -1      2118 1.44804E+02 2.79750E+01 0.00000E+00
 -1      2119 1.46103E+02 3.30875E+01 0.00000E+00
 -1      2120 1.46103E+02 3.16375E+01 0.00000E+00
 -1      2121 1.44804E+02 3.09000E+01 0.00000E+00
 -1      2122 1.46103E+02 3.60375E+01 0.00000E+00
 -1      2123 1.46103E+02 3.45625E+01 0.00000E+00
 -1      2124 1.44804E+02 3.38250E+01 0.00000E+00
 -1      2125 1.46103E+02 3.89875E+01 0.00000E+00
 -1      2126 1.46103E+02 3.75125E+01 0.00000E+00
 -1      2127 1.44804E+02 3.67750E+01 0.00000E+00
 -1      2128 1.46103E+02 4.19375E+01 0.00000E+00
 -1      2129 1.46103E+02 4.04625E+01 0.00000E+00
 -1      2130 1.44804E+02 3.97250E+01 0.00000E+00
 -1      2131 6.05094E+01 2.13066E+01 0.00000E+00
 -1      2132 6.08998E+01 2.21320E+01 0.00000E+00
 -1      2133 6.14827E+01 2.50997E+01 0.00000E+00
 -1      2134 6.14412E+01 2.60431E+01 0.00000E+00
 -1      2135 6.12824E+01 2.31233E+01 0.00000E+00
 -1      2136 6.14748E+01 2.40033E+01 0.00000E+00
 -1      2137 5.92707E+01 1.96749E+01 0.00000E+00
 -1      2138 5.99153E+01 2.03195E+01 0.00000E+00
 -1      2139 5.78738E+01 1.85971E+01 0.00000E+00
 -1      2140 5.85060E+01 1.91369E+01 0.00000E+00
 -1      2141 3.89700E+00 3.74688E+01 0.00000E+00
 -1      2142 3.89700E+00 3.89437E+01 0.00000E+00
 -1      2143 5.19600E+00 3.96813E+01 0.00000E+00
 -1      2144 5.19600E+00 3.67438E+01 0.00000E+00
 -1      2145 5.46589E+01 1.68868E+01 0.00000E+00
 -1      2146 5.54850E+01 1.71768E+01 0.00000E+00
 -1      2147 5.27096E+01 1.65770E+01 0.00000E+00
 -1      2148 5.35887E+01 1.66038E+01 0.00000E+00
 -1      2149 5.08576E+01 1.65058E+01 0.00000E+00
 -1      2150 5.17836E+01 1.65414E+01 0.00000E+00
 -1      2151 5.22479E+01 1.57395E+01 0.00000E+00
 -1      2152 4.88641E+01 1.73208E+01 0.00000E+00
 -1      2153 4.96971E+01 1.69223E+01 0.00000E+00
 -1      2154 4.72872E+01 1.83605E+01 0.00000E+00
 -1      2155 4.79627E+01 1.78285E+01 0.00000E+00
 -1      2156 4.59228E+01 1.95234E+01 0.00000E+00
 -1      2157 4.65280E+01 1.89212E+01 0.00000E+00
 -1      2158 4.48999E+01 2.11304E+01 0.00000E+00
 -1      2159 4.53819E+01 2.03898E+01 0.00000E+00
 -1      2160 4.39760E+01 2.27668E+01 0.00000E+00
 -1      2161 4.44128E+01 2.19539E+01 0.00000E+00
 -1      2162 4.36119E+01 2.47945E+01 0.00000E+00
 -1      2163 4.36581E+01 2.38960E+01 0.00000E+00
 -1      2164 4.36093E+01 2.66556E+01 0.00000E+00
 -1      2165 4.35407E+01 2.57744E+01 0.00000E+00
 -1      2166 4.39081E+01 2.85835E+01 0.00000E+00
 -1      2167 4.37135E+01 2.76605E+01 0.00000E+00
 -1      2168 4.50155E+01 3.03911E+01 0.00000E+00
 -1      2169 4.44914E+01 2.96329E+01 0.00000E+00
 -1      2170 4.60334E+01 3.19896E+01 0.00000E+00
 -1      2171 4.55245E+01 3.11904E+01 0.00000E+00
 -1      2172 4.47293E+01 3.11798E+01 0.00000E+00
 -1      2173 4.78773E+01 3.31814E+01 0.00000E+00
 -1      2174 4.70021E+01 3.28189E+01 0.00000E+00
 -1      2175 4.94895E+01 3.38451E+01 0.00000E+00
 -1      2176 4.86834E+01 3.35133E+01 0.00000E+00
 -1      2177 4.79817E+01 3.39695E+01 0.00000E+00
 -1      2178 5.12661E+01 3.45998E+01 0.00000E+00
 -1      2179 5.03742E+01 3.42777E+01 0.00000E+00
 -1      2180 5.34833E+01 3.46317E+01 0.00000E+00
 -1      2181 5.25794E+01 3.47952E+01 0.00000E+00
 -1      2182 5.52032E+01 3.39291E+01 0.00000E+00
 -1      2183 5.43888E+01 3.41917E+01 0.00000E+00
 -1      2184 5.69651E+01 3.33843E+01 0.00000E+00
 -1      2185 5.61237E+01 3.37266E+01 0.00000E+00
 -1      2186 5.85764E+01 3.20519E+01 0.00000E+00
 -1      2187 5.79328E+01 3.26937E+01 0.00000E+00
 -1      2188 5.96957E+01 3.05726E+01 0.00000E+00
 -1      2189 5.91613E+01 3.12637E+01 0.00000E+00
 -1      2190 6.06796E+01 2.89456E+01 0.00000E+00
 -1      2191 6.03009E+01 2.97446E+01 0.00000E+00
 -1      2192 6.12880E+01 2.71354E+01 0.00000E+00
 -1      2193 6.10053E+01 2.80086E+01 0.00000E+00
 -1      2194 5.63764E+01 1.75717E+01 0.00000E+00
 -1      2195 5.71170E+01 1.79756E+01 0.00000E+00
 -1      2196 5.93754E+01 1.89121E+01 0.00000E+00
 -1      2197 6.42300E+00 4.57510E+01 0.00000E+00
 -1      2198 5.78539E+01 1.77526E+01 0.00000E+00
 -1      2199 5.62057E+01 1.67362E+01 0.00000E+00
 -1      2200 7.17300E+00 4.44520E+01 0.00000E+00
 -1      2201 6.17110E+01 2.24156E+01 0.00000E+00
 -1      2202 6.21015E+01 2.45034E+01 0.00000E+00
 -1      2203 1.45665E+02 4.31193E+01 0.00000E+00
 -1      2204 6.07342E+01 2.04372E+01 0.00000E+00
 -1      2205 6.19563E+01 2.66922E+01 0.00000E+00
 -1      2206 6.14774E+01 2.87215E+01 0.00000E+00
 -1      2207 6.05464E+01 3.04865E+01 0.00000E+00
 -1      2208 5.93563E+01 3.21028E+01 0.00000E+00
 -1      2209 5.78037E+01 3.35816E+01 0.00000E+00
 -1      2210 5.59154E+01 3.44747E+01 0.00000E+00
 -1      2211 5.40894E+01 3.51173E+01 0.00000E+00
 -1      2212 4.96726E+01 3.47339E+01 0.00000E+00
 -1      2213 4.62070E+01 3.28083E+01 0.00000E+00
 -1      2214 4.54118E+01 3.27977E+01 0.00000E+00
 -1      2215 4.63805E+01 3.36270E+01 0.00000E+00
 -1      2216 4.36370E+01 2.93311E+01 0.00000E+00
 -1      2217 4.29495E+01 2.72767E+01 0.00000E+00
 -1      2218 4.29165E+01 2.52919E+01 0.00000E+00
 -1      2219 4.33056E+01 2.31827E+01 0.00000E+00
 -1      2220 4.29532E+01 2.24695E+01 0.00000E+00
 -1      2221 4.26353E+01 2.35987E+01 0.00000E+00
 -1      2222 4.41106E+01 2.12301E+01 0.00000E+00
 -1      2223 4.51387E+01 1.95402E+01 0.00000E+00
 -1      2224 4.64388E+01 1.81131E+01 0.00000E+00
 -1      2225 5.01614E+01 1.61204E+01 0.00000E+00
 -1      2226 5.06258E+01 1.53185E+01 0.00000E+00
 -1      2227 4.94653E+01 1.57350E+01 0.00000E+00
 -1      2228 5.42442E+01 1.60582E+01 0.00000E+00
 -1      2229 4.80995E+01 1.70447E+01 0.00000E+00
 -1      2230 5.18706E+01 3.53619E+01 0.00000E+00
 -1      2231 1.07850E+01 5.30525E+00 0.00000E+00
 -1      2232 9.28500E+00 5.30525E+00 0.00000E+00
 -1      2233 6.49500E+00 3.01125E+01 0.00000E+00
 -1      2234 6.49500E+00 3.15875E+01 0.00000E+00
 -1      2235 6.49500E+00 3.30625E+01 0.00000E+00
 -1      2236 6.49500E+00 3.45375E+01 0.00000E+00
 -1      2237 7.79400E+00 3.23250E+01 0.00000E+00
 -1      2238 6.49500E+00 2.42125E+01 0.00000E+00
 -1      2239 6.49500E+00 2.56875E+01 0.00000E+00
 -1      2240 6.49500E+00 2.12625E+01 0.00000E+00
 -1      2241 6.49500E+00 2.27375E+01 0.00000E+00
 -1      2242 7.79400E+00 2.34750E+01 0.00000E+00
 -1      2243 6.49500E+00 1.83625E+01 0.00000E+00
 -1      2244 6.49500E+00 1.98125E+01 0.00000E+00
 -1      2245 7.79400E+00 2.05500E+01 0.00000E+00
 -1      2246 6.49500E+00 1.54125E+01 0.00000E+00
 -1      2247 6.49500E+00 1.68875E+01 0.00000E+00
 -1      2248 7.79400E+00 1.76250E+01 0.00000E+00
 -1      2249 6.49500E+00 1.24625E+01 0.00000E+00
 -1      2250 6.49500E+00 1.39375E+01 0.00000E+00
 -1      2251 7.79400E+00 1.46750E+01 0.00000E+00
 -1      2252 6.49500E+00 9.51250E+00 0.00000E+00
 -1      2253 6.49500E+00 1.09875E+01 0.00000E+00
 -1      2254 7.79400E+00 1.17250E+01 0.00000E+00
 -1      2255 1.37850E+01 5.30525E+00 0.00000E+00
 -1      2256 1.22850E+01 5.30525E+00 0.00000E+00
 -1      2257 1.15350E+01 6.60425E+00 0.00000E+00
 -1      2258 9.90000E+00 4.35050E+01 0.00000E+00
 -1      2259 1.14000E+01 4.35050E+01 0.00000E+00
 -1      2260 5.80198E+01 1.67791E+01 0.00000E+00
 -1      2261 5.87766E+01 1.74006E+01 0.00000E+00
 -1      2262 1.29000E+01 4.35050E+01 0.00000E+00
 -1      2263 1.44000E+01 4.35050E+01 0.00000E+00
 -1      2264 1.21500E+01 4.22060E+01 0.00000E+00
 -1      2265 1.59000E+01 4.35050E+01 0.00000E+00
 -1      2266 1.74000E+01 4.35050E+01 0.00000E+00
 -1      2267 1.51500E+01 4.22060E+01 0.00000E+00
 -1      2268 1.89000E+01 4.35050E+01 0.00000E+00
 -1      2269 2.04000E+01 4.35050E+01 0.00000E+00
 -1      2270 1.81500E+01 4.22060E+01 0.00000E+00
 -1      2271 2.19000E+01 4.35050E+01 0.00000E+00
 -1      2272 2.34000E+01 4.35050E+01 0.00000E+00
 -1      2273 2.11500E+01 4.22060E+01 0.00000E+00
 -1      2274 2.49000E+01 4.35050E+01 0.00000E+00
 -1      2275 2.64000E+01 4.35050E+01 0.00000E+00
 -1      2276 2.41500E+01 4.22060E+01 0.00000E+00
 -1      2277 2.79000E+01 4.35050E+01 0.00000E+00
 -1      2278 2.94000E+01 4.35050E+01 0.00000E+00
 -1      2279 2.71500E+01 4.22060E+01 0.00000E+00
 -1      2280 3.09000E+01 4.35050E+01 0.00000E+00
 -1      2281 3.24000E+01 4.35050E+01 0.00000E+00
 -1      2282 3.01500E+01 4.22060E+01 0.00000E+00
 -1      2283 3.39000E+01 4.35050E+01 0.00000E+00
 -1      2284 3.54000E+01 4.35050E+01 0.00000E+00
 -1      2285 3.31500E+01 4.22060E+01 0.00000E+00
 -1      2286 3.69000E+01 4.35050E+01 0.00000E+00
 -1      2287 3.84000E+01 4.35050E+01 0.00000E+00
 -1      2288 3.61500E+01 4.22060E+01 0.00000E+00
 -1      2289 3.99000E+01 4.35050E+01 0.00000E+00
 -1      2290 4.14000E+01 4.35050E+01 0.00000E+00
 -1      2291 3.91500E+01 4.22060E+01 0.00000E+00
 -1      2292 4.29000E+01 4.35050E+01 0.00000E+00
 -1      2293 4.44000E+01 4.35050E+01 0.00000E+00
 -1      2294 4.21500E+01 4.22060E+01 0.00000E+00
 -1      2295 4.59000E+01 4.35050E+01 0.00000E+00
 -1      2296 4.74000E+01 4.35050E+01 0.00000E+00
 -1      2297 4.51500E+01 4.22060E+01 0.00000E+00
 -1      2298 4.89000E+01 4.35050E+01 0.00000E+00
 -1      2299 5.04000E+01 4.35050E+01 0.00000E+00
 -1      2300 4.81500E+01 4.22060E+01 0.00000E+00
 -1      2301 5.19000E+01 4.35050E+01 0.00000E+00
 -1      2302 5.34000E+01 4.35050E+01 0.00000E+00
 -1      2303 5.11500E+01 4.22060E+01 0.00000E+00
 -1      2304 5.49000E+01 4.35050E+01 0.00000E+00
 -1      2305 5.64000E+01 4.35050E+01 0.00000E+00
 -1      2306 5.41500E+01 4.22060E+01 0.00000E+00
 -1      2307 5.79000E+01 4.35050E+01 0.00000E+00
 -1      2308 5.94000E+01 4.35050E+01 0.00000E+00
 -1      2309 5.71500E+01 4.22060E+01 0.00000E+00
 -1      2310 6.09000E+01 4.35050E+01 0.00000E+00
 -1      2311 6.24000E+01 4.35050E+01 0.00000E+00
 -1      2312 6.01500E+01 4.22060E+01 0.00000E+00
 -1      2313 6.39000E+01 4.35050E+01 0.00000E+00
 -1      2314 6.54000E+01 4.35050E+01 0.00000E+00
 -1      2315 6.31500E+01 4.22060E+01 0.00000E+00
 -1      2316 6.69000E+01 4.35050E+01 0.00000E+00
 -1      2317 6.84000E+01 4.35050E+01 0.00000E+00
 -1      2318 6.61500E+01 4.22060E+01 0.00000E+00
 -1      2319 6.99000E+01 4.35050E+01 0.00000E+00
 -1      2320 7.14000E+01 4.35050E+01 0.00000E+00
 -1      2321 6.91500E+01 4.22060E+01 0.00000E+00
 -1      2322 7.29000E+01 4.35050E+01 0.00000E+00
 -1      2323 7.44000E+01 4.35050E+01 0.00000E+00
 -1      2324 7.21500E+01 4.22060E+01 0.00000E+00
 -1      2325 7.59000E+01 4.35050E+01 0.00000E+00
 -1      2326 7.74000E+01 4.35050E+01 0.00000E+00
 -1      2327 7.51500E+01 4.22060E+01 0.00000E+00
 -1      2328 7.89000E+01 4.35050E+01 0.00000E+00
 -1      2329 8.04000E+01 4.35050E+01 0.00000E+00
 -1      2330 7.81500E+01 4.22060E+01 0.00000E+00
 -1      2331 8.19000E+01 4.35050E+01 0.00000E+00
 -1      2332 8.34000E+01 4.35050E+01 0.00000E+00
 -1      2333 8.11500E+01 4.22060E+01 0.00000E+00
 -1      2334 8.49000E+01 4.35050E+01 0.00000E+00
 -1      2335 8.64000E+01 4.35050E+01 0.00000E+00
 -1      2336 8.41500E+01 4.22060E+01 0.00000E+00
 -1      2337 8.79000E+01 4.35050E+01 0.00000E+00
 -1      2338 8.94000E+01 4.35050E+01 0.00000E+00
 -1      2339 8.71500E+01 4.22060E+01 0.00000E+00
 -1      2340 9.09000E+01 4.35050E+01 0.00000E+00
 -1      2341 9.24000E+01 4.35050E+01 0.00000E+00
 -1      2342 9.01500E+01 4.22060E+01 0.00000E+00
 -1      2343 9.39000E+01 4.35050E+01 0.00000E+00
 -1      2344 9.54000E+01 4.35050E+01 0.00000E+00
 -1      2345 9.31500E+01 4.22060E+01 0.00000E+00
 -1      2346 9.69000E+01 4.35050E+01 0.00000E+00
 -1      2347 9.84000E+01 4.35050E+01 0.00000E+00
 -1      2348 9.61500E+01 4.22060E+01 0.00000E+00
 -1      2349 9.99000E+01 4.35050E+01 0.00000E+00
 -1      2350 1.01400E+02 4.35050E+01 0.00000E+00
 -1      2351 9.91500E+01 4.22060E+01 0.00000E+00
 -1      2352 1.02900E+02 4.35050E+01 0.00000E+00
 -1      2353 1.04400E+02 4.35050E+01 0.00000E+00
 -1      2354 1.02150E+02 4.22060E+01 0.00000E+00
 -1      2355 1.05900E+02 4.35050E+01 0.00000E+00
 -1      2356 1.07400E+02 4.35050E+01 0.00000E+00
 -1      2357 1.05150E+02 4.22060E+01 0.00000E+00
 -1      2358 1.08900E+02 4.35050E+01 0.00000E+00
 -1      2359 1.10400E+02 4.35050E+01 0.00000E+00
 -1      2360 1.08150E+02 4.22060E+01 0.00000E+00
 -1      2361 1.11900E+02 4.35050E+01 0.00000E+00
 -1      2362 1.13400E+02 4.35050E+01 0.00000E+00
 -1      2363 1.11150E+02 4.22060E+01 0.00000E+00
 -1      2364 1.14900E+02 4.35050E+01 0.00000E+00
 -1      2365 1.16400E+02 4.35050E+01 0.00000E+00
 -1      2366 1.14150E+02 4.22060E+01 0.00000E+00
 -1      2367 1.17900E+02 4.35050E+01 0.00000E+00
 -1      2368 1.19400E+02 4.35050E+01 0.00000E+00
 -1      2369 1.17150E+02 4.22060E+01 0.00000E+00
 -1      2370 1.20900E+02 4.35050E+01 0.00000E+00
 -1      2371 1.22400E+02 4.35050E+01 0.00000E+00
 -1      2372 1.20150E+02 4.22060E+01 0.00000E+00
 -1      2373 1.23900E+02 4.35050E+01 0.00000E+00
 -1      2374 1.25400E+02 4.35050E+01 0.00000E+00
 -1      2375 1.23150E+02 4.22060E+01 0.00000E+00
 -1      2376 1.26900E+02 4.35050E+01 0.00000E+00
 -1      2377 1.28400E+02 4.35050E+01 0.00000E+00
 -1      2378 1.26150E+02 4.22060E+01 0.00000E+00
 -1      2379 1.29900E+02 4.35050E+01 0.00000E+00
 -1      2380 1.31400E+02 4.35050E+01 0.00000E+00
 -1      2381 1.29150E+02 4.22060E+01 0.00000E+00
 -1      2382 1.32900E+02 4.35050E+01 0.00000E+00
 -1      2383 1.34400E+02 4.35050E+01 0.00000E+00
 -1      2384 1.32150E+02 4.22060E+01 0.00000E+00
 -1      2385 1.35900E+02 4.35050E+01 0.00000E+00
 -1      2386 1.37400E+02 4.35050E+01 0.00000E+00
 -1      2387 1.35150E+02 4.22060E+01 0.00000E+00
 -1      2388 1.38900E+02 4.35050E+01 0.00000E+00
 -1      2389 1.40400E+02 4.35050E+01 0.00000E+00
 -1      2390 1.38150E+02 4.22060E+01 0.00000E+00
 -1      2391 1.97850E+01 5.30525E+00 0.00000E+00
 -1      2392 1.82850E+01 5.30525E+00 0.00000E+00
 -1      2393 2.27850E+01 5.30525E+00 0.00000E+00
 -1      2394 2.12850E+01 5.30525E+00 0.00000E+00
 -1      2395 2.05350E+01 6.60425E+00 0.00000E+00
 -1      2396 2.57850E+01 5.30525E+00 0.00000E+00
 -1      2397 2.42850E+01 5.30525E+00 0.00000E+00
 -1      2398 2.35350E+01 6.60425E+00 0.00000E+00
 -1      2399 2.87850E+01 5.30525E+00 0.00000E+00
 -1      2400 2.72850E+01 5.30525E+00 0.00000E+00
 -1      2401 2.65350E+01 6.60425E+00 0.00000E+00
 -1      2402 3.17850E+01 5.30525E+00 0.00000E+00
 -1      2403 3.02850E+01 5.30525E+00 0.00000E+00
 -1      2404 2.95350E+01 6.60425E+00 0.00000E+00
 -1      2405 3.47850E+01 5.30525E+00 0.00000E+00
 -1      2406 3.32850E+01 5.30525E+00 0.00000E+00
 -1      2407 3.25350E+01 6.60425E+00 0.00000E+00
 -1      2408 3.77850E+01 5.30525E+00 0.00000E+00
 -1      2409 3.62850E+01 5.30525E+00 0.00000E+00
 -1      2410 3.55350E+01 6.60425E+00 0.00000E+00
 -1      2411 4.07850E+01 5.30525E+00 0.00000E+00
 -1      2412 3.92850E+01 5.30525E+00 0.00000E+00
 -1      2413 3.85350E+01 6.60425E+00 0.00000E+00
 -1      2414 4.37850E+01 5.30525E+00 0.00000E+00
 -1      2415 4.22850E+01 5.30525E+00 0.00000E+00
 -1      2416 4.15350E+01 6.60425E+00 0.00000E+00
 -1      2417 4.67850E+01 5.30525E+00 0.00000E+00
 -1      2418 4.52850E+01 5.30525E+00 0.00000E+00
 -1      2419 4.45350E+01 6.60425E+00 0.00000E+00
 -1      2420 4.97850E+01 5.30525E+00 0.00000E+00
 -1      2421 4.82850E+01 5.30525E+00 0.00000E+00
 -1      2422 4.75350E+01 6.60425E+00 0.00000E+00
 -1      2423 5.27850E+01 5.30525E+00 0.00000E+00
 -1      2424 5.12850E+01 5.30525E+00 0.00000E+00
 -1      2425 5.05350E+01 6.60425E+00 0.00000E+00
 -1      2426 5.57850E+01 5.30525E+00 0.00000E+00
 -1      2427 5.42850E+01 5.30525E+00 0.00000E+00
 -1      2428 5.35350E+01 6.60425E+00 0.00000E+00
 -1      2429 5.87850E+01 5.30525E+00 0.00000E+00
 -1      2430 5.72850E+01 5.30525E+00 0.00000E+00
 -1      2431 5.65350E+01 6.60425E+00 0.00000E+00
 -1      2432 6.17850E+01 5.30525E+00 0.00000E+00
 -1      2433 6.02850E+01 5.30525E+00 0.00000E+00
 -1      2434 5.95350E+01 6.60425E+00 0.00000E+00
 -1      2435 6.47850E+01 5.30525E+00 0.00000E+00
 -1      2436 6.32850E+01 5.30525E+00 0.00000E+00
 -1      2437 6.25350E+01 6.60425E+00 0.00000E+00
 -1      2438 6.77850E+01 5.30525E+00 0.00000E+00
 -1      2439 6.62850E+01 5.30525E+00 0.00000E+00
 -1      2440 6.55350E+01 6.60425E+00 0.00000E+00
 -1      2441 7.07850E+01 5.30525E+00 0.00000E+00
 -1      2442 6.92850E+01 5.30525E+00 0.00000E+00
 -1      2443 6.85350E+01 6.60425E+00 0.00000E+00
 -1      2444 7.37850E+01 5.30525E+00 0.00000E+00
 -1      2445 7.22850E+01 5.30525E+00 0.00000E+00
 -1      2446 7.15350E+01 6.60425E+00 0.00000E+00
 -1      2447 7.67850E+01 5.30525E+00 0.00000E+00
 -1      2448 7.52850E+01 5.30525E+00 0.00000E+00
 -1      2449 7.45350E+01 6.60425E+00 0.00000E+00
 -1      2450 7.97850E+01 5.30525E+00 0.00000E+00
 -1      2451 7.82850E+01 5.30525E+00 0.00000E+00
 -1      2452 7.75350E+01 6.60425E+00 0.00000E+00
 -1      2453 8.27850E+01 5.30525E+00 0.00000E+00
 -1      2454 8.12850E+01 5.30525E+00 0.00000E+00
 -1      2455 8.05350E+01 6.60425E+00 0.00000E+00
 -1      2456 8.57850E+01 5.30525E+00 0.00000E+00
 -1      2457 8.42850E+01 5.30525E+00 0.00000E+00
 -1      2458 8.35350E+01 6.60425E+00 0.00000E+00
 -1      2459 8.87850E+01 5.30525E+00 0.00000E+00
 -1      2460 8.72850E+01 5.30525E+00 0.00000E+00
 -1      2461 8.65350E+01 6.60425E+00 0.00000E+00
 -1      2462 9.17850E+01 5.30525E+00 0.00000E+00
 -1      2463 9.02850E+01 5.30525E+00 0.00000E+00
 -1      2464 8.95350E+01 6.60425E+00 0.00000E+00
 -1      2465 9.47850E+01 5.30525E+00 0.00000E+00
 -1      2466 9.32850E+01 5.30525E+00 0.00000E+00
 -1      2467 9.25350E+01 6.60425E+00 0.00000E+00
 -1      2468 9.77850E+01 5.30525E+00 0.00000E+00
 -1      2469 9.62850E+01 5.30525E+00 0.00000E+00
 -1      2470 9.55350E+01 6.60425E+00 0.00000E+00
 -1      2471 1.00785E+02 5.30525E+00 0.00000E+00
 -1      2472 9.92850E+01 5.30525E+00 0.00000E+00
 -1      2473 9.85350E+01 6.60425E+00 0.00000E+00
 -1      2474 1.03785E+02 5.30525E+00 0.00000E+00
 -1      2475 1.02285E+02 5.30525E+00 0.00000E+00
 -1      2476 1.01535E+02 6.60425E+00 0.00000E+00
 -1      2477 1.06785E+02 5.30525E+00 0.00000E+00
 -1      2478 1.05285E+02 5.30525E+00 0.00000E+00
 -1      2479 1.04535E+02 6.60425E+00 0.00000E+00
 -1      2480 1.09785E+02 5.30525E+00 0.00000E+00
 -1      2481 1.08285E+02 5.30525E+00 0.00000E+00
 -1      2482 1.07535E+02 6.60425E+00 0.00000E+00
 -1      2483 1.12785E+02 5.30525E+00 0.00000E+00
 -1      2484 1.11285E+02 5.30525E+00 0.00000E+00
 -1      2485 1.10535E+02 6.60425E+00 0.00000E+00
 -1      2486 1.15785E+02 5.30525E+00 0.00000E+00
 -1      2487 1.14285E+02 5.30525E+00 0.00000E+00
 -1      2488 1.13535E+02 6.60425E+00 0.00000E+00
 -1      2489 1.18785E+02 5.30525E+00 0.00000E+00
 -1      2490 1.17285E+02 5.30525E+00 0.00000E+00
 -1      2491 1.16535E+02 6.60425E+00 0.00000E+00
 -1      2492 1.21785E+02 5.30525E+00 0.00000E+00
 -1      2493 1.20285E+02 5.30525E+00 0.00000E+00
 -1      2494 1.19535E+02 6.60425E+00 0.00000E+00
 -1      2495 1.24785E+02 5.30525E+00 0.00000E+00
 -1      2496 1.23285E+02 5.30525E+00 0.00000E+00
 -1      2497 1.22535E+02 6.60425E+00 0.00000E+00
 -1      2498 1.27785E+02 5.30525E+00 0.00000E+00
 -1      2499 1.26285E+02 5.30525E+00 0.00000E+00
 -1      2500 1.25535E+02 6.60425E+00 0.00000E+00
 -1      2501 1.30785E+02 5.30525E+00 0.00000E+00
 -1      2502 1.29285E+02 5.30525E+00 0.00000E+00
 -1      2503 1.28535E+02 6.60425E+00 0.00000E+00
 -1      2504 1.33785E+02 5.30525E+00 0.00000E+00
 -1      2505 1.32285E+02 5.30525E+00 0.00000E+00
 -1      2506 1.31535E+02 6.60425E+00 0.00000E+00
 -1      2507 1.36785E+02 5.30525E+00 0.00000E+00
 -1      2508 1.35285E+02 5.30525E+00 0.00000E+00
 -1      2509 1.34535E+02 6.60425E+00 0.00000E+00
 -1      2510 1.39785E+02 5.30525E+00 0.00000E+00
 -1      2511 1.38285E+02 5.30525E+00 0.00000E+00
 -1      2512 1.37535E+02 6.60425E+00 0.00000E+00
 -1      2513 1.42785E+02 5.30525E+00 0.00000E+00
 -1      2514 1.41285E+02 5.30525E+00 0.00000E+00
 -1      2515 1.40535E+02 6.60425E+00 0.00000E+00
 -1      2516 1.44336E+02 5.26953E+00 0.00000E+00
 -1      2517 1.43505E+02 1.69125E+01 0.00000E+00
 -1      2518 1.43505E+02 1.54375E+01 0.00000E+00
 -1      2519 1.43505E+02 1.98625E+01 0.00000E+00
 -1      2520 1.43505E+02 1.83875E+01 0.00000E+00
 -1      2521 1.42206E+02 1.76500E+01 0.00000E+00
 -1      2522 1.43505E+02 1.10625E+01 0.00000E+00
 -1      2523 1.43505E+02 9.58750E+00 0.00000E+00
 -1      2524 1.43505E+02 1.39750E+01 0.00000E+00
 -1      2525 1.43505E+02 1.25250E+01 0.00000E+00
 -1      2526 1.42206E+02 1.17875E+01 0.00000E+00
 -1      2527 1.42206E+02 1.47125E+01 0.00000E+00
 -1      2528 1.43505E+02 2.28125E+01 0.00000E+00
 -1      2529 1.43505E+02 2.13375E+01 0.00000E+00
 -1      2530 1.42206E+02 2.06000E+01 0.00000E+00
 -1      2531 1.43505E+02 2.57625E+01 0.00000E+00
 -1      2532 1.43505E+02 2.42875E+01 0.00000E+00
 -1      2533 1.42206E+02 2.35500E+01 0.00000E+00
 -1      2534 1.43505E+02 2.87125E+01 0.00000E+00
 -1      2535 1.43505E+02 2.72375E+01 0.00000E+00
 -1      2536 1.42206E+02 2.65000E+01 0.00000E+00
 -1      2537 1.43505E+02 3.16125E+01 0.00000E+00
 -1      2538 1.43505E+02 3.01625E+01 0.00000E+00
 -1      2539 1.42206E+02 2.94250E+01 0.00000E+00
 -1      2540 1.43505E+02 3.45625E+01 0.00000E+00
 -1      2541 1.43505E+02 3.30875E+01 0.00000E+00
 -1      2542 1.42206E+02 3.23500E+01 0.00000E+00
 -1      2543 1.43505E+02 3.75125E+01 0.00000E+00
 -1      2544 1.43505E+02 3.60375E+01 0.00000E+00
 -1      2545 1.42206E+02 3.53000E+01 0.00000E+00
 -1      2546 1.43505E+02 4.04625E+01 0.00000E+00
 -1      2547 1.43505E+02 3.89875E+01 0.00000E+00
 -1      2548 1.42206E+02 3.82500E+01 0.00000E+00
 -1      2549 6.28713E+01 2.39496E+01 0.00000E+00
 -1      2550 6.28792E+01 2.50461E+01 0.00000E+00
 -1      2551 6.11720E+01 1.95014E+01 0.00000E+00
 -1      2552 6.17660E+01 2.04886E+01 0.00000E+00
 -1      2553 1.67850E+01 5.30525E+00 0.00000E+00
 -1      2554 1.52850E+01 5.30525E+00 0.00000E+00
 -1      2555 1.75350E+01 6.60425E+00 0.00000E+00
 -1      2556 1.44321E+02 4.30606E+01 0.00000E+00
 -1      2557 6.27991E+01 2.62535E+01 0.00000E+00
 -1      2558 6.26459E+01 2.73458E+01 0.00000E+00
 -1      2559 6.23197E+01 2.16112E+01 0.00000E+00
 -1      2560 6.27023E+01 2.26025E+01 0.00000E+00
 -1      2561 6.55950E+00 4.28890E+01 0.00000E+00
 -1      2562 8.53650E+00 4.32410E+01 0.00000E+00
 -1      2563 9.28650E+00 4.19420E+01 0.00000E+00
 -1      2564 6.55950E+00 4.14140E+01 0.00000E+00
 -1      2565 6.23711E+01 2.85071E+01 0.00000E+00
 -1      2566 6.20454E+01 2.94441E+01 0.00000E+00
 -1      2567 4.31791E+01 3.02724E+01 0.00000E+00
 -1      2568 4.25958E+01 2.92230E+01 0.00000E+00
 -1      2569 6.49500E+00 2.71625E+01 0.00000E+00
 -1      2570 6.49500E+00 2.86375E+01 0.00000E+00
 -1      2571 7.79400E+00 2.93750E+01 0.00000E+00
 -1      2572 7.79400E+00 2.64250E+01 0.00000E+00
 -1      2573 5.39283E+01 1.50876E+01 0.00000E+00
 -1      2574 5.49985E+01 1.53707E+01 0.00000E+00
 -1      2575 4.72690E+01 1.66244E+01 0.00000E+00
 -1      2576 4.81704E+01 1.61166E+01 0.00000E+00
 -1      2577 5.18179E+01 1.48648E+01 0.00000E+00
 -1      2578 5.27439E+01 1.49004E+01 0.00000E+00
 -1      2579 5.24011E+01 3.63078E+01 0.00000E+00
 -1      2580 5.10878E+01 3.61124E+01 0.00000E+00
 -1      2581 4.55000E+01 1.76362E+01 0.00000E+00
 -1      2582 4.62592E+01 1.70756E+01 0.00000E+00
 -1      2583 4.41763E+01 1.95415E+01 0.00000E+00
 -1      2584 4.47172E+01 1.86750E+01 0.00000E+00
 -1      2585 4.32021E+01 2.11883E+01 0.00000E+00
 -1      2586 4.36892E+01 2.03649E+01 0.00000E+00
 -1      2587 4.32678E+01 1.94997E+01 0.00000E+00
 -1      2588 4.21510E+01 2.57288E+01 0.00000E+00
 -1      2589 4.22222E+01 2.47489E+01 0.00000E+00
 -1      2590 4.21486E+01 2.78676E+01 0.00000E+00
 -1      2591 4.20444E+01 2.68627E+01 0.00000E+00
 -1      2592 4.42604E+01 3.20400E+01 0.00000E+00
 -1      2593 4.37515E+01 3.12408E+01 0.00000E+00
 -1      2594 4.80902E+01 3.48509E+01 0.00000E+00
 -1      2595 4.72841E+01 3.45191E+01 0.00000E+00
 -1      2596 4.98597E+01 3.57161E+01 0.00000E+00
 -1      2597 4.89750E+01 3.52835E+01 0.00000E+00
 -1      2598 4.82774E+01 3.58331E+01 0.00000E+00
 -1      2599 5.48803E+01 3.55932E+01 0.00000E+00
 -1      2600 5.39749E+01 3.60332E+01 0.00000E+00
 -1      2601 5.67215E+01 3.51881E+01 0.00000E+00
 -1      2602 5.58009E+01 3.53907E+01 0.00000E+00
 -1      2603 5.56864E+01 3.63066E+01 0.00000E+00
 -1      2604 5.88344E+01 3.40025E+01 0.00000E+00
 -1      2605 5.78667E+01 3.46931E+01 0.00000E+00
 -1      2606 6.03374E+01 3.22197E+01 0.00000E+00
 -1      2607 5.97525E+01 3.30079E+01 0.00000E+00
 -1      2608 6.15478E+01 3.05636E+01 0.00000E+00
 -1      2609 6.09426E+01 3.13917E+01 0.00000E+00
 -1      2610 6.13388E+01 3.22968E+01 0.00000E+00
 -1      2611 5.61414E+01 1.56781E+01 0.00000E+00
 -1      2612 5.70327E+01 1.60730E+01 0.00000E+00
 -1      2613 8.07525E+00 5.11044E+00 0.00000E+00
 -1      2614 6.57525E+00 5.11044E+00 0.00000E+00
 -1      2615 6.40575E+00 6.01981E+00 0.00000E+00
 -1      2616 8.82525E+00 6.40944E+00 0.00000E+00
 -1      2617 5.95413E+01 1.79386E+01 0.00000E+00
 -1      2618 6.03060E+01 1.84766E+01 0.00000E+00
 -1      2619 5.97071E+01 1.69651E+01 0.00000E+00
 -1      2620 5.58255E+01 1.47075E+01 0.00000E+00
 -1      2621 7.79400E+00 3.52687E+01 0.00000E+00
 -1      2622 6.49500E+00 3.60062E+01 0.00000E+00
 -1      2623 6.49500E+00 3.74750E+01 0.00000E+00
 -1      2624 1.45350E+01 6.60425E+00 0.00000E+00
 -1      2625 6.40575E+00 7.49481E+00 0.00000E+00
 -1      2626 6.32139E+01 2.80684E+01 0.00000E+00
 -1      2627 6.24416E+01 3.03492E+01 0.00000E+00
 -1      2628 5.79554E+01 1.57210E+01 0.00000E+00
 -1      2629 5.77522E+01 3.56091E+01 0.00000E+00
 -1      2630 1.43586E+02 6.56853E+00 0.00000E+00
 -1      2631 6.13378E+01 1.85280E+01 0.00000E+00
 -1      2632 1.43419E+02 7.72713E+00 0.00000E+00
 -1      2633 5.03902E+01 3.66620E+01 0.00000E+00
 -1      2634 6.35689E+01 2.56997E+01 0.00000E+00
 -1      2635 6.34800E+01 2.31452E+01 0.00000E+00
 -1      2636 6.27574E+01 2.06754E+01 0.00000E+00
 -1      2637 5.39830E+01 3.72597E+01 0.00000E+00
 -1      2638 5.31920E+01 3.67838E+01 0.00000E+00
 -1      2639 5.24092E+01 3.75343E+01 0.00000E+00
 -1      2640 4.44340E+01 3.28587E+01 0.00000E+00
 -1      2641 4.34562E+01 3.29197E+01 0.00000E+00
 -1      2642 4.46075E+01 3.36774E+01 0.00000E+00
 -1      2643 7.70475E+00 8.23231E+00 0.00000E+00
 -1      2644 4.16907E+01 2.88090E+01 0.00000E+00
 -1      2645 4.27103E+01 3.11327E+01 0.00000E+00
 -1      2646 4.25318E+01 2.16043E+01 0.00000E+00
 -1      2647 4.21104E+01 2.07391E+01 0.00000E+00
 -1      2648 4.18615E+01 2.20203E+01 0.00000E+00
 -1      2649 4.11042E+01 2.44725E+01 0.00000E+00
 -1      2650 4.18698E+01 2.40356E+01 0.00000E+00
 -1      2651 4.15173E+01 2.33224E+01 0.00000E+00
 -1      2652 4.45376E+01 1.76375E+01 0.00000E+00
 -1      2653 5.11217E+01 1.44794E+01 0.00000E+00
 -1      2654 5.16177E+01 1.36402E+01 0.00000E+00
 -1      2655 5.04256E+01 1.40939E+01 0.00000E+00
 -1      2656 4.64890E+01 3.45084E+01 0.00000E+00
 -1      2657 4.56938E+01 3.44978E+01 0.00000E+00
 -1      2658 4.65975E+01 3.53899E+01 0.00000E+00
 -1      2659 6.55950E+00 3.99453E+01 0.00000E+00
 -1      2660 4.86348E+01 1.53147E+01 0.00000E+00
 -1      2661 4.90991E+01 1.45128E+01 0.00000E+00
 -1      2662 4.78043E+01 1.48944E+01 0.00000E+00
 -1      2663 4.63302E+01 1.61475E+01 0.00000E+00
 -1      2664 5.34983E+01 1.42129E+01 0.00000E+00
 -1      2665 4.13501E+01 2.63197E+01 0.00000E+00
 -1      2666 1.42758E+02 4.35929E+01 0.00000E+00
 -1      2667 1.43241E+02 4.17323E+01 0.00000E+00
 -1      2668 1.41942E+02 4.09948E+01 0.00000E+00
 -1      2669 1.41414E+02 4.35342E+01 0.00000E+00
 -1      2670 1.42120E+02 8.46463E+00 0.00000E+00
 -1      2671 5.98155E+01 3.41195E+01 0.00000E+00
 -1      2672 1.40664E+02 4.22352E+01 0.00000E+00
 -1      2673 9.09300E+00 1.98250E+01 0.00000E+00
 -1      2674 9.09300E+00 2.12750E+01 0.00000E+00
 -1      2675 9.09300E+00 2.27500E+01 0.00000E+00
 -1      2676 9.09300E+00 2.42250E+01 0.00000E+00
 -1      2677 1.03920E+01 2.20250E+01 0.00000E+00
 -1      2678 9.09300E+00 1.39375E+01 0.00000E+00
 -1      2679 9.09300E+00 1.54125E+01 0.00000E+00
 -1      2680 9.09300E+00 1.09875E+01 0.00000E+00
 -1      2681 9.09300E+00 1.24625E+01 0.00000E+00
 -1      2682 1.03920E+01 1.32000E+01 0.00000E+00
 -1      2683 1.22850E+01 7.90325E+00 0.00000E+00
 -1      2684 1.07850E+01 7.90325E+00 0.00000E+00
 -1      2685 4.09408E+01 2.98079E+01 0.00000E+00
 -1      2686 4.04936E+01 2.84525E+01 0.00000E+00
 -1      2687 5.98182E+01 1.59948E+01 0.00000E+00
 -1      2688 6.05829E+01 1.65327E+01 0.00000E+00
 -1      2689 8.91450E+00 8.42712E+00 0.00000E+00
 -1      2690 5.55204E+01 1.35638E+01 0.00000E+00
 -1      2691 5.66632E+01 1.38712E+01 0.00000E+00
 -1      2692 6.34357E+01 3.01207E+01 0.00000E+00
 -1      2693 6.29382E+01 3.12402E+01 0.00000E+00
 -1      2694 1.44000E+01 4.09070E+01 0.00000E+00
 -1      2695 1.59000E+01 4.09070E+01 0.00000E+00
 -1      2696 1.74000E+01 4.09070E+01 0.00000E+00
 -1      2697 1.89000E+01 4.09070E+01 0.00000E+00
 -1      2698 1.66500E+01 3.96080E+01 0.00000E+00
 -1      2699 2.04000E+01 4.09070E+01 0.00000E+00
 -1      2700 2.19000E+01 4.09070E+01 0.00000E+00
 -1      2701 1.96500E+01 3.96080E+01 0.00000E+00
 -1      2702 2.34000E+01 4.09070E+01 0.00000E+00
 -1      2703 2.49000E+01 4.09070E+01 0.00000E+00
 -1      2704 2.26500E+01 3.96080E+01 0.00000E+00
 -1      2705 2.64000E+01 4.09070E+01 0.00000E+00
 -1      2706 2.79000E+01 4.09070E+01 0.00000E+00
 -1      2707 2.56500E+01 3.96080E+01 0.00000E+00
 -1      2708 2.94000E+01 4.09070E+01 0.00000E+00
 -1      2709 3.09000E+01 4.09070E+01 0.00000E+00
 -1      2710 2.86500E+01 3.96080E+01 0.00000E+00
 -1      2711 3.24000E+01 4.09070E+01 0.00000E+00
 -1      2712 3.39000E+01 4.09070E+01 0.00000E+00
 -1      2713 3.16500E+01 3.96080E+01 0.00000E+00
 -1      2714 3.54000E+01 4.09070E+01 0.00000E+00
 -1      2715 3.69000E+01 4.09070E+01 0.00000E+00
 -1      2716 3.46500E+01 3.96080E+01 0.00000E+00
 -1      2717 3.84000E+01 4.09070E+01 0.00000E+00
 -1      2718 3.99000E+01 4.09070E+01 0.00000E+00
 -1      2719 3.76500E+01 3.96080E+01 0.00000E+00
 -1      2720 4.14000E+01 4.09070E+01 0.00000E+00
 -1      2721 4.29000E+01 4.09070E+01 0.00000E+00
 -1      2722 4.06500E+01 3.96080E+01 0.00000E+00
 -1      2723 4.44000E+01 4.09070E+01 0.00000E+00
 -1      2724 4.59000E+01 4.09070E+01 0.00000E+00
 -1      2725 4.36500E+01 3.96080E+01 0.00000E+00
 -1      2726 4.74000E+01 4.09070E+01 0.00000E+00
 -1      2727 4.89000E+01 4.09070E+01 0.00000E+00
 -1      2728 4.66500E+01 3.96080E+01 0.00000E+00
 -1      2729 5.34000E+01 4.09295E+01 0.00000E+00
 -1      2730 5.49000E+01 4.09295E+01 0.00000E+00
 -1      2731 5.64000E+01 4.09295E+01 0.00000E+00
 -1      2732 5.79000E+01 4.09295E+01 0.00000E+00
 -1      2733 5.56500E+01 3.96530E+01 0.00000E+00
 -1      2734 5.94000E+01 4.09295E+01 0.00000E+00
 -1      2735 6.09000E+01 4.09295E+01 0.00000E+00
 -1      2736 5.86500E+01 3.96530E+01 0.00000E+00
 -1      2737 6.24000E+01 4.09295E+01 0.00000E+00
 -1      2738 6.39000E+01 4.09295E+01 0.00000E+00
 -1      2739 6.16500E+01 3.96530E+01 0.00000E+00
 -1      2740 6.54000E+01 4.09295E+01 0.00000E+00
 -1      2741 6.69000E+01 4.09295E+01 0.00000E+00
 -1      2742 6.46500E+01 3.96530E+01 0.00000E+00
 -1      2743 6.84000E+01 4.09295E+01 0.00000E+00
 -1      2744 6.99000E+01 4.09295E+01 0.00000E+00
 -1      2745 6.76500E+01 3.96530E+01 0.00000E+00
 -1      2746 7.14000E+01 4.09295E+01 0.00000E+00
 -1      2747 7.29000E+01 4.09295E+01 0.00000E+00
 -1      2748 7.06500E+01 3.96530E+01 0.00000E+00
 -1      2749 7.44000E+01 4.09295E+01 0.00000E+00
 -1      2750 7.59000E+01 4.09295E+01 0.00000E+00
 -1      2751 7.36500E+01 3.96530E+01 0.00000E+00
 -1      2752 7.74000E+01 4.09295E+01 0.00000E+00
 -1      2753 7.89000E+01 4.09295E+01 0.00000E+00
 -1      2754 7.66500E+01 3.96530E+01 0.00000E+00
 -1      2755 8.04000E+01 4.09295E+01 0.00000E+00
 -1      2756 8.19000E+01 4.09295E+01 0.00000E+00
 -1      2757 7.96500E+01 3.96530E+01 0.00000E+00
 -1      2758 8.34000E+01 4.09295E+01 0.00000E+00
 -1      2759 8.49000E+01 4.09295E+01 0.00000E+00
 -1      2760 8.26500E+01 3.96530E+01 0.00000E+00
 -1      2761 8.64000E+01 4.09295E+01 0.00000E+00
 -1      2762 8.79000E+01 4.09295E+01 0.00000E+00
 -1      2763 8.56500E+01 3.96530E+01 0.00000E+00
 -1      2764 8.94000E+01 4.09295E+01 0.00000E+00
 -1      2765 9.09000E+01 4.09295E+01 0.00000E+00
 -1      2766 8.86500E+01 3.96530E+01 0.00000E+00
 -1      2767 9.24000E+01 4.09295E+01 0.00000E+00
 -1      2768 9.39000E+01 4.09295E+01 0.00000E+00
 -1      2769 9.16500E+01 3.96530E+01 0.00000E+00
 -1      2770 9.54000E+01 4.09295E+01 0.00000E+00
 -1      2771 9.69000E+01 4.09295E+01 0.00000E+00
 -1      2772 9.46500E+01 3.96530E+01 0.00000E+00
 -1      2773 9.84000E+01 4.09295E+01 0.00000E+00
 -1      2774 9.99000E+01 4.09295E+01 0.00000E+00
 -1      2775 9.76500E+01 3.96530E+01 0.00000E+00
 -1      2776 1.01400E+02 4.09295E+01 0.00000E+00
 -1      2777 1.02900E+02 4.09295E+01 0.00000E+00
 -1      2778 1.00650E+02 3.96530E+01 0.00000E+00
 -1      2779 1.04400E+02 4.09295E+01 0.00000E+00
 -1      2780 1.05900E+02 4.09295E+01 0.00000E+00
 -1      2781 1.03650E+02 3.96530E+01 0.00000E+00
 -1      2782 1.07400E+02 4.09295E+01 0.00000E+00
 -1      2783 1.08900E+02 4.09295E+01 0.00000E+00
 -1      2784 1.06650E+02 3.96530E+01 0.00000E+00
 -1      2785 1.10400E+02 4.09295E+01 0.00000E+00
 -1      2786 1.11900E+02 4.09295E+01 0.00000E+00
 -1      2787 1.09650E+02 3.96530E+01 0.00000E+00
 -1      2788 1.13400E+02 4.09295E+01 0.00000E+00
 -1      2789 1.14900E+02 4.09295E+01 0.00000E+00
 -1      2790 1.12650E+02 3.96530E+01 0.00000E+00
 -1      2791 1.16400E+02 4.09295E+01 0.00000E+00
 -1      2792 1.17900E+02 4.09295E+01 0.00000E+00
 -1      2793 1.15650E+02 3.96530E+01 0.00000E+00
 -1      2794 1.19400E+02 4.09295E+01 0.00000E+00
 -1      2795 1.20900E+02 4.09295E+01 0.00000E+00
 -1      2796 1.18650E+02 3.96530E+01 0.00000E+00
 -1      2797 1.22400E+02 4.09295E+01 0.00000E+00
 -1      2798 1.23900E+02 4.09295E+01 0.00000E+00
 -1      2799 1.21650E+02 3.96530E+01 0.00000E+00
 -1      2800 1.25400E+02 4.09295E+01 0.00000E+00
 -1      2801 1.26900E+02 4.09295E+01 0.00000E+00
 -1      2802 1.24650E+02 3.96530E+01 0.00000E+00
 -1      2803 1.28400E+02 4.09295E+01 0.00000E+00
 -1      2804 1.29900E+02 4.09295E+01 0.00000E+00
 -1      2805 1.27650E+02 3.96530E+01 0.00000E+00
 -1      2806 1.31400E+02 4.09295E+01 0.00000E+00
 -1      2807 1.32900E+02 4.09295E+01 0.00000E+00
 -1      2808 1.30650E+02 3.96530E+01 0.00000E+00
 -1      2809 1.34400E+02 4.09295E+01 0.00000E+00
 -1      2810 1.35900E+02 4.09295E+01 0.00000E+00
 -1      2811 1.33650E+02 3.96530E+01 0.00000E+00
 -1      2812 1.37400E+02 4.09295E+01 0.00000E+00
 -1      2813 1.38900E+02 4.09295E+01 0.00000E+00
 -1      2814 1.36650E+02 3.96530E+01 0.00000E+00
 -1      2815 2.42850E+01 7.90325E+00 0.00000E+00
 -1      2816 2.27850E+01 7.90325E+00 0.00000E+00
 -1      2817 1.40706E+02 1.03250E+01 0.00000E+00
 -1      2818 1.40620E+02 8.46463E+00 0.00000E+00
 -1      2819 1.39120E+02 8.46463E+00 0.00000E+00
 -1      2820 2.12850E+01 7.90325E+00 0.00000E+00
 -1      2821 1.97850E+01 7.90325E+00 0.00000E+00
 -1      2822 2.20350E+01 9.20225E+00 0.00000E+00
 -1      2823 3.02850E+01 7.90325E+00 0.00000E+00
 -1      2824 2.87850E+01 7.90325E+00 0.00000E+00
 -1      2825 3.32850E+01 7.90325E+00 0.00000E+00
 -1      2826 3.17850E+01 7.90325E+00 0.00000E+00
 -1      2827 3.10350E+01 9.20225E+00 0.00000E+00
 -1      2828 3.62850E+01 7.90325E+00 0.00000E+00
 -1      2829 3.47850E+01 7.90325E+00 0.00000E+00
 -1      2830 3.40350E+01 9.20225E+00 0.00000E+00
 -1      2831 3.92850E+01 7.90325E+00 0.00000E+00
 -1      2832 3.77850E+01 7.90325E+00 0.00000E+00
 -1      2833 3.70350E+01 9.20225E+00 0.00000E+00
 -1      2834 4.22850E+01 7.90325E+00 0.00000E+00
 -1      2835 4.07850E+01 7.90325E+00 0.00000E+00
 -1      2836 4.00350E+01 9.20225E+00 0.00000E+00
 -1      2837 4.52850E+01 7.90325E+00 0.00000E+00
 -1      2838 4.37850E+01 7.90325E+00 0.00000E+00
 -1      2839 4.30350E+01 9.20225E+00 0.00000E+00
 -1      2840 4.82850E+01 7.90325E+00 0.00000E+00
 -1      2841 4.67850E+01 7.90325E+00 0.00000E+00
 -1      2842 4.60350E+01 9.20225E+00 0.00000E+00
 -1      2843 5.12850E+01 7.90325E+00 0.00000E+00
 -1      2844 4.97850E+01 7.90325E+00 0.00000E+00
 -1      2845 4.90350E+01 9.20225E+00 0.00000E+00
 -1      2846 5.42850E+01 7.90325E+00 0.00000E+00
 -1      2847 5.27850E+01 7.90325E+00 0.00000E+00
 -1      2848 5.20350E+01 9.20225E+00 0.00000E+00
 -1      2849 5.72850E+01 7.90325E+00 0.00000E+00
 -1      2850 5.57850E+01 7.90325E+00 0.00000E+00
 -1      2851 5.50350E+01 9.20225E+00 0.00000E+00
 -1      2852 6.02850E+01 7.90325E+00 0.00000E+00
 -1      2853 5.87850E+01 7.90325E+00 0.00000E+00
 -1      2854 5.80350E+01 9.20225E+00 0.00000E+00
 -1      2855 6.32850E+01 7.90325E+00 0.00000E+00
 -1      2856 6.17850E+01 7.90325E+00 0.00000E+00
 -1      2857 6.10350E+01 9.20225E+00 0.00000E+00
 -1      2858 6.62850E+01 7.90325E+00 0.00000E+00
 -1      2859 6.47850E+01 7.90325E+00 0.00000E+00
 -1      2860 6.40350E+01 9.20225E+00 0.00000E+00
 -1      2861 6.92850E+01 7.90325E+00 0.00000E+00
 -1      2862 6.77850E+01 7.90325E+00 0.00000E+00
 -1      2863 6.70350E+01 9.20225E+00 0.00000E+00
 -1      2864 7.22850E+01 7.90325E+00 0.00000E+00
 -1      2865 7.07850E+01 7.90325E+00 0.00000E+00
 -1      2866 7.00350E+01 9.20225E+00 0.00000E+00
 -1      2867 7.52850E+01 7.90325E+00 0.00000E+00
 -1      2868 7.37850E+01 7.90325E+00 0.00000E+00
 -1      2869 7.30350E+01 9.20225E+00 0.00000E+00
 -1      2870 7.82850E+01 7.90325E+00 0.00000E+00
 -1      2871 7.67850E+01 7.90325E+00 0.00000E+00
 -1      2872 7.60350E+01 9.20225E+00 0.00000E+00
 -1      2873 8.12850E+01 7.90325E+00 0.00000E+00
 -1      2874 7.97850E+01 7.90325E+00 0.00000E+00
 -1      2875 7.90350E+01 9.20225E+00 0.00000E+00
 -1      2876 8.42850E+01 7.90325E+00 0.00000E+00
 -1      2877 8.27850E+01 7.90325E+00 0.00000E+00
 -1      2878 8.20350E+01 9.20225E+00 0.00000E+00
 -1      2879 8.72850E+01 7.90325E+00 0.00000E+00
 -1      2880 8.57850E+01 7.90325E+00 0.00000E+00
 -1      2881 8.50350E+01 9.20225E+00 0.00000E+00
 -1      2882 9.02850E+01 7.90325E+00 0.00000E+00
 -1      2883 8.87850E+01 7.90325E+00 0.00000E+00
 -1      2884 8.80350E+01 9.20225E+00 0.00000E+00
 -1      2885 9.32850E+01 7.90325E+00 0.00000E+00
 -1      2886 9.17850E+01 7.90325E+00 0.00000E+00
 -1      2887 9.10350E+01 9.20225E+00 0.00000E+00
 -1      2888 9.62850E+01 7.90325E+00 0.00000E+00
 -1      2889 9.47850E+01 7.90325E+00 0.00000E+00
 -1      2890 9.40350E+01 9.20225E+00 0.00000E+00
 -1      2891 9.92850E+01 7.90325E+00 0.00000E+00
 -1      2892 9.77850E+01 7.90325E+00 0.00000E+00
 -1      2893 9.70350E+01 9.20225E+00 0.00000E+00
 -1      2894 1.02285E+02 7.90325E+00 0.00000E+00
 -1      2895 1.00785E+02 7.90325E+00 0.00000E+00
 -1      2896 1.00035E+02 9.20225E+00 0.00000E+00
 -1      2897 1.05285E+02 7.90325E+00 0.00000E+00
 -1      2898 1.03785E+02 7.90325E+00 0.00000E+00
 -1      2899 1.03035E+02 9.20225E+00 0.00000E+00
 -1      2900 1.08285E+02 7.90325E+00 0.00000E+00
 -1      2901 1.06785E+02 7.90325E+00 0.00000E+00
 -1      2902 1.06035E+02 9.20225E+00 0.00000E+00
 -1      2903 1.11285E+02 7.90325E+00 0.00000E+00
 -1      2904 1.09785E+02 7.90325E+00 0.00000E+00
 -1      2905 1.09035E+02 9.20225E+00 0.00000E+00
 -1      2906 1.14285E+02 7.90325E+00 0.00000E+00
 -1      2907 1.12785E+02 7.90325E+00 0.00000E+00
 -1      2908 1.12035E+02 9.20225E+00 0.00000E+00
 -1      2909 1.17285E+02 7.90325E+00 0.00000E+00
 -1      2910 1.15785E+02 7.90325E+00 0.00000E+00
 -1      2911 1.15035E+02 9.20225E+00 0.00000E+00
 -1      2912 1.20285E+02 7.90325E+00 0.00000E+00
 -1      2913 1.18785E+02 7.90325E+00 0.00000E+00
 -1      2914 1.18035E+02 9.20225E+00 0.00000E+00
 -1      2915 1.23285E+02 7.90325E+00 0.00000E+00
 -1      2916 1.21785E+02 7.90325E+00 0.00000E+00
 -1      2917 1.21035E+02 9.20225E+00 0.00000E+00
 -1      2918 1.26285E+02 7.90325E+00 0.00000E+00
 -1      2919 1.24785E+02 7.90325E+00 0.00000E+00
 -1      2920 1.24035E+02 9.20225E+00 0.00000E+00
 -1      2921 1.29285E+02 7.90325E+00 0.00000E+00
 -1      2922 1.27785E+02 7.90325E+00 0.00000E+00
 -1      2923 1.27035E+02 9.20225E+00 0.00000E+00
 -1      2924 1.32285E+02 7.90325E+00 0.00000E+00
 -1      2925 1.30785E+02 7.90325E+00 0.00000E+00
 -1      2926 1.30035E+02 9.20225E+00 0.00000E+00
 -1      2927 1.35285E+02 7.90325E+00 0.00000E+00
 -1      2928 1.33785E+02 7.90325E+00 0.00000E+00
 -1      2929 1.33035E+02 9.20225E+00 0.00000E+00
 -1      2930 1.37953E+02 8.18394E+00 0.00000E+00
 -1      2931 1.36453E+02 8.18394E+00 0.00000E+00
 -1      2932 1.35703E+02 9.48294E+00 0.00000E+00
 -1      2933 1.38038E+02 1.00443E+01 0.00000E+00
 -1      2934 6.18341E+01 1.72304E+01 0.00000E+00
 -1      2935 6.27000E+01 1.82552E+01 0.00000E+00
 -1      2936 1.40907E+02 2.42875E+01 0.00000E+00
 -1      2937 1.40907E+02 2.28125E+01 0.00000E+00
 -1      2938 6.09046E+01 3.42038E+01 0.00000E+00
 -1      2939 5.99865E+01 3.51984E+01 0.00000E+00
 -1      2940 1.40907E+02 1.83875E+01 0.00000E+00
 -1      2941 1.40907E+02 1.69125E+01 0.00000E+00
 -1      2942 1.40907E+02 2.72375E+01 0.00000E+00
 -1      2943 1.40907E+02 2.57625E+01 0.00000E+00
 -1      2944 1.39608E+02 2.50250E+01 0.00000E+00
 -1      2945 1.40907E+02 2.13375E+01 0.00000E+00
 -1      2946 1.40907E+02 1.98625E+01 0.00000E+00
 -1      2947 1.39608E+02 1.91250E+01 0.00000E+00
 -1      2948 1.39608E+02 2.20750E+01 0.00000E+00
 -1      2949 1.40907E+02 3.01375E+01 0.00000E+00
 -1      2950 1.40907E+02 2.86875E+01 0.00000E+00
 -1      2951 1.39608E+02 2.79500E+01 0.00000E+00
 -1      2952 1.40907E+02 3.30875E+01 0.00000E+00
 -1      2953 1.40907E+02 3.16125E+01 0.00000E+00
 -1      2954 1.39608E+02 3.08750E+01 0.00000E+00
 -1      2955 1.40907E+02 3.60375E+01 0.00000E+00
 -1      2956 1.40907E+02 3.45625E+01 0.00000E+00
 -1      2957 1.39608E+02 3.38250E+01 0.00000E+00
 -1      2958 6.42464E+01 2.23649E+01 0.00000E+00
 -1      2959 6.44154E+01 2.37120E+01 0.00000E+00
 -1      2960 6.33248E+01 1.96978E+01 0.00000E+00
 -1      2961 6.38785E+01 2.08204E+01 0.00000E+00
 -1      2962 8.85168E+00 4.05347E+01 0.00000E+00
 -1      2963 1.02152E+01 4.07987E+01 0.00000E+00
 -1      2964 4.21861E+01 3.20959E+01 0.00000E+00
 -1      2965 4.16137E+01 3.11275E+01 0.00000E+00
 -1      2966 1.82850E+01 7.90325E+00 0.00000E+00
 -1      2967 1.67850E+01 7.90325E+00 0.00000E+00
 -1      2968 1.90350E+01 9.20225E+00 0.00000E+00
 -1      2969 4.34614E+01 1.76408E+01 0.00000E+00
 -1      2970 4.42441E+01 1.66020E+01 0.00000E+00
 -1      2971 2.72850E+01 7.90325E+00 0.00000E+00
 -1      2972 2.57850E+01 7.90325E+00 0.00000E+00
 -1      2973 2.50350E+01 9.20225E+00 0.00000E+00
 -1      2974 2.80350E+01 9.20225E+00 0.00000E+00
 -1      2975 1.15576E+01 4.08528E+01 0.00000E+00
 -1      2976 1.30576E+01 4.08528E+01 0.00000E+00
 -1      2977 1.38076E+01 3.95538E+01 0.00000E+00
 -1      2978 1.11228E+01 3.94455E+01 0.00000E+00
 -1      2979 5.87315E+01 3.63025E+01 0.00000E+00
 -1      2980 5.75863E+01 3.67975E+01 0.00000E+00
 -1      2981 9.09300E+00 1.68813E+01 0.00000E+00
 -1      2982 9.09300E+00 1.83563E+01 0.00000E+00
 -1      2983 1.03920E+01 1.90812E+01 0.00000E+00
 -1      2984 1.03920E+01 1.61437E+01 0.00000E+00
 -1      2985 1.52850E+01 7.90325E+00 0.00000E+00
 -1      2986 1.37850E+01 7.90325E+00 0.00000E+00
 -1      2987 1.30350E+01 9.20225E+00 0.00000E+00
 -1      2988 1.60350E+01 9.20225E+00 0.00000E+00
 -1      2989 5.78442E+01 1.45825E+01 0.00000E+00
 -1      2990 5.88312E+01 1.52886E+01 0.00000E+00
 -1      2991 5.97069E+01 1.48562E+01 0.00000E+00
 -1      2992 9.09300E+00 3.15875E+01 0.00000E+00
 -1      2993 9.09300E+00 3.30625E+01 0.00000E+00
 -1      2994 4.54071E+01 1.54371E+01 0.00000E+00
 -1      2995 4.64169E+01 1.49860E+01 0.00000E+00
 -1      2996 6.43810E+01 2.51472E+01 0.00000E+00
 -1      2997 6.43009E+01 2.63546E+01 0.00000E+00
 -1      2998 4.03596E+01 2.67986E+01 0.00000E+00
 -1      2999 4.04662E+01 2.56647E+01 0.00000E+00
 -1      3000 5.30530E+01 1.31895E+01 0.00000E+00
 -1      3001 5.42375E+01 1.33767E+01 0.00000E+00
 -1      3002 4.22862E+01 1.94748E+01 0.00000E+00
 -1      3003 4.27733E+01 1.86514E+01 0.00000E+00
 -1      3004 1.40928E+02 4.09655E+01 0.00000E+00
 -1      3005 1.41192E+02 3.96958E+01 0.00000E+00
 -1      3006 1.39914E+02 4.09362E+01 0.00000E+00
 -1      3007 7.48818E+00 3.88019E+01 0.00000E+00
 -1      3008 4.82695E+01 3.69703E+01 0.00000E+00
 -1      3009 4.73847E+01 3.65377E+01 0.00000E+00
 -1      3010 5.07408E+01 3.76763E+01 0.00000E+00
 -1      3011 4.95128E+01 3.72800E+01 0.00000E+00
 -1      3012 5.63490E+01 3.71247E+01 0.00000E+00
 -1      3013 5.54284E+01 3.73272E+01 0.00000E+00
 -1      3014 6.24691E+01 3.24877E+01 0.00000E+00
 -1      3015 6.18638E+01 3.33157E+01 0.00000E+00
 -1      3016 6.42674E+01 2.77045E+01 0.00000E+00
 -1      3017 6.39925E+01 2.88658E+01 0.00000E+00
 -1      3018 9.09300E+00 3.45313E+01 0.00000E+00
 -1      3019 9.09300E+00 3.60000E+01 0.00000E+00
 -1      3020 1.03920E+01 3.37938E+01 0.00000E+00
 -1      3021 1.03920E+01 2.49750E+01 0.00000E+00
 -1      3022 9.09300E+00 2.57000E+01 0.00000E+00
 -1      3023 9.09300E+00 2.71750E+01 0.00000E+00
 -1      3024 5.75390E+01 1.34388E+01 0.00000E+00
 -1      3025 3.96097E+01 2.77975E+01 0.00000E+00
 -1      3026 6.19451E+01 1.62600E+01 0.00000E+00
 -1      3027 6.50795E+01 2.71521E+01 0.00000E+00
 -1      3028 9.66450E+00 9.72612E+00 0.00000E+00
 -1      3029 5.50752E+01 1.25404E+01 0.00000E+00
 -1      3030 6.34632E+01 3.22591E+01 0.00000E+00
 -1      3031 5.73283E+01 3.78182E+01 0.00000E+00
 -1      3032 1.39164E+02 3.96598E+01 0.00000E+00
 -1      3033 5.04000E+01 4.09183E+01 0.00000E+00
 -1      3034 5.19000E+01 4.09183E+01 0.00000E+00
 -1      3035 5.26500E+01 3.96418E+01 0.00000E+00
 -1      3036 4.96500E+01 3.96193E+01 0.00000E+00
 -1      3037 6.38211E+01 1.84002E+01 0.00000E+00
 -1      3038 4.16159E+01 1.98908E+01 0.00000E+00
 -1      3039 4.11213E+01 1.90425E+01 0.00000E+00
 -1      3040 4.09455E+01 2.03068E+01 0.00000E+00
 -1      3041 4.32546E+01 1.54438E+01 0.00000E+00
 -1      3042 4.43308E+01 1.54405E+01 0.00000E+00
 -1      3043 4.44175E+01 1.42789E+01 0.00000E+00
 -1      3044 5.98207E+01 3.63869E+01 0.00000E+00
 -1      3045 1.39608E+02 1.61875E+01 0.00000E+00
 -1      3046 1.40907E+02 1.54500E+01 0.00000E+00
 -1      3047 1.40907E+02 1.39875E+01 0.00000E+00
 -1      3048 1.40706E+02 1.17875E+01 0.00000E+00
 -1      3049 4.23596E+01 3.29146E+01 0.00000E+00
 -1      3050 4.12631E+01 3.29094E+01 0.00000E+00
 -1      3051 4.25331E+01 3.37333E+01 0.00000E+00
 -1      3052 6.51474E+01 2.43669E+01 0.00000E+00
 -1      3053 6.48139E+01 2.13872E+01 0.00000E+00
 -1      3054 6.57492E+01 2.19540E+01 0.00000E+00
 -1      3055 6.53813E+01 2.04095E+01 0.00000E+00
 -1      3056 1.41192E+02 3.82207E+01 0.00000E+00
 -1      3057 4.65896E+01 3.65271E+01 0.00000E+00
 -1      3058 4.04166E+01 3.07710E+01 0.00000E+00
 -1      3059 5.46455E+01 3.80777E+01 0.00000E+00
 -1      3060 4.47160E+01 3.45589E+01 0.00000E+00
 -1      3061 4.37382E+01 3.46199E+01 0.00000E+00
 -1      3062 4.48245E+01 3.54403E+01 0.00000E+00
 -1      3063 6.20349E+01 3.43947E+01 0.00000E+00
 -1      3064 1.39529E+02 3.85715E+01 0.00000E+00
 -1      3065 1.40542E+02 3.71258E+01 0.00000E+00
 -1      3066 1.39243E+02 3.63883E+01 0.00000E+00
 -1      3067 1.38514E+02 3.85648E+01 0.00000E+00
 -1      3068 4.10959E+01 2.24572E+01 0.00000E+00
 -1      3069 4.06745E+01 2.15920E+01 0.00000E+00
 -1      3070 4.03304E+01 2.28941E+01 0.00000E+00
 -1      3071 4.01137E+01 2.49514E+01 0.00000E+00
 -1      3072 4.95951E+01 1.36737E+01 0.00000E+00
 -1      3073 5.00911E+01 1.28346E+01 0.00000E+00
 -1      3074 4.87646E+01 1.32534E+01 0.00000E+00
 -1      3075 4.68812E+01 1.41840E+01 0.00000E+00
 -1      3076 9.09300E+00 2.86437E+01 0.00000E+00
 -1      3077 9.09300E+00 3.01187E+01 0.00000E+00
 -1      3078 1.03920E+01 3.08563E+01 0.00000E+00
 -1      3079 1.03920E+01 2.79188E+01 0.00000E+00
 -1      3080 4.24797E+01 1.76159E+01 0.00000E+00
 -1      3081 1.09635E+01 1.04636E+01 0.00000E+00
 -1      3082 6.44891E+01 2.97568E+01 0.00000E+00
 -1      3083 4.86201E+01 3.79846E+01 0.00000E+00
 -1      3084 8.78718E+00 3.80644E+01 0.00000E+00
 -1      3085 5.51636E+01 1.07778E+01 0.00000E+00
 -1      3086 5.64465E+01 1.09649E+01 0.00000E+00
 -1      3087 1.16910E+01 1.24625E+01 0.00000E+00
 -1      3088 1.16910E+01 1.39375E+01 0.00000E+00
 -1      3089 6.44494E+01 1.72715E+01 0.00000E+00
 -1      3090 6.50742E+01 1.87140E+01 0.00000E+00
 -1      3091 1.89000E+01 3.83090E+01 0.00000E+00
 -1      3092 2.04000E+01 3.83090E+01 0.00000E+00
 -1      3093 2.19000E+01 3.83090E+01 0.00000E+00
 -1      3094 2.34000E+01 3.83090E+01 0.00000E+00
 -1      3095 2.11500E+01 3.70100E+01 0.00000E+00
 -1      3096 2.49000E+01 3.83090E+01 0.00000E+00
 -1      3097 2.64000E+01 3.83090E+01 0.00000E+00
 -1      3098 2.41500E+01 3.70100E+01 0.00000E+00
 -1      3099 2.79000E+01 3.83090E+01 0.00000E+00
 -1      3100 2.94000E+01 3.83090E+01 0.00000E+00
 -1      3101 2.71500E+01 3.70100E+01 0.00000E+00
 -1      3102 3.09000E+01 3.83090E+01 0.00000E+00
 -1      3103 3.24000E+01 3.83090E+01 0.00000E+00
 -1      3104 3.01500E+01 3.70100E+01 0.00000E+00
 -1      3105 3.39000E+01 3.83090E+01 0.00000E+00
 -1      3106 3.54000E+01 3.83090E+01 0.00000E+00
 -1      3107 3.31500E+01 3.70100E+01 0.00000E+00
 -1      3108 3.69000E+01 3.83090E+01 0.00000E+00
 -1      3109 3.84000E+01 3.83090E+01 0.00000E+00
 -1      3110 3.61500E+01 3.70100E+01 0.00000E+00
 -1      3111 3.99000E+01 3.83090E+01 0.00000E+00
 -1      3112 4.14000E+01 3.83090E+01 0.00000E+00
 -1      3113 3.91500E+01 3.70100E+01 0.00000E+00
 -1      3114 4.29983E+01 3.75547E+01 0.00000E+00
 -1      3115 4.44983E+01 3.75547E+01 0.00000E+00
 -1      3116 6.09000E+01 3.84604E+01 0.00000E+00
 -1      3117 6.24000E+01 3.84604E+01 0.00000E+00
 -1      3118 6.39000E+01 3.84604E+01 0.00000E+00
 -1      3119 6.54000E+01 3.84604E+01 0.00000E+00
 -1      3120 6.31500E+01 3.72677E+01 0.00000E+00
 -1      3121 6.69000E+01 3.84604E+01 0.00000E+00
 -1      3122 6.84000E+01 3.84604E+01 0.00000E+00
 -1      3123 6.61500E+01 3.72677E+01 0.00000E+00
 -1      3124 6.99000E+01 3.84604E+01 0.00000E+00
 -1      3125 7.14000E+01 3.84604E+01 0.00000E+00
 -1      3126 6.91500E+01 3.72677E+01 0.00000E+00
 -1      3127 7.29000E+01 3.84604E+01 0.00000E+00
 -1      3128 7.44000E+01 3.84604E+01 0.00000E+00
 -1      3129 7.21500E+01 3.72677E+01 0.00000E+00
 -1      3130 7.59000E+01 3.84604E+01 0.00000E+00
 -1      3131 7.74000E+01 3.84604E+01 0.00000E+00
 -1      3132 7.51500E+01 3.72677E+01 0.00000E+00
 -1      3133 7.89000E+01 3.84604E+01 0.00000E+00
 -1      3134 8.04000E+01 3.84604E+01 0.00000E+00
 -1      3135 7.81500E+01 3.72677E+01 0.00000E+00
 -1      3136 8.19000E+01 3.84604E+01 0.00000E+00
 -1      3137 8.34000E+01 3.84604E+01 0.00000E+00
 -1      3138 8.11500E+01 3.72677E+01 0.00000E+00
 -1      3139 8.49000E+01 3.84604E+01 0.00000E+00
 -1      3140 8.64000E+01 3.84604E+01 0.00000E+00
 -1      3141 8.41500E+01 3.72677E+01 0.00000E+00
 -1      3142 8.79000E+01 3.84604E+01 0.00000E+00
 -1      3143 8.94000E+01 3.84604E+01 0.00000E+00
 -1      3144 8.71500E+01 3.72677E+01 0.00000E+00
 -1      3145 9.09000E+01 3.84604E+01 0.00000E+00
 -1      3146 9.24000E+01 3.84604E+01 0.00000E+00
 -1      3147 9.01500E+01 3.72677E+01 0.00000E+00
 -1      3148 9.39000E+01 3.84604E+01 0.00000E+00
 -1      3149 9.54000E+01 3.84604E+01 0.00000E+00
 -1      3150 9.31500E+01 3.72677E+01 0.00000E+00
 -1      3151 9.69000E+01 3.84604E+01 0.00000E+00
 -1      3152 9.84000E+01 3.84604E+01 0.00000E+00
 -1      3153 9.61500E+01 3.72677E+01 0.00000E+00
 -1      3154 9.99000E+01 3.84604E+01 0.00000E+00
 -1      3155 1.01400E+02 3.84604E+01 0.00000E+00
 -1      3156 9.91500E+01 3.72677E+01 0.00000E+00
 -1      3157 1.02900E+02 3.84604E+01 0.00000E+00
 -1      3158 1.04400E+02 3.84604E+01 0.00000E+00
 -1      3159 1.02150E+02 3.72677E+01 0.00000E+00
 -1      3160 1.05900E+02 3.84604E+01 0.00000E+00
 -1      3161 1.07400E+02 3.84604E+01 0.00000E+00
 -1      3162 1.05150E+02 3.72677E+01 0.00000E+00
 -1      3163 1.08900E+02 3.84604E+01 0.00000E+00
 -1      3164 1.10400E+02 3.84604E+01 0.00000E+00
 -1      3165 1.08150E+02 3.72677E+01 0.00000E+00
 -1      3166 1.11900E+02 3.84604E+01 0.00000E+00
 -1      3167 1.13400E+02 3.84604E+01 0.00000E+00
 -1      3168 1.11150E+02 3.72677E+01 0.00000E+00
 -1      3169 1.14900E+02 3.84604E+01 0.00000E+00
 -1      3170 1.16400E+02 3.84604E+01 0.00000E+00
 -1      3171 1.14150E+02 3.72677E+01 0.00000E+00
 -1      3172 1.17900E+02 3.84604E+01 0.00000E+00
 -1      3173 1.19400E+02 3.84604E+01 0.00000E+00
 -1      3174 1.17150E+02 3.72677E+01 0.00000E+00
 -1      3175 1.20900E+02 3.84604E+01 0.00000E+00
 -1      3176 1.22400E+02 3.84604E+01 0.00000E+00
 -1      3177 1.20150E+02 3.72677E+01 0.00000E+00
 -1      3178 1.23900E+02 3.84604E+01 0.00000E+00
 -1      3179 1.25400E+02 3.84604E+01 0.00000E+00
 -1      3180 1.23150E+02 3.72677E+01 0.00000E+00
 -1      3181 1.26900E+02 3.84604E+01 0.00000E+00
 -1      3182 1.28400E+02 3.84604E+01 0.00000E+00
 -1      3183 1.26150E+02 3.72677E+01 0.00000E+00
 -1      3184 1.29900E+02 3.84604E+01 0.00000E+00
 -1      3185 1.31400E+02 3.84604E+01 0.00000E+00
 -1      3186 1.29150E+02 3.72677E+01 0.00000E+00
 -1      3187 1.32900E+02 3.84604E+01 0.00000E+00
 -1      3188 1.34400E+02 3.84604E+01 0.00000E+00
 -1      3189 1.32150E+02 3.72677E+01 0.00000E+00
 -1      3190 1.35707E+02 3.85126E+01 0.00000E+00
 -1      3191 1.37207E+02 3.85126E+01 0.00000E+00
 -1      3192 1.37572E+02 3.74243E+01 0.00000E+00
 -1      3193 1.34957E+02 3.73199E+01 0.00000E+00
 -1      3194 2.27850E+01 1.05013E+01 0.00000E+00
 -1      3195 2.12850E+01 1.05013E+01 0.00000E+00
 -1      3196 3.47850E+01 1.05013E+01 0.00000E+00
 -1      3197 3.32850E+01 1.05013E+01 0.00000E+00
 -1      3198 3.17850E+01 1.05013E+01 0.00000E+00
 -1      3199 3.02850E+01 1.05013E+01 0.00000E+00
 -1      3200 3.25350E+01 1.18003E+01 0.00000E+00
 -1      3201 4.07850E+01 1.05013E+01 0.00000E+00
 -1      3202 3.92850E+01 1.05013E+01 0.00000E+00
 -1      3203 4.39381E+01 1.17423E+01 0.00000E+00
 -1      3204 4.24381E+01 1.17423E+01 0.00000E+00
 -1      3205 4.98978E+01 1.08083E+01 0.00000E+00
 -1      3206 4.83978E+01 1.08083E+01 0.00000E+00
 -1      3207 5.36636E+01 1.07778E+01 0.00000E+00
 -1      3208 5.79465E+01 1.09649E+01 0.00000E+00
 -1      3209 6.17850E+01 1.05013E+01 0.00000E+00
 -1      3210 6.02850E+01 1.05013E+01 0.00000E+00
 -1      3211 6.47850E+01 1.05013E+01 0.00000E+00
 -1      3212 6.32850E+01 1.05013E+01 0.00000E+00
 -1      3213 6.25350E+01 1.18003E+01 0.00000E+00
 -1      3214 6.77850E+01 1.05013E+01 0.00000E+00
 -1      3215 6.62850E+01 1.05013E+01 0.00000E+00
 -1      3216 6.55350E+01 1.18003E+01 0.00000E+00
 -1      3217 7.07850E+01 1.05013E+01 0.00000E+00
 -1      3218 6.92850E+01 1.05013E+01 0.00000E+00
 -1      3219 6.85350E+01 1.18003E+01 0.00000E+00
 -1      3220 7.37850E+01 1.05013E+01 0.00000E+00
 -1      3221 7.22850E+01 1.05013E+01 0.00000E+00
 -1      3222 7.15350E+01 1.18003E+01 0.00000E+00
 -1      3223 7.67850E+01 1.05013E+01 0.00000E+00
 -1      3224 7.52850E+01 1.05013E+01 0.00000E+00
 -1      3225 7.45350E+01 1.18003E+01 0.00000E+00
 -1      3226 7.97850E+01 1.05013E+01 0.00000E+00
 -1      3227 7.82850E+01 1.05013E+01 0.00000E+00
 -1      3228 7.75350E+01 1.18003E+01 0.00000E+00
 -1      3229 8.27850E+01 1.05013E+01 0.00000E+00
 -1      3230 8.12850E+01 1.05013E+01 0.00000E+00
 -1      3231 8.05350E+01 1.18003E+01 0.00000E+00
 -1      3232 8.57850E+01 1.05013E+01 0.00000E+00
 -1      3233 8.42850E+01 1.05013E+01 0.00000E+00
 -1      3234 8.35350E+01 1.18003E+01 0.00000E+00
 -1      3235 8.87850E+01 1.05013E+01 0.00000E+00
 -1      3236 8.72850E+01 1.05013E+01 0.00000E+00
 -1      3237 8.65350E+01 1.18003E+01 0.00000E+00
 -1      3238 9.17850E+01 1.05013E+01 0.00000E+00
 -1      3239 9.02850E+01 1.05013E+01 0.00000E+00
 -1      3240 8.95350E+01 1.18003E+01 0.00000E+00
 -1      3241 9.47850E+01 1.05013E+01 0.00000E+00
 -1      3242 9.32850E+01 1.05013E+01 0.00000E+00
 -1      3243 9.25350E+01 1.18003E+01 0.00000E+00
 -1      3244 9.77850E+01 1.05013E+01 0.00000E+00
 -1      3245 9.62850E+01 1.05013E+01 0.00000E+00
 -1      3246 9.55350E+01 1.18003E+01 0.00000E+00
 -1      3247 1.00785E+02 1.05013E+01 0.00000E+00
 -1      3248 9.92850E+01 1.05013E+01 0.00000E+00
 -1      3249 9.85350E+01 1.18003E+01 0.00000E+00
 -1      3250 1.03785E+02 1.05013E+01 0.00000E+00
 -1      3251 1.02285E+02 1.05013E+01 0.00000E+00
 -1      3252 1.01535E+02 1.18003E+01 0.00000E+00
 -1      3253 1.06785E+02 1.05013E+01 0.00000E+00
 -1      3254 1.05285E+02 1.05013E+01 0.00000E+00
 -1      3255 1.04535E+02 1.18003E+01 0.00000E+00
 -1      3256 1.09785E+02 1.05013E+01 0.00000E+00
 -1      3257 1.08285E+02 1.05013E+01 0.00000E+00
 -1      3258 1.07535E+02 1.18003E+01 0.00000E+00
 -1      3259 1.12785E+02 1.05013E+01 0.00000E+00
 -1      3260 1.11285E+02 1.05013E+01 0.00000E+00
 -1      3261 1.10535E+02 1.18003E+01 0.00000E+00
 -1      3262 1.15785E+02 1.05013E+01 0.00000E+00
 -1      3263 1.14285E+02 1.05013E+01 0.00000E+00
 -1      3264 1.13535E+02 1.18003E+01 0.00000E+00
 -1      3265 1.18785E+02 1.05013E+01 0.00000E+00
 -1      3266 1.17285E+02 1.05013E+01 0.00000E+00
 -1      3267 1.16535E+02 1.18003E+01 0.00000E+00
 -1      3268 1.21785E+02 1.05013E+01 0.00000E+00
 -1      3269 1.20285E+02 1.05013E+01 0.00000E+00
 -1      3270 1.19535E+02 1.18003E+01 0.00000E+00
 -1      3271 1.24785E+02 1.05013E+01 0.00000E+00
 -1      3272 1.23285E+02 1.05013E+01 0.00000E+00
 -1      3273 1.22535E+02 1.18003E+01 0.00000E+00
 -1      3274 1.27785E+02 1.05013E+01 0.00000E+00
 -1      3275 1.26285E+02 1.05013E+01 0.00000E+00
 -1      3276 1.25535E+02 1.18003E+01 0.00000E+00
 -1      3277 1.30785E+02 1.05013E+01 0.00000E+00
 -1      3278 1.29285E+02 1.05013E+01 0.00000E+00
 -1      3279 1.28535E+02 1.18003E+01 0.00000E+00
 -1      3280 1.33785E+02 1.05013E+01 0.00000E+00
 -1      3281 1.32285E+02 1.05013E+01 0.00000E+00
 -1      3282 1.31535E+02 1.18003E+01 0.00000E+00
 -1      3283 6.60373E+01 2.65005E+01 0.00000E+00
 -1      3284 6.60038E+01 2.78504E+01 0.00000E+00
 -1      3285 5.19782E+01 1.29841E+01 0.00000E+00
 -1      3286 5.27174E+01 1.21479E+01 0.00000E+00
 -1      3287 1.38309E+02 2.86750E+01 0.00000E+00
 -1      3288 1.38309E+02 2.72250E+01 0.00000E+00
 -1      3289 1.38309E+02 2.57500E+01 0.00000E+00
 -1      3290 1.38309E+02 2.42750E+01 0.00000E+00
 -1      3291 1.37010E+02 2.64750E+01 0.00000E+00
 -1      3292 1.97850E+01 1.05013E+01 0.00000E+00
 -1      3293 1.82850E+01 1.05013E+01 0.00000E+00
 -1      3294 2.05350E+01 1.18003E+01 0.00000E+00
 -1      3295 1.38309E+02 3.16250E+01 0.00000E+00
 -1      3296 1.38309E+02 3.01500E+01 0.00000E+00
 -1      3297 1.37010E+02 2.94250E+01 0.00000E+00
 -1      3298 5.12820E+01 1.25987E+01 0.00000E+00
 -1      3299 5.25887E+01 1.05724E+01 0.00000E+00
 -1      3300 5.04515E+01 1.21784E+01 0.00000E+00
 -1      3301 1.38309E+02 3.45750E+01 0.00000E+00
 -1      3302 1.38309E+02 3.31000E+01 0.00000E+00
 -1      3303 1.37010E+02 3.23750E+01 0.00000E+00
 -1      3304 5.21751E+01 3.88204E+01 0.00000E+00
 -1      3305 5.13841E+01 3.83444E+01 0.00000E+00
 -1      3306 3.77850E+01 1.05013E+01 0.00000E+00
 -1      3307 3.62850E+01 1.05013E+01 0.00000E+00
 -1      3308 3.55350E+01 1.18003E+01 0.00000E+00
 -1      3309 3.85350E+01 1.18003E+01 0.00000E+00
 -1      3310 5.51205E+01 3.88992E+01 0.00000E+00
 -1      3311 5.36751E+01 3.88316E+01 0.00000E+00
 -1      3312 5.97612E+01 1.37376E+01 0.00000E+00
 -1      3313 6.07482E+01 1.44437E+01 0.00000E+00
 -1      3314 6.61894E+01 2.36738E+01 0.00000E+00
 -1      3315 6.61551E+01 2.51090E+01 0.00000E+00
 -1      3316 3.98398E+01 3.18965E+01 0.00000E+00
 -1      3317 3.91669E+01 3.05769E+01 0.00000E+00
 -1      3318 5.91275E+01 1.16762E+01 0.00000E+00
 -1      3319 5.66205E+01 3.88992E+01 0.00000E+00
 -1      3320 1.39407E+02 1.25250E+01 0.00000E+00
 -1      3321 6.19993E+01 1.51413E+01 0.00000E+00
 -1      3322 6.32505E+01 1.58390E+01 0.00000E+00
 -1      3323 6.20536E+01 1.40227E+01 0.00000E+00
 -1      3324 1.59000E+01 3.83090E+01 0.00000E+00
 -1      3325 1.74000E+01 3.83090E+01 0.00000E+00
 -1      3326 1.81500E+01 3.70100E+01 0.00000E+00
 -1      3327 6.13628E+01 3.62752E+01 0.00000E+00
 -1      3328 6.01078E+01 3.73793E+01 0.00000E+00
 -1      3329 4.59898E+01 1.34365E+01 0.00000E+00
 -1      3330 4.73772E+01 1.33449E+01 0.00000E+00
 -1      3331 4.78732E+01 1.25058E+01 0.00000E+00
 -1      3332 6.45788E+01 3.19667E+01 0.00000E+00
 -1      3333 6.41097E+01 3.32142E+01 0.00000E+00
 -1      3334 1.26488E+01 1.02017E+01 0.00000E+00
 -1      3335 1.20772E+01 1.14631E+01 0.00000E+00
 -1      3336 1.33763E+01 1.22006E+01 0.00000E+00
 -1      3337 1.41488E+01 1.02017E+01 0.00000E+00
 -1      3338 6.32159E+01 3.43007E+01 0.00000E+00
 -1      3339 6.22567E+01 3.51888E+01 0.00000E+00
 -1      3340 6.25438E+01 3.61812E+01 0.00000E+00
 -1      3341 6.43315E+01 3.40083E+01 0.00000E+00
 -1      3342 5.10887E+01 1.05724E+01 0.00000E+00
 -1      3343 3.90386E+01 2.51428E+01 0.00000E+00
 -1      3344 3.96767E+01 2.39507E+01 0.00000E+00
 -1      3345 5.05067E+01 3.89624E+01 0.00000E+00
 -1      3346 3.86549E+01 2.87072E+01 0.00000E+00
 -1      3347 3.85209E+01 2.70533E+01 0.00000E+00
 -1      3348 1.00862E+01 3.73269E+01 0.00000E+00
 -1      3349 4.13576E+01 1.75914E+01 0.00000E+00
 -1      3350 4.20457E+01 1.65808E+01 0.00000E+00
 -1      3351 6.56925E+01 2.94571E+01 0.00000E+00
 -1      3352 6.51357E+01 3.07119E+01 0.00000E+00
 -1      3353 6.57822E+01 3.16670E+01 0.00000E+00
 -1      3354 1.16910E+01 2.12875E+01 0.00000E+00
 -1      3355 1.16910E+01 2.27625E+01 0.00000E+00
 -1      3356 5.78578E+01 3.85720E+01 0.00000E+00
 -1      3357 4.90067E+01 3.89511E+01 0.00000E+00
 -1      3358 5.93578E+01 3.85720E+01 0.00000E+00
 -1      3359 4.77634E+01 3.86415E+01 0.00000E+00
 -1      3360 4.62634E+01 3.86415E+01 0.00000E+00
 -1      3361 4.54762E+01 3.74936E+01 0.00000E+00
 -1      3362 1.16910E+01 2.42375E+01 0.00000E+00
 -1      3363 1.16910E+01 2.57125E+01 0.00000E+00
 -1      3364 1.29900E+01 2.35000E+01 0.00000E+00
 -1      3365 1.29900E+01 1.46687E+01 0.00000E+00
 -1      3366 1.16910E+01 1.54063E+01 0.00000E+00
 -1      3367 1.16910E+01 1.68750E+01 0.00000E+00
 -1      3368 6.66378E+01 1.81521E+01 0.00000E+00
 -1      3369 6.60096E+01 1.92808E+01 0.00000E+00
 -1      3370 6.69449E+01 1.98476E+01 0.00000E+00
 -1      3371 1.16910E+01 3.30594E+01 0.00000E+00
 -1      3372 1.16910E+01 3.45281E+01 0.00000E+00
 -1      3373 4.22483E+01 3.62557E+01 0.00000E+00
 -1      3374 1.32152E+01 3.82007E+01 0.00000E+00
 -1      3375 1.45576E+01 3.82548E+01 0.00000E+00
 -1      3376 1.53076E+01 3.69558E+01 0.00000E+00
 -1      3377 1.38440E+02 1.44443E+01 0.00000E+00
 -1      3378 1.38239E+02 1.22443E+01 0.00000E+00
 -1      3379 1.37072E+02 1.19636E+01 0.00000E+00
 -1      3380 1.14286E+01 3.73811E+01 0.00000E+00
 -1      3381 4.01800E+01 2.07437E+01 0.00000E+00
 -1      3382 4.21324E+01 1.54193E+01 0.00000E+00
 -1      3383 4.22191E+01 1.42577E+01 0.00000E+00
 -1      3384 4.10103E+01 1.53948E+01 0.00000E+00
 -1      3385 2.95350E+01 1.18003E+01 0.00000E+00
 -1      3386 2.87850E+01 1.05013E+01 0.00000E+00
 -1      3387 2.72850E+01 1.05013E+01 0.00000E+00
 -1      3388 4.70104E+01 1.08998E+01 0.00000E+00
 -1      3389 4.55104E+01 1.08998E+01 0.00000E+00
 -1      3390 3.92553E+01 2.30855E+01 0.00000E+00
 -1      3391 6.76082E+01 2.81539E+01 0.00000E+00
 -1      3392 6.66504E+01 2.88055E+01 0.00000E+00
 -1      3393 6.72969E+01 2.97605E+01 0.00000E+00
 -1      3394 6.70794E+01 2.58074E+01 0.00000E+00
 -1      3395 1.35904E+02 1.16829E+01 0.00000E+00
 -1      3396 1.34736E+02 1.14023E+01 0.00000E+00
 -1      3397 1.36105E+02 1.38829E+01 0.00000E+00
 -1      3398 1.38309E+02 1.98625E+01 0.00000E+00
 -1      3399 1.38309E+02 1.83875E+01 0.00000E+00
 -1      3400 1.38375E+02 1.71472E+01 0.00000E+00
 -1      3401 1.38375E+02 1.56847E+01 0.00000E+00
 -1      3402 1.37207E+02 1.54040E+01 0.00000E+00
 -1      3403 1.37076E+02 1.78847E+01 0.00000E+00
 -1      3404 1.38309E+02 2.28062E+01 0.00000E+00
 -1      3405 1.38309E+02 2.13312E+01 0.00000E+00
 -1      3406 1.37010E+02 2.05938E+01 0.00000E+00
 -1      3407 1.37010E+02 2.35313E+01 0.00000E+00
 -1      3408 4.26416E+01 3.46147E+01 0.00000E+00
 -1      3409 4.00170E+01 1.84233E+01 0.00000E+00
 -1      3410 4.06873E+01 1.80074E+01 0.00000E+00
 -1      3411 4.02532E+01 1.69723E+01 0.00000E+00
 -1      3412 3.71291E+01 2.69623E+01 0.00000E+00
 -1      3413 3.80839E+01 2.60526E+01 0.00000E+00
 -1      3414 3.76468E+01 2.50518E+01 0.00000E+00
 -1      3415 4.00134E+01 3.27152E+01 0.00000E+00
 -1      3416 3.87637E+01 3.25211E+01 0.00000E+00
 -1      3417 4.01869E+01 3.35340E+01 0.00000E+00
 -1      3418 6.67569E+01 2.26962E+01 0.00000E+00
 -1      3419 6.77645E+01 2.34383E+01 0.00000E+00
 -1      3420 6.73243E+01 2.17185E+01 0.00000E+00
 -1      3421 2.42850E+01 1.05013E+01 0.00000E+00
 -1      3422 2.35350E+01 1.18003E+01 0.00000E+00
 -1      3423 2.57850E+01 1.05013E+01 0.00000E+00
 -1      3424 3.75013E+01 3.09582E+01 0.00000E+00
 -1      3425 3.80781E+01 2.98327E+01 0.00000E+00
 -1      3426 3.69893E+01 2.90886E+01 0.00000E+00
 -1      3427 1.16910E+01 1.83469E+01 0.00000E+00
 -1      3428 1.16910E+01 1.98156E+01 0.00000E+00
 -1      3429 1.29900E+01 2.05531E+01 0.00000E+00
 -1      3430 1.29900E+01 1.76094E+01 0.00000E+00
 -1      3431 6.45578E+01 1.50341E+01 0.00000E+00
 -1      3432 6.45036E+01 1.61528E+01 0.00000E+00
 -1      3433 6.57567E+01 1.64666E+01 0.00000E+00
 -1      3434 1.16910E+01 3.01219E+01 0.00000E+00
 -1      3435 1.16910E+01 3.15906E+01 0.00000E+00
 -1      3436 1.29900E+01 3.23250E+01 0.00000E+00
 -1      3437 1.69669E+01 1.03515E+01 0.00000E+00
 -1      3438 1.54669E+01 1.03515E+01 0.00000E+00
 -1      3439 1.50806E+01 1.13509E+01 0.00000E+00
 -1      3440 1.77169E+01 1.16505E+01 0.00000E+00
 -1      3441 1.37758E+02 3.65438E+01 0.00000E+00
 -1      3442 1.38123E+02 3.54555E+01 0.00000E+00
 -1      3443 1.36824E+02 3.47305E+01 0.00000E+00
 -1      3444 1.36451E+02 3.64916E+01 0.00000E+00
 -1      3445 4.10433E+01 3.53691E+01 0.00000E+00
 -1      3446 2.34000E+01 3.57110E+01 0.00000E+00
 -1      3447 2.49000E+01 3.57110E+01 0.00000E+00
 -1      3448 2.64000E+01 3.57110E+01 0.00000E+00
 -1      3449 2.79000E+01 3.57110E+01 0.00000E+00
 -1      3450 2.56500E+01 3.44120E+01 0.00000E+00
 -1      3451 2.94000E+01 3.57110E+01 0.00000E+00
 -1      3452 3.09000E+01 3.57110E+01 0.00000E+00
 -1      3453 2.86500E+01 3.44120E+01 0.00000E+00
 -1      3454 3.24000E+01 3.57110E+01 0.00000E+00
 -1      3455 3.39000E+01 3.57110E+01 0.00000E+00
 -1      3456 3.16500E+01 3.44120E+01 0.00000E+00
 -1      3457 3.54000E+01 3.57110E+01 0.00000E+00
 -1      3458 3.69000E+01 3.57110E+01 0.00000E+00
 -1      3459 3.46500E+01 3.44120E+01 0.00000E+00
 -1      3460 3.82936E+01 3.51749E+01 0.00000E+00
 -1      3461 3.97936E+01 3.51749E+01 0.00000E+00
 -1      3462 1.35711E+02 3.01625E+01 0.00000E+00
 -1      3463 1.35711E+02 2.86875E+01 0.00000E+00
 -1      3464 6.54000E+01 3.60750E+01 0.00000E+00
 -1      3465 6.69000E+01 3.60750E+01 0.00000E+00
 -1      3466 6.84000E+01 3.60750E+01 0.00000E+00
 -1      3467 6.99000E+01 3.60750E+01 0.00000E+00
 -1      3468 6.76500E+01 3.48823E+01 0.00000E+00
 -1      3469 7.14000E+01 3.60750E+01 0.00000E+00
 -1      3470 7.29000E+01 3.60750E+01 0.00000E+00
 -1      3471 7.06500E+01 3.48823E+01 0.00000E+00
 -1      3472 7.44000E+01 3.60750E+01 0.00000E+00
 -1      3473 7.59000E+01 3.60750E+01 0.00000E+00
 -1      3474 7.36500E+01 3.48823E+01 0.00000E+00
 -1      3475 7.74000E+01 3.60750E+01 0.00000E+00
 -1      3476 7.89000E+01 3.60750E+01 0.00000E+00
 -1      3477 7.66500E+01 3.48823E+01 0.00000E+00
 -1      3478 8.04000E+01 3.60750E+01 0.00000E+00
 -1      3479 8.19000E+01 3.60750E+01 0.00000E+00
 -1      3480 7.96500E+01 3.48823E+01 0.00000E+00
 -1      3481 8.34000E+01 3.60750E+01 0.00000E+00
 -1      3482 8.49000E+01 3.60750E+01 0.00000E+00
 -1      3483 8.26500E+01 3.48823E+01 0.00000E+00
 -1      3484 8.64000E+01 3.60750E+01 0.00000E+00
 -1      3485 8.79000E+01 3.60750E+01 0.00000E+00
 -1      3486 8.56500E+01 3.48823E+01 0.00000E+00
 -1      3487 8.94000E+01 3.60750E+01 0.00000E+00
 -1      3488 9.09000E+01 3.60750E+01 0.00000E+00
 -1      3489 8.86500E+01 3.48823E+01 0.00000E+00
 -1      3490 9.24000E+01 3.60750E+01 0.00000E+00
 -1      3491 9.39000E+01 3.60750E+01 0.00000E+00
 -1      3492 9.16500E+01 3.48823E+01 0.00000E+00
 -1      3493 9.54000E+01 3.60750E+01 0.00000E+00
 -1      3494 9.69000E+01 3.60750E+01 0.00000E+00
 -1      3495 9.46500E+01 3.48823E+01 0.00000E+00
 -1      3496 9.84000E+01 3.60750E+01 0.00000E+00
 -1      3497 9.99000E+01 3.60750E+01 0.00000E+00
 -1      3498 9.76500E+01 3.48823E+01 0.00000E+00
 -1      3499 1.01400E+02 3.60750E+01 0.00000E+00
 -1      3500 1.02900E+02 3.60750E+01 0.00000E+00
 -1      3501 1.00650E+02 3.48823E+01 0.00000E+00
 -1      3502 1.04400E+02 3.60750E+01 0.00000E+00
 -1      3503 1.05900E+02 3.60750E+01 0.00000E+00
 -1      3504 1.03650E+02 3.48823E+01 0.00000E+00
 -1      3505 1.07400E+02 3.60750E+01 0.00000E+00
 -1      3506 1.08900E+02 3.60750E+01 0.00000E+00
 -1      3507 1.06650E+02 3.48823E+01 0.00000E+00
 -1      3508 1.10400E+02 3.60750E+01 0.00000E+00
 -1      3509 1.11900E+02 3.60750E+01 0.00000E+00
 -1      3510 1.09650E+02 3.48823E+01 0.00000E+00
 -1      3511 1.13400E+02 3.60750E+01 0.00000E+00
 -1      3512 1.14900E+02 3.60750E+01 0.00000E+00
 -1      3513 1.12650E+02 3.48823E+01 0.00000E+00
 -1      3514 1.16400E+02 3.60750E+01 0.00000E+00
 -1      3515 1.17900E+02 3.60750E+01 0.00000E+00
 -1      3516 1.15650E+02 3.48823E+01 0.00000E+00
 -1      3517 1.19400E+02 3.60750E+01 0.00000E+00
 -1      3518 1.20900E+02 3.60750E+01 0.00000E+00
 -1      3519 1.18650E+02 3.48823E+01 0.00000E+00
 -1      3520 1.22400E+02 3.60750E+01 0.00000E+00
 -1      3521 1.23900E+02 3.60750E+01 0.00000E+00
 -1      3522 1.21650E+02 3.48823E+01 0.00000E+00
 -1      3523 1.25400E+02 3.60750E+01 0.00000E+00
 -1      3524 1.26900E+02 3.60750E+01 0.00000E+00
 -1      3525 1.24650E+02 3.48823E+01 0.00000E+00
 -1      3526 1.28400E+02 3.60750E+01 0.00000E+00
 -1      3527 1.29900E+02 3.60750E+01 0.00000E+00
 -1      3528 1.27650E+02 3.48823E+01 0.00000E+00
 -1      3529 1.31400E+02 3.60750E+01 0.00000E+00
 -1      3530 1.32900E+02 3.60750E+01 0.00000E+00
 -1      3531 1.30650E+02 3.48823E+01 0.00000E+00
 -1      3532 4.16881E+01 1.30413E+01 0.00000E+00
 -1      3533 6.92850E+01 1.30992E+01 0.00000E+00
 -1      3534 6.77850E+01 1.30992E+01 0.00000E+00
 -1      3535 6.64229E+01 1.35741E+01 0.00000E+00
 -1      3536 6.49229E+01 1.35741E+01 0.00000E+00
 -1      3537 7.22850E+01 1.30992E+01 0.00000E+00
 -1      3538 7.07850E+01 1.30992E+01 0.00000E+00
 -1      3539 7.00350E+01 1.43982E+01 0.00000E+00
 -1      3540 7.52850E+01 1.30992E+01 0.00000E+00
 -1      3541 7.37850E+01 1.30992E+01 0.00000E+00
 -1      3542 7.30350E+01 1.43982E+01 0.00000E+00
 -1      3543 7.82850E+01 1.30992E+01 0.00000E+00
 -1      3544 7.67850E+01 1.30992E+01 0.00000E+00
 -1      3545 7.60350E+01 1.43982E+01 0.00000E+00
 -1      3546 8.12850E+01 1.30992E+01 0.00000E+00
 -1      3547 7.97850E+01 1.30992E+01 0.00000E+00
 -1      3548 7.90350E+01 1.43982E+01 0.00000E+00
 -1      3549 8.42850E+01 1.30992E+01 0.00000E+00
 -1      3550 8.27850E+01 1.30992E+01 0.00000E+00
 -1      3551 8.20350E+01 1.43982E+01 0.00000E+00
 -1      3552 8.72850E+01 1.30992E+01 0.00000E+00
 -1      3553 8.57850E+01 1.30992E+01 0.00000E+00
 -1      3554 8.50350E+01 1.43982E+01 0.00000E+00
 -1      3555 9.02850E+01 1.30992E+01 0.00000E+00
 -1      3556 8.87850E+01 1.30992E+01 0.00000E+00
 -1      3557 8.80350E+01 1.43982E+01 0.00000E+00
 -1      3558 9.32850E+01 1.30992E+01 0.00000E+00
 -1      3559 9.17850E+01 1.30992E+01 0.00000E+00
 -1      3560 9.10350E+01 1.43982E+01 0.00000E+00
 -1      3561 9.62850E+01 1.30992E+01 0.00000E+00
 -1      3562 9.47850E+01 1.30992E+01 0.00000E+00
 -1      3563 9.40350E+01 1.43982E+01 0.00000E+00
 -1      3564 9.92850E+01 1.30992E+01 0.00000E+00
 -1      3565 9.77850E+01 1.30992E+01 0.00000E+00
 -1      3566 9.70350E+01 1.43982E+01 0.00000E+00
 -1      3567 1.02285E+02 1.30992E+01 0.00000E+00
 -1      3568 1.00785E+02 1.30992E+01 0.00000E+00
 -1      3569 1.00035E+02 1.43982E+01 0.00000E+00
 -1      3570 1.05285E+02 1.30992E+01 0.00000E+00
 -1      3571 1.03785E+02 1.30992E+01 0.00000E+00
 -1      3572 1.03035E+02 1.43982E+01 0.00000E+00
 -1      3573 1.08285E+02 1.30992E+01 0.00000E+00
 -1      3574 1.06785E+02 1.30992E+01 0.00000E+00
 -1      3575 1.06035E+02 1.43982E+01 0.00000E+00
 -1      3576 1.11285E+02 1.30992E+01 0.00000E+00
 -1      3577 1.09785E+02 1.30992E+01 0.00000E+00
 -1      3578 1.09035E+02 1.43982E+01 0.00000E+00
 -1      3579 1.14285E+02 1.30992E+01 0.00000E+00
 -1      3580 1.12785E+02 1.30992E+01 0.00000E+00
 -1      3581 1.12035E+02 1.43982E+01 0.00000E+00
 -1      3582 1.17285E+02 1.30992E+01 0.00000E+00
 -1      3583 1.15785E+02 1.30992E+01 0.00000E+00
 -1      3584 1.15035E+02 1.43982E+01 0.00000E+00
 -1      3585 1.20285E+02 1.30992E+01 0.00000E+00
 -1      3586 1.18785E+02 1.30992E+01 0.00000E+00
 -1      3587 1.18035E+02 1.43982E+01 0.00000E+00
 -1      3588 1.23285E+02 1.30992E+01 0.00000E+00
 -1      3589 1.21785E+02 1.30992E+01 0.00000E+00
 -1      3590 1.21035E+02 1.43982E+01 0.00000E+00
 -1      3591 1.26285E+02 1.30992E+01 0.00000E+00
 -1      3592 1.24785E+02 1.30992E+01 0.00000E+00
 -1      3593 1.24035E+02 1.43982E+01 0.00000E+00
 -1      3594 1.29285E+02 1.30992E+01 0.00000E+00
 -1      3595 1.27785E+02 1.30992E+01 0.00000E+00
 -1      3596 1.27035E+02 1.43982E+01 0.00000E+00
 -1      3597 1.32285E+02 1.30992E+01 0.00000E+00
 -1      3598 1.30785E+02 1.30992E+01 0.00000E+00
 -1      3599 1.30035E+02 1.43982E+01 0.00000E+00
 -1      3600 1.33986E+02 1.27013E+01 0.00000E+00
 -1      3601 1.21786E+01 3.60821E+01 0.00000E+00
 -1      3602 2.12850E+01 1.30992E+01 0.00000E+00
 -1      3603 1.97850E+01 1.30992E+01 0.00000E+00
 -1      3604 3.79854E+01 2.30304E+01 0.00000E+00
 -1      3605 3.86391E+01 2.19738E+01 0.00000E+00
 -1      3606 1.34776E+01 3.53477E+01 0.00000E+00
 -1      3607 1.35711E+02 2.72125E+01 0.00000E+00
 -1      3608 1.35711E+02 2.57375E+01 0.00000E+00
 -1      3609 1.34412E+02 2.79500E+01 0.00000E+00
 -1      3610 1.74000E+01 3.57110E+01 0.00000E+00
 -1      3611 1.89000E+01 3.57110E+01 0.00000E+00
 -1      3612 3.32850E+01 1.30992E+01 0.00000E+00
 -1      3613 3.17850E+01 1.30992E+01 0.00000E+00
 -1      3614 5.98775E+01 1.29752E+01 0.00000E+00
 -1      3615 1.16910E+01 2.71844E+01 0.00000E+00
 -1      3616 1.16910E+01 2.86531E+01 0.00000E+00
 -1      3617 1.29900E+01 2.93875E+01 0.00000E+00
 -1      3618 6.40438E+01 3.61812E+01 0.00000E+00
 -1      3619 2.04000E+01 3.57110E+01 0.00000E+00
 -1      3620 2.19000E+01 3.57110E+01 0.00000E+00
 -1      3621 2.26500E+01 3.44120E+01 0.00000E+00
 -1      3622 6.84326E+01 2.52212E+01 0.00000E+00
 -1      3623 6.83149E+01 2.66126E+01 0.00000E+00
 -1      3624 1.35711E+02 3.31125E+01 0.00000E+00
 -1      3625 1.35711E+02 3.16375E+01 0.00000E+00
 -1      3626 1.34412E+02 3.09000E+01 0.00000E+00
 -1      3627 3.91925E+01 2.08412E+01 0.00000E+00
 -1      3628 3.94635E+01 1.95559E+01 0.00000E+00
 -1      3629 3.90295E+01 1.85208E+01 0.00000E+00
 -1      3630 3.79227E+01 2.07860E+01 0.00000E+00
 -1      3631 6.69211E+01 3.14214E+01 0.00000E+00
 -1      3632 6.63642E+01 3.26762E+01 0.00000E+00
 -1      3633 1.33236E+02 1.40002E+01 0.00000E+00
 -1      3634 1.42890E+01 1.39344E+01 0.00000E+00
 -1      3635 1.42890E+01 1.54031E+01 0.00000E+00
 -1      3636 6.66921E+01 1.70334E+01 0.00000E+00
 -1      3637 6.76274E+01 1.76003E+01 0.00000E+00
 -1      3638 6.67463E+01 1.59148E+01 0.00000E+00
 -1      3639 6.89614E+01 2.75677E+01 0.00000E+00
 -1      3640 6.47938E+01 3.49885E+01 0.00000E+00
 -1      3641 1.90350E+01 1.43983E+01 0.00000E+00
 -1      3642 1.82850E+01 1.30993E+01 0.00000E+00
 -1      3643 1.69669E+01 1.29495E+01 0.00000E+00
 -1      3644 3.75436E+01 3.38759E+01 0.00000E+00
 -1      3645 1.96500E+01 3.44120E+01 0.00000E+00
 -1      3646 1.47676E+01 3.55023E+01 0.00000E+00
 -1      3647 1.61100E+01 3.55564E+01 0.00000E+00
 -1      3648 1.68600E+01 3.42574E+01 0.00000E+00
 -1      3649 1.42800E+01 3.39483E+01 0.00000E+00
 -1      3650 1.35711E+02 2.42687E+01 0.00000E+00
 -1      3651 1.35711E+02 2.28000E+01 0.00000E+00
 -1      3652 1.34412E+02 2.50063E+01 0.00000E+00
 -1      3653 1.34022E+02 3.62572E+01 0.00000E+00
 -1      3654 1.35329E+02 3.63094E+01 0.00000E+00
 -1      3655 1.35515E+02 3.54289E+01 0.00000E+00
 -1      3656 1.33272E+02 3.50645E+01 0.00000E+00
 -1      3657 4.03400E+01 1.58107E+01 0.00000E+00
 -1      3658 4.04267E+01 1.46492E+01 0.00000E+00
 -1      3659 3.96696E+01 1.62267E+01 0.00000E+00
 -1      3660 3.02850E+01 1.30992E+01 0.00000E+00
 -1      3661 2.87850E+01 1.30992E+01 0.00000E+00
 -1      3662 3.10350E+01 1.43982E+01 0.00000E+00
 -1      3663 6.36699E+01 1.32603E+01 0.00000E+00
 -1      3664 6.21699E+01 1.32603E+01 0.00000E+00
 -1      3665 3.47850E+01 1.30992E+01 0.00000E+00
 -1      3666 3.40350E+01 1.43982E+01 0.00000E+00
 -1      3667 3.62850E+01 1.30992E+01 0.00000E+00
 -1      3668 1.35746E+02 1.84362E+01 0.00000E+00
 -1      3669 1.35811E+02 1.71959E+01 0.00000E+00
 -1      3670 3.70306E+01 2.39401E+01 0.00000E+00
 -1      3671 3.64145E+01 2.28284E+01 0.00000E+00
 -1      3672 3.60759E+01 2.48499E+01 0.00000E+00
 -1      3673 1.35805E+02 1.48425E+01 0.00000E+00
 -1      3674 1.34638E+02 1.45618E+01 0.00000E+00
 -1      3675 1.32937E+02 1.49598E+01 0.00000E+00
 -1      3676 1.35740E+02 1.60828E+01 0.00000E+00
 -1      3677 2.27850E+01 1.30992E+01 0.00000E+00
 -1      3678 2.20350E+01 1.43982E+01 0.00000E+00
 -1      3679 2.42850E+01 1.30992E+01 0.00000E+00
 -1      3680 1.35702E+02 3.45483E+01 0.00000E+00
 -1      3681 6.68265E+01 3.36564E+01 0.00000E+00
 -1      3682 6.56877E+01 3.39021E+01 0.00000E+00
 -1      3683 6.78789E+01 3.07698E+01 0.00000E+00
 -1      3684 6.84609E+01 3.17790E+01 0.00000E+00
 -1      3685 6.88367E+01 3.01182E+01 0.00000E+00
 -1      3686 3.65523E+01 2.80878E+01 0.00000E+00
 -1      3687 3.61153E+01 2.70871E+01 0.00000E+00
 -1      3688 3.59755E+01 2.92133E+01 0.00000E+00
 -1      3689 6.79526E+01 2.05898E+01 0.00000E+00
 -1      3690 6.89602E+01 2.13319E+01 0.00000E+00
 -1      3691 6.85809E+01 1.94611E+01 0.00000E+00
 -1      3692 1.42800E+01 3.10108E+01 0.00000E+00
 -1      3693 1.42800E+01 3.24796E+01 0.00000E+00
 -1      3694 1.55700E+01 3.26341E+01 0.00000E+00
 -1      3695 2.65350E+01 1.18003E+01 0.00000E+00
 -1      3696 4.49135E+01 1.34398E+01 0.00000E+00
 -1      3697 6.95675E+01 2.32659E+01 0.00000E+00
 -1      3698 6.90000E+01 2.42435E+01 0.00000E+00
 -1      3699 7.02355E+01 2.50488E+01 0.00000E+00
 -1      3700 1.29900E+01 2.64469E+01 0.00000E+00
 -1      3701 1.34403E+02 3.38108E+01 0.00000E+00
 -1      3702 1.35728E+02 2.13525E+01 0.00000E+00
 -1      3703 1.35728E+02 1.98837E+01 0.00000E+00
 -1      3704 1.34464E+02 1.91949E+01 0.00000E+00
 -1      3705 1.34429E+02 2.20900E+01 0.00000E+00
 -1      3706 3.76092E+01 3.28264E+01 0.00000E+00
 -1      3707 3.74357E+01 3.20077E+01 0.00000E+00
 -1      3708 3.63469E+01 3.12636E+01 0.00000E+00
 -1      3709 3.62156E+01 3.33625E+01 0.00000E+00
 -1      3710 1.42890E+01 1.98172E+01 0.00000E+00
 -1      3711 1.42890E+01 2.12891E+01 0.00000E+00
 -1      3712 1.55880E+01 2.20281E+01 0.00000E+00
 -1      3713 1.42890E+01 2.27641E+01 0.00000E+00
 -1      3714 1.42890E+01 2.42391E+01 0.00000E+00
 -1      3715 2.19000E+01 3.31130E+01 0.00000E+00
 -1      3716 2.34000E+01 3.31130E+01 0.00000E+00
 -1      3717 1.97850E+01 1.56973E+01 0.00000E+00
 -1      3718 1.82851E+01 1.56973E+01 0.00000E+00
 -1      3719 1.65615E+01 1.45335E+01 0.00000E+00
 -1      3720 1.59934E+01 1.30847E+01 0.00000E+00
 -1      3721 2.79000E+01 3.31130E+01 0.00000E+00
 -1      3722 2.94000E+01 3.31130E+01 0.00000E+00
 -1      3723 3.09000E+01 3.31130E+01 0.00000E+00
 -1      3724 3.24000E+01 3.31130E+01 0.00000E+00
 -1      3725 3.01500E+01 3.18140E+01 0.00000E+00
 -1      3726 3.35578E+01 3.32378E+01 0.00000E+00
 -1      3727 3.50578E+01 3.32378E+01 0.00000E+00
 -1      3728 3.51235E+01 3.21883E+01 0.00000E+00
 -1      3729 3.28078E+01 3.19388E+01 0.00000E+00
 -1      3730 2.72850E+01 1.30992E+01 0.00000E+00
 -1      3731 2.57850E+01 1.30992E+01 0.00000E+00
 -1      3732 2.50350E+01 1.43982E+01 0.00000E+00
 -1      3733 7.67850E+01 1.56973E+01 0.00000E+00
 -1      3734 7.52850E+01 1.56973E+01 0.00000E+00
 -1      3735 1.33281E+02 3.36286E+01 0.00000E+00
 -1      3736 6.83265E+01 3.36564E+01 0.00000E+00
 -1      3737 4.05660E+01 1.30167E+01 0.00000E+00
 -1      3738 7.29000E+01 3.35833E+01 0.00000E+00
 -1      3739 7.44000E+01 3.35833E+01 0.00000E+00
 -1      3740 7.59000E+01 3.35833E+01 0.00000E+00
 -1      3741 7.74000E+01 3.35833E+01 0.00000E+00
 -1      3742 7.51500E+01 3.22843E+01 0.00000E+00
 -1      3743 7.89000E+01 3.35833E+01 0.00000E+00
 -1      3744 8.04000E+01 3.35833E+01 0.00000E+00
 -1      3745 7.81500E+01 3.22843E+01 0.00000E+00
 -1      3746 8.19000E+01 3.35833E+01 0.00000E+00
 -1      3747 8.34000E+01 3.35833E+01 0.00000E+00
 -1      3748 8.11500E+01 3.22843E+01 0.00000E+00
 -1      3749 8.49000E+01 3.35833E+01 0.00000E+00
 -1      3750 8.64000E+01 3.35833E+01 0.00000E+00
 -1      3751 8.41500E+01 3.22843E+01 0.00000E+00
 -1      3752 8.79000E+01 3.35833E+01 0.00000E+00
 -1      3753 8.94000E+01 3.35833E+01 0.00000E+00
 -1      3754 8.71500E+01 3.22843E+01 0.00000E+00
 -1      3755 9.09000E+01 3.35833E+01 0.00000E+00
 -1      3756 9.24000E+01 3.35833E+01 0.00000E+00
 -1      3757 9.01500E+01 3.22843E+01 0.00000E+00
 -1      3758 9.39000E+01 3.35833E+01 0.00000E+00
 -1      3759 9.54000E+01 3.35833E+01 0.00000E+00
 -1      3760 9.31500E+01 3.22843E+01 0.00000E+00
 -1      3761 9.69000E+01 3.35833E+01 0.00000E+00
 -1      3762 9.84000E+01 3.35833E+01 0.00000E+00
 -1      3763 9.61500E+01 3.22843E+01 0.00000E+00
 -1      3764 9.99000E+01 3.35833E+01 0.00000E+00
 -1      3765 1.01400E+02 3.35833E+01 0.00000E+00
 -1      3766 9.91500E+01 3.22843E+01 0.00000E+00
 -1      3767 1.02900E+02 3.35833E+01 0.00000E+00
 -1      3768 1.04400E+02 3.35833E+01 0.00000E+00
 -1      3769 1.02150E+02 3.22843E+01 0.00000E+00
 -1      3770 1.05900E+02 3.35833E+01 0.00000E+00
 -1      3771 1.07400E+02 3.35833E+01 0.00000E+00
 -1      3772 1.05150E+02 3.22843E+01 0.00000E+00
 -1      3773 1.08900E+02 3.35833E+01 0.00000E+00
 -1      3774 1.10400E+02 3.35833E+01 0.00000E+00
 -1      3775 1.08150E+02 3.22843E+01 0.00000E+00
 -1      3776 1.11900E+02 3.35833E+01 0.00000E+00
 -1      3777 1.13400E+02 3.35833E+01 0.00000E+00
 -1      3778 1.11150E+02 3.22843E+01 0.00000E+00
 -1      3779 1.14900E+02 3.35833E+01 0.00000E+00
 -1      3780 1.16400E+02 3.35833E+01 0.00000E+00
 -1      3781 1.14150E+02 3.22843E+01 0.00000E+00
 -1      3782 1.17900E+02 3.35833E+01 0.00000E+00
 -1      3783 1.19400E+02 3.35833E+01 0.00000E+00
 -1      3784 1.17150E+02 3.22843E+01 0.00000E+00
 -1      3785 1.20900E+02 3.35833E+01 0.00000E+00
 -1      3786 1.22400E+02 3.35833E+01 0.00000E+00
 -1      3787 1.20150E+02 3.22843E+01 0.00000E+00
 -1      3788 1.23900E+02 3.35833E+01 0.00000E+00
 -1      3789 1.25400E+02 3.35833E+01 0.00000E+00
 -1      3790 1.23150E+02 3.22843E+01 0.00000E+00
 -1      3791 1.26900E+02 3.35833E+01 0.00000E+00
 -1      3792 1.28400E+02 3.35833E+01 0.00000E+00
 -1      3793 1.26150E+02 3.22843E+01 0.00000E+00
 -1      3794 1.29900E+02 3.35833E+01 0.00000E+00
 -1      3795 1.31400E+02 3.35833E+01 0.00000E+00
 -1      3796 1.29150E+02 3.22843E+01 0.00000E+00
 -1      3797 6.71729E+01 1.48731E+01 0.00000E+00
 -1      3798 7.37850E+01 1.56973E+01 0.00000E+00
 -1      3799 7.22850E+01 1.56973E+01 0.00000E+00
 -1      3800 7.45350E+01 1.69963E+01 0.00000E+00
 -1      3801 3.92850E+01 1.30992E+01 0.00000E+00
 -1      3802 3.77850E+01 1.30992E+01 0.00000E+00
 -1      3803 7.97850E+01 1.56973E+01 0.00000E+00
 -1      3804 7.82850E+01 1.56973E+01 0.00000E+00
 -1      3805 7.75350E+01 1.69963E+01 0.00000E+00
 -1      3806 8.27850E+01 1.56973E+01 0.00000E+00
 -1      3807 8.12850E+01 1.56973E+01 0.00000E+00
 -1      3808 8.05350E+01 1.69963E+01 0.00000E+00
 -1      3809 8.57850E+01 1.56973E+01 0.00000E+00
 -1      3810 8.42850E+01 1.56973E+01 0.00000E+00
 -1      3811 8.35350E+01 1.69963E+01 0.00000E+00
 -1      3812 8.87850E+01 1.56973E+01 0.00000E+00
 -1      3813 8.72850E+01 1.56973E+01 0.00000E+00
 -1      3814 8.65350E+01 1.69963E+01 0.00000E+00
 -1      3815 9.17850E+01 1.56973E+01 0.00000E+00
 -1      3816 9.02850E+01 1.56973E+01 0.00000E+00
 -1      3817 8.95350E+01 1.69963E+01 0.00000E+00
 -1      3818 9.47850E+01 1.56973E+01 0.00000E+00
 -1      3819 9.32850E+01 1.56973E+01 0.00000E+00
 -1      3820 9.25350E+01 1.69963E+01 0.00000E+00
 -1      3821 9.77850E+01 1.56973E+01 0.00000E+00
 -1      3822 9.62850E+01 1.56973E+01 0.00000E+00
 -1      3823 9.55350E+01 1.69963E+01 0.00000E+00
 -1      3824 1.00785E+02 1.56973E+01 0.00000E+00
 -1      3825 9.92850E+01 1.56973E+01 0.00000E+00
 -1      3826 9.85350E+01 1.69963E+01 0.00000E+00
 -1      3827 1.03785E+02 1.56973E+01 0.00000E+00
 -1      3828 1.02285E+02 1.56973E+01 0.00000E+00
 -1      3829 1.01535E+02 1.69963E+01 0.00000E+00
 -1      3830 1.06785E+02 1.56973E+01 0.00000E+00
 -1      3831 1.05285E+02 1.56973E+01 0.00000E+00
 -1      3832 1.04535E+02 1.69963E+01 0.00000E+00
 -1      3833 1.09785E+02 1.56973E+01 0.00000E+00
 -1      3834 1.08285E+02 1.56973E+01 0.00000E+00
 -1      3835 1.07535E+02 1.69963E+01 0.00000E+00
 -1      3836 1.12785E+02 1.56973E+01 0.00000E+00
 -1      3837 1.11285E+02 1.56973E+01 0.00000E+00
 -1      3838 1.10535E+02 1.69963E+01 0.00000E+00
 -1      3839 1.15785E+02 1.56973E+01 0.00000E+00
 -1      3840 1.14285E+02 1.56973E+01 0.00000E+00
 -1      3841 1.13535E+02 1.69963E+01 0.00000E+00
 -1      3842 1.18785E+02 1.56973E+01 0.00000E+00
 -1      3843 1.17285E+02 1.56973E+01 0.00000E+00
 -1      3844 1.16535E+02 1.69963E+01 0.00000E+00
 -1      3845 1.21785E+02 1.56973E+01 0.00000E+00
 -1      3846 1.20285E+02 1.56973E+01 0.00000E+00
 -1      3847 1.19535E+02 1.69963E+01 0.00000E+00
 -1      3848 1.24785E+02 1.56973E+01 0.00000E+00
 -1      3849 1.23285E+02 1.56973E+01 0.00000E+00
 -1      3850 1.22535E+02 1.69963E+01 0.00000E+00
 -1      3851 1.27785E+02 1.56973E+01 0.00000E+00
 -1      3852 1.26285E+02 1.56973E+01 0.00000E+00
 -1      3853 1.25535E+02 1.69963E+01 0.00000E+00
 -1      3854 1.30785E+02 1.56973E+01 0.00000E+00
 -1      3855 1.29285E+02 1.56973E+01 0.00000E+00
 -1      3856 1.28535E+02 1.69963E+01 0.00000E+00
 -1      3857 1.46944E+01 1.23503E+01 0.00000E+00
 -1      3858 1.32531E+02 3.23296E+01 0.00000E+00
 -1      3859 3.98160E+01 1.43157E+01 0.00000E+00
 -1      3860 1.89000E+01 3.31130E+01 0.00000E+00
 -1      3861 2.04000E+01 3.31130E+01 0.00000E+00
 -1      3862 2.11500E+01 3.18140E+01 0.00000E+00
 -1      3863 1.33113E+02 2.86875E+01 0.00000E+00
 -1      3864 1.33113E+02 2.72125E+01 0.00000E+00
 -1      3865 2.49000E+01 3.31130E+01 0.00000E+00
 -1      3866 2.64000E+01 3.31130E+01 0.00000E+00
 -1      3867 2.41500E+01 3.18140E+01 0.00000E+00
 -1      3868 1.34410E+02 1.66343E+01 0.00000E+00
 -1      3869 6.09187E+01 1.25626E+01 0.00000E+00
 -1      3870 6.81083E+01 1.54399E+01 0.00000E+00
 -1      3871 1.42890E+01 1.68742E+01 0.00000E+00
 -1      3872 1.42890E+01 1.83461E+01 0.00000E+00
 -1      3873 1.55880E+01 1.90820E+01 0.00000E+00
 -1      3874 1.55880E+01 1.61398E+01 0.00000E+00
 -1      3875 1.65900E+01 3.27963E+01 0.00000E+00
 -1      3876 1.78800E+01 3.29508E+01 0.00000E+00
 -1      3877 1.86300E+01 3.16518E+01 0.00000E+00
 -1      3878 1.65900E+01 3.13275E+01 0.00000E+00
 -1      3879 1.42890E+01 2.57109E+01 0.00000E+00
 -1      3880 1.42890E+01 2.71828E+01 0.00000E+00
 -1      3881 1.55880E+01 2.49750E+01 0.00000E+00
 -1      3882 1.32531E+02 3.08546E+01 0.00000E+00
 -1      3883 7.04955E+01 2.73385E+01 0.00000E+00
 -1      3884 6.97888E+01 2.88797E+01 0.00000E+00
 -1      3885 1.74233E+01 1.58509E+01 0.00000E+00
 -1      3886 1.64498E+01 1.59862E+01 0.00000E+00
 -1      3887 1.64498E+01 1.74573E+01 0.00000E+00
 -1      3888 1.81733E+01 1.71499E+01 0.00000E+00
 -1      3889 3.70350E+01 1.43982E+01 0.00000E+00
 -1      3890 1.42845E+01 2.83624E+01 0.00000E+00
 -1      3891 1.42845E+01 2.98312E+01 0.00000E+00
 -1      3892 1.55745E+01 2.99858E+01 0.00000E+00
 -1      3893 1.55835E+01 2.76265E+01 0.00000E+00
 -1      3894 6.91437E+01 3.27177E+01 0.00000E+00
 -1      3895 6.99672E+01 3.39436E+01 0.00000E+00
 -1      3896 7.14672E+01 3.39436E+01 0.00000E+00
 -1      3897 7.01015E+01 3.20661E+01 0.00000E+00
 -1      3898 6.86893E+01 1.72237E+01 0.00000E+00
 -1      3899 6.86351E+01 1.83424E+01 0.00000E+00
 -1      3900 6.96427E+01 1.90846E+01 0.00000E+00
 -1      3901 7.03708E+01 2.98890E+01 0.00000E+00
 -1      3902 7.22172E+01 3.26446E+01 0.00000E+00
 -1      3903 3.17850E+01 1.56973E+01 0.00000E+00
 -1      3904 3.02850E+01 1.56973E+01 0.00000E+00
 -1      3905 7.13660E+01 1.74811E+01 0.00000E+00
 -1      3906 7.06160E+01 1.61821E+01 0.00000E+00
 -1      3907 7.01958E+01 2.21372E+01 0.00000E+00
 -1      3908 7.14313E+01 2.29424E+01 0.00000E+00
 -1      3909 7.08240E+01 2.10084E+01 0.00000E+00
 -1      3910 3.54991E+01 2.59754E+01 0.00000E+00
 -1      3911 3.48829E+01 2.48636E+01 0.00000E+00
 -1      3912 3.49223E+01 2.71009E+01 0.00000E+00
 -1      3913 6.91160E+01 1.61821E+01 0.00000E+00
 -1      3914 1.32187E+02 1.62588E+01 0.00000E+00
 -1      3915 2.80350E+01 1.43982E+01 0.00000E+00
 -1      3916 3.51143E+01 2.24198E+01 0.00000E+00
 -1      3917 3.60691E+01 2.15100E+01 0.00000E+00
 -1      3918 2.27850E+01 1.56973E+01 0.00000E+00
 -1      3919 2.12850E+01 1.56973E+01 0.00000E+00
 -1      3920 2.05351E+01 1.69963E+01 0.00000E+00
 -1      3921 1.31232E+02 3.01171E+01 0.00000E+00
 -1      3922 3.51891E+01 3.11388E+01 0.00000E+00
 -1      3923 2.71500E+01 3.18140E+01 0.00000E+00
 -1      3924 1.33113E+02 2.57437E+01 0.00000E+00
 -1      3925 1.33113E+02 2.42750E+01 0.00000E+00
 -1      3926 1.31814E+02 2.64813E+01 0.00000E+00
 -1      3927 3.47850E+01 1.56973E+01 0.00000E+00
 -1      3928 3.32850E+01 1.56973E+01 0.00000E+00
 -1      3929 3.25350E+01 1.69963E+01 0.00000E+00
 -1      3930 7.10630E+01 2.63608E+01 0.00000E+00
 -1      3931 7.18904E+01 2.76729E+01 0.00000E+00
 -1      3932 7.16304E+01 2.53831E+01 0.00000E+00
 -1      3933 3.66225E+01 2.03774E+01 0.00000E+00
 -1      3934 1.68870E+01 2.12906E+01 0.00000E+00
 -1      3935 1.68870E+01 2.27656E+01 0.00000E+00
 -1      3936 1.66684E+01 1.86384E+01 0.00000E+00
 -1      3937 1.66684E+01 2.01095E+01 0.00000E+00
 -1      3938 1.79674E+01 2.08470E+01 0.00000E+00
 -1      3939 1.75301E+01 1.84847E+01 0.00000E+00
 -1      3940 3.37799E+01 3.10384E+01 0.00000E+00
 -1      3941 3.50034E+01 3.01137E+01 0.00000E+00
 -1      3942 3.45664E+01 2.91129E+01 0.00000E+00
 -1      3943 3.26221E+01 3.09137E+01 0.00000E+00
 -1      3944 3.78317E+01 1.86371E+01 0.00000E+00
 -1      3945 3.83852E+01 1.75045E+01 0.00000E+00
 -1      3946 3.84719E+01 1.63429E+01 0.00000E+00
 -1      3947 2.04000E+01 3.05150E+01 0.00000E+00
 -1      3948 2.19000E+01 3.05150E+01 0.00000E+00
 -1      3949 7.29808E+01 1.81149E+01 0.00000E+00
 -1      3950 7.13118E+01 1.85997E+01 0.00000E+00
 -1      3951 7.12575E+01 1.97184E+01 0.00000E+00
 -1      3952 2.64000E+01 3.05150E+01 0.00000E+00
 -1      3953 2.79000E+01 3.05150E+01 0.00000E+00
 -1      3954 2.57850E+01 1.56973E+01 0.00000E+00
 -1      3955 2.42850E+01 1.56973E+01 0.00000E+00
 -1      3956 2.35351E+01 1.69963E+01 0.00000E+00
 -1      3957 8.12850E+01 1.82952E+01 0.00000E+00
 -1      3958 7.97850E+01 1.82952E+01 0.00000E+00
 -1      3959 7.44000E+01 3.09853E+01 0.00000E+00
 -1      3960 7.59000E+01 3.09853E+01 0.00000E+00
 -1      3961 7.74000E+01 3.09853E+01 0.00000E+00
 -1      3962 7.89000E+01 3.09853E+01 0.00000E+00
 -1      3963 7.66500E+01 2.96863E+01 0.00000E+00
 -1      3964 8.04000E+01 3.09853E+01 0.00000E+00
 -1      3965 8.19000E+01 3.09853E+01 0.00000E+00
 -1      3966 7.96500E+01 2.96863E+01 0.00000E+00
 -1      3967 8.34000E+01 3.09853E+01 0.00000E+00
 -1      3968 8.49000E+01 3.09853E+01 0.00000E+00
 -1      3969 8.26500E+01 2.96863E+01 0.00000E+00
 -1      3970 8.64000E+01 3.09853E+01 0.00000E+00
 -1      3971 8.79000E+01 3.09853E+01 0.00000E+00
 -1      3972 8.56500E+01 2.96863E+01 0.00000E+00
 -1      3973 8.94000E+01 3.09853E+01 0.00000E+00
 -1      3974 9.09000E+01 3.09853E+01 0.00000E+00
 -1      3975 8.86500E+01 2.96863E+01 0.00000E+00
 -1      3976 9.24000E+01 3.09853E+01 0.00000E+00
 -1      3977 9.39000E+01 3.09853E+01 0.00000E+00
 -1      3978 9.16500E+01 2.96863E+01 0.00000E+00
 -1      3979 9.54000E+01 3.09853E+01 0.00000E+00
 -1      3980 9.69000E+01 3.09853E+01 0.00000E+00
 -1      3981 9.46500E+01 2.96863E+01 0.00000E+00
 -1      3982 9.84000E+01 3.09853E+01 0.00000E+00
 -1      3983 9.99000E+01 3.09853E+01 0.00000E+00
 -1      3984 9.76500E+01 2.96863E+01 0.00000E+00
 -1      3985 1.01400E+02 3.09853E+01 0.00000E+00
 -1      3986 1.02900E+02 3.09853E+01 0.00000E+00
 -1      3987 1.00650E+02 2.96863E+01 0.00000E+00
 -1      3988 1.04400E+02 3.09853E+01 0.00000E+00
 -1      3989 1.05900E+02 3.09853E+01 0.00000E+00
 -1      3990 1.03650E+02 2.96863E+01 0.00000E+00
 -1      3991 1.07400E+02 3.09853E+01 0.00000E+00
 -1      3992 1.08900E+02 3.09853E+01 0.00000E+00
 -1      3993 1.06650E+02 2.96863E+01 0.00000E+00
 -1      3994 1.10400E+02 3.09853E+01 0.00000E+00
 -1      3995 1.11900E+02 3.09853E+01 0.00000E+00
 -1      3996 1.09650E+02 2.96863E+01 0.00000E+00
 -1      3997 1.13400E+02 3.09853E+01 0.00000E+00
 -1      3998 1.14900E+02 3.09853E+01 0.00000E+00
 -1      3999 1.12650E+02 2.96863E+01 0.00000E+00
 -1      4000 1.16400E+02 3.09853E+01 0.00000E+00
 -1      4001 1.17900E+02 3.09853E+01 0.00000E+00
 -1      4002 1.15650E+02 2.96863E+01 0.00000E+00
 -1      4003 1.19400E+02 3.09853E+01 0.00000E+00
 -1      4004 1.20900E+02 3.09853E+01 0.00000E+00
 -1      4005 1.18650E+02 2.96863E+01 0.00000E+00
 -1      4006 1.22400E+02 3.09853E+01 0.00000E+00
 -1      4007 1.23900E+02 3.09853E+01 0.00000E+00
 -1      4008 1.21650E+02 2.96863E+01 0.00000E+00
 -1      4009 1.25400E+02 3.09853E+01 0.00000E+00
 -1      4010 1.26900E+02 3.09853E+01 0.00000E+00
 -1      4011 1.24650E+02 2.96863E+01 0.00000E+00
 -1      4012 1.28316E+02 3.05512E+01 0.00000E+00
 -1      4013 1.29816E+02 3.05512E+01 0.00000E+00
 -1      4014 1.30398E+02 2.83841E+01 0.00000E+00
 -1      4015 1.27566E+02 2.92522E+01 0.00000E+00
 -1      4016 8.42850E+01 1.82952E+01 0.00000E+00
 -1      4017 8.27850E+01 1.82952E+01 0.00000E+00
 -1      4018 8.20350E+01 1.95942E+01 0.00000E+00
 -1      4019 7.59808E+01 1.81149E+01 0.00000E+00
 -1      4020 7.44808E+01 1.81149E+01 0.00000E+00
 -1      4021 7.44266E+01 1.92336E+01 0.00000E+00
 -1      4022 7.86329E+01 1.82051E+01 0.00000E+00
 -1      4023 7.71329E+01 1.82051E+01 0.00000E+00
 -1      4024 7.70787E+01 1.93237E+01 0.00000E+00
 -1      4025 7.93829E+01 1.95041E+01 0.00000E+00
 -1      4026 8.72850E+01 1.82952E+01 0.00000E+00
 -1      4027 8.57850E+01 1.82952E+01 0.00000E+00
 -1      4028 8.50350E+01 1.95942E+01 0.00000E+00
 -1      4029 9.02850E+01 1.82952E+01 0.00000E+00
 -1      4030 8.87850E+01 1.82952E+01 0.00000E+00
 -1      4031 8.80350E+01 1.95942E+01 0.00000E+00
 -1      4032 9.32850E+01 1.82952E+01 0.00000E+00
 -1      4033 9.17850E+01 1.82952E+01 0.00000E+00
 -1      4034 9.10350E+01 1.95942E+01 0.00000E+00
 -1      4035 9.62850E+01 1.82952E+01 0.00000E+00
 -1      4036 9.47850E+01 1.82952E+01 0.00000E+00
 -1      4037 9.40350E+01 1.95942E+01 0.00000E+00
 -1      4038 9.92850E+01 1.82952E+01 0.00000E+00
 -1      4039 9.77850E+01 1.82952E+01 0.00000E+00
 -1      4040 9.70350E+01 1.95942E+01 0.00000E+00
 -1      4041 1.02285E+02 1.82952E+01 0.00000E+00
 -1      4042 1.00785E+02 1.82952E+01 0.00000E+00
 -1      4043 1.00035E+02 1.95942E+01 0.00000E+00
 -1      4044 1.05285E+02 1.82952E+01 0.00000E+00
 -1      4045 1.03785E+02 1.82952E+01 0.00000E+00
 -1      4046 1.03035E+02 1.95942E+01 0.00000E+00
 -1      4047 1.08285E+02 1.82952E+01 0.00000E+00
 -1      4048 1.06785E+02 1.82952E+01 0.00000E+00
 -1      4049 1.06035E+02 1.95942E+01 0.00000E+00
 -1      4050 1.11285E+02 1.82952E+01 0.00000E+00
 -1      4051 1.09785E+02 1.82952E+01 0.00000E+00
 -1      4052 1.09035E+02 1.95942E+01 0.00000E+00
 -1      4053 1.14285E+02 1.82952E+01 0.00000E+00
 -1      4054 1.12785E+02 1.82952E+01 0.00000E+00
 -1      4055 1.12035E+02 1.95942E+01 0.00000E+00
 -1      4056 1.17285E+02 1.82952E+01 0.00000E+00
 -1      4057 1.15785E+02 1.82952E+01 0.00000E+00
 -1      4058 1.15035E+02 1.95942E+01 0.00000E+00
 -1      4059 1.20285E+02 1.82952E+01 0.00000E+00
 -1      4060 1.18785E+02 1.82952E+01 0.00000E+00
 -1      4061 1.18035E+02 1.95942E+01 0.00000E+00
 -1      4062 1.23285E+02 1.82952E+01 0.00000E+00
 -1      4063 1.21785E+02 1.82952E+01 0.00000E+00
 -1      4064 1.21035E+02 1.95942E+01 0.00000E+00
 -1      4065 1.26285E+02 1.82952E+01 0.00000E+00
 -1      4066 1.24785E+02 1.82952E+01 0.00000E+00
 -1      4067 1.24035E+02 1.95942E+01 0.00000E+00
 -1      4068 1.29285E+02 1.82952E+01 0.00000E+00
 -1      4069 1.27785E+02 1.82952E+01 0.00000E+00
 -1      4070 1.27035E+02 1.95942E+01 0.00000E+00
 -1      4071 2.34000E+01 3.05150E+01 0.00000E+00
 -1      4072 2.49000E+01 3.05150E+01 0.00000E+00
 -1      4073 2.26500E+01 2.92160E+01 0.00000E+00
 -1      4074 3.40522E+01 2.34025E+01 0.00000E+00
 -1      4075 3.37068E+01 2.20841E+01 0.00000E+00
 -1      4076 7.15343E+01 3.17059E+01 0.00000E+00
 -1      4077 7.29672E+01 3.13456E+01 0.00000E+00
 -1      4078 7.37172E+01 3.00466E+01 0.00000E+00
 -1      4079 7.08515E+01 3.07671E+01 0.00000E+00
 -1      4080 3.59782E+01 1.93611E+01 0.00000E+00
 -1      4081 7.18037E+01 2.95287E+01 0.00000E+00
 -1      4082 3.44020E+01 1.90488E+01 0.00000E+00
 -1      4083 3.56112E+01 1.73085E+01 0.00000E+00
 -1      4084 1.33130E+02 2.28275E+01 0.00000E+00
 -1      4085 1.33148E+02 2.13799E+01 0.00000E+00
 -1      4086 1.31831E+02 2.35650E+01 0.00000E+00
 -1      4087 1.33156E+02 1.99031E+01 0.00000E+00
 -1      4088 1.33174E+02 1.84556E+01 0.00000E+00
 -1      4089 1.68870E+01 2.42375E+01 0.00000E+00
 -1      4090 1.68870E+01 2.57094E+01 0.00000E+00
 -1      4091 1.81860E+01 2.35000E+01 0.00000E+00
 -1      4092 2.94000E+01 3.05150E+01 0.00000E+00
 -1      4093 3.09000E+01 3.05150E+01 0.00000E+00
 -1      4094 2.86500E+01 2.92160E+01 0.00000E+00
 -1      4095 2.87850E+01 1.56973E+01 0.00000E+00
 -1      4096 2.72850E+01 1.56973E+01 0.00000E+00
 -1      4097 2.65350E+01 1.69963E+01 0.00000E+00
 -1      4098 2.95350E+01 1.69963E+01 0.00000E+00
 -1      4099 1.32258E+02 1.73718E+01 0.00000E+00
 -1      4100 1.30951E+02 1.80800E+01 0.00000E+00
 -1      4101 1.31857E+02 2.06406E+01 0.00000E+00
 -1      4102 1.30201E+02 1.93790E+01 0.00000E+00
 -1      4103 7.24930E+01 2.05236E+01 0.00000E+00
 -1      4104 3.78612E+01 1.60095E+01 0.00000E+00
 -1      4105 3.63612E+01 1.60095E+01 0.00000E+00
 -1      4106 2.56500E+01 2.92160E+01 0.00000E+00
 -1      4107 1.93800E+01 3.03528E+01 0.00000E+00
 -1      4108 2.01300E+01 2.90538E+01 0.00000E+00
 -1      4109 1.83600E+01 3.01907E+01 0.00000E+00
 -1      4110 1.28982E+02 2.73494E+01 0.00000E+00
 -1      4111 1.30398E+02 2.69153E+01 0.00000E+00
 -1      4112 1.30398E+02 2.54466E+01 0.00000E+00
 -1      4113 3.33044E+01 2.05665E+01 0.00000E+00
 -1      4114 3.29374E+01 1.85139E+01 0.00000E+00
 -1      4115 3.14374E+01 1.85139E+01 0.00000E+00
 -1      4116 3.22423E+01 2.15491E+01 0.00000E+00
 -1      4117 3.91457E+01 1.47317E+01 0.00000E+00
 -1      4118 7.28870E+01 2.31257E+01 0.00000E+00
 -1      4119 7.22587E+01 2.42544E+01 0.00000E+00
 -1      4120 7.30862E+01 2.55665E+01 0.00000E+00
 -1      4121 1.94850E+01 2.27641E+01 0.00000E+00
 -1      4122 1.94850E+01 2.42359E+01 0.00000E+00
 -1      4123 3.39502E+01 2.80012E+01 0.00000E+00
 -1      4124 3.33340E+01 2.68895E+01 0.00000E+00
 -1      4125 3.29781E+01 2.89016E+01 0.00000E+00
 -1      4126 1.65945E+01 3.01479E+01 0.00000E+00
 -1      4127 3.34754E+01 2.45280E+01 0.00000E+00
 -1      4128 1.83919E+01 1.83311E+01 0.00000E+00
 -1      4129 3.03399E+01 2.00315E+01 0.00000E+00
 -1      4130 2.99374E+01 1.85139E+01 0.00000E+00
 -1      4131 2.84375E+01 1.85139E+01 0.00000E+00
 -1      4132 1.30192E+02 2.08558E+01 0.00000E+00
 -1      4133 1.94758E+01 2.12659E+01 0.00000E+00
 -1      4134 2.07748E+01 2.20018E+01 0.00000E+00
 -1      4135 1.92572E+01 2.00847E+01 0.00000E+00
 -1      4136 1.99003E+01 1.87499E+01 0.00000E+00
 -1      4137 1.86480E+01 2.69318E+01 0.00000E+00
 -1      4138 1.73490E+01 2.76693E+01 0.00000E+00
 -1      4139 3.18721E+01 2.96146E+01 0.00000E+00
 -1      4140 2.14003E+01 1.87499E+01 0.00000E+00
 -1      4141 7.25635E+01 2.84206E+01 0.00000E+00
 -1      4142 7.30441E+01 2.92988E+01 0.00000E+00
 -1      4143 7.44770E+01 2.89385E+01 0.00000E+00
 -1      4144 7.31309E+01 2.74430E+01 0.00000E+00
 -1      4145 1.73445E+01 2.88489E+01 0.00000E+00
 -1      4146 2.49000E+01 2.79170E+01 0.00000E+00
 -1      4147 2.64000E+01 2.79170E+01 0.00000E+00
 -1      4148 2.44003E+01 1.87499E+01 0.00000E+00
 -1      4149 2.29003E+01 1.87499E+01 0.00000E+00
 -1      4150 2.22656E+01 2.05036E+01 0.00000E+00
 -1      4151 7.54930E+01 2.05236E+01 0.00000E+00
 -1      4152 7.39930E+01 2.05236E+01 0.00000E+00
 -1      4153 7.35595E+01 2.18137E+01 0.00000E+00
 -1      4154 3.11447E+01 2.30668E+01 0.00000E+00
 -1      4155 3.07423E+01 2.15491E+01 0.00000E+00
 -1      4156 2.92423E+01 2.15492E+01 0.00000E+00
 -1      4157 8.27850E+01 2.08932E+01 0.00000E+00
 -1      4158 8.12850E+01 2.08932E+01 0.00000E+00
 -1      4159 7.89000E+01 2.83873E+01 0.00000E+00
 -1      4160 8.04000E+01 2.83873E+01 0.00000E+00
 -1      4161 8.19000E+01 2.83873E+01 0.00000E+00
 -1      4162 8.34000E+01 2.83873E+01 0.00000E+00
 -1      4163 8.11500E+01 2.70883E+01 0.00000E+00
 -1      4164 8.49000E+01 2.83873E+01 0.00000E+00
 -1      4165 8.64000E+01 2.83873E+01 0.00000E+00
 -1      4166 8.41500E+01 2.70883E+01 0.00000E+00
 -1      4167 8.79000E+01 2.83873E+01 0.00000E+00
 -1      4168 8.94000E+01 2.83873E+01 0.00000E+00
 -1      4169 8.71500E+01 2.70883E+01 0.00000E+00
 -1      4170 9.09000E+01 2.83873E+01 0.00000E+00
 -1      4171 9.24000E+01 2.83873E+01 0.00000E+00
 -1      4172 9.01500E+01 2.70883E+01 0.00000E+00
 -1      4173 9.39000E+01 2.83873E+01 0.00000E+00
 -1      4174 9.54000E+01 2.83873E+01 0.00000E+00
 -1      4175 9.31500E+01 2.70883E+01 0.00000E+00
 -1      4176 9.69000E+01 2.83873E+01 0.00000E+00
 -1      4177 9.84000E+01 2.83873E+01 0.00000E+00
 -1      4178 9.61500E+01 2.70883E+01 0.00000E+00
 -1      4179 9.99000E+01 2.83873E+01 0.00000E+00
 -1      4180 1.01400E+02 2.83873E+01 0.00000E+00
 -1      4181 9.91500E+01 2.70883E+01 0.00000E+00
 -1      4182 1.02900E+02 2.83873E+01 0.00000E+00
 -1      4183 1.04400E+02 2.83873E+01 0.00000E+00
 -1      4184 1.02150E+02 2.70883E+01 0.00000E+00
 -1      4185 1.05900E+02 2.83873E+01 0.00000E+00
 -1      4186 1.07400E+02 2.83873E+01 0.00000E+00
 -1      4187 1.05150E+02 2.70883E+01 0.00000E+00
 -1      4188 1.08900E+02 2.83873E+01 0.00000E+00
 -1      4189 1.10400E+02 2.83873E+01 0.00000E+00
 -1      4190 1.08150E+02 2.70883E+01 0.00000E+00
 -1      4191 1.11900E+02 2.83873E+01 0.00000E+00
 -1      4192 1.13400E+02 2.83873E+01 0.00000E+00
 -1      4193 1.11150E+02 2.70883E+01 0.00000E+00
 -1      4194 1.14900E+02 2.83873E+01 0.00000E+00
 -1      4195 1.16400E+02 2.83873E+01 0.00000E+00
 -1      4196 1.14150E+02 2.70883E+01 0.00000E+00
 -1      4197 1.17900E+02 2.83873E+01 0.00000E+00
 -1      4198 1.19400E+02 2.83873E+01 0.00000E+00
 -1      4199 1.17150E+02 2.70883E+01 0.00000E+00
 -1      4200 1.20900E+02 2.83873E+01 0.00000E+00
 -1      4201 1.22400E+02 2.83873E+01 0.00000E+00
 -1      4202 1.20150E+02 2.70883E+01 0.00000E+00
 -1      4203 1.23900E+02 2.83873E+01 0.00000E+00
 -1      4204 1.25400E+02 2.83873E+01 0.00000E+00
 -1      4205 1.23150E+02 2.70883E+01 0.00000E+00
 -1      4206 1.26483E+02 2.80854E+01 0.00000E+00
 -1      4207 1.27899E+02 2.76513E+01 0.00000E+00
 -1      4208 1.27899E+02 2.61826E+01 0.00000E+00
 -1      4209 1.25733E+02 2.67864E+01 0.00000E+00
 -1      4210 9.17850E+01 2.08932E+01 0.00000E+00
 -1      4211 9.02850E+01 2.08932E+01 0.00000E+00
 -1      4212 9.47850E+01 2.08932E+01 0.00000E+00
 -1      4213 9.32850E+01 2.08932E+01 0.00000E+00
 -1      4214 9.25350E+01 2.21922E+01 0.00000E+00
 -1      4215 9.77850E+01 2.08932E+01 0.00000E+00
 -1      4216 9.62850E+01 2.08932E+01 0.00000E+00
 -1      4217 9.55350E+01 2.21922E+01 0.00000E+00
 -1      4218 1.00785E+02 2.08932E+01 0.00000E+00
 -1      4219 9.92850E+01 2.08932E+01 0.00000E+00
 -1      4220 9.85350E+01 2.21922E+01 0.00000E+00
 -1      4221 1.03785E+02 2.08932E+01 0.00000E+00
 -1      4222 1.02285E+02 2.08932E+01 0.00000E+00
 -1      4223 1.01535E+02 2.21922E+01 0.00000E+00
 -1      4224 1.06785E+02 2.08932E+01 0.00000E+00
 -1      4225 1.05285E+02 2.08932E+01 0.00000E+00
 -1      4226 1.04535E+02 2.21922E+01 0.00000E+00
 -1      4227 1.09785E+02 2.08932E+01 0.00000E+00
 -1      4228 1.08285E+02 2.08932E+01 0.00000E+00
 -1      4229 1.07535E+02 2.21922E+01 0.00000E+00
 -1      4230 1.12785E+02 2.08932E+01 0.00000E+00
 -1      4231 1.11285E+02 2.08932E+01 0.00000E+00
 -1      4232 1.10535E+02 2.21922E+01 0.00000E+00
 -1      4233 1.15785E+02 2.08932E+01 0.00000E+00
 -1      4234 1.14285E+02 2.08932E+01 0.00000E+00
 -1      4235 1.13535E+02 2.21922E+01 0.00000E+00
 -1      4236 1.18785E+02 2.08932E+01 0.00000E+00
 -1      4237 1.17285E+02 2.08932E+01 0.00000E+00
 -1      4238 1.16535E+02 2.21922E+01 0.00000E+00
 -1      4239 1.21785E+02 2.08932E+01 0.00000E+00
 -1      4240 1.20285E+02 2.08932E+01 0.00000E+00
 -1      4241 1.19535E+02 2.21922E+01 0.00000E+00
 -1      4242 1.24785E+02 2.08932E+01 0.00000E+00
 -1      4243 1.23285E+02 2.08932E+01 0.00000E+00
 -1      4244 1.22535E+02 2.21922E+01 0.00000E+00
 -1      4245 1.27785E+02 2.08932E+01 0.00000E+00
 -1      4246 1.26285E+02 2.08932E+01 0.00000E+00
 -1      4247 1.25535E+02 2.21922E+01 0.00000E+00
 -1      4248 2.01390E+01 2.79928E+01 0.00000E+00
 -1      4249 2.11590E+01 2.81550E+01 0.00000E+00
 -1      4250 2.26590E+01 2.81550E+01 0.00000E+00
 -1      4251 1.96770E+01 2.60329E+01 0.00000E+00
 -1      4252 8.57850E+01 2.08932E+01 0.00000E+00
 -1      4253 8.42850E+01 2.08932E+01 0.00000E+00
 -1      4254 8.35350E+01 2.21922E+01 0.00000E+00
 -1      4255 7.59000E+01 2.83873E+01 0.00000E+00
 -1      4256 7.74000E+01 2.83873E+01 0.00000E+00
 -1      4257 7.81500E+01 2.70883E+01 0.00000E+00
 -1      4258 2.71689E+01 1.86319E+01 0.00000E+00
 -1      4259 2.56689E+01 1.86319E+01 0.00000E+00
 -1      4260 2.50342E+01 2.03856E+01 0.00000E+00
 -1      4261 2.75713E+01 2.01495E+01 0.00000E+00
 -1      4262 3.26547E+01 2.57087E+01 0.00000E+00
 -1      4263 3.18240E+01 2.42475E+01 0.00000E+00
 -1      4264 3.03240E+01 2.42475E+01 0.00000E+00
 -1      4265 3.16826E+01 2.66091E+01 0.00000E+00
 -1      4266 2.09760E+01 2.52970E+01 0.00000E+00
 -1      4267 1.30637E+02 2.28599E+01 0.00000E+00
 -1      4268 1.28980E+02 2.15983E+01 0.00000E+00
 -1      4269 1.28230E+02 2.28973E+01 0.00000E+00
 -1      4270 1.30619E+02 2.43074E+01 0.00000E+00
 -1      4271 8.87850E+01 2.08932E+01 0.00000E+00
 -1      4272 8.72850E+01 2.08932E+01 0.00000E+00
 -1      4273 8.95350E+01 2.21922E+01 0.00000E+00
 -1      4274 3.12559E+01 2.85029E+01 0.00000E+00
 -1      4275 2.79000E+01 2.79170E+01 0.00000E+00
 -1      4276 2.94000E+01 2.79170E+01 0.00000E+00
 -1      4277 2.71500E+01 2.66180E+01 0.00000E+00
 -1      4278 2.22748E+01 2.20018E+01 0.00000E+00
 -1      4279 7.66452E+01 2.06138E+01 0.00000E+00
 -1      4280 7.62116E+01 2.19038E+01 0.00000E+00
 -1      4281 7.77973E+01 2.07040E+01 0.00000E+00
 -1      4282 7.43870E+01 2.31257E+01 0.00000E+00
 -1      4283 3.05059E+01 2.72039E+01 0.00000E+00
 -1      4284 8.01329E+01 2.08031E+01 0.00000E+00
 -1      4285 7.89808E+01 2.07129E+01 0.00000E+00
 -1      4286 8.08829E+01 2.21021E+01 0.00000E+00
 -1      4287 2.39576E+01 2.23006E+01 0.00000E+00
 -1      4288 2.24668E+01 2.37988E+01 0.00000E+00
 -1      4289 2.26588E+01 2.55957E+01 0.00000E+00
 -1      4290 2.41498E+01 2.66568E+01 0.00000E+00
 -1      4291 8.65350E+01 2.21922E+01 0.00000E+00
 -1      4292 7.52270E+01 2.76395E+01 0.00000E+00
 -1      4293 1.29203E+02 2.47415E+01 0.00000E+00
 -1      4294 7.38809E+01 2.61440E+01 0.00000E+00
 -1      4295 7.45539E+01 2.68917E+01 0.00000E+00
 -1      4296 7.59770E+01 2.63405E+01 0.00000E+00
 -1      4297 7.45092E+01 2.50152E+01 0.00000E+00
 -1      4298 8.04000E+01 2.57893E+01 0.00000E+00
 -1      4299 8.19000E+01 2.57893E+01 0.00000E+00
 -1      4300 9.62850E+01 2.34912E+01 0.00000E+00
 -1      4301 9.47850E+01 2.34912E+01 0.00000E+00
 -1      4302 7.74385E+01 2.60649E+01 0.00000E+00
 -1      4303 7.89385E+01 2.60649E+01 0.00000E+00
 -1      4304 7.96885E+01 2.47659E+01 0.00000E+00
 -1      4305 7.67655E+01 2.53171E+01 0.00000E+00
 -1      4306 8.38425E+01 2.46403E+01 0.00000E+00
 -1      4307 8.53425E+01 2.46403E+01 0.00000E+00
 -1      4308 8.68425E+01 2.46403E+01 0.00000E+00
 -1      4309 8.83425E+01 2.46403E+01 0.00000E+00
 -1      4310 8.98425E+01 2.46403E+01 0.00000E+00
 -1      4311 9.13425E+01 2.46403E+01 0.00000E+00
 -1      4312 9.50925E+01 2.59393E+01 0.00000E+00
 -1      4313 9.65925E+01 2.59393E+01 0.00000E+00
 -1      4314 9.84000E+01 2.57893E+01 0.00000E+00
 -1      4315 9.99000E+01 2.57893E+01 0.00000E+00
 -1      4316 1.01842E+02 2.46403E+01 0.00000E+00
 -1      4317 1.03342E+02 2.46403E+01 0.00000E+00
 -1      4318 1.04842E+02 2.46403E+01 0.00000E+00
 -1      4319 1.06342E+02 2.46403E+01 0.00000E+00
 -1      4320 1.07842E+02 2.46403E+01 0.00000E+00
 -1      4321 1.09342E+02 2.46403E+01 0.00000E+00
 -1      4322 1.10842E+02 2.46403E+01 0.00000E+00
 -1      4323 1.12342E+02 2.46403E+01 0.00000E+00
 -1      4324 1.13842E+02 2.46403E+01 0.00000E+00
 -1      4325 1.15342E+02 2.46403E+01 0.00000E+00
 -1      4326 1.16842E+02 2.46403E+01 0.00000E+00
 -1      4327 1.18342E+02 2.46403E+01 0.00000E+00
 -1      4328 1.19842E+02 2.46403E+01 0.00000E+00
 -1      4329 1.21342E+02 2.46403E+01 0.00000E+00
 -1      4330 1.22842E+02 2.46403E+01 0.00000E+00
 -1      4331 1.24342E+02 2.46403E+01 0.00000E+00
 -1      4332 9.95925E+01 2.33413E+01 0.00000E+00
 -1      4333 9.80925E+01 2.33413E+01 0.00000E+00
 -1      4334 9.28425E+01 2.46403E+01 0.00000E+00
 -1      4335 2.52262E+01 2.21826E+01 0.00000E+00
 -1      4336 1.25842E+02 2.46403E+01 0.00000E+00
 -1      4337 2.83762E+01 2.31848E+01 0.00000E+00
 -1      4338 2.79737E+01 2.16672E+01 0.00000E+00
 -1      4339 2.67052E+01 2.17852E+01 0.00000E+00
 -1      4340 7.51759E+01 2.41621E+01 0.00000E+00
 -1      4341 7.59707E+01 2.47396E+01 0.00000E+00
 -1      4342 7.74322E+01 2.44640E+01 0.00000E+00
 -1      4343 2.63788E+01 2.49604E+01 0.00000E+00
 -1      4344 2.78788E+01 2.49604E+01 0.00000E+00
 -1      4345 7.58485E+01 2.28501E+01 0.00000E+00
 -1      4346 2.98267E+01 2.60232E+01 0.00000E+00
 -1      4347 2.91474E+01 2.48424E+01 0.00000E+00
 -1      4348 7.70006E+01 2.29403E+01 0.00000E+00
 -1      4349 1.00342E+02 2.46403E+01 0.00000E+00
 -1      4350 8.15925E+01 2.33413E+01 0.00000E+00
 -1      4351 8.04404E+01 2.32511E+01 0.00000E+00
 -1      4352 2.56286E+01 2.37002E+01 0.00000E+00
 -1      4353 9.73425E+01 2.46403E+01 0.00000E+00
 -1      4354 9.43425E+01 2.46403E+01 0.00000E+00
 -1      4355 1.27037E+02 2.53453E+01 0.00000E+00
 -1      4356 2.48998E+01 2.53578E+01 0.00000E+00
 -1      4357 8.23425E+01 2.46403E+01 0.00000E+00
 -1      4358 7.85473E+01 2.20030E+01 0.00000E+00
 -1      4359 7.89789E+01 2.35267E+01 0.00000E+00
 -1      4360 1.28120E+02 2.50434E+01 0.00000E+00
 -1      4361 7.81841E+01 2.29492E+01 0.00000E+00
 -3
    3C                          2099                                     1
 -1       164    8    0    1
 -2         6         7        23      1132      1295      1149
 -1       165    8    0    1
 -2         7         8       164      1133      1296      1297
 -1       166    8    0    1
 -2         8         9       165      1134      1298      1299
 -1       167    8    0    1
 -2         8       165       164      1299      1300      1296
 -1       168    8    0    1
 -2         9        10       166      1135      1301      1302
 -1       169    8    0    1
 -2         9       166       165      1302      1303      1298
 -1       170    8    0    1
 -2        10        11       167      1136      1304      1305
 -1       171    8    0    1
 -2        10       167       166      1305      1306      1301
 -1       172    8    0    1
 -2        11        12       168      1137      1307      1308
 -1       173    8    0    1
 -2        11       168       167      1308      1309      1304
 -1       174    8    0    1
 -2        12        13       169      1138      1310      1311
 -1       175    8    0    1
 -2        12       169       168      1311      1312      1307
 -1       176    8    0    1
 -2        13        14       170      1139      1313      1314
 -1       177    8    0    1
 -2        13       170       169      1314      1315      1310
 -1       178    8    0    1
 -2        14        15       171      1140      1316      1317
 -1       179    8    0    1
 -2        14       171       170      1317      1318      1313
 -1       180    8    0    1
 -2        15        16       172      1141      1319      1320
 -1       181    8    0    1
 -2        15       172       171      1320      1321      1316
 -1       182    8    0    1
 -2        16        17       173      1142      1322      1323
 -1       183    8    0    1
 -2        16       173       172      1323      1324      1319
 -1       184    8    0    1
 -2        17        18       174      1143      1325      1326
 -1       185    8    0    1
 -2        17       174       173      1326      1327      1322
 -1       186    8    0    1
 -2        18        19       175      1144      1328      1329
 -1       187    8    0    1
 -2        18       175       174      1329      1330      1325
 -1       188    8    0    1
 -2        19        20       176      1145      1331      1332
 -1       189    8    0    1
 -2        19       176       175      1332      1333      1328
 -1       190    8    0    1
 -2        20        21       177      1146      1334      1335
 -1       191    8    0    1
 -2        20       177       176      1335      1336      1331
 -1       192    8    0    1
 -2        21        22       178      1147      1337      1338
 -1       193    8    0    1
 -2        21       178       177      1338      1339      1334
 -1       194    8    0    1
 -2        22         5       179      1148      1340      1341
 -1       195    8    0    1
 -2       178        22       179      1337      1341      1342
 -1       196    8    0    1
 -2         5        72       179      1199      1343      1340
 -1       197    8    0    1
 -2        24        23       180      1150      1344      1345
 -1       198    8    0    1
 -2        25        24       181      1151      1346      1347
 -1       199    8    0    1
 -2        24       180       181      1345      1348      1346
 -1       200    8    0    1
 -2        26        25       182      1152      1349      1350
 -1       201    8    0    1
 -2        25       181       182      1347      1351      1349
 -1       202    8    0    1
 -2        27        26       183      1153      1352      1353
 -1       203    8    0    1
 -2        26       182       183      1350      1354      1352
 -1       204    8    0    1
 -2        28        27       184      1154      1355      1356
 -1       205    8    0    1
 -2        27       183       184      1353      1357      1355
 -1       206    8    0    1
 -2        29        28       185      1155      1358      1359
 -1       207    8    0    1
 -2        28       184       185      1356      1360      1358
 -1       208    8    0    1
 -2        30        29       186      1156      1361      1362
 -1       209    8    0    1
 -2        29       185       186      1359      1363      1361
 -1       210    8    0    1
 -2        31        30       187      1157      1364      1365
 -1       211    8    0    1
 -2        30       186       187      1362      1366      1364
 -1       212    8    0    1
 -2        32        31       188      1158      1367      1368
 -1       213    8    0    1
 -2        31       187       188      1365      1369      1367
 -1       214    8    0    1
 -2        33        32       189      1159      1370      1371
 -1       215    8    0    1
 -2        32       188       189      1368      1372      1370
 -1       216    8    0    1
 -2        34        33       190      1160      1373      1374
 -1       217    8    0    1
 -2        33       189       190      1371      1375      1373
 -1       218    8    0    1
 -2        35        34       191      1161      1376      1377
 -1       219    8    0    1
 -2        34       190       191      1374      1378      1376
 -1       220    8    0    1
 -2        36        35       192      1162      1379      1380
 -1       221    8    0    1
 -2        35       191       192      1377      1381      1379
 -1       222    8    0    1
 -2        37        36       193      1163      1382      1383
 -1       223    8    0    1
 -2        36       192       193      1380      1384      1382
 -1       224    8    0    1
 -2        38        37       194      1164      1385      1386
 -1       225    8    0    1
 -2        37       193       194      1383      1387      1385
 -1       226    8    0    1
 -2        39        38       195      1165      1388      1389
 -1       227    8    0    1
 -2        38       194       195      1386      1390      1388
 -1       228    8    0    1
 -2        40        39       196      1166      1391      1392
 -1       229    8    0    1
 -2        39       195       196      1389      1393      1391
 -1       230    8    0    1
 -2        41        40       197      1167      1394      1395
 -1       231    8    0    1
 -2        40       196       197      1392      1396      1394
 -1       232    8    0    1
 -2        42        41       198      1168      1397      1398
 -1       233    8    0    1
 -2        41       197       198      1395      1399      1397
 -1       234    8    0    1
 -2        43        42       199      1169      1400      1401
 -1       235    8    0    1
 -2        42       198       199      1398      1402      1400
 -1       236    8    0    1
 -2        44        43       200      1170      1403      1404
 -1       237    8    0    1
 -2        43       199       200      1401      1405      1403
 -1       238    8    0    1
 -2        45        44       201      1171      1406      1407
 -1       239    8    0    1
 -2        44       200       201      1404      1408      1406
 -1       240    8    0    1
 -2        46        45       202      1172      1409      1410
 -1       241    8    0    1
 -2        45       201       202      1407      1411      1409
 -1       242    8    0    1
 -2        47        46       203      1173      1412      1413
 -1       243    8    0    1
 -2        46       202       203      1410      1414      1412
 -1       244    8    0    1
 -2        48        47       204      1174      1415      1416
 -1       245    8    0    1
 -2        47       203       204      1413      1417      1415
 -1       246    8    0    1
 -2        49        48       205      1175      1418      1419
 -1       247    8    0    1
 -2        48       204       205      1416      1420      1418
 -1       248    8    0    1
 -2        50        49       206      1176      1421      1422
 -1       249    8    0    1
 -2        49       205       206      1419      1423      1421
 -1       250    8    0    1
 -2        51        50       207      1177      1424      1425
 -1       251    8    0    1
 -2        50       206       207      1422      1426      1424
 -1       252    8    0    1
 -2        52        51       208      1178      1427      1428
 -1       253    8    0    1
 -2        51       207       208      1425      1429      1427
 -1       254    8    0    1
 -2        53        52       209      1179      1430      1431
 -1       255    8    0    1
 -2        52       208       209      1428      1432      1430
 -1       256    8    0    1
 -2        54        53       210      1180      1433      1434
 -1       257    8    0    1
 -2        53       209       210      1431      1435      1433
 -1       258    8    0    1
 -2        55        54       211      1181      1436      1437
 -1       259    8    0    1
 -2        54       210       211      1434      1438      1436
 -1       260    8    0    1
 -2        56        55       212      1182      1439      1440
 -1       261    8    0    1
 -2        55       211       212      1437      1441      1439
 -1       262    8    0    1
 -2        57        56       213      1183      1442      1443
 -1       263    8    0    1
 -2        56       212       213      1440      1444      1442
 -1       264    8    0    1
 -2        58        57       214      1184      1445      1446
 -1       265    8    0    1
 -2        57       213       214      1443      1447      1445
 -1       266    8    0    1
 -2        59        58       215      1185      1448      1449
 -1       267    8    0    1
 -2        58       214       215      1446      1450      1448
 -1       268    8    0    1
 -2        60        59       216      1186      1451      1452
 -1       269    8    0    1
 -2        59       215       216      1449      1453      1451
 -1       270    8    0    1
 -2        61        60       217      1187      1454      1455
 -1       271    8    0    1
 -2        60       216       217      1452      1456      1454
 -1       272    8    0    1
 -2        62        61       218      1188      1457      1458
 -1       273    8    0    1
 -2        61       217       218      1455      1459      1457
 -1       274    8    0    1
 -2        63        62       219      1189      1460      1461
 -1       275    8    0    1
 -2        62       218       219      1458      1462      1460
 -1       276    8    0    1
 -2        64        63       220      1190      1463      1464
 -1       277    8    0    1
 -2        63       219       220      1461      1465      1463
 -1       278    8    0    1
 -2        65        64       221      1191      1466      1467
 -1       279    8    0    1
 -2        64       220       221      1464      1468      1466
 -1       280    8    0    1
 -2        66        65       222      1192      1469      1470
 -1       281    8    0    1
 -2        65       221       222      1467      1471      1469
 -1       282    8    0    1
 -2        67        66       223      1193      1472      1473
 -1       283    8    0    1
 -2        66       222       223      1470      1474      1472
 -1       284    8    0    1
 -2        68        67       224      1194      1475      1476
 -1       285    8    0    1
 -2        67       223       224      1473      1477      1475
 -1       286    8    0    1
 -2        69        68       225      1195      1478      1479
 -1       287    8    0    1
 -2        68       224       225      1476      1480      1478
 -1       288    8    0    1
 -2        70        69       226      1196      1481      1482
 -1       289    8    0    1
 -2        69       225       226      1479      1483      1481
 -1       290    8    0    1
 -2        71        70       227      1197      1484      1485
 -1       291    8    0    1
 -2        70       226       227      1482      1486      1484
 -1       292    8    0    1
 -2         4        71       136      1198      1487      1265
 -1       293    8    0    1
 -2       136        71       227      1487      1485      1488
 -1       294    8    0    1
 -2        72        73       228      1200      1489      1490
 -1       295    8    0    1
 -2        72       228       179      1490      1491      1343
 -1       296    8    0    1
 -2        73        74       229      1201      1492      1493
 -1       297    8    0    1
 -2        73       229       228      1493      1494      1489
 -1       298    8    0    1
 -2        74        75       230      1202      1495      1496
 -1       299    8    0    1
 -2        74       230       229      1496      1497      1492
 -1       300    8    0    1
 -2        75        76       231      1203      1498      1499
 -1       301    8    0    1
 -2        75       231       230      1499      1500      1495
 -1       302    8    0    1
 -2        76        77       232      1204      1501      1502
 -1       303    8    0    1
 -2        76       232       231      1502      1503      1498
 -1       304    8    0    1
 -2        77        78       233      1205      1504      1505
 -1       305    8    0    1
 -2        77       233       232      1505      1506      1501
 -1       306    8    0    1
 -2        78        79       234      1206      1507      1508
 -1       307    8    0    1
 -2        78       234       233      1508      1509      1504
 -1       308    8    0    1
 -2        79        80       235      1207      1510      1511
 -1       309    8    0    1
 -2        79       235       234      1511      1512      1507
 -1       310    8    0    1
 -2        80        81       236      1208      1513      1514
 -1       311    8    0    1
 -2        80       236       235      1514      1515      1510
 -1       312    8    0    1
 -2        81        82       237      1209      1516      1517
 -1       313    8    0    1
 -2        81       237       236      1517      1518      1513
 -1       314    8    0    1
 -2        82        83       238      1210      1519      1520
 -1       315    8    0    1
 -2        82       238       237      1520      1521      1516
 -1       316    8    0    1
 -2        83        84       239      1211      1522      1523
 -1       317    8    0    1
 -2        83       239       238      1523      1524      1519
 -1       318    8    0    1
 -2        84        85       240      1212      1525      1526
 -1       319    8    0    1
 -2        84       240       239      1526      1527      1522
 -1       320    8    0    1
 -2        85        86       241      1213      1528      1529
 -1       321    8    0    1
 -2        85       241       240      1529      1530      1525
 -1       322    8    0    1
 -2        86        87       242      1214      1531      1532
 -1       323    8    0    1
 -2        86       242       241      1532      1533      1528
 -1       324    8    0    1
 -2        87        88       243      1215      1534      1535
 -1       325    8    0    1
 -2        87       243       242      1535      1536      1531
 -1       326    8    0    1
 -2        88        89       244      1216      1537      1538
 -1       327    8    0    1
 -2        88       244       243      1538      1539      1534
 -1       328    8    0    1
 -2        89        90       245      1217      1540      1541
 -1       329    8    0    1
 -2        89       245       244      1541      1542      1537
 -1       330    8    0    1
 -2        90        91       246      1218      1543      1544
 -1       331    8    0    1
 -2        90       246       245      1544      1545      1540
 -1       332    8    0    1
 -2        91        92       247      1219      1546      1547
 -1       333    8    0    1
 -2        91       247       246      1547      1548      1543
 -1       334    8    0    1
 -2        92        93       248      1220      1549      1550
 -1       335    8    0    1
 -2        92       248       247      1550      1551      1546
 -1       336    8    0    1
 -2        93        94       249      1221      1552      1553
 -1       337    8    0    1
 -2        93       249       248      1553      1554      1549
 -1       338    8    0    1
 -2        94        95       250      1222      1555      1556
 -1       339    8    0    1
 -2        94       250       249      1556      1557      1552
 -1       340    8    0    1
 -2        95        96       251      1223      1558      1559
 -1       341    8    0    1
 -2        95       251       250      1559      1560      1555
 -1       342    8    0    1
 -2        96        97       252      1224      1561      1562
 -1       343    8    0    1
 -2        96       252       251      1562      1563      1558
 -1       344    8    0    1
 -2        97        98       253      1225      1564      1565
 -1       345    8    0    1
 -2        97       253       252      1565      1566      1561
 -1       346    8    0    1
 -2        98        99       254      1226      1567      1568
 -1       347    8    0    1
 -2        98       254       253      1568      1569      1564
 -1       348    8    0    1
 -2        99       100       255      1227      1570      1571
 -1       349    8    0    1
 -2        99       255       254      1571      1572      1567
 -1       350    8    0    1
 -2       100       101       256      1228      1573      1574
 -1       351    8    0    1
 -2       100       256       255      1574      1575      1570
 -1       352    8    0    1
 -2       101       102       257      1229      1576      1577
 -1       353    8    0    1
 -2       101       257       256      1577      1578      1573
 -1       354    8    0    1
 -2       102       103       258      1230      1579      1580
 -1       355    8    0    1
 -2       102       258       257      1580      1581      1576
 -1       356    8    0    1
 -2       103       104       259      1231      1582      1583
 -1       357    8    0    1
 -2       103       259       258      1583      1584      1579
 -1       358    8    0    1
 -2       104       105       260      1232      1585      1586
 -1       359    8    0    1
 -2       104       260       259      1586      1587      1582
 -1       360    8    0    1
 -2       105       106       261      1233      1588      1589
 -1       361    8    0    1
 -2       105       261       260      1589      1590      1585
 -1       362    8    0    1
 -2       106       107       262      1234      1591      1592
 -1       363    8    0    1
 -2       106       262       261      1592      1593      1588
 -1       364    8    0    1
 -2       107       108       263      1235      1594      1595
 -1       365    8    0    1
 -2       107       263       262      1595      1596      1591
 -1       366    8    0    1
 -2       108       109       264      1236      1597      1598
 -1       367    8    0    1
 -2       108       264       263      1598      1599      1594
 -1       368    8    0    1
 -2       109       110       265      1237      1600      1601
 -1       369    8    0    1
 -2       109       265       264      1601      1602      1597
 -1       370    8    0    1
 -2       110       111       266      1238      1603      1604
 -1       371    8    0    1
 -2       110       266       265      1604      1605      1600
 -1       372    8    0    1
 -2       111       112       267      1239      1606      1607
 -1       373    8    0    1
 -2       111       267       266      1607      1608      1603
 -1       374    8    0    1
 -2       112       113       268      1240      1609      1610
 -1       375    8    0    1
 -2       112       268       267      1610      1611      1606
 -1       376    8    0    1
 -2       113       114       269      1241      1612      1613
 -1       377    8    0    1
 -2       113       269       268      1613      1614      1609
 -1       378    8    0    1
 -2       114       115       270      1242      1615      1616
 -1       379    8    0    1
 -2       114       270       269      1616      1617      1612
 -1       380    8    0    1
 -2       115       116       271      1243      1618      1619
 -1       381    8    0    1
 -2       115       271       270      1619      1620      1615
 -1       382    8    0    1
 -2       116       117       272      1244      1621      1622
 -1       383    8    0    1
 -2       116       272       271      1622      1623      1618
 -1       384    8    0    1
 -2       117       118       273      1245      1624      1625
 -1       385    8    0    1
 -2       117       273       272      1625      1626      1621
 -1       386    8    0    1
 -2       118       119       274      1246      1627      1628
 -1       387    8    0    1
 -2       118       274       273      1628      1629      1624
 -1       388    8    0    1
 -2       119       120       275      1247      1630      1631
 -1       389    8    0    1
 -2       119       275       274      1631      1632      1627
 -1       390    8    0    1
 -2       120         3       121      1248      1249      1633
 -1       391    8    0    1
 -2       121       122       276      1250      1634      1635
 -1       392    8    0    1
 -2       122       123       277      1251      1636      1637
 -1       393    8    0    1
 -2       122       277       276      1637      1638      1634
 -1       394    8    0    1
 -2       123       124       278      1252      1639      1640
 -1       395    8    0    1
 -2       123       278       277      1640      1641      1636
 -1       396    8    0    1
 -2       124       125       279      1253      1642      1643
 -1       397    8    0    1
 -2       124       279       278      1643      1644      1639
 -1       398    8    0    1
 -2       125       126       280      1254      1645      1646
 -1       399    8    0    1
 -2       125       280       279      1646      1647      1642
 -1       400    8    0    1
 -2       126       127       281      1255      1648      1649
 -1       401    8    0    1
 -2       126       281       280      1649      1650      1645
 -1       402    8    0    1
 -2       127       128       282      1256      1651      1652
 -1       403    8    0    1
 -2       127       282       281      1652      1653      1648
 -1       404    8    0    1
 -2       128       129       283      1257      1654      1655
 -1       405    8    0    1
 -2       128       283       282      1655      1656      1651
 -1       406    8    0    1
 -2       129       130       284      1258      1657      1658
 -1       407    8    0    1
 -2       129       284       283      1658      1659      1654
 -1       408    8    0    1
 -2       130       131       285      1259      1660      1661
 -1       409    8    0    1
 -2       130       285       284      1661      1662      1657
 -1       410    8    0    1
 -2       131       132       286      1260      1663      1664
 -1       411    8    0    1
 -2       131       286       285      1664      1665      1660
 -1       412    8    0    1
 -2       132       133       287      1261      1666      1667
 -1       413    8    0    1
 -2       132       287       286      1667      1668      1663
 -1       414    8    0    1
 -2       133       134       288      1262      1669      1670
 -1       415    8    0    1
 -2       133       288       287      1670      1671      1666
 -1       416    8    0    1
 -2       134       135       289      1263      1672      1673
 -1       417    8    0    1
 -2       134       289       288      1673      1674      1669
 -1       418    8    0    1
 -2       135       136       290      1264      1675      1676
 -1       419    8    0    1
 -2       289       135       290      1672      1676      1677
 -1       420    8    0    1
 -2       136       227       290      1488      1678      1675
 -1       421    8    0    1
 -2         2       137       291      1266      1679      1680
 -1       422    8    0    1
 -2       137       138       292      1267      1681      1682
 -1       423    8    0    1
 -2       138       139       293      1268      1683      1684
 -1       424    8    0    1
 -2       139       140       294      1269      1685      1686
 -1       425    8    0    1
 -2       140       141       295      1270      1687      1688
 -1       426    8    0    1
 -2       141       142       296      1271      1689      1690
 -1       427    8    0    1
 -2       142       143       297      1272      1691      1692
 -1       428    8    0    1
 -2       143       144       298      1273      1693      1694
 -1       429    8    0    1
 -2       144       145       299      1274      1695      1696
 -1       430    8    0    1
 -2       145       146       300      1275      1697      1698
 -1       431    8    0    1
 -2       146       147       301      1276      1699      1700
 -1       432    8    0    1
 -2       147       148       302      1277      1701      1702
 -1       433    8    0    1
 -2       148       149       303      1278      1703      1704
 -1       434    8    0    1
 -2       149       150       304      1279      1705      1706
 -1       435    8    0    1
 -2       150       151       305      1280      1707      1708
 -1       436    8    0    1
 -2       151       152       306      1281      1709      1710
 -1       437    8    0    1
 -2       152       153       307      1282      1711      1712
 -1       438    8    0    1
 -2       153       154       308      1283      1713      1714
 -1       439    8    0    1
 -2       154       155       309      1284      1715      1716
 -1       440    8    0    1
 -2       155       156       310      1285      1717      1718
 -1       441    8    0    1
 -2       156       157       311      1286      1719      1720
 -1       442    8    0    1
 -2       157       158       312      1287      1721      1722
 -1       443    8    0    1
 -2       158       159       313      1288      1723      1724
 -1       444    8    0    1
 -2       159       160       314      1289      1725      1726
 -1       445    8    0    1
 -2       160         1       315      1290      1727      1728
 -1       446    8    0    1
 -2         1       161       316      1291      1729      1730
 -1       447    8    0    1
 -2       161       162       317      1292      1731      1732
 -1       448    8    0    1
 -2       162       163       318      1293      1733      1734
 -1       449    8    0    1
 -2       163         2       319      1294      1735      1736
 -1       450    8    0    1
 -2       294       140       295      1685      1688      1737
 -1       451    8    0    1
 -2       293       139       294      1683      1686      1738
 -1       452    8    0    1
 -2       120       121       275      1633      1739      1630
 -1       453    8    0    1
 -2       121       276       275      1635      1740      1739
 -1       454    8    0    1
 -2       291       137       292      1679      1682      1741
 -1       455    8    0    1
 -2       292       138       293      1681      1684      1742
 -1       456    8    0    1
 -2         2       291       319      1680      1743      1735
 -1       457    8    0    1
 -2       141       296       295      1690      1744      1687
 -1       458    8    0    1
 -2       142       297       296      1692      1745      1689
 -1       459    8    0    1
 -2       143       298       297      1694      1746      1691
 -1       460    8    0    1
 -2       144       299       298      1696      1747      1693
 -1       461    8    0    1
 -2       145       300       299      1698      1748      1695
 -1       462    8    0    1
 -2       146       301       300      1700      1749      1697
 -1       463    8    0    1
 -2       147       302       301      1702      1750      1699
 -1       464    8    0    1
 -2       148       303       302      1704      1751      1701
 -1       465    8    0    1
 -2       149       304       303      1706      1752      1703
 -1       466    8    0    1
 -2       150       305       304      1708      1753      1705
 -1       467    8    0    1
 -2       151       306       305      1710      1754      1707
 -1       468    8    0    1
 -2       152       307       306      1712      1755      1709
 -1       469    8    0    1
 -2       153       308       307      1714      1756      1711
 -1       470    8    0    1
 -2       154       309       308      1716      1757      1713
 -1       471    8    0    1
 -2       155       310       309      1718      1758      1715
 -1       472    8    0    1
 -2       156       311       310      1720      1759      1717
 -1       473    8    0    1
 -2       157       312       311      1722      1760      1719
 -1       474    8    0    1
 -2       158       313       312      1724      1761      1721
 -1       475    8    0    1
 -2       159       314       313      1726      1762      1723
 -1       476    8    0    1
 -2       160       315       314      1728      1763      1725
 -1       477    8    0    1
 -2         1       316       315      1730      1764      1727
 -1       478    8    0    1
 -2       161       317       316      1732      1765      1729
 -1       479    8    0    1
 -2       162       318       317      1734      1766      1731
 -1       480    8    0    1
 -2       163       319       318      1736      1767      1733
 -1       481    8    0    1
 -2        23         7       164      1295      1297      1768
 -1       482    8    0    1
 -2       165       166       320      1303      1769      1770
 -1       483    8    0    1
 -2       164       165       321      1300      1771      1772
 -1       484    8    0    1
 -2       165       320       321      1770      1773      1771
 -1       485    8    0    1
 -2       167       168       322      1309      1774      1775
 -1       486    8    0    1
 -2       168       169       323      1312      1776      1777
 -1       487    8    0    1
 -2       168       323       322      1777      1778      1774
 -1       488    8    0    1
 -2       169       170       324      1315      1779      1780
 -1       489    8    0    1
 -2       169       324       323      1780      1781      1776
 -1       490    8    0    1
 -2       170       171       325      1318      1782      1783
 -1       491    8    0    1
 -2       170       325       324      1783      1784      1779
 -1       492    8    0    1
 -2       171       172       326      1321      1785      1786
 -1       493    8    0    1
 -2       171       326       325      1786      1787      1782
 -1       494    8    0    1
 -2       172       173       327      1324      1788      1789
 -1       495    8    0    1
 -2       172       327       326      1789      1790      1785
 -1       496    8    0    1
 -2       173       174       328      1327      1791      1792
 -1       497    8    0    1
 -2       173       328       327      1792      1793      1788
 -1       498    8    0    1
 -2       174       175       329      1330      1794      1795
 -1       499    8    0    1
 -2       174       329       328      1795      1796      1791
 -1       500    8    0    1
 -2       175       176       330      1333      1797      1798
 -1       501    8    0    1
 -2       175       330       329      1798      1799      1794
 -1       502    8    0    1
 -2       176       177       331      1336      1800      1801
 -1       503    8    0    1
 -2       176       331       330      1801      1802      1797
 -1       504    8    0    1
 -2       177       178       332      1339      1803      1804
 -1       505    8    0    1
 -2       177       332       331      1804      1805      1800
 -1       506    8    0    1
 -2       178       179       333      1342      1806      1807
 -1       507    8    0    1
 -2       332       178       333      1803      1807      1808
 -1       508    8    0    1
 -2       179       228       333      1491      1809      1806
 -1       509    8    0    1
 -2       180        23       164      1344      1768      1810
 -1       510    8    0    1
 -2       228       229       334      1494      1811      1812
 -1       511    8    0    1
 -2       228       334       333      1812      1813      1809
 -1       512    8    0    1
 -2       180       164       321      1810      1772      1814
 -1       513    8    0    1
 -2       182       181       335      1351      1815      1816
 -1       514    8    0    1
 -2       183       182       336      1354      1817      1818
 -1       515    8    0    1
 -2       182       335       336      1816      1819      1817
 -1       516    8    0    1
 -2       184       183       337      1357      1820      1821
 -1       517    8    0    1
 -2       183       336       337      1818      1822      1820
 -1       518    8    0    1
 -2       185       184       338      1360      1823      1824
 -1       519    8    0    1
 -2       184       337       338      1821      1825      1823
 -1       520    8    0    1
 -2       186       185       339      1363      1826      1827
 -1       521    8    0    1
 -2       185       338       339      1824      1828      1826
 -1       522    8    0    1
 -2       187       186       340      1366      1829      1830
 -1       523    8    0    1
 -2       186       339       340      1827      1831      1829
 -1       524    8    0    1
 -2       188       187       341      1369      1832      1833
 -1       525    8    0    1
 -2       187       340       341      1830      1834      1832
 -1       526    8    0    1
 -2       189       188       342      1372      1835      1836
 -1       527    8    0    1
 -2       188       341       342      1833      1837      1835
 -1       528    8    0    1
 -2       190       189       343      1375      1838      1839
 -1       529    8    0    1
 -2       189       342       343      1836      1840      1838
 -1       530    8    0    1
 -2       191       190       344      1378      1841      1842
 -1       531    8    0    1
 -2       190       343       344      1839      1843      1841
 -1       532    8    0    1
 -2       192       191       345      1381      1844      1845
 -1       533    8    0    1
 -2       191       344       345      1842      1846      1844
 -1       534    8    0    1
 -2       193       192       346      1384      1847      1848
 -1       535    8    0    1
 -2       192       345       346      1845      1849      1847
 -1       536    8    0    1
 -2       194       193       347      1387      1850      1851
 -1       537    8    0    1
 -2       193       346       347      1848      1852      1850
 -1       538    8    0    1
 -2       195       194       348      1390      1853      1854
 -1       539    8    0    1
 -2       194       347       348      1851      1855      1853
 -1       540    8    0    1
 -2       196       195       349      1393      1856      1857
 -1       541    8    0    1
 -2       195       348       349      1854      1858      1856
 -1       542    8    0    1
 -2       197       196       350      1396      1859      1860
 -1       543    8    0    1
 -2       196       349       350      1857      1861      1859
 -1       544    8    0    1
 -2       198       197       351      1399      1862      1863
 -1       545    8    0    1
 -2       197       350       351      1860      1864      1862
 -1       546    8    0    1
 -2       199       198       352      1402      1865      1866
 -1       547    8    0    1
 -2       198       351       352      1863      1867      1865
 -1       548    8    0    1
 -2       200       199       353      1405      1868      1869
 -1       549    8    0    1
 -2       199       352       353      1866      1870      1868
 -1       550    8    0    1
 -2       201       200       354      1408      1871      1872
 -1       551    8    0    1
 -2       200       353       354      1869      1873      1871
 -1       552    8    0    1
 -2       202       201       355      1411      1874      1875
 -1       553    8    0    1
 -2       201       354       355      1872      1876      1874
 -1       554    8    0    1
 -2       203       202       356      1414      1877      1878
 -1       555    8    0    1
 -2       202       355       356      1875      1879      1877
 -1       556    8    0    1
 -2       204       203       357      1417      1880      1881
 -1       557    8    0    1
 -2       203       356       357      1878      1882      1880
 -1       558    8    0    1
 -2       205       204       358      1420      1883      1884
 -1       559    8    0    1
 -2       204       357       358      1881      1885      1883
 -1       560    8    0    1
 -2       206       205       359      1423      1886      1887
 -1       561    8    0    1
 -2       205       358       359      1884      1888      1886
 -1       562    8    0    1
 -2       207       206       360      1426      1889      1890
 -1       563    8    0    1
 -2       206       359       360      1887      1891      1889
 -1       564    8    0    1
 -2       208       207       361      1429      1892      1893
 -1       565    8    0    1
 -2       207       360       361      1890      1894      1892
 -1       566    8    0    1
 -2       209       208       362      1432      1895      1896
 -1       567    8    0    1
 -2       208       361       362      1893      1897      1895
 -1       568    8    0    1
 -2       210       209       363      1435      1898      1899
 -1       569    8    0    1
 -2       209       362       363      1896      1900      1898
 -1       570    8    0    1
 -2       211       210       364      1438      1901      1902
 -1       571    8    0    1
 -2       210       363       364      1899      1903      1901
 -1       572    8    0    1
 -2       212       211       365      1441      1904      1905
 -1       573    8    0    1
 -2       211       364       365      1902      1906      1904
 -1       574    8    0    1
 -2       213       212       366      1444      1907      1908
 -1       575    8    0    1
 -2       212       365       366      1905      1909      1907
 -1       576    8    0    1
 -2       214       213       367      1447      1910      1911
 -1       577    8    0    1
 -2       213       366       367      1908      1912      1910
 -1       578    8    0    1
 -2       215       214       368      1450      1913      1914
 -1       579    8    0    1
 -2       214       367       368      1911      1915      1913
 -1       580    8    0    1
 -2       216       215       369      1453      1916      1917
 -1       581    8    0    1
 -2       215       368       369      1914      1918      1916
 -1       582    8    0    1
 -2       217       216       370      1456      1919      1920
 -1       583    8    0    1
 -2       216       369       370      1917      1921      1919
 -1       584    8    0    1
 -2       218       217       371      1459      1922      1923
 -1       585    8    0    1
 -2       217       370       371      1920      1924      1922
 -1       586    8    0    1
 -2       219       218       372      1462      1925      1926
 -1       587    8    0    1
 -2       218       371       372      1923      1927      1925
 -1       588    8    0    1
 -2       220       219       373      1465      1928      1929
 -1       589    8    0    1
 -2       219       372       373      1926      1930      1928
 -1       590    8    0    1
 -2       221       220       374      1468      1931      1932
 -1       591    8    0    1
 -2       220       373       374      1929      1933      1931
 -1       592    8    0    1
 -2       222       221       375      1471      1934      1935
 -1       593    8    0    1
 -2       221       374       375      1932      1936      1934
 -1       594    8    0    1
 -2       223       222       376      1474      1937      1938
 -1       595    8    0    1
 -2       222       375       376      1935      1939      1937
 -1       596    8    0    1
 -2       224       223       377      1477      1940      1941
 -1       597    8    0    1
 -2       223       376       377      1938      1942      1940
 -1       598    8    0    1
 -2       225       224       378      1480      1943      1944
 -1       599    8    0    1
 -2       224       377       378      1941      1945      1943
 -1       600    8    0    1
 -2       226       225       379      1483      1946      1947
 -1       601    8    0    1
 -2       225       378       379      1944      1948      1946
 -1       602    8    0    1
 -2       227       226       380      1486      1949      1950
 -1       603    8    0    1
 -2       290       227       380      1678      1950      1951
 -1       604    8    0    1
 -2       226       379       380      1947      1952      1949
 -1       605    8    0    1
 -2       229       230       381      1497      1953      1954
 -1       606    8    0    1
 -2       229       381       334      1954      1955      1811
 -1       607    8    0    1
 -2       230       231       382      1500      1956      1957
 -1       608    8    0    1
 -2       230       382       381      1957      1958      1953
 -1       609    8    0    1
 -2       231       232       383      1503      1959      1960
 -1       610    8    0    1
 -2       231       383       382      1960      1961      1956
 -1       611    8    0    1
 -2       232       233       384      1506      1962      1963
 -1       612    8    0    1
 -2       232       384       383      1963      1964      1959
 -1       613    8    0    1
 -2       233       234       385      1509      1965      1966
 -1       614    8    0    1
 -2       233       385       384      1966      1967      1962
 -1       615    8    0    1
 -2       234       235       386      1512      1968      1969
 -1       616    8    0    1
 -2       234       386       385      1969      1970      1965
 -1       617    8    0    1
 -2       235       236       387      1515      1971      1972
 -1       618    8    0    1
 -2       235       387       386      1972      1973      1968
 -1       619    8    0    1
 -2       236       237       388      1518      1974      1975
 -1       620    8    0    1
 -2       236       388       387      1975      1976      1971
 -1       621    8    0    1
 -2       237       238       389      1521      1977      1978
 -1       622    8    0    1
 -2       237       389       388      1978      1979      1974
 -1       623    8    0    1
 -2       238       239       390      1524      1980      1981
 -1       624    8    0    1
 -2       238       390       389      1981      1982      1977
 -1       625    8    0    1
 -2       239       240       391      1527      1983      1984
 -1       626    8    0    1
 -2       239       391       390      1984      1985      1980
 -1       627    8    0    1
 -2       240       241       392      1530      1986      1987
 -1       628    8    0    1
 -2       240       392       391      1987      1988      1983
 -1       629    8    0    1
 -2       241       242       393      1533      1989      1990
 -1       630    8    0    1
 -2       241       393       392      1990      1991      1986
 -1       631    8    0    1
 -2       242       243       394      1536      1992      1993
 -1       632    8    0    1
 -2       242       394       393      1993      1994      1989
 -1       633    8    0    1
 -2       243       244       395      1539      1995      1996
 -1       634    8    0    1
 -2       243       395       394      1996      1997      1992
 -1       635    8    0    1
 -2       244       245       396      1542      1998      1999
 -1       636    8    0    1
 -2       244       396       395      1999      2000      1995
 -1       637    8    0    1
 -2       245       246       397      1545      2001      2002
 -1       638    8    0    1
 -2       245       397       396      2002      2003      1998
 -1       639    8    0    1
 -2       246       247       398      1548      2004      2005
 -1       640    8    0    1
 -2       246       398       397      2005      2006      2001
 -1       641    8    0    1
 -2       247       248       399      1551      2007      2008
 -1       642    8    0    1
 -2       247       399       398      2008      2009      2004
 -1       643    8    0    1
 -2       248       249       400      1554      2010      2011
 -1       644    8    0    1
 -2       248       400       399      2011      2012      2007
 -1       645    8    0    1
 -2       249       250       401      1557      2013      2014
 -1       646    8    0    1
 -2       249       401       400      2014      2015      2010
 -1       647    8    0    1
 -2       250       251       402      1560      2016      2017
 -1       648    8    0    1
 -2       250       402       401      2017      2018      2013
 -1       649    8    0    1
 -2       251       252       403      1563      2019      2020
 -1       650    8    0    1
 -2       251       403       402      2020      2021      2016
 -1       651    8    0    1
 -2       252       253       404      1566      2022      2023
 -1       652    8    0    1
 -2       252       404       403      2023      2024      2019
 -1       653    8    0    1
 -2       253       254       405      1569      2025      2026
 -1       654    8    0    1
 -2       253       405       404      2026      2027      2022
 -1       655    8    0    1
 -2       254       255       406      1572      2028      2029
 -1       656    8    0    1
 -2       254       406       405      2029      2030      2025
 -1       657    8    0    1
 -2       255       256       407      1575      2031      2032
 -1       658    8    0    1
 -2       255       407       406      2032      2033      2028
 -1       659    8    0    1
 -2       256       257       408      1578      2034      2035
 -1       660    8    0    1
 -2       256       408       407      2035      2036      2031
 -1       661    8    0    1
 -2       257       258       409      1581      2037      2038
 -1       662    8    0    1
 -2       257       409       408      2038      2039      2034
 -1       663    8    0    1
 -2       258       259       410      1584      2040      2041
 -1       664    8    0    1
 -2       258       410       409      2041      2042      2037
 -1       665    8    0    1
 -2       259       260       411      1587      2043      2044
 -1       666    8    0    1
 -2       259       411       410      2044      2045      2040
 -1       667    8    0    1
 -2       260       261       412      1590      2046      2047
 -1       668    8    0    1
 -2       260       412       411      2047      2048      2043
 -1       669    8    0    1
 -2       261       262       413      1593      2049      2050
 -1       670    8    0    1
 -2       261       413       412      2050      2051      2046
 -1       671    8    0    1
 -2       262       263       414      1596      2052      2053
 -1       672    8    0    1
 -2       262       414       413      2053      2054      2049
 -1       673    8    0    1
 -2       263       264       415      1599      2055      2056
 -1       674    8    0    1
 -2       263       415       414      2056      2057      2052
 -1       675    8    0    1
 -2       264       265       416      1602      2058      2059
 -1       676    8    0    1
 -2       264       416       415      2059      2060      2055
 -1       677    8    0    1
 -2       265       266       417      1605      2061      2062
 -1       678    8    0    1
 -2       265       417       416      2062      2063      2058
 -1       679    8    0    1
 -2       266       267       418      1608      2064      2065
 -1       680    8    0    1
 -2       266       418       417      2065      2066      2061
 -1       681    8    0    1
 -2       267       268       419      1611      2067      2068
 -1       682    8    0    1
 -2       267       419       418      2068      2069      2064
 -1       683    8    0    1
 -2       268       269       420      1614      2070      2071
 -1       684    8    0    1
 -2       268       420       419      2071      2072      2067
 -1       685    8    0    1
 -2       269       270       421      1617      2073      2074
 -1       686    8    0    1
 -2       269       421       420      2074      2075      2070
 -1       687    8    0    1
 -2       270       271       422      1620      2076      2077
 -1       688    8    0    1
 -2       270       422       421      2077      2078      2073
 -1       689    8    0    1
 -2       271       272       423      1623      2079      2080
 -1       690    8    0    1
 -2       271       423       422      2080      2081      2076
 -1       691    8    0    1
 -2       272       273       424      1626      2082      2083
 -1       692    8    0    1
 -2       272       424       423      2083      2084      2079
 -1       693    8    0    1
 -2       273       274       425      1629      2085      2086
 -1       694    8    0    1
 -2       273       425       424      2086      2087      2082
 -1       695    8    0    1
 -2       274       275       426      1632      2088      2089
 -1       696    8    0    1
 -2       425       274       426      2085      2089      2090
 -1       697    8    0    1
 -2       275       276       426      1740      2091      2088
 -1       698    8    0    1
 -2       278       279       427      1644      2092      2093
 -1       699    8    0    1
 -2       277       278       428      1641      2094      2095
 -1       700    8    0    1
 -2       278       427       428      2093      2096      2094
 -1       701    8    0    1
 -2       276       277       429      1638      2097      2098
 -1       702    8    0    1
 -2       426       276       429      2091      2098      2099
 -1       703    8    0    1
 -2       277       428       429      2095      2100      2097
 -1       704    8    0    1
 -2       279       280       430      1647      2101      2102
 -1       705    8    0    1
 -2       279       430       427      2102      2103      2092
 -1       706    8    0    1
 -2       280       281       431      1650      2104      2105
 -1       707    8    0    1
 -2       280       431       430      2105      2106      2101
 -1       708    8    0    1
 -2       281       282       432      1653      2107      2108
 -1       709    8    0    1
 -2       281       432       431      2108      2109      2104
 -1       710    8    0    1
 -2       282       283       433      1656      2110      2111
 -1       711    8    0    1
 -2       282       433       432      2111      2112      2107
 -1       712    8    0    1
 -2       283       284       434      1659      2113      2114
 -1       713    8    0    1
 -2       283       434       433      2114      2115      2110
 -1       714    8    0    1
 -2       284       285       435      1662      2116      2117
 -1       715    8    0    1
 -2       284       435       434      2117      2118      2113
 -1       716    8    0    1
 -2       285       286       436      1665      2119      2120
 -1       717    8    0    1
 -2       285       436       435      2120      2121      2116
 -1       718    8    0    1
 -2       286       287       437      1668      2122      2123
 -1       719    8    0    1
 -2       286       437       436      2123      2124      2119
 -1       720    8    0    1
 -2       287       288       438      1671      2125      2126
 -1       721    8    0    1
 -2       287       438       437      2126      2127      2122
 -1       722    8    0    1
 -2       288       289       439      1674      2128      2129
 -1       723    8    0    1
 -2       288       439       438      2129      2130      2125
 -1       724    8    0    1
 -2       292       293       440      1742      2131      2132
 -1       725    8    0    1
 -2       319       291       441      1743      2133      2134
 -1       726    8    0    1
 -2       291       292       442      1741      2135      2136
 -1       727    8    0    1
 -2       293       294       443      1738      2137      2138
 -1       728    8    0    1
 -2       294       295       444      1737      2139      2140
 -1       729    8    0    1
 -2       166       167       445      1306      2141      2142
 -1       730    8    0    1
 -2       320       166       445      1769      2142      2143
 -1       731    8    0    1
 -2       167       322       445      1775      2144      2141
 -1       732    8    0    1
 -2       296       297       446      1745      2145      2146
 -1       733    8    0    1
 -2       297       298       447      1746      2147      2148
 -1       734    8    0    1
 -2       298       299       448      1747      2149      2150
 -1       735    8    0    1
 -2       298       448       447      2150      2151      2147
 -1       736    8    0    1
 -2       299       300       449      1748      2152      2153
 -1       737    8    0    1
 -2       300       301       450      1749      2154      2155
 -1       738    8    0    1
 -2       301       302       451      1750      2156      2157
 -1       739    8    0    1
 -2       302       303       452      1751      2158      2159
 -1       740    8    0    1
 -2       303       304       453      1752      2160      2161
 -1       741    8    0    1
 -2       304       305       454      1753      2162      2163
 -1       742    8    0    1
 -2       305       306       455      1754      2164      2165
 -1       743    8    0    1
 -2       306       307       456      1755      2166      2167
 -1       744    8    0    1
 -2       307       308       457      1756      2168      2169
 -1       745    8    0    1
 -2       308       309       458      1757      2170      2171
 -1       746    8    0    1
 -2       308       458       457      2171      2172      2168
 -1       747    8    0    1
 -2       309       310       459      1758      2173      2174
 -1       748    8    0    1
 -2       310       311       460      1759      2175      2176
 -1       749    8    0    1
 -2       310       460       459      2176      2177      2173
 -1       750    8    0    1
 -2       311       312       461      1760      2178      2179
 -1       751    8    0    1
 -2       312       313       462      1761      2180      2181
 -1       752    8    0    1
 -2       313       314       463      1762      2182      2183
 -1       753    8    0    1
 -2       314       315       464      1763      2184      2185
 -1       754    8    0    1
 -2       315       316       465      1764      2186      2187
 -1       755    8    0    1
 -2       316       317       466      1765      2188      2189
 -1       756    8    0    1
 -2       317       318       467      1766      2190      2191
 -1       757    8    0    1
 -2       318       319       468      1767      2192      2193
 -1       758    8    0    1
 -2       295       296       469      1744      2194      2195
 -1       759    8    0    1
 -2       443       294       444      2137      2140      2196
 -1       760    8    0    1
 -2       180       321       181      1814      2197      1348
 -1       761    8    0    1
 -2       444       295       469      2139      2195      2198
 -1       762    8    0    1
 -2       296       446       469      2146      2199      2194
 -1       763    8    0    1
 -2       335       181       321      1815      2197      2200
 -1       764    8    0    1
 -2       442       292       440      2135      2132      2201
 -1       765    8    0    1
 -2       441       291       442      2133      2136      2202
 -1       766    8    0    1
 -2       439       289       290      2128      1677      2203
 -1       767    8    0    1
 -2       440       293       443      2131      2138      2204
 -1       768    8    0    1
 -2       319       441       468      2134      2205      2192
 -1       769    8    0    1
 -2       467       318       468      2190      2193      2206
 -1       770    8    0    1
 -2       466       317       467      2188      2191      2207
 -1       771    8    0    1
 -2       465       316       466      2186      2189      2208
 -1       772    8    0    1
 -2       464       315       465      2184      2187      2209
 -1       773    8    0    1
 -2       463       314       464      2182      2185      2210
 -1       774    8    0    1
 -2       462       313       463      2180      2183      2211
 -1       775    8    0    1
 -2       460       311       461      2175      2179      2212
 -1       776    8    0    1
 -2       458       309       470      2170      2213      2214
 -1       777    8    0    1
 -2       309       459       470      2174      2215      2213
 -1       778    8    0    1
 -2       456       307       457      2166      2169      2216
 -1       779    8    0    1
 -2       455       306       456      2164      2167      2217
 -1       780    8    0    1
 -2       454       305       455      2162      2165      2218
 -1       781    8    0    1
 -2       453       304       471      2160      2219      2220
 -1       782    8    0    1
 -2       304       454       471      2163      2221      2219
 -1       783    8    0    1
 -2       452       303       453      2158      2161      2222
 -1       784    8    0    1
 -2       451       302       452      2156      2159      2223
 -1       785    8    0    1
 -2       450       301       451      2154      2157      2224
 -1       786    8    0    1
 -2       448       299       472      2149      2225      2226
 -1       787    8    0    1
 -2       299       449       472      2153      2227      2225
 -1       788    8    0    1
 -2       446       297       447      2145      2148      2228
 -1       789    8    0    1
 -2       449       300       450      2152      2155      2229
 -1       790    8    0    1
 -2       461       312       462      2178      2181      2230
 -1       791    8    0    1
 -2       334       381       473      1955      2231      2232
 -1       792    8    0    1
 -2       323       324       474      1781      2233      2234
 -1       793    8    0    1
 -2       322       323       475      1778      2235      2236
 -1       794    8    0    1
 -2       323       474       475      2234      2237      2235
 -1       795    8    0    1
 -2       325       326       476      1787      2238      2239
 -1       796    8    0    1
 -2       326       327       477      1790      2240      2241
 -1       797    8    0    1
 -2       326       477       476      2241      2242      2238
 -1       798    8    0    1
 -2       327       328       478      1793      2243      2244
 -1       799    8    0    1
 -2       327       478       477      2244      2245      2240
 -1       800    8    0    1
 -2       328       329       479      1796      2246      2247
 -1       801    8    0    1
 -2       328       479       478      2247      2248      2243
 -1       802    8    0    1
 -2       329       330       480      1799      2249      2250
 -1       803    8    0    1
 -2       329       480       479      2250      2251      2246
 -1       804    8    0    1
 -2       330       331       481      1802      2252      2253
 -1       805    8    0    1
 -2       330       481       480      2253      2254      2249
 -1       806    8    0    1
 -2       381       382       482      1958      2255      2256
 -1       807    8    0    1
 -2       381       482       473      2256      2257      2231
 -1       808    8    0    1
 -2       336       335       483      1819      2258      2259
 -1       809    8    0    1
 -2       444       469       484      2198      2260      2261
 -1       810    8    0    1
 -2       337       336       485      1822      2262      2263
 -1       811    8    0    1
 -2       336       483       485      2259      2264      2262
 -1       812    8    0    1
 -2       338       337       486      1825      2265      2266
 -1       813    8    0    1
 -2       337       485       486      2263      2267      2265
 -1       814    8    0    1
 -2       339       338       487      1828      2268      2269
 -1       815    8    0    1
 -2       338       486       487      2266      2270      2268
 -1       816    8    0    1
 -2       340       339       488      1831      2271      2272
 -1       817    8    0    1
 -2       339       487       488      2269      2273      2271
 -1       818    8    0    1
 -2       341       340       489      1834      2274      2275
 -1       819    8    0    1
 -2       340       488       489      2272      2276      2274
 -1       820    8    0    1
 -2       342       341       490      1837      2277      2278
 -1       821    8    0    1
 -2       341       489       490      2275      2279      2277
 -1       822    8    0    1
 -2       343       342       491      1840      2280      2281
 -1       823    8    0    1
 -2       342       490       491      2278      2282      2280
 -1       824    8    0    1
 -2       344       343       492      1843      2283      2284
 -1       825    8    0    1
 -2       343       491       492      2281      2285      2283
 -1       826    8    0    1
 -2       345       344       493      1846      2286      2287
 -1       827    8    0    1
 -2       344       492       493      2284      2288      2286
 -1       828    8    0    1
 -2       346       345       494      1849      2289      2290
 -1       829    8    0    1
 -2       345       493       494      2287      2291      2289
 -1       830    8    0    1
 -2       347       346       495      1852      2292      2293
 -1       831    8    0    1
 -2       346       494       495      2290      2294      2292
 -1       832    8    0    1
 -2       348       347       496      1855      2295      2296
 -1       833    8    0    1
 -2       347       495       496      2293      2297      2295
 -1       834    8    0    1
 -2       349       348       497      1858      2298      2299
 -1       835    8    0    1
 -2       348       496       497      2296      2300      2298
 -1       836    8    0    1
 -2       350       349       498      1861      2301      2302
 -1       837    8    0    1
 -2       349       497       498      2299      2303      2301
 -1       838    8    0    1
 -2       351       350       499      1864      2304      2305
 -1       839    8    0    1
 -2       350       498       499      2302      2306      2304
 -1       840    8    0    1
 -2       352       351       500      1867      2307      2308
 -1       841    8    0    1
 -2       351       499       500      2305      2309      2307
 -1       842    8    0    1
 -2       353       352       501      1870      2310      2311
 -1       843    8    0    1
 -2       352       500       501      2308      2312      2310
 -1       844    8    0    1
 -2       354       353       502      1873      2313      2314
 -1       845    8    0    1
 -2       353       501       502      2311      2315      2313
 -1       846    8    0    1
 -2       355       354       503      1876      2316      2317
 -1       847    8    0    1
 -2       354       502       503      2314      2318      2316
 -1       848    8    0    1
 -2       356       355       504      1879      2319      2320
 -1       849    8    0    1
 -2       355       503       504      2317      2321      2319
 -1       850    8    0    1
 -2       357       356       505      1882      2322      2323
 -1       851    8    0    1
 -2       356       504       505      2320      2324      2322
 -1       852    8    0    1
 -2       358       357       506      1885      2325      2326
 -1       853    8    0    1
 -2       357       505       506      2323      2327      2325
 -1       854    8    0    1
 -2       359       358       507      1888      2328      2329
 -1       855    8    0    1
 -2       358       506       507      2326      2330      2328
 -1       856    8    0    1
 -2       360       359       508      1891      2331      2332
 -1       857    8    0    1
 -2       359       507       508      2329      2333      2331
 -1       858    8    0    1
 -2       361       360       509      1894      2334      2335
 -1       859    8    0    1
 -2       360       508       509      2332      2336      2334
 -1       860    8    0    1
 -2       362       361       510      1897      2337      2338
 -1       861    8    0    1
 -2       361       509       510      2335      2339      2337
 -1       862    8    0    1
 -2       363       362       511      1900      2340      2341
 -1       863    8    0    1
 -2       362       510       511      2338      2342      2340
 -1       864    8    0    1
 -2       364       363       512      1903      2343      2344
 -1       865    8    0    1
 -2       363       511       512      2341      2345      2343
 -1       866    8    0    1
 -2       365       364       513      1906      2346      2347
 -1       867    8    0    1
 -2       364       512       513      2344      2348      2346
 -1       868    8    0    1
 -2       366       365       514      1909      2349      2350
 -1       869    8    0    1
 -2       365       513       514      2347      2351      2349
 -1       870    8    0    1
 -2       367       366       515      1912      2352      2353
 -1       871    8    0    1
 -2       366       514       515      2350      2354      2352
 -1       872    8    0    1
 -2       368       367       516      1915      2355      2356
 -1       873    8    0    1
 -2       367       515       516      2353      2357      2355
 -1       874    8    0    1
 -2       369       368       517      1918      2358      2359
 -1       875    8    0    1
 -2       368       516       517      2356      2360      2358
 -1       876    8    0    1
 -2       370       369       518      1921      2361      2362
 -1       877    8    0    1
 -2       369       517       518      2359      2363      2361
 -1       878    8    0    1
 -2       371       370       519      1924      2364      2365
 -1       879    8    0    1
 -2       370       518       519      2362      2366      2364
 -1       880    8    0    1
 -2       372       371       520      1927      2367      2368
 -1       881    8    0    1
 -2       371       519       520      2365      2369      2367
 -1       882    8    0    1
 -2       373       372       521      1930      2370      2371
 -1       883    8    0    1
 -2       372       520       521      2368      2372      2370
 -1       884    8    0    1
 -2       374       373       522      1933      2373      2374
 -1       885    8    0    1
 -2       373       521       522      2371      2375      2373
 -1       886    8    0    1
 -2       375       374       523      1936      2376      2377
 -1       887    8    0    1
 -2       374       522       523      2374      2378      2376
 -1       888    8    0    1
 -2       376       375       524      1939      2379      2380
 -1       889    8    0    1
 -2       375       523       524      2377      2381      2379
 -1       890    8    0    1
 -2       377       376       525      1942      2382      2383
 -1       891    8    0    1
 -2       376       524       525      2380      2384      2382
 -1       892    8    0    1
 -2       378       377       526      1945      2385      2386
 -1       893    8    0    1
 -2       377       525       526      2383      2387      2385
 -1       894    8    0    1
 -2       379       378       527      1948      2388      2389
 -1       895    8    0    1
 -2       378       526       527      2386      2390      2388
 -1       896    8    0    1
 -2       383       384       528      1964      2391      2392
 -1       897    8    0    1
 -2       384       385       529      1967      2393      2394
 -1       898    8    0    1
 -2       384       529       528      2394      2395      2391
 -1       899    8    0    1
 -2       385       386       530      1970      2396      2397
 -1       900    8    0    1
 -2       385       530       529      2397      2398      2393
 -1       901    8    0    1
 -2       386       387       531      1973      2399      2400
 -1       902    8    0    1
 -2       386       531       530      2400      2401      2396
 -1       903    8    0    1
 -2       387       388       532      1976      2402      2403
 -1       904    8    0    1
 -2       387       532       531      2403      2404      2399
 -1       905    8    0    1
 -2       388       389       533      1979      2405      2406
 -1       906    8    0    1
 -2       388       533       532      2406      2407      2402
 -1       907    8    0    1
 -2       389       390       534      1982      2408      2409
 -1       908    8    0    1
 -2       389       534       533      2409      2410      2405
 -1       909    8    0    1
 -2       390       391       535      1985      2411      2412
 -1       910    8    0    1
 -2       390       535       534      2412      2413      2408
 -1       911    8    0    1
 -2       391       392       536      1988      2414      2415
 -1       912    8    0    1
 -2       391       536       535      2415      2416      2411
 -1       913    8    0    1
 -2       392       393       537      1991      2417      2418
 -1       914    8    0    1
 -2       392       537       536      2418      2419      2414
 -1       915    8    0    1
 -2       393       394       538      1994      2420      2421
 -1       916    8    0    1
 -2       393       538       537      2421      2422      2417
 -1       917    8    0    1
 -2       394       395       539      1997      2423      2424
 -1       918    8    0    1
 -2       394       539       538      2424      2425      2420
 -1       919    8    0    1
 -2       395       396       540      2000      2426      2427
 -1       920    8    0    1
 -2       395       540       539      2427      2428      2423
 -1       921    8    0    1
 -2       396       397       541      2003      2429      2430
 -1       922    8    0    1
 -2       396       541       540      2430      2431      2426
 -1       923    8    0    1
 -2       397       398       542      2006      2432      2433
 -1       924    8    0    1
 -2       397       542       541      2433      2434      2429
 -1       925    8    0    1
 -2       398       399       543      2009      2435      2436
 -1       926    8    0    1
 -2       398       543       542      2436      2437      2432
 -1       927    8    0    1
 -2       399       400       544      2012      2438      2439
 -1       928    8    0    1
 -2       399       544       543      2439      2440      2435
 -1       929    8    0    1
 -2       400       401       545      2015      2441      2442
 -1       930    8    0    1
 -2       400       545       544      2442      2443      2438
 -1       931    8    0    1
 -2       401       402       546      2018      2444      2445
 -1       932    8    0    1
 -2       401       546       545      2445      2446      2441
 -1       933    8    0    1
 -2       402       403       547      2021      2447      2448
 -1       934    8    0    1
 -2       402       547       546      2448      2449      2444
 -1       935    8    0    1
 -2       403       404       548      2024      2450      2451
 -1       936    8    0    1
 -2       403       548       547      2451      2452      2447
 -1       937    8    0    1
 -2       404       405       549      2027      2453      2454
 -1       938    8    0    1
 -2       404       549       548      2454      2455      2450
 -1       939    8    0    1
 -2       405       406       550      2030      2456      2457
 -1       940    8    0    1
 -2       405       550       549      2457      2458      2453
 -1       941    8    0    1
 -2       406       407       551      2033      2459      2460
 -1       942    8    0    1
 -2       406       551       550      2460      2461      2456
 -1       943    8    0    1
 -2       407       408       552      2036      2462      2463
 -1       944    8    0    1
 -2       407       552       551      2463      2464      2459
 -1       945    8    0    1
 -2       408       409       553      2039      2465      2466
 -1       946    8    0    1
 -2       408       553       552      2466      2467      2462
 -1       947    8    0    1
 -2       409       410       554      2042      2468      2469
 -1       948    8    0    1
 -2       409       554       553      2469      2470      2465
 -1       949    8    0    1
 -2       410       411       555      2045      2471      2472
 -1       950    8    0    1
 -2       410       555       554      2472      2473      2468
 -1       951    8    0    1
 -2       411       412       556      2048      2474      2475
 -1       952    8    0    1
 -2       411       556       555      2475      2476      2471
 -1       953    8    0    1
 -2       412       413       557      2051      2477      2478
 -1       954    8    0    1
 -2       412       557       556      2478      2479      2474
 -1       955    8    0    1
 -2       413       414       558      2054      2480      2481
 -1       956    8    0    1
 -2       413       558       557      2481      2482      2477
 -1       957    8    0    1
 -2       414       415       559      2057      2483      2484
 -1       958    8    0    1
 -2       414       559       558      2484      2485      2480
 -1       959    8    0    1
 -2       415       416       560      2060      2486      2487
 -1       960    8    0    1
 -2       415       560       559      2487      2488      2483
 -1       961    8    0    1
 -2       416       417       561      2063      2489      2490
 -1       962    8    0    1
 -2       416       561       560      2490      2491      2486
 -1       963    8    0    1
 -2       417       418       562      2066      2492      2493
 -1       964    8    0    1
 -2       417       562       561      2493      2494      2489
 -1       965    8    0    1
 -2       418       419       563      2069      2495      2496
 -1       966    8    0    1
 -2       418       563       562      2496      2497      2492
 -1       967    8    0    1
 -2       419       420       564      2072      2498      2499
 -1       968    8    0    1
 -2       419       564       563      2499      2500      2495
 -1       969    8    0    1
 -2       420       421       565      2075      2501      2502
 -1       970    8    0    1
 -2       420       565       564      2502      2503      2498
 -1       971    8    0    1
 -2       421       422       566      2078      2504      2505
 -1       972    8    0    1
 -2       421       566       565      2505      2506      2501
 -1       973    8    0    1
 -2       422       423       567      2081      2507      2508
 -1       974    8    0    1
 -2       422       567       566      2508      2509      2504
 -1       975    8    0    1
 -2       423       424       568      2084      2510      2511
 -1       976    8    0    1
 -2       423       568       567      2511      2512      2507
 -1       977    8    0    1
 -2       424       425       569      2087      2513      2514
 -1       978    8    0    1
 -2       424       569       568      2514      2515      2510
 -1       979    8    0    1
 -2       425       426       429      2090      2099      2516
 -1       980    8    0    1
 -2       430       431       570      2106      2517      2518
 -1       981    8    0    1
 -2       431       432       571      2109      2519      2520
 -1       982    8    0    1
 -2       431       571       570      2520      2521      2517
 -1       983    8    0    1
 -2       428       427       572      2096      2522      2523
 -1       984    8    0    1
 -2       427       430       573      2103      2524      2525
 -1       985    8    0    1
 -2       572       427       573      2522      2525      2526
 -1       986    8    0    1
 -2       430       570       573      2518      2527      2524
 -1       987    8    0    1
 -2       432       433       574      2112      2528      2529
 -1       988    8    0    1
 -2       432       574       571      2529      2530      2519
 -1       989    8    0    1
 -2       433       434       575      2115      2531      2532
 -1       990    8    0    1
 -2       433       575       574      2532      2533      2528
 -1       991    8    0    1
 -2       434       435       576      2118      2534      2535
 -1       992    8    0    1
 -2       434       576       575      2535      2536      2531
 -1       993    8    0    1
 -2       435       436       577      2121      2537      2538
 -1       994    8    0    1
 -2       435       577       576      2538      2539      2534
 -1       995    8    0    1
 -2       436       437       578      2124      2540      2541
 -1       996    8    0    1
 -2       436       578       577      2541      2542      2537
 -1       997    8    0    1
 -2       437       438       579      2127      2543      2544
 -1       998    8    0    1
 -2       437       579       578      2544      2545      2540
 -1       999    8    0    1
 -2       438       439       580      2130      2546      2547
 -1      1000    8    0    1
 -2       438       580       579      2547      2548      2543
 -1      1001    8    0    1
 -2       441       442       581      2202      2549      2550
 -1      1002    8    0    1
 -2       440       443       582      2204      2551      2552
 -1      1003    8    0    1
 -2       382       383       583      1961      2553      2554
 -1      1004    8    0    1
 -2       383       528       583      2392      2555      2553
 -1      1005    8    0    1
 -2       439       290       380      2203      1951      2556
 -1      1006    8    0    1
 -2       468       441       584      2205      2557      2558
 -1      1007    8    0    1
 -2       442       440       585      2201      2559      2560
 -1      1008    8    0    1
 -2       335       321       586      2200      2561      2562
 -1      1009    8    0    1
 -2       483       335       586      2258      2562      2563
 -1      1010    8    0    1
 -2       321       320       586      1773      2564      2561
 -1      1011    8    0    1
 -2       467       468       587      2206      2565      2566
 -1      1012    8    0    1
 -2       456       457       588      2216      2567      2568
 -1      1013    8    0    1
 -2       324       325       589      1784      2569      2570
 -1      1014    8    0    1
 -2       474       324       589      2233      2570      2571
 -1      1015    8    0    1
 -2       325       476       589      2239      2572      2569
 -1      1016    8    0    1
 -2       446       447       590      2228      2573      2574
 -1      1017    8    0    1
 -2       449       450       591      2229      2575      2576
 -1      1018    8    0    1
 -2       447       448       592      2151      2577      2578
 -1      1019    8    0    1
 -2       461       462       593      2230      2579      2580
 -1      1020    8    0    1
 -2       450       451       594      2224      2581      2582
 -1      1021    8    0    1
 -2       451       452       595      2223      2583      2584
 -1      1022    8    0    1
 -2       452       453       596      2222      2585      2586
 -1      1023    8    0    1
 -2       452       596       595      2586      2587      2583
 -1      1024    8    0    1
 -2       454       455       597      2218      2588      2589
 -1      1025    8    0    1
 -2       455       456       598      2217      2590      2591
 -1      1026    8    0    1
 -2       457       458       599      2172      2592      2593
 -1      1027    8    0    1
 -2       459       460       600      2177      2594      2595
 -1      1028    8    0    1
 -2       460       461       601      2212      2596      2597
 -1      1029    8    0    1
 -2       460       601       600      2597      2598      2594
 -1      1030    8    0    1
 -2       462       463       602      2211      2599      2600
 -1      1031    8    0    1
 -2       463       464       603      2210      2601      2602
 -1      1032    8    0    1
 -2       463       603       602      2602      2603      2599
 -1      1033    8    0    1
 -2       464       465       604      2209      2604      2605
 -1      1034    8    0    1
 -2       465       466       605      2208      2606      2607
 -1      1035    8    0    1
 -2       466       467       606      2207      2608      2609
 -1      1036    8    0    1
 -2       466       606       605      2609      2610      2606
 -1      1037    8    0    1
 -2       469       446       607      2199      2611      2612
 -1      1038    8    0    1
 -2       333       334       608      1813      2613      2614
 -1      1039    8    0    1
 -2       332       333       608      1808      2614      2615
 -1      1040    8    0    1
 -2       334       473       608      2232      2616      2613
 -1      1041    8    0    1
 -2       443       444       609      2196      2617      2618
 -1      1042    8    0    1
 -2       444       484       609      2261      2619      2617
 -1      1043    8    0    1
 -2       446       590       607      2574      2620      2611
 -1      1044    8    0    1
 -2       322       475       610      2236      2621      2622
 -1      1045    8    0    1
 -2       322       610       445      2622      2623      2144
 -1      1046    8    0    1
 -2       482       382       583      2255      2554      2624
 -1      1047    8    0    1
 -2       331       332       608      1805      2615      2625
 -1      1048    8    0    1
 -2       587       468       584      2565      2558      2626
 -1      1049    8    0    1
 -2       606       467       587      2608      2566      2627
 -1      1050    8    0    1
 -2       469       607       484      2612      2628      2260
 -1      1051    8    0    1
 -2       603       464       604      2601      2605      2629
 -1      1052    8    0    1
 -2       425       429       569      2516      2630      2513
 -1      1053    8    0    1
 -2       582       443       609      2551      2618      2631
 -1      1054    8    0    1
 -2       429       428       569      2100      2632      2630
 -1      1055    8    0    1
 -2       601       461       593      2596      2580      2633
 -1      1056    8    0    1
 -2       441       581       584      2550      2634      2557
 -1      1057    8    0    1
 -2       581       442       585      2549      2560      2635
 -1      1058    8    0    1
 -2       440       582       585      2552      2636      2559
 -1      1059    8    0    1
 -2       462       602       611      2600      2637      2638
 -1      1060    8    0    1
 -2       462       611       593      2638      2639      2579
 -1      1061    8    0    1
 -2       599       458       612      2592      2640      2641
 -1      1062    8    0    1
 -2       458       470       612      2214      2642      2640
 -1      1063    8    0    1
 -2       331       608       481      2625      2643      2252
 -1      1064    8    0    1
 -2       598       456       588      2590      2568      2644
 -1      1065    8    0    1
 -2       588       457       599      2567      2593      2645
 -1      1066    8    0    1
 -2       596       453       613      2585      2646      2647
 -1      1067    8    0    1
 -2       453       471       613      2220      2648      2646
 -1      1068    8    0    1
 -2       454       597       614      2589      2649      2650
 -1      1069    8    0    1
 -2       454       614       471      2650      2651      2221
 -1      1070    8    0    1
 -2       594       451       595      2581      2584      2652
 -1      1071    8    0    1
 -2       592       448       615      2577      2653      2654
 -1      1072    8    0    1
 -2       448       472       615      2226      2655      2653
 -1      1073    8    0    1
 -2       470       459       616      2215      2656      2657
 -1      1074    8    0    1
 -2       459       600       616      2595      2658      2656
 -1      1075    8    0    1
 -2       586       320       445      2564      2143      2659
 -1      1076    8    0    1
 -2       472       449       617      2227      2660      2661
 -1      1077    8    0    1
 -2       449       591       617      2576      2662      2660
 -1      1078    8    0    1
 -2       591       450       594      2575      2582      2663
 -1      1079    8    0    1
 -2       447       592       590      2578      2664      2573
 -1      1080    8    0    1
 -2       597       455       598      2588      2591      2665
 -1      1081    8    0    1
 -2       439       380       618      2556      2666      2667
 -1      1082    8    0    1
 -2       580       439       618      2546      2667      2668
 -1      1083    8    0    1
 -2       380       379       618      1952      2669      2666
 -1      1084    8    0    1
 -2       569       428       572      2632      2523      2670
 -1      1085    8    0    1
 -2       604       465       605      2604      2607      2671
 -1      1086    8    0    1
 -2       618       379       527      2669      2389      2672
 -1      1087    8    0    1
 -2       477       478       619      2245      2673      2674
 -1      1088    8    0    1
 -2       476       477       620      2242      2675      2676
 -1      1089    8    0    1
 -2       477       619       620      2674      2677      2675
 -1      1090    8    0    1
 -2       479       480       621      2251      2678      2679
 -1      1091    8    0    1
 -2       480       481       622      2254      2680      2681
 -1      1092    8    0    1
 -2       480       622       621      2681      2682      2678
 -1      1093    8    0    1
 -2       473       482       623      2257      2683      2684
 -1      1094    8    0    1
 -2       598       588       624      2644      2685      2686
 -1      1095    8    0    1
 -2       609       484       625      2619      2687      2688
 -1      1096    8    0    1
 -2       608       473       481      2616      2689      2643
 -1      1097    8    0    1
 -2       607       590       626      2620      2690      2691
 -1      1098    8    0    1
 -2       606       587       627      2627      2692      2693
 -1      1099    8    0    1
 -2       486       485       628      2267      2694      2695
 -1      1100    8    0    1
 -2       487       486       629      2270      2696      2697
 -1      1101    8    0    1
 -2       486       628       629      2695      2698      2696
 -1      1102    8    0    1
 -2       488       487       630      2273      2699      2700
 -1      1103    8    0    1
 -2       487       629       630      2697      2701      2699
 -1      1104    8    0    1
 -2       489       488       631      2276      2702      2703
 -1      1105    8    0    1
 -2       488       630       631      2700      2704      2702
 -1      1106    8    0    1
 -2       490       489       632      2279      2705      2706
 -1      1107    8    0    1
 -2       489       631       632      2703      2707      2705
 -1      1108    8    0    1
 -2       491       490       633      2282      2708      2709
 -1      1109    8    0    1
 -2       490       632       633      2706      2710      2708
 -1      1110    8    0    1
 -2       492       491       634      2285      2711      2712
 -1      1111    8    0    1
 -2       491       633       634      2709      2713      2711
 -1      1112    8    0    1
 -2       493       492       635      2288      2714      2715
 -1      1113    8    0    1
 -2       492       634       635      2712      2716      2714
 -1      1114    8    0    1
 -2       494       493       636      2291      2717      2718
 -1      1115    8    0    1
 -2       493       635       636      2715      2719      2717
 -1      1116    8    0    1
 -2       495       494       637      2294      2720      2721
 -1      1117    8    0    1
 -2       494       636       637      2718      2722      2720
 -1      1118    8    0    1
 -2       496       495       638      2297      2723      2724
 -1      1119    8    0    1
 -2       495       637       638      2721      2725      2723
 -1      1120    8    0    1
 -2       497       496       639      2300      2726      2727
 -1      1121    8    0    1
 -2       496       638       639      2724      2728      2726
 -1      1122    8    0    1
 -2       499       498       640      2306      2729      2730
 -1      1123    8    0    1
 -2       500       499       641      2309      2731      2732
 -1      1124    8    0    1
 -2       499       640       641      2730      2733      2731
 -1      1125    8    0    1
 -2       501       500       642      2312      2734      2735
 -1      1126    8    0    1
 -2       500       641       642      2732      2736      2734
 -1      1127    8    0    1
 -2       502       501       643      2315      2737      2738
 -1      1128    8    0    1
 -2       501       642       643      2735      2739      2737
 -1      1129    8    0    1
 -2       503       502       644      2318      2740      2741
 -1      1130    8    0    1
 -2       502       643       644      2738      2742      2740
 -1      1131    8    0    1
 -2       504       503       645      2321      2743      2744
 -1      1132    8    0    1
 -2       503       644       645      2741      2745      2743
 -1      1133    8    0    1
 -2       505       504       646      2324      2746      2747
 -1      1134    8    0    1
 -2       504       645       646      2744      2748      2746
 -1      1135    8    0    1
 -2       506       505       647      2327      2749      2750
 -1      1136    8    0    1
 -2       505       646       647      2747      2751      2749
 -1      1137    8    0    1
 -2       507       506       648      2330      2752      2753
 -1      1138    8    0    1
 -2       506       647       648      2750      2754      2752
 -1      1139    8    0    1
 -2       508       507       649      2333      2755      2756
 -1      1140    8    0    1
 -2       507       648       649      2753      2757      2755
 -1      1141    8    0    1
 -2       509       508       650      2336      2758      2759
 -1      1142    8    0    1
 -2       508       649       650      2756      2760      2758
 -1      1143    8    0    1
 -2       510       509       651      2339      2761      2762
 -1      1144    8    0    1
 -2       509       650       651      2759      2763      2761
 -1      1145    8    0    1
 -2       511       510       652      2342      2764      2765
 -1      1146    8    0    1
 -2       510       651       652      2762      2766      2764
 -1      1147    8    0    1
 -2       512       511       653      2345      2767      2768
 -1      1148    8    0    1
 -2       511       652       653      2765      2769      2767
 -1      1149    8    0    1
 -2       513       512       654      2348      2770      2771
 -1      1150    8    0    1
 -2       512       653       654      2768      2772      2770
 -1      1151    8    0    1
 -2       514       513       655      2351      2773      2774
 -1      1152    8    0    1
 -2       513       654       655      2771      2775      2773
 -1      1153    8    0    1
 -2       515       514       656      2354      2776      2777
 -1      1154    8    0    1
 -2       514       655       656      2774      2778      2776
 -1      1155    8    0    1
 -2       516       515       657      2357      2779      2780
 -1      1156    8    0    1
 -2       515       656       657      2777      2781      2779
 -1      1157    8    0    1
 -2       517       516       658      2360      2782      2783
 -1      1158    8    0    1
 -2       516       657       658      2780      2784      2782
 -1      1159    8    0    1
 -2       518       517       659      2363      2785      2786
 -1      1160    8    0    1
 -2       517       658       659      2783      2787      2785
 -1      1161    8    0    1
 -2       519       518       660      2366      2788      2789
 -1      1162    8    0    1
 -2       518       659       660      2786      2790      2788
 -1      1163    8    0    1
 -2       520       519       661      2369      2791      2792
 -1      1164    8    0    1
 -2       519       660       661      2789      2793      2791
 -1      1165    8    0    1
 -2       521       520       662      2372      2794      2795
 -1      1166    8    0    1
 -2       520       661       662      2792      2796      2794
 -1      1167    8    0    1
 -2       522       521       663      2375      2797      2798
 -1      1168    8    0    1
 -2       521       662       663      2795      2799      2797
 -1      1169    8    0    1
 -2       523       522       664      2378      2800      2801
 -1      1170    8    0    1
 -2       522       663       664      2798      2802      2800
 -1      1171    8    0    1
 -2       524       523       665      2381      2803      2804
 -1      1172    8    0    1
 -2       523       664       665      2801      2805      2803
 -1      1173    8    0    1
 -2       525       524       666      2384      2806      2807
 -1      1174    8    0    1
 -2       524       665       666      2804      2808      2806
 -1      1175    8    0    1
 -2       526       525       667      2387      2809      2810
 -1      1176    8    0    1
 -2       525       666       667      2807      2811      2809
 -1      1177    8    0    1
 -2       527       526       668      2390      2812      2813
 -1      1178    8    0    1
 -2       526       667       668      2810      2814      2812
 -1      1179    8    0    1
 -2       529       530       669      2398      2815      2816
 -1      1180    8    0    1
 -2       569       572       670      2670      2817      2818
 -1      1181    8    0    1
 -2       569       670       568      2818      2819      2515
 -1      1182    8    0    1
 -2       528       529       671      2395      2820      2821
 -1      1183    8    0    1
 -2       529       669       671      2816      2822      2820
 -1      1184    8    0    1
 -2       531       532       672      2404      2823      2824
 -1      1185    8    0    1
 -2       532       533       673      2407      2825      2826
 -1      1186    8    0    1
 -2       532       673       672      2826      2827      2823
 -1      1187    8    0    1
 -2       533       534       674      2410      2828      2829
 -1      1188    8    0    1
 -2       533       674       673      2829      2830      2825
 -1      1189    8    0    1
 -2       534       535       675      2413      2831      2832
 -1      1190    8    0    1
 -2       534       675       674      2832      2833      2828
 -1      1191    8    0    1
 -2       535       536       676      2416      2834      2835
 -1      1192    8    0    1
 -2       535       676       675      2835      2836      2831
 -1      1193    8    0    1
 -2       536       537       677      2419      2837      2838
 -1      1194    8    0    1
 -2       536       677       676      2838      2839      2834
 -1      1195    8    0    1
 -2       537       538       678      2422      2840      2841
 -1      1196    8    0    1
 -2       537       678       677      2841      2842      2837
 -1      1197    8    0    1
 -2       538       539       679      2425      2843      2844
 -1      1198    8    0    1
 -2       538       679       678      2844      2845      2840
 -1      1199    8    0    1
 -2       539       540       680      2428      2846      2847
 -1      1200    8    0    1
 -2       539       680       679      2847      2848      2843
 -1      1201    8    0    1
 -2       540       541       681      2431      2849      2850
 -1      1202    8    0    1
 -2       540       681       680      2850      2851      2846
 -1      1203    8    0    1
 -2       541       542       682      2434      2852      2853
 -1      1204    8    0    1
 -2       541       682       681      2853      2854      2849
 -1      1205    8    0    1
 -2       542       543       683      2437      2855      2856
 -1      1206    8    0    1
 -2       542       683       682      2856      2857      2852
 -1      1207    8    0    1
 -2       543       544       684      2440      2858      2859
 -1      1208    8    0    1
 -2       543       684       683      2859      2860      2855
 -1      1209    8    0    1
 -2       544       545       685      2443      2861      2862
 -1      1210    8    0    1
 -2       544       685       684      2862      2863      2858
 -1      1211    8    0    1
 -2       545       546       686      2446      2864      2865
 -1      1212    8    0    1
 -2       545       686       685      2865      2866      2861
 -1      1213    8    0    1
 -2       546       547       687      2449      2867      2868
 -1      1214    8    0    1
 -2       546       687       686      2868      2869      2864
 -1      1215    8    0    1
 -2       547       548       688      2452      2870      2871
 -1      1216    8    0    1
 -2       547       688       687      2871      2872      2867
 -1      1217    8    0    1
 -2       548       549       689      2455      2873      2874
 -1      1218    8    0    1
 -2       548       689       688      2874      2875      2870
 -1      1219    8    0    1
 -2       549       550       690      2458      2876      2877
 -1      1220    8    0    1
 -2       549       690       689      2877      2878      2873
 -1      1221    8    0    1
 -2       550       551       691      2461      2879      2880
 -1      1222    8    0    1
 -2       550       691       690      2880      2881      2876
 -1      1223    8    0    1
 -2       551       552       692      2464      2882      2883
 -1      1224    8    0    1
 -2       551       692       691      2883      2884      2879
 -1      1225    8    0    1
 -2       552       553       693      2467      2885      2886
 -1      1226    8    0    1
 -2       552       693       692      2886      2887      2882
 -1      1227    8    0    1
 -2       553       554       694      2470      2888      2889
 -1      1228    8    0    1
 -2       553       694       693      2889      2890      2885
 -1      1229    8    0    1
 -2       554       555       695      2473      2891      2892
 -1      1230    8    0    1
 -2       554       695       694      2892      2893      2888
 -1      1231    8    0    1
 -2       555       556       696      2476      2894      2895
 -1      1232    8    0    1
 -2       555       696       695      2895      2896      2891
 -1      1233    8    0    1
 -2       556       557       697      2479      2897      2898
 -1      1234    8    0    1
 -2       556       697       696      2898      2899      2894
 -1      1235    8    0    1
 -2       557       558       698      2482      2900      2901
 -1      1236    8    0    1
 -2       557       698       697      2901      2902      2897
 -1      1237    8    0    1
 -2       558       559       699      2485      2903      2904
 -1      1238    8    0    1
 -2       558       699       698      2904      2905      2900
 -1      1239    8    0    1
 -2       559       560       700      2488      2906      2907
 -1      1240    8    0    1
 -2       559       700       699      2907      2908      2903
 -1      1241    8    0    1
 -2       560       561       701      2491      2909      2910
 -1      1242    8    0    1
 -2       560       701       700      2910      2911      2906
 -1      1243    8    0    1
 -2       561       562       702      2494      2912      2913
 -1      1244    8    0    1
 -2       561       702       701      2913      2914      2909
 -1      1245    8    0    1
 -2       562       563       703      2497      2915      2916
 -1      1246    8    0    1
 -2       562       703       702      2916      2917      2912
 -1      1247    8    0    1
 -2       563       564       704      2500      2918      2919
 -1      1248    8    0    1
 -2       563       704       703      2919      2920      2915
 -1      1249    8    0    1
 -2       564       565       705      2503      2921      2922
 -1      1250    8    0    1
 -2       564       705       704      2922      2923      2918
 -1      1251    8    0    1
 -2       565       566       706      2506      2924      2925
 -1      1252    8    0    1
 -2       565       706       705      2925      2926      2921
 -1      1253    8    0    1
 -2       566       567       707      2509      2927      2928
 -1      1254    8    0    1
 -2       566       707       706      2928      2929      2924
 -1      1255    8    0    1
 -2       567       568       708      2512      2930      2931
 -1      1256    8    0    1
 -2       707       567       708      2927      2931      2932
 -1      1257    8    0    1
 -2       568       670       708      2819      2933      2930
 -1      1258    8    0    1
 -2       582       609       709      2631      2934      2935
 -1      1259    8    0    1
 -2       574       575       710      2533      2936      2937
 -1      1260    8    0    1
 -2       604       605       711      2671      2938      2939
 -1      1261    8    0    1
 -2       570       571       712      2521      2940      2941
 -1      1262    8    0    1
 -2       575       576       713      2536      2942      2943
 -1      1263    8    0    1
 -2       575       713       710      2943      2944      2936
 -1      1264    8    0    1
 -2       571       574       714      2530      2945      2946
 -1      1265    8    0    1
 -2       712       571       714      2940      2946      2947
 -1      1266    8    0    1
 -2       574       710       714      2937      2948      2945
 -1      1267    8    0    1
 -2       576       577       715      2539      2949      2950
 -1      1268    8    0    1
 -2       576       715       713      2950      2951      2942
 -1      1269    8    0    1
 -2       577       578       716      2542      2952      2953
 -1      1270    8    0    1
 -2       577       716       715      2953      2954      2949
 -1      1271    8    0    1
 -2       578       579       717      2545      2955      2956
 -1      1272    8    0    1
 -2       578       717       716      2956      2957      2952
 -1      1273    8    0    1
 -2       581       585       718      2635      2958      2959
 -1      1274    8    0    1
 -2       585       582       719      2636      2960      2961
 -1      1275    8    0    1
 -2       483       586       720      2563      2962      2963
 -1      1276    8    0    1
 -2       588       599       721      2645      2964      2965
 -1      1277    8    0    1
 -2       583       528       722      2555      2966      2967
 -1      1278    8    0    1
 -2       528       671       722      2821      2968      2966
 -1      1279    8    0    1
 -2       594       595       723      2652      2969      2970
 -1      1280    8    0    1
 -2       530       531       724      2401      2971      2972
 -1      1281    8    0    1
 -2       669       530       724      2815      2972      2973
 -1      1282    8    0    1
 -2       531       672       724      2824      2974      2971
 -1      1283    8    0    1
 -2       485       483       725      2264      2975      2976
 -1      1284    8    0    1
 -2       628       485       725      2694      2976      2977
 -1      1285    8    0    1
 -2       483       720       725      2963      2978      2975
 -1      1286    8    0    1
 -2       603       604       726      2629      2979      2980
 -1      1287    8    0    1
 -2       478       479       727      2248      2981      2982
 -1      1288    8    0    1
 -2       619       478       727      2673      2982      2983
 -1      1289    8    0    1
 -2       479       621       727      2679      2984      2981
 -1      1290    8    0    1
 -2       482       583       728      2624      2985      2986
 -1      1291    8    0    1
 -2       623       482       728      2683      2986      2987
 -1      1292    8    0    1
 -2       583       722       728      2967      2988      2985
 -1      1293    8    0    1
 -2       484       607       729      2628      2989      2990
 -1      1294    8    0    1
 -2       484       729       625      2990      2991      2687
 -1      1295    8    0    1
 -2       475       474       730      2237      2992      2993
 -1      1296    8    0    1
 -2       591       594       731      2663      2994      2995
 -1      1297    8    0    1
 -2       584       581       732      2634      2996      2997
 -1      1298    8    0    1
 -2       597       598       733      2665      2998      2999
 -1      1299    8    0    1
 -2       590       592       734      2664      3000      3001
 -1      1300    8    0    1
 -2       595       596       735      2587      3002      3003
 -1      1301    8    0    1
 -2       580       618       736      2668      3004      3005
 -1      1302    8    0    1
 -2       618       527       736      2672      3006      3004
 -1      1303    8    0    1
 -2       586       445       720      2659      3007      2962
 -1      1304    8    0    1
 -2       600       601       737      2598      3008      3009
 -1      1305    8    0    1
 -2       601       593       738      2633      3010      3011
 -1      1306    8    0    1
 -2       602       603       739      2603      3012      3013
 -1      1307    8    0    1
 -2       605       606       740      2610      3014      3015
 -1      1308    8    0    1
 -2       587       584       741      2626      3016      3017
 -1      1309    8    0    1
 -2       610       475       742      2621      3018      3019
 -1      1310    8    0    1
 -2       475       730       742      2993      3020      3018
 -1      1311    8    0    1
 -2       476       620       743      2676      3021      3022
 -1      1312    8    0    1
 -2       476       743       589      3022      3023      2572
 -1      1313    8    0    1
 -2       729       607       626      2989      2691      3024
 -1      1314    8    0    1
 -2       598       624       733      2686      3025      2998
 -1      1315    8    0    1
 -2       609       625       709      2688      3026      2934
 -1      1316    8    0    1
 -2       741       584       732      3016      2997      3027
 -1      1317    8    0    1
 -2       481       473       623      2689      2684      3028
 -1      1318    8    0    1
 -2       626       590       734      2690      3001      3029
 -1      1319    8    0    1
 -2       740       606       627      3014      2693      3030
 -1      1320    8    0    1
 -2       739       603       726      3012      2980      3031
 -1      1321    8    0    1
 -2       736       527       668      3006      2813      3032
 -1      1322    8    0    1
 -2       498       497       744      2303      3033      3034
 -1      1323    8    0    1
 -2       640       498       744      2729      3034      3035
 -1      1324    8    0    1
 -2       497       639       744      2727      3036      3033
 -1      1325    8    0    1
 -2       582       709       719      2935      3037      2960
 -1      1326    8    0    1
 -2       735       596       745      3002      3038      3039
 -1      1327    8    0    1
 -2       596       613       745      2647      3040      3038
 -1      1328    8    0    1
 -2       594       723       746      2970      3041      3042
 -1      1329    8    0    1
 -2       594       746       731      3042      3043      2994
 -1      1330    8    0    1
 -2       604       711       726      2939      3044      2979
 -1      1331    8    0    1
 -2       570       712       747      2941      3045      3046
 -1      1332    8    0    1
 -2       570       747       573      3046      3047      2527
 -1      1333    8    0    1
 -2       572       573       670      2526      3048      2817
 -1      1334    8    0    1
 -2       721       599       748      2964      3049      3050
 -1      1335    8    0    1
 -2       599       612       748      2641      3051      3049
 -1      1336    8    0    1
 -2       581       718       732      2959      3052      2996
 -1      1337    8    0    1
 -2       718       585       749      2958      3053      3054
 -1      1338    8    0    1
 -2       585       719       749      2961      3055      3053
 -1      1339    8    0    1
 -2       579       580       736      2548      3005      3056
 -1      1340    8    0    1
 -2       600       737       616      3009      3057      2658
 -1      1341    8    0    1
 -2       624       588       721      2685      2965      3058
 -1      1342    8    0    1
 -2       611       602       739      2637      3013      3059
 -1      1343    8    0    1
 -2       612       470       750      2642      3060      3061
 -1      1344    8    0    1
 -2       470       616       750      2657      3062      3060
 -1      1345    8    0    1
 -2       711       605       740      2938      3015      3063
 -1      1346    8    0    1
 -2       579       736       751      3056      3064      3065
 -1      1347    8    0    1
 -2       717       579       751      2955      3065      3066
 -1      1348    8    0    1
 -2       736       668       751      3032      3067      3064
 -1      1349    8    0    1
 -2       613       471       752      2648      3068      3069
 -1      1350    8    0    1
 -2       471       614       752      2651      3070      3068
 -1      1351    8    0    1
 -2       614       597       733      2649      2999      3071
 -1      1352    8    0    1
 -2       615       472       753      2655      3072      3073
 -1      1353    8    0    1
 -2       472       617       753      2661      3074      3072
 -1      1354    8    0    1
 -2       617       591       731      2662      2995      3075
 -1      1355    8    0    1
 -2       474       589       754      2571      3076      3077
 -1      1356    8    0    1
 -2       730       474       754      2992      3077      3078
 -1      1357    8    0    1
 -2       589       743       754      3023      3079      3076
 -1      1358    8    0    1
 -2       723       595       735      2969      3003      3080
 -1      1359    8    0    1
 -2       481       623       622      3028      3081      2680
 -1      1360    8    0    1
 -2       627       587       741      2692      3017      3082
 -1      1361    8    0    1
 -2       737       601       738      3008      3011      3083
 -1      1362    8    0    1
 -2       720       445       610      3007      2623      3084
 -1      1363    8    0    1
 -2       626       734       681      3029      3085      3086
 -1      1364    8    0    1
 -2       621       622       755      2682      3087      3088
 -1      1365    8    0    1
 -2       719       709       756      3037      3089      3090
 -1      1366    8    0    1
 -2       630       629       757      2701      3091      3092
 -1      1367    8    0    1
 -2       631       630       758      2704      3093      3094
 -1      1368    8    0    1
 -2       630       757       758      3092      3095      3093
 -1      1369    8    0    1
 -2       632       631       759      2707      3096      3097
 -1      1370    8    0    1
 -2       631       758       759      3094      3098      3096
 -1      1371    8    0    1
 -2       633       632       760      2710      3099      3100
 -1      1372    8    0    1
 -2       632       759       760      3097      3101      3099
 -1      1373    8    0    1
 -2       634       633       761      2713      3102      3103
 -1      1374    8    0    1
 -2       633       760       761      3100      3104      3102
 -1      1375    8    0    1
 -2       635       634       762      2716      3105      3106
 -1      1376    8    0    1
 -2       634       761       762      3103      3107      3105
 -1      1377    8    0    1
 -2       636       635       763      2719      3108      3109
 -1      1378    8    0    1
 -2       635       762       763      3106      3110      3108
 -1      1379    8    0    1
 -2       637       636       764      2722      3111      3112
 -1      1380    8    0    1
 -2       636       763       764      3109      3113      3111
 -1      1381    8    0    1
 -2       638       637       750      2725      3114      3115
 -1      1382    8    0    1
 -2       643       642       765      2739      3116      3117
 -1      1383    8    0    1
 -2       644       643       766      2742      3118      3119
 -1      1384    8    0    1
 -2       643       765       766      3117      3120      3118
 -1      1385    8    0    1
 -2       645       644       767      2745      3121      3122
 -1      1386    8    0    1
 -2       644       766       767      3119      3123      3121
 -1      1387    8    0    1
 -2       646       645       768      2748      3124      3125
 -1      1388    8    0    1
 -2       645       767       768      3122      3126      3124
 -1      1389    8    0    1
 -2       647       646       769      2751      3127      3128
 -1      1390    8    0    1
 -2       646       768       769      3125      3129      3127
 -1      1391    8    0    1
 -2       648       647       770      2754      3130      3131
 -1      1392    8    0    1
 -2       647       769       770      3128      3132      3130
 -1      1393    8    0    1
 -2       649       648       771      2757      3133      3134
 -1      1394    8    0    1
 -2       648       770       771      3131      3135      3133
 -1      1395    8    0    1
 -2       650       649       772      2760      3136      3137
 -1      1396    8    0    1
 -2       649       771       772      3134      3138      3136
 -1      1397    8    0    1
 -2       651       650       773      2763      3139      3140
 -1      1398    8    0    1
 -2       650       772       773      3137      3141      3139
 -1      1399    8    0    1
 -2       652       651       774      2766      3142      3143
 -1      1400    8    0    1
 -2       651       773       774      3140      3144      3142
 -1      1401    8    0    1
 -2       653       652       775      2769      3145      3146
 -1      1402    8    0    1
 -2       652       774       775      3143      3147      3145
 -1      1403    8    0    1
 -2       654       653       776      2772      3148      3149
 -1      1404    8    0    1
 -2       653       775       776      3146      3150      3148
 -1      1405    8    0    1
 -2       655       654       777      2775      3151      3152
 -1      1406    8    0    1
 -2       654       776       777      3149      3153      3151
 -1      1407    8    0    1
 -2       656       655       778      2778      3154      3155
 -1      1408    8    0    1
 -2       655       777       778      3152      3156      3154
 -1      1409    8    0    1
 -2       657       656       779      2781      3157      3158
 -1      1410    8    0    1
 -2       656       778       779      3155      3159      3157
 -1      1411    8    0    1
 -2       658       657       780      2784      3160      3161
 -1      1412    8    0    1
 -2       657       779       780      3158      3162      3160
 -1      1413    8    0    1
 -2       659       658       781      2787      3163      3164
 -1      1414    8    0    1
 -2       658       780       781      3161      3165      3163
 -1      1415    8    0    1
 -2       660       659       782      2790      3166      3167
 -1      1416    8    0    1
 -2       659       781       782      3164      3168      3166
 -1      1417    8    0    1
 -2       661       660       783      2793      3169      3170
 -1      1418    8    0    1
 -2       660       782       783      3167      3171      3169
 -1      1419    8    0    1
 -2       662       661       784      2796      3172      3173
 -1      1420    8    0    1
 -2       661       783       784      3170      3174      3172
 -1      1421    8    0    1
 -2       663       662       785      2799      3175      3176
 -1      1422    8    0    1
 -2       662       784       785      3173      3177      3175
 -1      1423    8    0    1
 -2       664       663       786      2802      3178      3179
 -1      1424    8    0    1
 -2       663       785       786      3176      3180      3178
 -1      1425    8    0    1
 -2       665       664       787      2805      3181      3182
 -1      1426    8    0    1
 -2       664       786       787      3179      3183      3181
 -1      1427    8    0    1
 -2       666       665       788      2808      3184      3185
 -1      1428    8    0    1
 -2       665       787       788      3182      3186      3184
 -1      1429    8    0    1
 -2       667       666       789      2811      3187      3188
 -1      1430    8    0    1
 -2       666       788       789      3185      3189      3187
 -1      1431    8    0    1
 -2       668       667       790      2814      3190      3191
 -1      1432    8    0    1
 -2       751       668       790      3067      3191      3192
 -1      1433    8    0    1
 -2       667       789       790      3188      3193      3190
 -1      1434    8    0    1
 -2       671       669       791      2822      3194      3195
 -1      1435    8    0    1
 -2       673       674       792      2830      3196      3197
 -1      1436    8    0    1
 -2       672       673       793      2827      3198      3199
 -1      1437    8    0    1
 -2       673       792       793      3197      3200      3198
 -1      1438    8    0    1
 -2       675       676       794      2836      3201      3202
 -1      1439    8    0    1
 -2       676       677       746      2839      3203      3204
 -1      1440    8    0    1
 -2       678       679       753      2845      3205      3206
 -1      1441    8    0    1
 -2       680       681       734      2851      3085      3207
 -1      1442    8    0    1
 -2       681       682       626      2854      3208      3086
 -1      1443    8    0    1
 -2       682       683       795      2857      3209      3210
 -1      1444    8    0    1
 -2       683       684       796      2860      3211      3212
 -1      1445    8    0    1
 -2       683       796       795      3212      3213      3209
 -1      1446    8    0    1
 -2       684       685       797      2863      3214      3215
 -1      1447    8    0    1
 -2       684       797       796      3215      3216      3211
 -1      1448    8    0    1
 -2       685       686       798      2866      3217      3218
 -1      1449    8    0    1
 -2       685       798       797      3218      3219      3214
 -1      1450    8    0    1
 -2       686       687       799      2869      3220      3221
 -1      1451    8    0    1
 -2       686       799       798      3221      3222      3217
 -1      1452    8    0    1
 -2       687       688       800      2872      3223      3224
 -1      1453    8    0    1
 -2       687       800       799      3224      3225      3220
 -1      1454    8    0    1
 -2       688       689       801      2875      3226      3227
 -1      1455    8    0    1
 -2       688       801       800      3227      3228      3223
 -1      1456    8    0    1
 -2       689       690       802      2878      3229      3230
 -1      1457    8    0    1
 -2       689       802       801      3230      3231      3226
 -1      1458    8    0    1
 -2       690       691       803      2881      3232      3233
 -1      1459    8    0    1
 -2       690       803       802      3233      3234      3229
 -1      1460    8    0    1
 -2       691       692       804      2884      3235      3236
 -1      1461    8    0    1
 -2       691       804       803      3236      3237      3232
 -1      1462    8    0    1
 -2       692       693       805      2887      3238      3239
 -1      1463    8    0    1
 -2       692       805       804      3239      3240      3235
 -1      1464    8    0    1
 -2       693       694       806      2890      3241      3242
 -1      1465    8    0    1
 -2       693       806       805      3242      3243      3238
 -1      1466    8    0    1
 -2       694       695       807      2893      3244      3245
 -1      1467    8    0    1
 -2       694       807       806      3245      3246      3241
 -1      1468    8    0    1
 -2       695       696       808      2896      3247      3248
 -1      1469    8    0    1
 -2       695       808       807      3248      3249      3244
 -1      1470    8    0    1
 -2       696       697       809      2899      3250      3251
 -1      1471    8    0    1
 -2       696       809       808      3251      3252      3247
 -1      1472    8    0    1
 -2       697       698       810      2902      3253      3254
 -1      1473    8    0    1
 -2       697       810       809      3254      3255      3250
 -1      1474    8    0    1
 -2       698       699       811      2905      3256      3257
 -1      1475    8    0    1
 -2       698       811       810      3257      3258      3253
 -1      1476    8    0    1
 -2       699       700       812      2908      3259      3260
 -1      1477    8    0    1
 -2       699       812       811      3260      3261      3256
 -1      1478    8    0    1
 -2       700       701       813      2911      3262      3263
 -1      1479    8    0    1
 -2       700       813       812      3263      3264      3259
 -1      1480    8    0    1
 -2       701       702       814      2914      3265      3266
 -1      1481    8    0    1
 -2       701       814       813      3266      3267      3262
 -1      1482    8    0    1
 -2       702       703       815      2917      3268      3269
 -1      1483    8    0    1
 -2       702       815       814      3269      3270      3265
 -1      1484    8    0    1
 -2       703       704       816      2920      3271      3272
 -1      1485    8    0    1
 -2       703       816       815      3272      3273      3268
 -1      1486    8    0    1
 -2       704       705       817      2923      3274      3275
 -1      1487    8    0    1
 -2       704       817       816      3275      3276      3271
 -1      1488    8    0    1
 -2       705       706       818      2926      3277      3278
 -1      1489    8    0    1
 -2       705       818       817      3278      3279      3274
 -1      1490    8    0    1
 -2       706       707       819      2929      3280      3281
 -1      1491    8    0    1
 -2       706       819       818      3281      3282      3277
 -1      1492    8    0    1
 -2       741       732       820      3027      3283      3284
 -1      1493    8    0    1
 -2       734       592       821      3000      3285      3286
 -1      1494    8    0    1
 -2       713       715       822      2951      3287      3288
 -1      1495    8    0    1
 -2       710       713       823      2944      3289      3290
 -1      1496    8    0    1
 -2       713       822       823      3288      3291      3289
 -1      1497    8    0    1
 -2       722       671       824      2968      3292      3293
 -1      1498    8    0    1
 -2       671       791       824      3195      3294      3292
 -1      1499    8    0    1
 -2       715       716       825      2954      3295      3296
 -1      1500    8    0    1
 -2       715       825       822      3296      3297      3287
 -1      1501    8    0    1
 -2       821       592       615      3285      2654      3298
 -1      1502    8    0    1
 -2       680       734       821      3207      3286      3299
 -1      1503    8    0    1
 -2       821       615       753      3298      3073      3300
 -1      1504    8    0    1
 -2       716       717       826      2957      3301      3302
 -1      1505    8    0    1
 -2       716       826       825      3302      3303      3295
 -1      1506    8    0    1
 -2       593       611       744      2639      3304      3305
 -1      1507    8    0    1
 -2       674       675       827      2833      3306      3307
 -1      1508    8    0    1
 -2       792       674       827      3196      3307      3308
 -1      1509    8    0    1
 -2       675       794       827      3202      3309      3306
 -1      1510    8    0    1
 -2       611       739       640      3059      3310      3311
 -1      1511    8    0    1
 -2       625       729       828      2991      3312      3313
 -1      1512    8    0    1
 -2       732       718       829      3052      3314      3315
 -1      1513    8    0    1
 -2       624       721       830      3058      3316      3317
 -1      1514    8    0    1
 -2       729       626       682      3024      3208      3318
 -1      1515    8    0    1
 -2       641       640       739      2733      3310      3319
 -1      1516    8    0    1
 -2       670       573       747      3048      3047      3320
 -1      1517    8    0    1
 -2       709       625       831      3026      3321      3322
 -1      1518    8    0    1
 -2       625       828       831      3313      3323      3321
 -1      1519    8    0    1
 -2       629       628       832      2698      3324      3325
 -1      1520    8    0    1
 -2       629       832       757      3325      3326      3091
 -1      1521    8    0    1
 -2       726       711       765      3044      3327      3328
 -1      1522    8    0    1
 -2       617       731       833      3075      3329      3330
 -1      1523    8    0    1
 -2       617       833       753      3330      3331      3074
 -1      1524    8    0    1
 -2       740       627       834      3030      3332      3333
 -1      1525    8    0    1
 -2       622       623       835      3081      3334      3335
 -1      1526    8    0    1
 -2       755       622       835      3087      3335      3336
 -1      1527    8    0    1
 -2       623       728       835      2987      3337      3334
 -1      1528    8    0    1
 -2       711       740       836      3063      3338      3339
 -1      1529    8    0    1
 -2       765       711       836      3327      3339      3340
 -1      1530    8    0    1
 -2       740       834       836      3333      3341      3338
 -1      1531    8    0    1
 -2       680       821       679      3299      3342      2848
 -1      1532    8    0    1
 -2       614       733       837      3071      3343      3344
 -1      1533    8    0    1
 -2       738       593       744      3010      3305      3345
 -1      1534    8    0    1
 -2       733       624       838      3025      3346      3347
 -1      1535    8    0    1
 -2       720       610       742      3084      3019      3348
 -1      1536    8    0    1
 -2       723       735       839      3080      3349      3350
 -1      1537    8    0    1
 -2       627       741       840      3082      3351      3352
 -1      1538    8    0    1
 -2       627       840       834      3352      3353      3332
 -1      1539    8    0    1
 -2       620       619       841      2677      3354      3355
 -1      1540    8    0    1
 -2       641       739       726      3319      3031      3356
 -1      1541    8    0    1
 -2       744       639       738      3036      3357      3345
 -1      1542    8    0    1
 -2       640       744       611      3035      3304      3311
 -1      1543    8    0    1
 -2       679       821       753      3342      3300      3205
 -1      1544    8    0    1
 -2       641       726       642      3356      3358      2736
 -1      1545    8    0    1
 -2       738       639       737      3357      3359      3083
 -1      1546    8    0    1
 -2       737       639       638      3359      2728      3360
 -1      1547    8    0    1
 -2       642       726       765      3358      3328      3116
 -1      1548    8    0    1
 -2       737       638       616      3360      3361      3057
 -1      1549    8    0    1
 -2       743       620       842      3021      3362      3363
 -1      1550    8    0    1
 -2       620       841       842      3355      3364      3362
 -1      1551    8    0    1
 -2       621       755       843      3088      3365      3366
 -1      1552    8    0    1
 -2       621       843       727      3366      3367      2984
 -1      1553    8    0    1
 -2       719       756       844      3090      3368      3369
 -1      1554    8    0    1
 -2       719       844       749      3369      3370      3055
 -1      1555    8    0    1
 -2       742       730       845      3020      3371      3372
 -1      1556    8    0    1
 -2       637       764       750      3112      3373      3114
 -1      1557    8    0    1
 -2       628       725       846      2977      3374      3375
 -1      1558    8    0    1
 -2       628       846       832      3375      3376      3324
 -1      1559    8    0    1
 -2       670       747       847      3320      3377      3378
 -1      1560    8    0    1
 -2       670       847       708      3378      3379      2933
 -1      1561    8    0    1
 -2       725       720       742      2978      3348      3380
 -1      1562    8    0    1
 -2       745       613       752      3040      3069      3381
 -1      1563    8    0    1
 -2       746       723       848      3041      3382      3383
 -1      1564    8    0    1
 -2       723       839       848      3350      3384      3382
 -1      1565    8    0    1
 -2       672       793       849      3199      3385      3386
 -1      1566    8    0    1
 -2       672       849       724      3386      3387      2974
 -1      1567    8    0    1
 -2       678       753       833      3206      3331      3388
 -1      1568    8    0    1
 -2       677       678       833      2842      3388      3389
 -1      1569    8    0    1
 -2       614       837       752      3344      3390      3070
 -1      1570    8    0    1
 -2       741       820       850      3284      3391      3392
 -1      1571    8    0    1
 -2       741       850       840      3392      3393      3351
 -1      1572    8    0    1
 -2       820       732       829      3283      3315      3394
 -1      1573    8    0    1
 -2       707       708       851      2932      3395      3396
 -1      1574    8    0    1
 -2       708       847       851      3379      3397      3395
 -1      1575    8    0    1
 -2       712       714       852      2947      3398      3399
 -1      1576    8    0    1
 -2       747       712       853      3045      3400      3401
 -1      1577    8    0    1
 -2       847       747       853      3377      3401      3402
 -1      1578    8    0    1
 -2       712       852       853      3399      3403      3400
 -1      1579    8    0    1
 -2       714       710       854      2948      3404      3405
 -1      1580    8    0    1
 -2       852       714       854      3398      3405      3406
 -1      1581    8    0    1
 -2       710       823       854      3290      3407      3404
 -1      1582    8    0    1
 -2       748       612       750      3051      3061      3408
 -1      1583    8    0    1
 -2       735       745       855      3039      3409      3410
 -1      1584    8    0    1
 -2       735       855       839      3410      3411      3349
 -1      1585    8    0    1
 -2       733       838       856      3347      3412      3413
 -1      1586    8    0    1
 -2       733       856       837      3413      3414      3343
 -1      1587    8    0    1
 -2       830       721       857      3316      3415      3416
 -1      1588    8    0    1
 -2       721       748       857      3050      3417      3415
 -1      1589    8    0    1
 -2       829       718       858      3314      3418      3419
 -1      1590    8    0    1
 -2       718       749       858      3054      3420      3418
 -1      1591    8    0    1
 -2       791       669       859      3194      3421      3422
 -1      1592    8    0    1
 -2       669       724       859      2973      3423      3421
 -1      1593    8    0    1
 -2       624       830       860      3317      3424      3425
 -1      1594    8    0    1
 -2       624       860       838      3425      3426      3346
 -1      1595    8    0    1
 -2       619       727       861      2983      3427      3428
 -1      1596    8    0    1
 -2       841       619       861      3354      3428      3429
 -1      1597    8    0    1
 -2       727       843       861      3367      3430      3427
 -1      1598    8    0    1
 -2       709       831       862      3322      3431      3432
 -1      1599    8    0    1
 -2       709       862       756      3432      3433      3089
 -1      1600    8    0    1
 -2       616       638       750      3361      3115      3062
 -1      1601    8    0    1
 -2       730       754       863      3078      3434      3435
 -1      1602    8    0    1
 -2       730       863       845      3435      3436      3371
 -1      1603    8    0    1
 -2       728       722       864      2988      3437      3438
 -1      1604    8    0    1
 -2       835       728       864      3337      3438      3439
 -1      1605    8    0    1
 -2       722       824       864      3293      3440      3437
 -1      1606    8    0    1
 -2       717       751       865      3066      3441      3442
 -1      1607    8    0    1
 -2       826       717       865      3301      3442      3443
 -1      1608    8    0    1
 -2       751       790       865      3192      3444      3441
 -1      1609    8    0    1
 -2       750       764       748      3373      3445      3408
 -1      1610    8    0    1
 -2       759       758       866      3098      3446      3447
 -1      1611    8    0    1
 -2       760       759       867      3101      3448      3449
 -1      1612    8    0    1
 -2       759       866       867      3447      3450      3448
 -1      1613    8    0    1
 -2       761       760       868      3104      3451      3452
 -1      1614    8    0    1
 -2       760       867       868      3449      3453      3451
 -1      1615    8    0    1
 -2       762       761       869      3107      3454      3455
 -1      1616    8    0    1
 -2       761       868       869      3452      3456      3454
 -1      1617    8    0    1
 -2       763       762       870      3110      3457      3458
 -1      1618    8    0    1
 -2       762       869       870      3455      3459      3457
 -1      1619    8    0    1
 -2       764       763       857      3113      3460      3461
 -1      1620    8    0    1
 -2       822       825       871      3297      3462      3463
 -1      1621    8    0    1
 -2       748       764       857      3445      3461      3417
 -1      1622    8    0    1
 -2       767       766       872      3123      3464      3465
 -1      1623    8    0    1
 -2       768       767       873      3126      3466      3467
 -1      1624    8    0    1
 -2       767       872       873      3465      3468      3466
 -1      1625    8    0    1
 -2       769       768       874      3129      3469      3470
 -1      1626    8    0    1
 -2       768       873       874      3467      3471      3469
 -1      1627    8    0    1
 -2       770       769       875      3132      3472      3473
 -1      1628    8    0    1
 -2       769       874       875      3470      3474      3472
 -1      1629    8    0    1
 -2       771       770       876      3135      3475      3476
 -1      1630    8    0    1
 -2       770       875       876      3473      3477      3475
 -1      1631    8    0    1
 -2       772       771       877      3138      3478      3479
 -1      1632    8    0    1
 -2       771       876       877      3476      3480      3478
 -1      1633    8    0    1
 -2       773       772       878      3141      3481      3482
 -1      1634    8    0    1
 -2       772       877       878      3479      3483      3481
 -1      1635    8    0    1
 -2       774       773       879      3144      3484      3485
 -1      1636    8    0    1
 -2       773       878       879      3482      3486      3484
 -1      1637    8    0    1
 -2       775       774       880      3147      3487      3488
 -1      1638    8    0    1
 -2       774       879       880      3485      3489      3487
 -1      1639    8    0    1
 -2       776       775       881      3150      3490      3491
 -1      1640    8    0    1
 -2       775       880       881      3488      3492      3490
 -1      1641    8    0    1
 -2       777       776       882      3153      3493      3494
 -1      1642    8    0    1
 -2       776       881       882      3491      3495      3493
 -1      1643    8    0    1
 -2       778       777       883      3156      3496      3497
 -1      1644    8    0    1
 -2       777       882       883      3494      3498      3496
 -1      1645    8    0    1
 -2       779       778       884      3159      3499      3500
 -1      1646    8    0    1
 -2       778       883       884      3497      3501      3499
 -1      1647    8    0    1
 -2       780       779       885      3162      3502      3503
 -1      1648    8    0    1
 -2       779       884       885      3500      3504      3502
 -1      1649    8    0    1
 -2       781       780       886      3165      3505      3506
 -1      1650    8    0    1
 -2       780       885       886      3503      3507      3505
 -1      1651    8    0    1
 -2       782       781       887      3168      3508      3509
 -1      1652    8    0    1
 -2       781       886       887      3506      3510      3508
 -1      1653    8    0    1
 -2       783       782       888      3171      3511      3512
 -1      1654    8    0    1
 -2       782       887       888      3509      3513      3511
 -1      1655    8    0    1
 -2       784       783       889      3174      3514      3515
 -1      1656    8    0    1
 -2       783       888       889      3512      3516      3514
 -1      1657    8    0    1
 -2       785       784       890      3177      3517      3518
 -1      1658    8    0    1
 -2       784       889       890      3515      3519      3517
 -1      1659    8    0    1
 -2       786       785       891      3180      3520      3521
 -1      1660    8    0    1
 -2       785       890       891      3518      3522      3520
 -1      1661    8    0    1
 -2       787       786       892      3183      3523      3524
 -1      1662    8    0    1
 -2       786       891       892      3521      3525      3523
 -1      1663    8    0    1
 -2       788       787       893      3186      3526      3527
 -1      1664    8    0    1
 -2       787       892       893      3524      3528      3526
 -1      1665    8    0    1
 -2       789       788       894      3189      3529      3530
 -1      1666    8    0    1
 -2       788       893       894      3527      3531      3529
 -1      1667    8    0    1
 -2       794       676       746      3201      3204      3532
 -1      1668    8    0    1
 -2       797       798       895      3219      3533      3534
 -1      1669    8    0    1
 -2       796       797       862      3216      3535      3536
 -1      1670    8    0    1
 -2       798       799       896      3222      3537      3538
 -1      1671    8    0    1
 -2       798       896       895      3538      3539      3533
 -1      1672    8    0    1
 -2       799       800       897      3225      3540      3541
 -1      1673    8    0    1
 -2       799       897       896      3541      3542      3537
 -1      1674    8    0    1
 -2       800       801       898      3228      3543      3544
 -1      1675    8    0    1
 -2       800       898       897      3544      3545      3540
 -1      1676    8    0    1
 -2       801       802       899      3231      3546      3547
 -1      1677    8    0    1
 -2       801       899       898      3547      3548      3543
 -1      1678    8    0    1
 -2       802       803       900      3234      3549      3550
 -1      1679    8    0    1
 -2       802       900       899      3550      3551      3546
 -1      1680    8    0    1
 -2       803       804       901      3237      3552      3553
 -1      1681    8    0    1
 -2       803       901       900      3553      3554      3549
 -1      1682    8    0    1
 -2       804       805       902      3240      3555      3556
 -1      1683    8    0    1
 -2       804       902       901      3556      3557      3552
 -1      1684    8    0    1
 -2       805       806       903      3243      3558      3559
 -1      1685    8    0    1
 -2       805       903       902      3559      3560      3555
 -1      1686    8    0    1
 -2       806       807       904      3246      3561      3562
 -1      1687    8    0    1
 -2       806       904       903      3562      3563      3558
 -1      1688    8    0    1
 -2       807       808       905      3249      3564      3565
 -1      1689    8    0    1
 -2       807       905       904      3565      3566      3561
 -1      1690    8    0    1
 -2       808       809       906      3252      3567      3568
 -1      1691    8    0    1
 -2       808       906       905      3568      3569      3564
 -1      1692    8    0    1
 -2       809       810       907      3255      3570      3571
 -1      1693    8    0    1
 -2       809       907       906      3571      3572      3567
 -1      1694    8    0    1
 -2       810       811       908      3258      3573      3574
 -1      1695    8    0    1
 -2       810       908       907      3574      3575      3570
 -1      1696    8    0    1
 -2       811       812       909      3261      3576      3577
 -1      1697    8    0    1
 -2       811       909       908      3577      3578      3573
 -1      1698    8    0    1
 -2       812       813       910      3264      3579      3580
 -1      1699    8    0    1
 -2       812       910       909      3580      3581      3576
 -1      1700    8    0    1
 -2       813       814       911      3267      3582      3583
 -1      1701    8    0    1
 -2       813       911       910      3583      3584      3579
 -1      1702    8    0    1
 -2       814       815       912      3270      3585      3586
 -1      1703    8    0    1
 -2       814       912       911      3586      3587      3582
 -1      1704    8    0    1
 -2       815       816       913      3273      3588      3589
 -1      1705    8    0    1
 -2       815       913       912      3589      3590      3585
 -1      1706    8    0    1
 -2       816       817       914      3276      3591      3592
 -1      1707    8    0    1
 -2       816       914       913      3592      3593      3588
 -1      1708    8    0    1
 -2       817       818       915      3279      3594      3595
 -1      1709    8    0    1
 -2       817       915       914      3595      3596      3591
 -1      1710    8    0    1
 -2       818       819       916      3282      3597      3598
 -1      1711    8    0    1
 -2       818       916       915      3598      3599      3594
 -1      1712    8    0    1
 -2       819       707       851      3280      3396      3600
 -1      1713    8    0    1
 -2       725       742       846      3380      3601      3374
 -1      1714    8    0    1
 -2       824       791       917      3294      3602      3603
 -1      1715    8    0    1
 -2       752       837       918      3390      3604      3605
 -1      1716    8    0    1
 -2       742       845       846      3372      3606      3601
 -1      1717    8    0    1
 -2       823       822       919      3291      3607      3608
 -1      1718    8    0    1
 -2       822       871       919      3463      3609      3607
 -1      1719    8    0    1
 -2       757       832       920      3326      3610      3611
 -1      1720    8    0    1
 -2       793       792       921      3200      3612      3613
 -1      1721    8    0    1
 -2       729       682       795      3318      3210      3614
 -1      1722    8    0    1
 -2       754       743       922      3079      3615      3616
 -1      1723    8    0    1
 -2       754       922       863      3616      3617      3434
 -1      1724    8    0    1
 -2       766       765       836      3120      3340      3618
 -1      1725    8    0    1
 -2       758       757       923      3095      3619      3620
 -1      1726    8    0    1
 -2       758       923       866      3620      3621      3446
 -1      1727    8    0    1
 -2       820       829       924      3394      3622      3623
 -1      1728    8    0    1
 -2       825       826       925      3303      3624      3625
 -1      1729    8    0    1
 -2       825       925       871      3625      3626      3462
 -1      1730    8    0    1
 -2       745       752       926      3381      3627      3628
 -1      1731    8    0    1
 -2       855       745       926      3409      3628      3629
 -1      1732    8    0    1
 -2       752       918       926      3605      3630      3627
 -1      1733    8    0    1
 -2       834       840       927      3353      3631      3632
 -1      1734    8    0    1
 -2       819       851       916      3600      3633      3597
 -1      1735    8    0    1
 -2       843       755       928      3365      3634      3635
 -1      1736    8    0    1
 -2       844       756       929      3368      3636      3637
 -1      1737    8    0    1
 -2       756       862       929      3433      3638      3636
 -1      1738    8    0    1
 -2       820       924       850      3623      3639      3391
 -1      1739    8    0    1
 -2       766       836       872      3618      3640      3464
 -1      1740    8    0    1
 -2       824       917       930      3603      3641      3642
 -1      1741    8    0    1
 -2       824       930       864      3642      3643      3440
 -1      1742    8    0    1
 -2       857       763       870      3460      3458      3644
 -1      1743    8    0    1
 -2       757       920       923      3611      3645      3619
 -1      1744    8    0    1
 -2       832       846       931      3376      3646      3647
 -1      1745    8    0    1
 -2       920       832       931      3610      3647      3648
 -1      1746    8    0    1
 -2       846       845       931      3606      3649      3646
 -1      1747    8    0    1
 -2       854       823       932      3407      3650      3651
 -1      1748    8    0    1
 -2       823       919       932      3608      3652      3650
 -1      1749    8    0    1
 -2       790       789       933      3193      3653      3654
 -1      1750    8    0    1
 -2       865       790       933      3444      3654      3655
 -1      1751    8    0    1
 -2       789       894       933      3530      3656      3653
 -1      1752    8    0    1
 -2       848       839       934      3384      3657      3658
 -1      1753    8    0    1
 -2       839       855       934      3411      3659      3657
 -1      1754    8    0    1
 -2       849       793       935      3385      3660      3661
 -1      1755    8    0    1
 -2       793       921       935      3613      3662      3660
 -1      1756    8    0    1
 -2       796       862       831      3536      3431      3663
 -1      1757    8    0    1
 -2       795       796       831      3213      3663      3664
 -1      1758    8    0    1
 -2       921       792       936      3612      3665      3666
 -1      1759    8    0    1
 -2       792       827       936      3308      3667      3665
 -1      1760    8    0    1
 -2       853       852       937      3403      3668      3669
 -1      1761    8    0    1
 -2       918       837       938      3604      3670      3671
 -1      1762    8    0    1
 -2       837       856       938      3414      3672      3670
 -1      1763    8    0    1
 -2       851       847       939      3397      3673      3674
 -1      1764    8    0    1
 -2       916       851       939      3633      3674      3675
 -1      1765    8    0    1
 -2       847       853       939      3402      3676      3673
 -1      1766    8    0    1
 -2       917       791       940      3602      3677      3678
 -1      1767    8    0    1
 -2       791       859       940      3422      3679      3677
 -1      1768    8    0    1
 -2       826       865       933      3443      3655      3680
 -1      1769    8    0    1
 -2       834       927       872      3632      3681      3682
 -1      1770    8    0    1
 -2       927       840       941      3631      3683      3684
 -1      1771    8    0    1
 -2       840       850       941      3393      3685      3683
 -1      1772    8    0    1
 -2       856       838       942      3412      3686      3687
 -1      1773    8    0    1
 -2       838       860       942      3426      3688      3686
 -1      1774    8    0    1
 -2       858       749       943      3420      3689      3690
 -1      1775    8    0    1
 -2       749       844       943      3370      3691      3689
 -1      1776    8    0    1
 -2       845       863       944      3436      3692      3693
 -1      1777    8    0    1
 -2       845       944       931      3693      3694      3649
 -1      1778    8    0    1
 -2       859       724       849      3423      3387      3695
 -1      1779    8    0    1
 -2       746       677       833      3203      3389      3696
 -1      1780    8    0    1
 -2       834       872       836      3682      3640      3341
 -1      1781    8    0    1
 -2       829       858       945      3419      3697      3698
 -1      1782    8    0    1
 -2       829       945       924      3698      3699      3622
 -1      1783    8    0    1
 -2       922       743       842      3615      3363      3700
 -1      1784    8    0    1
 -2       833       731       746      3329      3043      3696
 -1      1785    8    0    1
 -2       925       826       933      3624      3680      3701
 -1      1786    8    0    1
 -2       852       854       946      3406      3702      3703
 -1      1787    8    0    1
 -2       937       852       946      3668      3703      3704
 -1      1788    8    0    1
 -2       854       932       946      3651      3705      3702
 -1      1789    8    0    1
 -2       830       857       947      3416      3706      3707
 -1      1790    8    0    1
 -2       860       830       947      3424      3707      3708
 -1      1791    8    0    1
 -2       857       870       947      3644      3709      3706
 -1      1792    8    0    1
 -2       841       861       948      3429      3710      3711
 -1      1793    8    0    1
 -2       841       948       949      3711      3712      3713
 -1      1794    8    0    1
 -2       841       949       842      3713      3714      3364
 -1      1795    8    0    1
 -2       866       923       950      3621      3715      3716
 -1      1796    8    0    1
 -2       930       917       951      3641      3717      3718
 -1      1797    8    0    1
 -2       864       930       928      3643      3719      3720
 -1      1798    8    0    1
 -2       868       867       952      3453      3721      3722
 -1      1799    8    0    1
 -2       869       868       953      3456      3723      3724
 -1      1800    8    0    1
 -2       868       952       953      3722      3725      3723
 -1      1801    8    0    1
 -2       870       869       954      3459      3726      3727
 -1      1802    8    0    1
 -2       947       870       954      3709      3727      3728
 -1      1803    8    0    1
 -2       869       953       954      3724      3729      3726
 -1      1804    8    0    1
 -2       859       849       955      3695      3730      3731
 -1      1805    8    0    1
 -2       859       955       940      3731      3732      3679
 -1      1806    8    0    1
 -2       897       898       956      3545      3733      3734
 -1      1807    8    0    1
 -2       933       894       925      3656      3735      3701
 -1      1808    8    0    1
 -2       873       872       927      3468      3681      3736
 -1      1809    8    0    1
 -2       794       746       848      3532      3383      3737
 -1      1810    8    0    1
 -2       875       874       957      3474      3738      3739
 -1      1811    8    0    1
 -2       876       875       958      3477      3740      3741
 -1      1812    8    0    1
 -2       875       957       958      3739      3742      3740
 -1      1813    8    0    1
 -2       877       876       959      3480      3743      3744
 -1      1814    8    0    1
 -2       876       958       959      3741      3745      3743
 -1      1815    8    0    1
 -2       878       877       960      3483      3746      3747
 -1      1816    8    0    1
 -2       877       959       960      3744      3748      3746
 -1      1817    8    0    1
 -2       879       878       961      3486      3749      3750
 -1      1818    8    0    1
 -2       878       960       961      3747      3751      3749
 -1      1819    8    0    1
 -2       880       879       962      3489      3752      3753
 -1      1820    8    0    1
 -2       879       961       962      3750      3754      3752
 -1      1821    8    0    1
 -2       881       880       963      3492      3755      3756
 -1      1822    8    0    1
 -2       880       962       963      3753      3757      3755
 -1      1823    8    0    1
 -2       882       881       964      3495      3758      3759
 -1      1824    8    0    1
 -2       881       963       964      3756      3760      3758
 -1      1825    8    0    1
 -2       883       882       965      3498      3761      3762
 -1      1826    8    0    1
 -2       882       964       965      3759      3763      3761
 -1      1827    8    0    1
 -2       884       883       966      3501      3764      3765
 -1      1828    8    0    1
 -2       883       965       966      3762      3766      3764
 -1      1829    8    0    1
 -2       885       884       967      3504      3767      3768
 -1      1830    8    0    1
 -2       884       966       967      3765      3769      3767
 -1      1831    8    0    1
 -2       886       885       968      3507      3770      3771
 -1      1832    8    0    1
 -2       885       967       968      3768      3772      3770
 -1      1833    8    0    1
 -2       887       886       969      3510      3773      3774
 -1      1834    8    0    1
 -2       886       968       969      3771      3775      3773
 -1      1835    8    0    1
 -2       888       887       970      3513      3776      3777
 -1      1836    8    0    1
 -2       887       969       970      3774      3778      3776
 -1      1837    8    0    1
 -2       889       888       971      3516      3779      3780
 -1      1838    8    0    1
 -2       888       970       971      3777      3781      3779
 -1      1839    8    0    1
 -2       890       889       972      3519      3782      3783
 -1      1840    8    0    1
 -2       889       971       972      3780      3784      3782
 -1      1841    8    0    1
 -2       891       890       973      3522      3785      3786
 -1      1842    8    0    1
 -2       890       972       973      3783      3787      3785
 -1      1843    8    0    1
 -2       892       891       974      3525      3788      3789
 -1      1844    8    0    1
 -2       891       973       974      3786      3790      3788
 -1      1845    8    0    1
 -2       893       892       975      3528      3791      3792
 -1      1846    8    0    1
 -2       892       974       975      3789      3793      3791
 -1      1847    8    0    1
 -2       894       893       976      3531      3794      3795
 -1      1848    8    0    1
 -2       893       975       976      3792      3796      3794
 -1      1849    8    0    1
 -2       862       797       895      3535      3534      3797
 -1      1850    8    0    1
 -2       896       897       977      3542      3798      3799
 -1      1851    8    0    1
 -2       897       956       977      3734      3800      3798
 -1      1852    8    0    1
 -2       827       794       978      3309      3801      3802
 -1      1853    8    0    1
 -2       898       899       979      3548      3803      3804
 -1      1854    8    0    1
 -2       898       979       956      3804      3805      3733
 -1      1855    8    0    1
 -2       899       900       980      3551      3806      3807
 -1      1856    8    0    1
 -2       899       980       979      3807      3808      3803
 -1      1857    8    0    1
 -2       900       901       981      3554      3809      3810
 -1      1858    8    0    1
 -2       900       981       980      3810      3811      3806
 -1      1859    8    0    1
 -2       901       902       982      3557      3812      3813
 -1      1860    8    0    1
 -2       901       982       981      3813      3814      3809
 -1      1861    8    0    1
 -2       902       903       983      3560      3815      3816
 -1      1862    8    0    1
 -2       902       983       982      3816      3817      3812
 -1      1863    8    0    1
 -2       903       904       984      3563      3818      3819
 -1      1864    8    0    1
 -2       903       984       983      3819      3820      3815
 -1      1865    8    0    1
 -2       904       905       985      3566      3821      3822
 -1      1866    8    0    1
 -2       904       985       984      3822      3823      3818
 -1      1867    8    0    1
 -2       905       906       986      3569      3824      3825
 -1      1868    8    0    1
 -2       905       986       985      3825      3826      3821
 -1      1869    8    0    1
 -2       906       907       987      3572      3827      3828
 -1      1870    8    0    1
 -2       906       987       986      3828      3829      3824
 -1      1871    8    0    1
 -2       907       908       988      3575      3830      3831
 -1      1872    8    0    1
 -2       907       988       987      3831      3832      3827
 -1      1873    8    0    1
 -2       908       909       989      3578      3833      3834
 -1      1874    8    0    1
 -2       908       989       988      3834      3835      3830
 -1      1875    8    0    1
 -2       909       910       990      3581      3836      3837
 -1      1876    8    0    1
 -2       909       990       989      3837      3838      3833
 -1      1877    8    0    1
 -2       910       911       991      3584      3839      3840
 -1      1878    8    0    1
 -2       910       991       990      3840      3841      3836
 -1      1879    8    0    1
 -2       911       912       992      3587      3842      3843
 -1      1880    8    0    1
 -2       911       992       991      3843      3844      3839
 -1      1881    8    0    1
 -2       912       913       993      3590      3845      3846
 -1      1882    8    0    1
 -2       912       993       992      3846      3847      3842
 -1      1883    8    0    1
 -2       913       914       994      3593      3848      3849
 -1      1884    8    0    1
 -2       913       994       993      3849      3850      3845
 -1      1885    8    0    1
 -2       914       915       995      3596      3851      3852
 -1      1886    8    0    1
 -2       914       995       994      3852      3853      3848
 -1      1887    8    0    1
 -2       915       916       996      3599      3854      3855
 -1      1888    8    0    1
 -2       915       996       995      3855      3856      3851
 -1      1889    8    0    1
 -2       928       755       864      3634      3857      3720
 -1      1890    8    0    1
 -2       925       894       976      3735      3795      3858
 -1      1891    8    0    1
 -2       978       794       848      3801      3737      3859
 -1      1892    8    0    1
 -2       864       755       835      3857      3336      3439
 -1      1893    8    0    1
 -2       923       920       997      3645      3860      3861
 -1      1894    8    0    1
 -2       923       997       950      3861      3862      3715
 -1      1895    8    0    1
 -2       919       871       998      3609      3863      3864
 -1      1896    8    0    1
 -2       867       866       999      3450      3865      3866
 -1      1897    8    0    1
 -2       866       950       999      3716      3867      3865
 -1      1898    8    0    1
 -2       853       937       939      3669      3868      3676
 -1      1899    8    0    1
 -2       828       729       795      3312      3614      3869
 -1      1900    8    0    1
 -2       862       895       929      3797      3870      3638
 -1      1901    8    0    1
 -2       861       843      1000      3430      3871      3872
 -1      1902    8    0    1
 -2       948       861      1000      3710      3872      3873
 -1      1903    8    0    1
 -2       843       928      1000      3635      3874      3871
 -1      1904    8    0    1
 -2       920       931      1001      3648      3875      3876
 -1      1905    8    0    1
 -2       997       920      1001      3860      3876      3877
 -1      1906    8    0    1
 -2       931       944      1001      3694      3878      3875
 -1      1907    8    0    1
 -2       922       842      1002      3700      3879      3880
 -1      1908    8    0    1
 -2       842       949      1002      3714      3881      3879
 -1      1909    8    0    1
 -2       831       828       795      3323      3869      3664
 -1      1910    8    0    1
 -2       871       925       976      3626      3858      3882
 -1      1911    8    0    1
 -2       850       924      1003      3639      3883      3884
 -1      1912    8    0    1
 -2       928       930      1004      3719      3885      3886
 -1      1913    8    0    1
 -2      1000       928      1004      3874      3886      3887
 -1      1914    8    0    1
 -2       930       951      1004      3718      3888      3885
 -1      1915    8    0    1
 -2       827       978       936      3802      3889      3667
 -1      1916    8    0    1
 -2       863       922      1005      3617      3890      3891
 -1      1917    8    0    1
 -2       944       863      1005      3692      3891      3892
 -1      1918    8    0    1
 -2       922      1002      1005      3880      3893      3890
 -1      1919    8    0    1
 -2       873       927      1006      3736      3894      3895
 -1      1920    8    0    1
 -2       874       873      1006      3471      3895      3896
 -1      1921    8    0    1
 -2       927       941      1006      3684      3897      3894
 -1      1922    8    0    1
 -2       844       929      1007      3637      3898      3899
 -1      1923    8    0    1
 -2       844      1007       943      3899      3900      3691
 -1      1924    8    0    1
 -2       850      1003       941      3884      3901      3685
 -1      1925    8    0    1
 -2       957       874      1006      3738      3896      3902
 -1      1926    8    0    1
 -2       935       921      1008      3662      3903      3904
 -1      1927    8    0    1
 -2       896       977      1007      3799      3905      3906
 -1      1928    8    0    1
 -2       945       858      1009      3697      3907      3908
 -1      1929    8    0    1
 -2       858       943      1009      3690      3909      3907
 -1      1930    8    0    1
 -2       938       856      1010      3672      3910      3911
 -1      1931    8    0    1
 -2       856       942      1010      3687      3912      3910
 -1      1932    8    0    1
 -2       895       896      1007      3539      3906      3913
 -1      1933    8    0    1
 -2       996       916       939      3854      3675      3914
 -1      1934    8    0    1
 -2       955       849       935      3730      3661      3915
 -1      1935    8    0    1
 -2       918       938      1011      3671      3916      3917
 -1      1936    8    0    1
 -2       917       940      1012      3678      3918      3919
 -1      1937    8    0    1
 -2       917      1012       951      3919      3920      3717
 -1      1938    8    0    1
 -2       998       871       976      3863      3882      3921
 -1      1939    8    0    1
 -2       860       947       954      3708      3728      3922
 -1      1940    8    0    1
 -2       867       999       952      3866      3923      3721
 -1      1941    8    0    1
 -2       932       919      1013      3652      3924      3925
 -1      1942    8    0    1
 -2       919       998      1013      3864      3926      3924
 -1      1943    8    0    1
 -2       921       936      1014      3666      3927      3928
 -1      1944    8    0    1
 -2       921      1014      1008      3928      3929      3903
 -1      1945    8    0    1
 -2      1003       924      1015      3883      3930      3931
 -1      1946    8    0    1
 -2       924       945      1015      3699      3932      3930
 -1      1947    8    0    1
 -2       926       918      1011      3630      3917      3933
 -1      1948    8    0    1
 -2       949       948      1016      3712      3934      3935
 -1      1949    8    0    1
 -2       948      1000      1017      3873      3936      3937
 -1      1950    8    0    1
 -2      1016       948      1017      3934      3937      3938
 -1      1951    8    0    1
 -2      1000      1004      1017      3887      3939      3936
 -1      1952    8    0    1
 -2       860       954      1018      3922      3940      3941
 -1      1953    8    0    1
 -2       942       860      1018      3688      3941      3942
 -1      1954    8    0    1
 -2       954       953      1018      3729      3943      3940
 -1      1955    8    0    1
 -2       855       926      1019      3629      3944      3945
 -1      1956    8    0    1
 -2       855      1019       934      3945      3946      3659
 -1      1957    8    0    1
 -2       950       997      1020      3862      3947      3948
 -1      1958    8    0    1
 -2      1007       977      1021      3905      3949      3950
 -1      1959    8    0    1
 -2      1007      1021       943      3950      3951      3900
 -1      1960    8    0    1
 -2       952       999      1022      3923      3952      3953
 -1      1961    8    0    1
 -2       940       955      1023      3732      3954      3955
 -1      1962    8    0    1
 -2       940      1023      1012      3955      3956      3918
 -1      1963    8    0    1
 -2       979       980      1024      3808      3957      3958
 -1      1964    8    0    1
 -2       958       957      1025      3742      3959      3960
 -1      1965    8    0    1
 -2       959       958      1026      3745      3961      3962
 -1      1966    8    0    1
 -2       958      1025      1026      3960      3963      3961
 -1      1967    8    0    1
 -2       960       959      1027      3748      3964      3965
 -1      1968    8    0    1
 -2       959      1026      1027      3962      3966      3964
 -1      1969    8    0    1
 -2       961       960      1028      3751      3967      3968
 -1      1970    8    0    1
 -2       960      1027      1028      3965      3969      3967
 -1      1971    8    0    1
 -2       962       961      1029      3754      3970      3971
 -1      1972    8    0    1
 -2       961      1028      1029      3968      3972      3970
 -1      1973    8    0    1
 -2       963       962      1030      3757      3973      3974
 -1      1974    8    0    1
 -2       962      1029      1030      3971      3975      3973
 -1      1975    8    0    1
 -2       964       963      1031      3760      3976      3977
 -1      1976    8    0    1
 -2       963      1030      1031      3974      3978      3976
 -1      1977    8    0    1
 -2       965       964      1032      3763      3979      3980
 -1      1978    8    0    1
 -2       964      1031      1032      3977      3981      3979
 -1      1979    8    0    1
 -2       966       965      1033      3766      3982      3983
 -1      1980    8    0    1
 -2       965      1032      1033      3980      3984      3982
 -1      1981    8    0    1
 -2       967       966      1034      3769      3985      3986
 -1      1982    8    0    1
 -2       966      1033      1034      3983      3987      3985
 -1      1983    8    0    1
 -2       968       967      1035      3772      3988      3989
 -1      1984    8    0    1
 -2       967      1034      1035      3986      3990      3988
 -1      1985    8    0    1
 -2       969       968      1036      3775      3991      3992
 -1      1986    8    0    1
 -2       968      1035      1036      3989      3993      3991
 -1      1987    8    0    1
 -2       970       969      1037      3778      3994      3995
 -1      1988    8    0    1
 -2       969      1036      1037      3992      3996      3994
 -1      1989    8    0    1
 -2       971       970      1038      3781      3997      3998
 -1      1990    8    0    1
 -2       970      1037      1038      3995      3999      3997
 -1      1991    8    0    1
 -2       972       971      1039      3784      4000      4001
 -1      1992    8    0    1
 -2       971      1038      1039      3998      4002      4000
 -1      1993    8    0    1
 -2       973       972      1040      3787      4003      4004
 -1      1994    8    0    1
 -2       972      1039      1040      4001      4005      4003
 -1      1995    8    0    1
 -2       974       973      1041      3790      4006      4007
 -1      1996    8    0    1
 -2       973      1040      1041      4004      4008      4006
 -1      1997    8    0    1
 -2       975       974      1042      3793      4009      4010
 -1      1998    8    0    1
 -2       974      1041      1042      4007      4011      4009
 -1      1999    8    0    1
 -2       976       975      1043      3796      4012      4013
 -1      2000    8    0    1
 -2       998       976      1043      3921      4013      4014
 -1      2001    8    0    1
 -2       975      1042      1043      4010      4015      4012
 -1      2002    8    0    1
 -2       980       981      1044      3811      4016      4017
 -1      2003    8    0    1
 -2       980      1044      1024      4017      4018      3957
 -1      2004    8    0    1
 -2       977       956      1045      3800      4019      4020
 -1      2005    8    0    1
 -2       977      1045      1021      4020      4021      3949
 -1      2006    8    0    1
 -2       956       979      1046      3805      4022      4023
 -1      2007    8    0    1
 -2      1045       956      1046      4019      4023      4024
 -1      2008    8    0    1
 -2       979      1024      1046      3958      4025      4022
 -1      2009    8    0    1
 -2       981       982      1047      3814      4026      4027
 -1      2010    8    0    1
 -2       981      1047      1044      4027      4028      4016
 -1      2011    8    0    1
 -2       982       983      1048      3817      4029      4030
 -1      2012    8    0    1
 -2       982      1048      1047      4030      4031      4026
 -1      2013    8    0    1
 -2       983       984      1049      3820      4032      4033
 -1      2014    8    0    1
 -2       983      1049      1048      4033      4034      4029
 -1      2015    8    0    1
 -2       984       985      1050      3823      4035      4036
 -1      2016    8    0    1
 -2       984      1050      1049      4036      4037      4032
 -1      2017    8    0    1
 -2       985       986      1051      3826      4038      4039
 -1      2018    8    0    1
 -2       985      1051      1050      4039      4040      4035
 -1      2019    8    0    1
 -2       986       987      1052      3829      4041      4042
 -1      2020    8    0    1
 -2       986      1052      1051      4042      4043      4038
 -1      2021    8    0    1
 -2       987       988      1053      3832      4044      4045
 -1      2022    8    0    1
 -2       987      1053      1052      4045      4046      4041
 -1      2023    8    0    1
 -2       988       989      1054      3835      4047      4048
 -1      2024    8    0    1
 -2       988      1054      1053      4048      4049      4044
 -1      2025    8    0    1
 -2       989       990      1055      3838      4050      4051
 -1      2026    8    0    1
 -2       989      1055      1054      4051      4052      4047
 -1      2027    8    0    1
 -2       990       991      1056      3841      4053      4054
 -1      2028    8    0    1
 -2       990      1056      1055      4054      4055      4050
 -1      2029    8    0    1
 -2       991       992      1057      3844      4056      4057
 -1      2030    8    0    1
 -2       991      1057      1056      4057      4058      4053
 -1      2031    8    0    1
 -2       992       993      1058      3847      4059      4060
 -1      2032    8    0    1
 -2       992      1058      1057      4060      4061      4056
 -1      2033    8    0    1
 -2       993       994      1059      3850      4062      4063
 -1      2034    8    0    1
 -2       993      1059      1058      4063      4064      4059
 -1      2035    8    0    1
 -2       994       995      1060      3853      4065      4066
 -1      2036    8    0    1
 -2       994      1060      1059      4066      4067      4062
 -1      2037    8    0    1
 -2       995       996      1061      3856      4068      4069
 -1      2038    8    0    1
 -2       995      1061      1060      4069      4070      4065
 -1      2039    8    0    1
 -2       999       950      1062      3867      4071      4072
 -1      2040    8    0    1
 -2       950      1020      1062      3948      4073      4071
 -1      2041    8    0    1
 -2      1011       938      1063      3916      4074      4075
 -1      2042    8    0    1
 -2       957      1006      1064      3902      4076      4077
 -1      2043    8    0    1
 -2      1025       957      1064      3959      4077      4078
 -1      2044    8    0    1
 -2      1006       941      1064      3897      4079      4076
 -1      2045    8    0    1
 -2      1019       926      1011      3944      3933      4080
 -1      2046    8    0    1
 -2       941      1003      1064      3901      4081      4079
 -1      2047    8    0    1
 -2       895      1007       929      3913      3898      3870
 -1      2048    8    0    1
 -2      1019      1011      1014      4080      4082      4083
 -1      2049    8    0    1
 -2       946       932      1065      3705      4084      4085
 -1      2050    8    0    1
 -2       932      1013      1065      3925      4086      4084
 -1      2051    8    0    1
 -2       937       946      1066      3704      4087      4088
 -1      2052    8    0    1
 -2      1002       949      1067      3881      4089      4090
 -1      2053    8    0    1
 -2       949      1016      1067      3935      4091      4089
 -1      2054    8    0    1
 -2       953       952      1068      3725      4092      4093
 -1      2055    8    0    1
 -2       952      1022      1068      3953      4094      4092
 -1      2056    8    0    1
 -2       955       935      1069      3915      4095      4096
 -1      2057    8    0    1
 -2      1023       955      1069      3954      4096      4097
 -1      2058    8    0    1
 -2       935      1008      1069      3904      4098      4095
 -1      2059    8    0    1
 -2       939       937       996      3868      4099      3914
 -1      2060    8    0    1
 -2       937      1066       996      4088      4100      4099
 -1      2061    8    0    1
 -2      1066       946      1065      4087      4085      4101
 -1      2062    8    0    1
 -2       996      1066      1061      4100      4102      4068
 -1      2063    8    0    1
 -2      1009       943      1021      3909      3951      4103
 -1      2064    8    0    1
 -2       936       978      1019      3889      4104      4105
 -1      2065    8    0    1
 -2      1022       999      1062      3952      4072      4106
 -1      2066    8    0    1
 -2      1020       997      1070      3947      4107      4108
 -1      2067    8    0    1
 -2       997      1001      1070      3877      4109      4107
 -1      2068    8    0    1
 -2       998      1043      1071      4014      4110      4111
 -1      2069    8    0    1
 -2       998      1071      1013      4111      4112      3926
 -1      2070    8    0    1
 -2      1014      1011      1072      4082      4113      4114
 -1      2071    8    0    1
 -2      1008      1014      1072      3929      4114      4115
 -1      2072    8    0    1
 -2      1011      1063      1072      4075      4116      4113
 -1      2073    8    0    1
 -2       978       848       934      3859      3658      4117
 -1      2074    8    0    1
 -2       945      1009      1073      3908      4118      4119
 -1      2075    8    0    1
 -2       945      1073      1015      4119      4120      3932
 -1      2076    8    0    1
 -2      1067      1016      1074      4091      4121      4122
 -1      2077    8    0    1
 -2      1010       942      1075      3912      4123      4124
 -1      2078    8    0    1
 -2       942      1018      1075      3942      4125      4123
 -1      2079    8    0    1
 -2       944      1005      1001      3892      4126      3878
 -1      2080    8    0    1
 -2      1063       938      1010      4074      3911      4127
 -1      2081    8    0    1
 -2      1004       951      1017      3888      4128      3939
 -1      2082    8    0    1
 -2      1008      1072      1076      4115      4129      4130
 -1      2083    8    0    1
 -2      1008      1076      1069      4130      4131      4098
 -1      2084    8    0    1
 -2      1014       936      1019      3927      4105      4083
 -1      2085    8    0    1
 -2      1061      1066      1065      4102      4101      4132
 -1      2086    8    0    1
 -2      1019       978       934      4104      4117      3946
 -1      2087    8    0    1
 -2      1074      1016      1077      4121      4133      4134
 -1      2088    8    0    1
 -2      1077      1016      1017      4133      3938      4135
 -1      2089    8    0    1
 -2      1017       951      1077      4128      4136      4135
 -1      2090    8    0    1
 -2      1002      1067      1070      4090      4137      4138
 -1      2091    8    0    1
 -2      1018       953      1068      3943      4093      4139
 -1      2092    8    0    1
 -2      1077       951      1012      4136      3920      4140
 -1      2093    8    0    1
 -2      1064      1003      1078      4081      4141      4142
 -1      2094    8    0    1
 -2      1025      1064      1078      4078      4142      4143
 -1      2095    8    0    1
 -2      1003      1015      1078      3931      4144      4141
 -1      2096    8    0    1
 -2      1005      1002      1070      3893      4138      4145
 -1      2097    8    0    1
 -2      1022      1062      1079      4106      4146      4147
 -1      2098    8    0    1
 -2      1070      1001      1005      4109      4126      4145
 -1      2099    8    0    1
 -2      1012      1023      1080      3956      4148      4149
 -1      2100    8    0    1
 -2      1012      1080      1077      4149      4150      4140
 -1      2101    8    0    1
 -2      1021      1045      1081      4021      4151      4152
 -1      2102    8    0    1
 -2      1021      1081      1009      4152      4153      4103
 -1      2103    8    0    1
 -2      1072      1063      1082      4116      4154      4155
 -1      2104    8    0    1
 -2      1072      1082      1076      4155      4156      4129
 -1      2105    8    0    1
 -2      1024      1044      1083      4018      4157      4158
 -1      2106    8    0    1
 -2      1027      1026      1084      3966      4159      4160
 -1      2107    8    0    1
 -2      1028      1027      1085      3969      4161      4162
 -1      2108    8    0    1
 -2      1027      1084      1085      4160      4163      4161
 -1      2109    8    0    1
 -2      1029      1028      1086      3972      4164      4165
 -1      2110    8    0    1
 -2      1028      1085      1086      4162      4166      4164
 -1      2111    8    0    1
 -2      1030      1029      1087      3975      4167      4168
 -1      2112    8    0    1
 -2      1029      1086      1087      4165      4169      4167
 -1      2113    8    0    1
 -2      1031      1030      1088      3978      4170      4171
 -1      2114    8    0    1
 -2      1030      1087      1088      4168      4172      4170
 -1      2115    8    0    1
 -2      1032      1031      1089      3981      4173      4174
 -1      2116    8    0    1
 -2      1031      1088      1089      4171      4175      4173
 -1      2117    8    0    1
 -2      1033      1032      1090      3984      4176      4177
 -1      2118    8    0    1
 -2      1032      1089      1090      4174      4178      4176
 -1      2119    8    0    1
 -2      1034      1033      1091      3987      4179      4180
 -1      2120    8    0    1
 -2      1033      1090      1091      4177      4181      4179
 -1      2121    8    0    1
 -2      1035      1034      1092      3990      4182      4183
 -1      2122    8    0    1
 -2      1034      1091      1092      4180      4184      4182
 -1      2123    8    0    1
 -2      1036      1035      1093      3993      4185      4186
 -1      2124    8    0    1
 -2      1035      1092      1093      4183      4187      4185
 -1      2125    8    0    1
 -2      1037      1036      1094      3996      4188      4189
 -1      2126    8    0    1
 -2      1036      1093      1094      4186      4190      4188
 -1      2127    8    0    1
 -2      1038      1037      1095      3999      4191      4192
 -1      2128    8    0    1
 -2      1037      1094      1095      4189      4193      4191
 -1      2129    8    0    1
 -2      1039      1038      1096      4002      4194      4195
 -1      2130    8    0    1
 -2      1038      1095      1096      4192      4196      4194
 -1      2131    8    0    1
 -2      1040      1039      1097      4005      4197      4198
 -1      2132    8    0    1
 -2      1039      1096      1097      4195      4199      4197
 -1      2133    8    0    1
 -2      1041      1040      1098      4008      4200      4201
 -1      2134    8    0    1
 -2      1040      1097      1098      4198      4202      4200
 -1      2135    8    0    1
 -2      1042      1041      1099      4011      4203      4204
 -1      2136    8    0    1
 -2      1041      1098      1099      4201      4205      4203
 -1      2137    8    0    1
 -2      1043      1042      1100      4015      4206      4207
 -1      2138    8    0    1
 -2      1071      1043      1100      4110      4207      4208
 -1      2139    8    0    1
 -2      1042      1099      1100      4204      4209      4206
 -1      2140    8    0    1
 -2      1048      1049      1101      4034      4210      4211
 -1      2141    8    0    1
 -2      1049      1050      1102      4037      4212      4213
 -1      2142    8    0    1
 -2      1049      1102      1101      4213      4214      4210
 -1      2143    8    0    1
 -2      1050      1051      1103      4040      4215      4216
 -1      2144    8    0    1
 -2      1050      1103      1102      4216      4217      4212
 -1      2145    8    0    1
 -2      1051      1052      1104      4043      4218      4219
 -1      2146    8    0    1
 -2      1051      1104      1103      4219      4220      4215
 -1      2147    8    0    1
 -2      1052      1053      1105      4046      4221      4222
 -1      2148    8    0    1
 -2      1052      1105      1104      4222      4223      4218
 -1      2149    8    0    1
 -2      1053      1054      1106      4049      4224      4225
 -1      2150    8    0    1
 -2      1053      1106      1105      4225      4226      4221
 -1      2151    8    0    1
 -2      1054      1055      1107      4052      4227      4228
 -1      2152    8    0    1
 -2      1054      1107      1106      4228      4229      4224
 -1      2153    8    0    1
 -2      1055      1056      1108      4055      4230      4231
 -1      2154    8    0    1
 -2      1055      1108      1107      4231      4232      4227
 -1      2155    8    0    1
 -2      1056      1057      1109      4058      4233      4234
 -1      2156    8    0    1
 -2      1056      1109      1108      4234      4235      4230
 -1      2157    8    0    1
 -2      1057      1058      1110      4061      4236      4237
 -1      2158    8    0    1
 -2      1057      1110      1109      4237      4238      4233
 -1      2159    8    0    1
 -2      1058      1059      1111      4064      4239      4240
 -1      2160    8    0    1
 -2      1058      1111      1110      4240      4241      4236
 -1      2161    8    0    1
 -2      1059      1060      1112      4067      4242      4243
 -1      2162    8    0    1
 -2      1059      1112      1111      4243      4244      4239
 -1      2163    8    0    1
 -2      1060      1061      1113      4070      4245      4246
 -1      2164    8    0    1
 -2      1060      1113      1112      4246      4247      4242
 -1      2165    8    0    1
 -2      1020      1070      1114      4108      4248      4249
 -1      2166    8    0    1
 -2      1062      1020      1114      4073      4249      4250
 -1      2167    8    0    1
 -2      1070      1067      1114      4137      4251      4248
 -1      2168    8    0    1
 -2      1044      1047      1115      4028      4252      4253
 -1      2169    8    0    1
 -2      1044      1115      1083      4253      4254      4157
 -1      2170    8    0    1
 -2      1026      1025      1116      3963      4255      4256
 -1      2171    8    0    1
 -2      1026      1116      1084      4256      4257      4159
 -1      2172    8    0    1
 -2      1023      1069      1117      4097      4258      4259
 -1      2173    8    0    1
 -2      1080      1023      1117      4148      4259      4260
 -1      2174    8    0    1
 -2      1069      1076      1117      4131      4261      4258
 -1      2175    8    0    1
 -2      1063      1010      1118      4127      4262      4263
 -1      2176    8    0    1
 -2      1082      1063      1118      4154      4263      4264
 -1      2177    8    0    1
 -2      1010      1075      1118      4124      4265      4262
 -1      2178    8    0    1
 -2      1067      1074      1114      4122      4266      4251
 -1      2179    8    0    1
 -2      1061      1065      1119      4132      4267      4268
 -1      2180    8    0    1
 -2      1113      1061      1119      4245      4268      4269
 -1      2181    8    0    1
 -2      1065      1013      1119      4086      4270      4267
 -1      2182    8    0    1
 -2      1047      1048      1120      4031      4271      4272
 -1      2183    8    0    1
 -2      1048      1101      1120      4211      4273      4271
 -1      2184    8    0    1
 -2      1018      1068      1075      4139      4274      4125
 -1      2185    8    0    1
 -2      1068      1022      1121      4094      4275      4276
 -1      2186    8    0    1
 -2      1022      1079      1121      4147      4277      4275
 -1      2187    8    0    1
 -2      1074      1077      1080      4134      4150      4278
 -1      2188    8    0    1
 -2      1081      1045      1122      4151      4279      4280
 -1      2189    8    0    1
 -2      1045      1046      1122      4024      4281      4279
 -1      2190    8    0    1
 -2      1073      1009      1081      4118      4153      4282
 -1      2191    8    0    1
 -2      1075      1068      1121      4274      4276      4283
 -1      2192    8    0    1
 -2      1046      1024      1123      4025      4284      4285
 -1      2193    8    0    1
 -2      1024      1083      1123      4158      4286      4284
 -1      2194    8    0    1
 -2      1074      1080      1124      4278      4287      4288
 -1      2195    8    0    1
 -2      1074      1124      1114      4288      4289      4266
 -1      2196    8    0    1
 -2      1062      1114      1124      4250      4289      4290
 -1      2197    8    0    1
 -2      1115      1047      1120      4252      4272      4291
 -1      2198    8    0    1
 -2      1116      1025      1078      4255      4143      4292
 -1      2199    8    0    1
 -2      1013      1071      1119      4112      4293      4270
 -1      2200    8    0    1
 -2      1078      1015      1125      4144      4294      4295
 -1      2201    8    0    1
 -2      1078      1125      1116      4295      4296      4292
 -1      2202    8    0    1
 -2      1125      1015      1073      4294      4120      4297
 -1      2203    8    0    1
 -2      1085      1084      1126      4163      4298      4299
 -1      2204    8    0    1
 -2      1102      1103      1127      4217      4300      4301
 -1      2205    8    0    1
 -2      1084      1116      1128      4257      4302      4303
 -1      2206    8    0    1
 -2      1126      1084      1128      4298      4303      4304
 -1      2207    8    0    1
 -2      1116      1125      1128      4296      4305      4302
 -1      2208    8    0    1
 -2      1086      1085      1115      4166      4306      4307
 -1      2209    8    0    1
 -2      1087      1086      1120      4169      4308      4309
 -1      2210    8    0    1
 -2      1088      1087      1101      4172      4310      4311
 -1      2211    8    0    1
 -2      1090      1089      1127      4178      4312      4313
 -1      2212    8    0    1
 -2      1091      1090      1129      4181      4314      4315
 -1      2213    8    0    1
 -2      1092      1091      1105      4184      4316      4317
 -1      2214    8    0    1
 -2      1093      1092      1106      4187      4318      4319
 -1      2215    8    0    1
 -2      1094      1093      1107      4190      4320      4321
 -1      2216    8    0    1
 -2      1095      1094      1108      4193      4322      4323
 -1      2217    8    0    1
 -2      1096      1095      1109      4196      4324      4325
 -1      2218    8    0    1
 -2      1097      1096      1110      4199      4326      4327
 -1      2219    8    0    1
 -2      1098      1097      1111      4202      4328      4329
 -1      2220    8    0    1
 -2      1099      1098      1112      4205      4330      4331
 -1      2221    8    0    1
 -2      1103      1104      1129      4220      4332      4333
 -1      2222    8    0    1
 -2      1101      1102      1088      4214      4334      4311
 -1      2223    8    0    1
 -2      1124      1080      1117      4287      4260      4335
 -1      2224    8    0    1
 -2      1105      1106      1092      4226      4318      4317
 -1      2225    8    0    1
 -2      1106      1107      1093      4229      4320      4319
 -1      2226    8    0    1
 -2      1107      1108      1094      4232      4322      4321
 -1      2227    8    0    1
 -2      1108      1109      1095      4235      4324      4323
 -1      2228    8    0    1
 -2      1109      1110      1096      4238      4326      4325
 -1      2229    8    0    1
 -2      1110      1111      1097      4241      4328      4327
 -1      2230    8    0    1
 -2      1111      1112      1098      4244      4330      4329
 -1      2231    8    0    1
 -2      1112      1113      1099      4247      4336      4331
 -1      2232    8    0    1
 -2      1120      1101      1087      4273      4310      4309
 -1      2233    8    0    1
 -2      1076      1082      1130      4156      4337      4338
 -1      2234    8    0    1
 -2      1076      1130      1117      4338      4339      4261
 -1      2235    8    0    1
 -2      1115      1120      1086      4291      4308      4307
 -1      2236    8    0    1
 -2      1125      1073      1131      4297      4340      4341
 -1      2237    8    0    1
 -2      1125      1131      1128      4341      4342      4305
 -1      2238    8    0    1
 -2      1121      1079      1130      4277      4343      4344
 -1      2239    8    0    1
 -2      1073      1081      1131      4282      4345      4340
 -1      2240    8    0    1
 -2      1075      1121      1118      4283      4346      4265
 -1      2241    8    0    1
 -2      1118      1121      1082      4346      4347      4264
 -1      2242    8    0    1
 -2      1081      1122      1131      4280      4348      4345
 -1      2243    8    0    1
 -2      1105      1091      1104      4316      4349      4223
 -1      2244    8    0    1
 -2      1123      1083      1126      4286      4350      4351
 -1      2245    8    0    1
 -2      1124      1117      1130      4335      4339      4352
 -1      2246    8    0    1
 -2      1090      1127      1129      4313      4353      4314
 -1      2247    8    0    1
 -2      1089      1088      1102      4175      4334      4354
 -1      2248    8    0    1
 -2      1099      1113      1119      4336      4269      4355
 -1      2249    8    0    1
 -2      1103      1129      1127      4333      4353      4300
 -1      2250    8    0    1
 -2      1082      1121      1130      4347      4344      4337
 -1      2251    8    0    1
 -2      1062      1124      1079      4290      4356      4146
 -1      2252    8    0    1
 -2      1079      1124      1130      4356      4352      4343
 -1      2253    8    0    1
 -2      1115      1085      1083      4306      4357      4254
 -1      2254    8    0    1
 -2      1046      1123      1122      4285      4358      4281
 -1      2255    8    0    1
 -2      1126      1128      1123      4304      4359      4351
 -1      2256    8    0    1
 -2      1119      1071      1100      4293      4208      4360
 -1      2257    8    0    1
 -2      1089      1102      1127      4354      4301      4312
 -1      2258    8    0    1
 -2      1083      1085      1126      4357      4299      4350
 -1      2259    8    0    1
 -2      1128      1131      1123      4342      4361      4359
 -1      2260    8    0    1
 -2      1104      1091      1129      4349      4315      4332
 -1      2261    8    0    1
 -2      1123      1131      1122      4361      4348      4358
 -1      2262    8    0    1
 -2      1099      1119      1100      4355      4360      4209
 -3
    1PSTEP                         1           1           1          
  100CL  101 1.000000000        4361                     0    1           1
 -4  DISP        4    1
 -5  D1          1    2    1    0
 -5  D2          1    2    2    0
 -5  D3          1    2    3    0
 -5  ALL         1    2    0    0    1ALL
 -1         1 6.85247E-03-6.88087E-04-2.21045E-14
 -1         2 7.61751E-03-4.87899E-05-2.37820E-14
 -1         3 1.51366E-02 4.70160E-04-1.34870E-13
 -1         4 1.52636E-02-9.60982E-04-1.40534E-13
 -1         5 0.00000E+00 0.00000E+00 0.00000E+00
 -1         6 0.00000E+00 0.00000E+00 0.00000E+00
 -1         7 0.00000E+00 0.00000E+00 0.00000E+00
 -1         8 0.00000E+00 0.00000E+00 0.00000E+00
 -1         9 0.00000E+00 0.00000E+00 0.00000E+00
 -1        10 0.00000E+00 0.00000E+00 0.00000E+00
 -1        11 0.00000E+00 0.00000E+00 0.00000E+00
 -1        12 0.00000E+00 0.00000E+00 0.00000E+00
 -1        13 0.00000E+00 0.00000E+00 0.00000E+00
 -1        14 0.00000E+00 0.00000E+00 0.00000E+00
 -1        15 0.00000E+00 0.00000E+00 0.00000E+00
 -1        16 0.00000E+00 0.00000E+00 0.00000E+00
 -1        17 0.00000E+00 0.00000E+00 0.00000E+00
 -1        18 0.00000E+00 0.00000E+00 0.00000E+00
 -1        19 0.00000E+00 0.00000E+00 0.00000E+00
 -1        20 0.00000E+00 0.00000E+00 0.00000E+00
 -1        21 0.00000E+00 0.00000E+00 0.00000E+00
 -1        22 0.00000E+00 0.00000E+00 0.00000E+00
 -1        23 4.09467E-04-2.50909E-04 2.77793E-17
 -1        24 7.05911E-04-3.79317E-04-9.50303E-17
 -1        25 9.85369E-04-4.64968E-04-3.64112E-16
 -1        26 1.26378E-03-5.23054E-04-7.75333E-16
 -1        27 1.54639E-03-5.63429E-04-1.32636E-15
 -1        28 1.83635E-03-5.92555E-04-2.01338E-15
 -1        29 2.13590E-03-6.15812E-04-2.83333E-15
 -1        30 2.44672E-03-6.38342E-04-3.78667E-15
 -1        31 2.76978E-03-6.65487E-04-4.87377E-15
 -1        32 3.10498E-03-7.02890E-04-6.09255E-15
 -1        33 3.45035E-03-7.56131E-04-7.43835E-15
 -1        34 3.80129E-03-8.29621E-04-8.90410E-15
 -1        35 4.14998E-03-9.24516E-04-1.04938E-14
 -1        36 4.48607E-03-1.03587E-03-1.22094E-14
 -1        37 4.79945E-03-1.15027E-03-1.40519E-14
 -1        38 5.08517E-03-1.24658E-03-1.60292E-14
 -1        39 5.34806E-03-1.30191E-03-1.81388E-14
 -1        40 5.60302E-03-1.30148E-03-2.03827E-14
 -1        41 5.86889E-03-1.24634E-03-2.27537E-14
 -1        42 6.15967E-03-1.15288E-03-2.52386E-14
 -1        43 6.47902E-03-1.04447E-03-2.78344E-14
 -1        44 6.82127E-03-9.41813E-04-3.05412E-14
 -1        45 7.17622E-03-8.57617E-04-3.33630E-14
 -1        46 7.53394E-03-7.96440E-04-3.62944E-14
 -1        47 7.88721E-03-7.57238E-04-3.93262E-14
 -1        48 8.23200E-03-7.36220E-04-4.24490E-14
 -1        49 8.56680E-03-7.28878E-04-4.56640E-14
 -1        50 8.89175E-03-7.31072E-04-4.89780E-14
 -1        51 9.20784E-03-7.39452E-04-5.23948E-14
 -1        52 9.51643E-03-7.51511E-04-5.59037E-14
 -1        53 9.81893E-03-7.65475E-04-5.94943E-14
 -1        54 1.01166E-02-7.80154E-04-6.31749E-14
 -1        55 1.04107E-02-7.94791E-04-6.69379E-14
 -1        56 1.07019E-02-8.08940E-04-7.07702E-14
 -1        57 1.09912E-02-8.22368E-04-7.46703E-14
 -1        58 1.12790E-02-8.34985E-04-7.86455E-14
 -1        59 1.15658E-02-8.46789E-04-8.26872E-14
 -1        60 1.18519E-02-8.57834E-04-8.67893E-14
 -1        61 1.21376E-02-8.68203E-04-9.09565E-14
 -1        62 1.24231E-02-8.77988E-04-9.51955E-14
 -1        63 1.27084E-02-8.87285E-04-9.95081E-14
 -1        64 1.29937E-02-8.96185E-04-1.03892E-13
 -1        65 1.32790E-02-9.04773E-04-1.08332E-13
 -1        66 1.35644E-02-9.13122E-04-1.12830E-13
 -1        67 1.38498E-02-9.21298E-04-1.17387E-13
 -1        68 1.41353E-02-9.29361E-04-1.21978E-13
 -1        69 1.44209E-02-9.37361E-04-1.26607E-13
 -1        70 1.47065E-02-9.45345E-04-1.31284E-13
 -1        71 1.49922E-02-9.53349E-04-1.36011E-13
 -1        72 4.11715E-04 2.51728E-04 7.61279E-17
 -1        73 7.05783E-04 3.82283E-04 3.89669E-17
 -1        74 9.85840E-04 4.67291E-04-1.10755E-16
 -1        75 1.26432E-03 5.25644E-04-3.78071E-16
 -1        76 1.54665E-03 5.66484E-04-7.64759E-16
 -1        77 1.83594E-03 5.96209E-04-1.27256E-15
 -1        78 2.13427E-03 6.20127E-04-1.90371E-15
 -1        79 2.44306E-03 6.43236E-04-2.66005E-15
 -1        80 2.76292E-03 6.70592E-04-3.54223E-15
 -1        81 3.09332E-03 7.07325E-04-4.55210E-15
 -1        82 3.43200E-03 7.58221E-04-5.68759E-15
 -1        83 3.77430E-03 8.26643E-04-6.94289E-15
 -1        84 4.11298E-03 9.12717E-04-8.32105E-15
 -1        85 4.43900E-03 1.01108E-03-9.82757E-15
 -1        86 4.74411E-03 1.10932E-03-1.14721E-14
 -1        87 5.02483E-03 1.18912E-03-1.32596E-14
 -1        88 5.28589E-03 1.23137E-03-1.51890E-14
 -1        89 5.54017E-03 1.22402E-03-1.72609E-14
 -1        90 5.80376E-03 1.16791E-03-1.94772E-14
 -1        91 6.08889E-03 1.07640E-03-2.18270E-14
 -1        92 6.39947E-03 9.69034E-04-2.43130E-14
 -1        93 6.73140E-03 8.63906E-04-2.69200E-14
 -1        94 7.07635E-03 7.72973E-04-2.96494E-14
 -1        95 7.42557E-03 7.01368E-04-3.24909E-14
 -1        96 7.77233E-03 6.49134E-04-3.54359E-14
 -1        97 8.11249E-03 6.13514E-04-3.84815E-14
 -1        98 8.44421E-03 5.90764E-04-4.16323E-14
 -1        99 8.76720E-03 5.77224E-04-4.48889E-14
 -1       100 9.08210E-03 5.69805E-04-4.82390E-14
 -1       101 9.39001E-03 5.66122E-04-5.16879E-14
 -1       102 9.69214E-03 5.64442E-04-5.52180E-14
 -1       103 9.98965E-03 5.63578E-04-5.88215E-14
 -1       104 1.02836E-02 5.62758E-04-6.24999E-14
 -1       105 1.05748E-02 5.61517E-04-6.62624E-14
 -1       106 1.08641E-02 5.59605E-04-7.01165E-14
 -1       107 1.11519E-02 5.56915E-04-7.40507E-14
 -1       108 1.14387E-02 5.53437E-04-7.80549E-14
 -1       109 1.17248E-02 5.49214E-04-8.21546E-14
 -1       110 1.20105E-02 5.44325E-04-8.63400E-14
 -1       111 1.22960E-02 5.38858E-04-9.05954E-14
 -1       112 1.25814E-02 5.32906E-04-9.48963E-14
 -1       113 1.28666E-02 5.26560E-04-9.92358E-14
 -1       114 1.31520E-02 5.19902E-04-1.03622E-13
 -1       115 1.34373E-02 5.13006E-04-1.08056E-13
 -1       116 1.37227E-02 5.05938E-04-1.12528E-13
 -1       117 1.40082E-02 4.98756E-04-1.17028E-13
 -1       118 1.42938E-02 4.91512E-04-1.21553E-13
 -1       119 1.45795E-02 4.84251E-04-1.26086E-13
 -1       120 1.48652E-02 4.77010E-04-1.30603E-13
 -1       121 1.51437E-02 3.85876E-04-1.35225E-13
 -1       122 1.51507E-02 3.01574E-04-1.35613E-13
 -1       123 1.51578E-02 2.17227E-04-1.35979E-13
 -1       124 1.51648E-02 1.32821E-04-1.36340E-13
 -1       125 1.51719E-02 4.83589E-05-1.36701E-13
 -1       126 1.51790E-02-3.47199E-05-1.37065E-13
 -1       127 1.51862E-02-1.19268E-04-1.37438E-13
 -1       128 1.51936E-02-2.03838E-04-1.37808E-13
 -1       129 1.52011E-02-2.88416E-04-1.38181E-13
 -1       130 1.52087E-02-3.72986E-04-1.38552E-13
 -1       131 1.52164E-02-4.57534E-04-1.38922E-13
 -1       132 1.52241E-02-5.40612E-04-1.39278E-13
 -1       133 1.52320E-02-6.25074E-04-1.39608E-13
 -1       134 1.52400E-02-7.09478E-04-1.39892E-13
 -1       135 1.52479E-02-7.93824E-04-1.40128E-13
 -1       136 1.52559E-02-8.78127E-04-1.40333E-13
 -1       137 7.55952E-03 1.33479E-04-2.35279E-14
 -1       138 7.41648E-03 2.91373E-04-2.30659E-14
 -1       139 7.15468E-03 4.57891E-04-2.23038E-14
 -1       140 6.84557E-03 5.86461E-04-2.14567E-14
 -1       141 6.48055E-03 6.89409E-04-2.05046E-14
 -1       142 6.05338E-03 7.64961E-04-1.94459E-14
 -1       143 5.58755E-03 8.03864E-04-1.83440E-14
 -1       144 5.11725E-03 8.01022E-04-1.72887E-14
 -1       145 4.63920E-03 7.52717E-04-1.62575E-14
 -1       146 4.22339E-03 6.69748E-04-1.54103E-14
 -1       147 3.87612E-03 5.60659E-04-1.47370E-14
 -1       148 3.57865E-03 4.19701E-04-1.41938E-14
 -1       149 3.36473E-03 2.56981E-04-1.38359E-14
 -1       150 3.24593E-03 7.94793E-05-1.36786E-14
 -1       151 3.23221E-03-9.09959E-05-1.37259E-14
 -1       152 3.32077E-03-2.72448E-04-1.39829E-14
 -1       153 3.52055E-03-4.49084E-04-1.44653E-14
 -1       154 3.79451E-03-5.97373E-04-1.50916E-14
 -1       155 4.17813E-03-7.33837E-04-1.59554E-14
 -1       156 4.58613E-03-8.26167E-04-1.68649E-14
 -1       157 5.05001E-03-8.83704E-04-1.79064E-14
 -1       158 5.55811E-03-8.97667E-04-1.90736E-14
 -1       159 6.00397E-03-8.68553E-04-2.01050E-14
 -1       160 6.44154E-03-7.99394E-04-2.11293E-14
 -1       161 7.17241E-03-5.55553E-04-2.28617E-14
 -1       162 7.41420E-03-4.01420E-04-2.34216E-14
 -1       163 7.56603E-03-2.30990E-04-2.37407E-14
 -1       164 2.44103E-04-1.15771E-04-3.31732E-17
 -1       165 2.28711E-04-8.33865E-05-5.14420E-17
 -1       166 2.21552E-04-6.10095E-05-6.08305E-17
 -1       167 2.16909E-04-4.39346E-05-6.51504E-17
 -1       168 2.13584E-04-3.04688E-05-6.69054E-17
 -1       169 2.11190E-04-1.90610E-05-6.71087E-17
 -1       170 2.09753E-04-9.11618E-06-6.62244E-17
 -1       171 2.09293E-04 1.28382E-07-6.46862E-17
 -1       172 2.09819E-04 9.41095E-06-6.24975E-17
 -1       173 2.11311E-04 1.94659E-05-5.93635E-17
 -1       174 2.13690E-04 3.08370E-05-5.49657E-17
 -1       175 2.17080E-04 4.47477E-05-4.83961E-17
 -1       176 2.21743E-04 6.21306E-05-3.87907E-17
 -1       177 2.28868E-04 8.49104E-05-2.35001E-17
 -1       178 2.43036E-04 1.17955E-04 8.13152E-19
 -1       179 3.00443E-04 1.75988E-04 2.77827E-17
 -1       180 4.74810E-04-2.46350E-04-8.85387E-17
 -1       181 7.80102E-04-3.52160E-04-3.09824E-16
 -1       182 1.07433E-03-4.22772E-04-6.66249E-16
 -1       183 1.36589E-03-4.70490E-04-1.15802E-15
 -1       184 1.65914E-03-5.03127E-04-1.78310E-15
 -1       185 1.95701E-03-5.26675E-04-2.53941E-15
 -1       186 2.26150E-03-5.46475E-04-3.42705E-15
 -1       187 2.57395E-03-5.67895E-04-4.44430E-15
 -1       188 2.89497E-03-5.96674E-04-5.59039E-15
 -1       189 3.22421E-03-6.38878E-04-6.86395E-15
 -1       190 3.55997E-03-7.00251E-04-8.26015E-15
 -1       191 3.89887E-03-7.84609E-04-9.77806E-15
 -1       192 4.23577E-03-8.91092E-04-1.14209E-14
 -1       193 4.56456E-03-1.01085E-03-1.31885E-14
 -1       194 4.88020E-03-1.12526E-03-1.50866E-14
 -1       195 5.18182E-03-1.20895E-03-1.71169E-14
 -1       196 5.47461E-03-1.23924E-03-1.92827E-14
 -1       197 5.76837E-03-1.20766E-03-2.15785E-14
 -1       198 6.07261E-03-1.12489E-03-2.39975E-14
 -1       199 6.39187E-03-1.01475E-03-2.65325E-14
 -1       200 6.72470E-03-9.02412E-04-2.91812E-14
 -1       201 7.06591E-03-8.05677E-04-3.19397E-14
 -1       202 7.40950E-03-7.32717E-04-3.48101E-14
 -1       203 7.75063E-03-6.84216E-04-3.77825E-14
 -1       204 8.08619E-03-6.56749E-04-4.08530E-14
 -1       205 8.41469E-03-6.45462E-04-4.40189E-14
 -1       206 8.73579E-03-6.45623E-04-4.72789E-14
 -1       207 9.04992E-03-6.53297E-04-5.06359E-14
 -1       208 9.35787E-03-6.65496E-04-5.40888E-14
 -1       209 9.66057E-03-6.80090E-04-5.76318E-14
 -1       210 9.95898E-03-6.95642E-04-6.12567E-14
 -1       211 1.02540E-02-7.11234E-04-6.49660E-14
 -1       212 1.05463E-02-7.26320E-04-6.87570E-14
 -1       213 1.08366E-02-7.40609E-04-7.26187E-14
 -1       214 1.11253E-02-7.53985E-04-7.65536E-14
 -1       215 1.14130E-02-7.66438E-04-8.05590E-14
 -1       216 1.16998E-02-7.78022E-04-8.46267E-14
 -1       217 1.19861E-02-7.88827E-04-8.87611E-14
 -1       218 1.22721E-02-7.98959E-04-9.29597E-14
 -1       219 1.25578E-02-8.08526E-04-9.72323E-14
 -1       220 1.28434E-02-8.17630E-04-1.01572E-13
 -1       221 1.31289E-02-8.26366E-04-1.05970E-13
 -1       222 1.34144E-02-8.34818E-04-1.10427E-13
 -1       223 1.36999E-02-8.43060E-04-1.14944E-13
 -1       224 1.39855E-02-8.51157E-04-1.19508E-13
 -1       225 1.42711E-02-8.59167E-04-1.24116E-13
 -1       226 1.45567E-02-8.67139E-04-1.28766E-13
 -1       227 1.48424E-02-8.75118E-04-1.33467E-13
 -1       228 6.12569E-04 3.09186E-04-3.30411E-17
 -1       229 9.10061E-04 3.98506E-04-2.00682E-16
 -1       230 1.20091E-03 4.58897E-04-4.81799E-16
 -1       231 1.49129E-03 5.00255E-04-8.79247E-16
 -1       232 1.78492E-03 5.29392E-04-1.39626E-15
 -1       233 2.08418E-03 5.51844E-04-2.03516E-15
 -1       234 2.39062E-03 5.72762E-04-2.79763E-15
 -1       235 2.70502E-03 5.97369E-04-3.68265E-15
 -1       236 3.02729E-03 6.31056E-04-4.69306E-15
 -1       237 3.35614E-03 6.79048E-04-5.82668E-15
 -1       238 3.68877E-03 7.45392E-04-7.08278E-15
 -1       239 4.02080E-03 8.31102E-04-8.46139E-15
 -1       240 4.34668E-03 9.31659E-04-9.96712E-15
 -1       241 4.66111E-03 1.03496E-03-1.16072E-14
 -1       242 4.96139E-03 1.12184E-03-1.33867E-14
 -1       243 5.24965E-03 1.17113E-03-1.53084E-14
 -1       244 5.53315E-03 1.16844E-03-1.73750E-14
 -1       245 5.82151E-03 1.11331E-03-1.95811E-14
 -1       246 6.12231E-03 1.01954E-03-2.19213E-14
 -1       247 6.43812E-03 9.08239E-04-2.43984E-14
 -1       248 6.76661E-03 7.99122E-04-2.69994E-14
 -1       249 7.10271E-03 7.05150E-04-2.97196E-14
 -1       250 7.44095E-03 6.31774E-04-3.25479E-14
 -1       251 7.77694E-03 5.78908E-04-3.54796E-14
 -1       252 8.10788E-03 5.43491E-04-3.85176E-14
 -1       253 8.43239E-03 5.21460E-04-4.16612E-14
 -1       254 8.75014E-03 5.08897E-04-4.49078E-14
 -1       255 9.06151E-03 5.02532E-04-4.82468E-14
 -1       256 9.36722E-03 4.99864E-04-5.16810E-14
 -1       257 9.66813E-03 4.99102E-04-5.52042E-14
 -1       258 9.96511E-03 4.99029E-04-5.88013E-14
 -1       259 1.02590E-02 4.98870E-04-6.24784E-14
 -1       260 1.05504E-02 4.98164E-04-6.62394E-14
 -1       261 1.08400E-02 4.96676E-04-7.00873E-14
 -1       262 1.11283E-02 4.94316E-04-7.40148E-14
 -1       263 1.14155E-02 4.91087E-04-7.80126E-14
 -1       264 1.17021E-02 4.87050E-04-8.20942E-14
 -1       265 1.19882E-02 4.82295E-04-8.62624E-14
 -1       266 1.22740E-02 4.76922E-04-9.05035E-14
 -1       267 1.25596E-02 4.71035E-04-9.47997E-14
 -1       268 1.28451E-02 4.64729E-04-9.91335E-14
 -1       269 1.31306E-02 4.58094E-04-1.03515E-13
 -1       270 1.34161E-02 4.51208E-04-1.07941E-13
 -1       271 1.37016E-02 4.44141E-04-1.12405E-13
 -1       272 1.39872E-02 4.36953E-04-1.16898E-13
 -1       273 1.42728E-02 4.29699E-04-1.21409E-13
 -1       274 1.45584E-02 4.22427E-04-1.25934E-13
 -1       275 1.48441E-02 4.15175E-04-1.30450E-13
 -1       276 1.48998E-02 3.49965E-04-1.31519E-13
 -1       277 1.49068E-02 2.65641E-04-1.31884E-13
 -1       278 1.49138E-02 1.81282E-04-1.32241E-13
 -1       279 1.49209E-02 9.68870E-05-1.32601E-13
 -1       280 1.49279E-02 1.38894E-05-1.32956E-13
 -1       281 1.49351E-02-7.05663E-05-1.33318E-13
 -1       282 1.49424E-02-1.55041E-04-1.33676E-13
 -1       283 1.49498E-02-2.39525E-04-1.34028E-13
 -1       284 1.49574E-02-3.24010E-04-1.34377E-13
 -1       285 1.49651E-02-4.08484E-04-1.34723E-13
 -1       286 1.49727E-02-4.91508E-04-1.35047E-13
 -1       287 1.49806E-02-5.75937E-04-1.35359E-13
 -1       288 1.49885E-02-6.60332E-04-1.35637E-13
 -1       289 1.49965E-02-7.44690E-04-1.35885E-13
 -1       290 1.49194E-02-8.09913E-04-1.34680E-13
 -1       291 7.62481E-03-6.95364E-06-2.49241E-14
 -1       292 7.47640E-03 9.05936E-05-2.44743E-14
 -1       293 7.20614E-03 2.24338E-04-2.37043E-14
 -1       294 6.86961E-03 4.08857E-04-2.25517E-14
 -1       295 6.50681E-03 5.78545E-04-2.14652E-14
 -1       296 6.12900E-03 7.35228E-04-2.02593E-14
 -1       297 5.74034E-03 8.49809E-04-1.89810E-14
 -1       298 5.36410E-03 8.81422E-04-1.77087E-14
 -1       299 4.98998E-03 8.34315E-04-1.64254E-14
 -1       300 4.59035E-03 6.96559E-04-1.53734E-14
 -1       301 4.19942E-03 5.35943E-04-1.45737E-14
 -1       302 3.83755E-03 3.66596E-04-1.38972E-14
 -1       303 3.51832E-03 2.10705E-04-1.34010E-14
 -1       304 3.29237E-03 7.25365E-05-1.29856E-14
 -1       305 3.19988E-03-1.78868E-05-1.30147E-14
 -1       306 3.25107E-03-1.11674E-04-1.31810E-14
 -1       307 3.45380E-03-2.21718E-04-1.35064E-14
 -1       308 3.75898E-03-3.84328E-04-1.42066E-14
 -1       309 4.16167E-03-5.52673E-04-1.49223E-14
 -1       310 4.53631E-03-7.54478E-04-1.60836E-14
 -1       311 4.92795E-03-8.95679E-04-1.72051E-14
 -1       312 5.33553E-03-9.81566E-04-1.84932E-14
 -1       313 5.71441E-03-9.53237E-04-1.98033E-14
 -1       314 6.09355E-03-8.52465E-04-2.10154E-14
 -1       315 6.48088E-03-6.87530E-04-2.23030E-14
 -1       316 6.88426E-03-5.11030E-04-2.32701E-14
 -1       317 7.22250E-03-3.47062E-04-2.40706E-14
 -1       318 7.48267E-03-2.11023E-04-2.46074E-14
 -1       319 7.62807E-03-9.76458E-05-2.49784E-14
 -1       320 4.61291E-04-1.42094E-04-2.05717E-16
 -1       321 4.82675E-04-1.91307E-04-1.76996E-16
 -1       322 4.37926E-04-7.44150E-05-2.29150E-16
 -1       323 4.30931E-04-4.95667E-05-2.31667E-16
 -1       324 4.26299E-04-2.82411E-05-2.30911E-16
 -1       325 4.24022E-04-8.93436E-06-2.27635E-16
 -1       326 4.24132E-04 9.76437E-06-2.22177E-16
 -1       327 4.26615E-04 2.92360E-05-2.14238E-16
 -1       328 4.31309E-04 5.04838E-05-2.03230E-16
 -1       329 4.38391E-04 7.57022E-05-1.88109E-16
 -1       330 4.48144E-04 1.06314E-04-1.66838E-16
 -1       331 4.61898E-04 1.44812E-04-1.36504E-16
 -1       332 4.84247E-04 1.95616E-04-9.29636E-17
 -1       333 5.41105E-04 2.48261E-04-7.00090E-17
 -1       334 8.41099E-04 3.39095E-04-2.48292E-16
 -1       335 8.81289E-04-3.18998E-04-5.46211E-16
 -1       336 1.17713E-03-3.75454E-04-9.83561E-16
 -1       337 1.47216E-03-4.13621E-04-1.55111E-15
 -1       338 1.76854E-03-4.39629E-04-2.24728E-15
 -1       339 2.06810E-03-4.58858E-04-3.07147E-15
 -1       340 2.37237E-03-4.76531E-04-4.02295E-15
 -1       341 2.68260E-03-4.98144E-04-5.10059E-15
 -1       342 2.99978E-03-5.29674E-04-6.30316E-15
 -1       343 3.32453E-03-5.77408E-04-7.62989E-15
 -1       344 3.65668E-03-6.47076E-04-9.07673E-15
 -1       345 3.99470E-03-7.41848E-04-1.06454E-14
 -1       346 4.33489E-03-8.58923E-04-1.23387E-14
 -1       347 4.67146E-03-9.85444E-04-1.41592E-14
 -1       348 4.99878E-03-1.09677E-03-1.61101E-14
 -1       349 5.31588E-03-1.16247E-03-1.81953E-14
 -1       350 5.62896E-03-1.16115E-03-2.04149E-14
 -1       351 5.94759E-03-1.09433E-03-2.27649E-14
 -1       352 6.27723E-03-9.85467E-04-2.52373E-14
 -1       353 6.61618E-03-8.65179E-04-2.78272E-14
 -1       354 6.95864E-03-7.57076E-04-3.05273E-14
 -1       355 7.29899E-03-6.73009E-04-3.33353E-14
 -1       356 7.63387E-03-6.15327E-04-3.62516E-14
 -1       357 7.96193E-03-5.81044E-04-3.92675E-14
 -1       358 8.28309E-03-5.65150E-04-4.23800E-14
 -1       359 8.59787E-03-5.62521E-04-4.55882E-14
 -1       360 8.90699E-03-5.68776E-04-4.88913E-14
 -1       361 9.21126E-03-5.80516E-04-5.22883E-14
 -1       362 9.51145E-03-5.95279E-04-5.57736E-14
 -1       363 9.80826E-03-6.11371E-04-5.93484E-14
 -1       364 1.01023E-02-6.27693E-04-6.30060E-14
 -1       365 1.03942E-02-6.43576E-04-6.67509E-14
 -1       366 1.06844E-02-6.58650E-04-7.05710E-14
 -1       367 1.09733E-02-6.72752E-04-7.44670E-14
 -1       368 1.12612E-02-6.85848E-04-7.84332E-14
 -1       369 1.15483E-02-6.97983E-04-8.24636E-14
 -1       370 1.18349E-02-7.09249E-04-8.65671E-14
 -1       371 1.21212E-02-7.19756E-04-9.07293E-14
 -1       372 1.24071E-02-7.29621E-04-9.49626E-14
 -1       373 1.26929E-02-7.38958E-04-9.92642E-14
 -1       374 1.29786E-02-7.47870E-04-1.03625E-13
 -1       375 1.32643E-02-7.56450E-04-1.08045E-13
 -1       376 1.35499E-02-7.64779E-04-1.12520E-13
 -1       377 1.38356E-02-7.72930E-04-1.17049E-13
 -1       378 1.41212E-02-7.80964E-04-1.21625E-13
 -1       379 1.44069E-02-7.88935E-04-1.26250E-13
 -1       380 1.46631E-02-7.99414E-04-1.30444E-13
 -1       381 1.13666E-03 4.01442E-04-5.37124E-16
 -1       382 1.43063E-03 4.43915E-04-9.40288E-16
 -1       383 1.72595E-03 4.73242E-04-1.46113E-15
 -1       384 2.02479E-03 4.95005E-04-2.10204E-15
 -1       385 2.32875E-03 5.14394E-04-2.86465E-15
 -1       386 2.63889E-03 5.36661E-04-3.74851E-15
 -1       387 2.95569E-03 5.67287E-04-4.75495E-15
 -1       388 3.27892E-03 6.11750E-04-5.88429E-15
 -1       389 3.60734E-03 6.74677E-04-7.13530E-15
 -1       390 3.93839E-03 7.58104E-04-8.50878E-15
 -1       391 4.26812E-03 8.58889E-04-1.00073E-14
 -1       392 4.59176E-03 9.66074E-04-1.16382E-14
 -1       393 4.90558E-03 1.06035E-03-1.34069E-14
 -1       394 5.20955E-03 1.11836E-03-1.53176E-14
 -1       395 5.50870E-03 1.12242E-03-1.73737E-14
 -1       396 5.81104E-03 1.06991E-03-1.95675E-14
 -1       397 6.12287E-03 9.74948E-04-2.18989E-14
 -1       398 6.44567E-03 8.60497E-04-2.43638E-14
 -1       399 6.77661E-03 7.48064E-04-2.69549E-14
 -1       400 7.11104E-03 6.51530E-04-2.96623E-14
 -1       401 7.44472E-03 5.76545E-04-3.24780E-14
 -1       402 7.77472E-03 5.22885E-04-3.53987E-14
 -1       403 8.09944E-03 4.87266E-04-3.84240E-14
 -1       404 8.41830E-03 4.65425E-04-4.15566E-14
 -1       405 8.73138E-03 4.53286E-04-4.47908E-14
 -1       406 9.03912E-03 4.47465E-04-4.81181E-14
 -1       407 9.34218E-03 4.45382E-04-5.15410E-14
 -1       408 9.64125E-03 4.45191E-04-5.50527E-14
 -1       409 9.93705E-03 4.45645E-04-5.86441E-14
 -1       410 1.02302E-02 4.45951E-04-6.23157E-14
 -1       411 1.05213E-02 4.45644E-04-6.60701E-14
 -1       412 1.08108E-02 4.44488E-04-6.99124E-14
 -1       413 1.10990E-02 4.42398E-04-7.38284E-14
 -1       414 1.13864E-02 4.39384E-04-7.78190E-14
 -1       415 1.16731E-02 4.35515E-04-8.18889E-14
 -1       416 1.19594E-02 4.30888E-04-8.60393E-14
 -1       417 1.22454E-02 4.25612E-04-9.02691E-14
 -1       418 1.25312E-02 4.19794E-04-9.45554E-14
 -1       419 1.28168E-02 4.13538E-04-9.88843E-14
 -1       420 1.31024E-02 4.06936E-04-1.03260E-13
 -1       421 1.33880E-02 4.00070E-04-1.07678E-13
 -1       422 1.36736E-02 3.93012E-04-1.12135E-13
 -1       423 1.39592E-02 3.85826E-04-1.16621E-13
 -1       424 1.42448E-02 3.78568E-04-1.21125E-13
 -1       425 1.45305E-02 3.71286E-04-1.25643E-13
 -1       426 1.47151E-02 3.60618E-04-1.28584E-13
 -1       427 1.46699E-02 1.45419E-04-1.28500E-13
 -1       428 1.46629E-02 2.29768E-04-1.28146E-13
 -1       429 1.46890E-02 2.95199E-04-1.28366E-13
 -1       430 1.46768E-02 6.24784E-05-1.28850E-13
 -1       431 1.46840E-02-2.19096E-05-1.29202E-13
 -1       432 1.46913E-02-1.06310E-04-1.29548E-13
 -1       433 1.46986E-02-1.90718E-04-1.29887E-13
 -1       434 1.47061E-02-2.75129E-04-1.30224E-13
 -1       435 1.47137E-02-3.59537E-04-1.30552E-13
 -1       436 1.47213E-02-4.42507E-04-1.30861E-13
 -1       437 1.47292E-02-5.26896E-04-1.31152E-13
 -1       438 1.47371E-02-6.11266E-04-1.31421E-13
 -1       439 1.47451E-02-6.95615E-04-1.31670E-13
 -1       440 7.33909E-03 9.88593E-05-2.51248E-14
 -1       441 7.66277E-03-5.46359E-05-2.60961E-14
 -1       442 7.57697E-03 2.94642E-06-2.59308E-14
 -1       443 6.96202E-03 2.65222E-04-2.39722E-14
 -1       444 6.62242E-03 4.48755E-04-2.26250E-14
 -1       445 4.47588E-04-1.04330E-04-2.21323E-16
 -1       446 5.89065E-03 8.10500E-04-1.98855E-14
 -1       447 5.52327E-03 9.13768E-04-1.82647E-14
 -1       448 5.23293E-03 9.07329E-04-1.69568E-14
 -1       449 4.82037E-03 7.69811E-04-1.54651E-14
 -1       450 4.43843E-03 5.81499E-04-1.43920E-14
 -1       451 4.08099E-03 3.93088E-04-1.35463E-14
 -1       452 3.70588E-03 2.22090E-04-1.30110E-14
 -1       453 3.41839E-03 9.58288E-05-1.25483E-14
 -1       454 3.20972E-03 3.10745E-06-1.23076E-14
 -1       455 3.19028E-03-4.83471E-05-1.23233E-14
 -1       456 3.31941E-03-1.09920E-04-1.25324E-14
 -1       457 3.63900E-03-2.47425E-04-1.32845E-14
 -1       458 3.97568E-03-4.01206E-04-1.39565E-14
 -1       459 4.46477E-03-6.58453E-04-1.52260E-14
 -1       460 4.78465E-03-8.26068E-04-1.63018E-14
 -1       461 5.12834E-03-9.63925E-04-1.75430E-14
 -1       462 5.54807E-03-1.01097E-03-1.94468E-14
 -1       463 5.87026E-03-9.25036E-04-2.07733E-14
 -1       464 6.19604E-03-7.78149E-04-2.21993E-14
 -1       465 6.64272E-03-5.43583E-04-2.37031E-14
 -1       466 7.01353E-03-3.65243E-04-2.45915E-14
 -1       467 7.34579E-03-2.11252E-04-2.55267E-14
 -1       468 7.57027E-03-1.18702E-04-2.59731E-14
 -1       469 6.24208E-03 6.44352E-04-2.13212E-14
 -1       470 4.23937E-03-5.20619E-04-1.42396E-14
 -1       471 3.27985E-03 3.19319E-05-1.18704E-14
 -1       472 5.04866E-03 8.67549E-04-1.59680E-14
 -1       473 9.49192E-04 3.03857E-04-4.76327E-16
 -1       474 6.50794E-04-5.71362E-05-4.91794E-16
 -1       475 6.60828E-04-9.05919E-05-4.90219E-16
 -1       476 6.42941E-04 5.50277E-07-4.79536E-16
 -1       477 6.45213E-04 2.86262E-05-4.66556E-16
 -1       478 6.51400E-04 5.81750E-05-4.48473E-16
 -1       479 6.61614E-04 9.20878E-05-4.23970E-16
 -1       480 6.75898E-04 1.31879E-04-3.91234E-16
 -1       481 6.95095E-04 1.79801E-04-3.46965E-16
 -1       482 1.24322E-03 3.52615E-04-8.49367E-16
 -1       483 9.92673E-04-2.83067E-04-8.06020E-16
 -1       484 6.43816E-03 5.22618E-04-2.27497E-14
 -1       485 1.28511E-03-3.26095E-04-1.31871E-15
 -1       486 1.57831E-03-3.55380E-04-1.95715E-15
 -1       487 1.87282E-03-3.75499E-04-2.72130E-15
 -1       488 2.16966E-03-3.91125E-04-3.60973E-15
 -1       489 2.47014E-03-4.07156E-04-4.62189E-15
 -1       490 2.77590E-03-4.28952E-04-5.75663E-15
 -1       491 3.08896E-03-4.62507E-04-7.01236E-15
 -1       492 3.41167E-03-5.14331E-04-8.39060E-15
 -1       493 3.74598E-03-5.90691E-04-9.88758E-15
 -1       494 4.09187E-03-6.95375E-04-1.15058E-14
 -1       495 4.44521E-03-8.24891E-04-1.32472E-14
 -1       496 4.79698E-03-9.61692E-04-1.51165E-14
 -1       497 5.13826E-03-1.07044E-03-1.71206E-14
 -1       498 5.46927E-03-1.11106E-03-1.92619E-14
 -1       499 5.80119E-03-1.06653E-03-2.15395E-14
 -1       500 6.14432E-03-9.57932E-04-2.39490E-14
 -1       501 6.49752E-03-8.26388E-04-2.64790E-14
 -1       502 6.85139E-03-7.05538E-04-2.91228E-14
 -1       503 7.19738E-03-6.11325E-04-3.18742E-14
 -1       504 7.53187E-03-5.46383E-04-3.47313E-14
 -1       505 7.85519E-03-5.06975E-04-3.76917E-14
 -1       506 8.16935E-03-4.87463E-04-4.07506E-14
 -1       507 8.47657E-03-4.82354E-04-4.39059E-14
 -1       508 8.77864E-03-4.87035E-04-4.71554E-14
 -1       509 9.07688E-03-4.97922E-04-5.04964E-14
 -1       510 9.37223E-03-5.12378E-04-5.39307E-14
 -1       511 9.66535E-03-5.28550E-04-5.74512E-14
 -1       512 9.95671E-03-5.45203E-04-6.10590E-14
 -1       513 1.02467E-02-5.61559E-04-6.47537E-14
 -1       514 1.05356E-02-5.77168E-04-6.85290E-14
 -1       515 1.08236E-02-5.91812E-04-7.23821E-14
 -1       516 1.11110E-02-6.05419E-04-7.63095E-14
 -1       517 1.13979E-02-6.18016E-04-8.03058E-14
 -1       518 1.16844E-02-6.29684E-04-8.43692E-14
 -1       519 1.19707E-02-6.40531E-04-8.85027E-14
 -1       520 1.22567E-02-6.50677E-04-9.26984E-14
 -1       521 1.25426E-02-6.60239E-04-9.69624E-14
 -1       522 1.28284E-02-6.69327E-04-1.01290E-13
 -1       523 1.31142E-02-6.78041E-04-1.05675E-13
 -1       524 1.33999E-02-6.86467E-04-1.10110E-13
 -1       525 1.36856E-02-6.94681E-04-1.14602E-13
 -1       526 1.39713E-02-7.02749E-04-1.19146E-13
 -1       527 1.42569E-02-7.10729E-04-1.23739E-13
 -1       528 1.83341E-03 4.09295E-04-1.94058E-15
 -1       529 2.13186E-03 4.27276E-04-2.66321E-15
 -1       530 2.43430E-03 4.44961E-04-3.50462E-15
 -1       531 2.74199E-03 4.67578E-04-4.46650E-15
 -1       532 3.05620E-03 5.00686E-04-5.54867E-15
 -1       533 3.37794E-03 5.49877E-04-6.75185E-15
 -1       534 3.70754E-03 6.19806E-04-8.07546E-15
 -1       535 4.04360E-03 7.12112E-04-9.52164E-15
 -1       536 4.38217E-03 8.21962E-04-1.10940E-14
 -1       537 4.71704E-03 9.34562E-04-1.27998E-14
 -1       538 5.04270E-03 1.02411E-03-1.46464E-14
 -1       539 5.35957E-03 1.06228E-03-1.66365E-14
 -1       540 5.67519E-03 1.03394E-03-1.87693E-14
 -1       541 5.99837E-03 9.47724E-04-2.10417E-14
 -1       542 6.33178E-03 8.29963E-04-2.34503E-14
 -1       543 6.67126E-03 7.08593E-04-2.59861E-14
 -1       544 7.01038E-03 6.02242E-04-2.86394E-14
 -1       545 7.34433E-03 5.18729E-04-3.14042E-14
 -1       546 7.67106E-03 4.58401E-04-3.42717E-14
 -1       547 7.99046E-03 4.17916E-04-3.72455E-14
 -1       548 8.30332E-03 3.92763E-04-4.03246E-14
 -1       549 8.61068E-03 3.78573E-04-4.35074E-14
 -1       550 8.91351E-03 3.71674E-04-4.67887E-14
 -1       551 9.21263E-03 3.69220E-04-5.01646E-14
 -1       552 9.50874E-03 3.69141E-04-5.36299E-14
 -1       553 9.80242E-03 3.70009E-04-5.71829E-14
 -1       554 1.00941E-02 3.70893E-04-6.08179E-14
 -1       555 1.03843E-02 3.71230E-04-6.45362E-14
 -1       556 1.06733E-02 3.70718E-04-6.83405E-14
 -1       557 1.09613E-02 3.69232E-04-7.22192E-14
 -1       558 1.12486E-02 3.66760E-04-7.61736E-14
 -1       559 1.15354E-02 3.63359E-04-8.02013E-14
 -1       560 1.18218E-02 3.59127E-04-8.43072E-14
 -1       561 1.21080E-02 3.54173E-04-8.84952E-14
 -1       562 1.23939E-02 3.48614E-04-9.27499E-14
 -1       563 1.26797E-02 3.42560E-04-9.70579E-14
 -1       564 1.29654E-02 3.36110E-04-1.01404E-13
 -1       565 1.32511E-02 3.29355E-04-1.05795E-13
 -1       566 1.35368E-02 3.22372E-04-1.10230E-13
 -1       567 1.38225E-02 3.15229E-04-1.14701E-13
 -1       568 1.41081E-02 3.07986E-04-1.19192E-13
 -1       569 1.43938E-02 3.00696E-04-1.23698E-13
 -1       570 1.44329E-02 2.67057E-05-1.25100E-13
 -1       571 1.44401E-02-5.76353E-05-1.25437E-13
 -1       572 1.44189E-02 1.93940E-04-1.24406E-13
 -1       573 1.44259E-02 1.10327E-04-1.24757E-13
 -1       574 1.44474E-02-1.41978E-04-1.25767E-13
 -1       575 1.44549E-02-2.26322E-04-1.26092E-13
 -1       576 1.44624E-02-3.10666E-04-1.26404E-13
 -1       577 1.44700E-02-3.93579E-04-1.26702E-13
 -1       578 1.44778E-02-4.77921E-04-1.26983E-13
 -1       579 1.44857E-02-5.62257E-04-1.27248E-13
 -1       580 1.44936E-02-6.46585E-04-1.27495E-13
 -1       581 7.67525E-03-3.86508E-05-2.73840E-14
 -1       582 7.17745E-03 1.48708E-04-2.57436E-14
 -1       583 1.53763E-03 3.86054E-04-1.33627E-15
 -1       584 7.66546E-03-7.76582E-05-2.74069E-14
 -1       585 7.49368E-03 2.71777E-05-2.68867E-14
 -1       586 7.23038E-04-2.17537E-04-4.56707E-16
 -1       587 7.49332E-03-1.40308E-04-2.70686E-14
 -1       588 3.46079E-03-1.53194E-04-1.21174E-14
 -1       589 6.44809E-04-2.74031E-05-4.88196E-16
 -1       590 5.71285E-03 8.85780E-04-1.92660E-14
 -1       591 4.63604E-03 6.76093E-04-1.43715E-14
 -1       592 5.39041E-03 9.40282E-04-1.75270E-14
 -1       593 5.32716E-03-1.02533E-03-1.83704E-14
 -1       594 4.27793E-03 4.82121E-04-1.32246E-14
 -1       595 3.85674E-03 2.64828E-04-1.24583E-14
 -1       596 3.56764E-03 1.38185E-04-1.20134E-14
 -1       597 3.15457E-03-2.22470E-05-1.15424E-14
 -1       598 3.19775E-03-6.04607E-05-1.15298E-14
 -1       599 3.78082E-03-2.86400E-04-1.28286E-14
 -1       600 4.66580E-03-7.56215E-04-1.54398E-14
 -1       601 4.96901E-03-9.11849E-04-1.66351E-14
 -1       602 5.75928E-03-9.76411E-04-2.06816E-14
 -1       603 6.03343E-03-8.61743E-04-2.21029E-14
 -1       604 6.42316E-03-6.51614E-04-2.39226E-14
 -1       605 6.86155E-03-4.12726E-04-2.53726E-14
 -1       606 7.18308E-03-2.61457E-04-2.63277E-14
 -1       607 6.05516E-03 7.35758E-04-2.10576E-14
 -1       608 7.16831E-04 2.58931E-04-2.46429E-16
 -1       609 6.75104E-03 3.52393E-04-2.41035E-14
 -1       610 6.74956E-04-1.29685E-04-4.81542E-16
 -1       611 5.53371E-03-1.04036E-03-1.95588E-14
 -1       612 4.00055E-03-3.98190E-04-1.30868E-14
 -1       613 3.38412E-03 7.42697E-05-1.13443E-14
 -1       614 3.17117E-03 6.53287E-07-1.11122E-14
 -1       615 5.21538E-03 9.30152E-04-1.65091E-14
 -1       616 4.43865E-03-6.33997E-04-1.44399E-14
 -1       617 4.84844E-03 7.97363E-04-1.48398E-14
 -1       618 1.44502E-02-7.17770E-04-1.26878E-13
 -1       619 8.73172E-04 5.52840E-05-7.90444E-16
 -1       620 8.66776E-04 1.82197E-05-8.15218E-16
 -1       621 9.03156E-04 1.41472E-04-7.13845E-16
 -1       622 9.26707E-04 1.95068E-04-6.57040E-16
 -1       623 1.06189E-03 2.65808E-04-7.38809E-16
 -1       624 3.24474E-03-9.72779E-05-1.08223E-14
 -1       625 6.60563E-03 4.50650E-04-2.41233E-14
 -1       626 5.89182E-03 8.42177E-04-2.03895E-14
 -1       627 7.40055E-03-1.89540E-04-2.80568E-14
 -1       628 1.39325E-03-2.75902E-04-1.67183E-15
 -1       629 1.68168E-03-2.97290E-04-2.37706E-15
 -1       630 1.97105E-03-3.12152E-04-3.20487E-15
 -1       631 2.26203E-03-3.24413E-04-4.15393E-15
 -1       632 2.55599E-03-3.38407E-04-5.22328E-15
 -1       633 2.85526E-03-3.59082E-04-6.41188E-15
 -1       634 3.16332E-03-3.92322E-04-7.71961E-15
 -1       635 3.48480E-03-4.45306E-04-9.14602E-15
 -1       636 3.82452E-03-5.26460E-04-1.06904E-14
 -1       637 4.18387E-03-6.43194E-04-1.23551E-14
 -1       638 4.55748E-03-7.92688E-04-1.41416E-14
 -1       639 4.93084E-03-9.48741E-04-1.60599E-14
 -1       640 5.64225E-03-1.04870E-03-2.03240E-14
 -1       641 6.00308E-03-9.41879E-04-2.26664E-14
 -1       642 6.37660E-03-7.90438E-04-2.51383E-14
 -1       643 6.74900E-03-6.50244E-04-2.77267E-14
 -1       644 7.10643E-03-5.44708E-04-3.04236E-14
 -1       645 7.44399E-03-4.74712E-04-3.32239E-14
 -1       646 7.76394E-03-4.33153E-04-3.61264E-14
 -1       647 8.07102E-03-4.12384E-04-3.91300E-14
 -1       648 8.36967E-03-4.06187E-04-4.22311E-14
 -1       649 8.66316E-03-4.09854E-04-4.54272E-14
 -1       650 8.95362E-03-4.19884E-04-4.87171E-14
 -1       651 9.24234E-03-4.33714E-04-5.20985E-14
 -1       652 9.53007E-03-4.49513E-04-5.55680E-14
 -1       653 9.81720E-03-4.66018E-04-5.91232E-14
 -1       654 1.01040E-02-4.82402E-04-6.27702E-14
 -1       655 1.03905E-02-4.98164E-04-6.64987E-14
 -1       656 1.06768E-02-5.13034E-04-7.03073E-14
 -1       657 1.09630E-02-5.26904E-04-7.41938E-14
 -1       658 1.12491E-02-5.39772E-04-7.81557E-14
 -1       659 1.15351E-02-5.51698E-04-8.21834E-14
 -1       660 1.18210E-02-5.62781E-04-8.62794E-14
 -1       661 1.21068E-02-5.73133E-04-9.04412E-14
 -1       662 1.23926E-02-5.82869E-04-9.46689E-14
 -1       663 1.26784E-02-5.92101E-04-9.89630E-14
 -1       664 1.29642E-02-6.00928E-04-1.03314E-13
 -1       665 1.32499E-02-6.09440E-04-1.07718E-13
 -1       666 1.35357E-02-6.17715E-04-1.12171E-13
 -1       667 1.38214E-02-6.25819E-04-1.16681E-13
 -1       668 1.41071E-02-6.33811E-04-1.21238E-13
 -1       669 2.23073E-03 3.59636E-04-3.24852E-15
 -1       670 1.41332E-02 2.01264E-04-1.19899E-13
 -1       671 1.93588E-03 3.45163E-04-2.44718E-15
 -1       672 2.83312E-03 3.97592E-04-5.20512E-15
 -1       673 3.14507E-03 4.31644E-04-6.36181E-15
 -1       674 3.46784E-03 4.83654E-04-7.63559E-15
 -1       675 3.80356E-03 5.59385E-04-9.02976E-15
 -1       676 4.15128E-03 6.61933E-04-1.05469E-14
 -1       677 4.50540E-03 7.84782E-04-1.21914E-14
 -1       678 4.85594E-03 9.07887E-04-1.39704E-14
 -1       679 5.19424E-03 9.91849E-04-1.58943E-14
 -1       680 5.52434E-03 9.99922E-04-1.79641E-14
 -1       681 5.85926E-03 9.26199E-04-2.01783E-14
 -1       682 6.20734E-03 8.01390E-04-2.25319E-14
 -1       683 6.56146E-03 6.66166E-04-2.50164E-14
 -1       684 6.91275E-03 5.48132E-04-2.76177E-14
 -1       685 7.25297E-03 4.57089E-04-3.03305E-14
 -1       686 7.58016E-03 3.92258E-04-3.31492E-14
 -1       687 7.89588E-03 3.48941E-04-3.60697E-14
 -1       688 8.20280E-03 3.21850E-04-3.90965E-14
 -1       689 8.50345E-03 3.06286E-04-4.22292E-14
 -1       690 8.79979E-03 2.98455E-04-4.54616E-14
 -1       691 9.09318E-03 2.95453E-04-4.87906E-14
 -1       692 9.38454E-03 2.95150E-04-5.22140E-14
 -1       693 9.67444E-03 2.96045E-04-5.57251E-14
 -1       694 9.96329E-03 2.97134E-04-5.93205E-14
 -1       695 1.02513E-02 2.97790E-04-6.30009E-14
 -1       696 1.05388E-02 2.97653E-04-6.67656E-14
 -1       697 1.08258E-02 2.96557E-04-7.06099E-14
 -1       698 1.11124E-02 2.94463E-04-7.45293E-14
 -1       699 1.13988E-02 2.91411E-04-7.85207E-14
 -1       700 1.16850E-02 2.87486E-04-8.25850E-14
 -1       701 1.19710E-02 2.82797E-04-8.67314E-14
 -1       702 1.22569E-02 2.77458E-04-9.09513E-14
 -1       703 1.25427E-02 2.71582E-04-9.52273E-14
 -1       704 1.28285E-02 2.65273E-04-9.95508E-14
 -1       705 1.31143E-02 2.58624E-04-1.03916E-13
 -1       706 1.34000E-02 2.51716E-04-1.08326E-13
 -1       707 1.36857E-02 2.44621E-04-1.12780E-13
 -1       708 1.39094E-02 2.22972E-04-1.16332E-13
 -1       709 7.02745E-03 2.50652E-04-2.63830E-14
 -1       710 1.42037E-02-1.77582E-04-1.21989E-13
 -1       711 6.70658E-03-5.19796E-04-2.57698E-14
 -1       712 1.41891E-02-9.01942E-06-1.21346E-13
 -1       713 1.42112E-02-2.61859E-04-1.22293E-13
 -1       714 1.41963E-02-9.33033E-05-1.21673E-13
 -1       715 1.42187E-02-3.44709E-04-1.22580E-13
 -1       716 1.42264E-02-4.28993E-04-1.22855E-13
 -1       717 1.42343E-02-5.13284E-04-1.23116E-13
 -1       718 7.66757E-03-1.73342E-05-2.86411E-14
 -1       719 7.40143E-03 7.94782E-05-2.77344E-14
 -1       720 8.78444E-04-2.06308E-04-7.18487E-16
 -1       721 3.56311E-03-2.13059E-04-1.16155E-14
 -1       722 1.64326E-03 3.27486E-04-1.76258E-15
 -1       723 3.99606E-03 3.56807E-04-1.20118E-14
 -1       724 2.52917E-03 3.75448E-04-4.16704E-15
 -1       725 1.13473E-03-2.45842E-04-1.14618E-15
 -1       726 6.24256E-03-7.86948E-04-2.37472E-14
 -1       727 8.85378E-04 9.56237E-05-7.57339E-16
 -1       728 1.35201E-03 3.02361E-04-1.19360E-15
 -1       729 6.25195E-03 6.49848E-04-2.23742E-14
 -1       730 8.84160E-04-9.40032E-05-8.44715E-16
 -1       731 4.46486E-03 6.15720E-04-1.31702E-14
 -1       732 7.73707E-03-6.04288E-05-2.87881E-14
 -1       733 3.09346E-03-3.37084E-05-1.05640E-14
 -1       734 5.56900E-03 9.44026E-04-1.84449E-14
 -1       735 3.65439E-03 1.92351E-04-1.13925E-14
 -1       736 1.43003E-02-6.39561E-04-1.24354E-13
 -1       737 4.78088E-03-8.44928E-04-1.55055E-14
 -1       738 5.11898E-03-9.92002E-04-1.71827E-14
 -1       739 5.89787E-03-9.50347E-04-2.17752E-14
 -1       740 7.08630E-03-3.32241E-04-2.73550E-14
 -1       741 7.65377E-03-1.04037E-04-2.89074E-14
 -1       742 9.01708E-04-1.39137E-04-8.37522E-16
 -1       743 8.66494E-04-1.75788E-05-8.32576E-16
 -1       744 5.29056E-03-1.05251E-03-1.81212E-14
 -1       745 3.45518E-03 1.26777E-04-1.07397E-14
 -1       746 4.18093E-03 4.96007E-04-1.19478E-14
 -1       747 1.41820E-02 7.45566E-05-1.21016E-13
 -1       748 3.74377E-03-3.04558E-04-1.18505E-14
 -1       749 7.62307E-03 2.44076E-05-2.95115E-14
 -1       750 4.18200E-03-5.13778E-04-1.32683E-14
 -1       751 1.41707E-02-5.73556E-04-1.22181E-13
 -1       752 3.22380E-03 3.57754E-05-1.05986E-14
 -1       753 5.01912E-03 8.90516E-04-1.53442E-14
 -1       754 8.72346E-04-5.41974E-05-8.42517E-16
 -1       755 1.15579E-03 1.95110E-04-1.06688E-15
 -1       756 7.34161E-03 1.54742E-04-2.86537E-14
 -1       757 1.78136E-03-2.40184E-04-2.81021E-15
 -1       758 2.06328E-03-2.50345E-04-3.69773E-15
 -1       759 2.34573E-03-2.59140E-04-4.70380E-15
 -1       760 2.63019E-03-2.70095E-04-5.82753E-15
 -1       761 2.91964E-03-2.87470E-04-7.06764E-15
 -1       762 3.21906E-03-3.17041E-04-8.42412E-15
 -1       763 3.53556E-03-3.67380E-04-9.89581E-15
 -1       764 3.87923E-03-4.51680E-04-1.14838E-14
 -1       765 6.65935E-03-5.99518E-04-2.63429E-14
 -1       766 7.03068E-03-4.77237E-04-2.89860E-14
 -1       767 7.37107E-03-4.02917E-04-3.17332E-14
 -1       768 7.68624E-03-3.61971E-04-3.45779E-14
 -1       769 7.98465E-03-3.42543E-04-3.75260E-14
 -1       770 8.27330E-03-3.37011E-04-4.05731E-14
 -1       771 8.55695E-03-3.40568E-04-4.37158E-14
 -1       772 8.83848E-03-3.50012E-04-4.69514E-14
 -1       773 9.11951E-03-3.63086E-04-5.02809E-14
 -1       774 9.40083E-03-3.78163E-04-5.37012E-14
 -1       775 9.68280E-03-3.94084E-04-5.72093E-14
 -1       776 9.96548E-03-4.10050E-04-6.08058E-14
 -1       777 1.02489E-02-4.25550E-04-6.44902E-14
 -1       778 1.05328E-02-4.40285E-04-6.82557E-14
 -1       779 1.08173E-02-4.54117E-04-7.20986E-14
 -1       780 1.11021E-02-4.67011E-04-7.60203E-14
 -1       781 1.13872E-02-4.79004E-04-8.00131E-14
 -1       782 1.16725E-02-4.90174E-04-8.40764E-14
 -1       783 1.19579E-02-5.00621E-04-8.82009E-14
 -1       784 1.22435E-02-5.10450E-04-9.23926E-14
 -1       785 1.25292E-02-5.19766E-04-9.66493E-14
 -1       786 1.28149E-02-5.28667E-04-1.00970E-13
 -1       787 1.31006E-02-5.37239E-04-1.05342E-13
 -1       788 1.33863E-02-5.45558E-04-1.09766E-13
 -1       789 1.36721E-02-5.53692E-04-1.14240E-13
 -1       790 1.39214E-02-5.63655E-04-1.18189E-13
 -1       791 2.03285E-03 2.81580E-04-2.98034E-15
 -1       792 3.22059E-03 3.57403E-04-7.19221E-15
 -1       793 2.91207E-03 3.25115E-04-5.96515E-15
 -1       794 3.88834E-03 4.90218E-04-9.99840E-15
 -1       795 6.45688E-03 6.22705E-04-2.40425E-14
 -1       796 6.82562E-03 4.87045E-04-2.65972E-14
 -1       797 7.17580E-03 3.87948E-04-2.92608E-14
 -1       798 7.50446E-03 3.21160E-04-3.20290E-14
 -1       799 7.81628E-03 2.78095E-04-3.49023E-14
 -1       800 8.11623E-03 2.51524E-04-3.78754E-14
 -1       801 8.40878E-03 2.36124E-04-4.09571E-14
 -1       802 8.69709E-03 2.28102E-04-4.41408E-14
 -1       803 8.98317E-03 2.24729E-04-4.74208E-14
 -1       804 9.26823E-03 2.24035E-04-5.07972E-14
 -1       805 9.55293E-03 2.24614E-04-5.42654E-14
 -1       806 9.83762E-03 2.25501E-04-5.78247E-14
 -1       807 1.01224E-02 2.26067E-04-6.14666E-14
 -1       808 1.04074E-02 2.25934E-04-6.51913E-14
 -1       809 1.06926E-02 2.24911E-04-6.89989E-14
 -1       810 1.09780E-02 2.22932E-04-7.28824E-14
 -1       811 1.12634E-02 2.20018E-04-7.68436E-14
 -1       812 1.15490E-02 2.16238E-04-8.08729E-14
 -1       813 1.18346E-02 2.11689E-04-8.49774E-14
 -1       814 1.21203E-02 2.06479E-04-8.91598E-14
 -1       815 1.24060E-02 2.00716E-04-9.34027E-14
 -1       816 1.26917E-02 1.94503E-04-9.76977E-14
 -1       817 1.29775E-02 1.87931E-04-1.02039E-13
 -1       818 1.32632E-02 1.81081E-04-1.06425E-13
 -1       819 1.35489E-02 1.74025E-04-1.10861E-13
 -1       820 7.79681E-03-8.22052E-05-3.05706E-14
 -1       821 5.31173E-03 9.60225E-04-1.68938E-14
 -1       822 1.39674E-02-2.96607E-04-1.18502E-13
 -1       823 1.39599E-02-2.12405E-04-1.18215E-13
 -1       824 1.74585E-03 2.69093E-04-2.21804E-15
 -1       825 1.39751E-02-3.80819E-04-1.18777E-13
 -1       826 1.39829E-02-4.65047E-04-1.19033E-13
 -1       827 3.54450E-03 4.09518E-04-8.53557E-15
 -1       828 6.48926E-03 5.62651E-04-2.40035E-14
 -1       829 7.81383E-03-4.46908E-05-3.05892E-14
 -1       830 3.31158E-03-1.60147E-04-1.02932E-14
 -1       831 6.88113E-03 3.67687E-04-2.62653E-14
 -1       832 1.49953E-03-2.25547E-04-2.04220E-15
 -1       833 4.66349E-03 7.47577E-04-1.36299E-14
 -1       834 7.36333E-03-2.50998E-04-2.93189E-14
 -1       835 1.25126E-03 2.46229E-04-1.13580E-15
 -1       836 7.01385E-03-4.03894E-04-2.78197E-14
 -1       837 3.06861E-03-5.56950E-06-1.00420E-14
 -1       838 3.04527E-03-5.97987E-05-9.67679E-15
 -1       839 3.73366E-03 2.76589E-04-1.08076E-14
 -1       840 7.62466E-03-1.49541E-04-3.01984E-14
 -1       841 1.09591E-03 4.29612E-05-1.22794E-15
 -1       842 1.09127E-03 1.70293E-07-1.25815E-15
 -1       843 1.12886E-03 1.38411E-04-1.13443E-15
 -1       844 7.58624E-03 8.75205E-05-3.04577E-14
 -1       845 1.12684E-03-1.36216E-04-1.28567E-15
 -1       846 1.24651E-03-2.04117E-04-1.45794E-15
 -1       847 1.39582E-02 9.63194E-05-1.17449E-13
 -1       848 3.90231E-03 4.05061E-04-1.07361E-14
 -1       849 2.61376E-03 3.05333E-04-4.85349E-15
 -1       850 7.81474E-03-1.18009E-04-3.18942E-14
 -1       851 1.37344E-02 1.18026E-04-1.13897E-13
 -1       852 1.39452E-02-4.47051E-05-1.17605E-13
 -1       853 1.39516E-02 2.57984E-05-1.17529E-13
 -1       854 1.39525E-02-1.28559E-04-1.17915E-13
 -1       855 3.53058E-03 2.05494E-04-1.01730E-14
 -1       856 2.95952E-03-2.82448E-05-9.18542E-15
 -1       857 3.45428E-03-2.28575E-04-1.05079E-14
 -1       858 7.82386E-03-1.39739E-05-3.14863E-14
 -1       859 2.32161E-03 2.92352E-04-3.85872E-15
 -1       860 3.06003E-03-1.06043E-04-9.17768E-15
 -1       861 1.10865E-03 8.82744E-05-1.18729E-15
 -1       862 7.20953E-03 2.55707E-04-2.85338E-14
 -1       863 1.10709E-03-8.69791E-05-1.28759E-15
 -1       864 1.49877E-03 2.61161E-04-1.63076E-15
 -1       865 1.39521E-02-5.14352E-04-1.18613E-13
 -1       866 2.15044E-03-1.90714E-04-4.19906E-15
 -1       867 2.42155E-03-1.95937E-04-5.25940E-15
 -1       868 2.69243E-03-2.02813E-04-6.43401E-15
 -1       869 2.96597E-03-2.14552E-04-7.72344E-15
 -1       870 3.24813E-03-2.36618E-04-9.12521E-15
 -1       871 1.37238E-02-3.31975E-04-1.14736E-13
 -1       872 7.32991E-03-3.23942E-04-3.02512E-14
 -1       873 7.63238E-03-2.87150E-04-3.30436E-14
 -1       874 7.91581E-03-2.72401E-04-3.59360E-14
 -1       875 8.19017E-03-2.69794E-04-3.89278E-14
 -1       876 8.46105E-03-2.74522E-04-4.20167E-14
 -1       877 8.73163E-03-2.83915E-04-4.51984E-14
 -1       878 9.00345E-03-2.96272E-04-4.84744E-14
 -1       879 9.27719E-03-3.10372E-04-5.18441E-14
 -1       880 9.55299E-03-3.25297E-04-5.53064E-14
 -1       881 9.83076E-03-3.40378E-04-5.88555E-14
 -1       882 1.01103E-02-3.55151E-04-6.24908E-14
 -1       883 1.03912E-02-3.69323E-04-6.62139E-14
 -1       884 1.06734E-02-3.82738E-04-7.00149E-14
 -1       885 1.09565E-02-3.95339E-04-7.38940E-14
 -1       886 1.12404E-02-4.07135E-04-7.78515E-14
 -1       887 1.15248E-02-4.18181E-04-8.18796E-14
 -1       888 1.18097E-02-4.28556E-04-8.59722E-14
 -1       889 1.20948E-02-4.38349E-04-9.01234E-14
 -1       890 1.23802E-02-4.47654E-04-9.43456E-14
 -1       891 1.26657E-02-4.56557E-04-9.86311E-14
 -1       892 1.29514E-02-4.65138E-04-1.02976E-13
 -1       893 1.32370E-02-4.73467E-04-1.07369E-13
 -1       894 1.35228E-02-4.81607E-04-1.11812E-13
 -1       895 7.45152E-03 2.42896E-04-3.09148E-14
 -1       896 7.75542E-03 2.04069E-04-3.37377E-14
 -1       897 8.04467E-03 1.81139E-04-3.66644E-14
 -1       898 8.32629E-03 1.67947E-04-3.96927E-14
 -1       899 8.60441E-03 1.60851E-04-4.28266E-14
 -1       900 8.88148E-03 1.57545E-04-4.60580E-14
 -1       901 9.15883E-03 1.56446E-04-4.93869E-14
 -1       902 9.43714E-03 1.56435E-04-5.28096E-14
 -1       903 9.71663E-03 1.56714E-04-5.63275E-14
 -1       904 9.99732E-03 1.56742E-04-5.99312E-14
 -1       905 1.02791E-02 1.56177E-04-6.36196E-14
 -1       906 1.05618E-02 1.54827E-04-6.73898E-14
 -1       907 1.08453E-02 1.52619E-04-7.12401E-14
 -1       908 1.11295E-02 1.49553E-04-7.51658E-14
 -1       909 1.14140E-02 1.45683E-04-7.91628E-14
 -1       910 1.16990E-02 1.41087E-04-8.32316E-14
 -1       911 1.19842E-02 1.35861E-04-8.73713E-14
 -1       912 1.22696E-02 1.30102E-04-9.15802E-14
 -1       913 1.25552E-02 1.23903E-04-9.58472E-14
 -1       914 1.28408E-02 1.17349E-04-1.00163E-13
 -1       915 1.31265E-02 1.10518E-04-1.04530E-13
 -1       916 1.34122E-02 1.03474E-04-1.08942E-13
 -1       917 1.84506E-03 2.11370E-04-2.70223E-15
 -1       918 3.07402E-03 3.64693E-05-9.33783E-15
 -1       919 1.37162E-02-2.47858E-04-1.14464E-13
 -1       920 1.60394E-03-1.75570E-04-2.42873E-15
 -1       921 2.97595E-03 2.49317E-04-6.74438E-15
 -1       922 1.09506E-03-4.23249E-05-1.27823E-15
 -1       923 1.87792E-03-1.84653E-04-3.25516E-15
 -1       924 7.95844E-03-7.02441E-05-3.30179E-14
 -1       925 1.37315E-02-4.16114E-04-1.14992E-13
 -1       926 3.27518E-03 1.01208E-04-9.75705E-15
 -1       927 7.60197E-03-2.09597E-04-3.13817E-14
 -1       928 1.38172E-03 1.84003E-04-1.57597E-15
 -1       929 7.46947E-03 1.70594E-04-3.03419E-14
 -1       930 1.56584E-03 2.00119E-04-1.97740E-15
 -1       931 1.36449E-03-1.57669E-04-1.81333E-15
 -1       932 1.37087E-02-1.64106E-04-1.14179E-13
 -1       933 1.37374E-02-4.98002E-04-1.15198E-13
 -1       934 3.69805E-03 3.22117E-04-1.01052E-14
 -1       935 2.68723E-03 2.34375E-04-5.56284E-15
 -1       936 3.27629E-03 2.76466E-04-8.03989E-15
 -1       937 1.37010E-02 8.44281E-07-1.13680E-13
 -1       938 2.90191E-03 6.26669E-06-8.52129E-15
 -1       939 1.36819E-02 6.47071E-05-1.13222E-13
 -1       940 2.12442E-03 2.18978E-04-3.54095E-15
 -1       941 7.82040E-03-1.66449E-04-3.31093E-14
 -1       942 2.92909E-03-6.33429E-05-8.71138E-15
 -1       943 7.82318E-03 3.44665E-05-3.24664E-14
 -1       944 1.33854E-03-1.02680E-04-1.81563E-15
 -1       945 8.01693E-03-4.25973E-05-3.39489E-14
 -1       946 1.37048E-02-8.16423E-05-1.13932E-13
 -1       947 3.15166E-03-1.65184E-04-9.15783E-15
 -1       948 1.33078E-03 7.25034E-05-1.71326E-15
 -1       949 1.31938E-03 2.35580E-05-1.76013E-15
 -1       950 1.97325E-03-1.31290E-04-3.71012E-15
 -1       951 1.67037E-03 1.49003E-04-2.41577E-15
 -1       952 2.49148E-03-1.36216E-04-5.81856E-15
 -1       953 2.74341E-03-1.38919E-04-7.04200E-15
 -1       954 2.94495E-03-1.49327E-04-8.06609E-15
 -1       955 2.40455E-03 2.25604E-04-4.49464E-15
 -1       956 8.25566E-03 1.02348E-04-3.84393E-14
 -1       957 8.12577E-03-2.00508E-04-3.72837E-14
 -1       958 8.37803E-03-2.07573E-04-4.03161E-14
 -1       959 8.63408E-03-2.17361E-04-4.34464E-14
 -1       960 8.89442E-03-2.28953E-04-4.66674E-14
 -1       961 9.15900E-03-2.41720E-04-4.99823E-14
 -1       962 9.42747E-03-2.55119E-04-5.33955E-14
 -1       963 9.69940E-03-2.68701E-04-5.68986E-14
 -1       964 9.97429E-03-2.82120E-04-6.04903E-14
 -1       965 1.02516E-02-2.95131E-04-6.41649E-14
 -1       966 1.05310E-02-3.07587E-04-6.79261E-14
 -1       967 1.08120E-02-3.19421E-04-7.17648E-14
 -1       968 1.10943E-02-3.30619E-04-7.56818E-14
 -1       969 1.13775E-02-3.41207E-04-7.96753E-14
 -1       970 1.16615E-02-3.51239E-04-8.37361E-14
 -1       971 1.19461E-02-3.60782E-04-8.78519E-14
 -1       972 1.22310E-02-3.69907E-04-9.20362E-14
 -1       973 1.25163E-02-3.78684E-04-9.62858E-14
 -1       974 1.28017E-02-3.87178E-04-1.00600E-13
 -1       975 1.30873E-02-3.95449E-04-1.04962E-13
 -1       976 1.33730E-02-4.03547E-04-1.09379E-13
 -1       977 7.98987E-03 1.11332E-04-3.54586E-14
 -1       978 3.59703E-03 3.25446E-04-9.44982E-15
 -1       979 8.52044E-03 9.72565E-05-4.15219E-14
 -1       980 8.78648E-03 9.44434E-05-4.47044E-14
 -1       981 9.05479E-03 9.29384E-05-4.79819E-14
 -1       982 9.32571E-03 9.20782E-05-5.13598E-14
 -1       983 9.59924E-03 9.13478E-05-5.48335E-14
 -1       984 9.87517E-03 9.03734E-05-5.83964E-14
 -1       985 1.01532E-02 8.89022E-05-6.20468E-14
 -1       986 1.04330E-02 8.67793E-05-6.57809E-14
 -1       987 1.07143E-02 8.39372E-05-6.95977E-14
 -1       988 1.09967E-02 8.03713E-05-7.34898E-14
 -1       989 1.12801E-02 7.61164E-05-7.74525E-14
 -1       990 1.15641E-02 7.12335E-05-8.14859E-14
 -1       991 1.18487E-02 6.57983E-05-8.55896E-14
 -1       992 1.21337E-02 5.98908E-05-8.97625E-14
 -1       993 1.24190E-02 5.35894E-05-9.39972E-14
 -1       994 1.27044E-02 4.69674E-05-9.82866E-14
 -1       995 1.29900E-02 4.00905E-05-1.02630E-13
 -1       996 1.32757E-02 3.30164E-05-1.07021E-13
 -1       997 1.70795E-03-1.26416E-04-2.82860E-15
 -1       998 1.34726E-02-2.83195E-04-1.10735E-13
 -1       999 2.23471E-03-1.34148E-04-4.70763E-15
 -1      1000 1.35200E-03 1.25290E-04-1.65275E-15
 -1      1001 1.52304E-03-1.15076E-04-2.29498E-15
 -1      1002 1.31871E-03-2.36994E-05-1.79348E-15
 -1      1003 8.03291E-03-1.16434E-04-3.47814E-14
 -1      1004 1.51075E-03 1.37651E-04-2.01657E-15
 -1      1005 1.32533E-03-6.22285E-05-1.80907E-15
 -1      1006 7.85984E-03-2.18218E-04-3.45156E-14
 -1      1007 7.73271E-03 9.81144E-05-3.23585E-14
 -1      1008 2.74814E-03 1.63443E-04-6.29237E-15
 -1      1009 8.05909E-03-3.59261E-06-3.49677E-14
 -1      1010 2.81705E-03-2.68633E-05-8.07799E-15
 -1      1011 2.92325E-03 5.84114E-05-8.08881E-15
 -1      1012 1.94166E-03 1.54848E-04-3.21548E-15
 -1      1013 1.34650E-02-1.99558E-04-1.10461E-13
 -1      1014 3.02010E-03 1.71081E-04-7.54284E-15
 -1      1015 8.13474E-03-8.61782E-05-3.57487E-14
 -1      1016 1.55129E-03 5.07014E-05-2.33467E-15
 -1      1017 1.52816E-03 9.31175E-05-2.17767E-15
 -1      1018 2.84357E-03-9.88895E-05-7.86293E-15
 -1      1019 3.28202E-03 1.67072E-04-9.01534E-15
 -1      1020 1.81441E-03-7.84608E-05-3.23894E-15
 -1      1021 8.05369E-03 5.24657E-05-3.55740E-14
 -1      1022 2.32039E-03-8.17878E-05-5.21977E-15
 -1      1023 2.21140E-03 1.57985E-04-4.12766E-15
 -1      1024 8.69561E-03 3.61549E-05-4.33611E-14
 -1      1025 8.29971E-03-1.47348E-04-3.86268E-14
 -1      1026 8.53896E-03-1.56860E-04-4.17023E-14
 -1      1027 8.78691E-03-1.67146E-04-4.48729E-14
 -1      1028 9.04201E-03-1.78057E-04-4.81321E-14
 -1      1029 9.30306E-03-1.89410E-04-5.14903E-14
 -1      1030 9.56912E-03-2.00951E-04-5.49485E-14
 -1      1031 9.83936E-03-2.12472E-04-5.84934E-14
 -1      1032 1.01130E-02-2.23799E-04-6.21242E-14
 -1      1033 1.03895E-02-2.34811E-04-6.58426E-14
 -1      1034 1.06683E-02-2.45437E-04-6.96433E-14
 -1      1035 1.09488E-02-2.55651E-04-7.35200E-14
 -1      1036 1.12308E-02-2.65451E-04-7.74744E-14
 -1      1037 1.15138E-02-2.74864E-04-8.15010E-14
 -1      1038 1.17977E-02-2.83929E-04-8.55862E-14
 -1      1039 1.20822E-02-2.92693E-04-8.97355E-14
 -1      1040 1.23671E-02-3.01201E-04-9.39514E-14
 -1      1041 1.26524E-02-3.09500E-04-9.82307E-14
 -1      1042 1.29378E-02-3.17629E-04-1.02560E-13
 -1      1043 1.32051E-02-3.00503E-04-1.06627E-13
 -1      1044 8.95374E-03 3.40254E-05-4.65919E-14
 -1      1045 8.30123E-03 4.82679E-05-3.85540E-14
 -1      1046 8.49761E-03 4.19542E-05-4.09272E-14
 -1      1047 9.21665E-03 3.19708E-05-4.99196E-14
 -1      1048 9.48383E-03 2.98030E-05-5.33480E-14
 -1      1049 9.75471E-03 2.73482E-05-5.68695E-14
 -1      1050 1.00287E-02 2.44866E-05-6.04767E-14
 -1      1051 1.03054E-02 2.11243E-05-6.41729E-14
 -1      1052 1.05843E-02 1.72187E-05-6.79545E-14
 -1      1053 1.08648E-02 1.27679E-05-7.18136E-14
 -1      1054 1.11468E-02 7.79638E-06-7.57409E-14
 -1      1055 1.14298E-02 2.34595E-06-7.97415E-14
 -1      1056 1.17137E-02-3.52926E-06-8.38129E-14
 -1      1057 1.19981E-02-9.77086E-06-8.79501E-14
 -1      1058 1.22830E-02-1.63208E-05-9.21499E-14
 -1      1059 1.25682E-02-2.31245E-05-9.64103E-14
 -1      1060 1.28537E-02-3.01323E-05-1.00727E-13
 -1      1061 1.31392E-02-3.72997E-05-1.05094E-13
 -1      1062 2.07087E-03-8.06893E-05-4.17281E-15
 -1      1063 2.72328E-03 2.30548E-05-7.24320E-15
 -1      1064 8.06401E-03-1.54086E-04-3.58264E-14
 -1      1065 1.34610E-02-1.17217E-04-1.10228E-13
 -1      1066 1.34554E-02-3.31385E-05-1.09952E-13
 -1      1067 1.54350E-03-5.27579E-07-2.38506E-15
 -1      1068 2.56053E-03-8.22357E-05-6.37838E-15
 -1      1069 2.47978E-03 1.60150E-04-5.15352E-15
 -1      1070 1.63502E-03-6.99907E-05-2.66747E-15
 -1      1071 1.31976E-02-2.17029E-04-1.06368E-13
 -1      1072 2.72806E-03 8.62103E-05-6.77373E-15
 -1      1073 8.21869E-03-5.16748E-05-3.68089E-14
 -1      1074 1.77000E-03 2.52420E-05-3.04922E-15
 -1      1075 2.70330E-03-5.57329E-05-7.27205E-15
 -1      1076 2.48217E-03 8.89067E-05-5.58930E-15
 -1      1077 1.78684E-03 8.09514E-05-2.97245E-15
 -1      1078 8.21749E-03-1.15063E-04-3.71801E-14
 -1      1079 2.17645E-03-3.30134E-05-4.63899E-15
 -1      1080 2.04666E-03 8.17218E-05-3.85716E-15
 -1      1081 8.28422E-03-5.60547E-06-3.79242E-14
 -1      1082 2.49981E-03 2.75847E-05-6.01466E-15
 -1      1083 8.85228E-03-1.99083E-05-4.52099E-14
 -1      1084 8.67554E-03-1.10926E-04-4.30871E-14
 -1      1085 8.92219E-03-1.19240E-04-4.62918E-14
 -1      1086 9.17657E-03-1.28047E-04-4.95949E-14
 -1      1087 9.43749E-03-1.37052E-04-5.30030E-14
 -1      1088 9.70361E-03-1.46210E-04-5.65045E-14
 -1      1089 9.97398E-03-1.55409E-04-6.00879E-14
 -1      1090 1.02479E-02-1.64517E-04-6.37648E-14
 -1      1091 1.05246E-02-1.73520E-04-6.75261E-14
 -1      1092 1.08036E-02-1.82384E-04-7.13637E-14
 -1      1093 1.10843E-02-1.91061E-04-7.52764E-14
 -1      1094 1.13664E-02-1.99568E-04-7.92660E-14
 -1      1095 1.16496E-02-2.07916E-04-8.33225E-14
 -1      1096 1.19336E-02-2.16121E-04-8.74377E-14
 -1      1097 1.22181E-02-2.24201E-04-9.16211E-14
 -1      1098 1.25031E-02-2.32176E-04-9.58667E-14
 -1      1099 1.27884E-02-2.40067E-04-1.00165E-13
 -1      1100 1.29930E-02-2.28594E-04-1.03252E-13
 -1      1101 9.63419E-03-3.21765E-05-5.53495E-14
 -1      1102 9.90437E-03-3.69176E-05-5.89117E-14
 -1      1103 1.01781E-02-4.19530E-05-6.25658E-14
 -1      1104 1.04546E-02-4.73311E-05-6.63099E-14
 -1      1105 1.07333E-02-5.30600E-05-7.01345E-14
 -1      1106 1.10139E-02-5.90936E-05-7.40280E-14
 -1      1107 1.12959E-02-6.54094E-05-7.79948E-14
 -1      1108 1.15789E-02-7.19756E-05-8.20333E-14
 -1      1109 1.18628E-02-7.87584E-05-8.61393E-14
 -1      1110 1.21473E-02-8.57246E-05-9.03086E-14
 -1      1111 1.24322E-02-9.28426E-05-9.45359E-14
 -1      1112 1.27175E-02-1.00083E-04-9.88220E-14
 -1      1113 1.30029E-02-1.07424E-04-1.03168E-13
 -1      1114 1.80331E-03-3.94182E-05-3.22034E-15
 -1      1115 9.10714E-03-2.37063E-05-4.84892E-14
 -1      1116 8.43916E-03-1.02989E-04-3.99694E-14
 -1      1117 2.26564E-03 8.56607E-05-4.68402E-15
 -1      1118 2.58870E-03-1.50461E-05-6.63599E-15
 -1      1119 1.32340E-02-1.53405E-04-1.06802E-13
 -1      1120 9.36815E-03-2.77872E-05-5.18721E-14
 -1      1121 2.41501E-03-3.42662E-05-5.73273E-15
 -1      1122 8.46772E-03-1.10019E-05-4.02783E-14
 -1      1123 8.65926E-03-1.37171E-05-4.27414E-14
 -1      1124 2.05226E-03 1.32622E-05-4.08106E-15
 -1      1125 8.33940E-03-7.37280E-05-3.84881E-14
 -1      1126 8.79374E-03-6.44872E-05-4.44654E-14
 -1      1127 1.00497E-02-1.02436E-04-6.09637E-14
 -1      1128 8.56125E-03-6.94387E-05-4.14355E-14
 -1      1129 1.03800E-02-1.03657E-04-6.54095E-14
 -1      1130 2.29808E-03 2.59199E-05-5.07005E-15
 -1      1131 8.43126E-03-4.58358E-05-3.97011E-14
 -1      1132 0.00000E+00 0.00000E+00 0.00000E+00
 -1      1133 0.00000E+00 0.00000E+00 0.00000E+00
 -1      1134 0.00000E+00 0.00000E+00 0.00000E+00
 -1      1135 0.00000E+00 0.00000E+00 0.00000E+00
 -1      1136 0.00000E+00 0.00000E+00 0.00000E+00
 -1      1137 0.00000E+00 0.00000E+00 0.00000E+00
 -1      1138 0.00000E+00 0.00000E+00 0.00000E+00
 -1      1139 0.00000E+00 0.00000E+00 0.00000E+00
 -1      1140 0.00000E+00 0.00000E+00 0.00000E+00
 -1      1141 0.00000E+00 0.00000E+00 0.00000E+00
 -1      1142 0.00000E+00 0.00000E+00 0.00000E+00
 -1      1143 0.00000E+00 0.00000E+00 0.00000E+00
 -1      1144 0.00000E+00 0.00000E+00 0.00000E+00
 -1      1145 0.00000E+00 0.00000E+00 0.00000E+00
 -1      1146 0.00000E+00 0.00000E+00 0.00000E+00
 -1      1147 0.00000E+00 0.00000E+00 0.00000E+00
 -1      1148 0.00000E+00 0.00000E+00 0.00000E+00
 -1      1149 2.10215E-04-1.44372E-04 1.12350E-17
 -1      1150 5.52135E-04-3.22134E-04-5.38035E-17
 -1      1151 8.41176E-04-4.31210E-04-2.46398E-16
 -1      1152 1.12251E-03-5.01252E-04-5.87421E-16
 -1      1153 1.40449E-03-5.48264E-04-1.06969E-15
 -1      1154 1.69155E-03-5.80912E-04-1.68955E-15
 -1      1155 1.98669E-03-6.05138E-04-2.44321E-15
 -1      1156 2.29205E-03-6.26089E-04-3.32902E-15
 -1      1157 2.60899E-03-6.48968E-04-4.34844E-15
 -1      1158 2.93797E-03-6.79371E-04-5.50146E-15
 -1      1159 3.27798E-03-7.23219E-04-6.78444E-15
 -1      1160 3.62585E-03-7.86066E-04-8.18990E-15
 -1      1161 3.97550E-03-8.71453E-04-9.71743E-15
 -1      1162 4.31798E-03-9.78137E-04-1.13708E-14
 -1      1163 4.64303E-03-1.09694E-03-1.31498E-14
 -1      1164 4.94284E-03-1.20937E-03-1.50595E-14
 -1      1165 5.21707E-03-1.29100E-03-1.71035E-14
 -1      1166 5.47557E-03-1.32051E-03-1.92791E-14
 -1      1167 5.73558E-03-1.29007E-03-2.15853E-14
 -1      1168 6.01388E-03-1.20959E-03-2.40141E-14
 -1      1169 6.31925E-03-1.10151E-03-2.65552E-14
 -1      1170 6.65035E-03-9.90161E-04-2.92065E-14
 -1      1171 6.99901E-03-8.93297E-04-3.19684E-14
 -1      1172 7.35516E-03-8.19434E-04-3.48448E-14
 -1      1173 7.71035E-03-7.69618E-04-3.78263E-14
 -1      1174 8.05910E-03-7.40670E-04-4.09040E-14
 -1      1175 8.39871E-03-7.27886E-04-4.40736E-14
 -1      1176 8.72851E-03-7.26624E-04-4.73347E-14
 -1      1177 9.04903E-03-7.33003E-04-5.07006E-14
 -1      1178 9.36144E-03-7.44066E-04-5.41637E-14
 -1      1179 9.66708E-03-7.57691E-04-5.77100E-14
 -1      1180 9.96728E-03-7.72439E-04-6.13471E-14
 -1      1181 1.02632E-02-7.87379E-04-6.50700E-14
 -1      1182 1.05560E-02-8.01947E-04-6.88661E-14
 -1      1183 1.08463E-02-8.15835E-04-7.27279E-14
 -1      1184 1.11349E-02-8.28905E-04-7.66653E-14
 -1      1185 1.14222E-02-8.41128E-04-8.06753E-14
 -1      1186 1.17087E-02-8.52545E-04-8.47468E-14
 -1      1187 1.19947E-02-8.63232E-04-8.88824E-14
 -1      1188 1.22803E-02-8.73282E-04-9.30838E-14
 -1      1189 1.25657E-02-8.82794E-04-9.73590E-14
 -1      1190 1.28510E-02-8.91865E-04-1.01711E-13
 -1      1191 1.31363E-02-9.00582E-04-1.06125E-13
 -1      1192 1.34217E-02-9.09025E-04-1.10594E-13
 -1      1193 1.37071E-02-9.17265E-04-1.15120E-13
 -1      1194 1.39925E-02-9.25364E-04-1.19690E-13
 -1      1195 1.42781E-02-9.33378E-04-1.24302E-13
 -1      1196 1.45637E-02-9.41356E-04-1.28954E-13
 -1      1197 1.48494E-02-9.49341E-04-1.33652E-13
 -1      1198 1.51279E-02-9.57158E-04-1.38279E-13
 -1      1199 2.26712E-04 1.56566E-04 3.85434E-17
 -1      1200 5.54251E-04 3.26811E-04 4.48860E-17
 -1      1201 8.42048E-04 4.33749E-04-4.93854E-17
 -1      1202 1.12318E-03 5.03633E-04-2.59463E-16
 -1      1203 1.40484E-03 5.51023E-04-5.87882E-16
 -1      1204 1.69136E-03 5.84243E-04-1.03640E-15
 -1      1205 1.98555E-03 6.09150E-04-1.60653E-15
 -1      1206 2.28928E-03 6.30810E-04-2.29984E-15
 -1      1207 2.60360E-03 6.54235E-04-3.11943E-15
 -1      1208 2.92860E-03 6.84637E-04-4.06515E-15
 -1      1209 3.26291E-03 7.27272E-04-5.13795E-15
 -1      1210 3.60316E-03 7.86711E-04-6.33421E-15
 -1      1211 3.94350E-03 8.65311E-04-7.65180E-15
 -1      1212 4.27591E-03 9.60928E-04-9.09345E-15
 -1      1213 4.59170E-03 1.06457E-03-1.06693E-14
 -1      1214 4.88481E-03 1.15976E-03-1.23868E-14
 -1      1215 5.15567E-03 1.22576E-03-1.42460E-14
 -1      1216 5.41308E-03 1.24495E-03-1.62452E-14
 -1      1217 5.67177E-03 1.21087E-03-1.83898E-14
 -1      1218 5.94613E-03 1.13165E-03-2.06725E-14
 -1      1219 6.24419E-03 1.02587E-03-2.30912E-14
 -1      1220 6.56564E-03 9.14353E-04-2.56364E-14
 -1      1221 6.90411E-03 8.13076E-04-2.82986E-14
 -1      1222 7.25105E-03 7.30548E-04-3.10840E-14
 -1      1223 7.59879E-03 6.68790E-04-3.39795E-14
 -1      1224 7.94201E-03 6.25795E-04-3.69771E-14
 -1      1225 8.27778E-03 5.97816E-04-4.00714E-14
 -1      1226 8.60505E-03 5.80847E-04-4.32718E-14
 -1      1227 8.92398E-03 5.71373E-04-4.65766E-14
 -1      1228 9.23543E-03 5.66612E-04-4.99759E-14
 -1      1229 9.54052E-03 5.64514E-04-5.34647E-14
 -1      1230 9.84042E-03 5.63653E-04-5.70306E-14
 -1      1231 1.01362E-02 5.63084E-04-6.06759E-14
 -1      1232 1.04289E-02 5.62225E-04-6.43951E-14
 -1      1233 1.07192E-02 5.60745E-04-6.82002E-14
 -1      1234 1.10078E-02 5.58490E-04-7.20919E-14
 -1      1235 1.12951E-02 5.55419E-04-7.60617E-14
 -1      1236 1.15817E-02 5.51560E-04-8.01151E-14
 -1      1237 1.18676E-02 5.46984E-04-8.42610E-14
 -1      1238 1.21532E-02 5.41778E-04-8.84820E-14
 -1      1239 1.24387E-02 5.36040E-04-9.27538E-14
 -1      1240 1.27240E-02 5.29863E-04-9.70720E-14
 -1      1241 1.30093E-02 5.23333E-04-1.01435E-13
 -1      1242 1.32946E-02 5.16531E-04-1.05844E-13
 -1      1243 1.35800E-02 5.09527E-04-1.10293E-13
 -1      1244 1.38655E-02 5.02381E-04-1.14776E-13
 -1      1245 1.41510E-02 4.95151E-04-1.19290E-13
 -1      1246 1.44366E-02 4.87884E-04-1.23820E-13
 -1      1247 1.47223E-02 4.80624E-04-1.28344E-13
 -1      1248 1.50009E-02 4.73577E-04-1.32739E-13
 -1      1249 1.51401E-02 4.28012E-04-1.35043E-13
 -1      1250 1.51472E-02 3.43722E-04-1.35420E-13
 -1      1251 1.51542E-02 2.59398E-04-1.35803E-13
 -1      1252 1.51613E-02 1.75021E-04-1.36165E-13
 -1      1253 1.51683E-02 9.05873E-05-1.36521E-13
 -1      1254 1.51754E-02 6.81665E-06-1.36878E-13
 -1      1255 1.51825E-02-7.69958E-05-1.37250E-13
 -1      1256 1.51899E-02-1.61554E-04-1.37625E-13
 -1      1257 1.51973E-02-2.46127E-04-1.37995E-13
 -1      1258 1.52049E-02-3.30700E-04-1.38363E-13
 -1      1259 1.52125E-02-4.15258E-04-1.38730E-13
 -1      1260 1.52202E-02-4.99070E-04-1.39097E-13
 -1      1261 1.52280E-02-5.82840E-04-1.39445E-13
 -1      1262 1.52360E-02-6.67273E-04-1.39751E-13
 -1      1263 1.52439E-02-7.51649E-04-1.40011E-13
 -1      1264 1.52519E-02-8.35972E-04-1.40234E-13
 -1      1265 1.52598E-02-9.19548E-04-1.40441E-13
 -1      1266 7.63978E-03 2.85555E-05-2.36987E-14
 -1      1267 7.52069E-03 1.78357E-04-2.33335E-14
 -1      1268 7.29458E-03 3.34823E-04-2.27326E-14
 -1      1269 6.98092E-03 4.92415E-04-2.19261E-14
 -1      1270 6.62874E-03 6.30150E-04-2.10293E-14
 -1      1271 6.23275E-03 7.45893E-04-2.00293E-14
 -1      1272 5.80079E-03 8.23887E-04-1.89512E-14
 -1      1273 5.35651E-03 8.48904E-04-1.78711E-14
 -1      1274 4.90382E-03 8.11709E-04-1.68182E-14
 -1      1275 4.46703E-03 7.21763E-04-1.58681E-14
 -1      1276 4.08028E-03 5.99198E-04-1.50937E-14
 -1      1277 3.73703E-03 4.55178E-04-1.44692E-14
 -1      1278 3.45297E-03 2.98834E-04-1.40059E-14
 -1      1279 3.26168E-03 1.40731E-04-1.37388E-14
 -1      1280 3.18593E-03-1.00815E-05-1.36855E-14
 -1      1281 3.22846E-03-1.60509E-04-1.38377E-14
 -1      1282 3.39446E-03-3.22525E-04-1.42159E-14
 -1      1283 3.66071E-03-4.84742E-04-1.47866E-14
 -1      1284 4.01192E-03-6.44295E-04-1.55417E-14
 -1      1285 4.41867E-03-7.86237E-04-1.64457E-14
 -1      1286 4.84572E-03-8.86943E-04-1.74315E-14
 -1      1287 5.31052E-03-9.35937E-04-1.85449E-14
 -1      1288 5.76390E-03-9.24892E-04-1.96480E-14
 -1      1289 6.18982E-03-8.57006E-04-2.06732E-14
 -1      1290 6.61379E-03-7.38322E-04-2.16689E-14
 -1      1291 6.99409E-03-5.92146E-04-2.25259E-14
 -1      1292 7.30085E-03-4.38264E-04-2.31809E-14
 -1      1293 7.52460E-03-2.82379E-04-2.36217E-14
 -1      1294 7.64339E-03-1.26983E-04-2.38055E-14
 -1      1295 1.67560E-04-1.06242E-04-9.06664E-18
 -1      1296 1.14422E-04-5.20786E-05-3.14690E-17
 -1      1297 1.19325E-04-6.32738E-05-2.51941E-17
 -1      1298 1.10001E-04-3.75845E-05-4.15792E-17
 -1      1299 1.12062E-04-4.40587E-05-3.85840E-17
 -1      1300 2.30322E-04-9.70218E-05-9.10052E-17
 -1      1301 1.07719E-04-2.73589E-05-4.68104E-17
 -1      1302 1.08939E-04-3.21190E-05-4.54010E-17
 -1      1303 2.22065E-04-7.05372E-05-1.08718E-16
 -1      1304 1.06097E-04-1.94592E-05-4.93176E-17
 -1      1305 1.06958E-04-2.32090E-05-4.87213E-17
 -1      1306 2.17137E-04-5.12261E-05-1.18110E-16
 -1      1307 1.04896E-04-1.31894E-05-5.04018E-17
 -1      1308 1.05518E-04-1.61992E-05-5.02257E-17
 -1      1309 2.13616E-04-3.62496E-05-1.22623E-16
 -1      1310 1.04029E-04-7.86981E-06-5.07407E-17
 -1      1311 1.04453E-04-1.04625E-05-5.08491E-17
 -1      1312 2.10997E-04-2.40584E-05-1.24602E-16
 -1      1313 1.03544E-04-3.20998E-06-5.02257E-17
 -1      1314 1.03756E-04-5.52921E-06-5.04696E-17
 -1      1315 2.09212E-04-1.36554E-05-1.24534E-16
 -1      1316 1.03462E-04 1.17918E-06-4.90737E-17
 -1      1317 1.03455E-04-1.05616E-06-4.94532E-17
 -1      1318 2.08320E-04-4.35280E-06-1.22786E-16
 -1      1319 1.03786E-04 5.68265E-06-4.74338E-17
 -1      1320 1.03562E-04 3.34368E-06-4.78675E-17
 -1      1321 2.08351E-04 4.61265E-06-1.19696E-16
 -1      1322 1.04501E-04 1.06848E-05-4.52383E-17
 -1      1323 1.04068E-04 8.05403E-06-4.59295E-17
 -1      1324 2.09299E-04 1.39934E-05-1.15400E-16
 -1      1325 1.05564E-04 1.64685E-05-4.19044E-17
 -1      1326 1.04939E-04 1.34108E-05-4.29344E-17
 -1      1327 2.11105E-04 2.44489E-05-1.09274E-16
 -1      1328 1.07021E-04 2.36619E-05-3.71339E-17
 -1      1329 1.06158E-04 1.98442E-05-3.87196E-17
 -1      1330 2.13740E-04 3.68314E-05-1.00600E-16
 -1      1331 1.08983E-04 3.27581E-05-3.05609E-17
 -1      1332 1.07766E-04 2.79100E-05-3.30953E-17
 -1      1333 2.17294E-04 5.22095E-05-8.88504E-17
 -1      1334 1.12029E-04 4.48684E-05-2.03830E-17
 -1      1335 1.10000E-04 3.83204E-05-2.47063E-17
 -1      1336 2.22171E-04 7.19032E-05-7.21401E-17
 -1      1337 1.18617E-04 6.34097E-05-4.83825E-18
 -1      1338 1.14054E-04 5.29471E-05-1.22515E-17
 -1      1339 2.30270E-04 9.89664E-05-4.79082E-17
 -1      1340 1.57990E-04 1.06280E-04 1.87703E-17
 -1      1341 1.37244E-04 8.19988E-05 4.55365E-18
 -1      1342 2.59927E-04 1.42769E-04-1.91904E-17
 -1      1343 3.36717E-04 2.11630E-04 2.06134E-17
 -1      1344 4.24754E-04-2.48826E-04-6.60415E-17
 -1      1345 5.80636E-04-3.17394E-04-1.31338E-16
 -1      1346 7.31509E-04-3.71537E-04-2.35516E-16
 -1      1347 8.79280E-04-4.14515E-04-3.75513E-16
 -1      1348 6.22319E-04-3.07239E-04-2.19578E-16
 -1      1349 1.02491E-03-4.49490E-04-5.49691E-16
 -1      1350 1.16941E-03-4.77695E-04-7.58603E-16
 -1      1351 9.24428E-04-3.94935E-04-5.08003E-16
 -1      1352 1.31370E-03-5.01016E-04-1.00165E-15
 -1      1353 1.45836E-03-5.20071E-04-1.27941E-15
 -1      1354 1.21920E-03-4.52281E-04-9.32089E-16
 -1      1355 1.60397E-03-5.35996E-04-1.59038E-15
 -1      1356 1.75089E-03-5.49327E-04-1.93489E-15
 -1      1357 1.51263E-03-4.90488E-04-1.49049E-15
 -1      1358 1.89948E-03-5.60853E-04-2.31244E-15
 -1      1359 2.04999E-03-5.71149E-04-2.72266E-15
 -1      1360 1.80871E-03-5.16697E-04-2.18137E-15
 -1      1361 2.20267E-03-5.80906E-04-3.16591E-15
 -1      1362 2.35764E-03-5.90744E-04-3.64211E-15
 -1      1363 2.11016E-03-5.36506E-04-3.00315E-15
 -1      1364 2.51506E-03-6.01387E-04-4.15153E-15
 -1      1365 2.67495E-03-6.13499E-04-4.69306E-15
 -1      1366 2.41871E-03-5.55213E-04-3.95552E-15
 -1      1367 2.83734E-03-6.27900E-04-5.26806E-15
 -1      1368 3.00209E-03-6.45264E-04-5.87551E-15
 -1      1369 2.73535E-03-5.78403E-04-5.03718E-15
 -1      1370 3.16903E-03-6.66495E-04-6.51370E-15
 -1      1371 3.33784E-03-6.92192E-04-7.18373E-15
 -1      1372 3.06021E-03-6.12160E-04-6.24682E-15
 -1      1373 3.50809E-03-7.23202E-04-7.88401E-15
 -1      1374 3.67918E-03-7.59863E-04-8.61442E-15
 -1      1375 3.39229E-03-6.62802E-04-7.58122E-15
 -1      1376 3.85042E-03-8.02648E-04-9.37595E-15
 -1      1377 4.02093E-03-8.51324E-04-1.01689E-14
 -1      1378 3.72916E-03-7.35776E-04-9.03784E-15
 -1      1379 4.18984E-03-9.05493E-04-1.09930E-14
 -1      1380 4.35612E-03-9.63960E-04-1.18486E-14
 -1      1381 4.06676E-03-8.33376E-04-1.06185E-14
 -1      1382 4.51893E-03-1.02498E-03-1.27356E-14
 -1      1383 4.67751E-03-1.08621E-03-1.36549E-14
 -1      1384 4.39962E-03-9.51286E-04-1.23241E-14
 -1      1385 4.83141E-03-1.14452E-03-1.46065E-14
 -1      1386 4.98059E-03-1.19678E-03-1.55922E-14
 -1      1387 4.72214E-03-1.07534E-03-1.41572E-14
 -1      1388 5.12541E-03-1.23939E-03-1.66110E-14
 -1      1389 5.26684E-03-1.26960E-03-1.76627E-14
 -1      1390 5.03107E-03-1.18162E-03-1.61211E-14
 -1      1391 5.40608E-03-1.28500E-03-1.87475E-14
 -1      1392 5.54486E-03-1.28457E-03-1.98645E-14
 -1      1393 5.32832E-03-1.24316E-03-1.82184E-14
 -1      1394 5.68468E-03-1.26847E-03-2.10150E-14
 -1      1395 5.82724E-03-1.23802E-03-2.21973E-14
 -1      1396 5.62150E-03-1.24217E-03-2.04482E-14
 -1      1397 5.97365E-03-1.19583E-03-2.34093E-14
 -1      1398 6.12478E-03-1.14484E-03-2.46486E-14
 -1      1399 5.92058E-03-1.17992E-03-2.28057E-14
 -1      1400 6.28089E-03-1.08866E-03-2.59172E-14
 -1      1401 6.44185E-03-1.03042E-03-2.72157E-14
 -1      1402 6.23266E-03-1.07604E-03-2.52829E-14
 -1      1403 6.60715E-03-9.73129E-04-2.85399E-14
 -1      1404 6.77600E-03-9.19053E-04-2.98913E-14
 -1      1405 6.55900E-03-9.57896E-04-2.78740E-14
 -1      1406 6.94753E-03-8.69800E-04-3.12728E-14
 -1      1407 7.12076E-03-8.26487E-04-3.26808E-14
 -1      1408 6.89600E-03-8.48730E-04-3.05780E-14
 -1      1409 7.29484E-03-7.89430E-04-3.41176E-14
 -1      1410 7.46893E-03-7.58853E-04-3.55799E-14
 -1      1411 7.23808E-03-7.61792E-04-3.33925E-14
 -1      1412 7.64241E-03-7.34282E-04-3.70666E-14
 -1      1413 7.81471E-03-7.15436E-04-3.85802E-14
 -1      1414 7.57998E-03-7.00890E-04-3.63125E-14
 -1      1415 7.98546E-03-7.01542E-04-4.01182E-14
 -1      1416 8.15437E-03-6.92112E-04-4.16786E-14
 -1      1417 7.91792E-03-6.63825E-04-3.93334E-14
 -1      1418 8.32129E-03-6.86383E-04-4.32615E-14
 -1      1419 8.48613E-03-6.83836E-04-4.48679E-14
 -1      1420 8.24967E-03-6.45794E-04-4.24520E-14
 -1      1421 8.64890E-03-6.83852E-04-4.64992E-14
 -1      1422 8.80963E-03-6.85969E-04-4.81543E-14
 -1      1423 8.57435E-03-6.41599E-04-4.56643E-14
 -1      1424 8.96842E-03-6.89740E-04-4.98354E-14
 -1      1425 9.12537E-03-6.94786E-04-5.15408E-14
 -1      1426 8.89196E-03-6.46708E-04-4.89726E-14
 -1      1427 9.28062E-03-7.00809E-04-5.32692E-14
 -1      1428 9.43429E-03-7.07520E-04-5.50190E-14
 -1      1429 9.20307E-03-6.57594E-04-5.23767E-14
 -1      1430 9.58654E-03-7.14734E-04-5.67911E-14
 -1      1431 9.73750E-03-7.22239E-04-5.85839E-14
 -1      1432 9.50850E-03-6.71702E-04-5.58729E-14
 -1      1433 9.88731E-03-7.29931E-04-6.03994E-14
 -1      1434 1.00361E-02-7.37659E-04-6.22381E-14
 -1      1435 9.80917E-03-6.87283E-04-5.94558E-14
 -1      1436 1.01840E-02-7.45373E-04-6.40962E-14
 -1      1437 1.03310E-02-7.52973E-04-6.59730E-14
 -1      1438 1.01060E-02-7.03201E-04-6.31244E-14
 -1      1439 1.04774E-02-7.60441E-04-6.78688E-14
 -1      1440 1.06232E-02-7.67713E-04-6.97821E-14
 -1      1441 1.03997E-02-7.18763E-04-6.68738E-14
 -1      1442 1.07684E-02-7.74792E-04-7.17141E-14
 -1      1443 1.09132E-02-7.81640E-04-7.36631E-14
 -1      1444 1.06911E-02-7.33585E-04-7.06993E-14
 -1      1445 1.10576E-02-7.88272E-04-7.56306E-14
 -1      1446 1.12017E-02-7.94667E-04-7.76158E-14
 -1      1447 1.09807E-02-7.47491E-04-7.45967E-14
 -1      1448 1.13455E-02-8.00846E-04-7.96198E-14
 -1      1449 1.14891E-02-8.06802E-04-8.16392E-14
 -1      1450 1.12690E-02-7.60436E-04-7.85654E-14
 -1      1451 1.16324E-02-8.12556E-04-8.36744E-14
 -1      1452 1.17757E-02-8.18108E-04-8.57259E-14
 -1      1453 1.15563E-02-7.72458E-04-8.26017E-14
 -1      1454 1.19188E-02-8.23481E-04-8.77924E-14
 -1      1455 1.20618E-02-8.28678E-04-8.98761E-14
 -1      1456 1.18429E-02-7.83640E-04-8.67036E-14
 -1      1457 1.22047E-02-8.33720E-04-9.19772E-14
 -1      1458 1.23475E-02-8.38615E-04-9.40962E-14
 -1      1459 1.21290E-02-7.94087E-04-9.08696E-14
 -1      1460 1.24903E-02-8.43380E-04-9.62325E-14
 -1      1461 1.26331E-02-8.48024E-04-9.83869E-14
 -1      1462 1.24149E-02-8.03910E-04-9.51063E-14
 -1      1463 1.27758E-02-8.52562E-04-1.00559E-13
 -1      1464 1.29185E-02-8.57004E-04-1.02748E-13
 -1      1465 1.27006E-02-8.13217E-04-9.94121E-14
 -1      1466 1.30613E-02-8.61362E-04-1.04950E-13
 -1      1467 1.32040E-02-8.65644E-04-1.07169E-13
 -1      1468 1.29861E-02-8.22111E-04-1.03780E-13
 -1      1469 1.33467E-02-8.69863E-04-1.09402E-13
 -1      1470 1.34894E-02-8.74026E-04-1.11646E-13
 -1      1471 1.32716E-02-8.30680E-04-1.08210E-13
 -1      1472 1.36321E-02-8.78141E-04-1.13904E-13
 -1      1473 1.37749E-02-8.82218E-04-1.16177E-13
 -1      1474 1.35572E-02-8.39004E-04-1.12696E-13
 -1      1475 1.39176E-02-8.86262E-04-1.18461E-13
 -1      1476 1.40604E-02-8.90282E-04-1.20753E-13
 -1      1477 1.38427E-02-8.47153E-04-1.17233E-13
 -1      1478 1.42032E-02-8.94284E-04-1.23059E-13
 -1      1479 1.43460E-02-8.98274E-04-1.25376E-13
 -1      1480 1.41283E-02-8.55187E-04-1.21819E-13
 -1      1481 1.44888E-02-9.02258E-04-1.27702E-13
 -1      1482 1.46316E-02-9.06242E-04-1.30040E-13
 -1      1483 1.44139E-02-8.63162E-04-1.26447E-13
 -1      1484 1.47745E-02-9.10230E-04-1.32389E-13
 -1      1485 1.49173E-02-9.14228E-04-1.34749E-13
 -1      1486 1.46996E-02-8.71125E-04-1.31123E-13
 -1      1487 1.51240E-02-9.15729E-04-1.38178E-13
 -1      1488 1.50491E-02-8.76605E-04-1.36901E-13
 -1      1489 6.49862E-04 3.50361E-04-2.75929E-17
 -1      1490 4.96701E-04 2.88360E-04 1.04219E-17
 -1      1491 4.50582E-04 2.50470E-04-1.89735E-17
 -1      1492 9.44411E-04 4.38049E-04-1.88719E-16
 -1      1493 7.98582E-04 3.98595E-04-9.40003E-17
 -1      1494 7.57460E-04 3.62427E-04-1.32191E-16
 -1      1495 1.23232E-03 4.96274E-04-4.64079E-16
 -1      1496 1.08861E-03 4.70009E-04-3.11518E-16
 -1      1497 1.05377E-03 4.35623E-04-3.57624E-16
 -1      1498 1.52048E-03 5.35979E-04-8.57143E-16
 -1      1499 1.37601E-03 5.17981E-04-6.45846E-16
 -1      1500 1.34575E-03 4.84472E-04-6.97765E-16
 -1      1501 1.81298E-03 5.64060E-04-1.37119E-15
 -1      1502 1.66596E-03 5.51124E-04-1.09883E-15
 -1      1503 1.63847E-03 5.17785E-04-1.15592E-15
 -1      1504 2.11235E-03 5.85947E-04-2.00626E-15
 -1      1505 1.96166E-03 5.75457E-04-1.67332E-15
 -1      1506 1.93527E-03 5.41748E-04-1.73413E-15
 -1      1507 2.42016E-03 6.06703E-04-2.76508E-15
 -1      1508 2.26512E-03 5.96147E-04-2.37028E-15
 -1      1509 2.23828E-03 5.61643E-04-2.43487E-15
 -1      1510 2.73706E-03 6.31518E-04-3.64994E-15
 -1      1511 2.57745E-03 6.18285E-04-3.19174E-15
 -1      1512 2.54869E-03 5.82643E-04-3.25862E-15
 -1      1513 3.06263E-03 6.65806E-04-4.65882E-15
 -1      1514 2.89881E-03 6.47188E-04-4.13891E-15
 -1      1515 2.86685E-03 6.10154E-04-4.20638E-15
 -1      1516 3.39501E-03 7.14844E-04-5.79352E-15
 -1      1517 3.22813E-03 6.88282E-04-5.21076E-15
 -1      1518 3.19209E-03 6.49747E-04-5.27855E-15
 -1      1519 3.73058E-03 7.82703E-04-7.04978E-15
 -1      1520 3.56269E-03 7.46416E-04-6.40621E-15
 -1      1521 3.52241E-03 7.06511E-04-6.47351E-15
 -1      1522 4.06383E-03 8.70293E-04-8.42937E-15
 -1      1523 3.89791E-03 8.24354E-04-7.72395E-15
 -1      1524 3.85434E-03 7.83582E-04-7.79125E-15
 -1      1525 4.38813E-03 9.72758E-04-9.93637E-15
 -1      1526 4.22756E-03 9.20425E-04-9.16652E-15
 -1      1527 4.18307E-03 8.79755E-04-9.23321E-15
 -1      1528 4.69749E-03 1.07742E-03-1.15805E-14
 -1      1529 4.54501E-03 1.02598E-03-1.07412E-14
 -1      1530 4.50325E-03 9.86784E-04-1.08067E-14
 -1      1531 4.98935E-03 1.16449E-03-1.33649E-14
 -1      1532 4.84560E-03 1.12445E-03-1.24549E-14
 -1      1533 4.81084E-03 1.08811E-03-1.25172E-14
 -1      1534 5.26694E-03 1.21255E-03-1.52915E-14
 -1      1535 5.12947E-03 1.19433E-03-1.43104E-14
 -1      1536 5.10537E-03 1.16161E-03-1.43687E-14
 -1      1537 5.53928E-03 1.20747E-03-1.73581E-14
 -1      1538 5.40300E-03 1.21676E-03-1.63068E-14
 -1      1539 5.39145E-03 1.18723E-03-1.63625E-14
 -1      1540 5.81786E-03 1.14942E-03-1.95695E-14
 -1      1541 5.67705E-03 1.18424E-03-1.84467E-14
 -1      1542 5.67758E-03 1.15643E-03-1.84980E-14
 -1      1543 6.11169E-03 1.05291E-03-2.19150E-14
 -1      1544 5.96247E-03 1.10460E-03-2.07254E-14
 -1      1545 5.97243E-03 1.07672E-03-2.07726E-14
 -1      1546 6.42399E-03 9.39599E-04-2.43943E-14
 -1      1547 6.26555E-03 9.97017E-04-2.31380E-14
 -1      1548 6.28099E-03 9.67760E-04-2.31812E-14
 -1      1549 6.75221E-03 8.29409E-04-2.69953E-14
 -1      1550 6.58643E-03 8.83202E-04-2.56801E-14
 -1      1551 6.60319E-03 8.52073E-04-2.57187E-14
 -1      1552 7.09049E-03 7.35192E-04-2.97141E-14
 -1      1553 6.92053E-03 7.79903E-04-2.83397E-14
 -1      1554 6.93528E-03 7.47071E-04-2.83756E-14
 -1      1555 7.43234E-03 6.62119E-04-3.25488E-14
 -1      1556 7.26137E-03 6.95999E-04-3.11183E-14
 -1      1557 7.27206E-03 6.61964E-04-3.11484E-14
 -1      1558 7.77245E-03 6.09793E-04-3.54899E-14
 -1      1559 7.60290E-03 6.33559E-04-3.40070E-14
 -1      1560 7.60876E-03 5.98881E-04-3.40301E-14
 -1      1561 8.10735E-03 5.74923E-04-3.85331E-14
 -1      1562 7.94072E-03 5.90444E-04-3.69979E-14
 -1      1563 7.94189E-03 5.55595E-04-3.70167E-14
 -1      1564 8.43529E-03 5.53318E-04-4.16754E-14
 -1      1565 8.27227E-03 5.62722E-04-4.00920E-14
 -1      1566 8.26940E-03 5.28036E-04-4.01059E-14
 -1      1567 8.75581E-03 5.41020E-04-4.49238E-14
 -1      1568 8.59648E-03 5.46223E-04-4.32862E-14
 -1      1569 8.59045E-03 5.11903E-04-4.32983E-14
 -1      1570 9.06927E-03 5.34768E-04-4.82721E-14
 -1      1571 8.91338E-03 5.37305E-04-4.65865E-14
 -1      1572 8.90502E-03 5.03447E-04-4.65915E-14
 -1      1573 9.37647E-03 5.32097E-04-5.17093E-14
 -1      1574 9.22359E-03 5.33106E-04-4.99791E-14
 -1      1575 9.21363E-03 4.99734E-04-4.99790E-14
 -1      1576 9.67838E-03 5.31252E-04-5.52328E-14
 -1      1577 9.52802E-03 5.31529E-04-5.34610E-14
 -1      1578 9.51704E-03 4.98621E-04-5.34553E-14
 -1      1579 9.97599E-03 5.31050E-04-5.88353E-14
 -1      1580 9.82766E-03 5.31124E-04-5.70242E-14
 -1      1581 9.81609E-03 4.98632E-04-5.70150E-14
 -1      1582 1.02702E-02 5.30739E-04-6.25163E-14
 -1      1583 1.01235E-02 5.30941E-04-6.06652E-14
 -1      1584 1.01116E-02 4.98807E-04-6.06543E-14
 -1      1585 1.05618E-02 5.29880E-04-6.62782E-14
 -1      1586 1.04163E-02 5.30396E-04-6.43863E-14
 -1      1587 1.04044E-02 4.98559E-04-6.43725E-14
 -1      1588 1.08514E-02 5.28245E-04-7.01219E-14
 -1      1589 1.07068E-02 5.29167E-04-6.81895E-14
 -1      1590 1.06950E-02 4.97572E-04-6.81752E-14
 -1      1591 1.11396E-02 5.25753E-04-7.40520E-14
 -1      1592 1.09957E-02 5.27108E-04-7.20780E-14
 -1      1593 1.09839E-02 4.95703E-04-7.20604E-14
 -1      1594 1.14268E-02 5.22410E-04-7.80582E-14
 -1      1595 1.12833E-02 5.24186E-04-7.60448E-14
 -1      1596 1.12718E-02 4.92928E-04-7.60239E-14
 -1      1597 1.17133E-02 5.18278E-04-8.21472E-14
 -1      1598 1.15701E-02 5.20438E-04-8.00913E-14
 -1      1599 1.15587E-02 4.89293E-04-8.00650E-14
 -1      1600 1.19992E-02 5.13443E-04-8.63270E-14
 -1      1601 1.18563E-02 5.15942E-04-8.42270E-14
 -1      1602 1.18451E-02 4.84880E-04-8.41906E-14
 -1      1603 1.22849E-02 5.08007E-04-9.05671E-14
 -1      1604 1.21421E-02 5.10794E-04-8.84397E-14
 -1      1605 1.21310E-02 4.79792E-04-8.83958E-14
 -1      1606 1.25704E-02 5.02070E-04-9.48581E-14
 -1      1607 1.24277E-02 5.05095E-04-9.27071E-14
 -1      1608 1.24168E-02 4.74135E-04-9.26597E-14
 -1      1609 1.28559E-02 4.95726E-04-9.91986E-14
 -1      1610 1.27132E-02 4.98943E-04-9.70232E-14
 -1      1611 1.27024E-02 4.68011E-04-9.69727E-14
 -1      1612 1.31413E-02 4.89062E-04-1.03582E-13
 -1      1613 1.29986E-02 4.92429E-04-1.01383E-13
 -1      1614 1.29879E-02 4.61514E-04-1.01331E-13
 -1      1615 1.34267E-02 4.82155E-04-1.08007E-13
 -1      1616 1.32840E-02 4.85634E-04-1.05789E-13
 -1      1617 1.32734E-02 4.54730E-04-1.05732E-13
 -1      1618 1.37122E-02 4.75072E-04-1.12473E-13
 -1      1619 1.35695E-02 4.78631E-04-1.10236E-13
 -1      1620 1.35589E-02 4.47731E-04-1.10176E-13
 -1      1621 1.39977E-02 4.67874E-04-1.16965E-13
 -1      1622 1.38550E-02 4.71484E-04-1.14716E-13
 -1      1623 1.38444E-02 4.40584E-04-1.14654E-13
 -1      1624 1.42833E-02 4.60614E-04-1.21486E-13
 -1      1625 1.41405E-02 4.64249E-04-1.19223E-13
 -1      1626 1.41300E-02 4.33345E-04-1.19156E-13
 -1      1627 1.45690E-02 4.53339E-04-1.26006E-13
 -1      1628 1.44261E-02 4.56976E-04-1.23745E-13
 -1      1629 1.44156E-02 4.26067E-04-1.23672E-13
 -1      1630 1.48547E-02 4.46088E-04-1.30519E-13
 -1      1631 1.47118E-02 4.49709E-04-1.28265E-13
 -1      1632 1.47013E-02 4.18794E-04-1.28189E-13
 -1      1633 1.50044E-02 4.31434E-04-1.32910E-13
 -1      1634 1.50252E-02 3.25756E-04-1.33561E-13
 -1      1635 1.50217E-02 3.67910E-04-1.33370E-13
 -1      1636 1.50323E-02 2.41418E-04-1.33932E-13
 -1      1637 1.50288E-02 2.83592E-04-1.33749E-13
 -1      1638 1.49033E-02 3.07800E-04-1.31698E-13
 -1      1639 1.50393E-02 1.57038E-04-1.34292E-13
 -1      1640 1.50358E-02 1.99234E-04-1.34112E-13
 -1      1641 1.49103E-02 2.23458E-04-1.32061E-13
 -1      1642 1.50464E-02 7.26134E-05-1.34649E-13
 -1      1643 1.50428E-02 1.14831E-04-1.34473E-13
 -1      1644 1.49173E-02 1.39081E-04-1.32421E-13
 -1      1645 1.50534E-02-1.04195E-05-1.35008E-13
 -1      1646 1.50499E-02 3.11014E-05-1.34827E-13
 -1      1647 1.49243E-02 5.53843E-05-1.32778E-13
 -1      1648 1.50606E-02-9.49152E-05-1.35373E-13
 -1      1649 1.50570E-02-5.26640E-05-1.35191E-13
 -1      1650 1.49314E-02-2.83415E-05-1.33135E-13
 -1      1651 1.50680E-02-1.79432E-04-1.35740E-13
 -1      1652 1.50643E-02-1.37172E-04-1.35554E-13
 -1      1653 1.49387E-02-1.12806E-04-1.33492E-13
 -1      1654 1.50754E-02-2.63958E-04-1.36100E-13
 -1      1655 1.50717E-02-2.21694E-04-1.35922E-13
 -1      1656 1.49461E-02-1.97284E-04-1.33848E-13
 -1      1657 1.50830E-02-3.48480E-04-1.36456E-13
 -1      1658 1.50792E-02-3.06220E-04-1.36278E-13
 -1      1659 1.49536E-02-2.81767E-04-1.34200E-13
 -1      1660 1.50907E-02-4.32988E-04-1.36813E-13
 -1      1661 1.50869E-02-3.90737E-04-1.36635E-13
 -1      1662 1.49612E-02-3.66245E-04-1.34546E-13
 -1      1663 1.50984E-02-5.16037E-04-1.37151E-13
 -1      1664 1.50945E-02-4.74516E-04-1.36985E-13
 -1      1665 1.49689E-02-4.49993E-04-1.34881E-13
 -1      1666 1.51063E-02-6.00482E-04-1.37474E-13
 -1      1667 1.51023E-02-5.58265E-04-1.37317E-13
 -1      1668 1.49766E-02-5.33719E-04-1.35202E-13
 -1      1669 1.51142E-02-6.84885E-04-1.37758E-13
 -1      1670 1.51103E-02-6.42689E-04-1.37622E-13
 -1      1671 1.49845E-02-6.18130E-04-1.35500E-13
 -1      1672 1.51222E-02-7.69242E-04-1.38007E-13
 -1      1673 1.51182E-02-7.27069E-04-1.37887E-13
 -1      1674 1.49925E-02-7.02508E-04-1.35767E-13
 -1      1675 1.50877E-02-8.44006E-04-1.37511E-13
 -1      1676 1.50837E-02-8.01850E-04-1.37403E-13
 -1      1677 1.49580E-02-7.77298E-04-1.35291E-13
 -1      1678 1.48809E-02-8.42513E-04-1.34085E-13
 -1      1679 7.63144E-03 2.09479E-05-2.42343E-14
 -1      1680 7.66959E-03-2.41122E-05-2.43619E-14
 -1      1681 7.45877E-03 1.28482E-04-2.37813E-14
 -1      1682 7.55038E-03 7.79484E-05-2.40142E-14
 -1      1683 7.15816E-03 2.79272E-04-2.30221E-14
 -1      1684 7.31299E-03 2.03901E-04-2.34066E-14
 -1      1685 6.81424E-03 4.62087E-04-2.20305E-14
 -1      1686 6.97826E-03 3.83835E-04-2.24571E-14
 -1      1687 6.44359E-03 6.30285E-04-2.10213E-14
 -1      1688 6.61656E-03 5.53223E-04-2.14979E-14
 -1      1689 6.05597E-03 7.79493E-04-1.98990E-14
 -1      1690 6.23688E-03 7.14470E-04-2.04283E-14
 -1      1691 5.66058E-03 8.76773E-04-1.87176E-14
 -1      1692 5.84044E-03 8.40599E-04-1.92670E-14
 -1      1693 5.27468E-03 8.90126E-04-1.75591E-14
 -1      1694 5.45217E-03 8.93829E-04-1.80839E-14
 -1      1695 4.88465E-03 8.19312E-04-1.63995E-14
 -1      1696 5.06797E-03 8.67062E-04-1.69112E-14
 -1      1697 4.47918E-03 6.73102E-04-1.54423E-14
 -1      1698 4.65854E-03 7.45264E-04-1.58629E-14
 -1      1699 4.09053E-03 5.10141E-04-1.46951E-14
 -1      1700 4.26136E-03 5.87975E-04-1.50293E-14
 -1      1701 3.72895E-03 3.39717E-04-1.40733E-14
 -1      1702 3.89317E-03 4.18457E-04-1.43423E-14
 -1      1703 3.42535E-03 1.87828E-04-1.36345E-14
 -1      1704 3.55580E-03 2.54659E-04-1.38127E-14
 -1      1705 3.22605E-03 5.55401E-05-1.33436E-14
 -1      1706 3.30397E-03 1.06900E-04-1.34208E-14
 -1      1707 3.16775E-03-3.86915E-05-1.33786E-14
 -1      1708 3.17679E-03 3.96672E-06-1.33558E-14
 -1      1709 3.25339E-03-1.43389E-04-1.35930E-14
 -1      1710 3.19499E-03-9.30407E-05-1.34661E-14
 -1      1711 3.48826E-03-2.69131E-04-1.40033E-14
 -1      1712 3.36371E-03-2.04503E-04-1.37663E-14
 -1      1713 3.80720E-03-4.38240E-04-1.46758E-14
 -1      1714 3.65174E-03-3.61885E-04-1.43671E-14
 -1      1715 4.22607E-03-6.18168E-04-1.54748E-14
 -1      1716 4.03370E-03-5.24444E-04-1.50492E-14
 -1      1717 4.60616E-03-8.05571E-04-1.65198E-14
 -1      1718 4.42416E-03-7.30565E-04-1.60674E-14
 -1      1719 5.00705E-03-9.33507E-04-1.76085E-14
 -1      1720 4.82117E-03-8.81183E-04-1.70889E-14
 -1      1721 5.42299E-03-9.93827E-04-1.88391E-14
 -1      1722 5.23745E-03-9.80132E-04-1.82559E-14
 -1      1723 5.80692E-03-9.49462E-04-2.00070E-14
 -1      1724 5.63731E-03-9.77656E-04-1.94917E-14
 -1      1725 6.19940E-03-8.33069E-04-2.11173E-14
 -1      1726 6.01711E-03-8.95052E-04-2.06052E-14
 -1      1727 6.60150E-03-6.57381E-04-2.22372E-14
 -1      1728 6.41005E-03-7.43439E-04-2.17483E-14
 -1      1729 6.99487E-03-4.83211E-04-2.30868E-14
 -1      1730 6.82523E-03-5.64344E-04-2.27074E-14
 -1      1731 7.32064E-03-3.22730E-04-2.37597E-14
 -1      1732 7.17821E-03-3.94036E-04-2.34779E-14
 -1      1733 7.55827E-03-1.89773E-04-2.41849E-14
 -1      1734 7.46161E-03-2.47548E-04-2.40228E-14
 -1      1735 7.67115E-03-7.76708E-05-2.43888E-14
 -1      1736 7.63656E-03-1.23928E-04-2.43664E-14
 -1      1737 6.65527E-03 4.69489E-04-2.20370E-14
 -1      1738 7.02854E-03 2.73533E-04-2.31479E-14
 -1      1739 1.49939E-02 4.00514E-04-1.32835E-13
 -1      1740 1.48720E-02 3.82566E-04-1.30977E-13
 -1      1741 7.59395E-03 1.40611E-05-2.47089E-14
 -1      1742 7.36086E-03 1.13493E-04-2.41035E-14
 -1      1743 7.68104E-03-5.11811E-05-2.49601E-14
 -1      1744 6.27701E-03 6.59174E-04-2.08984E-14
 -1      1745 5.90082E-03 8.20990E-04-1.96639E-14
 -1      1746 5.54416E-03 9.10520E-04-1.83944E-14
 -1      1747 5.18704E-03 9.02162E-04-1.71156E-14
 -1      1748 4.83023E-03 7.87353E-04-1.59454E-14
 -1      1749 4.43766E-03 6.08604E-04-1.50139E-14
 -1      1750 4.04492E-03 4.19139E-04-1.42649E-14
 -1      1751 3.67697E-03 2.43820E-04-1.36677E-14
 -1      1752 3.37455E-03 9.88846E-05-1.32043E-14
 -1      1753 3.19553E-03 1.10211E-05-1.30097E-14
 -1      1754 3.17269E-03-5.44096E-05-1.31078E-14
 -1      1755 3.31420E-03-1.33354E-04-1.33590E-14
 -1      1756 3.59691E-03-2.56462E-04-1.38774E-14
 -1      1757 3.98248E-03-4.31646E-04-1.45974E-14
 -1      1758 4.38376E-03-6.42898E-04-1.55384E-14
 -1      1759 4.77034E-03-8.43587E-04-1.66882E-14
 -1      1760 5.16015E-03-9.78845E-04-1.78968E-14
 -1      1761 5.51319E-03-1.01340E-03-1.91950E-14
 -1      1762 5.87196E-03-9.35642E-04-2.04530E-14
 -1      1763 6.24878E-03-7.76706E-04-2.16921E-14
 -1      1764 6.64830E-03-5.75407E-04-2.28109E-14
 -1      1765 7.04358E-03-3.87104E-04-2.36857E-14
 -1      1766 7.37212E-03-2.35176E-04-2.43505E-14
 -1      1767 7.59981E-03-1.24097E-04-2.48022E-14
 -1      1768 2.88537E-04-1.67038E-04-5.79777E-17
 -1      1769 3.36107E-04-9.90996E-05-1.71860E-16
 -1      1770 3.41460E-04-1.15688E-04-1.62495E-16
 -1      1771 3.48283E-04-1.35349E-04-1.50758E-16
 -1      1772 3.58251E-04-1.58336E-04-1.34021E-16
 -1      1773 4.66174E-04-1.65416E-04-2.36071E-16
 -1      1774 3.22498E-04-5.04090E-05-1.88407E-16
 -1      1775 3.25125E-04-6.04336E-05-1.86279E-16
 -1      1776 3.18336E-04-3.25637E-05-1.90427E-16
 -1      1777 3.20239E-04-4.10650E-05-1.89735E-16
 -1      1778 4.32063E-04-6.11145E-05-2.78911E-16
 -1      1779 3.15677E-04-1.72141E-05-1.89410E-16
 -1      1780 3.16821E-04-2.46316E-05-1.90305E-16
 -1      1781 4.26481E-04-3.82819E-05-2.80361E-16
 -1      1782 3.14561E-04-3.19024E-06-1.86320E-16
 -1      1783 3.14925E-04-1.00905E-05-1.88204E-16
 -1      1784 4.23136E-04-1.82710E-05-2.78301E-16
 -1      1785 3.15019E-04 1.06193E-05-1.81238E-16
 -1      1786 3.14593E-04 3.68813E-06-1.84098E-16
 -1      1787 4.22084E-04 4.02022E-07-2.73151E-16
 -1      1788 3.17025E-04 2.53113E-05-1.74340E-16
 -1      1789 3.15829E-04 1.78040E-05-1.78202E-16
 -1      1790 4.23346E-04 1.91609E-05-2.65386E-16
 -1      1791 3.20453E-04 4.16966E-05-1.64338E-16
 -1      1792 3.18555E-04 3.32183E-05-1.69840E-16
 -1      1793 4.26832E-04 3.92375E-05-2.54340E-16
 -1      1794 3.25416E-04 6.15437E-05-1.50691E-16
 -1      1795 3.22729E-04 5.11772E-05-1.58334E-16
 -1      1796 4.32474E-04 6.22141E-05-2.39392E-16
 -1      1797 3.32131E-04 8.61409E-05-1.31731E-16
 -1      1798 3.28502E-04 7.32020E-05-1.42234E-16
 -1      1799 4.40420E-04 8.99467E-05-2.18846E-16
 -1      1800 3.41726E-04 1.17957E-04-1.04626E-16
 -1      1801 3.36389E-04 1.01073E-04-1.19764E-16
 -1      1802 4.51192E-04 1.24397E-04-1.90250E-16
 -1      1803 3.58711E-04 1.62114E-04-6.59330E-17
 -1      1804 3.48840E-04 1.38285E-04-8.74274E-17
 -1      1805 4.67132E-04 1.69034E-04-1.50487E-16
 -1      1806 4.14088E-04 2.18360E-04-3.67273E-17
 -1      1807 3.84770E-04 1.87096E-04-5.50910E-17
 -1      1808 5.05311E-04 2.22248E-04-1.13665E-16
 -1      1809 5.68135E-04 2.80653E-04-8.22096E-17
 -1      1810 3.45781E-04-1.77666E-04-9.91232E-17
 -1      1811 8.71303E-04 3.72379E-04-2.57430E-16
 -1      1812 7.20482E-04 3.31029E-04-1.56084E-16
 -1      1813 6.86714E-04 3.00451E-04-1.76142E-16
 -1      1814 4.67609E-04-2.17249E-04-1.74651E-16
 -1      1815 8.24523E-04-3.39452E-04-4.62995E-16
 -1      1816 9.74601E-04-3.74178E-04-6.45304E-16
 -1      1817 1.12298E-03-4.02648E-04-8.60491E-16
 -1      1818 1.27102E-03-4.25620E-04-1.10881E-15
 -1      1819 1.02722E-03-3.52557E-04-7.87239E-16
 -1      1820 1.41868E-03-4.44567E-04-1.39018E-15
 -1      1821 1.56666E-03-4.59901E-04-1.70435E-15
 -1      1822 1.32382E-03-3.98419E-04-1.28921E-15
 -1      1823 1.71515E-03-4.72699E-04-2.05070E-15
 -1      1824 1.86455E-03-4.83387E-04-2.42986E-15
 -1      1825 1.62021E-03-4.28909E-04-1.92045E-15
 -1      1826 2.01505E-03-4.92842E-04-2.84112E-15
 -1      1827 2.16689E-03-5.01538E-04-3.28466E-15
 -1      1828 1.91854E-03-4.49866E-04-2.68008E-15
 -1      1829 2.32023E-03-5.10313E-04-3.76100E-15
 -1      1830 2.47521E-03-5.19710E-04-4.26887E-15
 -1      1831 2.22060E-03-4.66589E-04-3.56784E-15
 -1      1832 2.63198E-03-5.30612E-04-4.80830E-15
 -1      1833 2.79050E-03-5.43641E-04-5.38003E-15
 -1      1834 2.52783E-03-4.84445E-04-4.58231E-15
 -1      1835 2.95099E-03-5.59739E-04-5.98351E-15
 -1      1836 3.11313E-03-5.79592E-04-6.61727E-15
 -1      1837 2.84138E-03-5.09264E-04-5.72253E-15
 -1      1838 3.27727E-03-6.04118E-04-7.28179E-15
 -1      1839 3.44268E-03-6.33976E-04-7.97722E-15
 -1      1840 3.16211E-03-5.47422E-04-6.98626E-15
 -1      1841 3.60987E-03-6.69828E-04-8.70365E-15
 -1      1842 3.77761E-03-7.12075E-04-9.46018E-15
 -1      1843 3.49041E-03-6.05403E-04-8.37253E-15
 -1      1844 3.94651E-03-7.60722E-04-1.02477E-14
 -1      1845 4.11486E-03-8.15479E-04-1.10665E-14
 -1      1846 3.82570E-03-6.88392E-04-9.88116E-15
 -1      1847 4.28323E-03-8.75216E-04-1.19159E-14
 -1      1848 4.44975E-03-9.38324E-04-1.27974E-14
 -1      1849 4.16559E-03-7.97464E-04-1.15118E-14
 -1      1850 4.61460E-03-1.00224E-03-1.37115E-14
 -1      1851 4.77673E-03-1.06385E-03-1.46571E-14
 -1      1852 4.50516E-03-9.25250E-04-1.32682E-14
 -1      1853 4.93574E-03-1.11949E-03-1.56357E-14
 -1      1854 5.09228E-03-1.16527E-03-1.66477E-14
 -1      1855 4.83788E-03-1.05212E-03-1.51543E-14
 -1      1856 5.24550E-03-1.19781E-03-1.76943E-14
 -1      1857 5.39820E-03-1.21440E-03-1.87728E-14
 -1      1858 5.15940E-03-1.14772E-03-1.71720E-14
 -1      1859 5.54925E-03-1.21377E-03-1.98846E-14
 -1      1860 5.70238E-03-1.19610E-03-2.10292E-14
 -1      1861 5.47233E-03-1.18255E-03-1.93241E-14
 -1      1862 5.85647E-03-1.16299E-03-2.22062E-14
 -1      1863 6.01413E-03-1.11744E-03-2.34139E-14
 -1      1864 5.78613E-03-1.14511E-03-2.16084E-14
 -1      1865 6.17453E-03-1.06296E-03-2.46503E-14
 -1      1866 6.33811E-03-1.00347E-03-2.59168E-14
 -1      1867 6.10977E-03-1.04980E-03-2.40202E-14
 -1      1868 6.50454E-03-9.42576E-04-2.72113E-14
 -1      1869 6.67262E-03-8.83265E-04-2.85342E-14
 -1      1870 6.44496E-03-9.27290E-04-2.65499E-14
 -1      1871 6.84256E-03-8.27979E-04-2.98852E-14
 -1      1872 7.01256E-03-7.78168E-04-3.12639E-14
 -1      1873 6.78684E-03-8.07307E-04-2.91945E-14
 -1      1874 7.18315E-03-7.34865E-04-3.26692E-14
 -1      1875 7.35271E-03-6.98301E-04-3.41015E-14
 -1      1876 7.12895E-03-7.08235E-04-3.19488E-14
 -1      1877 7.52182E-03-6.68446E-04-3.55603E-14
 -1      1878 7.68937E-03-6.44915E-04-3.70426E-14
 -1      1879 7.46671E-03-6.36598E-04-3.48096E-14
 -1      1880 7.85577E-03-6.27104E-04-3.85524E-14
 -1      1881 8.02043E-03-6.14428E-04-4.00871E-14
 -1      1882 7.79799E-03-5.91184E-04-3.77754E-14
 -1      1883 8.18360E-03-6.06105E-04-4.16438E-14
 -1      1884 8.34505E-03-6.01563E-04-4.32248E-14
 -1      1885 8.12233E-03-5.67272E-04-4.08382E-14
 -1      1886 8.50490E-03-6.00071E-04-4.48306E-14
 -1      1887 8.66316E-03-6.01148E-04-4.64593E-14
 -1      1888 8.44007E-03-5.59331E-04-4.39983E-14
 -1      1889 8.81987E-03-6.04208E-04-4.81121E-14
 -1      1890 8.97517E-03-6.08879E-04-4.97889E-14
 -1      1891 8.75189E-03-5.62362E-04-4.72534E-14
 -1      1892 9.12907E-03-6.14734E-04-5.14889E-14
 -1      1893 9.28176E-03-6.21498E-04-5.32110E-14
 -1      1894 9.05854E-03-5.72376E-04-5.06033E-14
 -1      1895 9.43324E-03-6.28882E-04-5.49577E-14
 -1      1896 9.58371E-03-6.36689E-04-5.67250E-14
 -1      1897 9.36078E-03-5.86419E-04-5.40448E-14
 -1      1898 9.73316E-03-6.44739E-04-5.85130E-14
 -1      1899 9.88178E-03-6.52896E-04-6.03234E-14
 -1      1900 9.65934E-03-6.02434E-04-5.75740E-14
 -1      1901 1.00296E-02-6.61057E-04-6.21572E-14
 -1      1902 1.01767E-02-6.69130E-04-6.40105E-14
 -1      1903 9.95485E-03-6.19059E-04-6.11916E-14
 -1      1904 1.03232E-02-6.77065E-04-6.58813E-14
 -1      1905 1.04692E-02-6.84804E-04-6.77729E-14
 -1      1906 1.02479E-02-6.35445E-04-6.48920E-14
 -1      1907 1.06146E-02-6.92331E-04-6.96852E-14
 -1      1908 1.07597E-02-6.99611E-04-7.16153E-14
 -1      1909 1.05390E-02-6.51107E-04-6.86732E-14
 -1      1910 1.09043E-02-7.06649E-04-7.35635E-14
 -1      1911 1.10487E-02-7.13426E-04-7.55290E-14
 -1      1912 1.08286E-02-6.65806E-04-7.25301E-14
 -1      1913 1.11928E-02-7.19960E-04-7.75125E-14
 -1      1914 1.13366E-02-7.26242E-04-7.95132E-14
 -1      1915 1.11170E-02-6.79464E-04-7.64604E-14
 -1      1916 1.14803E-02-7.32296E-04-8.15304E-14
 -1      1917 1.16238E-02-7.38121E-04-8.35642E-14
 -1      1918 1.14046E-02-6.92105E-04-8.04605E-14
 -1      1919 1.17671E-02-7.43741E-04-8.56135E-14
 -1      1920 1.19103E-02-7.49160E-04-8.76798E-14
 -1      1921 1.16915E-02-7.03808E-04-8.45241E-14
 -1      1922 1.20535E-02-7.54402E-04-8.97637E-14
 -1      1923 1.21965E-02-7.59473E-04-9.18631E-14
 -1      1924 1.19780E-02-7.14683E-04-8.86577E-14
 -1      1925 1.23395E-02-7.64396E-04-9.39805E-14
 -1      1926 1.24824E-02-7.69177E-04-9.61157E-14
 -1      1927 1.22641E-02-7.24851E-04-9.28551E-14
 -1      1928 1.26253E-02-7.73837E-04-9.82656E-14
 -1      1929 1.27681E-02-7.78382E-04-1.00433E-13
 -1      1930 1.25500E-02-7.34429E-04-9.71220E-14
 -1      1931 1.29110E-02-7.82831E-04-1.02617E-13
 -1      1932 1.30538E-02-7.87191E-04-1.04813E-13
 -1      1933 1.28358E-02-7.43529E-04-1.01453E-13
 -1      1934 1.31966E-02-7.91475E-04-1.07026E-13
 -1      1935 1.33394E-02-7.95691E-04-1.09253E-13
 -1      1936 1.31215E-02-7.52252E-04-1.05845E-13
 -1      1937 1.34821E-02-7.99851E-04-1.11495E-13
 -1      1938 1.36249E-02-8.03962E-04-1.13747E-13
 -1      1939 1.34071E-02-7.60685E-04-1.10294E-13
 -1      1940 1.37677E-02-8.08034E-04-1.16011E-13
 -1      1941 1.39105E-02-8.12072E-04-1.18290E-13
 -1      1942 1.36927E-02-7.68906E-04-1.14794E-13
 -1      1943 1.40533E-02-8.16086E-04-1.20581E-13
 -1      1944 1.41962E-02-8.20081E-04-1.22883E-13
 -1      1945 1.39784E-02-7.76980E-04-1.19344E-13
 -1      1946 1.43390E-02-8.24065E-04-1.25198E-13
 -1      1947 1.44818E-02-8.28043E-04-1.27523E-13
 -1      1948 1.42640E-02-7.84966E-04-1.23947E-13
 -1      1949 1.46099E-02-8.33281E-04-1.29619E-13
 -1      1950 1.47528E-02-8.37263E-04-1.31966E-13
 -1      1951 1.47913E-02-8.04657E-04-1.32567E-13
 -1      1952 1.45350E-02-7.94178E-04-1.28356E-13
 -1      1953 1.16753E-03 4.33320E-04-5.43009E-16
 -1      1954 1.01975E-03 4.05939E-04-3.85800E-16
 -1      1955 9.86662E-04 3.76282E-04-4.10208E-16
 -1      1956 1.46145E-03 4.74248E-04-9.44408E-16
 -1      1957 1.31439E-03 4.55841E-04-7.29167E-16
 -1      1958 1.28284E-03 4.27174E-04-7.56597E-16
 -1      1959 1.75692E-03 5.02365E-04-1.46459E-15
 -1      1960 1.60875E-03 4.89580E-04-1.18953E-15
 -1      1961 1.57826E-03 4.61410E-04-1.21928E-15
 -1      1962 2.05652E-03 5.23337E-04-2.10463E-15
 -1      1963 1.90605E-03 5.13452E-04-1.76923E-15
 -1      1964 1.87573E-03 4.85275E-04-1.80059E-15
 -1      1965 2.36195E-03 5.42374E-04-2.86655E-15
 -1      1966 2.20841E-03 5.32808E-04-2.47044E-15
 -1      1967 2.17731E-03 5.04160E-04-2.50208E-15
 -1      1968 2.67413E-03 5.64780E-04-3.75198E-15
 -1      1969 2.51716E-03 5.52858E-04-3.29383E-15
 -1      1970 2.48436E-03 5.23293E-04-3.32532E-15
 -1      1971 2.99323E-03 5.96136E-04-4.75992E-15
 -1      1972 2.83285E-03 5.79045E-04-4.24037E-15
 -1      1973 2.79769E-03 5.48133E-04-4.27058E-15
 -1      1974 3.31848E-03 6.42035E-04-5.89123E-15
 -1      1975 3.15522E-03 6.17020E-04-5.31022E-15
 -1      1976 3.11746E-03 5.84390E-04-5.33858E-15
 -1      1977 3.64795E-03 7.07127E-04-7.14487E-15
 -1      1978 3.48296E-03 6.72072E-04-6.50269E-15
 -1      1979 3.44302E-03 6.37538E-04-6.52860E-15
 -1      1980 3.97840E-03 7.93234E-04-8.52135E-15
 -1      1981 3.81346E-03 7.47723E-04-7.81756E-15
 -1      1982 3.77265E-03 7.11506E-04-7.84062E-15
 -1      1983 4.30541E-03 8.96624E-04-1.00253E-14
 -1      1984 4.14282E-03 8.43383E-04-9.25745E-15
 -1      1985 4.10326E-03 8.06367E-04-9.27710E-15
 -1      1986 4.62426E-03 1.00537E-03-1.16622E-14
 -1      1987 4.46624E-03 9.51420E-04-1.08265E-14
 -1      1988 4.43046E-03 9.15279E-04-1.08426E-14
 -1      1989 4.93192E-03 1.09932E-03-1.34374E-14
 -1      1990 4.77955E-03 1.05556E-03-1.25323E-14
 -1      1991 4.74967E-03 1.02233E-03-1.25432E-14
 -1      1992 5.22929E-03 1.15511E-03-1.53551E-14
 -1      1993 5.08147E-03 1.13309E-03-1.43782E-14
 -1      1994 5.05852E-03 1.10422E-03-1.43836E-14
 -1      1995 5.52213E-03 1.15588E-03-1.74131E-14
 -1      1996 5.37547E-03 1.16262E-03-1.63665E-14
 -1      1997 5.35934E-03 1.13798E-03-1.63663E-14
 -1      1998 5.81874E-03 1.10006E-03-1.96138E-14
 -1      1999 5.66918E-03 1.13427E-03-1.84960E-14
 -1      2000 5.65921E-03 1.11213E-03-1.84904E-14
 -1      2001 6.12564E-03 1.00236E-03-2.19503E-14
 -1      2002 5.97050E-03 1.05507E-03-2.07652E-14
 -1      2003 5.96600E-03 1.03322E-03-2.07545E-14
 -1      2004 6.44466E-03 8.85916E-04-2.44189E-14
 -1      2005 6.28368E-03 9.45138E-04-2.31681E-14
 -1      2006 6.28369E-03 9.22084E-04-2.31520E-14
 -1      2007 6.77340E-03 7.72250E-04-2.70122E-14
 -1      2008 6.60815E-03 8.27853E-04-2.57003E-14
 -1      2009 6.61112E-03 8.03136E-04-2.56792E-14
 -1      2010 7.10738E-03 6.75187E-04-2.97211E-14
 -1      2011 6.94016E-03 7.21285E-04-2.83529E-14
 -1      2012 6.94413E-03 6.95135E-04-2.83264E-14
 -1      2013 7.44214E-03 6.00249E-04-3.25430E-14
 -1      2014 7.27504E-03 6.34975E-04-3.11191E-14
 -1      2015 7.27816E-03 6.07843E-04-3.10872E-14
 -1      2016 7.77426E-03 5.46998E-04-3.54707E-14
 -1      2017 7.60879E-03 5.71127E-04-3.39929E-14
 -1      2018 7.60976E-03 5.43433E-04-3.39551E-14
 -1      2019 8.10158E-03 5.11941E-04-3.85029E-14
 -1      2020 7.93867E-03 5.27466E-04-3.69737E-14
 -1      2021 7.93684E-03 4.99527E-04-3.69283E-14
 -1      2022 8.42308E-03 4.90654E-04-4.16397E-14
 -1      2023 8.26312E-03 4.99828E-04-4.00591E-14
 -1      2024 8.25840E-03 4.71867E-04-4.00083E-14
 -1      2025 8.73856E-03 4.78971E-04-4.48753E-14
 -1      2026 8.58158E-03 4.83816E-04-4.32452E-14
 -1      2027 8.57424E-03 4.55980E-04-4.31898E-14
 -1      2028 9.04832E-03 4.73475E-04-4.82119E-14
 -1      2029 8.89412E-03 4.75602E-04-4.65309E-14
 -1      2030 8.88461E-03 4.47980E-04-4.64702E-14
 -1      2031 9.35297E-03 4.71589E-04-5.16379E-14
 -1      2032 9.20123E-03 4.72187E-04-4.99143E-14
 -1      2033 9.19002E-03 4.44824E-04-4.98456E-14
 -1      2034 9.65325E-03 4.71492E-04-5.51513E-14
 -1      2035 9.50360E-03 4.71387E-04-5.33843E-14
 -1      2036 9.49115E-03 4.44297E-04-5.33114E-14
 -1      2037 9.94992E-03 4.71962E-04-5.87461E-14
 -1      2038 9.80198E-03 4.71699E-04-5.69380E-14
 -1      2039 9.78866E-03 4.44873E-04-5.68615E-14
 -1      2040 1.02437E-02 4.72231E-04-6.24230E-14
 -1      2041 1.00971E-02 4.72146E-04-6.05753E-14
 -1      2042 1.00832E-02 4.45561E-04-6.04936E-14
 -1      2043 1.05351E-02 4.71856E-04-6.61811E-14
 -1      2044 1.03897E-02 4.72136E-04-6.42902E-14
 -1      2045 1.03754E-02 4.45764E-04-6.42064E-14
 -1      2046 1.08249E-02 4.70617E-04-7.00212E-14
 -1      2047 1.06802E-02 4.71348E-04-6.80922E-14
 -1      2048 1.06658E-02 4.45158E-04-6.80049E-14
 -1      2049 1.11133E-02 4.68439E-04-7.39414E-14
 -1      2050 1.09692E-02 4.69644E-04-7.19717E-14
 -1      2051 1.09547E-02 4.43604E-04-7.18816E-14
 -1      2052 1.14007E-02 4.65342E-04-7.79387E-14
 -1      2053 1.12571E-02 4.67001E-04-7.59301E-14
 -1      2054 1.12426E-02 4.41084E-04-7.58347E-14
 -1      2055 1.16874E-02 4.61396E-04-8.20136E-14
 -1      2056 1.15441E-02 4.63469E-04-7.99665E-14
 -1      2057 1.15297E-02 4.37649E-04-7.98654E-14
 -1      2058 1.19737E-02 4.56702E-04-8.61764E-14
 -1      2059 1.18306E-02 4.59136E-04-8.40841E-14
 -1      2060 1.18162E-02 4.33392E-04-8.39772E-14
 -1      2061 1.22596E-02 4.51367E-04-9.04045E-14
 -1      2062 1.21167E-02 4.54108E-04-8.82817E-14
 -1      2063 1.21023E-02 4.28422E-04-8.81680E-14
 -1      2064 1.25453E-02 4.45502E-04-9.46894E-14
 -1      2065 1.24025E-02 4.48495E-04-9.25421E-14
 -1      2066 1.23882E-02 4.22852E-04-9.24217E-14
 -1      2067 1.28310E-02 4.39207E-04-9.90225E-14
 -1      2068 1.26882E-02 4.42403E-04-9.68500E-14
 -1      2069 1.26740E-02 4.16790E-04-9.67287E-14
 -1      2070 1.31165E-02 4.32574E-04-1.03399E-13
 -1      2071 1.29737E-02 4.35928E-04-1.01204E-13
 -1      2072 1.29596E-02 4.10337E-04-1.01078E-13
 -1      2073 1.34021E-02 4.25684E-04-1.07818E-13
 -1      2074 1.32593E-02 4.29157E-04-1.05604E-13
 -1      2075 1.32452E-02 4.03580E-04-1.05472E-13
 -1      2076 1.36876E-02 4.18608E-04-1.12276E-13
 -1      2077 1.35448E-02 4.22166E-04-1.10043E-13
 -1      2078 1.35308E-02 3.96597E-04-1.09910E-13
 -1      2079 1.39732E-02 4.11410E-04-1.16762E-13
 -1      2080 1.38304E-02 4.15021E-04-1.14516E-13
 -1      2081 1.38164E-02 3.89457E-04-1.14379E-13
 -1      2082 1.42588E-02 4.04143E-04-1.21273E-13
 -1      2083 1.41160E-02 4.07782E-04-1.19016E-13
 -1      2084 1.41020E-02 3.82218E-04-1.18874E-13
 -1      2085 1.45445E-02 3.96858E-04-1.25786E-13
 -1      2086 1.44017E-02 4.00501E-04-1.23529E-13
 -1      2087 1.43877E-02 3.74933E-04-1.23385E-13
 -1      2088 1.47796E-02 3.87892E-04-1.29511E-13
 -1      2089 1.46368E-02 3.91522E-04-1.27254E-13
 -1      2090 1.46228E-02 3.65950E-04-1.27111E-13
 -1      2091 1.48075E-02 3.55284E-04-1.30046E-13
 -1      2092 1.47954E-02 1.21148E-04-1.30554E-13
 -1      2093 1.47918E-02 1.63336E-04-1.30374E-13
 -1      2094 1.47883E-02 2.05518E-04-1.30193E-13
 -1      2095 1.47848E-02 2.47693E-04-1.30015E-13
 -1      2096 1.46664E-02 1.87594E-04-1.28324E-13
 -1      2097 1.47979E-02 2.80412E-04-1.30121E-13
 -1      2098 1.47944E-02 3.22574E-04-1.29938E-13
 -1      2099 1.47021E-02 3.27907E-04-1.28468E-13
 -1      2100 1.46759E-02 2.62483E-04-1.28252E-13
 -1      2101 1.48023E-02 3.81815E-05-1.30903E-13
 -1      2102 1.47988E-02 7.96673E-05-1.30727E-13
 -1      2103 1.46733E-02 1.03948E-04-1.28678E-13
 -1      2104 1.48095E-02-4.62367E-05-1.31257E-13
 -1      2105 1.48059E-02-4.02562E-06-1.31081E-13
 -1      2106 1.46804E-02 2.02834E-05-1.29026E-13
 -1      2107 1.48168E-02-1.30670E-04-1.31608E-13
 -1      2108 1.48131E-02-8.84524E-05-1.31434E-13
 -1      2109 1.46876E-02-6.41109E-05-1.29375E-13
 -1      2110 1.48242E-02-2.15113E-04-1.31954E-13
 -1      2111 1.48205E-02-1.72891E-04-1.31780E-13
 -1      2112 1.46949E-02-1.48515E-04-1.29717E-13
 -1      2113 1.48317E-02-2.99557E-04-1.32297E-13
 -1      2114 1.48279E-02-2.57336E-04-1.32129E-13
 -1      2115 1.47023E-02-2.32924E-04-1.30056E-13
 -1      2116 1.48394E-02-3.83996E-04-1.32631E-13
 -1      2117 1.48355E-02-3.41778E-04-1.32465E-13
 -1      2118 1.47099E-02-3.17332E-04-1.30389E-13
 -1      2119 1.48470E-02-4.66992E-04-1.32948E-13
 -1      2120 1.48432E-02-4.25497E-04-1.32792E-13
 -1      2121 1.47175E-02-4.01021E-04-1.30709E-13
 -1      2122 1.48549E-02-5.51401E-04-1.33251E-13
 -1      2123 1.48509E-02-5.09199E-04-1.33102E-13
 -1      2124 1.47252E-02-4.84700E-04-1.31011E-13
 -1      2125 1.48628E-02-6.35785E-04-1.33528E-13
 -1      2126 1.48588E-02-5.93596E-04-1.33393E-13
 -1      2127 1.47331E-02-5.69080E-04-1.31295E-13
 -1      2128 1.48708E-02-7.20141E-04-1.33782E-13
 -1      2129 1.48668E-02-6.77966E-04-1.33658E-13
 -1      2130 1.47411E-02-6.53441E-04-1.31558E-13
 -1      2131 7.27181E-03 1.09230E-04-2.44308E-14
 -1      2132 7.41864E-03 5.47896E-05-2.48176E-14
 -1      2133 7.68227E-03-4.46748E-05-2.55196E-14
 -1      2134 7.68312E-03-6.14955E-05-2.55471E-14
 -1      2135 7.55057E-03 5.87699E-06-2.52142E-14
 -1      2136 7.63248E-03-1.95789E-05-2.54401E-14
 -1      2137 6.88383E-03 2.89476E-04-2.32854E-14
 -1      2138 7.06347E-03 1.98352E-04-2.38645E-14
 -1      2139 6.52162E-03 4.90651E-04-2.20759E-14
 -1      2140 6.70024E-03 3.93566E-04-2.26210E-14
 -1      2141 3.28159E-04-7.18334E-05-1.83000E-16
 -1      2142 3.31753E-04-8.45310E-05-1.78216E-16
 -1      2143 4.50574E-04-1.22022E-04-2.59937E-16
 -1      2144 4.39897E-04-8.83281E-05-2.72758E-16
 -1      2145 5.79342E-03 8.60610E-04-1.94804E-14
 -1      2146 5.95348E-03 7.89244E-04-2.01195E-14
 -1      2147 5.45342E-03 9.40454E-04-1.80400E-14
 -1      2148 5.59836E-03 9.19218E-04-1.86732E-14
 -1      2149 5.14920E-03 9.04977E-04-1.67443E-14
 -1      2150 5.29700E-03 9.36276E-04-1.73858E-14
 -1      2151 5.37914E-03 9.51012E-04-1.76532E-14
 -1      2152 4.76210E-03 7.40432E-04-1.54697E-14
 -1      2153 4.93390E-03 8.25591E-04-1.59918E-14
 -1      2154 4.37710E-03 5.37046E-04-1.45259E-14
 -1      2155 4.55717E-03 6.34346E-04-1.49217E-14
 -1      2156 4.00010E-03 3.36271E-04-1.37552E-14
 -1      2157 4.18134E-03 4.30605E-04-1.40906E-14
 -1      2158 3.61989E-03 1.68547E-04-1.32280E-14
 -1      2159 3.79061E-03 2.43342E-04-1.34752E-14
 -1      2160 3.33316E-03 5.06950E-05-1.27838E-14
 -1      2161 3.46176E-03 1.00680E-04-1.29897E-14
 -1      2162 3.16762E-03-1.29081E-05-1.26751E-14
 -1      2163 3.21760E-03 6.99801E-06-1.26605E-14
 -1      2164 3.18529E-03-5.43775E-05-1.27658E-14
 -1      2165 3.15615E-03-3.63117E-05-1.26835E-14
 -1      2166 3.36902E-03-1.17748E-04-1.30357E-14
 -1      2167 3.25902E-03-8.40472E-05-1.28763E-14
 -1      2168 3.71115E-03-2.63043E-04-1.37702E-14
 -1      2169 3.54513E-03-1.90248E-04-1.34227E-14
 -1      2170 4.09956E-03-4.40723E-04-1.44719E-14
 -1      2171 3.89872E-03-3.47202E-04-1.41173E-14
 -1      2172 3.81587E-03-2.83724E-04-1.36494E-14
 -1      2173 4.54801E-03-6.98563E-04-1.56953E-14
 -1      2174 4.36364E-03-5.84420E-04-1.51170E-14
 -1      2175 4.88896E-03-8.82132E-04-1.67992E-14
 -1      2176 4.71973E-03-7.93846E-04-1.62408E-14
 -1      2177 4.66254E-03-7.44629E-04-1.58020E-14
 -1      2178 5.23666E-03-1.01100E-03-1.80662E-14
 -1      2179 5.07511E-03-9.59116E-04-1.74260E-14
 -1      2180 5.60136E-03-1.02172E-03-1.96758E-14
 -1      2181 5.45523E-03-1.03741E-03-1.90189E-14
 -1      2182 5.92938E-03-9.09288E-04-2.09403E-14
 -1      2183 5.77329E-03-9.73052E-04-2.03334E-14
 -1      2184 6.27739E-03-7.24982E-04-2.22889E-14
 -1      2185 6.10252E-03-8.25272E-04-2.16451E-14
 -1      2186 6.71450E-03-4.90332E-04-2.35146E-14
 -1      2187 6.52033E-03-5.92990E-04-2.30289E-14
 -1      2188 7.09867E-03-3.08439E-04-2.43509E-14
 -1      2189 6.92126E-03-3.92413E-04-2.39484E-14
 -1      2190 7.42457E-03-1.68961E-04-2.50834E-14
 -1      2191 7.28180E-03-2.23798E-04-2.48112E-14
 -1      2192 7.63287E-03-9.04098E-05-2.54877E-14
 -1      2193 7.54951E-03-1.21236E-04-2.53011E-14
 -1      2194 6.14322E-03 6.95346E-04-2.08303E-14
 -1      2195 6.31362E-03 5.99733E-04-2.14343E-14
 -1      2196 6.76998E-03 3.23452E-04-2.33228E-14
 -1      2197 6.19912E-04-2.71899E-04-2.81893E-16
 -1      2198 6.39291E-03 5.35415E-04-2.20052E-14
 -1      2199 6.02872E-03 7.41940E-04-2.06395E-14
 -1      2200 6.76972E-04-2.61953E-04-3.75676E-16
 -1      2201 7.48865E-03 1.50442E-05-2.55437E-14
 -1      2202 7.66790E-03-3.80072E-05-2.60270E-14
 -1      2203 1.48323E-02-7.52761E-04-1.33187E-13
 -1      2204 7.15499E-03 1.38781E-04-2.45680E-14
 -1      2205 7.66582E-03-7.11032E-05-2.60475E-14
 -1      2206 7.48655E-03-1.28503E-04-2.57654E-14
 -1      2207 7.18363E-03-2.43607E-04-2.50761E-14
 -1      2208 6.80333E-03-4.21251E-04-2.41706E-14
 -1      2209 6.38113E-03-6.52626E-04-2.29779E-14
 -1      2210 5.99978E-03-8.69569E-04-2.15204E-14
 -1      2211 5.68213E-03-1.00559E-03-2.01499E-14
 -1      2212 4.99155E-03-9.21711E-04-1.69631E-14
 -1      2213 4.25159E-03-5.04283E-04-1.46210E-14
 -1      2214 4.14078E-03-4.33645E-04-1.41353E-14
 -1      2215 4.38416E-03-5.71357E-04-1.47674E-14
 -1      2216 3.45236E-03-1.35434E-04-1.29287E-14
 -1      2217 3.21306E-03-5.80665E-05-1.24472E-14
 -1      2218 3.15209E-03-2.63784E-05-1.23330E-14
 -1      2219 3.26807E-03 1.69523E-05-1.24436E-14
 -1      2220 3.32832E-03 2.86107E-05-1.22274E-14
 -1      2221 3.21652E-03-1.48250E-06-1.21089E-14
 -1      2222 3.55069E-03 1.15522E-04-1.27989E-14
 -1      2223 3.90955E-03 2.69321E-04-1.33047E-14
 -1      2224 4.29309E-03 4.66601E-04-1.40009E-14
 -1      2225 5.05857E-03 8.77096E-04-1.62498E-14
 -1      2226 5.15416E-03 9.15194E-04-1.65065E-14
 -1      2227 4.97390E-03 8.39549E-04-1.57637E-14
 -1      2228 5.68307E-03 9.00096E-04-1.91126E-14
 -1      2229 4.66970E-03 6.81534E-04-1.49661E-14
 -1      2230 5.34933E-03-1.03687E-03-1.85283E-14
 -1      2231 1.03982E-03 3.54589E-04-5.42115E-16
 -1      2232 8.90918E-04 3.24449E-04-3.90367E-16
 -1      2233 5.35572E-04-4.13652E-05-3.97509E-16
 -1      2234 5.38618E-04-5.45243E-05-3.97862E-16
 -1      2235 5.42461E-04-6.86849E-05-3.96899E-16
 -1      2236 5.47027E-04-8.39885E-05-3.94622E-16
 -1      2237 6.53166E-04-7.31203E-05-5.38293E-16
 -1      2238 5.31133E-04 6.26726E-06-3.85529E-16
 -1      2239 5.31057E-04-5.29111E-06-3.90055E-16
 -1      2240 5.33642E-04 3.00248E-05-3.73806E-16
 -1      2241 5.32002E-04 1.79922E-05-3.80257E-16
 -1      2242 6.41591E-04 1.44033E-05-5.19157E-16
 -1      2243 5.39103E-04 5.55377E-05-3.57665E-16
 -1      2244 5.36019E-04 4.24316E-05-3.66501E-16
 -1      2245 6.45797E-04 4.29156E-05-5.02595E-16
 -1      2246 5.47634E-04 8.54214E-05-3.35764E-16
 -1      2247 5.43012E-04 6.98987E-05-3.47527E-16
 -1      2248 6.53865E-04 7.43877E-05-4.79827E-16
 -1      2249 5.59369E-04 1.21239E-04-3.06043E-16
 -1      2250 5.53104E-04 1.02491E-04-3.22198E-16
 -1      2251 6.65850E-04 1.11101E-04-4.49524E-16
 -1      2252 5.75316E-04 1.65528E-04-2.65426E-16
 -1      2253 5.66780E-04 1.42183E-04-2.87422E-16
 -1      2254 6.82043E-04 1.54987E-04-4.08839E-16
 -1      2255 1.33598E-03 3.99914E-04-9.30652E-16
 -1      2256 1.18797E-03 3.79614E-04-7.21808E-16
 -1      2257 1.09424E-03 3.32348E-04-6.82085E-16
 -1      2258 9.33854E-04-3.03518E-04-7.12727E-16
 -1      2259 1.08191E-03-3.30482E-04-9.34230E-16
 -1      2260 6.30616E-03 5.73609E-04-2.20681E-14
 -1      2261 6.48305E-03 4.67218E-04-2.27238E-14
 -1      2262 1.22957E-03-3.52762E-04-1.18750E-15
 -1      2263 1.37735E-03-3.70824E-04-1.47308E-15
 -1      2264 1.13705E-03-3.07991E-04-1.08610E-15
 -1      2265 1.52509E-03-3.85659E-04-1.79055E-15
 -1      2266 1.67317E-03-3.97671E-04-2.13961E-15
 -1      2267 1.43071E-03-3.43116E-04-1.66090E-15
 -1      2268 1.82162E-03-4.07742E-04-2.52016E-15
 -1      2269 1.97074E-03-4.16290E-04-2.93254E-15
 -1      2270 1.72505E-03-3.66504E-04-2.36150E-15
 -1      2271 2.12062E-03-4.24128E-04-3.37629E-15
 -1      2272 2.27151E-03-4.31746E-04-3.85202E-15
 -1      2273 2.02094E-03-3.82913E-04-3.18692E-15
 -1      2274 2.42354E-03-4.39950E-04-4.35811E-15
 -1      2275 2.57689E-03-4.49338E-04-4.89577E-15
 -1      2276 2.31962E-03-3.97157E-04-4.13643E-15
 -1      2277 2.73180E-03-4.60742E-04-5.46437E-15
 -1      2278 2.88834E-03-4.74905E-04-6.06398E-15
 -1      2279 2.62260E-03-4.14399E-04-5.20969E-15
 -1      2280 3.04693E-03-4.92652E-04-6.69418E-15
 -1      2281 3.20741E-03-5.14882E-04-7.35429E-15
 -1      2282 2.93180E-03-4.40414E-04-6.40482E-15
 -1      2283 3.37043E-03-5.42298E-04-8.04456E-15
 -1      2284 3.53546E-03-5.75867E-04-8.76619E-15
 -1      2285 3.24960E-03-4.81688E-04-7.72139E-15
 -1      2286 3.70335E-03-6.15940E-04-9.51805E-15
 -1      2287 3.87295E-03-6.63203E-04-1.02998E-14
 -1      2288 3.57850E-03-5.45110E-04-9.15845E-15
 -1      2289 4.04511E-03-7.17294E-04-1.11117E-14
 -1      2290 4.21796E-03-7.77891E-04-1.19550E-14
 -1      2291 3.91994E-03-6.36628E-04-1.07161E-14
 -1      2292 4.39197E-03-8.43570E-04-1.28294E-14
 -1      2293 4.56478E-03-9.11595E-04-1.37366E-14
 -1      2294 4.27203E-03-7.57852E-04-1.23957E-14
 -1      2295 4.73611E-03-9.79094E-04-1.46765E-14
 -1      2296 4.90469E-03-1.04107E-03-1.56483E-14
 -1      2297 4.62728E-03-8.99036E-04-1.42017E-14
 -1      2298 5.06948E-03-1.09374E-03-1.66539E-14
 -1      2299 5.23198E-03-1.13113E-03-1.76935E-14
 -1      2300 4.97419E-03-1.03219E-03-1.61388E-14
 -1      2301 5.39083E-03-1.15060E-03-1.87674E-14
 -1      2302 5.55068E-03-1.14960E-03-1.98735E-14
 -1      2303 5.30648E-03-1.11462E-03-1.82121E-14
 -1      2304 5.71009E-03-1.12834E-03-2.10134E-14
 -1      2305 5.87341E-03-1.08993E-03-2.21870E-14
 -1      2306 5.63194E-03-1.11208E-03-2.04217E-14
 -1      2307 6.03933E-03-1.03731E-03-2.33913E-14
 -1      2308 6.20898E-03-9.76544E-04-2.46261E-14
 -1      2309 5.96607E-03-1.02706E-03-2.27641E-14
 -1      2310 6.38141E-03-9.11363E-04-2.58900E-14
 -1      2311 6.55507E-03-8.46682E-04-2.71838E-14
 -1      2312 6.31503E-03-8.96504E-04-2.52324E-14
 -1      2313 6.72981E-03-7.85238E-04-2.85059E-14
 -1      2314 6.90326E-03-7.29350E-04-2.98550E-14
 -1      2315 6.67133E-03-7.62636E-04-2.78186E-14
 -1      2316 7.07598E-03-6.80391E-04-3.12322E-14
 -1      2317 7.24616E-03-6.38558E-04-3.26345E-14
 -1      2318 7.02364E-03-6.51340E-04-3.05166E-14
 -1      2319 7.41466E-03-6.04178E-04-3.40637E-14
 -1      2320 7.58045E-03-5.76544E-04-3.55187E-14
 -1      2321 7.36506E-03-5.70850E-04-3.33205E-14
 -1      2322 7.74431E-03-5.55349E-04-3.69995E-14
 -1      2323 7.90581E-03-5.39688E-04-3.85058E-14
 -1      2324 7.69424E-03-5.19249E-04-3.62272E-14
 -1      2325 8.06551E-03-5.28971E-04-4.00359E-14
 -1      2326 8.22332E-03-5.22401E-04-4.15902E-14
 -1      2327 8.01280E-03-4.90971E-04-3.92351E-14
 -1      2328 8.37957E-03-5.19333E-04-4.31689E-14
 -1      2329 8.53435E-03-5.19155E-04-4.47717E-14
 -1      2330 8.32319E-03-4.79978E-04-4.23418E-14
 -1      2331 8.68782E-03-5.21291E-04-4.63981E-14
 -1      2332 8.84014E-03-5.25297E-04-4.80474E-14
 -1      2333 8.62756E-03-4.80992E-04-4.55435E-14
 -1      2334 8.99137E-03-5.30718E-04-4.97202E-14
 -1      2335 9.14169E-03-5.37242E-04-5.14160E-14
 -1      2336 8.92753E-03-4.89821E-04-4.88391E-14
 -1      2337 9.29110E-03-5.44538E-04-5.31344E-14
 -1      2338 9.43979E-03-5.52392E-04-5.48750E-14
 -1      2339 9.22422E-03-5.03329E-04-5.22265E-14
 -1      2340 9.58773E-03-5.60581E-04-5.66384E-14
 -1      2341 9.73510E-03-5.68963E-04-5.84214E-14
 -1      2342 9.51841E-03-5.19283E-04-5.57041E-14
 -1      2343 9.88185E-03-5.77396E-04-6.02286E-14
 -1      2344 1.00281E-02-5.85788E-04-6.20582E-14
 -1      2345 9.81066E-03-5.36167E-04-5.92690E-14
 -1      2346 1.01739E-02-5.94061E-04-6.39057E-14
 -1      2347 1.03194E-02-6.02158E-04-6.57723E-14
 -1      2348 1.01014E-02-5.53005E-04-6.29205E-14
 -1      2349 1.04644E-02-6.10042E-04-6.76620E-14
 -1      2350 1.06091E-02-6.17680E-04-6.95711E-14
 -1      2351 1.03908E-02-5.69214E-04-6.66535E-14
 -1      2352 1.07536E-02-6.25064E-04-7.14990E-14
 -1      2353 1.08978E-02-6.32177E-04-7.34448E-14
 -1      2354 1.06794E-02-5.84488E-04-7.04682E-14
 -1      2355 1.10418E-02-6.39027E-04-7.54090E-14
 -1      2356 1.11856E-02-6.45610E-04-7.73906E-14
 -1      2357 1.09671E-02-5.98702E-04-7.43585E-14
 -1      2358 1.13293E-02-6.51943E-04-7.93892E-14
 -1      2359 1.14728E-02-6.58027E-04-8.14045E-14
 -1      2360 1.12543E-02-6.11852E-04-7.83196E-14
 -1      2361 1.16161E-02-6.63885E-04-8.34365E-14
 -1      2362 1.17594E-02-6.69522E-04-8.54853E-14
 -1      2363 1.15410E-02-6.24005E-04-8.23483E-14
 -1      2364 1.19026E-02-6.74963E-04-8.75506E-14
 -1      2365 1.20457E-02-6.80213E-04-8.96339E-14
 -1      2366 1.18274E-02-6.35264E-04-8.64464E-14
 -1      2367 1.21888E-02-6.85296E-04-9.17337E-14
 -1      2368 1.23318E-02-6.90221E-04-9.38496E-14
 -1      2369 1.21136E-02-6.45751E-04-9.06105E-14
 -1      2370 1.24748E-02-6.95009E-04-9.59808E-14
 -1      2371 1.26177E-02-6.99667E-04-9.81289E-14
 -1      2372 1.23996E-02-6.55589E-04-9.48413E-14
 -1      2373 1.27606E-02-7.04214E-04-1.00293E-13
 -1      2374 1.29035E-02-7.08659E-04-1.02474E-13
 -1      2375 1.26855E-02-6.64896E-04-9.91353E-14
 -1      2376 1.30463E-02-7.13017E-04-1.04667E-13
 -1      2377 1.31892E-02-7.17296E-04-1.06875E-13
 -1      2378 1.29713E-02-6.73777E-04-1.03490E-13
 -1      2379 1.33320E-02-7.21509E-04-1.09096E-13
 -1      2380 1.34749E-02-7.25663E-04-1.11331E-13
 -1      2381 1.32570E-02-6.82327E-04-1.07902E-13
 -1      2382 1.36177E-02-7.29770E-04-1.13580E-13
 -1      2383 1.37606E-02-7.33835E-04-1.15838E-13
 -1      2384 1.35427E-02-6.90629E-04-1.12365E-13
 -1      2385 1.39034E-02-7.37868E-04-1.18112E-13
 -1      2386 1.40462E-02-7.41876E-04-1.20397E-13
 -1      2387 1.38284E-02-6.98753E-04-1.16882E-13
 -1      2388 1.41891E-02-7.45865E-04-1.22698E-13
 -1      2389 1.43319E-02-7.49841E-04-1.25012E-13
 -1      2390 1.41141E-02-7.06762E-04-1.21451E-13
 -1      2391 1.92998E-03 4.51855E-04-2.05764E-15
 -1      2392 1.78065E-03 4.42003E-04-1.73151E-15
 -1      2393 2.23143E-03 4.69387E-04-2.79964E-15
 -1      2394 2.08017E-03 4.60828E-04-2.41384E-15
 -1      2395 1.98252E-03 4.18394E-04-2.32117E-15
 -1      2396 2.53771E-03 4.88236E-04-3.66261E-15
 -1      2397 2.38392E-03 4.78345E-04-3.21584E-15
 -1      2398 2.28304E-03 4.34682E-04-3.10338E-15
 -1      2399 2.84980E-03 5.13916E-04-4.64639E-15
 -1      2400 2.69303E-03 4.99892E-04-4.13948E-15
 -1      2401 2.58804E-03 4.53274E-04-4.00498E-15
 -1      2402 3.16834E-03 5.52208E-04-5.75191E-15
 -1      2403 3.00834E-03 5.31139E-04-5.18369E-15
 -1      2404 2.89884E-03 4.79688E-04-5.02682E-15
 -1      2405 3.49341E-03 6.08598E-04-6.97866E-15
 -1      2406 3.33025E-03 5.77836E-04-6.35033E-15
 -1      2407 3.21672E-03 5.19758E-04-6.16968E-15
 -1      2408 3.82405E-03 6.86855E-04-8.32707E-15
 -1      2409 3.65837E-03 6.44865E-04-7.63772E-15
 -1      2410 3.54257E-03 5.79073E-04-7.43278E-15
 -1      2411 4.15766E-03 7.86480E-04-9.80136E-15
 -1      2412 3.99097E-03 7.34254E-04-9.04797E-15
 -1      2413 3.87613E-03 6.61464E-04-8.81779E-15
 -1      2414 4.48964E-03 8.99358E-04-1.14036E-14
 -1      2415 4.32439E-03 8.42222E-04-1.05858E-14
 -1      2416 4.21479E-03 7.66209E-04-1.03279E-14
 -1      2417 4.81452E-03 1.00694E-03-1.31431E-14
 -1      2418 4.65327E-03 9.55350E-04-1.22562E-14
 -1      2419 4.55303E-03 8.83550E-04-1.19678E-14
 -1      2420 5.12915E-03 1.08325E-03-1.50220E-14
 -1      2421 4.97280E-03 1.05081E-03-1.40642E-14
 -1      2422 4.88369E-03 9.92044E-04-1.37448E-14
 -1      2423 5.43643E-03 1.10428E-03-1.70436E-14
 -1      2424 5.28274E-03 1.10176E-03-1.60158E-14
 -1      2425 5.20321E-03 1.06172E-03-1.56624E-14
 -1      2426 5.74479E-03 1.06136E-03-1.92076E-14
 -1      2427 5.58940E-03 1.09040E-03-1.81082E-14
 -1      2428 5.51629E-03 1.06748E-03-1.77246E-14
 -1      2429 6.06201E-03 9.67202E-04-2.15092E-14
 -1      2430 5.90178E-03 1.01912E-03-2.03408E-14
 -1      2431 5.83334E-03 1.00546E-03-1.99269E-14
 -1      2432 6.38984E-03 8.47561E-04-2.39441E-14
 -1      2433 6.22479E-03 9.08810E-04-2.27105E-14
 -1      2434 6.16146E-03 8.96014E-04-2.22674E-14
 -1      2435 6.72438E-03 7.27793E-04-2.65044E-14
 -1      2436 6.55679E-03 7.86439E-04-2.52090E-14
 -1      2437 6.49922E-03 7.69628E-04-2.47386E-14
 -1      2438 7.06019E-03 6.24379E-04-2.91810E-14
 -1      2439 6.89267E-03 6.73445E-04-2.78286E-14
 -1      2440 6.83999E-03 6.51306E-04-2.73314E-14
 -1      2441 7.39301E-03 5.44092E-04-3.19706E-14
 -1      2442 7.22735E-03 5.81258E-04-3.05621E-14
 -1      2443 7.17744E-03 5.54319E-04-3.00388E-14
 -1      2444 7.72059E-03 4.86810E-04-3.48649E-14
 -1      2445 7.55766E-03 5.12751E-04-3.34041E-14
 -1      2446 7.50807E-03 4.82062E-04-3.28549E-14
 -1      2447 8.04219E-03 4.48977E-04-3.78637E-14
 -1      2448 7.88221E-03 4.65730E-04-3.63505E-14
 -1      2449 7.83105E-03 4.32267E-04-3.57745E-14
 -1      2450 8.35790E-03 4.25979E-04-4.09711E-14
 -1      2451 8.20079E-03 4.35892E-04-3.94047E-14
 -1      2452 8.14696E-03 4.00464E-04-3.88015E-14
 -1      2453 8.66822E-03 4.13419E-04-4.41756E-14
 -1      2454 8.51370E-03 4.18624E-04-4.25613E-14
 -1      2455 8.45686E-03 3.81887E-04-4.19333E-14
 -1      2456 8.97375E-03 4.07653E-04-4.74811E-14
 -1      2457 8.82153E-03 4.09867E-04-4.58163E-14
 -1      2458 8.76179E-03 3.72347E-04-4.51643E-14
 -1      2459 9.27518E-03 4.05910E-04-5.08782E-14
 -1      2460 9.12492E-03 4.06413E-04-4.91674E-14
 -1      2461 9.06268E-03 3.68511E-04-4.84916E-14
 -1      2462 9.57313E-03 4.06207E-04-5.43642E-14
 -1      2463 9.42453E-03 4.05898E-04-5.26108E-14
 -1      2464 9.36027E-03 3.67908E-04-5.19113E-14
 -1      2465 9.86821E-03 4.07204E-04-5.79365E-14
 -1      2466 9.72098E-03 4.06682E-04-5.61403E-14
 -1      2467 9.65518E-03 3.68800E-04-5.54206E-14
 -1      2468 1.01610E-02 4.08049E-04-6.15911E-14
 -1      2469 1.00148E-02 4.07687E-04-5.97529E-14
 -1      2470 9.94792E-03 3.70034E-04-5.90144E-14
 -1      2471 1.04519E-02 4.08243E-04-6.53287E-14
 -1      2472 1.03066E-02 4.08252E-04-6.34488E-14
 -1      2473 1.02389E-02 3.70891E-04-6.26906E-14
 -1      2474 1.07413E-02 4.07531E-04-6.91474E-14
 -1      2475 1.05967E-02 4.08013E-04-6.72281E-14
 -1      2476 1.05285E-02 3.70965E-04-6.64519E-14
 -1      2477 1.10296E-02 4.05822E-04-7.30445E-14
 -1      2478 1.08856E-02 4.06806E-04-7.10871E-14
 -1      2479 1.08171E-02 3.70065E-04-7.02918E-14
 -1      2480 1.13171E-02 4.03127E-04-7.70155E-14
 -1      2481 1.11735E-02 4.04598E-04-7.50192E-14
 -1      2482 1.11048E-02 3.68139E-04-7.42080E-14
 -1      2483 1.16040E-02 3.99517E-04-8.10660E-14
 -1      2484 1.14606E-02 4.01433E-04-7.90322E-14
 -1      2485 1.13919E-02 3.65226E-04-7.81985E-14
 -1      2486 1.18904E-02 3.95097E-04-8.51978E-14
 -1      2487 1.17473E-02 3.97404E-04-8.31219E-14
 -1      2488 1.16785E-02 3.61412E-04-8.22689E-14
 -1      2489 1.21766E-02 3.89981E-04-8.93987E-14
 -1      2490 1.20335E-02 3.92621E-04-8.72888E-14
 -1      2491 1.19648E-02 3.56810E-04-8.64140E-14
 -1      2492 1.24625E-02 3.84286E-04-9.36656E-14
 -1      2493 1.23195E-02 3.87201E-04-9.15259E-14
 -1      2494 1.22509E-02 3.51537E-04-9.06323E-14
 -1      2495 1.27482E-02 3.78121E-04-9.79833E-14
 -1      2496 1.26054E-02 3.81257E-04-9.58193E-14
 -1      2497 1.25368E-02 3.45710E-04-9.49108E-14
 -1      2498 1.30339E-02 3.71583E-04-1.02340E-13
 -1      2499 1.28911E-02 3.74894E-04-1.00155E-13
 -1      2500 1.28226E-02 3.39437E-04-9.92353E-14
 -1      2501 1.33196E-02 3.64759E-04-1.06745E-13
 -1      2502 1.31767E-02 3.68203E-04-1.04538E-13
 -1      2503 1.31083E-02 3.32814E-04-1.03603E-13
 -1      2504 1.36052E-02 3.57727E-04-1.11191E-13
 -1      2505 1.34624E-02 3.61266E-04-1.08964E-13
 -1      2506 1.33940E-02 3.25925E-04-1.08018E-13
 -1      2507 1.38908E-02 3.50551E-04-1.15663E-13
 -1      2508 1.37480E-02 3.54153E-04-1.13424E-13
 -1      2509 1.36796E-02 3.18844E-04-1.12469E-13
 -1      2510 1.41765E-02 3.43289E-04-1.20163E-13
 -1      2511 1.40337E-02 3.46928E-04-1.17910E-13
 -1      2512 1.39653E-02 3.11635E-04-1.16949E-13
 -1      2513 1.44622E-02 3.35994E-04-1.24671E-13
 -1      2514 1.43193E-02 3.39643E-04-1.22416E-13
 -1      2515 1.42510E-02 3.04353E-04-1.21446E-13
 -1      2516 1.46098E-02 3.33245E-04-1.27000E-13
 -1      2517 1.45584E-02 2.40270E-06-1.27150E-13
 -1      2518 1.45549E-02 4.45841E-05-1.26977E-13
 -1      2519 1.45657E-02-8.19665E-05-1.27490E-13
 -1      2520 1.45620E-02-3.97814E-05-1.27320E-13
 -1      2521 1.44365E-02-1.54636E-05-1.25272E-13
 -1      2522 1.45444E-02 1.69682E-04-1.26456E-13
 -1      2523 1.45409E-02 2.11850E-04-1.26275E-13
 -1      2524 1.45513E-02 8.64061E-05-1.26801E-13
 -1      2525 1.45479E-02 1.27867E-04-1.26630E-13
 -1      2526 1.44224E-02 1.52138E-04-1.24583E-13
 -1      2527 1.44294E-02 6.85188E-05-1.24930E-13
 -1      2528 1.45730E-02-1.66341E-04-1.27824E-13
 -1      2529 1.45693E-02-1.24154E-04-1.27659E-13
 -1      2530 1.44438E-02-9.98063E-05-1.25605E-13
 -1      2531 1.45805E-02-2.50717E-04-1.28157E-13
 -1      2532 1.45767E-02-2.08529E-04-1.27991E-13
 -1      2533 1.44511E-02-1.84150E-04-1.25935E-13
 -1      2534 1.45881E-02-3.35092E-04-1.28478E-13
 -1      2535 1.45842E-02-2.92905E-04-1.28319E-13
 -1      2536 1.44586E-02-2.68494E-04-1.26256E-13
 -1      2537 1.45956E-02-4.18034E-04-1.28779E-13
 -1      2538 1.45918E-02-3.76564E-04-1.28629E-13
 -1      2539 1.44662E-02-3.52123E-04-1.26560E-13
 -1      2540 1.46035E-02-5.02400E-04-1.29070E-13
 -1      2541 1.45995E-02-4.60219E-04-1.28928E-13
 -1      2542 1.44738E-02-4.35751E-04-1.26852E-13
 -1      2543 1.46114E-02-5.86756E-04-1.29340E-13
 -1      2544 1.46074E-02-5.44580E-04-1.29207E-13
 -1      2545 1.44817E-02-5.20091E-04-1.27130E-13
 -1      2546 1.46193E-02-6.71096E-04-1.29591E-13
 -1      2547 1.46153E-02-6.28928E-04-1.29466E-13
 -1      2548 1.44896E-02-6.04425E-04-1.27388E-13
 -1      2549 7.65597E-03-3.84433E-05-2.66724E-14
 -1      2550 7.69861E-03-4.87503E-05-2.67543E-14
 -1      2551 7.06070E-03 1.65132E-04-2.48760E-14
 -1      2552 7.25171E-03 8.73526E-05-2.54573E-14
 -1      2553 1.63204E-03 4.30429E-04-1.43517E-15
 -1      2554 1.48386E-03 4.16722E-04-1.16811E-15
 -1      2555 1.68513E-03 3.99270E-04-1.65765E-15
 -1      2556 1.47041E-02-7.47521E-04-1.31072E-13
 -1      2557 7.69534E-03-6.20612E-05-2.67659E-14
 -1      2558 7.64607E-03-7.43414E-05-2.67041E-14
 -1      2559 7.42830E-03 2.46306E-05-2.60206E-14
 -1      2560 7.55248E-03-9.86133E-06-2.64270E-14
 -1      2561 5.98991E-04-2.09454E-04-3.43814E-16
 -1      2562 7.96316E-04-2.67731E-04-5.44554E-16
 -1      2563 8.54403E-04-2.53043E-04-6.60144E-16
 -1      2564 5.87351E-04-1.81293E-04-3.61920E-16
 -1      2565 7.54860E-03-1.02560E-04-2.65372E-14
 -1      2566 7.43138E-03-1.35993E-04-2.63126E-14
 -1      2567 3.54620E-03-1.56385E-04-1.27221E-14
 -1      2568 3.37835E-03-1.00866E-04-1.23516E-14
 -1      2569 5.31776E-04-1.69629E-05-3.93565E-16
 -1      2570 5.33276E-04-2.88916E-05-3.96086E-16
 -1      2571 6.45270E-04-4.17916E-05-5.37398E-16
 -1      2572 6.41387E-04-1.32717E-05-5.30785E-16
 -1      2573 5.61113E-03 9.29894E-04-1.88091E-14
 -1      2574 5.76573E-03 8.71984E-04-1.96213E-14
 -1      2575 4.58555E-03 6.24705E-04-1.44257E-14
 -1      2576 4.75941E-03 7.28396E-04-1.49577E-14
 -1      2577 5.32569E-03 9.55049E-04-1.72906E-14
 -1      2578 5.44672E-03 9.58161E-04-1.79427E-14
 -1      2579 5.42908E-03-1.05316E-03-1.89516E-14
 -1      2580 5.25270E-03-1.02578E-03-1.80022E-14
 -1      2581 4.22163E-03 4.14043E-04-1.34230E-14
 -1      2582 4.39334E-03 5.13351E-04-1.38406E-14
 -1      2583 3.80421E-03 2.05093E-04-1.27625E-14
 -1      2584 3.98882E-03 2.92302E-04-1.30267E-14
 -1      2585 3.49168E-03 8.12998E-05-1.23038E-14
 -1      2586 3.64236E-03 1.36355E-04-1.25316E-14
 -1      2587 3.71542E-03 1.67415E-04-1.22610E-14
 -1      2588 3.14068E-03-2.93413E-05-1.19502E-14
 -1      2589 3.15187E-03-2.16415E-05-1.19430E-14
 -1      2590 3.23356E-03-5.76393E-05-1.20486E-14
 -1      2591 3.16797E-03-4.31788E-05-1.19465E-14
 -1      2592 3.89375E-03-3.04324E-04-1.34199E-14
 -1      2593 3.72588E-03-2.28756E-04-1.30892E-14
 -1      2594 4.75931E-03-7.94794E-04-1.59124E-14
 -1      2595 4.61098E-03-7.03984E-04-1.53766E-14
 -1      2596 5.06863E-03-9.60476E-04-1.71322E-14
 -1      2597 4.92135E-03-8.84386E-04-1.65152E-14
 -1      2598 4.84787E-03-8.48344E-04-1.60736E-14
 -1      2599 5.78143E-03-9.74091E-04-2.07729E-14
 -1      2600 5.64559E-03-1.02446E-03-2.01053E-14
 -1      2601 6.07077E-03-8.27415E-04-2.21920E-14
 -1      2602 5.92502E-03-9.09602E-04-2.14760E-14
 -1      2603 5.87281E-03-9.40952E-04-2.14273E-14
 -1      2604 6.48489E-03-5.81229E-04-2.38468E-14
 -1      2605 6.27731E-03-7.07543E-04-2.30893E-14
 -1      2606 6.90601E-03-3.53534E-04-2.50072E-14
 -1      2607 6.72626E-03-4.46784E-04-2.45591E-14
 -1      2608 7.25811E-03-1.98481E-04-2.59492E-14
 -1      2609 7.08656E-03-2.69107E-04-2.54765E-14
 -1      2610 7.01355E-03-3.04447E-04-2.58723E-14
 -1      2611 5.94516E-03 7.85861E-04-2.05119E-14
 -1      2612 6.10016E-03 6.94444E-04-2.12332E-14
 -1      2613 7.73621E-04 3.00531E-04-2.82191E-16
 -1      2614 6.23548E-04 2.57709E-04-1.80303E-16
 -1      2615 5.95915E-04 2.31089E-04-1.92744E-16
 -1      2616 8.29786E-04 2.85247E-04-3.84838E-16
 -1      2617 6.65437E-03 3.70134E-04-2.33913E-14
 -1      2618 6.82571E-03 2.77678E-04-2.40680E-14
 -1      2619 6.56948E-03 4.19817E-04-2.34539E-14
 -1      2620 5.85934E-03 8.34648E-04-2.01933E-14
 -1      2621 6.64973E-04-1.09224E-04-5.32574E-16
 -1      2622 5.52408E-04-1.00733E-04-3.90719E-16
 -1      2623 5.58578E-04-1.19148E-04-3.84702E-16
 -1      2624 1.38948E-03 3.72323E-04-1.11216E-15
 -1      2625 5.81927E-04 2.00171E-04-2.24132E-16
 -1      2626 7.61569E-03-8.53848E-05-2.72579E-14
 -1      2627 7.35432E-03-1.64819E-04-2.67185E-14
 -1      2628 6.21250E-03 6.32843E-04-2.19335E-14
 -1      2629 6.19809E-03-7.61738E-04-2.30398E-14
 -1      2630 1.45414E-02 2.97946E-04-1.26029E-13
 -1      2631 6.95734E-03 2.16877E-04-2.49437E-14
 -1      2632 1.45283E-02 2.65237E-04-1.25921E-13
 -1      2633 5.16896E-03-1.00386E-03-1.75342E-14
 -1      2634 7.71489E-03-5.62313E-05-2.74154E-14
 -1      2635 7.62427E-03-2.71894E-05-2.71562E-14
 -1      2636 7.35225E-03 5.33481E-05-2.63345E-14
 -1      2637 5.62919E-03-1.03726E-03-2.01597E-14
 -1      2638 5.53270E-03-1.05271E-03-1.95514E-14
 -1      2639 5.43481E-03-1.06216E-03-1.90039E-14
 -1      2640 4.02211E-03-3.66205E-04-1.35570E-14
 -1      2641 3.90682E-03-3.16130E-04-1.29918E-14
 -1      2642 4.14035E-03-4.32949E-04-1.36924E-14
 -1      2643 7.00204E-04 2.17856E-04-3.35425E-16
 -1      2644 3.29228E-03-7.69892E-05-1.18472E-14
 -1      2645 3.61374E-03-1.84409E-04-1.24997E-14
 -1      2646 3.39937E-03 4.80859E-05-1.19647E-14
 -1      2647 3.46659E-03 7.44833E-05-1.17007E-14
 -1      2648 3.31843E-03 2.74975E-05-1.16311E-14
 -1      2649 3.13509E-03-1.79513E-05-1.13491E-14
 -1      2650 3.17091E-03-1.33626E-05-1.17267E-14
 -1      2651 3.20122E-03-4.54575E-06-1.15113E-14
 -1      2652 4.08946E-03 3.48778E-04-1.28701E-14
 -1      2653 5.23684E-03 9.43709E-04-1.67830E-14
 -1      2654 5.30560E-03 9.61751E-04-1.70585E-14
 -1      2655 5.15311E-03 9.23440E-04-1.62833E-14
 -1      2656 4.49248E-03-6.32783E-04-1.48731E-14
 -1      2657 4.37444E-03-5.65152E-04-1.43791E-14
 -1      2658 4.57838E-03-6.91335E-04-1.49751E-14
 -1      2659 5.77554E-04-1.56524E-04-3.75432E-16
 -1      2660 4.87461E-03 7.93434E-04-1.52010E-14
 -1      2661 4.96780E-03 8.48435E-04-1.54429E-14
 -1      2662 4.77606E-03 7.46130E-04-1.46479E-14
 -1      2663 4.48577E-03 5.72774E-04-1.38286E-14
 -1      2664 5.54152E-03 9.49854E-04-1.84293E-14
 -1      2665 3.13530E-03-3.48056E-05-1.15588E-14
 -1      2666 1.45567E-02-7.58594E-04-1.28671E-13
 -1      2667 1.45976E-02-7.06694E-04-1.29280E-13
 -1      2668 1.44719E-02-6.82184E-04-1.27201E-13
 -1      2669 1.44285E-02-7.53361E-04-1.26580E-13
 -1      2670 1.44064E-02 2.47325E-04-1.24055E-13
 -1      2671 6.61450E-03-5.14212E-04-2.46721E-14
 -1      2672 1.43536E-02-7.14259E-04-1.25321E-13
 -1      2673 7.60042E-04 5.78583E-05-6.50481E-16
 -1      2674 7.56253E-04 4.09736E-05-6.62691E-16
 -1      2675 7.53593E-04 2.44663E-05-6.73073E-16
 -1      2676 7.52205E-04 8.41247E-06-6.81977E-16
 -1      2677 8.67135E-04 3.63887E-05-8.46681E-16
 -1      2678 7.87312E-04 1.38583E-04-5.79465E-16
 -1      2679 7.78744E-04 1.16017E-04-6.01109E-16
 -1      2680 8.08502E-04 1.90125E-04-5.26394E-16
 -1      2681 7.97268E-04 1.63205E-04-5.54976E-16
 -1      2682 9.11910E-04 1.67499E-04-7.25345E-16
 -1      2683 1.14972E-03 3.09757E-04-8.30363E-16
 -1      2684 1.00301E-03 2.86703E-04-6.37335E-16
 -1      2685 3.33748E-03-9.69796E-05-1.14887E-14
 -1      2686 3.20498E-03-6.19083E-05-1.12019E-14
 -1      2687 6.49782E-03 4.71928E-04-2.34665E-14
 -1      2688 6.65000E-03 3.85478E-04-2.41463E-14
 -1      2689 8.15219E-04 2.39741E-04-4.49524E-16
 -1      2690 5.78827E-03 8.80346E-04-1.98676E-14
 -1      2691 5.94337E-03 8.02991E-04-2.07662E-14
 -1      2692 7.45171E-03-1.38799E-04-2.75845E-14
 -1      2693 7.29616E-03-1.92724E-04-2.72103E-14
 -1      2694 1.33807E-03-3.01895E-04-1.53214E-15
 -1      2695 1.48385E-03-3.15415E-04-1.85266E-15
 -1      2696 1.62972E-03-3.26501E-04-2.20406E-15
 -1      2697 1.77591E-03-3.35513E-04-2.58622E-15
 -1      2698 1.53625E-03-2.87807E-04-2.04796E-15
 -1      2699 1.92236E-03-3.43148E-04-2.99923E-15
 -1      2700 2.06931E-03-3.49815E-04-3.44298E-15
 -1      2701 1.82546E-03-3.04825E-04-2.81382E-15
 -1      2702 2.21681E-03-3.56204E-04-3.91776E-15
 -1      2703 2.36514E-03-3.62822E-04-4.42272E-15
 -1      2704 2.11570E-03-3.17086E-04-3.70128E-15
 -1      2705 2.51447E-03-3.70356E-04-4.95789E-15
 -1      2706 2.66509E-03-3.79475E-04-5.52382E-15
 -1      2707 2.40804E-03-3.28743E-04-4.70999E-15
 -1      2708 2.81737E-03-3.90852E-04-6.11982E-15
 -1      2709 2.97160E-03-4.05408E-04-6.74578E-15
 -1      2710 2.70439E-03-3.44438E-04-5.83856E-15
 -1      2711 3.12842E-03-4.23753E-04-7.40198E-15
 -1      2712 3.28801E-03-4.47152E-04-8.08735E-15
 -1      2713 3.00782E-03-3.69606E-04-7.08632E-15
 -1      2714 3.45131E-03-4.76061E-04-8.80303E-15
 -1      2715 3.61812E-03-5.12081E-04-9.54949E-15
 -1      2716 3.32271E-03-4.10895E-04-8.45328E-15
 -1      2717 3.78963E-03-5.55370E-04-1.03250E-14
 -1      2718 3.96463E-03-6.07329E-04-1.11305E-14
 -1      2719 3.65444E-03-4.76591E-04-9.93834E-15
 -1      2720 4.14413E-03-6.67589E-04-1.19667E-14
 -1      2721 4.32557E-03-7.35880E-04-1.28333E-14
 -1      2722 4.00691E-03-5.76072E-04-1.15423E-14
 -1      2723 4.50991E-03-8.10663E-04-1.37315E-14
 -1      2724 4.69216E-03-8.87300E-04-1.46627E-14
 -1      2725 4.37850E-03-7.14387E-04-1.32675E-14
 -1      2726 4.87185E-03-9.62176E-04-1.56289E-14
 -1      2727 5.04749E-03-1.02636E-03-1.66276E-14
 -1      2728 4.75649E-03-8.79717E-04-1.51217E-14
 -1      2729 5.54953E-03-1.09859E-03-1.98328E-14
 -1      2730 5.71808E-03-1.07120E-03-2.09698E-14
 -1      2731 5.88883E-03-1.02044E-03-2.21396E-14
 -1      2732 6.06554E-03-9.56258E-04-2.33427E-14
 -1      2733 5.81240E-03-1.01905E-03-2.15170E-14
 -1      2734 6.24624E-03-8.82972E-04-2.45763E-14
 -1      2735 6.42893E-03-8.09467E-04-2.58406E-14
 -1      2736 6.17794E-03-8.73629E-04-2.39225E-14
 -1      2737 6.61292E-03-7.39051E-04-2.71337E-14
 -1      2738 6.79415E-03-6.75617E-04-2.84550E-14
 -1      2739 6.55545E-03-7.15968E-04-2.64513E-14
 -1      2740 6.97327E-03-6.20743E-04-2.98023E-14
 -1      2741 7.14768E-03-5.74215E-04-3.11781E-14
 -1      2742 6.92529E-03-5.88235E-04-2.90917E-14
 -1      2743 7.31856E-03-5.36521E-04-3.25800E-14
 -1      2744 7.48487E-03-5.06164E-04-3.40059E-14
 -1      2745 7.27556E-03-5.00086E-04-3.18402E-14
 -1      2746 7.64776E-03-4.83057E-04-3.54578E-14
 -1      2747 7.80711E-03-4.65680E-04-3.69349E-14
 -1      2748 7.60528E-03-4.45563E-04-3.46906E-14
 -1      2749 7.96378E-03-4.53671E-04-3.84385E-14
 -1      2750 8.11801E-03-4.45880E-04-3.99659E-14
 -1      2751 7.91879E-03-4.16000E-04-3.76434E-14
 -1      2752 8.27035E-03-4.41839E-04-4.15176E-14
 -1      2753 8.42109E-03-4.40757E-04-4.30928E-14
 -1      2754 8.22129E-03-4.04017E-04-4.06957E-14
 -1      2755 8.57054E-03-4.42163E-04-4.46931E-14
 -1      2756 8.71899E-03-4.45534E-04-4.63165E-14
 -1      2757 8.51695E-03-4.04041E-04-4.38441E-14
 -1      2758 8.86656E-03-4.50456E-04-4.79622E-14
 -1      2759 9.01349E-03-4.56587E-04-4.96314E-14
 -1      2760 8.80859E-03-4.11952E-04-4.70869E-14
 -1      2761 9.15981E-03-4.63599E-04-5.13224E-14
 -1      2762 9.30571E-03-4.71269E-04-5.30373E-14
 -1      2763 9.09795E-03-4.24733E-04-5.04209E-14
 -1      2764 9.45116E-03-4.79353E-04-5.47736E-14
 -1      2765 9.59632E-03-4.87713E-04-5.65317E-14
 -1      2766 9.38603E-03-4.40208E-04-5.38462E-14
 -1      2767 9.74116E-03-4.96178E-04-5.83139E-14
 -1      2768 9.88578E-03-5.04664E-04-6.01170E-14
 -1      2769 9.67339E-03-4.56859E-04-5.73603E-14
 -1      2770 1.00301E-02-5.13063E-04-6.19404E-14
 -1      2771 1.01743E-02-5.21326E-04-6.37844E-14
 -1      2772 9.96031E-03-4.73668E-04-6.09624E-14
 -1      2773 1.03184E-02-5.29391E-04-6.56491E-14
 -1      2774 1.04622E-02-5.37233E-04-6.75347E-14
 -1      2775 1.02469E-02-4.89998E-04-6.46489E-14
 -1      2776 1.06060E-02-5.44823E-04-6.94428E-14
 -1      2777 1.07496E-02-5.52152E-04-7.13671E-14
 -1      2778 1.05334E-02-5.05490E-04-6.84181E-14
 -1      2779 1.08931E-02-5.59214E-04-7.33101E-14
 -1      2780 1.10365E-02-5.66008E-04-7.52729E-14
 -1      2781 1.08197E-02-5.19973E-04-7.22651E-14
 -1      2782 1.11798E-02-5.72541E-04-7.72516E-14
 -1      2783 1.13231E-02-5.78820E-04-7.92499E-14
 -1      2784 1.11058E-02-5.33411E-04-7.61868E-14
 -1      2785 1.14663E-02-5.84860E-04-8.12641E-14
 -1      2786 1.16095E-02-5.90670E-04-8.32954E-14
 -1      2787 1.13919E-02-5.45844E-04-8.01810E-14
 -1      2788 1.17525E-02-5.96269E-04-8.53438E-14
 -1      2789 1.18956E-02-6.01668E-04-8.74085E-14
 -1      2790 1.16779E-02-5.57364E-04-8.42425E-14
 -1      2791 1.20386E-02-6.06887E-04-8.94899E-14
 -1      2792 1.21816E-02-6.11936E-04-9.15892E-14
 -1      2793 1.19638E-02-5.68082E-04-8.83716E-14
 -1      2794 1.23246E-02-6.16834E-04-9.37038E-14
 -1      2795 1.24675E-02-6.21593E-04-9.58333E-14
 -1      2796 1.22497E-02-5.78118E-04-9.25658E-14
 -1      2797 1.26104E-02-6.26231E-04-9.79784E-14
 -1      2798 1.27533E-02-6.30755E-04-1.00141E-13
 -1      2799 1.25355E-02-5.87589E-04-9.68242E-14
 -1      2800 1.28962E-02-6.35183E-04-1.02318E-13
 -1      2801 1.30391E-02-6.39523E-04-1.04508E-13
 -1      2802 1.28213E-02-5.96603E-04-1.01146E-13
 -1      2803 1.31820E-02-6.43788E-04-1.06712E-13
 -1      2804 1.33249E-02-6.47987E-04-1.08928E-13
 -1      2805 1.31070E-02-6.05256E-04-1.05523E-13
 -1      2806 1.34677E-02-6.52130E-04-1.11158E-13
 -1      2807 1.36106E-02-6.56224E-04-1.13400E-13
 -1      2808 1.33928E-02-6.13634E-04-1.09954E-13
 -1      2809 1.37535E-02-6.60280E-04-1.15657E-13
 -1      2810 1.38963E-02-6.64303E-04-1.17927E-13
 -1      2811 1.36785E-02-6.21808E-04-1.14435E-13
 -1      2812 1.40392E-02-6.68301E-04-1.20207E-13
 -1      2813 1.41820E-02-6.72281E-04-1.22504E-13
 -1      2814 1.39643E-02-6.29842E-04-1.18969E-13
 -1      2815 2.33232E-03 3.99998E-04-3.41258E-15
 -1      2816 2.18245E-03 3.92429E-04-2.98718E-15
 -1      2817 1.42761E-02 1.97611E-04-1.22154E-13
 -1      2818 1.42635E-02 2.50985E-04-1.21800E-13
 -1      2819 1.41207E-02 2.54639E-04-1.19550E-13
 -1      2820 2.03348E-03 3.84947E-04-2.59123E-15
 -1      2821 1.88520E-03 3.77058E-04-2.22481E-15
 -1      2822 2.08268E-03 3.51645E-04-2.86765E-15
 -1      2823 2.94488E-03 4.44961E-04-5.41280E-15
 -1      2824 2.78937E-03 4.30120E-04-4.86809E-15
 -1      2825 3.26239E-03 4.86234E-04-6.59162E-15
 -1      2826 3.10259E-03 4.63354E-04-5.98695E-15
 -1      2827 2.98814E-03 4.09529E-04-5.80340E-15
 -1      2828 3.58991E-03 5.47851E-04-7.89077E-15
 -1      2829 3.42500E-03 5.14078E-04-7.22665E-15
 -1      2830 3.30566E-03 4.51379E-04-7.01828E-15
 -1      2831 3.92788E-03 6.34114E-04-9.31170E-15
 -1      2832 3.75792E-03 5.87693E-04-8.58565E-15
 -1      2833 3.63573E-03 5.14855E-04-8.35271E-15
 -1      2834 4.27329E-03 7.44551E-04-1.08575E-14
 -1      2835 4.10026E-03 6.86734E-04-1.00689E-14
 -1      2836 3.97931E-03 6.05398E-04-9.80883E-15
 -1      2837 4.62002E-03 8.67953E-04-1.25347E-14
 -1      2838 4.44764E-03 8.05968E-04-1.16791E-14
 -1      2839 4.33344E-03 7.22759E-04-1.13908E-14
 -1      2840 4.95722E-03 9.78852E-04-1.43488E-14
 -1      2841 4.79011E-03 9.27471E-04-1.34243E-14
 -1      2842 4.68873E-03 8.54660E-04-1.31030E-14
 -1      2843 5.28111E-03 1.04156E-03-1.63054E-14
 -1      2844 5.11994E-03 1.01880E-03-1.53084E-14
 -1      2845 5.03186E-03 9.68650E-04-1.49543E-14
 -1      2846 5.59970E-03 1.02899E-03-1.84072E-14
 -1      2847 5.43945E-03 1.04520E-03-1.73386E-14
 -1      2848 5.36055E-03 1.02075E-03-1.69510E-14
 -1      2849 5.92596E-03 9.44390E-04-2.06502E-14
 -1      2850 5.76061E-03 9.93679E-04-1.95113E-14
 -1      2851 5.68691E-03 9.84457E-04-1.90933E-14
 -1      2852 6.26582E-03 8.18714E-04-2.30296E-14
 -1      2853 6.09437E-03 8.83986E-04-2.18230E-14
 -1      2854 6.02559E-03 8.74731E-04-2.13773E-14
 -1      2855 6.61325E-03 6.87525E-04-2.55350E-14
 -1      2856 6.43943E-03 7.51961E-04-2.42666E-14
 -1      2857 6.37828E-03 7.35129E-04-2.37940E-14
 -1      2858 6.95899E-03 5.73250E-04-2.81601E-14
 -1      2859 6.78720E-03 6.27437E-04-2.68336E-14
 -1      2860 6.73424E-03 6.02595E-04-2.63355E-14
 -1      2861 7.29638E-03 4.84814E-04-3.08971E-14
 -1      2862 7.12920E-03 5.25790E-04-2.95150E-14
 -1      2863 7.08234E-03 4.95664E-04-2.89922E-14
 -1      2864 7.62342E-03 4.21770E-04-3.37412E-14
 -1      2865 7.46134E-03 4.50429E-04-3.23069E-14
 -1      2866 7.41717E-03 4.17544E-04-3.17580E-14
 -1      2867 7.94096E-03 3.79879E-04-3.66866E-14
 -1      2868 7.78335E-03 3.98549E-04-3.52008E-14
 -1      2869 7.73889E-03 3.64263E-04-3.46282E-14
 -1      2870 8.25085E-03 3.54072E-04-3.97412E-14
 -1      2871 8.09678E-03 3.65297E-04-3.81998E-14
 -1      2872 8.05004E-03 3.30172E-04-3.76011E-14
 -1      2873 8.55491E-03 3.39668E-04-4.28969E-14
 -1      2874 8.40351E-03 3.45710E-04-4.13063E-14
 -1      2875 8.35353E-03 3.09978E-04-4.06803E-14
 -1      2876 8.85463E-03 3.32825E-04-4.61527E-14
 -1      2877 8.70523E-03 3.35501E-04-4.45124E-14
 -1      2878 8.65176E-03 2.99300E-04-4.38625E-14
 -1      2879 9.15108E-03 3.30599E-04-4.95040E-14
 -1      2880 9.00319E-03 3.31279E-04-4.78175E-14
 -1      2881 8.94642E-03 2.94741E-04-4.71428E-14
 -1      2882 9.44505E-03 3.30850E-04-5.29458E-14
 -1      2883 9.29832E-03 3.30515E-04-5.12130E-14
 -1      2884 9.23867E-03 2.93777E-04-5.05164E-14
 -1      2885 9.73708E-03 3.32099E-04-5.64781E-14
 -1      2886 9.59126E-03 3.31416E-04-5.47017E-14
 -1      2887 9.52923E-03 2.94603E-04-5.39825E-14
 -1      2888 1.00276E-02 3.33377E-04-6.00930E-14
 -1      2889 9.88249E-03 3.32776E-04-5.82749E-14
 -1      2890 9.81858E-03 2.95988E-04-5.75371E-14
 -1      2891 1.03169E-02 3.34095E-04-6.37927E-14
 -1      2892 1.01724E-02 3.33831E-04-6.19318E-14
 -1      2893 1.01070E-02 2.97142E-04-6.11741E-14
 -1      2894 1.06053E-02 3.33935E-04-6.75747E-14
 -1      2895 1.04612E-02 3.34137E-04-6.56747E-14
 -1      2896 1.03948E-02 2.97594E-04-6.48960E-14
 -1      2897 1.08930E-02 3.32760E-04-7.14365E-14
 -1      2898 1.07492E-02 3.33479E-04-6.94962E-14
 -1      2899 1.06821E-02 2.97104E-04-6.87005E-14
 -1      2900 1.11801E-02 3.30557E-04-7.53701E-14
 -1      2901 1.10366E-02 3.31787E-04-7.33939E-14
 -1      2902 1.09689E-02 2.95586E-04-7.25803E-14
 -1      2903 1.14668E-02 3.27382E-04-7.93821E-14
 -1      2904 1.13235E-02 3.29087E-04-7.73672E-14
 -1      2905 1.12554E-02 2.93055E-04-7.65368E-14
 -1      2906 1.17532E-02 3.23335E-04-8.34714E-14
 -1      2907 1.16100E-02 3.25462E-04-8.14162E-14
 -1      2908 1.15417E-02 2.89584E-04-8.05668E-14
 -1      2909 1.20393E-02 3.18530E-04-8.76316E-14
 -1      2910 1.18963E-02 3.21021E-04-8.55425E-14
 -1      2911 1.18279E-02 2.85278E-04-8.46719E-14
 -1      2912 1.23253E-02 3.13088E-04-9.18623E-14
 -1      2913 1.21823E-02 3.15883E-04-8.97381E-14
 -1      2914 1.21139E-02 2.80256E-04-8.88487E-14
 -1      2915 1.26111E-02 3.07122E-04-9.61545E-14
 -1      2916 1.24682E-02 3.10165E-04-9.40032E-14
 -1      2917 1.23997E-02 2.74634E-04-9.30952E-14
 -1      2918 1.28969E-02 3.00739E-04-1.00485E-13
 -1      2919 1.27540E-02 3.03978E-04-9.83144E-14
 -1      2920 1.26856E-02 2.68525E-04-9.73937E-14
 -1      2921 1.31827E-02 2.94030E-04-1.04867E-13
 -1      2922 1.30398E-02 2.97420E-04-1.02671E-13
 -1      2923 1.29713E-02 2.62029E-04-1.01739E-13
 -1      2924 1.34684E-02 2.87076E-04-1.09289E-13
 -1      2925 1.33255E-02 2.90579E-04-1.07072E-13
 -1      2926 1.32571E-02 2.55233E-04-1.06128E-13
 -1      2927 1.37541E-02 2.79949E-04-1.13745E-13
 -1      2928 1.36112E-02 2.83530E-04-1.11513E-13
 -1      2929 1.35428E-02 2.48216E-04-1.10558E-13
 -1      2930 1.40088E-02 2.65495E-04-1.17766E-13
 -1      2931 1.38659E-02 2.69123E-04-1.15521E-13
 -1      2932 1.37976E-02 2.33826E-04-1.14559E-13
 -1      2933 1.40213E-02 2.12137E-04-1.18116E-13
 -1      2934 6.87690E-03 2.72665E-04-2.52627E-14
 -1      2935 7.08351E-03 1.74854E-04-2.60924E-14
 -1      2936 1.43292E-02-2.01943E-04-1.24041E-13
 -1      2937 1.43255E-02-1.59788E-04-1.23883E-13
 -1      2938 6.75452E-03-4.47480E-04-2.56001E-14
 -1      2939 6.54465E-03-5.70271E-04-2.48695E-14
 -1      2940 1.43146E-02-3.33170E-05-1.23393E-13
 -1      2941 1.43110E-02 8.84051E-06-1.23227E-13
 -1      2942 1.43368E-02-2.86255E-04-1.24353E-13
 -1      2943 1.43330E-02-2.44099E-04-1.24200E-13
 -1      2944 1.42074E-02-2.19720E-04-1.22151E-13
 -1      2945 1.43218E-02-1.17631E-04-1.23721E-13
 -1      2946 1.43182E-02-7.54747E-05-1.23557E-13
 -1      2947 1.41926E-02-5.11590E-05-1.21516E-13
 -1      2948 1.42000E-02-1.35442E-04-1.21838E-13
 -1      2949 1.43443E-02-3.69139E-04-1.24640E-13
 -1      2950 1.43405E-02-3.27697E-04-1.24499E-13
 -1      2951 1.42149E-02-3.03285E-04-1.22447E-13
 -1      2952 1.43521E-02-4.53454E-04-1.24925E-13
 -1      2953 1.43482E-02-4.11297E-04-1.24784E-13
 -1      2954 1.42225E-02-3.86853E-04-1.22729E-13
 -1      2955 1.43599E-02-5.37771E-04-1.25191E-13
 -1      2956 1.43560E-02-4.95613E-04-1.25061E-13
 -1      2957 1.42303E-02-4.71143E-04-1.23001E-13
 -1      2958 7.60245E-03-1.76052E-05-2.77809E-14
 -1      2959 7.69168E-03-3.91998E-05-2.80326E-14
 -1      2960 7.29326E-03 8.33404E-05-2.67560E-14
 -1      2961 7.45112E-03 2.97231E-05-2.73339E-14
 -1      2962 7.98128E-04-2.14046E-04-6.23728E-16
 -1      2963 9.31700E-04-2.44105E-04-8.05372E-16
 -1      2964 3.67384E-03-2.17987E-04-1.22463E-14
 -1      2965 3.51471E-03-1.56560E-04-1.18973E-14
 -1      2966 1.73752E-03 3.68029E-04-1.88787E-15
 -1      2967 1.59019E-03 3.57436E-04-1.58008E-15
 -1      2968 1.78881E-03 3.36880E-04-2.12508E-15
 -1      2969 3.95080E-03 2.87505E-04-1.22674E-14
 -1      2970 4.15368E-03 3.97953E-04-1.26441E-14
 -1      2971 2.63553E-03 4.18182E-04-4.35302E-15
 -1      2972 2.48330E-03 4.08378E-04-3.86796E-15
 -1      2973 2.37928E-03 3.65374E-04-3.72797E-15
 -1      2974 2.68032E-03 3.82876E-04-4.70655E-15
 -1      2975 1.06179E-03-2.66159E-04-1.01161E-15
 -1      2976 1.20714E-03-2.85815E-04-1.27292E-15
 -1      2977 1.26219E-03-2.62532E-04-1.43658E-15
 -1      2978 1.00402E-03-2.27949E-04-9.61416E-16
 -1      2979 6.29799E-03-7.19823E-04-2.38704E-14
 -1      2980 6.11572E-03-8.27583E-04-2.29560E-14
 -1      2981 7.71317E-04 9.52628E-05-6.19581E-16
 -1      2982 7.65103E-04 7.59274E-05-6.36101E-16
 -1      2983 8.76451E-04 7.48154E-05-8.16526E-16
 -1      2984 8.91408E-04 1.17753E-04-7.76790E-16
 -1      2985 1.44323E-03 3.44520E-04-1.30175E-15
 -1      2986 1.29633E-03 3.28888E-04-1.05170E-15
 -1      2987 1.20519E-03 2.86721E-04-9.87085E-16
 -1      2988 1.49652E-03 3.16651E-04-1.49857E-15
 -1      2989 6.13127E-03 6.95413E-04-2.17510E-14
 -1      2990 6.30859E-03 5.84654E-04-2.25997E-14
 -1      2991 6.40592E-03 5.45997E-04-2.32755E-14
 -1      2992 7.64229E-04-7.45956E-05-7.02495E-16
 -1      2993 7.70327E-04-9.36502E-05-7.01262E-16
 -1      2994 4.40578E-03 5.43465E-04-1.32374E-14
 -1      2995 4.57648E-03 6.41034E-04-1.38057E-14
 -1      2996 7.73288E-03-5.42846E-05-2.81062E-14
 -1      2997 7.72671E-03-6.13978E-05-2.81177E-14
 -1      2998 3.11928E-03-3.65312E-05-1.10666E-14
 -1      2999 3.10181E-03-2.86278E-05-1.10733E-14
 -1      3000 5.48083E-03 9.67405E-04-1.80281E-14
 -1      3001 5.62380E-03 9.38118E-04-1.88982E-14
 -1      3002 3.62005E-03 1.37269E-04-1.17295E-14
 -1      3003 3.76264E-03 1.97554E-04-1.19483E-14
 -1      3004 1.43753E-02-6.78671E-04-1.25630E-13
 -1      3005 1.43970E-02-6.43079E-04-1.25938E-13
 -1      3006 1.42786E-02-6.75156E-04-1.24066E-13
 -1      3007 6.56714E-04-1.56384E-04-4.79448E-16
 -1      3008 4.89564E-03-8.88630E-04-1.61092E-14
 -1      3009 4.75709E-03-8.06803E-04-1.55175E-14
 -1      3010 5.22936E-03-1.03287E-03-1.78160E-14
 -1      3011 5.06926E-03-9.71756E-04-1.69529E-14
 -1      3012 5.93732E-03-9.21017E-04-2.19812E-14
 -1      3013 5.81334E-03-9.80381E-04-2.12687E-14
 -1      3014 7.11899E-03-2.70049E-04-2.68660E-14
 -1      3015 6.96192E-03-3.43273E-04-2.63819E-14
 -1      3016 7.67889E-03-7.73466E-05-2.81763E-14
 -1      3017 7.59215E-03-9.75704E-05-2.80045E-14
 -1      3018 7.77662E-04-1.14083E-04-6.98064E-16
 -1      3019 7.86122E-04-1.36186E-04-6.92155E-16
 -1      3020 8.90058E-04-1.15760E-04-8.86335E-16
 -1      3021 8.63781E-04 3.01370E-07-8.68432E-16
 -1      3022 7.52082E-04-7.49268E-06-6.89241E-16
 -1      3023 7.53232E-04-2.34774E-05-6.95231E-16
 -1      3024 6.04781E-03 7.60457E-04-2.14089E-14
 -1      3025 3.12984E-03-5.04027E-05-1.07221E-14
 -1      3026 6.80745E-03 3.28429E-04-2.52736E-14
 -1      3027 7.73073E-03-7.18273E-05-2.88741E-14
 -1      3028 8.74278E-04 2.25294E-04-5.60573E-16
 -1      3029 5.71720E-03 9.18802E-04-1.94447E-14
 -1      3030 7.24516E-03-2.33300E-04-2.77311E-14
 -1      3031 6.05009E-03-8.82293E-04-2.27872E-14
 -1      3032 1.42037E-02-6.36699E-04-1.22810E-13
 -1      3033 5.21731E-03-1.07582E-03-1.76611E-14
 -1      3034 5.38518E-03-1.10026E-03-1.87293E-14
 -1      3035 5.46570E-03-1.08330E-03-1.92456E-14
 -1      3036 5.12014E-03-1.02580E-03-1.71135E-14
 -1      3037 7.21634E-03 1.37884E-04-2.70845E-14
 -1      3038 3.51504E-03 1.02800E-04-1.13971E-14
 -1      3039 3.55169E-03 1.35474E-04-1.10923E-14
 -1      3040 3.41759E-03 7.73655E-05-1.10694E-14
 -1      3041 4.11044E-03 4.15832E-04-1.20155E-14
 -1      3042 4.25709E-03 4.74948E-04-1.26184E-14
 -1      3043 4.33833E-03 5.48582E-04-1.25865E-14
 -1      3044 6.44703E-03-6.50237E-04-2.47808E-14
 -1      3045 1.41855E-02 3.27728E-05-1.21188E-13
 -1      3046 1.43074E-02 5.06418E-05-1.23059E-13
 -1      3047 1.43039E-02 9.24425E-05-1.22887E-13
 -1      3048 1.42795E-02 1.55814E-04-1.22327E-13
 -1      3049 3.77816E-03-2.69051E-04-1.23712E-14
 -1      3050 3.65696E-03-2.37232E-04-1.17656E-14
 -1      3051 3.87997E-03-3.25982E-04-1.24953E-14
 -1      3052 7.74014E-03-4.69383E-05-2.87412E-14
 -1      3053 7.56185E-03 3.73827E-06-2.82113E-14
 -1      3054 7.65742E-03-1.11357E-05-2.90994E-14
 -1      3055 7.52515E-03 3.11940E-05-2.86421E-14
 -1      3056 1.43930E-02-6.00922E-04-1.25817E-13
 -1      3057 4.64375E-03-7.46766E-04-1.50085E-14
 -1      3058 3.38394E-03-1.27075E-04-1.12452E-14
 -1      3059 5.70585E-03-1.02677E-03-2.06923E-14
 -1      3060 4.24295E-03-4.96943E-04-1.37899E-14
 -1      3061 4.11345E-03-4.39868E-04-1.32141E-14
 -1      3062 4.32948E-03-5.61130E-04-1.38848E-14
 -1      3063 6.88549E-03-4.03822E-04-2.65843E-14
 -1      3064 1.42355E-02-6.06565E-04-1.23283E-13
 -1      3065 1.43282E-02-5.67918E-04-1.24722E-13
 -1      3066 1.42024E-02-5.43429E-04-1.22664E-13
 -1      3067 1.41389E-02-6.03696E-04-1.21727E-13
 -1      3068 3.24273E-03 1.11446E-05-1.12536E-14
 -1      3069 3.28807E-03 3.19748E-05-1.09948E-14
 -1      3070 3.17824E-03 3.01962E-06-1.08808E-14
 -1      3071 3.09615E-03-2.28681E-05-1.08627E-14
 -1      3072 5.05385E-03 8.94822E-04-1.57036E-14
 -1      3073 5.12624E-03 9.30487E-04-1.59640E-14
 -1      3074 4.95587E-03 8.60486E-04-1.51345E-14
 -1      3075 4.67713E-03 7.11409E-04-1.40296E-14
 -1      3076 7.55655E-04-3.97791E-05-6.99216E-16
 -1      3077 7.59317E-04-5.67632E-05-7.01641E-16
 -1      3078 8.75408E-04-7.34748E-05-8.88829E-16
 -1      3079 8.66572E-04-3.55585E-05-8.82595E-16
 -1      3080 3.83319E-03 2.49755E-04-1.17302E-14
 -1      3081 9.90808E-04 2.29877E-04-7.35834E-16
 -1      3082 7.55208E-03-1.20906E-04-2.85063E-14
 -1      3083 4.96918E-03-9.39058E-04-1.63731E-14
 -1      3084 7.71915E-04-1.66028E-04-6.39368E-16
 -1      3085 5.71157E-03 9.49621E-04-1.93471E-14
 -1      3086 5.86022E-03 8.95166E-04-2.03312E-14
 -1      3087 1.03947E-03 1.97059E-04-8.86674E-16
 -1      3088 1.02608E-03 1.68142E-04-9.20921E-16
 -1      3089 7.18648E-03 1.80065E-04-2.75380E-14
 -1      3090 7.36564E-03 9.90666E-05-2.82221E-14
 -1      3091 1.73088E-03-2.68204E-04-2.63046E-15
 -1      3092 1.87387E-03-2.74535E-04-3.04395E-15
 -1      3093 2.01694E-03-2.79947E-04-3.48757E-15
 -1      3094 2.16032E-03-2.84806E-04-3.96142E-15
 -1      3095 1.92102E-03-2.44683E-04-3.27699E-15
 -1      3096 2.30404E-03-2.89653E-04-4.46484E-15
 -1      3097 2.44844E-03-2.94973E-04-4.99793E-15
 -1      3098 2.20311E-03-2.52991E-04-4.22280E-15
 -1      3099 2.59370E-03-3.01280E-04-5.56113E-15
 -1      3100 2.74034E-03-3.09293E-04-6.15382E-15
 -1      3101 2.48627E-03-2.61451E-04-5.28749E-15
 -1      3102 2.88877E-03-3.19465E-04-6.77527E-15
 -1      3103 3.03968E-03-3.32936E-04-7.42665E-15
 -1      3104 2.77281E-03-2.73852E-04-6.46882E-15
 -1      3105 3.19384E-03-3.50065E-04-8.10760E-15
 -1      3106 3.35197E-03-3.72685E-04-8.81750E-15
 -1      3107 3.06697E-03-2.95027E-04-7.76666E-15
 -1      3108 3.51542E-03-4.00985E-04-9.55635E-15
 -1      3109 3.68444E-03-4.37970E-04-1.03249E-14
 -1      3110 3.37544E-03-3.31995E-04-9.18054E-15
 -1      3111 3.86123E-03-4.83585E-04-1.11233E-14
 -1      3112 4.04385E-03-5.41204E-04-1.19514E-14
 -1      3113 3.70781E-03-3.95862E-04-1.07100E-14
 -1      3114 4.21149E-03-5.73796E-04-1.28549E-14
 -1      3115 4.40799E-03-6.57901E-04-1.37430E-14
 -1      3116 6.49922E-03-6.95213E-04-2.57715E-14
 -1      3117 6.69141E-03-6.19802E-04-2.70654E-14
 -1      3118 6.88003E-03-5.56796E-04-2.83858E-14
 -1      3119 7.06075E-03-5.04972E-04-2.97322E-14
 -1      3120 6.83990E-03-5.23765E-04-2.76813E-14
 -1      3121 7.23552E-03-4.64755E-04-3.11066E-14
 -1      3122 7.40318E-03-4.33061E-04-3.25058E-14
 -1      3123 7.20094E-03-4.26794E-04-3.03758E-14
 -1      3124 7.56542E-03-4.09824E-04-3.39310E-14
 -1      3125 7.72264E-03-3.92450E-04-3.53799E-14
 -1      3126 7.53064E-03-3.72175E-04-3.31727E-14
 -1      3127 7.87602E-03-3.80728E-04-3.68535E-14
 -1      3128 8.02630E-03-3.73034E-04-3.83538E-14
 -1      3129 7.83760E-03-3.44652E-04-3.60687E-14
 -1      3130 8.17418E-03-3.69065E-04-3.98788E-14
 -1      3131 8.32032E-03-3.67847E-04-4.14271E-14
 -1      3132 8.13068E-03-3.34154E-04-3.90647E-14
 -1      3133 8.46511E-03-3.69054E-04-4.29994E-14
 -1      3134 8.60902E-03-3.72107E-04-4.45964E-14
 -1      3135 8.41628E-03-3.34631E-04-4.21589E-14
 -1      3136 8.75223E-03-3.76686E-04-4.62170E-14
 -1      3137 8.89506E-03-3.82443E-04-4.78592E-14
 -1      3138 8.69838E-03-3.42239E-04-4.53477E-14
 -1      3139 9.03757E-03-3.89095E-04-4.95252E-14
 -1      3140 9.17997E-03-3.96429E-04-5.12132E-14
 -1      3141 8.97930E-03-3.54350E-04-4.86305E-14
 -1      3142 9.32225E-03-4.04216E-04-5.29242E-14
 -1      3143 9.46455E-03-4.12327E-04-5.46572E-14
 -1      3144 9.26022E-03-3.69084E-04-5.20044E-14
 -1      3145 9.60683E-03-4.20587E-04-5.64137E-14
 -1      3146 9.74918E-03-4.28921E-04-5.81922E-14
 -1      3147 9.54171E-03-3.85084E-04-5.54701E-14
 -1      3148 9.89154E-03-4.37207E-04-5.99914E-14
 -1      3149 1.00340E-02-4.45404E-04-6.18121E-14
 -1      3150 9.82395E-03-4.01402E-04-5.90227E-14
 -1      3151 1.01765E-02-4.53433E-04-6.36544E-14
 -1      3152 1.03190E-02-4.61276E-04-6.55170E-14
 -1      3153 1.01069E-02-4.17407E-04-6.26622E-14
 -1      3154 1.04616E-02-4.68887E-04-6.73996E-14
 -1      3155 1.06043E-02-4.76263E-04-6.93036E-14
 -1      3156 1.03906E-02-4.32717E-04-6.63866E-14
 -1      3157 1.07470E-02-4.83383E-04-7.12283E-14
 -1      3158 1.08897E-02-4.90252E-04-7.31697E-14
 -1      3159 1.06748E-02-4.47131E-04-7.01915E-14
 -1      3160 1.10324E-02-4.96865E-04-7.51279E-14
 -1      3161 1.11752E-02-5.03233E-04-7.71059E-14
 -1      3162 1.09595E-02-4.60577E-04-7.40733E-14
 -1      3163 1.13180E-02-5.09361E-04-7.91031E-14
 -1      3164 1.14608E-02-5.15263E-04-8.11180E-14
 -1      3165 1.12444E-02-4.73071E-04-7.80280E-14
 -1      3166 1.16037E-02-5.20950E-04-8.31495E-14
 -1      3167 1.17465E-02-5.26437E-04-8.51961E-14
 -1      3168 1.15297E-02-4.84679E-04-8.20561E-14
 -1      3169 1.18894E-02-5.31738E-04-8.72579E-14
 -1      3170 1.20322E-02-5.36867E-04-8.93372E-14
 -1      3171 1.18151E-02-4.95497E-04-8.61484E-14
 -1      3172 1.21751E-02-5.41840E-04-9.14362E-14
 -1      3173 1.23180E-02-5.46669E-04-9.35502E-14
 -1      3174 1.21006E-02-5.05634E-04-9.03060E-14
 -1      3175 1.24608E-02-5.51370E-04-9.56783E-14
 -1      3176 1.26037E-02-5.55953E-04-9.78229E-14
 -1      3177 1.23863E-02-5.15199E-04-9.45336E-14
 -1      3178 1.27466E-02-5.60434E-04-9.99812E-14
 -1      3179 1.28895E-02-5.64821E-04-1.02154E-13
 -1      3180 1.26720E-02-5.24297E-04-9.88197E-14
 -1      3181 1.30323E-02-5.69128E-04-1.04343E-13
 -1      3182 1.31752E-02-5.73363E-04-1.06544E-13
 -1      3183 1.29577E-02-5.33021E-04-1.03164E-13
 -1      3184 1.33181E-02-5.77537E-04-1.08757E-13
 -1      3185 1.34610E-02-5.81657E-04-1.10985E-13
 -1      3186 1.32434E-02-5.41453E-04-1.07564E-13
 -1      3187 1.36038E-02-5.85734E-04-1.13225E-13
 -1      3188 1.37467E-02-5.89772E-04-1.15476E-13
 -1      3189 1.35292E-02-5.49667E-04-1.12016E-13
 -1      3190 1.38714E-02-5.94757E-04-1.17452E-13
 -1      3191 1.40142E-02-5.98745E-04-1.19729E-13
 -1      3192 1.40460E-02-5.68623E-04-1.20197E-13
 -1      3193 1.37967E-02-5.58700E-04-1.16228E-13
 -1      3194 2.13025E-03 3.18509E-04-3.15050E-15
 -1      3195 1.98442E-03 3.12530E-04-2.74504E-15
 -1      3196 3.34536E-03 4.14601E-04-7.44897E-15
 -1      3197 3.18513E-03 3.91277E-04-6.80880E-15
 -1      3198 3.02811E-03 3.73051E-04-6.19806E-15
 -1      3199 2.87406E-03 3.58501E-04-5.61745E-15
 -1      3200 3.06466E-03 3.35210E-04-6.59856E-15
 -1      3201 4.02912E-03 5.73864E-04-1.03098E-14
 -1      3202 3.85188E-03 5.22183E-04-9.54835E-15
 -1      3203 4.37736E-03 6.50470E-04-1.21170E-14
 -1      3204 4.18959E-03 5.79921E-04-1.12893E-14
 -1      3205 5.12120E-03 9.59603E-04-1.56641E-14
 -1      3206 4.94692E-03 9.07359E-04-1.46985E-14
 -1      3207 5.54086E-03 9.86783E-04-1.82509E-14
 -1      3208 6.03996E-03 8.23587E-04-2.14937E-14
 -1      3209 6.49934E-03 6.43872E-04-2.45640E-14
 -1      3210 6.31554E-03 7.17987E-04-2.33207E-14
 -1      3211 6.86252E-03 5.14817E-04-2.71399E-14
 -1      3212 6.68319E-03 5.75362E-04-2.58377E-14
 -1      3213 6.63454E-03 5.47442E-04-2.53392E-14
 -1      3214 7.20994E-03 4.18850E-04-2.98258E-14
 -1      3215 7.03895E-03 4.62921E-04-2.84699E-14
 -1      3216 6.99902E-03 4.27656E-04-2.79478E-14
 -1      3217 7.53939E-03 3.52845E-04-3.26205E-14
 -1      3218 7.37695E-03 3.82740E-04-3.12093E-14
 -1      3219 7.34080E-03 3.45684E-04-3.06632E-14
 -1      3220 7.85396E-03 3.09780E-04-3.55158E-14
 -1      3221 7.69835E-03 3.29006E-04-3.40557E-14
 -1      3222 7.66183E-03 2.92377E-04-3.34838E-14
 -1      3223 8.15780E-03 2.83283E-04-3.85182E-14
 -1      3224 8.00699E-03 2.94885E-04-3.70047E-14
 -1      3225 7.96765E-03 2.59140E-04-3.64080E-14
 -1      3226 8.45460E-03 2.68244E-04-4.16227E-14
 -1      3227 8.30689E-03 2.74630E-04-4.00569E-14
 -1      3228 8.26354E-03 2.39496E-04-3.94359E-14
 -1      3229 8.74704E-03 2.60804E-04-4.48281E-14
 -1      3230 8.60122E-03 2.63782E-04-4.32133E-14
 -1      3231 8.55357E-03 2.28872E-04-4.25665E-14
 -1      3232 9.03688E-03 2.58095E-04-4.81332E-14
 -1      3233 8.89219E-03 2.59002E-04-4.64683E-14
 -1      3234 8.84044E-03 2.24048E-04-4.57967E-14
 -1      3235 9.32520E-03 2.58032E-04-5.15314E-14
 -1      3236 9.18117E-03 2.57831E-04-4.98218E-14
 -1      3237 9.12577E-03 2.22705E-04-4.91259E-14
 -1      3238 9.61264E-03 2.59147E-04-5.50200E-14
 -1      3239 9.46899E-03 2.58508E-04-5.32626E-14
 -1      3240 9.41050E-03 2.23183E-04-5.25470E-14
 -1      3241 9.89954E-03 2.60449E-04-5.85961E-14
 -1      3242 9.75612E-03 2.59816E-04-5.67971E-14
 -1      3243 9.69510E-03 2.24320E-04-5.60576E-14
 -1      3244 1.01861E-02 2.61310E-04-6.22573E-14
 -1      3245 1.00428E-02 2.60959E-04-6.04169E-14
 -1      3246 9.97981E-03 2.25344E-04-5.96583E-14
 -1      3247 1.04725E-02 2.61370E-04-6.60019E-14
 -1      3248 1.03293E-02 2.61452E-04-6.41193E-14
 -1      3249 1.02647E-02 2.25772E-04-6.33425E-14
 -1      3250 1.07587E-02 2.60457E-04-6.98266E-14
 -1      3251 1.06156E-02 2.61039E-04-6.79040E-14
 -1      3252 1.05498E-02 2.25338E-04-6.71087E-14
 -1      3253 1.10448E-02 2.58528E-04-7.37264E-14
 -1      3254 1.09017E-02 2.59618E-04-7.17671E-14
 -1      3255 1.08351E-02 2.23931E-04-7.09529E-14
 -1      3256 1.13308E-02 2.55621E-04-7.77025E-14
 -1      3257 1.11878E-02 2.57193E-04-7.57046E-14
 -1      3258 1.11205E-02 2.21541E-04-7.48749E-14
 -1      3259 1.16167E-02 2.51820E-04-8.17526E-14
 -1      3260 1.14738E-02 2.53826E-04-7.97185E-14
 -1      3261 1.14061E-02 2.18224E-04-7.88701E-14
 -1      3262 1.19026E-02 2.47235E-04-8.58751E-14
 -1      3263 1.17597E-02 2.49619E-04-8.38041E-14
 -1      3264 1.16917E-02 2.14071E-04-8.29376E-14
 -1      3265 1.21884E-02 2.41981E-04-9.00678E-14
 -1      3266 1.20455E-02 2.44685E-04-8.79645E-14
 -1      3267 1.19774E-02 2.09192E-04-8.70782E-14
 -1      3268 1.24743E-02 2.36173E-04-9.43271E-14
 -1      3269 1.23314E-02 2.39140E-04-9.21890E-14
 -1      3270 1.22631E-02 2.03698E-04-9.12882E-14
 -1      3271 1.27600E-02 2.29916E-04-9.86328E-14
 -1      3272 1.26172E-02 2.33095E-04-9.64746E-14
 -1      3273 1.25488E-02 1.97699E-04-9.55553E-14
 -1      3274 1.30458E-02 2.23305E-04-1.02990E-13
 -1      3275 1.29029E-02 2.26650E-04-1.00805E-13
 -1      3276 1.28345E-02 1.91292E-04-9.98744E-14
 -1      3277 1.33316E-02 2.16423E-04-1.07388E-13
 -1      3278 1.31887E-02 2.19894E-04-1.05183E-13
 -1      3279 1.31203E-02 1.84567E-04-1.04239E-13
 -1      3280 1.36173E-02 2.09343E-04-1.11828E-13
 -1      3281 1.34744E-02 2.12904E-04-1.09603E-13
 -1      3282 1.34060E-02 1.77600E-04-1.08650E-13
 -1      3283 7.78434E-03-6.72623E-05-2.97008E-14
 -1      3284 7.74576E-03-8.13741E-05-2.97586E-14
 -1      3285 5.35134E-03 9.72169E-04-1.72548E-14
 -1      3286 5.43780E-03 9.79386E-04-1.77007E-14
 -1      3287 1.40930E-02-3.20654E-04-1.20547E-13
 -1      3288 1.40893E-02-2.79245E-04-1.20407E-13
 -1      3289 1.40855E-02-2.37123E-04-1.20260E-13
 -1      3290 1.40817E-02-1.95002E-04-1.20109E-13
 -1      3291 1.39636E-02-2.54507E-04-1.18373E-13
 -1      3292 1.83911E-03 3.05884E-04-2.36867E-15
 -1      3293 1.69409E-03 2.98171E-04-2.02160E-15
 -1      3294 1.88820E-03 2.75098E-04-2.61964E-15
 -1      3295 1.41007E-02-4.04906E-04-1.20822E-13
 -1      3296 1.40969E-02-3.62779E-04-1.20686E-13
 -1      3297 1.39712E-02-3.38716E-04-1.18654E-13
 -1      3298 5.27118E-03 9.66306E-04-1.67437E-14
 -1      3299 5.42274E-03 9.99911E-04-1.74685E-14
 -1      3300 5.17511E-03 9.51652E-04-1.61489E-14
 -1      3301 1.41086E-02-4.89170E-04-1.21083E-13
 -1      3302 1.41046E-02-4.47037E-04-1.20954E-13
 -1      3303 1.39790E-02-4.22938E-04-1.18920E-13
 -1      3304 5.40869E-03-1.07348E-03-1.88754E-14
 -1      3305 5.31443E-03-1.05892E-03-1.82924E-14
 -1      3306 3.67822E-03 4.79139E-04-8.81794E-15
 -1      3307 3.50984E-03 4.43302E-04-8.11857E-15
 -1      3308 3.38139E-03 3.75575E-04-7.88395E-15
 -1      3309 3.71721E-03 4.40823E-04-9.28768E-15
 -1      3310 5.75447E-03-1.02360E-03-2.10845E-14
 -1      3311 5.58446E-03-1.06473E-03-1.99828E-14
 -1      3312 6.35518E-03 6.01814E-04-2.32176E-14
 -1      3313 6.52338E-03 5.00940E-04-2.40986E-14
 -1      3314 7.76184E-03-4.08888E-05-2.96337E-14
 -1      3315 7.79301E-03-5.42451E-05-2.97109E-14
 -1      3316 3.43070E-03-1.63906E-04-1.09761E-14
 -1      3317 3.27305E-03-1.12023E-04-1.05890E-14
 -1      3318 6.20047E-03 7.31605E-04-2.25038E-14
 -1      3319 5.93744E-03-9.57023E-04-2.22592E-14
 -1      3320 1.41575E-02 1.37920E-04-1.20464E-13
 -1      3321 6.73152E-03 3.92555E-04-2.52179E-14
 -1      3322 6.93931E-03 2.96076E-04-2.63566E-14
 -1      3323 6.67281E-03 4.54319E-04-2.51568E-14
 -1      3324 1.44526E-03-2.50861E-04-1.89435E-15
 -1      3325 1.58806E-03-2.60415E-04-2.24729E-15
 -1      3326 1.63903E-03-2.33243E-04-2.44994E-15
 -1      3327 6.66209E-03-5.50504E-04-2.60875E-14
 -1      3328 6.43709E-03-6.86228E-04-2.50621E-14
 -1      3329 4.58629E-03 6.85230E-04-1.34388E-14
 -1      3330 4.77376E-03 7.77518E-04-1.42715E-14
 -1      3331 4.85658E-03 8.34026E-04-1.45124E-14
 -1      3332 7.37794E-03-1.99947E-04-2.87125E-14
 -1      3333 7.22659E-03-2.67843E-04-2.83559E-14
 -1      3334 1.15517E-03 2.57964E-04-9.62853E-16
 -1      3335 1.08616E-03 2.22535E-04-9.16530E-16
 -1      3336 1.20105E-03 2.20364E-04-1.13916E-15
 -1      3337 1.29958E-03 2.74360E-04-1.20172E-15
 -1      3338 7.03838E-03-3.51191E-04-2.76139E-14
 -1      3339 6.85110E-03-4.42236E-04-2.68144E-14
 -1      3340 6.82349E-03-4.88192E-04-2.71070E-14
 -1      3341 7.18915E-03-3.05078E-04-2.85933E-14
 -1      3342 5.25523E-03 9.90925E-04-1.64356E-14
 -1      3343 3.05458E-03-2.11788E-05-1.03286E-14
 -1      3344 3.10297E-03-1.17563E-05-1.05968E-14
 -1      3345 5.21583E-03-1.04352E-03-1.76909E-14
 -1      3346 3.12490E-03-6.38030E-05-1.02703E-14
 -1      3347 3.05321E-03-4.05471E-05-1.01454E-14
 -1      3348 8.86761E-04-1.71642E-04-8.23357E-16
 -1      3349 3.70645E-03 2.15499E-04-1.11306E-14
 -1      3350 3.87181E-03 2.95349E-04-1.14336E-14
 -1      3351 7.64895E-03-1.11604E-04-2.95763E-14
 -1      3352 7.52350E-03-1.47061E-04-2.91452E-14
 -1      3353 7.50586E-03-1.78831E-04-2.97857E-14
 -1      3354 9.82319E-04 5.00511E-05-1.03905E-15
 -1      3355 9.78546E-04 2.97967E-05-1.05444E-15
 -1      3356 6.09961E-03-8.76640E-04-2.32403E-14
 -1      3357 5.03521E-03-9.84418E-04-1.66591E-14
 -1      3358 6.29323E-03-7.88789E-04-2.44745E-14
 -1      3359 4.87631E-03-9.09111E-04-1.58238E-14
 -1      3360 4.68464E-03-8.20255E-04-1.48572E-14
 -1      3361 4.53808E-03-7.15870E-04-1.43382E-14
 -1      3362 9.76543E-04 1.00386E-05-1.06768E-15
 -1      3363 9.76363E-04-9.52428E-06-1.07858E-15
 -1      3364 1.09040E-03 2.13440E-05-1.28586E-15
 -1      3365 1.13954E-03 1.65937E-04-1.14061E-15
 -1      3366 1.01415E-03 1.41396E-04-9.50601E-16
 -1      3367 1.00384E-03 1.16460E-04-9.77259E-16
 -1      3368 7.47016E-03 1.04703E-04-2.95784E-14
 -1      3369 7.49216E-03 6.58470E-05-2.91117E-14
 -1      3370 7.60767E-03 4.23886E-05-3.00104E-14
 -1      3371 1.00223E-03-1.14530E-04-1.09743E-15
 -1      3372 1.01241E-03-1.39069E-04-1.09324E-15
 -1      3373 4.04110E-03-4.65659E-04-1.23988E-14
 -1      3374 1.18899E-03-2.25593E-04-1.33979E-15
 -1      3375 1.31701E-03-2.39179E-04-1.60496E-15
 -1      3376 1.37124E-03-2.15639E-04-1.77804E-15
 -1      3377 1.40701E-02 8.54517E-05-1.19235E-13
 -1      3378 1.40457E-02 1.48794E-04-1.18679E-13
 -1      3379 1.39338E-02 1.59658E-04-1.16897E-13
 -1      3380 1.01238E-03-1.89197E-04-1.03204E-15
 -1      3381 3.32246E-03 5.77574E-05-1.06995E-14
 -1      3382 3.96796E-03 3.66653E-04-1.14034E-14
 -1      3383 4.04963E-03 4.38991E-04-1.13680E-14
 -1      3384 3.83017E-03 3.28722E-04-1.08070E-14
 -1      3385 2.76135E-03 3.10934E-04-5.42949E-15
 -1      3386 2.72228E-03 3.47186E-04-5.06565E-15
 -1      3387 2.57240E-03 3.38115E-04-4.54271E-15
 -1      3388 4.78066E-03 8.40695E-04-1.38453E-14
 -1      3389 4.59791E-03 7.67781E-04-1.29492E-14
 -1      3390 3.11890E-03 1.35046E-06-1.03470E-14
 -1      3391 7.81905E-03-9.19180E-05-3.12557E-14
 -1      3392 7.74039E-03-9.88139E-05-3.04112E-14
 -1      3393 7.73430E-03-1.20691E-04-3.10672E-14
 -1      3394 7.83387E-03-6.20955E-05-3.06079E-14
 -1      3395 1.38219E-02 1.70507E-04-1.15120E-13
 -1      3396 1.37100E-02 1.81339E-04-1.13349E-13
 -1      3397 1.38462E-02 1.07194E-04-1.15676E-13
 -1      3398 1.40707E-02-6.89895E-05-1.19643E-13
 -1      3399 1.40671E-02-2.68625E-05-1.19483E-13
 -1      3400 1.40703E-02 8.40332E-06-1.19442E-13
 -1      3401 1.40668E-02 5.01796E-05-1.19277E-13
 -1      3402 1.39549E-02 6.10660E-05-1.17496E-13
 -1      3403 1.39484E-02-9.44882E-06-1.17577E-13
 -1      3404 1.40780E-02-1.53059E-04-1.19956E-13
 -1      3405 1.40744E-02-1.10936E-04-1.19800E-13
 -1      3406 1.39488E-02-8.66298E-05-1.17771E-13
 -1      3407 1.39561E-02-1.70481E-04-1.18077E-13
 -1      3408 3.96994E-03-3.85915E-04-1.25825E-14
 -1      3409 3.49670E-03 1.48692E-04-1.04885E-14
 -1      3410 3.59924E-03 1.78680E-04-1.08070E-14
 -1      3411 3.63359E-03 2.23996E-04-1.05201E-14
 -1      3412 2.98256E-03-3.91280E-05-9.45939E-15
 -1      3413 3.01480E-03-2.90491E-05-9.89133E-15
 -1      3414 2.99425E-03-1.91475E-05-9.63890E-15
 -1      3415 3.51276E-03-2.02005E-04-1.10896E-14
 -1      3416 3.37935E-03-1.78726E-04-1.04340E-14
 -1      3417 3.59679E-03-2.45507E-04-1.12029E-14
 -1      3418 7.75270E-03-2.62184E-05-3.00765E-14
 -1      3419 7.83382E-03-3.57122E-05-3.10642E-14
 -1      3420 7.73982E-03-7.29098E-06-3.05181E-14
 -1      3421 2.27668E-03 3.24414E-04-3.58524E-15
 -1      3422 2.17607E-03 2.85558E-04-3.44002E-15
 -1      3423 2.42398E-03 3.30759E-04-4.04939E-15
 -1      3424 3.17229E-03-1.18080E-04-9.76029E-15
 -1      3425 3.14858E-03-8.81538E-05-1.00164E-14
 -1      3426 3.04116E-03-7.31646E-05-9.45914E-15
 -1      3427 9.95001E-04 9.30640E-05-1.00061E-15
 -1      3428 9.87850E-04 7.10479E-05-1.02120E-15
 -1      3429 1.09918E-03 6.50517E-05-1.24942E-15
 -1      3430 1.11580E-03 1.12551E-04-1.20178E-15
 -1      3431 7.04251E-03 2.96572E-04-2.74210E-14
 -1      3432 7.10948E-03 2.37276E-04-2.74809E-14
 -1      3433 7.27040E-03 1.91985E-04-2.86247E-14
 -1      3434 9.86682E-04-6.98500E-05-1.09713E-15
 -1      3435 9.93591E-04-9.15571E-05-1.09859E-15
 -1      3436 1.11393E-03-1.10815E-04-1.33025E-15
 -1      3437 1.56924E-03 2.93866E-04-1.73371E-15
 -1      3438 1.42450E-03 2.82639E-04-1.44081E-15
 -1      3439 1.37356E-03 2.54999E-04-1.40754E-15
 -1      3440 1.62119E-03 2.65734E-04-1.94818E-15
 -1      3441 1.40614E-02-5.43962E-04-1.20409E-13
 -1      3442 1.40932E-02-5.13835E-04-1.20874E-13
 -1      3443 1.39675E-02-4.89710E-04-1.18839E-13
 -1      3444 1.39367E-02-5.39017E-04-1.18419E-13
 -1      3445 3.82961E-03-3.65903E-04-1.17066E-14
 -1      3446 2.10579E-03-2.18769E-04-3.98473E-15
 -1      3447 2.24434E-03-2.21808E-04-4.48624E-15
 -1      3448 2.38281E-03-2.24906E-04-5.01713E-15
 -1      3449 2.52165E-03-2.28446E-04-5.57757E-15
 -1      3450 2.28404E-03-1.91270E-04-4.75127E-15
 -1      3451 2.66092E-03-2.32761E-04-6.16622E-15
 -1      3452 2.80145E-03-2.38542E-04-6.78387E-15
 -1      3453 2.55453E-03-1.95900E-04-5.86804E-15
 -1      3454 2.94344E-03-2.46018E-04-7.43048E-15
 -1      3455 3.08830E-03-2.56542E-04-8.10575E-15
 -1      3456 2.82603E-03-2.03195E-04-7.09915E-15
 -1      3457 3.23641E-03-2.70209E-04-8.81005E-15
 -1      3458 3.39006E-03-2.89703E-04-9.54220E-15
 -1      3459 3.10314E-03-2.17083E-04-8.44457E-15
 -1      3460 3.50673E-03-2.87877E-04-1.02411E-14
 -1      3461 3.67105E-03-3.20892E-04-1.10267E-14
 -1      3462 1.38494E-02-3.56396E-04-1.16764E-13
 -1      3463 1.38456E-02-3.14309E-04-1.16630E-13
 -1      3464 7.17651E-03-3.86421E-04-2.96467E-14
 -1      3465 7.34391E-03-3.54543E-04-3.10192E-14
 -1      3466 7.50342E-03-3.33185E-04-3.24168E-14
 -1      3467 7.65653E-03-3.17767E-04-3.38400E-14
 -1      3468 7.48411E-03-2.91909E-04-3.16639E-14
 -1      3469 7.80463E-03-3.08242E-04-3.52869E-14
 -1      3470 7.94925E-03-3.02225E-04-3.67576E-14
 -1      3471 7.77739E-03-2.70891E-04-3.45067E-14
 -1      3472 8.09111E-03-2.99594E-04-3.82544E-14
 -1      3473 8.23139E-03-2.99236E-04-3.97760E-14
 -1      3474 8.05562E-03-2.65100E-04-3.74482E-14
 -1      3475 8.37038E-03-3.00970E-04-4.13223E-14
 -1      3476 8.50883E-03-3.04210E-04-4.28908E-14
 -1      3477 8.32745E-03-2.67940E-04-4.04875E-14
 -1      3478 8.64683E-03-3.08755E-04-4.44825E-14
 -1      3479 8.78484E-03-3.14295E-04-4.60995E-14
 -1      3480 8.59751E-03-2.76185E-04-4.36227E-14
 -1      3481 8.92287E-03-3.20621E-04-4.77397E-14
 -1      3482 9.06118E-03-3.27562E-04-4.94022E-14
 -1      3483 8.86821E-03-2.87903E-04-4.68506E-14
 -1      3484 9.19971E-03-3.34925E-04-5.10880E-14
 -1      3485 9.33863E-03-3.42611E-04-5.27966E-14
 -1      3486 9.14063E-03-3.01760E-04-5.01739E-14
 -1      3487 9.47785E-03-3.50460E-04-5.45273E-14
 -1      3488 9.61746E-03-3.58416E-04-5.62824E-14
 -1      3489 9.41516E-03-3.16749E-04-5.35887E-14
 -1      3490 9.75739E-03-3.66357E-04-5.80583E-14
 -1      3491 9.89767E-03-3.74253E-04-5.98550E-14
 -1      3492 9.69180E-03-3.32113E-04-5.70944E-14
 -1      3493 1.00382E-02-3.82018E-04-6.16736E-14
 -1      3494 1.01791E-02-3.89640E-04-6.35131E-14
 -1      3495 9.97035E-03-3.47307E-04-6.06874E-14
 -1      3496 1.03202E-02-3.97065E-04-6.53756E-14
 -1      3497 1.04616E-02-4.04292E-04-6.72567E-14
 -1      3498 1.02505E-02-3.61972E-04-6.43668E-14
 -1      3499 1.06032E-02-4.11290E-04-6.91571E-14
 -1      3500 1.07450E-02-4.18068E-04-7.10806E-14
 -1      3501 1.05321E-02-3.75901E-04-6.81277E-14
 -1      3502 1.08869E-02-4.24611E-04-7.30214E-14
 -1      3503 1.10290E-02-4.30931E-04-7.49779E-14
 -1      3504 1.08148E-02-3.89001E-04-7.19686E-14
 -1      3505 1.11712E-02-4.37026E-04-7.69551E-14
 -1      3506 1.13135E-02-4.42911E-04-7.89517E-14
 -1      3507 1.10983E-02-4.01258E-04-7.58864E-14
 -1      3508 1.14559E-02-4.48591E-04-8.09663E-14
 -1      3509 1.15984E-02-4.54080E-04-8.29969E-14
 -1      3510 1.13824E-02-4.12713E-04-7.98779E-14
 -1      3511 1.17410E-02-4.59390E-04-8.50419E-14
 -1      3512 1.18836E-02-4.64534E-04-8.71020E-14
 -1      3513 1.16671E-02-4.23440E-04-8.39363E-14
 -1      3514 1.20263E-02-4.69524E-04-8.91816E-14
 -1      3515 1.21690E-02-4.74374E-04-9.12781E-14
 -1      3516 1.19521E-02-4.33530E-04-8.80598E-14
 -1      3517 1.23118E-02-4.79097E-04-9.33898E-14
 -1      3518 1.24546E-02-4.83704E-04-9.55171E-14
 -1      3519 1.22374E-02-4.43077E-04-9.22472E-14
 -1      3520 1.25974E-02-4.88207E-04-9.76592E-14
 -1      3521 1.27402E-02-4.92616E-04-9.98154E-14
 -1      3522 1.25229E-02-4.52174E-04-9.64999E-14
 -1      3523 1.28830E-02-4.96944E-04-1.01988E-13
 -1      3524 1.30259E-02-5.01198E-04-1.04174E-13
 -1      3525 1.28085E-02-4.60907E-04-1.00815E-13
 -1      3526 1.31688E-02-5.05390E-04-1.06371E-13
 -1      3527 1.33116E-02-5.09525E-04-1.08582E-13
 -1      3528 1.30941E-02-4.69352E-04-1.05181E-13
 -1      3529 1.34545E-02-5.13613E-04-1.10805E-13
 -1      3530 1.35974E-02-5.17660E-04-1.13044E-13
 -1      3531 1.33799E-02-4.77577E-04-1.09600E-13
 -1      3532 4.04356E-03 4.83164E-04-1.09925E-14
 -1      3533 7.47372E-03 2.76833E-04-3.15021E-14
 -1      3534 7.31126E-03 3.06199E-04-3.01174E-14
 -1      3535 7.18052E-03 3.16108E-04-2.89322E-14
 -1      3536 7.00661E-03 3.60834E-04-2.75950E-14
 -1      3537 7.78350E-03 2.36521E-04-3.43501E-14
 -1      3538 7.63083E-03 2.54426E-04-3.29139E-14
 -1      3539 7.60577E-03 2.14609E-04-3.23442E-14
 -1      3540 8.07917E-03 2.12490E-04-3.73023E-14
 -1      3541 7.93266E-03 2.23047E-04-3.58121E-14
 -1      3542 7.90223E-03 1.86262E-04-3.52198E-14
 -1      3543 8.36670E-03 1.98814E-04-4.03557E-14
 -1      3544 8.22363E-03 2.04684E-04-3.88163E-14
 -1      3545 8.18720E-03 1.70013E-04-3.81977E-14
 -1      3546 8.65007E-03 1.91807E-04-4.35120E-14
 -1      3547 8.50869E-03 1.94674E-04-4.19219E-14
 -1      3548 8.46654E-03 1.61110E-04-4.12792E-14
 -1      3549 8.93168E-03 1.88964E-04-4.67679E-14
 -1      3550 8.79096E-03 1.89992E-04-4.51275E-14
 -1      3551 8.74367E-03 1.56812E-04-4.44606E-14
 -1      3552 9.21289E-03 1.88506E-04-5.01193E-14
 -1      3553 9.07226E-03 1.88520E-04-4.84308E-14
 -1      3554 9.02053E-03 1.55288E-04-4.77393E-14
 -1      3555 9.49441E-03 1.89169E-04-5.35646E-14
 -1      3556 9.35357E-03 1.88752E-04-5.18326E-14
 -1      3557 9.29811E-03 1.55249E-04-5.11150E-14
 -1      3558 9.77653E-03 1.90071E-04-5.70990E-14
 -1      3559 9.63537E-03 1.89624E-04-5.53199E-14
 -1      3560 9.57684E-03 1.55774E-04-5.45839E-14
 -1      3561 1.00593E-02 1.90630E-04-6.07233E-14
 -1      3562 9.91783E-03 1.90414E-04-5.88998E-14
 -1      3563 9.85684E-03 1.56219E-04-5.81434E-14
 -1      3564 1.03428E-02 1.90491E-04-6.44294E-14
 -1      3565 1.02010E-02 1.90658E-04-6.25658E-14
 -1      3566 1.01380E-02 1.56163E-04-6.17891E-14
 -1      3567 1.06268E-02 1.89469E-04-6.82162E-14
 -1      3568 1.04847E-02 1.90093E-04-6.63135E-14
 -1      3569 1.04203E-02 1.55354E-04-6.55175E-14
 -1      3570 1.09113E-02 1.87502E-04-7.20807E-14
 -1      3571 1.07690E-02 1.88602E-04-7.01386E-14
 -1      3572 1.07034E-02 1.53677E-04-6.93259E-14
 -1      3573 1.11961E-02 1.84606E-04-7.60236E-14
 -1      3574 1.10537E-02 1.86165E-04-7.40436E-14
 -1      3575 1.09872E-02 1.51105E-04-7.32118E-14
 -1      3576 1.14813E-02 1.80849E-04-8.00399E-14
 -1      3577 1.13387E-02 1.82829E-04-7.80226E-14
 -1      3578 1.12716E-02 1.47675E-04-7.71755E-14
 -1      3579 1.17666E-02 1.76325E-04-8.41238E-14
 -1      3580 1.16239E-02 1.78676E-04-8.20725E-14
 -1      3581 1.15564E-02 1.43462E-04-8.12081E-14
 -1      3582 1.20521E-02 1.71140E-04-8.82814E-14
 -1      3583 1.19093E-02 1.73809E-04-8.61942E-14
 -1      3584 1.18415E-02 1.38558E-04-8.53112E-14
 -1      3585 1.23377E-02 1.65401E-04-9.25043E-14
 -1      3586 1.21949E-02 1.68334E-04-9.03857E-14
 -1      3587 1.21268E-02 1.33064E-04-8.94836E-14
 -1      3588 1.26234E-02 1.59207E-04-9.67838E-14
 -1      3589 1.24805E-02 1.62355E-04-9.46375E-14
 -1      3590 1.24123E-02 1.27078E-04-9.37210E-14
 -1      3591 1.29091E-02 1.52651E-04-1.01114E-13
 -1      3592 1.27662E-02 1.55970E-04-9.89423E-14
 -1      3593 1.26979E-02 1.20693E-04-9.80118E-14
 -1      3594 1.31948E-02 1.45813E-04-1.05490E-13
 -1      3595 1.30519E-02 1.49263E-04-1.03295E-13
 -1      3596 1.29836E-02 1.13989E-04-1.02353E-13
 -1      3597 1.34806E-02 1.38762E-04-1.09908E-13
 -1      3598 1.33377E-02 1.42310E-04-1.07693E-13
 -1      3599 1.32693E-02 1.07041E-04-1.06739E-13
 -1      3600 1.36416E-02 1.46055E-04-1.12386E-13
 -1      3601 1.07010E-03-1.71725E-04-1.16946E-15
 -1      3602 1.93627E-03 2.44598E-04-2.87772E-15
 -1      3603 1.79457E-03 2.39553E-04-2.49163E-15
 -1      3604 3.05462E-03 6.76422E-06-9.71750E-15
 -1      3605 3.13913E-03 2.31397E-05-9.98832E-15
 -1      3606 1.18311E-03-1.68697E-04-1.41369E-15
 -1      3607 1.38418E-02-2.72225E-04-1.16491E-13
 -1      3608 1.38380E-02-2.30144E-04-1.16348E-13
 -1      3609 1.37200E-02-2.89918E-04-1.14614E-13
 -1      3610 1.55028E-03-2.00192E-04-2.27285E-15
 -1      3611 1.68944E-03-2.06421E-04-2.65624E-15
 -1      3612 3.09664E-03 2.96113E-04-7.00330E-15
 -1      3613 2.94538E-03 2.83509E-04-6.38640E-15
 -1      3614 6.33859E-03 6.32090E-04-2.32401E-14
 -1      3615 9.78016E-04-2.91512E-05-1.08709E-15
 -1      3616 9.81447E-04-4.91510E-05-1.09327E-15
 -1      3617 1.09792E-03-6.41324E-05-1.32639E-15
 -1      3618 7.00994E-03-4.29976E-04-2.84307E-14
 -1      3619 1.82839E-03-2.11412E-04-3.06947E-15
 -1      3620 1.96722E-03-2.15392E-04-3.51253E-15
 -1      3621 2.01249E-03-1.86686E-04-3.74998E-15
 -1      3622 7.89976E-03-5.84667E-05-3.18211E-14
 -1      3623 7.89011E-03-7.26919E-05-3.18107E-14
 -1      3624 1.38572E-02-4.40587E-04-1.17023E-13
 -1      3625 1.38533E-02-3.98489E-04-1.16895E-13
 -1      3626 1.37276E-02-3.74049E-04-1.14881E-13
 -1      3627 3.24407E-03 5.18714E-05-1.02060E-14
 -1      3628 3.35914E-03 9.54325E-05-1.02731E-14
 -1      3629 3.39575E-03 1.34676E-04-9.99769E-15
 -1      3630 3.15812E-03 5.40169E-05-9.57867E-15
 -1      3631 7.61589E-03-1.66120E-04-3.08169E-14
 -1      3632 7.48848E-03-2.13133E-04-3.03713E-14
 -1      3633 1.35733E-02 1.10783E-04-1.11420E-13
 -1      3634 1.26736E-03 1.90822E-04-1.34631E-15
 -1      3635 1.25223E-03 1.60914E-04-1.38523E-15
 -1      3636 7.40351E-03 1.50182E-04-2.95226E-14
 -1      3637 7.52900E-03 1.17221E-04-3.04296E-14
 -1      3638 7.34128E-03 1.99908E-04-2.94627E-14
 -1      3639 7.91049E-03-8.73225E-05-3.24814E-14
 -1      3640 7.17166E-03-3.45071E-04-2.90527E-14
 -1      3641 1.70388E-03 2.05836E-04-2.36157E-15
 -1      3642 1.65307E-03 2.33343E-04-2.13443E-15
 -1      3643 1.53085E-03 2.30213E-04-1.83870E-15
 -1      3644 3.35143E-03-2.20897E-04-9.84076E-15
 -1      3645 1.73929E-03-1.79935E-04-2.86574E-15
 -1      3646 1.30380E-03-1.81009E-04-1.67334E-15
 -1      3647 1.42873E-03-1.90274E-04-1.96808E-15
 -1      3648 1.48222E-03-1.66715E-04-2.14974E-15
 -1      3649 1.24342E-03-1.47255E-04-1.57968E-15
 -1      3650 1.38343E-02-1.88242E-04-1.16202E-13
 -1      3651 1.38306E-02-1.46340E-04-1.16051E-13
 -1      3652 1.37124E-02-2.05982E-04-1.14331E-13
 -1      3653 1.37047E-02-5.25865E-04-1.14738E-13
 -1      3654 1.38294E-02-5.30839E-04-1.16707E-13
 -1      3655 1.38448E-02-5.06195E-04-1.16918E-13
 -1      3656 1.36301E-02-4.89827E-04-1.13517E-13
 -1      3657 3.72385E-03 2.86818E-04-1.04887E-14
 -1      3658 3.80502E-03 3.52467E-04-1.04533E-14
 -1      3659 3.61983E-03 2.50397E-04-1.01758E-14
 -1      3660 2.79706E-03 2.74221E-04-5.79869E-15
 -1      3661 2.65088E-03 2.66978E-04-5.24019E-15
 -1      3662 2.82921E-03 2.36821E-04-6.17358E-15
 -1      3663 6.83838E-03 4.22065E-04-2.64665E-14
 -1      3664 6.65022E-03 4.89892E-04-2.51800E-14
 -1      3665 3.25167E-03 3.12233E-04-7.64819E-15
 -1      3666 3.12363E-03 2.55284E-04-7.41199E-15
 -1      3667 3.41137E-03 3.34196E-04-8.32242E-15
 -1      3668 1.38231E-02-2.19092E-05-1.15650E-13
 -1      3669 1.38263E-02 1.33299E-05-1.15612E-13
 -1      3670 2.97750E-03-4.11477E-06-9.29657E-15
 -1      3671 2.97087E-03 1.40637E-05-8.95716E-15
 -1      3672 2.91356E-03-1.29636E-05-8.88170E-15
 -1      3673 1.38200E-02 8.05264E-05-1.15339E-13
 -1      3674 1.37081E-02 9.13776E-05-1.13567E-13
 -1      3675 1.35471E-02 8.41274E-05-1.11086E-13
 -1      3676 1.38168E-02 4.52775E-05-1.15380E-13
 -1      3677 2.07809E-03 2.48921E-04-3.29241E-15
 -1      3678 1.98321E-03 2.14396E-04-3.14283E-15
 -1      3679 2.22028E-03 2.52871E-04-3.73611E-15
 -1      3680 1.38602E-02-4.81550E-04-1.17127E-13
 -1      3681 7.47119E-03-2.49834E-04-3.08444E-14
 -1      3682 7.34179E-03-2.73457E-04-2.98123E-14
 -1      3683 7.72570E-03-1.46365E-04-3.16669E-14
 -1      3684 7.72074E-03-1.75676E-04-3.22682E-14
 -1      3685 7.82499E-03-1.33062E-04-3.25253E-14
 -1      3686 2.97799E-03-5.54922E-05-9.21837E-15
 -1      3687 2.92827E-03-4.18519E-05-8.97921E-15
 -1      3688 2.97975E-03-7.64094E-05-8.97605E-15
 -1      3689 7.72608E-03 1.85284E-05-3.10014E-14
 -1      3690 7.83174E-03 1.86562E-06-3.20038E-14
 -1      3691 7.71531E-03 4.89611E-05-3.14841E-14
 -1      3692 1.22049E-03-9.49158E-05-1.58208E-15
 -1      3693 1.23090E-03-1.20376E-04-1.58262E-15
 -1      3694 1.34841E-03-1.29236E-04-1.85683E-15
 -1      3695 2.46636E-03 2.96089E-04-4.37672E-15
 -1      3696 4.44154E-03 6.21638E-04-1.28087E-14
 -1      3697 7.93367E-03-3.31888E-05-3.27357E-14
 -1      3698 7.92034E-03-4.67697E-05-3.22793E-14
 -1      3699 8.00040E-03-5.74616E-05-3.35088E-14
 -1      3700 1.08995E-03-2.09103E-05-1.31148E-15
 -1      3701 1.37345E-02-4.57066E-04-1.15113E-13
 -1      3702 1.38286E-02-1.05084E-04-1.15929E-13
 -1      3703 1.38250E-02-6.31750E-05-1.15777E-13
 -1      3704 1.37028E-02-4.03948E-05-1.13819E-13
 -1      3705 1.37067E-02-1.22873E-04-1.14066E-13
 -1      3706 3.29417E-03-1.80901E-04-9.85519E-15
 -1      3707 3.22873E-03-1.50516E-04-9.75133E-15
 -1      3708 3.09777E-03-1.25171E-04-9.20249E-15
 -1      3709 3.19669E-03-1.90977E-04-9.17735E-15
 -1      3710 1.21775E-03 8.11348E-05-1.47815E-15
 -1      3711 1.21044E-03 5.71127E-05-1.50215E-15
 -1      3712 1.32157E-03 4.75389E-05-1.77832E-15
 -1      3713 1.20537E-03 3.39171E-05-1.52287E-15
 -1      3714 1.20269E-03 1.12439E-05-1.54095E-15
 -1      3715 1.92346E-03-1.56689E-04-3.51940E-15
 -1      3716 2.05733E-03-1.58730E-04-3.98982E-15
 -1      3717 1.75427E-03 1.78580E-04-2.59614E-15
 -1      3718 1.61644E-03 1.74098E-04-2.22950E-15
 -1      3719 1.47193E-03 1.92136E-04-1.80780E-15
 -1      3720 1.43727E-03 2.21226E-04-1.64356E-15
 -1      3721 2.45421E-03-1.62994E-04-5.57405E-15
 -1      3722 2.58532E-03-1.64426E-04-6.15907E-15
 -1      3723 2.71576E-03-1.66242E-04-6.77251E-15
 -1      3724 2.84658E-03-1.68864E-04-7.41442E-15
 -1      3725 2.61413E-03-1.34002E-04-6.45049E-15
 -1      3726 2.95262E-03-1.75192E-04-7.93029E-15
 -1      3727 3.08598E-03-1.80686E-04-8.62210E-15
 -1      3728 3.04263E-03-1.48503E-04-8.63693E-15
 -1      3729 2.83921E-03-1.38331E-04-7.57933E-15
 -1      3730 2.50636E-03 2.61457E-04-4.71005E-15
 -1      3731 2.36290E-03 2.56885E-04-4.20847E-15
 -1      3732 2.26280E-03 2.20435E-04-4.03841E-15
 -1      3733 8.29113E-03 1.31562E-04-3.90974E-14
 -1      3734 8.15443E-03 1.35949E-04-3.75822E-14
 -1      3735 1.36271E-02-4.48894E-04-1.13416E-13
 -1      3736 7.61430E-03-2.38447E-04-3.22397E-14
 -1      3737 3.90561E-03 4.42223E-04-1.04033E-14
 -1      3738 8.02770E-03-2.28549E-04-3.66394E-14
 -1      3739 8.15899E-03-2.30273E-04-3.81322E-14
 -1      3740 8.28963E-03-2.33337E-04-3.96501E-14
 -1      3741 8.42063E-03-2.37384E-04-4.11924E-14
 -1      3742 8.25456E-03-2.00014E-04-3.88151E-14
 -1      3743 8.55181E-03-2.42255E-04-4.27583E-14
 -1      3744 8.68372E-03-2.47803E-04-4.43470E-14
 -1      3745 8.50781E-03-2.09697E-04-4.18959E-14
 -1      3746 8.81619E-03-2.53859E-04-4.59591E-14
 -1      3747 8.94951E-03-2.60380E-04-4.75955E-14
 -1      3748 8.76534E-03-2.21184E-04-4.50712E-14
 -1      3749 9.08354E-03-2.67193E-04-4.92566E-14
 -1      3750 9.21841E-03-2.74283E-04-5.09396E-14
 -1      3751 9.02732E-03-2.33918E-04-4.83397E-14
 -1      3752 9.35398E-03-2.81492E-04-5.26471E-14
 -1      3753 9.49034E-03-2.88822E-04-5.43754E-14
 -1      3754 9.29352E-03-2.47414E-04-5.17050E-14
 -1      3755 9.62734E-03-2.96142E-04-5.61270E-14
 -1      3756 9.76503E-03-3.03461E-04-5.79021E-14
 -1      3757 9.56350E-03-2.61216E-04-5.51631E-14
 -1      3758 9.90329E-03-3.10678E-04-5.96972E-14
 -1      3759 1.00421E-02-3.17807E-04-6.15145E-14
 -1      3760 9.83677E-03-2.74951E-04-5.87084E-14
 -1      3761 1.01814E-02-3.24776E-04-6.33534E-14
 -1      3762 1.03212E-02-3.31601E-04-6.52126E-14
 -1      3763 1.01128E-02-2.88340E-04-6.23424E-14
 -1      3764 1.04614E-02-3.38236E-04-6.70937E-14
 -1      3765 1.06020E-02-3.44698E-04-6.89938E-14
 -1      3766 1.03911E-02-3.01199E-04-6.60604E-14
 -1      3767 1.07429E-02-3.50961E-04-7.09130E-14
 -1      3768 1.08840E-02-3.57043E-04-7.28523E-14
 -1      3769 1.06713E-02-3.13431E-04-6.98603E-14
 -1      3770 1.10255E-02-3.62929E-04-7.48098E-14
 -1      3771 1.11671E-02-3.68638E-04-7.67874E-14
 -1      3772 1.09529E-02-3.25006E-04-7.37357E-14
 -1      3773 1.13090E-02-3.74166E-04-7.87817E-14
 -1      3774 1.14510E-02-3.79529E-04-8.07962E-14
 -1      3775 1.12357E-02-3.35936E-04-7.76892E-14
 -1      3776 1.15931E-02-3.84731E-04-8.28256E-14
 -1      3777 1.17354E-02-3.89788E-04-8.48687E-14
 -1      3778 1.15193E-02-3.46266E-04-8.17143E-14
 -1      3779 1.18778E-02-3.94704E-04-8.69306E-14
 -1      3780 1.20203E-02-3.99496E-04-8.90081E-14
 -1      3781 1.18037E-02-3.56063E-04-8.58043E-14
 -1      3782 1.21629E-02-4.04170E-04-9.10998E-14
 -1      3783 1.23055E-02-4.08739E-04-9.32097E-14
 -1      3784 1.20884E-02-3.65399E-04-8.99548E-14
 -1      3785 1.24482E-02-4.13211E-04-9.53363E-14
 -1      3786 1.25909E-02-4.17598E-04-9.74761E-14
 -1      3787 1.23736E-02-3.74348E-04-9.41732E-14
 -1      3788 1.27337E-02-4.21907E-04-9.96315E-14
 -1      3789 1.28765E-02-4.26148E-04-1.01802E-13
 -1      3790 1.26589E-02-3.82978E-04-9.84520E-14
 -1      3791 1.30193E-02-4.30329E-04-1.03985E-13
 -1      3792 1.31621E-02-4.34455E-04-1.06180E-13
 -1      3793 1.29445E-02-3.91354E-04-1.02789E-13
 -1      3794 1.33050E-02-4.38537E-04-1.08388E-13
 -1      3795 1.34478E-02-4.42578E-04-1.10610E-13
 -1      3796 1.32301E-02-3.99531E-04-1.07181E-13
 -1      3797 7.32914E-03 2.39116E-04-2.97456E-14
 -1      3798 8.01692E-03 1.41640E-04-3.60930E-14
 -1      3799 7.87721E-03 1.49537E-04-3.46293E-14
 -1      3800 8.12542E-03 1.02405E-04-3.69689E-14
 -1      3801 3.74895E-03 3.99286E-04-9.76025E-15
 -1      3802 3.57708E-03 3.62090E-04-9.02666E-15
 -1      3803 8.56269E-03 1.26204E-04-4.22041E-14
 -1      3804 8.42696E-03 1.28458E-04-4.06383E-14
 -1      3805 8.38988E-03 9.66900E-05-3.99998E-14
 -1      3806 8.83416E-03 1.23715E-04-4.54100E-14
 -1      3807 8.69828E-03 1.24685E-04-4.37947E-14
 -1      3808 8.65464E-03 9.36149E-05-4.31316E-14
 -1      3809 9.10686E-03 1.22877E-04-4.87130E-14
 -1      3810 8.97027E-03 1.23140E-04-4.70508E-14
 -1      3811 8.92133E-03 9.20920E-05-4.63627E-14
 -1      3812 9.38134E-03 1.22821E-04-5.21134E-14
 -1      3813 9.24384E-03 1.22783E-04-5.04005E-14
 -1      3814 9.19060E-03 9.13815E-05-4.96903E-14
 -1      3815 9.65776E-03 1.22909E-04-5.56069E-14
 -1      3816 9.51929E-03 1.22867E-04-5.38498E-14
 -1      3817 9.46259E-03 9.09378E-05-5.31142E-14
 -1      3818 9.93601E-03 1.22694E-04-5.91889E-14
 -1      3819 9.79665E-03 1.22851E-04-5.73863E-14
 -1      3820 9.73717E-03 9.03475E-05-5.66324E-14
 -1      3821 1.02159E-02 1.21886E-04-6.28571E-14
 -1      3822 1.00757E-02 1.22369E-04-6.10123E-14
 -1      3823 1.00141E-02 8.93187E-05-6.02361E-14
 -1      3824 1.04971E-02 1.20318E-04-6.66093E-14
 -1      3825 1.03564E-02 1.21197E-04-6.47232E-14
 -1      3826 1.02929E-02 8.76615E-05-6.39281E-14
 -1      3827 1.07795E-02 1.17926E-04-7.04386E-14
 -1      3828 1.06382E-02 1.19222E-04-6.85139E-14
 -1      3829 1.05734E-02 8.52759E-05-6.77024E-14
 -1      3830 1.10628E-02 1.14713E-04-7.43472E-14
 -1      3831 1.09211E-02 1.16417E-04-7.23840E-14
 -1      3832 1.08553E-02 8.21370E-05-7.15556E-14
 -1      3833 1.13468E-02 1.10729E-04-7.83290E-14
 -1      3834 1.12048E-02 1.12811E-04-7.63287E-14
 -1      3835 1.11382E-02 7.82680E-05-7.54833E-14
 -1      3836 1.16314E-02 1.06048E-04-8.23772E-14
 -1      3837 1.14891E-02 1.08469E-04-8.03445E-14
 -1      3838 1.14219E-02 7.37228E-05-7.94803E-14
 -1      3839 1.19163E-02 1.00759E-04-8.64986E-14
 -1      3840 1.17738E-02 1.03473E-04-8.44294E-14
 -1      3841 1.17063E-02 6.85751E-05-8.35479E-14
 -1      3842 1.22015E-02 9.49556E-05-9.06862E-14
 -1      3843 1.20589E-02 9.79159E-05-8.85846E-14
 -1      3844 1.19911E-02 6.29066E-05-8.76860E-14
 -1      3845 1.24870E-02 8.87254E-05-9.49344E-14
 -1      3846 1.23442E-02 9.18885E-05-9.28026E-14
 -1      3847 1.22762E-02 5.67998E-05-9.18869E-14
 -1      3848 1.27725E-02 8.21504E-05-9.92398E-14
 -1      3849 1.26297E-02 8.54764E-05-9.70817E-14
 -1      3850 1.25616E-02 5.03324E-05-9.61500E-14
 -1      3851 1.30582E-02 7.53037E-05-1.03591E-13
 -1      3852 1.29154E-02 7.87571E-05-1.01408E-13
 -1      3853 1.28471E-02 4.35754E-05-1.00465E-13
 -1      3854 1.33439E-02 6.82490E-05-1.07987E-13
 -1      3855 1.32010E-02 7.17990E-05-1.05784E-13
 -1      3856 1.31328E-02 3.65917E-05-1.04828E-13
 -1      3857 1.32397E-03 2.28547E-04-1.37166E-15
 -1      3858 1.35522E-02-4.09861E-04-1.12191E-13
 -1      3859 3.75172E-03 3.52613E-04-1.01171E-14
 -1      3860 1.65389E-03-1.50325E-04-2.66597E-15
 -1      3861 1.78900E-03-1.53922E-04-3.07802E-15
 -1      3862 1.83874E-03-1.28381E-04-3.29278E-15
 -1      3863 1.35981E-02-3.07581E-04-1.12743E-13
 -1      3864 1.35943E-02-2.65547E-04-1.12607E-13
 -1      3865 2.19034E-03-1.60371E-04-4.48896E-15
 -1      3866 2.32272E-03-1.61689E-04-5.01728E-15
 -1      3867 2.10192E-03-1.31576E-04-4.23129E-15
 -1      3868 1.36914E-02 3.27855E-05-1.13462E-13
 -1      3869 6.45846E-03 5.90878E-04-2.40580E-14
 -1      3870 7.45803E-03 1.98607E-04-3.06593E-14
 -1      3871 1.23876E-03 1.32796E-04-1.41984E-15
 -1      3872 1.22727E-03 1.06247E-04-1.45074E-15
 -1      3873 1.33813E-03 9.80750E-05-1.72396E-15
 -1      3874 1.36399E-03 1.53666E-04-1.65436E-15
 -1      3875 1.44191E-03-1.36459E-04-2.08912E-15
 -1      3876 1.56000E-03-1.43995E-04-2.40263E-15
 -1      3877 1.61334E-03-1.20404E-04-2.59405E-15
 -1      3878 1.42860E-03-1.08744E-04-2.08851E-15
 -1      3879 1.20242E-03-1.11369E-05-1.55556E-15
 -1      3880 1.20456E-03-3.36402E-05-1.56731E-15
 -1      3881 1.31545E-03-1.14433E-07-1.81874E-15
 -1      3882 1.35484E-02-3.67820E-04-1.12067E-13
 -1      3883 8.00804E-03-8.95650E-05-3.39236E-14
 -1      3884 7.93151E-03-1.11115E-04-3.33509E-14
 -1      3885 1.53540E-03 1.67677E-04-2.03667E-15
 -1      3886 1.44451E-03 1.60813E-04-1.82845E-15
 -1      3887 1.42928E-03 1.31320E-04-1.86828E-15
 -1      3888 1.58853E-03 1.43015E-04-2.24903E-15
 -1      3889 3.43496E-03 2.89979E-04-8.76545E-15
 -1      3890 1.20765E-03-5.19393E-05-1.57379E-15
 -1      3891 1.21406E-03-7.54162E-05-1.58017E-15
 -1      3892 1.32893E-03-8.19179E-05-1.85404E-15
 -1      3893 1.31891E-03-4.26666E-05-1.84285E-15
 -1      3894 7.73354E-03-2.03666E-04-3.29621E-14
 -1      3895 7.75238E-03-2.42148E-04-3.38062E-14
 -1      3896 7.88879E-03-2.39022E-04-3.52528E-14
 -1      3897 7.84307E-03-1.84572E-04-3.38370E-14
 -1      3898 7.60714E-03 1.22412E-04-3.13742E-14
 -1      3899 7.66155E-03 8.34345E-05-3.14302E-14
 -1      3900 7.78384E-03 5.72663E-05-3.24424E-14
 -1      3901 7.94170E-03-1.32839E-04-3.39698E-14
 -1      3902 7.99848E-03-2.02431E-04-3.59167E-14
 -1      3903 2.85719E-03 1.99369E-04-6.55301E-15
 -1      3904 2.71722E-03 1.95177E-04-5.95902E-15
 -1      3905 7.86240E-03 9.85004E-05-3.39251E-14
 -1      3906 7.73971E-03 1.44329E-04-3.30785E-14
 -1      3907 7.94424E-03-1.40308E-05-3.32376E-14
 -1      3908 8.04714E-03-2.71016E-05-3.44864E-14
 -1      3909 7.95202E-03 8.53702E-06-3.37371E-14
 -1      3910 2.87942E-03-2.67238E-05-8.65322E-15
 -1      3911 2.84362E-03-1.15869E-05-8.33115E-15
 -1      3912 2.85702E-03-4.18322E-05-8.42397E-15
 -1      3913 7.59596E-03 1.57595E-04-3.16677E-14
 -1      3914 1.34788E-02 4.88864E-05-1.10121E-13
 -1      3915 2.54388E-03 2.26771E-04-5.04864E-15
 -1      3916 2.89912E-03 2.58535E-05-8.33701E-15
 -1      3917 2.99316E-03 3.99996E-05-8.73382E-15
 -1      3918 2.02933E-03 1.84642E-04-3.41456E-15
 -1      3919 1.89184E-03 1.82038E-04-2.99088E-15
 -1      3920 1.80424E-03 1.51609E-04-2.83774E-15
 -1      3921 1.34227E-02-3.43391E-04-1.10073E-13
 -1      3922 3.00040E-03-1.20013E-04-8.64854E-15
 -1      3923 2.36057E-03-1.33115E-04-5.28418E-15
 -1      3924 1.35906E-02-2.23695E-04-1.12469E-13
 -1      3925 1.35868E-02-1.81845E-04-1.12326E-13
 -1      3926 1.34688E-02-2.41377E-04-1.10611E-13
 -1      3927 3.14405E-03 2.13776E-04-7.82497E-15
 -1      3928 2.99890E-03 2.05028E-04-7.17479E-15
 -1      3929 2.88073E-03 1.61685E-04-6.93675E-15
 -1      3930 8.05255E-03-7.67942E-05-3.43985E-14
 -1      3931 8.09488E-03-9.84033E-05-3.52925E-14
 -1      3932 8.08908E-03-6.43287E-05-3.48735E-14
 -1      3933 3.08384E-03 6.53653E-05-8.93583E-15
 -1      3934 1.43899E-03 6.19723E-05-2.05119E-15
 -1      3935 1.43252E-03 3.66059E-05-2.07782E-15
 -1      3936 1.43817E-03 1.09464E-04-1.94514E-15
 -1      3937 1.42693E-03 8.24525E-05-1.97838E-15
 -1      3938 1.53662E-03 7.13861E-05-2.29531E-15
 -1      3939 1.51672E-03 1.14723E-04-2.13589E-15
 -1      3940 2.88589E-03-1.17119E-04-7.99861E-15
 -1      3941 2.94494E-03-9.54542E-05-8.54107E-15
 -1      3942 2.87970E-03-7.57233E-05-8.31588E-15
 -1      3943 2.78990E-03-1.14024E-04-7.48238E-15
 -1      3944 3.27831E-03 1.21620E-04-9.41682E-15
 -1      3945 3.40268E-03 1.71030E-04-9.61844E-15
 -1      3946 3.48348E-03 2.24633E-04-9.58746E-15
 -1      3947 1.75827E-03-1.01688E-04-3.07104E-15
 -1      3948 1.88912E-03-1.03418E-04-3.51010E-15
 -1      3949 8.02584E-03 7.61601E-05-3.55501E-14
 -1      3950 7.90169E-03 6.65912E-05-3.39816E-14
 -1      3951 7.94004E-03 3.76465E-05-3.40353E-14
 -1      3952 2.27366E-03-1.05886E-04-4.99851E-15
 -1      3953 2.39862E-03-1.05945E-04-5.55141E-15
 -1      3954 2.30382E-03 1.88482E-04-4.34705E-15
 -1      3955 2.16655E-03 1.86699E-04-3.86647E-15
 -1      3956 2.07465E-03 1.55347E-04-3.69278E-15
 -1      3957 8.74232E-03 6.30198E-05-4.40620E-14
 -1      3958 8.61224E-03 6.38507E-05-4.24714E-14
 -1      3959 8.22113E-03-1.68735E-04-3.79836E-14
 -1      3960 8.34214E-03-1.73747E-04-3.94979E-14
 -1      3961 8.46461E-03-1.78894E-04-4.10360E-14
 -1      3962 8.58902E-03-1.84412E-04-4.25991E-14
 -1      3963 8.42171E-03-1.49893E-04-4.01793E-14
 -1      3964 8.71491E-03-1.90047E-04-4.41849E-14
 -1      3965 8.84247E-03-1.95982E-04-4.57933E-14
 -1      3966 8.66446E-03-1.60476E-04-4.33013E-14
 -1      3967 8.97139E-03-2.02017E-04-4.74269E-14
 -1      3968 9.10175E-03-2.08269E-04-4.90843E-14
 -1      3969 8.91538E-03-1.71499E-04-4.65168E-14
 -1      3970 9.23331E-03-2.14562E-04-5.07668E-14
 -1      3971 9.36608E-03-2.20979E-04-5.24726E-14
 -1      3972 9.17304E-03-1.82944E-04-4.98286E-14
 -1      3973 9.49990E-03-2.27373E-04-5.41976E-14
 -1      3974 9.63475E-03-2.33805E-04-5.59476E-14
 -1      3975 9.43631E-03-1.94621E-04-5.32363E-14
 -1      3976 9.77049E-03-2.40163E-04-5.77198E-14
 -1      3977 9.90708E-03-2.46492E-04-5.95141E-14
 -1      3978 9.70427E-03-2.06326E-04-5.67338E-14
 -1      3979 1.00444E-02-2.52703E-04-6.13310E-14
 -1      3980 1.01824E-02-2.58836E-04-6.31687E-14
 -1      3981 9.97611E-03-2.17885E-04-6.03207E-14
 -1      3982 1.03211E-02-2.64831E-04-6.50281E-14
 -1      3983 1.04603E-02-2.70715E-04-6.69081E-14
 -1      3984 1.02511E-02-2.29150E-04-6.39969E-14
 -1      3985 1.05999E-02-2.76451E-04-6.88080E-14
 -1      3986 1.07401E-02-2.82063E-04-7.07265E-14
 -1      3987 1.05287E-02-2.40040E-04-6.77577E-14
 -1      3988 1.08806E-02-2.87526E-04-7.26665E-14
 -1      3989 1.10214E-02-2.92862E-04-7.46232E-14
 -1      3990 1.08084E-02-2.50511E-04-7.15965E-14
 -1      3991 1.11626E-02-2.98057E-04-7.65979E-14
 -1      3992 1.13040E-02-3.03130E-04-7.85926E-14
 -1      3993 1.10896E-02-2.60550E-04-7.55094E-14
 -1      3994 1.14457E-02-3.08075E-04-8.06041E-14
 -1      3995 1.15876E-02-3.12909E-04-8.26336E-14
 -1      3996 1.13721E-02-2.70176E-04-7.94965E-14
 -1      3997 1.17296E-02-3.17631E-04-8.46792E-14
 -1      3998 1.18718E-02-3.22256E-04-8.67384E-14
 -1      3999 1.16556E-02-2.79426E-04-8.35536E-14
 -1      4000 1.20141E-02-3.26786E-04-8.88125E-14
 -1      4001 1.21565E-02-3.31233E-04-9.09041E-14
 -1      4002 1.19398E-02-2.88345E-04-8.76712E-14
 -1      4003 1.22990E-02-3.35600E-04-9.30107E-14
 -1      4004 1.24416E-02-3.39899E-04-9.51353E-14
 -1      4005 1.22245E-02-2.96981E-04-9.18528E-14
 -1      4006 1.25843E-02-3.44133E-04-9.72745E-14
 -1      4007 1.27270E-02-3.48312E-04-9.94270E-14
 -1      4008 1.25096E-02-3.05383E-04-9.60976E-14
 -1      4009 1.28697E-02-3.52439E-04-1.01597E-13
 -1      4010 1.30125E-02-3.56522E-04-1.03778E-13
 -1      4011 1.27950E-02-3.13592E-04-1.00405E-13
 -1      4012 1.31462E-02-3.48003E-04-1.05812E-13
 -1      4013 1.32890E-02-3.52002E-04-1.08019E-13
 -1      4014 1.33388E-02-2.91874E-04-1.08690E-13
 -1      4015 1.30714E-02-3.09100E-04-1.04604E-13
 -1      4016 9.00518E-03 6.17045E-05-4.73179E-14
 -1      4017 8.87323E-03 6.22892E-05-4.56782E-14
 -1      4018 8.82571E-03 3.37604E-05-4.49965E-14
 -1      4019 8.28186E-03 7.13885E-05-3.85291E-14
 -1      4020 8.15364E-03 7.34490E-05-3.70265E-14
 -1      4021 8.18046E-03 4.64143E-05-3.70816E-14
 -1      4022 8.51128E-03 6.67260E-05-4.12563E-14
 -1      4023 8.38244E-03 6.79741E-05-3.97102E-14
 -1      4024 8.40200E-03 4.24917E-05-3.97640E-14
 -1      4025 8.59858E-03 3.71889E-05-4.21673E-14
 -1      4026 9.27178E-03 6.06227E-05-5.06699E-14
 -1      4027 9.13800E-03 6.11331E-05-4.89818E-14
 -1      4028 9.08579E-03 3.20615E-05-4.82747E-14
 -1      4029 9.54188E-03 5.94677E-05-5.41185E-14
 -1      4030 9.40640E-03 6.00542E-05-5.23808E-14
 -1      4031 9.35052E-03 3.02378E-05-5.16527E-14
 -1      4032 9.81510E-03 5.79908E-05-5.76587E-14
 -1      4033 9.67812E-03 5.87670E-05-5.58790E-14
 -1      4034 9.61934E-03 2.81353E-05-5.51259E-14
 -1      4035 1.00910E-02 5.60185E-05-6.12871E-14
 -1      4036 9.95274E-03 5.70636E-05-5.94621E-14
 -1      4037 9.89167E-03 2.56301E-05-5.86896E-14
 -1      4038 1.03692E-02 5.34338E-05-6.50024E-14
 -1      4039 1.02298E-02 5.47988E-05-6.31342E-14
 -1      4040 1.01669E-02 2.26348E-05-6.23407E-14
 -1      4041 1.06492E-02 5.01855E-05-6.87970E-14
 -1      4042 1.05089E-02 5.18864E-05-6.68894E-14
 -1      4043 1.04447E-02 1.90817E-05-6.60770E-14
 -1      4044 1.09306E-02 4.62784E-05-7.26699E-14
 -1      4045 1.07897E-02 4.83080E-05-7.07236E-14
 -1      4046 1.07244E-02 1.49571E-05-6.98929E-14
 -1      4047 1.12133E-02 4.17447E-05-7.66174E-14
 -1      4048 1.10718E-02 4.40835E-05-7.46359E-14
 -1      4049 1.10056E-02 1.02831E-05-7.37866E-14
 -1      4050 1.14968E-02 3.66394E-05-8.06336E-14
 -1      4051 1.13550E-02 3.92571E-05-7.86170E-14
 -1      4052 1.12881E-02 5.09450E-06-7.77524E-14
 -1      4053 1.17811E-02 3.10307E-05-8.47190E-14
 -1      4054 1.16389E-02 3.38921E-05-8.26676E-14
 -1      4055 1.15716E-02-5.56139E-07-8.17873E-14
 -1      4056 1.20658E-02 2.49907E-05-8.88721E-14
 -1      4057 1.19234E-02 2.80593E-05-8.67862E-14
 -1      4058 1.18558E-02-6.60940E-06-8.58893E-14
 -1      4059 1.23509E-02 1.85900E-05-9.30868E-14
 -1      4060 1.22083E-02 2.18307E-05-9.09733E-14
 -1      4061 1.21405E-02-1.30048E-05-9.00581E-14
 -1      4062 1.26362E-02 1.18947E-05-9.73638E-14
 -1      4063 1.24935E-02 1.52752E-05-9.52169E-14
 -1      4064 1.24255E-02-1.96841E-05-9.42874E-14
 -1      4065 1.29218E-02 4.96400E-06-1.01690E-13
 -1      4066 1.27790E-02 8.45531E-06-9.95216E-14
 -1      4067 1.27109E-02-2.65942E-05-9.85750E-14
 -1      4068 1.32074E-02-2.14927E-06-1.06064E-13
 -1      4069 1.30646E-02 1.42735E-06-1.03872E-13
 -1      4070 1.29964E-02-3.36874E-05-1.02915E-13
 -1      4071 2.01873E-03-1.04678E-04-3.97740E-15
 -1      4072 2.14705E-03-1.05400E-04-4.47374E-15
 -1      4073 1.94052E-03-7.90401E-05-3.72850E-15
 -1      4074 2.80692E-03 1.18975E-05-7.90124E-15
 -1      4075 2.81097E-03 3.54447E-05-7.69347E-15
 -1      4076 7.97241E-03-1.77567E-04-3.51991E-14
 -1      4077 8.09830E-03-1.72424E-04-3.65806E-14
 -1      4078 8.18701E-03-1.46946E-04-3.72445E-14
 -1      4079 7.94952E-03-1.53187E-04-3.44840E-14
 -1      4080 3.08216E-03 9.47772E-05-8.58206E-15
 -1      4081 8.05511E-03-1.30603E-04-3.53309E-14
 -1      4082 2.96465E-03 1.04450E-04-7.85227E-15
 -1      4083 3.14897E-03 1.60116E-04-8.29648E-15
 -1      4084 1.35848E-02-1.40642E-04-1.12208E-13
 -1      4085 1.35829E-02-9.94345E-05-1.12089E-13
 -1      4086 1.34630E-02-1.58387E-04-1.10358E-13
 -1      4087 1.35800E-02-5.73642E-05-1.11949E-13
 -1      4088 1.35781E-02-1.61411E-05-1.11824E-13
 -1      4089 1.42902E-03 1.19330E-05-2.10094E-15
 -1      4090 1.42863E-03-1.25317E-05-2.12001E-15
 -1      4091 1.54334E-03 2.47316E-05-2.40078E-15
 -1      4092 2.52138E-03-1.05962E-04-6.13320E-15
 -1      4093 2.64227E-03-1.05544E-04-6.74221E-15
 -1      4094 2.43737E-03-8.02713E-05-5.81947E-15
 -1      4095 2.57886E-03 1.92430E-04-5.39307E-15
 -1      4096 2.44106E-03 1.90241E-04-4.85569E-15
 -1      4097 2.34338E-03 1.57016E-04-4.66115E-15
 -1      4098 2.61124E-03 1.58393E-04-5.74290E-15
 -1      4099 1.34883E-02 1.69845E-05-1.10350E-13
 -1      4100 1.33655E-02-3.21277E-08-1.08493E-13
 -1      4101 1.34582E-02-7.51751E-05-1.10102E-13
 -1      4102 1.32973E-02-3.51998E-05-1.07526E-13
 -1      4103 8.06253E-03 1.89160E-05-3.53026E-14
 -1      4104 3.43833E-03 2.31208E-04-9.26894E-15
 -1      4105 3.28499E-03 2.13624E-04-8.55940E-15
 -1      4106 2.19317E-03-8.02605E-05-4.71746E-15
 -1      4107 1.66733E-03-9.70446E-05-2.78826E-15
 -1      4108 1.72232E-03-7.38198E-05-2.98515E-15
 -1      4109 1.57624E-03-9.22128E-05-2.51897E-15
 -1      4110 1.32013E-02-2.58766E-04-1.06510E-13
 -1      4111 1.33350E-02-2.50088E-04-1.08555E-13
 -1      4112 1.33313E-02-2.08308E-04-1.08420E-13
 -1      4113 2.82275E-03 6.75126E-05-7.44956E-15
 -1      4114 2.86162E-03 1.19044E-04-7.18957E-15
 -1      4115 2.73349E-03 1.19426E-04-6.56743E-15
 -1      4116 2.71603E-03 4.96293E-05-7.04207E-15
 -1      4117 3.65113E-03 3.14394E-04-9.81097E-15
 -1      4118 8.15079E-03-3.05874E-05-3.59159E-14
 -1      4119 8.12297E-03-4.83113E-05-3.53947E-14
 -1      4120 8.18670E-03-6.90075E-05-3.63073E-14
 -1      4121 1.65836E-03 3.80533E-05-2.71831E-15
 -1      4122 1.65392E-03 1.19824E-05-2.74662E-15
 -1      4123 2.80984E-03-5.62204E-05-8.00846E-15
 -1      4124 2.75133E-03-3.92556E-05-7.70349E-15
 -1      4125 2.76176E-03-7.27881E-05-7.59919E-15
 -1      4126 1.42016E-03-8.74697E-05-2.08609E-15
 -1      4127 2.75610E-03-3.87104E-06-7.68880E-15
 -1      4128 1.59543E-03 1.19745E-04-2.33553E-15
 -1      4129 2.60146E-03 8.45797E-05-6.20113E-15
 -1      4130 2.60566E-03 1.20160E-04-5.97380E-15
 -1      4131 2.47673E-03 1.20938E-04-5.40721E-15
 -1      4132 1.33001E-02-7.72016E-05-1.07666E-13
 -1      4133 1.66591E-03 6.51722E-05-2.68291E-15
 -1      4134 1.77370E-03 5.21858E-05-3.05044E-15
 -1      4135 1.65579E-03 8.71213E-05-2.59761E-15
 -1      4136 1.72564E-03 1.14098E-04-2.72692E-15
 -1      4137 1.58355E-03-3.44809E-05-2.56677E-15
 -1      4138 1.47322E-03-4.58252E-05-2.24981E-15
 -1      4139 2.69615E-03-8.67283E-05-7.13587E-15
 -1      4140 1.85875E-03 1.15723E-04-3.13359E-15
 -1      4141 8.13100E-03-1.12788E-04-3.60003E-14
 -1      4142 8.15055E-03-1.30284E-04-3.65305E-14
 -1      4143 8.26329E-03-1.28445E-04-3.79298E-14
 -1      4144 8.18281E-03-9.85170E-05-3.64899E-14
 -1      4145 1.47816E-03-6.61968E-05-2.25796E-15
 -1      4146 2.11873E-03-5.59175E-05-4.44111E-15
 -1      4147 2.24158E-03-5.61583E-05-4.96182E-15
 -1      4148 2.12255E-03 1.16914E-04-4.03155E-15
 -1      4149 1.99102E-03 1.16683E-04-3.56842E-15
 -1      4150 1.91464E-03 8.08882E-05-3.43715E-15
 -1      4151 8.29755E-03 1.77693E-05-3.82699E-14
 -1      4152 8.17880E-03 1.82554E-05-3.67736E-14
 -1      4153 8.17538E-03-7.42994E-06-3.64624E-14
 -1      4154 2.60737E-03 2.35292E-05-6.64789E-15
 -1      4155 2.60142E-03 5.24165E-05-6.42598E-15
 -1      4156 2.48353E-03 5.51444E-05-5.83743E-15
 -1      4157 8.90501E-03 5.50309E-06-4.59294E-14
 -1      4158 8.77805E-03 6.62915E-06-4.43139E-14
 -1      4159 8.61283E-03-1.32509E-04-4.24207E-14
 -1      4160 8.73457E-03-1.37468E-04-4.40029E-14
 -1      4161 8.85847E-03-1.42353E-04-4.56101E-14
 -1      4162 8.98443E-03-1.47431E-04-4.72399E-14
 -1      4163 8.80011E-03-1.14540E-04-4.47062E-14
 -1      4164 9.11211E-03-1.52515E-04-4.88941E-14
 -1      4165 9.24147E-03-1.57737E-04-5.05742E-14
 -1      4166 9.05012E-03-1.23286E-04-4.79626E-14
 -1      4167 9.37226E-03-1.62922E-04-5.22767E-14
 -1      4168 9.50442E-03-1.68192E-04-5.40012E-14
 -1      4169 9.30743E-03-1.32268E-04-5.13182E-14
 -1      4170 9.63775E-03-1.73417E-04-5.57505E-14
 -1      4171 9.77221E-03-1.78675E-04-5.75214E-14
 -1      4172 9.57071E-03-1.41431E-04-5.47697E-14
 -1      4173 9.90763E-03-1.83870E-04-5.93174E-14
 -1      4174 1.00440E-02-1.89059E-04-6.11327E-14
 -1      4175 9.83880E-03-1.50663E-04-5.83126E-14
 -1      4176 1.01811E-02-1.94158E-04-6.29681E-14
 -1      4177 1.03190E-02-1.99229E-04-6.48291E-14
 -1      4178 1.01109E-02-1.59846E-04-6.19431E-14
 -1      4179 1.04575E-02-2.04211E-04-6.67063E-14
 -1      4180 1.05966E-02-2.09135E-04-6.86056E-14
 -1      4181 1.03861E-02-1.68967E-04-6.56579E-14
 -1      4182 1.07362E-02-2.13974E-04-7.05260E-14
 -1      4183 1.08762E-02-2.18749E-04-7.24643E-14
 -1      4184 1.06639E-02-1.77931E-04-6.94566E-14
 -1      4185 1.10167E-02-2.23431E-04-7.44224E-14
 -1      4186 1.11575E-02-2.28049E-04-7.63953E-14
 -1      4187 1.09437E-02-1.86713E-04-7.33326E-14
 -1      4188 1.12987E-02-2.32585E-04-7.83872E-14
 -1      4189 1.14401E-02-2.37060E-04-8.03990E-14
 -1      4190 1.12252E-02-1.95317E-04-7.72820E-14
 -1      4191 1.15817E-02-2.41461E-04-8.24279E-14
 -1      4192 1.17236E-02-2.45807E-04-8.44727E-14
 -1      4193 1.15078E-02-2.03751E-04-8.13032E-14
 -1      4194 1.18656E-02-2.50089E-04-8.65306E-14
 -1      4195 1.20078E-02-2.54322E-04-8.86052E-14
 -1      4196 1.17914E-02-2.12031E-04-8.53899E-14
 -1      4197 1.21501E-02-2.58503E-04-9.06958E-14
 -1      4198 1.22925E-02-2.62641E-04-9.28010E-14
 -1      4199 1.20757E-02-2.20174E-04-8.95384E-14
 -1      4200 1.24351E-02-2.66736E-04-9.49237E-14
 -1      4201 1.25777E-02-2.70796E-04-9.70613E-14
 -1      4202 1.23605E-02-2.28202E-04-9.37497E-14
 -1      4203 1.27203E-02-2.74822E-04-9.92146E-14
 -1      4204 1.28630E-02-2.78818E-04-1.01381E-13
 -1      4205 1.26457E-02-2.36133E-04-9.80260E-14
 -1      4206 1.29653E-02-2.73125E-04-1.02926E-13
 -1      4207 1.30990E-02-2.64523E-04-1.04952E-13
 -1      4208 1.30952E-02-2.22825E-04-1.04819E-13
 -1      4209 1.28906E-02-2.34345E-04-1.01723E-13
 -1      4210 9.69508E-03-3.18801E-06-5.61348E-14
 -1      4211 9.56049E-03-1.53509E-06-5.43740E-14
 -1      4212 9.96696E-03-6.82519E-06-5.97213E-14
 -1      4213 9.83057E-03-4.97394E-06-5.79180E-14
 -1      4214 9.76930E-03-3.47093E-05-5.71468E-14
 -1      4215 1.02420E-02-1.08996E-05-6.33950E-14
 -1      4216 1.01041E-02-8.81339E-06-6.15464E-14
 -1      4217 1.00411E-02-3.95373E-05-6.07541E-14
 -1      4218 1.05195E-02-1.54424E-05-6.71528E-14
 -1      4219 1.03805E-02-1.31170E-05-6.52639E-14
 -1      4220 1.03162E-02-4.47127E-05-6.44508E-14
 -1      4221 1.07991E-02-2.04441E-05-7.09906E-14
 -1      4222 1.06591E-02-1.78938E-05-6.90630E-14
 -1      4223 1.05938E-02-5.02258E-05-6.82322E-14
 -1      4224 1.10803E-02-2.58757E-05-7.49037E-14
 -1      4225 1.09395E-02-2.31113E-05-7.29378E-14
 -1      4226 1.08734E-02-5.60832E-05-7.20902E-14
 -1      4227 1.13628E-02-3.17021E-05-7.88877E-14
 -1      4228 1.12214E-02-2.87443E-05-7.68869E-14
 -1      4229 1.11547E-02-6.22442E-05-7.60198E-14
 -1      4230 1.16462E-02-3.78779E-05-8.29420E-14
 -1      4231 1.15044E-02-3.47504E-05-8.09071E-14
 -1      4232 1.14372E-02-6.86773E-05-8.00246E-14
 -1      4233 1.19304E-02-4.43552E-05-8.70602E-14
 -1      4234 1.17882E-02-4.10824E-05-8.49929E-14
 -1      4235 1.17207E-02-7.53480E-05-8.40958E-14
 -1      4236 1.22151E-02-5.10865E-05-9.12436E-14
 -1      4237 1.20727E-02-4.76921E-05-8.91437E-14
 -1      4238 1.20049E-02-8.22214E-05-8.82308E-14
 -1      4239 1.25002E-02-5.80273E-05-9.54878E-14
 -1      4240 1.23576E-02-5.45333E-05-9.33591E-14
 -1      4241 1.22897E-02-8.92641E-05-9.24293E-14
 -1      4242 1.27855E-02-6.51372E-05-9.97892E-14
 -1      4243 1.26428E-02-6.15631E-05-9.76316E-14
 -1      4244 1.25748E-02-9.64452E-05-9.66884E-14
 -1      4245 1.30710E-02-7.23804E-05-1.04141E-13
 -1      4246 1.29282E-02-6.87447E-05-1.01959E-13
 -1      4247 1.28601E-02-1.03737E-04-1.01003E-13
 -1      4248 1.71652E-03-5.45359E-05-2.97723E-15
 -1      4249 1.80513E-03-5.83170E-05-3.26899E-15
 -1      4250 1.93300E-03-5.92192E-05-3.71892E-15
 -1      4251 1.67020E-03-1.94434E-05-2.82658E-15
 -1      4252 9.16333E-03 2.92315E-06-4.92367E-14
 -1      4253 9.03341E-03 4.21248E-06-4.75721E-14
 -1      4254 8.98054E-03-2.23715E-05-4.68673E-14
 -1      4255 8.37729E-03-1.22943E-04-3.93260E-14
 -1      4256 8.49370E-03-1.27832E-04-4.08612E-14
 -1      4257 8.55930E-03-1.06149E-04-4.15427E-14
 -1      4258 2.36503E-03 1.18815E-04-4.95516E-15
 -1      4259 2.23494E-03 1.19336E-04-4.44043E-15
 -1      4260 2.15344E-03 8.26808E-05-4.29648E-15
 -1      4261 2.37063E-03 8.54773E-05-5.16204E-15
 -1      4262 2.69812E-03-2.08578E-05-7.37180E-15
 -1      4263 2.64485E-03 2.60809E-06-6.97108E-15
 -1      4264 2.53613E-03 4.96152E-06-6.35683E-15
 -1      4265 2.63516E-03-3.43240E-05-6.98518E-15
 -1      4266 1.78071E-03-7.09125E-06-3.17519E-15
 -1      4267 1.33475E-02-1.35323E-04-1.08522E-13
 -1      4268 1.31865E-02-9.53352E-05-1.05959E-13
 -1      4269 1.31184E-02-1.30388E-04-1.04992E-13
 -1      4270 1.33495E-02-1.76463E-04-1.08639E-13
 -1      4271 9.42697E-03 4.73428E-08-5.26374E-14
 -1      4272 9.29451E-03 1.50576E-06-5.09251E-14
 -1      4273 9.50136E-03-3.02384E-05-5.36254E-14
 -1      4274 2.62718E-03-6.64563E-05-6.85320E-15
 -1      4275 2.36162E-03-5.65099E-05-5.51048E-15
 -1      4276 2.47875E-03-5.63467E-05-6.08789E-15
 -1      4277 2.29293E-03-3.32470E-05-5.20683E-15
 -1      4278 1.90243E-03 5.21522E-05-3.48198E-15
 -1      4279 8.39165E-03 1.53181E-05-3.94442E-14
 -1      4280 8.37928E-03-1.00826E-05-3.91220E-14
 -1      4281 8.48665E-03 1.28854E-05-4.06335E-14
 -1      4282 8.25889E-03-3.11037E-05-3.73964E-14
 -1      4283 2.55451E-03-4.39364E-05-6.51427E-15
 -1      4284 8.68054E-03 9.33445E-06-4.30807E-14
 -1      4285 8.58377E-03 1.18840E-05-4.18623E-14
 -1      4286 8.75756E-03-1.77034E-05-4.39961E-14
 -1      4287 2.04273E-03 4.61396E-05-4.00813E-15
 -1      4288 1.90919E-03 1.91887E-05-3.58333E-15
 -1      4289 1.92319E-03-1.31763E-05-3.67897E-15
 -1      4290 2.04984E-03-3.27644E-05-4.17049E-15
 -1      4291 9.23809E-03-2.61251E-05-5.01989E-14
 -1      4292 8.33292E-03-1.07642E-04-3.85916E-14
 -1      4293 1.32157E-02-1.85223E-04-1.06595E-13
 -1      4294 8.24217E-03-7.95123E-05-3.71356E-14
 -1      4295 8.28784E-03-9.31873E-05-3.78621E-14
 -1      4296 8.39427E-03-8.76043E-05-3.92540E-14
 -1      4297 8.28485E-03-6.28807E-05-3.76738E-14
 -1      4298 8.73904E-03-8.77929E-05-4.38016E-14
 -1      4299 8.86152E-03-9.14049E-05-4.54052E-14
 -1      4300 1.01144E-02-7.25786E-05-6.17928E-14
 -1      4301 9.97787E-03-6.95514E-05-5.99662E-14
 -1      4302 8.50533E-03-8.60723E-05-4.07275E-14
 -1      4303 8.62247E-03-8.95834E-05-4.22850E-14
 -1      4304 8.67914E-03-6.72237E-05-4.29648E-14
 -1      4305 8.45293E-03-7.16774E-05-3.99776E-14
 -1      4306 9.02029E-03-7.28036E-05-4.74221E-14
 -1      4307 9.14757E-03-7.59647E-05-4.90828E-14
 -1      4308 9.27656E-03-7.90802E-05-5.07649E-14
 -1      4309 9.40704E-03-8.23975E-05-5.24729E-14
 -1      4310 9.53890E-03-8.56807E-05-5.42039E-14
 -1      4311 9.67199E-03-8.91083E-05-5.59560E-14
 -1      4312 1.00126E-02-1.28969E-04-6.05571E-14
 -1      4313 1.01491E-02-1.33083E-04-6.23883E-14
 -1      4314 1.03144E-02-1.34278E-04-6.46104E-14
 -1      4315 1.04526E-02-1.38330E-04-6.64889E-14
 -1      4316 1.06296E-02-1.13947E-04-6.88510E-14
 -1      4317 1.07691E-02-1.17615E-04-7.07764E-14
 -1      4318 1.09091E-02-1.21279E-04-7.27191E-14
 -1      4319 1.10495E-02-1.24980E-04-7.46806E-14
 -1      4320 1.11903E-02-1.28680E-04-7.66607E-14
 -1      4321 1.13314E-02-1.32406E-04-7.86550E-14
 -1      4322 1.14728E-02-1.36131E-04-8.06702E-14
 -1      4323 1.16144E-02-1.39876E-04-8.27037E-14
 -1      4324 1.17562E-02-1.43623E-04-8.47492E-14
 -1      4325 1.18982E-02-1.47383E-04-8.68142E-14
 -1      4326 1.20404E-02-1.51145E-04-8.88924E-14
 -1      4327 1.21827E-02-1.54918E-04-9.09860E-14
 -1      4328 1.23251E-02-1.58692E-04-9.30977E-14
 -1      4329 1.24676E-02-1.62474E-04-9.52220E-14
 -1      4330 1.26102E-02-1.66259E-04-9.73614E-14
 -1      4331 1.27529E-02-1.70048E-04-9.95185E-14
 -1      4332 1.04176E-02-7.57067E-05-6.58824E-14
 -1      4333 1.02794E-02-7.26053E-05-6.40079E-14
 -1      4334 9.80623E-03-9.25124E-05-5.77342E-14
 -1      4335 2.14970E-03 4.75019E-05-4.41883E-15
 -1      4336 1.28956E-02-1.73838E-04-1.01684E-13
 -1      4337 2.39521E-03 2.57963E-05-5.56686E-15
 -1      4338 2.38031E-03 5.45381E-05-5.36587E-15
 -1      4339 2.27561E-03 5.38421E-05-4.91348E-15
 -1      4340 8.32802E-03-4.96327E-05-3.82727E-14
 -1      4341 8.39067E-03-6.04285E-05-3.91222E-14
 -1      4342 8.50023E-03-5.79447E-05-4.05923E-14
 -1      4343 2.22880E-03-3.82774E-06-4.89164E-15
 -1      4344 2.34752E-03-4.71612E-06-5.43473E-15
 -1      4345 8.36454E-03-2.74602E-05-3.88392E-14
 -1      4346 2.49676E-03-2.42887E-05-6.21092E-15
 -1      4347 2.44560E-03-4.00333E-06-5.91192E-15
 -1      4348 8.45427E-03-2.99330E-05-4.00185E-14
 -1      4349 1.04906E-02-1.10337E-04-6.69465E-14
 -1      4350 8.82615E-03-4.30708E-05-4.48646E-14
 -1      4351 8.73100E-03-3.97934E-05-4.36286E-14
 -1      4352 2.17202E-03 1.91852E-05-4.59855E-15
 -1      4353 1.02146E-02-1.03115E-04-6.31982E-14
 -1      4354 9.94148E-03-9.60023E-05-5.95351E-14
 -1      4355 1.30111E-02-1.96859E-04-1.03486E-13
 -1      4356 2.10882E-03-9.85185E-06-4.39265E-15
 -1      4357 8.89482E-03-6.99644E-05-4.57864E-14
 -1      4358 8.56581E-03-1.36273E-05-4.15298E-14
 -1      4359 8.61527E-03-4.29794E-05-4.21158E-14
 -1      4360 1.31134E-02-1.91053E-04-1.05039E-13
 -1      4361 8.54727E-03-3.12802E-05-4.12387E-14
 -3
    1PSTEP                         2           1           1          
  100CL  101 1.000000000        4361                     0    1           1
 -4  STRESS      6    1
 -5  SXX         1    4    1    1
 -5  SYY         1    4    2    2
 -5  SZZ         1    4    3    3
 -5  SXY         1    4    1    2
 -5  SYZ         1    4    2    3
 -5  SZX         1    4    3    1
 -1         1 1.71105E+01 1.05542E+01 5.02948E-01-1.33012E+01-2.13579E-12 2.47352E-12
 -1         2-8.49172E-01-2.43178E+01-3.34610E+00-5.47578E-02-2.01510E-13 4.38607E-14
 -1         3 2.00000E+01 2.10488E-04-1.45912E-04 2.04664E-04-2.43270E-13-2.46374E-13
 -1         4 2.00000E+01 1.80629E-04-1.69537E-04-1.79086E-04 3.44077E-13-1.64974E-13
 -1         5 3.24429E+01 6.09127E+00 2.63549E+00 6.11191E+00-4.78784E-14 3.10740E-12
 -1         6 3.52925E+01 1.20714E+01 4.94524E+00-8.46514E+00-1.84297E-13 2.54091E-12
 -1         7 2.10861E+01 6.16656E+00-8.63032E-02-4.49991E+00-2.59515E-14 3.28369E-13
 -1         8 1.99705E+01 6.01824E+00 7.14917E-02-2.95358E+00-2.91642E-14-3.15087E-13
 -1         9 1.93750E+01 5.83944E+00 5.87733E-02-2.14863E+00-2.50425E-14-6.50913E-13
 -1        10 1.90126E+01 5.72482E+00 5.13936E-02-1.56269E+00-1.59022E-14-7.98521E-13
 -1        11 1.87510E+01 5.64276E+00 4.29547E-02-1.10122E+00-9.90527E-15-8.51496E-13
 -1        12 1.85591E+01 5.58300E+00 3.54471E-02-7.31482E-01-2.80331E-15-8.64901E-13
 -1        13 1.84266E+01 5.54215E+00 2.98862E-02-4.14380E-01 1.42941E-15-8.50619E-13
 -1        14 1.83601E+01 5.52172E+00 2.70511E-02-1.31954E-01 5.77728E-15-8.26718E-13
 -1        15 1.83621E+01 5.52235E+00 2.72420E-02 1.39808E-01 1.14867E-14-7.86440E-13
 -1        16 1.84322E+01 5.54387E+00 3.04394E-02 4.24771E-01 1.47725E-14-7.48384E-13
 -1        17 1.85671E+01 5.58532E+00 3.63338E-02 7.46895E-01 1.79483E-14-6.80764E-13
 -1        18 1.87595E+01 5.64527E+00 4.40552E-02 1.12301E+00 2.24699E-14-5.75025E-13
 -1        19 1.90208E+01 5.72732E+00 5.23064E-02 1.59345E+00 3.29129E-14-4.16177E-13
 -1        20 1.93801E+01 5.84201E+00 5.86370E-02 2.18978E+00 3.84658E-14-1.45265E-13
 -1        21 1.99638E+01 6.03136E+00 6.64001E-02 2.99259E+00 4.37914E-14 3.40450E-13
 -1        22 2.14182E+01 6.43075E+00 1.61606E-01 4.30493E+00 4.88498E-15 1.23504E-12
 -1        23 2.31526E+01-1.39351E+00-9.48900E-01-6.48376E-01-1.19023E-13 1.92571E-12
 -1        24 1.98683E+01-1.00054E-01-3.03910E-01 7.13210E-02-3.21783E-14 1.40329E-12
 -1        25 1.94926E+01-5.83663E-02-6.84398E-02 6.42962E-02-2.16520E-14 8.61228E-13
 -1        26 1.96231E+01-2.59527E-02-1.10542E-02 3.76094E-02-2.20201E-15 4.76664E-13
 -1        27 2.00289E+01-1.67280E-02-5.72632E-03 2.97491E-02-1.00012E-14 2.09015E-13
 -1        28 2.06217E+01-1.13729E-02-6.76728E-03 2.70354E-02-3.32937E-15 1.03887E-13
 -1        29 2.13532E+01-7.20088E-03-6.35641E-03 2.72496E-02 1.25329E-14 1.63411E-14
 -1        30 2.21809E+01-2.51661E-03-2.91237E-03 2.88051E-02-4.65906E-15-1.19474E-13
 -1        31 2.30445E+01 3.86706E-03 5.00722E-03 2.98077E-02-9.54434E-15-3.19890E-13
 -1        32 2.38440E+01 1.25701E-02 1.90512E-02 2.72235E-02-2.34041E-14-5.19106E-13
 -1        33 2.44234E+01 2.30017E-02 3.94131E-02 1.64790E-02 5.56348E-14-4.48254E-13
 -1        34 2.45721E+01 3.23520E-02 6.17603E-02-7.57366E-03-2.05289E-14-3.81331E-13
 -1        35 2.40727E+01 3.51808E-02 7.43336E-02-4.68351E-02 1.81888E-14-4.98566E-13
 -1        36 2.28185E+01 2.50790E-02 5.92420E-02-9.29766E-02-2.57433E-15-5.23723E-13
 -1        37 2.09805E+01 1.98050E-05 5.97309E-03-1.22891E-01-2.72789E-14-4.91177E-13
 -1        38 1.91014E+01-3.20502E-02-7.04870E-02-1.07853E-01-4.52019E-14-7.39239E-13
 -1        39 1.79405E+01-5.43949E-02-1.26826E-01-3.98348E-02-3.37703E-14-8.63159E-13
 -1        40 1.80504E+01-5.29788E-02-1.23147E-01 5.05095E-02 1.35746E-14-1.03642E-12
 -1        41 1.93953E+01-2.88021E-02-6.22797E-02 1.13473E-01 4.02530E-14-1.13632E-12
 -1        42 2.13772E+01 3.06025E-03 1.31275E-02 1.22452E-01-5.13587E-15-9.81631E-13
 -1        43 2.32465E+01 2.64469E-02 6.18376E-02 8.94493E-02-4.86707E-14-8.11504E-13
 -1        44 2.45044E+01 3.47074E-02 7.25537E-02 4.37365E-02 1.81424E-14-6.55621E-13
 -1        45 2.50226E+01 3.07734E-02 5.78065E-02 6.83208E-03-1.83861E-14-6.91201E-13
 -1        46 2.49310E+01 2.11761E-02 3.50569E-02-1.44777E-02 3.16875E-14-6.25975E-13
 -1        47 2.44512E+01 1.11662E-02 1.52304E-02-2.27280E-02 7.81710E-16-5.37680E-13
 -1        48 2.37871E+01 3.34259E-03 1.97575E-03-2.30493E-02 8.37160E-14-3.10901E-13
 -1        49 2.30832E+01-1.73069E-03-5.22836E-03-1.97095E-02 4.79522E-14-3.90191E-14
 -1        50 2.24245E+01-4.47848E-03-8.23344E-03-1.53187E-02-7.18457E-14-1.54189E-13
 -1        51 2.18516E+01-5.59525E-03-8.78794E-03-1.11602E-02 3.26236E-16-3.26125E-13
 -1        52 2.13769E+01-5.70686E-03-8.11576E-03-7.71746E-03 2.14690E-14-2.06798E-13
 -1        53 2.09974E+01-5.27179E-03-6.94910E-03-5.07145E-03-6.21396E-14-5.79184E-13
 -1        54 2.07024E+01-4.58876E-03-5.67934E-03-3.13516E-03 4.97441E-14-6.82167E-13
 -1        55 2.04786E+01-3.83632E-03-4.49362E-03-1.77150E-03-2.54198E-14-1.08512E-13
 -1        56 2.03128E+01-3.11242E-03-3.46718E-03-8.44922E-04 3.06850E-14-1.80554E-13
 -1        57 2.01928E+01-2.46478E-03-2.61798E-03-2.39919E-04-5.44872E-14-3.55400E-13
 -1        58 2.01083E+01-1.91142E-03-1.93684E-03 1.35211E-04 8.96382E-15-5.32684E-13
 -1        59 2.00506E+01-1.45381E-03-1.40331E-03 3.50322E-04 3.41413E-14-5.32208E-13
 -1        60 2.00129E+01-1.08487E-03-9.93856E-04 4.57231E-04-5.15155E-14-4.24282E-13
 -1        61 1.99897E+01-7.93721E-04-6.85667E-04 4.93675E-04 2.07630E-14-4.76311E-13
 -1        62 1.99769E+01-5.68286E-04-4.58280E-04 4.86707E-04 6.67091E-14-8.56554E-13
 -1        63 1.99712E+01-3.96710E-04-2.94033E-04 4.55395E-04-6.26934E-14-1.09564E-12
 -1        64 1.99704E+01-2.68019E-04-1.77974E-04 4.12879E-04-2.15773E-14-1.03257E-12
 -1        65 1.99728E+01-1.72345E-04-9.74542E-05 3.67891E-04 9.32532E-14-6.74970E-13
 -1        66 1.99770E+01-1.00891E-04-4.13540E-05 3.25781E-04 4.65327E-14-1.25169E-13
 -1        67 1.99822E+01-4.57412E-05 1.21631E-06 2.88929E-04 7.02812E-14-1.44895E-13
 -1        68 1.99877E+01 3.47069E-07 4.29328E-05 2.56219E-04 9.57973E-14 4.93798E-13
 -1        69 1.99929E+01 4.26357E-05 9.84625E-05 2.19250E-04-6.91777E-14 3.31434E-13
 -1        70 1.99972E+01 6.87128E-05 1.60324E-04 1.42054E-04 4.19825E-14 3.47784E-13
 -1        71 1.99997E+01-1.42359E-05 1.18598E-04 8.97833E-06-1.00668E-13 5.45565E-14
 -1        72 2.11986E+01-4.03820E-01-9.84493E-01-3.27999E-01 3.73070E-14 2.90984E-12
 -1        73 1.98347E+01-6.63014E-02-2.85525E-01-5.78877E-02 1.83863E-14 2.35002E-12
 -1        74 1.94928E+01-2.23902E-02-6.40569E-02-2.16273E-02 1.48333E-14 1.91295E-12
 -1        75 1.96126E+01-1.25605E-02-1.34408E-02-1.64726E-02-5.77435E-15 1.61099E-12
 -1        76 2.00015E+01-8.06708E-03-5.82092E-03-1.47622E-02 1.53726E-14 1.41426E-12
 -1        77 2.05663E+01-4.99782E-03-5.48910E-03-1.52439E-02-1.69731E-14 1.30547E-12
 -1        78 2.12538E+01-1.95947E-03-4.16379E-03-1.76149E-02-4.13536E-15 1.23087E-12
 -1        79 2.20158E+01 1.88029E-03 8.67926E-05-2.14881E-02 2.71063E-14 1.04139E-12
 -1        80 2.27863E+01 6.97587E-03 8.50610E-03-2.59950E-02-2.84186E-15 8.80712E-13
 -1        81 2.34643E+01 1.31333E-02 2.20642E-02-2.90894E-02 4.28833E-14 7.54011E-13
 -1        82 2.39028E+01 1.89837E-02 3.99695E-02-2.69189E-02-3.52962E-15 6.78230E-13
 -1        83 2.39190E+01 2.16353E-02 5.73120E-02-1.40973E-02-2.69309E-14 7.87273E-13
 -1        84 2.33435E+01 1.73259E-02 6.34370E-02 1.36613E-02-7.43568E-15 8.39787E-13
 -1        85 2.21234E+01 4.01822E-03 4.49889E-02 5.36790E-02 2.44760E-14 7.11112E-13
 -1        86 2.04497E+01-1.49211E-02-3.56935E-03 9.06811E-02 2.30787E-14 4.47205E-13
 -1        87 1.88093E+01-3.03985E-02-6.68507E-02 9.99819E-02-5.15555E-14 3.22922E-13
 -1        88 1.78348E+01-3.35633E-02-1.09758E-01 6.60214E-02-2.70400E-16 4.69600E-13
 -1        89 1.79643E+01-2.30766E-02-1.04094E-01 9.68380E-04 4.75295E-14 1.74336E-13
 -1        90 1.91553E+01-5.75296E-03-5.42165E-02-6.06171E-02-8.11542E-14 2.94278E-14
 -1        91 2.09149E+01 9.72282E-03 7.76041E-03-8.99314E-02 7.63525E-14 1.54415E-13
 -1        92 2.26180E+01 1.81617E-02 5.02302E-02-8.34658E-02-8.44894E-14 1.77431E-13
 -1        93 2.38261E+01 1.92499E-02 6.27191E-02-5.67670E-02 5.30102E-14 4.28317E-13
 -1        94 2.43987E+01 1.55190E-02 5.30062E-02-2.73459E-02 3.29320E-14-2.17942E-14
 -1        95 2.44192E+01 1.00384E-02 3.45570E-02-4.97785E-03-1.25608E-14-1.02754E-13
 -1        96 2.40654E+01 4.90642E-03 1.70101E-02 8.19756E-03 6.83215E-14 1.27317E-13
 -1        97 2.35144E+01 1.05741E-03 4.36294E-03 1.40043E-02-6.41165E-14 3.58475E-13
 -1        98 2.28999E+01-1.38558E-03-3.11798E-03 1.51558E-02 6.05293E-14 1.88049E-13
 -1        99 2.23062E+01-2.68007E-03-6.68573E-03 1.38783E-02-1.03984E-14-4.06241E-13
 -1       100 2.17778E+01-3.17453E-03-7.78028E-03 1.16192E-02 4.48507E-14-3.27073E-13
 -1       101 2.13324E+01-3.17492E-03-7.51943E-03 9.18427E-03 1.66514E-14-3.93514E-13
 -1       102 2.09714E+01-2.90590E-03-6.62891E-03 6.95925E-03-2.83806E-14-3.54987E-13
 -1       103 2.06876E+01-2.51569E-03-5.52858E-03 5.09010E-03-3.04988E-14-2.70423E-13
 -1       104 2.04706E+01-2.09429E-03-4.43845E-03 3.59951E-03 2.10513E-14 1.61970E-13
 -1       105 2.03086E+01-1.69189E-03-3.46069E-03 2.45419E-03 7.65114E-14 2.77996E-13
 -1       106 2.01908E+01-1.33328E-03-2.63249E-03 1.60035E-03-8.81940E-14 2.50431E-13
 -1       107 2.01074E+01-1.02785E-03-1.95735E-03 9.81104E-04-7.55265E-15-1.44884E-14
 -1       108 2.00504E+01-7.76188E-04-1.42260E-03 5.44363E-04-1.53081E-14-2.88835E-13
 -1       109 2.00130E+01-5.74210E-04-1.00908E-03 2.45794E-04 1.42196E-13-5.51384E-13
 -1       110 1.99899E+01-4.15703E-04-6.96249E-04 4.92559E-05-6.86643E-14-6.96524E-13
 -1       111 1.99771E+01-2.93757E-04-4.64707E-04-7.39240E-05-6.07013E-14-5.32811E-14
 -1       112 1.99715E+01-2.01543E-04-2.97171E-04-1.46073E-04-9.09118E-14 2.01284E-13
 -1       113 1.99707E+01-1.32692E-04-1.78729E-04-1.84336E-04 1.18966E-13 1.24006E-13
 -1       114 1.99730E+01-8.14201E-05-9.66012E-05-2.01716E-04-6.59046E-14-4.49265E-14
 -1       115 1.99772E+01-4.24037E-05-3.94056E-05-2.07971E-04 1.52173E-13-5.02398E-13
 -1       116 1.99824E+01-1.08670E-05 4.37622E-06-2.10137E-04-3.72644E-14-7.27897E-13
 -1       117 1.99879E+01 1.76699E-05 4.80983E-05-2.12150E-04 8.51320E-14-1.31235E-12
 -1       118 1.99931E+01 4.56686E-05 1.06169E-04-2.13264E-04 2.90019E-14-1.34675E-12
 -1       119 1.99973E+01 6.90321E-05 1.74848E-04-1.91306E-04 5.06787E-15-1.44774E-12
 -1       120 1.99997E+01-4.99415E-05 9.08702E-05-5.86251E-05 1.05458E-13-1.14406E-12
 -1       121 1.99998E+01-2.72925E-04 8.03400E-05-2.56308E-05-1.12848E-12-1.27580E-13
 -1       122 1.99999E+01-2.57741E-03 1.31017E-04-1.51350E-04-8.43601E-13-1.29796E-15
 -1       123 1.99998E+01-6.41494E-03 3.60841E-05-1.87294E-04-5.15736E-14 1.60416E-13
 -1       124 1.99998E+01-1.06006E-02-3.52500E-05-1.70574E-04 2.62061E-13 2.09294E-13
 -1       125 1.99998E+01-1.44255E-02-7.26280E-05-1.34063E-04 3.52474E-13-2.15382E-13
 -1       126 1.99997E+01-1.74542E-02-8.98580E-05-9.53902E-05-5.66532E-13 5.54949E-14
 -1       127 1.99997E+01-1.95780E-02-9.50203E-05-5.57823E-05-7.59037E-13 1.39934E-13
 -1       128 1.99997E+01-2.06530E-02-9.62830E-05-1.82272E-05-7.59899E-13 6.35393E-14
 -1       129 1.99997E+01-2.06495E-02-9.64009E-05 1.84204E-05-1.09487E-12-2.37865E-13
 -1       130 1.99997E+01-1.95665E-02-9.53687E-05 5.59668E-05-1.49316E-12 1.06568E-14
 -1       131 1.99997E+01-1.74331E-02-8.95051E-05 9.70265E-05-2.08388E-12-1.63778E-13
 -1       132 1.99998E+01-1.43933E-02-7.34265E-05 1.35132E-04-2.39972E-12 2.89849E-13
 -1       133 1.99998E+01-1.05521E-02-3.50415E-05 1.71369E-04-1.73036E-12-4.48259E-14
 -1       134 1.99998E+01-6.34882E-03 4.27652E-05 1.98656E-04-8.27571E-13 1.25988E-13
 -1       135 1.99999E+01-2.59659E-03 1.11683E-04 2.10786E-04 3.67009E-15 6.24458E-14
 -1       136 1.99999E+01-3.42083E-04 7.18195E-05-2.16999E-05-4.20045E-14 1.73929E-13
 -1       137-1.48333E+00-1.91576E+01-3.01676E+00-3.69584E+00 8.16736E-13 2.95486E-13
 -1       138-1.46595E+00-8.22352E+00-2.23498E+00-2.67188E+00 2.07406E-12 1.09723E-12
 -1       139 3.99974E+00 4.34185E+00-9.45702E-01 4.46271E+00 2.45420E-12 1.91219E-12
 -1       140 1.64620E+01 1.06270E+01 4.60969E-01 1.31216E+01 2.03665E-12 2.45298E-12
 -1       141 3.46882E+01 1.00032E+01 1.80961E+00 1.81763E+01 1.39436E-12 2.53308E-12
 -1       142 5.38310E+01 5.15665E+00 2.93971E+00 1.54196E+01 5.80994E-13 1.77747E-12
 -1       143 6.53047E+01 1.16757E+00 3.53148E+00 4.89088E+00 7.67199E-14 2.76501E-13
 -1       144 6.32323E+01 2.07809E+00 3.42322E+00-8.59673E+00 2.73849E-13-1.43097E-12
 -1       145 4.82604E+01 6.90856E+00 2.61138E+00-1.70137E+01 1.07724E-12-2.77600E-12
 -1       146 2.83423E+01 1.08281E+01 1.38429E+00-1.71033E+01 2.15933E-12-3.30308E-12
 -1       147 1.12956E+01 9.42991E+00-1.39649E-02-1.02977E+01 2.77106E-12-2.83679E-12
 -1       148 9.71817E-01 5.69008E-01-1.42387E+00-1.21488E+00 2.67858E-12-1.79690E-12
 -1       149-1.75707E+00-1.25842E+01-2.57472E+00 3.77441E+00 1.91114E-12-7.76837E-13
 -1       150-1.13497E+00-2.25903E+01-3.23853E+00 2.86171E+00 4.19886E-13-9.45919E-14
 -1       151-8.32579E-01-2.42227E+01-3.36759E+00-1.57417E+00-1.32643E-12-1.79613E-13
 -1       152-1.83386E+00-1.62471E+01-2.88382E+00-4.27014E+00-2.85888E-12-8.95978E-13
 -1       153-2.26593E-01-3.09056E+00-1.82548E+00-6.21004E-01-3.48938E-12-2.04156E-12
 -1       154 8.03438E+00 7.25224E+00-4.23108E-01 7.73215E+00-3.11801E-12-2.79804E-12
 -1       155 2.53056E+01 1.09750E+01 1.14981E+00 1.63819E+01-2.10443E-12-2.83146E-12
 -1       156 4.54605E+01 7.76428E+00 2.48833E+00 1.80836E+01-9.62730E-13-2.30543E-12
 -1       157 6.19580E+01 2.62439E+00 3.41610E+00 1.01641E+01-2.67518E-13-1.22521E-12
 -1       158 6.59206E+01 1.16668E+00 3.59648E+00-3.11730E+00-1.16858E-13 6.77139E-13
 -1       159 5.64883E+01 4.36742E+00 3.07926E+00-1.42520E+01-5.26065E-13 2.02571E-12
 -1       160 3.75479E+01 9.49263E+00 1.97771E+00-1.82994E+01-1.48384E-12 2.76901E-12
 -1       161 3.68156E+00 4.38009E+00-9.79632E-01-4.24286E+00-1.98580E-12 1.68632E-12
 -1       162-1.51086E+00-7.55439E+00-2.22000E+00 2.84568E+00-1.46499E-12 6.55281E-13
 -1       163-1.45019E+00-1.94854E+01-3.06148E+00 3.85762E+00-8.91009E-13 1.41102E-13
 -1       164 2.13770E+01 3.65511E+00-5.30462E-02-3.28341E+00-3.86878E-13 5.19723E-15
 -1       165 2.03105E+01 4.21893E+00-4.29223E-02-2.43524E+00-3.27738E-13-3.79113E-13
 -1       166 1.96932E+01 4.53139E+00-3.01221E-02-1.80205E+00-2.49747E-13-5.92084E-13
 -1       167 1.92837E+01 4.70220E+00-2.23248E-02-1.30116E+00-1.70651E-13-6.82646E-13
 -1       168 1.89846E+01 4.81108E+00-1.76655E-02-9.01194E-01-8.78705E-14-7.13230E-13
 -1       169 1.87684E+01 4.88060E+00-1.51253E-02-5.62703E-01-2.75481E-14-7.16984E-13
 -1       170 1.86382E+01 4.91926E+00-1.38109E-02-2.68904E-01 4.33632E-14-6.83519E-13
 -1       171 1.85965E+01 4.93058E+00-1.34225E-02 3.24269E-03 1.09592E-13-6.65808E-13
 -1       172 1.86443E+01 4.91565E+00-1.38725E-02 2.76665E-01 1.75753E-13-6.38746E-13
 -1       173 1.87796E+01 4.87346E+00-1.52318E-02 5.74099E-01 2.26197E-13-5.88632E-13
 -1       174 1.89946E+01 4.80172E+00-1.78285E-02 9.11932E-01 2.89795E-13-5.12025E-13
 -1       175 1.92991E+01 4.68834E+00-2.25078E-02 1.32521E+00 3.64263E-13-3.92808E-13
 -1       176 1.97131E+01 4.50933E+00-3.12683E-02 1.83679E+00 4.18431E-13-2.01887E-13
 -1       177 2.03310E+01 4.19354E+00-4.44693E-02 2.47795E+00 4.40359E-13 1.32956E-13
 -1       178 2.14862E+01 3.43146E+00-5.58246E-02 3.22357E+00 3.87140E-13 6.90260E-13
 -1       179 2.27103E+01 1.10741E+00-3.30300E-01 2.78467E+00 2.67071E-13 1.41083E-12
 -1       180 2.23671E+01 8.35812E-01 1.44132E-03-1.71407E+00-3.41976E-13 5.17055E-13
 -1       181 2.10564E+01 1.90611E-01-8.46927E-03-5.19125E-01-2.98895E-13 3.61810E-13
 -1       182 2.05316E+01 1.15679E-01 1.46199E-02-1.83908E-02-2.34834E-13 2.36509E-13
 -1       183 2.04828E+01 6.97005E-02 1.08772E-02 2.47188E-01-1.76485E-13 1.08373E-13
 -1       184 2.06972E+01 4.98244E-02 5.95690E-03 4.17977E-01-9.23912E-14 2.34537E-14
 -1       185 2.10869E+01 3.68647E-02 2.91077E-03 5.39384E-01-7.18345E-14-5.08612E-14
 -1       186 2.15939E+01 2.23026E-02 9.18747E-04 6.20984E-01-6.91146E-14-8.55527E-14
 -1       187 2.21676E+01-4.47791E-04-8.12354E-04 6.52574E-01-9.10742E-14-1.06864E-13
 -1       188 2.27482E+01-3.74102E-02-2.51914E-03 6.08129E-01-4.90661E-14-7.35282E-14
 -1       189 2.32557E+01-9.19913E-02-3.95719E-03 4.50294E-01 8.55891E-15-3.14039E-14
 -1       190 2.35864E+01-1.59020E-01-4.52482E-03 1.43990E-01 1.99211E-14-1.65896E-13
 -1       191 2.36247E+01-2.15847E-01-3.60623E-03-3.12802E-01-2.27453E-14-1.61915E-13
 -1       192 2.32802E+01-2.17672E-01-1.06255E-03-8.42365E-01-7.51005E-15-1.50381E-13
 -1       193 2.25561E+01-1.15364E-01 1.34274E-03-1.25383E+00-7.57278E-14-1.69610E-13
 -1       194 2.16254E+01 9.34902E-02 1.92690E-03-1.29021E+00-1.52777E-13-2.01329E-13
 -1       195 2.08361E+01 3.16448E-01 4.13543E-04-7.98814E-01-1.12277E-13-2.34967E-13
 -1       196 2.05635E+01 4.06920E-01-5.25798E-04 7.96015E-02-1.08464E-13-3.38074E-13
 -1       197 2.09614E+01 2.96152E-01 6.50365E-04 9.32897E-01-1.22440E-13-5.08310E-13
 -1       198 2.18420E+01 6.79003E-02 1.92749E-03 1.36802E+00-3.95942E-14-6.52890E-13
 -1       199 2.28222E+01-1.30619E-01 1.07135E-03 1.28226E+00 8.96340E-14-6.68735E-13
 -1       200 2.35713E+01-2.18372E-01-1.43195E-03 8.52130E-01 8.68637E-14-5.77080E-13
 -1       201 2.39398E+01-2.06721E-01-3.71886E-03 3.33129E-01 1.73347E-14-4.37151E-13
 -1       202 2.39398E+01-1.46499E-01-4.47815E-03-9.76500E-02 7.70829E-14-2.85696E-13
 -1       203 2.36667E+01-8.03845E-02-3.85925E-03-3.75426E-01 5.36838E-14-2.09592E-13
 -1       204 2.32329E+01-2.88383E-02-2.53704E-03-5.10220E-01 5.17350E-14-2.09980E-13
 -1       205 2.27334E+01 4.01292E-03-1.14821E-03-5.41471E-01 1.14546E-13-2.76702E-13
 -1       206 2.22345E+01 2.14647E-02-4.58067E-05-5.10086E-01-1.08310E-14-3.53033E-13
 -1       207 2.17758E+01 2.85029E-02 6.69798E-04-4.47496E-01 3.09019E-15-1.74064E-13
 -1       208 2.13766E+01 2.93823E-02 1.04282E-03-3.74238E-01-6.18431E-14-4.75337E-14
 -1       209 2.10428E+01 2.70621E-02 1.16830E-03-3.02164E-01-2.33080E-13-1.29583E-13
 -1       210 2.07721E+01 2.33737E-02 1.13949E-03-2.37240E-01-1.25776E-13-6.81348E-14
 -1       211 2.05582E+01 1.93548E-02 1.02797E-03-1.81824E-01 1.17810E-13-3.52369E-13
 -1       212 2.03929E+01 1.55426E-02 8.81624E-04-1.36247E-01-8.26043E-15-2.85764E-13
 -1       213 2.02679E+01 1.21800E-02 7.29322E-04-9.97977E-02 2.93462E-14-1.41508E-13
 -1       214 2.01753E+01 9.34514E-03 5.86764E-04-7.13114E-02-5.03245E-14-9.61102E-14
 -1       215 2.01084E+01 7.02991E-03 4.61302E-04-4.94984E-02-9.68579E-14-1.77355E-13
 -1       216 2.00614E+01 5.18515E-03 3.55315E-04-3.31164E-02-1.05173E-13-4.39703E-13
 -1       217 2.00293E+01 3.74586E-03 2.68422E-04-2.10517E-02 7.90069E-14-3.65513E-13
 -1       218 2.00084E+01 2.64449E-03 1.98837E-04-1.23495E-02-2.61193E-13-4.08034E-13
 -1       219 1.99957E+01 1.81730E-03 1.44166E-04-6.21744E-03-7.16307E-14-5.04748E-13
 -1       220 1.99889E+01 1.20705E-03 1.01855E-04-2.01496E-03 1.62505E-14-3.53586E-13
 -1       221 1.99860E+01 7.63647E-04 6.94116E-05 7.61635E-04 2.82588E-13-4.28823E-13
 -1       222 1.99859E+01 4.43413E-04 4.45373E-05 2.49558E-03 3.34609E-13-1.87463E-13
 -1       223 1.99875E+01 2.07410E-04 2.52800E-05 3.46372E-03 3.09717E-13-1.86976E-15
 -1       224 1.99901E+01 1.90343E-05 1.03494E-05 3.84654E-03 2.07231E-13-5.04090E-14
 -1       225 1.99930E+01-1.60706E-04 8.56789E-08 3.73289E-03-2.36957E-14-2.13883E-13
 -1       226 1.99958E+01-3.79066E-04-5.12234E-06 3.12100E-03-5.87682E-14-7.71566E-14
 -1       227 1.99981E+01-6.63317E-04-1.37912E-06 1.97167E-03-1.56847E-13 1.09944E-13
 -1       228 2.14398E+01 2.70225E-01-4.83645E-02 9.59218E-01 2.84661E-13 1.22298E-12
 -1       229 2.05814E+01 1.30739E-01 9.40770E-03 2.37357E-01 2.26063E-13 9.76374E-13
 -1       230 2.03423E+01 6.91986E-02 1.30160E-02-8.07979E-02 1.61361E-13 7.97351E-13
 -1       231 2.04431E+01 4.33515E-02 7.63162E-03-2.61364E-01 1.10389E-13 6.39525E-13
 -1       232 2.07559E+01 3.02407E-02 3.60975E-03-3.79724E-01 3.59242E-14 5.66063E-13
 -1       233 2.12061E+01 1.98211E-02 1.37713E-03-4.58859E-01 6.11759E-14 4.90432E-13
 -1       234 2.17377E+01 6.78924E-03 9.34852E-05-4.99727E-01 1.14899E-13 4.39389E-13
 -1       235 2.22927E+01-1.29547E-02-6.27479E-04-4.89319E-01 5.77808E-14 3.97977E-13
 -1       236 2.27980E+01-4.23633E-02-7.03788E-04-4.04508E-01 6.96077E-14 3.73474E-13
 -1       237 2.31592E+01-8.09944E-02 1.31986E-04-2.19026E-01-2.06840E-14 3.96029E-13
 -1       238 2.32667E+01-1.20771E-01 1.88316E-03 8.04475E-02-4.62894E-14 4.16487E-13
 -1       239 2.30232E+01-1.41784E-01 3.90489E-03 4.66646E-01 1.69387E-14 3.57065E-13
 -1       240 2.23963E+01-1.15338E-01 4.33666E-03 8.42170E-01 9.89057E-14 2.90659E-13
 -1       241 2.14857E+01-2.23428E-02 1.07820E-03 1.04021E+00 1.24565E-13 2.94565E-13
 -1       242 2.05557E+01 1.16280E-01-5.12146E-03 8.95244E-01 1.23382E-14 3.27022E-13
 -1       243 1.99678E+01 2.28965E-01-9.52074E-03 3.79582E-01 3.77485E-14 2.27342E-13
 -1       244 1.99932E+01 2.41874E-01-8.23573E-03-3.16098E-01 1.52745E-13 1.17177E-13
 -1       245 2.06352E+01 1.46527E-01-2.27241E-03-8.79254E-01 3.19909E-14 4.49406E-14
 -1       246 2.16258E+01 8.81815E-03 3.63628E-03-1.09001E+00-3.87791E-14 1.57166E-15
 -1       247 2.26040E+01-9.56009E-02 5.70070E-03-9.44266E-01-1.53650E-13 1.59052E-13
 -1       248 2.33044E+01-1.35112E-01 4.09042E-03-5.93632E-01-1.32854E-14 2.46769E-13
 -1       249 2.36283E+01-1.22648E-01 1.10342E-03-2.10620E-01 2.13475E-13 2.21244E-13
 -1       250 2.36088E+01-8.61898E-02-1.15292E-03 9.60571E-02 4.06363E-14 1.65514E-14
 -1       251 2.33423E+01-4.77099E-02-2.05167E-03 2.90927E-01-9.10554E-14-9.53202E-14
 -1       252 2.29340E+01-1.76346E-02-1.92674E-03 3.84703E-01-1.34577E-13 5.65672E-15
 -1       253 2.24700E+01 1.91660E-03-1.32582E-03 4.05507E-01 1.59807E-13 1.23380E-14
 -1       254 2.20099E+01 1.26542E-02-6.55429E-04 3.81731E-01 1.97930E-13-3.47662E-14
 -1       255 2.15890E+01 1.72594E-02-1.15070E-04 3.35320E-01-8.05672E-14-8.50914E-14
 -1       256 2.12241E+01 1.81037E-02 2.42929E-04 2.80868E-01-6.01389E-14 1.91891E-13
 -1       257 2.09201E+01 1.69004E-02 4.39178E-04 2.27006E-01 8.62936E-14 5.10706E-14
 -1       258 2.06747E+01 1.47539E-02 5.17439E-04 1.78226E-01-4.02295E-14-1.19676E-13
 -1       259 2.04817E+01 1.23192E-02 5.20203E-04 1.36406E-01-1.11538E-13-4.95975E-13
 -1       260 2.03336E+01 9.95400E-03 4.80239E-04 1.01905E-01 7.02579E-15-1.53979E-13
 -1       261 2.02225E+01 7.83338E-03 4.19927E-04 7.42715E-02-1.51597E-13-1.40593E-13
 -1       262 2.01410E+01 6.02490E-03 3.53317E-04 5.26753E-02 2.43168E-13-2.34848E-13
 -1       263 2.00829E+01 4.53615E-03 2.88576E-04 3.61641E-02 9.47094E-14-2.56666E-13
 -1       264 2.00427E+01 3.34382E-03 2.29969E-04 2.38022E-02-5.63891E-15-2.38966E-13
 -1       265 2.00160E+01 2.41089E-03 1.79293E-04 1.47407E-02-7.33262E-14-2.04043E-14
 -1       266 1.99992E+01 1.69625E-03 1.36864E-04 8.24692E-03-2.56919E-13 2.37626E-13
 -1       267 1.99896E+01 1.15972E-03 1.02159E-04 3.71046E-03 2.70037E-14 1.14559E-13
 -1       268 1.99851E+01 7.64335E-04 7.42179E-05 6.38215E-04 8.24660E-14-2.12131E-14
 -1       269 1.99840E+01 4.77085E-04 5.18791E-05-1.35592E-03-8.26341E-14 1.23096E-13
 -1       270 1.99851E+01 2.68692E-04 3.40799E-05-2.56226E-03 4.36401E-13 1.30834E-13
 -1       271 1.99876E+01 1.11810E-04 2.03239E-05-3.18522E-03 1.79947E-13-2.67962E-13
 -1       272 1.99907E+01-1.97696E-05 1.14583E-05-3.34721E-03 2.00439E-13-2.66394E-13
 -1       273 1.99940E+01-1.53392E-04 1.00036E-05-3.09327E-03-5.02421E-14-1.06456E-13
 -1       274 1.99968E+01-3.36138E-04 1.15539E-05-2.38609E-03 7.32920E-15 7.25796E-14
 -1       275 1.99988E+01-5.32290E-04 8.66000E-06-1.19017E-03-2.00363E-13-2.50971E-13
 -1       276 1.99992E+01-1.83955E-03-4.46921E-06-1.95429E-03 2.11689E-14 4.82955E-13
 -1       277 1.99996E+01-4.00671E-03-3.44278E-06-2.85860E-03-3.71417E-14 2.01583E-13
 -1       278 1.99998E+01-6.50391E-03-2.07731E-06-3.10069E-03 2.39422E-14 1.59209E-13
 -1       279 2.00000E+01-8.97133E-03 2.38973E-06-2.85009E-03 3.13481E-14 9.68955E-14
 -1       280 2.00001E+01-1.10831E-02 7.17288E-06-2.30792E-03-2.20516E-13-5.09543E-13
 -1       281 2.00001E+01-1.27219E-02 1.08626E-05-1.59629E-03-9.17780E-14-2.87601E-13
 -1       282 2.00001E+01-1.37362E-02 1.29426E-05-8.10090E-04-2.16857E-14 3.14996E-14
 -1       283 2.00001E+01-1.40777E-02 1.35988E-05 2.56227E-06-2.04629E-13-3.73290E-13
 -1       284 2.00001E+01-1.37321E-02 1.29304E-05 8.15855E-04-2.22895E-13-2.30713E-13
 -1       285 2.00001E+01-1.27126E-02 1.07804E-05 1.60408E-03-5.39834E-13-2.92744E-13
 -1       286 2.00001E+01-1.11016E-02 7.00771E-06 2.30758E-03-5.89995E-13-2.78780E-13
 -1       287 2.00000E+01-8.94860E-03 2.30948E-06 2.85999E-03-5.70640E-13 4.29798E-13
 -1       288 1.99998E+01-6.47791E-03-3.10738E-06 3.10967E-03-2.24948E-13 7.25357E-13
 -1       289 1.99995E+01-3.96507E-03-7.05954E-06 2.81000E-03-2.59590E-13 4.57265E-13
 -1       290 1.99990E+01-2.14910E-03-1.21262E-05 2.78504E-03-1.29262E-13-2.62865E-14
 -1       291-5.13996E-01-9.20502E+00-7.09183E-01 1.53918E+00-9.04415E-14 4.49363E-13
 -1       292 3.57505E+00-7.66284E+00-5.64631E-01 4.21375E+00 1.65173E-13 9.01411E-13
 -1       293 1.07916E+01-5.06046E+00-3.75003E-01 6.06876E+00 4.35652E-13 7.33184E-13
 -1       294 1.91219E+01-6.67125E-01-8.81165E-02 7.16769E+00 8.41521E-13 9.32754E-13
 -1       295 2.91874E+01 2.60591E+00 3.45903E-01 7.59240E+00 8.40564E-13 9.99367E-13
 -1       296 3.85124E+01 4.92709E+00 7.30768E-01 6.30714E+00 8.71849E-13 7.83346E-13
 -1       297 4.43825E+01 6.39069E+00 9.14559E-01 2.95911E+00 8.85667E-13 3.21326E-13
 -1       298 4.68103E+01 6.70614E+00 1.03842E+00-5.94968E-01 8.02469E-13-1.41161E-13
 -1       299 4.09759E+01 6.15334E+00 5.83591E-01-2.74206E+00 9.23206E-13-3.69121E-13
 -1       300 3.53420E+01 3.86190E+00 4.94342E-01-6.03750E+00 9.58528E-13-8.57481E-13
 -1       301 2.58228E+01 1.59766E+00 2.04322E-01-7.70066E+00 1.09041E-12-1.31409E-12
 -1       302 1.56354E+01-2.00003E+00-2.28265E-01-6.81506E+00 9.75275E-13-1.31029E-12
 -1       303 6.84326E+00-6.22517E+00-6.35679E-01-4.79216E+00 7.63334E-13-9.75893E-13
 -1       304 1.68981E+00-8.54414E+00-6.43312E-01-3.34842E+00 1.88460E-13-8.79727E-13
 -1       305-1.18775E+00-1.06322E+01-9.09892E-01-4.36879E-01-2.23013E-13-8.51014E-13
 -1       306 3.29082E-02-9.94494E+00-8.75667E-01 2.02877E+00-7.59948E-13-9.99451E-13
 -1       307 5.84188E+00-7.03875E+00-5.50510E-01 4.96148E+00-1.05099E-12-9.47371E-13
 -1       308 1.36185E+01-3.46538E+00-3.08598E-01 6.45763E+00-1.30868E-12-1.02171E-12
 -1       309 2.51829E+01-1.12817E+00 5.56657E-02 6.37143E+00-1.02185E-12-5.84449E-13
 -1       310 3.42980E+01 3.86098E+00 5.31369E-01 7.09908E+00-1.05978E-12-8.54372E-13
 -1       311 4.27272E+01 5.82906E+00 9.04418E-01 4.96228E+00-8.11844E-13-5.53502E-13
 -1       312 4.37219E+01 7.34487E+00 7.17722E-01 7.51865E-01-8.44852E-13-2.22045E-15
 -1       313 4.48764E+01 6.49612E+00 8.96258E-01-2.48733E+00-7.19494E-13 3.27072E-13
 -1       314 3.98295E+01 5.12210E+00 7.68697E-01-5.87254E+00-8.48314E-13 7.84761E-13
 -1       315 3.03557E+01 2.11666E+00 3.14606E-01-6.70012E+00-5.44981E-13 8.38746E-13
 -1       316 1.92782E+01-6.41420E-01-7.83703E-02-7.21989E+00-5.98965E-13 9.11327E-13
 -1       317 9.71658E+00-4.68756E+00-5.11042E-01-5.50366E+00-4.59632E-13 8.23119E-13
 -1       318 2.78275E+00-8.50855E+00-8.25654E-01-3.28633E+00-2.78610E-13 3.71030E-13
 -1       319-6.62458E-01-9.83558E+00-8.14972E-01-1.30293E+00-1.47007E-13 3.86774E-13
 -1       320 2.04214E+01 3.07496E+00-1.77526E-02-1.67128E+00-3.40275E-13-3.37169E-13
 -1       321 2.11680E+01 2.20703E+00-1.65777E-02-1.97012E+00-3.98496E-13-1.11852E-13
 -1       322 1.94579E+01 3.89889E+00-1.42752E-02-9.26425E-01-1.63703E-13-5.36252E-13
 -1       323 1.91465E+01 4.11737E+00-1.16407E-02-6.15449E-01-7.08618E-14-5.56650E-13
 -1       324 1.89369E+01 4.25242E+00-1.01479E-02-3.49567E-01 1.67022E-14-5.27443E-13
 -1       325 1.88333E+01 4.31535E+00-9.47624E-03-1.11787E-01 1.00224E-13-5.15774E-13
 -1       326 1.88386E+01 4.31089E+00-9.51238E-03 1.17518E-01 1.78921E-13-5.01149E-13
 -1       327 1.89519E+01 4.23934E+00-1.02465E-02 3.58454E-01 2.46786E-13-4.70900E-13
 -1       328 1.91643E+01 4.09966E+00-1.17734E-02 6.24918E-01 3.18692E-13-3.93862E-13
 -1       329 1.94798E+01 3.87473E+00-1.43201E-02 9.40321E-01 3.99699E-13-3.08525E-13
 -1       330 1.99013E+01 3.53434E+00-1.81367E-02 1.30511E+00 4.59809E-13-1.89297E-13
 -1       331 2.04616E+01 3.00766E+00-2.20896E-02 1.69513E+00 4.97230E-13 2.69940E-14
 -1       332 2.11576E+01 2.12703E+00-2.91793E-02 1.94127E+00 4.66639E-13 3.87641E-13
 -1       333 2.15501E+01 1.17360E+00-2.28070E-02 1.60754E+00 4.00716E-13 7.07191E-13
 -1       334 2.10096E+01 5.05216E-01 9.25975E-03 5.90483E-01 3.40216E-13 5.67399E-13
 -1       335 2.10561E+01 7.19726E-01 1.33531E-02-5.95642E-01-3.10732E-13-4.08730E-14
 -1       336 2.08167E+01 4.14098E-01 7.97377E-03 4.46920E-02-2.62321E-13-5.05588E-14
 -1       337 2.07843E+01 2.75767E-01 5.06574E-03 4.51397E-01-1.82773E-13-5.75035E-14
 -1       338 2.09133E+01 1.97694E-01 2.78149E-03 7.34385E-01-1.09736E-13-8.73210E-14
 -1       339 2.11670E+01 1.34961E-01 1.33955E-03 9.34588E-01-7.38445E-14-9.34425E-14
 -1       340 2.15148E+01 5.87212E-02 6.25071E-05 1.05739E+00-7.98180E-14-1.11623E-13
 -1       341 2.19310E+01-5.48641E-02-1.46842E-03 1.08172E+00-5.61907E-15-3.94722E-14
 -1       342 2.23893E+01-2.23982E-01-3.34726E-03 9.64847E-01-2.10885E-14-4.27171E-14
 -1       343 2.28551E+01-4.48675E-01-5.30485E-03 6.51984E-01-3.77205E-14-4.28466E-14
 -1       344 2.32723E+01-6.85128E-01-6.60336E-03 1.02393E-01 1.39645E-16-4.13792E-14
 -1       345 2.35511E+01-8.17633E-01-6.22429E-03-6.56316E-01-3.51065E-16-2.37483E-14
 -1       346 2.35745E+01-6.66572E-01-2.92411E-03-1.45183E+00-1.96206E-14-2.31735E-14
 -1       347 2.32661E+01-1.03048E-01-8.87852E-04-1.92693E+00-1.63941E-13 2.44802E-14
 -1       348 2.27349E+01 7.35435E-01-1.66600E-03-1.67262E+00-1.08306E-13-3.63323E-14
 -1       349 2.23241E+01 1.37150E+00-3.44732E-03-5.91225E-01-2.23941E-13-1.40995E-13
 -1       350 2.23726E+01 1.32955E+00-3.15235E-03 8.36624E-01-2.84046E-13-3.17486E-13
 -1       351 2.28561E+01 6.43804E-01-1.44070E-03 1.84142E+00-1.28360E-13-3.75327E-13
 -1       352 2.34152E+01-1.80260E-01-1.57053E-03 2.00399E+00-3.78768E-14-4.34823E-13
 -1       353 2.37273E+01-6.92499E-01-3.92094E-03 1.47971E+00 1.19993E-13-4.60610E-13
 -1       354 2.37127E+01-7.98867E-01-6.29492E-03 6.86088E-01 1.94977E-13-5.00353E-13
 -1       355 2.34577E+01-6.44778E-01-6.42526E-03-3.99521E-02 1.56361E-13-4.38406E-13
 -1       356 2.30771E+01-4.06411E-01-5.00601E-03-5.48714E-01 1.06613E-13-3.56881E-13
 -1       357 2.26535E+01-1.91437E-01-3.06361E-03-8.27865E-01 9.09878E-14-3.89698E-13
 -1       358 2.22339E+01-3.84519E-02-1.33100E-03-9.26901E-01 9.67930E-14-3.99752E-13
 -1       359 2.18424E+01 5.32286E-02-8.69279E-05-9.07566E-01 4.92112E-14-3.30208E-13
 -1       360 2.14910E+01 9.85856E-02 6.61658E-04-8.21921E-01 9.71252E-14-2.49352E-13
 -1       361 2.11848E+01 1.13811E-01 1.02382E-03-7.06821E-01 1.22168E-15-2.81154E-13
 -1       362 2.09246E+01 1.11613E-01 1.12849E-03-5.85464E-01-8.78172E-14-2.45663E-13
 -1       363 2.07086E+01 1.00592E-01 1.08290E-03-4.70939E-01-2.22442E-13-2.21492E-13
 -1       364 2.05328E+01 8.60401E-02 9.62272E-04-3.69625E-01-4.18001E-15-4.36304E-15
 -1       365 2.03926E+01 7.09685E-02 8.13848E-04-2.83775E-01-4.56188E-14-2.04760E-13
 -1       366 2.02829E+01 5.69413E-02 6.64522E-04-2.13290E-01 7.20556E-14-3.04501E-13
 -1       367 2.01987E+01 4.46576E-02 5.27997E-04-1.56854E-01-1.25186E-13-2.77476E-13
 -1       368 2.01353E+01 3.43227E-02 4.10054E-04-1.12623E-01-1.42231E-13-4.59321E-13
 -1       369 2.00884E+01 2.58784E-02 3.11985E-04-7.86244E-02-2.05445E-13-2.40881E-13
 -1       370 2.00547E+01 1.91391E-02 2.32726E-04-5.29772E-02-5.60369E-14-3.02859E-13
 -1       371 2.00311E+01 1.38694E-02 1.70127E-04-3.39946E-02 6.70401E-15-4.82558E-13
 -1       372 2.00151E+01 9.82539E-03 1.21652E-04-2.02267E-02-1.47472E-13-2.25083E-13
 -1       373 2.00048E+01 6.77617E-03 8.47582E-05-1.04665E-02-9.58631E-14-2.49685E-13
 -1       374 1.99986E+01 4.51263E-03 5.70592E-05-3.73679E-03 1.38103E-13-3.14961E-13
 -1       375 1.99954E+01 2.84981E-03 3.63965E-05 7.30546E-04 4.92544E-13-1.54071E-13
 -1       376 1.99942E+01 1.62454E-03 2.08629E-05 3.51784E-03 5.09249E-13 6.71799E-14
 -1       377 1.99944E+01 6.89955E-04 8.83003E-06 5.04300E-03 2.02618E-13 5.32060E-14
 -1       378 1.99953E+01-8.88128E-05-3.39723E-07 5.57709E-03-1.88954E-13-8.22229E-14
 -1       379 1.99965E+01-8.46034E-04-9.75663E-06 5.27874E-03 1.36580E-14 5.88628E-14
 -1       380 1.99977E+01-1.50280E-03-1.77907E-05 4.30904E-03 4.50408E-14 1.65839E-14
 -1       381 2.07128E+01 2.66111E-01 1.13701E-02 1.50585E-02 2.57048E-13 4.55540E-13
 -1       382 2.06701E+01 1.66871E-01 6.86127E-03-3.30694E-01 1.79233E-13 3.30688E-13
 -1       383 2.08239E+01 1.13531E-01 3.44068E-03-5.57581E-01 9.08501E-14 2.38416E-13
 -1       384 2.11151E+01 7.28892E-02 1.46864E-03-7.08643E-01 6.57461E-14 1.91278E-13
 -1       385 2.14978E+01 2.63899E-02 2.88601E-05-7.92093E-01 1.18118E-13 1.92767E-13
 -1       386 2.19300E+01-3.94659E-02-1.41483E-03-7.93377E-01 7.39461E-14 2.10934E-13
 -1       387 2.23648E+01-1.33820E-01-2.97071E-03-6.81924E-01 7.31591E-14 2.47235E-13
 -1       388 2.27445E+01-2.55242E-01-4.37315E-03-4.21039E-01-7.20192E-15 2.82117E-13
 -1       389 2.29966E+01-3.79555E-01-5.07569E-03 1.05828E-02-4.59637E-14 2.44520E-13
 -1       390 2.30400E+01-4.48041E-01-4.44502E-03 5.80846E-01 7.44053E-14 2.01114E-13
 -1       391 2.28101E+01-3.73420E-01-1.53747E-03 1.15961E+00 1.14088E-13 2.00080E-13
 -1       392 2.23114E+01-9.41632E-02 9.19074E-04 1.50808E+00 1.16840E-13 2.57152E-13
 -1       393 2.16846E+01 3.38217E-01 1.60323E-03 1.36310E+00 9.55637E-15 2.62108E-13
 -1       394 2.12140E+01 7.07893E-01 2.72342E-03 6.43495E-01 1.12872E-13 1.72437E-13
 -1       395 2.11683E+01 7.73389E-01 3.94751E-03-3.92612E-01 1.81205E-13 1.21025E-14
 -1       396 2.15905E+01 4.87089E-01 3.92645E-03-1.26360E+00 1.34137E-13 1.90273E-14
 -1       397 2.22569E+01 4.85709E-02 2.31996E-03-1.60735E+00-1.24932E-13-3.85325E-14
 -1       398 2.28662E+01-2.95790E-01-8.70670E-04-1.40236E+00-1.91349E-13 3.75108E-14
 -1       399 2.32298E+01-4.34557E-01-3.92998E-03-8.77173E-01-6.88416E-14 2.73948E-14
 -1       400 2.33115E+01-4.02852E-01-5.62416E-03-2.95529E-01 1.94748E-13 1.25336E-13
 -1       401 2.31654E+01-2.88503E-01-5.39906E-03 1.75567E-01 1.77752E-13 2.17908E-13
 -1       402 2.28718E+01-1.63434E-01-3.99521E-03 4.79726E-01-1.02701E-13 7.09236E-14
 -1       403 2.25022E+01-6.33183E-02-2.31016E-03 6.30249E-01-8.80728E-14-1.16431E-14
 -1       404 2.21100E+01 3.28318E-03-8.68918E-04 6.67473E-01 1.25407E-13-4.74303E-14
 -1       405 2.17308E+01 4.08948E-02 1.38907E-04 6.33495E-01 3.03943E-13 1.45079E-13
 -1       406 2.13854E+01 5.78160E-02 7.29784E-04 5.61794E-01-6.37052E-14 1.42219E-13
 -1       407 2.10843E+01 6.17255E-02 1.00228E-03 4.75326E-01-7.71354E-14 2.37973E-13
 -1       408 2.08306E+01 5.83385E-02 1.06478E-03 3.88173E-01 2.43273E-13 2.77578E-13
 -1       409 2.06226E+01 5.14352E-02 1.00553E-03 3.08018E-01 1.34716E-13 9.87327E-15
 -1       410 2.04563E+01 4.33142E-02 8.86325E-04 2.38369E-01 4.86478E-14-1.39449E-13
 -1       411 2.03261E+01 3.52686E-02 7.46032E-04 1.80199E-01-2.01885E-13 3.01190E-14
 -1       412 2.02265E+01 2.79568E-02 6.06951E-04 1.33065E-01-1.28670E-14 1.08325E-13
 -1       413 2.01517E+01 2.16553E-02 4.80545E-04 9.58132E-02 2.74165E-13 4.19123E-14
 -1       414 2.00969E+01 1.64217E-02 3.71660E-04 6.70109E-02 1.01001E-13 1.76967E-14
 -1       415 2.00578E+01 1.21969E-02 2.81325E-04 4.51954E-02-4.21451E-14 1.44456E-14
 -1       416 2.00307E+01 8.86624E-03 2.08492E-04 2.90058E-02-1.37023E-13-9.45511E-14
 -1       417 2.00127E+01 6.29568E-03 1.51127E-04 1.72448E-02-4.29193E-13 6.20419E-14
 -1       418 2.00013E+01 4.35036E-03 1.06826E-04 8.90021E-03 1.49327E-13 2.43842E-13
 -1       419 1.99948E+01 2.90423E-03 7.31290E-05 3.14330E-03-7.14089E-15 3.20898E-13
 -1       420 1.99918E+01 1.84347E-03 4.76823E-05-6.83093E-04 1.57733E-14 2.91905E-13
 -1       421 1.99910E+01 1.06657E-03 2.82484E-05-3.08075E-03 4.35695E-13 3.40571E-14
 -1       422 1.99917E+01 4.81172E-04 1.35709E-05-4.41339E-03 2.53956E-13 1.77249E-13
 -1       423 1.99933E+01 1.30121E-06 3.13273E-06-4.91423E-03 8.47651E-14 1.88144E-13
 -1       424 1.99952E+01-4.54718E-04-4.28046E-06-4.70422E-03-5.20228E-14 4.78071E-13
 -1       425 1.99971E+01-9.72904E-04-8.31333E-06-3.82122E-03-1.34419E-14 5.93030E-13
 -1       426 1.99983E+01-1.42363E-03-1.10624E-05-3.00748E-03 1.18884E-13 5.39374E-13
 -1       427 2.00002E+01-5.20698E-03 1.40729E-06-4.71293E-03 3.63468E-14-3.63368E-14
 -1       428 1.99995E+01-3.74580E-03-7.66416E-06-4.81269E-03 7.84503E-14 2.92022E-13
 -1       429 1.99988E+01-2.63772E-03-1.55094E-05-4.18841E-03-2.46296E-14 9.31200E-14
 -1       430 2.00007E+01-6.45027E-03 6.69213E-06-4.05253E-03-3.67060E-13-7.16661E-13
 -1       431 2.00009E+01-7.43666E-03 1.09545E-05-3.05086E-03 9.97864E-14-2.42143E-14
 -1       432 2.00010E+01-8.10605E-03 1.28456E-05-1.87647E-03 3.47474E-13-6.06311E-14
 -1       433 2.00011E+01-8.44249E-03 1.36826E-05-6.29689E-04-4.80629E-14-3.45928E-13
 -1       434 2.00011E+01-8.44298E-03 1.36765E-05 6.36422E-04-2.07887E-13-4.83324E-13
 -1       435 2.00010E+01-8.10694E-03 1.27371E-05 1.88560E-03-2.40095E-13-3.65858E-13
 -1       436 2.00009E+01-7.45070E-03 1.05763E-05 3.04491E-03-3.86876E-14-2.73669E-13
 -1       437 2.00007E+01-6.46664E-03 6.88740E-06 4.05426E-03 2.47297E-13 4.17581E-13
 -1       438 2.00002E+01-5.19848E-03 1.16741E-06 4.72813E-03 3.17532E-13 7.60395E-13
 -1       439 1.99995E+01-3.75322E-03-1.00886E-05 4.87359E-03 4.59785E-14 5.04103E-13
 -1       440 1.10483E+01-5.45928E+00-1.20210E-02 6.96678E+00-2.58571E-13 5.64625E-13
 -1       441 1.14348E+00-4.36165E+00-6.39989E-02-6.16265E-02-1.13127E-13 3.01842E-13
 -1       442 4.29552E+00-4.30903E+00 3.12104E-03 4.57131E+00-2.94473E-13 8.23716E-13
 -1       443 2.04297E+01-5.30409E+00 2.02645E-03 6.31705E+00-7.74381E-14 3.46334E-13
 -1       444 2.68010E+01-2.80456E+00 2.37569E-03 4.48570E+00 1.99576E-13 2.09791E-13
 -1       445 1.98850E+01 3.56583E+00-1.68871E-02-1.30026E+00-2.59869E-13-4.77802E-13
 -1       446 3.47573E+01 5.00899E+00 4.07170E-02-4.95403E-02 7.16149E-13-3.12750E-13
 -1       447 3.49593E+01 7.87392E+00 1.86112E-03-3.31301E-01 8.33000E-13-1.26104E-13
 -1       448 3.41455E+01 7.48415E+00-6.60770E-02 3.51124E-01 8.87374E-13-2.73601E-14
 -1       449 3.39387E+01 3.54230E+00 1.83930E-02-3.21249E-01 6.70061E-13 4.68375E-14
 -1       450 3.04371E+01-8.71799E-01 1.76457E-02-2.70414E+00 4.68688E-13-3.97460E-14
 -1       451 2.47613E+01-4.21620E+00 4.51347E-04-5.15676E+00 1.51934E-13-3.63307E-13
 -1       452 1.59627E+01-5.58721E+00-6.31552E-02-7.02333E+00 1.00753E-13-8.03319E-13
 -1       453 8.49576E+00-5.53990E+00-5.35661E-02-6.51451E+00-7.41074E-15-8.05571E-13
 -1       454 2.18868E+00-4.56918E+00-4.52635E-02-2.75435E+00-6.99926E-14-1.00636E-12
 -1       455 1.65435E+00-4.30967E+00-4.19087E-02 1.62026E+00-1.05312E-13-1.04389E-12
 -1       456 5.93870E+00-4.79347E+00-1.81928E-02 5.57157E+00-7.88536E-14-8.76091E-13
 -1       457 1.43347E+01-5.78323E+00-3.42002E-02 7.10548E+00-3.26822E-13-4.76666E-13
 -1       458 2.24481E+01-4.96285E+00-1.50156E-02 5.84400E+00-3.75561E-13-2.04503E-13
 -1       459 3.05028E+01-9.87180E-01 9.84809E-03 2.39258E+00-6.36890E-13 1.18919E-13
 -1       460 3.41703E+01 3.06717E+00 6.83301E-02 8.76089E-01-6.95402E-13 4.35207E-14
 -1       461 3.48672E+01 6.61302E+00 5.36875E-03-4.78256E-01-7.91436E-13 5.16115E-14
 -1       462 3.40562E+01 7.79347E+00-6.06548E-02 4.39623E-01-8.47461E-13-9.80084E-14
 -1       463 3.56867E+01 5.52945E+00 8.01047E-02-1.02613E-01-6.18838E-13-3.46112E-14
 -1       464 3.27445E+01 1.35834E+00 2.61957E-02-7.92690E-01-3.46497E-13-1.06429E-13
 -1       465 2.70683E+01-3.27535E+00-1.10571E-02-4.09422E+00 4.33265E-14 2.76543E-13
 -1       466 1.91309E+01-5.18345E+00-4.26262E-02-6.51677E+00 6.86673E-14 4.40259E-13
 -1       467 1.08240E+01-5.63823E+00-5.10945E-02-6.83374E+00 9.90041E-14 5.75533E-13
 -1       468 4.06565E+00-4.95295E+00-6.56459E-02-4.60970E+00 1.49797E-13 2.07181E-13
 -1       469 3.21649E+01 8.42754E-01 3.50895E-02 1.62168E+00 4.18086E-13-1.77275E-13
 -1       470 2.74395E+01-4.17067E+00-3.08763E-02 2.90834E+00-3.27356E-13 3.85143E-13
 -1       471 7.05609E+00-3.41700E+00 1.22481E-01-5.37674E+00-1.77039E-13-8.55677E-13
 -1       472 3.09905E+01 5.25875E+00-1.47316E-01 1.56770E+00 6.91600E-13 1.33532E-13
 -1       473 2.09080E+01 9.13104E-01 4.22873E-03 4.68046E-01 3.52408E-13 1.92634E-13
 -1       474 1.92305E+01 3.54274E+00-4.32903E-03-3.30935E-01-1.88241E-14-4.83377E-13
 -1       475 1.95245E+01 3.29083E+00-4.95909E-03-5.27533E-01-1.09337E-13-4.83258E-13
 -1       476 1.89956E+01 3.72863E+00-3.79653E-03-2.41555E-03 1.30938E-13-4.61161E-13
 -1       477 1.90652E+01 3.67269E+00-3.94721E-03 1.56937E-01 2.01642E-13-4.33970E-13
 -1       478 1.92510E+01 3.52080E+00-4.44097E-03 3.31003E-01 2.64595E-13-3.90614E-13
 -1       479 1.95490E+01 3.26133E+00-5.24422E-03 5.35093E-01 3.52344E-13-2.90343E-13
 -1       480 1.99433E+01 2.87928E+00-6.15888E-03 7.62087E-01 3.99901E-13-2.08620E-13
 -1       481 2.04290E+01 2.33461E+00-5.60110E-03 9.86742E-01 4.40771E-13-8.46009E-14
 -1       482 2.07875E+01 5.71219E-01 5.51765E-03-1.28606E-01 2.82894E-13 1.41365E-13
 -1       483 2.08007E+01 1.11256E+00 3.01751E-03-3.58702E-01-2.71925E-13-2.03408E-13
 -1       484 2.88173E+01-2.79588E+00-7.08222E-02 8.65600E-01-1.43703E-13-5.44717E-13
 -1       485 2.07388E+01 7.34081E-01 2.74430E-03 2.31266E-01-2.07292E-13-1.73699E-13
 -1       486 2.07319E+01 5.21491E-01 1.54844E-03 6.71098E-01-1.55185E-13-1.34326E-13
 -1       487 2.08064E+01 3.77260E-01 8.48372E-04 1.00132E+00-8.31525E-14-1.33984E-13
 -1       488 2.09662E+01 2.38989E-01 3.23008E-04 1.24317E+00-6.30735E-14-1.09393E-13
 -1       489 2.12163E+01 5.84138E-02-2.73497E-04 1.39301E+00-5.51315E-14-7.25474E-14
 -1       490 2.15710E+01-2.06824E-01-1.07658E-03 1.42247E+00-1.09816E-14-1.10414E-13
 -1       491 2.20522E+01-5.83800E-01-2.08485E-03 1.27846E+00 2.23267E-15-6.94227E-14
 -1       492 2.26753E+01-1.05284E+00-3.17679E-03 8.88545E-01 1.81226E-14-1.77161E-14
 -1       493 2.34085E+01-1.48875E+00-4.27053E-03 1.88195E-01 7.50667E-14 8.24655E-14
 -1       494 2.41168E+01-1.60879E+00-5.69348E-03-7.98951E-01 3.35851E-15 1.61094E-13
 -1       495 2.45519E+01-1.02629E+00-5.02351E-03-1.81920E+00-1.12855E-13 1.05787E-13
 -1       496 2.44544E+01 4.41920E-01-1.96219E-02-2.29050E+00-2.89803E-13 5.20647E-14
 -1       497 2.40006E+01 2.17380E+00-3.38430E-02-1.58705E+00-3.23972E-13-2.05150E-13
 -1       498 2.37650E+01 2.91894E+00-3.77844E-02 1.70240E-01-3.80791E-13-2.23948E-13
 -1       499 2.40768E+01 2.01415E+00-3.07534E-02 1.85152E+00-2.31972E-13-2.62101E-13
 -1       500 2.45357E+01 2.54956E-01-1.70056E-02 2.41144E+00-8.29263E-14-3.31193E-13
 -1       501 2.45858E+01-1.11367E+00-6.72833E-03 1.84857E+00 4.15218E-14-3.07561E-13
 -1       502 2.41324E+01-1.59863E+00-4.90626E-03 8.19487E-01 1.67983E-13-3.59035E-13
 -1       503 2.34294E+01-1.42014E+00-4.01662E-03-1.27491E-01 2.19118E-13-3.22005E-13
 -1       504 2.27228E+01-9.70598E-01-3.10215E-03-7.76966E-01 2.15428E-13-2.25694E-13
 -1       505 2.21303E+01-5.16791E-01-1.95337E-03-1.12734E+00 9.67499E-14-2.69430E-13
 -1       506 2.16703E+01-1.70300E-01-9.51544E-04-1.25218E+00 9.54027E-14-2.60055E-13
 -1       507 2.13197E+01 5.23869E-02-2.33802E-04-1.23079E+00 4.28811E-14-3.62878E-13
 -1       508 2.10489E+01 1.74142E-01 2.03174E-04-1.12599E+00 1.52086E-14-4.06997E-13
 -1       509 2.08344E+01 2.26047E-01 4.24815E-04-9.81656E-01-4.64757E-14-5.65038E-13
 -1       510 2.06611E+01 2.34808E-01 5.03594E-04-8.25984E-01 9.68585E-14-4.38790E-13
 -1       511 2.05193E+01 2.19690E-01 4.98739E-04-6.75740E-01-4.65568E-14-3.11627E-13
 -1       512 2.04032E+01 1.93254E-01 4.50843E-04-5.39875E-01-7.73494E-14-1.87646E-13
 -1       513 2.03087E+01 1.63098E-01 3.85486E-04-4.22282E-01-5.41483E-14-2.22514E-13
 -1       514 2.02325E+01 1.33497E-01 3.17257E-04-3.23753E-01-1.63984E-13-1.66715E-13
 -1       515 2.01720E+01 1.06625E-01 2.53642E-04-2.43298E-01-6.61569E-14-3.78678E-13
 -1       516 2.01246E+01 8.33919E-02 1.98002E-04-1.79019E-01-1.67448E-13-3.06974E-13
 -1       517 2.00881E+01 6.39771E-02 1.51329E-04-1.28655E-01-6.32961E-14-4.81961E-14
 -1       518 2.00606E+01 4.81735E-02 1.13373E-04-8.99140E-02-1.09723E-13 1.30541E-14
 -1       519 2.00402E+01 3.55887E-02 8.32495E-05-6.06496E-02-8.18873E-14-1.03294E-13
 -1       520 2.00254E+01 2.57606E-02 5.98300E-05-3.89530E-02 2.10508E-14-9.74475E-14
 -1       521 2.00151E+01 1.82221E-02 4.19588E-05-2.31880E-02-1.60789E-14 1.93227E-15
 -1       522 2.00080E+01 1.25331E-02 2.85331E-05-1.19944E-02 1.48506E-13 1.69770E-13
 -1       523 2.00034E+01 8.29590E-03 1.85334E-05-4.27326E-03 4.40833E-13 3.55523E-13
 -1       524 2.00007E+01 5.15766E-03 1.10840E-05 8.37068E-04 3.67531E-13 3.44489E-13
 -1       525 1.99992E+01 2.80666E-03 5.48128E-06 3.98839E-03 1.92136E-13 1.09762E-13
 -1       526 1.99985E+01 9.61931E-04 1.48969E-06 5.64578E-03 7.73498E-14-2.70250E-13
 -1       527 1.99985E+01-6.25558E-04-1.98795E-06 6.11874E-03 7.36960E-14 1.88648E-13
 -1       528 2.08730E+01 2.60946E-01 1.38323E-03-8.32839E-01 1.02502E-13 3.14997E-14
 -1       529 2.10671E+01 1.49437E-01 4.19599E-04-1.02900E+00 9.12822E-14 1.61089E-14
 -1       530 2.13451E+01 1.24865E-02-4.47884E-04-1.12885E+00 7.58745E-14 3.25691E-14
 -1       531 2.16980E+01-1.77699E-01-1.47163E-03-1.10817E+00 3.48867E-14 5.33366E-14
 -1       532 2.21167E+01-4.34291E-01-2.68574E-03-9.24816E-01 1.67710E-14 1.24596E-13
 -1       533 2.25811E+01-7.35839E-01-3.80674E-03-5.31056E-01-1.72143E-14 1.02414E-13
 -1       534 2.30382E+01-9.94791E-01-4.46923E-03 9.58940E-02 7.07656E-14 3.98609E-14
 -1       535 2.33825E+01-1.03900E+00-4.22529E-03 8.93919E-01-1.05435E-14 6.22736E-14
 -1       536 2.34812E+01-6.62858E-01 4.44024E-04 1.63690E+00 6.73667E-14 1.86347E-13
 -1       537 2.32272E+01 2.24462E-01-3.07241E-03 1.94810E+00 9.73871E-14 2.21825E-13
 -1       538 2.27829E+01 1.28490E+00-6.28990E-03 1.43745E+00 1.43567E-13 1.49914E-13
 -1       539 2.25158E+01 1.87513E+00-5.50333E-03 1.68544E-01 2.14897E-13 7.00089E-14
 -1       540 2.26899E+01 1.54739E+00-6.27833E-03-1.22427E+00 2.11876E-13 1.56488E-13
 -1       541 2.31509E+01 5.57297E-01-5.87476E-03-1.99641E+00-3.26551E-14 1.44687E-13
 -1       542 2.35206E+01-4.31292E-01-4.52229E-03-1.91711E+00-1.07076E-13 8.18338E-14
 -1       543 2.35569E+01-9.58980E-01-3.43044E-03-1.26734E+00-1.40085E-13-1.14922E-14
 -1       544 2.33042E+01-1.02015E+00-4.10384E-03-4.66550E-01 3.07191E-14-6.27409E-15
 -1       545 2.28962E+01-8.02478E-01-4.08796E-03 2.08852E-01 1.48064E-13 1.55175E-14
 -1       546 2.24548E+01-5.04252E-01-3.11280E-03 6.60391E-01 4.66239E-14 9.76039E-14
 -1       547 2.20417E+01-2.39892E-01-1.88125E-03 8.98853E-01 4.46331E-14-7.94574E-14
 -1       548 2.16778E+01-4.93727E-02-8.02675E-04 9.75544E-01 1.18074E-13-1.57002E-13
 -1       549 2.13647E+01 6.81012E-02-3.78366E-05 9.46203E-01 8.70132E-14-1.27867E-13
 -1       550 2.10980E+01 1.28984E-01 4.21550E-04 8.56622E-01 5.75467E-14 1.17811E-13
 -1       551 2.08727E+01 1.51671E-01 6.45660E-04 7.39487E-01-1.42136E-13 5.26534E-14
 -1       552 2.06840E+01 1.51210E-01 7.12027E-04 6.15964E-01 2.90553E-14 1.36893E-14
 -1       553 2.05280E+01 1.38268E-01 6.84766E-04 4.98524E-01 2.28405E-13 2.10344E-13
 -1       554 2.04008E+01 1.19751E-01 6.09876E-04 3.93631E-01 5.06677E-14 3.72460E-13
 -1       555 2.02988E+01 9.98179E-02 5.16695E-04 3.03882E-01-1.47707E-13 4.05543E-13
 -1       556 2.02182E+01 8.07840E-02 4.22226E-04 2.29532E-01 7.04361E-14 1.35310E-13
 -1       557 2.01557E+01 6.38000E-02 3.35316E-04 1.69527E-01 2.07395E-13 1.20088E-13
 -1       558 2.01081E+01 4.93066E-02 2.59875E-04 1.22174E-01 1.64342E-13 2.20292E-13
 -1       559 2.00726E+01 3.73360E-02 1.96996E-04 8.55617E-02 1.20389E-13 1.36920E-13
 -1       560 2.00466E+01 2.77033E-02 1.46150E-04 5.78039E-02-1.73493E-13 1.65905E-13
 -1       561 2.00281E+01 2.01231E-02 1.06032E-04 3.71713E-02-2.67032E-13 2.74765E-13
 -1       562 2.00153E+01 1.42768E-02 7.50407E-05 2.21526E-02-2.26598E-13 7.55372E-14
 -1       563 2.00069E+01 9.84932E-03 5.15248E-05 1.14745E-02 5.60860E-14 2.78275E-13
 -1       564 2.00016E+01 6.54697E-03 3.38413E-05 4.09826E-03 1.93092E-14 2.85085E-13
 -1       565 1.99986E+01 4.10405E-03 2.03514E-05-7.96872E-04 2.63740E-13 1.80226E-13
 -1       566 1.99972E+01 2.28253E-03 1.08223E-05-3.83073E-03 3.99058E-13 4.00657E-13
 -1       567 1.99969E+01 8.77752E-04 4.09850E-06-5.46188E-03 6.62918E-14 4.74384E-13
 -1       568 1.99972E+01-3.69581E-04-7.10490E-06-6.01431E-03-7.83650E-14 4.79595E-13
 -1       569 1.99979E+01-1.51197E-03-6.99656E-06-5.58863E-03 2.57441E-14 3.32992E-13
 -1       570 2.00018E+01-3.23245E-03 4.77389E-06-4.09806E-03 2.42517E-13 1.44663E-14
 -1       571 2.00021E+01-3.35014E-03 5.59463E-06-2.80120E-03 2.70873E-13 9.83752E-14
 -1       572 2.00000E+01-2.47744E-03-6.25630E-06-5.80233E-03-1.64706E-14 1.91363E-13
 -1       573 2.00012E+01-2.94868E-03 1.46888E-06-5.13621E-03 2.39207E-14-5.85275E-13
 -1       574 2.00022E+01-3.38977E-03 5.94382E-06-1.41371E-03 1.11838E-13-3.14968E-13
 -1       575 2.00023E+01-3.39947E-03 6.10353E-06 1.37804E-06-6.11182E-14-5.84176E-13
 -1       576 2.00022E+01-3.39697E-03 5.89637E-06 1.41847E-03 6.35689E-14-1.38437E-13
 -1       577 2.00021E+01-3.36352E-03 5.08389E-06 2.78829E-03 1.58254E-13-3.25004E-13
 -1       578 2.00018E+01-3.24927E-03 3.55841E-06 4.09178E-03 4.66807E-13 1.59200E-13
 -1       579 2.00012E+01-2.96694E-03 1.45052E-06 5.17216E-03 5.33717E-13 4.42237E-13
 -1       580 2.00000E+01-2.47102E-03-2.46572E-06 5.76415E-03 1.21397E-13 4.60894E-13
 -1       581 4.97163E+00-1.55686E+00 1.59202E-01 2.23871E+00 7.76011E-14 3.79807E-13
 -1       582 1.81867E+01-5.30644E+00 7.33401E-02 6.48406E+00-3.94511E-13 3.81556E-13
 -1       583 2.07758E+01 3.83572E-01 2.94515E-03-5.41568E-01 2.07131E-13 7.88721E-14
 -1       584 5.07462E+00-1.82123E+00 1.60278E-01-2.73544E+00 5.03139E-14 1.05374E-13
 -1       585 1.07589E+01-3.23603E+00 1.56294E-01 6.20130E+00-4.35665E-13 6.35290E-13
 -1       586 2.07423E+01 1.85507E+00-6.09240E-03-1.03032E+00-3.38516E-13-2.71952E-13
 -1       587 1.02000E+01-3.60746E+00 1.32699E-01-6.24643E+00 2.02886E-13 4.58578E-13
 -1       588 1.34240E+01-4.29146E+00 1.35255E-01 6.83533E+00 2.73066E-13-3.13902E-13
 -1       589 1.90515E+01 3.68609E+00-3.92593E-03-1.59586E-01 6.24556E-14-4.49457E-13
 -1       590 3.00360E+01 5.67376E+00-1.61292E-01-1.68448E+00 5.41595E-13-2.98345E-13
 -1       591 3.02208E+01-1.33803E-02-1.02929E-01 6.48098E-01 2.91364E-13 2.59730E-13
 -1       592 2.93640E+01 6.97140E+00-1.91315E-01 4.74664E-02 7.30971E-13-1.82214E-13
 -1       593 2.95169E+01 6.67910E+00-1.95535E-01-7.37740E-01-7.29819E-13-6.45317E-16
 -1       594 2.78991E+01-3.98272E+00-3.88937E-02-1.71982E+00-5.28761E-14 3.30604E-13
 -1       595 2.19809E+01-5.71733E+00 2.46767E-02-5.58522E+00-3.23526E-13-2.04494E-13
 -1       596 1.57856E+01-5.08759E+00 9.36705E-02-6.92331E+00-3.09225E-13-5.56416E-13
 -1       597 4.39407E+00-1.64810E+00 1.65010E-01-8.08453E-01-2.51413E-14-1.04404E-12
 -1       598 6.49432E+00-1.79861E+00 1.64726E-01 3.74664E+00 1.99705E-13-8.96991E-13
 -1       599 2.04982E+01-5.62494E+00 6.72093E-02 5.99288E+00 1.43413E-13-2.60295E-15
 -1       600 3.04068E+01 8.24006E-02-9.54044E-02-8.61925E-01-4.65114E-13 3.56548E-13
 -1       601 3.06870E+01 3.81102E+00-1.42604E-01-1.82611E+00-5.83811E-13 2.23842E-13
 -1       602 3.05221E+01 5.48693E+00-1.61749E-01 1.69018E+00-5.85781E-13-2.64101E-13
 -1       603 3.04181E+01 2.15404E+00-1.28502E-01 1.88568E+00-2.88235E-13-2.39760E-13
 -1       604 2.90873E+01-2.57519E+00-7.03611E-02-1.47793E-01 6.48396E-14-2.39142E-13
 -1       605 2.43294E+01-5.48406E+00 4.86225E-03-4.30286E+00 2.65309E-13 1.18454E-13
 -1       606 1.81441E+01-5.40197E+00 8.74243E-02-6.51661E+00 2.44083E-13 2.80845E-13
 -1       607 3.00960E+01 1.57486E+00-1.27689E-01-1.74052E+00 2.87770E-13-5.49602E-13
 -1       608 2.10543E+01 1.34083E+00-7.85270E-04 1.11407E+00 4.21704E-13 2.59515E-13
 -1       609 2.55307E+01-5.08112E+00 2.20241E-02 3.59778E+00-2.51701E-13-3.14596E-13
 -1       610 1.99105E+01 2.91299E+00-8.56510E-03-7.42321E-01-1.91329E-13-4.50531E-13
 -1       611 2.77794E+01 5.99399E+00-1.55405E-01 7.76628E-01-5.93428E-13-1.90686E-13
 -1       612 2.45292E+01-5.30167E+00 1.07404E-03 3.74823E+00 8.39398E-14 3.53779E-13
 -1       613 1.29659E+01-3.45757E+00 1.35386E-01-6.33027E+00-3.58581E-13-5.52614E-13
 -1       614 7.22596E+00-1.26917E+00 1.68697E-01-3.27937E+00-1.61378E-13-8.27630E-13
 -1       615 2.78553E+01 5.66287E+00-1.69745E-01 1.24957E+00 6.36081E-13 7.53182E-14
 -1       616 2.87357E+01-2.69229E+00-5.82577E-02-6.05880E-03-2.24567E-13 4.05662E-13
 -1       617 2.89669E+01 2.14278E+00-1.28324E-01 2.18210E+00 3.06553E-13 4.19872E-13
 -1       618 1.99986E+01-1.65113E-03-5.64051E-06 5.87216E-03-4.07271E-14 5.28303E-13
 -1       619 1.92584E+01 3.04145E+00-1.26274E-03 8.99948E-02 2.07940E-13-3.58943E-13
 -1       620 1.91137E+01 3.16859E+00-1.13753E-03 2.01165E-02 1.48725E-13-3.89141E-13
 -1       621 1.98860E+01 2.43550E+00-1.42070E-03 2.87986E-01 3.35677E-13-2.13840E-13
 -1       622 2.03024E+01 1.94369E+00-1.97307E-03 3.86527E-01 3.68022E-13-1.24432E-13
 -1       623 2.06544E+01 1.22945E+00 2.70781E-03 2.00007E-01 3.51200E-13-3.56778E-14
 -1       624 1.23629E+01-1.78073E+00 1.31855E-01 5.10271E+00 3.73004E-13-4.29913E-13
 -1       625 2.68148E+01-4.05950E+00-3.92924E-02 1.03984E+00-3.58405E-13-6.24029E-13
 -1       626 2.72804E+01 2.63255E+00-1.12333E-01-2.44826E+00 2.64722E-13-3.20684E-13
 -1       627 1.57501E+01-3.73835E+00 1.01810E-01-6.06028E+00 2.96548E-13 4.06966E-13
 -1       628 2.04757E+01 1.01159E+00 8.02159E-04 4.50866E-01-1.63386E-13-2.40379E-13
 -1       629 2.04552E+01 7.55909E-01 3.83132E-04 8.75358E-01-1.33079E-13-2.04656E-13
 -1       630 2.04707E+01 5.50167E-01 2.19555E-04 1.21970E+00-3.18608E-14-1.75365E-13
 -1       631 2.05515E+01 3.25128E-01 7.23430E-05 1.49362E+00-2.99671E-14-1.53317E-13
 -1       632 2.07360E+01 1.63524E-02-1.59717E-04 1.69198E+00-8.06323E-15-7.39878E-14
 -1       633 2.10829E+01-4.36250E-01-4.29887E-04 1.78707E+00 7.25770E-14-1.97226E-14
 -1       634 2.16714E+01-1.06826E+00-6.99715E-04 1.71780E+00 6.07306E-14 4.21445E-14
 -1       635 2.25848E+01-1.83821E+00-9.64099E-04 1.37526E+00 9.27953E-14 8.00362E-14
 -1       636 2.38216E+01-2.49917E+00-2.80397E-03 6.02916E-01 3.96710E-14 5.69861E-14
 -1       637 2.51917E+01-2.49973E+00-1.36979E-02-6.92266E-01-5.91103E-14 7.64779E-14
 -1       638 2.61250E+01-1.07179E+00-4.77913E-02-2.11408E+00-1.92227E-13 1.26687E-13
 -1       639 2.61465E+01 1.84573E+00-9.22808E-02-2.45374E+00-5.10172E-13 1.37293E-13
 -1       640 2.58526E+01 4.25218E+00-1.00076E-01 1.38494E+00-4.54439E-13-1.81406E-13
 -1       641 2.61721E+01 1.48383E+00-8.33842E-02 2.61413E+00-2.22006E-13-3.46684E-13
 -1       642 2.60069E+01-1.31047E+00-3.25520E-02 2.01110E+00 9.97136E-14-3.47894E-13
 -1       643 2.50083E+01-2.50662E+00-1.00927E-02 6.35244E-01 1.61079E-13-2.25259E-13
 -1       644 2.36773E+01-2.38790E+00-2.42749E-03-5.47051E-01 2.70583E-13-4.81084E-14
 -1       645 2.24845E+01-1.69907E+00-1.16745E-03-1.24619E+00 2.19794E-13-2.95901E-14
 -1       646 2.16124E+01-9.56359E-01-7.01144E-04-1.54868E+00 8.40710E-14-1.97050E-13
 -1       647 2.10433E+01-3.71549E-01-3.62836E-04-1.60329E+00 4.98609E-14-2.49039E-13
 -1       648 2.06951E+01 1.72566E-02-9.10793E-05-1.52078E+00 1.15431E-14-2.88174E-13
 -1       649 2.04872E+01 2.41446E-01 7.59382E-05-1.36947E+00-6.17497E-14-3.68268E-13
 -1       650 2.03614E+01 3.48051E-01 1.56202E-04-1.18963E+00-1.45345E-13-2.91629E-13
 -1       651 2.02811E+01 3.79051E-01 1.79650E-04-1.00501E+00-6.65405E-14-4.55696E-13
 -1       652 2.02253E+01 3.65799E-01 1.73768E-04-8.29432E-01 6.60413E-14-5.63235E-13
 -1       653 2.01831E+01 3.29541E-01 1.54226E-04-6.70501E-01 1.52393E-14-6.48038E-13
 -1       654 2.01489E+01 2.83729E-01 1.30321E-04-5.31731E-01-1.09348E-13-3.74584E-13
 -1       655 2.01202E+01 2.36365E-01 1.06806E-04-4.13985E-01 4.55010E-15-4.25464E-13
 -1       656 2.00959E+01 1.91870E-01 8.55114E-05-3.16442E-01-3.86764E-15-2.71201E-13
 -1       657 2.00754E+01 1.52394E-01 6.69996E-05-2.37303E-01-4.50507E-14 1.85963E-14
 -1       658 2.00583E+01 1.18702E-01 5.13097E-05-1.74300E-01-7.30383E-15 1.79192E-13
 -1       659 2.00443E+01 9.07660E-02 3.84821E-05-1.25035E-01 3.99564E-15 1.96907E-13
 -1       660 2.00331E+01 6.81425E-02 2.82969E-05-8.71837E-02-1.00769E-13 3.84062E-13
 -1       661 2.00242E+01 5.01930E-02 2.03735E-05-5.86129E-02-1.39434E-13 3.01741E-13
 -1       662 2.00173E+01 3.62136E-02 1.43207E-05-3.74439E-02-2.33513E-14 3.01833E-13
 -1       663 2.00121E+01 2.55094E-02 9.78198E-06-2.20753E-02 1.58504E-13 4.14874E-13
 -1       664 2.00082E+01 1.74328E-02 6.38378E-06-1.11817E-02 3.14472E-13 1.80248E-13
 -1       665 2.00053E+01 1.14012E-02 3.73200E-06-3.69638E-03 2.91616E-13 2.55928E-13
 -1       666 2.00032E+01 6.89799E-03 1.68140E-06 1.21353E-03 2.57076E-13 6.89784E-14
 -1       667 2.00018E+01 3.46884E-03 2.22277E-06 4.18113E-03-6.77454E-14-5.48691E-14
 -1       668 2.00008E+01 7.00144E-04-1.80659E-06 5.63632E-03 3.87854E-13 2.59372E-14
 -1       669 2.08119E+01 2.06045E-01 3.78735E-05-1.28886E+00 1.08378E-13-4.03599E-14
 -1       670 2.00006E+01-1.93337E-04 1.48784E-06-5.92381E-03 2.03226E-13 3.66801E-13
 -1       671 2.06781E+01 4.08401E-01 2.67338E-04-1.06452E+00 1.15581E-13-4.48844E-14
 -1       672 2.14031E+01-4.17876E-01-7.47194E-04-1.41249E+00-2.48760E-14-1.30424E-16
 -1       673 2.19266E+01-8.91579E-01-1.52785E-03-1.22734E+00 2.60775E-14-1.55506E-14
 -1       674 2.26308E+01-1.41985E+00-2.38022E-03-7.86124E-01 5.48283E-14-8.80047E-15
 -1       675 2.34668E+01-1.81357E+00-3.22401E-03-2.26444E-02 1.92615E-14 3.72354E-14
 -1       676 2.42607E+01-1.68912E+00-1.18600E-03 1.05338E+00-6.49154E-14 7.74433E-14
 -1       677 2.46027E+01-6.88848E-01-2.49362E-02 2.01355E+00-9.86190E-15 2.27081E-13
 -1       678 2.44072E+01 1.15761E+00-3.47024E-02 2.19843E+00 1.57739E-13 3.11674E-13
 -1       679 2.39776E+01 2.92623E+00-4.63102E-02 1.14431E+00 2.46341E-13 2.79188E-13
 -1       680 2.39061E+01 3.19196E+00-4.81329E-02-7.44148E-01 2.01636E-13 1.01852E-13
 -1       681 2.42645E+01 1.74316E+00-3.63790E-02-2.16503E+00 1.53159E-13 2.59306E-14
 -1       682 2.45980E+01-2.14438E-01-1.65069E-02-2.32427E+00-2.17690E-14-7.41480E-14
 -1       683 2.44543E+01-1.49666E+00-4.07429E-03-1.46623E+00-1.23476E-13-3.56295E-14
 -1       684 2.37585E+01-1.81957E+00-2.05135E-03-4.11989E-01-9.30991E-14 4.68646E-15
 -1       685 2.29277E+01-1.52846E+00-1.71066E-03 4.26059E-01 1.08794E-13 8.18068E-14
 -1       686 2.21802E+01-1.01839E+00-1.34788E-03 9.46291E-01 9.60435E-14 2.62300E-13
 -1       687 2.16027E+01-5.35293E-01-8.54067E-04 1.19848E+00 8.46161E-14 3.09511E-13
 -1       688 2.11861E+01-1.69583E-01-4.11824E-04 1.26390E+00 8.73324E-14 2.48411E-13
 -1       689 2.08935E+01 6.78954E-02-9.51968E-05 1.21321E+00-2.66375E-14 3.18791E-13
 -1       690 2.06862E+01 2.00886E-01 9.76965E-05 1.09834E+00 1.16280E-13 3.48426E-13
 -1       691 2.05347E+01 2.60079E-01 1.99520E-04 9.54116E-01 2.51410E-14 2.57356E-13
 -1       692 2.04199E+01 2.72194E-01 2.39133E-04 8.02884E-01 6.66514E-14 1.00902E-13
 -1       693 2.03300E+01 2.57114E-01 2.39133E-04 6.58135E-01-4.85462E-14 1.08188E-13
 -1       694 2.02581E+01 2.28321E-01 2.17956E-04 5.27272E-01-2.64372E-14 2.70367E-13
 -1       695 2.02001E+01 1.94342E-01 1.87815E-04 4.13643E-01 1.14618E-15 2.71601E-13
 -1       696 2.01532E+01 1.60229E-01 1.55854E-04 3.18007E-01 1.38221E-13 3.34645E-14
 -1       697 2.01156E+01 1.28738E-01 1.25585E-04 2.39551E-01 2.02612E-13 1.14512E-13
 -1       698 2.00858E+01 1.01158E-01 9.85670E-05 1.76596E-01 2.05243E-13 1.72663E-13
 -1       699 2.00624E+01 7.78831E-02 7.56240E-05 1.27079E-01 1.05938E-14 1.11795E-13
 -1       700 2.00444E+01 5.87937E-02 5.68024E-05 8.88640E-02-4.59057E-14 3.48861E-13
 -1       701 2.00308E+01 4.35052E-02 4.17634E-05 5.99197E-02-2.49653E-13 3.08379E-13
 -1       702 2.00207E+01 3.15141E-02 3.00166E-05 3.84155E-02-2.02612E-13 2.18817E-13
 -1       703 2.00133E+01 2.22848E-02 2.10209E-05 2.27680E-02-1.68191E-13 1.03970E-13
 -1       704 2.00082E+01 1.52980E-02 1.42300E-05 1.16517E-02 5.23384E-14 2.89245E-13
 -1       705 2.00046E+01 1.00732E-02 8.98544E-06 3.99113E-03 2.44104E-13 2.44500E-13
 -1       706 2.00022E+01 6.17942E-03 4.58473E-06-1.05520E-03 1.12419E-13 4.08400E-13
 -1       707 2.00008E+01 3.23053E-03 1.92297E-07-4.13880E-03 2.18878E-14 7.81705E-13
 -1       708 2.00007E+01 1.53253E-03 2.37200E-06-5.35188E-03 3.27580E-13 5.49883E-13
 -1       709 2.28368E+01-4.87772E+00 2.82862E-02 3.87793E+00-4.44027E-13-4.24288E-13
 -1       710 2.00035E+01 1.67735E-03 1.81914E-06-6.45481E-04 2.68583E-13-5.47376E-13
 -1       711 2.64383E+01-4.49544E+00-3.74355E-02-1.47217E+00 3.17078E-13-1.50640E-13
 -1       712 2.00031E+01 8.44756E-04 2.04182E-07-3.25288E-03 3.22440E-13 8.60966E-14
 -1       713 2.00035E+01 1.66832E-03 1.92515E-06 6.38469E-04 2.33977E-13-4.29895E-13
 -1       714 2.00034E+01 1.37732E-03 1.47293E-06-1.94085E-03 1.51490E-13-5.10944E-14
 -1       715 2.00034E+01 1.36422E-03 1.38315E-06 1.92023E-03 3.73161E-13-7.63731E-14
 -1       716 2.00032E+01 8.28595E-04 2.37822E-07 3.24597E-03 3.77114E-13-2.91222E-14
 -1       717 2.00025E+01 2.09730E-04 2.11670E-07 4.52052E-03 2.86228E-13 4.14918E-13
 -1       718 9.70286E+00-9.31013E-01 1.48572E-01 3.91673E+00-2.24404E-14 3.41470E-13
 -1       719 1.62875E+01-3.46814E+00 7.83921E-02 5.77519E+00-4.66151E-13 2.79575E-13
 -1       720 2.04434E+01 1.90518E+00 4.83377E-05-5.44443E-01-2.56809E-13-3.13894E-13
 -1       721 1.85615E+01-4.27512E+00 8.65952E-02 5.70639E+00 3.81462E-13 6.16451E-14
 -1       722 2.06201E+01 6.03666E-01 7.85020E-04-7.50170E-01 1.74746E-13-1.07830E-14
 -1       723 2.49098E+01-4.96952E+00 1.15930E-02-3.02356E+00-2.93611E-13 2.42993E-13
 -1       724 2.10433E+01-5.60370E-02-2.77915E-04-1.41491E+00 2.60989E-14-3.85759E-14
 -1       725 2.04815E+01 1.36657E+00-2.57490E-05-1.03891E-02-2.04486E-13-2.61325E-13
 -1       726 2.80134E+01-7.11711E-01-7.37561E-02 2.05185E+00-4.39492E-14-3.17298E-13
 -1       727 1.95242E+01 2.79766E+00-1.40890E-03 1.79878E-01 2.79720E-13-2.73368E-13
 -1       728 2.06192E+01 8.50640E-01 1.31692E-03-3.36898E-01 2.76038E-13-3.06965E-14
 -1       729 2.81065E+01-1.07710E+00-9.34745E-02-1.63709E+00-1.38020E-13-5.08985E-13
 -1       730 1.94916E+01 2.83376E+00-1.32913E-03-1.83884E-01-5.20152E-14-4.07001E-13
 -1       731 2.76461E+01-1.98537E+00-7.27310E-02 9.63055E-01-2.92336E-14 4.94500E-13
 -1       732 7.10232E+00-1.95619E-01 1.50686E-01-3.81184E-01 8.06638E-14 3.31631E-13
 -1       733 8.01661E+00-4.04395E-02 1.64991E-01 9.99776E-01 8.48713E-14-7.91124E-13
 -1       734 2.66171E+01 5.20259E+00-1.44007E-01-1.17245E+00 4.50716E-13-1.43189E-13
 -1       735 1.99859E+01-4.88759E+00 6.22550E-02-5.54422E+00-3.91839E-13-1.22520E-13
 -1       736 2.00004E+01-9.36378E-04-5.64721E-06 5.92753E-03 3.65162E-13 1.75095E-15
 -1       737 2.80850E+01 7.95163E-01-1.06305E-01-2.24157E+00-3.82062E-13 1.58857E-13
 -1       738 2.74417E+01 4.23224E+00-1.48229E-01-1.94679E+00-5.78954E-13 1.94383E-13
 -1       739 2.76744E+01 3.00426E+00-1.41856E-01 2.49438E+00-3.73333E-13-3.16781E-13
 -1       740 2.21395E+01-5.00173E+00 5.07620E-02-4.45522E+00 3.50529E-13-1.12136E-13
 -1       741 1.01838E+01-1.23543E+00 1.48869E-01-4.32047E+00-1.49498E-14 1.28141E-13
 -1       742 1.98545E+01 2.48155E+00-1.07418E-03-2.88522E-01-1.33578E-13-4.06679E-13
 -1       743 1.91055E+01 3.17679E+00-1.15505E-03-3.91793E-02 6.78948E-14-4.02324E-13
 -1       744 2.57974E+01 4.43965E+00-1.04416E-01-1.01423E+00-4.17982E-13 7.51829E-15
 -1       745 1.72986E+01-3.62949E+00 9.91609E-02-5.73271E+00-3.95250E-13-3.68944E-13
 -1       746 2.61892E+01-3.69518E+00-4.57357E-02-3.49292E-01-2.02013E-13 4.14966E-13
 -1       747 2.00025E+01 2.33719E-04-5.94778E-06-4.52305E-03 3.90336E-13-2.19704E-13
 -1       748 2.20136E+01-4.81117E+00 1.47484E-02 4.29731E+00 3.15721E-13 1.89347E-13
 -1       749 1.40763E+01-1.50241E+00 7.69537E-02 4.60321E+00-1.83353E-13 3.11784E-13
 -1       750 2.66564E+01-4.40549E+00-5.20674E-03 1.28178E+00-8.96609E-14 4.12458E-13
 -1       751 2.00020E+01 5.87030E-04-9.02388E-07 5.17748E-03 1.67145E-13 3.70263E-13
 -1       752 1.15699E+01-1.71964E+00 1.19403E-01-4.95613E+00-2.97779E-13-5.48103E-13
 -1       753 2.68853E+01 3.43889E+00-1.08922E-01 2.14158E+00 2.94775E-13 4.05946E-13
 -1       754 1.92354E+01 3.06522E+00-1.25807E-03-1.03083E-01 8.48972E-15-3.88215E-13
 -1       755 2.01437E+01 1.70286E+00 7.85686E-04-7.77289E-02 2.82737E-13-1.42624E-13
 -1       756 1.97750E+01-3.35007E+00 2.71937E-02 4.22194E+00-4.48069E-13-1.63355E-13
 -1       757 2.00230E+01 9.62530E-01 4.70592E-05 1.02927E+00-7.12732E-14-2.04321E-13
 -1       758 1.99550E+01 7.08653E-01 8.65991E-05 1.37871E+00-1.98636E-14-1.85583E-13
 -1       759 1.99373E+01 4.05491E-01 7.99420E-05 1.69771E+00 1.78132E-14-1.24996E-13
 -1       760 2.00342E+01-2.55481E-02-2.84801E-05 1.99273E+00 6.38734E-14-1.11972E-13
 -1       761 2.03482E+01-6.65835E-01 5.27754E-04 2.25007E+00 1.18913E-13-9.53237E-14
 -1       762 2.10275E+01-1.56777E+00 3.33747E-03 2.40374E+00 1.32867E-13-5.22635E-14
 -1       763 2.22729E+01-2.70118E+00 2.75184E-05 2.29289E+00 1.38381E-13-9.82331E-15
 -1       764 2.42702E+01-3.70023E+00 1.92344E-02 1.65434E+00 2.12508E-14 1.57004E-13
 -1       765 2.62194E+01-3.39709E+00-1.11447E-02 7.34788E-02 2.58145E-13-2.58240E-13
 -1       766 2.39688E+01-3.46624E+00 4.56595E-03-1.40154E+00 3.78823E-13-2.76261E-14
 -1       767 2.21564E+01-2.49295E+00 2.68142E-03-2.04602E+00 2.10724E-13-8.66046E-14
 -1       768 2.09733E+01-1.42124E+00 1.35472E-03-2.15702E+00 1.62093E-13-8.95024E-14
 -1       769 2.03037E+01-5.83730E-01 3.45399E-04-2.02262E+00 7.40498E-14 2.11696E-13
 -1       770 1.99738E+01-2.60783E-02 1.35596E-04-1.80196E+00-8.56618E-14 6.43217E-14
 -1       771 1.98402E+01 3.03140E-01 1.14657E-04-1.56291E+00-7.59117E-14-1.63398E-13
 -1       772 1.98106E+01 4.68671E-01 1.20645E-04-1.33107E+00-1.47975E-13-7.12152E-14
 -1       773 1.98293E+01 5.26985E-01 1.04857E-04-1.11601E+00-3.28193E-13-2.01760E-13
 -1       774 1.98656E+01 5.20260E-01 8.34534E-05-9.21516E-01-1.79214E-13-3.56358E-13
 -1       775 1.99038E+01 4.77624E-01 6.21603E-05-7.49229E-01 1.04432E-14-5.44905E-13
 -1       776 1.99371E+01 4.18158E-01 4.55165E-05-5.99622E-01 1.69759E-13-3.47957E-13
 -1       777 1.99633E+01 3.53712E-01 3.40462E-05-4.72218E-01-1.24217E-13-2.87713E-13
 -1       778 1.99825E+01 2.91249E-01 2.66471E-05-3.65776E-01 4.50257E-14-3.68493E-13
 -1       779 1.99955E+01 2.34504E-01 2.12814E-05-2.78446E-01 1.61702E-13-3.61517E-13
 -1       780 2.00039E+01 1.85120E-01 1.61778E-05-2.08027E-01 7.33519E-14-2.59544E-13
 -1       781 2.00087E+01 1.43464E-01 1.17586E-05-1.52203E-01 1.52756E-13-2.68064E-13
 -1       782 2.00110E+01 1.09201E-01 8.35457E-06-1.08696E-01-4.81966E-14-9.16252E-14
 -1       783 2.00116E+01 8.16190E-02 5.81591E-06-7.53625E-02 6.37365E-14-5.75270E-14
 -1       784 2.00112E+01 5.98401E-02 3.93845E-06-5.02680E-02-1.02662E-13 7.47759E-14
 -1       785 2.00101E+01 4.29433E-02 2.56257E-06-3.17264E-02 5.38385E-14 6.73045E-14
 -1       786 2.00087E+01 3.00406E-02 1.59292E-06-1.83113E-02 1.70699E-13 2.19576E-13
 -1       787 2.00072E+01 2.03131E-02 6.98243E-07-8.84916E-03 2.79972E-13 2.27152E-13
 -1       788 2.00057E+01 1.30309E-02 4.81836E-08-2.39894E-03 1.41867E-13 2.44396E-13
 -1       789 2.00042E+01 7.54571E-03 2.48401E-06 1.75057E-03 2.08195E-13 2.33684E-13
 -1       790 2.00030E+01 3.70711E-03-1.07360E-06 3.99637E-03 3.56303E-14 6.41224E-13
 -1       791 2.03023E+01 5.36789E-01 4.25994E-05-1.26154E+00 1.13181E-13-1.25025E-13
 -1       792 2.16673E+01-1.44565E+00-5.00395E-04-1.73189E+00-3.85253E-14 5.49319E-14
 -1       793 2.09798E+01-7.16654E-01-6.19104E-05-1.81002E+00 3.53590E-15-1.12957E-14
 -1       794 2.40592E+01-2.78151E+00 3.15014E-03-5.56418E-01-8.99185E-14 2.68105E-13
 -1       795 2.58012E+01-1.97543E+00-2.02838E-02-1.31579E+00-1.59004E-13-2.37215E-14
 -1       796 2.45585E+01-2.76704E+00 5.43191E-03-2.35087E-03-1.04552E-13-1.19392E-13
 -1       797 2.30825E+01-2.41106E+00-3.09086E-04 9.80867E-01-1.67625E-13 6.97843E-14
 -1       798 2.19026E+01-1.64172E+00 1.07873E-03 1.48304E+00-1.96491E-14 2.57211E-13
 -1       799 2.10973E+01-8.98037E-01 1.90954E-04 1.63658E+00 8.53621E-14 2.69002E-13
 -1       800 2.05969E+01-3.25076E-01 4.45204E-05 1.59943E+00 1.18210E-13 3.72641E-13
 -1       801 2.03135E+01 5.32352E-02 7.38684E-05 1.46856E+00 2.21124E-14 4.58808E-13
 -1       802 2.01634E+01 2.73418E-01 7.77749E-05 1.29797E+00-2.32614E-14 2.77297E-13
 -1       803 2.00899E+01 3.80020E-01 8.25188E-05 1.11554E+00 1.81959E-14 3.28169E-13
 -1       804 2.00571E+01 4.11987E-01 8.60350E-05 9.37019E-01 1.73162E-15 5.30203E-13
 -1       805 2.00440E+01 3.98899E-01 7.97824E-05 7.71215E-01 5.44308E-14 5.17581E-13
 -1       806 2.00393E+01 3.61408E-01 6.90135E-05 6.22840E-01-1.22564E-15 2.20568E-13
 -1       807 2.00372E+01 3.13070E-01 5.71538E-05 4.93914E-01-1.32152E-14 1.70509E-13
 -1       808 2.00355E+01 2.62274E-01 4.67456E-05 3.84664E-01 1.21215E-13 1.35546E-13
 -1       809 2.00331E+01 2.13908E-01 3.79649E-05 2.94136E-01 2.07827E-13 2.45195E-13
 -1       810 2.00301E+01 1.70537E-01 2.98578E-05 2.20617E-01 1.66804E-13 9.31838E-14
 -1       811 2.00265E+01 1.33208E-01 2.29021E-05 1.62015E-01-4.95782E-15 1.91699E-13
 -1       812 2.00228E+01 1.02054E-01 1.71982E-05 1.16135E-01-1.92144E-13 4.27938E-13
 -1       813 2.00192E+01 7.66990E-02 1.26479E-05 8.08495E-02-1.82019E-13 5.92336E-13
 -1       814 2.00157E+01 5.65094E-02 9.11536E-06 5.41985E-02-1.08638E-13 3.97491E-13
 -1       815 2.00126E+01 4.07430E-02 6.42139E-06 3.44478E-02-1.96701E-13 2.13775E-13
 -1       816 2.00099E+01 2.86440E-02 4.43476E-06 2.01155E-02-1.24413E-13 7.74800E-15
 -1       817 2.00075E+01 1.94954E-02 2.99686E-06 9.97122E-03 6.59831E-14-3.81703E-14
 -1       818 2.00056E+01 1.26340E-02 2.66139E-06 3.01760E-03-9.30193E-14 2.53133E-13
 -1       819 2.00040E+01 7.46026E-03 6.01265E-06-1.45558E-03 3.01292E-15 2.70790E-13
 -1       820 1.04721E+01 2.52996E-01 8.20720E-02-1.95215E+00 1.47939E-14 3.35593E-13
 -1       821 2.61597E+01 5.08913E+00-1.32742E-01 5.94943E-01 5.15539E-13 2.21403E-13
 -1       822 2.00044E+01 7.01288E-03 3.13292E-07 8.45735E-04 1.90609E-13-6.48998E-16
 -1       823 2.00044E+01 7.36451E-03 7.19427E-07-2.18413E-05 1.21932E-13-6.03739E-13
 -1       824 2.02951E+01 7.95142E-01-4.25135E-05-9.36915E-01 1.49357E-13-8.72437E-14
 -1       825 2.00044E+01 6.05262E-03-1.59929E-06 1.82026E-03 1.26597E-13 9.20279E-14
 -1       826 2.00040E+01 4.65538E-03 2.62993E-06 2.97108E-03 4.26717E-13 1.26942E-14
 -1       827 2.27156E+01-2.24664E+00 3.46962E-04-1.35626E+00-5.59763E-14 1.75878E-13
 -1       828 2.64900E+01-2.50837E+00-5.89800E-04-8.85439E-01-2.04732E-13-4.11627E-13
 -1       829 1.04764E+01 4.59428E-01 9.52509E-02 1.37701E+00-2.40376E-14 3.50414E-13
 -1       830 1.68717E+01-2.33655E+00 4.98787E-02 4.77758E+00 3.47635E-13-5.90188E-14
 -1       831 2.46008E+01-4.09737E+00-8.85303E-03 1.60960E+00-2.25323E-13-2.38392E-13
 -1       832 2.00977E+01 1.24065E+00 1.71164E-05 6.36737E-01-1.02031E-13-2.44555E-13
 -1       833 2.70841E+01-1.30418E-01-5.24871E-02 2.14902E+00 6.23095E-14 5.19040E-13
 -1       834 1.92249E+01-3.57083E+00 3.71735E-02-4.70180E+00 3.71298E-13-1.60029E-13
 -1       835 2.04056E+01 1.26210E+00 2.42045E-04-2.01585E-01 2.81945E-13-6.93349E-14
 -1       836 2.36723E+01-4.49652E+00 2.31309E-02-2.85542E+00 4.11978E-13-1.90185E-13
 -1       837 9.86388E+00 4.67158E-02 1.17875E-01-1.96504E+00-1.03891E-13-6.27127E-13
 -1       838 1.18368E+01 4.78178E-02 7.33877E-02 2.62166E+00 2.18290E-13-5.03115E-13
 -1       839 2.25422E+01-4.36238E+00 3.29654E-02-3.62908E+00-2.82683E-13 1.22123E-13
 -1       840 1.45297E+01-1.64779E+00 6.95486E-02-4.63589E+00 7.91086E-14 2.06935E-13
 -1       841 1.91835E+01 2.64499E+00-2.83686E-04-6.57225E-02 1.42061E-13-3.29214E-13
 -1       842 1.90960E+01 2.72129E+00-1.95647E-04-1.86815E-02 8.10074E-14-3.19882E-13
 -1       843 1.97476E+01 2.12419E+00-2.24144E-04-9.37509E-02 2.51910E-13-2.23282E-13
 -1       844 1.75956E+01-1.95797E+00 3.30384E-02 4.12781E+00-2.94775E-13 3.75073E-14
 -1       845 1.97015E+01 2.17420E+00-6.87254E-04 9.21543E-02-8.69248E-14-3.34294E-13
 -1       846 2.01253E+01 1.58344E+00-1.18297E-04 2.38090E-01-1.52869E-13-2.89469E-13
 -1       847 2.00033E+01 3.19086E-03-3.95856E-06-3.93913E-03 2.33511E-13-7.97790E-14
 -1       848 2.43198E+01-3.83320E+00-8.26437E-03-1.57557E+00-2.00297E-13 2.80603E-13
 -1       849 2.05819E+01-1.60309E-01 3.58650E-05-1.71678E+00-1.77297E-14-5.88963E-14
 -1       850 1.35066E+01-1.14111E-01 4.47977E-02-3.05841E+00 9.89085E-14 2.18905E-14
 -1       851 2.00041E+01 6.35659E-03 9.34692E-06-2.63367E-03 3.42860E-13-1.94174E-13
 -1       852 2.00044E+01 6.06939E-03 5.67938E-07-1.83531E-03 2.40469E-13-1.38116E-13
 -1       853 2.00040E+01 4.69414E-03 2.36952E-06-2.84590E-03 3.69886E-13-1.50111E-13
 -1       854 2.00044E+01 7.03469E-03 4.19376E-07-8.71575E-04 1.34917E-13-7.07437E-14
 -1       855 2.04503E+01-3.68937E+00 3.45809E-02-4.36373E+00-3.17663E-13-6.65700E-15
 -1       856 1.16334E+01 7.00214E-01 6.05076E-02 4.31636E-01 7.21625E-14-4.98396E-13
 -1       857 1.96674E+01-3.25775E+00 2.47225E-02 4.35642E+00 3.05307E-13 1.00935E-14
 -1       858 1.31103E+01 6.65751E-02 4.73715E-02 2.78345E+00-7.95353E-14 1.30687E-13
 -1       859 2.03806E+01 2.39605E-01 5.42745E-05-1.52380E+00 5.54055E-14-9.00573E-14
 -1       860 1.51465E+01-5.85226E-01 3.66573E-02 3.53836E+00 2.74566E-13-2.25237E-13
 -1       861 1.94111E+01 2.44239E+00-3.46648E-04-9.28244E-02 2.22786E-13-2.56439E-13
 -1       862 2.22386E+01-3.50957E+00 4.64610E-03 2.78461E+00-1.12399E-13-8.09318E-14
 -1       863 1.93725E+01 2.48124E+00-6.00347E-04 7.53332E-02-1.91871E-14-3.52891E-13
 -1       864 2.03543E+01 9.98852E-01-1.77463E-04-5.97755E-01 2.21931E-13-9.57842E-14
 -1       865 2.00036E+01 4.32342E-03 1.38098E-05 3.47950E-03 1.92994E-13-1.92468E-14
 -1       866 1.92752E+01 8.65931E-01 5.72415E-05 1.44958E+00 2.93487E-14-1.93836E-13
 -1       867 1.90955E+01 5.18558E-01-5.63466E-06 1.82950E+00 6.47506E-14-1.09949E-13
 -1       868 1.90040E+01 1.03749E-02-4.44620E-04 2.26949E+00 1.06699E-13-8.58390E-14
 -1       869 1.91242E+01-7.69409E-01 1.71804E-03 2.79958E+00 1.34770E-13-1.11930E-13
 -1       870 1.97096E+01-1.92699E+00 1.23390E-02 3.38837E+00 1.77188E-13-1.39472E-13
 -1       871 2.00050E+01 1.28134E-02-3.34501E-06 2.46929E-04 1.89627E-13-1.47203E-13
 -1       872 2.12478E+01-3.26658E+00 2.12111E-02-3.34499E+00 2.71106E-13-1.56290E-13
 -1       873 1.98493E+01-1.80050E+00 5.76986E-03-3.01678E+00 1.69922E-13 2.27724E-14
 -1       874 1.92161E+01-7.13292E-01 3.44274E-03-2.53895E+00 2.10339E-13-1.35084E-13
 -1       875 1.90188E+01-1.75066E-02 3.76082E-04-2.08586E+00-4.26548E-14-9.85946E-14
 -1       876 1.90323E+01 3.94641E-01 1.41812E-04-1.70988E+00-1.39022E-13-1.23924E-13
 -1       877 1.91435E+01 6.05775E-01 1.32182E-04-1.40534E+00 1.75199E-14 9.99637E-14
 -1       878 1.92879E+01 6.85781E-01 1.05348E-04-1.15553E+00-2.77116E-13 6.81844E-14
 -1       879 1.94329E+01 6.84588E-01 7.55894E-05-9.46495E-01-3.60914E-13 8.56943E-14
 -1       880 1.95634E+01 6.36463E-01 4.55267E-05-7.69300E-01-3.39586E-13-1.03227E-13
 -1       881 1.96737E+01 5.64535E-01 2.32821E-05-6.18681E-01 1.70785E-13-1.93514E-13
 -1       882 1.97629E+01 4.83778E-01 1.19784E-05-4.91245E-01 7.79189E-14-3.69090E-13
 -1       883 1.98327E+01 4.03415E-01 9.95488E-06-3.84554E-01-1.18230E-13-2.37150E-13
 -1       884 1.98859E+01 3.28853E-01 1.15450E-05-2.96411E-01 7.38085E-14-2.68131E-13
 -1       885 1.99253E+01 2.62798E-01 9.96675E-06-2.24611E-01 1.43869E-13-3.19337E-13
 -1       886 1.99538E+01 2.06173E-01 6.88944E-06-1.67011E-01 1.42626E-13-3.54204E-13
 -1       887 1.99740E+01 1.58895E-01 4.58265E-06-1.21553E-01 1.69496E-13-2.78879E-13
 -1       888 1.99876E+01 1.20307E-01 3.09282E-06-8.62648E-02 3.52213E-14-3.11274E-14
 -1       889 1.99965E+01 8.94391E-02 2.09903E-06-5.93274E-02-2.64801E-14-2.70201E-13
 -1       890 2.00020E+01 6.51916E-02 1.38807E-06-3.91224E-02 1.03891E-13 4.09054E-14
 -1       891 2.00049E+01 4.64589E-02 9.94998E-07-2.42561E-02 1.39559E-13 2.09667E-13
 -1       892 2.00061E+01 3.21996E-02 4.15082E-07-1.35560E-02 1.98877E-13 1.81474E-13
 -1       893 2.00062E+01 2.14467E-02-2.79751E-07-6.07083E-03 5.07410E-14 8.15833E-14
 -1       894 2.00056E+01 1.33442E-02-8.98022E-06-1.03455E-03 3.98388E-14-3.45565E-14
 -1       895 2.13387E+01-2.28153E+00 1.09150E-02 2.42712E+00-2.07171E-13-1.21756E-13
 -1       896 2.03176E+01-1.22793E+00-7.10551E-04 2.28011E+00 2.08722E-14 6.89600E-14
 -1       897 1.97886E+01-4.39639E-01 9.89137E-04 2.01285E+00-3.14236E-14 1.51375E-13
 -1       898 1.95690E+01 6.68443E-02 4.50214E-04 1.72374E+00-1.01319E-13 2.85432E-13
 -1       899 1.95129E+01 3.65504E-01 1.08753E-04 1.45575E+00 4.48687E-14 5.38105E-13
 -1       900 1.95418E+01 5.15652E-01 2.72984E-05 1.21692E+00-5.36571E-14 5.02055E-13
 -1       901 1.96078E+01 5.66599E-01 2.56723E-05 1.00734E+00-4.22840E-15 3.45904E-13
 -1       902 1.96843E+01 5.56130E-01 1.86326E-05 8.24592E-01 1.79185E-13 9.27790E-14
 -1       903 1.97574E+01 5.10739E-01 1.23386E-05 6.66546E-01 1.29036E-13 2.31613E-13
 -1       904 1.98209E+01 4.48408E-01 8.56138E-06 5.31392E-01-5.64252E-14-2.01781E-14
 -1       905 1.98728E+01 3.80637E-01 6.22597E-06 4.17338E-01 4.48693E-14-2.23643E-14
 -1       906 1.99135E+01 3.14443E-01 5.80153E-06 3.22590E-01-1.15797E-14 6.44843E-14
 -1       907 1.99443E+01 2.53868E-01 4.07516E-06 2.45151E-01-4.22317E-14 3.47302E-13
 -1       908 1.99667E+01 2.00827E-01 2.66367E-06 1.82849E-01 1.05634E-13 4.31380E-13
 -1       909 1.99825E+01 1.55856E-01 1.65295E-06 1.33530E-01-2.32087E-13 3.55019E-13
 -1       910 1.99931E+01 1.18716E-01 9.90752E-07 9.51377E-02-2.15629E-13 3.12006E-13
 -1       911 2.00000E+01 8.87320E-02 6.26390E-07 6.57514E-02-1.52291E-13 1.27755E-13
 -1       912 2.00040E+01 6.50066E-02 4.46957E-07 4.36502E-02-2.88761E-14 2.18308E-13
 -1       913 2.00060E+01 4.65701E-02 3.34580E-07 2.73406E-02-8.57446E-14 2.97077E-14
 -1       914 2.00067E+01 3.24706E-02 2.58968E-07 1.55638E-02 2.48961E-14 1.32093E-14
 -1       915 2.00064E+01 2.18266E-02 2.70406E-06 7.29450E-03-1.04678E-13 1.62267E-13
 -1       916 2.00056E+01 1.37042E-02-1.70832E-05 1.61474E-03-5.75287E-14-5.96254E-14
 -1       917 1.98390E+01 9.60923E-01-5.33552E-05-1.07327E+00 1.45219E-13-1.83269E-13
 -1       918 1.34350E+01-4.71048E-01 6.79725E-02-3.52596E+00-2.01573E-13-4.77214E-13
 -1       919 2.00049E+01 1.39239E-02 5.69718E-07-1.80799E-07 7.37206E-14-3.40897E-13
 -1       920 1.96428E+01 1.42356E+00-5.85422E-05 7.43599E-01-3.91251E-14-2.46565E-13
 -1       921 2.02586E+01-9.79289E-01 1.87010E-03-2.35631E+00-7.81228E-14-4.93984E-14
 -1       922 1.91612E+01 2.66602E+00-4.58375E-04 3.48432E-02 2.55884E-14-3.51183E-13
 -1       923 1.94719E+01 1.14277E+00-7.21891E-05 1.09665E+00-1.48825E-14-2.19545E-13
 -1       924 1.26416E+01 9.50845E-01 4.12639E-02-3.77009E-01 8.34899E-14 2.68072E-13
 -1       925 2.00051E+01 1.08438E-02 1.18698E-05 7.79182E-04 1.21908E-13 4.00029E-13
 -1       926 1.63861E+01-2.19883E+00 3.60041E-02-4.81769E+00-2.91793E-13-3.61836E-13
 -1       927 1.76639E+01-1.97719E+00 2.13007E-02-4.07514E+00 2.93013E-13-1.39257E-13
 -1       928 1.99244E+01 1.53848E+00-1.54802E-04-4.48177E-01 2.28408E-13-1.64662E-13
 -1       929 2.00918E+01-2.50349E+00 1.70325E-02 3.34866E+00-2.30006E-13 1.31481E-13
 -1       930 1.99229E+01 1.27122E+00 2.30767E-04-7.08229E-01 1.89503E-13-1.56686E-13
 -1       931 1.97006E+01 1.75819E+00 2.12026E-04 4.17070E-01-6.55281E-14-2.93535E-13
 -1       932 2.00049E+01 1.39364E-02 4.63857E-08-5.14445E-05 1.10857E-13-3.58460E-13
 -1       933 2.00047E+01 8.33087E-03 5.97905E-07 1.64074E-03 1.76860E-13-1.73012E-13
 -1       934 2.29949E+01-3.73604E+00 3.23981E-02-2.66611E+00-1.73882E-13 2.36839E-13
 -1       935 1.98783E+01-2.37839E-01 9.05909E-04-2.06113E+00-4.90720E-14-1.22478E-13
 -1       936 2.10737E+01-1.99355E+00-1.18589E-03-2.53939E+00-1.66505E-13 5.87806E-14
 -1       937 2.00050E+01 1.07029E-02-1.28174E-06-8.39407E-04 2.18172E-13-9.85258E-14
 -1       938 1.32118E+01 6.49951E-01 2.77462E-02-1.54306E+00-4.00190E-14-4.32812E-13
 -1       939 2.00049E+01 9.08306E-03 1.19858E-05-1.39511E-03 1.62119E-13 4.08753E-15
 -1       940 1.97646E+01 6.56179E-01 1.63909E-05-1.41308E+00 4.04780E-14-1.33186E-13
 -1       941 1.61095E+01-5.81082E-01 2.09806E-02-3.30502E+00 1.87974E-13-7.74688E-14
 -1       942 1.36848E+01 4.35525E-01 3.79160E-02 2.13754E+00 2.15974E-13-4.23436E-13
 -1       943 1.58996E+01-5.04050E-01 1.45475E-02 3.24492E+00-1.88801E-13-1.42256E-14
 -1       944 1.93372E+01 2.07334E+00 1.42978E-03 3.09570E-01-1.10509E-14-2.77918E-13
 -1       945 1.37633E+01 9.07078E-01 1.64082E-02 1.01635E+00-1.02595E-13 2.54497E-13
 -1       946 2.00050E+01 1.27757E-02-2.40297E-06-2.41084E-04 1.88443E-13-1.05651E-13
 -1       947 1.75444E+01-1.39729E+00 2.21353E-02 3.77535E+00 2.19374E-13-9.53942E-14
 -1       948 1.92101E+01 2.16416E+00-4.08227E-04-2.67381E-01 1.71510E-13-2.34783E-13
 -1       949 1.90270E+01 2.31471E+00 7.88505E-05-1.14393E-01 8.72674E-14-2.73646E-13
 -1       950 1.88307E+01 1.30045E+00-2.32355E-04 1.03345E+00 8.51589E-15-1.95424E-13
 -1       951 1.94583E+01 1.41846E+00 1.45305E-04-7.89158E-01 1.60177E-13-1.53299E-13
 -1       952 1.79925E+01 7.03902E-01-4.66896E-06 1.79991E+00 1.20090E-13-1.94999E-13
 -1       953 1.75215E+01 2.04276E-01 1.05273E-03 2.37868E+00 1.35792E-13-1.80235E-13
 -1       954 1.73995E+01-4.46858E-01 7.13971E-03 3.01973E+00 1.09058E-13-1.64447E-13
 -1       955 1.97524E+01 2.82073E-01 2.91004E-04-1.74016E+00-1.12121E-14-1.02970E-13
 -1       956 1.85610E+01 1.64662E-01-1.71409E-03 1.93504E+00-1.86503E-13 4.18454E-13
 -1       957 1.75766E+01 1.59232E-01 1.28245E-03-2.26286E+00 2.78888E-14-1.64304E-13
 -1       958 1.79340E+01 5.81881E-01 1.75138E-04-1.72966E+00-3.31597E-14-1.01694E-14
 -1       959 1.82924E+01 7.94765E-01 6.32730E-06-1.35255E+00-1.06268E-15 1.52171E-13
 -1       960 1.86230E+01 8.72399E-01 7.98314E-06-1.07790E+00-2.17140E-13-1.02551E-13
 -1       961 1.89111E+01 8.65788E-01 1.31946E-05-8.68388E-01-4.41041E-13-2.95287E-13
 -1       962 1.91546E+01 8.08080E-01-1.45005E-05-7.01280E-01-3.24342E-13-2.18043E-13
 -1       963 1.93554E+01 7.22524E-01-2.71088E-05-5.64390E-01-9.24105E-14 6.03857E-14
 -1       964 1.95174E+01 6.25571E-01-3.05690E-05-4.50625E-01-1.64582E-14-1.29673E-13
 -1       965 1.96458E+01 5.27379E-01-2.33488E-05-3.55796E-01-1.84896E-14-2.28642E-13
 -1       966 1.97456E+01 4.34701E-01-6.48109E-06-2.77228E-01 6.64195E-14 4.14322E-14
 -1       967 1.98218E+01 3.51367E-01-1.38906E-06-2.12738E-01 6.62601E-14 8.20161E-14
 -1       968 1.98790E+01 2.78843E-01-4.94923E-06-1.60403E-01 1.36322E-13 6.00108E-14
 -1       969 1.99211E+01 2.17390E-01-5.62889E-06-1.18620E-01 1.60641E-13-7.50127E-14
 -1       970 1.99514E+01 1.66557E-01-4.90466E-06-8.58015E-02 2.68088E-13-1.80358E-13
 -1       971 1.99726E+01 1.25380E-01-3.82281E-06-6.04273E-02-3.57733E-15-1.94911E-13
 -1       972 1.99868E+01 9.26463E-02-2.80742E-06-4.11329E-02 1.24109E-13-1.35296E-14
 -1       973 1.99960E+01 6.70680E-02-1.96004E-06-2.67220E-02 1.50552E-13-6.58607E-14
 -1       974 2.00015E+01 4.73864E-02-8.76543E-07-1.61725E-02 7.90978E-14-1.49963E-13
 -1       975 2.00044E+01 3.24783E-02-2.85789E-06-8.65342E-03 6.68252E-14-2.53695E-13
 -1       976 2.00055E+01 2.12306E-02 1.48264E-06-3.35765E-03 1.42479E-13-2.23615E-13
 -1       977 1.85783E+01-4.18243E-01 1.72585E-03 2.45037E+00-1.27337E-13 2.07937E-13
 -1       978 2.24922E+01-3.16032E+00 8.13525E-03-2.41568E+00-1.22063E-13 1.68812E-13
 -1       979 1.86986E+01 5.06700E-01-5.35478E-04 1.54034E+00-9.81340E-14 2.18100E-13
 -1       980 1.88873E+01 6.78272E-01-1.29239E-04 1.23567E+00-5.99070E-14 3.70319E-13
 -1       981 1.90834E+01 7.35940E-01-1.15998E-04 9.96566E-01 9.61712E-14 2.35982E-13
 -1       982 1.92673E+01 7.23053E-01-8.48245E-05 8.03846E-01 1.20871E-13 2.13672E-13
 -1       983 1.94293E+01 6.68223E-01-6.51044E-05 6.45543E-01-5.38047E-14 4.22727E-13
 -1       984 1.95661E+01 5.91810E-01-4.71202E-05 5.14470E-01 1.59890E-13 4.71231E-13
 -1       985 1.96777E+01 5.07580E-01-1.74339E-05 4.05624E-01 1.02185E-13 2.71091E-13
 -1       986 1.97664E+01 4.23808E-01-7.87389E-06 3.15687E-01-3.14439E-14 1.62952E-13
 -1       987 1.98354E+01 3.45850E-01-1.51220E-05 2.42166E-01-1.09231E-13 1.72408E-13
 -1       988 1.98878E+01 2.76649E-01-1.49606E-05 1.82744E-01-5.07076E-14 1.66507E-13
 -1       989 1.99266E+01 2.17143E-01-1.26022E-05 1.35343E-01-4.25548E-14 2.17916E-13
 -1       990 1.99548E+01 1.67344E-01-9.96834E-06 9.81159E-02-1.80440E-13 1.41855E-13
 -1       991 1.99746E+01 1.26635E-01-7.42145E-06 6.93275E-02-7.19689E-14 2.23192E-14
 -1       992 1.99880E+01 9.40358E-02-5.21867E-06 4.74212E-02-9.79325E-14 2.42045E-13
 -1       993 1.99967E+01 6.84127E-02-3.42797E-06 3.10365E-02-5.25569E-15 1.36652E-13
 -1       994 2.00018E+01 4.86049E-02-1.83129E-06 1.90161E-02-2.50687E-14-3.62103E-14
 -1       995 2.00045E+01 3.35135E-02-6.16423E-07 1.04055E-02-1.40453E-13 1.25271E-13
 -1       996 2.00056E+01 2.19564E-02-2.69093E-06 4.30333E-03 1.14333E-13-1.14492E-13
 -1       997 1.91376E+01 1.56303E+00-1.61648E-04 7.32977E-01-1.51114E-14-2.26117E-13
 -1       998 2.00046E+01 2.15699E-02-1.06018E-05-1.17212E-03 1.68852E-13-1.16173E-13
 -1       999 1.84420E+01 1.03830E+00 1.96924E-04 1.37277E+00 8.42717E-14-1.96747E-13
 -1      1000 1.95262E+01 1.89788E+00-4.02836E-04-3.80890E-01 1.99854E-13-2.15634E-13
 -1      1001 1.92543E+01 1.79736E+00-3.25981E-04 5.11953E-01-9.54776E-17-2.40435E-13
 -1      1002 1.90105E+01 2.32792E+00-2.47074E-05 5.42106E-02 4.51880E-14-3.03945E-13
 -1      1003 1.47556E+01 6.62470E-01 1.51298E-02-1.82707E+00 1.27744E-13-4.42619E-14
 -1      1004 1.95032E+01 1.64651E+00 7.89100E-04-5.80995E-01 1.79817E-13-1.86207E-13
 -1      1005 1.91259E+01 2.24140E+00 7.84842E-04 1.87176E-01 2.07791E-14-3.15662E-13
 -1      1006 1.79524E+01-7.31528E-01 9.11515E-03-2.98598E+00 1.04272E-13-7.04551E-14
 -1      1007 1.81266E+01-1.27634E+00 8.21306E-03 3.31834E+00-2.19115E-13-1.58619E-15
 -1      1008 1.87695E+01-2.00986E-01 2.29749E-04-2.41203E+00-7.96597E-14-8.90882E-14
 -1      1009 1.54313E+01 5.69667E-01 3.97104E-03 1.94192E+00-2.51284E-13 3.23348E-15
 -1      1010 1.36962E+01 9.76250E-01 2.19267E-02 2.85248E-01 1.12480E-13-3.43805E-13
 -1      1011 1.53954E+01-6.24630E-03 1.99421E-02-2.90470E+00-1.12904E-13-3.85981E-13
 -1      1012 1.92680E+01 1.11389E+00 2.48523E-04-1.12853E+00 6.77674E-14-1.39527E-13
 -1      1013 2.00043E+01 2.24029E-02-4.31725E-06-7.59365E-05 1.33022E-13-4.86270E-13
 -1      1014 1.89531E+01-1.08970E+00 5.25026E-03-3.05581E+00-1.90559E-13-7.53267E-14
 -1      1015 1.46488E+01 1.06906E+00 1.10851E-02-6.16020E-01 5.20814E-14 1.48616E-14
 -1      1016 1.89141E+01 1.94569E+00-2.16128E-05-3.30103E-01 7.97507E-14-1.81367E-13
 -1      1017 1.91770E+01 1.82470E+00-1.22601E-04-4.87497E-01 1.21935E-13-1.93653E-13
 -1      1018 1.59202E+01 2.81141E-01 9.85298E-03 2.43807E+00 1.75182E-13-2.84455E-13
 -1      1019 1.90465E+01-2.33615E+00 1.72581E-02-3.97860E+00-2.56679E-13-1.17650E-13
 -1      1020 1.86360E+01 1.64818E+00 1.70828E-03 5.64372E-01 2.47952E-14-2.43148E-13
 -1      1021 1.71765E+01 6.58644E-02 1.23394E-03 2.36987E+00-2.50934E-13 3.17929E-14
 -1      1022 1.75111E+01 1.21305E+00 9.33043E-04 1.05548E+00 6.75327E-14-2.64823E-13
 -1      1023 1.90551E+01 7.92268E-01 3.21251E-04-1.48849E+00 1.17811E-14-9.85069E-14
 -1      1024 1.81317E+01 8.72159E-01-4.24812E-04 1.12515E+00-2.27201E-13 1.42186E-13
 -1      1025 1.66209E+01 8.50910E-01 3.07138E-04-1.45667E+00 1.22174E-13-4.35850E-14
 -1      1026 1.73501E+01 1.00950E+00 2.14280E-04-1.08778E+00 1.27194E-13-2.48881E-13
 -1      1027 1.79183E+01 1.06004E+00-7.02924E-06-8.38624E-01-9.53814E-14-1.67638E-13
 -1      1028 1.83736E+01 1.03539E+00-1.33037E-04-6.63951E-01-3.88974E-13-1.62580E-13
 -1      1029 1.87378E+01 9.66446E-01-2.41172E-04-5.31520E-01-4.18936E-13 1.03214E-13
 -1      1030 1.90317E+01 8.68499E-01-1.79771E-04-4.27532E-01-1.11359E-13 1.63217E-13
 -1      1031 1.92666E+01 7.57712E-01-1.30773E-04-3.43343E-01-1.17021E-13-7.47600E-14
 -1      1032 1.94524E+01 6.45228E-01-9.63690E-05-2.73147E-01-8.45195E-14-3.28647E-13
 -1      1033 1.95980E+01 5.37525E-01 8.00337E-06-2.15280E-01 1.29064E-13-5.36092E-13
 -1      1034 1.97106E+01 4.38804E-01-3.96452E-05-1.67341E-01 2.54998E-13-3.21409E-13
 -1      1035 1.97965E+01 3.52108E-01-6.13809E-05-1.27660E-01 1.24928E-13-3.85234E-14
 -1      1036 1.98613E+01 2.77365E-01-4.72602E-05-9.57060E-02 1.05701E-13 7.15671E-14
 -1      1037 1.99089E+01 2.14771E-01-3.84528E-05-7.03597E-02 1.18613E-13-8.68941E-14
 -1      1038 1.99432E+01 1.63473E-01-3.00864E-05-5.05129E-02 4.45537E-14-2.74159E-14
 -1      1039 1.99673E+01 1.22230E-01-2.29681E-05-3.52218E-02 2.09508E-13 1.03138E-13
 -1      1040 1.99836E+01 8.96548E-02-1.68621E-05-2.36453E-02 6.38432E-14-1.39492E-13
 -1      1041 1.99941E+01 6.43523E-02-1.17367E-05-1.50443E-02 1.61943E-13-3.28753E-13
 -1      1042 2.00004E+01 4.49724E-02-1.03356E-05-8.81087E-03-6.27684E-14-3.16465E-13
 -1      1043 2.00032E+01 3.21304E-02 5.81151E-06-3.92635E-03 8.49788E-14-2.00156E-13
 -1      1044 1.85042E+01 9.16562E-01-3.60801E-04 8.75645E-01 6.87967E-14 9.09132E-14
 -1      1045 1.75848E+01 5.24598E-01 1.86194E-04 1.76919E+00-1.23447E-13 4.98689E-14
 -1      1046 1.78596E+01 7.47491E-01 9.72549E-04 1.40563E+00-9.43200E-14-3.82872E-14
 -1      1047 1.88162E+01 8.92109E-01-3.97326E-04 6.90599E-01-2.78366E-14 2.87032E-13
 -1      1048 1.90776E+01 8.24695E-01-2.97884E-04 5.46933E-01-1.59251E-13 3.29046E-13
 -1      1049 1.92931E+01 7.33405E-01-2.00863E-04 4.32764E-01 7.87314E-14 2.87206E-13
 -1      1050 1.94670E+01 6.34040E-01-3.56422E-05 3.41205E-01 2.42948E-13 1.91632E-13
 -1      1051 1.96057E+01 5.33855E-01 6.82003E-06 2.66355E-01 8.16884E-14 1.34006E-13
 -1      1052 1.97142E+01 4.39624E-01-6.47684E-05 2.05372E-01-1.34850E-13 1.46092E-13
 -1      1053 1.97977E+01 3.55190E-01-8.25706E-05 1.56234E-01-5.06265E-14 7.85439E-14
 -1      1054 1.98612E+01 2.81565E-01-6.47721E-05 1.16854E-01 4.80035E-14 1.36329E-14
 -1      1055 1.99083E+01 2.19209E-01-5.13176E-05 8.58073E-02-5.58462E-14 1.52873E-13
 -1      1056 1.99425E+01 1.67667E-01-3.97105E-05 6.16335E-02-5.50309E-14 9.19961E-14
 -1      1057 1.99665E+01 1.25946E-01-2.99264E-05 4.30765E-02-2.08050E-13-8.54866E-14
 -1      1058 1.99830E+01 9.28106E-02-2.19762E-05 2.90553E-02-3.92494E-14 2.38664E-14
 -1      1059 1.99936E+01 6.69513E-02-1.67394E-05 1.86382E-02 1.25193E-13 1.38980E-13
 -1      1060 2.00002E+01 4.70366E-02-8.53625E-06 1.10329E-02-7.47331E-14 1.29175E-13
 -1      1061 2.00036E+01 3.20174E-02-3.25973E-06 5.61131E-03 6.63397E-14-1.69395E-13
 -1      1062 1.81373E+01 1.43870E+00 1.94317E-03 7.83500E-01 2.67098E-14-2.30527E-13
 -1      1063 1.52247E+01 8.79851E-01 1.01516E-02-1.39271E+00 3.64379E-14-3.13541E-13
 -1      1064 1.61673E+01 3.57665E-01 3.95451E-03-2.23428E+00 6.19895E-14-1.41923E-13
 -1      1065 2.00046E+01 2.14704E-02 1.07224E-06 1.04598E-03 1.22004E-13-1.07035E-13
 -1      1066 2.00052E+01 1.91195E-02 1.47966E-05 1.70542E-03 1.27829E-13-2.14475E-13
 -1      1067 1.87852E+01 2.04031E+00 3.57838E-04-4.98143E-02 6.22738E-14-2.49347E-13
 -1      1068 1.66694E+01 9.57609E-01 9.07659E-04 1.42823E+00 1.09463E-13-3.19377E-13
 -1      1069 1.88614E+01 3.84553E-01-1.32371E-04-1.90036E+00-6.67001E-16-1.13392E-13
 -1      1070 1.88430E+01 1.84360E+00-5.27912E-04 3.96069E-01 1.78480E-14-2.78761E-13
 -1      1071 2.00025E+01 3.40898E-02 7.61767E-05-9.08253E-04 1.44022E-13-2.94379E-13
 -1      1072 1.70110E+01 3.03852E-01 3.49573E-03-2.29369E+00-1.01405E-13-1.89769E-13
 -1      1073 1.52624E+01 1.11607E+00 5.65909E-03 5.37181E-01-2.02544E-14 7.05881E-15
 -1      1074 1.85098E+01 1.77520E+00 1.43526E-04-2.72740E-01 6.34071E-14-2.40774E-13
 -1      1075 1.53128E+01 9.61526E-01 6.41589E-03 1.18856E+00 1.21723E-13-3.28201E-13
 -1      1076 1.76188E+01 7.67659E-01-1.14400E-03-1.67681E+00-1.25122E-14-1.58545E-13
 -1      1077 1.88035E+01 1.58795E+00 1.54414E-04-6.70180E-01 6.87155E-14-1.31143E-13
 -1      1078 1.56497E+01 9.79131E-01 2.58675E-03-1.14808E+00 3.96614E-14 1.44971E-13
 -1      1079 1.75029E+01 1.48051E+00-4.73077E-03 2.94424E-01 2.26960E-14-2.22326E-13
 -1      1080 1.83981E+01 1.33486E+00 1.19103E-03-9.36940E-01 5.63149E-14-1.41196E-13
 -1      1081 1.64204E+01 8.77252E-01 3.27011E-03 1.36176E+00-2.11691E-13-1.55609E-13
 -1      1082 1.64572E+01 1.14634E+00 2.93941E-04-9.51873E-01-1.86491E-15-1.75855E-13
 -1      1083 1.79146E+01 1.09283E+00 2.94950E-03 6.06885E-01-1.28414E-13-3.00089E-13
 -1      1084 1.72732E+01 1.19636E+00-2.06715E-04-3.87502E-01 1.28918E-14-1.49935E-13
 -1      1085 1.78626E+01 1.17788E+00 8.89285E-04-3.02611E-01-3.04720E-13-3.39072E-13
 -1      1086 1.83512E+01 1.09305E+00-1.03765E-04-2.41860E-01-1.95792E-13-1.72639E-13
 -1      1087 1.87317E+01 9.86930E-01-2.92461E-04-2.00356E-01-8.27122E-14 9.06451E-14
 -1      1088 1.90318E+01 8.68737E-01-3.03834E-04-1.65062E-01-2.53769E-13 1.92801E-13
 -1      1089 1.92771E+01 7.45021E-01 9.30952E-04-1.35737E-01-2.88925E-13 2.24210E-13
 -1      1090 1.94627E+01 6.25654E-01 1.17833E-05-1.09524E-01-7.95651E-14 2.26037E-13
 -1      1091 1.96016E+01 5.20786E-01 2.49405E-04-8.48487E-02 1.76163E-13 1.48910E-13
 -1      1092 1.97150E+01 4.20950E-01 1.41533E-05-6.49006E-02 2.62421E-13-1.39892E-13
 -1      1093 1.98009E+01 3.34647E-01-2.86298E-05-4.98577E-02 1.96799E-13-9.06198E-14
 -1      1094 1.98649E+01 2.61750E-01-1.75937E-05-3.73811E-02-8.74247E-14-2.80029E-13
 -1      1095 1.99119E+01 2.01292E-01-7.83505E-06-2.73544E-02 3.92457E-14-3.75861E-13
 -1      1096 1.99456E+01 1.52129E-01-1.59938E-06-1.94799E-02 3.00797E-13-2.68654E-13
 -1      1097 1.99691E+01 1.12884E-01 2.03261E-06-1.34223E-02 4.12143E-14-1.72001E-13
 -1      1098 1.99849E+01 8.20882E-02 6.91975E-07-8.85657E-03-1.83095E-13-2.61604E-13
 -1      1099 1.99951E+01 5.81267E-02-1.44602E-05-5.12351E-03-1.83079E-14-4.38004E-13
 -1      1100 1.99995E+01 4.49528E-02 2.09599E-05-2.85131E-03 3.76923E-14-1.51190E-13
 -1      1101 1.90189E+01 8.66602E-01 2.25139E-04 2.85166E-01-3.99731E-14-2.54279E-13
 -1      1102 1.92546E+01 7.54798E-01 7.86463E-04 2.21006E-01 1.52442E-13-1.47204E-13
 -1      1103 1.94504E+01 6.33865E-01 1.54599E-04 1.69035E-01 1.35123E-13 2.18455E-13
 -1      1104 1.95944E+01 5.28498E-01 4.71123E-04 1.30956E-01-3.65943E-15 1.52783E-13
 -1      1105 1.97046E+01 4.31598E-01-7.44018E-05 1.00754E-01-7.27283E-14 1.18788E-13
 -1      1106 1.97922E+01 3.45385E-01 1.51411E-05 7.61460E-02 3.17984E-14-3.68467E-14
 -1      1107 1.98581E+01 2.71416E-01 2.49331E-05 5.65642E-02-7.19096E-14-9.97133E-14
 -1      1108 1.99067E+01 2.09616E-01 2.25412E-05 4.11794E-02-7.80873E-14 1.23625E-14
 -1      1109 1.99418E+01 1.59072E-01 1.77185E-05 2.92797E-02-2.53769E-14 1.76741E-14
 -1      1110 1.99664E+01 1.18527E-01 1.30473E-05 2.02168E-02-1.09449E-13-1.91878E-13
 -1      1111 1.99831E+01 8.65788E-02 8.80099E-06 1.34302E-02-5.96074E-14-2.90027E-13
 -1      1112 1.99938E+01 6.18775E-02 2.12759E-05 8.49004E-03-3.11489E-14-2.40621E-14
 -1      1113 2.00004E+01 4.26357E-02-1.13252E-05 4.69774E-03-6.48569E-15 2.21413E-15
 -1      1114 1.84363E+01 1.75529E+00-1.45811E-03 2.58458E-01 5.48014E-14-2.01222E-13
 -1      1115 1.83549E+01 1.05191E+00-4.14229E-04 4.67395E-01-1.18262E-14-1.40461E-13
 -1      1116 1.64431E+01 1.18167E+00-1.49724E-04-5.08278E-01 3.85645E-14 3.79487E-15
 -1      1117 1.80158E+01 1.08771E+00-3.52104E-04-1.26128E+00 3.66302E-14-1.80275E-13
 -1      1118 1.56114E+01 1.20719E+00 2.52133E-04-6.51729E-02 9.32373E-14-2.89897E-13
 -1      1119 2.00028E+01 3.17503E-02-3.75516E-08 1.61756E-03 5.44612E-14-3.58555E-13
 -1      1120 1.87239E+01 9.70153E-01 8.63245E-05 3.63880E-01-1.98362E-14-1.73942E-13
 -1      1121 1.66127E+01 1.33159E+00 2.86877E-04 3.88568E-01 6.43807E-14-2.70886E-13
 -1      1122 1.69991E+01 1.00909E+00 1.74713E-03 1.01892E+00-8.06200E-14-1.24163E-13
 -1      1123 1.75176E+01 1.07176E+00 3.04924E-04 7.93971E-01-3.08522E-13-1.28931E-13
 -1      1124 1.78582E+01 1.57028E+00 2.50224E-04-2.87849E-01 4.46717E-14-1.97033E-13
 -1      1125 1.58653E+01 1.19594E+00 2.39314E-04-4.57504E-03 5.93053E-14-8.09151E-14
 -1      1126 1.75315E+01 1.18777E+00-7.18740E-03 2.04189E-01-2.98148E-13-3.82803E-13
 -1      1127 1.93091E+01 7.15276E-01-1.98872E-03 2.54186E-02-1.19580E-13 2.05161E-13
 -1      1128 1.68415E+01 1.21818E+00-2.90169E-04 1.39035E-01-5.36895E-14-2.91256E-13
 -1      1129 1.95212E+01 5.75756E-01-1.31677E-03 3.12940E-02-1.46841E-14 3.35148E-13
 -1      1130 1.72162E+01 1.34016E+00 2.11851E-04-6.47741E-01 3.28719E-14-1.74889E-13
 -1      1131 1.64506E+01 1.15403E+00-2.10230E-03 5.38576E-01-7.68655E-14-2.05107E-13
 -1      1132 2.78993E+01 9.05307E+00 2.27747E+00-6.50974E+00-5.30687E-14 1.40526E-12
 -1      1133 2.08162E+01 6.31558E+00 2.35699E-01-3.62669E+00-2.59515E-14 7.92491E-14
 -1      1134 1.97059E+01 5.93982E+00 9.34953E-02-2.53543E+00-1.76387E-14-4.67921E-13
 -1      1135 1.92057E+01 5.78182E+00 6.70638E-02-1.84911E+00-1.01724E-14-7.08929E-13
 -1      1136 1.88877E+01 5.68258E+00 5.42637E-02-1.32735E+00-6.41848E-15-8.09118E-13
 -1      1137 1.86588E+01 5.61092E+00 4.42019E-02-9.12929E-01-2.82066E-15-8.42481E-13
 -1      1138 1.84956E+01 5.55965E+00 3.65330E-02-5.70643E-01-1.66707E-15-8.42135E-13
 -1      1139 1.83955E+01 5.52815E+00 3.16038E-02-2.72046E-01 1.14925E-15-8.25749E-13
 -1      1140 1.83631E+01 5.51796E+00 3.00543E-02 3.85768E-03 4.06793E-15-7.90993E-13
 -1      1141 1.83993E+01 5.52941E+00 3.20130E-02 2.81035E-01 6.39072E-15-7.51868E-13
 -1      1142 1.85023E+01 5.56189E+00 3.73068E-02 5.83371E-01 7.43502E-15-7.01779E-13
 -1      1143 1.86677E+01 5.61400E+00 4.56056E-02 9.31545E-01 9.91221E-15-6.12115E-13
 -1      1144 1.88965E+01 5.68566E+00 5.56710E-02 1.35354E+00 1.32810E-14-4.79354E-13
 -1      1145 1.92121E+01 5.78386E+00 6.73694E-02 1.88529E+00 1.72223E-14-2.65368E-13
 -1      1146 1.97015E+01 5.93678E+00 8.77061E-02 2.58026E+00 2.16355E-14 1.13000E-13
 -1      1147 2.07196E+01 6.27007E+00 1.80608E-01 3.60873E+00 2.22877E-14 7.95253E-13
 -1      1148 2.52290E+01 7.99096E+00 1.40741E+00 5.66473E+00 3.53051E-14 2.10723E-12
 -1      1149 2.86292E+01 3.51303E+00 1.17647E+00-4.09294E+00-2.07279E-13 2.24487E-12
 -1      1150 2.05380E+01-1.82711E-01-6.20320E-01-8.32756E-02-6.46844E-14 1.78689E-12
 -1      1151 1.94905E+01-9.92945E-02-2.34321E-01 6.84146E-02-3.43163E-14 1.11940E-12
 -1      1152 1.94711E+01-5.37567E-02-6.48827E-02 4.50239E-02-1.43106E-14 6.74079E-13
 -1      1153 1.97745E+01-3.27414E-02-2.56827E-02 3.30436E-02-1.42156E-14 3.33372E-13
 -1      1154 2.02901E+01-2.24990E-02-1.82268E-02 2.83296E-02-9.33238E-15 1.58422E-13
 -1      1155 2.09625E+01-1.57492E-02-1.49842E-02 2.72993E-02 1.55973E-15 6.18429E-14
 -1      1156 2.17529E+01-9.16171E-03-9.53501E-03 2.81795E-02-7.61999E-15-4.18311E-14
 -1      1157 2.26142E+01-3.67430E-04 9.86791E-04 2.92884E-02-1.25698E-14-2.17493E-13
 -1      1158 2.34697E+01 1.25151E-02 1.92436E-02 2.81992E-02-1.00948E-14-4.41962E-13
 -1      1159 2.41930E+01 3.02713E-02 4.66729E-02 2.11866E-02 1.89991E-14-5.23866E-13
 -1      1160 2.45965E+01 5.09237E-02 8.01170E-02 3.53404E-03 9.67022E-15-3.73692E-13
 -1      1161 2.44516E+01 6.73590E-02 1.07392E-01-2.81535E-02 8.24774E-15-4.62640E-13
 -1      1162 2.35705E+01 6.66674E-02 1.05908E-01-7.06804E-02-3.52756E-15-5.31006E-13
 -1      1163 2.19603E+01 3.48794E-02 5.30357E-02-1.08567E-01-1.44867E-14-4.70485E-13
 -1      1164 1.99817E+01-2.77392E-02-4.88908E-02-1.15978E-01-2.91264E-14-6.85257E-13
 -1      1165 1.83388E+01-9.40723E-02-1.54559E-01-7.42817E-02-1.19817E-14-7.65943E-13
 -1      1166 1.77644E+01-1.20923E-01-1.96768E-01 5.39693E-03-1.59196E-14-9.43721E-13
 -1      1167 1.85517E+01-8.80724E-02-1.45061E-01 8.25293E-02 2.26616E-14-1.18930E-12
 -1      1168 2.03412E+01-2.02325E-02-3.67488E-02 1.18637E-01 2.24141E-14-1.03903E-12
 -1      1169 2.23817E+01 3.94266E-02 6.06177E-02 1.06655E-01-3.46567E-14-9.33767E-13
 -1      1170 2.40013E+01 6.69167E-02 1.06456E-01 6.74675E-02-1.05428E-14-6.55725E-13
 -1      1171 2.48878E+01 6.47364E-02 1.02950E-01 2.63260E-02 3.66287E-15-6.75307E-13
 -1      1172 2.50683E+01 4.72594E-02 7.37769E-02-2.83367E-03-1.28322E-14-6.55843E-13
 -1      1173 2.47436E+01 2.69902E-02 4.06002E-02-1.78850E-02 1.95937E-14-5.99749E-13
 -1      1174 2.41397E+01 1.04497E-02 1.44903E-02-2.25239E-02 3.96180E-14-4.44443E-13
 -1      1175 2.34345E+01-6.24997E-04-2.05663E-03-2.13217E-02 6.15490E-14-1.32547E-13
 -1      1176 2.27415E+01-6.88300E-03-1.06734E-02-1.76626E-02-3.87414E-14-9.65061E-14
 -1      1177 2.21205E+01-9.68940E-03-1.39886E-02-1.34952E-02-2.23530E-15-3.33494E-13
 -1      1178 2.15957E+01-1.03289E-02-1.42439E-02-9.72853E-03 3.04696E-14-2.37838E-13
 -1      1179 2.11698E+01-9.75932E-03-1.29695E-02-6.67335E-03-3.65127E-14-3.10499E-13
 -1      1180 2.08347E+01-8.61141E-03-1.10848E-02-4.34875E-03-8.17131E-15-7.80123E-13
 -1      1181 2.05778E+01-7.26609E-03-9.09137E-03-2.65717E-03 3.41659E-14-3.71229E-13
 -1      1182 2.03855E+01-5.93570E-03-7.23665E-03-1.47058E-03 2.60688E-14-1.46181E-13
 -1      1183 2.02447E+01-4.72698E-03-5.62415E-03-6.67567E-04-2.86960E-14-2.66094E-13
 -1      1184 2.01443E+01-3.68389E-03-4.28053E-03-1.46076E-04-1.21118E-14-4.54641E-13
 -1      1185 2.00747E+01-2.81504E-03-3.19404E-03 1.74490E-04 4.20485E-14-5.98387E-13
 -1      1186 2.00282E+01-2.11052E-03-2.33595E-03 3.55475E-04 2.95886E-14-4.41192E-13
 -1      1187 1.99988E+01-1.55180E-03-1.67195E-03 4.42440E-04-2.05374E-14-4.67681E-13
 -1      1188 1.99815E+01-1.11734E-03-1.16794E-03 4.68613E-04 1.36178E-14-6.62643E-13
 -1      1189 1.99728E+01-7.85585E-04-7.92581E-04 4.57832E-04 1.38398E-14-8.59378E-13
 -1      1190 1.99700E+01-5.36392E-04-5.18245E-04 4.26870E-04-3.19712E-14-1.19399E-12
 -1      1191 1.99711E+01-3.51656E-04-3.21026E-04 3.87203E-04 5.96173E-14-8.90275E-13
 -1      1192 1.99745E+01-2.15340E-04-1.80137E-04 3.46288E-04 2.63112E-14-2.30154E-13
 -1      1193 1.99794E+01-1.13166E-04-7.66663E-05 3.08281E-04-2.06759E-14-1.87135E-13
 -1      1194 1.99849E+01-3.22031E-05 8.34729E-06 2.73986E-04 1.20839E-13 2.10152E-13
 -1      1195 1.99904E+01 3.92331E-05 9.55046E-05 2.39118E-04-2.13808E-14 4.58976E-13
 -1      1196 1.99953E+01 1.09126E-04 1.96945E-04 1.85754E-04 3.72505E-14 3.30766E-13
 -1      1197 1.99988E+01 1.84108E-04 2.68722E-04 7.58415E-05-3.16751E-16 1.54657E-13
 -1      1198 1.99999E+01-3.37985E-05-3.38361E-05-4.99799E-05 5.53155E-14-8.36623E-14
 -1      1199 2.76307E+01 5.15613E-01 3.05933E-01 1.92802E+00-3.51177E-14 3.15925E-12
 -1      1200 2.04139E+01-6.99969E-02-5.74318E-01 1.19751E-01 1.42455E-14 2.65657E-12
 -1      1201 1.95560E+01-4.52545E-02-1.93073E-01 1.70679E-02 1.16539E-14 2.15263E-12
 -1      1202 1.94838E+01-2.77169E-02-5.63485E-02 1.59369E-03 1.03572E-14 1.77297E-12
 -1      1203 1.97586E+01-1.99090E-02-2.35429E-02-3.59986E-03-6.59195E-16 1.53831E-12
 -1      1204 2.02458E+01-1.51354E-02-1.69677E-02-6.32570E-03 5.52444E-15 1.36457E-12
 -1      1205 2.08790E+01-1.06490E-02-1.38692E-02-9.38188E-03-7.35935E-15 1.29591E-12
 -1      1206 2.16119E+01-4.69549E-03-8.19238E-03-1.37041E-02 7.85461E-15 1.18273E-12
 -1      1207 2.23910E+01 4.16306E-03 2.62123E-03-1.94771E-02 1.02620E-14 9.64420E-13
 -1      1208 2.31361E+01 1.67424E-02 2.05213E-02-2.59864E-02 1.98754E-14 8.54108E-13
 -1      1209 2.37249E+01 3.21948E-02 4.57951E-02-3.09469E-02 2.05751E-14 6.98337E-13
 -1      1210 2.39895E+01 4.64951E-02 7.42218E-02-2.99564E-02-1.60011E-14 7.37509E-13
 -1      1211 2.37426E+01 5.17840E-02 9.41882E-02-1.72117E-02-5.15300E-15 8.22033E-13
 -1      1212 2.28531E+01 3.87907E-02 8.76733E-02 1.09345E-02-9.84195E-15 8.24354E-13
 -1      1213 2.13700E+01 4.41473E-03 4.02189E-02 4.98336E-02 2.41560E-14 6.14050E-13
 -1      1214 1.96308E+01-3.96220E-02-4.15695E-02 8.27137E-02 9.30462E-16 3.80529E-13
 -1      1215 1.82271E+01-6.95038E-02-1.21005E-01 8.77474E-02-4.17591E-14 4.03309E-13
 -1      1216 1.77451E+01-6.77866E-02-1.51958E-01 5.54211E-02 2.75179E-14 4.05611E-13
 -1      1217 1.84133E+01-3.88699E-02-1.16961E-01 1.96528E-05 6.46792E-15 1.59595E-15
 -1      1218 1.99495E+01-3.26738E-03-4.16837E-02-4.99187E-02-1.24534E-14 1.90570E-13
 -1      1219 2.17529E+01 2.15023E-02 2.96964E-02-7.36672E-02 1.98606E-14 9.46465E-14
 -1      1220 2.32586E+01 3.05814E-02 6.86732E-02-6.96704E-02-2.78284E-14 3.60240E-13
 -1      1221 2.41683E+01 2.81901E-02 7.33645E-02-4.96170E-02 4.59585E-14 1.99646E-13
 -1      1222 2.44620E+01 2.06215E-02 5.74376E-02-2.64118E-02 8.34142E-15-9.44609E-14
 -1      1223 2.42822E+01 1.23899E-02 3.56131E-02-7.73863E-03 1.37546E-14-1.63550E-14
 -1      1224 2.38151E+01 5.64648E-03 1.66570E-02 4.19133E-03 6.32968E-15 1.81771E-13
 -1      1225 2.32201E+01 9.50006E-04 3.52048E-03 1.02604E-02-2.52546E-14 3.44426E-13
 -1      1226 2.26073E+01-1.91267E-03-4.13371E-03 1.23031E-02 4.85157E-14-2.02987E-13
 -1      1227 2.20410E+01-3.40140E-03-7.78409E-03 1.20083E-02 3.30915E-15-3.22842E-13
 -1      1228 2.15511E+01-3.96854E-03-8.91888E-03 1.05791E-02 4.24748E-14-4.15000E-13
 -1      1229 2.11465E+01-3.97123E-03-8.65457E-03 8.75381E-03-1.11279E-14-4.12613E-13
 -1      1230 2.08238E+01-3.66153E-03-7.71558E-03 6.93366E-03 1.91000E-14-3.56727E-13
 -1      1231 2.05737E+01-3.20481E-03-6.52948E-03 5.30806E-03-2.83010E-14-2.85514E-14
 -1      1232 2.03848E+01-2.70333E-03-5.32930E-03 3.94535E-03 2.32991E-14 1.78593E-13
 -1      1233 2.02456E+01-2.21634E-03-4.23054E-03 2.85043E-03-8.71677E-15 3.06919E-13
 -1      1234 2.01457E+01-1.77502E-03-3.28126E-03 1.99829E-03-3.23542E-14 1.93221E-13
 -1      1235 2.00761E+01-1.39289E-03-2.49239E-03 1.35249E-03 1.61469E-14-1.77037E-13
 -1      1236 2.00295E+01-1.07291E-03-1.85568E-03 8.74824E-04 3.17162E-14-3.98480E-13
 -1      1237 1.99997E+01-8.12034E-04-1.35403E-03 5.29957E-04 5.75173E-14-7.46731E-13
 -1      1238 1.99822E+01-6.04139E-04-9.67291E-04 2.87270E-04-1.90790E-14-4.28397E-13
 -1      1239 1.99733E+01-4.41682E-04-6.75254E-04 1.21213E-04-5.50426E-14 1.08314E-13
 -1      1240 1.99703E+01-3.16695E-04-4.59039E-04 1.09616E-05 6.35586E-16 2.30740E-13
 -1      1241 1.99713E+01-2.21242E-04-3.01524E-04-6.02026E-05 6.44179E-15-6.64925E-14
 -1      1242 1.99747E+01-1.47516E-04-1.87051E-04-1.05615E-04 1.17288E-13-1.87016E-13
 -1      1243 1.99795E+01-8.74049E-05-1.00163E-04-1.35855E-04-5.62342E-14-6.38519E-13
 -1      1244 1.99849E+01-3.25679E-05-2.38285E-05-1.58986E-04 6.55956E-14-9.63184E-13
 -1      1245 1.99904E+01 2.65789E-05 6.16557E-05-1.80120E-04 3.59537E-14-1.39117E-12
 -1      1246 1.99953E+01 9.63954E-05 1.69698E-04-1.94562E-04 3.09412E-14-1.38385E-12
 -1      1247 1.99988E+01 1.47808E-04 2.44755E-04-1.60822E-04 5.87610E-14-1.37035E-12
 -1      1248 1.99999E+01-3.59714E-05-3.86633E-05 3.99694E-05 1.64454E-14-6.93402E-13
 -1      1249 1.99998E+01 1.02081E-04-4.16661E-05 2.65212E-05-6.64722E-13-1.33089E-14
 -1      1250 1.99999E+01-1.06081E-03 2.21083E-04-6.42532E-05-1.34764E-12-5.91764E-14
 -1      1251 1.99999E+01-4.34610E-03 1.25611E-04-1.70242E-04-3.56166E-13 3.43417E-15
 -1      1252 1.99998E+01-8.51259E-03-3.00038E-06-1.79677E-04 1.85397E-13 5.26406E-15
 -1      1253 1.99997E+01-1.26216E-02-8.78705E-05-1.53568E-04 3.46576E-13 3.74720E-14
 -1      1254 1.99997E+01-1.61050E-02-1.33321E-04-1.14706E-04-2.07032E-13-1.18154E-13
 -1      1255 1.99997E+01-1.87100E-02-1.52294E-04-7.67093E-05-6.26414E-13 2.27726E-14
 -1      1256 1.99997E+01-2.03218E-02-1.59527E-04-3.76060E-05-8.21518E-13 1.42280E-14
 -1      1257 1.99997E+01-2.08607E-02-1.61213E-04 1.02780E-07-8.50840E-13-2.07797E-13
 -1      1258 1.99997E+01-2.03146E-02-1.59819E-04 3.78899E-05-1.39236E-12-1.10032E-15
 -1      1259 1.99997E+01-1.86939E-02-1.52489E-04 7.71399E-05-1.80760E-12-1.29685E-13
 -1      1260 1.99997E+01-1.60760E-02-1.32804E-04 1.17496E-04-2.28450E-12 2.62528E-14
 -1      1261 1.99997E+01-1.25805E-02-8.80772E-05 1.54572E-04-2.08615E-12 4.64505E-14
 -1      1262 1.99998E+01-8.45278E-03 2.76173E-07 1.82994E-04-1.36630E-12 1.37701E-13
 -1      1263 1.99999E+01-4.22458E-03 1.51824E-04 2.02251E-04-3.46080E-13 4.56544E-15
 -1      1264 2.00000E+01-1.08137E-03 2.26637E-04 5.85782E-05 1.80628E-13 1.35378E-14
 -1      1265 1.99997E+01 1.01880E-04-5.49115E-05-2.00720E-05 8.28128E-14 8.92894E-14
 -1      1266-1.27474E+00-2.37162E+01-3.74060E+00-2.25489E+00 3.12639E-13 1.91222E-13
 -1      1267-1.94111E+00-1.49991E+01-3.12102E+00-3.89962E+00 1.47438E-12 7.00440E-13
 -1      1268 5.78034E-01-2.21920E+00-1.84650E+00 2.57201E-01 2.42872E-12 1.59639E-12
 -1      1269 9.75122E+00 7.99079E+00-2.42626E-01 8.80158E+00 2.30682E-12 2.24198E-12
 -1      1270 2.57815E+01 1.10697E+01 1.40862E+00 1.61729E+01 1.75504E-12 2.61369E-12
 -1      1271 4.54740E+01 8.14353E+00 2.87190E+00 1.76635E+01 1.00431E-12 2.25064E-12
 -1      1272 6.16326E+01 3.44705E+00 3.88359E+00 1.07015E+01 2.99746E-13 1.09190E-12
 -1      1273 6.70748E+01 1.55635E+00 4.23877E+00-1.99090E+00 1.39957E-13-6.26582E-13
 -1      1274 5.76891E+01 5.04293E+00 3.69688E+00-1.35208E+01 6.55809E-13-2.24232E-12
 -1      1275 3.94334E+01 9.72239E+00 2.56802E+00-1.79596E+01 1.65890E-12-3.19655E-12
 -1      1276 1.98656E+01 1.09414E+01 9.35859E-01-1.41625E+01 2.58971E-12-3.22364E-12
 -1      1277 5.62939E+00 5.40084E+00-7.40455E-01-5.57018E+00 2.82441E-12-2.40630E-12
 -1      1278-9.18840E-01-6.60034E+00-2.30406E+00 2.02057E+00 2.38010E-12-1.32971E-12
 -1      1279-1.71824E+00-1.90107E+01-3.35367E+00 3.87930E+00 1.20781E-12-4.64795E-13
 -1      1280-1.01440E+00-2.53991E+01-3.85967E+00 7.61516E-01-4.39621E-13-1.20536E-13
 -1      1281-1.38499E+00-2.20208E+01-3.61359E+00-3.44813E+00-2.21034E-12-5.35683E-13
 -1      1282-1.55819E+00-1.04398E+01-2.69647E+00-3.17045E+00-3.30069E-12-1.54082E-12
 -1      1283 3.27415E+00 2.31194E+00-1.22070E+00 3.13781E+00-3.46301E-12-2.55196E-12
 -1      1284 1.64172E+01 9.90758E+00 5.15348E-01 1.22868E+01-2.71339E-12-2.99782E-12
 -1      1285 3.60478E+01 1.00623E+01 2.18628E+00 1.80937E+01-1.48737E-12-2.59748E-12
 -1      1286 5.57810E+01 5.49956E+00 3.61814E+00 1.50552E+01-6.14064E-13-1.91458E-12
 -1      1287 6.64212E+01 2.23713E+00 4.27395E+00 3.67666E+00-1.64993E-13-2.24987E-13
 -1      1288 6.37442E+01 3.04575E+00 4.13680E+00-9.19920E+00-2.93682E-13 1.35925E-12
 -1      1289 4.85242E+01 7.38791E+00 3.06822E+00-1.72171E+01-1.03184E-12 2.53730E-12
 -1      1290 2.76064E+01 1.08610E+01 1.55023E+00-1.64040E+01-1.88838E-12 2.77423E-12
 -1      1291 1.00035E+01 8.08674E+00-1.59279E-01-8.79844E+00-2.14140E-12 2.16560E-12
 -1      1292 5.29572E-01-1.70520E+00-1.77554E+00-1.76991E-01-1.76614E-12 1.12621E-12
 -1      1293-1.76599E+00-1.46476E+01-3.02076E+00 4.07771E+00-1.20126E-12 4.43479E-13
 -1      1294-1.19865E+00-2.38066E+01-3.72708E+00 2.21483E+00-5.70710E-13 1.26246E-13
 -1      1295 2.24443E+01 1.85202E+00-7.12893E-01-2.64487E+00-7.68274E-14 1.10206E-12
 -1      1296 2.06798E+01 4.70380E+00-4.13903E-02-2.99506E+00-1.94691E-13-1.81577E-13
 -1      1297 2.11767E+01 4.80861E+00-9.78844E-02-3.87683E+00-2.58127E-13 1.03903E-13
 -1      1298 1.98035E+01 5.02534E+00-1.73051E-02-2.28227E+00-1.79322E-13-5.72271E-13
 -1      1299 2.01420E+01 5.13182E+00 1.13174E-02-2.69605E+00-2.08708E-13-4.06876E-13
 -1      1300 2.08689E+01 3.94940E+00-2.06418E-02-2.72976E+00-3.33605E-13-1.53252E-13
 -1      1301 1.93299E+01 5.12334E+00-5.32874E-03-1.68190E+00-1.36162E-13-7.56249E-13
 -1      1302 1.95490E+01 5.19842E+00 1.72851E-02-1.97738E+00-1.58241E-13-6.77833E-13
 -1      1303 2.00081E+01 4.40369E+00-2.09676E-02-2.10454E+00-2.73689E-13-4.76397E-13
 -1      1304 1.90010E+01 5.16873E+00-1.18609E-03-1.20127E+00-8.95187E-14-8.25152E-13
 -1      1305 1.91583E+01 5.22160E+00 1.57274E-02-1.43369E+00-1.08517E-13-7.95176E-13
 -1      1306 1.94932E+01 4.62797E+00-1.79632E-02-1.54713E+00-2.04434E-13-6.31266E-13
 -1      1307 1.87607E+01 5.19471E+00 4.44120E-04-8.16344E-01-4.26204E-14-8.49511E-13
 -1      1308 1.88754E+01 5.23257E+00 1.29274E-02-1.00286E+00-5.89563E-14-8.38886E-13
 -1      1309 1.91373E+01 4.76264E+00-1.45001E-02-1.09733E+00-1.24284E-13-6.88616E-13
 -1      1310 1.85903E+01 5.21070E+00 1.32380E-03-4.88066E-01-8.69183E-15-8.42652E-13
 -1      1311 1.86686E+01 5.23606E+00 9.64343E-03-6.48576E-01-1.97099E-14-8.51541E-13
 -1      1312 1.88784E+01 4.84886E+00-1.24601E-02-7.29490E-01-5.43580E-14-7.13089E-13
 -1      1313 1.84956E+01 5.22147E+00 2.54710E-03-1.99537E-01 3.05559E-14-8.15521E-13
 -1      1314 1.85346E+01 5.23400E+00 6.59994E-03-3.43026E-01 2.01037E-14-8.27961E-13
 -1      1315 1.87045E+01 4.90138E+00-1.13629E-02-4.14375E-01 4.99644E-15-6.91579E-13
 -1      1316 1.84789E+01 5.22879E+00 4.40411E-03 7.27412E-02 6.84691E-14-7.84883E-13
 -1      1317 1.84776E+01 5.22831E+00 4.14521E-03-6.55386E-02 5.65307E-14-8.05883E-13
 -1      1318 1.86183E+01 4.92560E+00-1.09072E-02-1.32413E-01 7.15013E-14-6.70207E-13
 -1      1319 1.85407E+01 5.23313E+00 6.95408E-03 3.52132E-01 1.07117E-13-7.48098E-13
 -1      1320 1.84993E+01 5.21972E+00 2.41529E-03 2.07370E-01 9.45450E-14-7.70899E-13
 -1      1321 1.86213E+01 4.92378E+00-1.09517E-02 1.39373E-01 1.33326E-13-6.46389E-13
 -1      1322 1.86783E+01 5.23351E+00 9.99300E-03 6.61937E-01 1.37865E-13-6.86997E-13
 -1      1323 1.85984E+01 5.20773E+00 1.34396E-03 4.98961E-01 1.26292E-13-7.25368E-13
 -1      1324 1.87130E+01 4.89602E+00-1.14906E-02 4.23800E-01 1.91440E-13-6.09717E-13
 -1      1325 1.88846E+01 5.22879E+00 1.32940E-02 1.01897E+00 1.72768E-13-5.94219E-13
 -1      1326 1.87695E+01 5.19056E+00 5.15655E-04 8.29452E-01 1.60903E-13-6.51496E-13
 -1      1327 1.88893E+01 4.84074E+00-1.25014E-02 7.40543E-01 2.47323E-13-5.43586E-13
 -1      1328 1.91707E+01 5.21587E+00 1.61401E-02 1.46098E+00 2.22124E-13-4.49370E-13
 -1      1329 1.90126E+01 5.16247E+00-1.11035E-03 1.22425E+00 2.00645E-13-5.31380E-13
 -1      1330 1.91500E+01 4.75123E+00-1.45779E-02 1.11479E+00 3.06622E-13-4.41945E-13
 -1      1331 1.95610E+01 5.19030E+00 1.68844E-02 2.01524E+00 2.57551E-13-2.18176E-13
 -1      1332 1.93422E+01 5.11387E+00-5.90519E-03 1.71425E+00 2.37935E-13-3.60829E-13
 -1      1333 1.95114E+01 4.61125E+00-1.79456E-02 1.57532E+00 3.74058E-13-2.93827E-13
 -1      1334 2.01645E+01 5.13885E+00 1.66550E-02 2.73921E+00 2.75724E-13 1.92672E-13
 -1      1335 1.98145E+01 5.01574E+00-1.80052E-02 2.32858E+00 2.49578E-13-5.08239E-14
 -1      1336 2.00294E+01 4.38119E+00-2.13310E-02 2.14749E+00 4.05686E-13-2.26694E-14
 -1      1337 2.13912E+01 4.90239E+00 1.82476E-02 3.78476E+00 2.17576E-13 9.10563E-13
 -1      1338 2.06532E+01 4.74528E+00-4.04933E-02 3.10682E+00 2.19935E-13 4.78506E-13
 -1      1339 2.09036E+01 3.91292E+00-1.69122E-02 2.83653E+00 3.97293E-13 4.21954E-13
 -1      1340 2.72081E+01 3.16259E+00 8.87520E-01 4.41198E+00 8.83182E-14 2.19025E-12
 -1      1341 2.22584E+01 3.51358E+00-1.73897E-01 3.66679E+00 1.00114E-13 1.31423E-12
 -1      1342 2.24316E+01 2.53712E+00-2.61120E-02 3.17703E+00 3.44596E-13 1.07103E-12
 -1      1343 2.16635E+01 3.46255E-01-7.56303E-01 1.05407E+00 1.76359E-13 2.13507E-12
 -1      1344 2.22946E+01 1.22278E-01-3.96789E-01-1.13840E+00-2.10720E-13 1.19654E-12
 -1      1345 2.11329E+01 2.97182E-01-1.57934E-01-6.80084E-01-1.93547E-13 9.55250E-13
 -1      1346 2.06376E+01 1.53714E-01-7.06348E-02-2.76544E-01-1.60118E-13 8.53080E-13
 -1      1347 2.03237E+01 9.35077E-02-1.21032E-02-2.05669E-01-1.58630E-13 6.11584E-13
 -1      1348 2.14705E+01 3.59316E-01-1.03352E-01-1.02905E+00-3.43482E-13 4.50216E-13
 -1      1349 2.00935E+01 7.05338E-02 3.95360E-03-1.38616E-03-1.32271E-13 5.38979E-13
 -1      1350 2.01065E+01 4.88976E-02 1.42806E-02 2.01561E-02-1.18634E-13 3.62911E-13
 -1      1351 2.06484E+01 1.38026E-01-3.68840E-02-2.49395E-01-2.73778E-13 3.09405E-13
 -1      1352 2.00942E+01 4.18881E-02 1.28792E-02 1.29509E-01-8.93482E-14 2.82288E-13
 -1      1353 2.02710E+01 3.02889E-02 1.13108E-02 1.44772E-01-8.95117E-14 1.53769E-13
 -1      1354 2.04395E+01 6.95680E-02-1.12454E-02 1.20334E-01-2.10946E-13 1.77058E-13
 -1      1355 2.03902E+01 2.91377E-02 7.72102E-03 2.14842E-01-4.56744E-14 1.12441E-13
 -1      1356 2.06686E+01 2.14519E-02 6.20013E-03 2.26626E-01-4.24942E-14 5.60489E-14
 -1      1357 2.05461E+01 4.41797E-02-7.13837E-03 3.35341E-01-1.32559E-13 7.04931E-14
 -1      1358 2.08746E+01 2.17583E-02 3.05858E-03 2.76448E-01-4.78055E-14 3.19345E-14
 -1      1359 2.12242E+01 1.48543E-02 2.89821E-03 2.85681E-01-3.15689E-14-2.25167E-14
 -1      1360 2.08624E+01 3.20217E-02-6.26127E-03 4.80726E-01-9.43278E-14-6.12965E-15
 -1      1361 2.14887E+01 1.48032E-02 3.44553E-04 3.19092E-01-2.34355E-14-3.44134E-14
 -1      1362 2.18850E+01 6.82442E-03 9.55909E-04 3.25143E-01-4.23676E-14-8.93070E-14
 -1      1363 2.13215E+01 2.16760E-02-5.12881E-03 5.82417E-01-6.22033E-14-8.43110E-14
 -1      1364 2.21830E+01 4.89232E-03-9.05199E-04 3.37691E-01-4.66471E-14-1.04441E-13
 -1      1365 2.25940E+01-5.55732E-03-3.59780E-05 3.38396E-01-5.08936E-14-1.94338E-13
 -1      1366 2.18730E+01 6.87509E-03-3.08764E-03 6.39932E-01-9.11119E-14-8.52790E-14
 -1      1367 2.28950E+01-1.10307E-02-6.92846E-04 3.19000E-01-3.96870E-14-2.08566E-13
 -1      1368 2.32705E+01-2.46817E-02 1.46977E-04 3.10572E-01-5.12199E-14-2.92337E-13
 -1      1369 2.24645E+01-1.76070E-02 3.84417E-04 6.35077E-01-6.62413E-14-1.07327E-13
 -1      1370 2.35330E+01-3.51492E-02 1.51547E-03 2.43431E-01-1.38604E-14-2.54335E-13
 -1      1371 2.37979E+01-5.10605E-02 2.06015E-03 2.20914E-01 3.16847E-14-2.45002E-13
 -1      1372 2.30275E+01-5.56371E-02 5.93489E-03 5.35849E-01-3.10420E-14-4.81837E-14
 -1      1373 2.39670E+01-6.64429E-02 6.14836E-03 9.13470E-02 4.67361E-14-2.88587E-13
 -1      1374 2.40244E+01-8.03039E-02 5.86891E-03 5.06642E-02-1.66533E-15-2.62970E-13
 -1      1375 2.34693E+01-1.06185E-01 1.38269E-02 3.05040E-01 2.39340E-14-1.25061E-13
 -1      1376 2.40381E+01-9.66956E-02 1.23578E-02-1.41763E-01-3.51229E-14-2.68225E-13
 -1      1377 2.37936E+01-9.95117E-02 1.02751E-02-1.99094E-01-2.21351E-14-3.29500E-13
 -1      1378 2.36751E+01-1.56925E-01 2.28837E-02-7.79496E-02-1.38639E-14-1.71759E-13
 -1      1379 2.36026E+01-1.07228E-01 1.68515E-02-4.20917E-01 1.48813E-14-3.10682E-13
 -1      1380 2.30184E+01-8.74029E-02 1.15071E-02-4.81035E-01-1.57409E-14-3.33303E-13
 -1      1381 2.35308E+01-1.78995E-01 2.91722E-02-5.77976E-01-5.20937E-15-1.70601E-13
 -1      1382 2.26232E+01-7.40384E-02 1.38540E-02-6.51563E-01-2.56639E-14-3.35842E-13
 -1      1383 2.17882E+01-2.62605E-02 4.91304E-03-6.85787E-01-6.06919E-14-3.17080E-13
 -1      1384 2.29784E+01-1.33206E-01 2.57501E-02-1.06157E+00-4.73449E-14-1.45869E-13
 -1      1385 2.12813E+01 1.19149E-02 4.00535E-04-6.98157E-01-9.34231E-14-3.41338E-13
 -1      1386 2.04424E+01 7.41868E-02-1.00252E-02-6.75094E-01-1.15498E-13-4.69742E-13
 -1      1387 2.20977E+01-2.05962E-03 6.08893E-03-1.29919E+00-1.17304E-13-1.99438E-13
 -1      1388 2.00124E+01 1.18890E-01-1.82477E-02-4.67726E-01-7.63018E-14-4.75391E-13
 -1      1389 1.95003E+01 1.63036E-01-2.53242E-02-3.81570E-01-7.79758E-14-5.58161E-13
 -1      1390 2.11637E+01 1.73825E-01-2.56684E-02-1.07369E+00-1.29129E-13-2.26498E-13
 -1      1391 1.93512E+01 1.81862E-01-2.92071E-02-1.43783E-02-7.82135E-14-6.11310E-13
 -1      1392 1.94015E+01 1.78918E-01-2.86575E-02 9.77281E-02-4.71654E-14-6.65901E-13
 -1      1393 2.05786E+01 2.98363E-01-5.07362E-02-3.71503E-01-1.06921E-13-3.09162E-13
 -1      1394 1.96169E+01 1.56118E-01-2.40942E-02 4.54576E-01-6.48405E-14-7.60000E-13
 -1      1395 2.02144E+01 1.08098E-01-1.62213E-02 5.34912E-01-3.35391E-14-8.10102E-13
 -1      1396 2.06448E+01 2.90409E-01-4.90373E-02 5.20858E-01-1.31704E-13-4.37933E-13
 -1      1397 2.06922E+01 6.28035E-02-8.26410E-03 7.18963E-01-5.11483E-15-8.67639E-13
 -1      1398 2.15820E+01 7.76317E-04 2.37377E-03 7.34826E-01-2.86637E-14-8.48967E-13
 -1      1399 2.13424E+01 1.55412E-01-2.21570E-02 1.18035E+00-7.38541E-14-6.00577E-13
 -1      1400 2.21138E+01-3.45991E-02 5.90410E-03 7.01782E-01 3.76695E-14-8.41417E-13
 -1      1401 2.29682E+01-7.93906E-02 1.46605E-02 6.63500E-01 5.08708E-15-7.57477E-13
 -1      1402 2.23458E+01-1.90173E-02 8.75595E-03 1.35100E+00 2.32329E-14-6.87339E-13
 -1      1403 2.33750E+01-8.93857E-02 1.13667E-02 4.84963E-01 4.00843E-14-6.60236E-13
 -1      1404 2.39654E+01-1.06180E-01 1.64703E-02 4.24876E-01 5.43003E-14-6.18214E-13
 -1      1405 2.32596E+01-1.40351E-01 2.63301E-02 1.07888E+00 9.99895E-14-6.03661E-13
 -1      1406 2.41676E+01-9.63372E-02 9.45370E-03 2.07335E-01 1.01481E-15-5.57859E-13
 -1      1407 2.44241E+01-9.19020E-02 1.15134E-02 1.52633E-01-1.07926E-14-5.67690E-13
 -1      1408 2.38326E+01-1.75761E-01 2.82795E-02 5.91881E-01 3.05832E-14-5.20734E-13
 -1      1409 2.44295E+01-7.47837E-02 4.86818E-03-2.88971E-02 5.92920E-14-5.05455E-13
 -1      1410 2.44007E+01-6.07927E-02 5.25281E-03-6.61822E-02 7.25782E-14-4.32321E-13
 -1      1411 2.40059E+01-1.47967E-01 2.13802E-02 1.10935E-01 6.54511E-14-3.95147E-13
 -1      1412 2.42612E+01-4.54221E-02 1.05132E-03-1.83682E-01 2.54441E-14-4.20821E-13
 -1      1413 2.40442E+01-3.04232E-02 6.97544E-04-2.03138E-01-5.77273E-15-3.98785E-13
 -1      1414 2.38478E+01-9.59012E-02 1.24004E-02-2.44249E-01 6.00674E-14-2.00844E-13
 -1      1415 2.38204E+01-2.01669E-02-9.32146E-04-2.60427E-01 2.15947E-14-4.08406E-13
 -1      1416 2.35091E+01-8.10785E-03-1.57722E-03-2.66608E-01 6.63579E-14-3.01679E-13
 -1      1417 2.34729E+01-4.67383E-02 4.95474E-03-4.48997E-01 4.14590E-14-2.36925E-13
 -1      1418 2.32514E+01-2.81422E-03-1.41158E-03-2.80196E-01 1.29539E-13-2.73493E-13
 -1      1419 2.29154E+01 5.45389E-03-2.18954E-03-2.78257E-01 8.35249E-14-1.76912E-13
 -1      1420 2.29895E+01-1.13629E-02 2.41705E-05-5.29946E-01 8.80422E-14-2.19966E-13
 -1      1421 2.26585E+01 7.20836E-03-1.09316E-03-2.65396E-01 4.21205E-14-1.95718E-13
 -1      1422 2.23401E+01 1.22320E-02-1.93772E-03-2.59344E-01-5.01514E-14-1.89236E-13
 -1      1423 2.24794E+01 9.68414E-03-2.70660E-03-5.28129E-01 4.85566E-14-3.57138E-13
 -1      1424 2.21047E+01 1.19035E-02-5.33065E-04-2.33311E-01-3.08278E-14-1.56500E-13
 -1      1425 2.18251E+01 1.45891E-02-1.39014E-03-2.25744E-01 3.09735E-15-2.36611E-13
 -1      1426 2.19946E+01 1.98784E-02-3.90883E-03-4.79922E-01-1.30310E-14-2.97503E-13
 -1      1427 2.16208E+01 1.32486E-02-2.73035E-05-1.95207E-01-6.20623E-14-1.49552E-13
 -1      1428 2.13874E+01 1.44142E-02-8.44256E-04-1.87605E-01-2.98442E-14-1.27258E-13
 -1      1429 2.15631E+01 2.31421E-02-4.18627E-03-4.11243E-01-4.12311E-14-9.18421E-14
 -1      1430 2.12172E+01 1.27257E-02 3.22303E-04-1.57560E-01-7.77627E-14-1.98639E-13
 -1      1431 2.10294E+01 1.29786E-02-4.13098E-04-1.50661E-01-1.50200E-13-2.96593E-13
 -1      1432 2.11963E+01 2.25298E-02-3.96497E-03-3.38154E-01-9.74331E-14-1.43391E-13
 -1      1433 2.08917E+01 1.13037E-02 5.15634E-04-1.23612E-01-8.73073E-14-3.09535E-13
 -1      1434 2.07449E+01 1.10518E-02-1.14330E-04-1.17711E-01-8.10289E-15-3.49987E-13
 -1      1435 2.08950E+01 2.00549E-02-3.51087E-03-2.69445E-01-2.31779E-13-6.36987E-14
 -1      1436 2.06365E+01 9.55985E-03 5.89767E-04-9.46442E-02 1.09306E-13-4.81096E-13
 -1      1437 2.05245E+01 9.06057E-03 7.22995E-05-8.97913E-02 6.29245E-14-2.50019E-13
 -1      1438 2.06542E+01 1.69096E-02-2.97764E-03-2.09191E-01 3.65120E-14-2.16007E-13
 -1      1439 2.04410E+01 7.81139E-03 5.86128E-04-7.08385E-02-2.07220E-14-1.77087E-13
 -1      1440 2.03576E+01 7.21960E-03 1.75998E-04-6.69613E-02-4.01220E-15-2.56630E-13
 -1      1441 2.04663E+01 1.37388E-02-2.44856E-03-1.58681E-01 6.73814E-14-3.10312E-13
 -1      1442 2.02946E+01 6.21593E-03 5.38213E-04-5.18204E-02-1.25553E-14-1.91362E-13
 -1      1443 2.02340E+01 5.62019E-03 2.23233E-04-4.87945E-02-4.88847E-14-2.47850E-13
 -1      1444 2.03229E+01 1.08546E-02-1.96515E-03-1.17691E-01-3.00092E-14-2.60745E-13
 -1      1445 2.01875E+01 4.83821E-03 4.69405E-04-3.69747E-02-4.52220E-14-1.72283E-13
 -1      1446 2.01445E+01 4.28559E-03 2.34495E-04-3.46612E-02-3.75080E-14-2.80607E-13
 -1      1447 2.02156E+01 8.37993E-03-1.54492E-03-8.52625E-02 6.21074E-15-9.91972E-14
 -1      1448 2.01111E+01 3.69169E-03 3.94530E-04-2.56208E-02-1.32699E-14-3.46245E-13
 -1      1449 2.00815E+01 3.20404E-03 2.24422E-04-2.38862E-02 1.45256E-15-3.60475E-13
 -1      1450 2.01372E+01 6.33673E-03-1.19192E-03-6.01575E-02-1.00958E-13-1.85200E-13
 -1      1451 2.00581E+01 2.76348E-03 3.22184E-04-1.71049E-02-2.93965E-14-4.69954E-13
 -1      1452 2.00386E+01 2.34779E-03 2.02909E-04-1.58296E-02-6.84657E-14-4.70693E-13
 -1      1453 2.00813E+01 4.69658E-03-9.03014E-04-4.11037E-02-8.83448E-14-3.05494E-13
 -1      1454 2.00227E+01 2.02878E-03 2.56787E-04-1.08421E-02 1.09994E-14-3.92278E-13
 -1      1455 2.00105E+01 1.68357E-03 1.76336E-04-9.92387E-03 5.83256E-14-4.39473E-13
 -1      1456 2.00426E+01 3.40970E-03-6.71643E-04-2.69201E-02-2.71886E-14-4.19737E-13
 -1      1457 2.00002E+01 1.45876E-03 2.00132E-04-6.33171E-03-1.36294E-13-4.21075E-13
 -1      1458 1.99933E+01 1.17802E-03 1.48609E-04-5.68595E-03-1.60453E-13-6.41524E-13
 -1      1459 2.00169E+01 2.42025E-03-4.89906E-04-1.65712E-02-5.12193E-14-3.96431E-13
 -1      1460 1.99872E+01 1.02475E-03 1.52457E-04-3.15892E-03-8.21926E-15-7.26543E-13
 -1      1461 1.99839E+01 8.00223E-04 1.21958E-04-2.71712E-03-8.99226E-14-8.50144E-13
 -1      1462 2.00007E+01 1.67401E-03-3.49719E-04-9.18310E-03-1.86285E-13-4.36606E-13
 -1      1463 1.99807E+01 7.00098E-04 1.13142E-04-9.88747E-04-2.41819E-14-8.00261E-13
 -1      1464 1.99799E+01 5.22698E-04 9.74992E-05-6.96865E-04-7.75753E-15-7.30416E-13
 -1      1465 1.99913E+01 1.12170E-03-2.43426E-04-4.03949E-03-5.45863E-14-4.40466E-13
 -1      1466 1.99787E+01 4.60991E-04 8.11506E-05 4.42194E-04 1.03477E-13-7.35196E-13
 -1      1467 1.99795E+01 3.21528E-04 7.56505E-05 6.25639E-04 1.95021E-13-5.55921E-13
 -1      1468 1.99868E+01 7.20002E-04-1.64084E-04-5.68675E-04 1.29233E-13-4.21010E-13
 -1      1469 1.99796E+01 2.86400E-04 5.53604E-05 1.33443E-03 1.98480E-13-4.39211E-13
 -1      1470 1.99815E+01 1.75917E-04 5.65131E-05 1.44004E-03 1.94452E-13-1.52841E-13
 -1      1471 1.99855E+01 4.31360E-04-1.05528E-04 1.67238E-03 3.43454E-13-2.69920E-13
 -1      1472 1.99824E+01 1.57519E-04 3.49384E-05 1.83321E-03 1.58565E-13-2.13481E-13
 -1      1473 1.99848E+01 6.73474E-05 4.04302E-05 1.88189E-03 1.30053E-13-1.15824E-13
 -1      1474 1.99865E+01 2.22712E-04-6.22704E-05 3.01339E-03 3.02773E-13-1.30765E-13
 -1      1475 1.99862E+01 5.68188E-05 2.00016E-05 2.03378E-03 1.81243E-13-1.04142E-13
 -1      1476 1.99888E+01-2.15463E-05 2.88571E-05 2.03730E-03 1.72431E-13 1.54410E-13
 -1      1477 1.99887E+01 6.37104E-05-2.91599E-05 3.68278E-03 2.59432E-13 6.63191E-14
 -1      1478 1.99904E+01-3.33959E-05 1.28364E-05 1.98364E-03 2.94470E-14 9.84466E-14
 -1      1479 1.99928E+01-1.08273E-04 2.53673E-05 1.94362E-03-1.04398E-13 9.42064E-14
 -1      1480 1.99915E+01-7.63402E-05-1.00165E-06 3.81555E-03 1.14556E-13-2.12234E-13
 -1      1481 1.99943E+01-1.32990E-04 1.80279E-05 1.68236E-03-7.85307E-14 1.48749E-13
 -1      1482 1.99963E+01-2.10170E-04 2.89689E-05 1.58686E-03-2.59480E-14 1.38167E-13
 -1      1483 1.99944E+01-2.32961E-04 2.60869E-05 3.45309E-03-8.42039E-14-1.03688E-13
 -1      1484 1.99975E+01-2.66569E-04 3.13359E-05 1.08233E-03-1.04711E-13 2.82118E-13
 -1      1485 1.99987E+01-3.04973E-04 2.75987E-05 9.32592E-04-1.19865E-13 1.72750E-13
 -1      1486 1.99970E+01-4.52607E-04 5.03560E-05 2.56969E-03-8.31302E-14 1.21942E-14
 -1      1487 1.99997E+01-1.99889E-04 4.88108E-05 8.61052E-05-1.48634E-13 1.93976E-13
 -1      1488 1.99992E+01-6.64358E-04 4.51372E-05 9.63514E-04-1.25342E-13 1.45806E-13
 -1      1489 2.07514E+01 7.37426E-02-1.46272E-01 3.77192E-01 1.59699E-13 1.76582E-12
 -1      1490 2.18565E+01 2.16715E-01-2.27319E-01 6.07426E-01 1.44745E-13 2.01013E-12
 -1      1491 2.20890E+01 8.54148E-01-8.97266E-02 1.84941E+00 2.81684E-13 1.38589E-12
 -1      1492 2.00923E+01 3.45114E-02-1.92818E-02 7.97591E-02 1.26038E-13 1.42699E-12
 -1      1493 2.03636E+01 1.16461E-01-5.90439E-02 1.33102E-01 1.21455E-13 1.62300E-12
 -1      1494 2.08889E+01 1.82364E-01-5.64445E-02 5.83108E-01 2.51701E-13 1.11525E-12
 -1      1495 2.00069E+01 1.95556E-02 5.34964E-03-6.60703E-02 8.25104E-14 1.18888E-12
 -1      1496 1.99854E+01 5.85064E-02 2.77379E-03-3.48562E-02 8.82593E-14 1.32853E-12
 -1      1497 2.03951E+01 7.60732E-02-1.44372E-02 8.26867E-02 1.91314E-13 9.04912E-13
 -1      1498 2.02415E+01 1.28821E-02 5.55509E-03-1.50592E-01 6.78524E-14 1.01910E-12
 -1      1499 2.00698E+01 3.57860E-02 1.17100E-02-1.28899E-01 5.16063E-14 1.11665E-12
 -1      1500 2.03468E+01 4.06582E-02-5.81775E-03-1.66028E-01 1.31326E-13 7.35717E-13
 -1      1501 2.06747E+01 9.13904E-03 2.97383E-03-2.07040E-01 1.47122E-14 9.21221E-13
 -1      1502 2.04098E+01 2.53624E-02 8.62764E-03-1.90186E-01 3.02753E-14 9.65367E-13
 -1      1503 2.05651E+01 2.55307E-02-5.67033E-03-3.16296E-01 7.81901E-14 6.01940E-13
 -1      1504 2.12393E+01 5.57487E-03 1.69272E-03-2.45180E-01 4.25497E-14 8.44418E-13
 -1      1505 2.09117E+01 1.83657E-02 5.22681E-03-2.31879E-01 2.41424E-14 8.80952E-13
 -1      1506 2.09543E+01 1.64933E-02-5.92024E-03-4.16011E-01 3.99511E-14 5.40967E-13
 -1      1507 2.18810E+01 5.86223E-04 1.96615E-03-2.64194E-01 7.11911E-14 7.33759E-13
 -1      1508 2.15171E+01 1.07905E-02 3.18668E-03-2.55265E-01 4.57747E-14 8.12496E-13
 -1      1509 2.14525E+01 7.48081E-03-5.10321E-03-4.77313E-01 8.48711E-14 4.88125E-13
 -1      1510 2.25366E+01-7.10254E-03 3.92050E-03-2.56277E-01 3.56482E-14 6.18795E-13
 -1      1511 2.21699E+01-1.79976E-04 2.25558E-03-2.54370E-01 4.59698E-14 6.89141E-13
 -1      1512 2.20051E+01-5.25369E-03-2.79417E-03-4.94475E-01 8.72542E-14 4.29348E-13
 -1      1513 2.31181E+01-1.82502E-02 7.90493E-03-2.08354E-01 5.04098E-14 5.62760E-13
 -1      1514 2.27985E+01-1.67021E-02 2.34646E-03-2.17837E-01 2.73774E-14 6.10949E-13
 -1      1515 2.25488E+01-2.45852E-02 1.54097E-03-4.49652E-01 6.07882E-14 3.79950E-13
 -1      1516 2.35056E+01-3.21215E-02 1.38685E-02-1.05824E-01-2.54050E-15 5.41258E-13
 -1      1517 2.33028E+01-3.93218E-02 3.61762E-03-1.31898E-01 2.54588E-14 5.55648E-13
 -1      1518 2.30007E+01-5.16992E-02 8.28370E-03-3.18010E-01 3.80581E-14 4.01663E-13
 -1      1519 2.35559E+01-4.49423E-02 2.02743E-02 5.84618E-02-4.37783E-14 5.84723E-13
 -1      1520 2.35543E+01-6.47660E-02 5.98160E-03 1.23878E-02-2.65300E-14 5.52271E-13
 -1      1521 2.32572E+01-8.34610E-02 1.68292E-02-7.88708E-02-3.89255E-14 4.20953E-13
 -1      1522 2.31417E+01-4.88494E-02 2.30943E-02 2.68753E-01 2.10717E-14 5.93185E-13
 -1      1523 2.34160E+01-8.34455E-02 8.40200E-03 2.05944E-01-2.22738E-15 5.71366E-13
 -1      1524 2.32090E+01-1.08856E-01 2.45825E-02 2.62650E-01-1.85980E-14 4.00532E-13
 -1      1525 2.22275E+01-3.40115E-02 1.63530E-02 4.70251E-01 5.51243E-14 4.86194E-13
 -1      1526 2.27961E+01-7.98821E-02 8.29336E-03 4.06073E-01 2.82569E-14 5.47062E-13
 -1      1527 2.27810E+01-1.07406E-01 2.68849E-02 6.46591E-01 5.05464E-14 3.34351E-13
 -1      1528 2.09612E+01 3.59464E-03-3.71193E-03 5.70633E-01 6.76084E-14 3.89633E-13
 -1      1529 2.17309E+01-4.06377E-02 2.36318E-03 5.32490E-01 8.05011E-14 4.66086E-13
 -1      1530 2.19964E+01-5.79466E-02 1.84742E-02 9.41334E-01 1.19418E-13 2.70818E-13
 -1      1531 1.97106E+01 5.19624E-02-3.16117E-02 4.80939E-01-1.34051E-14 3.06859E-13
 -1      1532 2.04578E+01 3.03733E-02-9.82281E-03 4.95877E-01 4.04451E-14 3.40533E-13
 -1      1533 2.10357E+01 4.22582E-02-6.54307E-04 9.77394E-01 8.22259E-14 3.40825E-13
 -1      1534 1.89558E+01 8.41483E-02-5.09422E-02 1.90637E-01 2.34916E-14 3.23271E-13
 -1      1535 1.93956E+01 1.02150E-01-2.24446E-02 2.63140E-01-2.25271E-14 2.66516E-13
 -1      1536 2.02270E+01 1.55945E-01-2.14474E-02 6.51350E-01-1.17302E-14 2.77334E-13
 -1      1537 1.90367E+01 7.85034E-02-4.70758E-02-1.91196E-01 1.05929E-13 1.62384E-13
 -1      1538 1.89739E+01 1.33205E-01-2.62085E-02-9.02423E-02 7.21923E-14 2.51699E-13
 -1      1539 1.99109E+01 2.16227E-01-3.19837E-02 4.13999E-02 8.21912E-14 1.47550E-13
 -1      1540 1.99336E+01 3.91832E-02-2.13623E-02-4.92702E-01-5.16575E-14-5.69683E-15
 -1      1541 1.93877E+01 1.05611E-01-1.70232E-02-4.09102E-01 4.76546E-14 5.83422E-14
 -1      1542 2.02395E+01 1.79628E-01-2.77966E-02-5.96553E-01 1.53001E-13 1.08861E-13
 -1      1543 2.12793E+01-7.76749E-03 9.70426E-03-5.97406E-01 4.09221E-14 6.78901E-14
 -1      1544 2.04712E+01 4.07927E-02-4.85358E-04-5.61619E-01-6.12609E-14 3.74700E-14
 -1      1545 2.10760E+01 6.87137E-02-1.47008E-02-9.88972E-01-6.03302E-14 2.23849E-14
 -1      1546 2.25960E+01-3.87211E-02 2.94932E-02-5.08809E-01-1.18693E-13 1.41859E-13
 -1      1547 2.18083E+01-2.21663E-02 1.34021E-02-5.20744E-01-2.42835E-14 1.36030E-13
 -1      1548 2.20906E+01-4.78978E-02-1.66213E-03-1.02176E+00-5.04197E-14 6.60999E-14
 -1      1549 2.35386E+01-4.70162E-02 3.31314E-02-3.13608E-01 4.25927E-14 3.17683E-13
 -1      1550 2.29737E+01-5.77548E-02 1.86076E-02-3.52836E-01-5.21744E-14 2.28588E-13
 -1      1551 2.29560E+01-1.16020E-01 6.18373E-03-7.71227E-01-1.03759E-13 1.92997E-13
 -1      1552 2.39864E+01-3.95352E-02 2.56935E-02-1.06259E-01 1.09671E-13 1.06947E-13
 -1      1553 2.37137E+01-6.38895E-02 1.59225E-02-1.50699E-01 1.14478E-13 3.32706E-13
 -1      1554 2.34839E+01-1.26264E-01 8.56408E-03-4.02449E-01 1.04864E-13 2.87106E-13
 -1      1555 2.39927E+01-2.60366E-02 1.48824E-02 5.61532E-02 1.73386E-15-2.39435E-14
 -1      1556 2.39786E+01-5.18217E-02 9.61844E-03 1.99564E-02 4.53327E-14 5.17676E-14
 -1      1557 2.36417E+01-9.98356E-02 7.59152E-03-5.68518E-02 1.50213E-13 1.05408E-13
 -1      1558 2.36903E+01-1.32104E-02 5.67844E-03 1.56883E-01-1.02622E-14 4.62373E-14
 -1      1559 2.38548E+01-3.37363E-02 3.58938E-03 1.33220E-01-5.46182E-14-6.26027E-14
 -1      1560 2.34972E+01-6.19502E-02 5.44949E-03 1.93860E-01-3.84345E-14-6.25576E-14
 -1      1561 2.32174E+01-3.77577E-03-2.82067E-04 2.03503E-01-1.03081E-13 1.50888E-13
 -1      1562 2.34786E+01-1.71902E-02-4.32142E-04 1.91199E-01-4.29214E-14 4.98646E-14
 -1      1563 2.31548E+01-2.84234E-02 3.35447E-03 3.37908E-01-9.80544E-14-7.32131E-14
 -1      1564 2.26832E+01 2.04760E-03-3.31643E-03 2.12002E-01 1.07736E-13 1.05728E-13
 -1      1565 2.29775E+01-5.05917E-03-2.37413E-03 2.07934E-01 3.15373E-14 1.99682E-13
 -1      1566 2.27128E+01-4.88025E-03 1.75326E-03 3.95014E-01-1.60643E-14 4.10262E-14
 -1      1567 2.21595E+01 5.04642E-03-4.37090E-03 1.97791E-01 8.33559E-14-2.47094E-13
 -1      1568 2.24461E+01 2.53899E-03-2.86371E-03 1.98841E-01 1.48068E-13 4.95107E-14
 -1      1569 2.22457E+01 8.97496E-03 6.80914E-04 3.93487E-01 2.33142E-13 6.40547E-16
 -1      1570 2.16866E+01 6.16835E-03-4.32236E-03 1.72451E-01-3.19655E-15-1.62402E-13
 -1      1571 2.19433E+01 6.58133E-03-2.58210E-03 1.76224E-01-6.13308E-14-2.49926E-13
 -1      1572 2.18014E+01 1.55928E-02 2.24891E-05 3.58448E-01 1.49099E-15-1.43362E-13
 -1      1573 2.12821E+01 6.18554E-03-3.77196E-03 1.43501E-01-2.57382E-14-7.06180E-14
 -1      1574 2.14998E+01 8.21419E-03-2.01055E-03 1.48404E-01 3.60389E-16-7.91841E-14
 -1      1575 2.14059E+01 1.75723E-02-3.51043E-04 3.08106E-01-5.53899E-14 7.63556E-14
 -1      1576 2.09497E+01 5.63043E-03-3.06617E-03 1.15285E-01-1.11569E-14-1.57401E-13
 -1      1577 2.11270E+01 8.38304E-03-1.41458E-03 1.20360E-01 2.13583E-14-1.37698E-13
 -1      1578 2.10699E+01 1.69296E-02-5.40122E-04 2.54035E-01 2.13664E-14 1.22574E-13
 -1      1579 2.06848E+01 4.83457E-03-2.37797E-03 8.99911E-02-3.50458E-14-2.14404E-13
 -1      1580 2.08248E+01 7.75637E-03-9.08737E-04 9.47192E-02-3.73605E-15-2.39016E-13
 -1      1581 2.07945E+01 1.50114E-02-6.13471E-04 2.02778E-01 6.45148E-14-4.78188E-14
 -1      1582 2.04793E+01 3.98838E-03-1.77962E-03 6.84790E-02-5.61281E-14-1.42914E-13
 -1      1583 2.05869E+01 6.76455E-03-5.23504E-04 7.26205E-02-1.49598E-13-2.97342E-13
 -1      1584 2.05751E+01 1.26317E-02-6.16137E-04 1.57514E-01-1.42255E-13-2.91887E-13
 -1      1585 2.03238E+01 3.19213E-03-1.29122E-03 5.08509E-02 3.00523E-14 4.93403E-14
 -1      1586 2.04044E+01 5.66537E-03-2.50875E-04 5.43311E-02 3.82512E-14-2.75394E-14
 -1      1587 2.04046E+01 1.02417E-02-5.77618E-04 1.19367E-01 2.49098E-14-3.85712E-13
 -1      1588 2.02088E+01 2.49189E-03-9.08656E-04 3.68160E-02-1.08483E-13 6.18611E-14
 -1      1589 2.02677E+01 4.60233E-03-6.95953E-05 3.96517E-02-4.04624E-14 1.21686E-13
 -1      1590 2.02752E+01 8.06653E-03-5.17407E-04 8.82963E-02-1.47623E-13-1.06765E-13
 -1      1591 2.01260E+01 1.90266E-03-6.18103E-04 2.59092E-02 1.00467E-13-7.79231E-14
 -1      1592 2.01679E+01 3.64717E-03 4.30823E-05 2.81631E-02 6.78923E-14-2.03604E-14
 -1      1593 2.01793E+01 6.19858E-03-4.48302E-04 6.36666E-02 8.25847E-14-1.92439E-13
 -1      1594 2.00680E+01 1.42249E-03-4.03163E-04 1.76166E-02 4.93686E-14-3.09406E-13
 -1      1595 2.00969E+01 2.82855E-03 1.06893E-04 1.93702E-02 8.35551E-14-2.16243E-13
 -1      1596 2.01099E+01 4.65648E-03-3.78462E-04 4.45920E-02 1.90409E-13-2.34569E-13
 -1      1597 2.00289E+01 1.04113E-03-2.48118E-04 1.14432E-02 1.20989E-13-3.79642E-13
 -1      1598 2.00480E+01 2.15039E-03 1.37411E-04 1.27812E-02-1.68198E-14-2.39732E-13
 -1      1599 2.00611E+01 3.42065E-03-3.12809E-04 3.01321E-02-3.10590E-14-1.84699E-13
 -1      1600 2.00038E+01 7.44937E-04-1.39272E-04 6.94545E-03-1.39098E-13-3.68361E-13
 -1      1601 2.00157E+01 1.60351E-03 1.46249E-04 7.94759E-03 6.46320E-14-2.99514E-13
 -1      1602 2.00280E+01 2.45425E-03-2.54045E-04 1.93972E-02 7.25838E-14-1.98360E-13
 -1      1603 1.99888E+01 5.19592E-04-6.52860E-05 3.74405E-03-1.72862E-13 1.01902E-13
 -1      1604 1.99955E+01 1.17251E-03 1.41715E-04 4.48091E-03-1.52442E-13-1.87899E-13
 -1      1605 2.00065E+01 1.71497E-03-2.03364E-04 1.15979E-02-2.05680E-13 9.80905E-14
 -1      1606 1.99810E+01 3.51484E-04-1.70541E-05 1.52522E-03-4.59989E-14 1.74898E-13
 -1      1607 1.99842E+01 8.39780E-04 1.29550E-04 2.05697E-03-4.32217E-14 7.65763E-14
 -1      1608 1.99936E+01 1.16116E-03-1.60956E-04 6.06342E-03-1.10641E-13 1.80169E-13
 -1      1609 1.99782E+01 2.28264E-04 1.25979E-05 3.70777E-05 1.27505E-13 5.67384E-14
 -1      1610 1.99789E+01 5.87641E-04 1.13575E-04 4.13305E-04 9.13062E-15 6.25603E-14
 -1      1611 1.99867E+01 7.54678E-04-1.26353E-04 2.24238E-03 4.68670E-14 2.14920E-14
 -1      1612 1.99787E+01 1.38957E-04 2.92968E-05-9.16404E-04-9.67426E-14-3.17769E-14
 -1      1613 1.99778E+01 3.99322E-04 9.62242E-05-6.56271E-04-1.47730E-14 8.28813E-14
 -1      1614 1.99840E+01 4.61888E-04-9.86391E-05-3.05021E-04-1.45632E-14 8.56452E-14
 -1      1615 1.99813E+01 7.38139E-05 3.76542E-05-1.48154E-03 3.36925E-13-1.94921E-13
 -1      1616 1.99794E+01 2.59220E-04 7.90201E-05-1.30763E-03 1.97795E-13 2.88502E-14
 -1      1617 1.99842E+01 2.53515E-04-7.65231E-05-1.91752E-03 1.61949E-13 1.25825E-13
 -1      1618 1.99851E+01 2.36309E-05 4.22860E-05-1.75992E-03 6.55504E-14-5.52648E-13
 -1      1619 1.99827E+01 1.52380E-04 6.31810E-05-1.65171E-03 1.39629E-13-3.80162E-13
 -1      1620 1.99861E+01 1.03960E-04-5.79785E-05-2.84328E-03 3.19027E-13 2.35333E-14
 -1      1621 1.99893E+01-2.03956E-05 4.87582E-05-1.81032E-03 1.34154E-13-7.36973E-13
 -1      1622 1.99867E+01 6.36716E-05 5.05015E-05-1.75714E-03 8.14446E-14-5.18110E-13
 -1      1623 1.99890E+01-1.10001E-05-3.98295E-05-3.24700E-03 1.77860E-13-3.53967E-13
 -1      1624 1.99935E+01-6.81950E-05 6.27524E-05-1.64988E-03-3.88150E-14-7.02335E-13
 -1      1625 1.99910E+01-2.31501E-05 4.39222E-05-1.65234E-03 2.86323E-15-7.26158E-13
 -1      1626 1.99922E+01-1.15348E-04-1.75521E-05-3.21420E-03 6.27874E-14-2.19686E-13
 -1      1627 1.99970E+01-1.31454E-04 8.02104E-05-1.24729E-03-2.01961E-14-7.30216E-13
 -1      1628 1.99950E+01-1.28351E-04 4.51476E-05-1.32478E-03 3.86622E-14-6.49386E-13
 -1      1629 1.99954E+01-2.38318E-04 1.21893E-05-2.75154E-03-2.30990E-14-1.06910E-14
 -1      1630 1.99991E+01-2.20229E-04 3.81442E-05-5.86538E-04-1.40579E-13-7.30898E-13
 -1      1631 1.99980E+01-2.50408E-04 4.48259E-05-7.39679E-04-7.42708E-14-8.86051E-13
 -1      1632 1.99979E+01-4.14692E-04 4.11487E-05-1.80947E-03-6.05208E-15-1.11716E-13
 -1      1633 1.99996E+01-2.26273E-04 3.51642E-05-1.16460E-04-4.08878E-13-5.35332E-13
 -1      1634 1.99996E+01-2.29310E-03 3.39991E-05-1.08262E-03-4.44279E-13 2.67899E-13
 -1      1635 1.99995E+01-1.15760E-03 1.09844E-05-9.05394E-04-6.06516E-13 1.35087E-13
 -1      1636 1.99997E+01-5.21765E-03 4.75964E-06-1.52559E-03-5.80447E-14 2.47068E-13
 -1      1637 1.99996E+01-3.42933E-03 2.03221E-05-1.46922E-03-3.61026E-13 1.11528E-13
 -1      1638 1.99994E+01-2.81577E-03 3.47003E-05-2.43690E-03-6.13739E-14 3.09176E-13
 -1      1639 1.99998E+01-8.49320E-03-1.09387E-05-1.61755E-03 1.11350E-13 1.56085E-14
 -1      1640 1.99998E+01-6.52737E-03 4.47919E-06-1.62774E-03-2.38086E-14 1.41763E-13
 -1      1641 1.99997E+01-5.22211E-03 8.78855E-06-3.01096E-03 4.81950E-14 2.73858E-13
 -1      1642 1.99999E+01-1.16045E-02-1.46099E-05-1.46413E-03 1.63844E-13 6.05684E-14
 -1      1643 1.99999E+01-9.78892E-03-3.75399E-06-1.51367E-03 1.06642E-13 2.68798E-13
 -1      1644 1.99999E+01-7.77411E-03-1.54915E-05-2.99679E-03 1.21279E-14 8.96838E-15
 -1      1645 1.99999E+01-1.41584E-02-1.27210E-05-1.16895E-03-3.40369E-13-1.18381E-13
 -1      1646 1.99999E+01-1.27086E-02-4.39000E-06-1.23671E-03 7.81244E-14-3.86264E-13
 -1      1647 2.00000E+01-1.01171E-02-3.10878E-05-2.59038E-03-1.34459E-13-3.23960E-13
 -1      1648 2.00000E+01-1.60380E-02-9.00629E-06-7.92035E-04-3.85610E-13-7.45092E-14
 -1      1649 1.99999E+01-1.50160E-02-3.84377E-06-8.70150E-04-2.78681E-13-1.12267E-13
 -1      1650 2.00000E+01-1.20244E-02-3.75463E-05-1.95888E-03-1.72896E-13-2.67583E-13
 -1      1651 2.00000E+01-1.70862E-02-5.57772E-06-3.80826E-04-3.95878E-13 1.57922E-14
 -1      1652 2.00000E+01-1.65672E-02-2.92844E-06-4.61839E-04-4.35251E-13 1.42565E-13
 -1      1653 2.00001E+01-1.33669E-02-4.03913E-05-1.20612E-03-1.08954E-13-8.67936E-14
 -1      1654 2.00000E+01-1.72625E-02-3.47741E-06 4.21702E-05-5.63269E-13-3.46722E-13
 -1      1655 2.00000E+01-1.72642E-02-3.48824E-06-3.94930E-05-4.30044E-13-3.22299E-14
 -1      1656 2.00001E+01-1.40514E-02-4.11810E-05-4.04583E-04-8.67844E-14-1.06632E-13
 -1      1657 2.00000E+01-1.65592E-02-2.90355E-06 4.64908E-04-9.31390E-13-7.98176E-14
 -1      1658 2.00000E+01-1.70823E-02-5.66525E-06 3.83787E-04-6.45743E-13-2.29527E-13
 -1      1659 2.00001E+01-1.40495E-02-4.12363E-05 4.10005E-04-1.70896E-13-4.33642E-13
 -1      1660 1.99999E+01-1.50006E-02-3.65352E-06 8.74044E-04-1.28935E-12-1.82897E-13
 -1      1661 2.00000E+01-1.60274E-02-9.38689E-06 7.95893E-04-9.75618E-13-1.40063E-13
 -1      1662 2.00001E+01-1.33606E-02-4.04656E-05 1.21290E-03-4.45103E-13-2.59499E-13
 -1      1663 1.99999E+01-1.27047E-02-4.95858E-06 1.23760E-03-1.43182E-12-4.20097E-14
 -1      1664 1.99999E+01-1.41586E-02-1.31426E-05 1.17015E-03-1.20075E-12-3.77766E-13
 -1      1665 2.00000E+01-1.20268E-02-3.78067E-05 1.96218E-03-5.89378E-13-3.46530E-13
 -1      1666 1.99999E+01-9.75318E-03-3.71258E-06 1.51876E-03-1.15318E-12 1.68562E-13
 -1      1667 1.99999E+01-1.15768E-02-1.51227E-05 1.46926E-03-1.44436E-12 4.61681E-13
 -1      1668 2.00000E+01-1.01149E-02-3.06370E-05 2.59623E-03-6.77471E-13 2.46943E-13
 -1      1669 1.99998E+01-6.49049E-03 2.61240E-06 1.63701E-03-6.19945E-13 4.21456E-13
 -1      1670 1.99998E+01-8.45598E-03-1.11185E-05 1.62235E-03-9.97080E-13 3.34097E-13
 -1      1671 1.99999E+01-7.74843E-03-1.54539E-05 3.00520E-03-4.08157E-13 4.89408E-13
 -1      1672 1.99996E+01-3.44600E-03 2.42245E-06 1.46068E-03-1.96100E-13 2.67459E-13
 -1      1673 1.99997E+01-5.18646E-03 2.12541E-06 1.51597E-03-5.03156E-13 3.23136E-13
 -1      1674 1.99997E+01-5.18197E-03 7.45642E-06 3.01310E-03-2.77828E-13 5.71938E-13
 -1      1675 1.99994E+01-1.39893E-03-1.68045E-05 1.25795E-03-9.03722E-14-4.66239E-14
 -1      1676 1.99995E+01-2.51902E-03 8.74141E-07 1.52096E-03-7.31816E-14 3.96176E-14
 -1      1677 1.99994E+01-2.91873E-03 6.02005E-05 2.79675E-03-1.51789E-13 2.37013E-13
 -1      1678 1.99985E+01-1.31468E-03 2.08866E-05 2.38002E-03-1.51794E-13-1.12572E-13
 -1      1679-4.67261E-01-1.35116E+01-1.47849E+00-7.05923E-01 3.20022E-13 3.73535E-13
 -1      1680-5.26215E-01-1.57501E+01-1.68027E+00 4.80393E-01-9.66172E-14 2.17826E-13
 -1      1681 1.79744E+00-7.65989E+00-1.05229E+00 9.63953E-01 1.05882E-12 9.64839E-13
 -1      1682 1.01047E+00-1.23445E+01-1.51485E+00 3.72241E-01 4.76841E-13 6.12184E-13
 -1      1683 7.99839E+00-4.10250E-01-4.31234E-01 5.06437E+00 1.43796E-12 1.22335E-12
 -1      1684 4.62996E+00-5.98508E+00-1.16687E+00 2.11663E+00 1.21481E-12 8.91787E-13
 -1      1685 1.77506E+01 5.14953E+00 2.67161E-01 9.76016E+00 1.47371E-12 1.62936E-12
 -1      1686 1.13901E+01 1.93821E+00-5.89757E-01 6.20674E+00 1.57663E-12 1.39633E-12
 -1      1687 3.13137E+01 6.47307E+00 9.87453E-01 1.25436E+01 1.14542E-12 1.72129E-12
 -1      1688 2.27377E+01 6.08086E+00 1.70657E-01 1.05898E+01 1.36802E-12 1.69109E-12
 -1      1689 4.50823E+01 5.16611E+00 1.57673E+00 1.08511E+01 7.46708E-13 1.28797E-12
 -1      1690 3.63693E+01 6.66291E+00 9.19651E-01 1.21584E+01 1.07464E-12 1.62403E-12
 -1      1691 5.36774E+01 3.64196E+00 1.84574E+00 4.26813E+00 5.01127E-13 3.73368E-13
 -1      1692 4.85899E+01 4.97367E+00 1.50302E+00 8.76441E+00 6.90545E-13 1.04139E-12
 -1      1693 5.40905E+01 3.78566E+00 1.75649E+00-4.17353E+00 5.00960E-13-7.37743E-13
 -1      1694 5.51601E+01 3.54398E+00 1.88704E+00 1.66928E+00 4.41980E-13 3.42781E-14
 -1      1695 4.42076E+01 5.60845E+00 1.14025E+00-9.45845E+00 9.25829E-13-1.48082E-12
 -1      1696 5.07362E+01 4.14968E+00 1.61468E+00-5.83621E+00 6.44734E-13-8.96727E-13
 -1      1697 3.16715E+01 6.49128E+00 5.83051E-01-1.14999E+01 1.46771E-12-2.02971E-12
 -1      1698 4.05529E+01 5.37744E+00 1.22333E+00-1.12495E+01 1.06357E-12-1.77325E-12
 -1      1699 1.83812E+01 5.10972E+00-1.28802E-01-9.27975E+00 1.84741E-12-2.07456E-12
 -1      1700 2.65184E+01 6.31052E+00 7.00018E-01-1.20035E+01 1.65679E-12-2.24420E-12
 -1      1701 8.10168E+00-5.45591E-01-8.82981E-01-4.41269E+00 1.76792E-12-1.54821E-12
 -1      1702 1.35696E+01 3.78651E+00-1.66874E-02-8.19179E+00 1.87406E-12-1.96687E-12
 -1      1703 2.35743E+00-8.61903E+00-1.46208E+00-6.84234E-01 1.32516E-12-8.70859E-13
 -1      1704 4.44517E+00-2.70572E+00-7.89050E-01-2.89036E+00 1.69953E-12-1.32155E-12
 -1      1705 2.46791E-01-1.45150E+01-1.64466E+00-1.82790E-01 3.26128E-13-5.03542E-13
 -1      1706 6.28607E-01-1.03025E+01-1.27917E+00-5.63223E-02 9.90097E-13-7.72854E-13
 -1      1707-7.38411E-01-1.66130E+01-1.81011E+00-6.59759E-01-7.35481E-13-4.82697E-13
 -1      1708-7.57138E-01-1.58746E+01-1.72396E+00 8.85979E-01 6.27276E-14-4.44367E-13
 -1      1709-3.01061E-01-1.26720E+01-1.54181E+00-8.40134E-01-1.77736E-12-8.61519E-13
 -1      1710-3.62089E-01-1.62130E+01-1.85523E+00 5.12757E-03-1.05427E-12-5.93081E-13
 -1      1711 3.54386E+00-5.04239E+00-9.07987E-01 2.20644E+00-2.21090E-12-1.40571E-12
 -1      1712 1.88981E+00-1.07326E+01-1.52165E+00 5.78102E-01-1.88383E-12-9.65117E-13
 -1      1713 1.09223E+01 1.92256E+00-2.75495E-01 6.73457E+00-2.22466E-12-1.80689E-12
 -1      1714 6.43121E+00-2.85080E+00-1.06030E+00 3.26439E+00-2.32037E-12-1.55398E-12
 -1      1715 2.49450E+01 4.77062E+00 5.45717E-01 1.06954E+01-1.58407E-12-1.61970E-12
 -1      1716 1.68927E+01 2.68691E+00-2.89869E-01 7.55113E+00-1.91647E-12-1.67200E-12
 -1      1717 3.90468E+01 6.13690E+00 1.38951E+00 1.24318E+01-1.03423E-12-1.56386E-12
 -1      1718 2.96087E+01 6.85868E+00 5.67043E-01 1.19016E+01-1.49736E-12-1.76970E-12
 -1      1719 5.09932E+01 4.14336E+00 1.75172E+00 7.77370E+00-5.52933E-13-9.38583E-13
 -1      1720 4.37114E+01 6.01512E+00 1.31374E+00 1.12902E+01-8.44227E-13-1.43596E-12
 -1      1721 5.35329E+01 3.88225E+00 1.65642E+00-6.60089E-01-5.18807E-13 2.77105E-13
 -1      1722 5.18848E+01 4.39587E+00 1.58243E+00 4.84427E+00-5.84671E-13-5.18585E-13
 -1      1723 4.99959E+01 4.76017E+00 1.55807E+00-7.95859E+00-5.88030E-13 1.07692E-12
 -1      1724 5.39705E+01 3.56103E+00 1.75030E+00-3.17923E+00-4.27491E-13 4.95382E-13
 -1      1725 3.83923E+01 6.50089E+00 9.98987E-01-1.19506E+01-1.13093E-12 1.76259E-12
 -1      1726 4.70652E+01 4.84380E+00 1.64929E+00-1.00760E+01-7.35800E-13 1.42819E-12
 -1      1727 2.38090E+01 5.62962E+00 1.58426E-01-1.02231E+01-1.24645E-12 1.64357E-12
 -1      1728 3.32411E+01 5.91103E+00 1.02163E+00-1.20721E+01-1.01630E-12 1.77014E-12
 -1      1729 1.12657E+01 1.83583E+00-6.48298E-01-6.11497E+00-1.24167E-12 1.30795E-12
 -1      1730 1.79912E+01 5.04732E+00 2.31991E-01-9.83757E+00-1.36069E-12 1.61982E-12
 -1      1731 3.86835E+00-5.61934E+00-1.32831E+00-1.60950E+00-9.47131E-13 7.31970E-13
 -1      1732 7.13359E+00-1.15830E-01-5.57328E-01-4.63796E+00-1.20504E-12 1.22580E-12
 -1      1733 5.43680E-01-1.31306E+01-1.74493E+00 3.24533E-01-6.06848E-13 2.29407E-13
 -1      1734 1.27094E+00-7.82967E+00-1.23610E+00-3.09001E-01-8.39440E-13 4.88443E-13
 -1      1735-5.50674E-01-1.61091E+01-1.73476E+00-3.97630E-01-1.67227E-13 1.94594E-13
 -1      1736-5.46760E-01-1.40867E+01-1.59266E+00 8.97157E-01-5.03930E-13 2.12746E-13
 -1      1737 2.43880E+01 1.19916E+00 2.56550E-01 7.50831E+00 8.81073E-13 1.00409E-12
 -1      1738 1.47393E+01-3.20400E+00-3.59044E-01 6.43150E+00 6.85674E-13 8.55593E-13
 -1      1739 1.99994E+01-5.13009E-04 5.84647E-05-5.97828E-04-6.18324E-13-2.47296E-13
 -1      1740 1.99990E+01-1.12711E-03 3.17823E-05-1.56122E-03-1.30351E-13 2.12115E-13
 -1      1741 1.03142E+00-9.24926E+00-9.95422E-01 2.83073E+00 1.59872E-14 7.42795E-13
 -1      1742 6.79135E+00-6.93495E+00-7.32229E-01 5.06951E+00 3.18301E-13 8.56586E-13
 -1      1743-1.13578E+00-1.04528E+01-1.15446E+00 1.11478E-01-6.71199E-14 4.48086E-13
 -1      1744 3.45614E+01 4.24093E+00 8.73135E-01 7.11271E+00 8.99086E-13 9.31033E-13
 -1      1745 4.26988E+01 6.26526E+00 1.33270E+00 4.80661E+00 8.70304E-13 5.92526E-13
 -1      1746 4.70480E+01 7.27121E+00 1.57721E+00 1.24483E+00 8.60312E-13 1.02696E-13
 -1      1747 4.50463E+01 7.12509E+00 1.31378E+00-1.82024E+00 8.65863E-13-3.29736E-13
 -1      1748 3.94318E+01 5.55221E+00 1.02259E+00-4.63950E+00 9.30533E-13-6.78790E-13
 -1      1749 3.13562E+01 3.20664E+00 6.89690E-01-7.13986E+00 1.06692E-12-1.15263E-12
 -1      1750 2.09044E+01-2.77251E-02 9.37597E-02-7.31294E+00 1.08846E-12-1.38434E-12
 -1      1751 1.10222E+01-4.34161E+00-5.46105E-01-5.76329E+00 9.05720E-13-1.19982E-12
 -1      1752 3.81009E+00-8.27149E+00-9.70356E-01-3.88565E+00 4.77618E-13-9.15670E-13
 -1      1753-2.79348E-01-1.03625E+01-1.11946E+00-1.83426E+00 1.69864E-14-8.91065E-13
 -1      1754-1.11844E+00-1.12510E+01-1.29346E+00 7.50327E-01-5.00738E-13-9.75997E-13
 -1      1755 2.47091E+00-9.09522E+00-1.00350E+00 3.48174E+00-9.88765E-13-1.02093E-12
 -1      1756 9.43416E+00-5.74842E+00-6.17736E-01 5.53857E+00-1.21791E-12-1.04314E-12
 -1      1757 1.96987E+01-2.01920E+00 3.08343E-03 6.78712E+00-1.20093E-12-8.97116E-13
 -1      1758 2.96463E+01 1.54776E+00 3.55301E-01 6.56514E+00-1.10906E-12-7.17537E-13
 -1      1759 3.95284E+01 5.40199E+00 1.14865E+00 6.29606E+00-9.19702E-13-7.92033E-13
 -1      1760 4.47244E+01 7.25271E+00 1.39415E+00 2.86666E+00-8.58258E-13-2.42750E-13
 -1      1761 4.56472E+01 7.71871E+00 1.40514E+00-7.90450E-01-7.79155E-13 1.75665E-13
 -1      1762 4.37382E+01 6.41477E+00 1.37910E+00-4.39151E+00-8.06688E-13 5.72209E-13
 -1      1763 3.56749E+01 4.13635E+00 8.59313E-01-6.34807E+00-7.42711E-13 9.21263E-13
 -1      1764 2.53231E+01 1.02221E+00 3.28045E-01-7.19259E+00-6.08014E-13 9.06941E-13
 -1      1765 1.44012E+01-2.73612E+00-3.28335E-01-6.35356E+00-5.34128E-13 9.48630E-13
 -1      1766 5.90454E+00-7.07965E+00-8.86750E-01-4.31678E+00-3.47167E-13 5.71140E-13
 -1      1767 5.76967E-01-1.00729E+01-1.18058E+00-2.20582E+00-2.75613E-13 3.69149E-13
 -1      1768 2.31096E+01 1.95595E+00-2.65416E-02-2.51264E+00-2.59116E-13 8.87457E-13
 -1      1769 2.00489E+01 3.76749E+00-3.70159E-02-1.73871E+00-2.83888E-13-4.13513E-13
 -1      1770 2.03617E+01 3.59908E+00-3.64399E-02-2.03793E+00-3.39501E-13-3.13614E-13
 -1      1771 2.07234E+01 3.18193E+00-4.61585E-02-2.20639E+00-3.48953E-13-1.77296E-13
 -1      1772 2.09854E+01 2.79349E+00-1.35193E-01-2.49707E+00-3.91088E-13-2.09555E-15
 -1      1773 2.07751E+01 2.72416E+00-2.29225E-03-1.80992E+00-3.67727E-13-2.17690E-13
 -1      1774 1.92111E+01 4.34737E+00-2.11117E-02-9.17046E-01-1.25836E-13-5.66370E-13
 -1      1775 1.93776E+01 4.29798E+00-1.42713E-02-1.11319E+00-1.69622E-13-5.55578E-13
 -1      1776 1.89504E+01 4.49398E+00-1.66958E-02-5.91484E-01-4.77821E-14-5.75744E-13
 -1      1777 1.90716E+01 4.46403E+00-1.09312E-02-7.58437E-01-8.16291E-14-5.76575E-13
 -1      1778 1.93076E+01 4.02145E+00-7.01722E-03-7.68438E-01-1.20777E-13-5.46318E-13
 -1      1779 1.87836E+01 4.58287E+00-1.36188E-02-3.10677E-01 3.20807E-14-5.44752E-13
 -1      1780 1.88565E+01 4.56662E+00-1.00918E-02-4.56227E-01-1.02448E-14-5.63169E-13
 -1      1781 1.90454E+01 4.19436E+00-6.41204E-03-4.80850E-01-2.80221E-14-5.45071E-13
 -1      1782 1.87140E+01 4.62163E+00-1.15033E-02-5.49346E-02 1.06300E-13-5.29642E-13
 -1      1783 1.87371E+01 4.61688E+00-1.04819E-02-1.90092E-01 6.97004E-14-5.42365E-13
 -1      1784 1.88882E+01 4.29136E+00-6.00049E-03-2.29875E-01 5.91286E-14-5.23295E-13
 -1      1785 1.87434E+01 4.61313E+00-1.02480E-02 1.97013E-01 1.82190E-13-5.12144E-13
 -1      1786 1.87160E+01 4.61925E+00-1.17729E-02 6.12065E-02 1.45155E-13-5.26306E-13
 -1      1787 1.88389E+01 4.31997E+00-5.89743E-03 2.76762E-03 1.35213E-13-5.12613E-13
 -1      1788 1.88700E+01 4.55674E+00-9.98817E-03 4.66545E-01 2.37703E-13-4.74284E-13
 -1      1789 1.87936E+01 4.57459E+00-1.38597E-02 3.19153E-01 2.14481E-13-5.01488E-13
 -1      1790 1.88981E+01 4.28253E+00-6.15208E-03 2.37023E-01 2.09436E-13-4.86414E-13
 -1      1791 1.90857E+01 4.45067E+00-1.09621E-02 7.68622E-01 3.10831E-13-4.01837E-13
 -1      1792 1.89647E+01 4.48149E+00-1.69026E-02 6.02045E-01 2.69301E-13-4.38784E-13
 -1      1793 1.90620E+01 4.17871E+00-6.57970E-03 4.89998E-01 2.73175E-13-4.30605E-13
 -1      1794 1.93968E+01 4.27884E+00-1.40746E-02 1.13239E+00 3.89061E-13-3.05376E-13
 -1      1795 1.92266E+01 4.33053E+00-2.13787E-02 9.29815E-01 3.43987E-13-3.62795E-13
 -1      1796 1.93268E+01 4.00073E+00-7.28245E-03 7.80249E-01 3.52681E-13-3.54019E-13
 -1      1797 1.98127E+01 4.00945E+00-2.20413E-02 1.56833E+00 4.44644E-13-1.50401E-13
 -1      1798 1.95863E+01 4.09828E+00-2.84339E-02 1.32060E+00 4.08867E-13-2.50001E-13
 -1      1799 1.96978E+01 3.72703E+00-7.42396E-03 1.12015E+00 4.20433E-13-2.47961E-13
 -1      1800 2.03802E+01 3.55438E+00-4.16474E-02 2.07206E+00 4.75005E-13 1.14159E-13
 -1      1801 2.00664E+01 3.73067E+00-4.08630E-02 1.77405E+00 4.47749E-13-4.17930E-14
 -1      1802 2.01916E+01 3.31272E+00-4.62003E-03 1.49967E+00 4.68332E-13-7.34343E-14
 -1      1803 2.13042E+01 2.66663E+00-5.38770E-02 2.51213E+00 4.28366E-13 5.62550E-13
 -1      1804 2.07716E+01 3.09725E+00-5.00898E-02 2.24227E+00 4.46753E-13 2.94306E-13
 -1      1805 2.08609E+01 2.63594E+00 3.34726E-03 1.83679E+00 4.77697E-13 2.05357E-13
 -1      1806 2.21047E+01 1.19290E+00-1.18864E-01 2.06293E+00 3.44939E-13 1.08880E-12
 -1      1807 2.16637E+01 2.23707E+00-4.42728E-04 2.42906E+00 3.86365E-13 7.42573E-13
 -1      1808 2.13743E+01 1.67983E+00-1.90626E-02 1.79004E+00 4.34337E-13 5.49220E-13
 -1      1809 2.14251E+01 7.69647E-01-5.73585E-02 1.25923E+00 3.48999E-13 9.76707E-13
 -1      1810 2.21601E+01 2.41997E+00 8.73086E-02-2.75501E+00-3.46704E-13 3.21895E-13
 -1      1811 2.07737E+01 3.10003E-01-5.25027E-03 3.82649E-01 2.88613E-13 7.80891E-13
 -1      1812 2.12055E+01 4.44799E-01-1.03160E-02 7.66633E-01 3.08600E-13 8.89625E-13
 -1      1813 2.12710E+01 8.43178E-01 1.90504E-04 1.09150E+00 3.68126E-13 6.45525E-13
 -1      1814 2.19096E+01 1.72834E+00 7.78783E-02-2.01149E+00-3.67567E-13 1.96516E-13
 -1      1815 2.11294E+01 5.20732E-01 3.33494E-02-5.86630E-01-2.91538E-13 1.60757E-13
 -1      1816 2.08258E+01 3.86206E-01 1.23327E-02-2.79703E-01-2.60373E-13 9.18814E-14
 -1      1817 2.07191E+01 3.01265E-01 2.78371E-02-8.05276E-03-2.45780E-13 9.41868E-14
 -1      1818 2.06757E+01 2.32377E-01 1.47970E-02 1.58307E-01-2.17049E-13 2.66575E-14
 -1      1819 2.08804E+01 5.41075E-01-8.27757E-03-2.58169E-01-2.93775E-13-3.99572E-14
 -1      1820 2.06628E+01 1.93151E-01 1.72165E-02 3.35602E-01-1.78585E-13 2.44926E-14
 -1      1821 2.07585E+01 1.59695E-01 1.13144E-02 4.43364E-01-1.29429E-13-1.65428E-14
 -1      1822 2.07565E+01 3.28709E-01-7.96419E-03 2.54791E-01-2.30157E-13-5.56733E-14
 -1      1823 2.08245E+01 1.36816E-01 9.46412E-03 5.67122E-01-1.10478E-13-3.17068E-14
 -1      1824 2.10120E+01 1.15348E-01 7.88192E-03 6.42974E-01-7.78188E-14-6.56675E-14
 -1      1825 2.08168E+01 2.24696E-01-6.98931E-03 5.96902E-01-1.48050E-13-7.26658E-14
 -1      1826 2.11398E+01 9.62970E-02 5.02497E-03 7.30710E-01-6.85966E-14-6.94722E-14
 -1      1827 2.13870E+01 7.46931E-02 4.58185E-03 7.81455E-01-6.22167E-14-1.04016E-13
 -1      1828 2.10173E+01 1.57526E-01-5.98596E-03 8.37683E-01-9.70621E-14-8.08828E-14
 -1      1829 2.15626E+01 5.12363E-02 2.46040E-03 8.34988E-01-7.77684E-14-1.00425E-13
 -1      1830 2.18417E+01 2.04262E-02 4.33496E-04 8.55788E-01-8.45800E-14-1.12149E-13
 -1      1831 2.13255E+01 9.06662E-02-4.99493E-03 9.99666E-01-7.24853E-14-1.12828E-13
 -1      1832 2.20533E+01-1.43799E-02 8.65669E-04 8.64952E-01-5.06876E-14-6.89357E-14
 -1      1833 2.23326E+01-6.21830E-02-5.22104E-03 8.42003E-01-1.90624E-15-4.62312E-14
 -1      1834 2.17144E+01-1.68044E-03-4.13496E-03 1.07480E+00-5.53133E-14-7.61227E-14
 -1      1835 2.25681E+01-1.13708E-01-1.56388E-04 7.86671E-01-2.60087E-14-2.72087E-14
 -1      1836 2.28063E+01-1.82714E-01-1.23121E-02 6.99943E-01-5.14779E-15-1.42295E-14
 -1      1837 2.21589E+01-1.40149E-01-3.25980E-03 1.03102E+00-1.23458E-14-3.88715E-14
 -1      1838 2.30491E+01-2.50909E-01-9.03918E-04 5.54499E-01-8.81760E-15-5.13912E-14
 -1      1839 2.31953E+01-3.34846E-01-1.94458E-02 3.85131E-01-1.50574E-15-8.08667E-14
 -1      1840 2.26294E+01-3.33562E-01-1.85761E-03 8.18945E-01-3.71092E-14-7.15398E-14
 -1      1841 2.34161E+01-4.06309E-01-1.99772E-03 1.30972E-01-7.07507E-15-1.14796E-13
 -1      1842 2.34173E+01-4.77999E-01-2.33021E-02-1.22317E-01 1.00545E-14-1.01808E-13
 -1      1843 2.30813E+01-5.59652E-01 1.05074E-03 3.89078E-01-2.62229E-14-3.80126E-14
 -1      1844 2.35664E+01-5.17158E-01-4.54303E-03-4.71006E-01 4.70804E-15-9.70406E-14
 -1      1845 2.33884E+01-5.22955E-01-1.89818E-02-7.66867E-01-2.51570E-14-1.13094E-13
 -1      1846 2.34415E+01-7.38215E-01 6.42449E-03-2.68544E-01 1.48024E-14-3.15887E-14
 -1      1847 2.33994E+01-4.74200E-01-8.83418E-03-1.12815E+00-1.54807E-14-1.11421E-13
 -1      1848 2.30564E+01-3.53963E-01-3.90479E-03-1.36294E+00-6.00648E-14-1.03070E-13
 -1      1849 2.36029E+01-7.23351E-01 1.34077E-02-1.05840E+00-1.87593E-14-3.15754E-14
 -1      1850 2.28845E+01-1.77220E-01-1.41945E-02-1.57162E+00-1.13053E-13-9.09446E-14
 -1      1851 2.24671E+01 7.43084E-02 1.53722E-02-1.60110E+00-1.41193E-13-1.02319E-13
 -1      1852 2.34583E+01-3.62717E-01 1.63500E-02-1.71639E+00-9.82682E-14-1.95378E-14
 -1      1853 2.21708E+01 3.36731E-01-1.35877E-02-1.47600E+00-1.26090E-13-1.23589E-13
 -1      1854 2.18305E+01 6.08165E-01 2.45220E-02-1.20826E+00-1.01166E-13-1.11737E-13
 -1      1855 2.30102E+01 3.23352E-01 2.83348E-03-1.84577E+00-1.47945E-13-1.04079E-14
 -1      1856 2.16010E+01 8.06936E-01-1.27120E-03-7.13199E-01-1.46114E-13-1.31986E-13
 -1      1857 2.14874E+01 9.17697E-01 1.53303E-02-2.23165E-01-1.46980E-13-1.93349E-13
 -1      1858 2.24951E+01 1.03354E+00-2.08491E-02-1.16957E+00-1.42702E-13-1.08587E-13
 -1      1859 2.15132E+01 9.04562E-01 1.69217E-02 4.24939E-01-2.08618E-13-3.10557E-13
 -1      1860 2.16845E+01 7.69179E-01-2.78885E-03 9.00413E-01-1.93760E-13-4.10600E-13
 -1      1861 2.22932E+01 1.31674E+00-3.24427E-02 1.25332E-01-2.75424E-13-2.45953E-13
 -1      1862 2.19521E+01 5.54694E-01 2.41886E-02 1.36153E+00-1.37633E-13-4.46967E-13
 -1      1863 2.23372E+01 2.77296E-01-1.38664E-02 1.59721E+00-7.12520E-14-4.87107E-13
 -1      1864 2.25842E+01 9.69831E-01-1.82763E-02 1.37945E+00-2.02850E-13-3.72237E-13
 -1      1865 2.26464E+01 1.92493E-02 1.28825E-02 1.68089E+00-5.07090E-14-4.96742E-13
 -1      1866 2.30918E+01-2.19204E-01-1.34873E-02 1.62404E+00 1.54265E-14-5.54999E-13
 -1      1867 2.31493E+01 2.41536E-01 4.80224E-03 1.96743E+00-7.60659E-14-4.04032E-13
 -1      1868 2.32633E+01-3.80221E-01-6.57325E-03 1.39224E+00 1.17264E-13-5.46008E-13
 -1      1869 2.36224E+01-4.82726E-01-7.97614E-03 1.14769E+00 1.08530E-13-5.40971E-13
 -1      1870 2.36098E+01-4.15096E-01 1.54834E-02 1.76579E+00 2.53278E-14-4.67831E-13
 -1      1871 2.36139E+01-5.17756E-01-2.02828E-02 7.86737E-01 1.13735E-13-5.10429E-13
 -1      1872 2.38063E+01-5.00177E-01-3.52583E-03 4.97090E-01 1.28602E-13-4.59070E-13
 -1      1873 2.37590E+01-7.27286E-01 1.24259E-02 1.08516E+00 1.48851E-13-4.70628E-13
 -1      1874 2.36682E+01-4.54470E-01-2.34018E-02 1.63148E-01 7.33372E-14-3.73077E-13
 -1      1875 2.36866E+01-3.78819E-01-1.25376E-03-7.57649E-02 8.42269E-14-3.43735E-13
 -1      1876 2.36134E+01-7.09644E-01 5.62766E-03 3.13870E-01 1.67141E-13-4.78976E-13
 -1      1877 2.34841E+01-3.06882E-01-1.90445E-02-3.11026E-01 5.51000E-14-2.87308E-13
 -1      1878 2.33661E+01-2.24395E-01-4.23536E-04-4.64994E-01 1.32687E-13-2.53861E-13
 -1      1879 2.32840E+01-5.18908E-01 7.23307E-04-3.06097E-01 1.33854E-13-4.26611E-13
 -1      1880 2.31447E+01-1.59275E-01-1.20021E-02-5.94513E-01 1.12066E-13-2.82789E-13
 -1      1881 2.29420E+01-9.46110E-02-3.57267E-05-6.69291E-01 6.08211E-14-2.18902E-13
 -1      1882 2.28727E+01-2.96246E-01-1.65061E-03-6.98218E-01 1.35919E-13-3.90309E-13
 -1      1883 2.27263E+01-4.80871E-02-5.40920E-03-7.15689E-01 6.47626E-14-3.13921E-13
 -1      1884 2.24855E+01-6.46354E-03 3.33648E-04-7.32765E-01 7.51245E-14-3.24712E-13
 -1      1885 2.24444E+01-1.15126E-01-2.50156E-03-8.84255E-01 7.09385E-14-4.23195E-13
 -1      1886 2.22870E+01 2.16626E-02-5.43499E-04-7.24686E-01 3.99516E-14-3.29699E-13
 -1      1887 2.20422E+01 4.40085E-02 7.23436E-04-7.06465E-01-1.78956E-14-3.47957E-13
 -1      1888 2.20342E+01 5.27287E-03-2.70021E-03-9.21330E-01 6.62228E-14-3.38404E-13
 -1      1889 2.18658E+01 5.82371E-02 2.46916E-03-6.68034E-01 4.77820E-14-3.31646E-13
 -1      1890 2.16381E+01 6.72903E-02 1.05251E-03-6.31929E-01 7.25817E-14-2.17551E-13
 -1      1891 2.16598E+01 7.26237E-02-2.67145E-03-8.66797E-01 7.83338E-14-3.28548E-13
 -1      1892 2.14855E+01 7.24628E-02 3.99299E-03-5.80129E-01 4.22795E-14-2.08231E-13
 -1      1893 2.12857E+01 7.34788E-02 1.26275E-03-5.37686E-01 2.76740E-14-1.48846E-13
 -1      1894 2.13294E+01 1.02359E-01-2.55989E-03-7.65097E-01 4.85638E-14-2.44326E-13
 -1      1895 2.11567E+01 7.33816E-02 4.49671E-03-4.83126E-01-1.00047E-13-1.62143E-13
 -1      1896 2.09885E+01 7.01174E-02 1.34506E-03-4.41129E-01-2.04424E-13-1.77656E-13
 -1      1897 2.10457E+01 1.08765E-01-2.39962E-03-6.46090E-01-6.35258E-14-2.52627E-13
 -1      1898 2.08818E+01 6.73082E-02 4.38421E-03-3.89741E-01-2.48123E-13-1.45741E-13
 -1      1899 2.07447E+01 6.21542E-02 1.32196E-03-3.51686E-01-1.75897E-13-1.88251E-13
 -1      1900 2.08078E+01 1.02345E-01-2.19821E-03-5.27743E-01-1.63703E-13-2.11074E-13
 -1      1901 2.06581E+01 5.82088E-02 3.94809E-03-3.06324E-01-1.12430E-13-1.04344E-13
 -1      1902 2.05493E+01 5.25599E-02 1.22667E-03-2.73655E-01-5.42654E-15-1.61534E-13
 -1      1903 2.06126E+01 8.99220E-02-1.96490E-03-4.19650E-01-8.89845E-14-1.39977E-13
 -1      1904 2.04803E+01 4.83795E-02 3.37826E-03-2.35300E-01 3.12972E-14-2.41378E-13
 -1      1905 2.03960E+01 4.29814E-02 1.09048E-03-2.08281E-01 3.75250E-14-2.57229E-13
 -1      1906 2.04556E+01 7.55544E-02-1.71374E-03-3.26030E-01-2.20388E-14-5.93478E-14
 -1      1907 2.03421E+01 3.90409E-02 2.78734E-03-1.76858E-01-8.15071E-15-2.92902E-13
 -1      1908 2.02780E+01 3.42447E-02 9.37703E-04-1.55134E-01 5.40773E-14-1.69698E-13
 -1      1909 2.03317E+01 6.14672E-02-1.46013E-03-2.47898E-01 1.03560E-14-2.90999E-13
 -1      1910 2.02367E+01 3.07632E-02 2.23589E-03-1.30025E-01 2.03757E-14-1.56049E-13
 -1      1911 2.01891E+01 2.66928E-02 7.84940E-04-1.12957E-01-5.32819E-14-2.12376E-13
 -1      1912 2.02358E+01 4.87530E-02-1.21735E-03-1.84508E-01-8.58260E-15-2.62534E-13
 -1      1913 2.01580E+01 2.37426E-02 1.75188E-03-9.33187E-02-7.94058E-14-3.07388E-13
 -1      1914 2.01235E+01 2.03983E-02 6.42405E-04-8.01795E-02-1.12766E-13-2.68610E-13
 -1      1915 2.01629E+01 3.78424E-02-9.94736E-04-1.34258E-01-1.39931E-13-3.78882E-13
 -1      1916 2.01006E+01 1.79726E-02 1.34402E-03-6.51151E-02-1.92822E-13-1.91036E-13
 -1      1917 2.00762E+01 1.52932E-02 5.15564E-04-5.51932E-02-1.77419E-13-2.89495E-13
 -1      1918 2.01086E+01 2.87993E-02-7.97604E-04-9.52266E-02-1.64404E-13-3.44259E-13
 -1      1919 2.00597E+01 1.33457E-02 1.01044E-03-4.38528E-02-3.89735E-14-3.36398E-13
 -1      1920 2.00430E+01 1.12445E-02 4.06600E-04-3.65032E-02 4.13285E-14-3.13561E-13
 -1      1921 2.00690E+01 2.14999E-02-6.28053E-04-6.54804E-02-1.15529E-13-3.13852E-13
 -1      1922 2.00314E+01 9.71270E-03 7.44028E-04-2.81283E-02 2.95420E-14-3.91503E-13
 -1      1923 2.00205E+01 8.09686E-03 3.15523E-04-2.27932E-02-1.04201E-13-4.24929E-13
 -1      1924 2.00409E+01 1.57359E-02-4.85834E-04-4.32326E-02-6.98185E-14-3.65381E-13
 -1      1925 2.00127E+01 6.91420E-03 5.35539E-04-1.67337E-02-1.95331E-13-2.75707E-13
 -1      1926 2.00060E+01 5.69447E-03 2.41006E-04-1.29471E-02-1.09418E-13-2.38809E-13
 -1      1927 2.00216E+01 1.12730E-02-3.69110E-04-2.69141E-02-2.83078E-14-3.64698E-13
 -1      1928 2.00009E+01 4.79687E-03 3.75350E-04-8.66302E-03-7.26713E-14-2.55608E-13
 -1      1929 1.99972E+01 3.89221E-03 1.80942E-04-6.04586E-03-3.07169E-14-2.14057E-13
 -1      1930 2.00089E+01 7.87988E-03-2.75106E-04-1.51966E-02-1.36772E-13-2.42415E-13
 -1      1931 1.99942E+01 3.22098E-03 2.54342E-04-3.10134E-03 7.48443E-14-2.70942E-13
 -1      1932 1.99926E+01 2.55992E-03 1.32805E-04-1.35397E-03 1.89357E-13-3.24185E-13
 -1      1933 2.00009E+01 5.34311E-03-2.00621E-04-6.98889E-03 4.20100E-14-3.19567E-13
 -1      1934 1.99911E+01 2.06261E-03 1.64352E-04 5.92999E-04 4.27039E-13-2.90239E-13
 -1      1935 1.99909E+01 1.58279E-03 9.38601E-05 1.69992E-03 4.73440E-13-1.44683E-13
 -1      1936 1.99965E+01 3.47204E-03-1.42398E-04-1.41915E-03 2.88888E-13-2.59177E-13
 -1      1937 1.99903E+01 1.21271E-03 9.83983E-05 2.90794E-03 4.30423E-13 5.86840E-14
 -1      1938 1.99910E+01 8.59043E-04 6.13181E-05 3.54146E-03 4.44112E-13 2.24963E-13
 -1      1939 1.99945E+01 2.09852E-03-9.73615E-05 2.18688E-03 5.20324E-13-5.05455E-14
 -1      1940 1.99911E+01 5.73629E-04 5.08578E-05 4.19524E-03 2.76788E-13 1.55585E-13
 -1      1941 1.99923E+01 2.96065E-04 3.26415E-05 4.46626E-03 1.40367E-13 7.65499E-14
 -1      1942 1.99941E+01 1.07260E-03-6.28251E-05 4.32852E-03 3.66832E-13 1.19366E-13
 -1      1943 1.99927E+01 5.56377E-05 1.77044E-05 4.68481E-03-1.19654E-14-1.06284E-13
 -1      1944 1.99941E+01-1.90589E-04 8.14131E-06 4.65173E-03-6.32660E-14-1.54088E-13
 -1      1945 1.99947E+01 2.58365E-04-3.61971E-05 5.35033E-03 2.75838E-14-4.08403E-14
 -1      1946 1.99948E+01-4.33708E-04-5.04761E-06 4.50602E-03 7.40196E-15-1.72736E-13
 -1      1947 1.99961E+01-6.86967E-04-1.22732E-05 4.17479E-03 2.65070E-14-5.71075E-14
 -1      1948 1.99958E+01-4.62937E-04-1.60670E-05 5.46276E-03-1.39980E-13-6.28327E-14
 -1      1949 1.99967E+01-8.98134E-04-1.15778E-05 3.71438E-03 1.88227E-14-1.15130E-13
 -1      1950 1.99978E+01-1.17699E-03-3.07088E-05 3.09567E-03-3.07651E-15-2.59579E-14
 -1      1951 1.99983E+01-1.77747E-03-1.28021E-06 3.57439E-03-1.56966E-14 3.53195E-14
 -1      1952 1.99971E+01-1.18201E-03-3.58632E-06 4.81281E-03 5.58086E-14 8.32869E-15
 -1      1953 2.05267E+01 1.68422E-01 1.05971E-02-5.08522E-02 2.17640E-13 6.24289E-13
 -1      1954 2.06631E+01 2.25653E-01 1.79326E-02 1.41153E-01 2.37421E-13 7.22013E-13
 -1      1955 2.08154E+01 3.74279E-01-3.53269E-03 2.96243E-01 2.95323E-13 5.26546E-13
 -1      1956 2.05623E+01 1.07040E-01 9.33962E-03-3.08502E-01 1.48869E-13 4.81047E-13
 -1      1957 2.05208E+01 1.34759E-01 1.55874E-02-1.92182E-01 1.65015E-13 5.63272E-13
 -1      1958 2.06482E+01 2.06397E-01-4.14605E-03-1.59614E-01 2.16880E-13 3.97637E-13
 -1      1959 2.07970E+01 7.34696E-02 6.42867E-03-4.77910E-01 6.17722E-14 4.03103E-13
 -1      1960 2.06458E+01 9.03367E-02 9.71045E-03-3.98301E-01 9.42146E-14 4.30237E-13
 -1      1961 2.07150E+01 1.30771E-01-5.13234E-03-4.44553E-01 1.43341E-13 2.84303E-13
 -1      1962 2.11669E+01 4.66563E-02 3.99235E-03-5.90646E-01 6.12782E-14 3.32881E-13
 -1      1963 2.09459E+01 6.09109E-02 5.43875E-03-5.34993E-01 3.61349E-14 3.86470E-13
 -1      1964 2.09461E+01 8.53559E-02-5.30809E-03-6.33275E-01 6.82726E-14 2.24016E-13
 -1      1965 2.16212E+01 1.47946E-02 1.49684E-03-6.50332E-01 1.19369E-13 3.27614E-13
 -1      1966 2.13604E+01 3.12812E-02 2.48481E-03-6.18291E-01 8.01834E-14 3.50160E-13
 -1      1967 2.12903E+01 4.35949E-02-4.84223E-03-7.51259E-01 9.44123E-14 1.97287E-13
 -1      1968 2.21097E+01-3.08067E-02-1.52665E-03-6.42446E-01 5.24914E-14 3.14172E-13
 -1      1969 2.18393E+01-8.70883E-03-9.93853E-06-6.42030E-01 9.52296E-14 3.17648E-13
 -1      1970 2.17052E+01-1.03100E-02-3.98820E-03-7.95274E-01 1.05372E-13 1.97288E-13
 -1      1971 2.25725E+01-9.56755E-02-4.98622E-03-5.39594E-01 6.40750E-14 3.04346E-13
 -1      1972 2.23296E+01-6.65260E-02-2.49152E-03-5.85096E-01 5.67107E-14 3.21911E-13
 -1      1973 2.21475E+01-8.72553E-02-2.62916E-03-7.42723E-01 7.05842E-14 2.36134E-13
 -1      1974 2.29346E+01-1.77521E-01-8.02304E-03-3.10195E-01-2.28637E-14 3.34132E-13
 -1      1975 2.27651E+01-1.44241E-01-4.96187E-03-4.18101E-01 4.18467E-14 3.23393E-13
 -1      1976 2.25655E+01-1.90714E-01-3.77598E-04-5.59548E-01 4.44974E-14 2.72780E-13
 -1      1977 2.31085E+01-2.57940E-01-9.03645E-03 6.21379E-02-3.88856E-14 3.30718E-13
 -1      1978 2.30627E+01-2.31392E-01-7.05809E-03-1.17153E-01-5.19905E-14 3.13186E-13
 -1      1979 2.28938E+01-3.07770E-01 3.19067E-03-2.15434E-01-3.12710E-14 2.85462E-13
 -1      1980 2.30095E+01-2.95435E-01-6.31258E-03 5.45144E-01 4.71038E-14 2.96295E-13
 -1      1981 2.31289E+01-2.96135E-01-8.17021E-03 3.09904E-01 4.22579E-15 3.10677E-13
 -1      1982 2.30530E+01-3.97643E-01 7.97227E-03 2.86701E-01-3.54751E-16 2.03319E-13
 -1      1983 2.25921E+01-2.32737E-01 1.83537E-04 1.02118E+00 1.30595E-13 2.49769E-13
 -1      1984 2.28868E+01-2.83997E-01-7.20517E-03 7.88240E-01 5.70169E-14 2.38918E-13
 -1      1985 2.29654E+01-3.90550E-01 1.25668E-02 8.68616E-01 1.02000E-13 2.03747E-13
 -1      1986 2.19049E+01-3.57928E-02 5.71582E-03 1.28409E+00 1.24943E-13 2.50393E-13
 -1      1987 2.23271E+01-1.42855E-01-4.40567E-03 1.15442E+00 1.12864E-13 2.65529E-13
 -1      1988 2.25945E+01-2.14250E-01 1.38449E-02 1.34583E+00 1.11637E-13 2.50018E-13
 -1      1989 2.11380E+01 2.48536E-01 4.45991E-03 1.12238E+00 1.66612E-14 3.36937E-13
 -1      1990 2.15731E+01 1.23045E-01 2.34422E-04 1.19642E+00 6.43071E-14 2.75490E-13
 -1      1991 2.20087E+01 1.27195E-01 5.33693E-03 1.46069E+00 6.33087E-14 2.28764E-13
 -1      1992 2.06047E+01 4.73333E-01-2.98462E-03 4.90771E-01 7.84234E-14 2.48067E-13
 -1      1993 2.08943E+01 4.02066E-01 6.87779E-03 7.83386E-01 2.24074E-14 2.79488E-13
 -1      1994 2.14292E+01 5.07096E-01-7.81394E-03 1.02729E+00 4.75002E-14 2.13491E-13
 -1      1995 2.05806E+01 4.91760E-01-9.80542E-03-3.78105E-01 1.22428E-13 6.61311E-14
 -1      1996 2.05956E+01 5.26435E-01 1.26087E-02 1.79006E-02 1.05263E-13 1.34225E-13
 -1      1997 2.11517E+01 7.12384E-01-1.49339E-02 1.30985E-01 1.75138E-13 1.15981E-13
 -1      1998 2.11043E+01 2.91536E-01-8.89465E-03-1.08815E+00 1.00623E-13 6.62942E-14
 -1      1999 2.08253E+01 4.11625E-01 1.29229E-02-7.69728E-01 1.63161E-13 9.51062E-14
 -1      2000 2.13448E+01 6.09523E-01-1.05216E-02-8.44572E-01 1.63114E-13 7.46798E-16
 -1      2001 2.19373E+01 9.41431E-03-8.54220E-04-1.35557E+00-1.26210E-13-2.57138E-14
 -1      2002 2.14723E+01 1.39393E-01 6.82970E-03-1.23402E+00-6.03372E-14 1.30920E-14
 -1      2003 2.19092E+01 2.66024E-01-3.25929E-04-1.45941E+00 8.17662E-15-3.52019E-14
 -1      2004 2.27422E+01-2.02133E-01 7.09035E-03-1.17228E+00-1.67452E-13 8.83616E-14
 -1      2005 2.22591E+01-1.24199E-01-1.92273E-03-1.24479E+00-1.06923E-13 3.85803E-14
 -1      2006 2.25648E+01-1.12603E-01 5.54249E-03-1.52077E+00-1.64155E-13-1.13364E-14
 -1      2007 2.32821E+01-2.81103E-01 1.00209E-02-7.29643E-01-3.68178E-14 1.11744E-13
 -1      2008 2.29183E+01-2.68070E-01-8.71626E-03-9.12160E-01-1.25341E-13 1.22024E-13
 -1      2009 2.30597E+01-3.52718E-01 4.58233E-03-1.14306E+00-1.39789E-13 3.26683E-14
 -1      2010 2.34857E+01-2.54763E-01 8.11718E-03-2.45563E-01 2.29899E-13 1.51344E-13
 -1      2011 2.33025E+01-2.84056E-01-1.14845E-02-4.46729E-01 6.63428E-14 2.27292E-13
 -1      2012 2.32841E+01-4.10245E-01 9.81816E-04-5.81557E-01 5.90387E-14 7.50342E-14
 -1      2013 2.33988E+01-1.79590E-01 4.41768E-03 1.42934E-01 1.33010E-13 1.03836E-13
 -1      2014 2.33889E+01-2.23108E-01-1.07418E-02-1.99165E-02 2.39855E-13 1.95416E-13
 -1      2015 2.32506E+01-3.41470E-01-1.61442E-03-5.26458E-02 2.10033E-13 1.64803E-13
 -1      2016 2.31132E+01-9.99284E-02 1.17606E-03 3.90862E-01-1.12716E-13-2.71129E-14
 -1      2017 2.32326E+01-1.39302E-01-7.98891E-03 2.85324E-01-6.20858E-14 7.73296E-15
 -1      2018 2.30282E+01-2.24467E-01-2.26456E-03 3.34065E-01 3.36710E-14 1.10985E-13
 -1      2019 2.27196E+01-3.70702E-02-8.09178E-04 5.11051E-01-9.71983E-14 8.86400E-15
 -1      2020 2.29160E+01-6.52546E-02-4.73816E-03 4.58132E-01-8.21478E-14-7.13548E-14
 -1      2021 2.26936E+01-1.13345E-01-1.83161E-03 5.59373E-01-8.51715E-14 9.15526E-14
 -1      2022 2.22885E+01 4.32947E-03-1.64847E-03 5.38276E-01 1.32053E-13 2.70543E-14
 -1      2023 2.25176E+01-1.25148E-02-1.89213E-03 5.24078E-01-1.05094E-14 2.67234E-15
 -1      2024 2.23096E+01-3.07742E-02-1.17372E-03 6.51332E-01 8.22216E-15-9.37275E-14
 -1      2025 2.18674E+01 2.74637E-02-1.75339E-03 5.08025E-01 2.57610E-13 9.74130E-14
 -1      2026 2.20976E+01 1.93803E-02 1.92082E-04 5.18121E-01 2.45570E-13 1.01068E-13
 -1      2027 2.19211E+01 2.08887E-02-6.83181E-04 6.51560E-01 2.26649E-13 1.16010E-13
 -1      2028 2.14838E+01 3.76729E-02-1.49907E-03 4.48047E-01-4.95650E-14 5.84623E-15
 -1      2029 2.16962E+01 3.53830E-02 1.49601E-03 4.71029E-01 4.69746E-14 4.11982E-14
 -1      2030 2.15565E+01 4.78970E-02-4.33477E-04 5.97854E-01 1.00210E-13 1.07681E-13
 -1      2031 2.11510E+01 3.98030E-02-1.12938E-03 3.77053E-01-1.01613E-13 2.26872E-13
 -1      2032 2.13361E+01 4.08924E-02 2.16364E-03 4.05139E-01-1.09699E-13 1.44751E-13
 -1      2033 2.12318E+01 5.81851E-02-3.58480E-04 5.18302E-01-9.69014E-14 1.76371E-13
 -1      2034 2.08726E+01 3.74309E-02-7.71075E-04 3.06299E-01 1.45657E-13 1.59762E-13
 -1      2035 2.10274E+01 4.02207E-02 2.38085E-03 3.34741E-01 6.63857E-14 2.09056E-13
 -1      2036 2.09536E+01 5.84246E-02-3.71284E-04 4.31284E-01 1.01155E-13 2.35136E-13
 -1      2037 2.06464E+01 3.29108E-02-4.75283E-04 2.41780E-01 2.00817E-14-5.52575E-14
 -1      2038 2.07718E+01 3.63456E-02 2.31491E-03 2.67994E-01 1.18559E-13 1.34622E-14
 -1      2039 2.07224E+01 5.33407E-02-4.08695E-04 3.47575E-01 2.02649E-13 1.35275E-13
 -1      2040 2.04673E+01 2.76698E-02-2.52860E-04 1.86111E-01-3.96098E-14-3.75154E-13
 -1      2041 2.05662E+01 3.11405E-02 2.09322E-03 2.08919E-01-4.93149E-14-1.67915E-13
 -1      2042 2.05353E+01 4.59489E-02-4.36700E-04 2.72698E-01 7.55468E-14-8.56013E-14
 -1      2043 2.03286E+01 2.25081E-02-9.68010E-05 1.39906E-01-5.89648E-14-1.17795E-13
 -1      2044 2.04047E+01 2.56969E-02 1.80278E-03 1.58974E-01-5.28111E-14-2.91775E-13
 -1      2045 2.03874E+01 3.80218E-02-4.42834E-04 2.08851E-01-6.62488E-14-7.19305E-14
 -1      2046 2.02236E+01 1.78313E-02 5.78014E-06 1.02679E-01-1.75332E-13-8.22658E-14
 -1      2047 2.02808E+01 2.05980E-02 1.49800E-03 1.18145E-01-9.85147E-14 2.50527E-14
 -1      2048 2.02729E+01 3.05151E-02-4.27005E-04 1.56272E-01-1.23208E-13 8.60220E-14
 -1      2049 2.01458E+01 1.38075E-02 6.81316E-05 7.34162E-02 2.86635E-13-9.54856E-14
 -1      2050 2.01878E+01 1.61154E-02 1.20990E-03 8.56533E-02 6.71872E-14-8.50878E-14
 -1      2051 2.01862E+01 2.38807E-02-3.94496E-04 1.14151E-01 1.27070E-13 2.41709E-14
 -1      2052 2.00895E+01 1.04689E-02 1.01764E-04 5.09113E-02 5.36944E-14-8.94713E-14
 -1      2053 2.01196E+01 1.23378E-02 9.54014E-04 6.03855E-02 1.94530E-13-7.87911E-14
 -1      2054 2.01219E+01 1.82755E-02-3.51751E-04 8.11887E-02 2.56209E-13 5.47670E-14
 -1      2055 2.00500E+01 7.77545E-03 1.15874E-04 3.39580E-02-1.23553E-13-1.07585E-13
 -1      2056 2.00709E+01 9.25231E-03 7.36160E-04 4.11462E-02-2.06818E-14-4.35508E-14
 -1      2057 2.00754E+01 1.36925E-02-3.04463E-04 5.59346E-02 3.34769E-15 2.85018E-14
 -1      2058 2.00232E+01 5.65301E-03 1.17380E-04 2.14486E-02-1.03087E-13-1.36693E-14
 -1      2059 2.00371E+01 6.79503E-03 5.56445E-04 2.67952E-02-1.05543E-13-1.62132E-13
 -1      2060 2.00427E+01 1.00420E-02-2.56985E-04 3.69767E-02-1.08850E-13-1.09568E-13
 -1      2061 2.00059E+01 4.01537E-03 1.11245E-04 1.24181E-02-3.71299E-13 1.25842E-13
 -1      2062 2.00147E+01 4.88071E-03 4.11894E-04 1.63142E-02-2.79825E-13 2.24606E-14
 -1      2063 2.00205E+01 7.19898E-03-2.12261E-04 2.30368E-02-2.75311E-13-5.13330E-14
 -1      2064 1.99955E+01 2.77617E-03 1.00840E-04 6.05626E-03 1.06864E-13 1.98610E-13
 -1      2065 2.00006E+01 3.41912E-03 2.98072E-04 8.83324E-03-3.74225E-14 2.15967E-13
 -1      2066 2.00061E+01 5.02986E-03-1.72004E-04 1.30114E-02-1.33466E-13 1.66624E-13
 -1      2067 1.99900E+01 1.85466E-03 8.82797E-05 1.70453E-03 5.74988E-14 1.53260E-13
 -1      2068 1.99925E+01 2.32363E-03 2.10034E-04 3.63359E-03 6.02838E-14 1.55842E-13
 -1      2069 1.99974E+01 3.40606E-03-1.36986E-04 5.98122E-03 1.01721E-13 2.96924E-13
 -1      2070 1.99879E+01 1.17781E-03 7.46752E-05-1.15616E-03-1.33105E-14 2.08097E-13
 -1      2071 1.99886E+01 1.51493E-03 1.42864E-04 1.39896E-04-3.66487E-14 1.66687E-13
 -1      2072 1.99928E+01 2.21000E-03-1.07336E-04 1.20437E-03-3.61626E-14 2.72721E-13
 -1      2073 1.99881E+01 6.80199E-04 6.04082E-05-2.91897E-03 3.92785E-13 7.68708E-14
 -1      2074 1.99876E+01 9.21779E-04 9.19331E-05-2.09281E-03 2.14036E-13 9.78196E-14
 -1      2075 1.99910E+01 1.33672E-03-8.27472E-05-1.89777E-03 2.73532E-13 1.59695E-13
 -1      2076 1.99897E+01 3.01805E-04 4.57226E-05-3.86516E-03 2.50527E-13 1.17912E-14
 -1      2077 1.99885E+01 4.80161E-04 5.33275E-05-3.39277E-03 3.92916E-13 2.07512E-13
 -1      2078 1.99911E+01 6.93057E-04-6.22912E-05-3.75735E-03 3.19433E-13 8.48908E-14
 -1      2079 1.99921E+01-1.45332E-05 3.13270E-05-4.16936E-03 1.49349E-13-7.83346E-14
 -1      2080 1.99905E+01 1.28768E-04 2.42631E-05-3.98116E-03 9.47184E-14-3.19480E-14
 -1      2081 1.99923E+01 1.90664E-04-4.44489E-05-4.67208E-03 1.44784E-13 2.30998E-13
 -1      2082 1.99946E+01-3.24394E-04 1.75193E-05-3.91252E-03-1.14738E-13 2.47273E-13
 -1      2083 1.99930E+01-1.87864E-04 3.78376E-06-3.98245E-03 5.97680E-14 1.77406E-13
 -1      2084 1.99942E+01-2.50889E-04-2.74577E-05-4.82009E-03 4.30716E-14 2.95011E-13
 -1      2085 1.99969E+01-6.86842E-04 1.99657E-06-3.08385E-03-4.74695E-14 3.52199E-13
 -1      2086 1.99956E+01-5.24265E-04-6.31934E-06-3.44300E-03-7.61512E-15 2.73619E-13
 -1      2087 1.99961E+01-7.15654E-04-1.35322E-05-4.28974E-03-5.90881E-14 5.65419E-13
 -1      2088 1.99985E+01-1.03917E-03-1.53335E-05-2.05696E-03 4.67551E-15 2.53976E-13
 -1      2089 1.99975E+01-8.58737E-04-9.89803E-06-2.69107E-03 7.95977E-14 3.83422E-13
 -1      2090 1.99977E+01-1.15356E-03 4.19226E-06-3.41627E-03 8.20284E-14 5.23192E-13
 -1      2091 1.99987E+01-1.61686E-03 9.45418E-06-2.47976E-03 4.98880E-14 5.13815E-13
 -1      2092 2.00002E+01-7.05947E-03 7.06107E-06-3.76391E-03 6.50253E-14-1.15101E-13
 -1      2093 2.00000E+01-5.86157E-03 1.18652E-06-3.90549E-03 4.38271E-14 1.28461E-13
 -1      2094 1.99997E+01-5.10193E-03 3.22353E-06-3.95690E-03 5.75619E-14 2.88441E-13
 -1      2095 1.99994E+01-3.90617E-03-1.32603E-05-3.81829E-03 3.02449E-14 2.37810E-13
 -1      2096 1.99999E+01-4.48431E-03-7.25589E-06-4.80374E-03 6.73473E-14 1.93909E-13
 -1      2097 1.99992E+01-3.33512E-03 2.49625E-07-3.51622E-03-8.22253E-14 9.48187E-14
 -1      2098 1.99989E+01-2.27476E-03-2.01795E-05-3.02956E-03 4.38000E-14 3.03064E-13
 -1      2099 1.99985E+01-2.04758E-03-1.80660E-05-3.58612E-03 6.36176E-14 3.02415E-13
 -1      2100 1.99992E+01-3.21354E-03-8.75655E-06-4.52368E-03-3.16677E-14 2.34675E-13
 -1      2101 2.00004E+01-8.72535E-03 1.26097E-05-3.15763E-03-3.52630E-13-7.08902E-13
 -1      2102 2.00003E+01-7.68714E-03 1.91767E-05-3.46387E-03-1.19633E-13-2.99448E-13
 -1      2103 2.00004E+01-5.86662E-03-1.26372E-05-4.40259E-03-1.38773E-13-3.97451E-13
 -1      2104 2.00005E+01-1.00311E-02 1.90617E-05-2.29728E-03-3.85354E-14-1.97604E-13
 -1      2105 2.00005E+01-9.22132E-03 2.96758E-05-2.70208E-03-1.05116E-13-2.37903E-13
 -1      2106 2.00008E+01-6.99908E-03-1.37765E-05-3.56294E-03-1.29212E-13-4.12835E-13
 -1      2107 2.00006E+01-1.08682E-02 2.48379E-05-1.31518E-03 1.56371E-13-5.98315E-14
 -1      2108 2.00006E+01-1.03636E-02 3.40983E-05-1.76346E-03 1.38207E-13-1.37405E-13
 -1      2109 2.00009E+01-7.83816E-03-1.40993E-05-2.46871E-03 2.03164E-13-4.08557E-14
 -1      2110 2.00006E+01-1.12048E-02 2.99797E-05-2.84600E-04-1.79236E-13-3.83747E-13
 -1      2111 2.00006E+01-1.10345E-02 3.34657E-05-7.48718E-04 5.23837E-14-1.50824E-13
 -1      2112 2.00010E+01-8.34595E-03-1.39058E-05-1.25483E-03 2.27804E-13-2.94013E-13
 -1      2113 2.00006E+01-1.10325E-02 3.36365E-05 7.55091E-04-1.57295E-13-3.59801E-13
 -1      2114 2.00006E+01-1.12052E-02 2.98362E-05 2.90576E-04-2.27315E-13-4.81717E-13
 -1      2115 2.00010E+01-8.51582E-03-1.37799E-05 3.32804E-06-2.14840E-13-3.97466E-13
 -1      2116 2.00006E+01-1.03595E-02 3.42740E-05 1.77183E-03-3.28994E-13-3.26077E-13
 -1      2117 2.00006E+01-1.08667E-02 2.45293E-05 1.32262E-03-2.33232E-13-1.43739E-13
 -1      2118 2.00010E+01-8.34692E-03-1.40088E-05 1.26275E-03-2.68947E-13-3.95804E-13
 -1      2119 2.00005E+01-9.23615E-03 2.97218E-05 2.69800E-03-3.24852E-13-1.25052E-13
 -1      2120 2.00005E+01-1.00343E-02 1.86786E-05 2.29902E-03-3.78962E-13-2.39630E-13
 -1      2121 2.00009E+01-7.84455E-03-1.42651E-05 2.47004E-03-1.73576E-13-4.89907E-13
 -1      2122 2.00003E+01-7.68653E-03 1.86486E-05 3.47030E-03-1.16127E-13 4.09482E-13
 -1      2123 2.00004E+01-8.74276E-03 1.26327E-05 3.15757E-03-2.10664E-13 2.19684E-13
 -1      2124 2.00008E+01-7.01438E-03-1.39652E-05 3.56016E-03 1.30950E-13 1.34291E-13
 -1      2125 2.00000E+01-5.84235E-03 4.16231E-07 3.91505E-03 1.18120E-13 7.99832E-13
 -1      2126 2.00002E+01-7.04305E-03 7.14890E-06 3.77566E-03-7.93491E-14 4.74560E-13
 -1      2127 2.00004E+01-5.86982E-03-1.23002E-05 4.41205E-03 2.67873E-13 5.03561E-13
 -1      2128 1.99994E+01-3.87870E-03-1.97963E-05 3.86122E-03-8.05676E-14 4.18229E-13
 -1      2129 1.99997E+01-5.08363E-03 9.49379E-06 3.96621E-03-4.42568E-14 5.84097E-13
 -1      2130 1.99999E+01-4.47095E-03-4.26344E-06 4.81261E-03 1.30352E-13 6.33519E-13
 -1      2131 1.10340E+01-5.16231E+00-1.07195E-01 6.63322E+00 9.61453E-14 6.92311E-13
 -1      2132 7.27284E+00-6.40374E+00-3.04444E-01 5.46200E+00-6.18394E-14 6.49467E-13
 -1      2133 4.09141E-01-6.62013E+00-3.25976E-01 9.10527E-01-9.13297E-14 3.38951E-13
 -1      2134 3.59068E-01-6.93374E+00-3.75718E-01-9.08799E-01-1.42608E-13 4.06619E-13
 -1      2135 4.07935E+00-5.88993E+00-2.06103E-01 4.55063E+00-2.43139E-14 8.93452E-13
 -1      2136 1.96998E+00-6.53242E+00-3.12336E-01 2.90937E+00-2.09166E-13 6.55365E-13
 -1      2137 2.00394E+01-3.09536E+00 5.10753E-02 6.75423E+00 3.64431E-13 5.78981E-13
 -1      2138 1.56482E+01-5.06679E+00-2.13718E-01 6.21408E+00 1.76081E-13 5.38319E-13
 -1      2139 2.78109E+01-1.06911E-02 1.93649E-01 6.02087E+00 5.37348E-13 6.08402E-13
 -1      2140 2.28908E+01-1.89381E+00-1.60943E-01 5.83018E+00 4.44311E-13 5.68157E-13
 -1      2141 1.95686E+01 4.12523E+00-2.65088E-02-1.29610E+00-2.10972E-13-5.22870E-13
 -1      2142 1.97881E+01 4.03794E+00-2.16747E-02-1.54143E+00-2.64383E-13-4.77000E-13
 -1      2143 2.01443E+01 3.33572E+00-1.78034E-02-1.48609E+00-2.92647E-13-4.15206E-13
 -1      2144 1.96750E+01 3.76147E+00-5.20933E-03-1.10404E+00-2.00679E-13-5.08269E-13
 -1      2145 3.88988E+01 5.64268E+00 3.03885E-01 1.60969E+00 8.08686E-13 3.55271E-15
 -1      2146 3.64053E+01 4.58774E+00 1.87755E-01 2.75803E+00 7.75380E-13 2.19047E-13
 -1      2147 4.02308E+01 7.09329E+00 3.03694E-01-1.15256E-01 8.35110E-13-7.05130E-14
 -1      2148 3.91359E+01 6.93358E+00 2.40591E-01 9.11956E-01 8.76410E-13 1.91236E-14
 -1      2149 3.72866E+01 6.64112E+00 1.03523E-01-9.62222E-01 8.91065E-13-1.39944E-13
 -1      2150 4.01440E+01 7.16502E+00 4.31831E-01-4.28332E-01 8.58369E-13-6.36435E-14
 -1      2151 3.52210E+01 8.12180E+00 2.59813E-01 3.07506E-02 8.52596E-13-3.75602E-14
 -1      2152 3.47028E+01 3.51687E+00 1.82921E-01-2.93933E+00 7.57852E-13-4.07896E-13
 -1      2153 3.69048E+01 4.80902E+00 1.68315E-01-1.69610E+00 7.90007E-13-1.89349E-13
 -1      2154 2.81205E+01 1.86622E-02-3.31276E-02-5.03357E+00 7.33136E-13-6.57807E-13
 -1      2155 3.24690E+01 1.49113E+00 1.87322E-01-4.43331E+00 7.41962E-13-4.30989E-13
 -1      2156 2.02933E+01-3.33367E+00-2.19272E-01-5.99932E+00 5.24525E-13-8.73412E-13
 -1      2157 2.51885E+01-1.40802E+00 1.12992E-01-6.35119E+00 6.47316E-13-7.80265E-13
 -1      2158 1.13219E+01-5.79466E+00-3.94747E-01-5.89238E+00 4.15334E-13-8.68153E-13
 -1      2159 1.58676E+01-3.77479E+00-7.54778E-02-6.93426E+00 5.54001E-13-1.03687E-12
 -1      2160 5.04237E+00-6.68214E+00-2.91836E-01-4.88652E+00 1.16906E-13-8.19816E-13
 -1      2161 7.86417E+00-5.91206E+00-2.54791E-01-5.83107E+00 3.84914E-13-8.68999E-13
 -1      2162 4.89515E-01-7.50013E+00-4.64543E-01-1.38689E+00-1.62634E-13-9.02278E-13
 -1      2163 1.96104E+00-6.50419E+00-3.13410E-01-3.15054E+00 3.43614E-14-9.28146E-13
 -1      2164 9.97300E-01-6.87088E+00-3.47035E-01 2.05940E+00-4.07119E-13-1.00764E-12
 -1      2165 3.01435E-01-7.19208E+00-3.96192E-01 3.89943E-01-1.48302E-13-9.53015E-13
 -1      2166 6.01210E+00-5.78852E+00-1.85505E-01 5.42422E+00-5.83866E-13-8.29309E-13
 -1      2167 3.04398E+00-7.06921E+00-4.03154E-01 3.70428E+00-3.77476E-13-9.50684E-13
 -1      2168 1.41040E+01-4.68169E+00-1.16268E-01 6.83600E+00-8.20677E-13-7.09433E-13
 -1      2169 9.97967E+00-6.23513E+00-3.19715E-01 5.92587E+00-6.74627E-13-7.05529E-13
 -1      2170 2.33557E+01-3.04223E+00-6.21453E-02 6.06256E+00-7.20646E-13-4.03122E-13
 -1      2171 1.81409E+01-4.33175E+00-2.30950E-01 6.11577E+00-8.12517E-13-6.28553E-13
 -1      2172 1.85623E+01-5.38621E+00 1.56967E-02 6.53831E+00-3.71869E-13-3.76449E-13
 -1      2173 3.24026E+01 1.49853E+00 3.47324E-01 4.77527E+00-8.80213E-13-3.24851E-13
 -1      2174 2.78502E+01-9.32906E-01 1.00993E-02 4.47634E+00-8.60284E-13-2.25819E-13
 -1      2175 3.78267E+01 4.41367E+00 3.46738E-01 3.00940E+00-7.59615E-13-2.36033E-13
 -1      2176 3.41084E+01 3.07970E+00 1.17083E-01 3.76914E+00-8.51375E-13-4.04232E-13
 -1      2177 3.26326E+01 1.16253E+00 1.59281E-01 1.66374E+00-6.80511E-13 2.99760E-14
 -1      2178 3.86415E+01 6.79557E+00 1.43533E-01 3.63478E-01-7.63001E-13-3.73868E-14
 -1      2179 3.86496E+01 5.95427E+00 3.47123E-01 1.76471E+00-7.96696E-13-2.35645E-13
 -1      2180 3.91418E+01 7.01059E+00 3.04534E-01-5.96243E-01-7.70661E-13 1.42580E-13
 -1      2181 3.83534E+01 7.41520E+00 1.38245E-01 2.42825E-01-8.08464E-13-3.41498E-14
 -1      2182 3.75217E+01 5.00762E+00 2.41268E-01-2.67346E+00-6.90170E-13 3.45612E-13
 -1      2183 3.97299E+01 5.89466E+00 3.17996E-01-1.43259E+00-6.79623E-13 2.14218E-13
 -1      2184 3.14804E+01 1.44254E+00 6.38338E-03-3.51601E+00-4.73323E-13 3.66818E-13
 -1      2185 3.59260E+01 3.24872E+00 3.58149E-01-3.34422E+00-5.96662E-13 2.87048E-13
 -1      2186 2.32792E+01-2.25426E+00-1.52890E-01-5.58541E+00-2.91267E-13 5.42233E-13
 -1      2187 2.83456E+01-5.91264E-01 1.04453E-01-5.40716E+00-2.89047E-13 4.79561E-13
 -1      2188 1.43274E+01-4.90292E+00-3.47430E-01-6.00714E+00-1.90847E-13 6.76820E-13
 -1      2189 1.91963E+01-2.91633E+00-1.69545E-02-6.84393E+00-2.91211E-13 6.63691E-13
 -1      2190 6.80956E+00-6.79845E+00-4.17372E-01-5.08082E+00-4.12448E-14 4.78978E-13
 -1      2191 1.05220E+01-5.13359E+00-1.59892E-01-6.30914E+00-1.93956E-13 6.33549E-13
 -1      2192 1.71429E+00-7.08678E+00-3.81039E-01-2.81657E+00-5.77316E-15 3.05478E-13
 -1      2193 3.67737E+00-6.61014E+00-3.33346E-01-4.20110E+00-1.12022E-13 2.92377E-13
 -1      2194 3.48502E+01 2.85697E+00 2.92658E-01 3.95598E+00 6.64660E-13 2.65121E-13
 -1      2195 3.06216E+01 1.32892E+00 1.29001E-02 4.41857E+00 6.04211E-13 3.89244E-13
 -1      2196 2.36415E+01-4.16010E+00 5.27059E-03 5.29864E+00 2.03726E-14 2.52909E-13
 -1      2197 2.12436E+01 1.10892E+00-1.78949E-02-1.28649E+00-3.46383E-13 1.13654E-13
 -1      2198 2.99600E+01-8.28476E-01 1.73277E-01 3.17944E+00 3.42504E-13 9.65894E-14
 -1      2199 3.40464E+01 3.23780E+00 2.82408E-01 7.88165E-01 5.78038E-13-2.50633E-13
 -1      2200 2.11151E+01 1.35148E+00-2.02898E-02-1.26548E+00-3.61445E-13-6.25125E-14
 -1      2201 7.57110E+00-5.13459E+00-6.95027E-02 5.79563E+00-2.72449E-13 7.07212E-13
 -1      2202 2.49721E+00-4.55714E+00-1.18396E-01 2.32491E+00-2.23141E-13 4.87665E-13
 -1      2203 1.99991E+01-3.01630E-03-1.76961E-05 3.84987E-03-2.04219E-14 3.42895E-13
 -1      2204 1.57506E+01-5.58801E+00-4.23612E-02 6.75438E+00-1.34281E-13 5.53002E-13
 -1      2205 2.32399E+00-4.95539E+00-1.77553E-01-2.35878E+00 5.09037E-14 3.49498E-13
 -1      2206 7.30914E+00-5.55780E+00-1.53192E-01-5.76757E+00 1.06581E-13 4.03899E-13
 -1      2207 1.49409E+01-5.63801E+00-8.43351E-02-6.67222E+00 6.36158E-14 5.69954E-13
 -1      2208 2.33953E+01-4.15614E+00 6.96946E-02-5.44060E+00 1.98730E-14 3.25184E-13
 -1      2209 3.04387E+01-8.74046E-01 1.50833E-01-2.48486E+00-1.66908E-13 1.49436E-13
 -1      2210 3.46011E+01 3.77458E+00 2.58393E-01-4.39115E-01-4.77562E-13-1.05194E-13
 -1      2211 3.55109E+01 7.04941E+00 2.60006E-01 1.92873E-01-7.27640E-13-4.54636E-14
 -1      2212 3.52091E+01 5.19614E+00 3.13372E-01 1.93063E-01-7.33025E-13 3.98015E-14
 -1      2213 2.65654E+01-2.76054E+00 5.05016E-02 4.53750E+00-6.60999E-13-1.02141E-13
 -1      2214 2.53830E+01-4.32928E+00 1.37058E-01 4.48242E+00-3.48305E-13 6.59750E-14
 -1      2215 2.86529E+01-2.87776E+00-1.64939E-01 2.56997E+00-4.92217E-13 2.33091E-13
 -1      2216 9.99461E+00-5.60408E+00-8.69520E-02 6.37974E+00-2.41807E-13-6.69881E-13
 -1      2217 3.64410E+00-4.79815E+00-1.25713E-01 3.64602E+00-1.10467E-13-1.04156E-12
 -1      2218 1.61762E+00-4.79983E+00-1.78252E-01-5.81477E-01-9.75747E-14-1.03689E-12
 -1      2219 4.61333E+00-5.74763E+00-1.86998E-01-4.49599E+00-2.22045E-14-9.02445E-13
 -1      2220 7.50599E+00-4.68615E+00-8.34718E-02-5.86934E+00-1.31312E-13-8.36164E-13
 -1      2221 4.68131E+00-3.90594E+00 7.16007E-02-4.18924E+00-8.81517E-14-9.30755E-13
 -1      2222 1.20057E+01-5.86982E+00-1.63311E-01-6.76369E+00 5.30687E-14-8.21933E-13
 -1      2223 2.05543E+01-4.90932E+00 1.16488E-02-6.26316E+00 1.48881E-13-6.68410E-13
 -1      2224 2.78974E+01-2.45125E+00 1.32624E-01-3.88770E+00 3.20050E-13-2.26930E-13
 -1      2225 3.56222E+01 5.74576E+00 1.92149E-01-3.27751E-01 8.05356E-13-7.78266E-14
 -1      2226 3.25358E+01 6.31737E+00-1.22034E-01 1.00006E+00 7.88758E-13 2.25098E-14
 -1      2227 3.27049E+01 4.59244E+00 3.30292E-02 6.52293E-01 6.92113E-13 1.40055E-13
 -1      2228 3.56470E+01 6.83018E+00 3.01057E-01-1.69176E-01 7.85927E-13-2.47025E-13
 -1      2229 3.27583E+01 1.61902E+00 2.17955E-01-1.59954E+00 5.84810E-13-3.67484E-14
 -1      2230 3.51673E+01 7.55991E+00 1.77947E-01-3.51213E-02-8.31057E-13-1.47243E-14
 -1      2231 2.08303E+01 5.69883E-01 7.06123E-03 2.30751E-01 2.99965E-13 3.27666E-13
 -1      2232 2.09945E+01 7.47531E-01 2.07606E-02 5.49945E-01 3.36503E-13 3.80332E-13
 -1      2233 1.90781E+01 3.89000E+00-1.12451E-02-3.43627E-01 8.33426E-16-5.05893E-13
 -1      2234 1.91909E+01 3.82503E+00-7.92564E-03-4.70822E-01-4.79516E-14-5.26640E-13
 -1      2235 1.93280E+01 3.69360E+00-1.38003E-02-5.75951E-01-8.28713E-14-5.22258E-13
 -1      2236 1.94933E+01 3.58612E+00-1.00125E-02-7.23595E-01-1.42057E-13-5.13495E-13
 -1      2237 1.93837E+01 3.43402E+00 2.12473E-03-4.27828E-01-6.48016E-14-4.84604E-13
 -1      2238 1.89165E+01 4.01527E+00-7.99050E-03 5.54046E-02 1.58230E-13-4.81464E-13
 -1      2239 1.89133E+01 4.01730E+00-8.19965E-03-5.48393E-02 1.14523E-13-4.92682E-13
 -1      2240 1.90099E+01 3.95192E+00-7.44822E-03 2.55742E-01 2.28059E-13-4.58236E-13
 -1      2241 1.89483E+01 3.98596E+00-9.51992E-03 1.39952E-01 1.86776E-13-4.72310E-13
 -1      2242 1.90354E+01 3.71324E+00 1.58912E-03 7.67826E-02 1.67595E-13-4.47866E-13
 -1      2243 1.92101E+01 3.80539E+00-7.92097E-03 4.75645E-01 2.96361E-13-3.92341E-13
 -1      2244 1.90958E+01 3.87226E+00-1.14139E-02 3.47976E-01 2.54651E-13-4.37442E-13
 -1      2245 1.91639E+01 3.61034E+00 1.63763E-03 2.42875E-01 2.28696E-13-4.16946E-13
 -1      2246 1.95162E+01 3.56007E+00-1.00812E-02 7.34188E-01 3.78894E-13-3.03625E-13
 -1      2247 1.93494E+01 3.67035E+00-1.38687E-02 5.84314E-01 3.30078E-13-3.50509E-13
 -1      2248 1.94061E+01 3.40801E+00 1.80001E-03 4.31604E-01 3.02266E-13-3.40968E-13
 -1      2249 1.99186E+01 3.19067E+00-1.53136E-02 1.02695E+00 4.37222E-13-2.04319E-13
 -1      2250 1.97046E+01 3.36261E+00-1.68050E-02 8.57084E-01 3.94574E-13-2.61314E-13
 -1      2251 1.97545E+01 3.09317E+00 2.79152E-03 6.47673E-01 3.70153E-13-2.48965E-13
 -1      2252 2.04153E+01 2.64550E+00-2.56373E-02 1.32236E+00 4.76750E-13-3.04687E-14
 -1      2253 2.01560E+01 2.91617E+00-1.90466E-02 1.14890E+00 4.45746E-13-1.36243E-13
 -1      2254 2.01907E+01 2.64438E+00 5.92098E-03 8.70907E-01 4.17188E-13-1.42444E-13
 -1      2255 2.07470E+01 3.56000E-01 8.27290E-03-2.39861E-01 2.30038E-13 2.41532E-13
 -1      2256 2.07836E+01 4.44636E-01 2.03314E-02-4.51343E-02 2.66344E-13 2.97772E-13
 -1      2257 2.08092E+01 7.31106E-01-4.53072E-03 1.57458E-01 3.22790E-13 1.76422E-13
 -1      2258 2.09343E+01 9.47033E-01 1.43102E-02-4.95113E-01-2.87327E-13-1.24114E-13
 -1      2259 2.08133E+01 7.39980E-01-4.76342E-04-1.47999E-01-2.62049E-13-1.34671E-13
 -1      2260 3.01413E+01-1.14114E+00-1.13874E-01 1.29827E+00 1.60603E-13-3.47666E-13
 -1      2261 2.79024E+01-2.83513E+00-5.29773E-02 2.56494E+00 3.44585E-14-1.44940E-13
 -1      2262 2.07997E+01 6.00825E-01 1.58173E-02 1.24464E-01-2.32627E-13-1.12011E-13
 -1      2263 2.07723E+01 4.92496E-01 4.14236E-03 3.48010E-01-1.95643E-13-1.20335E-13
 -1      2264 2.07501E+01 9.10625E-01-3.03615E-03-5.50950E-02-2.51745E-13-1.87917E-13
 -1      2265 2.07768E+01 4.17486E-01 1.07663E-02 5.51290E-01-1.68519E-13-8.50541E-14
 -1      2266 2.08322E+01 3.52845E-01 4.46695E-03 7.07551E-01-1.26844E-13-1.00764E-13
 -1      2267 2.07124E+01 6.17233E-01-5.29953E-03 4.56980E-01-1.82504E-13-1.53295E-13
 -1      2268 2.08742E+01 3.01656E-01 6.85347E-03 8.60418E-01-9.37613E-14-1.03207E-13
 -1      2269 2.09940E+01 2.50269E-01 3.59991E-03 9.71300E-01-7.13247E-14-1.02115E-13
 -1      2270 2.07493E+01 4.41610E-01-5.49270E-03 8.40273E-01-1.20122E-13-1.36865E-13
 -1      2271 2.10782E+01 2.00189E-01 4.93984E-03 1.08291E+00-6.28092E-14-1.04727E-13
 -1      2272 2.12452E+01 1.40688E-01 1.69519E-03 1.15222E+00-5.72303E-14-1.08058E-13
 -1      2273 2.08694E+01 3.01731E-01-5.44353E-03 1.12592E+00-7.62151E-14-1.17011E-13
 -1      2274 2.13763E+01 7.42043E-02 4.66893E-03 1.21976E+00-6.49589E-14-8.92319E-14
 -1      2275 2.15754E+01-1.16828E-02-1.56395E-03 1.23795E+00-1.81279E-14-6.54988E-14
 -1      2276 2.10756E+01 1.42914E-01-5.89385E-03 1.32249E+00-6.20339E-14-8.69334E-14
 -1      2277 2.17627E+01-1.09742E-01 5.78055E-03 1.24629E+00-5.41559E-15-9.24205E-14
 -1      2278 2.19783E+01-2.36725E-01-6.45394E-03 1.19300E+00-6.92545E-15-9.42068E-14
 -1      2279 2.13768E+01-8.03978E-02-7.26741E-03 1.41399E+00-3.58872E-14-1.08785E-13
 -1      2280 2.22345E+01-3.75420E-01 7.87262E-03 1.11481E+00-1.01993E-14-8.33988E-14
 -1      2281 2.24474E+01-5.46381E-01-1.28526E-02 9.63441E-01-2.41491E-14-6.23637E-14
 -1      2282 2.17911E+01-4.03088E-01-9.50177E-03 1.35971E+00-3.14527E-15-8.31291E-14
 -1      2283 2.27798E+01-7.16568E-01 9.68315E-03 7.62703E-01-6.92220E-15-4.93882E-14
 -1      2284 2.29621E+01-9.03840E-01-1.93569E-02 4.92317E-01 2.80852E-14-2.82689E-14
 -1      2285 2.23392E+01-8.28620E-01-1.16319E-02 1.09663E+00-1.47126E-15-5.72522E-14
 -1      2286 2.33504E+01-1.05704E+00 8.26606E-03 1.40068E-01 3.86635E-14 2.71105E-14
 -1      2287 2.34637E+01-1.17809E+00-2.20583E-02-2.39299E-01 5.06340E-14 5.98449E-14
 -1      2288 2.30193E+01-1.28252E+00-1.10479E-02 5.54302E-01 5.47279E-14 2.28345E-14
 -1      2289 2.38280E+01-1.20886E+00-7.71155E-04-7.23050E-01 2.04502E-14 7.39245E-14
 -1      2290 2.38314E+01-1.12381E+00-1.43469E-02-1.13207E+00-3.63555E-15 1.09567E-13
 -1      2291 2.37550E+01-1.55458E+00-4.56303E-03-2.92440E-01 3.75689E-14 1.17090E-13
 -1      2292 2.40308E+01-8.95113E-01-1.76358E-02-1.61431E+00-4.61705E-14 6.26292E-14
 -1      2293 2.39097E+01-4.82191E-01 6.24450E-03-1.87853E+00-1.37297E-13 7.43620E-14
 -1      2294 2.43541E+01-1.31290E+00 6.37009E-03-1.31422E+00-5.74549E-14 1.52273E-13
 -1      2295 2.38116E+01 5.64197E-02-4.21337E-02-2.07509E+00-2.31697E-13 6.91358E-14
 -1      2296 2.36223E+01 7.13975E-01 1.99886E-02-1.97196E+00-2.16899E-13 3.24009E-14
 -1      2297 2.45544E+01-2.62121E-01 1.24641E-02-2.10375E+00-2.13721E-13 6.62612E-14
 -1      2298 2.33327E+01 1.33887E+00-4.67113E-02-1.61059E+00-2.09322E-13-9.96373E-14
 -1      2299 2.31912E+01 1.85523E+00 8.84030E-03-1.06696E+00-2.69992E-13-1.64888E-13
 -1      2300 2.42700E+01 1.32305E+00-1.60561E-02-2.01028E+00-2.98074E-13-7.07160E-14
 -1      2301 2.30479E+01 2.12098E+00-2.02781E-02-2.22339E-01-3.25028E-13-2.21758E-13
 -1      2302 2.30674E+01 2.08608E+00-2.40343E-02 5.11421E-01-3.27620E-13-2.33889E-13
 -1      2303 2.38916E+01 2.54797E+00-4.39722E-02-7.42795E-01-3.44686E-13-2.57585E-13
 -1      2304 2.32555E+01 1.76273E+00 1.21087E-02 1.32193E+00-2.62367E-13-3.01459E-13
 -1      2305 2.34282E+01 1.20730E+00-4.68851E-02 1.82458E+00-1.64469E-13-3.44471E-13
 -1      2306 2.39351E+01 2.47266E+00-3.95129E-02 1.05236E+00-3.09017E-13-1.93500E-13
 -1      2307 2.37204E+01 5.71913E-01 1.89952E-02 2.11890E+00-1.26364E-13-3.37063E-13
 -1      2308 2.39283E+01-7.04646E-02-3.95588E-02 2.17548E+00-5.21484E-14-3.50732E-13
 -1      2309 2.43545E+01 1.15752E+00-8.22941E-03 2.20298E+00-1.51745E-13-3.27252E-13
 -1      2310 2.40007E+01-5.76295E-01 2.00491E-03 1.93203E+00 2.24180E-14-3.82315E-13
 -1      2311 2.41286E+01-9.47039E-01-1.64117E-02 1.64584E+00 7.22677E-14-3.88284E-13
 -1      2312 2.46138E+01-4.03213E-01 1.31342E-02 2.17171E+00-1.76950E-14-3.21750E-13
 -1      2313 2.39160E+01-1.13869E+00-1.61883E-02 1.15733E+00 1.28474E-13-4.02523E-13
 -1      2314 2.39191E+01-1.19069E+00 1.06175E-03 7.50597E-01 1.92862E-13-4.28577E-13
 -1      2315 2.43811E+01-1.34975E+00 7.21193E-03 1.33799E+00 6.65309E-14-3.60595E-13
 -1      2316 2.35557E+01-1.13699E+00-2.23058E-02 2.84592E-01 1.85919E-13-4.17458E-13
 -1      2317 2.34541E+01-1.00157E+00 8.87242E-03-7.78283E-02 2.06863E-13-3.90682E-13
 -1      2318 2.37725E+01-1.51622E+00-4.71062E-03 3.32791E-01 1.92673E-13-3.63359E-13
 -1      2319 2.30794E+01-8.42375E-01-1.89735E-02-4.05214E-01 2.10168E-13-3.59679E-13
 -1      2320 2.29140E+01-6.55693E-01 9.51949E-03-6.55582E-01 1.59319E-13-2.98609E-13
 -1      2321 2.30542E+01-1.20594E+00-1.06533E-02-4.67654E-01 2.22200E-13-2.56912E-13
 -1      2322 2.25976E+01-4.90299E-01-1.24278E-02-8.36057E-01 9.79681E-14-3.34923E-13
 -1      2323 2.24039E+01-3.28232E-01 7.28907E-03-9.71663E-01 1.21761E-13-3.34989E-13
 -1      2324 2.24048E+01-7.52588E-01-1.06330E-02-9.64315E-01 1.41830E-13-2.84086E-13
 -1      2325 2.21595E+01-2.00182E-01-6.26137E-03-1.03906E+00 9.19727E-14-3.41428E-13
 -1      2326 2.19608E+01-8.69747E-02 4.68788E-03-1.08526E+00 1.10177E-13-2.63970E-13
 -1      2327 2.18837E+01-3.49792E-01-8.11355E-03-1.19793E+00 1.20649E-13-2.89424E-13
 -1      2328 2.17770E+01-3.90824E-03-1.67863E-03-1.07882E+00 9.46934E-14-3.58097E-13
 -1      2329 2.15870E+01 6.31555E-02 2.68748E-03-1.06611E+00 8.56253E-14-3.06961E-13
 -1      2330 2.14835E+01-6.32006E-02-5.47671E-03-1.24639E+00 6.39648E-14-3.00757E-13
 -1      2331 2.14476E+01 1.09047E-01 1.27216E-03-1.01759E+00 6.77797E-14-4.04134E-13
 -1      2332 2.12741E+01 1.41727E-01 1.41230E-03-9.71639E-01 7.85386E-14-3.61569E-13
 -1      2333 2.11761E+01 1.10165E-01-3.56803E-03-1.18097E+00 2.52011E-14-3.92609E-13
 -1      2334 2.11660E+01 1.61768E-01 2.91805E-03-9.03214E-01-8.17055E-16-4.38313E-13
 -1      2335 2.10128E+01 1.72112E-01 6.94979E-04-8.42366E-01-7.48829E-14-4.67364E-13
 -1      2336 2.09353E+01 1.97562E-01-2.41063E-03-1.05487E+00 1.04772E-15-4.75354E-13
 -1      2337 2.09269E+01 1.76165E-01 3.64125E-03-7.68204E-01-1.89601E-14-4.17630E-13
 -1      2338 2.07954E+01 1.73531E-01 3.32266E-04-7.04138E-01 6.45067E-14-3.27294E-13
 -1      2339 2.07423E+01 2.28169E-01-1.77835E-03-9.03926E-01-8.32651E-15-5.42962E-13
 -1      2340 2.07262E+01 1.68723E-01 3.77014E-03-6.32557E-01-2.11759E-14-3.42578E-13
 -1      2341 2.06161E+01 1.59472E-01 1.68887E-04-5.71969E-01-1.72736E-13-2.12925E-13
 -1      2342 2.05853E+01 2.25159E-01-1.44334E-03-7.50437E-01 4.19954E-14-3.94346E-13
 -1      2343 2.05600E+01 1.50440E-01 3.55143E-03-5.07346E-01-1.49921E-13-2.83254E-13
 -1      2344 2.04699E+01 1.38529E-01 1.05942E-04-4.53566E-01 1.76529E-14-1.19331E-13
 -1      2345 2.04567E+01 2.04538E-01-1.24979E-03-6.07120E-01-8.85856E-14-2.10950E-13
 -1      2346 2.04246E+01 1.28066E-01 3.15541E-03-3.97762E-01-8.85891E-15-1.40803E-13
 -1      2347 2.03523E+01 1.15781E-01 8.77233E-05-3.52017E-01-8.12745E-14-2.05189E-13
 -1      2348 2.03518E+01 1.76419E-01-1.11109E-03-4.80298E-01-6.89814E-14-2.30737E-13
 -1      2349 2.03160E+01 1.05452E-01 2.69180E-03-3.05376E-01-1.71314E-13-2.22267E-13
 -1      2350 2.02591E+01 9.40048E-02 8.57445E-05-2.67671E-01-3.20357E-14-3.22733E-13
 -1      2351 2.02668E+01 1.46740E-01-9.87488E-04-3.72245E-01-1.07614E-13-1.72087E-13
 -1      2352 2.02304E+01 8.46052E-02 2.22666E-03-2.29683E-01 6.39201E-14-3.93705E-13
 -1      2353 2.01865E+01 7.45490E-02 8.68346E-05-1.99374E-01-8.61858E-14-4.14838E-13
 -1      2354 2.01989E+01 1.18713E-01-8.65842E-04-2.82815E-01-9.57197E-14-2.69547E-13
 -1      2355 2.01641E+01 6.64125E-02 1.79647E-03-1.69101E-01-1.81904E-13-3.02518E-13
 -1      2356 2.01309E+01 5.79195E-02 8.59293E-05-1.45252E-01-1.90011E-13-3.75483E-13
 -1      2357 2.01455E+01 9.38690E-02-7.45113E-04-2.10536E-01-1.10418E-13-3.82751E-13
 -1      2358 2.01137E+01 5.11161E-02 1.41845E-03-1.21592E-01-1.56786E-13-3.04957E-13
 -1      2359 2.00891E+01 4.41488E-02 8.19592E-05-1.03187E-01-1.42712E-13-1.52490E-13
 -1      2360 2.01040E+01 7.27414E-02-6.28324E-04-1.53309E-01-1.27852E-13-1.71356E-13
 -1      2361 2.00761E+01 3.86088E-02 1.09797E-03-8.50332E-02-1.44813E-13-1.05384E-13
 -1      2362 2.00583E+01 3.30257E-02 7.55247E-05-7.10913E-02-1.26622E-13-1.70536E-13
 -1      2363 2.00724E+01 5.53105E-02-5.19184E-04-1.08849E-01-9.66467E-14 1.34352E-14
 -1      2364 2.00487E+01 2.86126E-02 8.33608E-04-5.74142E-02-1.26181E-13-2.32132E-13
 -1      2365 2.00361E+01 2.42293E-02 6.76035E-05-4.70499E-02-3.69049E-14-3.09437E-13
 -1      2366 2.00488E+01 4.12724E-02-4.20670E-04-7.49301E-02-1.15721E-13-1.62478E-13
 -1      2367 2.00292E+01 2.07819E-02 6.20447E-04-3.69377E-02 7.68078E-14-3.12213E-13
 -1      2368 2.00206E+01 1.74044E-02 5.90125E-05-2.93846E-02 4.58623E-15-2.27612E-13
 -1      2369 2.00316E+01 3.01991E-02-3.34448E-04-4.95229E-02-2.70848E-14-2.27257E-14
 -1      2370 2.00158E+01 1.47592E-02 4.52000E-04-2.20589E-02-6.16443E-14-2.32855E-13
 -1      2371 2.00102E+01 1.22017E-02 5.02424E-05-1.66759E-02-4.26415E-14-2.26002E-13
 -1      2372 2.00193E+01 2.16266E-02-2.60921E-04-3.08540E-02-4.11818E-15-7.41499E-14
 -1      2373 2.00069E+01 1.02044E-02 3.21372E-04-1.14918E-02-9.59669E-15-1.10181E-13
 -1      2374 2.00035E+01 8.29752E-03 4.14322E-05-7.75701E-03 1.41640E-13-8.88825E-14
 -1      2375 2.00108E+01 1.51034E-02-1.99571E-04-1.74255E-02 5.04773E-14 9.12911E-14
 -1      2376 2.00014E+01 6.80879E-03 2.21941E-04-4.19501E-03 2.92493E-13-2.98787E-14
 -1      2377 1.99996E+01 5.40205E-03 3.24074E-05-1.69672E-03 4.35210E-13 1.04548E-13
 -1      2378 2.00052E+01 1.02131E-02-1.49321E-04-8.00855E-03 2.83988E-13 2.66313E-13
 -1      2379 1.99983E+01 4.29783E-03 1.47764E-04 6.49292E-04 3.85035E-13 9.14973E-14
 -1      2380 1.99975E+01 3.25891E-03 2.28118E-05 2.22502E-03 4.05453E-13 4.86155E-14
 -1      2381 2.00017E+01 6.58322E-03-1.08858E-04-1.62395E-03 3.93055E-13 3.76033E-13
 -1      2382 1.99969E+01 2.42897E-03 9.38384E-05 3.66102E-03 3.31069E-13-7.49421E-14
 -1      2383 1.99968E+01 1.63986E-03 1.19836E-05 4.54168E-03 2.51681E-13 1.08247E-14
 -1      2384 1.99996E+01 3.88443E-03-7.67803E-05 2.48377E-03 2.60784E-13 2.53281E-13
 -1      2385 1.99966E+01 9.83771E-04 5.59732E-05 5.28470E-03 1.81432E-13-7.94235E-14
 -1      2386 1.99969E+01 3.42765E-04 1.75487E-06 5.61986E-03-2.27021E-14-1.07764E-13
 -1      2387 1.99987E+01 1.82154E-03-5.22353E-05 4.87379E-03 1.57663E-13-5.15844E-14
 -1      2388 1.99969E+01-2.44850E-04 2.61954E-05 5.81803E-03-9.99805E-14 5.72986E-14
 -1      2389 1.99975E+01-8.01324E-04-4.47845E-06 5.68636E-03 6.49298E-15 2.91226E-13
 -1      2390 1.99984E+01 1.48036E-04-3.24009E-05 5.93359E-03 7.16074E-14-1.66325E-13
 -1      2391 2.10012E+01 1.60732E-01 4.27801E-03-7.77046E-01 8.29506E-14 1.05540E-13
 -1      2392 2.08645E+01 2.00222E-01 7.77151E-03-6.90228E-01 9.76313E-14 1.34114E-13
 -1      2393 2.12847E+01 7.96975E-02 1.59152E-03-9.14481E-01 9.37079E-14 9.56546E-14
 -1      2394 2.11018E+01 1.23021E-01 4.90272E-03-8.65247E-01 7.83746E-14 1.06771E-13
 -1      2395 2.09518E+01 1.98116E-01-5.58575E-03-9.34821E-01 9.88608E-14 3.12039E-14
 -1      2396 2.16346E+01-2.62157E-02-2.09748E-03-9.62039E-01 8.80402E-14 1.26437E-13
 -1      2397 2.14280E+01 3.27409E-02 3.46593E-03-9.57538E-01 1.05185E-13 1.13786E-13
 -1      2398 2.11922E+01 7.55237E-02-5.22938E-03-1.08346E+00 8.62378E-14 1.65317E-14
 -1      2399 2.20228E+01-1.74586E-01-7.01418E-03-8.92083E-01 4.40258E-14 1.49503E-13
 -1      2400 2.18171E+01-9.18781E-02 2.88362E-03-9.47842E-01 4.84860E-14 1.48406E-13
 -1      2401 2.15110E+01-8.68319E-02-5.17301E-03-1.12464E+00 5.74744E-14 3.63624E-14
 -1      2402 2.24162E+01-3.69120E-01-1.27190E-02-6.65196E-01 1.76027E-14 1.97961E-13
 -1      2403 2.22405E+01-2.63333E-01 2.66611E-03-7.99974E-01 6.31153E-14 1.83782E-13
 -1      2404 2.18996E+01-3.09243E-01-5.26585E-03-1.02490E+00 3.05219E-14 9.56570E-14
 -1      2405 2.27696E+01-5.82396E-01-1.75613E-02-2.47411E-01-2.08965E-14 1.78024E-13
 -1      2406 2.26583E+01-4.73151E-01 2.10071E-03-4.72316E-01-1.10354E-14 1.94499E-13
 -1      2407 2.23449E+01-5.87140E-01-4.72880E-03-7.38543E-01 3.74765E-15 1.25905E-13
 -1      2408 2.30192E+01-7.34075E-01-1.82822E-02 3.55011E-01 7.13075E-14 1.14085E-13
 -1      2409 2.30072E+01-6.70850E-01-9.55553E-05 5.57411E-02 1.09986E-14 1.37803E-13
 -1      2410 2.28131E+01-8.64941E-01-2.07483E-03-2.28397E-01 2.76708E-14 6.28650E-14
 -1      2411 2.30836E+01-6.88179E-01-1.05764E-02 1.04228E+00 5.33202E-14 1.42681E-13
 -1      2412 2.31934E+01-7.46369E-01-5.22551E-03 7.34759E-01 3.96120E-14 1.04394E-13
 -1      2413 2.32260E+01-1.01011E+00 3.81686E-03 4.88999E-01 2.82834E-14 3.20906E-14
 -1      2414 2.29018E+01-3.16736E-01 6.34789E-03 1.58092E+00 9.54480E-14 2.36221E-13
 -1      2415 2.31199E+01-5.52932E-01-1.13209E-02 1.38898E+00 7.84633E-14 2.26524E-13
 -1      2416 2.34573E+01-8.38588E-01 1.10436E-02 1.27361E+00 3.69028E-14 1.71162E-13
 -1      2417 2.24879E+01 3.66225E-01 1.94411E-02 1.64443E+00 6.03961E-14 2.42479E-13
 -1      2418 2.27486E+01-8.03971E-03-1.96900E-02 1.71213E+00 1.15505E-13 2.54674E-13
 -1      2419 2.33887E+01-1.97621E-01 1.55282E-02 1.82817E+00 8.93623E-14 2.03177E-13
 -1      2420 2.20416E+01 1.05519E+00 1.97504E-02 1.01460E+00 1.05362E-13 1.39033E-13
 -1      2421 2.22328E+01 7.35940E-01-1.75740E-02 1.38986E+00 4.89522E-14 2.17150E-13
 -1      2422 2.30205E+01 7.62153E-01-5.04793E-04 1.73948E+00 1.11704E-13 1.82299E-13
 -1      2423 2.18703E+01 1.30980E+00 4.47094E-03-1.33753E-01 2.10710E-13 7.92673E-14
 -1      2424 2.18919E+01 1.26136E+00-3.91320E-04 4.10621E-01 1.70676E-13 1.05404E-13
 -1      2425 2.26331E+01 1.56823E+00-1.89086E-02 8.31731E-01 1.78262E-13 1.05517E-13
 -1      2426 2.21367E+01 9.39326E-01-1.49731E-02-1.24450E+00 1.44863E-13 7.78232E-14
 -1      2427 2.19705E+01 1.19779E+00 1.72073E-02-7.95452E-01 2.15215E-13 7.60390E-14
 -1      2428 2.25818E+01 1.69660E+00-2.15223E-02-5.42920E-01 2.28257E-13 1.18816E-13
 -1      2429 2.26757E+01 2.16972E-01-2.14678E-02-1.78550E+00-6.07136E-14 7.26710E-14
 -1      2430 2.24013E+01 5.94725E-01 1.99270E-02-1.62195E+00 5.38389E-14 7.83392E-14
 -1      2431 2.29288E+01 1.05091E+00-7.20389E-03-1.65475E+00 8.58532E-14 1.11858E-13
 -1      2432 2.31565E+01-4.11174E-01-1.46726E-02-1.64255E+00-1.78465E-13 6.11694E-14
 -1      2433 2.28881E+01-1.28637E-01 7.53129E-03-1.76240E+00-1.25267E-13 7.25644E-14
 -1      2434 2.33663E+01 7.90425E-02 8.06452E-03-1.99843E+00-8.27151E-14 1.28078E-13
 -1      2435 2.33660E+01-7.04888E-01-4.68855E-03-1.06417E+00-1.32356E-13-7.14793E-15
 -1      2436 2.31885E+01-6.02772E-01-8.12592E-03-1.33979E+00-1.78291E-13 8.06950E-15
 -1      2437 2.35697E+01-6.76043E-01 1.23708E-02-1.60639E+00-1.15217E-13-5.33834E-15
 -1      2438 2.32913E+01-6.93743E-01 1.04199E-03-3.80415E-01 9.69741E-14 4.14952E-14
 -1      2439 2.32361E+01-7.31477E-01-1.69959E-02-6.77895E-01 3.74353E-15 1.09474E-14
 -1      2440 2.34501E+01-9.81765E-01 6.08396E-03-8.64711E-01-2.69880E-14 2.22490E-14
 -1      2441 2.30237E+01-5.19752E-01 2.96905E-03 1.89557E-01 1.32903E-13 1.41436E-13
 -1      2442 2.30769E+01-6.20580E-01-1.79699E-02-4.84587E-02 1.56085E-13 6.79866E-14
 -1      2443 2.31054E+01-9.10048E-01-1.06640E-03-1.18852E-01 6.91695E-14-2.48387E-14
 -1      2444 2.26623E+01-3.10668E-01 2.89705E-03 5.67044E-01 1.06503E-14 6.46974E-14
 -1      2445 2.27916E+01-4.16320E-01-1.39958E-02 4.14209E-01 9.40606E-14 1.31882E-13
 -1      2446 2.26732E+01-6.54847E-01-4.36970E-03 4.45202E-01 1.07522E-13 8.09072E-14
 -1      2447 2.22746E+01-1.34689E-01 2.20438E-03 7.62155E-01-5.07205E-14-1.23371E-14
 -1      2448 2.24468E+01-2.18009E-01-8.67704E-03 6.86972E-01-5.08580E-14 5.31842E-14
 -1      2449 2.22434E+01-3.74378E-01-4.75145E-03 7.88043E-01 2.67156E-14 3.03915E-14
 -1      2450 2.18985E+01-1.23879E-02 1.56391E-03 8.19748E-01 1.03000E-13-1.54486E-13
 -1      2451 2.20867E+01-6.75670E-02-3.95747E-03 8.01951E-01 7.24963E-15-1.44198E-13
 -1      2452 2.18542E+01-1.47152E-01-3.98718E-03 9.42978E-01 8.20810E-14-1.51925E-13
 -1      2453 2.15533E+01 6.02978E-02 1.14604E-03 7.88474E-01 2.12183E-13-5.78758E-15
 -1      2454 2.17388E+01 2.91715E-02-4.98414E-04 8.06993E-01 1.21184E-13-9.02428E-14
 -1      2455 2.15155E+01 6.78320E-03-3.06884E-03 9.64363E-01 9.63513E-14-8.30747E-14
 -1      2456 2.12475E+01 9.59218E-02 9.16749E-04 7.08006E-01-1.00380E-14 1.31652E-13
 -1      2457 2.14187E+01 8.19971E-02 1.68596E-03 7.45983E-01 2.06050E-13 8.31633E-14
 -1      2458 2.12254E+01 9.59002E-02-2.37778E-03 9.03217E-01 1.13195E-13-4.88932E-14
 -1      2459 2.09841E+01 1.07226E-01 7.96585E-04 6.06270E-01-1.24265E-13 1.24056E-13
 -1      2460 2.11347E+01 1.04220E-01 2.85083E-03 6.52020E-01-1.24738E-13 1.64553E-13
 -1      2461 2.09793E+01 1.37667E-01-1.93571E-03 7.98733E-01-5.12295E-14 9.95935E-14
 -1      2462 2.07624E+01 1.04210E-01 7.23275E-04 5.00970E-01 1.55589E-13 2.05025E-13
 -1      2463 2.08903E+01 1.07412E-01 3.29867E-03 5.47224E-01 3.07890E-14 1.81093E-13
 -1      2464 2.07723E+01 1.48841E-01-1.66009E-03 6.77714E-01-7.72279E-14 1.47494E-14
 -1      2465 2.05798E+01 9.37753E-02 6.62124E-04 4.02224E-01 2.32869E-13 1.36301E-13
 -1      2466 2.06853E+01 1.00023E-01 3.29190E-03 4.44943E-01 2.75480E-13 2.67571E-13
 -1      2467 2.06002E+01 1.42286E-01-1.46966E-03 5.56849E-01 1.13562E-13 7.22095E-14
 -1      2468 2.04324E+01 8.02899E-02 5.99049E-04 3.15028E-01 8.13305E-14 1.55783E-13
 -1      2469 2.05172E+01 8.76248E-02 3.02795E-03 3.52320E-01 1.20600E-13 2.12214E-13
 -1      2470 2.04591E+01 1.26772E-01-1.31216E-03 4.45501E-01 1.63511E-13 3.03637E-13
 -1      2471 2.03156E+01 6.63253E-02 5.31349E-04 2.41165E-01-2.17288E-13 2.18536E-13
 -1      2472 2.03823E+01 7.36209E-02 2.64178E-03 2.72458E-01-2.53823E-15 1.87777E-13
 -1      2473 2.03450E+01 1.07806E-01-1.16244E-03 3.48125E-01-4.85117E-14 3.60014E-13
 -1      2474 2.02249E+01 5.32730E-02 4.61208E-04 1.80532E-01 2.48090E-14 1.03690E-13
 -1      2475 2.02762E+01 5.99399E-02 2.21869E-03 2.06008E-01-1.41194E-13 1.34224E-13
 -1      2476 2.02543E+01 8.85991E-02-1.01319E-03 2.66095E-01-4.99262E-14 2.70751E-13
 -1      2477 2.01558E+01 4.17892E-02 3.91968E-04 1.32016E-01 1.96624E-13 1.27994E-13
 -1      2478 2.01944E+01 4.75689E-02 1.80869E-03 1.52247E-01 1.64508E-13 1.06649E-13
 -1      2479 2.01834E+01 7.08636E-02-8.66229E-04 1.98975E-01 1.46894E-13 8.67120E-14
 -1      2480 2.01041E+01 3.20906E-02 3.26607E-04 9.40468E-02 1.61566E-13 1.33610E-13
 -1      2481 2.01326E+01 3.69192E-02 1.43820E-03 1.09766E-01 2.16914E-13 2.30887E-13
 -1      2482 2.01290E+01 5.53802E-02-7.26108E-04 1.45370E-01 1.88335E-13 1.74495E-13
 -1      2483 2.00664E+01 2.41466E-02 2.67287E-04 6.49325E-02 4.86358E-14 1.24177E-13
 -1      2484 2.00868E+01 2.80674E-02 1.11852E-03 7.68999E-02 5.86768E-14 1.10795E-13
 -1      2485 2.00879E+01 4.23771E-02-5.96925E-04 1.03465E-01 1.17282E-13 1.43979E-13
 -1      2486 2.00395E+01 1.78000E-02 2.15191E-04 4.30469E-02-1.79235E-13 4.06340E-14
 -1      2487 2.00538E+01 2.09089E-02 8.51836E-04 5.19773E-02-7.75943E-14 1.01426E-13
 -1      2488 2.00577E+01 3.17740E-02-4.81526E-04 7.13546E-02 2.87209E-14 1.51671E-13
 -1      2489 2.00210E+01 1.28383E-02 1.70631E-04 2.69258E-02-3.65652E-13 1.48383E-13
 -1      2490 2.00306E+01 1.52519E-02 6.35194E-04 3.34529E-02-1.78276E-13 9.55403E-14
 -1      2491 2.00358E+01 2.33350E-02-3.81342E-04 4.72259E-02-2.14375E-13 2.08996E-13
 -1      2492 2.00088E+01 9.03494E-03 1.33236E-04 1.53074E-02-5.79734E-14 1.77052E-13
 -1      2493 2.00149E+01 1.08728E-02 4.63137E-04 1.99711E-02-3.19909E-13 1.25455E-13
 -1      2494 2.00206E+01 1.67600E-02-2.96496E-04 2.94573E-02-3.05075E-13 1.43326E-13
 -1      2495 2.00012E+01 6.17069E-03 1.02121E-04 7.14215E-03-3.13015E-14 4.22632E-13
 -1      2496 2.00047E+01 7.54618E-03 3.29216E-04 1.03865E-02 5.75295E-14 2.20044E-13
 -1      2497 2.00102E+01 1.17348E-02-2.26144E-04 1.66563E-02-8.02904E-14 1.05345E-13
 -1      2498 1.99969E+01 4.04365E-03 7.60077E-05 1.58350E-03 6.00052E-14 2.96690E-13
 -1      2499 1.99987E+01 5.05990E-03 2.26873E-04 3.76255E-03-3.63099E-14 3.26758E-13
 -1      2500 2.00036E+01 7.95889E-03-1.68885E-04 7.66725E-03 3.84092E-14 3.97417E-13
 -1      2501 1.99949E+01 2.47174E-03 5.31317E-05-2.02774E-03 3.58532E-13 1.84182E-13
 -1      2502 1.99955E+01 3.22133E-03 1.49938E-04-6.42223E-04 1.87347E-13 2.51718E-13
 -1      2503 1.99997E+01 5.15634E-03-1.23102E-04 1.56123E-03 1.50340E-13 1.64633E-13
 -1      2504 1.99945E+01 1.29593E-03 3.46574E-05-4.18026E-03 3.02282E-13 2.25697E-13
 -1      2505 1.99943E+01 1.85769E-03 9.28174E-05-3.39163E-03 4.12921E-13 2.58816E-13
 -1      2506 1.99976E+01 3.07944E-03-8.67766E-05-2.38271E-03 2.87243E-13 2.85191E-13
 -1      2507 1.99951E+01 3.60629E-04 1.91575E-05-5.22032E-03 7.41019E-14 2.43981E-13
 -1      2508 1.99944E+01 8.08299E-04 4.84170E-05-4.90127E-03 1.36061E-13 2.64252E-13
 -1      2509 1.99969E+01 1.52310E-03-5.53806E-05-4.69370E-03 2.90695E-13 4.49788E-13
 -1      2510 1.99962E+01-4.77607E-04 7.84642E-07-5.34738E-03-6.21979E-14 4.24748E-13
 -1      2511 1.99953E+01-6.97493E-05 1.85485E-05-5.42756E-03-1.02609E-14 3.56290E-13
 -1      2512 1.99969E+01 2.08529E-04-4.02635E-05-5.78364E-03-4.59178E-14 4.60789E-13
 -1      2513 1.99975E+01-1.30441E-03-1.96849E-05-4.68107E-03-9.80526E-15 4.22402E-13
 -1      2514 1.99966E+01-8.70417E-04 8.22588E-06-5.10634E-03 7.17613E-14 3.61427E-13
 -1      2515 1.99975E+01-9.87112E-04-2.49615E-05-5.84013E-03-2.67048E-14 4.80500E-13
 -1      2516 1.99980E+01-1.73071E-03-3.17727E-06-4.00492E-03 2.17665E-14 2.94138E-13
 -1      2517 2.00014E+01-5.31517E-03 9.23293E-06-3.56153E-03 2.00036E-13 1.07020E-13
 -1      2518 2.00012E+01-4.83455E-03 1.34752E-05-4.07771E-03-7.15082E-14-2.91788E-13
 -1      2519 2.00016E+01-5.71191E-03 9.80442E-06-2.32876E-03 3.03840E-13-1.38979E-14
 -1      2520 2.00015E+01-5.37804E-03 2.00639E-05-2.93193E-03 1.97088E-13 5.61192E-14
 -1      2521 2.00019E+01-3.29807E-03 5.21387E-07-3.45492E-03 2.25884E-13 1.31389E-13
 -1      2522 2.00002E+01-3.82824E-03 9.88524E-06-5.22892E-03-8.56810E-15 8.36076E-14
 -1      2523 1.99997E+01-3.10854E-03-1.15317E-05-5.28678E-03 6.25978E-14 1.64029E-13
 -1      2524 2.00010E+01-4.68234E-03 1.11851E-05-4.58103E-03-1.88724E-13-6.34015E-13
 -1      2525 2.00006E+01-4.09432E-03 2.12495E-06-4.92093E-03-2.74741E-14-2.54367E-13
 -1      2526 2.00007E+01-2.75214E-03-8.55153E-06-5.48682E-03-4.65833E-14-1.99128E-13
 -1      2527 2.00015E+01-3.09946E-03-2.45519E-06-4.63902E-03 1.76836E-13-3.14826E-13
 -1      2528 2.00016E+01-5.90004E-03 1.27247E-05-1.01280E-03 5.32607E-14-3.42721E-13
 -1      2529 2.00016E+01-5.73063E-03 1.96637E-05-1.65276E-03 2.31787E-13-1.51720E-13
 -1      2530 2.00022E+01-3.37238E-03 3.56601E-06-2.10959E-03 2.29841E-13-3.31939E-14
 -1      2531 2.00017E+01-5.90412E-03 1.67354E-05 3.27335E-04-1.82115E-13-4.95125E-13
 -1      2532 2.00017E+01-5.90411E-03 1.64994E-05-3.22435E-04-1.01383E-13-3.91147E-13
 -1      2533 2.00022E+01-3.39406E-03 5.63349E-06-7.06597E-04 4.79503E-14-5.13527E-13
 -1      2534 2.00016E+01-5.73472E-03 1.98758E-05 1.65988E-03-1.43164E-13-2.57942E-13
 -1      2535 2.00016E+01-5.90388E-03 1.24621E-05 1.01859E-03-6.80438E-14-3.43370E-13
 -1      2536 2.00022E+01-3.39783E-03 5.45208E-06 7.10283E-04 1.91084E-14-4.03950E-13
 -1      2537 2.00015E+01-5.39171E-03 1.96109E-05 2.92238E-03 7.74778E-14-3.27561E-13
 -1      2538 2.00016E+01-5.71985E-03 9.30551E-06 2.32735E-03-5.53542E-14-4.63888E-13
 -1      2539 2.00022E+01-3.38228E-03 3.48115E-06 2.10507E-03 2.64759E-14-3.02842E-13
 -1      2540 2.00012E+01-4.84899E-03 1.39054E-05 4.07403E-03 3.93929E-13 3.34889E-13
 -1      2541 2.00014E+01-5.33018E-03 8.43873E-06 3.55547E-03 2.97034E-13-4.66747E-14
 -1      2542 2.00020E+01-3.31281E-03-4.67368E-07 3.44577E-03 3.37712E-13-2.71384E-14
 -1      2543 2.00006E+01-4.10157E-03-2.55537E-07 4.93758E-03 4.61794E-13 6.84253E-13
 -1      2544 2.00010E+01-4.69938E-03 1.09924E-05 4.59105E-03 3.26103E-13 4.34596E-13
 -1      2545 2.00015E+01-3.11607E-03 4.76764E-07 4.64686E-03 4.10812E-13 2.63634E-13
 -1      2546 1.99997E+01-3.12817E-03-1.29167E-05 5.28151E-03 9.38039E-14 5.25385E-13
 -1      2547 2.00002E+01-3.82349E-03 9.47477E-06 5.23621E-03 1.69600E-13 6.34133E-13
 -1      2548 2.00006E+01-2.75093E-03-7.99391E-06 5.48154E-03 3.56429E-13 4.11733E-13
 -1      2549 4.47195E+00-2.93053E+00 3.34707E-02 3.44538E+00-1.17628E-13 5.52003E-13
 -1      2550 3.17873E+00-2.83939E+00 8.16702E-02 1.01804E+00-3.25018E-14 2.81664E-13
 -1      2551 1.90377E+01-5.42665E+00-3.60374E-02 6.48634E+00-2.26874E-13 4.28862E-13
 -1      2552 1.47934E+01-5.22585E+00 7.46429E-02 6.66535E+00-3.37536E-13 4.74586E-13
 -1      2553 2.08121E+01 2.41258E-01 6.46053E-03-5.57924E-01 1.56464E-13 1.59628E-13
 -1      2554 2.07463E+01 2.92625E-01 1.28980E-02-4.28738E-01 1.88054E-13 2.08981E-13
 -1      2555 2.08006E+01 3.12983E-01-5.92635E-03-6.91535E-01 1.65161E-13 4.42298E-14
 -1      2556 1.99986E+01-2.54194E-03 2.45473E-06 4.62621E-03 2.99875E-14 3.66691E-13
 -1      2557 3.10220E+00-2.97809E+00 5.45439E-02-1.34952E+00 3.51594E-14 2.15605E-13
 -1      2558 4.52299E+00-3.36401E+00 3.77496E-02-3.74114E+00 1.30840E-13 1.05749E-13
 -1      2559 1.07467E+01-4.39595E+00 2.96073E-02 6.67456E+00-3.42337E-13 5.63216E-13
 -1      2560 7.66881E+00-3.62713E+00 1.29629E-01 5.33969E+00-4.03566E-13 6.94333E-13
 -1      2561 2.09349E+01 2.00567E+00-1.13095E-02-1.45141E+00-3.57377E-13-2.01341E-13
 -1      2562 2.08862E+01 1.28338E+00-5.89668E-03-8.15429E-01-3.29510E-13-1.67290E-13
 -1      2563 2.07727E+01 1.49889E+00 5.02708E-03-6.94830E-01-3.02584E-13-2.27454E-13
 -1      2564 2.05992E+01 2.47643E+00-1.09393E-03-1.36415E+00-3.40758E-13-2.93618E-13
 -1      2565 7.25676E+00-4.14610E+00 6.21459E-02-5.35059E+00 1.92679E-13 3.53995E-13
 -1      2566 1.04000E+01-4.65218E+00 8.27638E-03-6.61393E+00 1.59317E-13 5.46646E-13
 -1      2567 1.37624E+01-5.15765E+00 6.17685E-03 7.04671E+00-4.29656E-14-3.80973E-13
 -1      2568 9.80205E+00-4.40859E+00 9.32335E-02 6.18331E+00 1.02501E-13-5.94108E-13
 -1      2569 1.89393E+01 3.99501E+00-9.31675E-03-1.38320E-01 8.60354E-14-4.89136E-13
 -1      2570 1.89952E+01 3.96503E+00-7.55025E-03-2.52504E-01 3.90069E-14-4.94680E-13
 -1      2571 1.91465E+01 3.62835E+00 1.73729E-03-2.44264E-01 2.63084E-14-4.61091E-13
 -1      2572 1.90287E+01 3.71996E+00 1.63240E-03-8.06917E-02 8.85649E-14-4.62325E-13
 -1      2573 3.22489E+01 6.66174E+00-1.64218E-01-8.92952E-01 6.68465E-13-2.21489E-13
 -1      2574 3.23115E+01 5.33018E+00-9.28352E-02-1.04987E+00 6.32439E-13-3.41366E-13
 -1      2575 3.03748E+01-3.93683E-01-5.36949E-02-8.78981E-01 3.69565E-13 1.29341E-13
 -1      2576 3.17458E+01 1.70715E+00-1.20871E-01 1.15879E-01 5.06484E-13 1.52683E-13
 -1      2577 3.15989E+01 7.12971E+00-1.96432E-01 3.52208E-01 8.14571E-13-1.29730E-13
 -1      2578 3.20322E+01 7.37977E+00-1.23523E-01-2.79790E-01 7.66276E-13-1.51497E-13
 -1      2579 3.16400E+01 7.21515E+00-1.76544E-01-7.90406E-02-7.77711E-13-6.11594E-14
 -1      2580 3.21713E+01 6.71664E+00-9.43467E-02-7.58175E-01-7.73159E-13 7.54258E-14
 -1      2581 2.64949E+01-4.01372E+00 2.65652E-03-3.29100E+00 2.88103E-14 5.00711E-14
 -1      2582 2.88859E+01-2.59326E+00-8.19174E-02-2.28920E+00 2.16452E-13 1.74638E-13
 -1      2583 1.91602E+01-5.57885E+00 7.42954E-03-6.22944E+00-1.37335E-13-5.10633E-13
 -1      2584 2.30530E+01-5.09182E+00-7.13751E-02-5.43320E+00-7.97140E-14-2.55101E-13
 -1      2585 1.22187E+01-5.12454E+00 5.82587E-02-6.74438E+00-1.52656E-13-6.78166E-13
 -1      2586 1.57988E+01-5.36057E+00 1.92871E-02-7.06545E+00-1.09801E-13-6.66425E-13
 -1      2587 1.89273E+01-5.46833E+00 7.21525E-02-6.31557E+00-3.09974E-13-4.12293E-13
 -1      2588 2.96929E+00-2.96134E+00 4.16102E-02 4.41184E-01-7.55437E-14-1.00525E-12
 -1      2589 3.30535E+00-3.06542E+00 6.82062E-02-1.85473E+00-4.74898E-14-1.04583E-12
 -1      2590 6.09563E+00-3.27436E+00 3.79393E-02 4.71540E+00 5.42622E-14-9.05498E-13
 -1      2591 4.25068E+00-2.93142E+00 1.02626E-01 2.60942E+00 4.19664E-14-9.64728E-13
 -1      2592 2.12111E+01-5.43631E+00-4.77230E-02 5.91879E+00-1.10190E-13-9.24816E-14
 -1      2593 1.75933E+01-5.64761E+00 2.50037E-02 6.46072E+00-6.03684E-14-2.23110E-13
 -1      2594 3.21094E+01 1.44084E+00-5.49102E-02 1.17387E-01-6.00325E-13 2.16660E-13
 -1      2595 3.04587E+01-4.39386E-01-6.64043E-02 7.38401E-01-5.33552E-13 2.57738E-13
 -1      2596 3.24081E+01 5.04790E+00-1.81676E-01-1.05329E+00-6.89948E-13 1.91902E-13
 -1      2597 3.24981E+01 3.40335E+00-4.26892E-02-6.64460E-01-6.08125E-13 1.80023E-13
 -1      2598 3.08815E+01 1.98558E+00-2.27401E-02-1.38257E+00-5.27078E-13 2.78305E-13
 -1      2599 3.31366E+01 5.43380E+00-4.41435E-02 9.56915E-01-6.06404E-13-1.68698E-13
 -1      2600 3.20561E+01 6.60806E+00-1.65753E-01 1.08533E+00-7.20590E-13-2.16036E-13
 -1      2601 3.14401E+01 1.78457E+00-9.41175E-02 7.13493E-01-2.71172E-13-2.22267E-13
 -1      2602 3.27426E+01 3.70120E+00-9.43932E-02 7.97225E-01-4.43062E-13-1.76414E-13
 -1      2603 3.07119E+01 3.94681E+00-5.16576E-02 1.80582E+00-4.42257E-13-2.00340E-13
 -1      2604 2.83021E+01-2.84423E+00-1.01873E-03-1.94026E+00 1.02647E-13 5.67602E-14
 -1      2605 3.05194E+01-8.14892E-01-1.31689E-01-5.57840E-01-1.52996E-13-1.45994E-13
 -1      2606 2.19215E+01-5.28600E+00 3.52196E-03-5.29740E+00 1.81577E-13 1.93928E-13
 -1      2607 2.53412E+01-4.57062E+00-1.10777E-01-4.26207E+00 1.67144E-13 2.13218E-13
 -1      2608 1.46291E+01-5.38394E+00 4.92741E-02-6.63233E+00 1.83492E-13 4.07223E-13
 -1      2609 1.85015E+01-5.42693E+00-1.80623E-02-6.58075E+00 1.73417E-13 3.28172E-13
 -1      2610 2.13851E+01-5.47716E+00 8.86512E-02-5.42569E+00 2.44527E-13 2.12219E-13
 -1      2611 3.20311E+01 3.10308E+00-1.48735E-01-8.00357E-01 5.03181E-13-4.33598E-13
 -1      2612 3.11296E+01 1.19377E+00-6.92726E-02-2.60427E-01 3.60517E-13-3.98459E-13
 -1      2613 2.10401E+01 9.04300E-01-3.60813E-03 8.40230E-01 3.80898E-13 4.07605E-13
 -1      2614 2.13065E+01 1.26844E+00-4.79661E-03 1.35673E+00 4.04267E-13 4.70051E-13
 -1      2615 2.10825E+01 1.73267E+00-1.57467E-02 1.51571E+00 4.43589E-13 3.28456E-13
 -1      2616 2.09485E+01 1.11589E+00-1.00564E-02 7.73975E-01 3.92335E-13 2.34721E-13
 -1      2617 2.60564E+01-4.11336E+00-2.84977E-02 4.05895E+00-1.74583E-14-8.53762E-14
 -1      2618 2.31071E+01-5.06888E+00 3.02363E-02 4.83613E+00-1.51268E-13 6.08957E-14
 -1      2619 2.73086E+01-3.91019E+00 2.78654E-02 2.20390E+00-2.45998E-13-3.95961E-13
 -1      2620 3.03633E+01 3.77306E+00-3.46009E-02-1.77659E+00 4.32709E-13-4.38122E-13
 -1      2621 1.97294E+01 3.12371E+00 2.53540E-03-6.34910E-01-1.50366E-13-4.68642E-13
 -1      2622 1.96806E+01 3.38784E+00-1.78096E-02-8.42949E-01-1.71836E-13-4.95484E-13
 -1      2623 1.98945E+01 3.21160E+00-1.72340E-02-1.01317E+00-2.25315E-13-4.67704E-13
 -1      2624 2.07522E+01 4.65144E-01-5.52639E-03-3.41381E-01 2.45817E-13 1.17297E-13
 -1      2625 2.07933E+01 2.15955E+00-1.28037E-02 1.43877E+00 4.58759E-13 1.42513E-13
 -1      2626 7.59638E+00-2.77303E+00 1.53339E-01-4.55907E+00 1.00336E-13 2.73004E-13
 -1      2627 1.41975E+01-4.59443E+00 1.17725E-01-6.49925E+00 2.20712E-13 3.83776E-13
 -1      2628 2.98538E+01-5.47978E-01-1.29502E-03-4.28842E-01 1.10419E-13-6.01935E-13
 -1      2629 3.00204E+01-1.82755E-01-2.56155E-02 9.28941E-01-1.28078E-13-2.67814E-13
 -1      2630 1.99983E+01-2.03122E-03-1.92646E-05-4.90135E-03 2.35908E-16 1.35070E-13
 -1      2631 2.20528E+01-5.35653E+00 7.04785E-02 5.11306E+00-2.92433E-13 7.12763E-14
 -1      2632 1.99989E+01-2.55427E-03 4.58397E-06-5.18533E-03 7.28069E-14 2.92853E-13
 -1      2633 3.04247E+01 5.46685E+00-7.78458E-02-1.32319E+00-6.85285E-13 9.42718E-14
 -1      2634 4.94012E+00-1.69704E+00 1.73743E-01-2.42569E-01 7.74138E-14 2.37477E-13
 -1      2635 7.72389E+00-2.40573E+00 1.69037E-01 4.34186E+00-2.04975E-13 5.80369E-13
 -1      2636 1.44666E+01-4.36864E+00 1.20669E-01 6.44930E+00-3.88106E-13 5.10328E-13
 -1      2637 2.91810E+01 5.90084E+00-1.17600E-01 1.21486E+00-6.00547E-13-2.52284E-13
 -1      2638 3.06827E+01 6.69794E+00-1.39440E-01 6.06462E-01-7.11597E-13-1.42907E-13
 -1      2639 2.86262E+01 6.37470E+00-1.52369E-01 8.08597E-02-6.47427E-13-1.12186E-13
 -1      2640 2.37522E+01-5.21508E+00 2.43169E-02 4.72467E+00-1.06692E-13 7.99361E-14
 -1      2641 2.27456E+01-5.41335E+00 9.40768E-02 4.93446E+00 8.67084E-14 1.52458E-13
 -1      2642 2.56776E+01-4.87968E+00-1.11949E-01 3.23515E+00-9.67143E-14 3.84956E-13
 -1      2643 2.07711E+01 1.89656E+00 1.18114E-02 1.08235E+00 4.28515E-13 8.64916E-14
 -1      2644 9.89383E+00-3.10956E+00 1.70654E-01 5.40852E+00 2.65482E-13-6.55281E-13
 -1      2645 1.71112E+01-5.05771E+00 1.28992E-01 6.45496E+00 1.88155E-13-1.58359E-13
 -1      2646 1.09987E+01-4.48005E+00 7.70626E-02-6.46511E+00-1.90958E-13-6.90420E-13
 -1      2647 1.42374E+01-4.38357E+00 5.81202E-02-6.53842E+00-3.53190E-13-5.65076E-13
 -1      2648 1.01233E+01-3.31063E+00 1.82693E-01-5.98379E+00-2.39975E-13-6.90392E-13
 -1      2649 5.69136E+00-1.52739E+00 1.05614E-01-2.10627E+00-9.12673E-14-9.23372E-13
 -1      2650 5.01597E+00-2.81591E+00 1.13564E-01-3.06262E+00-1.07969E-13-9.04832E-13
 -1      2651 7.04937E+00-2.37886E+00 1.13069E-01-4.25685E+00-1.66825E-13-8.25257E-13
 -1      2652 2.52427E+01-4.87956E+00 4.88141E-02-3.76002E+00-1.67977E-13 6.22696E-14
 -1      2653 3.09230E+01 6.46750E+00-1.06017E-01 8.63751E-01 7.59587E-13-6.08957E-14
 -1      2654 2.87150E+01 6.32023E+00-1.39276E-01 6.95401E-01 6.83648E-13-9.10799E-14
 -1      2655 2.93911E+01 5.48632E+00-1.69231E-01 1.32098E+00 6.75238E-13 6.10206E-14
 -1      2656 2.96332E+01-2.00306E+00-2.07670E-02 1.16819E+00-4.14713E-13 2.89574E-13
 -1      2657 2.81486E+01-3.25490E+00 1.27073E-02 1.63209E+00-2.95410E-13 4.43090E-13
 -1      2658 2.93753E+01-1.44880E+00-1.58407E-01-4.40757E-01-3.41269E-13 3.77393E-13
 -1      2659 2.03294E+01 2.73383E+00-8.64092E-03-1.20002E+00-3.02801E-13-3.79157E-13
 -1      2660 3.13870E+01 2.79979E+00-4.49339E-02 1.04592E+00 5.13395E-13 2.35811E-13
 -1      2661 2.97219E+01 3.60705E+00-2.30611E-01 1.89288E+00 4.91662E-13 2.84148E-13
 -1      2662 2.98011E+01 1.26495E+00-1.73257E-02 1.44070E+00 3.20632E-13 3.41976E-13
 -1      2663 2.92111E+01-2.01778E+00-3.21594E-02-4.52268E-01 1.22463E-13 2.55934E-13
 -1      2664 2.99882E+01 6.54637E+00-8.09326E-02-7.88333E-01 6.20420E-13-2.18783E-13
 -1      2665 5.41752E+00-1.76321E+00 1.76687E-01 1.52894E+00 5.39638E-14-9.51628E-13
 -1      2666 1.99981E+01-1.63377E-03-1.83950E-05 5.07922E-03 3.45910E-14 3.51799E-13
 -1      2667 1.99991E+01-2.66986E-03-3.50407E-06 5.40666E-03 1.45781E-14 5.32299E-13
 -1      2668 1.99994E+01-2.01516E-03 8.99826E-06 5.82476E-03 4.57931E-14 5.26261E-13
 -1      2669 1.99976E+01-1.19068E-03 2.20563E-06 5.54791E-03-9.50333E-15 3.61316E-13
 -1      2670 1.99990E+01-1.98488E-03 6.95587E-06-5.73419E-03-9.32299E-15 2.48684E-13
 -1      2671 2.70482E+01-4.08738E+00 2.04157E-02-2.30097E+00 2.07931E-13 5.63438E-15
 -1      2672 1.99985E+01-1.17310E-03-2.43077E-05 5.99986E-03 2.71264E-14 3.93099E-13
 -1      2673 1.92548E+01 3.27409E+00-4.63823E-03 2.07257E-01 2.38009E-13-3.79400E-13
 -1      2674 1.91566E+01 3.34808E+00-6.91638E-03 1.27537E-01 2.05080E-13-3.95901E-13
 -1      2675 1.90883E+01 3.41385E+00-4.84722E-03 8.51607E-02 1.79370E-13-4.12119E-13
 -1      2676 1.90513E+01 3.44080E+00-5.83907E-03 1.24326E-02 1.40497E-13-4.27956E-13
 -1      2677 1.91926E+01 3.12142E+00 5.68008E-03 5.42631E-02 1.79605E-13-3.72891E-13
 -1      2678 1.99093E+01 2.64441E+00-7.92826E-03 5.18861E-01 3.70398E-13-2.13316E-13
 -1      2679 1.97123E+01 2.83605E+00-8.52201E-03 4.17228E-01 3.47453E-13-2.47823E-13
 -1      2680 2.03526E+01 2.11899E+00-9.30652E-03 6.71522E-01 4.04087E-13-1.14712E-13
 -1      2681 2.01249E+01 2.40017E+00-7.11093E-03 5.84148E-01 3.84693E-13-1.63040E-13
 -1      2682 2.01032E+01 2.21489E+00 6.49223E-03 3.39434E-01 3.51197E-13-1.62792E-13
 -1      2683 2.07232E+01 8.85540E-01-2.45764E-04 2.93509E-02 3.18097E-13 5.07827E-14
 -1      2684 2.07928E+01 1.08783E+00 9.29359E-03 3.40438E-01 3.44640E-13 7.31988E-14
 -1      2685 1.26117E+01-3.10815E+00 4.81375E-02 6.01240E+00 3.42323E-13-3.62127E-13
 -1      2686 9.56968E+00-1.71572E+00 1.87757E-01 4.42945E+00 3.15248E-13-6.67105E-13
 -1      2687 2.75906E+01-3.55848E+00-1.35824E-01 1.05385E+00-2.60129E-13-6.10276E-13
 -1      2688 2.61833E+01-4.38743E+00 2.24098E-02 2.20059E+00-3.18100E-13-4.91204E-13
 -1      2689 2.07012E+01 1.61580E+00-7.33229E-04 7.51097E-01 3.98403E-13 5.14107E-14
 -1      2690 2.85016E+01 4.01316E+00-1.96099E-01-1.97044E+00 4.12254E-13-3.04826E-13
 -1      2691 2.87739E+01 2.30310E+00-6.45718E-02-2.21189E+00 2.76529E-13-4.23300E-13
 -1      2692 1.31437E+01-3.58710E+00 1.59344E-01-6.08321E+00 2.54657E-13 4.08090E-13
 -1      2693 1.66615E+01-4.69707E+00-6.40661E-03-6.33150E+00 2.49106E-13 3.41421E-13
 -1      2694 2.06178E+01 8.88025E-01 6.89889E-03 3.34051E-01-1.74660E-13-2.02785E-13
 -1      2695 2.06073E+01 7.56585E-01 1.85907E-04 5.63910E-01-1.56364E-13-2.02078E-13
 -1      2696 2.06048E+01 6.52612E-01 5.77676E-03 7.67040E-01-1.49720E-13-1.83073E-13
 -1      2697 2.06356E+01 5.59411E-01 1.40704E-03 9.40697E-01-1.06236E-13-1.95572E-13
 -1      2698 2.04553E+01 8.78455E-01-2.46647E-03 6.67337E-01-1.57619E-13-2.17901E-13
 -1      2699 2.06492E+01 4.75929E-01 4.58815E-03 1.10510E+00-5.73179E-14-1.57247E-13
 -1      2700 2.07237E+01 3.88070E-01 1.94316E-03 1.23353E+00-4.93322E-14-1.44996E-13
 -1      2701 2.04515E+01 6.48718E-01-3.54503E-03 1.05077E+00-7.94065E-14-1.86736E-13
 -1      2702 2.07702E+01 2.95065E-01 4.66881E-03 1.36288E+00-4.07509E-14-1.12936E-13
 -1      2703 2.08899E+01 1.83629E-01 1.66546E-03 1.44554E+00-2.79767E-14-9.78752E-14
 -1      2704 2.04975E+01 4.32900E-01-4.86936E-03 1.35965E+00-3.71348E-14-1.65248E-13
 -1      2705 2.09910E+01 5.46046E-02 6.46677E-03 1.53549E+00-4.74173E-14-5.71413E-14
 -1      2706 2.11610E+01-1.07671E-01 3.53916E-04 1.56033E+00-2.00232E-14-6.87972E-14
 -1      2707 2.06247E+01 1.64261E-01-7.35015E-03 1.59638E+00-1.78204E-14-1.15363E-13
 -1      2708 2.13485E+01-2.95935E-01 1.03413E-02 1.59442E+00 3.60221E-14-3.25691E-14
 -1      2709 2.15768E+01-5.29962E-01-2.47807E-03 1.53770E+00 5.17065E-14-2.70114E-14
 -1      2710 2.08797E+01-2.20371E-01-1.16712E-02 1.74488E+00 2.30030E-14-5.06049E-14
 -1      2711 2.18927E+01-7.87797E-01 1.62116E-02 1.48247E+00 2.78729E-14-1.39593E-14
 -1      2712 2.21830E+01-1.09148E+00-7.79578E-03 1.31072E+00 3.12693E-14 2.56404E-14
 -1      2713 2.13306E+01-7.69450E-01-1.78393E-02 1.76134E+00 6.15214E-14 8.96679E-15
 -1      2714 2.26671E+01-1.39221E+00 2.21589E-02 1.11054E+00 5.49026E-14 5.98811E-14
 -1      2715 2.30001E+01-1.70370E+00-1.61825E-02 7.90688E-01 8.86903E-14 5.05600E-14
 -1      2716 2.20599E+01-1.47945E+00-2.47236E-02 1.56259E+00 8.98906E-14 7.89256E-14
 -1      2717 2.36466E+01-1.93825E+00 2.18447E-02 3.75576E-01 6.46061E-14 7.51890E-14
 -1      2718 2.39614E+01-2.08411E+00-2.35126E-02-9.07788E-02 2.16422E-14 9.25310E-14
 -1      2719 2.31247E+01-2.20919E+00-2.88625E-02 1.01333E+00 5.67042E-14 5.67780E-14
 -1      2720 2.46282E+01-2.01895E+00 3.42331E-03-7.20681E-01-1.91605E-14 1.13947E-13
 -1      2721 2.48394E+01-1.72462E+00-1.59028E-02-1.21312E+00-9.43171E-14 1.20321E-13
 -1      2722 2.44020E+01-2.54613E+00-3.72146E-02-1.57556E-02-5.64783E-15 4.34965E-14
 -1      2723 2.52853E+01-1.13081E+00-3.59354E-02-1.88729E+00-1.59141E-13 1.11359E-13
 -1      2724 2.52941E+01-1.76837E-01 2.14915E-04-2.15061E+00-2.61176E-13 7.78422E-14
 -1      2725 2.56210E+01-1.83007E+00-4.63745E-02-1.41349E+00-1.27450E-13 1.46910E-13
 -1      2726 2.52229E+01 9.68958E-01-1.00148E-01-2.33120E+00-3.80113E-13 6.13936E-14
 -1      2727 2.50778E+01 2.18889E+00-2.33852E-02-2.01092E+00-4.34264E-13-7.36026E-14
 -1      2728 2.62261E+01 3.40300E-01-2.89709E-02-2.31638E+00-3.45449E-13 1.54494E-13
 -1      2729 2.47705E+01 3.64447E+00-5.12563E-02 7.69826E-01-4.06855E-13-1.89002E-13
 -1      2730 2.48652E+01 2.98346E+00-1.04079E-01 1.58864E+00-3.31873E-13-1.75969E-13
 -1      2731 2.51328E+01 1.92461E+00-1.56717E-02 2.23512E+00-2.55490E-13-2.55237E-13
 -1      2732 2.52721E+01 6.94280E-01-9.39042E-02 2.45944E+00-1.28658E-13-3.20273E-13
 -1      2733 2.60835E+01 2.95296E+00-6.52284E-02 2.09594E+00-3.51427E-13-2.66280E-13
 -1      2734 2.52755E+01-3.99338E-01-8.44479E-03 2.22738E+00 2.05391E-15-3.54604E-13
 -1      2735 2.52544E+01-1.27371E+00-3.75329E-02 1.90165E+00 7.78223E-14-2.83675E-13
 -1      2736 2.61748E+01 1.00838E-01-2.00748E-02 2.38481E+00-7.27404E-14-3.75588E-13
 -1      2737 2.47912E+01-1.79060E+00-1.97540E-02 1.24831E+00 9.75507E-14-2.65987E-13
 -1      2738 2.45787E+01-2.03035E+00 4.58955E-03 7.33210E-01 1.67762E-13-2.65180E-13
 -1      2739 2.55200E+01-1.91263E+00-8.14276E-03 1.32329E+00 1.20758E-13-3.18251E-13
 -1      2740 2.39036E+01-2.02717E+00-2.19394E-02 1.32095E-01 2.08378E-13-2.19594E-13
 -1      2741 2.35878E+01-1.85193E+00 2.11405E-02-3.16540E-01 2.51214E-13-2.15538E-13
 -1      2742 2.42956E+01-2.47570E+00-1.78743E-02 1.88325E-02 2.13420E-13-1.20546E-13
 -1      2743 2.29634E+01-1.59950E+00-1.51118E-02-6.94654E-01 2.60800E-13-1.72842E-13
 -1      2744 2.26406E+01-1.28703E+00 2.05929E-02-9.91910E-01 2.20387E-13-9.77094E-14
 -1      2745 2.30144E+01-2.07327E+00-2.35662E-02-9.18904E-01 2.88534E-13-5.42242E-14
 -1      2746 2.21765E+01-9.92987E-01-7.69188E-03-1.16953E+00 1.58680E-13-2.10925E-13
 -1      2747 2.18997E+01-7.02672E-01 1.46950E-02-1.32431E+00 1.01902E-13-2.06892E-13
 -1      2748 2.19920E+01-1.34956E+00-2.09359E-02-1.41133E+00 9.34241E-14-1.03318E-13
 -1      2749 2.15945E+01-4.62491E-01-2.62552E-03-1.36968E+00 7.93440E-14-2.35317E-13
 -1      2750 2.13750E+01-2.49888E-01 8.78678E-03-1.41954E+00 1.00688E-13-2.80845E-13
 -1      2751 2.12897E+01-6.77619E-01-1.48709E-02-1.58371E+00 7.31514E-14-2.31743E-13
 -1      2752 2.11882E+01-8.65737E-02 2.47098E-04-1.38900E+00 2.49855E-14-2.90587E-13
 -1      2753 2.10178E+01 4.65655E-02 4.47488E-03-1.37132E+00 2.52016E-14-3.48007E-13
 -1      2754 2.08467E+01-1.84738E-01-9.15626E-03-1.56608E+00 1.61240E-14-2.75158E-13
 -1      2755 2.09072E+01 1.42354E-01 1.75944E-03-1.30164E+00-5.26110E-15-3.53369E-13
 -1      2756 2.07734E+01 2.13460E-01 1.74952E-03-1.24545E+00-1.82018E-14-3.68806E-13
 -1      2757 2.05791E+01 1.25405E-01-5.12063E-03-1.44709E+00-1.41353E-15-3.21260E-13
 -1      2758 2.07080E+01 2.60066E-01 2.51060E-03-1.15891E+00-8.72219E-14-3.56868E-13
 -1      2759 2.06004E+01 2.88977E-01 1.99352E-04-1.08452E+00-5.72300E-14-3.58390E-13
 -1      2760 2.04182E+01 2.92774E-01-2.66417E-03-1.28027E+00-1.06020E-13-3.94906E-13
 -1      2761 2.05603E+01 3.03700E-01 2.81683E-03-9.94349E-01-3.38069E-14-4.78336E-13
 -1      2762 2.04721E+01 3.06692E-01-5.84401E-04-9.14928E-01 4.61289E-14-3.93710E-13
 -1      2763 2.03182E+01 3.62511E-01-1.33693E-03-1.09730E+00-1.19405E-13-3.37866E-13
 -1      2764 2.04457E+01 3.02701E-01 2.84866E-03-8.28764E-01 9.43370E-14-4.61476E-13
 -1      2765 2.03727E+01 2.91356E-01-9.06878E-04-7.52264E-01 3.71622E-14-4.00045E-13
 -1      2766 2.02515E+01 3.71765E-01-6.95135E-04-9.16767E-01 1.52035E-14-5.00270E-13
 -1      2767 2.03536E+01 2.77618E-01 2.70713E-03-6.74220E-01-2.22771E-15-4.44227E-13
 -1      2768 2.02933E+01 2.59491E-01-9.72323E-04-6.04962E-01-4.79736E-14-3.50200E-13
 -1      2769 2.02030E+01 3.47131E-01-4.22385E-04-7.49282E-01 4.42379E-14-6.36316E-13
 -1      2770 2.02784E+01 2.41666E-01 2.46135E-03-5.36906E-01-8.53246E-14-2.52494E-13
 -1      2771 2.02288E+01 2.21371E-01-9.07049E-04-4.76815E-01-5.22280E-14-2.85720E-13
 -1      2772 2.01649E+01 3.06117E-01-3.26461E-04-6.00335E-01-4.57127E-14-4.78357E-13
 -1      2773 2.02166E+01 2.02804E-01 2.16208E-03-4.19191E-01-3.46808E-14-2.81941E-13
 -1      2774 2.01764E+01 1.82969E-01-7.84907E-04-3.68689E-01-8.10981E-14-3.18767E-13
 -1      2775 2.01334E+01 2.59527E-01-3.01325E-04-4.72069E-01-5.29288E-14-3.50594E-13
 -1      2776 2.01662E+01 1.65492E-01 1.84583E-03-3.21070E-01-7.54939E-14-1.48884E-13
 -1      2777 2.01340E+01 1.47480E-01-6.47209E-04-2.79699E-01-5.09316E-14-1.99113E-13
 -1      2778 2.01069E+01 2.13606E-01-2.95718E-04-3.64471E-01-4.16940E-14-4.26706E-13
 -1      2779 2.01255E+01 1.31976E-01 1.53792E-03-2.41166E-01-1.21940E-13-1.38835E-13
 -1      2780 2.01001E+01 1.16365E-01-5.15615E-04-2.08002E-01-1.13844E-13-1.67528E-13
 -1      2781 2.00845E+01 1.71646E-01-2.88855E-04-2.76206E-01 2.56317E-15-1.25198E-13
 -1      2782 2.00930E+01 1.03147E-01 1.25417E-03-1.77407E-01-4.28337E-14-8.06772E-14
 -1      2783 2.00734E+01 9.00589E-02-3.99862E-04-1.51334E-01 1.63311E-14 1.05115E-13
 -1      2784 2.00658E+01 1.35102E-01-2.73988E-04-2.05225E-01-1.09654E-14 4.24895E-14
 -1      2785 2.00675E+01 7.91157E-02 1.00279E-03-1.27474E-01-3.77573E-16 8.38598E-14
 -1      2786 2.00526E+01 6.84225E-02-3.02772E-04-1.07348E-01-3.09332E-14 1.44447E-13
 -1      2787 2.00504E+01 1.04339E-01-2.50820E-04-1.49181E-01-1.11257E-14 1.61725E-13
 -1      2788 2.00479E+01 5.95749E-02 7.86803E-04-8.90660E-02-1.35129E-13 1.38473E-13
 -1      2789 2.00368E+01 5.10271E-02-2.23942E-04-7.38090E-02-1.13588E-13 1.60409E-13
 -1      2790 2.00379E+01 7.91142E-02-2.22069E-04-1.05709E-01-9.20058E-14 2.45265E-13
 -1      2791 2.00330E+01 4.40195E-02 6.05957E-04-6.00479E-02-6.98898E-14 1.47528E-13
 -1      2792 2.00249E+01 3.73181E-02-1.61636E-04-4.86936E-02-3.54953E-14 9.19416E-14
 -1      2793 2.00279E+01 5.88825E-02-1.90928E-04-7.25751E-02-8.76855E-14 3.73640E-13
 -1      2794 2.00221E+01 3.18699E-02 4.57932E-04-3.85276E-02-3.28320E-14 9.70437E-14
 -1      2795 2.00163E+01 2.67089E-02-1.13637E-04-3.02437E-02-7.43191E-15 2.54529E-13
 -1      2796 2.00202E+01 4.29696E-02-1.59900E-04-4.77725E-02-8.58882E-14 2.43231E-13
 -1      2797 2.00141E+01 2.25446E-02 3.39286E-04-2.28869E-02 6.97457E-14 2.88305E-13
 -1      2798 2.00101E+01 1.86335E-02-7.77225E-05-1.69782E-02 2.39956E-13 2.84101E-13
 -1      2799 2.00142E+01 3.06742E-02-1.30673E-04-2.95603E-02 3.76083E-14 3.93000E-13
 -1      2800 2.00085E+01 1.54971E-02 2.46105E-04-1.17822E-02 2.68147E-13 2.56452E-13
 -1      2801 2.00059E+01 1.25717E-02-5.18949E-05-7.68489E-03 3.68082E-13 3.39424E-13
 -1      2802 2.00097E+01 2.13244E-02-1.04312E-04-1.64755E-02 2.72979E-13 2.91046E-13
 -1      2803 2.00047E+01 1.02331E-02 1.74442E-04-4.12950E-03 3.59726E-13 3.53084E-13
 -1      2804 2.00030E+01 8.05852E-03-3.44713E-05-1.39958E-03 3.88519E-13 3.24095E-13
 -1      2805 2.00064E+01 1.43051E-02-8.13252E-05-7.32282E-03 2.50545E-13 1.68539E-13
 -1      2806 2.00022E+01 6.31375E-03 1.20707E-04 9.19890E-04 2.98723E-13 2.58659E-13
 -1      2807 2.00012E+01 4.68393E-03-2.34807E-05 2.61964E-03 1.83329E-13 2.29433E-13
 -1      2808 2.00040E+01 9.06702E-03-6.19643E-05-1.15313E-03 2.83711E-13 1.54521E-13
 -1      2809 2.00006E+01 3.35417E-03 8.21914E-05 4.00924E-03 9.06260E-14 2.54427E-14
 -1      2810 2.00002E+01 2.08338E-03-1.70690E-05 4.92547E-03 3.04443E-14-1.68189E-13
 -1      2811 2.00023E+01 5.12853E-03-4.58424E-05 2.76257E-03 1.12957E-13-7.97113E-15
 -1      2812 1.99998E+01 9.90052E-04 5.15359E-05 5.59307E-03 1.30342E-13-1.08706E-13
 -1      2813 1.99997E+01-3.36339E-05-5.20259E-06 5.87872E-03 2.01537E-13 7.89526E-14
 -1      2814 2.00012E+01 2.02995E-03-4.11140E-05 4.97289E-03 9.46200E-14 7.52081E-14
 -1      2815 2.10826E+01 9.92044E-02 2.11463E-04-1.21054E+00 8.24524E-14-4.50604E-15
 -1      2816 2.09513E+01 1.92431E-01 5.35966E-03-1.15305E+00 1.03633E-13-8.72701E-15
 -1      2817 2.00002E+01-1.32502E-03-1.23148E-05-5.89910E-03 6.32737E-14 3.98397E-13
 -1      2818 1.99991E+01-1.00324E-03-4.91414E-06-5.82882E-03-1.97741E-14 3.62869E-13
 -1      2819 1.99989E+01-2.23567E-04 1.75500E-05-5.97838E-03 6.57346E-14 3.96152E-13
 -1      2820 2.08779E+01 2.71108E-01 1.49593E-03-1.04911E+00 1.04685E-13-2.08346E-14
 -1      2821 2.07881E+01 3.48967E-01 5.93437E-03-9.42249E-01 1.02957E-13 3.12386E-16
 -1      2822 2.07295E+01 3.01494E-01-5.47149E-03-1.18058E+00 1.15955E-13-5.10197E-14
 -1      2823 2.17611E+01-4.47757E-01-6.18050E-03-1.16997E+00-2.43432E-14 6.61756E-14
 -1      2824 2.15665E+01-2.73589E-01 8.53509E-03-1.25250E+00 1.51676E-14 3.26274E-14
 -1      2825 2.22520E+01-8.42519E-01-1.15244E-02-8.80504E-01-1.03086E-15 5.91777E-14
 -1      2826 2.20412E+01-6.31123E-01 1.14439E-02-1.06608E+00-1.61909E-15 6.23758E-14
 -1      2827 2.16349E+01-6.66500E-01-1.23247E-02-1.32953E+00-1.49849E-14-1.29192E-14
 -1      2828 2.28270E+01-1.23867E+00-1.73285E-02-3.45596E-01 6.35160E-14 7.74630E-15
 -1      2829 2.26262E+01-1.04109E+00 1.32467E-02-6.47329E-01 2.00355E-14 4.02465E-14
 -1      2830 2.22425E+01-1.17135E+00-1.47406E-02-1.02020E+00 5.76751E-14 6.21725E-15
 -1      2831 2.34091E+01-1.44173E+00-1.92756E-02 4.35818E-01-9.90852E-15 4.67521E-14
 -1      2832 2.32625E+01-1.37330E+00 1.00388E-02 4.34474E-02 4.11010E-14 5.81345E-14
 -1      2833 2.30148E+01-1.63513E+00-1.35684E-02-4.21353E-01 3.35244E-14 2.54128E-14
 -1      2834 2.38408E+01-1.13970E+00-4.33167E-03 1.30776E+00 1.88148E-14 9.73058E-14
 -1      2835 2.37863E+01-1.36081E+00-2.34745E-03 9.41517E-01-2.70740E-14 6.48752E-14
 -1      2836 2.38110E+01-1.78424E+00-1.87184E-02 5.02086E-01-3.33085E-14 4.19699E-14
 -1      2837 2.39444E+01-1.47614E-01 1.26598E-02 1.95247E+00 4.57325E-14 2.20566E-13
 -1      2838 2.40166E+01-7.66504E-01-2.68693E-02 1.76755E+00 1.69491E-14 1.66275E-13
 -1      2839 2.44591E+01-1.15955E+00 1.39230E-04 1.55942E+00-2.52558E-14 1.48598E-13
 -1      2840 2.36420E+01 1.34601E+00 1.47739E-02 1.80064E+00 1.87707E-13 2.19698E-13
 -1      2841 2.37787E+01 5.61818E-01-5.65752E-02 2.02821E+00 1.22637E-13 2.58017E-13
 -1      2842 2.46229E+01 2.63001E-01 2.02562E-02 2.16773E+00 5.92096E-14 2.73690E-13
 -1      2843 2.32838E+01 2.45385E+00-1.83034E-03 6.41094E-01 2.12792E-13 1.57057E-13
 -1      2844 2.33566E+01 1.99865E+00-5.27710E-02 1.26718E+00 1.98657E-13 2.18612E-13
 -1      2845 2.42725E+01 2.06839E+00-1.76166E-02 1.73892E+00 2.07029E-13 3.19902E-13
 -1      2846 2.33042E+01 2.31073E+00-3.58836E-02-9.64832E-01 2.17978E-13 1.32415E-13
 -1      2847 2.32197E+01 2.54905E+00-2.10970E-02-2.77298E-01 2.17569E-13 8.07488E-14
 -1      2848 2.40026E+01 3.13355E+00-3.08012E-02 2.21698E-01 2.27346E-13 2.01536E-13
 -1      2849 2.36956E+01 1.02505E+00-5.75055E-02-2.03572E+00 3.68455E-14 9.05860E-14
 -1      2850 2.35179E+01 1.76306E+00 2.66640E-03-1.67264E+00 1.86795E-13 1.34225E-13
 -1      2851 2.41605E+01 2.50929E+00-2.48952E-02-1.46984E+00 1.87940E-13 4.47142E-14
 -1      2852 2.40235E+01-4.05943E-01-4.52754E-02-2.04807E+00-3.25530E-14-7.45844E-15
 -1      2853 2.39283E+01 2.94403E-01 1.45746E-02-2.11409E+00-1.30417E-14 4.52824E-14
 -1      2854 2.45751E+01 7.13854E-01 4.65963E-03-2.25957E+00 3.53571E-14-3.51663E-14
 -1      2855 2.39818E+01-1.24227E+00-7.85325E-03-1.35152E+00-1.45027E-13-5.83678E-14
 -1      2856 2.39749E+01-9.06832E-01-3.72952E-03-1.69386E+00-7.96750E-14-1.01852E-14
 -1      2857 2.45399E+01-8.48941E-01-1.47911E-02-1.92199E+00-3.73156E-14-8.03871E-14
 -1      2858 2.35388E+01-1.39642E+00 8.82985E-03-4.43337E-01-3.15895E-14-1.08750E-14
 -1      2859 2.36425E+01-1.39545E+00-1.71336E-02-8.43144E-01-8.93877E-14-7.92058E-15
 -1      2860 2.41039E+01-1.66775E+00-4.71294E-04-9.27865E-01-1.27424E-13-4.36587E-15
 -1      2861 2.29297E+01-1.12865E+00 1.35766E-02 3.07217E-01 1.29678E-13 1.13993E-15
 -1      2862 2.31061E+01-1.30201E+00-1.77154E-02-2.04623E-02 4.89196E-14 4.51614E-14
 -1      2863 2.33154E+01-1.69179E+00-1.03205E-02 2.27528E-02 1.85723E-14 6.76375E-14
 -1      2864 2.23363E+01-7.28627E-01 1.21399E-02 7.93473E-01 6.32511E-14 1.43436E-13
 -1      2865 2.25344E+01-9.39757E-01-1.32498E-02 5.78373E-01 1.59855E-13 9.26664E-14
 -1      2866 2.25185E+01-1.28883E+00-1.36902E-02 7.00931E-01 1.27632E-13 1.27917E-13
 -1      2867 2.18368E+01-3.63461E-01 8.65974E-03 1.04133E+00 1.10743E-13 7.90732E-14
 -1      2868 2.20282E+01-5.42304E-01-7.87190E-03 9.30180E-01 4.82255E-14 2.06858E-13
 -1      2869 2.18620E+01-7.88881E-01-1.21609E-02 1.08249E+00 3.90273E-14 3.29870E-13
 -1      2870 2.14419E+01-9.38931E-02 5.32235E-03 1.11482E+00 9.08570E-14-1.95216E-15
 -1      2871 2.16150E+01-2.19633E-01-3.55930E-03 1.08199E+00 1.12827E-13 4.65849E-14
 -1      2872 2.13734E+01-3.60466E-01-8.93065E-03 1.23771E+00 1.18728E-13 2.80651E-13
 -1      2873 2.11354E+01 7.69490E-02 2.84022E-03 1.07656E+00 2.69066E-14 1.38387E-13
 -1      2874 2.12876E+01 8.14049E-04-5.60472E-04 1.09498E+00 9.19027E-14 1.15701E-13
 -1      2875 2.10264E+01-5.57645E-02-5.82630E-03 1.24231E+00 5.00953E-15 2.46303E-13
 -1      2876 2.08960E+01 1.69319E-01 1.24101E-03 9.75411E-01 7.44326E-14 2.40955E-13
 -1      2877 2.10279E+01 1.30732E-01 1.29839E-03 1.02305E+00 1.07173E-13 1.19251E-13
 -1      2878 2.07815E+01 1.31316E-01-3.62119E-03 1.15770E+00 7.01359E-14 3.58647E-13
 -1      2879 2.07061E+01 2.07358E-01 3.17684E-04 8.45361E-01-3.95561E-14 1.64461E-13
 -1      2880 2.08192E+01 1.93913E-01 2.33467E-03 9.06393E-01 1.53205E-14 2.20221E-13
 -1      2881 2.06050E+01 2.28417E-01-2.25568E-03 1.02695E+00 4.89642E-14 2.62213E-13
 -1      2882 2.05536E+01 2.11483E-01-1.56736E-04 7.08345E-01 2.20871E-15-1.19143E-14
 -1      2883 2.06494E+01 2.13255E-01 2.80017E-03 7.72409E-01-3.09036E-14 3.16943E-14
 -1      2884 2.04734E+01 2.64581E-01-1.48391E-03 8.78478E-01 7.47377E-14 1.81798E-13
 -1      2885 2.04302E+01 1.96571E-01-3.60336E-04 5.77469E-01 5.08472E-14 7.80517E-14
 -1      2886 2.05102E+01 2.06549E-01 2.88765E-03 6.38386E-01-1.53269E-14-2.35562E-14
 -1      2887 2.03718E+01 2.63350E-01-1.07394E-03 7.30055E-01-6.48636E-15 9.93847E-14
 -1      2888 2.03304E+01 1.72523E-01-4.13153E-04 4.59738E-01 2.93745E-14 3.27718E-13
 -1      2889 2.03962E+01 1.86146E-01 2.74182E-03 5.14255E-01 1.21984E-13 2.14131E-13
 -1      2890 2.02913E+01 2.41555E-01-8.58381E-04 5.92029E-01-1.51758E-14 1.42781E-13
 -1      2891 2.02502E+01 1.45477E-01-3.89806E-04 3.58162E-01-8.48627E-14 2.93860E-13
 -1      2892 2.03034E+01 1.59973E-01 2.46714E-03 4.04938E-01 3.87856E-14 3.26989E-13
 -1      2893 2.02265E+01 2.10275E-01-7.35072E-04 4.69702E-01-1.35340E-14 3.02401E-13
 -1      2894 2.01864E+01 1.18985E-01-3.33465E-04 2.73265E-01 1.54427E-13 1.02050E-13
 -1      2895 2.02286E+01 1.32789E-01 2.13492E-03 3.12136E-01 8.67031E-15 2.65741E-13
 -1      2896 2.01743E+01 1.76332E-01-6.48407E-04 3.65075E-01 5.38137E-14 8.83552E-14
 -1      2897 2.01362E+01 9.49132E-02-2.67971E-04 2.04119E-01 1.93804E-13 1.02686E-13
 -1      2898 2.01692E+01 1.07239E-01 1.79141E-03 2.35594E-01 2.00484E-13 1.12150E-13
 -1      2899 2.01323E+01 1.43638E-01-5.73573E-04 2.78085E-01 1.83495E-13 6.86369E-14
 -1      2900 2.00974E+01 7.40752E-02-2.05651E-04 1.49039E-01 2.00120E-13 1.40441E-13
 -1      2901 2.01227E+01 8.46159E-02 1.46510E-03 1.73963E-01 2.24777E-13 1.76713E-13
 -1      2902 2.00989E+01 1.14213E-01-5.02272E-04 2.07461E-01 1.71158E-13 1.84540E-13
 -1      2903 2.00679E+01 5.66525E-02-1.51709E-04 1.06040E-01 6.15975E-14 2.26601E-14
 -1      2904 2.00869E+01 6.53832E-02 1.17167E-03 1.25379E-01 1.01278E-13 1.38267E-13
 -1      2905 2.00725E+01 8.88958E-02-4.32510E-04 1.51315E-01 1.49021E-13 1.27151E-13
 -1      2906 2.00458E+01 4.24771E-02-1.07592E-04 7.31115E-02-6.09162E-14 2.37439E-13
 -1      2907 2.00598E+01 4.95250E-02 9.17860E-04 8.78279E-02 8.85245E-14 2.52521E-13
 -1      2908 2.00521E+01 6.78185E-02-3.65199E-04 1.07538E-01-7.32600E-14 2.12497E-13
 -1      2909 2.00297E+01 3.12059E-02-7.29814E-05 4.83716E-02-2.04417E-13 2.58272E-13
 -1      2910 2.00397E+01 3.67710E-02 7.04781E-04 5.93539E-02-1.79419E-13 2.46967E-13
 -1      2911 2.00365E+01 5.07255E-02-3.02284E-04 7.40408E-02-1.35591E-13 3.53684E-13
 -1      2912 2.00182E+01 2.24251E-02-4.68482E-05 3.01509E-02-2.29489E-13 7.57932E-14
 -1      2913 2.00252E+01 2.67326E-02 5.30318E-04 3.81795E-02-1.95705E-13 3.08126E-13
 -1      2914 2.00249E+01 3.71706E-02-2.45338E-04 4.88888E-02-2.29446E-13 2.96198E-13
 -1      2915 2.00103E+01 1.57092E-02-2.79871E-05 1.70216E-02-5.17201E-15 1.88425E-13
 -1      2916 2.00150E+01 1.89838E-02 3.90608E-04 2.27575E-02-1.93609E-13 1.08413E-13
 -1      2917 2.00163E+01 2.66335E-02-1.95213E-04 3.03743E-02-2.24706E-13 6.97036E-14
 -1      2918 2.00050E+01 1.06533E-02-1.53781E-05 7.80290E-03 6.21035E-15 2.59606E-13
 -1      2919 2.00080E+01 1.31052E-02 2.81035E-04 1.17875E-02 9.22328E-14 3.36734E-13
 -1      2920 2.00102E+01 1.85872E-02-1.52137E-04 1.70430E-02-5.26448E-14 2.63352E-13
 -1      2921 2.00017E+01 6.88641E-03-8.37742E-06 1.54774E-03 2.39606E-13 2.02522E-13
 -1      2922 2.00034E+01 8.70639E-03 1.96778E-04 4.21049E-03 1.07531E-13 2.07676E-13
 -1      2923 2.00060E+01 1.25326E-02-1.16005E-04 7.69495E-03 1.46432E-13 2.15687E-13
 -1      2924 1.99998E+01 4.08120E-03-3.19238E-06-2.47347E-03 2.40740E-13 3.10026E-13
 -1      2925 2.00007E+01 5.43321E-03 1.32806E-04-8.07602E-04 2.36975E-13 3.00267E-13
 -1      2926 2.00031E+01 8.01483E-03-8.61112E-05 1.37113E-03 1.96683E-13 3.38682E-13
 -1      2927 1.99989E+01 1.96686E-03 1.78820E-05-4.78417E-03 9.90804E-14 7.47220E-13
 -1      2928 1.99992E+01 2.94214E-03 7.69836E-05-3.90867E-03 2.63136E-13 6.50041E-13
 -1      2929 2.00013E+01 4.64956E-03-5.81196E-05-2.67879E-03 7.24887E-14 5.19991E-13
 -1      2930 1.99989E+01 5.24942E-04 1.69628E-05-5.69374E-03 2.00556E-13 5.10984E-13
 -1      2931 1.99989E+01 1.33108E-03 3.77944E-05-5.36669E-03 2.05825E-13 6.50645E-13
 -1      2932 2.00007E+01 2.30026E-03-4.96805E-05-4.78691E-03 1.60884E-13 7.17896E-13
 -1      2933 2.00006E+01 5.88910E-04-3.97729E-05-5.68311E-03 2.89983E-13 4.36046E-13
 -1      2934 2.38912E+01-5.16734E+00-6.84466E-02 3.83210E+00-3.58463E-13-3.91548E-13
 -1      2935 2.08189E+01-4.93563E+00 1.20242E-01 5.06779E+00-4.30378E-13-6.70471E-14
 -1      2936 2.00028E+01-8.79832E-04-3.45046E-06-3.32413E-04 1.67452E-13-6.56440E-13
 -1      2937 2.00028E+01-8.72014E-04 1.77149E-06-1.01949E-03 2.18912E-13-4.68351E-13
 -1      2938 2.56146E+01-4.75855E+00 8.25731E-02-2.75322E+00 2.94174E-13 4.99600E-15
 -1      2939 2.74899E+01-3.74902E+00-1.70449E-01-9.19946E-01 2.09881E-13-2.17742E-13
 -1      2940 2.00026E+01-1.26431E-03-7.67609E-06-3.03383E-03 2.23137E-13 4.47867E-14
 -1      2941 2.00024E+01-1.20002E-03 9.30366E-06-3.66744E-03 3.17334E-13-3.13825E-14
 -1      2942 2.00028E+01-8.80034E-04 2.00999E-06 1.01910E-03 1.94501E-13-2.39006E-13
 -1      2943 2.00029E+01-8.84380E-04-3.86254E-06 3.30618E-04 9.43230E-14-5.15594E-13
 -1      2944 2.00035E+01 1.74618E-03 2.81204E-05-4.00647E-06 2.27752E-13-5.77306E-13
 -1      2945 2.00028E+01-1.02494E-03-7.39447E-06-1.68656E-03 1.67135E-13-1.99213E-13
 -1      2946 2.00027E+01-9.98034E-04 6.67276E-06-2.36297E-03 2.64638E-13 1.46227E-14
 -1      2947 2.00033E+01 1.16577E-03 1.77722E-05-2.59754E-03 1.77771E-13 7.18626E-14
 -1      2948 2.00035E+01 1.59578E-03 2.57066E-05-1.29185E-03 2.12449E-13-2.61851E-13
 -1      2949 2.00027E+01-1.01072E-03 6.55646E-06 2.34568E-03 2.75645E-13-2.09226E-13
 -1      2950 2.00028E+01-1.03600E-03-7.73176E-06 1.67835E-03 2.20356E-13-5.21343E-14
 -1      2951 2.00035E+01 1.58397E-03 2.57052E-05 1.27793E-03 2.85586E-13-1.81686E-13
 -1      2952 2.00025E+01-1.22182E-03 6.22804E-06 3.66118E-03 3.75260E-13 3.28017E-14
 -1      2953 2.00026E+01-1.27977E-03-7.91463E-06 3.02132E-03 3.20890E-13-1.14284E-13
 -1      2954 2.00033E+01 1.15126E-03 1.84983E-05 2.58192E-03 3.81919E-13-5.37813E-14
 -1      2955 2.00018E+01-1.42853E-03-5.11615E-06 4.83317E-03 4.21430E-13 4.04599E-13
 -1      2956 2.00022E+01-1.52498E-03-5.65606E-06 4.29598E-03 3.65926E-13 2.35729E-13
 -1      2957 2.00029E+01 5.69943E-04 1.36984E-05 3.89191E-03 2.87428E-13 1.16766E-13
 -1      2958 9.99153E+00-2.12240E+00 9.07721E-02 5.01034E+00-2.74725E-13 5.02431E-13
 -1      2959 7.47173E+00-1.19344E+00 1.91374E-01 3.11048E+00 1.10328E-15 3.65236E-13
 -1      2960 1.69626E+01-4.46871E+00-1.42248E-03 6.20718E+00-4.06800E-13 3.39243E-13
 -1      2961 1.36551E+01-3.28274E+00 1.38397E-01 5.93773E+00-4.07480E-13 4.64670E-13
 -1      2962 2.05788E+01 1.87234E+00-9.09142E-03-7.83780E-01-2.95321E-13-2.98169E-13
 -1      2963 2.06059E+01 1.51463E+00-3.36482E-03-4.44905E-01-2.68796E-13-2.69647E-13
 -1      2964 1.93239E+01-5.04284E+00 1.10872E-02 5.86915E+00 2.57128E-13 3.91007E-14
 -1      2965 1.61811E+01-4.22720E+00 1.36833E-01 6.17714E+00 3.27557E-13-9.66727E-14
 -1      2966 2.07532E+01 4.23326E-01 1.87854E-03-7.94908E-01 1.32704E-13 1.28575E-14
 -1      2967 2.07119E+01 5.09389E-01 7.82827E-03-6.38466E-01 1.86705E-13 3.08710E-14
 -1      2968 2.06344E+01 4.99350E-01-4.59888E-03-9.11240E-01 1.42507E-13-1.80202E-14
 -1      2969 2.36775E+01-5.24189E+00 7.78539E-02-4.21803E+00-3.17524E-13 1.50019E-14
 -1      2970 2.61442E+01-4.61446E+00-9.02421E-02-2.41325E+00-1.75637E-13 2.84744E-13
 -1      2971 2.13735E+01-1.31684E-01-2.25703E-03-1.26287E+00 4.62655E-14 4.76355E-15
 -1      2972 2.12071E+01-3.72666E-03 6.27248E-03-1.26556E+00 5.13942E-14-2.59086E-15
 -1      2973 2.09099E+01 6.85702E-02-6.82246E-03-1.35658E+00 6.80987E-14-4.45179E-14
 -1      2974 2.12006E+01-2.45371E-01-9.18224E-03-1.42025E+00 1.28917E-14-1.64461E-14
 -1      2975 2.06457E+01 1.24930E+00 4.35148E-03-1.87691E-01-2.31768E-13-2.39678E-13
 -1      2976 2.06095E+01 1.04168E+00-1.81489E-03 1.13552E-01-2.02912E-13-2.22652E-13
 -1      2977 2.04717E+01 1.18913E+00 2.48574E-04 2.23837E-01-1.86747E-13-2.42290E-13
 -1      2978 2.04545E+01 1.64362E+00 1.15817E-03-2.66511E-01-2.36776E-13-2.83819E-13
 -1      2979 2.86820E+01-1.39421E+00 9.81244E-03 1.10924E+00-2.77556E-16-3.10779E-13
 -1      2980 2.89869E+01 5.06714E-01-1.88020E-01 1.85782E+00-1.56763E-13-2.52673E-13
 -1      2981 1.95359E+01 3.02069E+00-5.51098E-03 3.53278E-01 3.24123E-13-2.84621E-13
 -1      2982 1.93813E+01 3.14883E+00-7.96129E-03 2.60254E-01 2.70965E-13-3.32957E-13
 -1      2983 1.93983E+01 2.93717E+00 5.74948E-03 1.33839E-01 2.40895E-13-3.18852E-13
 -1      2984 1.97129E+01 2.63696E+00 6.27282E-03 2.33148E-01 3.05618E-13-2.38835E-13
 -1      2985 2.07050E+01 6.05006E-01 1.47066E-03-4.42927E-01 2.39505E-13 2.81173E-14
 -1      2986 2.07177E+01 7.29954E-01 1.02944E-02-2.23774E-01 2.72389E-13 4.17501E-14
 -1      2987 2.06236E+01 1.03395E+00-1.34203E-03-7.58052E-02 3.19459E-13-3.90617E-14
 -1      2988 2.06055E+01 7.19778E-01-3.54341E-03-5.47523E-01 2.29705E-13-1.79314E-14
 -1      2989 2.88309E+01 9.39432E-02-2.20913E-01-1.55239E+00 6.42958E-14-5.27009E-13
 -1      2990 2.86321E+01-1.75907E+00-2.98908E-02-4.38910E-01-1.19640E-13-6.03406E-13
 -1      2991 2.77518E+01-2.53403E+00-6.34438E-03-3.08185E-01-2.49623E-13-6.24667E-13
 -1      2992 1.93551E+01 3.17779E+00-7.79253E-03-2.62303E-01-3.31172E-14-4.48780E-13
 -1      2993 1.95072E+01 3.05362E+00-5.36957E-03-3.51217E-01-8.96484E-14-4.44069E-13
 -1      2994 2.78109E+01-2.81836E+00-3.43154E-02-3.63292E-01-4.12240E-14 3.71675E-13
 -1      2995 2.89011E+01-1.21681E+00-1.23714E-01 7.16201E-01 1.21923E-13 3.67290E-13
 -1      2996 5.91087E+00-9.26192E-01 9.45180E-02 9.32678E-01 1.16261E-13 3.13777E-13
 -1      2997 6.06541E+00-1.02906E+00 1.29568E-01-1.57750E+00 5.34572E-14 2.16355E-13
 -1      2998 7.02499E+00-9.75122E-01 7.68907E-02 2.34971E+00 1.34566E-13-8.23508E-13
 -1      2999 6.43580E+00-7.62791E-01 2.39211E-01 6.88423E-02 3.04895E-14-9.14963E-13
 -1      3000 2.79375E+01 6.09479E+00-1.88687E-01-4.93950E-01 6.03906E-13-1.19899E-13
 -1      3001 2.82865E+01 5.48123E+00-1.55089E-01-1.47873E+00 5.00405E-13-1.94171E-13
 -1      3002 1.79830E+01-4.90326E+00 1.04164E-01-6.17812E+00-3.37452E-13-3.60593E-13
 -1      3003 2.07118E+01-5.37277E+00-2.48076E-02-5.64672E+00-3.43225E-13-1.80160E-13
 -1      3004 1.99995E+01-1.34666E-03-1.89805E-06 5.89473E-03 1.94872E-13 3.44961E-13
 -1      3005 2.00002E+01-1.69421E-03-1.26671E-05 5.86161E-03 2.67281E-13 2.55842E-13
 -1      3006 1.99995E+01-7.12192E-04 2.48566E-05 5.99378E-03 2.49711E-13 1.93304E-13
 -1      3007 2.01990E+01 2.70796E+00-3.09413E-03-9.43087E-01-2.62090E-13-3.85789E-13
 -1      3008 2.91324E+01 2.09093E+00-2.05582E-01-1.94909E+00-4.84904E-13 1.74208E-13
 -1      3009 2.94740E+01 4.75286E-01-3.59917E-02-1.66940E+00-4.16542E-13 2.35784E-13
 -1      3010 2.83741E+01 5.38856E+00-2.07358E-01-1.32294E+00-6.65912E-13 1.03591E-13
 -1      3011 2.90881E+01 4.12513E+00-1.13128E-01-1.94528E+00-5.94802E-13 1.42719E-13
 -1      3012 2.90244E+01 2.69229E+00-1.07255E-01 2.25837E+00-3.49554E-13-2.54866E-13
 -1      3013 2.89591E+01 4.06859E+00-2.13950E-01 1.98563E+00-4.76758E-13-2.92349E-13
 -1      3014 2.03856E+01-5.05219E+00 1.35443E-01-5.33974E+00 3.06338E-13 1.06940E-13
 -1      3015 2.29230E+01-5.37803E+00-7.09093E-02-4.47074E+00 2.88103E-13 4.19682E-14
 -1      3016 7.71728E+00-1.46097E+00 1.70278E-01-3.52320E+00-3.82819E-14 1.53155E-13
 -1      3017 9.97627E+00-2.46101E+00 7.61196E-02-5.32013E+00 6.29496E-14 2.49106E-13
 -1      3018 1.96819E+01 2.87529E+00-8.00664E-03-4.11113E-01-1.15726E-13-4.39444E-13
 -1      3019 1.98786E+01 2.70271E+00-3.88156E-03-5.05848E-01-1.66745E-13-4.25092E-13
 -1      3020 1.96794E+01 2.67835E+00 6.81298E-03-2.33410E-01-9.08726E-14-4.04655E-13
 -1      3021 1.91161E+01 3.18878E+00 5.72619E-03-9.69460E-03 1.09906E-13-3.99791E-13
 -1      3022 1.90475E+01 3.44518E+00-5.68019E-03-2.44974E-02 1.03386E-13-4.30713E-13
 -1      3023 1.90771E+01 3.42432E+00-5.01943E-03-9.60874E-02 6.35812E-14-4.26454E-13
 -1      3024 2.79201E+01 8.50974E-01-5.42826E-02-2.13400E+00 6.95763E-14-3.87648E-13
 -1      3025 9.97539E+00-8.65032E-01 1.56962E-01 3.16338E+00 2.33237E-13-6.57613E-13
 -1      3026 2.48639E+01-4.60778E+00 5.17383E-03 2.48967E+00-4.04038E-13-4.40523E-13
 -1      3027 8.58519E+00-6.61664E-01 1.86160E-01-2.42316E+00 1.37806E-14 2.77278E-13
 -1      3028 2.05456E+01 1.75693E+00-3.28997E-03 5.93345E-01 3.95557E-13-5.04748E-14
 -1      3029 2.70775E+01 4.00169E+00-9.99773E-02-1.83465E+00 3.55105E-13-2.44318E-13
 -1      3030 1.90767E+01-4.41788E+00 9.12658E-02-5.35833E+00 3.23824E-13 1.27044E-13
 -1      3031 2.79529E+01 1.18690E+00-6.89787E-02 2.31817E+00-1.95177E-13-2.98983E-13
 -1      3032 2.00005E+01-1.77527E-04-3.59536E-05 5.80840E-03 4.13065E-13-5.35384E-14
 -1      3033 2.48322E+01 3.18937E+00-9.68373E-02-1.28308E+00-3.72466E-13-1.47873E-13
 -1      3034 2.47317E+01 3.72565E+00-6.46665E-02-4.09550E-01-3.71952E-13-1.47608E-13
 -1      3035 2.58494E+01 4.44771E+00-1.04933E-01 2.15565E-01-4.13183E-13-1.04981E-13
 -1      3036 2.60399E+01 3.17785E+00-9.72629E-02-1.80702E+00-4.92856E-13 6.06737E-14
 -1      3037 1.97307E+01-4.25096E+00 8.06448E-02 4.97812E+00-4.46906E-13-4.95923E-14
 -1      3038 1.65973E+01-4.40816E+00 8.19371E-02-6.30926E+00-3.59851E-13-4.62186E-13
 -1      3039 1.85579E+01-4.24608E+00 6.93407E-02-5.54665E+00-3.98431E-13-2.41154E-13
 -1      3040 1.52496E+01-3.47735E+00 1.64059E-01-6.03647E+00-3.79169E-13-4.68459E-13
 -1      3041 2.56232E+01-4.23478E+00 1.91938E-02-1.79779E+00-2.08306E-13 3.01660E-13
 -1      3042 2.70146E+01-3.87223E+00-2.89809E-02-1.04544E+00-1.51525E-13 3.31415E-13
 -1      3043 2.67484E+01-3.09478E+00-1.69042E-01 2.22401E-01-1.30210E-13 4.20282E-13
 -1      3044 2.74777E+01-2.67068E+00-4.83261E-02 3.50720E-01 1.40837E-13-2.74419E-13
 -1      3045 2.00029E+01 5.79472E-04 1.35856E-05-3.87843E-03 3.78787E-13-1.40507E-13
 -1      3046 2.00022E+01-1.50680E-03-2.81982E-06-4.30602E-03 3.14742E-13-2.63115E-13
 -1      3047 2.00018E+01-1.34808E-03-3.38253E-06-4.82585E-03 2.95991E-13-3.80788E-13
 -1      3048 2.00010E+01-1.45380E-03 1.03185E-05-5.50850E-03 1.49904E-13-1.13577E-13
 -1      3049 2.13952E+01-5.11542E+00 8.61067E-02 5.05973E+00 2.43430E-13 8.76747E-14
 -1      3050 2.03399E+01-4.49204E+00 6.93897E-02 5.06822E+00 3.22541E-13 1.19384E-13
 -1      3051 2.30154E+01-5.19834E+00-8.33182E-02 4.07660E+00 1.96440E-13 2.62527E-13
 -1      3052 8.31329E+00-5.13788E-01 1.88426E-01 1.87576E+00 3.33136E-14 3.10446E-13
 -1      3053 1.26487E+01-2.33149E+00 1.36973E-01 5.34584E+00-2.97012E-13 4.69749E-13
 -1      3054 1.19173E+01-1.24382E+00 9.09699E-02 4.35802E+00-7.67719E-14 3.61197E-13
 -1      3055 1.50601E+01-2.46326E+00 6.59964E-02 5.09681E+00-3.55292E-13 2.92148E-13
 -1      3056 2.00009E+01-1.82617E-03 2.26459E-05 5.52744E-03 4.62816E-13 1.64571E-13
 -1      3057 2.87385E+01-8.72644E-01-2.40043E-02-1.20403E+00-3.11827E-13 2.36117E-13
 -1      3058 1.54721E+01-3.10764E+00 1.27487E-01 5.53072E+00 3.99653E-13-1.97689E-13
 -1      3059 2.78317E+01 4.62693E+00-1.23533E-01 1.71868E+00-5.16059E-13-2.62346E-13
 -1      3060 2.70276E+01-4.37395E+00-2.67886E-02 2.06650E+00-2.19942E-13 4.44533E-13
 -1      3061 2.57626E+01-4.70300E+00 9.22541E-02 2.57554E+00-2.47233E-14 4.26374E-13
 -1      3062 2.74616E+01-3.66430E+00-1.18754E-01 6.09931E-01-1.59544E-13 4.29851E-13
 -1      3063 2.43812E+01-4.81049E+00 3.21962E-02-2.98410E+00 3.10786E-13-5.51295E-14
 -1      3064 2.00012E+01-2.23449E-04-1.09821E-05 5.54404E-03 2.72862E-13-1.02916E-13
 -1      3065 2.00015E+01-1.18060E-03-1.20415E-05 5.22451E-03 4.38131E-13 3.39978E-13
 -1      3066 2.00023E+01 5.09889E-04 3.65437E-05 4.84374E-03 2.23061E-13 5.62023E-13
 -1      3067 2.00015E+01 7.87357E-04 5.05783E-05 5.34953E-03 3.51107E-13-2.30210E-14
 -1      3068 9.57006E+00-2.49186E+00 1.71825E-01-5.11650E+00-2.28123E-13-6.89476E-13
 -1      3069 1.20588E+01-2.70501E+00 4.95953E-02-5.60872E+00-3.29514E-13-5.40262E-13
 -1      3070 9.33187E+00-1.51558E+00 1.11096E-01-4.21123E+00-2.00798E-13-7.03992E-13
 -1      3071 7.46867E+00-6.59850E-01 1.68376E-01-1.09927E+00-6.65024E-14-8.16736E-13
 -1      3072 2.88749E+01 4.21449E+00-1.42129E-01 1.81717E+00 4.89608E-13 2.29067E-13
 -1      3073 2.73583E+01 4.53740E+00-1.57018E-01 1.69192E+00 4.82947E-13 2.80914E-13
 -1      3074 2.80049E+01 2.97097E+00-5.87064E-02 2.09786E+00 2.65940E-13 3.63778E-13
 -1      3075 2.84161E+01-1.38752E-02-8.85282E-02 1.66360E+00 1.45411E-13 4.88665E-13
 -1      3076 1.91385E+01 3.36685E+00-6.77587E-03-1.35516E-01 4.39209E-14-4.08515E-13
 -1      3077 1.92328E+01 3.29671E+00-4.75928E-03-2.13552E-01-6.49033E-15-4.33219E-13
 -1      3078 1.93707E+01 2.96722E+00 5.91840E-03-1.42666E-01-2.39309E-14-4.03506E-13
 -1      3079 1.91771E+01 3.13746E+00 5.73093E-03-7.05928E-02 3.94753E-14-3.95113E-13
 -1      3080 2.26124E+01-5.02886E+00 6.34169E-02-4.38090E+00-3.61863E-13 4.03046E-14
 -1      3081 2.04801E+01 1.59707E+00 3.11271E-03 2.98546E-01 3.59924E-13-7.77021E-14
 -1      3082 1.29027E+01-2.50193E+00 1.48855E-01-5.28744E+00 1.60927E-13 2.63345E-13
 -1      3083 2.78596E+01 2.52706E+00-1.14885E-01-2.16798E+00-4.65475E-13 1.45987E-13
 -1      3084 2.01892E+01 2.41945E+00 6.09216E-04-6.58863E-01-2.19465E-13-3.77394E-13
 -1      3085 2.52863E+01 3.37610E+00-1.10149E-01-1.70027E+00 2.91031E-13-7.34378E-14
 -1      3086 2.56289E+01 2.21552E+00-7.26251E-02-2.32982E+00 1.99916E-13-1.67935E-13
 -1      3087 2.02154E+01 1.81426E+00-5.16160E-03 1.47476E-01 3.23104E-13-1.36708E-13
 -1      3088 2.00125E+01 2.06164E+00-3.20908E-03 1.11130E-01 3.04202E-13-1.77578E-13
 -1      3089 2.11135E+01-4.15958E+00-1.65103E-02 4.10378E+00-4.52735E-13-3.06227E-13
 -1      3090 1.82323E+01-3.39863E+00 8.49845E-02 5.00057E+00-4.80314E-13 9.50628E-16
 -1      3091 2.02447E+01 8.67529E-01 2.28898E-03 9.49201E-01-1.02599E-13-1.84366E-13
 -1      3092 2.02493E+01 7.51438E-01 1.03786E-03 1.12528E+00-5.83919E-14-1.92891E-13
 -1      3093 2.02199E+01 6.37109E-01 2.26536E-03 1.29583E+00-2.86123E-14-1.80936E-13
 -1      3094 2.02586E+01 5.13525E-01 2.80216E-03 1.43784E+00-3.52309E-14-1.84931E-13
 -1      3095 1.99843E+01 8.34161E-01-1.54443E-03 1.20566E+00-4.94028E-14-1.98748E-13
 -1      3096 2.02548E+01 3.74100E-01 3.25227E-03 1.59098E+00-1.85804E-14-1.45601E-13
 -1      3097 2.03466E+01 2.07958E-01 4.52065E-03 1.69834E+00 1.87057E-14-1.22804E-13
 -1      3098 1.99360E+01 5.54107E-01-3.88116E-03 1.53928E+00 9.00430E-16-1.39182E-13
 -1      3099 2.04029E+01 8.86034E-03 6.19286E-03 1.83432E+00 3.41813E-14-1.13473E-13
 -1      3100 2.05757E+01-2.35957E-01 5.92984E-03 1.89679E+00 5.95320E-14-7.77557E-14
 -1      3101 1.99647E+01 1.83555E-01-8.16352E-03 1.84611E+00 2.85380E-14-1.32813E-13
 -1      3102 2.07464E+01-5.26671E-01 1.25658E-02 2.00365E+00 9.48063E-14-5.72958E-14
 -1      3103 2.10360E+01-8.79660E-01 6.17002E-03 1.99600E+00 9.28652E-14-4.69020E-14
 -1      3104 2.01497E+01-3.59088E-01-1.53746E-02 2.12329E+00 9.10877E-14-9.07518E-14
 -1      3105 2.13997E+01-1.27444E+00 2.39087E-02 2.03483E+00 9.14596E-14-7.38320E-15
 -1      3106 2.18439E+01-1.73123E+00 4.89123E-03 1.90957E+00 1.09201E-13 3.93340E-15
 -1      3107 2.06145E+01-1.14364E+00-2.50412E-02 2.33275E+00 1.23699E-13-7.41343E-14
 -1      3108 2.24905E+01-2.19432E+00 3.71237E-02 1.80337E+00 9.08329E-14 4.44642E-14
 -1      3109 2.30919E+01-2.65730E+00-3.79080E-03 1.48716E+00 6.94323E-14 2.22728E-14
 -1      3110 2.15068E+01-2.17173E+00-4.07122E-02 2.36423E+00 1.27887E-13-2.66384E-14
 -1      3111 2.41256E+01-2.99533E+00 5.78034E-02 1.05979E+00 2.35007E-14 1.18905E-13
 -1      3112 2.48168E+01-3.14428E+00 3.82092E-03 4.62616E-01-2.66922E-14 8.78880E-14
 -1      3113 2.30782E+01-3.31052E+00-6.23775E-02 2.01544E+00 7.85596E-14 6.48630E-14
 -1      3114 2.59697E+01-3.30589E+00 1.01413E-02 1.67130E-01-6.78103E-14 2.08444E-13
 -1      3115 2.66588E+01-2.55710E+00-6.19633E-03-5.56811E-01-1.37388E-13 2.28536E-13
 -1      3116 2.60979E+01-2.32290E+00-4.04610E-02 1.04019E+00 1.92204E-13-3.66391E-13
 -1      3117 2.56344E+01-2.90869E+00 1.06746E-02 3.81320E-01 2.08968E-13-2.85518E-13
 -1      3118 2.44968E+01-3.04737E+00-2.86270E-02-4.03973E-01 2.78980E-13-1.16657E-13
 -1      3119 2.38894E+01-2.83949E+00 4.00600E-02-9.29441E-01 3.42318E-13-5.80655E-14
 -1      3120 2.49705E+01-3.52638E+00-4.02996E-02-7.18297E-01 3.01623E-13-1.03539E-13
 -1      3121 2.29381E+01-2.49291E+00-1.12661E-02-1.32182E+00 2.72922E-13-4.91072E-14
 -1      3122 2.23813E+01-2.02697E+00 3.37042E-02-1.61167E+00 2.48438E-13-6.78975E-14
 -1      3123 2.29345E+01-3.03524E+00-3.82793E-02-1.75504E+00 2.95118E-13-9.03045E-14
 -1      3124 2.17513E+01-1.58832E+00-8.07445E-04-1.72016E+00 1.65733E-13-1.06341E-13
 -1      3125 2.13344E+01-1.14764E+00 2.08143E-02-1.83086E+00 9.35781E-14-1.50806E-13
 -1      3126 2.14670E+01-1.99237E+00-3.17234E-02-2.11634E+00 1.87799E-13-1.48885E-13
 -1      3127 2.09759E+01-7.82279E-01 3.50619E-03-1.79670E+00 7.74923E-14-2.85426E-14
 -1      3128 2.06978E+01-4.56611E-01 1.06258E-02-1.80080E+00 4.87704E-14-5.28251E-14
 -1      3129 2.05786E+01-1.02318E+00-2.11044E-02-2.09556E+00 1.30675E-13 1.17999E-13
 -1      3130 2.05203E+01-2.02808E-01 4.41409E-03-1.70815E+00-1.66100E-14-8.32059E-14
 -1      3131 2.03466E+01 5.41108E-03 4.48910E-03-1.65531E+00-3.37443E-14-8.68783E-14
 -1      3132 2.01072E+01-3.15197E-01-1.20756E-02-1.91355E+00 2.64822E-15 1.13524E-13
 -1      3133 2.02745E+01 1.59553E-01 3.97887E-03-1.54417E+00-8.55801E-15-2.10700E-13
 -1      3134 2.01687E+01 2.75964E-01 1.11773E-03-1.46352E+00-7.88093E-14-2.88360E-13
 -1      3135 1.98923E+01 1.34179E-01-6.08425E-03-1.68252E+00-1.04166E-13-3.43982E-14
 -1      3136 2.01527E+01 3.55936E-01 3.33556E-03-1.35095E+00-1.20302E-13-2.62686E-13
 -1      3137 2.00872E+01 4.08749E-01-6.28023E-04-1.25942E+00-1.40691E-13-2.08538E-13
 -1      3138 1.98201E+01 3.84610E-01-2.53577E-03-1.44660E+00-1.12489E-13-1.84181E-13
 -1      3139 2.00976E+01 4.39211E-01 2.79965E-03-1.15281E+00-2.23890E-13-3.02934E-13
 -1      3140 2.00545E+01 4.51671E-01-1.45339E-03-1.06039E+00-2.13067E-13-3.83109E-13
 -1      3141 1.98193E+01 4.97960E-01-6.59153E-04-1.22296E+00-2.32877E-13-1.37035E-13
 -1      3142 2.00748E+01 4.51862E-01 2.41429E-03-9.63076E-01-1.66776E-13-4.60355E-13
 -1      3143 2.00440E+01 4.40813E-01-1.75899E-03-8.75686E-01-7.78346E-14-4.99776E-13
 -1      3144 1.98487E+01 5.24299E-01 2.10413E-04-1.01808E+00-2.83237E-13-2.24771E-13
 -1      3145 2.00658E+01 4.24228E-01 2.12855E-03-7.89202E-01 2.89146E-15-5.96312E-13
 -1      3146 2.00418E+01 4.01010E-01-1.77795E-03-7.10165E-01-1.73524E-14-6.29518E-13
 -1      3147 1.98865E+01 4.99724E-01 5.32359E-04-8.34620E-01-6.83420E-14-4.89300E-13
 -1      3148 2.00613E+01 3.76496E-01 1.88987E-03-6.35062E-01 1.14682E-13-5.44463E-13
 -1      3149 2.00414E+01 3.48324E-01-1.64621E-03-5.65959E-01 2.09773E-14-3.61615E-13
 -1      3150 1.99222E+01 4.48579E-01 5.78357E-04-6.73649E-01 1.14350E-13-4.60935E-13
 -1      3151 2.00573E+01 3.21343E-01 1.66902E-03-5.02103E-01-1.32416E-13-3.77474E-13
 -1      3152 2.00404E+01 2.92558E-01-1.44432E-03-4.43328E-01-2.83172E-14-2.80959E-13
 -1      3153 1.99516E+01 3.86461E-01 5.03877E-04-5.35154E-01-1.11744E-15-2.88299E-13
 -1      3154 2.00525E+01 2.66284E-01 1.45418E-03-3.90103E-01 4.65666E-14-3.97402E-13
 -1      3155 2.00381E+01 2.39323E-01-1.21972E-03-3.41274E-01 3.69668E-14-3.58962E-13
 -1      3156 1.99738E+01 3.22843E-01 3.92199E-04-4.18275E-01-7.24277E-14-2.79548E-13
 -1      3157 2.00468E+01 2.15437E-01 1.24494E-03-2.97723E-01 9.10682E-14-3.82588E-13
 -1      3158 2.00346E+01 1.91504E-01-1.00091E-03-2.57985E-01 8.13766E-14-1.51358E-13
 -1      3159 1.99896E+01 2.63099E-01 2.80564E-04-3.21456E-01 1.20454E-13-3.94580E-13
 -1      3160 2.00406E+01 1.70737E-01 1.04617E-03-2.22968E-01 4.96465E-14-7.61532E-14
 -1      3161 2.00304E+01 1.50264E-01-8.03241E-04-1.91231E-01 1.50033E-14-3.37330E-14
 -1      3162 2.00000E+01 2.09926E-01 1.84280E-04-2.42660E-01 1.21643E-13-3.34727E-13
 -1      3163 2.00344E+01 1.32780E-01 8.62764E-04-1.63552E-01 2.51623E-14 1.15666E-14
 -1      3164 2.00260E+01 1.15752E-01-6.31961E-04-1.38656E-01 6.36894E-14 5.14736E-15
 -1      3165 2.00064E+01 1.64331E-01 1.09683E-04-1.79620E-01 9.78233E-14-2.28387E-13
 -1      3166 2.00284E+01 1.01403E-01 6.98246E-04-1.17146E-01-2.46355E-14 1.01143E-13
 -1      3167 2.00217E+01 8.75665E-02-4.87709E-04-9.79556E-02-2.48242E-14 1.84574E-13
 -1      3168 2.00098E+01 1.26323E-01 5.59043E-05-1.30034E-01 3.15049E-14-2.71672E-13
 -1      3169 2.00230E+01 7.60436E-02 5.54731E-04-8.15237E-02-4.09072E-14 1.59841E-13
 -1      3170 2.00177E+01 6.50269E-02-3.69249E-04-6.69901E-02-1.13586E-13 1.58329E-13
 -1      3171 2.00112E+01 9.53705E-02 1.91673E-05-9.16881E-02 1.39486E-14-6.60700E-14
 -1      3172 2.00182E+01 5.59507E-02 4.32767E-04-5.46572E-02-1.19670E-13 1.97151E-13
 -1      3173 2.00141E+01 4.73394E-02-2.74221E-04-4.38505E-02-6.46749E-15 1.94575E-13
 -1      3174 2.00113E+01 7.06751E-02-4.31271E-06-6.25407E-02-1.09437E-14-1.92844E-14
 -1      3175 2.00142E+01 4.03157E-02 3.31536E-04-3.47674E-02 1.92701E-14 1.72642E-13
 -1      3176 2.00110E+01 3.36970E-02-1.99646E-04-2.68918E-02 7.47278E-14 2.82085E-13
 -1      3177 2.00105E+01 5.13320E-02-1.79565E-05-4.07799E-02-5.60414E-15 9.66172E-14
 -1      3178 2.00107E+01 2.83477E-02 2.49415E-04-2.03429E-02 1.03007E-13 2.77212E-13
 -1      3179 2.00084E+01 2.33341E-02-1.42565E-04-1.47367E-02 2.74857E-13 1.46223E-13
 -1      3180 2.00093E+01 3.64337E-02-2.45913E-05-2.48496E-02 4.28008E-14 1.27556E-13
 -1      3181 2.00079E+01 1.93119E-02 1.84230E-04-1.01357E-02 2.66830E-13 5.18665E-14
 -1      3182 2.00062E+01 1.55537E-02-1.00117E-04-6.26457E-03 2.92828E-13 1.57906E-13
 -1      3183 2.00078E+01 2.51235E-02-2.68445E-05-1.34498E-02 2.38867E-13 2.22971E-13
 -1      3184 2.00057E+01 1.25488E-02 1.33412E-04-3.14334E-03 1.90670E-13 2.12873E-13
 -1      3185 2.00044E+01 9.73566E-03-6.91434E-05-5.88077E-04 2.11098E-13 1.18263E-13
 -1      3186 2.00063E+01 1.66275E-02-2.57604E-05-5.52506E-03 2.39731E-13 1.92605E-13
 -1      3187 2.00039E+01 7.47290E-03 9.38556E-05 1.41471E-03 2.61773E-13 6.02809E-14
 -1      3188 2.00030E+01 5.34982E-03-4.00959E-05 2.96707E-03 2.06836E-14 1.15711E-13
 -1      3189 2.00048E+01 1.02633E-02-2.08197E-05-2.45138E-04 1.61571E-13 1.87689E-13
 -1      3190 2.00025E+01 3.77938E-03 6.85551E-05 4.02933E-03-1.02890E-13 2.09313E-13
 -1      3191 2.00019E+01 2.09468E-03-2.19127E-05 4.82738E-03 2.32704E-13 2.24106E-13
 -1      3192 2.00024E+01 2.05303E-03-4.49277E-05 4.62249E-03 7.31519E-14 6.08663E-13
 -1      3193 2.00035E+01 5.56151E-03-4.21988E-05 2.92219E-03 1.00549E-13 4.77594E-13
 -1      3194 2.05624E+01 3.64966E-01 1.53249E-03-1.27729E+00 1.13170E-13-7.09798E-14
 -1      3195 2.05001E+01 4.84181E-01 4.18655E-03-1.15810E+00 1.19100E-13-5.99338E-14
 -1      3196 2.21636E+01-1.46320E+00-6.65694E-03-1.26956E+00-6.04941E-15 1.94170E-14
 -1      3197 2.18337E+01-1.12589E+00 1.93786E-02-1.46024E+00 4.15922E-15 1.50609E-14
 -1      3198 2.14671E+01-8.23700E-01-1.30216E-03-1.52654E+00 1.34680E-14-3.93551E-14
 -1      3199 2.12180E+01-5.39190E-01 1.28993E-02-1.59822E+00-1.38648E-14-1.59185E-14
 -1      3200 2.12645E+01-1.10295E+00-2.15722E-02-1.78086E+00-7.38916E-15 1.15452E-14
 -1      3201 2.42492E+01-2.28095E+00 7.31820E-04 2.66800E-01-1.03152E-13 1.91963E-13
 -1      3202 2.38441E+01-2.25077E+00 3.11777E-02-2.60916E-01-3.34602E-14 1.25028E-13
 -1      3203 2.55607E+01-1.99136E+00-1.61005E-02 1.02037E+00-7.92109E-14 3.91034E-13
 -1      3204 2.52094E+01-2.58966E+00-1.78494E-02 4.62448E-01-1.32405E-13 3.26612E-13
 -1      3205 2.53322E+01 3.32262E+00-6.46451E-02 1.61963E+00 3.04395E-13 3.60163E-13
 -1      3206 2.54803E+01 2.11579E+00-1.26277E-01 2.12161E+00 2.11844E-13 3.83801E-13
 -1      3207 2.51736E+01 4.11879E+00-1.05908E-01-9.91483E-01 3.01315E-13-3.19536E-14
 -1      3208 2.56587E+01 9.86811E-01-1.18109E-01-2.35223E+00 5.84671E-14-1.61435E-13
 -1      3209 2.51851E+01-1.73796E+00 9.60095E-03-1.41122E+00-1.49850E-13-2.74672E-15
 -1      3210 2.53043E+01-1.00355E+00 4.73125E-03-1.86568E+00-9.88116E-14-4.65851E-14
 -1      3211 2.41798E+01-2.23531E+00 3.00031E-02-2.31908E-01-1.51357E-13-5.48515E-14
 -1      3212 2.44776E+01-2.14434E+00-1.91107E-02-7.24254E-01-1.35877E-13-4.78866E-14
 -1      3213 2.50976E+01-2.45111E+00-4.37890E-02-6.52334E-01-9.62928E-14-7.46582E-14
 -1      3214 2.30373E+01-1.90988E+00 2.66247E-02 6.87330E-01-6.76824E-15 1.22046E-13
 -1      3215 2.34183E+01-2.16054E+00-1.75293E-02 3.09672E-01-9.60911E-14 5.51962E-14
 -1      3216 2.37271E+01-2.66736E+00-3.53231E-02 5.21754E-01-1.44342E-13-7.51153E-14
 -1      3217 2.20793E+01-1.28488E+00 2.18260E-02 1.19408E+00 3.71818E-14 3.12643E-13
 -1      3218 2.24284E+01-1.61920E+00-7.84961E-03 9.65830E-01 5.21523E-14 1.83046E-13
 -1      3219 2.23919E+01-2.06294E+00-3.12413E-02 1.25193E+00-9.20050E-14 1.74814E-13
 -1      3220 2.13769E+01-6.86575E-01 1.41444E-02 1.40385E+00 4.18718E-14 3.28310E-13
 -1      3221 2.16516E+01-9.79537E-01-2.50879E-03 1.29967E+00 4.46492E-14 3.33458E-13
 -1      3222 2.14374E+01-1.29560E+00-2.24946E-02 1.57028E+00 3.13170E-14 2.60956E-13
 -1      3223 2.09085E+01-2.30176E-01 7.93511E-03 1.42365E+00 1.16022E-13 3.67018E-13
 -1      3224 2.11106E+01-4.42261E-01 7.58365E-04 1.40431E+00 1.30250E-13 3.34238E-13
 -1      3225 2.08059E+01-6.26261E-01-1.54114E-02 1.62385E+00 1.08164E-13 2.99685E-13
 -1      3226 2.06129E+01 6.94785E-02 3.73887E-03 1.33665E+00-5.13279E-14 3.55839E-13
 -1      3227 2.07572E+01-6.38992E-02 2.16665E-03 1.36915E+00 5.60606E-14 3.91643E-13
 -1      3228 2.04321E+01-1.43758E-01-9.12360E-03 1.53639E+00 5.52468E-14 4.56517E-13
 -1      3229 2.04293E+01 2.40988E-01 1.17587E-03 1.19610E+00 2.45932E-14 3.50640E-13
 -1      3230 2.05333E+01 1.68577E-01 2.56350E-03 1.25713E+00-3.35548E-14 3.00924E-13
 -1      3231 2.02267E+01 1.59439E-01-4.96231E-03 1.38422E+00 8.83066E-15 3.09935E-13
 -1      3232 2.03140E+01 3.20847E-01-2.58540E-04 1.03397E+00 2.97914E-14 2.41305E-13
 -1      3233 2.03913E+01 2.90614E-01 2.62543E-03 1.10782E+00 9.42274E-14 3.14080E-13
 -1      3234 2.01213E+01 3.25048E-01-2.44532E-03 1.20687E+00-2.13306E-15 3.41461E-13
 -1      3235 2.02388E+01 3.41160E-01-9.71381E-04 8.69674E-01 6.68130E-14 3.71756E-13
 -1      3236 2.02983E+01 3.37568E-01 2.55452E-03 9.46188E-01 5.45365E-14 3.58768E-13
 -1      3237 2.00715E+01 3.95444E-01-1.04229E-03 1.02592E+00 9.58803E-15 3.77354E-13
 -1      3238 2.01866E+01 3.26180E-01-1.25257E-03 7.14655E-01 3.25654E-14 3.39818E-13
 -1      3239 2.02340E+01 3.37878E-01 2.41307E-03 7.87623E-01 1.03079E-13 4.24832E-13
 -1      3240 2.00501E+01 4.05348E-01-3.43212E-04 8.53483E-01 1.90213E-14 5.90724E-13
 -1      3241 2.01481E+01 2.92664E-01-1.28710E-03 5.75124E-01-3.79429E-14 2.91625E-13
 -1      3242 2.01865E+01 3.11982E-01 2.22292E-03 6.41086E-01-1.14522E-15 2.78985E-13
 -1      3243 2.00417E+01 3.80204E-01-4.23652E-05 6.96253E-01 2.73410E-14 2.83049E-13
 -1      3244 2.01181E+01 2.51449E-01-1.19220E-03 4.53857E-01-7.42206E-15 2.33359E-13
 -1      3245 2.01494E+01 2.73516E-01 1.99879E-03 5.11223E-01-3.89454E-14 3.12602E-13
 -1      3246 2.00384E+01 3.37284E-01 5.00525E-05 5.57554E-01-5.43529E-15 2.38423E-13
 -1      3247 2.00938E+01 2.09123E-01-1.03807E-03 3.51395E-01 1.26672E-13 3.13781E-14
 -1      3248 2.01194E+01 2.31033E-01 1.75590E-03 3.99792E-01 9.87365E-14 1.81163E-13
 -1      3249 2.00364E+01 2.87659E-01 4.83335E-05 4.38480E-01 4.57952E-14 7.71157E-14
 -1      3250 2.00740E+01 1.69422E-01-8.65697E-04 2.66876E-01 1.97000E-13 1.95355E-13
 -1      3251 2.00947E+01 1.89572E-01 1.50745E-03 3.06689E-01 1.60220E-13 1.65937E-13
 -1      3252 2.00341E+01 2.38017E-01 1.49469E-05 3.38647E-01 1.59185E-13 2.17185E-13
 -1      3253 2.00576E+01 1.34213E-01-6.99147E-04 1.98615E-01 2.07537E-13 9.50001E-14
 -1      3254 2.00742E+01 1.51850E-01 1.26575E-03 2.30659E-01 2.21569E-13 1.26189E-13
 -1      3255 2.00313E+01 1.92101E-01-2.38387E-05 2.56706E-01 1.84035E-13 1.99356E-13
 -1      3256 2.00443E+01 1.04180E-01-5.50014E-04 1.44537E-01 2.91879E-14 2.11655E-13
 -1      3257 2.00574E+01 1.19080E-01 1.04124E-03 1.69821E-01 1.32200E-13 2.38384E-13
 -1      3258 2.00279E+01 1.51721E-01-5.55981E-05 1.90736E-01 9.05312E-14 9.73445E-14
 -1      3259 2.00335E+01 7.93106E-02-4.22561E-04 1.02478E-01-1.62719E-13 3.88937E-13
 -1      3260 2.00436E+01 9.15543E-02 8.40050E-04 1.22055E-01-1.07274E-13 3.41895E-13
 -1      3261 2.00243E+01 1.17468E-01-7.57349E-05 1.38586E-01-1.09907E-13 2.41687E-13
 -1      3262 2.00249E+01 5.92139E-02-3.17262E-04 7.03576E-02-1.85352E-13 4.40778E-13
 -1      3263 2.00327E+01 6.90429E-02 6.64925E-04 8.52366E-02-1.01039E-13 4.88565E-13
 -1      3264 2.00206E+01 8.92147E-02-8.52866E-05 9.80896E-02-2.10560E-13 5.47064E-13
 -1      3265 2.00182E+01 4.33166E-02-2.32714E-04 4.62781E-02-2.44358E-13 3.45952E-13
 -1      3266 2.00240E+01 5.10460E-02 5.16469E-04 5.73735E-02-2.56199E-13 3.56618E-13
 -1      3267 2.00171E+01 6.64531E-02-8.66135E-05 6.71995E-02-1.27108E-13 4.87586E-13
 -1      3268 2.00130E+01 3.09791E-02-1.66615E-04 2.85801E-02-1.98940E-13 1.14828E-13
 -1      3269 2.00172E+01 3.69452E-02 3.93598E-04 3.66863E-02-1.82963E-13 1.75584E-13
 -1      3270 2.00138E+01 4.84911E-02-8.21624E-05 4.40663E-02-1.55916E-13 2.87667E-13
 -1      3271 2.00090E+01 2.15657E-02-1.16258E-04 1.58591E-02-5.52807E-14 1.48020E-13
 -1      3272 2.00121E+01 2.60956E-02 2.94136E-04 2.16438E-02-1.67558E-13 3.05443E-14
 -1      3273 2.00110E+01 3.45772E-02-7.40395E-05 2.70817E-02-1.96325E-13 1.32873E-13
 -1      3274 2.00061E+01 1.44802E-02-7.91328E-05 6.96129E-03 1.70231E-13 1.37726E-13
 -1      3275 2.00082E+01 1.78769E-02 2.15392E-04 1.09686E-02 1.10811E-13 1.02148E-13
 -1      3276 2.00085E+01 2.39729E-02-6.38743E-05 1.48900E-02 1.48468E-14-4.86369E-14
 -1      3277 2.00039E+01 9.17795E-03-5.36306E-05 9.67695E-04-1.39862E-14 4.09996E-13
 -1      3278 2.00053E+01 1.17151E-02 1.54095E-04 3.62620E-03 1.61824E-13 3.12594E-13
 -1      3279 2.00063E+01 1.59904E-02-5.24109E-05 6.37802E-03 1.09106E-14 1.25845E-13
 -1      3280 2.00024E+01 5.29611E-03 2.17076E-06-2.75930E-03-3.61538E-14 5.12364E-13
 -1      3281 2.00033E+01 7.07234E-03 9.85187E-05-1.17421E-03-3.70080E-14 4.21422E-13
 -1      3282 2.00046E+01 1.00138E-02-3.02030E-05 6.70525E-04-9.63031E-14 2.35803E-13
 -1      3283 8.81285E+00 1.45294E-02 1.00328E-01-1.20971E+00 4.74863E-14 4.06203E-13
 -1      3284 1.02236E+01-4.77336E-01 9.04732E-02-3.06158E+00 2.00499E-14 2.22447E-13
 -1      3285 2.77475E+01 5.92589E+00-1.61470E-01 2.91994E-01 6.16868E-13 2.92214E-14
 -1      3286 2.64851E+01 5.23520E+00-1.08775E-01-2.27013E-01 4.86652E-13 2.21594E-14
 -1      3287 2.00039E+01 4.14779E-03-6.10215E-06 1.35810E-03 2.43491E-13-4.91490E-14
 -1      3288 2.00039E+01 4.28394E-03-2.39496E-05 7.71164E-04 2.04367E-13-1.95309E-13
 -1      3289 2.00039E+01 4.46448E-03-1.52468E-05 2.78954E-04 1.73424E-13-5.63294E-13
 -1      3290 2.00039E+01 4.46816E-03-1.59055E-05-3.04559E-04 1.89270E-13-5.39824E-13
 -1      3291 2.00045E+01 7.33681E-03 5.43983E-05 4.07111E-04 1.92511E-13-3.34394E-13
 -1      3292 2.04895E+01 5.94934E-01 5.11579E-04-1.00278E+00 1.34123E-13-5.65686E-14
 -1      3293 2.04658E+01 7.10652E-01 3.85517E-03-8.38684E-01 1.62802E-13-4.42193E-14
 -1      3294 2.02887E+01 6.62384E-01-3.33086E-03-1.10235E+00 1.35024E-13-9.76927E-14
 -1      3295 2.00038E+01 3.40825E-03 8.41404E-07 2.51479E-03 2.99956E-13 1.00039E-13
 -1      3296 2.00039E+01 3.65639E-03-2.74057E-05 1.89824E-03 2.48693E-13 8.56953E-15
 -1      3297 2.00045E+01 6.66509E-03 4.65883E-05 1.32800E-03 1.11818E-13-3.88345E-16
 -1      3298 2.70438E+01 5.36097E+00-1.56050E-01 9.45081E-01 5.70266E-13 2.12740E-13
 -1      3299 2.49186E+01 4.21332E+00-8.77393E-02-9.10921E-02 3.51122E-13 1.33758E-13
 -1      3300 2.66424E+01 4.37833E+00-9.63270E-02 1.39397E+00 4.32016E-13 3.65041E-13
 -1      3301 2.00032E+01 2.36057E-03-9.20373E-06 3.74633E-03 3.92079E-13 1.16222E-13
 -1      3302 2.00036E+01 2.69682E-03-2.49410E-05 3.12241E-03 3.92104E-13 7.30917E-15
 -1      3303 2.00042E+01 5.45550E-03 3.11308E-05 2.38938E-03 2.56597E-13 1.45590E-13
 -1      3304 2.67359E+01 5.31708E+00-1.17236E-01-1.77679E-01-4.89081E-13-6.09304E-14
 -1      3305 2.75761E+01 5.33384E+00-1.72299E-01-8.54071E-01-5.64576E-13 4.45720E-14
 -1      3306 2.31098E+01-2.07007E+00-1.16577E-02-6.98602E-01-5.12351E-15 8.98938E-14
 -1      3307 2.27192E+01-1.77752E+00 2.59518E-02-1.04590E+00-1.32858E-14 6.42537E-14
 -1      3308 2.21122E+01-1.88053E+00-2.82203E-02-1.56099E+00-5.98007E-14 1.07434E-13
 -1      3309 2.33148E+01-2.55893E+00-2.71811E-02-9.72112E-01-6.84071E-14 2.21025E-13
 -1      3310 2.68210E+01 3.88132E+00-6.04157E-02 1.93846E+00-4.44741E-13-2.56489E-13
 -1      3311 2.67646E+01 4.97571E+00-1.81383E-01 1.02483E+00-5.11549E-13-1.73323E-13
 -1      3312 2.72359E+01-1.97191E+00-8.31169E-02-1.19758E+00-2.04527E-13-4.43617E-13
 -1      3313 2.67008E+01-3.16199E+00 4.72247E-03-1.23856E-02-2.69416E-13-5.25469E-13
 -1      3314 9.92710E+00-2.71888E-01 7.76292E-02 2.60256E+00-5.92928E-15 2.88006E-13
 -1      3315 8.81852E+00 1.75946E-01 1.31398E-01 5.58946E-01-2.28680E-15 3.05450E-13
 -1      3316 1.75862E+01-3.34325E+00 3.89231E-02 5.25592E+00 3.70148E-13-1.12826E-14
 -1      3317 1.47532E+01-2.09459E+00 8.69466E-02 4.95400E+00 3.47486E-13-2.11754E-13
 -1      3318 2.62530E+01-4.94387E-01-2.67258E-02-2.09980E+00-7.96169E-14-2.26503E-13
 -1      3319 2.68335E+01 2.01865E+00-1.92920E-01 2.50231E+00-2.57544E-13-3.31894E-13
 -1      3320 2.00017E+01 9.57617E-05 1.43588E-05-5.21111E-03 3.70599E-13 3.98984E-14
 -1      3321 2.55414E+01-4.20378E+00-6.26974E-02 1.43550E+00-3.06540E-13-4.01491E-13
 -1      3322 2.36746E+01-4.32242E+00 3.29232E-02 2.70617E+00-3.43564E-13-2.99497E-13
 -1      3323 2.56379E+01-3.45344E+00-1.87705E-02 3.84641E-01-1.91831E-13-3.41196E-13
 -1      3324 2.02901E+01 1.13360E+00 1.98419E-03 5.40660E-01-1.34756E-13-2.45786E-13
 -1      3325 2.02768E+01 9.91623E-01-5.34369E-04 7.56369E-01-1.14423E-13-2.27817E-13
 -1      3326 2.00590E+01 1.09984E+00-2.05959E-04 8.35427E-01-8.38191E-14-2.17587E-13
 -1      3327 2.65010E+01-3.80396E+00 5.33548E-02-6.29983E-01 2.87205E-13-1.82493E-13
 -1      3328 2.70592E+01-2.21473E+00-7.74736E-02 1.05793E+00 1.11695E-13-3.18086E-13
 -1      3329 2.75704E+01-8.77442E-01 3.30413E-02 1.62883E+00 4.78020E-14 5.23498E-13
 -1      3330 2.78887E+01 7.42656E-01-1.80162E-01 2.03283E+00 1.69288E-13 4.82364E-13
 -1      3331 2.70557E+01 1.65081E+00-7.20092E-02 2.23474E+00 1.34170E-13 4.50959E-13
 -1      3332 1.77278E+01-3.54172E+00 1.35570E-01-5.29286E+00 3.29861E-13 1.19779E-13
 -1      3333 2.03652E+01-4.41586E+00-6.80023E-02-4.64524E+00 3.80938E-13-1.76335E-13
 -1      3334 2.05257E+01 1.24641E+00-3.79871E-04-1.00534E-03 3.15321E-13-5.88966E-14
 -1      3335 2.03575E+01 1.60219E+00 2.02622E-03 9.36639E-02 3.22003E-13-9.58702E-14
 -1      3336 2.02799E+01 1.48980E+00 4.55708E-03-1.36839E-01 2.84510E-13-1.05364E-13
 -1      3337 2.05082E+01 1.05494E+00-1.57412E-03-2.72113E-01 2.81701E-13-5.30377E-14
 -1      3338 2.30909E+01-4.58556E+00 1.31420E-01-3.55821E+00 3.59990E-13-1.66736E-13
 -1      3339 2.47757E+01-4.61669E+00-9.07751E-02-2.26172E+00 3.59920E-13-1.60871E-13
 -1      3340 2.50330E+01-4.05730E+00-1.47381E-02-1.41981E+00 3.40870E-13-1.73136E-13
 -1      3341 2.14867E+01-4.09345E+00 3.82816E-02-3.85333E+00 3.88002E-13-1.60458E-13
 -1      3342 2.49604E+01 3.93801E+00-1.16154E-01 8.42104E-01 3.95871E-13 2.34212E-13
 -1      3343 8.76217E+00-6.69417E-02 8.06579E-02-6.12239E-01 6.95624E-16-7.06338E-13
 -1      3344 8.68821E+00-5.04371E-01 2.16006E-01-2.60285E+00-1.25011E-13-7.46958E-13
 -1      3345 2.66745E+01 4.44482E+00-7.32652E-02-1.46110E+00-5.14394E-13 1.39840E-13
 -1      3346 1.19207E+01-8.40773E-01 7.24645E-02 3.79742E+00 2.86431E-13-4.69999E-13
 -1      3347 1.00082E+01 1.15426E-02 1.27074E-01 1.89244E+00 1.69115E-13-6.37670E-13
 -1      3348 2.01454E+01 2.21063E+00 6.49918E-05-4.19205E-01-1.91098E-13-3.62743E-13
 -1      3349 2.13875E+01-4.59385E+00 7.01734E-02-4.55657E+00-3.39687E-13-2.13891E-15
 -1      3350 2.35579E+01-4.75575E+00-2.38383E-02-3.37614E+00-3.05464E-13 1.91399E-13
 -1      3351 1.24440E+01-1.44339E+00 1.11614E-01-4.49121E+00 4.96547E-14 1.48284E-13
 -1      3352 1.48964E+01-2.72170E+00 2.68474E-02-5.37377E+00 1.59400E-13 3.28210E-13
 -1      3353 1.69271E+01-2.61283E+00 8.62238E-02-4.76714E+00 1.90646E-13 8.81101E-14
 -1      3354 1.92202E+01 2.83543E+00-3.36583E-03 8.35508E-03 1.81501E-13-3.39473E-13
 -1      3355 1.91434E+01 2.89724E+00-5.11684E-03-1.81299E-02 1.41254E-13-3.50785E-13
 -1      3356 2.70899E+01 6.14362E-01-4.09646E-02 2.33590E+00-1.53030E-13-3.59240E-13
 -1      3357 2.67183E+01 2.86676E+00-1.83610E-01-2.14286E+00-5.40179E-13 1.83478E-13
 -1      3358 2.69402E+01-1.13144E+00-7.43505E-02 1.99578E+00 5.36099E-14-3.31152E-13
 -1      3359 2.71091E+01 1.49298E+00-5.28723E-02-2.38300E+00-4.40106E-13 1.69670E-13
 -1      3360 2.68106E+01-3.40473E-01-1.73571E-01-2.11614E+00-2.92329E-13 1.45254E-13
 -1      3361 2.75834E+01-1.72806E+00-5.36796E-03-1.25403E+00-2.02449E-13 2.12538E-13
 -1      3362 1.91024E+01 2.93667E+00-3.95470E-03-3.21888E-03 1.17283E-13-3.54069E-13
 -1      3363 1.90970E+01 2.94029E+00-4.45363E-03-2.47091E-02 6.75206E-14-3.64880E-13
 -1      3364 1.91471E+01 2.70083E+00 7.37553E-03-4.26493E-02 1.08332E-13-3.21465E-13
 -1      3365 1.99520E+01 1.93236E+00 6.26477E-03-8.60972E-02 2.71800E-13-1.75850E-13
 -1      3366 1.98140E+01 2.27041E+00-4.07141E-03 9.20726E-02 2.94390E-13-2.20475E-13
 -1      3367 1.96304E+01 2.45007E+00-5.39266E-03 4.83524E-02 2.56575E-13-2.42149E-13
 -1      3368 1.86772E+01-2.66274E+00 3.37011E-02 4.14662E+00-3.79839E-13-3.56069E-14
 -1      3369 1.70121E+01-2.67533E+00 6.38392E-02 4.91862E+00-4.07528E-13 1.31339E-13
 -1      3370 1.58332E+01-1.75692E+00 3.56985E-02 4.40521E+00-2.61954E-13 1.64944E-13
 -1      3371 1.95924E+01 2.49313E+00-4.99131E-03-5.23931E-02-6.32925E-14-3.66553E-13
 -1      3372 1.97751E+01 2.31226E+00-4.85792E-03-9.44137E-02-1.01326E-13-3.83065E-13
 -1      3373 2.51104E+01-4.13615E+00-6.88639E-02 1.55023E+00-1.70385E-14 2.83402E-13
 -1      3374 2.03018E+01 1.47679E+00-9.21127E-04 1.10597E-01-1.76201E-13-2.84147E-13
 -1      3375 2.02981E+01 1.29380E+00-1.46882E-03 3.45514E-01-1.58422E-13-2.73578E-13
 -1      3376 2.01105E+01 1.41305E+00 7.07171E-04 4.40643E-01-1.28420E-13-2.59078E-13
 -1      3377 2.00029E+01 1.64681E-03-3.44383E-05-4.27034E-03 3.24056E-13-1.17527E-13
 -1      3378 2.00020E+01 1.43193E-03 8.77503E-06-4.89878E-03 2.22215E-13 7.15298E-15
 -1      3379 2.00021E+01 2.49862E-03 3.21555E-05-4.60875E-03 2.01532E-13 8.54443E-14
 -1      3380 2.01726E+01 1.92610E+00-1.00962E-03-1.61627E-01-1.80753E-13-3.33136E-13
 -1      3381 1.44220E+01-2.71510E+00 1.22783E-01-5.47587E+00-3.38174E-13-4.74162E-13
 -1      3382 2.46926E+01-4.37589E+00 1.87501E-02-2.23333E+00-2.46164E-13 2.79915E-13
 -1      3383 2.52340E+01-3.79971E+00-1.30966E-02-1.00035E+00-2.22969E-13 3.41352E-13
 -1      3384 2.35470E+01-4.11259E+00 2.30360E-02-2.64851E+00-2.34751E-13 2.20232E-13
 -1      3385 2.07429E+01-4.52047E-01-1.42571E-02-1.76856E+00-1.36212E-14-2.34441E-14
 -1      3386 2.10033E+01-3.00827E-01 1.27805E-03-1.56962E+00-1.53892E-14-4.31991E-14
 -1      3387 2.08305E+01-8.97036E-02 8.02606E-03-1.55741E+00-7.87266E-16-5.60523E-14
 -1      3388 2.56005E+01 7.03446E-01-4.71211E-02 2.16437E+00 9.46188E-14 4.03058E-13
 -1      3389 2.56693E+01-5.52897E-01-1.05950E-01 2.03397E+00 2.69212E-14 3.84001E-13
 -1      3390 1.05682E+01-8.24635E-01 1.18963E-01-3.39246E+00-2.16594E-13-6.01297E-13
 -1      3391 1.19375E+01 2.38680E-02 2.46792E-02-2.56224E+00 6.21621E-14 1.63231E-13
 -1      3392 1.20833E+01-6.86327E-01 1.02673E-01-3.63206E+00 5.68191E-14 9.62008E-14
 -1      3393 1.40056E+01-8.40454E-01 6.44903E-02-3.76167E+00 1.06862E-13 8.06924E-14
 -1      3394 1.04927E+01 4.02378E-01 1.40393E-01-2.70501E-01-1.50900E-14 3.87315E-13
 -1      3395 2.00025E+01 3.83489E-03 1.06184E-05-3.97012E-03 2.82747E-13 1.07681E-13
 -1      3396 2.00026E+01 4.89519E-03 2.92675E-05-3.34328E-03 1.63498E-13 2.04304E-13
 -1      3397 2.00036E+01 4.66933E-03-4.76850E-05-3.31716E-03 2.53477E-13-1.26848E-13
 -1      3398 2.00038E+01 3.67798E-03-2.61247E-05-1.91672E-03 1.48241E-13-1.31790E-14
 -1      3399 2.00037E+01 3.42443E-03 1.03805E-06-2.52999E-03 2.29799E-13 5.09506E-14
 -1      3400 2.00035E+01 2.71067E-03-2.63978E-05-3.06286E-03 3.83818E-13-4.43460E-14
 -1      3401 2.00033E+01 2.41704E-03 5.84059E-06-3.65727E-03 3.90452E-13-1.61105E-13
 -1      3402 2.00037E+01 4.02799E-03 2.61246E-05-3.36853E-03 3.86912E-13-5.20050E-14
 -1      3403 2.00042E+01 5.47368E-03 3.29421E-05-2.33911E-03 2.50043E-13-1.77125E-13
 -1      3404 2.00039E+01 4.29872E-03-2.35623E-05-7.89439E-04 1.97404E-13-2.41471E-13
 -1      3405 2.00039E+01 4.16423E-03-5.55741E-06-1.38168E-03 1.45030E-13-5.65313E-14
 -1      3406 2.00044E+01 6.68771E-03 4.58431E-05-1.34353E-03 2.31744E-13-1.01159E-13
 -1      3407 2.00045E+01 7.34549E-03 5.41105E-05-4.44484E-04 8.38547E-14-3.45221E-13
 -1      3408 2.44723E+01-4.73692E+00 4.55590E-02 2.86983E+00 1.21105E-13 3.07483E-13
 -1      3409 1.89372E+01-3.62731E+00 7.59665E-02-4.99784E+00-3.66790E-13-1.53190E-13
 -1      3410 2.02367E+01-4.29035E+00 4.08427E-02-4.93937E+00-3.52163E-13-2.34743E-14
 -1      3411 2.14643E+01-4.00658E+00 3.45260E-02-3.94104E+00-2.82694E-13 2.91347E-14
 -1      3412 1.17252E+01 3.40367E-01 6.26266E-02 1.46981E+00 1.49747E-13-5.07386E-13
 -1      3413 1.00648E+01 3.59302E-01 1.40412E-01 7.29517E-01 6.45803E-14-6.42361E-13
 -1      3414 1.06231E+01 3.71020E-01 4.73807E-02-6.95330E-01-1.64972E-14-5.76095E-13
 -1      3415 1.92169E+01-3.65930E+00 1.04223E-01 4.89924E+00 3.31429E-13 5.04007E-14
 -1      3416 1.82255E+01-2.80531E+00 3.00629E-02 4.60204E+00 3.07476E-13-3.30846E-14
 -1      3417 2.06091E+01-4.14014E+00-6.44807E-02 4.38523E+00 2.99205E-13 1.21490E-13
 -1      3418 1.16415E+01-3.87364E-01 1.35366E-01 3.31387E+00-1.67193E-14 2.16029E-13
 -1      3419 1.17679E+01 2.34240E-01 5.30706E-02 2.18119E+00-3.52010E-14 2.14335E-13
 -1      3420 1.34638E+01-7.31197E-01 4.14313E-02 3.63742E+00-1.13074E-13 2.12663E-13
 -1      3421 2.06087E+01 2.36185E-01 5.26623E-03-1.40041E+00 8.64488E-14-5.64753E-14
 -1      3422 2.03268E+01 3.83165E-01-5.46444E-03-1.39533E+00 8.74728E-14-1.15974E-13
 -1      3423 2.07196E+01 8.39937E-02 1.88550E-03-1.47243E+00 3.19805E-14-6.38214E-14
 -1      3424 1.59622E+01-1.43111E+00 4.85839E-02 4.10794E+00 3.11652E-13-1.30874E-13
 -1      3425 1.39621E+01-1.16062E+00 9.63517E-02 4.23126E+00 2.97921E-13-3.18287E-13
 -1      3426 1.34669E+01-3.02343E-01 3.07262E-02 3.18011E+00 2.32082E-13-3.72730E-13
 -1      3427 1.94670E+01 2.61193E+00-3.36971E-03 3.95353E-02 2.57068E-13-2.65388E-13
 -1      3428 1.93286E+01 2.73157E+00-5.62423E-03 3.47765E-03 2.08967E-13-3.08296E-13
 -1      3429 1.93043E+01 2.56104E+00 6.90837E-03-8.04620E-02 1.79372E-13-2.97152E-13
 -1      3430 1.95864E+01 2.30070E+00 6.59923E-03-9.43627E-02 2.39475E-13-2.35999E-13
 -1      3431 2.32872E+01-3.82218E+00-3.08050E-02 2.22924E+00-2.09448E-13-1.02860E-13
 -1      3432 2.25290E+01-4.13572E+00 3.12773E-02 3.28020E+00-2.87142E-13-2.58867E-13
 -1      3433 2.09794E+01-3.42813E+00 5.61496E-03 3.55226E+00-2.67539E-13-1.01568E-13
 -1      3434 1.92993E+01 2.76401E+00-4.89920E-03-1.96197E-02-1.50207E-15-3.70181E-13
 -1      3435 1.94312E+01 2.64780E+00-3.90709E-03-5.21572E-02-3.14076E-14-3.85289E-13
 -1      3436 1.95426E+01 2.34416E+00 5.55880E-03 8.45989E-02-5.95356E-14-3.45566E-13
 -1      3437 2.04885E+01 7.98189E-01-6.14391E-05-6.75108E-01 2.02706E-13-6.79680E-14
 -1      3438 2.04925E+01 9.36479E-01 3.70710E-03-4.62192E-01 2.45156E-13-6.34777E-14
 -1      3439 2.03728E+01 1.12291E+00-3.68529E-03-4.01529E-01 2.57591E-13-8.16632E-14
 -1      3440 2.03184E+01 8.96384E-01-2.19155E-03-7.70915E-01 1.83304E-13-8.79289E-14
 -1      3441 2.00028E+01 2.32389E-03-1.54127E-05 4.33027E-03 1.14115E-13 3.92312E-13
 -1      3442 2.00031E+01 2.17703E-03-2.26254E-05 4.05122E-03 2.21058E-13 1.81351E-13
 -1      3443 2.00038E+01 4.58081E-03 3.16879E-05 3.22455E-03 3.80570E-13-1.00824E-13
 -1      3444 2.00034E+01 4.13812E-03 5.75229E-05 3.69569E-03 1.34505E-13 4.28670E-13
 -1      3445 2.33711E+01-4.13180E+00 8.64884E-02 2.88549E+00 1.64827E-13 1.83926E-13
 -1      3446 1.96170E+01 7.87676E-01-1.12914E-03 1.41346E+00 1.56857E-15-1.78879E-13
 -1      3447 1.96117E+01 6.38482E-01 4.93094E-03 1.57480E+00 2.69706E-14-1.55924E-13
 -1      3448 1.95226E+01 4.61532E-01-6.70006E-04 1.76132E+00 3.63940E-14-1.23717E-13
 -1      3449 1.95783E+01 2.53306E-01 8.97278E-03 1.91536E+00 6.57982E-14-1.10599E-13
 -1      3450 1.91836E+01 6.92791E-01-1.10844E-03 1.63762E+00 4.58562E-14-1.54244E-13
 -1      3451 1.95352E+01-5.58521E-03 1.78603E-03 2.12518E+00 8.85129E-14-8.16603E-14
 -1      3452 1.97030E+01-3.17899E-01 1.44827E-02 2.26989E+00 1.03848E-13-9.24704E-14
 -1      3453 1.90355E+01 2.61499E-01-6.03222E-03 2.04619E+00 8.79967E-14-7.36900E-14
 -1      3454 1.97760E+01-7.07824E-01 9.25080E-03 2.50911E+00 1.26720E-13-1.00083E-13
 -1      3455 2.01263E+01-1.16605E+00 2.07644E-02 2.61638E+00 1.47517E-13-9.11098E-14
 -1      3456 1.90256E+01-3.90151E-01-1.49137E-02 2.53086E+00 1.13295E-13-1.19283E-13
 -1      3457 2.04519E+01-1.72243E+00 2.86443E-02 2.85823E+00 1.55157E-13-9.60794E-14
 -1      3458 2.11189E+01-2.31321E+00 3.83733E-02 2.83216E+00 1.65363E-13-7.13474E-14
 -1      3459 1.93431E+01-1.35861E+00-1.46668E-02 3.09364E+00 1.59230E-13-1.32897E-13
 -1      3460 2.12155E+01-2.94400E+00 5.35726E-02 3.29523E+00 2.38434E-13-1.62301E-14
 -1      3461 2.21930E+01-3.57511E+00 4.46995E-02 3.09472E+00 1.75540E-13 7.02927E-14
 -1      3462 2.00047E+01 9.37647E-03-1.00619E-05 9.62603E-04 1.20320E-13-1.13140E-13
 -1      3463 2.00047E+01 9.82265E-03-4.75397E-05 5.72489E-04 1.27855E-13-7.77971E-14
 -1      3464 2.26660E+01-3.44494E+00 3.52592E-03-2.40981E+00 3.15140E-13-8.45572E-14
 -1      3465 2.18020E+01-2.79455E+00 5.20533E-02-2.63261E+00 2.17522E-13-6.16946E-14
 -1      3466 2.10567E+01-2.17325E+00 1.54688E-02-2.56721E+00 1.55442E-13-4.31535E-14
 -1      3467 2.04740E+01-1.56950E+00 2.73685E-02-2.56126E+00 1.62780E-13-3.48868E-14
 -1      3468 2.04084E+01-2.57876E+00-3.48024E-02-3.19486E+00 1.94327E-13-7.36061E-14
 -1      3469 2.01285E+01-1.06974E+00 1.44043E-02-2.36389E+00 2.06724E-13-5.13717E-14
 -1      3470 1.97913E+01-6.35825E-01 1.00304E-02-2.26459E+00 1.47870E-13 7.36335E-14
 -1      3471 1.94574E+01-1.27225E+00-1.97158E-02-2.78041E+00 2.01188E-13-2.61041E-14
 -1      3472 1.96825E+01-2.93971E-01 1.15727E-02-2.06160E+00 8.79190E-15 6.96287E-14
 -1      3473 1.95074E+01-2.00418E-02 1.49993E-03-1.93763E+00-6.63853E-14-1.07508E-14
 -1      3474 1.90862E+01-3.80227E-01-1.26591E-02-2.30865E+00 8.92117E-14-9.06558E-14
 -1      3475 1.95149E+01 1.91087E-01 8.17077E-03-1.75854E+00-9.82395E-14-2.93686E-14
 -1      3476 1.94390E+01 3.46104E-01-1.56199E-03-1.63454E+00-9.41046E-14-9.57657E-15
 -1      3477 1.90132E+01 1.86390E-01-5.10676E-03-1.89436E+00-9.12429E-14-1.61894E-13
 -1      3478 1.94975E+01 4.59547E-01 5.38416E-03-1.48437E+00-4.80457E-14-4.53903E-14
 -1      3479 1.94759E+01 5.33223E-01-2.58738E-03-1.36840E+00-7.37580E-14 3.63423E-14
 -1      3480 1.90872E+01 5.01235E-01-9.76586E-04-1.55507E+00-9.65034E-14-1.08293E-14
 -1      3481 1.95517E+01 5.80856E-01 3.55895E-03-1.24251E+00-2.01824E-13 1.10532E-14
 -1      3482 1.95559E+01 6.02236E-01-2.83031E-03-1.13680E+00-3.04977E-13 2.79079E-15
 -1      3483 1.92199E+01 6.48106E-01 9.90715E-04-1.27867E+00-1.02470E-13 5.97031E-14
 -1      3484 1.96320E+01 6.08554E-01 2.45952E-03-1.03017E+00-3.48087E-13-8.29401E-16
 -1      3485 1.96461E+01 5.98432E-01-2.74989E-03-9.35264E-01-2.54198E-13-2.29704E-14
 -1      3486 1.93662E+01 6.87816E-01 1.75442E-03-1.04973E+00-3.18614E-13 6.72748E-14
 -1      3487 1.97148E+01 5.80728E-01 1.83131E-03-8.44378E-01-2.20877E-13-2.12972E-13
 -1      3488 1.97305E+01 5.53306E-01-2.53018E-03-7.60486E-01-1.24972E-13-2.98770E-13
 -1      3489 1.95041E+01 6.63011E-01 1.91311E-03-8.56862E-01-3.77153E-13 2.74152E-14
 -1      3490 1.97888E+01 5.23269E-01 1.46477E-03-6.83119E-01 1.22116E-13-3.47147E-13
 -1      3491 1.98026E+01 4.87918E-01-2.24582E-03-6.10215E-01 1.83227E-13-2.59093E-13
 -1      3492 1.96238E+01 6.02659E-01 1.78599E-03-6.93095E-01-7.88325E-14-1.27584E-13
 -1      3493 1.98502E+01 4.53060E-01 1.23607E-03-5.44832E-01 8.23346E-14-3.69114E-13
 -1      3494 1.98608E+01 4.15657E-01-1.93918E-03-4.82607E-01-2.15684E-14-3.80166E-13
 -1      3495 1.97226E+01 5.25914E-01 1.53026E-03-5.54158E-01 1.22752E-13-2.93890E-13
 -1      3496 1.98983E+01 3.80554E-01 1.07235E-03-4.27995E-01-8.89971E-14-2.97394E-13
 -1      3497 1.99057E+01 3.44612E-01-1.63285E-03-3.75857E-01-4.19550E-14-2.79536E-13
 -1      3498 1.98012E+01 4.44978E-01 1.25296E-03-4.37162E-01-1.00638E-14-3.18371E-13
 -1      3499 1.99345E+01 3.11900E-01 9.34234E-04-3.30874E-01 5.79592E-14-3.08369E-13
 -1      3500 1.99392E+01 2.79336E-01-1.34487E-03-2.87957E-01 1.21467E-13-3.20644E-13
 -1      3501 1.98619E+01 3.67181E-01 9.90329E-04-3.39820E-01-2.00487E-14-1.90766E-13
 -1      3502 1.99609E+01 2.50325E-01 8.06923E-04-2.51438E-01 1.23229E-13-3.12250E-13
 -1      3503 1.99634E+01 2.21978E-01-1.08976E-03-2.16713E-01 1.05751E-13-3.30269E-13
 -1      3504 1.99075E+01 2.96591E-01 7.56423E-04-2.59928E-01 9.85640E-14-2.96017E-13
 -1      3505 1.99793E+01 1.97126E-01 6.86640E-04-1.87516E-01 1.01743E-13-3.14526E-13
 -1      3506 1.99803E+01 1.73174E-01-8.69303E-04-1.59895E-01 1.49795E-13-3.16191E-13
 -1      3507 1.99409E+01 2.35033E-01 5.62542E-04-1.95304E-01 1.60402E-13-3.89325E-13
 -1      3508 1.99918E+01 1.52455E-01 5.73450E-04-1.36928E-01 1.67886E-13-4.10898E-13
 -1      3509 1.99918E+01 1.32707E-01-6.81433E-04-1.15330E-01 5.78115E-14-2.44075E-13
 -1      3510 1.99648E+01 1.82916E-01 4.08669E-04-1.43850E-01 1.11905E-13-3.53794E-13
 -1      3511 1.99997E+01 1.15828E-01 4.69766E-04-9.75612E-02 2.11771E-14-3.70262E-14
 -1      3512 1.99991E+01 9.98901E-02-5.24694E-04-8.09568E-02 1.15240E-13-9.56382E-14
 -1      3513 1.99814E+01 1.39857E-01 2.88818E-04-1.03549E-01 1.44538E-13-9.69787E-14
 -1      3514 2.00045E+01 8.64136E-02 3.77803E-04-6.74390E-02 6.28994E-14-1.89337E-13
 -1      3515 2.00035E+01 7.37953E-02-3.96855E-04-5.48944E-02-9.32628E-14-2.10718E-13
 -1      3516 1.99925E+01 1.05037E-01 1.98016E-04-7.25026E-02-1.68451E-14-1.41334E-13
 -1      3517 2.00069E+01 6.32310E-02 2.98404E-04-4.47911E-02-7.26246E-14 5.60690E-14
 -1      3518 2.00058E+01 5.34135E-02-2.94812E-04-3.54875E-02 8.35347E-14 5.45602E-14
 -1      3519 1.99995E+01 7.74141E-02 1.30970E-04-4.89895E-02 3.61029E-14-1.77287E-13
 -1      3520 2.00078E+01 4.52694E-02 2.31566E-04-2.80817E-02 4.50830E-14 1.70594E-13
 -1      3521 2.00066E+01 3.77509E-02-2.14781E-04-2.13236E-02 1.52478E-13 2.08820E-13
 -1      3522 2.00035E+01 5.58787E-02 8.26435E-05-3.15034E-02 1.18764E-13 2.33963E-13
 -1      3523 2.00077E+01 3.15643E-02 1.76799E-04-1.60147E-02 2.60869E-13 3.17299E-13
 -1      3524 2.00065E+01 2.58783E-02-1.54338E-04-1.12260E-02 2.85647E-13 3.70298E-13
 -1      3525 2.00056E+01 3.93526E-02 4.90205E-05-1.87624E-02 1.88686E-13 1.65704E-13
 -1      3526 2.00069E+01 2.12261E-02 1.32616E-04-7.52811E-03 1.37904E-13 2.48048E-13
 -1      3527 2.00059E+01 1.69647E-02-1.07191E-04-4.24997E-03 1.39604E-13 1.68828E-13
 -1      3528 2.00062E+01 2.68241E-02 2.36707E-05-9.69653E-03 9.63532E-14 1.69771E-13
 -1      3529 2.00058E+01 1.34430E-02 8.90410E-05-1.76259E-03 9.42934E-14 1.51867E-13
 -1      3530 2.00049E+01 1.02804E-02-5.50384E-05 3.30060E-04 1.23830E-13 1.06012E-13
 -1      3531 2.00059E+01 1.74200E-02 1.25700E-05-3.45084E-03 6.76044E-14 5.12676E-14
 -1      3532 2.49046E+01-3.22577E+00-3.20361E-02-4.89180E-01-1.46845E-13 3.59705E-13
 -1      3533 2.16931E+01-1.91095E+00 3.54492E-02 1.90602E+00-1.00833E-13 1.27608E-14
 -1      3534 2.22862E+01-2.36693E+00 1.57796E-02 1.68710E+00-2.08115E-13-1.16773E-14
 -1      3535 2.28044E+01-2.88002E+00 4.28055E-02 1.81150E+00-1.56777E-13-6.96669E-14
 -1      3536 2.35707E+01-3.21486E+00 1.16869E-02 1.38363E+00-1.02758E-13-3.83122E-14
 -1      3537 2.07462E+01-1.03146E+00 1.78330E-02 1.93982E+00 1.01934E-13 1.48670E-13
 -1      3538 2.11501E+01-1.45009E+00 1.03034E-02 1.90194E+00 2.79238E-14 1.21526E-13
 -1      3539 2.07327E+01-1.80087E+00-3.24315E-02 2.36871E+00-9.49739E-14-3.25451E-14
 -1      3540 2.02162E+01-3.70395E-01 8.16983E-03 1.79527E+00-6.15957E-15 2.32155E-13
 -1      3541 2.04694E+01-6.73629E-01 9.19008E-03 1.83579E+00 3.89393E-14 1.87056E-13
 -1      3542 1.99888E+01-8.49355E-01-2.02302E-02 2.14858E+00 1.41383E-14 1.15429E-13
 -1      3543 1.99520E+01 6.42551E-02 2.75821E-03 1.59132E+00-7.98431E-15 4.03135E-13
 -1      3544 2.00982E+01-1.27667E-01 7.39229E-03 1.66694E+00 1.14081E-14 3.73925E-13
 -1      3545 1.96517E+01-1.95063E-01-1.00689E-02 1.86647E+00-9.91678E-14 2.47763E-13
 -1      3546 1.98421E+01 3.19720E-01-4.34589E-05 1.37524E+00 7.85902E-15 3.44207E-13
 -1      3547 1.99215E+01 2.12140E-01 5.40854E-03 1.46468E+00 6.57707E-14 4.73660E-13
 -1      3548 1.95288E+01 2.12779E-01-5.00792E-03 1.58824E+00-2.11945E-15 3.66933E-13
 -1      3549 1.98162E+01 4.46054E-01-1.40354E-03 1.16621E+00-2.08766E-14 4.54172E-13
 -1      3550 1.98569E+01 3.97426E-01 3.91284E-03 1.25841E+00-2.23760E-14 3.90061E-13
 -1      3551 1.95239E+01 4.39963E-01-1.94063E-03 1.33505E+00-2.94736E-14 5.20178E-13
 -1      3552 1.98311E+01 4.86581E-01-1.96516E-03 9.72830E-01-4.25548E-14 4.35933E-13
 -1      3553 1.98510E+01 4.76085E-01 2.91215E-03 1.06163E+00-1.92750E-14 4.10699E-13
 -1      3554 1.95758E+01 5.41892E-01-1.70609E-04 1.11097E+00 6.78548E-16 4.84849E-13
 -1      3555 1.98621E+01 4.74436E-01-2.11116E-03 7.98784E-01 1.02476E-13 3.56542E-13
 -1      3556 1.98717E+01 4.86736E-01 2.27230E-03 8.80716E-01 1.02653E-13 3.59262E-13
 -1      3557 1.96488E+01 5.62637E-01 6.60611E-04 9.14926E-01 9.38581E-14 1.56134E-13
 -1      3558 1.98962E+01 4.32957E-01-2.03071E-03 6.45582E-01 6.31280E-14 1.38407E-13
 -1      3559 1.99013E+01 4.57437E-01 1.86004E-03 7.18753E-01 8.96255E-14 3.18431E-13
 -1      3560 1.97241E+01 5.34791E-01 9.67008E-04 7.44599E-01 1.41197E-13 1.67998E-13
 -1      3561 1.99271E+01 3.77774E-01-1.83511E-03 5.13442E-01-2.13939E-14 6.10269E-14
 -1      3562 1.99306E+01 4.07440E-01 1.57246E-03 5.77054E-01-1.69691E-14 4.39079E-14
 -1      3563 1.97921E+01 4.80804E-01 9.96606E-04 5.98068E-01 2.02673E-14 1.12308E-13
 -1      3564 1.99525E+01 3.18748E-01-1.59173E-03 4.01659E-01 4.71051E-14 7.74352E-14
 -1      3565 1.99556E+01 3.49261E-01 1.35215E-03 4.55659E-01 8.03831E-15 1.02708E-13
 -1      3566 1.98494E+01 4.15531E-01 8.87623E-04 4.73530E-01 7.29939E-15-4.05256E-14
 -1      3567 1.99719E+01 2.61790E-01-1.33636E-03 3.08887E-01 1.04680E-13 1.81590E-13
 -1      3568 1.99751E+01 2.90590E-01 1.16511E-03 3.53741E-01 6.90781E-14 1.32918E-13
 -1      3569 1.98951E+01 3.48321E-01 7.33573E-04 3.69200E-01 3.61802E-14-1.92142E-14
 -1      3570 1.99861E+01 2.10161E-01-1.09333E-03 2.33286E-01 3.29221E-14 3.11590E-13
 -1      3571 1.99893E+01 2.35894E-01 9.93696E-04 2.69814E-01 1.39969E-13 2.48151E-13
 -1      3572 1.99303E+01 2.84730E-01 5.73786E-04 2.83194E-01-2.09906E-14 2.25657E-13
 -1      3573 1.99958E+01 1.65309E-01-8.75247E-04 1.72730E-01 5.00945E-14 3.39930E-13
 -1      3574 1.99990E+01 1.87438E-01 8.36075E-04 2.01936E-01 1.09408E-13 2.91191E-13
 -1      3575 1.99565E+01 2.27749E-01 4.27884E-04 2.13414E-01 2.75490E-14 3.78645E-13
 -1      3576 2.00020E+01 1.27554E-01-6.86580E-04 1.25049E-01-2.12917E-13 3.17546E-13
 -1      3577 2.00051E+01 1.46035E-01 6.92726E-04 1.47985E-01-1.26110E-13 2.26756E-13
 -1      3578 1.99752E+01 1.78611E-01 3.08031E-04 1.57690E-01-3.33263E-14 3.96907E-13
 -1      3579 2.00057E+01 9.65821E-02-5.27882E-04 8.81458E-02-2.80952E-13 3.46674E-13
 -1      3580 2.00085E+01 1.11642E-01 5.63892E-04 1.05843E-01-2.19089E-13 3.48763E-13
 -1      3581 1.99882E+01 1.37456E-01 2.13093E-04 1.13918E-01-2.45341E-13 3.56601E-13
 -1      3582 2.00075E+01 7.17330E-02-3.97770E-04 6.00785E-02-4.08716E-14 2.40388E-13
 -1      3583 2.00100E+01 8.37457E-02 4.50903E-04 7.34915E-02-2.05856E-13 3.35263E-13
 -1      3584 1.99968E+01 1.03821E-01 1.40642E-04 8.01049E-02-2.06176E-13 1.95028E-13
 -1      3585 2.00081E+01 5.21866E-02-2.93670E-04 3.91168E-02-1.35736E-13 2.49730E-13
 -1      3586 2.00103E+01 6.15864E-02 3.54230E-04 4.90939E-02 8.61805E-15 2.92331E-13
 -1      3587 2.00021E+01 7.69161E-02 8.73869E-05 5.44286E-02-3.91535E-14 1.70663E-13
 -1      3588 2.00078E+01 3.70817E-02-2.12302E-04 2.37707E-02-1.16819E-13 9.33123E-14
 -1      3589 2.00097E+01 4.43111E-02 2.73385E-04 3.10399E-02-1.67020E-13 1.74426E-13
 -1      3590 2.00050E+01 5.58019E-02 4.96032E-05 3.52808E-02-9.68683E-14 1.53970E-13
 -1      3591 2.00070E+01 2.55873E-02-1.50341E-04 1.27933E-02 1.01207E-14-1.99779E-14
 -1      3592 2.00086E+01 3.10664E-02 2.07224E-04 1.79614E-02 9.26677E-15-3.02521E-14
 -1      3593 2.00063E+01 3.95138E-02 2.40192E-05 2.12856E-02-5.07044E-15 2.41612E-14
 -1      3594 2.00059E+01 1.69492E-02-9.81999E-05 5.17146E-03-1.51179E-13 1.13073E-13
 -1      3595 2.00072E+01 2.10509E-02 1.54049E-04 8.72866E-03-4.30859E-14 1.50406E-14
 -1      3596 2.00065E+01 2.71305E-02 8.36215E-06 1.12969E-02-6.21155E-14 7.78489E-14
 -1      3597 2.00048E+01 1.04041E-02-5.92543E-05 7.78034E-05 1.81179E-14-2.35745E-14
 -1      3598 2.00057E+01 1.34812E-02 9.36810E-05 2.40138E-03-1.20063E-13 2.34561E-14
 -1      3599 2.00060E+01 1.78442E-02 6.28252E-06 4.37140E-03-4.25401E-14 1.36674E-13
 -1      3600 2.00040E+01 6.95828E-03 4.96573E-06-2.04203E-03 2.57095E-13 1.96646E-14
 -1      3601 1.99952E+01 2.02184E+00-2.67646E-04-3.12539E-02-1.48720E-13-3.42404E-13
 -1      3602 2.00735E+01 7.45582E-01 1.42802E-03-1.16824E+00 1.26426E-13-1.59232E-13
 -1      3603 2.00714E+01 8.83906E-01 1.34630E-03-1.00298E+00 1.47723E-13-1.38703E-13
 -1      3604 1.15524E+01-2.62596E-01 4.58175E-02-2.83014E+00-1.54834E-13-5.33643E-13
 -1      3605 1.25494E+01-1.07747E+00 9.94793E-02-4.22908E+00-2.42396E-13-4.94313E-13
 -1      3606 1.99190E+01 1.88870E+00 3.92708E-03 1.60814E-01-1.20270E-13-3.16420E-13
 -1      3607 2.00046E+01 1.03884E-02-2.02443E-05 3.73407E-04 1.70795E-13-1.00757E-13
 -1      3608 2.00046E+01 1.05486E-02-3.69745E-05 4.01837E-05 1.38314E-13-4.83726E-13
 -1      3609 2.00051E+01 1.36209E-02 9.80589E-05 1.06795E-04 6.00956E-14-1.74462E-13
 -1      3610 1.98683E+01 1.33358E+00-1.36214E-03 6.89135E-01-6.73442E-14-2.46148E-13
 -1      3611 1.98314E+01 1.19021E+00 2.24555E-05 8.84857E-01-5.00144E-14-2.32897E-13
 -1      3612 2.09970E+01-1.22615E+00 8.57728E-03-2.06045E+00-4.23138E-14 1.34000E-14
 -1      3613 2.06564E+01-8.22655E-01 1.51217E-02-2.06488E+00-2.91907E-14-1.20750E-14
 -1      3614 2.66954E+01-1.55637E+00-8.02954E-02-1.45219E+00-1.82156E-13-2.39125E-13
 -1      3615 1.91296E+01 2.91253E+00-4.57971E-03-6.86983E-03 4.44929E-14-3.75734E-13
 -1      3616 1.91968E+01 2.85677E+00-3.97387E-03-3.11191E-02 1.80681E-14-3.74829E-13
 -1      3617 1.92712E+01 2.59116E+00 6.02385E-03 5.59111E-02 6.47261E-15-3.45700E-13
 -1      3618 2.39634E+01-3.84817E+00 7.87434E-02-2.04814E+00 3.92813E-13-9.79113E-14
 -1      3619 1.97477E+01 1.05446E+00-9.99506E-04 1.06266E+00-4.20566E-14-2.21302E-13
 -1      3620 1.97143E+01 9.24759E-01 1.82410E-03 1.23727E+00-2.27744E-14-2.10872E-13
 -1      3621 1.93774E+01 1.00637E+00 1.24565E-03 1.27283E+00 4.66737E-15-2.04076E-13
 -1      3622 1.15159E+01 6.82628E-01 3.85421E-02 4.40399E-01 2.06094E-14 3.84061E-13
 -1      3623 1.16084E+01 6.53083E-01 8.42952E-02-1.12678E+00 4.83155E-14 3.07032E-13
 -1      3624 2.00046E+01 7.66697E-03 4.60451E-06 1.84994E-03 2.05368E-13 3.02038E-13
 -1      3625 2.00047E+01 8.32114E-03-4.72158E-05 1.31268E-03 4.77861E-14 2.13893E-13
 -1      3626 2.00051E+01 1.19451E-02 3.33406E-05 5.04439E-04 1.88283E-13 7.43083E-15
 -1      3627 1.40796E+01-1.92895E+00 8.54158E-02-4.93039E+00-2.92127E-13-4.63282E-13
 -1      3628 1.67378E+01-3.00364E+00 1.49718E-02-5.26094E+00-3.32012E-13-3.69732E-13
 -1      3629 1.85453E+01-2.98947E+00 7.10489E-02-4.62345E+00-3.24858E-13-1.81521E-13
 -1      3630 1.48867E+01-1.35324E+00 5.27102E-02-4.22367E+00-2.48624E-13-4.24244E-13
 -1      3631 1.61878E+01-1.80165E+00 6.22450E-02-4.36128E+00 1.84793E-13 2.51119E-14
 -1      3632 1.82664E+01-2.83599E+00-2.97849E-02-4.42134E+00 3.23058E-13-1.89064E-13
 -1      3633 2.00048E+01 9.97383E-03 3.59761E-06-5.42394E-04 1.26700E-13-1.53932E-13
 -1      3634 2.00335E+01 1.61328E+00-1.96787E-03-2.66124E-01 2.59291E-13-1.58053E-13
 -1      3635 1.98314E+01 1.82275E+00-3.09696E-03-2.65911E-01 2.37072E-13-1.96249E-13
 -1      3636 2.00012E+01-2.89844E+00 4.53477E-02 3.77664E+00-3.24431E-13 2.40606E-15
 -1      3637 1.87789E+01-2.27993E+00-7.11940E-03 3.77921E+00-2.60316E-13 7.92734E-14
 -1      3638 2.11405E+01-2.97942E+00 2.26156E-02 3.06755E+00-1.32178E-13 3.06252E-14
 -1      3639 1.29604E+01 4.59897E-01 5.74916E-02-1.70627E+00 1.23979E-13 1.39905E-13
 -1      3640 2.22559E+01-3.97219E+00-4.46519E-02-3.15683E+00 3.33907E-13-2.04517E-13
 -1      3641 1.98805E+01 1.11445E+00 5.90292E-05-8.92576E-01 1.69197E-13-1.80601E-13
 -1      3642 2.01100E+01 1.02861E+00 2.25156E-04-8.21232E-01 1.72709E-13-1.30259E-13
 -1      3643 2.01410E+01 1.14004E+00 1.82156E-04-6.51259E-01 2.04970E-13-1.21915E-13
 -1      3644 1.96184E+01-2.58485E+00-9.00763E-03 3.85163E+00 2.39015E-13-8.11556E-14
 -1      3645 1.95637E+01 1.28398E+00 2.06221E-03 9.20762E-01-3.37315E-14-2.25076E-13
 -1      3646 1.99088E+01 1.66850E+00-3.02784E-03 3.28938E-01-1.12093E-13-2.92160E-13
 -1      3647 1.98975E+01 1.49870E+00-1.80218E-04 5.25607E-01-8.85577E-14-2.75730E-13
 -1      3648 1.96755E+01 1.59177E+00 1.92512E-03 5.80277E-01-5.16204E-14-2.71997E-13
 -1      3649 1.97041E+01 1.96698E+00 1.11056E-03 2.52138E-01-7.55068E-14-3.01200E-13
 -1      3650 2.00046E+01 1.05569E-02-3.58847E-05-8.93098E-05 1.08778E-13-5.07364E-13
 -1      3651 2.00046E+01 1.04087E-02-2.01954E-05-4.15879E-04 5.21946E-14-2.06946E-13
 -1      3652 2.00050E+01 1.41645E-02 8.76379E-05-2.56787E-05 1.50391E-13-4.24479E-13
 -1      3653 2.00045E+01 8.09960E-03 6.40466E-05 1.63269E-03 2.02261E-13 9.10579E-14
 -1      3654 2.00039E+01 5.90491E-03-1.29460E-05 2.80595E-03 1.77594E-13 2.28420E-13
 -1      3655 2.00041E+01 6.22906E-03-2.59937E-05 2.57503E-03 2.29025E-13-1.52032E-13
 -1      3656 2.00051E+01 1.08802E-02-6.09465E-07 2.96133E-04 8.49767E-14-9.91208E-14
 -1      3657 2.28388E+01-4.04367E+00 4.23067E-02-3.12405E+00-2.30652E-13 1.97261E-13
 -1      3658 2.35313E+01-3.83480E+00-4.04590E-02-2.15056E+00-1.76449E-13 2.60932E-13
 -1      3659 2.17441E+01-3.71500E+00 3.37305E-02-3.48662E+00-2.37019E-13 8.67830E-14
 -1      3660 2.04514E+01-4.80809E-01 8.33537E-03-1.94481E+00-3.87520E-14-4.48305E-14
 -1      3661 2.02509E+01-1.86055E-01 7.39750E-03-1.87895E+00-4.47484E-14-6.48041E-14
 -1      3662 2.00200E+01-6.25081E-01-1.65994E-02-2.20917E+00-7.04126E-14-9.75517E-14
 -1      3663 2.47457E+01-3.31019E+00 6.08794E-02 7.28929E-01-1.16266E-13-1.78186E-13
 -1      3664 2.54278E+01-3.09078E+00-8.18939E-03 5.57439E-02-1.38135E-13-1.69273E-13
 -1      3665 2.14237E+01-1.66676E+00 2.62703E-02-2.10789E+00-9.24521E-14 8.04944E-14
 -1      3666 2.05692E+01-1.51093E+00-2.99037E-02-2.45510E+00-1.06720E-13 1.40278E-14
 -1      3667 2.19340E+01-2.15170E+00 3.91060E-03-1.97663E+00-1.17324E-13 1.17178E-13
 -1      3668 2.00046E+01 8.35652E-03-3.70463E-05-1.32867E-03 2.63461E-13-1.59571E-13
 -1      3669 2.00045E+01 7.67415E-03-7.09487E-07-1.77604E-03 2.36018E-13-8.62832E-14
 -1      3670 1.17856E+01 4.07320E-01 1.22281E-01-1.72472E+00-8.52972E-14-5.00572E-13
 -1      3671 1.31875E+01 1.06404E-01 1.97901E-02-2.49008E+00-1.32977E-13-4.50709E-13
 -1      3672 1.23215E+01 6.56782E-01 1.50064E-02-6.23002E-01 2.59471E-14-4.65541E-13
 -1      3673 2.00041E+01 6.11888E-03 6.42024E-06-2.65856E-03 2.26147E-13 4.52572E-14
 -1      3674 2.00044E+01 7.83224E-03 2.59211E-05-1.97712E-03 2.50747E-13-6.74656E-14
 -1      3675 2.00052E+01 1.13506E-02-2.08491E-05 9.64726E-05 8.03519E-14-6.25227E-15
 -1      3676 2.00044E+01 6.81732E-03-4.88913E-05-2.16521E-03 2.20591E-13-8.40350E-14
 -1      3677 2.00403E+01 6.02649E-01 1.86101E-03-1.33410E+00 7.36466E-14-1.53580E-13
 -1      3678 1.97970E+01 8.07521E-01-1.70549E-03-1.24396E+00 1.00231E-13-1.58871E-13
 -1      3679 2.00797E+01 4.46421E-01 3.69033E-03-1.47073E+00 4.47132E-14-1.18238E-13
 -1      3680 2.00043E+01 6.45525E-03-2.24820E-05 2.33701E-03 2.98072E-13-1.17654E-13
 -1      3681 1.95150E+01-2.64449E+00 4.15174E-02-3.77960E+00 2.84226E-13-1.64032E-13
 -1      3682 2.03844E+01-3.30675E+00 9.21619E-02-3.96420E+00 3.34743E-13-2.13014E-13
 -1      3683 1.54227E+01-1.10885E+00 5.16261E-02-3.93189E+00 1.44640E-13 5.73812E-14
 -1      3684 1.69058E+01-1.23678E+00 4.36683E-02-3.64104E+00 2.30632E-13-9.42909E-14
 -1      3685 1.47496E+01-4.05270E-01-4.67965E-03-3.22799E+00 1.32629E-13-8.79505E-15
 -1      3686 1.28846E+01 2.77061E-01 9.49003E-02 2.38758E+00 2.05586E-13-4.71401E-13
 -1      3687 1.25636E+01 5.10722E-01 1.61874E-02 1.34943E+00 1.48073E-13-4.43826E-13
 -1      3688 1.43790E+01-7.73106E-02 4.08044E-02 2.83953E+00 2.56056E-13-3.33931E-13
 -1      3689 1.50997E+01-9.52148E-01 7.81153E-02 3.89185E+00-1.61114E-13 1.71634E-13
 -1      3690 1.44616E+01-2.71483E-01 2.18253E-03 3.07718E+00-1.27846E-13 8.05050E-14
 -1      3691 1.66730E+01-1.23734E+00 1.33897E-02 3.66576E+00-2.45562E-13 2.79325E-14
 -1      3692 1.93568E+01 2.26793E+00-1.77847E-03 1.91924E-01-1.37607E-14-3.18054E-13
 -1      3693 1.95139E+01 2.11835E+00-3.63345E-03 2.09634E-01-5.69751E-14-3.04060E-13
 -1      3694 1.95176E+01 1.92478E+00 3.01487E-03 3.64079E-01-3.88740E-14-2.82932E-13
 -1      3695 2.04579E+01 3.16045E-02-8.87709E-03-1.62357E+00 1.78414E-14-8.26299E-14
 -1      3696 2.69311E+01-1.89449E+00 1.59883E-02 1.03149E+00-5.38319E-14 4.81865E-13
 -1      3697 1.33597E+01 4.81886E-01 1.13367E-02 1.84122E+00-1.15695E-13 2.08642E-13
 -1      3698 1.23322E+01 7.03551E-01 8.33527E-02 1.16060E+00-6.76351E-14 3.30874E-13
 -1      3699 1.31760E+01 8.77895E-01 4.47070E-03 3.80996E-01-1.37546E-14 2.61180E-13
 -1      3700 1.91351E+01 2.71180E+00 7.21277E-03 8.15579E-03 4.55245E-14-3.32757E-13
 -1      3701 2.00049E+01 9.67607E-03 7.73938E-06 1.20068E-03 1.39092E-13 1.64185E-13
 -1      3702 2.00046E+01 9.80969E-03-4.74706E-05-6.04133E-04 1.39659E-13-9.56009E-14
 -1      3703 2.00047E+01 9.36438E-03-8.93254E-06-9.97436E-04 2.97327E-13-2.13672E-13
 -1      3704 2.00051E+01 1.20185E-02 8.28242E-05-5.19297E-04 3.05361E-13-1.61325E-13
 -1      3705 2.00050E+01 1.35763E-02 8.13881E-05-1.30998E-04 5.68372E-14-1.62139E-13
 -1      3706 1.84626E+01-2.25789E+00 2.48741E-02 4.04490E+00 2.78980E-13-5.88279E-14
 -1      3707 1.73083E+01-1.79274E+00 8.29826E-02 4.24815E+00 3.05601E-13-7.96377E-14
 -1      3708 1.63508E+01-1.03960E+00 2.11542E-02 3.69276E+00 2.36774E-13-1.51112E-13
 -1      3709 1.85621E+01-1.68231E+00-6.06276E-03 3.59273E+00 1.96081E-13-1.26985E-13
 -1      3710 1.93112E+01 2.29602E+00-2.52913E-03-1.82430E-01 1.98312E-13-2.47106E-13
 -1      3711 1.91903E+01 2.39461E+00-5.00818E-03-1.61006E-01 1.53744E-13-2.96045E-13
 -1      3712 1.91249E+01 2.25613E+00 7.01655E-03-1.92388E-01 1.20996E-13-2.60785E-13
 -1      3713 1.91041E+01 2.47189E+00-3.04134E-03-9.39373E-02 1.16294E-13-3.06846E-13
 -1      3714 1.90568E+01 2.50846E+00-4.36741E-03-6.14070E-02 8.78998E-14-2.98110E-13
 -1      3715 1.91448E+01 1.21667E+00-4.69228E-03 1.06805E+00-1.67257E-15-2.10630E-13
 -1      3716 1.90504E+01 1.08650E+00 2.25724E-03 1.23911E+00 2.52221E-14-2.03534E-13
 -1      3717 1.96487E+01 1.18729E+00 5.82350E-04-9.27099E-01 1.53669E-13-1.76099E-13
 -1      3718 1.96913E+01 1.34387E+00-9.71797E-04-7.48594E-01 1.77791E-13-1.75517E-13
 -1      3719 1.99208E+01 1.40637E+00-3.45406E-04-5.77320E-01 2.10245E-13-1.38703E-13
 -1      3720 2.01446E+01 1.27297E+00 2.51442E-03-5.22061E-01 2.30884E-13-1.18457E-13
 -1      3721 1.85392E+01 5.96688E-01-7.86591E-03 1.81793E+00 9.99654E-14-1.43090E-13
 -1      3722 1.85084E+01 3.74923E-01 1.21475E-02 2.03755E+00 1.19870E-13-1.18589E-13
 -1      3723 1.82649E+01 9.39794E-02-6.85040E-03 2.32737E+00 1.27204E-13-1.31672E-13
 -1      3724 1.83281E+01-2.57360E-01 1.77589E-02 2.61083E+00 1.33976E-13-1.19311E-13
 -1      3725 1.77662E+01 4.55963E-01 1.14239E-03 2.08051E+00 1.24633E-13-1.88922E-13
 -1      3726 1.82466E+01-6.19874E-01-2.48834E-03 2.91009E+00 1.16436E-13-1.11967E-13
 -1      3727 1.84968E+01-1.15959E+00 2.12555E-02 3.25358E+00 1.38314E-13-1.52078E-13
 -1      3728 1.74376E+01-9.33844E-01-1.69045E-03 3.39047E+00 1.45974E-13-1.50793E-13
 -1      3729 1.74320E+01-1.49779E-01-1.29532E-02 2.69355E+00 1.20075E-13-1.65637E-13
 -1      3730 2.01806E+01 6.00859E-02 6.18588E-03-1.73331E+00-2.12365E-14-8.56539E-14
 -1      3731 2.00781E+01 2.68536E-01 3.48849E-03-1.62657E+00 1.14390E-14-1.04937E-13
 -1      3732 1.97464E+01 4.65755E-01-4.55414E-03-1.57658E+00 1.24024E-14-1.20195E-13
 -1      3733 1.90764E+01 1.06248E-01-3.13056E-03 1.82911E+00-1.84227E-13 3.26730E-13
 -1      3734 1.91994E+01-1.24282E-01 1.29820E-02 1.97563E+00-1.06498E-13 3.00112E-13
 -1      3735 2.00054E+01 1.21895E-02 1.29845E-05-1.38434E-04 1.39125E-13 1.78112E-13
 -1      3736 1.88455E+01-1.86618E+00 3.02021E-02-3.52644E+00 2.30550E-13-4.47888E-14
 -1      3737 2.41802E+01-3.19643E+00 3.34742E-02-1.03914E+00-1.32320E-13 2.75380E-13
 -1      3738 1.84080E+01-2.61035E-01 1.63572E-02-2.42010E+00 1.08092E-13-1.60199E-13
 -1      3739 1.83073E+01 5.88050E-02-4.15585E-03-2.17832E+00-1.20164E-14-1.30677E-13
 -1      3740 1.84876E+01 2.99537E-01 1.26292E-02-1.91138E+00-6.32753E-14-9.29946E-14
 -1      3741 1.84793E+01 4.73430E-01-7.01812E-03-1.72374E+00-1.12709E-13-1.06827E-13
 -1      3742 1.77632E+01 3.71694E-01-3.33861E-04-1.98656E+00-7.78522E-15-9.50439E-14
 -1      3743 1.86651E+01 6.05566E-01 7.02904E-03-1.53143E+00-1.02954E-13-4.36286E-14
 -1      3744 1.87113E+01 6.88616E-01-6.27938E-03-1.38325E+00 3.00636E-14 1.03389E-13
 -1      3745 1.81276E+01 6.94824E-01 4.00784E-03-1.53573E+00-2.64440E-14 6.99932E-14
 -1      3746 1.88821E+01 7.45627E-01 3.88572E-03-1.24053E+00-6.04000E-14 2.85681E-14
 -1      3747 1.89484E+01 7.70468E-01-5.20138E-03-1.12077E+00-2.53975E-13-6.41077E-14
 -1      3748 1.84730E+01 8.39760E-01 4.55160E-03-1.21184E+00-8.78944E-14 3.37335E-14
 -1      3749 1.90968E+01 7.79677E-01 2.12100E-03-1.01046E+00-3.64525E-13-1.19271E-13
 -1      3750 1.91655E+01 7.68620E-01-4.27796E-03-9.10945E-01-4.01132E-13-1.50434E-13
 -1      3751 1.87809E+01 8.74609E-01 4.35423E-03-9.71101E-01-3.31537E-13-2.55534E-13
 -1      3752 1.92908E+01 7.48884E-01 1.20889E-03-8.22394E-01-3.69729E-13-1.27794E-13
 -1      3753 1.93533E+01 7.17027E-01-3.56515E-03-7.38250E-01-3.17605E-13-1.34636E-13
 -1      3754 1.90447E+01 8.41598E-01 3.85211E-03-7.83457E-01-4.15185E-13-3.41652E-13
 -1      3755 1.94568E+01 6.81418E-01 7.56315E-04-6.65539E-01-2.17917E-13-1.21384E-14
 -1      3756 1.95098E+01 6.39232E-01-2.97462E-03-5.93986E-01 1.05889E-14-3.41059E-14
 -1      3757 1.92649E+01 7.69195E-01 3.30156E-03-6.31790E-01-1.70633E-13-2.75583E-15
 -1      3758 1.95934E+01 5.96658E-01 5.40095E-04-5.33622E-01 8.16208E-14-1.79952E-13
 -1      3759 1.96363E+01 5.51041E-01-2.47839E-03-4.72913E-01 7.62840E-14-1.67976E-13
 -1      3760 1.94445E+01 6.77211E-01 2.75214E-03-5.06706E-01-8.86840E-14-1.58461E-14
 -1      3761 1.97027E+01 5.07060E-01 4.54752E-04-4.22742E-01 4.22488E-14-2.22616E-13
 -1      3762 1.97361E+01 4.62316E-01-2.04536E-03-3.71748E-01-1.00462E-13-2.20902E-13
 -1      3763 1.95880E+01 5.79005E-01 2.25110E-03-4.02502E-01 1.64506E-14-1.50498E-13
 -1      3764 1.97880E+01 4.20448E-01 4.15871E-04-3.30350E-01-1.69601E-14-8.48253E-14
 -1      3765 1.98132E+01 3.79191E-01-1.66340E-03-2.88056E-01 1.09185E-13-9.50689E-14
 -1      3766 1.97007E+01 4.82985E-01 1.79463E-03-3.15890E-01 8.70086E-15-9.37486E-14
 -1      3767 1.98530E+01 3.41388E-01 3.87485E-04-2.54223E-01 4.68242E-14-6.30935E-14
 -1      3768 1.98716E+01 3.04917E-01-1.34281E-03-2.19622E-01 1.36032E-13-1.10044E-13
 -1      3769 1.97875E+01 3.94524E-01 1.41116E-03-2.44454E-01 3.57818E-14 7.50518E-14
 -1      3770 1.99017E+01 2.71987E-01 3.57510E-04-1.92296E-01 1.38543E-13-1.07938E-13
 -1      3771 1.99149E+01 2.40709E-01-1.07520E-03-1.64431E-01 1.19512E-13-1.21971E-13
 -1      3772 1.98532E+01 3.16221E-01 1.08345E-03-1.86106E-01 1.29641E-13 7.25773E-14
 -1      3773 1.99372E+01 2.12821E-01 3.20632E-04-1.42703E-01 1.58547E-13-1.75317E-13
 -1      3774 1.99464E+01 1.86673E-01-8.47121E-04-1.20630E-01 1.52834E-13-1.64388E-13
 -1      3775 1.99021E+01 2.48950E-01 8.23282E-04-1.39108E-01 1.49702E-13-1.74991E-14
 -1      3776 1.99625E+01 1.63625E-01 2.79141E-04-1.03633E-01 2.83956E-13-1.62318E-13
 -1      3777 1.99687E+01 1.42254E-01-6.55931E-04-8.64321E-02 1.80799E-13-7.28609E-14
 -1      3778 1.99377E+01 1.92575E-01 6.12137E-04-1.01873E-01 2.08899E-13-2.08138E-13
 -1      3779 1.99801E+01 1.23604E-01 2.37782E-04-7.33468E-02-3.42306E-14-6.01752E-14
 -1      3780 1.99839E+01 1.06479E-01-4.99323E-04-6.01645E-02-2.32965E-14-1.69081E-13
 -1      3781 1.99630E+01 1.46394E-01 4.46332E-04-7.28361E-02 1.12031E-13-1.43241E-13
 -1      3782 1.99917E+01 9.16713E-02 1.98187E-04-5.02576E-02 5.25751E-14-6.93608E-14
 -1      3783 1.99940E+01 7.81956E-02-3.73492E-04-4.03298E-02 1.33179E-13 4.06583E-14
 -1      3784 1.99804E+01 1.09306E-01 3.18802E-04-5.05544E-02 7.25598E-14-1.55820E-13
 -1      3785 1.99991E+01 6.66404E-02 1.61837E-04-3.29634E-02 1.29988E-13-3.42795E-14
 -1      3786 2.00002E+01 5.62090E-02-2.74447E-04-2.56273E-02 1.59820E-13 4.30101E-14
 -1      3787 1.99919E+01 8.00521E-02 2.22335E-04-3.37477E-02 1.15509E-13-3.00216E-14
 -1      3788 2.00033E+01 4.73318E-02 1.30445E-04-2.02612E-02 1.41174E-13-6.81662E-14
 -1      3789 2.00036E+01 3.93720E-02-1.99385E-04-1.49570E-02 1.19100E-13-5.36061E-14
 -1      3790 1.99991E+01 5.73490E-02 1.49623E-04-2.13057E-02 1.18134E-13-1.12554E-13
 -1      3791 2.00054E+01 3.26595E-02 1.09423E-04-1.11495E-02 8.08207E-14-1.36969E-13
 -1      3792 2.00051E+01 2.66288E-02-1.50998E-04-7.40644E-03 1.13093E-13-1.43249E-13
 -1      3793 2.00032E+01 3.99772E-02 9.84791E-05-1.22980E-02 5.89553E-14-1.17708E-13
 -1      3794 2.00059E+01 2.15863E-02 8.99206E-05-4.78820E-03 8.53825E-14-1.02545E-13
 -1      3795 2.00055E+01 1.70680E-02-7.52512E-05-2.21396E-03 9.17423E-14-1.73578E-13
 -1      3796 2.00050E+01 2.68713E-02 4.80999E-05-5.95082E-03 1.08435E-13-2.34689E-13
 -1      3797 2.16459E+01-2.89399E+00-2.88213E-02 2.61667E+00-1.29722E-13-1.46019E-13
 -1      3798 1.92078E+01-4.39797E-01 1.17990E-03 2.22605E+00-4.01985E-14 1.52862E-13
 -1      3799 1.94984E+01-8.13599E-01 1.90337E-02 2.36431E+00-6.00525E-14 1.23779E-13
 -1      3800 1.85705E+01-1.09545E-01 4.46604E-03 2.18075E+00-1.64586E-13 3.23687E-13
 -1      3801 2.33341E+01-3.02202E+00-5.36246E-03-1.46423E+00-9.55833E-14 2.30742E-13
 -1      3802 2.26902E+01-2.63189E+00 3.96464E-02-1.82297E+00-8.84049E-14 1.96521E-13
 -1      3803 1.91068E+01 4.28422E-01-3.81805E-03 1.49890E+00-4.20830E-14 3.65087E-13
 -1      3804 1.91450E+01 2.97920E-01 8.84136E-03 1.63354E+00-1.13125E-13 2.70105E-13
 -1      3805 1.86346E+01 3.43387E-01 5.05662E-04 1.73209E+00-1.48333E-13 3.70082E-13
 -1      3806 1.92114E+01 5.90453E-01-3.78038E-03 1.22808E+00-6.28064E-14 4.02304E-13
 -1      3807 1.92041E+01 5.29273E-01 5.43603E-03 1.34626E+00 7.05324E-15 5.03870E-13
 -1      3808 1.87978E+01 5.95259E-01 2.87773E-04 1.38513E+00-1.03330E-13 2.42857E-13
 -1      3809 1.93415E+01 6.45633E-01-3.57621E-03 1.00401E+00 7.35882E-14 2.87051E-13
 -1      3810 1.93136E+01 6.30708E-01 3.33527E-03 1.10621E+00 3.78851E-14 4.05263E-13
 -1      3811 1.89923E+01 7.10149E-01 1.66986E-03 1.11391E+00 1.65571E-14 3.57219E-13
 -1      3812 1.94715E+01 6.34702E-01-3.22521E-03 8.16228E-01 1.48643E-13 9.32931E-14
 -1      3813 1.94372E+01 6.48276E-01 2.14797E-03 9.04690E-01 9.65502E-14 2.39773E-13
 -1      3814 1.91830E+01 7.32640E-01 2.16954E-03 8.98619E-01 1.20613E-13 1.56585E-13
 -1      3815 1.95894E+01 5.85231E-01-2.83564E-03 6.57865E-01 3.20136E-14 3.31517E-13
 -1      3816 1.95559E+01 6.14855E-01 1.47680E-03 7.34129E-01 2.01638E-14 2.15589E-13
 -1      3817 1.93555E+01 6.98553E-01 2.22841E-03 7.23457E-01-4.47480E-15 2.95870E-13
 -1      3818 1.96900E+01 5.16433E-01-2.43362E-03 5.24491E-01 7.18137E-14 2.64521E-13
 -1      3819 1.96608E+01 5.53508E-01 1.09281E-03 5.89678E-01 1.80768E-13 3.73748E-13
 -1      3820 1.95040E+01 6.32561E-01 2.07223E-03 5.79005E-01 1.05709E-13 4.69706E-13
 -1      3821 1.97723E+01 4.40903E-01-2.05313E-03 4.12767E-01 4.66464E-14 7.82616E-14
 -1      3822 1.97485E+01 4.79940E-01 8.73988E-04 4.67868E-01 1.18832E-14 1.44714E-13
 -1      3823 1.96272E+01 5.51798E-01 1.81267E-03 4.59231E-01 1.19249E-13 3.47131E-13
 -1      3824 1.98376E+01 3.66374E-01-1.70876E-03 3.20170E-01-5.70010E-14 2.94320E-14
 -1      3825 1.98191E+01 4.03996E-01 7.37201E-04 3.66051E-01 4.66169E-14 1.67635E-14
 -1      3826 1.97263E+01 4.67403E-01 1.53290E-03 3.59923E-01 6.80420E-14 1.88841E-13
 -1      3827 1.98879E+01 2.97547E-01-1.40191E-03 2.44469E-01-8.67834E-14 2.36187E-13
 -1      3828 1.98741E+01 3.31752E-01 6.28747E-04 2.82074E-01-5.98194E-14 9.63719E-14
 -1      3829 1.98042E+01 3.86140E-01 1.22244E-03 2.78287E-01-1.32007E-13 1.63529E-13
 -1      3830 1.99257E+01 2.36810E-01-1.13091E-03 1.83419E-01-6.46661E-15 3.12837E-13
 -1      3831 1.99159E+01 2.66678E-01 5.38577E-04 2.13773E-01-8.91021E-14 2.24285E-13
 -1      3832 1.98641E+01 3.12244E-01 9.50159E-04 2.11918E-01-7.01882E-14 1.23893E-13
 -1      3833 1.99534E+01 1.84917E-01-8.96743E-04 1.34907E-01-1.56455E-13 3.18627E-13
 -1      3834 1.99466E+01 2.10229E-01 4.60921E-04 1.59011E-01 1.62694E-15 3.06330E-13
 -1      3835 1.99091E+01 2.47645E-01 7.30728E-04 1.58580E-01-1.94072E-14 2.41718E-13
 -1      3836 1.99731E+01 1.41755E-01-6.98271E-04 9.69745E-02-1.73834E-13 2.66063E-13
 -1      3837 1.99687E+01 1.62665E-01 3.88008E-04 1.15801E-01-1.86657E-13 2.61459E-13
 -1      3838 1.99421E+01 1.92789E-01 5.48950E-04 1.16341E-01-1.02561E-13 1.76709E-13
 -1      3839 1.99867E+01 1.06673E-01-5.33848E-04 6.77906E-02-1.26978E-13 6.42167E-14
 -1      3840 1.99840E+01 1.23569E-01 3.21369E-04 8.22521E-02-7.82088E-14 2.24295E-13
 -1      3841 1.99657E+01 1.47375E-01 4.02681E-04 8.34021E-02-1.31703E-13 8.62696E-14
 -1      3842 1.99956E+01 7.87336E-02-4.00553E-04 4.57128E-02-4.52944E-14 1.88087E-13
 -1      3843 1.99941E+01 9.21185E-02 2.61805E-04 5.66300E-02-1.27433E-13 1.33689E-13
 -1      3844 1.99820E+01 1.10599E-01 2.88422E-04 5.81158E-02-9.97125E-14 8.41602E-14
 -1      3845 2.00010E+01 5.68866E-02-2.94919E-04 2.93101E-02-3.68202E-14 5.37416E-14
 -1      3846 2.00005E+01 6.73032E-02 2.09725E-04 3.73990E-02-3.55314E-14 1.04361E-13
 -1      3847 1.99928E+01 8.13989E-02 2.01216E-04 3.90232E-02-5.90417E-14 1.84391E-13
 -1      3848 2.00040E+01 4.00799E-02-2.12848E-04 1.73714E-02-2.23265E-14 6.35720E-14
 -1      3849 2.00041E+01 4.80597E-02 1.65346E-04 2.32379E-02-2.58397E-14-4.90338E-14
 -1      3850 1.99995E+01 5.86178E-02 1.35688E-04 2.48647E-02 3.36708E-14-2.60417E-15
 -1      3851 2.00054E+01 2.73308E-02-1.46683E-04 8.89751E-03-1.50178E-13 2.15280E-13
 -1      3852 2.00057E+01 3.33615E-02 1.28194E-04 1.30400E-02-6.87203E-14 1.18476E-13
 -1      3853 2.00033E+01 4.11235E-02 8.90064E-05 1.45847E-02-1.21250E-13 6.06457E-14
 -1      3854 2.00056E+01 1.77291E-02-5.01943E-05 3.02024E-03 4.68846E-14 3.00911E-14
 -1      3855 2.00061E+01 2.22379E-02 9.01088E-05 5.89822E-03 2.41444E-14 1.10612E-13
 -1      3856 2.00051E+01 2.78597E-02 4.99736E-05 7.30850E-03-3.79451E-14 8.47726E-14
 -1      3857 2.02464E+01 1.34185E+00 1.23736E-04-3.37351E-01 2.57026E-13-1.16415E-13
 -1      3858 2.00053E+01 1.58764E-02 1.20815E-05-1.18517E-03 2.44379E-13 8.32574E-14
 -1      3859 2.32856E+01-3.50479E+00-2.09508E-02-2.02990E+00-1.44386E-13 2.23025E-13
 -1      3860 1.93844E+01 1.49015E+00-3.68549E-03 7.40111E-01-1.72597E-14-2.28560E-13
 -1      3861 1.93015E+01 1.35300E+00 3.22430E-04 9.11028E-01-9.28196E-15-2.08837E-13
 -1      3862 1.90009E+01 1.43559E+00 5.04218E-03 8.82357E-01-1.18549E-14-2.05683E-13
 -1      3863 2.00048E+01 1.70446E-02-4.18315E-05-4.98853E-04 1.95267E-13-6.85729E-15
 -1      3864 2.00047E+01 1.75627E-02-7.21280E-05-5.13047E-04 7.03620E-14-2.48851E-13
 -1      3865 1.88519E+01 9.42647E-01-6.13270E-03 1.41455E+00 6.88794E-14-1.92768E-13
 -1      3866 1.87706E+01 7.88096E-01 6.44437E-03 1.60015E+00 7.46180E-14-1.58258E-13
 -1      3867 1.86536E+01 1.17611E+00 5.78338E-03 1.20068E+00 5.12008E-14-1.84887E-13
 -1      3868 2.00051E+01 1.00050E-02 6.28282E-05-1.09451E-03 1.24527E-13-4.82116E-14
 -1      3869 2.61523E+01-2.19062E+00 1.28716E-02-1.07888E+00-1.90039E-13-2.28489E-13
 -1      3870 2.07756E+01-2.35365E+00 4.16319E-02 2.87613E+00-1.97281E-13 9.25475E-15
 -1      3871 1.96380E+01 2.00337E+00-2.28476E-03-2.39355E-01 2.33835E-13-2.29073E-13
 -1      3872 1.94625E+01 2.16068E+00-4.42119E-03-2.31155E-01 2.07184E-13-2.36007E-13
 -1      3873 1.93715E+01 2.04548E+00 5.05245E-03-3.25694E-01 1.85311E-13-2.18476E-13
 -1      3874 1.97307E+01 1.72907E+00 4.18470E-03-4.15256E-01 2.14669E-13-1.94891E-13
 -1      3875 1.94750E+01 1.77385E+00-2.99185E-03 4.71318E-01-2.54865E-14-2.63488E-13
 -1      3876 1.94471E+01 1.61301E+00 4.49739E-04 6.28108E-01-1.83276E-14-2.37929E-13
 -1      3877 1.92035E+01 1.68732E+00 4.07907E-03 6.20293E-01-8.02731E-15-2.30384E-13
 -1      3878 1.93004E+01 1.93677E+00 2.47076E-03 4.08345E-01-2.55530E-15-2.54797E-13
 -1      3879 1.90497E+01 2.51632E+00-3.76496E-03 1.39931E-02 7.06009E-14-3.03302E-13
 -1      3880 1.90818E+01 2.48878E+00-4.13655E-03 5.04556E-02 3.33159E-14-3.29206E-13
 -1      3881 1.90284E+01 2.34104E+00 9.04859E-03-2.99788E-02 7.07073E-14-2.72817E-13
 -1      3882 2.00052E+01 1.70189E-02-3.04144E-05-1.32925E-03 2.54367E-13-1.57095E-13
 -1      3883 1.36350E+01 7.60782E-01-6.36643E-04-1.18086E+00 1.29625E-13 1.29868E-13
 -1      3884 1.41644E+01 3.33461E-01 5.56095E-02-2.41931E+00 1.17588E-13-4.84109E-14
 -1      3885 1.97136E+01 1.46235E+00 1.57881E-03-6.44965E-01 1.85715E-13-1.70528E-13
 -1      3886 1.97132E+01 1.59268E+00-1.11641E-03-5.17173E-01 2.04072E-13-1.92504E-13
 -1      3887 1.95125E+01 1.76781E+00-1.83512E-03-4.80499E-01 1.86552E-13-1.94697E-13
 -1      3888 1.94841E+01 1.53629E+00 2.98329E-03-6.83854E-01 1.72957E-13-1.63999E-13
 -1      3889 2.16674E+01-2.63764E+00-4.27074E-02-2.50544E+00-1.61061E-13 9.86537E-14
 -1      3890 1.91442E+01 2.44247E+00-3.12386E-03 1.10913E-01 2.43862E-14-3.34708E-13
 -1      3891 1.92447E+01 2.35465E+00-3.60902E-03 1.38548E-01-2.26026E-15-3.32733E-13
 -1      3892 1.92247E+01 2.16557E+00 2.08721E-03 2.46671E-01 1.25286E-14-2.99189E-13
 -1      3893 1.90767E+01 2.29499E+00 6.01562E-03 1.24463E-01 2.39378E-14-3.13535E-13
 -1      3894 1.77985E+01-1.35014E+00 3.51768E-03-3.50994E+00 2.12026E-13-7.82291E-14
 -1      3895 1.89414E+01-1.24875E+00 2.81099E-02-2.99815E+00 1.49279E-13-1.16506E-14
 -1      3896 1.86016E+01-7.19345E-01 9.62413E-03-2.74093E+00 1.13205E-13-1.36352E-13
 -1      3897 1.70140E+01-6.82153E-01-2.24788E-03-3.14121E+00 1.57064E-13-1.11293E-13
 -1      3898 1.90096E+01-1.93994E+00-2.02508E-02 3.37183E+00-2.45907E-13 7.60633E-14
 -1      3899 1.79244E+01-1.54719E+00 6.34299E-02 3.69076E+00-2.41206E-13-6.60999E-14
 -1      3900 1.69457E+01-9.24462E-01-1.03700E-02 3.31259E+00-2.23174E-13-6.02062E-14
 -1      3901 1.53972E+01 8.22798E-02 3.56460E-02-2.56267E+00 1.46872E-13-8.90277E-14
 -1      3902 1.77131E+01-2.93822E-01-8.87312E-03-2.62364E+00 3.95617E-14-7.84351E-14
 -1      3903 1.95605E+01-5.80934E-01 1.96600E-02-2.38580E+00-9.32741E-14-7.67810E-14
 -1      3904 1.93464E+01-2.27045E-01-4.63123E-04-2.22730E+00-5.90644E-14-1.06752E-13
 -1      3905 1.83636E+01-8.24289E-01 4.90052E-03 2.84444E+00-1.33797E-13 1.06046E-13
 -1      3906 1.93246E+01-1.26058E+00 1.30881E-02 2.78824E+00-1.20216E-13 8.62656E-14
 -1      3907 1.44166E+01 3.51718E-01 5.65961E-02 2.32748E+00-1.86216E-13 1.26967E-13
 -1      3908 1.45295E+01 6.92352E-01-1.98998E-02 1.53524E+00-1.77303E-13 1.54834E-13
 -1      3909 1.56062E+01 5.57844E-02 3.21239E-03 2.55893E+00-2.26229E-13-3.86670E-14
 -1      3910 1.28173E+01 8.99337E-01 9.85071E-02 3.50806E-01 9.54894E-14-4.07736E-13
 -1      3911 1.33154E+01 7.71812E-01-1.47622E-02-5.84275E-01 4.28871E-14-4.11256E-13
 -1      3912 1.36312E+01 7.17817E-01 2.67083E-02 1.19078E+00 1.65734E-13-3.75769E-13
 -1      3913 1.97794E+01-1.83050E+00 1.33293E-02 2.93522E+00-2.42662E-13 6.89483E-14
 -1      3914 2.00053E+01 1.51909E-02-9.96971E-06 1.38356E-03 1.67974E-13-1.81062E-14
 -1      3915 1.97896E+01 1.45268E-02-9.11048E-03-1.90010E+00-2.44216E-14-1.20550E-13
 -1      3916 1.42623E+01 2.60304E-01-5.11212E-03-2.26294E+00-8.61637E-14-4.07101E-13
 -1      3917 1.45762E+01-1.51629E-01 1.03427E-01-3.13152E+00-1.72096E-13-4.54354E-13
 -1      3918 1.95209E+01 8.86544E-01 3.59265E-03-1.26846E+00 4.92152E-14-1.43422E-13
 -1      3919 1.95525E+01 1.03570E+00-2.29325E-03-1.09927E+00 1.00665E-13-1.73441E-13
 -1      3920 1.93718E+01 1.27115E+00 3.94055E-03-9.58306E-01 1.22752E-13-1.44096E-13
 -1      3921 2.00051E+01 2.18592E-02 8.16387E-05-2.29608E-03 1.72357E-13-1.38382E-13
 -1      3922 1.63417E+01-5.04877E-01 2.80089E-02 3.23939E+00 2.04981E-13-2.04429E-13
 -1      3923 1.82346E+01 8.78668E-01 5.49375E-03 1.58099E+00 9.93169E-14-2.00062E-13
 -1      3924 2.00046E+01 1.80113E-02-4.88009E-05-1.02309E-04 1.28029E-13-4.17357E-13
 -1      3925 2.00046E+01 1.80512E-02-3.87542E-05 9.52041E-06 2.06197E-13-3.31022E-13
 -1      3926 2.00046E+01 2.22767E-02 1.15230E-04-6.59603E-04 1.08704E-13-4.26850E-13
 -1      3927 2.01037E+01-1.53086E+00 3.08484E-02-2.78009E+00-1.75366E-13-2.16936E-14
 -1      3928 1.96531E+01-1.03034E+00 9.99765E-03-2.66883E+00-1.28398E-13-6.21482E-14
 -1      3929 1.88507E+01-6.27602E-01 5.28001E-03-2.72023E+00-1.33134E-13-8.61559E-14
 -1      3930 1.37893E+01 1.03157E+00 6.12950E-02-5.20122E-01 4.21837E-14 1.28720E-13
 -1      3931 1.46596E+01 8.60711E-01 2.61836E-03-1.19951E+00 1.11635E-13 5.89806E-16
 -1      3932 1.41496E+01 9.76799E-01 6.64112E-03 1.43364E-01-3.43970E-14 1.87359E-13
 -1      3933 1.56706E+01-1.03372E+00 4.27025E-03-3.85103E+00-2.02272E-13-3.71064E-13
 -1      3934 1.90648E+01 2.05056E+00-1.35262E-03-3.02210E-01 1.24113E-13-2.05760E-13
 -1      3935 1.89641E+01 2.12049E+00-4.67885E-03-2.16806E-01 7.73875E-14-2.30179E-13
 -1      3936 1.93508E+01 1.85965E+00-1.71460E-03-4.37239E-01 1.62605E-13-1.99605E-13
 -1      3937 1.91892E+01 1.98457E+00-4.44597E-03-3.75725E-01 1.44752E-13-2.08210E-13
 -1      3938 1.90535E+01 1.89433E+00 4.99790E-03-4.14625E-01 9.84200E-14-1.91570E-13
 -1      3939 1.93343E+01 1.74001E+00 4.78229E-04-5.33976E-01 1.49855E-13-1.78485E-13
 -1      3940 1.67193E+01-8.03287E-02 2.79784E-02 2.73756E+00 1.55290E-13-2.21591E-13
 -1      3941 1.55127E+01-1.54136E-01 1.45226E-02 2.96788E+00 2.38848E-13-2.48260E-13
 -1      3942 1.47898E+01 3.17961E-01-6.59884E-04 2.29072E+00 2.01853E-13-3.39525E-13
 -1      3943 1.67318E+01 2.33373E-01 1.34447E-03 2.39638E+00 1.49919E-13-2.41384E-13
 -1      3944 1.77897E+01-2.21421E+00 5.53335E-02-4.33533E+00-2.75164E-13-2.23318E-13
 -1      3945 1.96044E+01-3.05368E+00-1.44895E-02-4.19391E+00-2.91555E-13-7.77295E-14
 -1      3946 2.09847E+01-3.12434E+00 1.41448E-02-3.42544E+00-2.26555E-13 3.06738E-14
 -1      3947 1.88726E+01 1.59955E+00-5.51864E-03 6.53351E-01 1.31649E-15-2.47408E-13
 -1      3948 1.87203E+01 1.47723E+00-6.55218E-04 7.94829E-01 1.68023E-14-2.25155E-13
 -1      3949 1.78103E+01-2.13176E-01-2.65036E-02 2.43404E+00-1.94000E-13 1.86083E-13
 -1      3950 1.75735E+01-5.60185E-01 1.56039E-03 2.81817E+00-2.34881E-13-1.48102E-14
 -1      3951 1.66421E+01-1.68043E-01 4.39353E-02 2.76731E+00-2.32577E-13-4.31380E-14
 -1      3952 1.79558E+01 1.10776E+00-1.15054E-02 1.22346E+00 7.91431E-14-2.31123E-13
 -1      3953 1.77409E+01 9.71181E-01 4.69745E-03 1.42085E+00 8.97921E-14-2.41850E-13
 -1      3954 1.94152E+01 5.44614E-01 7.81492E-03-1.61308E+00 7.09719E-15-1.02096E-13
 -1      3955 1.94101E+01 7.20615E-01-3.08207E-03-1.44797E+00 2.14271E-14-1.14500E-13
 -1      3956 1.91683E+01 9.57079E-01 2.55813E-03-1.30660E+00 2.99412E-14-1.16987E-13
 -1      3957 1.85018E+01 7.62970E-01-7.29805E-03 1.18534E+00-1.70769E-13 2.20066E-13
 -1      3958 1.84133E+01 6.99494E-01 4.59881E-03 1.33363E+00-1.32570E-13 1.60005E-13
 -1      3959 1.71036E+01 5.32771E-01 1.58783E-02-1.86139E+00 6.70127E-14-1.25764E-13
 -1      3960 1.72588E+01 6.91626E-01-1.39457E-02-1.61244E+00 4.24655E-14-2.20837E-14
 -1      3961 1.76353E+01 8.10620E-01 6.25039E-03-1.40375E+00 4.28627E-14-1.03688E-13
 -1      3962 1.78023E+01 8.82762E-01-1.16179E-02-1.22955E+00 3.56165E-14-2.32100E-14
 -1      3963 1.70243E+01 9.42542E-01 1.09168E-02-1.26551E+00 1.40736E-13-1.54186E-13
 -1      3964 1.80980E+01 9.34476E-01 2.42336E-03-1.09106E+00-6.18061E-14 3.58770E-14
 -1      3965 1.82565E+01 9.52361E-01-8.45515E-03-9.65142E-01-1.48789E-13-4.94162E-14
 -1      3966 1.76677E+01 1.04660E+00 1.07045E-02-9.59910E-01-9.46378E-15-2.35287E-13
 -1      3967 1.84914E+01 9.57574E-01 7.78840E-04-8.66822E-01-2.93189E-13-1.08357E-13
 -1      3968 1.86311E+01 9.41565E-01-6.20233E-03-7.71277E-01-4.24147E-13-1.74399E-13
 -1      3969 1.81718E+01 1.05734E+00 8.43690E-03-7.48534E-01-2.17512E-13-2.00351E-13
 -1      3970 1.88187E+01 9.17682E-01-8.84809E-06-6.96608E-01-4.65904E-13-1.47519E-13
 -1      3971 1.89377E+01 8.80437E-01-4.74631E-03-6.20479E-01-3.47004E-13-7.91674E-14
 -1      3972 1.85750E+01 1.00856E+00 6.29860E-03-5.96558E-01-4.70069E-13-9.20710E-14
 -1      3973 1.90883E+01 8.39142E-01-2.82688E-04-5.61624E-01-2.24798E-13-3.93638E-14
 -1      3974 1.91867E+01 7.90333E-01-3.72481E-03-4.99152E-01-8.04409E-14 2.09147E-14
 -1      3975 1.89002E+01 9.23420E-01 5.04902E-03-4.78545E-01-2.30459E-13 2.13927E-13
 -1      3976 1.93070E+01 7.40743E-01-3.49340E-04-4.51609E-01-1.13311E-13-8.53182E-14
 -1      3977 1.93865E+01 6.87790E-01-2.94652E-03-3.99508E-01-1.26396E-13-1.41078E-13
 -1      3978 1.91610E+01 8.17694E-01 3.95193E-03-3.84649E-01-8.61068E-14 2.34778E-14
 -1      3979 1.94819E+01 6.35886E-01-2.97091E-04-3.60149E-01-9.98157E-14-2.70275E-13
 -1      3980 1.95449E+01 5.83012E-01-2.35382E-03-3.16556E-01-5.72648E-14-3.26275E-13
 -1      3981 1.93687E+01 7.05173E-01 3.15773E-03-3.07850E-01-1.35339E-13-1.38632E-13
 -1      3982 1.96195E+01 5.32904E-01-1.93817E-04-2.84275E-01 4.16412E-14-4.17700E-13
 -1      3983 1.96684E+01 4.83376E-01-1.89245E-03-2.47838E-01 8.08437E-14-2.59589E-13
 -1      3984 1.95326E+01 5.94017E-01 2.56562E-03-2.43825E-01 1.48413E-14-4.69644E-13
 -1      3985 1.97264E+01 4.37324E-01-1.12216E-04-2.21307E-01 1.20190E-13-1.66703E-13
 -1      3986 1.97635E+01 3.92947E-01-1.53302E-03-1.91239E-01 1.65145E-13-1.21007E-13
 -1      3987 1.96599E+01 4.90391E-01 2.06300E-03-1.90828E-01 1.88043E-13-4.64666E-13
 -1      3988 1.98079E+01 3.52289E-01-5.48442E-05-1.69510E-01 1.59505E-13 1.70009E-14
 -1      3989 1.98357E+01 3.13648E-01-1.23825E-03-1.44978E-01 1.86747E-13 1.63543E-14
 -1      3990 1.97577E+01 3.97183E-01 1.53750E-03-1.47211E-01 2.04868E-13-1.44601E-13
 -1      3991 1.98692E+01 2.78670E-01-6.44995E-06-1.27555E-01 1.27867E-13 9.66343E-15
 -1      3992 1.98896E+01 2.45900E-01-9.80510E-04-1.07882E-01 1.38409E-13 1.08289E-14
 -1      3993 1.98321E+01 3.16027E-01 1.19754E-03-1.11382E-01 9.51768E-14 3.74756E-14
 -1      3994 1.99144E+01 2.16606E-01 2.02859E-05-9.41480E-02 1.46401E-13-5.94055E-14
 -1      3995 1.99289E+01 1.89487E-01-7.63335E-04-7.86151E-02 1.41074E-13-1.34180E-13
 -1      3996 1.98875E+01 2.47018E-01 9.04625E-04-8.27887E-02 1.43255E-13-3.92092E-14
 -1      3997 1.99469E+01 1.65490E-01 3.93599E-05-6.79318E-02 8.80578E-14-6.78125E-14
 -1      3998 1.99570E+01 1.43500E-01-5.85163E-04-5.58619E-02 4.52526E-14-8.12756E-14
 -1      3999 1.99278E+01 1.89815E-01 6.72136E-04-6.02329E-02 4.57149E-14-7.96901E-14
 -1      4000 1.99696E+01 1.24222E-01 4.91151E-05-4.76831E-02 1.27969E-13-9.84516E-14
 -1      4001 1.99764E+01 1.06718E-01-4.41381E-04-3.84594E-02 1.93421E-13-1.38437E-14
 -1      4002 1.99565E+01 1.43346E-01 4.91252E-04-4.27007E-02 1.40951E-13 5.27131E-14
 -1      4003 1.99851E+01 9.15066E-02 5.18997E-05-3.23066E-02 8.58209E-14-1.19756E-13
 -1      4004 1.99893E+01 7.78120E-02-3.26655E-04-2.53824E-02 1.14517E-13-6.17853E-14
 -1      4005 1.99763E+01 1.06286E-01 3.52130E-04-2.92993E-02 1.50573E-13-1.93995E-14
 -1      4006 1.99950E+01 6.60106E-02 5.21309E-05-2.08384E-02 2.05091E-13-1.88183E-13
 -1      4007 1.99975E+01 5.54499E-02-2.40395E-04-1.57355E-02 1.37058E-13-2.13295E-13
 -1      4008 1.99894E+01 7.72335E-02 2.45672E-04-1.92403E-02 1.02649E-13-3.19116E-13
 -1      4009 2.00010E+01 4.64459E-02 6.25242E-05-1.24601E-02-1.63375E-14-2.10810E-13
 -1      4010 2.00022E+01 3.83895E-02-1.84987E-04-8.78525E-03-1.23130E-14-2.82997E-13
 -1      4011 1.99976E+01 5.47237E-02 1.35913E-04-1.18402E-02 4.11717E-14-2.13945E-13
 -1      4012 2.00038E+01 3.26329E-02 7.91105E-05-6.33468E-03 3.62098E-14-3.06738E-13
 -1      4013 2.00042E+01 2.64452E-02-1.19484E-04-3.81832E-03 9.66619E-14-1.98756E-13
 -1      4014 2.00039E+01 2.67267E-02-2.84791E-05-2.40486E-03 1.32518E-13-9.13471E-14
 -1      4015 2.00019E+01 3.85785E-02 4.30987E-05-6.22734E-03-8.96431E-15-3.11036E-13
 -1      4016 1.87850E+01 8.16908E-01-5.97432E-03 9.40344E-01 5.09442E-14 2.30267E-13
 -1      4017 1.86935E+01 8.04281E-01 3.01648E-03 1.05383E+00-4.21765E-14 2.24191E-13
 -1      4018 1.83366E+01 9.00752E-01 4.73168E-03 9.96305E-01-1.19554E-13 6.06801E-14
 -1      4019 1.80318E+01 3.16200E-01-2.00579E-02 1.86077E+00-1.42983E-13 2.79545E-13
 -1      4020 1.80461E+01 7.68487E-02 4.65829E-03 2.11611E+00-1.88097E-13 1.79891E-13
 -1      4021 1.74294E+01 3.36405E-01 2.52141E-02 2.05378E+00-1.98949E-13 7.24779E-14
 -1      4022 1.82600E+01 6.08301E-01-1.13009E-02 1.47794E+00-2.76074E-14 8.73009E-14
 -1      4023 1.81963E+01 4.71090E-01 3.70862E-03 1.67313E+00-8.21958E-14 2.04189E-13
 -1      4024 1.77574E+01 6.58530E-01 1.57791E-02 1.57690E+00-9.15143E-14 8.75407E-15
 -1      4025 1.80196E+01 8.19255E-01 8.58243E-03 1.25959E+00-1.43962E-13 4.71009E-14
 -1      4026 1.90345E+01 8.00322E-01-4.77918E-03 7.50656E-01 2.57518E-14 3.19778E-13
 -1      4027 1.89471E+01 8.17757E-01 1.46004E-03 8.41446E-01 6.39762E-14 2.39214E-13
 -1      4028 1.86753E+01 9.10361E-01 4.52465E-03 7.81172E-01 5.03496E-14 2.11853E-13
 -1      4029 1.92473E+01 7.40769E-01-3.84438E-03 5.99070E-01-1.31801E-13 4.08702E-13
 -1      4030 1.91696E+01 7.76243E-01 7.33926E-04 6.73383E-01-4.81627E-14 3.72561E-13
 -1      4031 1.89599E+01 8.63576E-01 3.99909E-03 6.17233E-01-1.17196E-13 3.80725E-13
 -1      4032 1.94245E+01 6.58206E-01-3.09092E-03 4.76011E-01 1.01399E-13 4.10494E-13
 -1      4033 1.93585E+01 7.02591E-01 3.62401E-04 5.37482E-01 5.60137E-15 3.97429E-13
 -1      4034 1.91957E+01 7.83285E-01 3.32727E-03 4.88627E-01-5.07156E-14 2.71482E-13
 -1      4035 1.95682E+01 5.67081E-01-2.45197E-03 3.75271E-01 1.50441E-13 2.56948E-13
 -1      4036 1.95143E+01 6.14030E-01 2.14073E-04 4.26415E-01 1.19429E-13 3.15545E-13
 -1      4037 1.93887E+01 6.87247E-01 2.94426E-03 3.86366E-01 1.85540E-13 2.21516E-13
 -1      4038 1.96827E+01 4.75838E-01-1.98306E-03 2.92540E-01 7.38708E-15 2.22737E-13
 -1      4039 1.96399E+01 5.21811E-01 2.07802E-04 3.34849E-01 1.24924E-13 2.48521E-13
 -1      4040 1.95433E+01 5.86517E-01 2.43061E-03 3.03037E-01 1.88121E-13 1.06278E-13
 -1      4041 1.97721E+01 3.90340E-01-1.64542E-03 2.24991E-01-1.22108E-13 2.00815E-13
 -1      4042 1.97389E+01 4.32800E-01 1.56625E-04 2.59724E-01-8.41653E-14 2.48403E-13
 -1      4043 1.96652E+01 4.88738E-01 1.84991E-03 2.35231E-01-4.48245E-14 1.41689E-13
 -1      4044 1.98406E+01 3.13897E-01-1.33956E-03 1.70420E-01-5.51720E-14 4.15127E-14
 -1      4045 1.98156E+01 3.51411E-01 1.29465E-04 1.98613E-01-5.94028E-14 1.48705E-13
 -1      4046 1.97600E+01 3.99023E-01 1.42841E-03 1.80386E-01-6.59515E-14 1.01124E-13
 -1      4047 1.98923E+01 2.47705E-01-1.06668E-03 1.26815E-01 2.73519E-14 1.39644E-13
 -1      4048 1.98738E+01 2.79931E-01 1.33078E-04 1.49372E-01 1.54580E-14 1.14341E-13
 -1      4049 1.98326E+01 3.19642E-01 1.13094E-03 1.36130E-01-3.06633E-14 2.00072E-14
 -1      4050 1.99303E+01 1.91958E-01-8.34823E-04 9.24999E-02-1.55494E-13 1.35293E-13
 -1      4051 1.99170E+01 2.18908E-01 1.27162E-04 1.10283E-01-4.95835E-14 1.52082E-13
 -1      4052 1.98871E+01 2.51332E-01 8.66732E-04 1.00988E-01-5.94504E-15 1.07746E-13
 -1      4053 1.99576E+01 1.46111E-01-6.42754E-04 6.58779E-02-1.06720E-13 5.74231E-14
 -1      4054 1.99483E+01 1.68142E-01 1.19682E-04 7.96848E-02-1.21068E-13 8.36115E-14
 -1      4055 1.99271E+01 1.94132E-01 6.49571E-04 7.34401E-02-4.00664E-14 9.53733E-14
 -1      4056 1.99766E+01 1.09182E-01-4.86683E-04 4.55367E-02-1.68834E-13 1.40631E-13
 -1      4057 1.99704E+01 1.26833E-01 1.09710E-04 5.60867E-02-1.78340E-13 1.22208E-14
 -1      4058 1.99557E+01 1.47306E-01 4.77690E-04 5.21279E-02-1.62594E-13 5.44843E-14
 -1      4059 1.99893E+01 7.99927E-02-3.61571E-04 3.02503E-02 2.67082E-14 1.37495E-13
 -1      4060 1.99854E+01 9.38759E-02 9.74540E-05 3.81751E-02-3.91329E-14 1.97835E-13
 -1      4061 1.99756E+01 1.09729E-01 3.44264E-04 3.58845E-02-1.41700E-13-8.05451E-14
 -1      4062 1.99974E+01 5.73092E-02-2.64127E-04 1.89672E-02 9.81915E-14 1.04709E-14
 -1      4063 1.99951E+01 6.80523E-02 8.41294E-05 2.48092E-02 1.26623E-13 1.38050E-13
 -1      4064 1.99889E+01 8.01208E-02 2.42419E-04 2.37054E-02 7.51621E-14 1.70094E-14
 -1      4065 2.00021E+01 3.99290E-02-1.87463E-04 1.08195E-02-1.25030E-13 4.63478E-14
 -1      4066 2.00010E+01 4.81290E-02 7.16598E-05 1.50250E-02-8.44893E-14 9.66753E-14
 -1      4067 1.99973E+01 5.71576E-02 1.63773E-04 1.47209E-02 9.47544E-15 1.60410E-13
 -1      4068 2.00045E+01 2.67468E-02-1.17037E-04 5.08050E-03 1.04579E-13-2.69638E-13
 -1      4069 2.00041E+01 3.29742E-02 6.09103E-05 8.06265E-03 3.03507E-14-7.35831E-14
 -1      4070 2.00021E+01 3.96226E-02 1.23708E-04 8.30380E-03 1.43729E-14 5.65278E-14
 -1      4071 1.84740E+01 1.35236E+00-8.79377E-03 9.14482E-01 1.88656E-14-2.11587E-13
 -1      4072 1.82838E+01 1.23775E+00 5.21840E-04 1.07189E+00 5.55604E-14-2.30464E-13
 -1      4073 1.84103E+01 1.53607E+00 3.57762E-03 6.63820E-01 2.04728E-14-2.18623E-13
 -1      4074 1.43832E+01 8.36249E-01 8.01201E-02-1.46853E+00 1.55956E-14-3.73797E-13
 -1      4075 1.52241E+01 4.00420E-01-2.19546E-02-2.08451E+00-3.33117E-14-3.41808E-13
 -1      4076 1.70617E+01-1.58753E-01 2.51116E-02-2.63474E+00 9.86763E-14-9.88109E-14
 -1      4077 1.68737E+01 2.39999E-01-5.40011E-03-2.24839E+00 3.41888E-14-1.62570E-13
 -1      4078 1.64006E+01 6.13152E-01 3.10759E-03-1.83522E+00 6.31331E-14-7.74563E-14
 -1      4079 1.61091E+01-9.13802E-02 1.30152E-02-2.75941E+00 1.60776E-13-1.25695E-13
 -1      4080 1.70985E+01-1.12109E+00 3.46945E-02-3.53191E+00-1.82197E-13-2.60122E-13
 -1      4081 1.54258E+01 4.61459E-01-1.51980E-02-2.03178E+00 8.69192E-14-9.65669E-14
 -1      4082 1.71749E+01-6.27460E-01-1.19213E-02-3.07828E+00-1.52567E-13-2.08814E-13
 -1      4083 1.89668E+01-1.68668E+00 2.99401E-03-3.48029E+00-2.17873E-13-8.88688E-14
 -1      4084 2.00046E+01 1.75551E-02-7.13762E-05 4.46482E-04 1.23145E-13-2.21337E-13
 -1      4085 2.00048E+01 1.70098E-02-2.81756E-05 4.83921E-04 1.55648E-13-9.37620E-14
 -1      4086 2.00046E+01 2.23121E-02 1.36409E-04 5.20952E-04 1.10184E-13-2.38040E-13
 -1      4087 2.00050E+01 1.57258E-02-8.06695E-05 6.85797E-04 2.01299E-13-9.34193E-14
 -1      4088 2.00051E+01 1.46408E-02-6.77928E-05 3.96239E-04 2.04764E-13-1.71453E-13
 -1      4089 1.89056E+01 2.16705E+00-3.65699E-03-8.37228E-02 6.94747E-14-2.68193E-13
 -1      4090 1.88929E+01 2.17306E+00-4.76446E-03 7.55555E-03 5.30678E-14-2.76623E-13
 -1      4091 1.88592E+01 2.00719E+00 7.61662E-03-1.89998E-01 6.56901E-14-2.22322E-13
 -1      4092 1.73066E+01 8.06931E-01-1.41293E-02 1.63507E+00 1.05974E-13-2.64173E-13
 -1      4093 1.70900E+01 6.05913E-01 1.36037E-02 1.90696E+00 1.24008E-13-2.63084E-13
 -1      4094 1.71352E+01 1.09859E+00 1.48202E-02 1.23625E+00 8.23536E-14-2.98117E-13
 -1      4095 1.93949E+01 8.57522E-02 1.34959E-02-1.98089E+00-2.18411E-14-1.34438E-13
 -1      4096 1.93144E+01 3.26443E-01-3.14567E-03-1.81619E+00-9.93129E-17-1.00962E-13
 -1      4097 1.89627E+01 5.93246E-01 1.35522E-03-1.68974E+00 1.82839E-14-1.10409E-13
 -1      4098 1.88152E+01 1.04165E-01 1.81243E-03-2.14650E+00-4.03456E-14-1.06168E-13
 -1      4099 2.00053E+01 1.61286E-02-3.10612E-05 1.53570E-03 1.69770E-13-1.46889E-13
 -1      4100 2.00054E+01 2.07764E-02 6.60856E-05 2.99939E-03 1.17193E-13-2.58787E-13
 -1      4101 2.00049E+01 2.05109E-02 6.87692E-05 1.39395E-03 1.44176E-13-1.71134E-13
 -1      4102 2.00045E+01 2.54670E-02 4.01332E-05 3.60163E-03 4.36687E-14-2.72732E-13
 -1      4103 1.62558E+01 2.54638E-01-2.75195E-02 2.20176E+00-2.14085E-13-5.04854E-14
 -1      4104 2.08619E+01-2.82086E+00 1.59006E-02-3.26765E+00-2.03240E-13 9.99678E-15
 -1      4105 2.01649E+01-2.12679E+00 1.96595E-02-3.19338E+00-2.17988E-13-1.43227E-14
 -1      4106 1.78645E+01 1.33344E+00 1.20291E-02 9.19010E-01 5.20237E-14-2.48750E-13
 -1      4107 1.89835E+01 1.70658E+00-4.03941E-04 5.69383E-01-5.17815E-16-2.66750E-13
 -1      4108 1.87481E+01 1.74364E+00 2.06441E-03 4.84560E-01 2.56513E-14-2.53536E-13
 -1      4109 1.90418E+01 1.81789E+00-3.57040E-03 4.60892E-01 1.19099E-14-2.68884E-13
 -1      4110 2.00029E+01 3.34304E-02 1.46128E-04-2.46750E-03 1.67310E-13-2.26276E-13
 -1      4111 2.00035E+01 2.75149E-02-6.61447E-05-1.18632E-03 1.68281E-13-2.25395E-13
 -1      4112 2.00034E+01 2.79527E-02-2.62785E-05-4.55950E-04 6.41343E-14-4.49788E-13
 -1      4113 1.63800E+01 1.75954E-01 5.17490E-02-2.56215E+00-9.40112E-14-2.74974E-13
 -1      4114 1.79131E+01-3.75375E-01 2.30327E-03-2.70685E+00-1.59591E-13-1.25534E-13
 -1      4115 1.78396E+01 4.87139E-03-2.63540E-02-2.36533E+00-8.80504E-14-1.25374E-13
 -1      4116 1.60495E+01 5.38197E-01-2.74612E-02-1.88591E+00-3.76331E-14-2.64774E-13
 -1      4117 2.27363E+01-3.37478E+00 4.90386E-02-2.55671E+00-1.37921E-13 1.98273E-13
 -1      4118 1.52902E+01 8.53483E-01 3.59219E-03 1.20947E+00-1.48231E-13 4.04620E-14
 -1      4119 1.45864E+01 1.06230E+00 4.60620E-02 7.63989E-01-8.22393E-14 1.42579E-13
 -1      4120 1.49078E+01 1.07841E+00-5.24633E-03-1.60203E-02-3.64942E-15 1.87619E-14
 -1      4121 1.87209E+01 1.85764E+00 8.86458E-04-3.03176E-01 7.46507E-14-2.09080E-13
 -1      4122 1.86450E+01 1.89094E+00-6.14809E-03-1.59935E-01 5.80855E-14-2.45754E-13
 -1      4123 1.45575E+01 7.07330E-01 3.07113E-02 1.65203E+00 1.69512E-13-3.71377E-13
 -1      4124 1.44475E+01 9.22853E-01-1.95360E-02 7.77325E-01 1.18243E-13-3.20893E-13
 -1      4125 1.56250E+01 6.49579E-01 2.76963E-02 1.80567E+00 1.50663E-13-3.17180E-13
 -1      4126 1.91811E+01 2.01918E+00-1.54026E-03 3.40887E-01 1.49284E-14-2.87213E-13
 -1      4127 1.44005E+01 9.07720E-01-2.55323E-03-6.08525E-01 7.81363E-14-3.45662E-13
 -1      4128 1.93049E+01 1.62107E+00-2.79743E-03-6.36233E-01 1.33685E-13-1.66178E-13
 -1      4129 1.73845E+01 5.71903E-01 2.74859E-02-1.95959E+00-5.49209E-14-1.80854E-13
 -1      4130 1.81744E+01 3.10041E-01 7.92913E-03-2.05131E+00-4.63644E-14-1.14131E-13
 -1      4131 1.82124E+01 5.44560E-01-1.86062E-02-1.80143E+00-1.40538E-14-1.18660E-13
 -1      4132 2.00041E+01 2.66758E-02-3.85899E-05 3.06276E-03 4.74596E-14-1.26373E-13
 -1      4133 1.88454E+01 1.75463E+00-7.14739E-03-4.95183E-01 6.55229E-14-1.62388E-13
 -1      4134 1.86387E+01 1.68886E+00-1.30145E-03-4.74245E-01 5.39754E-14-1.85983E-13
 -1      4135 1.90082E+01 1.70570E+00 3.51604E-03-5.79171E-01 9.82717E-14-1.73998E-13
 -1      4136 1.91255E+01 1.50194E+00-2.85610E-03-7.38306E-01 1.15082E-13-1.37563E-13
 -1      4137 1.88094E+01 1.96602E+00 7.44014E-03 1.68161E-01 4.44591E-14-2.48711E-13
 -1      4138 1.89250E+01 2.08184E+00-1.63098E-03 2.08063E-01 2.96821E-14-3.01779E-13
 -1      4139 1.62811E+01 6.32269E-01 3.40847E-03 1.91703E+00 1.37293E-13-3.13627E-13
 -1      4140 1.90216E+01 1.35551E+00-4.46778E-04-8.99392E-01 8.59440E-14-1.24863E-13
 -1      4141 1.52596E+01 8.27129E-01 2.28613E-02-1.48142E+00 9.48261E-14 5.35127E-14
 -1      4142 1.59148E+01 6.94731E-01 1.74724E-02-1.68222E+00 5.58823E-14-2.90826E-15
 -1      4143 1.61065E+01 8.85137E-01-1.70485E-02-1.30246E+00 8.86395E-14 6.94592E-14
 -1      4144 1.51094E+01 9.85784E-01-1.67590E-02-8.83414E-01 5.15181E-14 4.41830E-14
 -1      4145 1.90007E+01 2.03432E+00 1.39254E-03 2.86850E-01 1.81476E-14-2.97027E-13
 -1      4146 1.78142E+01 1.45611E+00-3.10790E-03 5.53682E-01 2.36764E-14-2.35287E-13
 -1      4147 1.74973E+01 1.34594E+00-3.65752E-03 6.56826E-01 4.26297E-14-2.42545E-13
 -1      4148 1.87184E+01 1.07128E+00 3.41040E-03-1.21670E+00 2.26061E-14-1.09096E-13
 -1      4149 1.88259E+01 1.21230E+00-6.86579E-03-1.04472E+00 5.23126E-14-1.09343E-13
 -1      4150 1.86269E+01 1.46756E+00 8.38709E-03-7.99230E-01 6.60230E-14-1.12528E-13
 -1      4151 1.69638E+01 6.56479E-01-2.22830E-02 1.58615E+00-1.41356E-13-8.44171E-14
 -1      4152 1.67647E+01 4.85055E-01 4.12938E-03 1.85813E+00-2.44158E-13-8.68589E-14
 -1      4153 1.59867E+01 7.70698E-01 3.39737E-02 1.63879E+00-2.20953E-13-1.17870E-13
 -1      4154 1.59598E+01 1.05549E+00 4.53729E-02-1.15333E+00 9.89746E-15-2.47775E-13
 -1      4155 1.66774E+01 7.39729E-01-2.52967E-03-1.61590E+00-5.27020E-14-2.04444E-13
 -1      4156 1.69673E+01 9.15763E-01-3.19944E-02-1.34048E+00-1.02175E-15-1.82375E-13
 -1      4157 1.81917E+01 9.91744E-01-9.31897E-03 7.51048E-01 1.40049E-14-1.32192E-13
 -1      4158 1.80177E+01 9.86750E-01 1.70433E-03 8.64886E-01-1.84276E-13-1.17380E-13
 -1      4159 1.72920E+01 1.10745E+00-1.35647E-03-7.29879E-01 8.96122E-14-1.96915E-13
 -1      4160 1.75699E+01 1.11534E+00-1.06906E-02-6.25942E-01-1.95753E-14-1.90604E-13
 -1      4161 1.78907E+01 1.10931E+00-2.50321E-03-5.66709E-01-2.11244E-13-2.63820E-13
 -1      4162 1.81108E+01 1.08582E+00-9.61359E-03-4.97291E-01-3.52310E-13-2.32947E-13
 -1      4163 1.76227E+01 1.19684E+00 1.47937E-02-3.44955E-01-1.48609E-13-2.79844E-13
 -1      4164 1.83580E+01 1.06045E+00-2.80841E-03-4.48881E-01-3.57916E-13-1.51625E-13
 -1      4165 1.85397E+01 1.01900E+00-6.06146E-03-3.95691E-01-3.33107E-13-3.55568E-14
 -1      4166 1.81522E+01 1.15123E+00 1.49741E-02-2.68544E-01-2.89648E-13-2.64892E-13
 -1      4167 1.87314E+01 9.72489E-01-2.80790E-03-3.61785E-01-2.62715E-13 1.89442E-13
 -1      4168 1.88785E+01 9.19722E-01-4.55713E-03-3.19955E-01-1.18281E-13 1.64231E-13
 -1      4169 1.85810E+01 1.05453E+00 1.33546E-02-2.20052E-01-1.04706E-13-2.45370E-14
 -1      4170 1.90291E+01 8.65524E-01-2.16495E-03-2.92705E-01-2.00534E-13 2.34673E-13
 -1      4171 1.91467E+01 8.07361E-01-3.41462E-03-2.58029E-01-1.49429E-13 6.40201E-14
 -1      4172 1.89115E+01 9.39510E-01 1.01521E-02-1.81926E-01-1.72722E-13 1.60120E-13
 -1      4173 1.92659E+01 7.50423E-01-1.58308E-03-2.35376E-01-2.11581E-13 9.54547E-14
 -1      4174 1.93612E+01 6.92245E-01-1.84058E-03-2.05147E-01-1.95208E-13 4.66099E-15
 -1      4175 1.91700E+01 8.13676E-01 5.88869E-03-1.50422E-01-2.44464E-13 1.81005E-13
 -1      4176 1.94534E+01 6.34218E-01-1.24336E-03-1.89419E-01-4.23620E-14-1.26333E-13
 -1      4177 1.95259E+01 5.79407E-01-1.88227E-03-1.64357E-01 3.49869E-14-1.60159E-13
 -1      4178 1.93819E+01 6.86887E-01 3.64232E-03-1.23464E-01-2.01401E-13 2.17076E-13
 -1      4179 1.95997E+01 5.26636E-01-6.55041E-04-1.49144E-01 1.44378E-13-2.14072E-13
 -1      4180 1.96546E+01 4.75393E-01-1.92351E-03-1.28721E-01 2.15341E-13-2.00943E-13
 -1      4181 1.95423E+01 5.75207E-01 3.14029E-03-9.69975E-02 3.60633E-14 2.16421E-13
 -1      4182 1.97117E+01 4.28868E-01-6.69721E-04-1.15486E-01 2.60980E-13-2.17616E-13
 -1      4183 1.97546E+01 3.84031E-01-1.29251E-03-9.80970E-02 1.44877E-13-9.08910E-14
 -1      4184 1.96672E+01 4.73974E-01 3.22051E-03-7.43431E-02 2.21838E-13-8.52576E-14
 -1      4185 1.97978E+01 3.42461E-01-6.07822E-04-8.81318E-02 1.26896E-13-3.73124E-14
 -1      4186 1.98303E+01 3.04000E-01-1.01422E-03-7.40096E-02 1.69001E-13 1.00066E-13
 -1      4187 1.97659E+01 3.80625E-01 2.89371E-03-5.73571E-02 2.36707E-13-9.51797E-14
 -1      4188 1.98625E+01 2.68891E-01-4.40720E-04-6.61078E-02 1.65086E-14-7.32945E-14
 -1      4189 1.98863E+01 2.36673E-01-7.75857E-04-5.47608E-02 3.24401E-14-1.86575E-13
 -1      4190 1.98389E+01 3.00418E-01 2.23913E-03-4.35868E-02 6.67569E-14-1.73104E-13
 -1      4191 1.99099E+01 2.07572E-01-3.14549E-04-4.85695E-02 8.12900E-14-2.22289E-13
 -1      4192 1.99271E+01 1.81149E-01-5.84748E-04-3.95748E-02 5.32704E-14-1.66533E-13
 -1      4193 1.98929E+01 2.33132E-01 1.68090E-03-3.23586E-02-3.80624E-14-4.09269E-13
 -1      4194 1.99441E+01 1.57495E-01-2.20612E-04-3.48179E-02 1.70402E-13-2.96584E-14
 -1      4195 1.99561E+01 1.36237E-01-4.33423E-04-2.78038E-02 2.35079E-13 9.76793E-15
 -1      4196 1.99320E+01 1.77842E-01 1.23492E-03-2.34255E-02 1.84585E-13-2.45543E-13
 -1      4197 1.99679E+01 1.17364E-01-1.51012E-04-2.42195E-02 9.55630E-14 1.55977E-13
 -1      4198 1.99761E+01 1.00563E-01-3.14827E-04-1.88446E-02 2.62917E-14-2.35144E-14
 -1      4199 1.99596E+01 1.33277E-01 8.87532E-04-1.64700E-02 1.96587E-13-1.90091E-13
 -1      4200 1.99840E+01 8.57621E-02-9.87470E-05-1.61954E-02-3.23238E-14-1.17297E-13
 -1      4201 1.99893E+01 7.26963E-02-2.23633E-04-1.21514E-02 3.09166E-14-2.39894E-13
 -1      4202 1.99786E+01 9.79885E-02 6.18993E-04-1.11651E-02-9.74254E-14-1.91821E-13
 -1      4203 1.99944E+01 6.14049E-02-1.10804E-05-1.02121E-02 5.52343E-14-3.11299E-13
 -1      4204 1.99976E+01 5.12647E-02-1.36085E-04-7.17434E-03-3.57068E-14-3.15996E-13
 -1      4205 1.99909E+01 7.04619E-02 3.89225E-04-7.23336E-03-8.61289E-14-3.48697E-13
 -1      4206 1.99999E+01 4.51920E-02 3.35958E-05-5.93080E-03 5.64663E-15-2.64168E-13
 -1      4207 2.00012E+01 3.83049E-02-9.70344E-05-3.55695E-03 1.00934E-13-1.68781E-13
 -1      4208 2.00010E+01 3.95362E-02 5.69945E-05-1.79149E-03 9.47973E-14-1.83642E-13
 -1      4209 1.99975E+01 5.10047E-02-6.35234E-05-3.77689E-03-6.95413E-15-2.34152E-13
 -1      4210 1.91529E+01 7.91822E-01-4.30869E-03 3.59976E-01-5.31706E-15 2.97352E-14
 -1      4211 1.90489E+01 8.43667E-01-7.43589E-04 4.09743E-01-1.01621E-13-1.67689E-14
 -1      4212 1.93608E+01 6.86228E-01-2.79398E-03 2.81970E-01 2.55817E-13 1.42366E-13
 -1      4213 1.92736E+01 7.39912E-01-1.26480E-03 3.21435E-01 1.17329E-13 1.27851E-13
 -1      4214 1.91589E+01 8.19448E-01 8.30027E-03 2.53719E-01 1.88298E-14-1.99579E-13
 -1      4215 1.95235E+01 5.80665E-01-2.17066E-03 2.19881E-01 1.08939E-13 1.86131E-13
 -1      4216 1.94549E+01 6.34393E-01-5.26119E-04 2.53211E-01 2.55665E-13 2.15805E-13
 -1      4217 1.93686E+01 6.96126E-01 4.51570E-03 1.94333E-01 2.07696E-13 3.31519E-14
 -1      4218 1.96502E+01 4.81249E-01-2.04417E-03 1.70237E-01-5.90531E-14 1.04181E-13
 -1      4219 1.95986E+01 5.31339E-01-1.54362E-05 1.98123E-01 6.45006E-14 1.65860E-13
 -1      4220 1.95310E+01 5.82664E-01 2.82054E-03 1.49173E-01 4.97548E-14 2.11930E-13
 -1      4221 1.97495E+01 3.90354E-01-1.72898E-03 1.29258E-01-6.25489E-14 9.91904E-14
 -1      4222 1.97093E+01 4.35105E-01-2.64617E-04 1.51498E-01-1.11993E-13 8.67108E-14
 -1      4223 1.96560E+01 4.83060E-01 2.74051E-03 1.15342E-01-4.54712E-14 9.24684E-14
 -1      4224 1.98255E+01 3.10834E-01-1.37701E-03 9.68415E-02 6.40116E-14-4.03403E-14
 -1      4225 1.97950E+01 3.49789E-01-2.18625E-04 1.14670E-01 3.07041E-15 9.62560E-14
 -1      4226 1.97567E+01 3.91825E-01 3.12012E-03 8.81753E-02-2.73554E-14 6.48864E-14
 -1      4227 1.98823E+01 2.43196E-01-1.07359E-03 7.13528E-02-1.98192E-14 5.89619E-14
 -1      4228 1.98598E+01 2.76133E-01-1.36032E-04 8.55222E-02 3.08329E-14-5.80106E-15
 -1      4229 1.98318E+01 3.10987E-01 2.54426E-03 6.61154E-02-3.23084E-14-7.03117E-14
 -1      4230 1.99238E+01 1.86989E-01-8.24386E-04 5.14817E-02-5.36821E-14 7.50463E-14
 -1      4231 1.99077E+01 2.14197E-01-7.22368E-05 6.26142E-02-5.14158E-14 1.21273E-13
 -1      4232 1.98874E+01 2.42445E-01 1.94084E-03 4.86259E-02-6.62677E-14-5.01670E-14
 -1      4233 1.99536E+01 1.41241E-01-6.23543E-04 3.61980E-02-1.20245E-13 4.83613E-14
 -1      4234 1.99423E+01 1.63260E-01-2.89769E-05 4.48237E-02-3.77530E-14 1.77168E-13
 -1      4235 1.99279E+01 1.85738E-01 1.43737E-03 3.49920E-02-1.99336E-14 3.98825E-14
 -1      4236 1.99742E+01 1.04713E-01-4.64125E-04 2.46225E-02-1.57462E-13 9.05225E-15
 -1      4237 1.99666E+01 1.22202E-01-9.54674E-07 3.12031E-02-1.61715E-13-3.14884E-14
 -1      4238 1.99567E+01 1.39780E-01 1.03969E-03 2.45296E-02-4.98981E-14 8.37384E-16
 -1      4239 1.99880E+01 7.60558E-02-3.41398E-04 1.60022E-02 9.59703E-15 2.42538E-14
 -1      4240 1.99831E+01 8.97092E-02 1.56790E-05 2.09406E-02-4.68592E-14-3.34963E-15
 -1      4241 1.99765E+01 1.03222E-01 7.33150E-04 1.66296E-02-1.04390E-13-2.25827E-13
 -1      4242 1.99967E+01 5.39825E-02-2.23095E-04 9.69916E-03 1.86930E-14 8.98065E-14
 -1      4243 1.99938E+01 6.44563E-02 2.72798E-05 1.33476E-02 7.68222E-14 1.92538E-13
 -1      4244 1.99896E+01 7.46355E-02 4.98636E-04 1.07828E-02-3.23397E-14-1.43536E-13
 -1      4245 2.00019E+01 3.70415E-02-1.42926E-04 5.20452E-03 2.81901E-14 5.29846E-14
 -1      4246 2.00002E+01 4.49011E-02-2.33264E-05 7.69545E-03-3.55296E-14 8.49586E-14
 -1      4247 1.99976E+01 5.27198E-02 2.99438E-04 6.46809E-03-2.80183E-14 3.80982E-14
 -1      4248 1.86354E+01 1.79073E+00-5.77099E-03 3.33136E-01 2.93798E-14-2.31774E-13
 -1      4249 1.85491E+01 1.70376E+00 4.51968E-03 4.15175E-01 3.91835E-14-2.17630E-13
 -1      4250 1.82823E+01 1.59517E+00-7.96633E-04 5.07868E-01 4.01233E-14-2.02975E-13
 -1      4251 1.86113E+01 1.89953E+00-2.11573E-04 9.24485E-02 7.07097E-14-2.17661E-13
 -1      4252 1.85802E+01 9.58485E-01-7.71732E-03 5.82783E-01-7.74799E-14 3.97555E-14
 -1      4253 1.84317E+01 9.84022E-01-1.01707E-04 6.63962E-01 3.53027E-14-5.25497E-15
 -1      4254 1.81656E+01 1.08688E+00 1.20788E-02 5.34446E-01-2.92246E-14-2.35756E-13
 -1      4255 1.65241E+01 1.03442E+00 7.41218E-03-9.69919E-01 8.70777E-14-4.11671E-14
 -1      4256 1.68667E+01 1.07511E+00-1.38083E-02-8.19778E-01 1.14762E-13-1.31310E-13
 -1      4257 1.69029E+01 1.20216E+00 1.28139E-02-4.45885E-01 4.31321E-14-4.62169E-14
 -1      4258 1.84327E+01 7.46333E-01 5.26519E-03-1.58822E+00 1.27806E-14-1.37618E-13
 -1      4259 1.85210E+01 9.16377E-01-1.29042E-02-1.38939E+00 1.84446E-14-1.22282E-13
 -1      4260 1.82379E+01 1.23325E+00 1.42950E-02-1.09253E+00 4.76330E-14-1.65209E-13
 -1      4261 1.78694E+01 9.51325E-01 1.88707E-02-1.45709E+00 1.50733E-14-1.65429E-13
 -1      4262 1.47686E+01 1.12290E+00 3.98218E-02 1.05028E-01 1.07175E-13-3.17901E-13
 -1      4263 1.53437E+01 1.03404E+00-1.45497E-02-6.89268E-01 6.49762E-14-2.91964E-13
 -1      4264 1.59640E+01 1.14001E+00-2.87704E-02-5.14574E-01 4.55068E-14-2.33088E-13
 -1      4265 1.54798E+01 1.09747E+00 1.56815E-02 5.33684E-01 1.00385E-13-3.22524E-13
 -1      4266 1.84808E+01 1.77871E+00 6.57388E-03-1.69490E-02 5.73245E-14-2.16355E-13
 -1      4267 2.00037E+01 2.65094E-02-5.00478E-05 1.26161E-03 6.60932E-14-8.59831E-14
 -1      4268 2.00032E+01 3.24999E-02 1.23472E-04 3.55445E-03 7.45648E-14-1.17161E-13
 -1      4269 2.00016E+01 3.69157E-02-8.67737E-05 3.16501E-03 6.95155E-14-1.86432E-13
 -1      4270 2.00033E+01 2.67145E-02-1.69958E-04 4.96019E-04 6.61596E-14-4.23960E-13
 -1      4271 1.88970E+01 8.86418E-01-5.85104E-03 4.57473E-01-1.10054E-13 3.98494E-14
 -1      4272 1.87713E+01 9.29312E-01-7.16809E-04 5.19775E-01-3.49563E-14 1.25083E-14
 -1      4273 1.89038E+01 9.31254E-01 1.17232E-02 3.24703E-01-6.01391E-14-1.79152E-13
 -1      4274 1.59764E+01 9.30648E-01-1.22797E-02 1.30199E+00 1.22168E-13-3.18422E-13
 -1      4275 1.70382E+01 1.24610E+00-1.38259E-02 7.44889E-01 5.62228E-14-2.70694E-13
 -1      4276 1.66473E+01 1.15186E+00 6.85243E-03 8.91073E-01 8.60748E-14-3.02716E-13
 -1      4277 1.71253E+01 1.42746E+00 1.97952E-02 3.42493E-01 4.05076E-14-2.39026E-13
 -1      4278 1.84228E+01 1.54924E+00-8.20593E-03-5.91504E-01 6.98461E-14-2.09865E-13
 -1      4279 1.72705E+01 7.75979E-01 1.86312E-03 1.39264E+00-6.89231E-14-4.32260E-14
 -1      4280 1.67554E+01 9.59505E-01 1.86596E-02 1.17941E+00-1.55516E-13-1.26658E-13
 -1      4281 1.73979E+01 8.58119E-01-1.29502E-02 1.22299E+00-1.26741E-13-4.99078E-14
 -1      4282 1.57960E+01 9.64523E-01-1.65464E-02 9.75846E-01-7.07151E-14-5.95922E-14
 -1      4283 1.59951E+01 1.15836E+00 8.21696E-03 7.73021E-01 9.00205E-14-3.15358E-13
 -1      4284 1.77989E+01 9.52763E-01-1.16844E-02 9.64778E-01-2.91704E-13-1.95098E-14
 -1      4285 1.76712E+01 9.09018E-01-1.43641E-03 1.09582E+00-2.69799E-13-1.02459E-13
 -1      4286 1.77586E+01 1.09129E+00 1.51610E-02 6.91569E-01-2.36635E-13-2.47934E-13
 -1      4287 1.80992E+01 1.43752E+00-1.02137E-02-6.26762E-01 5.70535E-14-1.97958E-13
 -1      4288 1.82263E+01 1.67303E+00 8.31910E-03-2.76297E-01 6.30357E-14-2.27761E-13
 -1      4289 1.81390E+01 1.65978E+00-4.84025E-03 7.76308E-03 4.68199E-14-2.07962E-13
 -1      4290 1.79406E+01 1.53229E+00 3.41834E-04 2.55061E-01 3.33527E-14-2.00058E-13
 -1      4291 1.85798E+01 1.02766E+00 1.42834E-02 4.15616E-01-3.05797E-14-1.36827E-13
 -1      4292 1.60716E+01 1.09654E+00 1.07444E-02-8.17338E-01 1.05761E-14 9.20167E-14
 -1      4293 2.00026E+01 3.30074E-02 4.96709E-05 3.53849E-04 7.33791E-14-4.28096E-13
 -1      4294 1.53019E+01 1.14714E+00 1.89641E-02-2.95556E-01 6.52006E-14-5.21300E-14
 -1      4295 1.57448E+01 1.10680E+00 8.92616E-03-5.62525E-01 4.57156E-14 2.47406E-14
 -1      4296 1.61240E+01 1.16654E+00-1.44079E-02-2.64062E-01 4.82336E-14-2.84495E-14
 -1      4297 1.55365E+01 1.12972E+00-1.39835E-02 2.57181E-01 1.30920E-14-8.45851E-14
 -1      4298 1.73993E+01 1.19024E+00-4.46556E-03-7.58703E-02-1.98922E-13-2.76950E-13
 -1      4299 1.76950E+01 1.18982E+00-2.54810E-04-5.91506E-02-3.01331E-13-3.86982E-13
 -1      4300 1.93782E+01 6.73342E-01-1.73294E-03 1.01275E-01-1.57746E-15 1.46193E-13
 -1      4301 1.92820E+01 7.40128E-01 1.55043E-03 1.20662E-01 4.83316E-14-2.88028E-14
 -1      4302 1.66393E+01 1.19900E+00-8.02253E-04-1.71236E-01 3.00493E-14-1.48353E-13
 -1      4303 1.70306E+01 1.19471E+00-1.08148E-02-1.38118E-01-2.16451E-14-1.97614E-13
 -1      4304 1.72236E+01 1.22294E+00 1.03156E-02 1.73548E-01-1.76912E-13-3.13539E-13
 -1      4305 1.63994E+01 1.21126E+00 1.03340E-02 6.43476E-02 9.90874E-15-1.96810E-13
 -1      4306 1.80593E+01 1.11148E+00-1.01071E-02 1.05799E-01-1.12889E-13-2.89414E-13
 -1      4307 1.83042E+01 1.07149E+00-8.84009E-03 1.09756E-01-5.80280E-14-1.43156E-13
 -1      4308 1.84931E+01 1.02385E+00-1.11125E-02 7.16883E-02-5.08058E-14-2.15188E-13
 -1      4309 1.86875E+01 9.77543E-01-7.63953E-03 7.92104E-02-1.04463E-14-4.69975E-14
 -1      4310 1.88406E+01 9.21000E-01-8.72772E-03 5.04767E-02-5.21156E-14-1.32053E-13
 -1      4311 1.89957E+01 8.67330E-01-5.51548E-03 5.81875E-02-1.00468E-13-3.80274E-14
 -1      4312 1.92873E+01 7.27727E-01-2.12265E-03-5.62082E-02-2.08617E-13 2.24752E-13
 -1      4313 1.93834E+01 6.69267E-01-2.28112E-03-4.57506E-02-1.16299E-13 2.83421E-13
 -1      4314 1.94911E+01 6.00572E-01-8.08766E-04-3.58015E-02-8.42613E-14 3.16066E-13
 -1      4315 1.95606E+01 5.50049E-01 2.42453E-05-2.90674E-02 6.22021E-14 2.84583E-13
 -1      4316 1.96438E+01 4.75608E-01-2.11597E-03 1.31958E-02 5.69966E-14 1.87537E-13
 -1      4317 1.97006E+01 4.27037E-01-1.75714E-03 1.74279E-02 9.10990E-14-8.62019E-15
 -1      4318 1.97452E+01 3.81592E-01-2.39835E-03 8.40577E-03 1.54632E-13-9.21731E-14
 -1      4319 1.97888E+01 3.40725E-01-1.53740E-03 1.27875E-02 8.78698E-14-1.37491E-13
 -1      4320 1.98228E+01 3.01848E-01-1.95132E-03 5.53309E-03 5.29217E-15-1.79197E-13
 -1      4321 1.98556E+01 2.67278E-01-1.18201E-03 9.38445E-03-9.44572E-14-2.41202E-13
 -1      4322 1.98808E+01 2.34784E-01-1.49591E-03 3.61411E-03-1.10611E-13-1.92807E-13
 -1      4323 1.99050E+01 2.06106E-01-8.69793E-04 6.80667E-03-4.40422E-14-2.77261E-13
 -1      4324 1.99232E+01 1.79511E-01-1.11664E-03 2.29703E-03-1.24931E-14-2.92715E-13
 -1      4325 1.99406E+01 1.56188E-01-6.22416E-04 4.86160E-03 1.37883E-13-3.01176E-13
 -1      4326 1.99535E+01 1.34836E-01-8.15843E-04 1.39145E-03 1.38305E-13-4.02675E-13
 -1      4327 1.99656E+01 1.16218E-01-4.32729E-04 3.40134E-03 2.70349E-14-4.80441E-13
 -1      4328 1.99744E+01 9.93789E-02-5.81152E-04 7.75267E-04-1.35229E-14-5.04043E-13
 -1      4329 1.99826E+01 8.47695E-02-2.87204E-04 2.30792E-03-1.32878E-13-5.60806E-13
 -1      4330 1.99883E+01 7.17299E-02-3.85388E-04 3.85199E-04-2.04382E-13-4.18444E-13
 -1      4331 1.99936E+01 6.03509E-02-1.87774E-04 1.54846E-03-7.59204E-14-4.61395E-13
 -1      4332 1.95538E+01 5.50040E-01-1.85704E-03 8.10129E-02 4.27685E-15 2.20419E-13
 -1      4333 1.94836E+01 6.04261E-01-1.34607E-03 9.74416E-02 5.37386E-14 2.94949E-13
 -1      4334 1.91192E+01 8.09646E-01-5.14714E-03 3.70677E-02-8.34557E-14-7.28158E-14
 -1      4335 1.79089E+01 1.32980E+00-3.92697E-03-7.67554E-01 4.47989E-14-1.99180E-13
 -1      4336 1.99973E+01 5.07352E-02-6.98833E-05 2.41691E-04 3.22016E-15-3.21309E-13
 -1      4337 1.69103E+01 1.28067E+00 2.97774E-02-7.90785E-01 1.28949E-14-1.63797E-13
 -1      4338 1.73821E+01 1.05960E+00-4.41537E-03-1.15728E+00 2.36996E-14-1.79510E-13
 -1      4339 1.75649E+01 1.18268E+00-2.35088E-02-9.65067E-01 4.46788E-14-1.90409E-13
 -1      4340 1.59179E+01 1.14314E+00 1.62265E-02 5.35048E-01-1.79391E-14-1.32518E-13
 -1      4341 1.61718E+01 1.17085E+00 1.67749E-03 2.83839E-01-8.33947E-15-1.55286E-13
 -1      4342 1.66309E+01 1.17026E+00-1.02455E-02 3.37603E-01-1.13129E-13-2.66315E-13
 -1      4343 1.73384E+01 1.41068E+00-6.41205E-03-1.56641E-01 2.79642E-14-1.90582E-13
 -1      4344 1.68599E+01 1.31701E+00-1.69924E-02-1.56655E-01 4.08192E-14-2.12669E-13
 -1      4345 1.64075E+01 1.01114E+00-5.69721E-03 9.35740E-01-1.36592E-13-1.34874E-13
 -1      4346 1.61361E+01 1.26492E+00 4.35910E-03 1.67397E-01 8.21279E-14-2.84729E-13
 -1      4347 1.64861E+01 1.23997E+00-5.13792E-03-2.70857E-01 3.75813E-14-2.09867E-13
 -1      4348 1.67161E+01 1.06930E+00-5.69580E-03 7.80826E-01-7.71090E-14-1.65583E-13
 -1      4349 1.95859E+01 5.27136E-01-1.31456E-03 2.21536E-02 5.50271E-14 2.70049E-13
 -1      4350 1.77015E+01 1.12607E+00-1.03485E-02 4.03882E-01-2.15511E-13-3.38096E-13
 -1      4351 1.75063E+01 1.12630E+00-7.85936E-03 4.84982E-01-2.42455E-13-2.33289E-13
 -1      4352 1.76101E+01 1.47558E+00 2.34327E-02-4.58855E-01 4.09128E-14-1.75316E-13
 -1      4353 1.94263E+01 6.49325E-01 1.77780E-03 2.83718E-02-7.04384E-14 3.12886E-13
 -1      4354 1.92404E+01 7.51926E-01-3.38340E-03 4.08493E-02-4.10088E-14-2.16988E-14
 -1      4355 1.99993E+01 4.46089E-02 4.01646E-05-1.18704E-03-8.24708E-15-3.76808E-13
 -1      4356 1.76496E+01 1.51536E+00-1.29051E-02-7.36837E-03 3.51456E-14-1.91356E-13
 -1      4357 1.78229E+01 1.14182E+00-6.91095E-03 1.48135E-01-1.86880E-13-2.98301E-13
 -1      4358 1.72801E+01 1.04100E+00 3.88269E-03 9.03663E-01-2.04164E-13-1.26190E-13
 -1      4359 1.71671E+01 1.14382E+00-1.88990E-03 4.84863E-01-1.84965E-13-1.82093E-13
 -1      4360 2.00014E+01 3.86410E-02 1.59244E-04-2.77217E-04-4.93082E-15-3.25423E-13
 -1      4361 1.70110E+01 1.11961E+00 4.13311E-03 6.73829E-01-2.05589E-13-1.57229E-13
 -3
    1PSTEP                         3           1           1          
  100CL  101 1.000000000        4361                     0    1           1
 -4  TOSTRAIN    6    1
 -5  EXX         1    4    1    1
 -5  EYY         1    4    2    2
 -5  EZZ         1    4    3    3
 -5  EXY         1    4    1    2
 -5  EYZ         1    4    2    3
 -5  EZX         1    4    3    1
 -1         1 6.56827E-05 2.50959E-05-3.71260E-05-8.23407E-05-1.32218E-17 1.53110E-17
 -1         2 3.54762E-05-1.09806E-04 2.00190E-05-3.38977E-07-1.24746E-18 2.71368E-19
 -1         3 9.52380E-05-2.85702E-05-2.85724E-05 1.26697E-09-1.50596E-18-1.52517E-18
 -1         4 9.52380E-05-2.85703E-05-2.85725E-05-1.10863E-09 2.13000E-18-1.02127E-18
 -1         5 1.42023E-04-2.11060E-05-4.24989E-05 3.78356E-05-2.96620E-19 1.92365E-17
 -1         6 1.43750E-04 2.58510E-10-4.41139E-05-5.24033E-05-1.14053E-18 1.57307E-17
 -1         7 9.17238E-05-6.35101E-07-3.93433E-05-2.78566E-05-1.60513E-19 2.03280E-18
 -1         8 8.63980E-05 2.69001E-08-3.67863E-05-1.82841E-05-1.80471E-19-1.95055E-18
 -1         9 8.38357E-05 4.43729E-08-3.57407E-05-1.33010E-05-1.55086E-19-4.02949E-18
 -1        10 8.22845E-05 2.67909E-08-3.50945E-05-9.67381E-06-9.84543E-20-4.94322E-18
 -1        11 8.11680E-05 2.17829E-08-3.46437E-05-6.81705E-06-6.13371E-20-5.27116E-18
 -1        12 8.03503E-05 2.20878E-08-3.43199E-05-4.52822E-06-1.73179E-20-5.35416E-18
 -1        13 7.97856E-05 2.47922E-08-3.40988E-05-2.56521E-06 8.86738E-21-5.26574E-18
 -1        14 7.95024E-05 2.65073E-08-3.39881E-05-8.16860E-07 3.57689E-20-5.11778E-18
 -1        15 7.95108E-05 2.63386E-08-3.39910E-05 8.65476E-07 7.11061E-20-4.86844E-18
 -1        16 7.98088E-05 2.42729E-08-3.41065E-05 2.62953E-06 9.14729E-20-4.63285E-18
 -1        17 8.03838E-05 2.04409E-08-3.43304E-05 4.62364E-06 1.11153E-19-4.21426E-18
 -1        18 8.12033E-05 2.00161E-08-3.46541E-05 6.95198E-06 1.39039E-19-3.55968E-18
 -1        19 8.23184E-05 2.57352E-08-3.51053E-05 9.86419E-06 2.03725E-19-2.57634E-18
 -1        20 8.38566E-05 4.94999E-08-3.57524E-05 1.35558E-05 2.38162E-19-8.99261E-19
 -1        21 8.63545E-05 1.06224E-07-3.68197E-05 1.85256E-05 2.71262E-19 2.10755E-18
 -1        22 9.25736E-05-2.05623E-07-3.90146E-05 2.66496E-05 3.02814E-20 7.64552E-18
 -1        23 1.13597E-04-3.83554E-05-3.56030E-05-4.01375E-06-7.36760E-19 1.19212E-17
 -1        24 9.51881E-05-2.84256E-05-2.96876E-05 4.41511E-07-1.99185E-19 8.68704E-18
 -1        25 9.30030E-05-2.80267E-05-2.80891E-05 3.98024E-07-1.34043E-19 5.33138E-18
 -1        26 9.34962E-05-2.81408E-05-2.80486E-05 2.32820E-07-1.36352E-20 2.95076E-18
 -1        27 9.54077E-05-2.86842E-05-2.86161E-05 1.84161E-07-6.19128E-20 1.29396E-18
 -1        28 9.82243E-05-2.95040E-05-2.94755E-05 1.67362E-07-2.06096E-20 6.43123E-19
 -1        29 1.01701E-04-3.05297E-05-3.05245E-05 1.68688E-07 7.75842E-20 1.01174E-19
 -1        30 1.05631E-04-3.16949E-05-3.16973E-05 1.78317E-07-2.88422E-20-7.39638E-19
 -1        31 1.09723E-04-3.29095E-05-3.29024E-05 1.84524E-07-5.90836E-20-1.98026E-18
 -1        32 1.13498E-04-3.40303E-05-3.39902E-05 1.68527E-07-1.44884E-19-3.21350E-18
 -1        33 1.16213E-04-3.48373E-05-3.47357E-05 1.02013E-07 3.44402E-19-2.77490E-18
 -1        34 1.16875E-04-3.50371E-05-3.48551E-05-4.68846E-08-1.27093E-19-2.36061E-18
 -1        35 1.14476E-04-3.43283E-05-3.40859E-05-2.89932E-07 1.12602E-19-3.08631E-18
 -1        36 1.08539E-04-3.25631E-05-3.23516E-05-5.75569E-07-1.59315E-20-3.24194E-18
 -1        37 9.98984E-05-2.99805E-05-2.99437E-05-7.60756E-07-1.68867E-19-3.04074E-18
 -1        38 9.11058E-05-2.73397E-05-2.75776E-05-6.67664E-07-2.79824E-19-4.57612E-18
 -1        39 8.56898E-05-2.57071E-05-2.61555E-05-2.46596E-07-2.09058E-19-5.34335E-18
 -1        40 8.62058E-05-2.58626E-05-2.62970E-05 3.12678E-07 8.40349E-20-6.41597E-18
 -1        41 9.24885E-05-2.77557E-05-2.79629E-05 7.02452E-07 2.49183E-19-7.03442E-18
 -1        42 1.01773E-04-3.05431E-05-3.04808E-05 7.58035E-07-3.17939E-20-6.07680E-18
 -1        43 1.10572E-04-3.31717E-05-3.29526E-05 5.53734E-07-3.01302E-19-5.02357E-18
 -1        44 1.16534E-04-3.49446E-05-3.47103E-05 2.70750E-07 1.12301E-19-4.05860E-18
 -1        45 1.19029E-04-3.56827E-05-3.55153E-05 4.22938E-08-1.13815E-19-4.27887E-18
 -1        46 1.18639E-04-3.55650E-05-3.54791E-05-8.96238E-08 1.96161E-19-3.87508E-18
 -1        47 1.16397E-04-3.48989E-05-3.48737E-05-1.40697E-07 4.84066E-21-3.32851E-18
 -1        48 1.13264E-04-3.39685E-05-3.39770E-05-1.42686E-07 5.18241E-19-1.92462E-18
 -1        49 1.09930E-04-3.29768E-05-3.29985E-05-1.22011E-07 2.96847E-19-2.41570E-19
 -1        50 1.06802E-04-3.20446E-05-3.20678E-05-9.48299E-08-4.44759E-19-9.54504E-19
 -1        51 1.04076E-04-3.12307E-05-3.12504E-05-6.90870E-08 2.01977E-21-2.01887E-18
 -1        52 1.01815E-04-3.05541E-05-3.05690E-05-4.77747E-08 1.32904E-19-1.28017E-18
 -1        53 1.00005E-04-3.00115E-05-3.00219E-05-3.13947E-08-3.84674E-19-3.58542E-18
 -1        54 9.85975E-05-2.95886E-05-2.95953E-05-1.94081E-08 3.07939E-19-4.22294E-18
 -1        55 9.75291E-05-2.92670E-05-2.92711E-05-1.09664E-08-1.57361E-19-6.71739E-19
 -1        56 9.67369E-05-2.90281E-05-2.90303E-05-5.23047E-09 1.89955E-19-1.11772E-18
 -1        57 9.61634E-05-2.88548E-05-2.88558E-05-1.48521E-09-3.37302E-19-2.20010E-18
 -1        58 9.57591E-05-2.87324E-05-2.87326E-05 8.37020E-10 5.54908E-20-3.29757E-18
 -1        59 9.54831E-05-2.86486E-05-2.86483E-05 2.16866E-09 2.11351E-19-3.29462E-18
 -1        60 9.53024E-05-2.85936E-05-2.85930E-05 2.83048E-09-3.18905E-19-2.62651E-18
 -1        61 9.51912E-05-2.85595E-05-2.85589E-05 3.05608E-09 1.28533E-19-2.94859E-18
 -1        62 9.51295E-05-2.85405E-05-2.85398E-05 3.01295E-09 4.12961E-19-5.30248E-18
 -1        63 9.51021E-05-2.85318E-05-2.85312E-05 2.81911E-09-3.88102E-19-6.78256E-18
 -1        64 9.50979E-05-2.85302E-05-2.85297E-05 2.55592E-09-1.33574E-19-6.39210E-18
 -1        65 9.51087E-05-2.85332E-05-2.85327E-05 2.27742E-09 5.77281E-19-4.17839E-18
 -1        66 9.51286E-05-2.85389E-05-2.85386E-05 2.01674E-09 2.88060E-19-7.74854E-19
 -1        67 9.51532E-05-2.85462E-05-2.85459E-05 1.78861E-09 4.35074E-19-8.96970E-19
 -1        68 9.51793E-05-2.85539E-05-2.85536E-05 1.58612E-09 5.93031E-19 3.05685E-18
 -1        69 9.52041E-05-2.85612E-05-2.85609E-05 1.35726E-09-4.28243E-19 2.05173E-18
 -1        70 9.52244E-05-2.85673E-05-2.85668E-05 8.79380E-10 2.59892E-19 2.15295E-18
 -1        71 9.52364E-05-2.85712E-05-2.85704E-05 5.55801E-11-6.23181E-19 3.37731E-19
 -1        72 1.02929E-04-3.08002E-05-3.43949E-05-2.03047E-06 2.30949E-19 1.80135E-17
 -1        73 9.49535E-05-2.82431E-05-2.96002E-05-3.58353E-07 1.13804E-19 1.45478E-17
 -1        74 9.29462E-05-2.78619E-05-2.81199E-05-1.33884E-07 9.18212E-20 1.18422E-17
 -1        75 9.34304E-05-2.80586E-05-2.80640E-05-1.01973E-07-3.57450E-20 9.97275E-18
 -1        76 9.52651E-05-2.86037E-05-2.85898E-05-9.13850E-08 9.51671E-20 8.75495E-18
 -1        77 9.79496E-05-2.93963E-05-2.93994E-05-9.43667E-08-1.05073E-19 8.08144E-18
 -1        78 1.01218E-04-3.03660E-05-3.03797E-05-1.09045E-07-2.55998E-20 7.61964E-18
 -1        79 1.04835E-04-3.14424E-05-3.14535E-05-1.33022E-07 1.67801E-19 6.44667E-18
 -1        80 1.08484E-04-3.25308E-05-3.25214E-05-1.60922E-07-1.75931E-20 5.45200E-18
 -1        81 1.11684E-04-3.34894E-05-3.34341E-05-1.80077E-07 2.65470E-19 4.66769E-18
 -1        82 1.13739E-04-3.41136E-05-3.39837E-05-1.66641E-07-2.18525E-20 4.19857E-18
 -1        83 1.13787E-04-3.41489E-05-3.39280E-05-8.72693E-08-1.66718E-19 4.87360E-18
 -1        84 1.11044E-04-3.33559E-05-3.30705E-05 8.45702E-08-4.60227E-20 5.19864E-18
 -1        85 1.05279E-04-3.16500E-05-3.13963E-05 3.32299E-07 1.51519E-19 4.40208E-18
 -1        86 9.74061E-05-2.92799E-05-2.92096E-05 5.61359E-07 1.42873E-19 2.76837E-18
 -1        87 8.97072E-05-2.69197E-05-2.71454E-05 6.18936E-07-3.19154E-19 1.99897E-18
 -1        88 8.51325E-05-2.54814E-05-2.59530E-05 4.08704E-07-1.67256E-21 2.90708E-18
 -1        89 8.57261E-05-2.56245E-05-2.61260E-05 5.99473E-09 2.94231E-19 1.07923E-18
 -1        90 9.13015E-05-2.73147E-05-2.76147E-05-3.75249E-07-5.02386E-19 1.82244E-19
 -1        91 9.95699E-05-2.98433E-05-2.98554E-05-5.56718E-07 4.72658E-19 9.55983E-19
 -1        92 1.07607E-04-3.22967E-05-3.20982E-05-5.16693E-07-5.23029E-19 1.09839E-18
 -1        93 1.13340E-04-3.40352E-05-3.37661E-05-3.51415E-07 3.28156E-19 2.65141E-18
 -1        94 1.16086E-04-3.48571E-05-3.46250E-05-1.69284E-07 2.03864E-19-1.34930E-19
 -1        95 1.16218E-04-3.48862E-05-3.47344E-05-3.08153E-08-7.77546E-20-6.36091E-19
 -1        96 1.14566E-04-3.43801E-05-3.43052E-05 5.07468E-08 4.22942E-19 7.88144E-19
 -1        97 1.11966E-04-3.35932E-05-3.35728E-05 8.66935E-08-3.96913E-19 2.21914E-18
 -1        98 1.09053E-04-3.27163E-05-3.27270E-05 9.38216E-08 3.74705E-19 1.16409E-18
 -1        99 1.06233E-04-3.18692E-05-3.18940E-05 8.59130E-08-6.43706E-20-2.51481E-18
 -1       100 1.03720E-04-3.11152E-05-3.11437E-05 7.19285E-08 2.77648E-19-2.02474E-18
 -1       101 1.01598E-04-3.04793E-05-3.05062E-05 5.68550E-08 1.03080E-19-2.43604E-18
 -1       102 9.98772E-05-2.99634E-05-2.99865E-05 4.30811E-08-1.75689E-19-2.19753E-18
 -1       103 9.85240E-05-2.95578E-05-2.95765E-05 3.15102E-08-1.88802E-19-1.67405E-18
 -1       104 9.74883E-05-2.92473E-05-2.92618E-05 2.22827E-08 1.30318E-19 1.00267E-18
 -1       105 9.67151E-05-2.90154E-05-2.90264E-05 1.51926E-08 4.73642E-19 1.72093E-18
 -1       106 9.61523E-05-2.88466E-05-2.88546E-05 9.90692E-09-5.45963E-19 1.55029E-18
 -1       107 9.57540E-05-2.87270E-05-2.87328E-05 6.07350E-09-4.67547E-20-8.96899E-20
 -1       108 9.54812E-05-2.86451E-05-2.86491E-05 3.36987E-09-9.47645E-20-1.78803E-18
 -1       109 9.53022E-05-2.85913E-05-2.85940E-05 1.52158E-09 8.80259E-19-3.41333E-18
 -1       110 9.51917E-05-2.85580E-05-2.85598E-05 3.04917E-10-4.25065E-19-4.31182E-18
 -1       111 9.51304E-05-2.85395E-05-2.85406E-05-4.57625E-10-3.75770E-19-3.29836E-19
 -1       112 9.51031E-05-2.85313E-05-2.85319E-05-9.04264E-10-5.62788E-19 1.24604E-18
 -1       113 9.50989E-05-2.85299E-05-2.85302E-05-1.14113E-09 7.36457E-19 7.67655E-19
 -1       114 9.51097E-05-2.85331E-05-2.85332E-05-1.24872E-09-4.07981E-19-2.78116E-19
 -1       115 9.51295E-05-2.85390E-05-2.85389E-05-1.28744E-09 9.42022E-19-3.11008E-18
 -1       116 9.51541E-05-2.85463E-05-2.85462E-05-1.30085E-09-2.30684E-19-4.50603E-18
 -1       117 9.51802E-05-2.85541E-05-2.85539E-05-1.31331E-09 5.27008E-19-8.12405E-18
 -1       118 9.52049E-05-2.85615E-05-2.85611E-05-1.32021E-09 1.79535E-19-8.33700E-18
 -1       119 9.52250E-05-2.85675E-05-2.85669E-05-1.18428E-09 3.13726E-20-8.96219E-18
 -1       120 9.52364E-05-2.85713E-05-2.85704E-05-3.62917E-10 6.52832E-19-7.08225E-18
 -1       121 9.52375E-05-2.85726E-05-2.85704E-05-1.58667E-10-6.98581E-18-7.89781E-19
 -1       122 9.52410E-05-2.85837E-05-2.85669E-05-9.36931E-10-5.22229E-18-8.03498E-21
 -1       123 9.52464E-05-2.86018E-05-2.85618E-05-1.15944E-09-3.19265E-19 9.93051E-19
 -1       124 9.52523E-05-2.86216E-05-2.85561E-05-1.05594E-09 1.62229E-18 1.29563E-18
 -1       125 9.52577E-05-2.86397E-05-2.85508E-05-8.29916E-10 2.18198E-18-1.33332E-18
 -1       126 9.52619E-05-2.86541E-05-2.85466E-05-5.90511E-10-3.50711E-18 3.43540E-19
 -1       127 9.52650E-05-2.86641E-05-2.85435E-05-3.45319E-10-4.69880E-18 8.66255E-19
 -1       128 9.52665E-05-2.86693E-05-2.85420E-05-1.12835E-10-4.70414E-18 3.93339E-19
 -1       129 9.52665E-05-2.86692E-05-2.85420E-05 1.14031E-10-6.77777E-18-1.47250E-18
 -1       130 9.52649E-05-2.86641E-05-2.85436E-05 3.46461E-10-9.24340E-18 6.59704E-20
 -1       131 9.52619E-05-2.86540E-05-2.85466E-05 6.00640E-10-1.29002E-17-1.01386E-18
 -1       132 9.52576E-05-2.86395E-05-2.85509E-05 8.36533E-10-1.48554E-17 1.79431E-18
 -1       133 9.52522E-05-2.86213E-05-2.85562E-05 1.06085E-09-1.07118E-17-2.77494E-19
 -1       134 9.52463E-05-2.86015E-05-2.85619E-05 1.22977E-09-5.12306E-18 7.79927E-19
 -1       135 9.52410E-05-2.85838E-05-2.85670E-05 1.30486E-09 2.27197E-20 3.86569E-19
 -1       136 9.52379E-05-2.85730E-05-2.85704E-05-1.34333E-10-2.60028E-19 1.07670E-18
 -1       137 2.46142E-05-8.47980E-05 1.51215E-05-2.28790E-05 5.05700E-18 1.82922E-18
 -1       138 7.96002E-06-3.38726E-05 3.19933E-06-1.65402E-05 1.28419E-17 6.79257E-18
 -1       139 1.41948E-05 1.63126E-05-1.64199E-05 2.76263E-05 1.51928E-17 1.18364E-17
 -1       140 6.25507E-05 2.64292E-05-3.65036E-05 8.12288E-05 1.26085E-17 1.51852E-17
 -1       141 1.48307E-04-4.50546E-06-5.52277E-05 1.12520E-04 8.63105E-18 1.56807E-17
 -1       142 2.44772E-04-5.65455E-05-7.02695E-05 9.54546E-05 3.59661E-18 1.10025E-17
 -1       143 3.04262E-04-9.27776E-05-7.81439E-05 3.02769E-05 4.75053E-19 1.71185E-18
 -1       144 2.93247E-04-8.53264E-05-7.69994E-05-5.32178E-05 1.69520E-18-8.85827E-18
 -1       145 2.16212E-04-3.97761E-05-6.63777E-05-1.05323E-04 6.66890E-18-1.71855E-17
 -1       146 1.17517E-04 9.09602E-06-4.93658E-05-1.05878E-04 1.33677E-17-2.04486E-17
 -1       147 4.03370E-05 2.87878E-05-2.96743E-05-6.37479E-05 1.71558E-17-1.75615E-17
 -1       148 5.84893E-06 3.35535E-06-8.98150E-06-7.52067E-06 1.65832E-17-1.11232E-17
 -1       149 1.32886E-05-5.37364E-05 8.22692E-06 2.33654E-05 1.18305E-17-4.80808E-18
 -1       150 3.14937E-05-1.01325E-04 1.84716E-05 1.77153E-05 2.59976E-18-5.85465E-19
 -1       151 3.54500E-05-1.09346E-04 1.97571E-05-9.74484E-06-8.21135E-18-1.11176E-18
 -1       152 1.85972E-05-7.06274E-05 1.20974E-05-2.64342E-05-1.76958E-17-5.54664E-18
 -1       153 5.94390E-06-1.17854E-05-3.95396E-06-3.84431E-06-2.16023E-17-1.26384E-17
 -1       154 2.85031E-05 2.36612E-05-2.38528E-05 4.78657E-05-1.93047E-17-1.73214E-17
 -1       155 1.03182E-04 1.44686E-05-4.63543E-05 1.01412E-04-1.30274E-17-1.75281E-17
 -1       156 2.01832E-04-3.15255E-05-6.41862E-05 1.11946E-04-5.95962E-18-1.42700E-17
 -1       157 2.86409E-04-8.08945E-05-7.59934E-05 6.29205E-05-1.65608E-18-7.58539E-18
 -1       158 3.07103E-04-9.37545E-05-7.87129E-05-1.92976E-05-7.23472E-19 4.19197E-18
 -1       159 2.58354E-04-6.42992E-05-7.22736E-05-8.82267E-05-3.25679E-18 1.25403E-17
 -1       160 1.62413E-04-1.12621E-05-5.77830E-05-1.13282E-04-9.18544E-18 1.71410E-17
 -1       161 1.26734E-05 1.69977E-05-1.61816E-05-2.62653E-05-1.22930E-17 1.04401E-17
 -1       162 6.76883E-06-3.06435E-05 2.37894E-06 1.76161E-05-9.06833E-18 4.05623E-18
 -1       163 2.53042E-05-8.63425E-05 1.53296E-05 2.38805E-05-5.51715E-18 8.73450E-19
 -1       164 9.66496E-05-1.30575E-05-3.60128E-05-2.03258E-05-2.39497E-18 3.21078E-20
 -1       165 9.07511E-05-8.86359E-06-3.52465E-05-1.50753E-05-2.02886E-18-2.34686E-18
 -1       166 8.73467E-05-6.51202E-06-3.47500E-05-1.11555E-05-1.54606E-18-3.66528E-18
 -1       167 8.51418E-05-5.12485E-06-3.43719E-05-8.05480E-06-1.05642E-18-4.22589E-18
 -1       168 8.35551E-05-4.18571E-06-3.40780E-05-5.57882E-06-5.43956E-19-4.41523E-18
 -1       169 8.24224E-05-3.54939E-06-3.38562E-05-3.48340E-06-1.70534E-19-4.43849E-18
 -1       170 8.17455E-05-3.18123E-06-3.37193E-05-1.66465E-06 2.68441E-19-4.23131E-18
 -1       171 8.15304E-05-3.06833E-06-3.36741E-05 2.00738E-08 6.78426E-19-4.12167E-18
 -1       172 8.17798E-05-3.20702E-06-3.37231E-05 1.71269E-06 1.08799E-18-3.95414E-18
 -1       173 8.24861E-05-3.59922E-06-3.38626E-05 3.55395E-06 1.40027E-18-3.64392E-18
 -1       174 8.36164E-05-4.24438E-06-3.40797E-05 5.64530E-06 1.79397E-18-3.16969E-18
 -1       175 8.52348E-05-5.21251E-06-3.43749E-05 8.20366E-06 2.25496E-18-2.43168E-18
 -1       176 8.74746E-05-6.64387E-06-3.47524E-05 1.13706E-05 2.59030E-18-1.24978E-18
 -1       177 9.08870E-05-9.01152E-06-3.52468E-05 1.53397E-05 2.72603E-18 8.23065E-19
 -1       178 9.74931E-05-1.42746E-05-3.58626E-05 1.99554E-05 2.39659E-18 4.27302E-18
 -1       179 1.07034E-04-2.66980E-05-3.55981E-05 1.72384E-05 1.65331E-18 8.73381E-18
 -1       180 1.05314E-04-2.79750E-05-3.31402E-05-1.06109E-05-2.11713E-18 3.20088E-18
 -1       181 1.00008E-04-2.91608E-05-3.03932E-05-3.21363E-06-1.85032E-18 2.23978E-18
 -1       182 9.75832E-05-2.88008E-05-2.94264E-05-1.13848E-07-1.45373E-18 1.46412E-18
 -1       183 9.74221E-05-2.89448E-05-2.93089E-05 1.53021E-06-1.09252E-18 6.70877E-19
 -1       184 9.84785E-05-2.93387E-05-2.96103E-05 2.58748E-06-5.71944E-19 1.45190E-19
 -1       185 1.00357E-04-2.99528E-05-3.01630E-05 3.33904E-06-4.44690E-19-3.14861E-19
 -1       186 1.02795E-04-3.07436E-05-3.08760E-05 3.84419E-06-4.27854E-19-5.29614E-19
 -1       187 1.05562E-04-3.16690E-05-3.16713E-05 4.03975E-06-5.63793E-19-6.61543E-19
 -1       188 1.08382E-04-3.26720E-05-3.24560E-05 3.76461E-06-3.03745E-19-4.55176E-19
 -1       189 1.10878E-04-3.36548E-05-3.31098E-05 2.78753E-06 5.29875E-20-1.94412E-19
 -1       190 1.12550E-04-3.44456E-05-3.34892E-05 8.91365E-07 1.23329E-19-1.02698E-18
 -1       191 1.12812E-04-3.47722E-05-3.34583E-05-1.93640E-06-1.40813E-19-1.00233E-18
 -1       192 1.11171E-04-3.42925E-05-3.29515E-05-5.21464E-06-4.65008E-20-9.30922E-19
 -1       193 1.07573E-04-3.27743E-05-3.20518E-05-7.76183E-06-4.68790E-19-1.04996E-18
 -1       194 1.02842E-04-3.04510E-05-3.10178E-05-7.98704E-06-9.45762E-19-1.24630E-18
 -1       195 9.87668E-05-2.82595E-05-3.02159E-05-4.94504E-06-6.95050E-19-1.45456E-18
 -1       196 9.73411E-05-2.74380E-05-2.99603E-05 4.92771E-07-6.71452E-19-2.09284E-18
 -1       197 9.93921E-05-2.85355E-05-3.03648E-05 5.77508E-06-7.57962E-19-3.14668E-18
 -1       198 1.03910E-04-3.08823E-05-3.12907E-05 8.46868E-06-2.45105E-19-4.04170E-18
 -1       199 1.08862E-04-3.32267E-05-3.24115E-05 7.93780E-06 5.54873E-19-4.13977E-18
 -1       200 1.12558E-04-3.47111E-05-3.33681E-05 5.27509E-06 5.37734E-19-3.57241E-18
 -1       201 1.14300E-04-3.51788E-05-3.39221E-05 2.06223E-06 1.07308E-19-2.70618E-18
 -1       202 1.14215E-04-3.48910E-05-3.40118E-05-6.04500E-07 4.77181E-19-1.76859E-18
 -1       203 1.12819E-04-3.41869E-05-3.37131E-05-2.32406E-06 3.32331E-19-1.29747E-18
 -1       204 1.10678E-04-3.33236E-05-3.31608E-05-3.15850E-06 3.20266E-19-1.29987E-18
 -1       205 1.08250E-04-3.24555E-05-3.24875E-05-3.35196E-06 7.09091E-19-1.71292E-18
 -1       206 1.05848E-04-3.16613E-05-3.17944E-05-3.15768E-06-6.70492E-20-2.18544E-18
 -1       207 1.03652E-04-3.09735E-05-3.11458E-05-2.77021E-06 1.91294E-20-1.07754E-18
 -1       208 1.01750E-04-3.03996E-05-3.05750E-05-2.31671E-06-3.82837E-19-2.94255E-19
 -1       209 1.00163E-04-2.99339E-05-3.00942E-05-1.87054E-06-1.44288E-18-8.02179E-19
 -1       210 9.88797E-05-2.95647E-05-2.97024E-05-1.46863E-06-7.78616E-19-4.21786E-19
 -1       211 9.78669E-05-2.92781E-05-2.93916E-05-1.12558E-06 7.29299E-19-2.18133E-18
 -1       212 9.70854E-05-2.90599E-05-2.91507E-05-8.43435E-07-5.11351E-20-1.76901E-18
 -1       213 9.64952E-05-2.88971E-05-2.89680E-05-6.17795E-07 1.81666E-19-8.76001E-19
 -1       214 9.60588E-05-2.87782E-05-2.88325E-05-4.41452E-07-3.11533E-19-5.94968E-19
 -1       215 9.57438E-05-2.86935E-05-2.87342E-05-3.06419E-07-5.99596E-19-1.09791E-18
 -1       216 9.55224E-05-2.86349E-05-2.86648E-05-2.05006E-07-6.51069E-19-2.72197E-18
 -1       217 9.53719E-05-2.85958E-05-2.86174E-05-1.30320E-07 4.89090E-19-2.26270E-18
 -1       218 9.52743E-05-2.85712E-05-2.85863E-05-7.64495E-08-1.61691E-18-2.52592E-18
 -1       219 9.52150E-05-2.85569E-05-2.85673E-05-3.84889E-08-4.43428E-19-3.12463E-18
 -1       220 9.51832E-05-2.85499E-05-2.85568E-05-1.24735E-08 1.00598E-19-2.18887E-18
 -1       221 9.51705E-05-2.85480E-05-2.85523E-05 4.71488E-09 1.74936E-18-2.65462E-18
 -1       222 9.51704E-05-2.85493E-05-2.85518E-05 1.54488E-08 2.07139E-18-1.16049E-18
 -1       223 9.51784E-05-2.85527E-05-2.85538E-05 2.14421E-08 1.91730E-18-1.15747E-20
 -1       224 9.51908E-05-2.85572E-05-2.85572E-05 2.38119E-08 1.28286E-18-3.12056E-19
 -1       225 9.52049E-05-2.85622E-05-2.85612E-05 2.31084E-08-1.46687E-19-1.32403E-18
 -1       226 9.52184E-05-2.85672E-05-2.85648E-05 1.93205E-08-3.63803E-19-4.77636E-19
 -1       227 9.52298E-05-2.85718E-05-2.85677E-05 1.22055E-08-9.70959E-19 6.80604E-19
 -1       228 1.01777E-04-2.92724E-05-3.12446E-05 5.93801E-06 1.76221E-18 7.57083E-18
 -1       229 9.78063E-05-2.87928E-05-2.95439E-05 1.46935E-06 1.39944E-18 6.04424E-18
 -1       230 9.67505E-05-2.87495E-05-2.90973E-05-5.00177E-07 9.98910E-19 4.93598E-18
 -1       231 9.72754E-05-2.90089E-05-2.92301E-05-1.61797E-06 6.83364E-19 3.95897E-18
 -1       232 9.87891E-05-2.95124E-05-2.96772E-05-2.35067E-06 2.22390E-19 3.50420E-18
 -1       233 1.00951E-04-3.02020E-05-3.03161E-05-2.84055E-06 3.78709E-19 3.03601E-18
 -1       234 1.03503E-04-3.10217E-05-3.10631E-05-3.09355E-06 7.11281E-19 2.72001E-18
 -1       235 1.06175E-04-3.19076E-05-3.18313E-05-3.02912E-06 3.57692E-19 2.46367E-18
 -1       236 1.08624E-04-3.27694E-05-3.25115E-05-2.50410E-06 4.30903E-19 2.31198E-18
 -1       237 1.10397E-04-3.34705E-05-3.29682E-05-1.35588E-06-1.28046E-19 2.45161E-18
 -1       238 1.10964E-04-3.38160E-05-3.30567E-05 4.98008E-07-2.86552E-19 2.57826E-18
 -1       239 1.09831E-04-3.35711E-05-3.26692E-05 2.88876E-06 1.04857E-19 2.21040E-18
 -1       240 1.06808E-04-3.25502E-05-3.18093E-05 5.21344E-06 6.12277E-19 1.79934E-18
 -1       241 1.02343E-04-3.08018E-05-3.06568E-05 6.43938E-06 7.71116E-19 1.82346E-18
 -1       242 9.77255E-05-2.88043E-05-2.95558E-05 5.54199E-06 7.63819E-20 2.02442E-18
 -1       243 9.47714E-05-2.74216E-05-2.88979E-05 2.34979E-06 2.33688E-19 1.40737E-18
 -1       244 9.48721E-05-2.73982E-05-2.89465E-05-1.95679E-06 9.45567E-19 7.25375E-19
 -1       245 9.80568E-05-2.87779E-05-2.96990E-05-5.44300E-06 1.98047E-19 2.78197E-19
 -1       246 1.02962E-04-3.08571E-05-3.08892E-05-6.74770E-06-2.40062E-19 9.71441E-21
 -1       247 1.07767E-04-3.27548E-05-3.21277E-05-5.84546E-06-9.51168E-19 9.84610E-19
 -1       248 1.11161E-04-3.39412E-05-3.30795E-05-3.67487E-06-8.22317E-20 1.52762E-18
 -1       249 1.12689E-04-3.43403E-05-3.35742E-05-1.30384E-06 1.32152E-18 1.36961E-18
 -1       250 1.12548E-04-3.41357E-05-3.36092E-05 5.94639E-07 2.51574E-19 1.02463E-19
 -1       251 1.11225E-04-3.35704E-05-3.32878E-05 1.80098E-06-5.63674E-19-5.90074E-19
 -1       252 1.09237E-04-3.28440E-05-3.27468E-05 2.38149E-06-8.33096E-19 3.50195E-20
 -1       253 1.06999E-04-3.20890E-05-3.21091E-05 2.51028E-06 9.89280E-19 7.63736E-20
 -1       254 1.04792E-04-3.13816E-05-3.14640E-05 2.36310E-06 1.22528E-18-2.15218E-19
 -1       255 1.02780E-04-3.07591E-05-3.08666E-05 2.07579E-06-4.98748E-19-5.26759E-19
 -1       256 1.01041E-04-3.02343E-05-3.03449E-05 1.73870E-06-3.72289E-19 1.18790E-18
 -1       257 9.95949E-05-2.98060E-05-2.99079E-05 1.40528E-06 5.34200E-19 3.16152E-19
 -1       258 9.84292E-05-2.94658E-05-2.95539E-05 1.10330E-06-2.49041E-19-7.40852E-19
 -1       259 9.75138E-05-2.92017E-05-2.92748E-05 8.44417E-07-6.90472E-19-3.07032E-18
 -1       260 9.68117E-05-2.90013E-05-2.90599E-05 6.30841E-07 4.34921E-20-9.53206E-19
 -1       261 9.62856E-05-2.88525E-05-2.88984E-05 4.59776E-07-9.38460E-19-8.70335E-19
 -1       262 9.59005E-05-2.87447E-05-2.87798E-05 3.26085E-07 1.50532E-18-1.45382E-18
 -1       263 9.56260E-05-2.86687E-05-2.86950E-05 2.23873E-07 5.86297E-19-1.58889E-18
 -1       264 9.54364E-05-2.86168E-05-2.86361E-05 1.47347E-07-3.49074E-20-1.47931E-18
 -1       265 9.53106E-05-2.85831E-05-2.85969E-05 9.12520E-08-4.53924E-19-1.26312E-19
 -1       266 9.52318E-05-2.85624E-05-2.85721E-05 5.10524E-08-1.59045E-18 1.47102E-18
 -1       267 9.51869E-05-2.85512E-05-2.85578E-05 2.29695E-08 1.67166E-19 7.09177E-19
 -1       268 9.51659E-05-2.85466E-05-2.85509E-05 3.95085E-09 5.10504E-19-1.31319E-19
 -1       269 9.51611E-05-2.85463E-05-2.85490E-05-8.39379E-09-5.11544E-19 7.62020E-19
 -1       270 9.51668E-05-2.85489E-05-2.85504E-05-1.58616E-08 2.70153E-18 8.09926E-19
 -1       271 9.51789E-05-2.85532E-05-2.85538E-05-1.97180E-08 1.11396E-18-1.65881E-18
 -1       272 9.51940E-05-2.85583E-05-2.85581E-05-2.07208E-08 1.24081E-18-1.64910E-18
 -1       273 9.52096E-05-2.85635E-05-2.85625E-05-1.91488E-08-3.11023E-19-6.59015E-19
 -1       274 9.52232E-05-2.85684E-05-2.85663E-05-1.47710E-08 4.53712E-20 4.49302E-19
 -1       275 9.52332E-05-2.85723E-05-2.85689E-05-7.36772E-09-1.24034E-18-1.55363E-18
 -1       276 9.52370E-05-2.85790E-05-2.85677E-05-1.20980E-08 1.31045E-19 2.98972E-18
 -1       277 9.52417E-05-2.85899E-05-2.85651E-05-1.76961E-08-2.29925E-19 1.24789E-18
 -1       278 9.52465E-05-2.86021E-05-2.85619E-05-1.91948E-08 1.48214E-19 9.85583E-19
 -1       279 9.52508E-05-2.86141E-05-2.85586E-05-1.76434E-08 1.94060E-19 5.99829E-19
 -1       280 9.52542E-05-2.86243E-05-2.85557E-05-1.42871E-08-1.36510E-18-3.15431E-18
 -1       281 9.52568E-05-2.86322E-05-2.85534E-05-9.88180E-09-5.68149E-19-1.78039E-18
 -1       282 9.52583E-05-2.86370E-05-2.85519E-05-5.01484E-09-1.34245E-19 1.94997E-19
 -1       283 9.52588E-05-2.86387E-05-2.85514E-05 1.58616E-11-1.26675E-18-2.31084E-18
 -1       284 9.52583E-05-2.86370E-05-2.85519E-05 5.05053E-09-1.37983E-18-1.42822E-18
 -1       285 9.52568E-05-2.86321E-05-2.85534E-05 9.93004E-09-3.34183E-18-1.81223E-18
 -1       286 9.52543E-05-2.86244E-05-2.85556E-05 1.42850E-08-3.65235E-18-1.72578E-18
 -1       287 9.52508E-05-2.86140E-05-2.85586E-05 1.77047E-08-3.53253E-18 2.66066E-18
 -1       288 9.52465E-05-2.86020E-05-2.85619E-05 1.92504E-08-1.39254E-18 4.49030E-18
 -1       289 9.52415E-05-2.85896E-05-2.85651E-05 1.73952E-08-1.60699E-18 2.83069E-18
 -1       290 9.52363E-05-2.85802E-05-2.85669E-05 1.72407E-08-8.00194E-19-1.62726E-19
 -1       291 1.17155E-05-4.20860E-05 1.05072E-05 9.52828E-06-5.59465E-19 2.78176E-18
 -1       292 2.87776E-05-4.07903E-05 3.15098E-06 2.60851E-05 1.02258E-18 5.58036E-18
 -1       293 5.91535E-05-3.89783E-05-9.97305E-06 3.75685E-05 2.69695E-18 4.53877E-18
 -1       294 9.21357E-05-3.03679E-05-2.67836E-05 4.43714E-05 5.20968E-18 5.77444E-18
 -1       295 1.34771E-04-2.97813E-05-4.37719E-05 4.70006E-05 5.20311E-18 6.18715E-18
 -1       296 1.75310E-04-3.25993E-05-5.85765E-05 3.90442E-05 5.39712E-18 4.84926E-18
 -1       297 2.00909E-04-3.42782E-05-6.81780E-05 1.83183E-05 5.48253E-18 1.98905E-18
 -1       298 2.11843E-04-3.64213E-05-7.15072E-05-3.68314E-06 4.96764E-18-8.73847E-19
 -1       299 1.85499E-04-3.00690E-05-6.45484E-05-1.69747E-05 5.71525E-18-2.28529E-18
 -1       300 1.62072E-04-3.28047E-05-5.36515E-05-3.73750E-05 5.93386E-18-5.30836E-18
 -1       301 1.20392E-04-2.95738E-05-3.81992E-05-4.76708E-05 6.75001E-18-8.13554E-18
 -1       302 7.76373E-05-3.15341E-05-2.05660E-05-4.21885E-05 6.03680E-18-8.11140E-18
 -1       303 4.23881E-05-3.85116E-05-3.91003E-06-2.96658E-05 4.72623E-18-6.04136E-18
 -1       304 2.11717E-05-4.21814E-05 6.72851E-06-2.07283E-05 1.16647E-18-5.44579E-18
 -1       305 1.08327E-05-4.76327E-05 1.25528E-05-2.70449E-06-1.38053E-18-5.26791E-18
 -1       306 1.56147E-05-4.61529E-05 9.99020E-06 1.25591E-05-4.70484E-18-6.18715E-18
 -1       307 3.86603E-05-4.10770E-05-9.11658E-07 3.07139E-05-6.50564E-18-5.86478E-18
 -1       308 7.02414E-05-3.55159E-05-1.59740E-05 3.99758E-05-8.10166E-18-6.32511E-18
 -1       309 1.21451E-04-4.14273E-05-3.40988E-05 3.94422E-05-6.32554E-18-3.61789E-18
 -1       310 1.57049E-04-3.13707E-05-5.19825E-05 4.39467E-05-6.56053E-18-5.28993E-18
 -1       311 1.93844E-04-3.45735E-05-6.50594E-05 3.07189E-05-5.02566E-18-3.42667E-18
 -1       312 1.96682E-04-2.85096E-05-6.95348E-05 4.65440E-06-5.23022E-18-1.37643E-20
 -1       313 2.03137E-04-3.44557E-05-6.91214E-05-1.53977E-05-4.45444E-18 2.02430E-18
 -1       314 1.81249E-04-3.36064E-05-6.05561E-05-3.63538E-05-5.25146E-18 4.85773E-18
 -1       315 1.41078E-04-3.37354E-05-4.48909E-05-4.14769E-05-3.37384E-18 5.19231E-18
 -1       316 9.28293E-05-3.04827E-05-2.69972E-05-4.46946E-05-3.70789E-18 5.64166E-18
 -1       317 5.36960E-05-3.54725E-05-9.61785E-06-3.40703E-05-2.84518E-18 5.09575E-18
 -1       318 2.65857E-05-4.33127E-05 4.24803E-06-2.03440E-05-1.72477E-18 2.29684E-18
 -1       319 1.20605E-05-4.47255E-05 1.11164E-05-8.06577E-06-9.09925E-19 2.39435E-18
 -1       320 9.28772E-05-1.45054E-05-3.36507E-05-1.03460E-05-2.10646E-18-2.08724E-18
 -1       321 9.76710E-05-1.97067E-05-3.34719E-05-1.21960E-05-2.46688E-18-6.92423E-19
 -1       322 8.71073E-05-9.21049E-06-3.34349E-05-5.73501E-06-1.01340E-18-3.31966E-18
 -1       323 8.53084E-05-7.72896E-06-3.32895E-05-3.80992E-06-4.38668E-19-3.44592E-18
 -1       324 8.41151E-05-6.78852E-06-3.31759E-05-2.16398E-06 1.03394E-19-3.26512E-18
 -1       325 8.35313E-05-6.34193E-06-3.31147E-05-6.92015E-07 6.20434E-19-3.19289E-18
 -1       326 8.35628E-05-6.37065E-06-3.31160E-05 7.27493E-07 1.10761E-18-3.10235E-18
 -1       327 8.42054E-05-6.87211E-06-3.31791E-05 2.21900E-06 1.52772E-18-2.91509E-18
 -1       328 8.54189E-05-7.83860E-06-3.32903E-05 3.86854E-06 1.97285E-18-2.43819E-18
 -1       329 8.72462E-05-9.35678E-06-3.34318E-05 5.82104E-06 2.47433E-18-1.90991E-18
 -1       330 8.97448E-05-1.15743E-05-3.35658E-05 8.07925E-06 2.84644E-18-1.17183E-18
 -1       331 9.31713E-05-1.48772E-05-3.36328E-05 1.04937E-05 3.07809E-18 1.67090E-19
 -1       332 9.77536E-05-2.00547E-05-3.34027E-05 1.20174E-05 2.88872E-18 2.39966E-18
 -1       333 1.00976E-04-2.51648E-05-3.25711E-05 9.95143E-06 2.48062E-18 4.37783E-18
 -1       334 9.93106E-05-2.76211E-05-3.06913E-05 3.65537E-06 2.10607E-18 3.51246E-18
 -1       335 9.92199E-05-2.66720E-05-3.10447E-05-3.68731E-06-1.92358E-18-2.53020E-19
 -1       336 9.85241E-05-2.77776E-05-3.02917E-05 2.76665E-07-1.62389E-18-3.12986E-19
 -1       337 9.85715E-05-2.83859E-05-3.00616E-05 2.79436E-06-1.13145E-18-3.55973E-19
 -1       338 9.93008E-05-2.89387E-05-3.01453E-05 4.54619E-06-6.79318E-19-5.40559E-19
 -1       339 1.00600E-04-2.95978E-05-3.04250E-05 5.78555E-06-4.57132E-19-5.78454E-19
 -1       340 1.02367E-04-3.04559E-05-3.08190E-05 6.54573E-06-4.94111E-19-6.91001E-19
 -1       341 1.04514E-04-3.15892E-05-3.12586E-05 6.69635E-06-3.47834E-20-2.44352E-19
 -1       342 1.06941E-04-3.30466E-05-3.16807E-05 5.97286E-06-1.30549E-19-2.64439E-19
 -1       343 1.09482E-04-3.47791E-05-3.20344E-05 4.03609E-06-2.33512E-19-2.65242E-19
 -1       344 1.11809E-04-3.64993E-05-3.22989E-05 6.33864E-07 8.66885E-22-2.56155E-19
 -1       345 1.13325E-04-3.75290E-05-3.25060E-05-4.06291E-06-2.17383E-21-1.47012E-19
 -1       346 1.13216E-04-3.68479E-05-3.27396E-05-8.98750E-06-1.21458E-19-1.43455E-19
 -1       347 1.10939E-04-3.37267E-05-3.30943E-05-1.19286E-05-1.01487E-18 1.51546E-19
 -1       348 1.07213E-04-2.89740E-05-3.35370E-05-1.03543E-05-6.70463E-19-2.24919E-19
 -1       349 1.04351E-04-2.53557E-05-3.38672E-05-3.65996E-06-1.38632E-18-8.72824E-19
 -1       350 1.04642E-04-2.56252E-05-3.38753E-05 5.17910E-06-1.75837E-18-1.96539E-18
 -1       351 1.07921E-04-2.95837E-05-3.35781E-05 1.13992E-05-7.94603E-19-2.32345E-18
 -1       352 1.11761E-04-3.43064E-05-3.32002E-05 1.24057E-05-2.34475E-19-2.69176E-18
 -1       353 1.13982E-04-3.71881E-05-3.29255E-05 9.16013E-06 7.42815E-19-2.85139E-18
 -1       354 1.14068E-04-3.76705E-05-3.27641E-05 4.24721E-06 1.20700E-18-3.09742E-18
 -1       355 1.12634E-04-3.65722E-05-3.26205E-05-2.47322E-07 9.67949E-19-2.71394E-18
 -1       356 1.10479E-04-3.48955E-05-3.24106E-05-3.39680E-06 6.59987E-19-2.20926E-18
 -1       357 1.08152E-04-3.32694E-05-3.21033E-05-5.12488E-06 5.63257E-19-2.41242E-18
 -1       358 1.05932E-04-3.19439E-05-3.17141E-05-5.73796E-06 5.99196E-19-2.47466E-18
 -1       359 1.03935E-04-3.09498E-05-3.12798E-05-5.61827E-06 3.04640E-19-2.04415E-18
 -1       360 1.02196E-04-3.02329E-05-3.08391E-05-5.08808E-06 6.01251E-19-1.54361E-18
 -1       361 1.00716E-04-2.97235E-05-3.04217E-05-4.37556E-06 7.56209E-21-1.74047E-18
 -1       362 9.94800E-05-2.93624E-05-3.00464E-05-3.62430E-06-5.43631E-19-1.52077E-18
 -1       363 9.84669E-05-2.91062E-05-2.97222E-05-2.91534E-06-1.37702E-18-1.37114E-18
 -1       364 9.76510E-05-2.89242E-05-2.94509E-05-2.28816E-06-2.58761E-20-2.70092E-20
 -1       365 9.70052E-05-2.87956E-05-2.92298E-05-1.75670E-06-2.82403E-19-1.26756E-18
 -1       366 9.65032E-05-2.87054E-05-2.90538E-05-1.32036E-06 4.46059E-19-1.88501E-18
 -1       367 9.61198E-05-2.86434E-05-2.89166E-05-9.71001E-07-7.74959E-19-1.71771E-18
 -1       368 9.58326E-05-2.86018E-05-2.88117E-05-6.97188E-07-8.80480E-19-2.84342E-18
 -1       369 9.56219E-05-2.85750E-05-2.87333E-05-4.86723E-07-1.27180E-18-1.49117E-18
 -1       370 9.54710E-05-2.85588E-05-2.86758E-05-3.27954E-07-3.46895E-19-1.87484E-18
 -1       371 9.53660E-05-2.85500E-05-2.86348E-05-2.10443E-07 4.15011E-20-2.98726E-18
 -1       372 9.52958E-05-2.85464E-05-2.86064E-05-1.25213E-07-9.12924E-19-1.39337E-18
 -1       373 9.52511E-05-2.85461E-05-2.85876E-05-6.47926E-08-5.93438E-19-1.54567E-18
 -1       374 9.52251E-05-2.85481E-05-2.85757E-05-2.31325E-08 8.54923E-19-1.94976E-18
 -1       375 9.52122E-05-2.85514E-05-2.85688E-05 4.52243E-09 3.04908E-18-9.53773E-19
 -1       376 9.52083E-05-2.85555E-05-2.85654E-05 2.17771E-08 3.15249E-18 4.15875E-19
 -1       377 9.52102E-05-2.85601E-05-2.85643E-05 3.12186E-08 1.25430E-18 3.29371E-19
 -1       378 9.52157E-05-2.85651E-05-2.85645E-05 3.45248E-08-1.16971E-18-5.08999E-19
 -1       379 9.52227E-05-2.85705E-05-2.85653E-05 3.26779E-08 8.45495E-20 3.64389E-19
 -1       380 9.52293E-05-2.85753E-05-2.85661E-05 2.66750E-08 2.78824E-19 1.02662E-19
 -1       381 9.82358E-05-2.83387E-05-2.99157E-05 9.32190E-08 1.59126E-18 2.82001E-18
 -1       382 9.81806E-05-2.87438E-05-2.97344E-05-2.04715E-06 1.10954E-18 2.04711E-18
 -1       383 9.89944E-05-2.92127E-05-2.98943E-05-3.45169E-06 5.62406E-19 1.47591E-18
 -1       384 1.00442E-04-2.98195E-05-3.02616E-05-4.38684E-06 4.07000E-19 1.18410E-18
 -1       385 1.02333E-04-3.05856E-05-3.07488E-05-4.90344E-06 7.31208E-19 1.19332E-18
 -1       386 1.04487E-04-3.15144E-05-3.12789E-05-4.91138E-06 4.57762E-19 1.30578E-18
 -1       387 1.06695E-04-3.25828E-05-3.17727E-05-4.22143E-06 4.52893E-19 1.53050E-18
 -1       388 1.08678E-04-3.37014E-05-3.21484E-05-2.60643E-06-4.45883E-20 1.74643E-18
 -1       389 1.10057E-04-3.46525E-05-3.23343E-05 6.55127E-08-2.84535E-19 1.51370E-18
 -1       390 1.10361E-04-3.50415E-05-3.22954E-05 3.59571E-06 4.60612E-19 1.24499E-18
 -1       391 1.09155E-04-3.43618E-05-3.20597E-05 7.17851E-06 7.06265E-19 1.23860E-18
 -1       392 1.06378E-04-3.23231E-05-3.17345E-05 9.33573E-06 7.23293E-19 1.59189E-18
 -1       393 1.02775E-04-2.93698E-05-3.14536E-05 8.43822E-06 5.91583E-20 1.62257E-18
 -1       394 1.00004E-04-2.69387E-05-3.13041E-05 3.98354E-06 6.98753E-19 1.06747E-18
 -1       395 9.96908E-05-2.65632E-05-3.13264E-05-2.43045E-06 1.12173E-18 7.49144E-20
 -1       396 1.02111E-04-2.85297E-05-3.15207E-05-7.82229E-06 8.30360E-19 1.17794E-19
 -1       397 1.05913E-04-3.15676E-05-3.18540E-05-9.95027E-06-7.73389E-19-2.38542E-19
 -1       398 1.09311E-04-3.40733E-05-3.22476E-05-8.68130E-06-1.18454E-18 2.32213E-19
 -1       399 1.11245E-04-3.52492E-05-3.25834E-05-5.43012E-06-4.26165E-19 1.69588E-19
 -1       400 1.11591E-04-3.52125E-05-3.27535E-05-1.82946E-06 1.20559E-18 7.75890E-19
 -1       401 1.10731E-04-3.44596E-05-3.27070E-05 1.08685E-06 1.10038E-18 1.34895E-18
 -1       402 1.09152E-04-3.34465E-05-3.24595E-05 2.96973E-06-6.35766E-19 4.39052E-19
 -1       403 1.07247E-04-3.24442E-05-3.20665E-05 3.90154E-06-5.45215E-19-7.20789E-20
 -1       404 1.05282E-04-3.15689E-05-3.15946E-05 4.13198E-06 7.76330E-19-2.93617E-19
 -1       405 1.03421E-04-3.08494E-05-3.11017E-05 3.92164E-06 1.88155E-18 8.98107E-19
 -1       406 1.01752E-04-3.02763E-05-3.06297E-05 3.47777E-06-3.94366E-19 8.80403E-19
 -1       407 1.00312E-04-2.98280E-05-3.02039E-05 2.94249E-06-4.77506E-19 1.47316E-18
 -1       408 9.91084E-05-2.94817E-05-2.98363E-05 2.40297E-06 1.50598E-18 1.71834E-18
 -1       409 9.81281E-05-2.92174E-05-2.95296E-05 1.90678E-06 8.33958E-19 6.11202E-20
 -1       410 9.73478E-05-2.90183E-05-2.92809E-05 1.47562E-06 3.01152E-19-8.63254E-19
 -1       411 9.67397E-05-2.88705E-05-2.90842E-05 1.11552E-06-1.24977E-18 1.86451E-19
 -1       412 9.62757E-05-2.87627E-05-2.89320E-05 8.23737E-07-7.96527E-20 6.70586E-19
 -1       413 9.59289E-05-2.86857E-05-2.88168E-05 5.93129E-07 1.69721E-18 2.59457E-19
 -1       414 9.56757E-05-2.86322E-05-2.87316E-05 4.14829E-07 6.25246E-19 1.09551E-19
 -1       415 9.54955E-05-2.85963E-05-2.86701E-05 2.79781E-07-2.60898E-19 8.94254E-20
 -1       416 9.53713E-05-2.85734E-05-2.86269E-05 1.79560E-07-8.48239E-19-5.85316E-19
 -1       417 9.52892E-05-2.85597E-05-2.85978E-05 1.06754E-07-2.65691E-18 3.84069E-19
 -1       418 9.52380E-05-2.85528E-05-2.85790E-05 5.50965E-08 9.24405E-19 1.50950E-18
 -1       419 9.52092E-05-2.85503E-05-2.85679E-05 1.94585E-08-4.42055E-20 1.98651E-18
 -1       420 9.51961E-05-2.85509E-05-2.85621E-05-4.22867E-09 9.76443E-20 1.80703E-18
 -1       421 9.51936E-05-2.85535E-05-2.85599E-05-1.90713E-08 2.69716E-18 2.10830E-19
 -1       422 9.51979E-05-2.85573E-05-2.85602E-05-2.73210E-08 1.57211E-18 1.09725E-18
 -1       423 9.52061E-05-2.85618E-05-2.85618E-05-3.04214E-08 5.24736E-19 1.16470E-18
 -1       424 9.52159E-05-2.85667E-05-2.85639E-05-2.91213E-08-3.22046E-19 2.95949E-18
 -1       425 9.52258E-05-2.85719E-05-2.85660E-05-2.36551E-08-8.32116E-20 3.67114E-18
 -1       426 9.52319E-05-2.85757E-05-2.85670E-05-1.86177E-08 7.35946E-19 3.33898E-18
 -1       427 9.52466E-05-2.85965E-05-2.85643E-05-2.91753E-08 2.25004E-19-2.24942E-19
 -1       428 9.52411E-05-2.85885E-05-2.85654E-05-2.97929E-08 4.85644E-19 1.80776E-18
 -1       429 9.52363E-05-2.85823E-05-2.85660E-05-2.59283E-08-1.52469E-19 5.76457E-19
 -1       430 9.52504E-05-2.86031E-05-2.85631E-05-2.50871E-08-2.27228E-18-4.43648E-18
 -1       431 9.52530E-05-2.86081E-05-2.85620E-05-1.88863E-08 6.17725E-19-1.49898E-19
 -1       432 9.52545E-05-2.86115E-05-2.85612E-05-1.16162E-08 2.15103E-18-3.75335E-19
 -1       433 9.52551E-05-2.86132E-05-2.85608E-05-3.89808E-09-2.97532E-19-2.14146E-18
 -1       434 9.52552E-05-2.86132E-05-2.85608E-05 3.93976E-09-1.28692E-18-2.99200E-18
 -1       435 9.52545E-05-2.86115E-05-2.85612E-05 1.16727E-08-1.48630E-18-2.26483E-18
 -1       436 9.52531E-05-2.86082E-05-2.85620E-05 1.88495E-08-2.39495E-19-1.69414E-18
 -1       437 9.52505E-05-2.86032E-05-2.85631E-05 2.50978E-08 1.53089E-18 2.58503E-18
 -1       438 9.52465E-05-2.85965E-05-2.85643E-05 2.92694E-08 1.96568E-18 4.70721E-18
 -1       439 9.52410E-05-2.85885E-05-2.85654E-05 3.01699E-08 2.84629E-19 3.12064E-18
 -1       440 6.04273E-05-4.17627E-05-8.04162E-06 4.31277E-05-1.60089E-18 3.49536E-18
 -1       441 1.17675E-05-2.23119E-05 4.29263E-06-3.81497E-07-7.00323E-19 1.86845E-18
 -1       442 2.66061E-05-2.66601E-05 3.41600E-08 2.82986E-05-1.82297E-18 5.09935E-18
 -1       443 1.04859E-04-5.44458E-05-2.15984E-05 3.91056E-05-4.79527E-19 2.14400E-18
 -1       444 1.31627E-04-5.16455E-05-3.42693E-05 2.77686E-05 1.23534E-18 1.29893E-18
 -1       445 8.96205E-05-1.14029E-05-3.35816E-05-8.04920E-06-1.60871E-18-2.95782E-18
 -1       446 1.58297E-04-2.58591E-05-5.66150E-05-3.06678E-07 4.43337E-18-1.93611E-18
 -1       447 1.55222E-04-1.24496E-05-6.11814E-05-2.05091E-06 5.15600E-18-7.80647E-19
 -1       448 1.52000E-04-1.30461E-05-5.97856E-05 2.17362E-06 5.49301E-18-1.69433E-19
 -1       449 1.56526E-04-3.16421E-05-5.34567E-05-1.98868E-06 4.14813E-18 2.90109E-19
 -1       450 1.46159E-04-4.76582E-05-4.21521E-05-1.67399E-05 2.90130E-18-2.46275E-19
 -1       451 1.23933E-04-5.54510E-05-2.93479E-05-3.19228E-05 9.40418E-19-2.24898E-18
 -1       452 8.40846E-05-4.93193E-05-1.51228E-05-4.34778E-05 6.23840E-19-4.97306E-18
 -1       453 4.84467E-05-3.84408E-05-4.47773E-06-4.03279E-05-4.57398E-20-4.98669E-18
 -1       454 1.70144E-05-2.48200E-05 3.18517E-06-1.70507E-05-4.33257E-19-6.23024E-18
 -1       455 1.40944E-05-2.28257E-05 3.59375E-06 1.00302E-05-6.51951E-19-6.46201E-18
 -1       456 3.51534E-05-3.12839E-05-1.72268E-06 3.44907E-05-4.88103E-19-5.42334E-18
 -1       457 7.65712E-05-4.79685E-05-1.23793E-05 4.39863E-05-2.02314E-18-2.95082E-18
 -1       458 1.14007E-04-5.56799E-05-2.50504E-05 3.61771E-05-2.32489E-18-1.26600E-18
 -1       459 1.46648E-04-4.82903E-05-4.21183E-05 1.48112E-05-3.94267E-18 7.36495E-19
 -1       460 1.58236E-04-3.43067E-05-5.28710E-05 5.42341E-06-4.30478E-18 2.69674E-19
 -1       461 1.56580E-04-1.83274E-05-5.92319E-05-2.96063E-06-4.89977E-18 3.19226E-19
 -1       462 1.51126E-04-1.14533E-05-6.00741E-05 2.72148E-06-5.24631E-18-6.06687E-19
 -1       463 1.61923E-04-2.47647E-05-5.84987E-05-6.35224E-07-3.83102E-18-2.14405E-19
 -1       464 1.53948E-04-4.03470E-05-4.85936E-05-4.90713E-06-2.14495E-18-6.58886E-19
 -1       465 1.33591E-04-5.42501E-05-3.40425E-05-2.53452E-05 2.68033E-19 1.71185E-18
 -1       466 9.85653E-05-5.19521E-05-2.01279E-05-4.03419E-05 4.25211E-19 2.72538E-18
 -1       467 5.96703E-05-4.22385E-05-7.65150E-06-4.23041E-05 6.12511E-19 3.56278E-18
 -1       468 2.65297E-05-2.92998E-05 9.54977E-07-2.85362E-05 9.27183E-19 1.28273E-18
 -1       469 1.51912E-04-4.19869E-05-4.69867E-05 1.00390E-05 2.58820E-18-1.09733E-18
 -1       470 1.36666E-04-5.90154E-05-3.33881E-05 1.80040E-05-2.02634E-18 2.38434E-18
 -1       471 3.83069E-05-2.65265E-05-4.61545E-06-3.32846E-05-1.09606E-18-5.29671E-18
 -1       472 1.40272E-04-1.90201E-05-5.24862E-05 9.70478E-06 4.28112E-18 8.26545E-19
 -1       473 9.82516E-05-2.55266E-05-3.11529E-05 2.89743E-06 2.18157E-18 1.19249E-18
 -1       474 8.65191E-05-1.05958E-05-3.25539E-05-2.04864E-06-1.16530E-19-2.99233E-18
 -1       475 8.82796E-05-1.22144E-05-3.26169E-05-3.26568E-06-6.76846E-19-2.99160E-18
 -1       476 8.51343E-05-9.37585E-06-3.24813E-05-1.49534E-08 8.10568E-19-2.85480E-18
 -1       477 8.55457E-05-9.74137E-06-3.25015E-05 9.71514E-07 1.24826E-18-2.68648E-18
 -1       478 8.66480E-05-1.07294E-05-3.25523E-05 2.04906E-06 1.63797E-18-2.41809E-18
 -1       479 8.84391E-05-1.23896E-05-3.26112E-05 3.31248E-06 2.18118E-18-1.79736E-18
 -1       480 9.08635E-05-1.47707E-05-3.26330E-05 4.71768E-06 2.47558E-18-1.29145E-18
 -1       481 9.39540E-05-1.80592E-05-3.25462E-05 6.10840E-06 2.72858E-18-5.23724E-19
 -1       482 9.81642E-05-2.69842E-05-3.04862E-05-7.96135E-07 1.75125E-18 8.75117E-19
 -1       483 9.74573E-05-2.44217E-05-3.12903E-05-2.22054E-06-1.68335E-18-1.25919E-18
 -1       484 1.41320E-04-5.43801E-05-3.75107E-05 5.35848E-06-8.89610E-19-3.37204E-18
 -1       485 9.77035E-05-2.61351E-05-3.06624E-05 1.43165E-06-1.28324E-18-1.07528E-18
 -1       486 9.79762E-05-2.71359E-05-3.03546E-05 4.15441E-06-9.60671E-19-8.31542E-19
 -1       487 9.85381E-05-2.79282E-05-3.02584E-05 6.19867E-06-5.14754E-19-8.29426E-19
 -1       488 9.94971E-05-2.88141E-05-3.02916E-05 7.69580E-06-3.90455E-19-6.77196E-19
 -1       489 1.00947E-04-3.00305E-05-3.03938E-05 8.62337E-06-3.41290E-19-4.49103E-19
 -1       490 1.03016E-04-3.17990E-05-3.05254E-05 8.80574E-06-6.79821E-20-6.83516E-19
 -1       491 1.05848E-04-3.42802E-05-3.06791E-05 7.91429E-06 1.38218E-20-4.29758E-19
 -1       492 1.09486E-04-3.74023E-05-3.09044E-05 5.50051E-06 1.12186E-19-1.09672E-19
 -1       493 1.13602E-04-4.05239E-05-3.13343E-05 1.16501E-06 4.64699E-19 5.10501E-19
 -1       494 1.17148E-04-4.21053E-05-3.21814E-05-4.94589E-06 2.07904E-20 9.97251E-19
 -1       495 1.18387E-04-3.99541E-05-3.36319E-05-1.12617E-05-6.98620E-19 6.54876E-19
 -1       496 1.15846E-04-3.28025E-05-3.56597E-05-1.41793E-05-1.79404E-18 3.22309E-19
 -1       497 1.11231E-04-2.38868E-05-3.75531E-05-9.82460E-06-2.00553E-18-1.26998E-18
 -1       498 1.09051E-04-1.99963E-05-3.82999E-05 1.05387E-06-2.35727E-18-1.38634E-18
 -1       499 1.11818E-04-2.47603E-05-3.74193E-05 1.14618E-05-1.43600E-18-1.62253E-18
 -1       500 1.16497E-04-3.38127E-05-3.54963E-05 1.49280E-05-5.13347E-19-2.05024E-18
 -1       501 1.18676E-04-4.04161E-05-3.35636E-05 1.14435E-05 2.57035E-19-1.90395E-18
 -1       502 1.17207E-04-4.20804E-05-3.22145E-05 5.07302E-06 1.03989E-18-2.22260E-18
 -1       503 1.13603E-04-4.02273E-05-3.14609E-05-7.89227E-07 1.35644E-18-1.99336E-18
 -1       504 1.09595E-04-3.70786E-05-3.10894E-05-4.80979E-06 1.33360E-18-1.39715E-18
 -1       505 1.06124E-04-3.40729E-05-3.08858E-05-6.97875E-06 5.98927E-19-1.66790E-18
 -1       506 1.03437E-04-3.17672E-05-3.07189E-05-7.75160E-06 5.90589E-19-1.60986E-18
 -1       507 1.01448E-04-3.02069E-05-3.05327E-05-7.61916E-06 2.65454E-19-2.24639E-18
 -1       508 9.99836E-05-2.92408E-05-3.03176E-05-6.97044E-06 9.41485E-20-2.51950E-18
 -1       509 9.88881E-05-2.86877E-05-3.00844E-05-6.07692E-06-2.87707E-19-3.49786E-18
 -1       510 9.80500E-05-2.83984E-05-2.98489E-05-5.11323E-06 5.99600E-19-2.71632E-18
 -1       511 9.73965E-05-2.82679E-05-2.96248E-05-4.18315E-06-2.88209E-19-1.92912E-18
 -1       512 9.68814E-05-2.82278E-05-2.94214E-05-3.34208E-06-4.78830E-19-1.16162E-18
 -1       513 9.64744E-05-2.82363E-05-2.92435E-05-2.61413E-06-3.35203E-19-1.37747E-18
 -1       514 9.61541E-05-2.82683E-05-2.90928E-05-2.00418E-06-1.01514E-18-1.03204E-18
 -1       515 9.59042E-05-2.83097E-05-2.89682E-05-1.50613E-06-4.09543E-19-2.34420E-18
 -1       516 9.57119E-05-2.83526E-05-2.88676E-05-1.10821E-06-1.03658E-18-1.90032E-18
 -1       517 9.55660E-05-2.83929E-05-2.87880E-05-7.96436E-07-3.91833E-19-2.98357E-19
 -1       518 9.54575E-05-2.84287E-05-2.87262E-05-5.56610E-07-6.79237E-19 8.08114E-20
 -1       519 9.53784E-05-2.84595E-05-2.86793E-05-3.75450E-07-5.06922E-19-6.39441E-19
 -1       520 9.53223E-05-2.84852E-05-2.86443E-05-2.41138E-07 1.30314E-19-6.03246E-19
 -1       521 9.52837E-05-2.85062E-05-2.86188E-05-1.43545E-07-9.95359E-20 1.19617E-20
 -1       522 9.52582E-05-2.85232E-05-2.86006E-05-7.42511E-08 9.19325E-19 1.05095E-18
 -1       523 9.52425E-05-2.85368E-05-2.85881E-05-2.64535E-08 2.72897E-18 2.20086E-18
 -1       524 9.52338E-05-2.85478E-05-2.85797E-05 5.18185E-09 2.27519E-18 2.13255E-18
 -1       525 9.52300E-05-2.85569E-05-2.85742E-05 2.46900E-08 1.18941E-18 6.79478E-19
 -1       526 9.52297E-05-2.85648E-05-2.85707E-05 3.49501E-08 4.78832E-19-1.67298E-18
 -1       527 9.52317E-05-2.85722E-05-2.85684E-05 3.78779E-08 4.56214E-19 1.16782E-18
 -1       528 9.90206E-05-2.85780E-05-3.01848E-05-5.15567E-06 6.34533E-19 1.94997E-19
 -1       529 1.00105E-04-2.93848E-05-3.03073E-05-6.37002E-06 5.65081E-19 9.97219E-20
 -1       530 1.01626E-04-3.04329E-05-3.05130E-05-6.98810E-06 4.69700E-19 2.01618E-19
 -1       531 1.03580E-04-3.18412E-05-3.07502E-05-6.86009E-06 2.15966E-19 3.30178E-19
 -1       532 1.05942E-04-3.36595E-05-3.09876E-05-5.72505E-06 1.03821E-19 7.71311E-19
 -1       533 1.08586E-04-3.57572E-05-3.12256E-05-3.28749E-06-1.06565E-19 6.33994E-19
 -1       534 1.11133E-04-3.76425E-05-3.15119E-05 5.93629E-07 4.38072E-19 2.46759E-19
 -1       535 1.12836E-04-3.83451E-05-3.19394E-05 5.53378E-06-6.52695E-20 3.85503E-19
 -1       536 1.12762E-04-3.67017E-05-3.25955E-05 1.01332E-05 4.17035E-19 1.15358E-18
 -1       537 1.10289E-04-3.21084E-05-3.35170E-05 1.20596E-05 6.02871E-19 1.37320E-18
 -1       538 1.06663E-04-2.64194E-05-3.44125E-05 8.89851E-06 8.88753E-19 9.28039E-19
 -1       539 1.04547E-04-2.32284E-05-3.48705E-05 1.04336E-06 1.33031E-18 4.33390E-19
 -1       540 1.05845E-04-2.50366E-05-3.46545E-05-7.57882E-06 1.31161E-18 9.68743E-19
 -1       541 1.09455E-04-3.04106E-05-3.38969E-05-1.23587E-05-2.02148E-19 8.95689E-19
 -1       542 1.12625E-04-3.56482E-05-3.30063E-05-1.18678E-05-6.62850E-19 5.06590E-19
 -1       543 1.13551E-04-3.82145E-05-3.22991E-05-7.84546E-06-8.67191E-19-7.11416E-20
 -1       544 1.12436E-04-3.81437E-05-3.18539E-05-2.88816E-06 1.90170E-19-3.88405E-20
 -1       545 1.10182E-04-3.65244E-05-3.15820E-05 1.29289E-06 9.16589E-19 9.60609E-20
 -1       546 1.07652E-04-3.44750E-05-3.13727E-05 4.08814E-06 2.88626E-19 6.04213E-19
 -1       547 1.05306E-04-3.26279E-05-3.11545E-05 5.56433E-06 2.76300E-19-4.91879E-19
 -1       548 1.03299E-04-3.12023E-05-3.09016E-05 6.03908E-06 7.30935E-19-9.71920E-19
 -1       549 1.01639E-04-3.01967E-05-3.06185E-05 5.85745E-06 5.38653E-19-7.91557E-19
 -1       550 1.00282E-04-2.95264E-05-3.03223E-05 5.30290E-06 3.56241E-19 7.29305E-19
 -1       551 9.91760E-05-2.90968E-05-3.00317E-05 4.57778E-06-8.79887E-19 3.25950E-19
 -1       552 9.82782E-05-2.88295E-05-2.97612E-05 3.81311E-06 1.79866E-19 8.47437E-20
 -1       553 9.75538E-05-2.86683E-05-2.95200E-05 3.08610E-06 1.41393E-18 1.30213E-18
 -1       554 9.69748E-05-2.85747E-05-2.93122E-05 2.43676E-06 3.13657E-19 2.30571E-18
 -1       555 9.65175E-05-2.85237E-05-2.91384E-05 1.88117E-06-9.14376E-19 2.51051E-18
 -1       556 9.61612E-05-2.84991E-05-2.89966E-05 1.42091E-06 4.36033E-19 8.37635E-19
 -1       557 9.58880E-05-2.84906E-05-2.88834E-05 1.04945E-06 1.28387E-18 7.43403E-19
 -1       558 9.56821E-05-2.84915E-05-2.87951E-05 7.56315E-07 1.01736E-18 1.36371E-18
 -1       559 9.55300E-05-2.84976E-05-2.87275E-05 5.29668E-07 7.45264E-19 8.47601E-19
 -1       560 9.54201E-05-2.85063E-05-2.86768E-05 3.57834E-07-1.07401E-18 1.02703E-18
 -1       561 9.53429E-05-2.85159E-05-2.86398E-05 2.30108E-07-1.65305E-18 1.70092E-18
 -1       562 9.52905E-05-2.85254E-05-2.86133E-05 1.37135E-07-1.40275E-18 4.67611E-19
 -1       563 9.52566E-05-2.85344E-05-2.85951E-05 7.10328E-08 3.47199E-19 1.72265E-18
 -1       564 9.52363E-05-2.85426E-05-2.85829E-05 2.53702E-08 1.19533E-19 1.76481E-18
 -1       565 9.52256E-05-2.85499E-05-2.85752E-05-4.93302E-09 1.63268E-18 1.11568E-18
 -1       566 9.52216E-05-2.85566E-05-2.85707E-05-2.37141E-08 2.47036E-18 2.48026E-18
 -1       567 9.52220E-05-2.85628E-05-2.85682E-05-3.38116E-08 4.10378E-19 2.93667E-18
 -1       568 9.52253E-05-2.85692E-05-2.85669E-05-3.72315E-08-4.85116E-19 2.96892E-18
 -1       569 9.52305E-05-2.85757E-05-2.85664E-05-3.45963E-08 1.59368E-19 2.06138E-18
 -1       570 9.52512E-05-2.85894E-05-2.85693E-05-2.53689E-08 1.50130E-18 8.95536E-20
 -1       571 9.52529E-05-2.85904E-05-2.85696E-05-1.73407E-08 1.67683E-18 6.08990E-19
 -1       572 9.52419E-05-2.85833E-05-2.85680E-05-3.59192E-08-1.01961E-19 1.18463E-18
 -1       573 9.52480E-05-2.85872E-05-2.85689E-05-3.17956E-08 1.48081E-19-3.62313E-18
 -1       574 9.52535E-05-2.85908E-05-2.85697E-05-8.75155E-09 6.92328E-19-1.94980E-18
 -1       575 9.52537E-05-2.85908E-05-2.85698E-05 8.53070E-12-3.78351E-19-3.61632E-18
 -1       576 9.52536E-05-2.85908E-05-2.85697E-05 8.78103E-09 3.93522E-19-8.56988E-19
 -1       577 9.52529E-05-2.85905E-05-2.85696E-05 1.72608E-08 9.79671E-19-2.01193E-18
 -1       578 9.52513E-05-2.85895E-05-2.85693E-05 2.53301E-08 2.88976E-18 9.85524E-19
 -1       579 9.52479E-05-2.85872E-05-2.85689E-05 3.20181E-08 3.30396E-18 2.73766E-18
 -1       580 9.52419E-05-2.85833E-05-2.85680E-05 3.56828E-08 7.51507E-19 2.85315E-18
 -1       581 2.56711E-05-1.47434E-05-4.12014E-06 1.38587E-05 4.80493E-19 2.35136E-18
 -1       582 9.40791E-05-5.13545E-05-1.80511E-05 4.01394E-05-2.44215E-18 2.36200E-18
 -1       583 9.83802E-05-2.78574E-05-3.02136E-05-3.35257E-06 1.28224E-18 4.88256E-19
 -1       584 2.65376E-05-1.61509E-05-3.88447E-06-1.69337E-05 3.11417E-19 6.52427E-19
 -1       585 5.56325E-05-3.10028E-05-1.00027E-05 3.83890E-05-2.69701E-18 3.93272E-18
 -1       586 9.61316E-05-2.07895E-05-3.23110E-05-6.37818E-06-2.09558E-18-1.68351E-18
 -1       587 5.35353E-05-3.19394E-05-8.78599E-06-3.86684E-05 1.25583E-18 2.83888E-18
 -1       588 6.98611E-05-3.98058E-05-1.24024E-05 4.23140E-05 1.69025E-18-1.94320E-18
 -1       589 8.54614E-05-9.65809E-06-3.25010E-05-9.87916E-07 3.86630E-19-2.78235E-18
 -1       590 1.35154E-04-1.56603E-05-5.17820E-05-1.04278E-05 3.35298E-18-1.84703E-18
 -1       591 1.44075E-04-4.30893E-05-4.36436E-05 4.01204E-06 1.80362E-18 1.60788E-18
 -1       592 1.30143E-04-8.47809E-06-5.28187E-05 2.93839E-07 4.52506E-18-1.12797E-18
 -1       593 1.31294E-04-1.00824E-05-5.26396E-05-4.56696E-06-4.51829E-18-4.01017E-21
 -1       594 1.38598E-04-5.87656E-05-3.43514E-05-1.06465E-05-3.27378E-19 2.04675E-18
 -1       595 1.12803E-04-5.86620E-05-2.31162E-05-3.45752E-05-2.00265E-18-1.26589E-18
 -1       596 8.23038E-05-4.69113E-05-1.48368E-05-4.28586E-05-1.91429E-18-3.44433E-18
 -1       597 2.30428E-05-1.43611E-05-3.13704E-06-5.00471E-06-1.55642E-19-6.46318E-18
 -1       598 3.32594E-05-1.80777E-05-5.92374E-06 2.31935E-05 1.23630E-18-5.55262E-18
 -1       599 1.05550E-04-5.61646E-05-2.09275E-05 3.70988E-05 8.87849E-19-1.61333E-20
 -1       600 1.44813E-04-4.29096E-05-4.40103E-05-5.33573E-06-2.87930E-18 2.20721E-18
 -1       601 1.40888E-04-2.54871E-05-4.99619E-05-1.13045E-05-3.61424E-18 1.38559E-18
 -1       602 1.37736E-04-1.72436E-05-5.22117E-05 1.04630E-05-3.62594E-18-1.63501E-18
 -1       603 1.41954E-04-3.30135E-05-4.71435E-05 1.16732E-05-1.78438E-18-1.48421E-18
 -1       604 1.42290E-04-5.37156E-05-3.82095E-05-9.14912E-07 4.01421E-19-1.48045E-18
 -1       605 1.23682E-04-6.08778E-05-2.68988E-05-2.66367E-05 1.64256E-18 7.33266E-19
 -1       606 9.39929E-05-5.17688E-05-1.77868E-05-4.03409E-05 1.51079E-18 1.73857E-18
 -1       607 1.41247E-04-3.53126E-05-4.58522E-05-1.07746E-05 1.78131E-18-3.40221E-18
 -1       608 9.83443E-05-2.36916E-05-3.19968E-05 6.89664E-06 2.61056E-18 1.60652E-18
 -1       609 1.28802E-04-6.06997E-05-2.91088E-05 2.22720E-05-1.55812E-18-1.94757E-18
 -1       610 9.06628E-05-1.45600E-05-3.26458E-05-4.59532E-06-1.18442E-18-2.78900E-18
 -1       611 1.23942E-04-1.09201E-05-4.89878E-05 4.80769E-06-3.67353E-18-1.18047E-18
 -1       612 1.24378E-04-6.02893E-05-2.74628E-05 2.32033E-05 5.19575E-19 2.19002E-18
 -1       613 6.64882E-05-3.51807E-05-1.29386E-05-3.91874E-05-2.21973E-18-3.42080E-18
 -1       614 3.59815E-05-1.66075E-05-7.70638E-06-2.03009E-05-9.99036E-19-5.12349E-18
 -1       615 1.24797E-04-1.25848E-05-4.86914E-05 7.73542E-06 3.93764E-18 4.66278E-19
 -1       616 1.40766E-04-5.37883E-05-3.74823E-05-3.75069E-08-1.39014E-18 2.51124E-18
 -1       617 1.35060E-04-3.09943E-05-4.50535E-05 1.35082E-05 1.89772E-18 2.59915E-18
 -1       618 9.52339E-05-2.85773E-05-2.85671E-05 3.63514E-08-2.52120E-19 3.27045E-18
 -1       619 8.73637E-05-1.30271E-05-3.18630E-05 5.57111E-07 1.28725E-18-2.22203E-18
 -1       620 8.64925E-05-1.22151E-05-3.18372E-05 1.24531E-07 9.20675E-19-2.40897E-18
 -1       621 9.12178E-05-1.68088E-05-3.18946E-05 1.78277E-06 2.07800E-18-1.32377E-18
 -1       622 9.39040E-05-1.97449E-05-3.17895E-05 2.39279E-06 2.27823E-18-7.70291E-19
 -1       623 9.65943E-05-2.36557E-05-3.12498E-05 1.23814E-06 2.17409E-18-2.20863E-19
 -1       624 6.12267E-05-2.63294E-05-1.44896E-05 3.15882E-05 2.30904E-18-2.66146E-18
 -1       625 1.33545E-04-5.75817E-05-3.26947E-05 6.43710E-06-2.21870E-18-3.86303E-18
 -1       626 1.26306E-04-2.62756E-05-4.32677E-05-1.51559E-05 1.63861E-18-1.98517E-18
 -1       627 8.01953E-05-4.04472E-05-1.66748E-05-3.75160E-05 1.83576E-18 2.51931E-18
 -1       628 9.60572E-05-2.44351E-05-3.06923E-05 2.79107E-06-1.01143E-18-1.48806E-18
 -1       629 9.63251E-05-2.56226E-05-3.02997E-05 5.41888E-06-8.23822E-19-1.26692E-18
 -1       630 9.66934E-05-2.66244E-05-3.00288E-05 7.55054E-06-1.97233E-19-1.08559E-18
 -1       631 9.73995E-05-2.78111E-05-2.98234E-05 9.24620E-06-1.85510E-19-9.49104E-19
 -1       632 9.87197E-05-2.95447E-05-2.96470E-05 1.04742E-05-4.99154E-20-4.58019E-19
 -1       633 1.01019E-04-3.21952E-05-2.94973E-05 1.10628E-05 4.49286E-19-1.22092E-19
 -1       634 1.04724E-04-3.60451E-05-2.94364E-05 1.06340E-05 3.75951E-19 2.60896E-19
 -1       635 1.10174E-04-4.10160E-05-2.96425E-05 8.51353E-06 5.74447E-19 4.95459E-19
 -1       636 1.17011E-04-4.59277E-05-3.04740E-05 3.73234E-06 2.45581E-19 3.52771E-19
 -1       637 1.23551E-04-4.78720E-05-3.24823E-05-4.28545E-06-3.65925E-19 4.73412E-19
 -1       638 1.26004E-04-4.23570E-05-3.60179E-05-1.30871E-05-1.19000E-18 7.84273E-19
 -1       639 1.22002E-04-2.84312E-05-4.04284E-05-1.51898E-05-3.15819E-18 8.49852E-19
 -1       640 1.17176E-04-1.65408E-05-4.34834E-05 8.57343E-06-2.81331E-18-1.12299E-18
 -1       641 1.22628E-04-3.02037E-05-3.99055E-05 1.61827E-05-1.37435E-18-2.14616E-18
 -1       642 1.25761E-04-4.33466E-05-3.54357E-05 1.24497E-05 6.17274E-19-2.15363E-18
 -1       643 1.22682E-04-4.76480E-05-3.21933E-05 3.93246E-06 9.97163E-19-1.39446E-18
 -1       644 1.16164E-04-4.51922E-05-3.04251E-05-3.38651E-06 1.67503E-18-2.97813E-19
 -1       645 1.09498E-04-4.02099E-05-2.96991E-05-7.71449E-06 1.36063E-18-1.83176E-19
 -1       646 1.04283E-04-3.54279E-05-2.95119E-05-9.58704E-06 5.20439E-19-1.21983E-18
 -1       647 1.00738E-04-3.18307E-05-2.95329E-05-9.92514E-06 3.08662E-19-1.54167E-18
 -1       648 9.85235E-05-2.94821E-05-2.95895E-05-9.41435E-06 7.14568E-20-1.78393E-18
 -1       649 9.72129E-05-2.81178E-05-2.96120E-05-8.47768E-06-3.82260E-19-2.27975E-18
 -1       650 9.64616E-05-2.74306E-05-2.95842E-05-7.36436E-06-8.99756E-19-1.80532E-18
 -1       651 9.60349E-05-2.71682E-05-2.95136E-05-6.22146E-06-4.11917E-19-2.82098E-18
 -1       652 9.57883E-05-2.71517E-05-2.94151E-05-5.13458E-06 4.08827E-19-3.48669E-18
 -1       653 9.56389E-05-2.72639E-05-2.93030E-05-4.15072E-06 9.43386E-20-4.01167E-18
 -1       654 9.55415E-05-2.74332E-05-2.91888E-05-3.29167E-06-6.76914E-19-2.31886E-18
 -1       655 9.54726E-05-2.76177E-05-2.90803E-05-2.56276E-06 2.81673E-20-2.63382E-18
 -1       656 9.54204E-05-2.77949E-05-2.89821E-05-1.95892E-06-2.39425E-20-1.67886E-18
 -1       657 9.53792E-05-2.79535E-05-2.88965E-05-1.46902E-06-2.78886E-19 1.15120E-19
 -1       658 9.53461E-05-2.80896E-05-2.88241E-05-1.07900E-06-4.52143E-20 1.10929E-18
 -1       659 9.53195E-05-2.82026E-05-2.87642E-05-7.74027E-07 2.47349E-20 1.21895E-18
 -1       660 9.52983E-05-2.82942E-05-2.87159E-05-5.39709E-07-6.23807E-19 2.37753E-18
 -1       661 9.52816E-05-2.83670E-05-2.86776E-05-3.62842E-07-8.63165E-19 1.86792E-18
 -1       662 9.52688E-05-2.84237E-05-2.86478E-05-2.31795E-07-1.44555E-19 1.86849E-18
 -1       663 9.52591E-05-2.84672E-05-2.86251E-05-1.36657E-07 9.81217E-19 2.56827E-18
 -1       664 9.52520E-05-2.85001E-05-2.86079E-05-6.92203E-08 1.94673E-18 1.11582E-18
 -1       665 9.52469E-05-2.85247E-05-2.85952E-05-2.28824E-08 1.80524E-18 1.58432E-18
 -1       666 9.52436E-05-2.85432E-05-2.85859E-05 7.51236E-09 1.59142E-18 4.27009E-19
 -1       667 9.52416E-05-2.85575E-05-2.85789E-05 2.58832E-08-4.19376E-19-3.39666E-19
 -1       668 9.52410E-05-2.85692E-05-2.85736E-05 3.48915E-08 2.40100E-18 1.60564E-19
 -1       669 9.88097E-05-2.87501E-05-3.00254E-05-7.97865E-06 6.70909E-19-2.49847E-19
 -1       670 9.52413E-05-2.85732E-05-2.85720E-05-3.66712E-08 1.25806E-18 2.27067E-18
 -1       671 9.78833E-05-2.75958E-05-3.01223E-05-6.58989E-06 7.15503E-19-2.77856E-19
 -1       672 1.02518E-04-3.25647E-05-2.99824E-05-8.74398E-06-1.53995E-19-8.07971E-22
 -1       673 1.05688E-04-3.55672E-05-3.00573E-05-7.59779E-06 1.61431E-19-9.62688E-20
 -1       674 1.09798E-04-3.90876E-05-3.03127E-05-4.86648E-06 3.39412E-19-5.44769E-20
 -1       675 1.14342E-04-4.21554E-05-3.09485E-05-1.40180E-07 1.19240E-19 2.30509E-19
 -1       676 1.17942E-04-4.26998E-05-3.22507E-05 6.52090E-06-4.01856E-19 4.79417E-19
 -1       677 1.18175E-04-3.83913E-05-3.42814E-05 1.24649E-05-6.10459E-20 1.40574E-18
 -1       678 1.14621E-04-2.93054E-05-3.66864E-05 1.36093E-05 9.76464E-19 1.92940E-18
 -1       679 1.10065E-04-2.02531E-05-3.86545E-05 7.08380E-06 1.52498E-18 1.72831E-18
 -1       680 1.09347E-04-1.88830E-05-3.89407E-05-4.60663E-06 1.24825E-18 6.30490E-19
 -1       681 1.13107E-04-2.63108E-05-3.73270E-05-1.34026E-05 9.48134E-19 1.60533E-19
 -1       682 1.17463E-04-3.61376E-05-3.49123E-05-1.43883E-05-1.34758E-19-4.59008E-19
 -1       683 1.18593E-04-4.20559E-05-3.28160E-05-9.07664E-06-7.64373E-19-2.20561E-19
 -1       684 1.15738E-04-4.26024E-05-3.13511E-05-2.55041E-06-5.76329E-19 2.90101E-20
 -1       685 1.11365E-04-4.00297E-05-3.05784E-05 2.63751E-06 6.73485E-19 5.06424E-19
 -1       686 1.07077E-04-3.65336E-05-3.02376E-05 5.85799E-06 5.94554E-19 1.62376E-18
 -1       687 1.03636E-04-3.34087E-05-3.01003E-05 7.41918E-06 5.23814E-19 1.91602E-18
 -1       688 1.01129E-04-3.10727E-05-3.00255E-05 7.82413E-06 5.40629E-19 1.53778E-18
 -1       689 9.93961E-05-2.95244E-05-2.99453E-05 7.51037E-06-1.64898E-19 1.97346E-18
 -1       690 9.82184E-05-2.85952E-05-2.98382E-05 6.79925E-06 7.19830E-19 2.15692E-18
 -1       691 9.74125E-05-2.80971E-05-2.97059E-05 5.90643E-06 1.55634E-19 1.59316E-18
 -1       692 9.68483E-05-2.78754E-05-2.95590E-05 4.97024E-06 4.12604E-19 6.24631E-19
 -1       693 9.64418E-05-2.78188E-05-2.94090E-05 4.07417E-06-3.00524E-19 6.69738E-19
 -1       694 9.61407E-05-2.78532E-05-2.92653E-05 3.26407E-06-1.63659E-19 1.67370E-18
 -1       695 9.59128E-05-2.79321E-05-2.91340E-05 2.56065E-06 7.09532E-21 1.68134E-18
 -1       696 9.57385E-05-2.80275E-05-2.90184E-05 1.96861E-06 8.55653E-19 2.07161E-19
 -1       697 9.56045E-05-2.81237E-05-2.89199E-05 1.48293E-06 1.25426E-18 7.08884E-19
 -1       698 9.55019E-05-2.82124E-05-2.88380E-05 1.09321E-06 1.27055E-18 1.06887E-18
 -1       699 9.54240E-05-2.82898E-05-2.87715E-05 7.86677E-07 6.55805E-20 6.92064E-19
 -1       700 9.53656E-05-2.83550E-05-2.87186E-05 5.50110E-07-2.84178E-19 2.15962E-18
 -1       701 9.53226E-05-2.84083E-05-2.86774E-05 3.70931E-07-1.54547E-18 1.90901E-18
 -1       702 9.52916E-05-2.84510E-05-2.86459E-05 2.37810E-07-1.25426E-18 1.35458E-18
 -1       703 9.52698E-05-2.84844E-05-2.86222E-05 1.40945E-07-1.04118E-18 6.43624E-19
 -1       704 9.52550E-05-2.85102E-05-2.86049E-05 7.21298E-08 3.24000E-19 1.79056E-18
 -1       705 9.52455E-05-2.85300E-05-2.85923E-05 2.47070E-08 1.51112E-18 1.51357E-18
 -1       706 9.52399E-05-2.85452E-05-2.85834E-05-6.53222E-09 6.95926E-19 2.52819E-18
 -1       707 9.52373E-05-2.85572E-05-2.85772E-05-2.56212E-08 1.35496E-19 4.83913E-18
 -1       708 9.52393E-05-2.85652E-05-2.85746E-05-3.31307E-08 2.02788E-18 3.40404E-18
 -1       709 1.15674E-04-5.58917E-05-2.55211E-05 2.40062E-05-2.74869E-18-2.62653E-18
 -1       710 9.52522E-05-2.85684E-05-2.85788E-05-3.99583E-09 1.66266E-18-3.38852E-18
 -1       711 1.32372E-04-5.91224E-05-3.15253E-05-9.11340E-06 1.96289E-18-9.32517E-19
 -1       712 9.52518E-05-2.85719E-05-2.85771E-05-2.01369E-08 1.99606E-18 5.32979E-19
 -1       713 9.52522E-05-2.85684E-05-2.85788E-05 3.95243E-09 1.44843E-18-2.66125E-18
 -1       714 9.52522E-05-2.85697E-05-2.85782E-05-1.20148E-08 9.37792E-19-3.16298E-19
 -1       715 9.52523E-05-2.85698E-05-2.85782E-05 1.18871E-08 2.31004E-18-4.72786E-19
 -1       716 9.52519E-05-2.85720E-05-2.85771E-05 2.00941E-08 2.33451E-18-1.80280E-19
 -1       717 9.52498E-05-2.85740E-05-2.85753E-05 2.79842E-08 1.77189E-18 2.56854E-18
 -1       718 4.73219E-05-1.85069E-05-1.18237E-05 2.42464E-05-1.38900E-19 2.11398E-18
 -1       719 8.24018E-05-3.98948E-05-1.79400E-05 3.57512E-05-2.88579E-18 1.73075E-18
 -1       720 9.46276E-05-2.01326E-05-3.19263E-05-3.37036E-06-1.58977E-18-1.94315E-18
 -1       721 9.43717E-05-4.69979E-05-1.99968E-05 3.53253E-05 2.36145E-18 3.81641E-19
 -1       722 9.73276E-05-2.65839E-05-3.03160E-05-4.64391E-06 1.08176E-18-6.67519E-20
 -1       723 1.25701E-04-5.92664E-05-2.84309E-05-1.87173E-05-1.81760E-18 1.50424E-18
 -1       724 1.00287E-04-3.03283E-05-2.99831E-05-8.75894E-06 1.61564E-19-2.38803E-19
 -1       725 9.55788E-05-2.27518E-05-3.12117E-05-6.43138E-08-1.26587E-18-1.61773E-18
 -1       726 1.34519E-04-4.33029E-05-3.93537E-05 1.27019E-05-2.72030E-19-1.96430E-18
 -1       727 8.89779E-05-1.45675E-05-3.18951E-05 1.11353E-06 1.73160E-18-1.69228E-18
 -1       728 9.69695E-05-2.54072E-05-3.06649E-05-2.08556E-06 1.70880E-18-1.90025E-19
 -1       729 1.35513E-04-4.51477E-05-3.90586E-05-1.01344E-05-8.54378E-19-3.15088E-18
 -1       730 8.87707E-05-1.43491E-05-3.18997E-05-1.13833E-06-3.21999E-19-2.51953E-18
 -1       731 1.34588E-04-4.88446E-05-3.70045E-05 5.96177E-06-1.80974E-19 3.06128E-18
 -1       732 3.38848E-05-1.12930E-05-9.14917E-06-2.35971E-06 4.99369E-19 2.05289E-18
 -1       733 3.79964E-05-1.18806E-05-1.06089E-05 6.18909E-06 5.25366E-19-4.89744E-18
 -1       734 1.19521E-04-1.30444E-05-4.61424E-05-7.25800E-06 2.79018E-18-8.86387E-19
 -1       735 1.02064E-04-5.19145E-05-2.12726E-05-3.43213E-05-2.42564E-18-7.58445E-19
 -1       736 9.52412E-05-2.85764E-05-2.85706E-05 3.66942E-08 2.26052E-18 1.08392E-20
 -1       737 1.32754E-04-3.61831E-05-4.17636E-05-1.38764E-05-2.36513E-18 9.83458E-19
 -1       738 1.24841E-04-1.88372E-05-4.59544E-05-1.20515E-05-3.58411E-18 1.20332E-18
 -1       739 1.27694E-04-2.50261E-05-4.45021E-05 1.54414E-05-2.31113E-18-1.96112E-18
 -1       740 1.12499E-04-5.55182E-05-2.42408E-05-2.75799E-05 2.16989E-18-6.94191E-19
 -1       741 5.00466E-05-2.06440E-05-1.20745E-05-2.67458E-05-9.26442E-20 7.93379E-19
 -1       742 9.10016E-05-1.65451E-05-3.19137E-05-1.78609E-06-8.26912E-19-2.51754E-18
 -1       743 8.64417E-05-1.21643E-05-3.18373E-05-2.42539E-07 4.20301E-19-2.49058E-18
 -1       744 1.16652E-04-1.55631E-05-4.36930E-05-6.27857E-06-2.58755E-18 4.65537E-20
 -1       745 8.74174E-05-4.21372E-05-1.90550E-05-3.54882E-05-2.44681E-18-2.28393E-18
 -1       746 1.30055E-04-5.49439E-05-3.23521E-05-2.16229E-06-1.25054E-18 2.56881E-18
 -1       747 9.52498E-05-2.85739E-05-2.85754E-05-2.79998E-08 2.41637E-18-1.36008E-18
 -1       748 1.11679E-04-5.43793E-05-2.45046E-05 2.66024E-05 1.95442E-18 1.17216E-18
 -1       749 6.90665E-05-2.73733E-05-1.75963E-05 2.84961E-05-1.13503E-18 1.93008E-18
 -1       750 1.33236E-04-5.90516E-05-3.18117E-05 7.93484E-06-5.55038E-19 2.55333E-18
 -1       751 9.52466E-05-2.85714E-05-2.85751E-05 3.20511E-08 1.03471E-18 2.29210E-18
 -1       752 5.73809E-05-2.48878E-05-1.35032E-05-3.06808E-05-1.84336E-18-3.39298E-18
 -1       753 1.23268E-04-2.18764E-05-4.38390E-05 1.32574E-05 1.82485E-18 2.51297E-18
 -1       754 8.72201E-05-1.28811E-05-3.18640E-05-6.38134E-07 5.25553E-20-2.40323E-18
 -1       755 9.34885E-05-2.06689E-05-3.12056E-05-4.81179E-07 1.75027E-18-8.82908E-19
 -1       756 9.89139E-05-4.42416E-05-2.33348E-05 2.61358E-05-2.77375E-18-1.01126E-18
 -1       757 9.39726E-05-2.40209E-05-2.99791E-05 6.37167E-06-4.41215E-19-1.26484E-18
 -1       758 9.40112E-05-2.51327E-05-2.95191E-05 8.53488E-06-1.22965E-19-1.14885E-18
 -1       759 9.43601E-05-2.65510E-05-2.90607E-05 1.05096E-05 1.10272E-19-7.73786E-19
 -1       760 9.54377E-05-2.87420E-05-2.85840E-05 1.23359E-05 3.95407E-19-6.93163E-19
 -1       761 9.78465E-05-3.22402E-05-2.81151E-05 1.39290E-05 7.36130E-19-5.90102E-19
 -1       762 1.02366E-04-3.75097E-05-2.77838E-05 1.48803E-05 8.22507E-19-3.23535E-19
 -1       763 1.09920E-04-4.46812E-05-2.79594E-05 1.41941E-05 8.56642E-19-6.08226E-20
 -1       764 1.20831E-04-5.23193E-05-2.92940E-05 1.02411E-05 1.31555E-19 9.71934E-19
 -1       765 1.29723E-04-5.36171E-05-3.26564E-05 4.54869E-07 1.59803E-18-1.59864E-18
 -1       766 1.19083E-04-5.07536E-05-2.92677E-05-8.67619E-06 2.34510E-18-1.71018E-19
 -1       767 1.09064E-04-4.35269E-05-2.80778E-05-1.26658E-05 1.30448E-18-5.36130E-19
 -1       768 1.01901E-04-3.67316E-05-2.79251E-05-1.33530E-05 1.00343E-18-5.54066E-19
 -1       769 9.75178E-05-3.17855E-05-2.81698E-05-1.25210E-05 4.58404E-19 1.31050E-18
 -1       770 9.51506E-05-2.86584E-05-2.84962E-05-1.11550E-05-5.30288E-19 3.98182E-19
 -1       771 9.40440E-05-2.68998E-05-2.87757E-05-9.67518E-06-4.69929E-19-1.01151E-18
 -1       772 9.36667E-05-2.60693E-05-2.89699E-05-8.23993E-06-9.16034E-19-4.40856E-19
 -1       773 9.36725E-05-2.58183E-05-2.90800E-05-6.90866E-06-2.03167E-18-1.24899E-18
 -1       774 9.38546E-05-2.59021E-05-2.91222E-05-5.70462E-06-1.10942E-18-2.20602E-18
 -1       775 9.40974E-05-2.61596E-05-2.91160E-05-4.63809E-06 6.46486E-20-3.37322E-18
 -1       776 9.43411E-05-2.64904E-05-2.90787E-05-3.71194E-06 1.05089E-18-2.15402E-18
 -1       777 9.45580E-05-2.68347E-05-2.90241E-05-2.92326E-06-7.68963E-19-1.78108E-18
 -1       778 9.47384E-05-2.71595E-05-2.89623E-05-2.26433E-06 2.78731E-19-2.28115E-18
 -1       779 9.48819E-05-2.74484E-05-2.89000E-05-1.72371E-06 1.00101E-18-2.23796E-18
 -1       780 9.49921E-05-2.76955E-05-2.88413E-05-1.28779E-06 4.54083E-19-1.60670E-18
 -1       781 9.50745E-05-2.79007E-05-2.87887E-05-9.42208E-07 9.45633E-19-1.65944E-18
 -1       782 9.51345E-05-2.80672E-05-2.87431E-05-6.72879E-07-2.98360E-19-5.67204E-19
 -1       783 9.51769E-05-2.81994E-05-2.87046E-05-4.66530E-07 3.94559E-19-3.56120E-19
 -1       784 9.52060E-05-2.83025E-05-2.86729E-05-3.11183E-07-6.35524E-19 4.62898E-19
 -1       785 9.52250E-05-2.83814E-05-2.86473E-05-1.96401E-07 3.33286E-19 4.16647E-19
 -1       786 9.52368E-05-2.84409E-05-2.86268E-05-1.13355E-07 1.05671E-18 1.35928E-18
 -1       787 9.52434E-05-2.84850E-05-2.86107E-05-5.47805E-08 1.73316E-18 1.40618E-18
 -1       788 9.52465E-05-2.85175E-05-2.85981E-05-1.48506E-08 8.78226E-19 1.51293E-18
 -1       789 9.52475E-05-2.85415E-05-2.85882E-05 1.08368E-08 1.28883E-18 1.44661E-18
 -1       790 9.52471E-05-2.85581E-05-2.85810E-05 2.47394E-08 2.20568E-19 3.96948E-18
 -1       791 9.59109E-05-2.64473E-05-2.97700E-05-7.80951E-06 7.00644E-19-7.73967E-19
 -1       792 1.05243E-04-3.78366E-05-2.88904E-05-1.07212E-05-2.38488E-19 3.40055E-19
 -1       793 1.00928E-04-3.33837E-05-2.89477E-05-1.12049E-05 2.18886E-20-6.99249E-20
 -1       794 1.18537E-04-4.76201E-05-3.03817E-05-3.44449E-06-5.56633E-19 1.65969E-18
 -1       795 1.25714E-04-4.62367E-05-3.41334E-05-8.14537E-06-9.84305E-19-1.46834E-19
 -1       796 1.20890E-04-4.82677E-05-3.11048E-05-1.45530E-08-6.47232E-19-7.39088E-19
 -1       797 1.13361E-04-4.44557E-05-2.95321E-05 6.07203E-06-1.03768E-18 4.31997E-19
 -1       798 1.06642E-04-3.91087E-05-2.89390E-05 9.18075E-06-1.21642E-19 1.59226E-18
 -1       799 1.01746E-04-3.44157E-05-2.88552E-05 1.01312E-05 5.28436E-19 1.66525E-18
 -1       800 9.85450E-05-3.09722E-05-2.89596E-05 9.90122E-06 7.31774E-19 2.30682E-18
 -1       801 9.66549E-05-2.87659E-05-2.90950E-05 9.09112E-06 1.36886E-19 2.84024E-18
 -1       802 9.56256E-05-2.75030E-05-2.91951E-05 8.03503E-06-1.43999E-19 1.71660E-18
 -1       803 9.51232E-05-2.68904E-05-2.92423E-05 6.90574E-06 1.12641E-19 2.03152E-18
 -1       804 9.49212E-05-2.66912E-05-2.92411E-05 5.80060E-06 1.07196E-20 3.28221E-18
 -1       805 9.48776E-05-2.67349E-05-2.92037E-05 4.77419E-06 3.36953E-19 3.20408E-18
 -1       806 9.49086E-05-2.69066E-05-2.91435E-05 3.85568E-06-7.58734E-21 1.36542E-18
 -1       807 9.49681E-05-2.71339E-05-2.90716E-05 3.05756E-06-8.18086E-20 1.05553E-18
 -1       808 9.50323E-05-2.73732E-05-2.89966E-05 2.38125E-06 7.50377E-19 8.39095E-19
 -1       809 9.50901E-05-2.76002E-05-2.89241E-05 1.82084E-06 1.28655E-18 1.51787E-18
 -1       810 9.51376E-05-2.78023E-05-2.88579E-05 1.36573E-06 1.03260E-18 5.76852E-19
 -1       811 9.51741E-05-2.79750E-05-2.87995E-05 1.00295E-06-3.06912E-20 1.18671E-18
 -1       812 9.52010E-05-2.81181E-05-2.87497E-05 7.18928E-07-1.18946E-18 2.64914E-18
 -1       813 9.52198E-05-2.82336E-05-2.87083E-05 5.00497E-07-1.12678E-18 3.66684E-18
 -1       814 9.52323E-05-2.83248E-05-2.86746E-05 3.35515E-07-6.72519E-19 2.46066E-18
 -1       815 9.52400E-05-2.83955E-05-2.86476E-05 2.13248E-07-1.21768E-18 1.32337E-18
 -1       816 9.52443E-05-2.84492E-05-2.86265E-05 1.24525E-07-7.70178E-19 4.79638E-20
 -1       817 9.52462E-05-2.84894E-05-2.86100E-05 6.17266E-08 4.08467E-19-2.36292E-19
 -1       818 9.52466E-05-2.85192E-05-2.85974E-05 1.86804E-08-5.75834E-19 1.56701E-18
 -1       819 9.52463E-05-2.85416E-05-2.85877E-05-9.01072E-09 1.86514E-20 1.67632E-18
 -1       820 4.93886E-05-1.38727E-05-1.49308E-05-1.20847E-05 9.15821E-20 2.07756E-18
 -1       821 1.17490E-04-1.29475E-05-4.52733E-05 3.68298E-06 3.19154E-18 1.37061E-18
 -1       822 9.52492E-05-2.85444E-05-2.85878E-05 5.23550E-09 1.17996E-18-4.01761E-21
 -1       823 9.52486E-05-2.85427E-05-2.85883E-05-1.35208E-10 7.54818E-19-3.73743E-18
 -1       824 9.55076E-05-2.52066E-05-3.01292E-05-5.79995E-06 9.24594E-19-5.40080E-19
 -1       825 9.52503E-05-2.85489E-05-2.85863E-05 1.12683E-08 7.83697E-19 5.69696E-19
 -1       826 9.52506E-05-2.85550E-05-2.85838E-05 1.83924E-08 2.64158E-18 7.85832E-20
 -1       827 1.11379E-04-4.31497E-05-2.92397E-05-8.39589E-06-3.46523E-19 1.08877E-18
 -1       828 1.29727E-04-4.97866E-05-3.42623E-05-5.48129E-06-1.26739E-18-2.54818E-18
 -1       829 4.90951E-05-1.29146E-05-1.51690E-05 8.52432E-06-1.48788E-19 2.16925E-18
 -1       830 8.36081E-05-3.53001E-05-2.05270E-05 2.95755E-05 2.15201E-18-3.65362E-19
 -1       831 1.23013E-04-5.46427E-05-2.93328E-05 9.96422E-06-1.39485E-18-1.47576E-18
 -1       832 9.39311E-05-2.28032E-05-3.04833E-05 3.94171E-06-6.31621E-19-1.51391E-18
 -1       833 1.29233E-04-3.92377E-05-3.87552E-05 1.33035E-05 3.85718E-19 3.21306E-18
 -1       834 9.65951E-05-4.45212E-05-2.21859E-05-2.91064E-05 2.29853E-18-9.90638E-19
 -1       835 9.53663E-05-2.31413E-05-3.09527E-05-1.24790E-06 1.74537E-18-4.29216E-19
 -1       836 1.19116E-04-5.52627E-05-2.72839E-05-1.76764E-05 2.55036E-18-1.17734E-18
 -1       837 4.67357E-05-1.40372E-05-1.35967E-05-1.21645E-05-6.43156E-19-3.88216E-18
 -1       838 5.61925E-05-1.67868E-05-1.66286E-05 1.62293E-05 1.35131E-18-3.11454E-18
 -1       839 1.13529E-04-5.30234E-05-2.58142E-05-2.24658E-05-1.74994E-18 7.55993E-19
 -1       840 7.14439E-05-2.87027E-05-1.80716E-05-2.86984E-05 4.89717E-19 1.28098E-18
 -1       841 8.75718E-05-1.48094E-05-3.11849E-05-4.06854E-07 8.79426E-19-2.03799E-18
 -1       842 8.70458E-05-1.43211E-05-3.11684E-05-1.15647E-07 5.01475E-19-1.98022E-18
 -1       843 9.10019E-05-1.80954E-05-3.12465E-05-5.80363E-07 1.55944E-18-1.38222E-18
 -1       844 8.65383E-05-3.45074E-05-2.21821E-05 2.55531E-05-1.82480E-18 2.32160E-19
 -1       845 9.07116E-05-1.77907E-05-3.12543E-05 5.70479E-07-5.38106E-19-2.06944E-18
 -1       846 9.35729E-05-2.12101E-05-3.10131E-05 1.47389E-06-9.46333E-19-1.79195E-18
 -1       847 9.52494E-05-2.85610E-05-2.85808E-05-2.43851E-08 1.44554E-18-4.93870E-19
 -1       848 1.21296E-04-5.29841E-05-2.93059E-05-9.75351E-06-1.23993E-18 1.73707E-18
 -1       849 9.82380E-05-3.01661E-05-2.91735E-05-1.06277E-05-1.09756E-19-3.64596E-19
 -1       850 6.44160E-05-1.99025E-05-1.89187E-05-1.89330E-05 6.12284E-19 1.35486E-19
 -1       851 9.52485E-05-2.85470E-05-2.85863E-05-1.63037E-08 2.12247E-18-1.20203E-18
 -1       852 9.52502E-05-2.85488E-05-2.85863E-05-1.13615E-08 1.48861E-18-8.55003E-19
 -1       853 9.52505E-05-2.85548E-05-2.85839E-05-1.76175E-08 2.28977E-18-9.29261E-19
 -1       854 9.52491E-05-2.85442E-05-2.85878E-05-5.39547E-09 8.35199E-19-4.37937E-19
 -1       855 1.02604E-04-4.68326E-05-2.37795E-05-2.70135E-05-1.96649E-18-4.12134E-20
 -1       856 5.43104E-05-1.33712E-05-1.73313E-05 2.67203E-06 4.46711E-19-3.08525E-18
 -1       857 9.82731E-05-4.36448E-05-2.33247E-05 2.69683E-05 1.89002E-18 6.24786E-20
 -1       858 6.22673E-05-1.84797E-05-1.85985E-05 1.72309E-05-4.92374E-19 8.08996E-19
 -1       859 9.67080E-05-2.79742E-05-2.94571E-05-9.43304E-06 3.42986E-19-5.57498E-19
 -1       860 7.29101E-05-2.44771E-05-2.06273E-05 2.19041E-05 1.69970E-18-1.39431E-18
 -1       861 8.89452E-05-1.60992E-05-3.12209E-05-5.74627E-07 1.37915E-18-1.58748E-18
 -1       862 1.10905E-04-4.84883E-05-2.67336E-05 1.72381E-05-6.95798E-19-5.01002E-19
 -1       863 8.87063E-05-1.58587E-05-3.12225E-05 4.66349E-07-1.18777E-19-2.18456E-18
 -1       864 9.54987E-05-2.43209E-05-3.05054E-05-3.70039E-06 1.37386E-18-5.92950E-19
 -1       865 9.52492E-05-2.85561E-05-2.85827E-05 2.15398E-08 1.19472E-18-1.19147E-19
 -1       866 9.05495E-05-2.34126E-05-2.87728E-05 8.97359E-06 1.81683E-19-1.19993E-18
 -1       867 9.01901E-05-2.48099E-05-2.80201E-05 1.13255E-05 4.00836E-19-6.80636E-19
 -1       868 9.04808E-05-2.70985E-05-2.71654E-05 1.40493E-05 6.60517E-19-5.31384E-19
 -1       869 9.21645E-05-3.09866E-05-2.62130E-05 1.73307E-05 8.34294E-19-6.92899E-19
 -1       870 9.65903E-05-3.73503E-05-2.53449E-05 2.09757E-05 1.09687E-18-8.63393E-19
 -1       871 9.52438E-05-2.85176E-05-2.85969E-05 1.52861E-09 1.17388E-18-9.11255E-19
 -1       872 1.05816E-04-4.59394E-05-2.55864E-05-2.07071E-05 1.67828E-18-9.67494E-19
 -1       873 9.70844E-05-3.69382E-05-2.57565E-05-1.86753E-05 1.05189E-18 1.40973E-19
 -1       874 9.25192E-05-3.08531E-05-2.64162E-05-1.57173E-05 1.30210E-18-8.36238E-19
 -1       875 9.05902E-05-2.72536E-05-2.71429E-05-1.29125E-05-2.64054E-19-6.10348E-19
 -1       876 9.00660E-05-2.53099E-05-2.77521E-05-1.05850E-05-8.60611E-19-7.67152E-19
 -1       877 9.02937E-05-2.44633E-05-2.82126E-05-8.69974E-06 1.08457E-19 6.18823E-19
 -1       878 9.08672E-05-2.42886E-05-2.85333E-05-7.15330E-06-1.71548E-18 4.22094E-19
 -1       879 9.15595E-05-2.45015E-05-2.87389E-05-5.85926E-06-2.23423E-18 5.30489E-19
 -1       880 9.22500E-05-2.49171E-05-2.88568E-05-4.76234E-06-2.10220E-18-6.39024E-19
 -1       881 9.28778E-05-2.54171E-05-2.89117E-05-3.82993E-06 1.05724E-18-1.19795E-18
 -1       882 9.34179E-05-2.59290E-05-2.89238E-05-3.04104E-06 4.82355E-19-2.28484E-18
 -1       883 9.38652E-05-2.64115E-05-2.89087E-05-2.38057E-06-7.31901E-19-1.46807E-18
 -1       884 9.42248E-05-2.68424E-05-2.88781E-05-1.83492E-06 4.56910E-19-1.65986E-18
 -1       885 9.45069E-05-2.72133E-05-2.88401E-05-1.39045E-06 8.90621E-19-1.97685E-18
 -1       886 9.47238E-05-2.75237E-05-2.88000E-05-1.03388E-06 8.82924E-19-2.19269E-18
 -1       887 9.48871E-05-2.77776E-05-2.87612E-05-7.52468E-07 1.04926E-18-1.72639E-18
 -1       888 9.50073E-05-2.79809E-05-2.87256E-05-5.34020E-07 2.18037E-19-1.92693E-19
 -1       889 9.50938E-05-2.81406E-05-2.86942E-05-3.67265E-07-1.63925E-19-1.67267E-18
 -1       890 9.51543E-05-2.82638E-05-2.86673E-05-2.42186E-07 6.43135E-19 2.53224E-19
 -1       891 9.51951E-05-2.83572E-05-2.86448E-05-1.50156E-07 8.63939E-19 1.29794E-18
 -1       892 9.52213E-05-2.84269E-05-2.86262E-05-8.39182E-08 1.23115E-18 1.12341E-18
 -1       893 9.52371E-05-2.84782E-05-2.86110E-05-3.75813E-08 3.14111E-19 5.05039E-19
 -1       894 9.52456E-05-2.85158E-05-2.85985E-05-6.40436E-09 2.46621E-19-2.13921E-19
 -1       895 1.04857E-04-4.13639E-05-2.71726E-05 1.50250E-05-1.28249E-18-7.53729E-19
 -1       896 9.85058E-05-3.48714E-05-2.72744E-05 1.41150E-05 1.29208E-19 4.26891E-19
 -1       897 9.48580E-05-3.03644E-05-2.76367E-05 1.24605E-05-1.94527E-19 9.37084E-19
 -1       898 9.30898E-05-2.76381E-05-2.80491E-05 1.06708E-05-6.27216E-19 1.76696E-18
 -1       899 9.23964E-05-2.61353E-05-2.83972E-05 9.01177E-06 2.77759E-19 3.33112E-18
 -1       900 9.23193E-05-2.54613E-05-2.86533E-05 7.53331E-06-3.32163E-19 3.10796E-18
 -1       901 9.25612E-05-2.53131E-05-2.88205E-05 6.23590E-06-2.61756E-20 2.14131E-18
 -1       902 9.29402E-05-2.54722E-05-2.89148E-05 5.10462E-06 1.10924E-18 5.74346E-19
 -1       903 9.33531E-05-2.57927E-05-2.89544E-05 4.12624E-06 7.98797E-19 1.43379E-18
 -1       904 9.37445E-05-2.61803E-05-2.89561E-05 3.28957E-06-3.49299E-19-1.24912E-19
 -1       905 9.40887E-05-2.65772E-05-2.89335E-05 2.58352E-06 2.77763E-19-1.38445E-19
 -1       906 9.43771E-05-2.69506E-05-2.88971E-05 1.99698E-06-7.16839E-20 3.99189E-19
 -1       907 9.46100E-05-2.72829E-05-2.88544E-05 1.51760E-06-2.61435E-19 2.14996E-18
 -1       908 9.47925E-05-2.75675E-05-2.88107E-05 1.13192E-06 6.53926E-19 2.67045E-18
 -1       909 9.49319E-05-2.78042E-05-2.87690E-05 8.26617E-07-1.43673E-18 2.19773E-18
 -1       910 9.50359E-05-2.79963E-05-2.87312E-05 5.88948E-07-1.33484E-18 1.93146E-18
 -1       911 9.51112E-05-2.81489E-05-2.86982E-05 4.07032E-07-9.42751E-19 7.90866E-19
 -1       912 9.51643E-05-2.82676E-05-2.86700E-05 2.70215E-07-1.78757E-19 1.35143E-18
 -1       913 9.52003E-05-2.83583E-05-2.86466E-05 1.69252E-07-5.30800E-19 1.83905E-19
 -1       914 9.52236E-05-2.84264E-05-2.86274E-05 9.63475E-08 1.54119E-19 8.17720E-20
 -1       915 9.52376E-05-2.84767E-05-2.86118E-05 4.51564E-08-6.48009E-19 1.00451E-18
 -1       916 9.52453E-05-2.85142E-05-2.85991E-05 9.99601E-09-3.56130E-19-3.69109E-19
 -1       917 9.30987E-05-2.37655E-05-2.97144E-05-6.64406E-06 8.98973E-19-1.13452E-18
 -1       918 6.45522E-05-2.15331E-05-1.81963E-05-2.18274E-05-1.24783E-18-2.95416E-18
 -1       919 9.52414E-05-2.85121E-05-2.85983E-05-1.11923E-12 4.56366E-19-2.11031E-18
 -1       920 9.15035E-05-2.12822E-05-3.00951E-05 4.60323E-06-2.42203E-19-1.52636E-18
 -1       921 9.78658E-05-3.36068E-05-2.75329E-05-1.45867E-05-4.83618E-19-3.05802E-19
 -1       922 8.74360E-05-1.46772E-05-3.11840E-05 2.15696E-07 1.58404E-19-2.17399E-18
 -1       923 9.10908E-05-2.23751E-05-2.94498E-05 6.78878E-06-9.21298E-20-1.35909E-18
 -1       924 5.87809E-05-1.35906E-05-1.92213E-05-2.33387E-06 5.16837E-19 1.65946E-18
 -1       925 9.52470E-05-2.85271E-05-2.85942E-05 4.82351E-09 7.54666E-19 2.47637E-18
 -1       926 8.11189E-05-3.39308E-05-2.00961E-05-2.98238E-05-1.80630E-18-2.23998E-18
 -1       927 8.69077E-05-3.46797E-05-2.23081E-05-2.52270E-05 1.81389E-18-8.62041E-19
 -1       928 9.26806E-05-2.11371E-05-3.06620E-05-2.77443E-06 1.41396E-18-1.01933E-18
 -1       929 9.92271E-05-4.06482E-05-2.50450E-05 2.07298E-05-1.42385E-18 8.13930E-19
 -1       930 9.30546E-05-2.24082E-05-3.02762E-05-4.38427E-06 1.17311E-18-9.69961E-19
 -1       931 9.13004E-05-1.97717E-05-3.06544E-05 2.58186E-06-4.05650E-19-1.81712E-18
 -1       932 9.52413E-05-2.85120E-05-2.85983E-05-3.18466E-10 6.86261E-19-2.21904E-18
 -1       933 9.52485E-05-2.85385E-05-2.85900E-05 1.01569E-08 1.09485E-18-1.07103E-18
 -1       934 1.14790E-04-5.06868E-05-2.73583E-05-1.65045E-05-1.07640E-18 1.46614E-18
 -1       935 9.49969E-05-2.95314E-05-2.80534E-05-1.27594E-05-3.03779E-19-7.58199E-19
 -1       936 1.03201E-04-3.95967E-05-2.72630E-05-1.57201E-05-1.03074E-18 3.63878E-19
 -1       937 9.52469E-05-2.85277E-05-2.85939E-05-5.19633E-09 1.35059E-18-6.09921E-19
 -1       938 6.19451E-05-1.58186E-05-1.96704E-05-9.55230E-06-2.47737E-19-2.67928E-18
 -1       939 9.52484E-05-2.85352E-05-2.85913E-05-8.63642E-09 1.00360E-18 2.53038E-20
 -1       940 9.31797E-05-2.51105E-05-2.91725E-05-8.74765E-06 2.50578E-19-8.24483E-19
 -1       941 7.75120E-05-2.58106E-05-2.20835E-05-2.04597E-05 1.16365E-18-4.79566E-19
 -1       942 6.44894E-05-1.75300E-05-1.99913E-05 1.32324E-05 1.33698E-18-2.62125E-18
 -1       943 7.64118E-05-2.51348E-05-2.19244E-05 2.00876E-05-1.16878E-18-8.80716E-20
 -1       944 8.91178E-05-1.77535E-05-3.05796E-05 1.91639E-06-6.84104E-20-1.72045E-18
 -1       945 6.42201E-05-1.53658E-05-2.08795E-05 6.29168E-06-6.35105E-19 1.57545E-18
 -1       946 9.52436E-05-2.85177E-05-2.85968E-05-1.49243E-09 1.16655E-18-6.54027E-19
 -1       947 8.55093E-05-3.17488E-05-2.29619E-05 2.33712E-05 1.35803E-18-5.90547E-19
 -1       948 8.83855E-05-1.71369E-05-3.05366E-05-1.65521E-06 1.06173E-18-1.45342E-18
 -1       949 8.72981E-05-1.61592E-05-3.04878E-05-7.08147E-07 5.40227E-19-1.69400E-18
 -1       950 8.78125E-05-2.07080E-05-2.87599E-05 6.39757E-06 5.27174E-20-1.20977E-18
 -1       951 9.06318E-05-2.10431E-05-2.98232E-05-4.88526E-06 9.91570E-19-9.48993E-19
 -1       952 8.46731E-05-2.23517E-05-2.67092E-05 1.11423E-05 7.43411E-19-1.20714E-18
 -1       953 8.31426E-05-2.40595E-05-2.53176E-05 1.47251E-05 8.40620E-19-1.11574E-18
 -1       954 8.34830E-05-2.69946E-05-2.41841E-05 1.86935E-05 6.75118E-19-1.01801E-18
 -1       955 9.36556E-05-2.68749E-05-2.86193E-05-1.07724E-05-6.94086E-20-6.37432E-19
 -1       956 8.81529E-05-2.57292E-05-2.67591E-05 1.19788E-05-1.15454E-18 2.59043E-18
 -1       957 8.34687E-05-2.43530E-05-2.53308E-05-1.40082E-05 1.72645E-19-1.01712E-18
 -1       958 8.45685E-05-2.28494E-05-2.64504E-05-1.07074E-05-2.05275E-19-6.29537E-20
 -1       959 8.59715E-05-2.23475E-05-2.72674E-05-8.37295E-06-6.57877E-21 9.42010E-19
 -1       960 8.74347E-05-2.24500E-05-2.78505E-05-6.67269E-06-1.34420E-18-6.34840E-19
 -1       961 8.88161E-05-2.28931E-05-2.82527E-05-5.37574E-06-2.73025E-18-1.82797E-18
 -1       962 9.00578E-05-2.35156E-05-2.85181E-05-4.34125E-06-2.00783E-18-1.34979E-18
 -1       963 9.11365E-05-2.42100E-05-2.86829E-05-3.49385E-06-5.72065E-19 3.73816E-19
 -1       964 9.20466E-05-2.49031E-05-2.87759E-05-2.78958E-06-1.01884E-19-8.02735E-19
 -1       965 9.27981E-05-2.55541E-05-2.88190E-05-2.20255E-06-1.14460E-19-1.41540E-18
 -1       966 9.34058E-05-2.61380E-05-2.88291E-05-1.71618E-06 4.11168E-19 2.56485E-19
 -1       967 9.38876E-05-2.66437E-05-2.88188E-05-1.31695E-06 4.10181E-19 5.07719E-19
 -1       968 9.42635E-05-2.70707E-05-2.87969E-05-9.92968E-07 8.43896E-19 3.71495E-19
 -1       969 9.45519E-05-2.74235E-05-2.87693E-05-7.34315E-07 9.94443E-19-4.64364E-19
 -1       970 9.47687E-05-2.77088E-05-2.87399E-05-5.31152E-07 1.65959E-18-1.11650E-18
 -1       971 9.49283E-05-2.79352E-05-2.87113E-05-3.74074E-07-2.21454E-20-1.20659E-18
 -1       972 9.50431E-05-2.81115E-05-2.86850E-05-2.54632E-07 7.68294E-19-8.37548E-20
 -1       973 9.51234E-05-2.82464E-05-2.86616E-05-1.65422E-07 9.31989E-19-4.07709E-19
 -1       974 9.51777E-05-2.83480E-05-2.86413E-05-1.00115E-07 4.89653E-19-9.28341E-19
 -1       975 9.52125E-05-2.84230E-05-2.86241E-05-5.35688E-08 4.13680E-19-1.57049E-18
 -1       976 9.52337E-05-2.84781E-05-2.86095E-05-2.07855E-08 8.82012E-19-1.38428E-18
 -1       977 8.90629E-05-2.85345E-05-2.59347E-05 1.51690E-05-7.88282E-19 1.28723E-18
 -1       978 1.11609E-04-4.71925E-05-2.75782E-05-1.49542E-05-7.55623E-19 1.04503E-18
 -1       979 8.83177E-05-2.42986E-05-2.74386E-05 9.53542E-06-6.07497E-19 1.35015E-18
 -1       980 8.89707E-05-2.37518E-05-2.79514E-05 7.64940E-06-3.70852E-19 2.29245E-18
 -1       981 8.98223E-05-2.37574E-05-2.83139E-05 6.16922E-06 5.95346E-19 1.46084E-18
 -1       982 9.07163E-05-2.40815E-05-2.85581E-05 4.97619E-06 7.48250E-19 1.32273E-18
 -1       983 9.15661E-05-2.45741E-05-2.87111E-05 3.99622E-06-3.33077E-19 2.61688E-18
 -1       984 9.23264E-05-2.51333E-05-2.87972E-05 3.18481E-06 9.89796E-19 2.91715E-18
 -1       985 9.29780E-05-2.56939E-05-2.88361E-05 2.51100E-06 6.32577E-19 1.67818E-18
 -1       986 9.35205E-05-2.62196E-05-2.88432E-05 1.95425E-06-1.94653E-19 1.00875E-18
 -1       987 9.39602E-05-2.66894E-05-2.88304E-05 1.49912E-06-6.76192E-19 1.06729E-18
 -1       988 9.43084E-05-2.70937E-05-2.88064E-05 1.13127E-06-3.13904E-19 1.03075E-18
 -1       989 9.45786E-05-2.74326E-05-2.87769E-05 8.37840E-07-2.63434E-19 1.34900E-18
 -1       990 9.47838E-05-2.77100E-05-2.87460E-05 6.07384E-07-1.11701E-18 8.78150E-19
 -1       991 9.49363E-05-2.79321E-05-2.87161E-05 4.29170E-07-4.45522E-19 1.38166E-19
 -1       992 9.50467E-05-2.81065E-05-2.86887E-05 2.93560E-07-6.06249E-19 1.49837E-18
 -1       993 9.51245E-05-2.82409E-05-2.86644E-05 1.92131E-07-3.25352E-20 8.45943E-19
 -1       994 9.51775E-05-2.83426E-05-2.86435E-05 1.17719E-07-1.55187E-19-2.24159E-19
 -1       995 9.52118E-05-2.84183E-05-2.86258E-05 6.44153E-08-8.69473E-19 7.75489E-19
 -1       996 9.52333E-05-2.84749E-05-2.86108E-05 2.66397E-08 7.07777E-19-7.08758E-19
 -1       997 8.88989E-05-1.98962E-05-2.95731E-05 4.53748E-06-9.35471E-20-1.39977E-18
 -1       998 9.52293E-05-2.84753E-05-2.86089E-05-7.25597E-09 1.04527E-18-7.19167E-19
 -1       999 8.63354E-05-2.14017E-05-2.78280E-05 8.49809E-06 5.21682E-19-1.21796E-18
 -1      1000 9.02713E-05-1.88565E-05-3.06078E-05-2.35789E-06 1.23719E-18-1.33488E-18
 -1      1001 8.91198E-05-1.89468E-05-3.00753E-05 3.16923E-06-5.91227E-22-1.48841E-18
 -1      1002 8.72004E-05-1.60724E-05-3.04835E-05 3.35589E-07 2.79735E-19-1.88156E-18
 -1      1003 6.92969E-05-1.79465E-05-2.19538E-05-1.13104E-05 7.90798E-19-2.73999E-19
 -1      1004 9.05193E-05-2.00224E-05-3.02102E-05-3.59663E-06 1.11315E-18-1.15271E-18
 -1      1005 8.78727E-05-1.66505E-05-3.05210E-05 1.15871E-06 1.28633E-19-1.95410E-18
 -1      1006 8.65197E-05-2.91428E-05-2.45579E-05-1.84847E-05 6.45492E-19-4.36150E-19
 -1      1007 8.81290E-05-3.19848E-05-2.40327E-05 2.05421E-05-1.35642E-18-9.81533E-21
 -1      1008 8.96652E-05-2.77709E-05-2.65253E-05-1.49316E-05-4.93131E-19-5.51496E-19
 -1      1009 7.26627E-05-1.93376E-05-2.28396E-05 1.20214E-05-1.55556E-18 2.00135E-20
 -1      1010 6.37940E-05-1.49485E-05-2.08562E-05 1.76582E-06 6.96295E-19-2.12831E-18
 -1      1011 7.32920E-05-2.20517E-05-2.18896E-05-1.79815E-05-6.98928E-19-2.38940E-18
 -1      1012 9.01609E-05-2.22219E-05-2.91158E-05-6.98615E-06 4.19513E-19-8.63736E-19
 -1      1013 9.52267E-05-2.84709E-05-2.86096E-05-4.70083E-10 8.23472E-19-3.01024E-18
 -1      1014 9.18020E-05-3.22724E-05-2.54941E-05-1.89169E-05-1.17965E-18-4.66301E-19
 -1      1015 6.82130E-05-1.58519E-05-2.24013E-05-3.81346E-06 3.22413E-19 9.19965E-20
 -1      1016 8.72878E-05-1.77550E-05-2.97999E-05-2.04350E-06 4.93695E-19-1.12275E-18
 -1      1017 8.87127E-05-1.87065E-05-3.00031E-05-3.01784E-06 7.54834E-19-1.19880E-18
 -1      1018 7.53946E-05-2.14184E-05-2.30978E-05 1.50928E-05 1.08446E-18-1.76091E-18
 -1      1019 9.40102E-05-3.83584E-05-2.37897E-05-2.46294E-05-1.58897E-18-7.28311E-19
 -1      1020 8.63859E-05-1.87768E-05-2.89693E-05 3.49373E-06 1.53494E-19-1.50521E-18
 -1      1021 8.16970E-05-2.42260E-05-2.46261E-05 1.46706E-05-1.55340E-18 1.96814E-19
 -1      1022 8.16522E-05-1.92408E-05-2.67444E-05 6.53391E-06 4.18059E-19-1.63938E-18
 -1      1023 8.96063E-05-2.34493E-05-2.83518E-05-9.21449E-06 7.29298E-20-6.09804E-19
 -1      1024 8.50960E-05-2.17487E-05-2.71504E-05 6.96519E-06-1.40648E-18 8.80201E-19
 -1      1025 7.79309E-05-1.96926E-05-2.49582E-05-9.01747E-06 7.56313E-19-2.69813E-19
 -1      1026 8.11773E-05-1.99791E-05-2.62271E-05-6.73390E-06 7.87392E-19-1.54069E-18
 -1      1027 8.38111E-05-2.05498E-05-2.71120E-05-5.19148E-06-5.90456E-19-1.03776E-18
 -1      1028 8.60146E-05-2.13175E-05-2.77278E-05-4.11017E-06-2.40793E-18-1.00645E-18
 -1      1029 8.78474E-05-2.21658E-05-2.81501E-05-3.29036E-06-2.59341E-18 6.38943E-19
 -1      1030 8.93865E-05-2.30521E-05-2.84297E-05-2.64663E-06-6.89364E-19 1.01039E-18
 -1      1031 9.06635E-05-2.39154E-05-2.86068E-05-2.12545E-06-7.24416E-19-4.62800E-19
 -1      1032 9.17091E-05-2.47166E-05-2.87114E-05-1.69091E-06-5.23216E-19-2.03448E-18
 -1      1033 9.25559E-05-2.54375E-05-2.87650E-05-1.33269E-06 7.98967E-19-3.31866E-18
 -1      1034 9.32333E-05-2.60684E-05-2.87851E-05-1.03592E-06 1.57856E-18-1.98968E-18
 -1      1035 9.37660E-05-2.66039E-05-2.87840E-05-7.90275E-07 7.73366E-19-2.38478E-19
 -1      1036 9.41813E-05-2.70524E-05-2.87697E-05-5.92466E-07 6.54342E-19 4.43035E-19
 -1      1037 9.44976E-05-2.74185E-05-2.87483E-05-4.35560E-07 7.34269E-19-5.37916E-19
 -1      1038 9.47342E-05-2.77118E-05-2.87240E-05-3.12699E-07 2.75809E-19-1.69718E-19
 -1      1039 9.49076E-05-2.79426E-05-2.86994E-05-2.18040E-07 1.29696E-18 6.38474E-19
 -1      1040 9.50318E-05-2.81210E-05-2.86761E-05-1.46376E-07 3.95220E-19-8.63522E-19
 -1      1041 9.51181E-05-2.82565E-05-2.86550E-05-9.31311E-08 1.00250E-18-2.03514E-18
 -1      1042 9.51759E-05-2.83579E-05-2.86363E-05-5.45435E-08-3.88566E-19-1.95907E-18
 -1      1043 9.52074E-05-2.84230E-05-2.86219E-05-2.43060E-08 5.26059E-19-1.23906E-18
 -1      1044 8.68064E-05-2.20695E-05-2.77457E-05 5.42066E-06 4.25884E-19 5.62796E-19
 -1      1045 8.29875E-05-2.26233E-05-2.58697E-05 1.09522E-05-7.64195E-19 3.08711E-19
 -1      1046 8.39767E-05-2.19557E-05-2.65770E-05 8.70151E-06-5.83885E-19-2.37016E-19
 -1      1047 8.83273E-05-2.26316E-05-2.81567E-05 4.27514E-06-1.72322E-19 1.77687E-18
 -1      1048 8.96680E-05-2.33262E-05-2.84333E-05 3.38577E-06-9.85841E-19 2.03695E-18
 -1      1049 9.08245E-05-2.40689E-05-2.86103E-05 2.67901E-06 4.87385E-19 1.77794E-18
 -1      1050 9.17942E-05-2.47907E-05-2.87159E-05 2.11222E-06 1.50396E-18 1.18630E-18
 -1      1051 9.25980E-05-2.54660E-05-2.87708E-05 1.64886E-06 5.05690E-19 8.29563E-19
 -1      1052 9.32493E-05-2.60696E-05-2.87915E-05 1.27135E-06-8.34787E-19 9.04376E-19
 -1      1053 9.37676E-05-2.65910E-05-2.87903E-05 9.67160E-07-3.13402E-19 4.86224E-19
 -1      1054 9.41752E-05-2.70323E-05-2.87757E-05 7.23381E-07 2.97165E-19 8.43938E-20
 -1      1055 9.44885E-05-2.73965E-05-2.87539E-05 5.31188E-07-3.45714E-19 9.46354E-19
 -1      1056 9.47246E-05-2.76908E-05-2.87289E-05 3.81541E-07-3.40667E-19 5.69500E-19
 -1      1057 9.48989E-05-2.79238E-05-2.87037E-05 2.66664E-07-1.28793E-18-5.29203E-19
 -1      1058 9.50244E-05-2.81051E-05-2.86798E-05 1.79866E-07-2.42973E-19 1.47744E-19
 -1      1059 9.51121E-05-2.82435E-05-2.86581E-05 1.15379E-07 7.75007E-19 8.60355E-19
 -1      1060 9.51717E-05-2.83477E-05-2.86389E-05 6.82990E-08-4.62633E-19 7.99657E-19
 -1      1061 9.52096E-05-2.84241E-05-2.86223E-05 3.47367E-08 4.10675E-19-1.04863E-18
 -1      1062 8.43102E-05-1.90623E-05-2.79565E-05 4.85024E-06 1.65348E-19-1.42707E-18
 -1      1063 7.12272E-05-1.75743E-05-2.29582E-05-8.62152E-06 2.25569E-19-1.94097E-18
 -1      1064 7.64707E-05-2.13987E-05-2.35883E-05-1.38313E-05 3.83747E-19-8.78573E-19
 -1      1065 9.52294E-05-2.84758E-05-2.86087E-05 6.47511E-09 7.55263E-19-6.62596E-19
 -1      1066 9.52354E-05-2.84878E-05-2.86061E-05 1.05574E-08 7.91320E-19-1.32770E-18
 -1      1067 8.65379E-05-1.71207E-05-2.97490E-05-3.08374E-07 3.85504E-19-1.54358E-18
 -1      1068 7.80089E-05-1.92547E-05-2.51771E-05 8.84143E-06 6.77628E-19-1.97710E-18
 -1      1069 8.92671E-05-2.51135E-05-2.74949E-05-1.17641E-05-4.12804E-21-7.01952E-19
 -1      1070 8.70956E-05-1.81387E-05-2.95548E-05 2.45185E-06 1.10488E-19-1.72567E-18
 -1      1071 9.52012E-05-2.84128E-05-2.86233E-05-5.62252E-09 8.91564E-19-1.82234E-18
 -1      1072 8.05657E-05-2.28595E-05-2.47188E-05-1.41990E-05-6.27745E-19-1.17476E-18
 -1      1073 7.10756E-05-1.64969E-05-2.33708E-05 3.32540E-06-1.25384E-19 4.36987E-20
 -1      1074 8.56059E-05-1.79895E-05-2.89780E-05-1.68839E-06 3.92522E-19-1.49051E-18
 -1      1075 7.15354E-05-1.73059E-05-2.32185E-05 7.35776E-06 7.53520E-19-2.03172E-18
 -1      1076 8.28041E-05-2.15126E-05-2.62718E-05-1.03802E-05-7.74588E-20-9.81462E-19
 -1      1077 8.72719E-05-1.93007E-05-2.91299E-05-4.14873E-06 4.25382E-19-8.11839E-19
 -1      1078 7.31199E-05-1.76979E-05-2.37431E-05-7.10718E-06 2.45522E-19 8.97435E-19
 -1      1079 8.12388E-05-1.79473E-05-2.71417E-05 1.82263E-06 1.40499E-19-1.37630E-18
 -1      1080 8.57016E-05-1.99283E-05-2.81843E-05-5.80010E-06 3.48616E-19-8.74071E-19
 -1      1081 7.69344E-05-1.92850E-05-2.46953E-05 8.42996E-06-1.31047E-18-9.63294E-19
 -1      1082 7.67296E-05-1.80520E-05-2.51465E-05-5.89255E-06-1.15454E-20-1.08862E-18
 -1      1083 8.37420E-05-2.03925E-05-2.71394E-05 3.75691E-06-7.94946E-19-1.85769E-18
 -1      1084 8.05446E-05-1.89788E-05-2.63861E-05-2.39882E-06 7.98058E-20-9.28168E-19
 -1      1085 8.33760E-05-1.99103E-05-2.71964E-05-1.87331E-06-1.88636E-18-2.09902E-18
 -1      1086 8.58253E-05-2.10108E-05-2.77780E-05-1.49723E-06-1.21205E-18-1.06872E-18
 -1      1087 8.77892E-05-2.20595E-05-2.81709E-05-1.24030E-06-5.12029E-19 5.61135E-19
 -1      1088 8.93869E-05-2.30510E-05-2.84308E-05-1.02181E-06-1.57095E-18 1.19353E-18
 -1      1089 9.07301E-05-2.39923E-05-2.85986E-05-8.40277E-07-1.78858E-18 1.38797E-18
 -1      1090 9.17858E-05-2.48246E-05-2.86976E-05-6.78007E-07-4.92546E-19 1.39928E-18
 -1      1091 9.25967E-05-2.55227E-05-2.87451E-05-5.25254E-07 1.09053E-18 9.21824E-19
 -1      1092 9.32797E-05-2.61598E-05-2.87656E-05-4.01766E-07 1.62451E-18-8.65998E-19
 -1      1093 9.38118E-05-2.66933E-05-2.87651E-05-3.08643E-07 1.21828E-18-5.60980E-19
 -1      1094 9.42209E-05-2.71320E-05-2.87524E-05-2.31407E-07-5.41200E-19-1.73351E-18
 -1      1095 9.45310E-05-2.74870E-05-2.87332E-05-1.69337E-07 2.42950E-19-2.32676E-18
 -1      1096 9.47617E-05-2.77693E-05-2.87111E-05-1.20590E-07 1.86208E-18-1.66310E-18
 -1      1097 9.49297E-05-2.79898E-05-2.86886E-05-8.30907E-08 2.55136E-19-1.06477E-18
 -1      1098 9.50489E-05-2.81590E-05-2.86671E-05-5.48264E-08-1.13344E-18-1.61945E-18
 -1      1099 9.51316E-05-2.82876E-05-2.86475E-05-3.17170E-08-1.13335E-19-2.71146E-18
 -1      1100 9.51716E-05-2.83567E-05-2.86349E-05-1.76510E-08 2.33333E-19-9.35937E-19
 -1      1101 8.93278E-05-2.30435E-05-2.84068E-05 1.76532E-06-2.47453E-19-1.57411E-18
 -1      1102 9.06090E-05-2.39134E-05-2.85811E-05 1.36813E-06 9.43691E-19-9.11263E-19
 -1      1103 9.17152E-05-2.47681E-05-2.86911E-05 1.04641E-06 8.36473E-19 1.35234E-18
 -1      1104 9.25510E-05-2.54760E-05-2.87447E-05 8.10677E-07-2.26538E-20 9.45797E-19
 -1      1105 9.32148E-05-2.60941E-05-2.87663E-05 6.23716E-07-4.50223E-19 7.35352E-19
 -1      1106 9.37553E-05-2.66300E-05-2.87680E-05 4.71380E-07 1.96847E-19-2.28099E-19
 -1      1107 9.41748E-05-2.70764E-05-2.87564E-05 3.50159E-07-4.45155E-19-6.17273E-19
 -1      1108 9.44945E-05-2.74401E-05-2.87375E-05 2.54920E-07-4.83398E-19 7.65301E-20
 -1      1109 9.47337E-05-2.77308E-05-2.87155E-05 1.81255E-07-1.57095E-19 1.09411E-19
 -1      1110 9.49088E-05-2.79590E-05-2.86927E-05 1.25152E-07-6.77543E-19-1.18782E-18
 -1      1111 9.50338E-05-2.81350E-05-2.86709E-05 8.31395E-08-3.68999E-19-1.79540E-18
 -1      1112 9.51203E-05-2.82680E-05-2.86509E-05 5.25574E-08-1.92827E-19-1.48956E-19
 -1      1113 9.51791E-05-2.83689E-05-2.86330E-05 2.90812E-08-4.01495E-20 1.37065E-20
 -1      1114 8.52867E-05-1.79770E-05-2.88521E-05 1.59998E-06 3.39247E-19-1.24566E-18
 -1      1115 8.59019E-05-2.12116E-05-2.77259E-05 2.89340E-06-7.32078E-20-8.69522E-19
 -1      1116 7.66125E-05-1.78629E-05-2.51789E-05-3.14648E-06 2.38733E-19 2.34921E-20
 -1      1117 8.42360E-05-2.05567E-05-2.72924E-05-7.80795E-06 2.26759E-19-1.11599E-18
 -1      1118 7.26151E-05-1.65539E-05-2.40254E-05-4.03451E-07 5.77184E-19-1.79460E-18
 -1      1119 9.52062E-05-2.84243E-05-2.86208E-05 1.00135E-08 3.37141E-19-2.21963E-18
 -1      1120 8.77754E-05-2.21288E-05-2.81340E-05 2.25259E-06-1.22796E-19-1.07678E-18
 -1      1121 7.72054E-05-1.73919E-05-2.56333E-05 2.40542E-06 3.98548E-19-1.67691E-18
 -1      1122 7.95042E-05-1.94818E-05-2.57177E-05 6.30762E-06-4.99076E-19-7.68627E-19
 -1      1123 8.18856E-05-1.99220E-05-2.65548E-05 4.91506E-06-1.90990E-18-7.98143E-19
 -1      1124 8.27955E-05-1.80346E-05-2.77538E-05-1.78192E-06 2.76539E-19-1.21973E-18
 -1      1125 7.38400E-05-1.69700E-05-2.43720E-05-2.83217E-08 3.67129E-19-5.00903E-19
 -1      1126 8.17968E-05-1.93787E-05-2.67760E-05 1.26403E-06-1.84568E-18-2.36973E-18
 -1      1127 9.09291E-05-2.41755E-05-2.86157E-05 1.57353E-07-7.40260E-19 1.27004E-18
 -1      1128 7.84580E-05-1.82581E-05-2.58010E-05 8.60692E-07-3.32364E-19-1.80301E-18
 -1      1129 9.21375E-05-2.51439E-05-2.87162E-05 1.93725E-07-9.09017E-20 2.07472E-18
 -1      1130 8.00673E-05-1.82132E-05-2.65081E-05-4.00982E-06 2.03493E-19-1.08265E-18
 -1      1131 7.66905E-05-1.80025E-05-2.51594E-05 3.33404E-06-4.75835E-19-1.26971E-18
 -1      1132 1.16667E-04 2.58510E-10-4.19439E-05-4.02984E-05-3.28225E-19 8.70009E-18
 -1      1133 8.97657E-05 7.58993E-11-3.76373E-05-2.24509E-05-1.60725E-19 4.90644E-19
 -1      1134 8.52185E-05 4.38931E-11-3.61915E-05-1.56955E-05-1.09161E-19-2.89671E-18
 -1      1135 8.31000E-05 3.22716E-11-3.53771E-05-1.14469E-05-6.29981E-20-4.38862E-18
 -1      1136 8.17457E-05 2.54227E-11-3.48419E-05-8.21691E-06-3.97841E-20-5.00884E-18
 -1      1137 8.07729E-05 2.07578E-11-3.44606E-05-5.65146E-06-1.74171E-20-5.21536E-18
 -1      1138 8.00798E-05 1.75778E-11-3.41907E-05-3.53255E-06-1.02967E-20-5.21322E-18
 -1      1139 7.96553E-05 1.57236E-11-3.40262E-05-1.68409E-06 7.12037E-21-5.11178E-18
 -1      1140 7.95177E-05 1.51548E-11-3.39727E-05 2.38809E-08 2.51910E-20-4.89662E-18
 -1      1141 7.96710E-05 1.58574E-11-3.40315E-05 1.73974E-06 3.95657E-20-4.65442E-18
 -1      1142 8.01074E-05 1.78360E-11-3.41998E-05 3.61134E-06 4.60574E-20-4.34435E-18
 -1      1143 8.08087E-05 2.10875E-11-3.44710E-05 5.76671E-06 6.13569E-20-3.78929E-18
 -1      1144 8.17815E-05 2.58832E-11-3.48523E-05 8.37909E-06 8.22151E-20-2.96743E-18
 -1      1145 8.31275E-05 3.28681E-11-3.53878E-05 1.16709E-05 1.06567E-19-1.64275E-18
 -1      1146 8.52104E-05 4.43930E-11-3.62085E-05 1.59731E-05 1.33990E-19 6.99504E-19
 -1      1147 8.94494E-05 7.09333E-11-3.76966E-05 2.23398E-05 1.38278E-19 4.92301E-18
 -1      1148 1.06712E-04 1.67459E-10-4.07551E-05 3.50674E-05 2.18535E-19 1.30450E-17
 -1      1149 1.29630E-04-2.58508E-05-4.03153E-05-2.53373E-05-1.28294E-18 1.38973E-17
 -1      1150 9.89473E-05-2.93239E-05-3.20329E-05-5.15516E-07-4.00435E-19 1.10618E-17
 -1      1151 9.32883E-05-2.79816E-05-2.88175E-05 4.23519E-07-2.12446E-19 6.92963E-18
 -1      1152 9.28888E-05-2.79791E-05-2.80480E-05 2.78719E-07-8.86010E-20 4.17280E-18
 -1      1153 9.42479E-05-2.83685E-05-2.83248E-05 2.04556E-07-8.80021E-20 2.06380E-18
 -1      1154 9.66776E-05-2.90669E-05-2.90405E-05 1.75374E-07-5.77703E-20 9.80732E-19
 -1      1155 9.98654E-05-3.00000E-05-2.99953E-05 1.68996E-07 9.65485E-21 3.82859E-19
 -1      1156 1.03612E-04-3.11056E-05-3.11079E-05 1.74445E-07-4.71716E-20-2.58927E-19
 -1      1157 1.07686E-04-3.23091E-05-3.23007E-05 1.81309E-07-7.78130E-20-1.34646E-18
 -1      1158 1.11715E-04-3.34961E-05-3.34544E-05 1.74566E-07-6.24943E-20-2.73597E-18
 -1      1159 1.15095E-04-3.44840E-05-3.43825E-05 1.31155E-07 1.17615E-19-3.24295E-18
 -1      1160 1.16939E-04-3.50098E-05-3.48291E-05 2.18774E-08 5.98581E-20-2.31333E-18
 -1      1161 1.16187E-04-3.47636E-05-3.45158E-05-1.74283E-07 5.10470E-20-2.86392E-18
 -1      1162 1.11994E-04-3.35060E-05-3.32631E-05-4.37545E-07-2.18276E-20-3.28718E-18
 -1      1163 1.04447E-04-3.12815E-05-3.11691E-05-6.72079E-07-8.96813E-20-2.91252E-18
 -1      1164 9.52604E-05-2.86075E-05-2.87385E-05-7.17958E-07-1.80302E-19-4.24205E-18
 -1      1165 8.76829E-05-2.64255E-05-2.67999E-05-4.59839E-07-7.41816E-20-4.74153E-18
 -1      1166 8.50464E-05-2.56725E-05-2.61420E-05 3.34096E-08-9.85536E-20-5.84209E-18
 -1      1167 8.86743E-05-2.67145E-05-2.70673E-05 5.10896E-07 1.40296E-19-7.36225E-18
 -1      1168 9.69441E-05-2.91027E-05-2.92049E-05 7.34420E-07 1.38755E-19-6.43205E-18
 -1      1169 1.06436E-04-3.18726E-05-3.17415E-05 6.60247E-07-2.14544E-19-5.78036E-18
 -1      1170 1.14044E-04-3.41209E-05-3.38762E-05 4.17656E-07-6.52712E-20-4.05925E-18
 -1      1171 1.18274E-04-3.53928E-05-3.51562E-05 1.62971E-07 2.26780E-20-4.18048E-18
 -1      1172 1.19200E-04-3.56923E-05-3.55281E-05-1.75418E-08-7.94325E-20-4.05999E-18
 -1      1173 1.17730E-04-3.52774E-05-3.51932E-05-1.10717E-07 1.21291E-19-3.71273E-18
 -1      1174 1.14915E-04-3.44562E-05-3.44312E-05-1.39434E-07 2.45253E-19-2.75130E-18
 -1      1175 1.11597E-04-3.34779E-05-3.34868E-05-1.31991E-07 3.81017E-19-8.20537E-19
 -1      1176 1.08318E-04-3.25053E-05-3.25288E-05-1.09340E-07-2.39828E-19-5.97423E-19
 -1      1177 1.05370E-04-3.16269E-05-3.16536E-05-8.35415E-08-1.38354E-20-2.06448E-18
 -1      1178 1.02872E-04-3.08799E-05-3.09041E-05-6.02242E-08 1.88622E-19-1.47233E-18
 -1      1179 1.00841E-04-3.02706E-05-3.02904E-05-4.13112E-08-2.26030E-19-1.92213E-18
 -1      1180 9.92412E-05-2.97891E-05-2.98044E-05-2.69208E-08-5.05837E-20-4.82933E-18
 -1      1181 9.80131E-05-2.94185E-05-2.94298E-05-1.64492E-08 2.11504E-19-2.29809E-18
 -1      1182 9.70924E-05-2.91400E-05-2.91481E-05-9.10362E-09 1.61378E-19-9.04932E-19
 -1      1183 9.64182E-05-2.89355E-05-2.89410E-05-4.13256E-09-1.77641E-19-1.64725E-18
 -1      1184 9.59366E-05-2.87890E-05-2.87927E-05-9.04281E-10-7.49775E-20-2.81444E-18
 -1      1185 9.56024E-05-2.86870E-05-2.86893E-05 1.08018E-09 2.60301E-19-3.70430E-18
 -1      1186 9.53789E-05-2.86185E-05-2.86199E-05 2.20056E-09 1.83167E-19-2.73118E-18
 -1      1187 9.52368E-05-2.85746E-05-2.85754E-05 2.73891E-09-1.27137E-19-2.89517E-18
 -1      1188 9.51532E-05-2.85486E-05-2.85489E-05 2.90094E-09 8.43008E-20-4.10208E-18
 -1      1189 9.51109E-05-2.85352E-05-2.85352E-05 2.83420E-09 8.56751E-20-5.31996E-18
 -1      1190 9.50967E-05-2.85304E-05-2.85303E-05 2.64253E-09-1.97917E-19-7.39134E-18
 -1      1191 9.51012E-05-2.85313E-05-2.85311E-05 2.39697E-09 3.69060E-19-5.51122E-18
 -1      1192 9.51174E-05-2.85358E-05-2.85356E-05 2.14369E-09 1.62879E-19-1.42476E-18
 -1      1193 9.51403E-05-2.85424E-05-2.85422E-05 1.90841E-09-1.27993E-19-1.15846E-18
 -1      1194 9.51662E-05-2.85500E-05-2.85498E-05 1.69610E-09 7.48054E-19 1.30094E-18
 -1      1195 9.51921E-05-2.85576E-05-2.85573E-05 1.48025E-09-1.32357E-19 2.84128E-18
 -1      1196 9.52152E-05-2.85645E-05-2.85639E-05 1.14990E-09 2.30598E-19 2.04760E-18
 -1      1197 9.52317E-05-2.85692E-05-2.85687E-05 4.69495E-10-1.96083E-21 9.57403E-19
 -1      1198 9.52378E-05-2.85714E-05-2.85714E-05-3.09400E-10 3.42429E-19-5.17909E-19
 -1      1199 1.30401E-04-3.74542E-05-3.87522E-05 1.19354E-05-2.17449E-19 1.95576E-17
 -1      1200 9.81294E-05-2.86755E-05-3.17975E-05 7.41314E-07 8.80650E-20 1.64455E-17
 -1      1201 9.34640E-05-2.78768E-05-2.87918E-05 1.05658E-07 7.21434E-20 1.33259E-17
 -1      1202 9.29002E-05-2.78855E-05-2.80628E-05 9.86571E-09 6.41230E-20 1.09756E-17
 -1      1203 9.41509E-05-2.82878E-05-2.83103E-05-2.22848E-08-4.07965E-21 9.52277E-18
 -1      1204 9.64542E-05-2.89703E-05-2.89817E-05-3.91591E-08 3.41990E-20 8.44738E-18
 -1      1205 9.94587E-05-2.98580E-05-2.98779E-05-5.80783E-08-4.55595E-20 8.02217E-18
 -1      1206 1.02932E-04-3.08848E-05-3.09065E-05-8.48349E-08 4.86242E-20 7.32167E-18
 -1      1207 1.06614E-04-3.19711E-05-3.19806E-05-1.20573E-07 6.35271E-20 5.97021E-18
 -1      1208 1.10119E-04-3.30012E-05-3.29778E-05-1.60868E-07 1.23036E-19 5.28734E-18
 -1      1209 1.12864E-04-3.38048E-05-3.37206E-05-1.91576E-07 1.27374E-19 4.32303E-18
 -1      1210 1.14063E-04-3.41553E-05-3.39836E-05-1.85444E-07-9.90598E-20 4.56554E-18
 -1      1211 1.12851E-04-3.38059E-05-3.35434E-05-1.06548E-07-3.18961E-20 5.08876E-18
 -1      1212 1.08644E-04-3.25878E-05-3.22852E-05 6.76900E-08-6.09268E-20 5.10300E-18
 -1      1213 1.01698E-04-3.05651E-05-3.03434E-05 3.08494E-07 1.49538E-19 3.80127E-18
 -1      1214 9.35962E-05-2.81733E-05-2.81854E-05 5.12037E-07 5.76545E-21 2.35560E-18
 -1      1215 8.70680E-05-2.61968E-05-2.65157E-05 5.43198E-07-2.58517E-19 2.49674E-18
 -1      1216 8.48146E-05-2.54559E-05-2.59770E-05 3.43083E-07 1.70366E-19 2.51094E-18
 -1      1217 8.79051E-05-2.63227E-05-2.68062E-05 1.21660E-10 4.00355E-20 9.89970E-21
 -1      1218 9.50619E-05-2.84553E-05-2.86931E-05-3.09021E-07-7.70932E-20 1.17992E-18
 -1      1219 1.03512E-04-3.10157E-05-3.09649E-05-4.56035E-07 1.22946E-19 5.86041E-19
 -1      1220 1.10613E-04-3.31790E-05-3.29432E-05-4.31293E-07-1.72269E-19 2.22992E-18
 -1      1221 1.14942E-04-3.44967E-05-3.42171E-05-3.07153E-07 2.84497E-19 1.23587E-18
 -1      1222 1.16374E-04-3.49295E-05-3.47016E-05-1.63502E-07 5.16392E-20-5.84764E-19
 -1      1223 1.15561E-04-3.46807E-05-3.45370E-05-4.79058E-08 8.51483E-20-1.01234E-19
 -1      1224 1.13373E-04-3.40184E-05-3.39503E-05 2.59463E-08 3.91802E-20 1.12523E-18
 -1      1225 1.10565E-04-3.31720E-05-3.31561E-05 6.35165E-08-1.56338E-19 2.13221E-18
 -1      1226 1.07663E-04-3.22994E-05-3.23132E-05 7.61623E-08 3.00335E-19-1.25657E-18
 -1      1227 1.04973E-04-3.14921E-05-3.15193E-05 7.43373E-08 2.04864E-20-1.99853E-18
 -1      1228 1.02643E-04-3.07935E-05-3.08241E-05 6.54899E-08 2.62940E-19-2.56904E-18
 -1      1229 1.00716E-04-3.02159E-05-3.02449E-05 5.41902E-08-6.88880E-20-2.55427E-18
 -1      1230 9.91774E-05-2.97547E-05-2.97798E-05 4.29226E-08 1.18238E-19-2.20830E-18
 -1      1231 9.79840E-05-2.93970E-05-2.94175E-05 3.28594E-08-1.75196E-19-1.76745E-19
 -1      1232 9.70818E-05-2.91264E-05-2.91426E-05 2.44236E-08 1.44232E-19 1.10558E-18
 -1      1233 9.64167E-05-2.89268E-05-2.89392E-05 1.76455E-08-5.39611E-20 1.89998E-18
 -1      1234 9.59390E-05-2.87833E-05-2.87926E-05 1.23704E-08-2.00288E-19 1.19613E-18
 -1      1235 9.56061E-05-2.86832E-05-2.86900E-05 8.37257E-09 9.99566E-20-1.09594E-18
 -1      1236 9.53825E-05-2.86160E-05-2.86208E-05 5.41558E-09 1.96338E-19-2.46678E-18
 -1      1237 9.52398E-05-2.85730E-05-2.85763E-05 3.28068E-09 3.56060E-19-4.62262E-18
 -1      1238 9.51556E-05-2.85475E-05-2.85497E-05 1.77834E-09-1.18108E-19-2.65198E-18
 -1      1239 9.51126E-05-2.85344E-05-2.85359E-05 7.50366E-10-3.40740E-19 6.70514E-19
 -1      1240 9.50979E-05-2.85299E-05-2.85308E-05 6.78574E-11 3.93459E-21 1.42839E-18
 -1      1241 9.51020E-05-2.85310E-05-2.85315E-05-3.72682E-10 3.98778E-20-4.11620E-19
 -1      1242 9.51179E-05-2.85357E-05-2.85359E-05-6.53808E-10 7.26067E-19-1.15772E-18
 -1      1243 9.51406E-05-2.85424E-05-2.85425E-05-8.41006E-10-3.48116E-19-3.95274E-18
 -1      1244 9.51664E-05-2.85500E-05-2.85500E-05-9.84200E-10 4.06068E-19-5.96256E-18
 -1      1245 9.51922E-05-2.85577E-05-2.85574E-05-1.11503E-09 2.22570E-19-8.61202E-18
 -1      1246 9.52152E-05-2.85645E-05-2.85640E-05-1.20443E-09 1.91541E-19-8.56671E-18
 -1      1247 9.52318E-05-2.85694E-05-2.85688E-05-9.95565E-10 3.63759E-19-8.48315E-18
 -1      1248 9.52378E-05-2.85714E-05-2.85714E-05 2.47430E-10 1.01805E-19-4.29249E-18
 -1      1249 9.52368E-05-2.85705E-05-2.85714E-05 1.64179E-10-4.11494E-18-8.23883E-20
 -1      1250 9.52390E-05-2.85767E-05-2.85688E-05-3.97758E-10-8.34254E-18-3.66330E-19
 -1      1251 9.52435E-05-2.85921E-05-2.85644E-05-1.05388E-09-2.20484E-18 2.12592E-20
 -1      1252 9.52493E-05-2.86117E-05-2.85590E-05-1.11229E-09 1.14770E-18 3.25871E-20
 -1      1253 9.52550E-05-2.86310E-05-2.85534E-05-9.50657E-10 2.14547E-18 2.31969E-19
 -1      1254 9.52599E-05-2.86475E-05-2.85486E-05-7.10087E-10-1.28163E-18-7.31431E-19
 -1      1255 9.52636E-05-2.86599E-05-2.85450E-05-4.74867E-10-3.87780E-18 1.40973E-19
 -1      1256 9.52659E-05-2.86675E-05-2.85427E-05-2.32799E-10-5.08559E-18 8.80783E-20
 -1      1257 9.52666E-05-2.86701E-05-2.85419E-05 6.36260E-13-5.26711E-18-1.28636E-18
 -1      1258 9.52659E-05-2.86675E-05-2.85427E-05 2.34557E-10-8.61938E-18-6.81152E-21
 -1      1259 9.52636E-05-2.86598E-05-2.85450E-05 4.77533E-10-1.11899E-17-8.02813E-19
 -1      1260 9.52599E-05-2.86474E-05-2.85487E-05 7.27356E-10-1.41421E-17 1.62517E-19
 -1      1261 9.52550E-05-2.86308E-05-2.85535E-05 9.56873E-10-1.29142E-17 2.87550E-19
 -1      1262 9.52492E-05-2.86114E-05-2.85591E-05 1.13282E-09-8.45804E-18 8.52438E-19
 -1      1263 9.52434E-05-2.85916E-05-2.85645E-05 1.25203E-09-2.14240E-18 2.82623E-20
 -1      1264 9.52392E-05-2.85769E-05-2.85688E-05 3.62627E-10 1.11817E-18 8.38052E-20
 -1      1265 9.52368E-05-2.85705E-05-2.85715E-05-1.24255E-10 5.12651E-19 5.52744E-19
 -1      1266 3.31539E-05-1.05770E-04 1.78890E-05-1.39589E-05 1.93632E-18 1.18365E-18
 -1      1267 1.66424E-05-6.41925E-05 9.33824E-06-2.41405E-05 9.12678E-18 4.33639E-18
 -1      1268 8.56068E-06-8.75553E-06-6.44831E-06 1.59220E-06 1.50382E-17 9.88233E-18
 -1      1269 3.53656E-05 2.44677E-05-2.65011E-05 5.44860E-05 1.42827E-17 1.38795E-17
 -1      1270 1.04943E-04 1.38698E-05-4.59369E-05 1.00118E-04 1.08640E-17 1.61783E-17
 -1      1271 2.00807E-04-3.02869E-05-6.29208E-05 1.09346E-04 6.21637E-18 1.39354E-17
 -1      1272 2.83016E-04-7.71801E-05-7.44777E-05 6.62474E-05 1.85564E-18 6.75932E-18
 -1      1273 3.11125E-04-9.44653E-05-7.78599E-05-1.23246E-05 8.66515E-19-3.87920E-18
 -1      1274 2.62224E-04-6.36803E-05-7.20130E-05-8.37003E-05 4.05962E-18-1.38795E-17
 -1      1275 1.70220E-04-1.37049E-05-5.79939E-05-1.11178E-04 1.02686E-17-1.97901E-17
 -1      1276 7.76305E-05 2.23854E-05-3.95534E-05-8.76725E-05 1.60309E-17-1.99544E-17
 -1      1277 2.01489E-05 1.87341E-05-1.92834E-05-3.44821E-05 1.74861E-17-1.48985E-17
 -1      1278 8.34515E-06-2.68261E-05-2.30031E-07 1.25083E-05 1.47333E-17-8.23062E-18
 -1      1279 2.37671E-05-8.32818E-05 1.36430E-05 2.40147E-05 7.47676E-18-2.87716E-18
 -1      1280 3.69677E-05-1.13985E-04 1.93541E-05 4.71414E-06-2.72120E-18-7.46024E-19
 -1      1281 3.00254E-05-9.77203E-05 1.62293E-05-2.13455E-05-1.36821E-17-3.31613E-18
 -1      1282 1.13461E-05-4.36350E-05 4.29958E-06-1.96266E-05-2.04330E-17-9.53844E-18
 -1      1283 1.40323E-05 8.07574E-06-1.37930E-05 1.94245E-05-2.14401E-17-1.57972E-17
 -1      1284 6.32871E-05 2.29896E-05-3.51527E-05 7.60612E-05-1.67967E-17-1.85568E-17
 -1      1285 1.54158E-04-6.70454E-06-5.54608E-05 1.12009E-04-9.20894E-18-1.60801E-17
 -1      1286 2.52599E-04-5.86676E-05-7.03144E-05 9.31987E-05-3.80170E-18-1.18534E-17
 -1      1287 3.06990E-04-9.03400E-05-7.77311E-05 2.27603E-05-1.02131E-18-1.39337E-18
 -1      1288 2.93283E-04-8.24692E-05-7.57152E-05-5.69474E-05-1.81800E-18 8.41400E-18
 -1      1289 2.16130E-04-3.85230E-05-6.52639E-05-1.06582E-04-6.38748E-18 1.57082E-17
 -1      1290 1.13729E-04 1.00668E-05-4.75715E-05-1.01548E-04-1.16891E-17 1.71727E-17
 -1      1291 3.63109E-05 2.44451E-05-2.66017E-05-5.44665E-05-1.32578E-17 1.34051E-17
 -1      1292 7.49425E-06-6.34005E-06-6.77548E-06-1.09566E-06-1.09335E-17 6.97278E-18
 -1      1293 1.68311E-05-6.29124E-05 9.06346E-06 2.52430E-05-7.43780E-18 2.74523E-18
 -1      1294 3.36260E-05-1.06328E-04 1.79738E-05 1.37109E-05-3.53340E-18 7.81467E-19
 -1      1295 1.05250E-04-2.22258E-05-3.81038E-05-1.63730E-05-4.75503E-19 6.82264E-18
 -1      1296 9.18149E-05-7.08446E-06-3.64594E-05-1.85409E-05-1.20527E-18-1.12401E-18
 -1      1297 9.41119E-05-7.21449E-06-3.75880E-05-2.39994E-05-1.59782E-18 6.43110E-19
 -1      1298 8.71482E-05-4.33585E-06-3.55522E-05-1.41284E-05-1.11004E-18-3.54261E-18
 -1      1299 8.85667E-05-4.35314E-06-3.60515E-05-1.66898E-05-1.29188E-18-2.51873E-18
 -1      1300 9.37633E-05-1.09766E-05-3.55530E-05-1.68985E-05-2.06517E-18-9.48783E-19
 -1      1301 8.47357E-05-3.20969E-06-3.49586E-05-1.04117E-05-8.42877E-19-4.68154E-18
 -1      1302 8.56394E-05-3.19744E-06-3.52711E-05-1.22409E-05-9.79620E-19-4.19610E-18
 -1      1303 8.90159E-05-7.58315E-06-3.49739E-05-1.30281E-05-1.69429E-18-2.94902E-18
 -1      1304 8.30987E-05-2.52956E-06-3.45338E-05-7.43641E-06-5.54198E-19-5.10809E-18
 -1      1305 8.37483E-05-2.52676E-06-3.47536E-05-8.87525E-06-6.71803E-19-4.92249E-18
 -1      1306 8.62390E-05-5.78380E-06-3.45443E-05-9.57745E-06-1.26554E-18-3.90784E-18
 -1      1307 8.19149E-05-2.06489E-06-3.42199E-05-5.05356E-06-2.63811E-19-5.25890E-18
 -1      1308 8.23893E-05-2.06633E-06-3.43784E-05-6.20821E-06-3.64965E-19-5.19311E-18
 -1      1309 8.43470E-05-4.63905E-06-3.42118E-05-6.79303E-06-7.69384E-19-4.26288E-18
 -1      1310 8.10795E-05-1.74660E-06-3.39951E-05-3.02136E-06-5.37998E-20-5.21643E-18
 -1      1311 8.14042E-05-1.74955E-06-3.41036E-05-4.01499E-06-1.21999E-19-5.27146E-18
 -1      1312 8.29881E-05-3.86155E-06-3.39554E-05-4.51589E-06-3.36497E-19-4.41435E-18
 -1      1313 8.06112E-05-1.56173E-06-3.38693E-05-1.23523E-06 1.89156E-19-5.04846E-18
 -1      1314 8.07734E-05-1.56361E-06-3.39237E-05-2.12349E-06 1.24454E-19-5.12548E-18
 -1      1315 8.20835E-05-3.36462E-06-3.37769E-05-2.56518E-06 3.09283E-20-4.28122E-18
 -1      1316 8.05190E-05-1.50576E-06-3.38472E-05 4.50303E-07 4.23864E-19-4.85881E-18
 -1      1317 8.05136E-05-1.50579E-06-3.38458E-05-4.05715E-07 3.49954E-19-4.98881E-18
 -1      1318 8.16374E-05-3.12667E-06-3.36860E-05-8.19701E-07 4.42627E-19-4.14891E-18
 -1      1319 8.08033E-05-1.57702E-06-3.39295E-05 2.17987E-06 6.63114E-19-4.63107E-18
 -1      1320 8.06316E-05-1.57517E-06-3.38728E-05 1.28372E-06 5.85280E-19-4.77223E-18
 -1      1321 8.16544E-05-3.13962E-06-3.36879E-05 8.62784E-07 8.25349E-19-4.00146E-18
 -1      1322 8.14535E-05-1.77608E-06-3.41121E-05 4.09770E-06 8.53465E-19-4.25285E-18
 -1      1323 8.11221E-05-1.77231E-06-3.40023E-05 3.08881E-06 7.81825E-19-4.49036E-18
 -1      1324 8.21317E-05-3.40210E-06-3.37819E-05 2.62352E-06 1.18510E-18-3.77444E-18
 -1      1325 8.24382E-05-2.09808E-06-3.43845E-05 6.30792E-06 1.06950E-18-3.67849E-18
 -1      1326 8.19627E-05-2.09734E-06-3.42262E-05 5.13470E-06 9.96071E-19-4.03307E-18
 -1      1327 8.30518E-05-3.91577E-06-3.39597E-05 4.58431E-06 1.53105E-18-3.36508E-18
 -1      1328 8.38146E-05-2.57223E-06-3.47611E-05 9.04419E-06 1.37505E-18-2.78182E-18
 -1      1329 8.31629E-05-2.57611E-06-3.45411E-05 7.57872E-06 1.24209E-18-3.28949E-18
 -1      1330 8.44236E-05-4.71132E-06-3.42140E-05 6.90106E-06 1.89813E-18-2.73586E-18
 -1      1331 8.57089E-05-3.25275E-06-3.52786E-05 1.24753E-05 1.59438E-18-1.35065E-18
 -1      1332 8.48087E-05-3.27153E-06-3.49654E-05 1.06120E-05 1.47294E-18-2.23371E-18
 -1      1333 8.63498E-05-5.88954E-06-3.45464E-05 9.75198E-06 2.31560E-18-1.81895E-18
 -1      1334 8.86562E-05-4.35947E-06-3.60683E-05 1.69570E-05 1.70698E-18 1.19270E-18
 -1      1335 8.72151E-05-4.39621E-06-3.55575E-05 1.44150E-05 1.54499E-18-3.14620E-19
 -1      1336 8.91499E-05-7.72022E-06-3.49739E-05 1.32940E-05 2.51140E-18-1.40369E-19
 -1      1337 9.48336E-05-7.24027E-06-3.74754E-05 2.34295E-05 1.34710E-18 5.63685E-18
 -1      1338 9.16274E-05-6.85015E-06-3.64763E-05 1.92327E-05 1.36166E-18 2.96213E-18
 -1      1339 9.39752E-05-1.12052E-05-3.55327E-05 1.75595E-05 2.45947E-18 2.61204E-18
 -1      1340 1.23776E-04-2.50766E-05-3.91604E-05 2.73123E-05 5.46760E-19 1.35580E-17
 -1      1341 1.01221E-04-1.48179E-05-3.76452E-05 2.26992E-05 6.19605E-19 8.13575E-18
 -1      1342 1.03230E-04-1.99264E-05-3.57940E-05 1.96673E-05 2.13319E-18 6.63036E-18
 -1      1343 1.03745E-04-2.82186E-05-3.50440E-05 6.52517E-06 1.09172E-18 1.32175E-17
 -1      1344 1.06557E-04-3.07003E-05-3.39136E-05-7.04727E-06-1.30464E-18 7.40709E-18
 -1      1345 1.00434E-04-2.85491E-05-3.13665E-05-4.21005E-06-1.19813E-18 5.91335E-18
 -1      1346 9.81557E-05-2.86494E-05-3.00383E-05-1.71194E-06-9.91187E-19 5.28099E-18
 -1      1347 9.66631E-05-2.85713E-05-2.92250E-05-1.27319E-06-9.82055E-19 3.78597E-18
 -1      1348 1.01875E-04-2.88134E-05-3.16776E-05-6.37034E-06-2.12632E-18 2.78708E-18
 -1      1349 9.55769E-05-2.83748E-05-2.87869E-05-8.58096E-09-8.18816E-19 3.33652E-18
 -1      1350 9.56548E-05-2.85111E-05-2.87254E-05 1.24776E-07-7.34404E-19 2.24654E-18
 -1      1351 9.81810E-05-2.87877E-05-2.98705E-05-1.54387E-06-1.69486E-18 1.91541E-18
 -1      1352 9.56082E-05-2.85249E-05-2.87044E-05 8.01724E-07-5.53109E-19 1.74751E-18
 -1      1353 9.64694E-05-2.88306E-05-2.89480E-05 8.96210E-07-5.54122E-19 9.51946E-19
 -1      1354 9.72475E-05-2.88519E-05-2.93522E-05 7.44923E-07-1.30586E-18 1.09609E-18
 -1      1355 9.70437E-05-2.90012E-05-2.91338E-05 1.32997E-06-2.82750E-19 6.96063E-19
 -1      1356 9.83824E-05-2.94333E-05-2.95277E-05 1.40293E-06-2.63060E-19 3.46966E-19
 -1      1357 9.77857E-05-2.91310E-05-2.94487E-05 2.07592E-06-8.20603E-19 4.36381E-19
 -1      1358 9.93675E-05-2.97217E-05-2.98374E-05 1.71135E-06-2.95939E-19 1.97676E-19
 -1      1359 1.01042E-04-3.02536E-05-3.03276E-05 1.76850E-06-1.95428E-19-1.39390E-19
 -1      1360 9.93082E-05-2.96421E-05-2.98791E-05 2.97593E-06-5.83930E-19-3.79643E-20
 -1      1361 1.02306E-04-3.06282E-05-3.07177E-05 1.97533E-06-1.45078E-19-2.13042E-19
 -1      1362 1.04203E-04-3.12332E-05-3.12695E-05 2.01279E-06-2.62277E-19-5.52848E-19
 -1      1363 1.01507E-04-3.03487E-05-3.05147E-05 3.60544E-06-3.85069E-19-5.21931E-19
 -1      1364 1.05628E-04-3.16655E-05-3.17014E-05 2.09047E-06-2.88769E-19-6.46551E-19
 -1      1365 1.07598E-04-3.23035E-05-3.22694E-05 2.09483E-06-3.15056E-19-1.20305E-18
 -1      1366 1.04152E-04-3.12100E-05-3.12717E-05 3.96149E-06-5.64027E-19-5.27917E-19
 -1      1367 1.09041E-04-3.27587E-05-3.26947E-05 1.97476E-06-2.45684E-19-1.29112E-18
 -1      1368 1.10847E-04-3.33613E-05-3.32076E-05 1.92259E-06-3.17077E-19-1.80973E-18
 -1      1369 1.06998E-04-3.21765E-05-3.20651E-05 3.93143E-06-4.10065E-19-6.64411E-19
 -1      1370 1.12110E-04-3.37881E-05-3.35611E-05 1.50696E-06-8.58051E-20-1.57445E-18
 -1      1371 1.13393E-04-3.42430E-05-3.39142E-05 1.36756E-06 1.96148E-19-1.51670E-18
 -1      1372 1.09726E-04-3.31698E-05-3.27886E-05 3.31716E-06-1.92161E-19-2.98281E-19
 -1      1373 1.14215E-04-3.45638E-05-3.41144E-05 5.65481E-07 2.89321E-19-1.78649E-18
 -1      1374 1.14508E-04-3.47113E-05-3.41779E-05 3.13635E-07-1.03100E-20-1.62791E-18
 -1      1375 1.11890E-04-3.40529E-05-3.33100E-05 1.88834E-06 1.48158E-19-7.74185E-19
 -1      1376 1.14588E-04-3.48183E-05-3.41432E-05-8.77578E-07-2.17436E-19-1.66044E-18
 -1      1377 1.13430E-04-3.44794E-05-3.37997E-05-1.23248E-06-1.37027E-19-2.03976E-18
 -1      1378 1.12930E-04-3.46015E-05-3.34884E-05-4.82545E-07-8.58349E-20-1.06327E-18
 -1      1379 1.12522E-04-3.42527E-05-3.34846E-05-2.60567E-06 9.21281E-20-1.92329E-18
 -1      1380 1.09720E-04-3.33160E-05-3.27037E-05-2.97784E-06-9.74286E-20-2.06327E-18
 -1      1381 1.12266E-04-3.45095E-05-3.32208E-05-3.57795E-06-3.22534E-20-1.05611E-18
 -1      1382 1.07816E-04-3.26913E-05-3.21472E-05-4.03348E-06-1.58872E-19-2.07904E-18
 -1      1383 1.03784E-04-3.12580E-05-3.10650E-05-4.24535E-06-3.75719E-19-1.96295E-18
 -1      1384 1.09574E-04-3.34974E-05-3.25134E-05-6.57159E-06-2.93093E-19-9.03003E-19
 -1      1385 1.01322E-04-3.03457E-05-3.04170E-05-4.32192E-06-5.78332E-19-2.11308E-18
 -1      1386 9.72532E-05-2.88359E-05-2.93572E-05-4.17916E-06-7.14982E-19-2.90786E-18
 -1      1387 1.05221E-04-3.15866E-05-3.15361E-05-8.04258E-06-7.26169E-19-1.23456E-18
 -1      1388 9.51532E-05-2.79969E-05-2.88458E-05-2.89545E-06-4.72340E-19-2.94280E-18
 -1      1389 9.26620E-05-2.70451E-05-2.82111E-05-2.36210E-06-4.82690E-19-3.45529E-18
 -1      1390 1.00568E-04-2.93694E-05-3.06044E-05-6.64665E-06-7.99361E-19-1.40210E-18
 -1      1391 9.19303E-05-2.67368E-05-2.80434E-05-8.90084E-08-4.84198E-19-3.78430E-18
 -1      1392 9.21733E-05-2.68235E-05-2.81084E-05 6.04983E-07-2.91975E-19-4.12230E-18
 -1      1393 9.76397E-05-2.79048E-05-3.00659E-05-2.29978E-06-6.61903E-19-1.91387E-18
 -1      1394 9.32252E-05-2.72463E-05-2.83619E-05 2.81404E-06-4.01388E-19-4.70477E-18
 -1      1395 9.61279E-05-2.83398E-05-2.91094E-05 3.31136E-06-2.07629E-19-5.01491E-18
 -1      1396 9.79636E-05-2.80396E-05-3.01409E-05 3.22436E-06-8.15322E-19-2.71103E-18
 -1      1397 9.84564E-05-2.92494E-05-2.96894E-05 4.45072E-06-3.16645E-20-5.37114E-18
 -1      1398 1.02767E-04-3.08311E-05-3.08212E-05 4.54893E-06-1.77445E-19-5.25552E-18
 -1      1399 1.01440E-04-2.97175E-05-3.08167E-05 7.30694E-06-4.57193E-19-3.71783E-18
 -1      1400 1.05345E-04-3.17643E-05-3.15135E-05 4.34436E-06 2.33186E-19-5.20883E-18
 -1      1401 1.09465E-04-3.32107E-05-3.26285E-05 4.10738E-06 3.14825E-20-4.68907E-18
 -1      1402 1.06423E-04-3.20256E-05-3.18537E-05 8.36332E-06 1.43816E-19-4.25491E-18
 -1      1403 1.11421E-04-3.38348E-05-3.32111E-05 3.00215E-06 2.48128E-19-4.08720E-18
 -1      1404 1.14249E-04-3.47654E-05-3.40062E-05 2.63019E-06 3.36146E-19-3.82703E-18
 -1      1405 1.10923E-04-3.39339E-05-3.29021E-05 6.67879E-06 6.18969E-19-3.73698E-18
 -1      1406 1.15208E-04-3.49975E-05-3.43426E-05 1.28350E-06 6.27334E-21-3.45341E-18
 -1      1407 1.16420E-04-3.53456E-05-3.47054E-05 9.44870E-07-6.68163E-20-3.51427E-18
 -1      1408 1.13699E-04-3.49239E-05-3.36608E-05 3.66403E-06 1.89325E-19-3.22360E-18
 -1      1409 1.16431E-04-3.52623E-05-3.47692E-05-1.78887E-07 3.67056E-19-3.12902E-18
 -1      1410 1.16273E-04-3.51552E-05-3.47463E-05-4.09699E-07 4.49298E-19-2.67627E-18
 -1      1411 1.14495E-04-3.50293E-05-3.39809E-05 6.86739E-07 4.05186E-19-2.44615E-18
 -1      1412 1.15593E-04-3.48767E-05-3.45890E-05-1.13708E-06 1.57505E-19-2.60508E-18
 -1      1413 1.14539E-04-3.44947E-05-3.43021E-05-1.25752E-06-3.57375E-20-2.46868E-18
 -1      1414 1.13680E-04-3.45427E-05-3.38723E-05-1.51202E-06 3.71847E-19-1.24332E-18
 -1      1415 1.13461E-04-3.41238E-05-3.40047E-05-1.61217E-06 1.33682E-19-2.52825E-18
 -1      1416 1.11962E-04-3.36208E-05-3.35804E-05-1.65043E-06 4.10786E-19-1.86754E-18
 -1      1417 1.11835E-04-3.37623E-05-3.34423E-05-2.77950E-06 2.56651E-19-1.46668E-18
 -1      1418 1.10727E-04-3.32277E-05-3.32190E-05-1.73455E-06 8.01907E-19-1.69305E-18
 -1      1419 1.09116E-04-3.27071E-05-3.27545E-05-1.72254E-06 5.17059E-19-1.09519E-18
 -1      1420 1.09490E-04-3.28963E-05-3.28258E-05-3.28062E-06 5.45021E-19-1.36169E-18
 -1      1421 1.07889E-04-3.23334E-05-3.23848E-05-1.64293E-06 2.60746E-19-1.21157E-18
 -1      1422 1.06367E-04-3.18534E-05-3.19411E-05-1.60546E-06-3.10462E-19-1.17147E-18
 -1      1423 1.07035E-04-3.20634E-05-3.21401E-05-3.26937E-06 3.00588E-19-2.21086E-18
 -1      1424 1.05244E-04-3.15206E-05-3.15976E-05-1.44430E-06-1.90839E-19-9.68801E-19
 -1      1425 1.03910E-04-3.11072E-05-3.12061E-05-1.39746E-06 1.91740E-20-1.46474E-18
 -1      1426 1.04713E-04-3.13206E-05-3.14678E-05-2.97094E-06-8.06683E-20-1.84169E-18
 -1      1427 1.02937E-04-3.08238E-05-3.09059E-05-1.20842E-06-3.84196E-19-9.25807E-19
 -1      1428 1.01825E-04-3.04836E-05-3.05781E-05-1.16137E-06-1.84746E-19-7.87787E-19
 -1      1429 1.02654E-04-3.06883E-05-3.08574E-05-2.54579E-06-2.55241E-19-5.68549E-19
 -1      1430 1.01015E-04-3.02501E-05-3.03269E-05-9.75369E-07-4.81387E-19-1.22966E-18
 -1      1431 1.00122E-04-2.99795E-05-3.00624E-05-9.32665E-07-9.29810E-19-1.83604E-18
 -1      1432 1.00908E-04-3.01675E-05-3.03315E-05-2.09334E-06-6.03157E-19-8.87654E-19
 -1      1433 9.94675E-05-2.97922E-05-2.98590E-05-7.65218E-07-5.40473E-19-1.91616E-18
 -1      1434 9.87697E-05-2.95828E-05-2.96519E-05-7.28689E-07-5.01586E-20-2.16659E-18
 -1      1435 9.94764E-05-2.97495E-05-2.98954E-05-1.66799E-06-1.43483E-18-3.94324E-19
 -1      1436 9.82544E-05-2.94360E-05-2.94915E-05-5.85893E-07 6.76658E-19-2.97821E-18
 -1      1437 9.77229E-05-2.92777E-05-2.93334E-05-5.55851E-07 3.89533E-19-1.54773E-18
 -1      1438 9.83336E-05-2.94213E-05-2.95444E-05-1.29499E-06 2.26027E-19-1.33718E-18
 -1      1439 9.73261E-05-2.91651E-05-2.92098E-05-4.38524E-07-1.28279E-19-1.09625E-18
 -1      1440 9.69305E-05-2.90482E-05-2.90918E-05-4.14522E-07-2.48361E-20-1.58866E-18
 -1      1441 9.74426E-05-2.91687E-05-2.92689E-05-9.82311E-07 4.17124E-19-1.92098E-18
 -1      1442 9.66315E-05-2.89635E-05-2.89987E-05-3.20793E-07-7.77235E-20-1.18462E-18
 -1      1443 9.63440E-05-2.88793E-05-2.89127E-05-3.02061E-07-3.02620E-19-1.53431E-18
 -1      1444 9.67628E-05-2.89781E-05-2.90575E-05-7.28562E-07-1.85771E-19-1.61413E-18
 -1      1445 9.61235E-05-2.88170E-05-2.88440E-05-2.28891E-07-2.79945E-19-1.06651E-18
 -1      1446 9.59199E-05-2.87578E-05-2.87829E-05-2.14570E-07-2.32193E-19-1.73709E-18
 -1      1447 9.62550E-05-2.88373E-05-2.88988E-05-5.27816E-07 3.84474E-20-6.14078E-19
 -1      1448 9.57611E-05-2.87131E-05-2.87335E-05-1.58605E-07-8.21465E-20-2.14342E-18
 -1      1449 9.56214E-05-2.86729E-05-2.86914E-05-1.47867E-07 8.99228E-21-2.23151E-18
 -1      1450 9.58841E-05-2.87356E-05-2.87822E-05-3.72404E-07-6.24979E-19-1.14648E-18
 -1      1451 9.55102E-05-2.86417E-05-2.86568E-05-1.05888E-07-1.81979E-19-2.90924E-18
 -1      1452 9.54180E-05-2.86156E-05-2.86289E-05-9.79927E-08-4.23835E-19-2.91381E-18
 -1      1453 9.56199E-05-2.86639E-05-2.86986E-05-2.54452E-07-5.46896E-19-1.89115E-18
 -1      1454 9.53428E-05-2.85945E-05-2.86055E-05-6.71175E-08 6.80912E-20-2.42839E-18
 -1      1455 9.52855E-05-2.85787E-05-2.85880E-05-6.14335E-08 3.61063E-19-2.72055E-18
 -1      1456 9.54372E-05-2.86151E-05-2.86404E-05-1.66648E-07-1.68311E-19-2.59837E-18
 -1      1457 9.52369E-05-2.85651E-05-2.85729E-05-3.91963E-08-8.43722E-19-2.60666E-18
 -1      1458 9.52045E-05-2.85565E-05-2.85629E-05-3.51987E-08-9.93278E-19-3.97134E-18
 -1      1459 9.53158E-05-2.85833E-05-2.86013E-05-1.02584E-07-3.17072E-19-2.45410E-18
 -1      1460 9.51753E-05-2.85484E-05-2.85538E-05-1.95552E-08-5.08811E-20-4.49764E-18
 -1      1461 9.51602E-05-2.85448E-05-2.85490E-05-1.68203E-08-5.56664E-19-5.26280E-18
 -1      1462 9.52393E-05-2.85639E-05-2.85764E-05-5.68478E-08-1.15319E-18-2.70280E-18
 -1      1463 9.51449E-05-2.85406E-05-2.85443E-05-6.12081E-09-1.49697E-19-4.95400E-18
 -1      1464 9.51416E-05-2.85404E-05-2.85430E-05-4.31392E-09-4.80228E-20-4.52163E-18
 -1      1465 9.51954E-05-2.85533E-05-2.85618E-05-2.50064E-08-3.37915E-19-2.72669E-18
 -1      1466 9.51357E-05-2.85389E-05-2.85412E-05 2.73739E-09 6.40572E-19-4.55121E-18
 -1      1467 9.51401E-05-2.85408E-05-2.85423E-05 3.87300E-09 1.20727E-18-3.44141E-18
 -1      1468 9.51743E-05-2.85489E-05-2.85543E-05-3.52037E-09 8.00012E-19-2.60625E-18
 -1      1469 9.51406E-05-2.85410E-05-2.85425E-05 8.26078E-09 1.22868E-18-2.71893E-18
 -1      1470 9.51496E-05-2.85442E-05-2.85450E-05 8.91451E-09 1.20375E-18-9.46157E-19
 -1      1471 9.51688E-05-2.85486E-05-2.85519E-05 1.03529E-08 2.12614E-18-1.67093E-18
 -1      1472 9.51541E-05-2.85456E-05-2.85464E-05 1.13484E-08 9.81592E-19-1.32155E-18
 -1      1473 9.51657E-05-2.85495E-05-2.85497E-05 1.16498E-08 8.05090E-19-7.17007E-19
 -1      1474 9.51734E-05-2.85509E-05-2.85527E-05 1.86543E-08 1.87431E-18-8.09495E-19
 -1      1475 9.51724E-05-2.85515E-05-2.85517E-05 1.25901E-08 1.12198E-18-6.44691E-19
 -1      1476 9.51848E-05-2.85556E-05-2.85553E-05 1.26119E-08 1.06743E-18 9.55873E-19
 -1      1477 9.51841E-05-2.85549E-05-2.85555E-05 2.27981E-08 1.60601E-18 4.10547E-19
 -1      1478 9.51922E-05-2.85578E-05-2.85575E-05 1.22797E-08 1.82291E-19 6.09432E-19
 -1      1479 9.52040E-05-2.85617E-05-2.85609E-05 1.20319E-08-6.46274E-19 5.83182E-19
 -1      1480 9.51978E-05-2.85597E-05-2.85592E-05 2.36201E-08 7.09158E-19-1.31383E-18
 -1      1481 9.52111E-05-2.85639E-05-2.85630E-05 1.04146E-08-4.86143E-19 9.20830E-19
 -1      1482 9.52208E-05-2.85672E-05-2.85657E-05 9.82342E-09-1.60630E-19 8.55321E-19
 -1      1483 9.52119E-05-2.85646E-05-2.85630E-05 2.13763E-08-5.21262E-19-6.41878E-19
 -1      1484 9.52265E-05-2.85692E-05-2.85673E-05 6.70014E-09-6.48211E-19 1.74645E-18
 -1      1485 9.52324E-05-2.85711E-05-2.85690E-05 5.77319E-09-7.42024E-19 1.06940E-18
 -1      1486 9.52246E-05-2.85694E-05-2.85663E-05 1.59076E-08-5.14616E-19 7.54880E-20
 -1      1487 9.52367E-05-2.85720E-05-2.85704E-05 5.33032E-10-9.20116E-19 1.20081E-18
 -1      1488 9.52350E-05-2.85735E-05-2.85691E-05 5.96461E-09-7.75928E-19 9.02607E-19
 -1      1489 9.89198E-05-2.90847E-05-3.04467E-05 2.33500E-06 9.88540E-19 1.09312E-17
 -1      1490 1.04094E-04-2.98668E-05-3.26156E-05 3.76026E-06 8.96002E-19 1.24438E-17
 -1      1491 1.04093E-04-2.73601E-05-3.32031E-05 1.14487E-05 1.74378E-18 8.57928E-18
 -1      1492 9.56561E-05-2.85115E-05-2.88445E-05 4.93747E-07 7.80210E-19 8.83384E-18
 -1      1493 9.68874E-05-2.84519E-05-2.95383E-05 8.23962E-07 7.51848E-19 1.00472E-17
 -1      1494 9.92912E-05-2.88923E-05-3.03706E-05 3.60972E-06 1.55812E-18 6.90390E-18
 -1      1495 9.52355E-05-2.84959E-05-2.85838E-05-4.09006E-07 5.10774E-19 7.35971E-18
 -1      1496 9.50811E-05-2.82760E-05-2.86210E-05-2.15776E-07 5.46369E-19 8.22421E-18
 -1      1497 9.70313E-05-2.87529E-05-2.93132E-05 5.11870E-07 1.18434E-18 5.60184E-18
 -1      1498 9.63620E-05-2.88631E-05-2.89084E-05-9.32237E-07 4.20042E-19 6.30870E-18
 -1      1499 9.55026E-05-2.85175E-05-2.86665E-05-7.97948E-07 3.19467E-19 6.91258E-18
 -1      1500 9.68396E-05-2.88649E-05-2.91526E-05-1.02779E-06 8.12973E-19 4.55446E-18
 -1      1501 9.84338E-05-2.94961E-05-2.95342E-05-1.28168E-06 9.10759E-20 5.70279E-18
 -1      1502 9.71409E-05-2.90484E-05-2.91520E-05-1.17734E-06 1.87419E-19 5.97606E-18
 -1      1503 9.79006E-05-2.92490E-05-2.94422E-05-1.95802E-06 4.84033E-19 3.72629E-18
 -1      1504 1.01129E-04-3.03177E-05-3.03417E-05-1.51778E-06 2.63404E-19 5.22736E-18
 -1      1505 9.95459E-05-2.97939E-05-2.98752E-05-1.43544E-06 1.49453E-19 5.45349E-18
 -1      1506 9.97674E-05-2.98477E-05-2.99865E-05-2.57531E-06 2.47317E-19 3.34884E-18
 -1      1507 1.04192E-04-3.12586E-05-3.12501E-05-1.63549E-06 4.40707E-19 4.54229E-18
 -1      1508 1.02442E-04-3.06918E-05-3.07389E-05-1.58021E-06 2.83368E-19 5.02973E-18
 -1      1509 1.02151E-04-3.06035E-05-3.06814E-05-2.95480E-06 5.25394E-19 3.02171E-18
 -1      1510 1.07322E-04-3.22345E-05-3.21663E-05-1.58647E-06 2.20679E-19 3.83063E-18
 -1      1511 1.05568E-04-3.16754E-05-3.16604E-05-1.57467E-06 2.84574E-19 4.26611E-18
 -1      1512 1.04798E-04-3.14569E-05-3.14417E-05-3.06104E-06 5.40144E-19 2.65786E-18
 -1      1513 1.10101E-04-3.31241E-05-3.29622E-05-1.28981E-06 3.12061E-19 3.48374E-18
 -1      1514 1.08585E-04-3.26521E-05-3.25342E-05-1.34851E-06 1.69483E-19 3.78204E-18
 -1      1515 1.07408E-04-3.23319E-05-3.21701E-05-2.78356E-06 3.76311E-19 2.35206E-18
 -1      1516 1.11958E-04-3.37522E-05-3.34675E-05-6.55098E-07-1.57264E-20 3.35065E-18
 -1      1517 1.11017E-04-3.34821E-05-3.32163E-05-8.16511E-07 1.57608E-19 3.43973E-18
 -1      1518 1.09589E-04-3.31161E-05-3.27448E-05-1.96864E-06 2.35601E-19 2.48649E-18
 -1      1519 1.12206E-04-3.38943E-05-3.34906E-05 3.61906E-07-2.71004E-19 3.61973E-18
 -1      1520 1.12247E-04-3.39660E-05-3.35280E-05 7.66862E-08-1.64225E-19 3.41882E-18
 -1      1521 1.10844E-04-3.36460E-05-3.30252E-05-4.88248E-07-2.40961E-19 2.60589E-18
 -1      1522 1.10235E-04-3.33251E-05-3.28798E-05 1.66371E-06 1.30450E-19 3.67213E-18
 -1      1523 1.11612E-04-3.38609E-05-3.32923E-05 1.27489E-06-1.37841E-20 3.53702E-18
 -1      1524 1.10639E-04-3.37092E-05-3.28831E-05 1.62593E-06-1.15130E-19 2.47949E-18
 -1      1525 1.05870E-04-3.19388E-05-3.16271E-05 2.91108E-06 3.41238E-19 3.00967E-18
 -1      1526 1.08655E-04-3.29581E-05-3.24122E-05 2.51379E-06 1.74926E-19 3.38654E-18
 -1      1527 1.08596E-04-3.30942E-05-3.22629E-05 4.00271E-06 3.12899E-19 2.06980E-18
 -1      1528 9.98153E-05-2.99221E-05-2.99673E-05 3.53249E-06 4.18530E-19 2.41203E-18
 -1      1529 1.03535E-04-3.12411E-05-3.09749E-05 3.29636E-06 4.98340E-19 2.88521E-18
 -1      1530 1.04801E-04-3.17257E-05-3.12527E-05 5.82730E-06 7.39255E-19 1.67650E-18
 -1      1531 9.38309E-05-2.78654E-05-2.83828E-05 2.97724E-06-8.29761E-20 1.89947E-18
 -1      1532 9.73886E-05-2.90667E-05-2.93156E-05 3.06972E-06 2.50378E-19 2.10805E-18
 -1      1533 1.00110E-04-2.98488E-05-3.01145E-05 6.05053E-06 5.09014E-19 2.10988E-18
 -1      1534 9.02181E-05-2.66062E-05-2.74425E-05 1.18013E-06 1.45412E-19 2.00122E-18
 -1      1535 9.22461E-05-2.71895E-05-2.79608E-05 1.62896E-06-1.39443E-19 1.64983E-18
 -1      1536 9.61271E-05-2.81225E-05-2.92207E-05 4.03217E-06-7.25934E-20 1.71683E-18
 -1      1537 9.06061E-05-2.67542E-05-2.75316E-05-1.18359E-06 6.55762E-19 1.00522E-18
 -1      1538 9.01993E-05-2.64339E-05-2.74207E-05-5.58643E-07 4.46916E-19 1.55813E-18
 -1      1539 9.45505E-05-2.73688E-05-2.89053E-05 2.56285E-07 5.08829E-19 9.13404E-19
 -1      1540 9.48963E-05-2.82594E-05-2.86342E-05-3.05006E-06-3.19788E-19-3.52577E-20
 -1      1541 9.21958E-05-2.71695E-05-2.79286E-05-2.53254E-06 2.95006E-19 3.61180E-19
 -1      1542 9.61615E-05-2.80184E-05-2.93025E-05-3.69295E-06 9.47142E-19 6.73921E-19
 -1      1543 1.01327E-04-3.04499E-05-3.03417E-05-3.69822E-06 2.53328E-19 4.20340E-19
 -1      1544 9.74243E-05-2.90496E-05-2.93052E-05-3.47669E-06-3.79233E-19 2.31928E-19
 -1      1545 1.00285E-04-2.97604E-05-3.02768E-05-6.12221E-06-3.73472E-19 1.38543E-19
 -1      1546 1.07613E-04-3.25065E-05-3.20842E-05-3.14977E-06-7.34761E-19 8.78214E-19
 -1      1547 1.03862E-04-3.12794E-05-3.10592E-05-3.22365E-06-1.50328E-19 8.42110E-19
 -1      1548 1.05264E-04-3.17837E-05-3.14974E-05-6.32516E-06-3.12125E-19 4.09170E-19
 -1      1549 1.12108E-04-3.38977E-05-3.34016E-05-1.94138E-06 2.63679E-19 1.96660E-18
 -1      1550 1.09455E-04-3.31212E-05-3.26485E-05-2.18422E-06-3.22971E-19 1.41500E-18
 -1      1551 1.09471E-04-3.33556E-05-3.25991E-05-4.77426E-06-6.42322E-19 1.19473E-18
 -1      1552 1.14241E-04-3.44912E-05-3.40874E-05-6.57796E-07 6.78923E-19 6.62049E-19
 -1      1553 1.12991E-04-3.42037E-05-3.37097E-05-9.32900E-07 7.08662E-19 2.05961E-18
 -1      1554 1.11996E-04-3.41620E-05-3.33273E-05-2.49135E-06 6.49158E-19 1.77732E-18
 -1      1555 1.14267E-04-3.44206E-05-3.41673E-05 3.47615E-07 1.07401E-20-1.48221E-19
 -1      1556 1.14244E-04-3.45156E-05-3.41353E-05 1.23539E-07 2.80639E-19 3.20460E-19
 -1      1557 1.12711E-04-3.42601E-05-3.35951E-05-3.51940E-07 9.29897E-19 6.52526E-19
 -1      1558 1.12822E-04-3.39143E-05-3.37973E-05 9.71183E-07-6.35242E-20 2.86238E-19
 -1      1559 1.13637E-04-3.42440E-05-3.40130E-05 8.24696E-07-3.38105E-19-3.87531E-19
 -1      1560 1.11972E-04-3.38702E-05-3.34530E-05 1.20009E-06-2.37924E-19-3.87253E-19
 -1      1561 1.10565E-04-3.31853E-05-3.31637E-05 1.25978E-06-6.38126E-19 9.34079E-19
 -1      1562 1.11828E-04-3.36221E-05-3.35183E-05 1.18362E-06-2.65707E-19 3.08691E-19
 -1      1563 1.10297E-04-3.32184E-05-3.30217E-05 2.09181E-06-6.07005E-19-4.53219E-19
 -1      1564 1.08017E-04-3.23901E-05-3.24233E-05 1.31239E-06 6.66939E-19 6.54492E-19
 -1      1565 1.09427E-04-3.28458E-05-3.28291E-05 1.28721E-06 1.95231E-19 1.23611E-18
 -1      1566 1.08161E-04-3.24727E-05-3.24316E-05 2.44532E-06-9.94453E-20 2.53964E-19
 -1      1567 1.05520E-04-3.16261E-05-3.16844E-05 1.22442E-06 5.16013E-19-1.52962E-18
 -1      1568 1.06887E-04-3.20497E-05-3.20832E-05 1.23092E-06 9.16612E-19 3.06487E-19
 -1      1569 1.05918E-04-3.17378E-05-3.17892E-05 2.43587E-06 1.44326E-18 3.96385E-21
 -1      1570 1.03267E-04-3.09453E-05-3.10102E-05 1.06755E-06-1.97878E-20-1.00534E-18
 -1      1571 1.04486E-04-3.13126E-05-3.13693E-05 1.09091E-06-3.79666E-19-1.54716E-18
 -1      1572 1.03794E-04-3.10706E-05-3.11670E-05 2.21896E-06 9.22968E-21-8.87484E-19
 -1      1573 1.01340E-04-3.03682E-05-3.04298E-05 8.88338E-07-1.59333E-19-4.37148E-19
 -1      1574 1.02371E-04-3.06720E-05-3.07353E-05 9.18693E-07 2.23173E-21-4.90187E-19
 -1      1575 1.01908E-04-3.04956E-05-3.06066E-05 1.90732E-06-3.42890E-19 4.72677E-19
 -1      1576 9.97566E-05-2.98969E-05-2.99507E-05 7.13668E-07-6.90671E-20-9.74382E-19
 -1      1577 1.00595E-04-3.01394E-05-3.02001E-05 7.45084E-07 1.32218E-19-8.52416E-19
 -1      1578 1.00310E-04-3.00185E-05-3.01266E-05 1.57260E-06 1.32269E-19 7.58791E-19
 -1      1579 9.84956E-05-2.95233E-05-2.95680E-05 5.57088E-07-2.16950E-19-1.32726E-18
 -1      1580 9.91558E-05-2.97114E-05-2.97651E-05 5.86357E-07-2.31288E-20-1.47962E-18
 -1      1581 9.90007E-05-2.96340E-05-2.97308E-05 1.25529E-06 3.99379E-19-2.96021E-19
 -1      1582 9.75175E-05-2.92347E-05-2.92704E-05 4.23918E-07-3.47459E-19-8.84706E-19
 -1      1583 9.80239E-05-2.93769E-05-2.94220E-05 4.49555E-07-9.26082E-19-1.84069E-18
 -1      1584 9.79593E-05-2.93319E-05-2.94139E-05 9.75087E-07-8.80630E-19-1.80692E-18
 -1      1585 9.67773E-05-2.90170E-05-2.90447E-05 3.14791E-07 1.86038E-19 3.05441E-19
 -1      1586 9.71561E-05-2.91218E-05-2.91584E-05 3.36335E-07 2.36793E-19-1.70482E-19
 -1      1587 9.71509E-05-2.90998E-05-2.91668E-05 7.38939E-07 1.54203E-19-2.38774E-18
 -1      1588 9.62302E-05-2.88566E-05-2.88776E-05 2.27909E-07-6.71560E-19 3.82950E-19
 -1      1589 9.65066E-05-2.89319E-05-2.89608E-05 2.45463E-07-2.50483E-19 7.53294E-19
 -1      1590 9.65378E-05-2.89254E-05-2.89786E-05 5.46596E-07-9.13859E-19-6.60925E-19
 -1      1591 9.58362E-05-2.87415E-05-2.87571E-05 1.60390E-07 6.21936E-19-4.82381E-19
 -1      1592 9.60324E-05-2.87940E-05-2.88163E-05 1.74343E-07 4.20286E-19-1.26040E-19
 -1      1593 9.60836E-05-2.87974E-05-2.88385E-05 3.94126E-07 5.11237E-19-1.19129E-18
 -1      1594 9.55605E-05-2.86612E-05-2.86726E-05 1.09055E-07 3.05615E-19-1.91537E-18
 -1      1595 9.56953E-05-2.86965E-05-2.87134E-05 1.19911E-07 5.17246E-19-1.33865E-18
 -1      1596 9.57553E-05-2.87057E-05-2.87369E-05 2.76046E-07 1.17872E-18-1.45209E-18
 -1      1597 9.53746E-05-2.86074E-05-2.86154E-05 7.08386E-08 7.48981E-19-2.35017E-18
 -1      1598 9.54634E-05-2.86300E-05-2.86424E-05 7.91219E-08-1.04123E-19-1.48405E-18
 -1      1599 9.55246E-05-2.86420E-05-2.86651E-05 1.86532E-07-1.92270E-19-1.14337E-18
 -1      1600 9.52551E-05-2.85730E-05-2.85785E-05 4.29957E-08-8.61084E-19-2.28033E-18
 -1      1601 9.53102E-05-2.85864E-05-2.85954E-05 4.91994E-08 4.00103E-19-1.85413E-18
 -1      1602 9.53681E-05-2.85993E-05-2.86161E-05 1.20078E-07 4.49328E-19-1.22794E-18
 -1      1603 9.51840E-05-2.85528E-05-2.85564E-05 2.31775E-08-1.07010E-18 6.30819E-19
 -1      1604 9.52150E-05-2.85597E-05-2.85661E-05 2.77389E-08-9.43687E-19-1.16318E-18
 -1      1605 9.52669E-05-2.85723E-05-2.85841E-05 7.17962E-08-1.27326E-18 6.07227E-19
 -1      1606 9.51471E-05-2.85426E-05-2.85449E-05 9.44185E-09-2.84755E-19 1.08270E-18
 -1      1607 9.51612E-05-2.85450E-05-2.85494E-05 1.27337E-08-2.67563E-19 4.74044E-19
 -1      1608 9.52060E-05-2.85565E-05-2.85647E-05 3.75355E-08-6.84923E-19 1.11533E-18
 -1      1609 9.51339E-05-2.85392E-05-2.85405E-05 2.29529E-10 7.89320E-19 3.51237E-19
 -1      1610 9.51366E-05-2.85386E-05-2.85416E-05 2.55855E-09 5.65229E-20 3.87278E-19
 -1      1611 9.51738E-05-2.85486E-05-2.85541E-05 1.38814E-08 2.90129E-19 1.33046E-19
 -1      1612 9.51364E-05-2.85404E-05-2.85410E-05-5.67297E-09-5.98883E-19-1.96714E-19
 -1      1613 9.51317E-05-2.85379E-05-2.85398E-05-4.06263E-09-9.14518E-20 5.13074E-19
 -1      1614 9.51615E-05-2.85463E-05-2.85497E-05-1.88822E-09-9.01535E-20 5.30184E-19
 -1      1615 9.51488E-05-2.85444E-05-2.85446E-05-9.17144E-09 2.08573E-18-1.20666E-18
 -1      1616 9.51396E-05-2.85409E-05-2.85420E-05-8.09485E-09 1.22445E-18 1.78597E-19
 -1      1617 9.51625E-05-2.85475E-05-2.85495E-05-1.18704E-08 1.00254E-18 7.78917E-19
 -1      1618 9.51668E-05-2.85500E-05-2.85499E-05-1.08947E-08 4.05788E-19-3.42116E-18
 -1      1619 9.51552E-05-2.85460E-05-2.85466E-05-1.02249E-08 8.64372E-19-2.35338E-18
 -1      1620 9.51718E-05-2.85510E-05-2.85520E-05-1.76013E-08 1.97493E-18 1.45682E-19
 -1      1621 9.51872E-05-2.85563E-05-2.85559E-05-1.12068E-08 8.30475E-19-4.56221E-18
 -1      1622 9.51748E-05-2.85523E-05-2.85523E-05-1.08776E-08 5.04181E-19-3.20735E-18
 -1      1623 9.51857E-05-2.85557E-05-2.85559E-05-2.01004E-08 1.10104E-18-2.19123E-18
 -1      1624 9.52071E-05-2.85625E-05-2.85617E-05-1.02135E-08-2.40283E-19-4.34778E-18
 -1      1625 9.51954E-05-2.85588E-05-2.85584E-05-1.02288E-08 1.77247E-20-4.49526E-18
 -1      1626 9.52014E-05-2.85609E-05-2.85603E-05-1.98974E-08 3.88684E-19-1.35996E-18
 -1      1627 9.52237E-05-2.85678E-05-2.85665E-05-7.72130E-09-1.25023E-19-4.52039E-18
 -1      1628 9.52143E-05-2.85649E-05-2.85639E-05-8.20100E-09 2.39338E-19-4.02001E-18
 -1      1629 9.52163E-05-2.85659E-05-2.85644E-05-1.70334E-08-1.42994E-19-6.61826E-20
 -1      1630 9.52342E-05-2.85713E-05-2.85697E-05-3.63095E-09-8.70252E-19-4.52461E-18
 -1      1631 9.52290E-05-2.85699E-05-2.85680E-05-4.57897E-09-4.59771E-19-5.48508E-18
 -1      1632 9.52285E-05-2.85704E-05-2.85676E-05-1.12015E-08-3.74652E-20-6.91578E-19
 -1      1633 9.52367E-05-2.85720E-05-2.85704E-05-7.20944E-10-2.53115E-18-3.31396E-18
 -1      1634 9.52394E-05-2.85818E-05-2.85674E-05-6.70194E-09-2.75030E-18 1.65842E-18
 -1      1635 9.52374E-05-2.85763E-05-2.85690E-05-5.60482E-09-3.75462E-18 8.36251E-19
 -1      1636 9.52443E-05-2.85959E-05-2.85636E-05-9.44412E-09-3.59325E-19 1.52947E-18
 -1      1637 9.52413E-05-2.85873E-05-2.85659E-05-9.09517E-09-2.23492E-18 6.90411E-19
 -1      1638 9.52393E-05-2.85841E-05-2.85664E-05-1.50856E-08-3.79934E-19 1.91395E-18
 -1      1639 9.52495E-05-2.86116E-05-2.85591E-05-1.00134E-08 6.89308E-19 9.66238E-20
 -1      1640 9.52463E-05-2.86022E-05-2.85618E-05-1.00765E-08-1.47387E-19 8.77581E-19
 -1      1641 9.52442E-05-2.85959E-05-2.85635E-05-1.86393E-08 2.98350E-19 1.69531E-18
 -1      1642 9.52542E-05-2.86265E-05-2.85548E-05-9.06364E-09 1.01427E-18 3.74947E-19
 -1      1643 9.52514E-05-2.86178E-05-2.85573E-05-9.37035E-09 6.60163E-19 1.66399E-18
 -1      1644 9.52487E-05-2.86083E-05-2.85602E-05-1.85515E-08 7.50774E-20 5.55185E-20
 -1      1645 9.52580E-05-2.86387E-05-2.85512E-05-7.23638E-09-2.10705E-18-7.32832E-19
 -1      1646 9.52558E-05-2.86318E-05-2.85532E-05-7.65582E-09 4.83627E-19-2.39116E-18
 -1      1647 9.52525E-05-2.86195E-05-2.85571E-05-1.60357E-08-8.32363E-19-2.00547E-18
 -1      1648 9.52608E-05-2.86477E-05-2.85485E-05-4.90307E-09-2.38711E-18-4.61247E-19
 -1      1649 9.52593E-05-2.86428E-05-2.85499E-05-5.38664E-09-1.72517E-18-6.94986E-19
 -1      1650 9.52555E-05-2.86287E-05-2.85545E-05-1.21264E-08-1.07031E-18-1.65646E-18
 -1      1651 9.52623E-05-2.86527E-05-2.85470E-05-2.35750E-09-2.45067E-18 9.77611E-20
 -1      1652 9.52615E-05-2.86502E-05-2.85477E-05-2.85900E-09-2.69441E-18 8.82547E-19
 -1      1653 9.52575E-05-2.86351E-05-2.85526E-05-7.46645E-09-6.74475E-19-5.37294E-19
 -1      1654 9.52625E-05-2.86536E-05-2.85467E-05 2.61053E-10-3.48690E-18-2.14638E-18
 -1      1655 9.52626E-05-2.86536E-05-2.85467E-05-2.44480E-10-2.66217E-18-1.99518E-19
 -1      1656 9.52586E-05-2.86384E-05-2.85517E-05-2.50456E-09-5.37237E-19-6.60100E-19
 -1      1657 9.52615E-05-2.86502E-05-2.85477E-05 2.87800E-09-5.76575E-18-4.94109E-19
 -1      1658 9.52623E-05-2.86527E-05-2.85470E-05 2.37582E-09-3.99745E-18-1.42088E-18
 -1      1659 9.52586E-05-2.86384E-05-2.85517E-05 2.53813E-09-1.05793E-18-2.68445E-18
 -1      1660 9.52592E-05-2.86428E-05-2.85499E-05 5.41075E-09-7.98171E-18-1.13222E-18
 -1      1661 9.52608E-05-2.86477E-05-2.85485E-05 4.92696E-09-6.03954E-18-8.67055E-19
 -1      1662 9.52575E-05-2.86351E-05-2.85526E-05 7.50845E-09-2.75540E-18-1.60642E-18
 -1      1663 9.52558E-05-2.86318E-05-2.85532E-05 7.66134E-09-8.86363E-18-2.60060E-19
 -1      1664 9.52581E-05-2.86387E-05-2.85512E-05 7.24380E-09-7.43323E-18-2.33855E-18
 -1      1665 9.52555E-05-2.86287E-05-2.85545E-05 1.21468E-08-3.64853E-18-2.14519E-18
 -1      1666 9.52514E-05-2.86177E-05-2.85573E-05 9.40185E-09-7.13873E-18 1.04348E-18
 -1      1667 9.52542E-05-2.86264E-05-2.85548E-05 9.09543E-09-8.94126E-18 2.85802E-18
 -1      1668 9.52525E-05-2.86195E-05-2.85571E-05 1.60719E-08-4.19387E-18 1.52869E-18
 -1      1669 9.52463E-05-2.86020E-05-2.85618E-05 1.01339E-08-3.83775E-18 2.60901E-18
 -1      1670 9.52494E-05-2.86115E-05-2.85592E-05 1.00431E-08-6.17240E-18 2.06822E-18
 -1      1671 9.52486E-05-2.86081E-05-2.85603E-05 1.86036E-08-2.52669E-18 3.02967E-18
 -1      1672 9.52413E-05-2.85873E-05-2.85660E-05 9.04229E-09-1.21396E-18 1.65570E-18
 -1      1673 9.52442E-05-2.85957E-05-2.85636E-05 9.38456E-09-3.11478E-18 2.00037E-18
 -1      1674 9.52440E-05-2.85957E-05-2.85636E-05 1.86525E-08-1.71989E-18 3.54057E-18
 -1      1675 9.52372E-05-2.85772E-05-2.85686E-05 7.78729E-09-5.59447E-19-2.88624E-19
 -1      1676 9.52391E-05-2.85826E-05-2.85670E-05 9.41549E-09-4.53029E-19 2.45252E-19
 -1      1677 9.52391E-05-2.85845E-05-2.85661E-05 1.73132E-08-9.39648E-19 1.46722E-18
 -1      1678 9.52329E-05-2.85756E-05-2.85673E-05 1.47335E-08-9.39680E-19-6.96875E-19
 -1      1679 1.91894E-05-6.15613E-05 1.29294E-05-4.37000E-06 1.98290E-18 2.31261E-18
 -1      1680 2.23948E-05-7.18485E-05 1.52506E-05 2.97386E-06-5.98005E-19 1.34805E-18
 -1      1681 2.10052E-05-3.75402E-05 3.36403E-06 5.96733E-06 6.55519E-18 5.97285E-18
 -1      1682 2.46108E-05-5.80627E-05 8.97789E-06 2.30435E-06 2.95106E-18 3.78970E-18
 -1      1683 3.92897E-05-1.27638E-05-1.28937E-05 3.13509E-05 8.90232E-18 7.57290E-18
 -1      1684 3.22645E-05-3.34477E-05-3.62063E-06 1.31030E-05 7.52335E-18 5.52138E-18
 -1      1685 7.67885E-05-1.21807E-06-3.14423E-05 6.04201E-05 9.12254E-18 1.00865E-17
 -1      1686 5.23123E-05-6.19951E-06-2.18488E-05 3.84227E-05 9.75867E-18 8.64312E-18
 -1      1687 1.38455E-04-1.53204E-05-4.92789E-05 7.76510E-05 7.09051E-18 1.06540E-17
 -1      1688 9.93439E-05-3.76971E-06-4.03567E-05 6.55557E-05 8.46694E-18 1.04676E-17
 -1      1689 2.05045E-04-4.20553E-05-6.42752E-05 6.71738E-05 4.62258E-18 7.97397E-18
 -1      1690 1.62355E-04-2.15418E-05-5.70953E-05 7.52662E-05 6.65133E-18 1.00534E-17
 -1      1691 2.47767E-04-6.19761E-05-7.30955E-05 2.64218E-05 3.10226E-18 2.31198E-18
 -1      1692 2.22128E-04-4.78771E-05-6.93621E-05 5.42559E-05 4.27498E-18 6.44592E-18
 -1      1693 2.49656E-04-6.17544E-05-7.43159E-05-2.58362E-05 3.10141E-18-4.56699E-18
 -1      1694 2.54909E-04-6.46198E-05-7.48771E-05 1.03336E-05 2.73655E-18 2.12182E-19
 -1      1695 2.00871E-04-3.80757E-05-6.57360E-05-5.85523E-05 5.73140E-18-9.16744E-18
 -1      1696 2.33366E-04-5.50265E-05-7.07194E-05-3.61289E-05 3.99143E-18-5.55061E-18
 -1      1697 1.40711E-04-1.51671E-05-5.17419E-05-7.11897E-05 9.08612E-18-1.25657E-17
 -1      1698 1.83679E-04-3.40735E-05-5.97894E-05-6.96396E-05 6.58399E-18-1.09775E-17
 -1      1699 8.04141E-05-1.74290E-06-3.41718E-05-5.74461E-05 1.14375E-17-1.28427E-17
 -1      1700 1.16263E-04-8.83337E-06-4.35651E-05-7.43075E-05 1.02550E-17-1.38922E-17
 -1      1701 4.06203E-05-1.29105E-05-1.49991E-05-2.73167E-05 1.09454E-17-9.58333E-18
 -1      1702 5.92318E-05-1.33034E-06-2.48740E-05-5.07111E-05 1.16001E-17-1.21769E-17
 -1      1703 2.56274E-05-4.23221E-05 1.98287E-06-4.23574E-06 8.20267E-18-5.39052E-18
 -1      1704 2.61600E-05-1.81074E-05-6.24231E-06-1.78927E-05 1.05218E-17-8.18149E-18
 -1      1705 2.42604E-05-6.71221E-05 1.25515E-05-1.13156E-06 2.01890E-18-3.11698E-18
 -1      1706 1.95387E-05-4.81303E-05 7.72861E-06-3.48662E-07 6.12828E-18-4.78404E-18
 -1      1707 2.28025E-05-7.54689E-05 1.61682E-05-4.08422E-06-4.55301E-18-2.98770E-18
 -1      1708 2.15354E-05-7.20489E-05 1.55503E-05 5.48463E-06 3.88576E-19-2.75074E-18
 -1      1709 1.88718E-05-5.77101E-05 1.11910E-05-5.20083E-06-1.10021E-17-5.33313E-18
 -1      1710 2.40876E-05-7.40373E-05 1.48443E-05 3.17421E-08-6.52639E-18-3.67146E-18
 -1      1711 2.53760E-05-2.77769E-05-2.18298E-06 1.36589E-05-1.36864E-17-8.70178E-18
 -1      1712 2.65052E-05-5.16337E-05 5.38663E-06 3.57873E-06-1.16611E-17-5.97434E-18
 -1      1713 4.96581E-05-6.05469E-06-1.96617E-05 4.16902E-05-1.37719E-17-1.11859E-17
 -1      1714 3.62121E-05-2.12480E-05-1.01639E-05 2.02081E-05-1.43648E-17-9.61933E-18
 -1      1715 1.11191E-04-1.36981E-05-3.98523E-05 6.62096E-05-9.80610E-18-1.00272E-17
 -1      1716 7.70171E-05-1.09235E-05-2.93512E-05 4.67451E-05-1.18652E-17-1.03507E-17
 -1      1717 1.75185E-04-2.85429E-05-5.79315E-05 7.69589E-05-6.40230E-18-9.67989E-18
 -1      1718 1.30386E-04-1.04479E-05-4.93961E-05 7.36764E-05-9.27035E-18-1.09555E-17
 -1      1719 2.34403E-04-5.56197E-05-7.04250E-05 4.81229E-05-3.42297E-18-5.81065E-18
 -1      1720 1.97680E-04-3.56782E-05-6.47820E-05 6.98915E-05-5.22598E-18-8.88876E-18
 -1      1721 2.47006E-04-6.03550E-05-7.41339E-05-4.08627E-06-3.21153E-18 1.71553E-18
 -1      1722 2.38530E-04-5.54491E-05-7.28657E-05 2.99883E-05-3.61916E-18-3.21110E-18
 -1      1723 2.29049E-04-5.09810E-05-7.08035E-05-4.92675E-05-3.64034E-18 6.66530E-18
 -1      1724 2.49415E-04-6.26438E-05-7.38531E-05-1.96810E-05-2.64634E-18 3.06668E-18
 -1      1725 1.72106E-04-2.53166E-05-5.93760E-05-7.39798E-05-7.00073E-18 1.09098E-17
 -1      1726 2.14844E-04-4.65265E-05-6.63020E-05-6.23752E-05-4.55513E-18 8.84218E-18
 -1      1727 1.05108E-04-7.43146E-06-4.13008E-05-6.32861E-05-7.71647E-18 1.01754E-17
 -1      1728 1.48387E-04-2.07989E-05-5.10666E-05-7.47323E-05-6.29134E-18 1.09564E-17
 -1      1729 5.19498E-05-6.42569E-06-2.18036E-05-3.78546E-05-7.68682E-18 8.09679E-18
 -1      1730 7.81305E-05-1.99828E-06-3.18075E-05-6.08992E-05-8.42374E-18 1.00272E-17
 -1      1731 2.83459E-05-3.03874E-05-3.82388E-06-9.96355E-06-5.86486E-18 4.53078E-18
 -1      1732 3.49311E-05-9.94624E-06-1.26793E-05-2.87112E-05-7.46067E-18 7.58984E-18
 -1      1733 2.38398E-05-6.08107E-05 9.67214E-06 2.00901E-06-3.75744E-18 1.42000E-18
 -1      1734 1.90032E-05-3.73339E-05 3.48345E-06-1.91286E-06-5.19570E-18 3.02348E-18
 -1      1735 2.28690E-05-7.34452E-05 1.55389E-05-2.46152E-06-1.03507E-18 1.20448E-18
 -1      1736 1.97955E-05-6.40232E-05 1.33208E-05 5.55383E-06-3.12005E-18 1.31692E-18
 -1      1737 1.14054E-04-2.94962E-05-3.53314E-05 4.64800E-05 5.45405E-18 6.21637E-18
 -1      1738 7.52771E-05-3.58003E-05-1.81887E-05 3.98141E-05 4.24533E-18 5.29650E-18
 -1      1739 9.52361E-05-2.85732E-05-2.85696E-05-3.70084E-09-3.82772E-18-1.53088E-18
 -1      1740 9.52350E-05-2.85755E-05-2.85683E-05-9.66469E-09-8.06933E-19 1.31309E-18
 -1      1741 1.95468E-05-4.40955E-05 6.99967E-06 1.75236E-05 9.91029E-20 4.59854E-18
 -1      1742 4.32929E-05-4.16794E-05-3.28167E-06 3.13827E-05 1.96935E-18 5.30272E-18
 -1      1743 1.11734E-05-4.65037E-05 1.10577E-05 6.90100E-07-4.15470E-19 2.77319E-18
 -1      1744 1.57273E-04-3.04259E-05-5.12742E-05 4.40311E-05 5.56543E-18 5.76321E-18
 -1      1745 1.92473E-04-3.30675E-05-6.36025E-05 2.97552E-05 5.38798E-18 3.66850E-18
 -1      1746 2.11398E-04-3.48398E-05-7.00884E-05 7.70609E-06 5.32572E-18 6.35910E-19
 -1      1747 2.02450E-04-3.22996E-05-6.82744E-05-1.12682E-05 5.36087E-18-2.04156E-18
 -1      1748 1.78378E-04-3.13529E-05-5.93934E-05-2.87207E-05 5.76067E-18-4.20128E-18
 -1      1749 1.43749E-04-3.05102E-05-4.60913E-05-4.41991E-05 6.60474E-18-7.13625E-18
 -1      1750 9.94506E-05-3.01295E-05-2.93774E-05-4.52706E-05 6.73815E-18-8.57028E-18
 -1      1751 5.94690E-05-3.56401E-05-1.21442E-05-3.56775E-05 5.60736E-18-7.42763E-18
 -1      1752 3.13459E-05-4.34448E-05 1.75268E-06-2.40540E-05 2.95784E-18-5.66834E-18
 -1      1753 1.50726E-05-4.73472E-05 9.87195E-06-1.13549E-05 1.05456E-19-5.51588E-18
 -1      1754 1.25948E-05-5.01306E-05 1.15113E-05 4.64488E-06-3.09993E-18-6.04189E-18
 -1      1755 2.61930E-05-4.54069E-05 4.68475E-06 2.15536E-05-6.12193E-18-6.31971E-18
 -1      1756 5.40191E-05-3.99683E-05-8.20694E-06 3.42864E-05-7.54029E-18-6.45778E-18
 -1      1757 9.66834E-05-3.77606E-05-2.52417E-05 4.20155E-05-7.43441E-18-5.55400E-18
 -1      1758 1.38454E-04-3.54891E-05-4.28710E-05 4.06413E-05-6.86563E-18-4.44269E-18
 -1      1759 1.78872E-04-3.23863E-05-5.87165E-05 3.89756E-05-5.69331E-18-4.90432E-18
 -1      1760 2.00621E-04-3.13469E-05-6.76143E-05 1.77460E-05-5.31259E-18-1.50179E-18
 -1      1761 2.04334E-04-3.04618E-05-6.95459E-05-4.89326E-06-4.82301E-18 1.08759E-18
 -1      1762 1.97143E-04-3.39068E-05-6.50800E-05-2.71855E-05-4.99411E-18 3.54102E-18
 -1      1763 1.62744E-04-3.24949E-05-5.27813E-05-3.92976E-05-4.59769E-18 5.70223E-18
 -1      1764 1.18657E-04-3.17768E-05-3.60740E-05-4.45256E-05-3.76379E-18 5.61413E-18
 -1      1765 7.29548E-05-3.31332E-05-1.82278E-05-3.93315E-05-3.30597E-18 5.87163E-18
 -1      1766 3.94974E-05-4.08809E-05-2.54389E-06-2.67229E-05-2.14892E-18 3.53557E-18
 -1      1767 1.88239E-05-4.71040E-05 7.94381E-06-1.36551E-05-1.70592E-18 2.28487E-18
 -1      1768 1.07290E-04-2.36618E-05-3.59344E-05-1.55544E-05-1.60407E-18 5.49386E-18
 -1      1769 9.01419E-05-1.06480E-05-3.41997E-05-1.07634E-05-1.75741E-18-2.55981E-18
 -1      1770 9.18710E-05-1.18976E-05-3.44032E-05-1.26157E-05-2.10167E-18-1.94140E-18
 -1      1771 9.42033E-05-1.43869E-05-3.43703E-05-1.36586E-05-2.16018E-18-1.09752E-18
 -1      1772 9.61331E-05-1.64837E-05-3.46137E-05-1.54580E-05-2.42101E-18-1.29702E-20
 -1      1773 9.50406E-05-1.67033E-05-3.35813E-05-1.12042E-05-2.27640E-18-1.34763E-18
 -1      1774 8.53013E-05-6.71257E-06-3.37556E-05-5.67695E-06-7.78986E-19-3.50608E-18
 -1      1775 8.61547E-05-7.19535E-06-3.38902E-05-6.89119E-06-1.05005E-18-3.43930E-18
 -1      1776 8.38437E-05-5.64820E-06-3.35714E-05-3.66157E-06-2.95790E-19-3.56413E-18
 -1      1777 8.44556E-05-5.97226E-06-3.36744E-05-4.69509E-06-5.05325E-19-3.56926E-18
 -1      1778 8.62061E-05-8.42254E-06-3.33607E-05-4.75700E-06-7.47667E-19-3.38198E-18
 -1      1779 8.29183E-05-4.99111E-06-3.34455E-05-1.92324E-06 1.98594E-19-3.37228E-18
 -1      1780 8.32837E-05-5.17768E-06-3.35097E-05-2.82426E-06-6.34232E-20-3.48628E-18
 -1      1781 8.47097E-05-7.22546E-06-3.32302E-05-2.97669E-06-1.73471E-19-3.37424E-18
 -1      1782 8.25286E-05-4.71014E-06-3.33915E-05-3.40072E-07 6.58046E-19-3.27873E-18
 -1      1783 8.26436E-05-4.76715E-06-3.34127E-05-1.17676E-06 4.31480E-19-3.35751E-18
 -1      1784 8.38218E-05-6.53951E-06-3.31422E-05-1.42304E-06 3.66034E-19-3.23944E-18
 -1      1785 8.26786E-05-4.79433E-06-3.34152E-05 1.21960E-06 1.12784E-18-3.17041E-18
 -1      1786 8.25418E-05-4.72395E-06-3.33922E-05 3.78897E-07 8.98581E-19-3.25809E-18
 -1      1787 8.35458E-05-6.33293E-06-3.31121E-05 1.71329E-08 8.37033E-19-3.17332E-18
 -1      1788 8.33620E-05-5.24415E-06-3.35144E-05 2.88813E-06 1.47149E-18-2.93603E-18
 -1      1789 8.29780E-05-5.04443E-06-3.34491E-05 1.97571E-06 1.32774E-18-3.10446E-18
 -1      1790 8.38820E-05-6.59554E-06-3.31445E-05 1.46729E-06 1.29651E-18-3.01113E-18
 -1      1791 8.45420E-05-6.05600E-06-3.36756E-05 4.75814E-06 1.92419E-18-2.48755E-18
 -1      1792 8.39299E-05-5.72777E-06-3.35750E-05 3.72694E-06 1.66710E-18-2.71630E-18
 -1      1793 8.48114E-05-7.32346E-06-3.32324E-05 3.03332E-06 1.69108E-18-2.66565E-18
 -1      1794 8.62734E-05-7.31423E-06-3.38894E-05 7.01004E-06 2.40847E-18-1.89042E-18
 -1      1795 8.53993E-05-6.81447E-06-3.37548E-05 5.75600E-06 2.12943E-18-2.24585E-18
 -1      1796 8.63274E-05-8.54818E-06-3.33597E-05 4.83011E-06 2.18327E-18-2.19155E-18
 -1      1797 8.86499E-05-9.17977E-06-3.41366E-05 9.70872E-06 2.75255E-18-9.31048E-19
 -1      1798 8.74542E-05-8.42423E-06-3.39706E-05 8.17514E-06 2.53107E-18-1.54764E-18
 -1      1799 8.84853E-05-1.03813E-05-3.34994E-05 6.93426E-06 2.60268E-18-1.53500E-18
 -1      1800 9.20305E-05-1.21295E-05-3.43906E-05 1.28270E-05 2.94050E-18 7.06690E-19
 -1      1801 9.02830E-05-1.08428E-05-3.41903E-05 1.09822E-05 2.77178E-18-2.58742E-19
 -1      1802 9.14246E-05-1.30637E-05-3.35996E-05 9.28369E-06 2.89920E-18-4.54605E-19
 -1      1803 9.77160E-05-1.76594E-05-3.45006E-05 1.55512E-05 2.65179E-18 3.48231E-18
 -1      1804 9.45593E-05-1.48534E-05-3.43369E-05 1.38807E-05 2.76562E-18 1.82189E-18
 -1      1805 9.55670E-05-1.72539E-05-3.35509E-05 1.13706E-05 2.95716E-18 1.27121E-18
 -1      1806 1.03726E-04-2.57278E-05-3.38483E-05 1.27705E-05 2.13537E-18 6.74016E-18
 -1      1807 9.99655E-05-2.02948E-05-3.41461E-05 1.50371E-05 2.39178E-18 4.59679E-18
 -1      1808 9.94099E-05-2.25083E-05-3.30252E-05 1.10812E-05 2.68875E-18 3.39991E-18
 -1      1809 1.01007E-04-2.68603E-05-3.19799E-05 7.79526E-06 2.16046E-18 6.04627E-18
 -1      1810 1.01943E-04-2.02584E-05-3.46986E-05-1.70548E-05-2.14629E-18 1.99265E-18
 -1      1811 9.84870E-05-2.81930E-05-3.01446E-05 2.36878E-06 1.78663E-18 4.83408E-18
 -1      1812 1.00358E-04-2.81607E-05-3.09781E-05 4.74583E-06 1.91043E-18 5.50721E-18
 -1      1813 1.00086E-04-2.63723E-05-3.15908E-05 6.75692E-06 2.27889E-18 3.99609E-18
 -1      1814 1.01751E-04-2.31805E-05-3.33976E-05-1.24521E-05-2.27542E-18 1.21666E-18
 -1      1815 9.98247E-05-2.77528E-05-3.07700E-05-3.63152E-06-1.80476E-18 9.95168E-19
 -1      1816 9.86013E-05-2.79297E-05-3.02442E-05-1.73149E-06-1.61184E-18 5.68802E-19
 -1      1817 9.81921E-05-2.82038E-05-2.98965E-05-4.98504E-08-1.52148E-18 5.83050E-19
 -1      1818 9.81027E-05-2.84513E-05-2.97982E-05 9.79994E-07-1.34363E-18 1.65023E-19
 -1      1819 9.86694E-05-2.72408E-05-3.06415E-05-1.59819E-06-1.81861E-18-2.47357E-19
 -1      1820 9.80935E-05-2.86230E-05-2.97122E-05 2.07753E-06-1.10553E-18 1.51626E-19
 -1      1821 9.86056E-05-2.89107E-05-2.98292E-05 2.74463E-06-8.01230E-19-1.02408E-19
 -1      1822 9.83825E-05-2.80755E-05-3.01597E-05 1.57728E-06-1.42479E-18-3.44643E-19
 -1      1823 9.89552E-05-2.91113E-05-2.98996E-05 3.51076E-06-6.83908E-19-1.96287E-19
 -1      1824 9.98810E-05-2.94791E-05-3.01444E-05 3.98031E-06-4.81732E-19-4.06515E-19
 -1      1825 9.88164E-05-2.86583E-05-3.00925E-05 3.69511E-06-9.16498E-19-4.49837E-19
 -1      1826 1.00521E-04-2.97484E-05-3.03134E-05 4.52344E-06-4.24648E-19-4.30066E-19
 -1      1827 1.01730E-04-3.02038E-05-3.06378E-05 4.83758E-06-3.85152E-19-6.43906E-19
 -1      1828 9.98659E-05-2.92660E-05-3.02782E-05 5.18566E-06-6.00861E-19-5.00706E-19
 -1      1829 1.02602E-04-3.05632E-05-3.08651E-05 5.16897E-06-4.81424E-19-6.21681E-19
 -1      1830 1.03979E-04-3.11058E-05-3.12296E-05 5.29773E-06-5.23590E-19-6.94256E-19
 -1      1831 1.01427E-04-3.00261E-05-3.06183E-05 6.18841E-06-4.48719E-19-6.98462E-19
 -1      1832 1.05035E-04-3.15744E-05-3.14800E-05 5.35446E-06-3.13781E-19-4.26747E-19
 -1      1833 1.06442E-04-3.21923E-05-3.18397E-05 5.21240E-06-1.18022E-20-2.86195E-19
 -1      1834 1.03410E-04-3.10226E-05-3.10378E-05 6.65355E-06-3.42415E-19-4.71238E-19
 -1      1835 1.07630E-04-3.27814E-05-3.20784E-05 4.86987E-06-1.61012E-19-1.68434E-19
 -1      1836 1.08880E-04-3.34329E-05-3.23781E-05 4.33298E-06-3.18663E-20-8.80881E-20
 -1      1837 1.05723E-04-3.23183E-05-3.14709E-05 6.38250E-06-7.64282E-20-2.40633E-19
 -1      1838 1.10117E-04-3.41208E-05-3.25731E-05 3.43261E-06-5.45807E-20-3.18134E-19
 -1      1839 1.10960E-04-3.47028E-05-3.27504E-05 2.38414E-06-9.33060E-21-5.00605E-19
 -1      1840 1.08238E-04-3.39134E-05-3.18600E-05 5.06966E-06-2.29728E-19-4.42864E-19
 -1      1841 1.12088E-04-3.53835E-05-3.28806E-05 8.10777E-07-4.37943E-20-7.10644E-19
 -1      1842 1.12227E-04-3.56962E-05-3.28815E-05-7.57198E-07 6.22305E-20-6.30244E-19
 -1      1843 1.10709E-04-3.56398E-05-3.21688E-05 2.40858E-06-1.62326E-19-2.35316E-19
 -1      1844 1.12966E-04-3.61225E-05-3.29492E-05-2.91575E-06 2.91432E-20-6.00726E-19
 -1      1845 1.12147E-04-3.58751E-05-3.27553E-05-4.74727E-06-1.55735E-19-7.00093E-19
 -1      1846 1.12672E-04-3.70124E-05-3.24027E-05-1.66242E-06 9.16351E-20-1.95548E-19
 -1      1847 1.12116E-04-3.56732E-05-3.27924E-05-6.98379E-06-9.58338E-20-6.89756E-19
 -1      1848 1.10304E-04-3.46177E-05-3.24506E-05-8.43726E-06-3.71828E-19-6.38067E-19
 -1      1849 1.13409E-04-3.71822E-05-3.26213E-05-6.55197E-06-1.16136E-19-1.95466E-19
 -1      1850 1.09247E-04-3.35158E-05-3.25065E-05-9.72907E-06-6.99854E-19-5.62986E-19
 -1      1851 1.06858E-04-3.17640E-05-3.21288E-05-9.91157E-06-8.74052E-19-6.33415E-19
 -1      1852 1.12201E-04-3.52624E-05-3.29158E-05-1.06253E-05-6.08322E-19-1.20947E-19
 -1      1853 1.05113E-04-3.00496E-05-3.22183E-05-9.13715E-06-7.80554E-19-7.65056E-19
 -1      1854 1.03051E-04-2.83255E-05-3.19385E-05-7.47971E-06-6.26275E-19-6.91715E-19
 -1      1855 1.09106E-04-3.13359E-05-3.33201E-05-1.14262E-05-9.15838E-19-6.44308E-20
 -1      1856 1.01711E-04-2.70142E-05-3.20174E-05-4.41504E-06-9.04525E-19-8.17076E-19
 -1      1857 1.00988E-04-2.63482E-05-3.19342E-05-1.38150E-06-9.09872E-19-1.19692E-18
 -1      1858 1.05673E-04-2.71844E-05-3.37116E-05-7.24018E-06-8.83402E-19-6.72204E-19
 -1      1859 1.01127E-04-2.64499E-05-3.19448E-05 2.63058E-06-1.29143E-18-1.92250E-18
 -1      1860 1.02165E-04-2.73112E-05-3.20900E-05 5.57399E-06-1.19945E-18-2.54183E-18
 -1      1861 1.04323E-04-2.55308E-05-3.38829E-05 7.75865E-07-1.70501E-18-1.52257E-18
 -1      1862 1.03707E-04-2.87533E-05-3.20374E-05 8.42851E-06-8.51996E-19-2.76695E-18
 -1      1863 1.05991E-04-3.05700E-05-3.23724E-05 9.88752E-06-4.41079E-19-3.01542E-18
 -1      1864 1.06185E-04-2.76189E-05-3.37357E-05 8.53944E-06-1.25573E-18-2.30433E-18
 -1      1865 1.07794E-04-3.22788E-05-3.23182E-05 1.04055E-05-3.13912E-19-3.07509E-18
 -1      1866 1.10293E-04-3.40129E-05-3.27394E-05 1.00536E-05 9.54947E-20-3.43568E-18
 -1      1867 1.09883E-04-3.19271E-05-3.33926E-05 1.21793E-05-4.70878E-19-2.50115E-18
 -1      1868 1.11330E-04-3.50345E-05-3.27214E-05 8.61864E-06 7.25920E-19-3.38003E-18
 -1      1869 1.13188E-04-3.60335E-05-3.30946E-05 7.10474E-06 6.71856E-19-3.34887E-18
 -1      1870 1.12999E-04-3.57271E-05-3.30616E-05 1.09311E-05 1.56794E-19-2.89609E-18
 -1      1871 1.13216E-04-3.61707E-05-3.30911E-05 4.87028E-06 7.04070E-19-3.15979E-18
 -1      1872 1.14083E-04-3.63858E-05-3.33113E-05 3.07723E-06 7.96112E-19-2.84186E-18
 -1      1873 1.14159E-04-3.74225E-05-3.28433E-05 6.71764E-06 9.21466E-19-2.91341E-18
 -1      1874 1.13388E-04-3.59424E-05-3.32739E-05 1.00996E-06 4.53996E-19-2.30953E-18
 -1      1875 1.13336E-04-3.56402E-05-3.33029E-05-4.69021E-07 5.21408E-19-2.12789E-18
 -1      1876 1.13451E-04-3.71207E-05-3.26929E-05 1.94300E-06 1.03469E-18-2.96509E-18
 -1      1877 1.12295E-04-3.49829E-05-3.32010E-05-1.92540E-06 3.41103E-19-1.77857E-18
 -1      1878 1.11588E-04-3.44481E-05-3.30616E-05-2.87853E-06 8.21404E-19-1.57152E-18
 -1      1879 1.11616E-04-3.57348E-05-3.25181E-05-1.89489E-06 8.28613E-19-2.64092E-18
 -1      1880 1.10458E-04-3.38052E-05-3.28935E-05-3.68032E-06 6.93740E-19-1.75060E-18
 -1      1881 1.09383E-04-3.32248E-05-3.26393E-05-4.14323E-06 3.76514E-19-1.35511E-18
 -1      1882 1.09343E-04-3.40836E-05-3.22599E-05-4.32230E-06 8.41402E-19-2.41620E-18
 -1      1883 1.08297E-04-3.26874E-05-3.24232E-05-4.43046E-06 4.00915E-19-1.94332E-18
 -1      1884 1.07083E-04-3.21534E-05-3.21114E-05-4.53617E-06 4.65057E-19-2.01012E-18
 -1      1885 1.07046E-04-3.26081E-05-3.19109E-05-5.47396E-06 4.39144E-19-2.61978E-18
 -1      1886 1.06098E-04-3.17346E-05-3.18721E-05-4.48615E-06 2.47320E-19-2.04100E-18
 -1      1887 1.04899E-04-3.12803E-05-3.15483E-05-4.37336E-06-1.10782E-19-2.15402E-18
 -1      1888 1.04921E-04-3.14484E-05-3.14978E-05-5.70347E-06 4.09952E-19-2.09488E-18
 -1      1889 1.04036E-04-3.09631E-05-3.13083E-05-4.13545E-06 2.95793E-19-2.05305E-18
 -1      1890 1.02941E-04-3.05926E-05-3.10027E-05-3.91194E-06 4.49315E-19-1.34674E-18
 -1      1891 1.03042E-04-3.05929E-05-3.10590E-05-5.36589E-06 4.84924E-19-2.03387E-18
 -1      1892 1.02203E-04-3.03542E-05-3.07781E-05-3.59127E-06 2.61728E-19-1.28905E-18
 -1      1893 1.01254E-04-3.00600E-05-3.05071E-05-3.32853E-06 1.71317E-19-9.21425E-19
 -1      1894 1.01426E-04-2.99795E-05-3.06290E-05-4.73632E-06 3.00633E-19-1.51250E-18
 -1      1895 1.00635E-04-2.98808E-05-3.03073E-05-2.99078E-06-6.19335E-19-1.00374E-18
 -1      1896 9.98433E-05-2.96516E-05-3.00774E-05-2.73080E-06-1.26548E-18-1.09977E-18
 -1      1897 1.00066E-04-2.95439E-05-3.02321E-05-3.99961E-06-3.93255E-19-1.56388E-18
 -1      1898 9.93345E-05-2.95168E-05-2.99064E-05-2.41268E-06-1.53600E-18-9.02204E-19
 -1      1899 9.86937E-05-2.93412E-05-2.97178E-05-2.17710E-06-1.08888E-18-1.16536E-18
 -1      1900 9.89416E-05-2.92349E-05-2.98821E-05-3.26698E-06-1.01340E-18-1.30665E-18
 -1      1901 9.82830E-05-2.92400E-05-2.95759E-05-1.89629E-06-6.95991E-19-6.45938E-19
 -1      1902 9.77770E-05-2.91076E-05-2.94254E-05-1.69405E-06-3.35926E-20-9.99974E-19
 -1      1903 9.80295E-05-2.90155E-05-2.95844E-05-2.59783E-06-5.50857E-19-8.66522E-19
 -1      1904 9.74515E-05-2.90321E-05-2.93107E-05-1.45662E-06 1.93746E-19-1.49424E-18
 -1      1905 9.70607E-05-2.89340E-05-2.91933E-05-1.28936E-06 2.32299E-19-1.59237E-18
 -1      1906 9.73020E-05-2.88600E-05-2.93383E-05-2.01828E-06-1.36430E-19-3.67391E-19
 -1      1907 9.68073E-05-2.88782E-05-2.91026E-05-1.09483E-06-5.04564E-20-1.81321E-18
 -1      1908 9.65119E-05-2.88069E-05-2.90131E-05-9.60351E-07 3.34765E-19-1.05051E-18
 -1      1909 9.67319E-05-2.87505E-05-2.91400E-05-1.53461E-06 6.41094E-20-1.80142E-18
 -1      1910 9.63181E-05-2.87663E-05-2.89429E-05-8.04918E-07 1.26136E-19-9.66019E-19
 -1      1911 9.60995E-05-2.87157E-05-2.88760E-05-6.99259E-07-3.29840E-19-1.31471E-18
 -1      1912 9.62929E-05-2.86743E-05-2.89837E-05-1.14219E-06-5.31302E-20-1.62521E-18
 -1      1913 9.59542E-05-2.86866E-05-2.88228E-05-5.77687E-07-4.91559E-19-1.90288E-18
 -1      1914 9.57962E-05-2.86517E-05-2.87740E-05-4.96349E-07-6.98075E-19-1.66283E-18
 -1      1915 9.59610E-05-2.86225E-05-2.88629E-05-8.31122E-07-8.66238E-19-2.34546E-18
 -1      1916 9.56895E-05-2.86315E-05-2.87344E-05-4.03093E-07-1.19366E-18-1.18261E-18
 -1      1917 9.55784E-05-2.86082E-05-2.86997E-05-3.41672E-07-1.09831E-18-1.79211E-18
 -1      1918 9.57151E-05-2.85883E-05-2.87715E-05-5.89498E-07-1.01774E-18-2.13113E-18
 -1      1919 9.55019E-05-2.85946E-05-2.86710E-05-2.71470E-07-2.41265E-19-2.08246E-18
 -1      1920 9.54262E-05-2.85799E-05-2.86470E-05-2.25972E-07 2.55844E-19-1.94109E-18
 -1      1921 9.55370E-05-2.85668E-05-2.87037E-05-4.05355E-07-7.15182E-19-1.94290E-18
 -1      1922 9.53729E-05-2.85712E-05-2.86267E-05-1.74127E-07 1.82879E-19-2.42359E-18
 -1      1923 9.53237E-05-2.85626E-05-2.86108E-05-1.41101E-07-6.45056E-19-2.63051E-18
 -1      1924 9.54112E-05-2.85543E-05-2.86547E-05-2.67630E-07-4.32210E-19-2.26188E-18
 -1      1925 9.52879E-05-2.85574E-05-2.85969E-05-1.03589E-07-1.20919E-18-1.70676E-18
 -1      1926 9.52580E-05-2.85532E-05-2.85869E-05-8.01485E-08-6.77351E-19-1.47834E-18
 -1      1927 9.53254E-05-2.85481E-05-2.86202E-05-1.66611E-07-1.75239E-19-2.25765E-18
 -1      1928 9.52352E-05-2.85505E-05-2.85778E-05-5.36282E-08-4.49870E-19-1.58233E-18
 -1      1929 9.52190E-05-2.85492E-05-2.85721E-05-3.74268E-08-1.90153E-19-1.32511E-18
 -1      1930 9.52694E-05-2.85462E-05-2.85966E-05-9.40745E-08-8.46681E-19-1.50066E-18
 -1      1931 9.52057E-05-2.85482E-05-2.85666E-05-1.91988E-08 4.63322E-19-1.67726E-18
 -1      1932 9.51991E-05-2.85489E-05-2.85639E-05-8.38170E-09 1.17221E-18-2.00686E-18
 -1      1933 9.52352E-05-2.85470E-05-2.85814E-05-4.32646E-08 2.60062E-19-1.97827E-18
 -1      1934 9.51924E-05-2.85491E-05-2.85608E-05 3.67095E-09 2.64358E-18-1.79672E-18
 -1      1935 9.51922E-05-2.85510E-05-2.85602E-05 1.05233E-08 2.93082E-18-8.95656E-19
 -1      1936 9.52166E-05-2.85497E-05-2.85720E-05-8.78519E-09 1.78835E-18-1.60443E-18
 -1      1937 9.51900E-05-2.85519E-05-2.85588E-05 1.80015E-08 2.66452E-18 3.63282E-19
 -1      1938 9.51938E-05-2.85545E-05-2.85595E-05 2.19234E-08 2.74926E-18 1.39263E-18
 -1      1939 9.52089E-05-2.85534E-05-2.85670E-05 1.35378E-08 3.22105E-18-3.12901E-19
 -1      1940 9.51947E-05-2.85560E-05-2.85593E-05 2.59705E-08 1.71345E-18 9.63145E-19
 -1      1941 9.52008E-05-2.85590E-05-2.85606E-05 2.76483E-08 8.68940E-19 4.73880E-19
 -1      1942 9.52084E-05-2.85578E-05-2.85648E-05 2.67956E-08 2.27087E-18 7.38934E-19
 -1      1943 9.52034E-05-2.85608E-05-2.85610E-05 2.90012E-08-7.40713E-20-6.57949E-19
 -1      1944 9.52104E-05-2.85639E-05-2.85627E-05 2.87964E-08-3.91647E-19-9.53879E-19
 -1      1945 9.52125E-05-2.85626E-05-2.85644E-05 3.31211E-08 1.70757E-19-2.52821E-19
 -1      1946 9.52139E-05-2.85660E-05-2.85634E-05 2.78944E-08 4.58217E-20-1.06932E-18
 -1      1947 9.52206E-05-2.85691E-05-2.85650E-05 2.58440E-08 1.64091E-19-3.53522E-19
 -1      1948 9.52190E-05-2.85677E-05-2.85649E-05 3.38171E-08-8.66544E-19-3.88965E-19
 -1      1949 9.52238E-05-2.85710E-05-2.85655E-05 2.29938E-08 1.16521E-19-7.12709E-19
 -1      1950 9.52295E-05-2.85739E-05-2.85668E-05 1.91637E-08-1.90451E-20-1.60692E-19
 -1      1951 9.52326E-05-2.85775E-05-2.85665E-05 2.21272E-08-9.71697E-20 2.18644E-19
 -1      1952 9.52261E-05-2.85730E-05-2.85657E-05 2.97936E-08 3.45482E-19 5.15586E-20
 -1      1953 9.74902E-05-2.85369E-05-2.95139E-05-3.14799E-07 1.34730E-18 3.86463E-18
 -1      1954 9.80477E-05-2.84698E-05-2.97557E-05 8.73802E-07 1.46977E-18 4.46961E-18
 -1      1955 9.85915E-05-2.79490E-05-3.02878E-05 1.83388E-06 1.82818E-18 3.25957E-18
 -1      1956 9.77496E-05-2.88784E-05-2.94832E-05-1.90977E-06 9.21569E-19 2.97791E-18
 -1      1957 9.75034E-05-2.86960E-05-2.94337E-05-1.18970E-06 1.02152E-18 3.48692E-18
 -1      1958 9.80360E-05-2.85087E-05-2.98121E-05-9.88084E-07 1.34260E-18 2.46156E-18
 -1      1959 9.89194E-05-2.93694E-05-2.97844E-05-2.95849E-06 3.82402E-19 2.49540E-18
 -1      1960 9.81703E-05-2.90777E-05-2.95768E-05-2.46567E-06 5.83229E-19 2.66337E-18
 -1      1961 9.84633E-05-2.89628E-05-2.98041E-05-2.75199E-06 8.87350E-19 1.75997E-18
 -1      1962 1.00722E-04-3.00219E-05-3.02860E-05-3.65638E-06 3.79342E-19 2.06070E-18
 -1      1963 9.96478E-05-2.96405E-05-2.99839E-05-3.31186E-06 2.23694E-19 2.39243E-18
 -1      1964 9.96289E-05-2.95089E-05-3.00702E-05-3.92027E-06 4.22640E-19 1.38677E-18
 -1      1965 1.02935E-04-3.08191E-05-3.09014E-05-4.02586E-06 7.38951E-19 2.02808E-18
 -1      1966 1.01668E-04-3.03695E-05-3.05477E-05-3.82752E-06 4.96373E-19 2.16766E-18
 -1      1967 1.01327E-04-3.02002E-05-3.05001E-05-4.65065E-06 5.84459E-19 1.22129E-18
 -1      1968 1.05330E-04-3.17298E-05-3.15485E-05-3.97705E-06 3.24948E-19 1.94487E-18
 -1      1969 1.04009E-04-3.12405E-05-3.11867E-05-3.97447E-06 5.89517E-19 1.96639E-18
 -1      1970 1.03378E-04-3.10508E-05-3.10116E-05-4.92312E-06 6.52301E-19 1.22131E-18
 -1      1971 1.07632E-04-3.26948E-05-3.21334E-05-3.34034E-06 3.96660E-19 1.88405E-18
 -1      1972 1.06430E-04-3.22127E-05-3.18163E-05-3.62202E-06 3.51069E-19 1.99278E-18
 -1      1973 1.05592E-04-3.20510E-05-3.15271E-05-4.59781E-06 4.36950E-19 1.46178E-18
 -1      1974 1.09478E-04-3.35976E-05-3.25484E-05-1.92026E-06-1.41537E-19 2.06844E-18
 -1      1975 1.08618E-04-3.32013E-05-3.23391E-05-2.58824E-06 2.59046E-19 2.00196E-18
 -1      1976 1.07728E-04-3.31441E-05-3.19658E-05-3.46387E-06 2.75461E-19 1.68864E-18
 -1      1977 1.10422E-04-3.42275E-05-3.26867E-05 3.84663E-07-2.40703E-19 2.04731E-18
 -1      1978 1.10163E-04-3.40385E-05-3.26497E-05-7.25232E-07-3.21846E-19 1.93877E-18
 -1      1979 1.09453E-04-3.41755E-05-3.22505E-05-1.33364E-06-1.93580E-19 1.76714E-18
 -1      1980 1.10000E-04-3.42686E-05-3.24788E-05 3.37470E-06 2.91598E-19 1.83422E-18
 -1      1981 1.10572E-04-3.44398E-05-3.26571E-05 1.91846E-06 2.61654E-20 1.92324E-18
 -1      1982 1.10333E-04-3.48378E-05-3.23269E-05 1.77482E-06-2.19699E-21 1.25864E-18
 -1      1983 1.07913E-04-3.33829E-05-3.19410E-05 6.32160E-06 8.08453E-19 1.54619E-18
 -1      1984 1.09401E-04-3.40376E-05-3.23241E-05 4.87958E-06 3.52955E-19 1.47901E-18
 -1      1985 1.09899E-04-3.46855E-05-3.21900E-05 5.37714E-06 6.31443E-19 1.26129E-18
 -1      1986 1.04352E-04-3.14713E-05-3.12144E-05 7.94913E-06 7.73454E-19 1.55007E-18
 -1      1987 1.06530E-04-3.25699E-05-3.17128E-05 7.14641E-06 6.98683E-19 1.64376E-18
 -1      1988 1.07879E-04-3.33179E-05-3.19059E-05 8.33135E-06 6.91096E-19 1.54774E-18
 -1      1989 1.00296E-04-2.90200E-05-3.05309E-05 6.94806E-06 1.03126E-19 2.08581E-18
 -1      1990 1.02553E-04-3.02331E-05-3.09934E-05 7.40639E-06 3.98092E-19 1.70539E-18
 -1      1991 1.04614E-04-3.08429E-05-3.15973E-05 9.04234E-06 3.91905E-19 1.41615E-18
 -1      1992 9.74456E-05-2.71770E-05-3.01256E-05 3.03811E-06 4.85469E-19 1.53565E-18
 -1      1993 9.89123E-05-2.79442E-05-3.03906E-05 4.84954E-06 1.38715E-19 1.73016E-18
 -1      1994 1.01330E-04-2.81872E-05-3.13747E-05 6.35942E-06 2.94053E-19 1.32161E-18
 -1      1995 9.73143E-05-2.70451E-05-3.01500E-05-2.34065E-06 7.57883E-19 4.09388E-19
 -1      1996 9.73041E-05-2.69334E-05-3.01142E-05 1.10814E-07 6.51646E-19 8.30913E-19
 -1      1997 9.97258E-05-2.68030E-05-3.13055E-05 8.10858E-07 1.08420E-18 7.17980E-19
 -1      1998 1.00093E-04-2.87480E-05-3.06078E-05-6.73615E-06 6.22913E-19 4.10414E-19
 -1      1999 9.85618E-05-2.78088E-05-3.02770E-05-4.76498E-06 1.01006E-18 5.88754E-19
 -1      2000 1.00786E-04-2.75750E-05-3.14134E-05-5.22830E-06 1.00976E-18 4.61567E-21
 -1      2001 1.04451E-04-3.12930E-05-3.13566E-05-8.39161E-06-7.81299E-19-1.59189E-19
 -1      2002 1.02040E-04-3.00208E-05-3.08414E-05-7.63917E-06-3.73515E-19 8.10505E-20
 -1      2003 1.03950E-04-3.00317E-05-3.16805E-05-9.03444E-06 5.06102E-20-2.17912E-19
 -1      2004 1.08575E-04-3.34615E-05-3.21663E-05-7.25695E-06-1.03661E-18 5.46998E-19
 -1      2005 1.06176E-04-3.23873E-05-3.16304E-05-7.70586E-06-6.61903E-19 2.38824E-19
 -1      2006 1.07605E-04-3.27796E-05-3.20482E-05-9.41427E-06-1.01620E-18-7.01714E-20
 -1      2007 1.11254E-04-3.46130E-05-3.28108E-05-4.51684E-06-2.27918E-19 6.91748E-19
 -1      2008 1.09530E-04-3.40045E-05-3.23990E-05-5.64671E-06-7.75929E-19 7.55388E-19
 -1      2009 1.10305E-04-3.46286E-05-3.24167E-05-7.07610E-06-8.65363E-19 2.02232E-19
 -1      2010 1.12189E-04-3.47757E-05-3.31484E-05-1.52015E-06 1.42319E-18 9.36891E-19
 -1      2011 1.11387E-04-3.46256E-05-3.29382E-05-2.76547E-06 4.10692E-19 1.40705E-18
 -1      2012 1.11461E-04-3.52179E-05-3.26722E-05-3.60012E-06 3.65475E-19 4.64498E-19
 -1      2013 1.11673E-04-3.42884E-05-3.31493E-05 8.84829E-07 8.23412E-19 6.42789E-19
 -1      2014 1.11710E-04-3.44598E-05-3.31452E-05-1.23293E-07 1.48483E-18 1.20972E-18
 -1      2015 1.11207E-04-3.48388E-05-3.27350E-05-3.25902E-07 1.30020E-18 1.02021E-18
 -1      2016 1.10204E-04-3.34964E-05-3.28705E-05 2.41962E-06-6.97770E-19-1.67835E-19
 -1      2017 1.10842E-04-3.38414E-05-3.30285E-05 1.76629E-06-3.84335E-19 4.78739E-20
 -1      2018 1.09982E-04-3.39632E-05-3.25876E-05 2.06802E-06 2.08440E-19 6.87048E-19
 -1      2019 1.08243E-04-3.26319E-05-3.24074E-05 3.16365E-06-6.01704E-19 5.48685E-20
 -1      2020 1.09224E-04-3.30411E-05-3.26665E-05 2.83605E-06-5.08537E-19-4.41718E-19
 -1      2021 1.08230E-04-3.29566E-05-3.22663E-05 3.46279E-06-5.27255E-19 5.66756E-19
 -1      2022 1.06132E-04-3.18178E-05-3.18548E-05 3.33218E-06 8.17471E-19 1.67478E-19
 -1      2023 1.07247E-04-3.22248E-05-3.21591E-05 3.24429E-06-6.50594E-20 1.65403E-20
 -1      2024 1.06282E-04-3.20158E-05-3.18325E-05 4.03205E-06 5.08989E-20-5.80219E-19
 -1      2025 1.04094E-04-3.11058E-05-3.12867E-05 3.14491E-06 1.59473E-18 6.03036E-19
 -1      2026 1.05199E-04-3.14760E-05-3.15947E-05 3.20742E-06 1.52020E-18 6.25655E-19
 -1      2027 1.04357E-04-3.12154E-05-3.13489E-05 4.03347E-06 1.40306E-18 7.18158E-19
 -1      2028 1.02252E-04-3.05096E-05-3.07521E-05 2.77363E-06-3.06830E-19 3.61908E-20
 -1      2029 1.03262E-04-3.08282E-05-3.10380E-05 2.91589E-06 2.90796E-19 2.55035E-19
 -1      2030 1.02582E-04-3.05664E-05-3.08656E-05 3.70100E-06 6.20349E-19 6.66594E-19
 -1      2031 1.00664E-04-3.00246E-05-3.02779E-05 2.33414E-06-6.29029E-19 1.40445E-18
 -1      2032 1.01539E-04-3.02885E-05-3.05283E-05 2.50800E-06-6.79089E-19 8.96080E-19
 -1      2033 1.01021E-04-3.00536E-05-3.04160E-05 3.20854E-06-5.99867E-19 1.09182E-18
 -1      2034 9.93409E-05-2.96386E-05-2.98751E-05 1.89614E-06 9.01686E-19 9.89002E-19
 -1      2035 1.00070E-04-2.98511E-05-3.00853E-05 2.07221E-06 4.10957E-19 1.29416E-18
 -1      2036 9.96959E-05-2.96549E-05-3.00189E-05 2.66985E-06 6.26201E-19 1.45560E-18
 -1      2037 9.82701E-05-2.93375E-05-2.95442E-05 1.49673E-06 1.24314E-19-3.42070E-19
 -1      2038 9.88583E-05-2.95043E-05-2.97150E-05 1.65901E-06 7.33938E-19 8.33376E-20
 -1      2039 9.86025E-05-2.93489E-05-2.96816E-05 2.15165E-06 1.25449E-18 8.37417E-19
 -1      2040 9.74242E-05-2.91069E-05-2.92798E-05 1.15212E-06-2.45204E-19-2.32238E-18
 -1      2041 9.78866E-05-2.92349E-05-2.94148E-05 1.29331E-06-3.05283E-19-1.03948E-18
 -1      2042 9.77223E-05-2.91168E-05-2.94039E-05 1.68813E-06 4.67671E-19-5.29913E-19
 -1      2043 9.67709E-05-2.89336E-05-2.90735E-05 8.66083E-07-3.65021E-19-7.29207E-19
 -1      2044 9.71259E-05-2.90298E-05-2.91777E-05 9.84125E-07-3.26926E-19-1.80622E-18
 -1      2045 9.70292E-05-2.89432E-05-2.91813E-05 1.29288E-06-4.10111E-19-4.45284E-19
 -1      2046 9.62773E-05-2.88059E-05-2.89163E-05 6.35632E-07-1.08539E-18-5.09265E-19
 -1      2047 9.65435E-05-2.88766E-05-2.89948E-05 7.31374E-07-6.09853E-19 1.55088E-19
 -1      2048 9.64948E-05-2.88154E-05-2.90070E-05 9.67399E-07-7.62714E-19 5.32517E-19
 -1      2049 9.59125E-05-2.87140E-05-2.87991E-05 4.54481E-07 1.77440E-18-5.91101E-19
 -1      2050 9.61075E-05-2.87647E-05-2.88569E-05 5.30235E-07 4.15920E-19-5.26734E-19
 -1      2051 9.60913E-05-2.87232E-05-2.88734E-05 7.06650E-07 7.86624E-19 1.49629E-19
 -1      2052 9.56494E-05-2.86496E-05-2.87138E-05 3.15165E-07 3.32394E-19-5.53870E-19
 -1      2053 9.57886E-05-2.86849E-05-2.87553E-05 3.73815E-07 1.20423E-18-4.87754E-19
 -1      2054 9.57931E-05-2.86581E-05-2.87734E-05 5.02597E-07 1.58605E-18 3.39034E-19
 -1      2055 9.54651E-05-2.86060E-05-2.86535E-05 2.10216E-07-7.64850E-19-6.66004E-19
 -1      2056 9.55613E-05-2.86297E-05-2.86824E-05 2.54715E-07-1.28030E-19-2.69600E-19
 -1      2057 9.55781E-05-2.86135E-05-2.87002E-05 3.46262E-07 2.07242E-20 1.76440E-19
 -1      2058 9.53405E-05-2.85779E-05-2.86121E-05 1.32777E-07-6.38157E-19-8.46193E-20
 -1      2059 9.54045E-05-2.85929E-05-2.86315E-05 1.65875E-07-6.53362E-19-1.00367E-18
 -1      2060 9.54275E-05-2.85842E-05-2.86480E-05 2.28903E-07-6.73834E-19-6.78276E-19
 -1      2061 9.52603E-05-2.85609E-05-2.85851E-05 7.68737E-08-2.29852E-18 7.79020E-19
 -1      2062 9.53005E-05-2.85698E-05-2.85974E-05 1.00993E-07-1.73225E-18 1.39042E-19
 -1      2063 9.53256E-05-2.85661E-05-2.86120E-05 1.42609E-07-1.70431E-18-3.17776E-19
 -1      2064 9.52125E-05-2.85519E-05-2.85685E-05 3.74911E-08 6.61538E-19 1.22949E-18
 -1      2065 9.52355E-05-2.85564E-05-2.85757E-05 5.46819E-08-2.31663E-19 1.33694E-18
 -1      2066 9.52600E-05-2.85559E-05-2.85881E-05 8.05469E-08-8.26220E-19 1.03148E-18
 -1      2067 9.51877E-05-2.85484E-05-2.85594E-05 1.05518E-08 3.55945E-19 9.48754E-19
 -1      2068 9.51986E-05-2.85499E-05-2.85630E-05 2.24937E-08 3.73186E-19 9.64736E-19
 -1      2069 9.52209E-05-2.85513E-05-2.85732E-05 3.70266E-08 6.29703E-19 1.83810E-18
 -1      2070 9.51788E-05-2.85487E-05-2.85555E-05-7.15718E-09-8.23987E-20 1.28822E-18
 -1      2071 9.51815E-05-2.85481E-05-2.85566E-05 8.66023E-10-2.26873E-19 1.03187E-18
 -1      2072 9.52007E-05-2.85504E-05-2.85648E-05 7.45565E-09-2.23864E-19 1.68827E-18
 -1      2073 9.51805E-05-2.85513E-05-2.85551E-05-1.80698E-08 2.43152E-18 4.75867E-19
 -1      2074 9.51777E-05-2.85495E-05-2.85546E-05-1.29555E-08 1.32499E-18 6.05550E-19
 -1      2075 9.51934E-05-2.85521E-05-2.85609E-05-1.17481E-08 1.69329E-18 9.88590E-19
 -1      2076 9.51887E-05-2.85554E-05-2.85570E-05-2.39272E-08 1.55088E-18 7.29933E-20
 -1      2077 9.51827E-05-2.85528E-05-2.85555E-05-2.10028E-08 2.43233E-18 1.28460E-18
 -1      2078 9.51948E-05-2.85553E-05-2.85600E-05-2.32598E-08 1.97744E-18 5.25515E-19
 -1      2079 9.52003E-05-2.85602E-05-2.85599E-05-2.58103E-08 9.24542E-19-4.84929E-19
 -1      2080 9.51927E-05-2.85573E-05-2.85580E-05-2.46453E-08 5.86352E-19-1.97773E-19
 -1      2081 9.52014E-05-2.85595E-05-2.85610E-05-2.89224E-08 8.96280E-19 1.42999E-18
 -1      2082 9.52129E-05-2.85653E-05-2.85632E-05-2.42203E-08-7.10280E-19 1.53074E-18
 -1      2083 9.52051E-05-2.85624E-05-2.85612E-05-2.46533E-08 3.69993E-19 1.09822E-18
 -1      2084 9.52107E-05-2.85642E-05-2.85629E-05-2.98386E-08 2.66634E-19 1.82626E-18
 -1      2085 9.52245E-05-2.85703E-05-2.85661E-05-1.90905E-08-2.93859E-19 2.18028E-18
 -1      2086 9.52177E-05-2.85676E-05-2.85644E-05-2.13138E-08-4.71412E-20 1.69383E-18
 -1      2087 9.52207E-05-2.85693E-05-2.85650E-05-2.65555E-08-3.65783E-19 3.50021E-18
 -1      2088 9.52325E-05-2.85742E-05-2.85679E-05-1.27336E-08 2.89436E-20 1.57223E-18
 -1      2089 9.52273E-05-2.85719E-05-2.85666E-05-1.66590E-08 4.92748E-19 2.37356E-18
 -1      2090 9.52288E-05-2.85737E-05-2.85665E-05-2.11483E-08 5.07795E-19 3.23881E-18
 -1      2091 9.52344E-05-2.85774E-05-2.85673E-05-1.53509E-08 3.08831E-19 3.18076E-18
 -1      2092 9.52489E-05-2.86053E-05-2.85615E-05-2.33004E-08 4.02538E-19-7.12528E-19
 -1      2093 9.52463E-05-2.85993E-05-2.85630E-05-2.41768E-08 2.71311E-19 7.95233E-19
 -1      2094 9.52441E-05-2.85953E-05-2.85637E-05-2.44951E-08 3.56336E-19 1.78558E-18
 -1      2095 9.52410E-05-2.85892E-05-2.85651E-05-2.36371E-08 1.87230E-19 1.47216E-18
 -1      2096 9.52438E-05-2.85926E-05-2.85648E-05-2.97374E-08 4.16912E-19 1.20039E-18
 -1      2097 9.52392E-05-2.85862E-05-2.85656E-05-2.17671E-08-5.09014E-19 5.86973E-19
 -1      2098 9.52363E-05-2.85807E-05-2.85667E-05-1.87544E-08 2.71143E-19 1.87611E-18
 -1      2099 9.52340E-05-2.85790E-05-2.85665E-05-2.21998E-08 3.93823E-19 1.87209E-18
 -1      2100 9.52388E-05-2.85856E-05-2.85657E-05-2.80037E-08-1.96038E-19 1.45275E-18
 -1      2101 9.52525E-05-2.86136E-05-2.85595E-05-1.95472E-08-2.18295E-18-4.38844E-18
 -1      2102 9.52505E-05-2.86085E-05-2.85608E-05-2.14430E-08-7.40584E-19-1.85372E-18
 -1      2103 9.52485E-05-2.85999E-05-2.85637E-05-2.72541E-08-8.59073E-19-2.46041E-18
 -1      2104 9.52550E-05-2.86200E-05-2.85578E-05-1.42213E-08-2.38553E-19-1.22326E-18
 -1      2105 9.52535E-05-2.86161E-05-2.85588E-05-1.67272E-08-6.50721E-19-1.47273E-18
 -1      2106 9.52517E-05-2.86058E-05-2.85626E-05-2.20563E-08-7.99882E-19-2.55565E-18
 -1      2107 9.52564E-05-2.86241E-05-2.85566E-05-8.14160E-09 9.68010E-19-3.70385E-19
 -1      2108 9.52556E-05-2.86216E-05-2.85573E-05-1.09166E-08 8.55569E-19-8.50605E-19
 -1      2109 9.52537E-05-2.86101E-05-2.85616E-05-1.52825E-08 1.25768E-18-2.52916E-19
 -1      2110 9.52570E-05-2.86257E-05-2.85562E-05-1.76181E-09-1.10956E-18-2.37558E-18
 -1      2111 9.52567E-05-2.86249E-05-2.85564E-05-4.63492E-09 3.24280E-19-9.33673E-19
 -1      2112 9.52548E-05-2.86126E-05-2.85610E-05-7.76800E-09 1.41022E-18-1.82008E-18
 -1      2113 9.52567E-05-2.86249E-05-2.85564E-05 4.67438E-09-9.73729E-19-2.22734E-18
 -1      2114 9.52570E-05-2.86257E-05-2.85562E-05 1.79880E-09-1.40719E-18-2.98205E-18
 -1      2115 9.52551E-05-2.86134E-05-2.85608E-05 2.06022E-11-1.32996E-18-2.46050E-18
 -1      2116 9.52556E-05-2.86216E-05-2.85573E-05 1.09684E-08-2.03663E-18-2.01857E-18
 -1      2117 9.52564E-05-2.86241E-05-2.85566E-05 8.18762E-09-1.44381E-18-8.89810E-19
 -1      2118 9.52548E-05-2.86126E-05-2.85610E-05 7.81702E-09-1.66491E-18-2.45021E-18
 -1      2119 9.52536E-05-2.86162E-05-2.85588E-05 1.67019E-08-2.01099E-18-7.74130E-19
 -1      2120 9.52550E-05-2.86200E-05-2.85578E-05 1.42320E-08-2.34595E-18-1.48343E-18
 -1      2121 9.52538E-05-2.86101E-05-2.85616E-05 1.52907E-08-1.07452E-18-3.03276E-18
 -1      2122 9.52505E-05-2.86085E-05-2.85608E-05 2.14828E-08-7.18883E-19 2.53489E-18
 -1      2123 9.52525E-05-2.86137E-05-2.85595E-05 1.95468E-08-1.30411E-18 1.35995E-18
 -1      2124 9.52518E-05-2.86059E-05-2.85626E-05 2.20391E-08 8.10644E-19 8.31323E-19
 -1      2125 9.52463E-05-2.85992E-05-2.85630E-05 2.42360E-08 7.31221E-19 4.95134E-18
 -1      2126 9.52489E-05-2.86052E-05-2.85616E-05 2.33731E-08-4.91209E-19 2.93775E-18
 -1      2127 9.52485E-05-2.86000E-05-2.85637E-05 2.73127E-08 1.65826E-18 3.11728E-18
 -1      2128 9.52407E-05-2.85890E-05-2.85651E-05 2.39028E-08-4.98752E-19 2.58904E-18
 -1      2129 9.52441E-05-2.85953E-05-2.85638E-05 2.45528E-08-2.73971E-19 3.61584E-18
 -1      2130 9.52438E-05-2.85925E-05-2.85649E-05 2.97924E-08 8.06944E-19 3.92178E-18
 -1      2131 6.00709E-05-4.01922E-05-8.89864E-06 4.10628E-05 5.94617E-19 4.28575E-18
 -1      2132 4.42157E-05-4.04488E-05-2.69131E-06 3.38124E-05-3.82435E-19 4.02076E-18
 -1      2133 1.18713E-05-3.16432E-05 7.32057E-06 5.63659E-06-5.65394E-19 2.09852E-18
 -1      2134 1.21519E-05-3.29940E-05 7.60325E-06-5.62590E-06-8.82714E-19 2.51653E-18
 -1      2135 2.81341E-05-3.35805E-05 1.60510E-06 2.81706E-05-1.49925E-19 5.53113E-18
 -1      2136 1.91591E-05-3.34748E-05 5.03046E-06 1.80104E-05-1.29469E-18 4.05729E-18
 -1      2137 9.97748E-05-4.34405E-05-2.39626E-05 4.18119E-05 2.25607E-18 3.58422E-18
 -1      2138 8.20586E-05-4.61768E-05-1.61339E-05 3.84681E-05 1.08928E-18 3.33223E-18
 -1      2139 1.32172E-04-4.00575E-05-3.87925E-05 3.72721E-05 3.32672E-18 3.76718E-18
 -1      2140 1.11939E-04-4.14894E-05-3.07621E-05 3.60916E-05 2.75116E-18 3.51730E-18
 -1      2141 8.73283E-05-8.27328E-06-3.39745E-05-8.02350E-06-1.30602E-18-3.23680E-18
 -1      2142 8.84914E-05-9.00945E-06-3.41404E-05-9.54216E-06-1.63665E-18-2.95285E-18
 -1      2143 9.11854E-05-1.28677E-05-3.36277E-05-9.19960E-06-1.81163E-18-2.57032E-18
 -1      2144 8.83243E-05-1.01879E-05-3.35054E-05-6.83453E-06-1.24230E-18-3.14642E-18
 -1      2145 1.76737E-04-2.91340E-05-6.21837E-05 9.96474E-06 5.00575E-18 2.20229E-20
 -1      2146 1.66536E-04-3.04294E-05-5.76674E-05 1.70735E-05 4.80014E-18 1.35568E-18
 -1      2147 1.81008E-04-2.41288E-05-6.61596E-05-7.13490E-07 5.16860E-18-4.36540E-19
 -1      2148 1.76113E-04-2.32351E-05-6.46679E-05 5.64544E-06 5.42482E-18 1.18161E-19
 -1      2149 1.67920E-04-2.17901E-05-6.22610E-05-5.95661E-06 5.51673E-18-8.66515E-19
 -1      2150 1.80309E-04-2.38463E-05-6.55279E-05-2.65158E-06 5.31344E-18-3.93976E-19
 -1      2151 1.55745E-04-1.20116E-05-6.06810E-05 1.90361E-07 5.27744E-18-2.32563E-19
 -1      2152 1.59966E-04-3.30897E-05-5.37285E-05-1.81958E-05 4.69150E-18-2.52416E-18
 -1      2153 1.68627E-04-3.00615E-05-5.87897E-05-1.04997E-05 4.89077E-18-1.17229E-18
 -1      2154 1.33928E-04-4.00359E-05-4.03565E-05-3.11602E-05 4.53883E-18-4.07169E-18
 -1      2155 1.52216E-04-3.95512E-05-4.76224E-05-2.74443E-05 4.59304E-18-2.66858E-18
 -1      2156 1.01711E-04-4.45518E-05-2.52723E-05-3.71387E-05 3.24710E-18-5.40661E-18
 -1      2157 1.21795E-04-4.28498E-05-3.34340E-05-3.93169E-05 4.00731E-18-4.82978E-18
 -1      2158 6.27560E-05-4.32039E-05-9.77585E-06-3.64766E-05 2.57159E-18-5.37442E-18
 -1      2159 8.10602E-05-4.05353E-05-1.76348E-05-4.29264E-05 3.43006E-18-6.41903E-18
 -1      2160 3.39741E-05-3.86062E-05 9.52827E-07-3.02499E-05 7.23790E-19-5.07521E-18
 -1      2161 4.62582E-05-3.90232E-05-4.00202E-06-3.60971E-05 2.38313E-18-5.37935E-18
 -1      2162 1.37091E-05-3.57506E-05 7.80305E-06-8.58551E-06-1.00691E-18-5.58534E-18
 -1      2163 1.90777E-05-3.33261E-05 4.99779E-06-1.95034E-05 2.12817E-19-5.74542E-18
 -1      2164 1.50603E-05-3.36474E-05 6.73828E-06 1.27487E-05-2.52077E-18-6.23755E-18
 -1      2165 1.22758E-05-3.41127E-05 7.95715E-06 2.41393E-06-9.18051E-19-5.90001E-18
 -1      2166 3.71634E-05-3.58881E-05-1.20276E-06 3.35785E-05-3.61387E-18-5.13387E-18
 -1      2167 2.51699E-05-3.74355E-05 3.83054E-06 2.29312E-05-2.33675E-18-5.88455E-18
 -1      2168 7.40163E-05-4.22763E-05-1.40142E-05 4.23181E-05-5.08093E-18-4.39165E-18
 -1      2169 5.68863E-05-4.34910E-05-6.87179E-06 3.66840E-05-4.17587E-18-4.36757E-18
 -1      2170 1.15653E-04-4.77633E-05-2.93152E-05 3.75301E-05-4.46175E-18-2.49536E-18
 -1      2171 9.29032E-05-4.62130E-05-2.08271E-05 3.78595E-05-5.02968E-18-3.89127E-18
 -1      2172 9.60642E-05-5.21886E-05-1.87483E-05 4.04753E-05-2.30224E-18-2.33051E-18
 -1      2173 1.51661E-04-3.96497E-05-4.67762E-05 2.95612E-05-5.44875E-18-2.01170E-18
 -1      2174 1.33938E-04-4.42429E-05-3.84052E-05 2.77107E-05-5.32530E-18-1.39845E-18
 -1      2175 1.73327E-04-3.35160E-05-5.86923E-05 1.86296E-05-4.70230E-18-1.46240E-18
 -1      2176 1.57854E-04-3.42284E-05-5.25684E-05 2.33328E-05-5.27027E-18-2.50298E-18
 -1      2177 1.53505E-04-4.13097E-05-4.75203E-05 1.02994E-05-4.21256E-18 1.86347E-19
 -1      2178 1.74094E-04-2.30474E-05-6.42267E-05 2.25010E-06-4.72390E-18-2.31664E-19
 -1      2179 1.75044E-04-2.73560E-05-6.20669E-05 1.09244E-05-4.93185E-18-1.45944E-18
 -1      2180 1.75940E-04-2.29682E-05-6.44819E-05-3.69103E-06-4.77091E-18 8.83032E-19
 -1      2181 1.71845E-04-1.96776E-05-6.47254E-05 1.50320E-06-5.00469E-18-2.11229E-19
 -1      2182 1.71176E-04-3.01012E-05-5.96072E-05-1.65500E-05-4.27243E-18 2.13961E-18
 -1      2183 1.80315E-04-2.91414E-05-6.36636E-05-8.86843E-06-4.20742E-18 1.32539E-18
 -1      2184 1.47837E-04-3.81119E-05-4.70024E-05-2.17658E-05-2.93026E-18 2.27090E-18
 -1      2185 1.65924E-04-3.63644E-05-5.42585E-05-2.07023E-05-3.69359E-18 1.77792E-18
 -1      2186 1.14292E-04-4.37721E-05-3.07637E-05-3.45763E-05-1.80333E-18 3.35679E-18
 -1      2187 1.35674E-04-4.34584E-05-3.91516E-05-3.34729E-05-1.78936E-18 2.96885E-18
 -1      2188 7.57261E-05-4.33186E-05-1.51179E-05-3.71870E-05-1.18161E-18 4.18985E-18
 -1      2189 9.56013E-05-4.12864E-05-2.33378E-05-4.23672E-05-1.80333E-18 4.10853E-18
 -1      2190 4.27348E-05-4.15053E-05-2.00336E-06-3.14527E-05-2.55380E-19 2.96483E-18
 -1      2191 5.76668E-05-3.92486E-05-8.45911E-06-3.90566E-05-1.19940E-18 3.92200E-18
 -1      2192 1.88316E-05-3.56512E-05 5.86051E-06-1.74359E-05-3.55754E-20 1.89142E-18
 -1      2193 2.74305E-05-3.62540E-05 2.60231E-06-2.60068E-05-6.92873E-19 1.81011E-18
 -1      2194 1.61454E-04-3.65994E-05-5.24737E-05 2.44894E-05 4.11454E-18 1.63986E-18
 -1      2195 1.43900E-04-3.74354E-05-4.55822E-05 2.73531E-05 3.74018E-18 2.41023E-18
 -1      2196 1.18514E-04-5.35911E-05-2.78055E-05 3.28011E-05 1.25784E-19 1.56532E-18
 -1      2197 9.96015E-05-2.50419E-05-3.20174E-05-7.96399E-06-2.14429E-18 7.03580E-19
 -1      2198 1.43603E-04-4.69927E-05-4.07914E-05 1.96823E-05 2.12012E-18 5.98429E-19
 -1      2199 1.57097E-04-3.36231E-05-5.19183E-05 4.87912E-06 3.57850E-18-1.55176E-18
 -1      2200 9.86466E-05-2.36999E-05-3.21918E-05-7.83394E-06-2.23753E-18-3.86975E-19
 -1      2201 4.34873E-05-3.51670E-05-3.81170E-06 3.58777E-05-1.68687E-18 4.37810E-18
 -1      2202 1.85708E-05-2.50990E-05 2.37896E-06 1.43923E-05-1.38151E-18 3.01925E-18
 -1      2203 9.52384E-05-2.85846E-05-2.85660E-05 2.38325E-08-1.26421E-19 2.12268E-18
 -1      2204 8.30461E-05-4.90499E-05-1.47197E-05 4.18128E-05-8.31786E-19 3.42323E-18
 -1      2205 1.83994E-05-2.66634E-05 2.91366E-06-1.46020E-05 3.14779E-19 2.16375E-18
 -1      2206 4.29640E-05-3.66885E-05-3.23140E-06-3.57040E-05 6.59839E-19 2.50044E-18
 -1      2207 7.93220E-05-4.80714E-05-1.36914E-05-4.13042E-05 3.93870E-19 3.52829E-18
 -1      2208 1.17244E-04-5.33126E-05-2.71527E-05-3.36799E-05 1.22396E-19 2.01340E-18
 -1      2209 1.45979E-04-4.78615E-05-4.15170E-05-1.53825E-05-1.03317E-18 9.24536E-19
 -1      2210 1.59006E-04-3.18252E-05-5.35920E-05-2.71833E-06-2.95657E-18-6.50521E-19
 -1      2211 1.58658E-04-1.75328E-05-5.95624E-05 1.19398E-06-4.50452E-18-2.81638E-19
 -1      2212 1.59792E-04-2.60028E-05-5.62295E-05 1.19515E-06-4.53777E-18 2.46063E-19
 -1      2213 1.30373E-04-5.11682E-05-3.37664E-05 2.80893E-05-4.09202E-18-6.31887E-19
 -1      2214 1.26860E-04-5.70728E-05-2.94240E-05 2.77483E-05-2.15612E-18 4.08058E-19
 -1      2215 1.40789E-04-5.44007E-05-3.76070E-05 1.59093E-05-3.04704E-18 1.44292E-18
 -1      2216 5.57234E-05-4.08399E-05-6.68624E-06 3.94936E-05-1.49671E-18-4.14676E-18
 -1      2217 2.43869E-05-2.78746E-05 1.05001E-06 2.25706E-05-6.83979E-19-6.44719E-18
 -1      2218 1.48145E-05-2.49126E-05 3.69718E-06-3.59962E-06-6.04040E-19-6.41882E-18
 -1      2219 3.04463E-05-3.36930E-05 7.29959E-07-2.78323E-05-1.37219E-19-5.58661E-18
 -1      2220 4.25566E-05-3.29186E-05-4.42584E-06-3.63340E-05-8.12728E-19-5.17601E-18
 -1      2221 2.77696E-05-2.53896E-05-7.66722E-07-2.59334E-05-5.45489E-19-5.76194E-18
 -1      2222 6.57889E-05-4.48693E-05-9.54325E-06-4.18705E-05 3.27802E-19-5.08807E-18
 -1      2223 1.04874E-04-5.27576E-05-2.22945E-05-3.87720E-05 9.22419E-19-4.13754E-18
 -1      2224 1.36157E-04-5.17155E-05-3.57201E-05-2.40667E-05 1.98142E-18-1.40480E-18
 -1      2225 1.61147E-04-2.38026E-05-5.81821E-05-2.02893E-06 4.98564E-18-4.81750E-19
 -1      2226 1.46082E-04-1.62228E-05-5.60857E-05 6.19087E-06 4.88230E-18 1.39125E-19
 -1      2227 1.49130E-04-2.48997E-05-5.31247E-05 4.03801E-06 4.28408E-18 8.66938E-19
 -1      2228 1.59560E-04-1.88296E-05-5.92480E-05-1.04728E-06 4.86493E-18-1.52911E-18
 -1      2229 1.53368E-04-3.93994E-05-4.80726E-05-9.90192E-06 3.62027E-18-2.27005E-19
 -1      2230 1.56409E-04-1.44936E-05-6.01914E-05-2.17417E-07-5.14488E-18-9.11619E-20
 -1      2231 9.83678E-05-2.70540E-05-3.05381E-05 1.42846E-06 1.85692E-18 2.02841E-18
 -1      2232 9.88761E-05-2.64621E-05-3.09611E-05 3.40442E-06 2.08312E-18 2.35444E-18
 -1      2233 8.53072E-05-8.71460E-06-3.28652E-05-2.12722E-06 5.15954E-21-3.13171E-18
 -1      2234 8.59322E-05-9.18982E-06-3.29176E-05-2.91461E-06-2.96844E-19-3.26015E-18
 -1      2235 8.67815E-05-1.00032E-05-3.29538E-05-3.56541E-06-5.13013E-19-3.23302E-18
 -1      2236 8.77167E-05-1.07565E-05-3.30183E-05-4.47940E-06-8.79399E-19-3.17879E-18
 -1      2237 8.73947E-05-1.13416E-05-3.25867E-05-2.64846E-06-4.01152E-19-2.99993E-18
 -1      2238 8.43538E-05-7.89181E-06-3.27977E-05 3.42981E-07 9.79516E-19-2.98049E-18
 -1      2239 8.43362E-05-7.87732E-06-3.27971E-05-3.39482E-07 7.08951E-19-3.04994E-18
 -1      2240 8.48882E-05-8.32768E-06-3.28380E-05 1.58317E-06 1.41179E-18-2.83670E-18
 -1      2241 8.45496E-05-8.07471E-06-3.28086E-05 8.66371E-07 1.15623E-18-2.92382E-18
 -1      2242 8.53381E-05-9.51368E-06-3.24905E-05 4.75321E-07 1.03749E-18-2.77250E-18
 -1      2243 8.60519E-05-9.31083E-06-3.29171E-05 2.94447E-06 1.83462E-18-2.42878E-18
 -1      2244 8.54171E-05-8.82412E-06-3.28659E-05 2.15414E-06 1.57641E-18-2.70797E-18
 -1      2245 8.60965E-05-1.01872E-05-3.25268E-05 1.50351E-06 1.41574E-18-2.58109E-18
 -1      2246 8.78628E-05-1.09131E-05-3.30141E-05 4.54497E-06 2.34554E-18-1.87959E-18
 -1      2247 8.69162E-05-1.01443E-05-3.29513E-05 3.61718E-06 2.04334E-18-2.16982E-18
 -1      2248 8.75391E-05-1.14970E-05-3.25831E-05 2.67183E-06 1.87117E-18-2.11076E-18
 -1      2249 9.03144E-05-1.32396E-05-3.30862E-05 6.35732E-06 2.70661E-18-1.26484E-18
 -1      2250 8.90517E-05-1.21130E-05-3.30332E-05 5.30576E-06 2.44260E-18-1.61765E-18
 -1      2251 8.96461E-05-1.34953E-05-3.26262E-05 4.00940E-06 2.29143E-18-1.54121E-18
 -1      2252 9.34729E-05-1.65304E-05-3.30660E-05 8.18605E-06 2.95131E-18-1.88624E-19
 -1      2253 9.18422E-05-1.48806E-05-3.30509E-05 7.11226E-06 2.75939E-18-8.43420E-19
 -1      2254 9.23600E-05-1.62600E-05-3.25933E-05 5.39133E-06 2.58259E-18-8.81801E-19
 -1      2255 9.82750E-05-2.79552E-05-3.01078E-05-1.48485E-06 1.42405E-18 1.49520E-18
 -1      2256 9.83055E-05-2.76027E-05-3.02293E-05-2.79403E-07 1.64880E-18 1.84335E-18
 -1      2257 9.80536E-05-2.62395E-05-3.07935E-05 9.74738E-07 1.99822E-18 1.09213E-18
 -1      2258 9.83138E-05-2.54169E-05-3.11909E-05-3.06499E-06-1.77869E-18-7.68322E-19
 -1      2259 9.80547E-05-2.62089E-05-3.07927E-05-9.16187E-07-1.62221E-18-8.33675E-19
 -1      2260 1.45323E-04-4.83303E-05-4.19710E-05 8.03694E-06 9.94238E-19-2.15210E-18
 -1      2261 1.36995E-04-5.32856E-05-3.60627E-05 1.58782E-05 2.13135E-19-8.97220E-19
 -1      2262 9.81652E-05-2.68754E-05-3.04968E-05 7.70493E-07-1.44007E-18-6.93400E-19
 -1      2263 9.82060E-05-2.73354E-05-3.03585E-05 2.15435E-06-1.21112E-18-7.44931E-19
 -1      2264 9.75134E-05-2.53023E-05-3.09583E-05-3.41065E-07-1.55842E-18-1.16330E-18
 -1      2265 9.83253E-05-2.77085E-05-3.02263E-05 3.41275E-06-1.04321E-18-5.26526E-19
 -1      2266 9.86906E-05-2.80865E-05-3.02431E-05 4.38008E-06-7.85223E-19-6.23776E-19
 -1      2267 9.77562E-05-2.66424E-05-3.04961E-05 2.82892E-06-1.12979E-18-9.48968E-19
 -1      2268 9.89603E-05-2.83936E-05-3.02186E-05 5.32640E-06-5.80427E-19-6.38902E-19
 -1      2269 9.96089E-05-2.88048E-05-3.03318E-05 6.01281E-06-4.41535E-19-6.32139E-19
 -1      2270 9.81830E-05-2.75311E-05-3.02988E-05 5.20169E-06-7.43613E-19-8.47260E-19
 -1      2271 1.00079E-04-2.91654E-05-3.03741E-05 6.70373E-06-3.88819E-19-6.48310E-19
 -1      2272 1.00964E-04-2.96827E-05-3.05431E-05 7.13278E-06-3.54282E-19-6.68930E-19
 -1      2273 9.89548E-05-2.83688E-05-3.02704E-05 6.96997E-06-4.71809E-19-7.24357E-19
 -1      2274 1.01679E-04-3.01909E-05-3.06213E-05 7.55089E-06-4.02126E-19-5.52389E-19
 -1      2275 1.02759E-04-3.08753E-05-3.08127E-05 7.66353E-06-1.12220E-19-4.05469E-19
 -1      2276 1.00164E-04-2.94190E-05-3.03402E-05 8.18682E-06-3.84019E-19-5.38160E-19
 -1      2277 1.03780E-04-3.16204E-05-3.09053E-05 7.71515E-06-3.35240E-20-5.72128E-19
 -1      2278 1.05006E-04-3.25157E-05-3.10902E-05 7.38524E-06-4.28711E-20-5.83186E-19
 -1      2279 1.01919E-04-3.09107E-05-3.04580E-05 8.75325E-06-2.22158E-19-6.73429E-19
 -1      2280 1.06404E-04-3.35626E-05-3.11898E-05 6.90122E-06-6.31420E-20-5.16279E-19
 -1      2281 1.07691E-04-3.46511E-05-3.13484E-05 5.96416E-06-1.49501E-19-3.86063E-19
 -1      2282 1.04357E-04-3.30360E-05-3.05996E-05 8.41725E-06-1.94718E-20-5.14609E-19
 -1      2283 1.09485E-04-3.59686E-05-3.14728E-05 4.72149E-06-4.28562E-20-3.05736E-19
 -1      2284 1.10662E-04-3.70794E-05-3.16040E-05 3.04768E-06 1.73860E-19-1.74998E-19
 -1      2285 1.07578E-04-3.58424E-05-3.07848E-05 6.78867E-06-9.10809E-21-3.54418E-19
 -1      2286 1.12691E-04-3.84031E-05-3.18083E-05 8.67088E-07 2.39348E-19 1.67827E-19
 -1      2287 1.13446E-04-3.90980E-05-3.19416E-05-1.48137E-06 3.13449E-19 3.70468E-19
 -1      2288 1.11464E-04-3.89761E-05-3.11051E-05 3.43139E-06 3.38792E-19 1.41356E-19
 -1      2289 1.15195E-04-3.97954E-05-3.23168E-05-4.47603E-06 1.26597E-19 4.57627E-19
 -1      2290 1.15109E-04-3.93758E-05-3.25077E-05-7.00807E-06-2.25026E-20 6.78273E-19
 -1      2291 1.15347E-04-4.13320E-05-3.17367E-05-1.81035E-06 2.32570E-19 7.24843E-19
 -1      2292 1.15736E-04-3.85670E-05-3.31350E-05-9.99336E-06-2.85814E-19 3.87706E-19
 -1      2293 1.14536E-04-3.64618E-05-3.34381E-05-1.16290E-05-8.49931E-19 4.60339E-19
 -1      2294 1.17838E-04-4.10525E-05-3.28856E-05-8.13565E-06-3.55669E-19 9.42643E-19
 -1      2295 1.13368E-04-3.36878E-05-3.42979E-05-1.28458E-05-1.43432E-18 4.27986E-19
 -1      2296 1.11439E-04-3.03749E-05-3.46710E-05-1.22074E-05-1.34271E-18 2.00574E-19
 -1      2297 1.17282E-04-3.63436E-05-3.46438E-05-1.30232E-05-1.32304E-18 4.10196E-19
 -1      2298 1.09262E-04-2.68901E-05-3.54675E-05-9.97029E-06-1.29579E-18-6.16812E-19
 -1      2299 1.07771E-04-2.43085E-05-3.57385E-05-6.60498E-06-1.67138E-18-1.02074E-18
 -1      2300 1.13705E-04-2.83483E-05-3.66380E-05-1.24446E-05-1.84521E-18-4.37757E-19
 -1      2301 1.06751E-04-2.27966E-05-3.60520E-05-1.37639E-06-2.01207E-18-1.37279E-18
 -1      2302 1.06899E-04-2.29853E-05-3.60479E-05 3.16594E-06-2.02806E-18-1.44788E-18
 -1      2303 1.10193E-04-2.19349E-05-3.79802E-05-4.59826E-06-2.13378E-18-1.59458E-18
 -1      2304 1.08205E-04-2.48455E-05-3.56826E-05 8.18340E-06-1.62416E-18-1.86617E-18
 -1      2305 1.09905E-04-2.76529E-05-3.54169E-05 1.12950E-05-1.01813E-18-2.13244E-18
 -1      2306 1.10501E-04-2.23620E-05-3.79135E-05 6.51463E-06-1.91294E-18-1.19786E-18
 -1      2307 1.12110E-04-3.11900E-05-3.46128E-05 1.31170E-05-7.82248E-19-2.08657E-18
 -1      2308 1.14101E-04-3.44623E-05-3.42709E-05 1.34672E-05-3.22822E-19-2.17119E-18
 -1      2309 1.14332E-04-2.92683E-05-3.64849E-05 1.36375E-05-9.39360E-19-2.02584E-18
 -1      2310 1.15110E-04-3.70339E-05-3.34539E-05 1.19602E-05 1.38777E-19-2.36671E-18
 -1      2311 1.16274E-04-3.89556E-05-3.31946E-05 1.01885E-05 4.47376E-19-2.40366E-18
 -1      2312 1.17766E-04-3.71013E-05-3.45240E-05 1.34439E-05-1.09558E-19-1.99178E-18
 -1      2313 1.15535E-04-3.95649E-05-3.26160E-05 7.16440E-06 7.95324E-19-2.49181E-18
 -1      2314 1.15600E-04-3.98416E-05-3.24641E-05 4.64656E-06 1.19391E-18-2.65310E-18
 -1      2315 1.18018E-04-4.12678E-05-3.28675E-05 8.28279E-06 4.11858E-19-2.23225E-18
 -1      2316 1.13826E-04-3.90334E-05-3.21330E-05 1.76176E-06 1.15092E-18-2.58426E-18
 -1      2317 1.13105E-04-3.82880E-05-3.20328E-05-4.81794E-07 1.28058E-18-2.41851E-18
 -1      2318 1.15375E-04-4.11740E-05-3.18170E-05 2.06013E-06 1.19273E-18-2.24936E-18
 -1      2319 1.11132E-04-3.69548E-05-3.18575E-05-2.50847E-06 1.30104E-18-2.22658E-18
 -1      2320 1.10037E-04-3.58702E-05-3.17522E-05-4.05836E-06 9.86261E-19-1.84853E-18
 -1      2321 1.11520E-04-3.86620E-05-3.12625E-05-2.89500E-06 1.37552E-18-1.59041E-18
 -1      2322 1.08326E-04-3.45993E-05-3.16410E-05-5.17559E-06 6.06471E-19-2.07333E-18
 -1      2323 1.07144E-04-3.35790E-05-3.15020E-05-6.01506E-06 7.53760E-19-2.07374E-18
 -1      2324 1.07780E-04-3.55754E-05-3.09824E-05-5.96957E-06 8.77998E-19-1.75863E-18
 -1      2325 1.05816E-04-3.26007E-05-3.14002E-05-6.43227E-06 5.69353E-19-2.11360E-18
 -1      2326 1.04693E-04-3.17934E-05-3.12260E-05-6.71825E-06 6.82048E-19-1.63410E-18
 -1      2327 1.04719E-04-3.29165E-05-3.08014E-05-7.41573E-06 7.46877E-19-1.79167E-18
 -1      2328 1.03708E-04-3.11261E-05-3.11123E-05-6.67842E-06 5.86198E-19-2.21679E-18
 -1      2329 1.02701E-04-3.05417E-05-3.09160E-05-6.59971E-06 5.30061E-19-1.90024E-18
 -1      2330 1.02400E-04-3.09838E-05-3.06265E-05-7.71572E-06 3.95973E-19-1.86183E-18
 -1      2331 1.01974E-04-3.01220E-05-3.07892E-05-6.29934E-06 4.19589E-19-2.50178E-18
 -1      2332 1.01101E-04-2.97187E-05-3.05874E-05-6.01491E-06 4.86191E-19-2.23829E-18
 -1      2333 1.00686E-04-2.97219E-05-3.04259E-05-7.31077E-06 1.56007E-19-2.43043E-18
 -1      2334 1.00555E-04-2.94710E-05-3.04543E-05-5.59132E-06-5.05780E-21-2.71337E-18
 -1      2335 9.98140E-05-2.91997E-05-3.02608E-05-5.21465E-06-4.63561E-19-2.89321E-18
 -1      2336 9.94131E-05-2.89634E-05-3.02013E-05-6.53016E-06 6.48613E-21-2.94267E-18
 -1      2337 9.93950E-05-2.90619E-05-3.01299E-05-4.75555E-06-1.17371E-19-2.58533E-18
 -1      2338 9.87775E-05-2.88819E-05-2.99541E-05-4.35895E-06 3.99327E-19-2.02611E-18
 -1      2339 9.84496E-05-2.85428E-05-2.99663E-05-5.59573E-06-5.15449E-20-3.36119E-18
 -1      2340 9.84497E-05-2.88108E-05-2.98319E-05-3.91583E-06-1.31089E-19-2.12072E-18
 -1      2341 9.79440E-05-2.86925E-05-2.96786E-05-3.54076E-06-1.06932E-18-1.31811E-18
 -1      2342 9.77055E-05-2.83333E-05-2.97361E-05-4.64556E-06 2.59972E-19-2.44119E-18
 -1      2343 9.76848E-05-2.86601E-05-2.95694E-05-3.14072E-06-9.28080E-19-1.75348E-18
 -1      2344 9.72777E-05-2.85832E-05-2.94401E-05-2.80779E-06 1.09280E-19-7.38717E-19
 -1      2345 9.71225E-05-2.82481E-05-2.95220E-05-3.75836E-06-5.48387E-19-1.30588E-18
 -1      2346 9.70723E-05-2.85726E-05-2.93459E-05-2.46234E-06-5.48404E-20-8.71637E-19
 -1      2347 9.67502E-05-2.85235E-05-2.92397E-05-2.17915E-06-5.03128E-19-1.27022E-18
 -1      2348 9.66627E-05-2.82323E-05-2.93313E-05-2.97328E-06-4.27028E-19-1.42837E-18
 -1      2349 9.65882E-05-2.85245E-05-2.91606E-05-1.89042E-06-1.06052E-18-1.37594E-18
 -1      2350 9.63376E-05-2.84941E-05-2.90755E-05-1.65701E-06-1.98317E-19-1.99787E-18
 -1      2351 9.63005E-05-2.82525E-05-2.91670E-05-2.30437E-06-6.66184E-19-1.06530E-18
 -1      2352 9.62111E-05-2.85008E-05-2.90108E-05-1.42185E-06 3.95696E-19-2.43722E-18
 -1      2353 9.60196E-05-2.84830E-05-2.89440E-05-1.23422E-06-5.33531E-19-2.56805E-18
 -1      2354 9.60171E-05-2.82891E-05-2.90294E-05-1.75076E-06-5.92551E-19-1.66862E-18
 -1      2355 9.59220E-05-2.84922E-05-2.88922E-05-1.04681E-06-1.12608E-18-1.87273E-18
 -1      2356 9.57785E-05-2.84827E-05-2.88408E-05-8.99178E-07-1.17626E-18-2.32442E-18
 -1      2357 9.57977E-05-2.83312E-05-2.89169E-05-1.30332E-06-6.83541E-19-2.36941E-18
 -1      2358 9.57044E-05-2.84924E-05-2.88001E-05-7.52712E-07-9.70578E-19-1.88783E-18
 -1      2359 9.55991E-05-2.84886E-05-2.87614E-05-6.38776E-07-8.83455E-19-9.43984E-19
 -1      2360 9.56303E-05-2.83727E-05-2.88269E-05-9.49057E-07-7.91466E-19-1.06077E-18
 -1      2361 9.55438E-05-2.84979E-05-2.87301E-05-5.26396E-07-8.96462E-19-6.52379E-19
 -1      2362 9.54683E-05-2.84975E-05-2.87015E-05-4.40089E-07-7.83848E-19-1.05570E-18
 -1      2363 9.55047E-05-2.84108E-05-2.87564E-05-6.73827E-07-5.98289E-19 8.31704E-20
 -1      2364 9.54280E-05-2.85059E-05-2.86779E-05-3.55421E-07-7.81121E-19-1.43701E-18
 -1      2365 9.53754E-05-2.85078E-05-2.86573E-05-2.91261E-07-2.28459E-19-1.91557E-18
 -1      2366 9.54123E-05-2.84441E-05-2.87022E-05-4.63853E-07-7.16369E-19-1.00581E-18
 -1      2367 9.53467E-05-2.85151E-05-2.86399E-05-2.28662E-07 4.75477E-19-1.93275E-18
 -1      2368 9.53114E-05-2.85181E-05-2.86255E-05-1.81905E-07 2.83909E-20-1.40903E-18
 -1      2369 9.53459E-05-2.84723E-05-2.86613E-05-3.06571E-07-1.67667E-19-1.40683E-19
 -1      2370 9.52916E-05-2.85244E-05-2.86129E-05-1.36555E-07-3.81608E-19-1.44148E-18
 -1      2371 9.52692E-05-2.85280E-05-2.86032E-05-1.03231E-07-2.63971E-19-1.39906E-18
 -1      2372 9.52995E-05-2.84956E-05-2.86311E-05-1.91001E-07-2.54935E-20-4.59023E-19
 -1      2373 9.52561E-05-2.85332E-05-2.85944E-05-7.11395E-08-5.94081E-20-6.82070E-19
 -1      2374 9.52430E-05-2.85370E-05-2.85881E-05-4.80196E-08 8.76817E-19-5.50225E-19
 -1      2375 9.52683E-05-2.85147E-05-2.86094E-05-1.07872E-07 3.12478E-19 5.65135E-19
 -1      2376 9.52349E-05-2.85414E-05-2.85821E-05-2.59691E-08 1.81067E-18-1.84964E-19
 -1      2377 9.52283E-05-2.85451E-05-2.85784E-05-1.05035E-08 2.69416E-18 6.47204E-19
 -1      2378 9.52484E-05-2.85300E-05-2.85941E-05-4.95767E-08 1.75802E-18 1.64861E-18
 -1      2379 9.52238E-05-2.85488E-05-2.85745E-05 4.01943E-09 2.38355E-18 5.66412E-19
 -1      2380 9.52217E-05-2.85524E-05-2.85725E-05 1.37739E-08 2.50995E-18 3.00953E-19
 -1      2381 9.52367E-05-2.85423E-05-2.85837E-05-1.00530E-08 2.43320E-18 2.32782E-18
 -1      2382 9.52197E-05-2.85556E-05-2.85700E-05 2.26635E-08 2.04948E-18-4.63927E-19
 -1      2383 9.52206E-05-2.85591E-05-2.85692E-05 2.81151E-08 1.55803E-18 6.70101E-20
 -1      2384 9.52309E-05-2.85523E-05-2.85768E-05 1.53757E-08 1.61438E-18 1.56793E-18
 -1      2385 9.52203E-05-2.85619E-05-2.85677E-05 3.27148E-08 1.12315E-18-4.91669E-19
 -1      2386 9.52229E-05-2.85654E-05-2.85675E-05 3.47896E-08-1.40537E-19-6.67109E-19
 -1      2387 9.52292E-05-2.85608E-05-2.85724E-05 3.01711E-08 9.76007E-19-3.19332E-19
 -1      2388 9.52239E-05-2.85683E-05-2.85666E-05 3.60164E-08-6.18927E-19 3.54706E-19
 -1      2389 9.52274E-05-2.85717E-05-2.85667E-05 3.52013E-08 4.01946E-20 1.80283E-18
 -1      2390 9.52303E-05-2.85684E-05-2.85695E-05 3.67318E-08 4.43284E-19-1.02963E-18
 -1      2391 9.97701E-05-2.92425E-05-3.02110E-05-4.81028E-06 5.13504E-19 6.53343E-19
 -1      2392 9.90577E-05-2.88641E-05-3.00555E-05-4.27284E-06 6.04384E-19 8.30228E-19
 -1      2393 1.01240E-04-3.00295E-05-3.05130E-05-5.66107E-06 5.80096E-19 5.92146E-19
 -1      2394 1.00302E-04-2.95666E-05-3.02978E-05-5.35629E-06 4.85177E-19 6.60962E-19
 -1      2395 9.94953E-05-2.89797E-05-3.02407E-05-5.78699E-06 6.11996E-19 1.93167E-19
 -1      2396 1.03062E-04-3.10284E-05-3.08791E-05-5.95548E-06 5.45011E-19 7.82704E-19
 -1      2397 1.01987E-04-3.04605E-05-3.06418E-05-5.92761E-06 6.51142E-19 7.04386E-19
 -1      2398 1.00815E-04-2.99075E-05-3.04074E-05-6.70714E-06 5.33853E-19 1.02340E-19
 -1      2399 1.05130E-04-3.22825E-05-3.12452E-05-5.52242E-06 2.72541E-19 9.25498E-19
 -1      2400 1.04018E-04-3.16089E-05-3.10223E-05-5.86759E-06 3.00151E-19 9.18705E-19
 -1      2401 1.02565E-04-3.11361E-05-3.06306E-05-6.96205E-06 3.55794E-19 2.25101E-19
 -1      2402 1.07289E-04-3.37627E-05-3.15564E-05-4.11788E-06 1.08963E-19 1.22547E-18
 -1      2403 1.06279E-04-3.30299E-05-3.13832E-05-4.95222E-06 3.90715E-19 1.13770E-18
 -1      2404 1.04733E-04-3.27502E-05-3.08684E-05-6.34460E-06 1.88946E-19 5.92163E-19
 -1      2405 1.09284E-04-3.52763E-05-3.17797E-05-1.53159E-06-1.29358E-19 1.10205E-18
 -1      2406 1.08570E-04-3.46251E-05-3.16831E-05-2.92386E-06-6.83185E-20 1.20404E-18
 -1      2407 1.07250E-04-3.47104E-05-3.11050E-05-4.57193E-06 2.31975E-20 7.79411E-19
 -1      2408 1.10690E-04-3.63540E-05-3.19229E-05 2.19769E-06 4.41437E-19 7.06240E-19
 -1      2409 1.10516E-04-3.60618E-05-3.19095E-05 3.45064E-07 6.80935E-20 8.53067E-19
 -1      2410 1.09872E-04-3.67059E-05-3.13644E-05-1.41389E-06 1.71296E-19 3.89164E-19
 -1      2411 1.10920E-04-3.62385E-05-3.20439E-05 6.45219E-06 3.30085E-19 8.83270E-19
 -1      2412 1.11519E-04-3.66801E-05-3.20921E-05 4.54851E-06 2.45216E-19 6.46250E-19
 -1      2413 1.12038E-04-3.79955E-05-3.17189E-05 3.02714E-06 1.75086E-19 1.98656E-19
 -1      2414 1.09500E-04-3.42342E-05-3.22342E-05 9.78665E-06 5.90868E-19 1.46232E-18
 -1      2415 1.10901E-04-3.56453E-05-3.22925E-05 8.59843E-06 4.85734E-19 1.40229E-18
 -1      2416 1.12883E-04-3.75194E-05-3.22598E-05 7.88426E-06 2.28444E-19 1.05957E-18
 -1      2417 1.06534E-04-3.04094E-05-3.25561E-05 1.01798E-05 3.73886E-19 1.50105E-18
 -1      2418 1.08366E-04-3.25082E-05-3.25803E-05 1.05989E-05 7.15033E-19 1.57655E-18
 -1      2419 1.11635E-04-3.43757E-05-3.30562E-05 1.13172E-05 5.53199E-19 1.25776E-18
 -1      2420 1.03424E-04-2.64915E-05-3.29013E-05 6.28086E-06 6.52229E-19 8.60685E-19
 -1      2421 1.04844E-04-2.82316E-05-3.28962E-05 8.60392E-06 3.03026E-19 1.34427E-18
 -1      2422 1.08533E-04-2.92563E-05-3.39776E-05 1.07682E-05 6.91503E-19 1.12852E-18
 -1      2423 1.02267E-04-2.50126E-05-3.30932E-05-8.27995E-07 1.30438E-18 4.90700E-19
 -1      2424 1.02446E-04-2.52671E-05-3.30779E-05 2.54194E-06 1.05657E-18 6.52503E-19
 -1      2425 1.05563E-04-2.48382E-05-3.46633E-05 5.14881E-06 1.10354E-18 6.53200E-19
 -1      2426 1.04093E-04-2.71296E-05-3.30371E-05-7.70402E-06 8.96763E-19 4.81763E-19
 -1      2427 1.02886E-04-2.57073E-05-3.30157E-05-4.92423E-06 1.33228E-18 4.70715E-19
 -1      2428 1.05139E-04-2.41499E-05-3.47859E-05-3.36093E-06 1.41302E-18 7.35530E-19
 -1      2429 1.07700E-04-3.13300E-05-3.28061E-05-1.10531E-05-3.75844E-19 4.49874E-19
 -1      2430 1.05795E-04-2.91983E-05-3.27566E-05-1.00407E-05 3.33268E-19 4.84966E-19
 -1      2431 1.07694E-04-2.77408E-05-3.42910E-05-1.02437E-05 5.31473E-19 6.92454E-19
 -1      2432 1.10877E-04-3.50177E-05-3.25631E-05-1.01682E-05-1.10478E-18 3.78670E-19
 -1      2433 1.09164E-04-3.33206E-05-3.24776E-05-1.09101E-05-7.75467E-19 4.49202E-19
 -1      2434 1.11144E-04-3.30155E-05-3.34549E-05-1.23712E-05-5.12031E-19 7.92864E-19
 -1      2435 1.12281E-04-3.67300E-05-3.23954E-05-6.58770E-06-8.19342E-19-4.42492E-20
 -1      2436 1.11294E-04-3.59852E-05-3.23041E-05-8.29393E-06-1.10371E-18 4.99551E-20
 -1      2437 1.13185E-04-3.69079E-05-3.26463E-05-9.94433E-06-7.13250E-19-3.30475E-20
 -1      2438 1.11901E-04-3.65784E-05-3.22773E-05-2.35495E-06 6.00311E-19 2.56875E-19
 -1      2439 1.11717E-04-3.66534E-05-3.22304E-05-4.19649E-06 2.31809E-20 6.77693E-20
 -1      2440 1.13061E-04-3.81839E-05-3.20686E-05-5.35297E-06-1.67069E-19 1.37733E-19
 -1      2441 1.10375E-04-3.53702E-05-3.21343E-05 1.17345E-06 8.22740E-19 8.75557E-19
 -1      2442 1.10802E-04-3.58965E-05-3.21660E-05-2.99982E-07 9.66243E-19 4.20869E-19
 -1      2443 1.11328E-04-3.73398E-05-3.17128E-05-7.35753E-07 4.28192E-19-1.53764E-19
 -1      2444 1.08355E-04-3.38582E-05-3.19171E-05 3.51027E-06 6.59329E-20 4.00508E-19
 -1      2445 1.09146E-04-3.45219E-05-3.20314E-05 2.56415E-06 5.82289E-19 8.16414E-19
 -1      2446 1.08910E-04-3.55024E-05-3.14756E-05 2.75601E-06 6.65617E-19 5.00854E-19
 -1      2447 1.06259E-04-3.24654E-05-3.16180E-05 4.71810E-06-3.13983E-19-7.63736E-20
 -1      2448 1.07213E-04-3.30926E-05-3.17967E-05 4.25268E-06-3.14837E-19 3.29234E-19
 -1      2449 1.06462E-04-3.35522E-05-3.12640E-05 4.87836E-06 1.65384E-19 1.88137E-19
 -1      2450 1.04294E-04-3.13449E-05-3.12585E-05 5.07463E-06 6.37621E-19-9.56344E-19
 -1      2451 1.05277E-04-3.18686E-05-3.14748E-05 4.96446E-06 4.48787E-20-8.92658E-19
 -1      2452 1.04284E-04-3.19153E-05-3.10290E-05 5.83748E-06 5.08121E-19-9.40491E-19
 -1      2453 1.02547E-04-3.05049E-05-3.08711E-05 4.88103E-06 1.31351E-18-3.58277E-20
 -1      2454 1.03477E-04-3.09158E-05-3.10994E-05 4.99567E-06 7.50185E-19-5.58646E-19
 -1      2455 1.02449E-04-3.06997E-05-3.07607E-05 5.96986E-06 5.96460E-19-5.14273E-19
 -1      2456 1.01040E-04-2.98981E-05-3.04863E-05 4.38289E-06-6.21399E-20 8.14991E-19
 -1      2457 1.01874E-04-3.02100E-05-3.07072E-05 4.61799E-06 1.27554E-18 5.14821E-19
 -1      2458 1.00940E-04-2.98620E-05-3.04704E-05 5.59134E-06 7.00733E-19-3.02673E-19
 -1      2459 9.97699E-05-2.94678E-05-3.01266E-05 3.75310E-06-7.69262E-19 7.67969E-19
 -1      2460 1.00489E-04-2.97003E-05-3.03278E-05 4.03631E-06-7.72188E-19 1.01866E-18
 -1      2461 9.97075E-05-2.93121E-05-3.01763E-05 4.94454E-06-3.17135E-19 6.16532E-19
 -1      2462 9.87187E-05-2.91654E-05-2.98060E-05 3.10125E-06 9.63169E-19 1.26920E-18
 -1      2463 9.93196E-05-2.93366E-05-2.99811E-05 3.38757E-06 1.90598E-19 1.12105E-18
 -1      2464 9.87055E-05-2.89636E-05-2.98953E-05 4.19537E-06-4.78078E-19 9.13062E-20
 -1      2465 9.78641E-05-2.89541E-05-2.95305E-05 2.48996E-06 1.44157E-18 8.43765E-19
 -1      2466 9.83538E-05-2.90788E-05-2.96776E-05 2.75441E-06 1.70535E-18 1.65639E-18
 -1      2467 9.78951E-05-2.87492E-05-2.96391E-05 3.44716E-06 7.03003E-19 4.47011E-19
 -1      2468 9.71815E-05-2.88076E-05-2.93010E-05 1.95017E-06 5.03475E-19 9.64372E-19
 -1      2469 9.75715E-05-2.88974E-05-2.94211E-05 2.18103E-06 7.46574E-19 1.31371E-18
 -1      2470 9.72448E-05-2.86217E-05-2.94146E-05 2.75786E-06 1.01221E-18 1.87966E-18
 -1      2471 9.66456E-05-2.87072E-05-2.91145E-05 1.49293E-06-1.34511E-18 1.35284E-18
 -1      2472 9.69497E-05-2.87708E-05-2.92102E-05 1.68664E-06-1.57140E-20 1.16243E-18
 -1      2473 9.67286E-05-2.85493E-05-2.92238E-05 2.15506E-06-3.00311E-19 2.22866E-18
 -1      2474 9.62323E-05-2.86397E-05-2.89666E-05 1.11758E-06 1.53580E-19 6.41889E-19
 -1      2475 9.64646E-05-2.86838E-05-2.90411E-05 1.27529E-06-8.74061E-19 8.30912E-19
 -1      2476 9.63240E-05-2.85114E-05-2.90661E-05 1.64725E-06-3.09067E-19 1.67608E-18
 -1      2477 9.59195E-05-2.85955E-05-2.88518E-05 8.17243E-07 1.21720E-18 7.92344E-19
 -1      2478 9.60933E-05-2.86252E-05-2.89085E-05 9.42483E-07 1.01838E-18 6.60205E-19
 -1      2479 9.60115E-05-2.84948E-05-2.89388E-05 1.23175E-06 9.09343E-19 5.36788E-19
 -1      2480 9.56875E-05-2.85678E-05-2.87644E-05 5.82195E-07 1.00017E-18 8.27111E-19
 -1      2481 9.58146E-05-2.85871E-05-2.88067E-05 6.79504E-07 1.34280E-18 1.42930E-18
 -1      2482 9.57742E-05-2.84909E-05-2.88382E-05 8.99910E-07 1.16588E-18 1.08021E-18
 -1      2483 9.55193E-05-2.85517E-05-2.86995E-05 4.01963E-07 3.01079E-19 7.68713E-19
 -1      2484 9.56099E-05-2.85634E-05-2.87302E-05 4.76047E-07 3.63237E-19 6.85873E-19
 -1      2485 9.55972E-05-2.84944E-05-2.87604E-05 6.40501E-07 7.26034E-19 8.91301E-19
 -1      2486 9.54006E-05-2.85435E-05-2.86523E-05 2.66481E-07-1.10955E-18 2.51544E-19
 -1      2487 9.54632E-05-2.85499E-05-2.86741E-05 3.21764E-07-4.80346E-19 6.27876E-19
 -1      2488 9.54680E-05-2.85018E-05-2.87015E-05 4.41719E-07 1.77796E-19 9.38914E-19
 -1      2489 9.53196E-05-2.85406E-05-2.86190E-05 1.66683E-07-2.26356E-18 9.18562E-19
 -1      2490 9.53611E-05-2.85434E-05-2.86339E-05 2.07090E-07-1.10362E-18 5.91440E-19
 -1      2491 9.53760E-05-2.85110E-05-2.86578E-05 2.92351E-07-1.32709E-18 1.29378E-18
 -1      2492 9.52668E-05-2.85412E-05-2.85963E-05 9.47603E-08-3.58883E-19 1.09604E-18
 -1      2493 9.52928E-05-2.85416E-05-2.86060E-05 1.23631E-07-1.98039E-18 7.76624E-19
 -1      2494 9.53124E-05-2.85206E-05-2.86261E-05 1.82355E-07-1.88856E-18 8.87257E-19
 -1      2495 9.52347E-05-2.85439E-05-2.85814E-05 4.42133E-08-1.93771E-19 2.61629E-18
 -1      2496 9.52494E-05-2.85427E-05-2.85874E-05 6.42972E-08 3.56135E-19 1.36218E-18
 -1      2497 9.52704E-05-2.85298E-05-2.86039E-05 1.03110E-07-4.97036E-19 6.52133E-19
 -1      2498 9.52174E-05-2.85478E-05-2.85724E-05 9.80262E-09 3.71461E-19 1.83665E-18
 -1      2499 9.52242E-05-2.85458E-05-2.85757E-05 2.32920E-08-2.24776E-19 2.02279E-18
 -1      2500 9.52441E-05-2.85384E-05-2.85887E-05 4.74639E-08 2.37772E-19 2.46020E-18
 -1      2501 9.52104E-05-2.85525E-05-2.85675E-05-1.25527E-08 2.21949E-18 1.14018E-18
 -1      2502 9.52118E-05-2.85499E-05-2.85689E-05-3.97567E-09 1.15977E-18 1.55826E-18
 -1      2503 9.52293E-05-2.85462E-05-2.85789E-05 9.66477E-09 9.30678E-19 1.01915E-18
 -1      2504 9.52102E-05-2.85575E-05-2.85653E-05-2.58778E-08 1.87127E-18 1.39717E-18
 -1      2505 9.52082E-05-2.85546E-05-2.85655E-05-2.09958E-08 2.55618E-18 1.60220E-18
 -1      2506 9.52225E-05-2.85532E-05-2.85728E-05-1.47501E-08 1.77817E-18 1.76547E-18
 -1      2507 9.52143E-05-2.85628E-05-2.85649E-05-3.23162E-08 4.58726E-19 1.51036E-18
 -1      2508 9.52102E-05-2.85597E-05-2.85644E-05-3.03412E-08 8.42280E-19 1.63585E-18
 -1      2509 9.52210E-05-2.85596E-05-2.85694E-05-2.90562E-08 1.79954E-18 2.78440E-18
 -1      2510 9.52207E-05-2.85683E-05-2.85653E-05-3.31028E-08-3.85035E-19 2.62939E-18
 -1      2511 9.52158E-05-2.85651E-05-2.85645E-05-3.35992E-08-6.35201E-20 2.20560E-18
 -1      2512 9.52233E-05-2.85660E-05-2.85675E-05-3.58035E-08-2.84253E-19 2.85251E-18
 -1      2513 9.52280E-05-2.85740E-05-2.85661E-05-2.89780E-08-6.06992E-20 2.61487E-18
 -1      2514 9.52230E-05-2.85707E-05-2.85653E-05-3.16107E-08 4.44237E-19 2.23741E-18
 -1      2515 9.52278E-05-2.85726E-05-2.85666E-05-3.61532E-08-1.65316E-19 2.97453E-18
 -1      2516 9.52310E-05-2.85768E-05-2.85661E-05-2.47924E-08 1.34745E-19 1.82086E-18
 -1      2517 9.52522E-05-2.85987E-05-2.85658E-05-2.20475E-08 1.23832E-18 6.62508E-19
 -1      2518 9.52507E-05-2.85962E-05-2.85662E-05-2.52430E-08-4.42670E-19-1.80631E-18
 -1      2519 9.52537E-05-2.86009E-05-2.85655E-05-1.44161E-08 1.88091E-18-8.60344E-20
 -1      2520 9.52529E-05-2.85992E-05-2.85658E-05-1.81500E-08 1.22007E-18 3.47404E-19
 -1      2521 9.52521E-05-2.85899E-05-2.85695E-05-2.13876E-08 1.39833E-18 8.13363E-19
 -1      2522 9.52446E-05-2.85900E-05-2.85662E-05-3.23695E-08-5.30406E-20 5.17571E-19
 -1      2523 9.52411E-05-2.85858E-05-2.85666E-05-3.27277E-08 3.87510E-19 1.01542E-18
 -1      2524 9.52493E-05-2.85951E-05-2.85661E-05-2.83588E-08-1.16829E-18-3.92485E-18
 -1      2525 9.52470E-05-2.85918E-05-2.85665E-05-3.04629E-08-1.70077E-19-1.57465E-18
 -1      2526 9.52452E-05-2.85855E-05-2.85685E-05-3.39660E-08-2.88373E-19-1.23270E-18
 -1      2527 9.52495E-05-2.85883E-05-2.85691E-05-2.87177E-08 1.09470E-18-1.94892E-18
 -1      2528 9.52544E-05-2.86019E-05-2.85653E-05-6.26970E-09 3.29709E-19-2.12161E-18
 -1      2529 9.52540E-05-2.86011E-05-2.85655E-05-1.02314E-08 1.43487E-18-9.39218E-19
 -1      2530 9.52532E-05-2.85906E-05-2.85697E-05-1.30594E-08 1.42282E-18-2.05486E-19
 -1      2531 9.52544E-05-2.86019E-05-2.85653E-05 2.02636E-09-1.12738E-18-3.06506E-18
 -1      2532 9.52544E-05-2.86019E-05-2.85653E-05-1.99603E-09-6.27611E-19-2.42139E-18
 -1      2533 9.52536E-05-2.85908E-05-2.85698E-05-4.37417E-09 2.96835E-19-3.17898E-18
 -1      2534 9.52540E-05-2.86011E-05-2.85655E-05 1.02754E-08-8.86256E-19-1.59678E-18
 -1      2535 9.52544E-05-2.86019E-05-2.85653E-05 6.30557E-09-4.21224E-19-2.12562E-18
 -1      2536 9.52536E-05-2.85908E-05-2.85698E-05 4.39699E-09 1.18290E-19-2.50064E-18
 -1      2537 9.52529E-05-2.85993E-05-2.85658E-05 1.80909E-08 4.79624E-19-2.02776E-18
 -1      2538 9.52538E-05-2.86009E-05-2.85655E-05 1.44074E-08-3.42669E-19-2.87169E-18
 -1      2539 9.52533E-05-2.85906E-05-2.85697E-05 1.30314E-08 1.63899E-19-1.87474E-18
 -1      2540 9.52508E-05-2.85963E-05-2.85662E-05 2.52202E-08 2.43861E-18 2.07312E-18
 -1      2541 9.52523E-05-2.85988E-05-2.85657E-05 2.20101E-08 1.83878E-18-2.88939E-19
 -1      2542 9.52521E-05-2.85900E-05-2.85695E-05 2.13310E-08 2.09060E-18-1.68000E-19
 -1      2543 9.52470E-05-2.85919E-05-2.85665E-05 3.05660E-08 2.85873E-18 4.23586E-18
 -1      2544 9.52494E-05-2.85952E-05-2.85660E-05 2.84208E-08 2.01873E-18 2.69035E-18
 -1      2545 9.52496E-05-2.85884E-05-2.85691E-05 2.87663E-08 2.54312E-18 1.63202E-18
 -1      2546 9.52411E-05-2.85859E-05-2.85666E-05 3.26951E-08 5.80691E-19 3.25239E-18
 -1      2547 9.52445E-05-2.85899E-05-2.85662E-05 3.24146E-08 1.04990E-18 3.92558E-18
 -1      2548 9.52451E-05-2.85854E-05-2.85685E-05 3.39334E-08 2.20647E-18 2.54882E-18
 -1      2549 2.54337E-05-2.03912E-05-2.04264E-06 2.13286E-05-7.28237E-19 3.41714E-18
 -1      2550 1.90764E-05-1.81786E-05-9.58724E-08 6.30217E-06-2.01170E-19 1.74404E-18
 -1      2551 9.84597E-05-5.29864E-05-1.96160E-05 4.01535E-05-1.40459E-18 2.65484E-18
 -1      2552 7.78036E-05-4.61251E-05-1.33125E-05 4.12617E-05-2.08963E-18 2.93788E-18
 -1      2553 9.87514E-05-2.85920E-05-3.00455E-05-3.45382E-06 9.68585E-19 9.88171E-19
 -1      2554 9.83555E-05-2.82626E-05-2.99942E-05-2.65409E-06 1.16415E-18 1.29369E-18
 -1      2555 9.86117E-05-2.82162E-05-3.01904E-05-4.28093E-06 1.02242E-18 2.73802E-19
 -1      2556 9.52352E-05-2.85816E-05-2.85658E-05 2.86384E-08 1.85637E-19 2.26999E-18
 -1      2557 1.89489E-05-1.86910E-05 8.24282E-08-8.35417E-06 2.17608E-19 1.33450E-18
 -1      2558 2.62899E-05-2.25345E-05-1.47593E-06-2.31595E-05 8.09975E-19 6.54756E-19
 -1      2559 5.74125E-05-3.63278E-05-8.93153E-06 4.13187E-05-2.11991E-18 3.48649E-18
 -1      2560 4.15146E-05-2.84127E-05-5.15654E-06 3.30552E-05-2.49832E-18 4.29806E-18
 -1      2561 9.68409E-05-2.03400E-05-3.28261E-05-8.98492E-06-2.21236E-18-1.24641E-18
 -1      2562 9.76331E-05-2.37177E-05-3.16989E-05-5.04789E-06-2.03983E-18-1.03560E-18
 -1      2563 9.67690E-05-2.25448E-05-3.17926E-05-4.30133E-06-1.87313E-18-1.40805E-18
 -1      2564 9.45551E-05-1.76333E-05-3.29704E-05-8.44472E-06-2.10946E-18-1.81764E-18
 -1      2565 4.03902E-05-3.01989E-05-4.14787E-06-3.31227E-05 1.19262E-18 2.19170E-18
 -1      2566 5.61581E-05-3.70223E-05-8.17180E-06-4.09434E-05 9.86158E-19 3.38411E-18
 -1      2567 7.28946E-05-4.42297E-05-1.22631E-05 4.36225E-05-2.66180E-19-2.35825E-18
 -1      2568 5.28412E-05-3.51294E-05-7.26098E-06 3.82776E-05 6.34428E-19-3.67803E-18
 -1      2569 8.44933E-05-8.01897E-06-3.28077E-05-8.56266E-07 5.32600E-19-3.02798E-18
 -1      2570 8.47999E-05-8.24412E-06-3.28363E-05-1.56312E-06 2.41472E-19-3.06230E-18
 -1      2571 8.59878E-05-1.00767E-05-3.25272E-05-1.51211E-06 1.62862E-19-2.85437E-18
 -1      2572 8.52961E-05-9.47204E-06-3.24903E-05-4.99520E-07 5.48259E-19-2.86201E-18
 -1      2573 1.44284E-04-1.41127E-05-5.63686E-05-5.52780E-06 4.13776E-18-1.37113E-18
 -1      2574 1.46382E-04-2.06448E-05-5.42159E-05-6.49917E-06 3.91562E-18-2.11335E-18
 -1      2575 1.45281E-04-4.51905E-05-4.30859E-05-5.44131E-06 2.28778E-18 8.01081E-19
 -1      2576 1.48904E-04-3.70492E-05-4.83655E-05 7.17343E-07 3.13572E-18 9.45289E-19
 -1      2577 1.40566E-04-1.09097E-05-5.62620E-05 2.18033E-06 5.04281E-18-8.03093E-19
 -1      2578 1.42168E-04-1.04420E-05-5.68910E-05-1.73203E-06 4.74338E-18-9.37904E-19
 -1      2579 1.40612E-04-1.05900E-05-5.63481E-05-4.89299E-07-4.81496E-18-3.78610E-19
 -1      2580 1.43736E-04-1.38402E-05-5.60035E-05-4.69346E-06-4.78701E-18 4.66821E-19
 -1      2581 1.31896E-04-5.69665E-05-3.21033E-05-2.03729E-05 1.78300E-19 3.10014E-19
 -1      2582 1.41374E-04-5.34974E-05-3.79510E-05-1.41712E-05 1.33990E-18 1.08124E-18
 -1      2583 9.91980E-05-5.39482E-05-1.93665E-05-3.85632E-05-8.49998E-19-3.16113E-18
 -1      2584 1.17152E-04-5.70776E-05-2.59986E-05-3.36341E-05-4.93397E-19-1.57929E-18
 -1      2585 6.54216E-05-4.19410E-05-9.85703E-06-4.17509E-05-9.45077E-19-4.19811E-18
 -1      2586 8.28629E-05-4.81238E-05-1.48200E-05-4.37385E-05-6.79109E-19-4.12539E-18
 -1      2587 9.78388E-05-5.31817E-05-1.88835E-05-3.90964E-05-1.91874E-18-2.55219E-18
 -1      2588 1.83105E-05-1.84029E-05 1.86785E-07 2.73114E-06-4.67615E-19-6.22273E-18
 -1      2589 2.00215E-05-1.94166E-05-1.79613E-08-1.14817E-05-2.93920E-19-6.47430E-18
 -1      2590 3.36503E-05-2.43544E-05-3.84972E-06 2.91906E-05 3.36060E-19-5.60524E-18
 -1      2591 2.42824E-05-2.01781E-05-1.39596E-06 1.61535E-05 2.59774E-19-5.97116E-18
 -1      2592 1.08840E-04-5.61207E-05-2.27627E-05 3.66401E-05-6.82497E-19-5.72435E-19
 -1      2593 9.18098E-05-5.20623E-05-1.69462E-05 3.99949E-05-3.73542E-19-1.38125E-18
 -1      2594 1.50922E-04-3.89309E-05-4.81904E-05 7.26681E-07-3.71636E-18 1.34191E-18
 -1      2595 1.45764E-04-4.55099E-05-4.32009E-05 4.57105E-06-3.30295E-18 1.59645E-18
 -1      2596 1.47373E-04-2.20001E-05-5.43737E-05-6.52037E-06-4.27180E-18 1.18754E-18
 -1      2597 1.49952E-04-3.01584E-05-5.14910E-05-4.11332E-06-3.76464E-18 1.11470E-18
 -1      2598 1.44251E-04-3.46288E-05-4.70613E-05-8.55876E-06-3.26298E-18 1.72265E-18
 -1      2599 1.50094E-04-2.13997E-05-5.53108E-05 5.92376E-06-3.75426E-18-1.04460E-18
 -1      2600 1.43445E-04-1.40907E-05-5.60238E-05 6.71869E-06-4.46090E-18-1.33747E-18
 -1      2601 1.47300E-04-3.62820E-05-4.79120E-05 4.41686E-06-1.67871E-18-1.37601E-18
 -1      2602 1.50765E-04-2.90156E-05-5.25121E-05 4.93521E-06-2.74269E-18-1.09246E-18
 -1      2603 1.40682E-04-2.50060E-05-4.97584E-05 1.11789E-05-2.73803E-18-1.24006E-18
 -1      2604 1.38836E-04-5.39740E-05-3.63732E-05-1.20111E-05 6.35434E-19 3.51307E-19
 -1      2605 1.46683E-04-4.72915E-05-4.30622E-05-3.45329E-06-9.47089E-19-9.03996E-19
 -1      2606 1.11935E-04-5.64929E-05-2.37482E-05-3.27934E-05 1.12422E-18 1.20067E-18
 -1      2607 1.27360E-04-5.78083E-05-3.01998E-05-2.63842E-05 1.03465E-18 1.31989E-18
 -1      2608 7.72833E-05-4.66069E-05-1.29727E-05-4.10573E-05 1.13566E-18 2.52093E-18
 -1      2609 9.58811E-05-5.22475E-05-1.87640E-05-4.07380E-05 1.07361E-18 2.03166E-18
 -1      2610 1.09532E-04-5.67585E-05-2.23034E-05-3.35876E-05 1.51365E-18 1.31380E-18
 -1      2611 1.48309E-04-3.07697E-05-5.09000E-05-4.95459E-06 3.11496E-18-2.68425E-18
 -1      2612 1.46630E-04-3.86872E-05-4.65061E-05-1.61217E-06 2.23161E-18-2.46614E-18
 -1      2613 9.89044E-05-2.57460E-05-3.13664E-05 5.20142E-06 2.35793E-18 2.52327E-18
 -1      2614 9.96544E-05-2.43909E-05-3.22728E-05 8.39881E-06 2.50261E-18 2.90981E-18
 -1      2615 9.79402E-05-2.18446E-05-3.26681E-05 9.38297E-06 2.74604E-18 2.03330E-18
 -1      2616 9.81751E-05-2.45983E-05-3.15685E-05 4.79128E-06 2.42875E-18 1.45304E-18
 -1      2617 1.29995E-04-5.67701E-05-3.14828E-05 2.51268E-05-1.08632E-19-5.28760E-19
 -1      2618 1.17232E-04-5.71908E-05-2.56248E-05 2.99379E-05-9.36395E-19 3.76824E-19
 -1      2619 1.35587E-04-5.76720E-05-3.32936E-05 1.36432E-05-1.52275E-18-2.45142E-18
 -1      2620 1.39247E-04-2.53598E-05-4.89310E-05-1.09979E-05 2.67895E-18-2.71231E-18
 -1      2621 8.94834E-05-1.33137E-05-3.26352E-05-3.93039E-06-9.30838E-19-2.90112E-18
 -1      2622 8.89030E-05-1.19572E-05-3.30398E-05-5.21826E-06-1.06375E-18-3.06728E-18
 -1      2623 9.01722E-05-1.31027E-05-3.30907E-05-6.27201E-06-1.39481E-18-2.89531E-18
 -1      2624 9.81632E-05-2.74231E-05-3.03367E-05-2.11331E-06 1.52172E-18 7.26124E-19
 -1      2625 9.59488E-05-1.94028E-05-3.28507E-05 8.90666E-06 2.83994E-18 8.82211E-19
 -1      2626 3.99157E-05-2.42759E-05-6.16032E-06-2.82228E-05 6.20981E-19 1.69004E-18
 -1      2627 7.40026E-05-4.23286E-05-1.31581E-05-4.02335E-05 1.36626E-18 2.37561E-18
 -1      2628 1.42946E-04-4.52559E-05-4.18716E-05-2.65474E-06 6.83450E-19-3.72610E-18
 -1      2629 1.43252E-04-4.37199E-05-4.27472E-05 5.75058E-06-7.92717E-19-1.65764E-18
 -1      2630 9.52331E-05-2.85787E-05-2.85662E-05-3.03417E-08 1.46037E-21 8.36147E-19
 -1      2631 1.12565E-04-5.71119E-05-2.35161E-05 3.16523E-05-1.81032E-18 4.41198E-19
 -1      2632 9.52363E-05-2.85820E-05-2.85661E-05-3.20996E-08 4.50710E-19 1.81290E-18
 -1      2633 1.37181E-04-1.73199E-05-5.16443E-05-8.19120E-06-4.24236E-18 5.83394E-19
 -1      2634 2.57005E-05-1.53867E-05-3.80563E-06-1.50162E-06 4.79302E-19 1.47003E-18
 -1      2635 3.99757E-05-2.27315E-05-6.79243E-06 2.68782E-05-1.26896E-18 3.59311E-18
 -1      2636 7.49570E-05-4.16420E-05-1.38510E-05 3.99242E-05-2.40240E-18 3.15901E-18
 -1      2637 1.30696E-04-1.34200E-05-5.06770E-05 7.52059E-06-3.71742E-18-1.56172E-18
 -1      2638 1.36739E-04-1.17382E-05-5.40649E-05 3.75429E-06-4.40499E-18-8.84673E-19
 -1      2639 1.27426E-04-1.03213E-05-5.07269E-05 5.00560E-07-4.00816E-18-6.94514E-19
 -1      2640 1.20521E-04-5.88002E-05-2.63659E-05 2.92480E-05-6.60686E-19 4.94773E-19
 -1      2641 1.15911E-04-5.84060E-05-2.43124E-05 3.05467E-05 5.36595E-19 9.43767E-19
 -1      2642 1.29405E-04-5.97589E-05-3.02444E-05 2.00271E-05-5.98746E-19 2.38313E-18
 -1      2643 9.61838E-05-2.06586E-05-3.23261E-05 6.70028E-06 2.65272E-18 5.35424E-19
 -1      2644 5.13119E-05-2.91853E-05-8.87918E-06 3.34813E-05 1.64335E-18-4.05665E-18
 -1      2645 8.85231E-05-4.87132E-05-1.66051E-05 3.99593E-05 1.16467E-18-9.80282E-19
 -1      2646 5.86648E-05-3.71561E-05-8.94541E-06-4.00221E-05-1.18203E-18-4.27392E-18
 -1      2647 7.39762E-05-4.12963E-05-1.38001E-05-4.04759E-05-2.18640E-18-3.49803E-18
 -1      2648 5.26747E-05-3.04877E-05-8.86243E-06-3.70425E-05-1.48559E-18-4.27349E-18
 -1      2649 2.91328E-05-1.55547E-05-5.44561E-06-1.30388E-05-5.64971E-19-5.71620E-18
 -1      2650 2.77460E-05-2.07370E-05-2.60216E-06-1.89591E-05-6.68097E-19-5.60143E-18
 -1      2651 3.68053E-05-2.15600E-05-6.13374E-06-2.63519E-05-1.03285E-18-5.10867E-18
 -1      2652 1.27104E-04-5.93667E-05-2.88578E-05-2.32763E-05-1.03984E-18 3.85506E-19
 -1      2653 1.38164E-04-1.32266E-05-5.39198E-05 5.34703E-06 4.70209E-18-3.76983E-19
 -1      2654 1.27908E-04-1.07261E-05-5.07135E-05 4.30486E-06 4.23241E-18-5.63806E-19
 -1      2655 1.32362E-04-1.56202E-05-5.06307E-05 8.17748E-06 4.17968E-18 3.77565E-19
 -1      2656 1.44002E-04-5.18419E-05-3.95706E-05 7.23164E-06-2.56725E-18 1.79275E-18
 -1      2657 1.38673E-04-5.57300E-05-3.55020E-05 1.01034E-05-1.82869E-18 2.74301E-18
 -1      2658 1.42178E-04-4.86375E-05-4.06493E-05-2.72850E-06-2.11261E-18 2.33633E-18
 -1      2659 9.29136E-05-1.60114E-05-3.29886E-05-7.42869E-06-1.87448E-18-2.34717E-18
 -1      2660 1.45526E-04-3.14420E-05-4.90522E-05 6.47473E-06 3.17807E-18 1.46007E-18
 -1      2661 1.36709E-04-2.49539E-05-4.87109E-05 1.17178E-05 3.04339E-18 1.75908E-18
 -1      2662 1.40128E-04-3.65247E-05-4.44626E-05 8.91860E-06 1.98492E-18 2.11695E-18
 -1      2663 1.42029E-04-5.12926E-05-3.90007E-05-2.79976E-06 7.58022E-19 1.58438E-18
 -1      2664 1.33564E-04-1.15514E-05-5.25776E-05-4.88016E-06 3.84066E-18-1.35446E-18
 -1      2665 2.80642E-05-1.63880E-05-4.37907E-06 9.46485E-06 3.34154E-19-5.89111E-18
 -1      2666 9.52314E-05-2.85765E-05-2.85665E-05 3.14428E-08 2.14134E-19 2.17780E-18
 -1      2667 9.52377E-05-2.85829E-05-2.85664E-05 3.34698E-08 9.02454E-20 3.29519E-18
 -1      2668 9.52379E-05-2.85801E-05-2.85676E-05 3.60580E-08 2.83481E-19 3.25781E-18
 -1      2669 9.52282E-05-2.85736E-05-2.85662E-05 3.43442E-08-5.88302E-20 2.23672E-18
 -1      2670 9.52363E-05-2.85795E-05-2.85672E-05-3.54973E-08-5.77137E-20 1.53947E-18
 -1      2671 1.34611E-04-5.81332E-05-3.27040E-05-1.42441E-05 1.28717E-18 3.48342E-20
 -1      2672 9.52327E-05-2.85748E-05-2.85677E-05 3.71420E-08 1.67925E-19 2.43347E-18
 -1      2673 8.70189E-05-1.19093E-05-3.22062E-05 1.28302E-06 1.47339E-18-2.34867E-18
 -1      2674 8.64488E-05-1.14134E-05-3.21825E-05 7.89517E-07 1.26954E-18-2.45082E-18
 -1      2675 8.60265E-05-1.10056E-05-3.21690E-05 5.27185E-07 1.11038E-18-2.55121E-18
 -1      2676 8.58134E-05-1.08230E-05-3.21594E-05 7.69635E-08 8.69741E-19-2.64925E-18
 -1      2677 8.69261E-05-1.25622E-05-3.18501E-05 3.35914E-07 1.11184E-18-2.30837E-18
 -1      2678 9.10400E-05-1.58382E-05-3.22574E-05 3.21200E-06 2.29294E-18-1.32053E-18
 -1      2679 8.98290E-05-1.46433E-05-3.22526E-05 2.58284E-06 2.15090E-18-1.53414E-18
 -1      2680 9.39033E-05-1.89714E-05-3.21466E-05 4.15704E-06 2.50149E-18-7.10121E-19
 -1      2681 9.24141E-05-1.73103E-05-3.22125E-05 3.61615E-06 2.38143E-18-1.00930E-18
 -1      2682 9.25561E-05-1.81810E-05-3.18521E-05 2.10126E-06 2.17408E-18-1.00776E-18
 -1      2683 9.74174E-05-2.53874E-05-3.08709E-05 1.81696E-07 1.96917E-18 3.14370E-19
 -1      2684 9.74459E-05-2.45371E-05-3.12138E-05 2.10747E-06 2.13348E-18 4.53135E-19
 -1      2685 6.44273E-05-3.28863E-05-1.33473E-05 3.72196E-05 2.11906E-18-2.24167E-18
 -1      2686 4.77527E-05-2.21093E-05-1.03259E-05 2.74204E-05 1.95146E-18-4.12971E-18
 -1      2687 1.36662E-04-5.61663E-05-3.49784E-05 6.52385E-06-1.61032E-18-3.77777E-18
 -1      2688 1.30918E-04-5.83293E-05-3.10302E-05 1.36227E-05-1.96914E-18-3.04074E-18
 -1      2689 9.62697E-05-2.18778E-05-3.18849E-05 4.64965E-06 2.46630E-18 3.18249E-19
 -1      2690 1.30269E-04-2.13261E-05-4.73835E-05-1.21979E-05 2.55222E-18-1.88703E-18
 -1      2691 1.33821E-04-3.00462E-05-4.47032E-05-1.36926E-05 1.71185E-18-2.62030E-18
 -1      2692 6.74857E-05-3.60857E-05-1.28935E-05-3.76579E-05 1.57643E-18 2.52628E-18
 -1      2693 8.60599E-05-4.61600E-05-1.71226E-05-3.91950E-05 1.54213E-18 2.11356E-18
 -1      2694 9.69013E-05-2.52351E-05-3.06897E-05 2.06793E-06-1.08123E-18-1.25534E-18
 -1      2695 9.70487E-05-2.58364E-05-3.05189E-05 3.49087E-06-9.67966E-19-1.25096E-18
 -1      2696 9.71776E-05-2.63360E-05-3.03402E-05 4.74834E-06-9.26839E-19-1.13331E-18
 -1      2697 9.74634E-05-2.68175E-05-3.02718E-05 5.82336E-06-6.57648E-19-1.21069E-18
 -1      2698 9.61548E-05-2.50352E-05-3.04886E-05 4.13113E-06-9.75734E-19-1.34891E-18
 -1      2699 9.76431E-05-2.72391E-05-3.01569E-05 6.84109E-06-3.54825E-19-9.73432E-19
 -1      2700 9.81271E-05-2.77601E-05-3.01504E-05 7.63612E-06-3.05391E-19-8.97592E-19
 -1      2701 9.64665E-05-2.61223E-05-3.01601E-05 6.50474E-06-4.91563E-19-1.15598E-18
 -1      2702 9.84776E-05-2.82733E-05-3.00710E-05 8.43688E-06-2.52268E-19-6.99128E-19
 -1      2703 9.92110E-05-2.89707E-05-3.00971E-05 8.94861E-06-1.73189E-19-6.05895E-19
 -1      2704 9.69958E-05-2.72138E-05-2.99238E-05 8.41688E-06-2.29882E-19-1.02296E-18
 -1      2705 9.98698E-05-2.97363E-05-3.00343E-05 9.50544E-06-2.93536E-19-3.53732E-19
 -1      2706 1.00920E-04-3.07432E-05-3.00744E-05 9.65917E-06-1.23953E-19-4.25888E-19
 -1      2707 9.79887E-05-2.86712E-05-2.97335E-05 9.88235E-06-1.10317E-19-7.14151E-19
 -1      2708 1.02067E-04-3.19218E-05-3.00258E-05 9.87019E-06 2.22993E-19-2.01618E-19
 -1      2709 1.03507E-04-3.33441E-05-3.00788E-05 9.51907E-06 3.20087E-19-1.67212E-19
 -1      2710 9.97586E-05-3.08609E-05-2.95689E-05 1.08016E-05 1.42400E-19-3.13269E-19
 -1      2711 1.05353E-04-3.50499E-05-3.00727E-05 9.17720E-06 1.72548E-19-8.64139E-20
 -1      2712 1.07204E-04-3.68764E-05-3.01679E-05 8.11401E-06 1.93570E-19 1.58726E-19
 -1      2713 1.02699E-04-3.41109E-05-2.94581E-05 1.09036E-05 3.80848E-19 5.55088E-20
 -1      2714 1.09896E-04-3.90428E-05-3.02872E-05 6.87478E-06 3.39871E-19 3.70693E-19
 -1      2715 1.11981E-04-4.09470E-05-3.05004E-05 4.89473E-06 5.49036E-19 3.12990E-19
 -1      2716 1.07196E-04-3.85238E-05-2.95184E-05 9.67321E-06 5.56461E-19 4.88587E-19
 -1      2717 1.15341E-04-4.30419E-05-3.09079E-05 2.32499E-06 3.99943E-19 4.65458E-19
 -1      2718 1.17113E-04-4.41213E-05-3.13653E-05-5.61964E-07 1.33975E-19 5.72809E-19
 -1      2719 1.13315E-04-4.35140E-05-3.00167E-05 6.27299E-06 3.51030E-19 3.51486E-19
 -1      2720 1.20156E-04-4.48020E-05-3.22826E-05-4.46136E-06-1.18611E-19 7.05393E-19
 -1      2721 1.20769E-04-4.36746E-05-3.30968E-05-7.50976E-06-5.83862E-19 7.44860E-19
 -1      2722 1.19890E-04-4.69313E-05-3.13999E-05-9.75347E-08-3.49666E-20 2.69257E-19
 -1      2723 1.22073E-04-4.14553E-05-3.46775E-05-1.16832E-05-9.85159E-19 6.89372E-19
 -1      2724 1.20700E-04-3.69768E-05-3.58807E-05-1.33133E-05-1.61681E-18 4.81869E-19
 -1      2725 1.24686E-04-4.52499E-05-3.42079E-05-8.75017E-06-7.89011E-19 9.09475E-19
 -1      2726 1.18868E-04-3.12756E-05-3.78939E-05-1.44313E-05-2.35308E-18 3.80053E-19
 -1      2727 1.16325E-04-2.53688E-05-3.90638E-05-1.24485E-05-2.68822E-18-4.55638E-19
 -1      2728 1.24442E-04-3.58040E-05-3.80900E-05-1.43395E-05-2.13855E-18 9.56380E-19
 -1      2729 1.12822E-04-1.79586E-05-4.08369E-05 4.76559E-06-2.51871E-18-1.17000E-18
 -1      2730 1.14292E-04-2.11660E-05-4.02793E-05 9.83443E-06-2.05448E-18-1.08932E-18
 -1      2731 1.16953E-04-2.67169E-05-3.87281E-05 1.38365E-05-1.58152E-18-1.58002E-18
 -1      2732 1.19486E-04-3.26628E-05-3.75420E-05 1.52251E-05-7.96449E-19-1.98264E-18
 -1      2733 1.20082E-04-2.31073E-05-4.17913E-05 1.29748E-05-2.17555E-18-1.64838E-18
 -1      2734 1.20942E-04-3.79974E-05-3.55776E-05 1.37885E-05 1.27055E-20-2.19518E-18
 -1      2735 1.22132E-04-4.20894E-05-3.44369E-05 1.17721E-05 4.81748E-19-1.75609E-18
 -1      2736 1.24527E-04-3.68837E-05-3.76322E-05 1.47631E-05-4.50330E-19-2.32505E-18
 -1      2737 1.20640E-04-4.39145E-05-3.29521E-05 7.72761E-06 6.03885E-19-1.64658E-18
 -1      2738 1.19935E-04-4.47872E-05-3.21900E-05 4.53892E-06 1.03853E-18-1.64159E-18
 -1      2739 1.24268E-04-4.55532E-05-3.37636E-05 8.19181E-06 7.47553E-19-1.97012E-18
 -1      2740 1.16754E-04-4.37699E-05-3.13566E-05 8.17728E-07 1.28995E-18-1.35939E-18
 -1      2741 1.14938E-04-4.25458E-05-3.09506E-05-1.95954E-06 1.55514E-18-1.33428E-18
 -1      2742 1.19255E-04-4.64714E-05-3.12563E-05 1.16582E-07 1.32117E-18-7.46241E-19
 -1      2743 1.11656E-04-4.03999E-05-3.05918E-05-4.30024E-06 1.61447E-18-1.06997E-18
 -1      2744 1.09621E-04-3.85018E-05-3.04070E-05-6.14039E-06 1.36430E-18-6.04866E-19
 -1      2745 1.12588E-04-4.27168E-05-3.00281E-05-5.68846E-06 1.78615E-18-3.35672E-19
 -1      2746 1.07032E-04-3.63983E-05-3.02988E-05-7.23995E-06 9.82305E-19-1.30572E-18
 -1      2747 1.05267E-04-3.46523E-05-3.02114E-05-8.19808E-06 6.30822E-19-1.28076E-18
 -1      2748 1.06682E-04-3.78137E-05-2.95889E-05-8.73678E-06 5.78339E-19-6.39589E-19
 -1      2749 1.03496E-04-3.30479E-05-3.02011E-05-8.47899E-06 4.91177E-19-1.45673E-18
 -1      2750 1.02130E-04-3.17383E-05-3.01369E-05-8.78761E-06 6.23307E-19-1.73857E-18
 -1      2751 1.02369E-04-3.36193E-05-2.95166E-05-9.80393E-06 4.52842E-19-1.43460E-18
 -1      2752 1.01019E-04-3.06815E-05-3.01440E-05-8.59856E-06 1.54672E-19-1.79887E-18
 -1      2753 1.00012E-04-2.98101E-05-3.00706E-05-8.48911E-06 1.56010E-19-2.15433E-18
 -1      2754 9.95470E-05-3.06476E-05-2.95607E-05-9.69478E-06 9.98142E-20-1.70336E-18
 -1      2755 9.93524E-05-2.91921E-05-3.00625E-05-8.05774E-06-3.25687E-20-2.18752E-18
 -1      2756 9.86134E-05-2.86623E-05-2.99729E-05-7.70994E-06-1.12678E-19-2.28308E-18
 -1      2757 9.78237E-05-2.87942E-05-2.96022E-05-8.95815E-06-8.75002E-21-1.98875E-18
 -1      2758 9.82345E-05-2.83481E-05-2.99425E-05-7.17421E-06-5.39945E-19-2.20918E-18
 -1      2759 9.76842E-05-2.80534E-05-2.98411E-05-6.71368E-06-3.54281E-19-2.21861E-18
 -1      2760 9.68152E-05-2.77709E-05-2.95998E-05-7.92550E-06-6.56312E-19-2.44465E-18
 -1      2761 9.74683E-05-2.79297E-05-2.97923E-05-6.15550E-06-2.09281E-19-2.96112E-18
 -1      2762 9.70491E-05-2.77846E-05-2.96868E-05-5.66384E-06 2.85560E-19-2.43726E-18
 -1      2763 9.62375E-05-2.72979E-05-2.95503E-05-6.79281E-06-7.39171E-19-2.09155E-18
 -1      2764 9.69238E-05-2.77707E-05-2.96269E-05-5.13045E-06 5.83991E-19-2.85675E-18
 -1      2765 9.65980E-05-2.77152E-05-2.95244E-05-4.65687E-06 2.30051E-19-2.47647E-18
 -1      2766 9.59057E-05-2.71594E-05-2.94652E-05-5.67522E-06 9.41167E-20-3.09691E-18
 -1      2767 9.65215E-05-2.77585E-05-2.94603E-05-4.17374E-06-1.37901E-20-2.74998E-18
 -1      2768 9.62654E-05-2.77533E-05-2.93657E-05-3.74500E-06-2.96979E-19-2.16791E-18
 -1      2769 9.57094E-05-2.72078E-05-2.93593E-05-4.63841E-06 2.73854E-19-3.93910E-18
 -1      2770 9.62150E-05-2.78218E-05-2.93026E-05-3.32370E-06-5.28200E-19-1.56306E-18
 -1      2771 9.60129E-05-2.78429E-05-2.92189E-05-2.95171E-06-3.23316E-19-1.76874E-18
 -1      2772 9.55863E-05-2.73488E-05-2.92458E-05-3.71636E-06-2.82983E-19-2.96126E-18
 -1      2773 9.59769E-05-2.79183E-05-2.91603E-05-2.59499E-06-2.14690E-19-1.74535E-18
 -1      2774 9.58180E-05-2.79511E-05-2.90886E-05-2.28236E-06-5.02036E-19-1.97332E-18
 -1      2775 9.55030E-05-2.75257E-05-2.91342E-05-2.92233E-06-3.27655E-19-2.17035E-18
 -1      2776 9.57905E-05-2.80234E-05-2.90365E-05-1.98758E-06-4.67344E-19-9.21661E-19
 -1      2777 9.56666E-05-2.80597E-05-2.89767E-05-1.73147E-06-3.15291E-19-1.23260E-18
 -1      2778 9.54424E-05-2.77065E-05-2.90307E-05-2.25625E-06-2.58106E-19-2.64151E-18
 -1      2779 9.56448E-05-2.81244E-05-2.89319E-05-1.49293E-06-7.54867E-19-8.59456E-19
 -1      2780 9.55493E-05-2.81596E-05-2.88831E-05-1.28763E-06-7.04748E-19-1.03708E-18
 -1      2781 9.53958E-05-2.78744E-05-2.89388E-05-1.70985E-06 1.58673E-20-7.75033E-19
 -1      2782 9.55317E-05-2.82149E-05-2.88456E-05-1.09823E-06-2.65161E-19-4.99430E-19
 -1      2783 9.54593E-05-2.82468E-05-2.88068E-05-9.36826E-07 1.01097E-19 6.50714E-19
 -1      2784 9.53588E-05-2.80217E-05-2.88597E-05-1.27044E-06-6.78812E-20 2.63030E-19
 -1      2785 9.54451E-05-2.82926E-05-2.87761E-05-7.89124E-07-2.33735E-21 5.19132E-19
 -1      2786 9.53913E-05-2.83203E-05-2.87458E-05-6.64537E-07-1.91491E-19 8.94194E-19
 -1      2787 9.53293E-05-2.81462E-05-2.87936E-05-9.23502E-07-6.88737E-20 1.00116E-18
 -1      2788 9.53799E-05-2.83573E-05-2.87212E-05-5.51361E-07-8.36515E-19 8.57216E-19
 -1      2789 9.53406E-05-2.83807E-05-2.86979E-05-4.56913E-07-7.03166E-19 9.93011E-19
 -1      2790 9.53058E-05-2.82485E-05-2.87396E-05-6.54388E-07-5.69559E-19 1.51831E-18
 -1      2791 9.53317E-05-2.84099E-05-2.86786E-05-3.71725E-07-4.32651E-19 9.13266E-19
 -1      2792 9.53038E-05-2.84291E-05-2.86611E-05-3.01436E-07-2.19733E-19 5.69163E-19
 -1      2793 9.52873E-05-2.83307E-05-2.86964E-05-4.49275E-07-5.42815E-19 2.31301E-18
 -1      2794 9.52969E-05-2.84518E-05-2.86463E-05-2.38504E-07-2.03246E-19 6.00747E-19
 -1      2795 9.52777E-05-2.84674E-05-2.86334E-05-1.87223E-07-4.60071E-20 1.57566E-18
 -1      2796 9.52730E-05-2.83954E-05-2.86624E-05-2.95734E-07-5.31689E-19 1.50572E-18
 -1      2797 9.52725E-05-2.84847E-05-2.86221E-05-1.41681E-07 4.31759E-19 1.78475E-18
 -1      2798 9.52598E-05-2.84971E-05-2.86129E-05-1.05103E-07 1.48544E-18 1.75872E-18
 -1      2799 9.52622E-05-2.84455E-05-2.86362E-05-1.82992E-07 2.32814E-19 2.43286E-18
 -1      2800 9.52560E-05-2.85101E-05-2.86045E-05-7.29372E-08 1.65996E-18 1.58756E-18
 -1      2801 9.52481E-05-2.85199E-05-2.85980E-05-4.75731E-08 2.27860E-18 2.10120E-18
 -1      2802 9.52541E-05-2.84836E-05-2.86163E-05-1.01991E-07 1.68987E-18 1.80171E-18
 -1      2803 9.52454E-05-2.85296E-05-2.85919E-05-2.55636E-08 2.22688E-18 2.18576E-18
 -1      2804 9.52410E-05-2.85373E-05-2.85874E-05-8.66409E-09 2.40512E-18 2.00630E-18
 -1      2805 9.52484E-05-2.85124E-05-2.86014E-05-4.53317E-08 1.55099E-18 1.04333E-18
 -1      2806 9.52391E-05-2.85446E-05-2.85829E-05 5.69456E-09 1.84924E-18 1.60123E-18
 -1      2807 9.52373E-05-2.85508E-05-2.85800E-05 1.62168E-08 1.13489E-18 1.42030E-18
 -1      2808 9.52444E-05-2.85339E-05-2.85904E-05-7.13842E-09 1.75630E-18 9.56561E-19
 -1      2809 9.52361E-05-2.85565E-05-2.85767E-05 2.48191E-08 5.61018E-19 1.57503E-19
 -1      2810 9.52360E-05-2.85617E-05-2.85747E-05 3.04910E-08 1.88464E-19-1.04117E-18
 -1      2811 9.52420E-05-2.85503E-05-2.85823E-05 1.71016E-08 6.99255E-19-4.93451E-20
 -1      2812 9.52356E-05-2.85665E-05-2.85723E-05 3.46238E-08 8.06881E-19-6.72944E-19
 -1      2813 9.52365E-05-2.85711E-05-2.85709E-05 3.63921E-08 1.24761E-18 4.88754E-19
 -1      2814 9.52408E-05-2.85634E-05-2.85762E-05 3.07845E-08 5.85743E-19 4.65574E-19
 -1      2815 1.00251E-04-2.96459E-05-3.02587E-05-7.49385E-06 5.10420E-19-2.78945E-20
 -1      2816 9.94854E-05-2.90217E-05-3.01798E-05-7.13792E-06 6.41537E-19-5.40245E-20
 -1      2817 9.52412E-05-2.85781E-05-2.85699E-05-3.65183E-08 3.91695E-19 2.46627E-18
 -1      2818 9.52355E-05-2.85750E-05-2.85688E-05-3.60832E-08-1.22411E-19 2.24633E-18
 -1      2819 9.52332E-05-2.85710E-05-2.85695E-05-3.70090E-08 4.06929E-19 2.45237E-18
 -1      2820 9.90291E-05-2.85367E-05-3.02057E-05-6.49447E-06 6.48049E-19-1.28977E-19
 -1      2821 9.84839E-05-2.80440E-05-3.01675E-05-5.83297E-06 6.37352E-19 1.93374E-21
 -1      2822 9.82888E-05-2.81700E-05-3.00703E-05-7.30833E-06 7.17819E-19-3.15836E-19
 -1      2823 1.04273E-04-3.32106E-05-3.04770E-05-7.24268E-06-1.50694E-19 4.09658E-19
 -1      2824 1.03076E-04-3.21242E-05-3.03778E-05-7.75358E-06 9.38945E-20 2.01980E-19
 -1      2825 1.07182E-04-3.57841E-05-3.06399E-05-5.45074E-06-6.38087E-21 3.66339E-19
 -1      2826 1.05843E-04-3.45091E-05-3.05313E-05-6.59957E-06-1.00229E-20 3.86135E-19
 -1      2827 1.03993E-04-3.40631E-05-3.00135E-05-8.23045E-06-9.27646E-20-7.99764E-20
 -1      2828 1.10494E-04-3.84836E-05-3.09230E-05-2.13940E-06 3.93194E-19 4.79550E-20
 -1      2829 1.09212E-04-3.72996E-05-3.07727E-05-4.00727E-06 1.24030E-19 2.49143E-19
 -1      2830 1.07611E-04-3.73318E-05-3.01719E-05-6.31550E-06 3.57034E-19 3.84858E-20
 -1      2831 1.13559E-04-4.02795E-05-3.14738E-05 2.69792E-06-6.13404E-20 2.89424E-19
 -1      2832 1.12721E-04-3.97860E-05-3.12225E-05 2.68960E-07 2.54433E-19 3.59880E-19
 -1      2833 1.11949E-04-4.06452E-05-3.06069E-05-2.60837E-06 2.07529E-19 1.57317E-19
 -1      2834 1.15162E-04-3.94792E-05-3.24507E-05 8.09565E-06 1.16470E-19 6.02373E-19
 -1      2835 1.15215E-04-4.04571E-05-3.20475E-05 5.82844E-06-1.67600E-19 4.01606E-19
 -1      2836 1.15961E-04-4.24853E-05-3.15559E-05 3.10815E-06-2.06192E-19 2.59814E-19
 -1      2837 1.14214E-04-3.49273E-05-3.39352E-05 1.20867E-05 2.83104E-19 1.36542E-18
 -1      2838 1.15498E-04-3.79210E-05-3.33423E-05 1.09420E-05 1.04933E-19 1.02931E-18
 -1      2839 1.18128E-04-4.04635E-05-3.32845E-05 9.65357E-06-1.56344E-19 9.19894E-19
 -1      2840 1.10637E-04-2.73858E-05-3.56268E-05 1.11468E-05 1.16202E-18 1.36003E-18
 -1      2841 1.12510E-04-3.12134E-05-3.50416E-05 1.25556E-05 7.59173E-19 1.59726E-18
 -1      2842 1.16847E-04-3.39521E-05-3.54548E-05 1.34193E-05 3.66514E-19 1.69427E-18
 -1      2843 1.07372E-04-2.15750E-05-3.67768E-05 3.96868E-06 1.31728E-18 9.72260E-19
 -1      2844 1.08442E-04-2.37738E-05-3.64730E-05 7.84446E-06 1.22977E-18 1.35330E-18
 -1      2845 1.12654E-04-2.48004E-05-3.77138E-05 1.07647E-05 1.28160E-18 1.98034E-18
 -1      2846 1.07723E-04-2.22370E-05-3.67636E-05-5.97277E-06 1.34942E-18 8.19718E-19
 -1      2847 1.06959E-04-2.10025E-05-3.69129E-05-1.71661E-06 1.34685E-18 4.99869E-19
 -1      2848 1.09866E-04-1.93238E-05-3.89126E-05 1.37242E-06 1.40737E-18 1.24761E-18
 -1      2849 1.11454E-04-2.88875E-05-3.55890E-05-1.26021E-05 2.28103E-19 5.60776E-19
 -1      2850 1.09468E-04-2.52054E-05-3.61030E-05-1.03545E-05 1.15636E-18 8.30913E-19
 -1      2851 1.11501E-04-2.25304E-05-3.82182E-05-9.09899E-06 1.16345E-18 2.76794E-19
 -1      2852 1.15042E-04-3.61877E-05-3.39550E-05-1.26786E-05-2.01514E-19-4.61666E-20
 -1      2853 1.13503E-04-3.28022E-05-3.45345E-05-1.30872E-05-8.07328E-20 2.80333E-19
 -1      2854 1.15998E-04-3.17146E-05-3.61049E-05-1.39878E-05 2.18905E-19-2.17714E-19
 -1      2855 1.15985E-04-4.01641E-05-3.25225E-05-8.36655E-06-8.97789E-19-3.61322E-19
 -1      2856 1.15467E-04-3.85628E-05-3.29722E-05-1.04858E-05-4.93226E-19-6.30518E-20
 -1      2857 1.18090E-04-3.90784E-05-3.39146E-05-1.18980E-05-2.30975E-19-4.97632E-19
 -1      2858 1.14072E-04-4.02890E-05-3.15899E-05-2.74446E-06-1.95554E-19-6.73226E-20
 -1      2859 1.14601E-04-4.03955E-05-3.18631E-05-5.21946E-06-5.53352E-19-4.90311E-20
 -1      2860 1.17164E-04-4.23751E-05-3.20539E-05-5.74392E-06-7.88815E-19-2.70273E-20
 -1      2861 1.10782E-04-3.81507E-05-3.10797E-05 1.90182E-06 8.02770E-19 7.05750E-21
 -1      2862 1.11914E-04-3.91834E-05-3.12330E-05-1.26671E-07 3.02837E-19 2.79569E-19
 -1      2863 1.13457E-04-4.13490E-05-3.09400E-05 1.40851E-07 1.14971E-19 4.18708E-19
 -1      2864 1.07387E-04-3.53960E-05-3.08103E-05 4.91198E-06 3.91554E-19 8.87932E-19
 -1      2865 1.08668E-04-3.66481E-05-3.09126E-05 3.58040E-06 9.89584E-19 5.73651E-19
 -1      2866 1.09092E-04-3.82870E-05-3.03933E-05 4.33909E-06 7.90097E-19 7.91870E-19
 -1      2867 1.04492E-04-3.29385E-05-3.06349E-05 6.44632E-06 6.85549E-19 4.89501E-19
 -1      2868 1.05682E-04-3.40400E-05-3.07316E-05 5.75826E-06 2.98539E-19 1.28055E-18
 -1      2869 1.05249E-04-3.49706E-05-3.01624E-05 6.70113E-06 2.41598E-19 2.04205E-18
 -1      2870 1.02231E-04-3.10859E-05-3.04717E-05 6.90126E-06 5.62448E-19-1.20851E-20
 -1      2871 1.03247E-04-3.19194E-05-3.05818E-05 6.69803E-06 6.98456E-19 2.88383E-19
 -1      2872 1.02306E-04-3.22372E-05-3.00610E-05 7.66204E-06 7.34980E-19 1.73736E-18
 -1      2873 1.00531E-04-2.98310E-05-3.02898E-05 6.66439E-06 1.66565E-19 8.56681E-19
 -1      2874 1.01369E-04-3.04062E-05-3.04147E-05 6.77846E-06 5.68922E-19 7.16242E-19
 -1      2875 1.00213E-04-3.02949E-05-2.99857E-05 7.69051E-06 3.10120E-20 1.52473E-18
 -1      2876 9.92609E-05-2.90469E-05-3.00873E-05 6.03826E-06 4.60773E-19 1.49162E-18
 -1      2877 9.99443E-05-2.94192E-05-3.02204E-05 6.33320E-06 6.63455E-19 7.38220E-19
 -1      2878 9.87769E-05-2.90573E-05-2.98926E-05 7.16672E-06 4.34175E-19 2.22020E-18
 -1      2879 9.83038E-05-2.85932E-05-2.98749E-05 5.23318E-06-2.44870E-19 1.01809E-18
 -1      2880 9.88588E-05-2.88217E-05-3.00077E-05 5.61100E-06 9.48410E-20 1.36328E-18
 -1      2881 9.77958E-05-2.83447E-05-2.97727E-05 6.35733E-06 3.03112E-19 1.62322E-18
 -1      2882 9.75723E-05-2.83550E-05-2.96651E-05 4.38499E-06 1.36727E-20-7.37552E-20
 -1      2883 9.80217E-05-2.84876E-05-2.97904E-05 4.78158E-06-1.91309E-19 1.96203E-19
 -1      2884 9.71163E-05-2.79856E-05-2.96327E-05 5.43820E-06 4.62661E-19 1.12541E-18
 -1      2885 9.70063E-05-2.82494E-05-2.94685E-05 3.57481E-06 3.14768E-19 4.83177E-19
 -1      2886 9.73684E-05-2.83208E-05-2.95816E-05 3.95192E-06-9.48805E-20-1.45824E-19
 -1      2887 9.66337E-05-2.78469E-05-2.94838E-05 4.51939E-06-4.01539E-20 6.15239E-19
 -1      2888 9.65656E-05-2.82213E-05-2.92919E-05 2.84600E-06 1.81842E-19 2.02873E-18
 -1      2889 9.68547E-05-2.82549E-05-2.93902E-05 3.18348E-06 7.55142E-19 1.32557E-18
 -1      2890 9.62812E-05-2.78360E-05-2.93367E-05 3.66494E-06-9.39457E-20 8.83881E-19
 -1      2891 9.62223E-05-2.82356E-05-2.91386E-05 2.21720E-06-5.25341E-19 1.81914E-18
 -1      2892 9.64506E-05-2.82465E-05-2.92216E-05 2.50676E-06 2.40101E-19 2.02421E-18
 -1      2893 9.60175E-05-2.78927E-05-2.91990E-05 2.90768E-06-8.37822E-20 1.87201E-18
 -1      2894 9.59562E-05-2.82706E-05-2.90093E-05 1.69164E-06 9.55975E-19 6.31738E-19
 -1      2895 9.61340E-05-2.82687E-05-2.90775E-05 1.93227E-06 5.36737E-20 1.64506E-18
 -1      2896 9.58172E-05-2.79799E-05-2.90754E-05 2.25999E-06 3.33132E-19 5.46961E-19
 -1      2897 9.57517E-05-2.83137E-05-2.89029E-05 1.26359E-06 1.19974E-18 6.35672E-19
 -1      2898 9.58881E-05-2.83050E-05-2.89578E-05 1.45844E-06 1.24109E-18 6.94264E-19
 -1      2899 9.56639E-05-2.80757E-05-2.89684E-05 1.72148E-06 1.13592E-18 4.24895E-19
 -1      2900 9.55966E-05-2.83576E-05-2.88174E-05 9.22623E-07 1.23884E-18 8.69400E-19
 -1      2901 9.56994E-05-2.83459E-05-2.88606E-05 1.07691E-06 1.39148E-18 1.09394E-18
 -1      2902 9.55465E-05-2.81681E-05-2.88782E-05 1.28428E-06 1.05955E-18 1.14239E-18
 -1      2903 9.54807E-05-2.83984E-05-2.87501E-05 6.56441E-07 3.81318E-19 1.40277E-19
 -1      2904 9.55568E-05-2.83859E-05-2.87834E-05 7.76158E-07 6.26958E-19 8.55937E-19
 -1      2905 9.54571E-05-2.82511E-05-2.88041E-05 9.36713E-07 9.22513E-19 7.87122E-19
 -1      2906 9.53959E-05-2.84345E-05-2.86981E-05 4.52595E-07-3.77100E-19 1.46986E-18
 -1      2907 9.54508E-05-2.84223E-05-2.87232E-05 5.43696E-07 5.48009E-19 1.56322E-18
 -1      2908 9.53899E-05-2.83224E-05-2.87445E-05 6.65713E-07-4.53514E-19 1.31546E-18
 -1      2909 9.53351E-05-2.84652E-05-2.86588E-05 2.99444E-07-1.26544E-18 1.59883E-18
 -1      2910 9.53738E-05-2.84541E-05-2.86774E-05 3.67429E-07-1.11069E-18 1.52884E-18
 -1      2911 9.53401E-05-2.83816E-05-2.86975E-05 4.58348E-07-8.39371E-19 2.18948E-18
 -1      2912 9.52929E-05-2.84906E-05-2.86297E-05 1.86648E-07-1.42064E-18 4.69196E-19
 -1      2913 9.53192E-05-2.84809E-05-2.86431E-05 2.36349E-07-1.21151E-18 1.90745E-18
 -1      2914 9.53038E-05-2.84296E-05-2.86612E-05 3.02645E-07-1.42038E-18 1.83361E-18
 -1      2915 9.52646E-05-2.85113E-05-2.86087E-05 1.05372E-07-3.20172E-20 1.16644E-18
 -1      2916 9.52816E-05-2.85030E-05-2.86181E-05 1.40880E-07-1.19853E-18 6.71128E-19
 -1      2917 9.52781E-05-2.84677E-05-2.86337E-05 1.88032E-07-1.39104E-18 4.31498E-19
 -1      2918 9.52467E-05-2.85278E-05-2.85939E-05 4.83037E-08 3.84450E-20 1.60709E-18
 -1      2919 9.52570E-05-2.85208E-05-2.86002E-05 7.29700E-08 5.70965E-19 2.08454E-18
 -1      2920 9.52604E-05-2.84973E-05-2.86133E-05 1.05504E-07-3.25896E-19 1.63028E-18
 -1      2921 9.52363E-05-2.85410E-05-2.85837E-05 9.58124E-09 1.48328E-18 1.25371E-18
 -1      2922 9.52417E-05-2.85352E-05-2.85878E-05 2.60650E-08 6.65669E-19 1.28561E-18
 -1      2923 9.52488E-05-2.85201E-05-2.85984E-05 4.76354E-08 9.06482E-19 1.33521E-18
 -1      2924 9.52313E-05-2.85517E-05-2.85770E-05-1.53119E-08 1.49029E-18 1.91921E-18
 -1      2925 9.52333E-05-2.85467E-05-2.85795E-05-4.99944E-09 1.46699E-18 1.85879E-18
 -1      2926 9.52416E-05-2.85376E-05-2.85877E-05 8.48795E-09 1.21756E-18 2.09660E-18
 -1      2927 9.52301E-05-2.85605E-05-2.85726E-05-2.96163E-08 6.13355E-19 4.62565E-18
 -1      2928 9.52298E-05-2.85563E-05-2.85741E-05-2.41966E-08 1.62894E-18 4.02406E-18
 -1      2929 9.52377E-05-2.85510E-05-2.85802E-05-1.65830E-08 4.48739E-19 3.21899E-18
 -1      2930 9.52323E-05-2.85674E-05-2.85706E-05-3.52470E-08 1.24154E-18 3.16323E-18
 -1      2931 9.52308E-05-2.85635E-05-2.85715E-05-3.32223E-08 1.27416E-18 4.02780E-18
 -1      2932 9.52381E-05-2.85614E-05-2.85759E-05-2.96333E-08 9.95948E-19 4.44412E-18
 -1      2933 9.52401E-05-2.85694E-05-2.85733E-05-3.51811E-08 1.79513E-18 2.69933E-18
 -1      2934 1.21247E-04-5.86389E-05-2.70744E-05 2.37225E-05-2.21880E-18-2.42381E-18
 -1      2935 1.06017E-04-5.34161E-05-2.21179E-05 3.13720E-05-2.66413E-18-4.15026E-19
 -1      2936 9.52529E-05-2.85797E-05-2.85743E-05-2.05779E-09 1.03661E-18-4.06368E-18
 -1      2937 9.52528E-05-2.85796E-05-2.85742E-05-6.31110E-09 1.35517E-18-2.89931E-18
 -1      2938 1.28654E-04-5.93700E-05-2.94012E-05-1.70437E-05 1.82117E-18 3.10226E-20
 -1      2939 1.36503E-04-5.68802E-05-3.47272E-05-5.69490E-06 1.29928E-18-1.34795E-18
 -1      2940 9.52524E-05-2.85812E-05-2.85734E-05-1.87808E-08 1.38133E-18 2.77251E-19
 -1      2941 9.52515E-05-2.85807E-05-2.85732E-05-2.27032E-08 1.96445E-18-1.94273E-19
 -1      2942 9.52529E-05-2.85797E-05-2.85742E-05 6.30870E-09 1.20405E-18-1.47956E-18
 -1      2943 9.52529E-05-2.85797E-05-2.85743E-05 2.04669E-09 5.83904E-19-3.19177E-18
 -1      2944 9.52522E-05-2.85681E-05-2.85788E-05-2.48020E-11 1.40989E-18-3.57380E-18
 -1      2945 9.52529E-05-2.85803E-05-2.85740E-05-1.04406E-08 1.03464E-18-1.23322E-18
 -1      2946 9.52525E-05-2.85801E-05-2.85739E-05-1.46279E-08 1.63824E-18 9.05217E-20
 -1      2947 9.52520E-05-2.85706E-05-2.85777E-05-1.60800E-08 1.10049E-18 4.44864E-19
 -1      2948 9.52522E-05-2.85688E-05-2.85785E-05-7.99714E-09 1.31516E-18-1.62098E-18
 -1      2949 9.52526E-05-2.85802E-05-2.85739E-05 1.45209E-08 1.70638E-18-1.29521E-18
 -1      2950 9.52530E-05-2.85804E-05-2.85740E-05 1.03898E-08 1.36411E-18-3.22736E-19
 -1      2951 9.52523E-05-2.85689E-05-2.85785E-05 7.91102E-09 1.76791E-18-1.12472E-18
 -1      2952 9.52516E-05-2.85808E-05-2.85732E-05 2.26645E-08 2.32304E-18 2.03058E-19
 -1      2953 9.52525E-05-2.85813E-05-2.85734E-05 1.87034E-08 1.98646E-18-7.07475E-19
 -1      2954 9.52521E-05-2.85707E-05-2.85777E-05 1.59833E-08 2.36426E-18-3.32932E-19
 -1      2955 9.52488E-05-2.85808E-05-2.85720E-05 2.99196E-08 2.60885E-18 2.50466E-18
 -1      2956 9.52507E-05-2.85818E-05-2.85724E-05 2.65941E-08 2.26526E-18 1.45928E-18
 -1      2957 9.52509E-05-2.85728E-05-2.85763E-05 2.40928E-08 1.77932E-18 7.22840E-19
 -1      2958 5.04810E-05-2.45100E-05-1.08094E-05 3.10164E-05-1.70063E-18 3.11073E-18
 -1      2959 3.70112E-05-1.66304E-05-8.05768E-06 1.92554E-05 6.88214E-21 2.26073E-18
 -1      2960 8.71602E-05-4.55098E-05-1.78552E-05 3.84254E-05-2.51823E-18 2.10011E-18
 -1      2961 6.95162E-05-3.53371E-05-1.41586E-05 3.67574E-05-2.52268E-18 2.87652E-18
 -1      2962 9.53325E-05-2.04694E-05-3.21163E-05-4.85197E-06-1.82818E-18-1.84581E-18
 -1      2963 9.59642E-05-2.22196E-05-3.16167E-05-2.75417E-06-1.66397E-18-1.66924E-18
 -1      2964 9.92066E-05-5.16349E-05-2.03487E-05 3.63328E-05 1.59157E-18 2.42040E-19
 -1      2965 8.28964E-05-4.34409E-05-1.64255E-05 3.82395E-05 2.02759E-18-5.98429E-19
 -1      2966 9.82172E-05-2.76342E-05-3.02432E-05-4.92086E-06 8.21502E-19 7.95931E-20
 -1      2967 9.78893E-05-2.71740E-05-3.02789E-05-3.95241E-06 1.15579E-18 1.91106E-19
 -1      2968 9.75523E-05-2.70933E-05-3.02130E-05-5.64101E-06 8.82186E-19-1.11554E-19
 -1      2969 1.20127E-04-5.88975E-05-2.59658E-05-2.61116E-05-1.96554E-18 9.29619E-20
 -1      2970 1.31217E-04-5.91936E-05-3.11865E-05-1.49391E-05-1.08738E-18 1.76268E-18
 -1      2971 1.01970E-04-3.11574E-05-3.03562E-05-7.81778E-06 2.86406E-19 2.94892E-20
 -1      2972 1.00983E-04-3.03226E-05-3.02607E-05-7.83442E-06 3.18154E-19-1.60388E-20
 -1      2973 9.94830E-05-2.95351E-05-3.00018E-05-8.39785E-06 4.21563E-19-2.75587E-19
 -1      2974 1.01319E-04-3.14418E-05-2.99797E-05-8.79200E-06 7.98058E-20-1.01809E-19
 -1      2975 9.65217E-05-2.35510E-05-3.12578E-05-1.16190E-06-1.43476E-18-1.48372E-18
 -1      2976 9.66549E-05-2.44791E-05-3.09389E-05 7.02944E-07-1.25612E-18-1.37832E-18
 -1      2977 9.57851E-05-2.35831E-05-3.09428E-05 1.38566E-06-1.15605E-18-1.49989E-18
 -1      2978 9.50525E-05-2.13955E-05-3.15632E-05-1.64983E-06-1.46576E-18-1.75697E-18
 -1      2979 1.38559E-04-4.76274E-05-3.89359E-05 6.86675E-06-1.69407E-21-1.92393E-18
 -1      2980 1.37578E-04-3.87284E-05-4.30291E-05 1.15008E-05-9.70382E-19-1.56415E-18
 -1      2981 8.87206E-05-1.35163E-05-3.22499E-05 2.18696E-06 2.00647E-18-1.76194E-18
 -1      2982 8.78048E-05-1.26818E-05-3.22238E-05 1.61110E-06 1.67740E-18-2.06116E-18
 -1      2983 8.81685E-05-1.37335E-05-3.18804E-05 8.28525E-07 1.49126E-18-1.97385E-18
 -1      2984 9.00949E-05-1.56133E-05-3.18985E-05 1.44329E-06 1.89192E-18-1.47850E-18
 -1      2985 9.77291E-05-2.66998E-05-3.04359E-05-2.74193E-06 1.48265E-18 1.74060E-19
 -1      2986 9.75980E-05-2.61354E-05-3.05904E-05-1.38527E-06 1.68621E-18 2.58454E-19
 -1      2987 9.67326E-05-2.45368E-05-3.09458E-05-4.69270E-07 1.97760E-18-2.41810E-19
 -1      2988 9.70983E-05-2.60039E-05-3.04816E-05-3.38943E-06 1.42198E-18-1.11004E-19
 -1      2989 1.37471E-04-4.04241E-05-4.23732E-05-9.61003E-06 3.98000E-19-3.26235E-18
 -1      2990 1.38899E-04-4.92369E-05-3.85324E-05-2.71706E-06-7.40651E-19-3.73563E-18
 -1      2991 1.35781E-04-5.17032E-05-3.60556E-05-1.90781E-06-1.54529E-18-3.86702E-18
 -1      2992 8.76386E-05-1.25067E-05-3.22270E-05-1.62378E-06-2.05011E-19-2.77816E-18
 -1      2993 8.85368E-05-1.33187E-05-3.22553E-05-2.17420E-06-5.54967E-19-2.74900E-18
 -1      2994 1.36508E-04-5.31016E-05-3.58670E-05-2.24895E-06-2.55195E-19 2.30097E-18
 -1      2995 1.39539E-04-4.69049E-05-4.01381E-05 4.43363E-06 7.54812E-19 2.27365E-18
 -1      2996 2.93351E-05-1.29896E-05-6.67089E-06 5.77372E-06 7.19740E-19 1.94182E-18
 -1      2997 3.01679E-05-1.37503E-05-6.57780E-06-9.76548E-06 3.30925E-19 1.33937E-18
 -1      2998 3.47355E-05-1.47890E-05-8.27652E-06 1.45458E-05 8.33057E-19-5.09744E-18
 -1      2999 3.13946E-05-1.31681E-05-6.96519E-06 4.26166E-07 1.88730E-19-5.66411E-18
 -1      3000 1.24598E-04-1.06183E-05-4.95160E-05-3.05778E-06 3.73838E-18-7.42232E-19
 -1      3001 1.27089E-04-1.40866E-05-4.89781E-05-9.15404E-06 3.09760E-18-1.20205E-18
 -1      3002 9.24890E-05-4.91876E-05-1.81893E-05-3.82455E-05-2.08900E-18-2.23220E-18
 -1      3003 1.06339E-04-5.51375E-05-2.20310E-05-3.49559E-05-2.12478E-18-1.11528E-18
 -1      3004 9.52376E-05-2.85771E-05-2.85688E-05 3.64912E-08 1.20635E-18 2.13547E-18
 -1      3005 9.52414E-05-2.85797E-05-2.85693E-05 3.62862E-08 1.65459E-18 1.58378E-18
 -1      3006 9.52366E-05-2.85741E-05-2.85695E-05 3.71044E-08 1.54583E-18 1.19664E-18
 -1      3007 9.23218E-05-1.59563E-05-3.27390E-05-5.83816E-06-1.62246E-18-2.38820E-18
 -1      3008 1.36032E-04-3.13672E-05-4.55837E-05-1.20658E-05-3.00178E-18 1.07838E-18
 -1      3009 1.39725E-04-3.97911E-05-4.29561E-05-1.03344E-05-2.57858E-18 1.45986E-18
 -1      3010 1.27713E-04-1.45784E-05-4.92198E-05-8.18962E-06-4.12230E-18 6.41310E-19
 -1      3011 1.32783E-04-2.17494E-05-4.79862E-05-1.20422E-05-3.68205E-18 8.83349E-19
 -1      3012 1.34518E-04-2.84897E-05-4.58203E-05 1.39804E-05-2.16364E-18-1.57792E-18
 -1      3013 1.32394E-04-2.16903E-05-4.82012E-05 1.22920E-05-2.95127E-18-1.80969E-18
 -1      3014 1.04098E-04-5.33739E-05-2.12600E-05-3.30555E-05 1.89630E-18 6.62003E-19
 -1      3015 1.16941E-04-5.82554E-05-2.54018E-05-2.76760E-05 1.78353E-18 2.59781E-19
 -1      3016 3.85928E-05-1.82249E-05-8.12673E-06-2.18103E-05-2.37063E-19 9.48253E-19
 -1      3017 5.09130E-05-2.60797E-05-1.03736E-05-3.29341E-05 3.89529E-19 1.54224E-18
 -1      3018 8.96270E-05-1.44137E-05-3.22626E-05-2.54498E-06-7.16396E-19-2.72037E-18
 -1      3019 9.08047E-05-1.55225E-05-3.22775E-05-3.13144E-06-1.03223E-18-2.63152E-18
 -1      3020 8.98755E-05-1.53691E-05-3.19072E-05-1.44492E-06-5.62545E-19-2.50501E-18
 -1      3021 8.64655E-05-1.21322E-05-3.18368E-05-6.00142E-08 6.80370E-19-2.47490E-18
 -1      3022 8.57887E-05-1.07970E-05-3.21594E-05-1.51650E-07 6.40006E-19-2.66632E-18
 -1      3023 8.59588E-05-1.09396E-05-3.21688E-05-5.94827E-07 3.93598E-19-2.63995E-18
 -1      3024 1.31815E-04-3.57561E-05-4.13600E-05-1.32104E-05 4.30663E-19-2.39954E-18
 -1      3025 4.85134E-05-1.85940E-05-1.22674E-05 1.95828E-05 1.44382E-18-4.07095E-18
 -1      3026 1.24975E-04-5.74691E-05-2.89127E-05 1.54123E-05-2.50124E-18-2.72702E-18
 -1      3027 4.15612E-05-1.56813E-05-1.04329E-05-1.50005E-05 8.53915E-20 1.71641E-18
 -1      3028 9.53308E-05-2.09797E-05-3.18764E-05 3.67309E-06 2.44868E-18-3.12463E-19
 -1      3029 1.23367E-04-1.94837E-05-4.48750E-05-1.13574E-05 2.19816E-18-1.51248E-18
 -1      3030 9.70224E-05-4.84203E-05-2.05066E-05-3.31706E-05 2.00472E-18 7.86470E-19
 -1      3031 1.31512E-04-3.41823E-05-4.19568E-05 1.43506E-05-1.20808E-18-1.85087E-18
 -1      3032 9.52409E-05-2.85730E-05-2.85721E-05 3.59568E-08 2.55707E-18-3.31428E-19
 -1      3033 1.13831E-04-2.01488E-05-4.04920E-05-7.94287E-06-2.30584E-18-9.15413E-19
 -1      3034 1.12540E-04-1.74974E-05-4.09612E-05-2.53531E-06-2.30261E-18-9.13757E-19
 -1      3035 1.16888E-04-1.55983E-05-4.37813E-05 1.33445E-06-2.55783E-18-6.49879E-19
 -1      3036 1.19599E-04-2.19283E-05-4.22028E-05-1.11863E-05-3.05101E-18 3.75633E-19
 -1      3037 9.99132E-05-4.85446E-05-2.17299E-05 3.08169E-05-2.76652E-18-3.06997E-19
 -1      3038 8.52152E-05-4.48187E-05-1.70229E-05-3.90573E-05-2.22791E-18-2.86107E-18
 -1      3039 9.43375E-05-4.68297E-05-2.01152E-05-3.43364E-05-2.46635E-18-1.49290E-18
 -1      3040 7.73506E-05-3.85784E-05-1.60363E-05-3.73686E-05-2.34723E-18-2.89992E-18
 -1      3041 1.28038E-04-5.67976E-05-3.04635E-05-1.11292E-05-1.28955E-18 1.86739E-18
 -1      3042 1.34214E-04-5.69901E-05-3.31985E-05-6.47179E-06-9.38036E-19 2.05162E-18
 -1      3043 1.32036E-04-5.27076E-05-3.45959E-05 1.37677E-06-8.06078E-19 2.60177E-18
 -1      3044 1.34730E-04-5.19023E-05-3.56687E-05 2.17112E-06 8.71888E-19-1.69878E-18
 -1      3045 9.52508E-05-2.85728E-05-2.85763E-05-2.40093E-08 2.34487E-18-8.69804E-19
 -1      3046 9.52507E-05-2.85817E-05-2.85724E-05-2.66563E-08 1.94840E-18-1.62881E-18
 -1      3047 9.52486E-05-2.85804E-05-2.85721E-05-2.98743E-08 1.83232E-18-2.35726E-18
 -1      3048 9.52450E-05-2.85798E-05-2.85708E-05-3.41003E-08 9.27976E-19-7.03097E-19
 -1      3049 1.09067E-04-5.50468E-05-2.28469E-05 3.13221E-05 1.50698E-18 5.42750E-19
 -1      3050 1.03175E-04-5.05469E-05-2.23094E-05 3.13747E-05 1.99667E-18 7.39089E-19
 -1      3051 1.17142E-04-5.75141E-05-2.58497E-05 2.52361E-05 1.21592E-18 1.62516E-18
 -1      3052 4.00519E-05-1.45919E-05-1.02449E-05 1.16118E-05 2.06305E-19 1.92192E-18
 -1      3053 6.33669E-05-2.93675E-05-1.40866E-05 3.30933E-05-1.83880E-18 2.90786E-18
 -1      3054 5.83960E-05-2.30776E-05-1.48146E-05 2.69782E-05-4.75344E-19 2.23617E-18
 -1      3055 7.51394E-05-3.33385E-05-1.76812E-05 3.15517E-05-2.19948E-18 1.80857E-18
 -1      3056 9.52448E-05-2.85814E-05-2.85700E-05 3.42175E-08 2.86505E-18 1.01877E-18
 -1      3057 1.38131E-04-4.51762E-05-3.99227E-05-7.45351E-06-1.93034E-18 1.46177E-18
 -1      3058 7.79340E-05-3.70834E-05-1.70564E-05 3.42378E-05 2.47397E-18-1.22391E-18
 -1      3059 1.26098E-04-1.75501E-05-4.69577E-05 1.06394E-05-3.19480E-18-1.62408E-18
 -1      3060 1.34990E-04-5.94010E-05-3.24900E-05 1.27926E-05-1.36161E-18 2.75201E-18
 -1      3061 1.29266E-04-5.93307E-05-2.96458E-05 1.59438E-05-1.53101E-19 2.63943E-18
 -1      3062 1.36174E-04-5.65102E-05-3.45616E-05 3.77576E-06-9.87614E-19 2.66095E-18
 -1      3063 1.22927E-04-5.77834E-05-2.78048E-05-1.84730E-05 1.92388E-18-3.41275E-19
 -1      3064 9.52440E-05-2.85742E-05-2.85728E-05 3.43203E-08 1.68915E-18-6.37101E-19
 -1      3065 9.52472E-05-2.85792E-05-2.85720E-05 3.23422E-08 2.71224E-18 2.10463E-18
 -1      3066 9.52482E-05-2.85723E-05-2.85753E-05 2.99851E-08 1.38085E-18 3.47919E-18
 -1      3067 9.52438E-05-2.85698E-05-2.85744E-05 3.31161E-08 2.17352E-18-1.42511E-19
 -1      3068 4.88860E-05-2.57830E-05-9.29350E-06-3.16736E-05-1.41232E-18-4.26799E-18
 -1      3069 6.12163E-05-3.01787E-05-1.31264E-05-3.47207E-05-2.03976E-18-3.34440E-18
 -1      3070 4.64439E-05-2.07070E-05-1.06371E-05-2.60695E-05-1.24307E-18-4.35820E-18
 -1      3071 3.62672E-05-1.40522E-05-8.92510E-06-6.80498E-06-4.11691E-19-5.05636E-18
 -1      3072 1.31682E-04-2.09777E-05-4.79473E-05 1.12492E-05 3.03079E-18 1.41793E-18
 -1      3073 1.24020E-04-1.72523E-05-4.63130E-05 1.04738E-05 2.98939E-18 1.73896E-18
 -1      3074 1.29196E-04-2.57756E-05-4.45308E-05 1.29867E-05 1.64631E-18 2.25194E-18
 -1      3075 1.35461E-04-4.05340E-05-4.09961E-05 1.02985E-05 9.00290E-19 3.02518E-18
 -1      3076 8.63356E-05-1.12984E-05-3.21828E-05-8.38910E-07 2.71891E-19-2.52890E-18
 -1      3077 8.68817E-05-1.17699E-05-3.22076E-05-1.32199E-06-4.01784E-20-2.68183E-18
 -1      3078 8.79939E-05-1.35512E-05-3.18831E-05-8.83169E-07-1.48143E-19-2.49790E-18
 -1      3079 8.68292E-05-1.24638E-05-3.18506E-05-4.37003E-07 2.44371E-19-2.44593E-18
 -1      3080 1.14772E-04-5.63410E-05-2.48174E-05-2.71198E-05-2.23998E-18 2.49451E-19
 -1      3081 9.52385E-05-2.16567E-05-3.15241E-05 1.84814E-06 2.22810E-18-4.81013E-19
 -1      3082 6.48028E-05-3.05590E-05-1.41494E-05-3.27318E-05 9.96111E-19 1.63033E-18
 -1      3083 1.29219E-04-2.76017E-05-4.39566E-05-1.34208E-05-2.88171E-18 9.03731E-19
 -1      3084 9.26816E-05-1.73213E-05-3.22951E-05-4.07868E-06-1.35859E-18-2.33625E-18
 -1      3085 1.15745E-04-1.98892E-05-4.14708E-05-1.05255E-05 1.80169E-18-4.54579E-19
 -1      3086 1.18981E-04-2.59588E-05-4.01236E-05-1.44227E-05 1.23752E-18-1.03963E-18
 -1      3087 9.36792E-05-2.02324E-05-3.14955E-05 9.12945E-07 2.00016E-18-8.46286E-19
 -1      3088 9.23571E-05-1.87674E-05-3.15498E-05 6.87947E-07 1.88315E-18-1.09929E-18
 -1      3089 1.06506E-04-4.99461E-05-2.42986E-05 2.54044E-05-2.80262E-18-1.89566E-18
 -1      3090 9.15541E-05-4.23515E-05-2.07862E-05 3.09559E-05-2.97335E-18 5.84982E-21
 -1      3091 9.51607E-05-2.47932E-05-3.01494E-05 5.87600E-06-6.35136E-19-1.14131E-18
 -1      3092 9.53505E-05-2.53508E-05-2.99962E-05 6.96601E-06-3.61474E-19-1.19409E-18
 -1      3093 9.53718E-05-2.58549E-05-2.97849E-05 8.02178E-06-1.77124E-19-1.12008E-18
 -1      3094 9.57318E-05-2.64995E-05-2.96611E-05 8.90092E-06-2.18096E-19-1.14481E-18
 -1      3095 9.39740E-05-2.45746E-05-2.97481E-05 7.46363E-06-3.05826E-19-1.23034E-18
 -1      3096 9.59124E-05-2.71587E-05-2.94544E-05 9.84893E-06-1.15021E-19-9.01340E-19
 -1      3097 9.65850E-05-2.80828E-05-2.93421E-05 1.05135E-05 1.15797E-19-7.60215E-19
 -1      3098 9.41472E-05-2.58358E-05-2.92900E-05 9.52886E-06 5.57447E-21-8.61602E-19
 -1      3099 9.71352E-05-2.91137E-05-2.91302E-05 1.13553E-05 2.11599E-19-7.02454E-19
 -1      3100 9.83079E-05-3.05259E-05-2.90285E-05 1.17420E-05 3.68532E-19-4.81345E-19
 -1      3101 9.48193E-05-2.76352E-05-2.88221E-05 1.14283E-05 1.76663E-19-8.22174E-19
 -1      3102 9.95267E-05-3.21636E-05-2.88255E-05 1.24035E-05 5.86896E-19-3.54689E-19
 -1      3103 1.01419E-04-3.42491E-05-2.87654E-05 1.23562E-05 5.74882E-19-2.90345E-19
 -1      3104 9.64859E-05-3.04733E-05-2.83455E-05 1.31442E-05 5.63877E-19-5.61798E-19
 -1      3105 1.03690E-04-3.66740E-05-2.86366E-05 1.25966E-05 5.66175E-19-4.57038E-20
 -1      3106 1.06485E-04-3.94566E-05-2.87092E-05 1.18211E-05 6.76002E-19 2.43445E-20
 -1      3107 9.98341E-05-3.48595E-05-2.79348E-05 1.44408E-05 7.65756E-19-4.58926E-19
 -1      3108 1.10180E-04-4.26315E-05-2.88178E-05 1.11637E-05 5.62301E-19 2.75248E-19
 -1      3109 1.13763E-04-4.56369E-05-2.92104E-05 9.20622E-06 4.29816E-19 1.37868E-19
 -1      3110 1.05574E-04-4.10074E-05-2.78154E-05 1.46357E-05 7.91678E-19-1.64893E-19
 -1      3111 1.19080E-04-4.88112E-05-2.99109E-05 6.56057E-06 1.45485E-19 7.36072E-19
 -1      3112 1.22661E-04-5.04308E-05-3.09425E-05 2.86381E-06-1.65238E-19 5.44027E-19
 -1      3113 1.14715E-04-4.86442E-05-2.85366E-05 1.24765E-05 4.86336E-19 4.01520E-19
 -1      3114 1.28373E-04-5.28563E-05-3.23285E-05 1.03461E-06-4.19778E-19 1.29032E-18
 -1      3115 1.30609E-04-5.02519E-05-3.44605E-05-3.44692E-06-8.50500E-19 1.41476E-18
 -1      3116 1.27652E-04-4.82863E-05-3.41569E-05 6.43930E-06 1.18984E-18-2.26817E-18
 -1      3117 1.26209E-04-5.04867E-05-3.24145E-05 2.36055E-06 1.29362E-18-1.76749E-18
 -1      3118 1.21046E-04-4.94658E-05-3.07783E-05-2.50078E-06 1.72702E-18-7.22165E-19
 -1      3119 1.17758E-04-4.77063E-05-2.98805E-05-5.75368E-06 2.11911E-18-3.59446E-19
 -1      3120 1.24002E-04-5.24069E-05-3.08264E-05-4.44660E-06 1.86718E-18-6.40952E-19
 -1      3121 1.12806E-04-4.46236E-05-2.92611E-05-8.18272E-06 1.68951E-18-3.03997E-19
 -1      3122 1.09425E-04-4.16736E-05-2.89171E-05-9.97703E-06 1.53795E-18-4.20319E-19
 -1      3123 1.13603E-04-4.71624E-05-2.86099E-05-1.08645E-05 1.82691E-18-5.59029E-19
 -1      3124 1.05848E-04-3.86355E-05-2.88081E-05-1.06486E-05 1.02597E-18-6.58302E-19
 -1      3125 1.03202E-04-3.59724E-05-2.87391E-05-1.13339E-05 5.79293E-19-9.33559E-19
 -1      3126 1.05115E-04-4.01093E-05-2.79720E-05-1.31012E-05 1.16256E-18-9.21674E-19
 -1      3127 1.00998E-04-3.36957E-05-2.88314E-05-1.11224E-05 4.79715E-19-1.76693E-19
 -1      3128 9.91983E-05-3.17579E-05-2.88654E-05-1.11478E-05 3.01912E-19-3.27012E-19
 -1      3129 9.94852E-05-3.42401E-05-2.80368E-05-1.29725E-05 8.08944E-19 7.30477E-19
 -1      3130 9.79990E-05-3.02867E-05-2.90039E-05-1.05743E-05-1.02826E-19-5.15084E-19
 -1      3131 9.68743E-05-2.90472E-05-2.90529E-05-1.02471E-05-2.08893E-19-5.37818E-19
 -1      3132 9.62163E-05-3.02083E-05-2.83318E-05-1.18458E-05 1.63927E-20 7.02766E-19
 -1      3133 9.63116E-05-2.82095E-05-2.91726E-05-9.55917E-06-5.29782E-20-1.30433E-18
 -1      3134 9.56457E-05-2.74999E-05-2.92014E-05-9.05987E-06-4.87867E-19-1.78509E-18
 -1      3135 9.45423E-05-2.77700E-05-2.86382E-05-1.04156E-05-6.44839E-19-2.12941E-19
 -1      3136 9.54522E-05-2.70995E-05-2.92822E-05-8.36300E-06-7.44728E-19-1.62615E-18
 -1      3137 9.50703E-05-2.67487E-05-2.92829E-05-7.79640E-06-8.70944E-19-1.29095E-18
 -1      3138 9.38358E-05-2.64794E-05-2.88760E-05-8.95512E-06-6.96361E-19-1.14017E-18
 -1      3139 9.50714E-05-2.66234E-05-2.93250E-05-7.13644E-06-1.38598E-18-1.87531E-18
 -1      3140 9.48545E-05-2.64964E-05-2.93015E-05-6.56435E-06-1.31899E-18-2.37163E-18
 -1      3141 9.36674E-05-2.59412E-05-2.90279E-05-7.57070E-06-1.44162E-18-8.48313E-19
 -1      3142 9.49455E-05-2.65301E-05-2.93124E-05-5.96190E-06-1.03243E-18-2.84982E-18
 -1      3143 9.48203E-05-2.65326E-05-2.92724E-05-5.42091E-06-4.81833E-19-3.09385E-18
 -1      3144 9.37686E-05-2.58590E-05-2.91034E-05-6.30239E-06-1.75337E-18-1.39144E-18
 -1      3145 9.49424E-05-2.66483E-05-2.92613E-05-4.88553E-06 1.78995E-20-3.69146E-18
 -1      3146 9.48666E-05-2.67190E-05-2.92124E-05-4.39626E-06-1.07420E-19-3.89702E-18
 -1      3147 9.39830E-05-2.60304E-05-2.91207E-05-5.16670E-06-4.23070E-19-3.02900E-18
 -1      3148 9.49893E-05-2.68688E-05-2.91878E-05-3.93134E-06 7.09936E-19-3.37048E-18
 -1      3149 9.49400E-05-2.69696E-05-2.91360E-05-3.50355E-06 1.29860E-19-2.23857E-18
 -1      3150 9.42258E-05-2.63250E-05-2.90983E-05-4.17021E-06 7.07879E-19-2.85340E-18
 -1      3151 9.50493E-05-2.71254E-05-2.91043E-05-3.10826E-06-8.19719E-19-2.33674E-18
 -1      3152 9.50146E-05-2.72339E-05-2.90540E-05-2.74441E-06-1.75297E-19-1.73927E-18
 -1      3153 9.44546E-05-2.66627E-05-2.90519E-05-3.31286E-06-6.91750E-21-1.78471E-18
 -1      3154 9.51054E-05-2.73804E-05-2.90199E-05-2.41492E-06 2.88269E-19-2.46011E-18
 -1      3155 9.50792E-05-2.74844E-05-2.89735E-05-2.11265E-06 2.28842E-19-2.22215E-18
 -1      3156 9.46517E-05-2.69973E-05-2.89934E-05-2.58932E-06-4.48362E-19-1.73053E-18
 -1      3157 9.51514E-05-2.76142E-05-2.89401E-05-1.84305E-06 5.63756E-19-2.36840E-18
 -1      3158 9.51307E-05-2.77075E-05-2.88992E-05-1.59705E-06 5.03760E-19-9.36981E-19
 -1      3159 9.48123E-05-2.73041E-05-2.89311E-05-1.98997E-06 7.45667E-19-2.44264E-18
 -1      3160 9.51861E-05-2.78179E-05-2.88684E-05-1.38028E-06 3.07335E-19-4.71425E-19
 -1      3161 9.51695E-05-2.78982E-05-2.88334E-05-1.18381E-06 9.28773E-20-2.08824E-19
 -1      3162 9.49380E-05-2.75721E-05-2.88705E-05-1.50218E-06 7.53028E-19-2.07212E-18
 -1      3163 9.52109E-05-2.79895E-05-2.88061E-05-1.01246E-06 1.55766E-19 7.16031E-20
 -1      3164 9.51975E-05-2.80565E-05-2.87770E-05-8.58345E-07 3.94268E-19 3.18647E-20
 -1      3165 9.50336E-05-2.77982E-05-2.88148E-05-1.11193E-06 6.05573E-19-1.41382E-18
 -1      3166 9.52276E-05-2.81302E-05-2.87536E-05-7.25187E-07-1.52506E-19 6.26122E-19
 -1      3167 9.52170E-05-2.81847E-05-2.87298E-05-6.06392E-07-1.53674E-19 1.14260E-18
 -1      3168 9.51043E-05-2.79840E-05-2.87656E-05-8.04972E-07 1.95031E-19-1.68178E-18
 -1      3169 9.52382E-05-2.82430E-05-2.87103E-05-5.04670E-07-2.53235E-19 9.89489E-19
 -1      3170 9.52299E-05-2.82865E-05-2.86913E-05-4.14700E-07-7.03151E-19 9.80132E-19
 -1      3171 9.51552E-05-2.81333E-05-2.87236E-05-5.67593E-07 8.63485E-20-4.09005E-19
 -1      3172 9.52444E-05-2.83317E-05-2.86753E-05-3.38354E-07-7.40816E-19 1.22046E-18
 -1      3173 9.52379E-05-2.83657E-05-2.86605E-05-2.71455E-07-4.00368E-20 1.20451E-18
 -1      3174 9.51908E-05-2.82510E-05-2.86885E-05-3.87156E-07-6.77468E-20-1.19380E-19
 -1      3175 9.52474E-05-2.84001E-05-2.86477E-05-2.15227E-07 1.19291E-19 1.06874E-18
 -1      3176 9.52426E-05-2.84264E-05-2.86362E-05-1.66473E-07 4.62601E-19 1.74624E-18
 -1      3177 9.52148E-05-2.83420E-05-2.86599E-05-2.52447E-07-3.46923E-20 5.98106E-19
 -1      3178 9.52484E-05-2.84521E-05-2.86261E-05-1.25933E-07 6.37665E-19 1.71608E-18
 -1      3179 9.52448E-05-2.84721E-05-2.86174E-05-9.12272E-08 1.70150E-18 9.05187E-19
 -1      3180 9.52303E-05-2.84112E-05-2.86368E-05-1.53831E-07 2.64957E-19 7.89630E-19
 -1      3181 9.52480E-05-2.84911E-05-2.86095E-05-6.27451E-08 1.65180E-18 3.21078E-19
 -1      3182 9.52455E-05-2.85061E-05-2.86030E-05-3.87807E-08 1.81275E-18 9.77513E-19
 -1      3183 9.52395E-05-2.84629E-05-2.86186E-05-8.32609E-08 1.47870E-18 1.38030E-18
 -1      3184 9.52470E-05-2.85200E-05-2.85968E-05-1.94588E-08 1.18034E-18 1.31779E-18
 -1      3185 9.52453E-05-2.85313E-05-2.85920E-05-3.64048E-09 1.30680E-18 7.32103E-19
 -1      3186 9.52444E-05-2.85012E-05-2.86043E-05-3.42027E-08 1.48405E-18 1.19232E-18
 -1      3187 9.52457E-05-2.85415E-05-2.85872E-05 8.75771E-09 1.62050E-18 3.73168E-19
 -1      3188 9.52447E-05-2.85502E-05-2.85835E-05 1.83676E-08 1.28041E-19 7.16307E-19
 -1      3189 9.52465E-05-2.85294E-05-2.85931E-05-1.51752E-09 1.00020E-18 1.16189E-18
 -1      3190 9.52445E-05-2.85571E-05-2.85801E-05 2.49435E-08-6.36939E-19 1.29575E-18
 -1      3191 9.52441E-05-2.85641E-05-2.85772E-05 2.98838E-08 1.44055E-18 1.38732E-18
 -1      3192 9.52466E-05-2.85650E-05-2.85780E-05 2.86154E-08 4.52845E-19 3.76791E-18
 -1      3193 9.52469E-05-2.85499E-05-2.85846E-05 1.80897E-08 6.22445E-19 2.95653E-18
 -1      3194 9.73924E-05-2.76391E-05-2.98889E-05-7.90704E-06 7.00578E-19-4.39399E-19
 -1      3195 9.69219E-05-2.69862E-05-2.99576E-05-7.16919E-06 7.37288E-19-3.71019E-19
 -1      3196 1.07641E-04-3.86204E-05-2.96038E-05-7.85917E-06-3.74481E-20 1.20203E-19
 -1      3197 1.05551E-04-3.65801E-05-2.94903E-05-9.03956E-06 2.57460E-20 9.32307E-20
 -1      3198 1.03403E-04-3.45878E-05-2.94967E-05-9.45003E-06 8.33732E-20-2.43630E-19
 -1      3199 1.01790E-04-3.28975E-05-2.94798E-05-9.89372E-06-8.58297E-20-9.85443E-20
 -1      3200 1.02866E-04-3.55992E-05-2.89049E-05-1.10244E-05-4.57423E-20 7.14701E-20
 -1      3201 1.18730E-04-4.55045E-05-3.13797E-05 1.65162E-06-6.38557E-19 1.18834E-18
 -1      3202 1.16714E-04-4.48255E-05-3.06992E-05-1.61520E-06-2.07133E-19 7.73980E-19
 -1      3203 1.24585E-04-4.59750E-05-3.37472E-05 6.31656E-06-4.90326E-19 2.42065E-18
 -1      3204 1.23770E-04-4.83196E-05-3.23989E-05 2.86277E-06-8.19637E-19 2.02188E-18
 -1      3205 1.15975E-04-2.02745E-05-4.12433E-05 1.00263E-05 1.88433E-18 2.22956E-18
 -1      3206 1.18493E-04-2.61449E-05-4.00244E-05 1.31338E-05 1.31139E-18 2.37590E-18
 -1      3207 1.14142E-04-1.61977E-05-4.23506E-05-6.13775E-06 1.86538E-18-1.97809E-19
 -1      3208 1.20943E-04-3.17875E-05-3.86274E-05-1.45614E-05 3.61895E-19-9.99333E-19
 -1      3209 1.22398E-04-4.42685E-05-3.34503E-05-8.73610E-06-9.27642E-19-1.70068E-20
 -1      3210 1.21924E-04-4.09346E-05-3.46928E-05-1.15494E-05-6.11664E-19-2.88395E-19
 -1      3211 1.18292E-04-4.52297E-05-3.12063E-05-1.43562E-06-9.36974E-19-3.39554E-19
 -1      3212 1.19651E-04-4.51519E-05-3.19957E-05-4.48348E-06-8.41138E-19-2.96437E-19
 -1      3213 1.23077E-04-4.74632E-05-3.25607E-05-4.03826E-06-5.96106E-19-4.62176E-19
 -1      3214 1.12392E-04-4.20432E-05-3.00553E-05 4.25490E-06-4.18967E-20 7.55529E-19
 -1      3215 1.14627E-04-4.37180E-05-3.04517E-05 1.91702E-06-5.94855E-19 3.41686E-19
 -1      3216 1.16847E-04-4.65471E-05-3.02535E-05 3.22991E-06-8.93540E-19-4.65001E-19
 -1      3217 1.06944E-04-3.76915E-05-2.96024E-05 7.39195E-06 2.30172E-19 1.93541E-18
 -1      3218 1.09126E-04-3.97398E-05-2.97648E-05 5.97895E-06 3.22845E-19 1.13315E-18
 -1      3219 1.09620E-04-4.17673E-05-2.91901E-05 7.75002E-06-5.69562E-19 1.08218E-18
 -1      3220 1.02755E-04-3.38281E-05-2.94903E-05 8.69049E-06 2.59207E-19 2.03239E-18
 -1      3221 1.04506E-04-3.55918E-05-2.95435E-05 8.04555E-06 2.76399E-19 2.06426E-18
 -1      3222 1.03966E-04-3.67622E-05-2.88811E-05 9.72080E-06 1.93873E-19 1.61544E-18
 -1      3223 9.98820E-05-3.09768E-05-2.95027E-05 8.81304E-06 7.18232E-19 2.27202E-18
 -1      3224 1.01157E-04-3.22651E-05-2.95226E-05 8.69338E-06 8.06313E-19 2.06909E-18
 -1      3225 9.99924E-05-3.26829E-05-2.89014E-05 1.00524E-05 6.69585E-19 1.85519E-18
 -1      3226 9.80519E-05-2.91214E-05-2.95284E-05 8.27452E-06-3.17744E-19 2.20281E-18
 -1      3227 9.89322E-05-2.99606E-05-2.95516E-05 8.47572E-06 3.47043E-19 2.42446E-18
 -1      3228 9.75143E-05-2.98603E-05-2.90268E-05 9.51100E-06 3.42005E-19 2.82606E-18
 -1      3229 9.69364E-05-2.80388E-05-2.95234E-05 7.40444E-06 1.52243E-19 2.17063E-18
 -1      3230 9.75331E-05-2.85342E-05-2.95619E-05 7.78226E-06-2.07720E-19 1.86286E-18
 -1      3231 9.60967E-05-2.81289E-05-2.91466E-05 8.56898E-06 5.46659E-20 1.91864E-18
 -1      3232 9.62755E-05-2.74918E-05-2.94796E-05 6.40074E-06 1.84423E-19 1.49380E-18
 -1      3233 9.66824E-05-2.77503E-05-2.95330E-05 6.85791E-06 5.83313E-19 1.94430E-18
 -1      3234 9.53549E-05-2.71934E-05-2.92207E-05 7.47112E-06-1.32046E-20 2.11381E-18
 -1      3235 9.58891E-05-2.72866E-05-2.94045E-05 5.38370E-06 4.13604E-19 2.30135E-18
 -1      3236 9.61727E-05-2.73938E-05-2.94677E-05 5.85736E-06 3.37606E-19 2.22095E-18
 -1      3237 9.50151E-05-2.67890E-05-2.92434E-05 6.35094E-06 5.93543E-20 2.33600E-18
 -1      3238 9.56626E-05-2.72830E-05-2.93100E-05 4.42406E-06 2.01595E-19 2.10364E-18
 -1      3239 9.58662E-05-2.73002E-05-2.93769E-05 4.87576E-06 6.38110E-19 2.62991E-18
 -1      3240 9.48979E-05-2.67122E-05-2.92236E-05 5.28346E-06 1.17751E-19 3.65686E-18
 -1      3241 9.55271E-05-2.73875E-05-2.92072E-05 3.56029E-06-2.34885E-19 1.80530E-18
 -1      3242 9.56773E-05-2.73554E-05-2.92730E-05 3.96863E-06-7.08925E-21 1.72705E-18
 -1      3243 9.48935E-05-2.68204E-05-2.91743E-05 4.31014E-06 1.69254E-19 1.75221E-18
 -1      3244 9.54428E-05-2.75410E-05-2.91050E-05 2.80959E-06-4.59461E-20 1.44460E-18
 -1      3245 9.55561E-05-2.74853E-05-2.91661E-05 3.16471E-06-2.41091E-19 1.93516E-18
 -1      3246 9.49389E-05-2.70202E-05-2.91078E-05 3.45153E-06-3.36472E-20 1.47595E-18
 -1      3247 9.53877E-05-2.77082E-05-2.90092E-05 2.17530E-06 7.84163E-19 1.94245E-19
 -1      3248 9.54743E-05-2.76444E-05-2.90637E-05 2.47490E-06 6.11226E-19 1.12148E-18
 -1      3249 9.50002E-05-2.72536E-05-2.90341E-05 2.71440E-06 2.83494E-19 4.77383E-19
 -1      3250 9.53496E-05-2.78691E-05-2.89233E-05 1.65209E-06 1.21952E-18 1.20934E-18
 -1      3251 9.54160E-05-2.78061E-05-2.89703E-05 1.89855E-06 9.91839E-19 1.02723E-18
 -1      3252 9.50606E-05-2.74868E-05-2.89602E-05 2.09639E-06 9.85432E-19 1.34448E-18
 -1      3253 9.53218E-05-2.80137E-05-2.88488E-05 1.22952E-06 1.28476E-18 5.88096E-19
 -1      3254 9.53727E-05-2.79562E-05-2.88883E-05 1.42789E-06 1.37162E-18 7.81173E-19
 -1      3255 9.51128E-05-2.77013E-05-2.88907E-05 1.58913E-06 1.13926E-18 1.23411E-18
 -1      3256 9.53010E-05-2.81378E-05-2.87862E-05 8.94754E-07 1.80687E-19 1.31024E-18
 -1      3257 9.53396E-05-2.80878E-05-2.88185E-05 1.05127E-06 8.18383E-19 1.47571E-18
 -1      3258 9.51544E-05-2.78888E-05-2.88283E-05 1.18075E-06 5.60432E-19 6.02609E-19
 -1      3259 9.52850E-05-2.82410E-05-2.87346E-05 6.34390E-07-1.00731E-18 2.40771E-18
 -1      3260 9.53140E-05-2.81990E-05-2.87606E-05 7.55579E-07-6.64077E-19 2.11649E-18
 -1      3261 9.51860E-05-2.80466E-05-2.87743E-05 8.57913E-07-6.80374E-19 1.49616E-18
 -1      3262 9.52726E-05-2.83246E-05-2.86931E-05 4.35547E-07-1.14742E-18 2.72863E-18
 -1      3263 9.52940E-05-2.82903E-05-2.87135E-05 5.27655E-07-6.25482E-19 3.02445E-18
 -1      3264 9.52088E-05-2.81759E-05-2.87287E-05 6.07222E-07-1.30347E-18 3.38659E-18
 -1      3265 9.52631E-05-2.83908E-05-2.86604E-05 2.86484E-07-1.51269E-18 2.14161E-18
 -1      3266 9.52786E-05-2.83633E-05-2.86761E-05 3.55169E-07-1.58600E-18 2.20764E-18
 -1      3267 9.52245E-05-2.82792E-05-2.86911E-05 4.15997E-07-7.86859E-19 3.01839E-18
 -1      3268 9.52559E-05-2.84422E-05-2.86350E-05 1.76925E-07-1.23153E-18 7.10839E-19
 -1      3269 9.52667E-05-2.84207E-05-2.86469E-05 2.27106E-07-1.13263E-18 1.08695E-18
 -1      3270 9.52348E-05-2.83602E-05-2.86608E-05 2.72791E-07-9.65192E-19 1.78079E-18
 -1      3271 9.52505E-05-2.84815E-05-2.86157E-05 9.81756E-08-3.42214E-19 9.16313E-19
 -1      3272 9.52578E-05-2.84648E-05-2.86245E-05 1.33985E-07-1.03727E-18 1.89084E-19
 -1      3273 9.52410E-05-2.84223E-05-2.86368E-05 1.67648E-07-1.21534E-18 8.22547E-19
 -1      3274 9.52465E-05-2.85110E-05-2.86012E-05 4.30937E-08 1.05381E-18 8.52592E-19
 -1      3275 9.52512E-05-2.84983E-05-2.86076E-05 6.79010E-08 6.85973E-19 6.32344E-19
 -1      3276 9.52442E-05-2.84693E-05-2.86181E-05 9.21763E-08 9.19087E-20-3.01085E-19
 -1      3277 9.52437E-05-2.85332E-05-2.85904E-05 5.99049E-09-8.65812E-20 2.53807E-18
 -1      3278 9.52465E-05-2.85235E-05-2.85950E-05 2.24479E-08 1.00177E-18 1.93511E-18
 -1      3279 9.52456E-05-2.85043E-05-2.86036E-05 3.94829E-08 6.75420E-20 7.79041E-19
 -1      3280 9.52420E-05-2.85497E-05-2.85824E-05-1.70814E-08-2.23809E-19 3.17178E-18
 -1      3281 9.52434E-05-2.85426E-05-2.85857E-05-7.26895E-09-2.29097E-19 2.60880E-18
 -1      3282 9.52458E-05-2.85303E-05-2.85925E-05 4.15087E-09-5.96162E-19 1.45974E-18
 -1      3283 4.18019E-05-1.26639E-05-1.21328E-05-7.48868E-06 2.93980E-19 2.51463E-18
 -1      3284 4.92366E-05-1.70075E-05-1.34924E-05-1.89527E-05 1.24196E-19 1.37728E-18
 -1      3285 1.23896E-04-1.11901E-05-4.88738E-05 1.80758E-06 3.81885E-18 1.80921E-19
 -1      3286 1.18796E-04-1.27510E-05-4.58327E-05-1.40532E-06 3.01268E-18 1.37199E-19
 -1      3287 9.52508E-05-2.85573E-05-2.85830E-05 8.40729E-09 1.50732E-18-3.04256E-19
 -1      3288 9.52507E-05-2.85566E-05-2.85833E-05 4.77388E-09 1.26513E-18-1.20906E-18
 -1      3289 9.52504E-05-2.85558E-05-2.85835E-05 1.72686E-09 1.07358E-18-3.48706E-18
 -1      3290 9.52504E-05-2.85557E-05-2.85835E-05-1.88537E-09 1.17167E-18-3.34177E-18
 -1      3291 9.52489E-05-2.85430E-05-2.85881E-05 2.52021E-09 1.19174E-18-2.07006E-18
 -1      3292 9.67185E-05-2.64384E-05-3.01182E-05-6.20766E-06 8.30283E-19-3.50187E-19
 -1      3293 9.64357E-05-2.58584E-05-3.02338E-05-5.19185E-06 1.00782E-18-2.73738E-19
 -1      3294 9.56713E-05-2.58249E-05-2.99460E-05-6.82408E-06 8.35865E-19-6.04764E-19
 -1      3295 9.52511E-05-2.85606E-05-2.85817E-05 1.55677E-08 1.85687E-18 6.19289E-19
 -1      3296 9.52513E-05-2.85595E-05-2.85823E-05 1.17510E-08 1.53953E-18 5.30495E-20
 -1      3297 9.52498E-05-2.85461E-05-2.85871E-05 8.22095E-09 6.92207E-19-2.40404E-21
 -1      3298 1.21344E-04-1.28826E-05-4.70356E-05 5.85050E-06 3.53033E-18 1.31700E-18
 -1      3299 1.12767E-04-1.54093E-05-4.20349E-05-5.63903E-07 2.17370E-18 8.28021E-19
 -1      3300 1.20751E-04-1.70737E-05-4.47740E-05 8.62936E-06 2.67440E-18 2.25973E-18
 -1      3301 9.52502E-05-2.85648E-05-2.85795E-05 2.31916E-08 2.42715E-18 7.19468E-19
 -1      3302 9.52513E-05-2.85637E-05-2.85805E-05 1.93292E-08 2.42731E-18 4.52472E-20
 -1      3303 9.52504E-05-2.85515E-05-2.85851E-05 1.47914E-08 1.58845E-18 9.01270E-19
 -1      3304 1.19886E-04-1.27073E-05-4.63483E-05-1.09992E-06-3.02761E-18-3.77194E-19
 -1      3305 1.23941E-04-1.37490E-05-4.78346E-05-5.28711E-06-3.49518E-18 2.75921E-19
 -1      3306 1.13020E-04-4.28548E-05-3.01122E-05-4.32468E-06-3.17174E-20 5.56487E-19
 -1      3307 1.10689E-04-4.09575E-05-2.97932E-05-6.47464E-06-8.22449E-20 3.97765E-19
 -1      3308 1.08023E-04-4.05034E-05-2.90367E-05-9.66329E-06-3.70194E-19 6.65066E-19
 -1      3309 1.14717E-04-4.54535E-05-2.97807E-05-6.01784E-06-4.23473E-19 1.36824E-18
 -1      3310 1.22261E-04-1.97470E-05-4.41482E-05 1.20000E-05-2.75317E-18-1.58782E-18
 -1      3311 1.20601E-04-1.42822E-05-4.62070E-05 6.34420E-06-3.16663E-18-1.07295E-18
 -1      3312 1.32631E-04-4.81798E-05-3.64872E-05-7.41360E-06-1.26613E-18-2.74619E-18
 -1      3313 1.31657E-04-5.32078E-05-3.36044E-05-7.66725E-08-1.66781E-18-3.25303E-18
 -1      3314 4.75494E-05-1.55872E-05-1.34235E-05 1.61111E-05-3.66739E-20 1.78311E-18
 -1      3315 4.15539E-05-1.19478E-05-1.22235E-05 3.46014E-06-1.41514E-20 1.89079E-18
 -1      3316 8.84642E-05-4.10990E-05-2.01617E-05 3.25367E-05 2.29138E-18-6.97743E-20
 -1      3317 7.31213E-05-3.11744E-05-1.76697E-05 3.06676E-05 2.15107E-18-1.31089E-18
 -1      3318 1.25759E-04-3.98203E-05-3.69253E-05-1.29987E-05-4.92867E-19-1.40210E-18
 -1      3319 1.25170E-04-2.84454E-05-4.21360E-05 1.54905E-05-1.59433E-18-2.05458E-18
 -1      3320 9.52459E-05-2.85734E-05-2.85739E-05-3.22593E-08 2.29419E-18 2.46990E-19
 -1      3321 1.27721E-04-5.64162E-05-3.07809E-05 8.88645E-06-1.89767E-18-2.48546E-18
 -1      3322 1.18864E-04-5.44509E-05-2.74892E-05 1.67525E-05-2.12681E-18-1.85402E-18
 -1      3323 1.27046E-04-5.30437E-05-3.17815E-05 2.38111E-06-1.18753E-18-2.11218E-18
 -1      3324 9.49974E-05-2.35907E-05-3.05959E-05 3.34694E-06-8.34204E-19-1.52153E-18
 -1      3325 9.51403E-05-2.42441E-05-3.03860E-05 4.68229E-06-7.08333E-19-1.41030E-18
 -1      3326 9.39479E-05-2.34180E-05-3.02278E-05 5.17169E-06-5.18880E-19-1.34697E-18
 -1      3327 1.31553E-04-5.60489E-05-3.21703E-05-3.89989E-06 1.77793E-18-1.12973E-18
 -1      3328 1.32128E-04-4.90917E-05-3.58611E-05 6.54911E-06 6.91470E-19-1.96909E-18
 -1      3329 1.32494E-04-4.36118E-05-3.79754E-05 1.00833E-05 2.95932E-19 3.24070E-18
 -1      3330 1.32000E-04-3.60471E-05-4.17598E-05 1.25842E-05 1.04799E-18 2.98606E-18
 -1      3331 1.26581E-04-3.06872E-05-4.13522E-05 1.38341E-05 8.30675E-19 2.79171E-18
 -1      3332 8.92839E-05-4.23844E-05-1.96202E-05-3.27653E-05 2.04198E-18 7.41471E-19
 -1      3333 1.03383E-04-5.00239E-05-2.31086E-05-2.87563E-05 2.35819E-18-1.09159E-18
 -1      3334 9.59612E-05-2.33865E-05-3.11047E-05-6.22352E-09 1.95198E-18-3.64598E-19
 -1      3335 9.46489E-05-2.14556E-05-3.13614E-05 5.79824E-07 1.99335E-18-5.93482E-19
 -1      3336 9.44361E-05-2.18835E-05-3.10779E-05-8.47099E-07 1.76125E-18-6.52253E-19
 -1      3337 9.61533E-05-2.42717E-05-3.08120E-05-1.68451E-06 1.74386E-18-3.28328E-19
 -1      3338 1.16320E-04-5.50107E-05-2.58104E-05-2.20270E-05 2.22852E-18-1.03217E-18
 -1      3339 1.24705E-04-5.72485E-05-2.92309E-05-1.40011E-05 2.22807E-18-9.95873E-19
 -1      3340 1.25022E-04-5.50608E-05-3.00354E-05-8.78930E-06 2.11017E-18-1.07183E-18
 -1      3341 1.08111E-04-5.02426E-05-2.46653E-05-2.38539E-05 2.40189E-18-9.93298E-19
 -1      3342 1.13399E-04-1.67393E-05-4.18365E-05 5.21303E-06 2.45057E-18 1.44989E-18
 -1      3343 4.17050E-05-1.29514E-05-1.20377E-05-3.79005E-06 4.30134E-21-4.37260E-18
 -1      3344 4.17844E-05-1.51221E-05-1.06626E-05-1.61129E-05-7.73950E-19-4.62416E-18
 -1      3345 1.20776E-04-1.68360E-05-4.48051E-05-9.04490E-06-3.18442E-18 8.65694E-19
 -1      3346 5.78626E-05-2.11367E-05-1.54833E-05 2.35078E-05 1.77316E-18-2.90945E-18
 -1      3347 4.74601E-05-1.44240E-05-1.37088E-05 1.17151E-05 1.04688E-18-3.94760E-18
 -1      3348 9.27726E-05-1.82525E-05-3.19369E-05-2.59508E-06-1.18299E-18-2.24556E-18
 -1      3349 1.08307E-04-5.25292E-05-2.36567E-05-2.82073E-05-2.10276E-18-1.32415E-20
 -1      3350 1.19008E-04-5.62665E-05-2.69737E-05-2.08999E-05-1.89090E-18 1.18483E-18
 -1      3351 6.11598E-05-2.48099E-05-1.51837E-05-2.78027E-05 3.07367E-19 9.17866E-19
 -1      3352 7.47851E-05-3.42794E-05-1.72646E-05-3.32662E-05 9.86846E-19 2.03171E-18
 -1      3353 8.42147E-05-3.67468E-05-2.00384E-05-2.95109E-05 1.18021E-18 5.45410E-19
 -1      3354 8.74788E-05-1.39505E-05-3.15240E-05 5.17219E-08 1.12358E-18-2.10150E-18
 -1      3355 8.70273E-05-1.35440E-05-3.15110E-05-1.12233E-07 8.74431E-19-2.17153E-18
 -1      3356 1.28180E-04-3.57158E-05-3.97725E-05 1.44603E-05-9.47406E-19-2.22391E-18
 -1      3357 1.23397E-04-2.42555E-05-4.31388E-05-1.32653E-05-3.34398E-18 1.13582E-18
 -1      3358 1.30009E-04-4.37676E-05-3.72237E-05 1.23548E-05 3.31852E-19-2.05003E-18
 -1      3359 1.27034E-04-3.15424E-05-4.11119E-05-1.47519E-05-2.72443E-18 1.05035E-18
 -1      3360 1.28404E-04-3.96742E-05-3.86410E-05-1.30999E-05-1.80963E-18 8.99192E-19
 -1      3361 1.33826E-04-4.76261E-05-3.69618E-05-7.76304E-06-1.25324E-18 1.31571E-18
 -1      3362 8.67740E-05-1.32993E-05-3.15032E-05-1.99264E-08 7.26035E-19-2.19185E-18
 -1      3363 8.67440E-05-1.32737E-05-3.15030E-05-1.52961E-07 4.17985E-19-2.25878E-18
 -1      3364 8.73080E-05-1.45025E-05-3.11763E-05-2.64019E-07 6.70627E-19-1.99002E-18
 -1      3365 9.22401E-05-1.93101E-05-3.12335E-05-5.32983E-07 1.68257E-18-1.08860E-18
 -1      3366 9.11146E-05-1.74884E-05-3.15685E-05 5.69973E-07 1.82242E-18-1.36484E-18
 -1      3367 8.99855E-05-1.63687E-05-3.15692E-05 2.99325E-07 1.58832E-18-1.49902E-18
 -1      3368 9.26946E-05-3.94095E-05-2.27173E-05 2.56696E-05-2.35139E-18-2.20440E-19
 -1      3369 8.47408E-05-3.71339E-05-2.01771E-05 3.04486E-05-2.52281E-18 8.13019E-19
 -1      3370 7.78552E-05-3.10362E-05-1.99390E-05 2.72703E-05-1.62158E-18 1.02110E-18
 -1      3371 8.97429E-05-1.61100E-05-3.15746E-05-3.24338E-07-3.91810E-19-2.26914E-18
 -1      3372 9.08711E-05-1.72325E-05-3.15766E-05-5.84466E-07-6.27257E-19-2.37135E-18
 -1      3373 1.25580E-04-5.54695E-05-3.02911E-05 9.59669E-06-1.05482E-19 1.75439E-18
 -1      3374 9.45670E-05-2.19689E-05-3.11167E-05 6.84651E-07-1.09077E-18-1.75900E-18
 -1      3375 9.48115E-05-2.28343E-05-3.08526E-05 2.13889E-06-9.80708E-19-1.69358E-18
 -1      3376 9.37448E-05-2.20015E-05-3.07446E-05 2.72779E-06-7.94980E-19-1.60382E-18
 -1      3377 9.52495E-05-2.85677E-05-2.85781E-05-2.64354E-08 2.00606E-18-7.27547E-19
 -1      3378 9.52457E-05-2.85675E-05-2.85763E-05-3.03258E-08 1.37562E-18 4.42804E-20
 -1      3379 9.52446E-05-2.85626E-05-2.85779E-05-2.85303E-08 1.24758E-18 5.28941E-19
 -1      3380 9.33099E-05-1.96447E-05-3.15744E-05-1.00055E-06-1.11895E-18-2.06227E-18
 -1      3381 7.23795E-05-3.37073E-05-1.61395E-05-3.38983E-05-2.09339E-18-2.93529E-18
 -1      3382 1.23808E-04-5.61395E-05-2.89346E-05-1.38254E-05-1.52388E-18 1.73282E-18
 -1      3383 1.25609E-04-5.41237E-05-3.06828E-05-6.19263E-06-1.38028E-18 2.11314E-18
 -1      3384 1.17971E-04-5.32553E-05-2.76538E-05-1.63955E-05-1.45322E-18 1.36334E-18
 -1      3385 9.94420E-05-3.17650E-05-2.90549E-05-1.09482E-05-8.43228E-20-1.45130E-19
 -1      3386 1.00444E-04-3.14390E-05-2.95688E-05-9.71668E-06-9.52664E-20-2.67424E-19
 -1      3387 9.93094E-05-3.01964E-05-2.95914E-05-9.64113E-06-4.87354E-21-3.46990E-19
 -1      3388 1.20970E-04-3.31551E-05-3.78015E-05 1.33985E-05 5.85670E-19 2.49511E-18
 -1      3389 1.23176E-04-3.91519E-05-3.63851E-05 1.25913E-05 1.66654E-19 2.37712E-18
 -1      3390 5.13326E-05-1.91941E-05-1.33528E-05-2.10009E-05-1.34080E-18-3.72229E-18
 -1      3391 5.67759E-05-1.69752E-05-1.69702E-05-1.58615E-05 3.84818E-19 1.01051E-18
 -1      3392 5.83731E-05-2.06767E-05-1.57924E-05-2.24842E-05 3.51730E-19 5.95570E-19
 -1      3393 6.78017E-05-2.41023E-05-1.85002E-05-2.32865E-05 6.61533E-19 4.99485E-19
 -1      3394 4.91898E-05-1.32740E-05-1.48959E-05-1.67453E-06-9.34143E-20 2.39758E-18
 -1      3395 9.52445E-05-2.85568E-05-2.85804E-05-2.45770E-08 1.75034E-18 6.66595E-19
 -1      3396 9.52435E-05-2.85519E-05-2.85820E-05-2.06965E-08 1.01213E-18 1.26474E-18
 -1      3397 9.52488E-05-2.85543E-05-2.85835E-05-2.05348E-08 1.56914E-18-7.85252E-19
 -1      3398 9.52512E-05-2.85594E-05-2.85823E-05-1.18654E-08 9.17682E-19-8.15846E-20
 -1      3399 9.52510E-05-2.85605E-05-2.85817E-05-1.56618E-08 1.42256E-18 3.15408E-19
 -1      3400 9.52512E-05-2.85636E-05-2.85805E-05-1.89606E-08 2.37601E-18-2.74523E-19
 -1      3401 9.52502E-05-2.85646E-05-2.85795E-05-2.26403E-08 2.41708E-18-9.97314E-19
 -1      3402 9.52499E-05-2.85576E-05-2.85823E-05-2.08528E-08 2.39517E-18-3.21936E-19
 -1      3403 9.52504E-05-2.85514E-05-2.85851E-05-1.44802E-08 1.54789E-18-1.09649E-18
 -1      3404 9.52506E-05-2.85565E-05-2.85833E-05-4.88700E-09 1.22202E-18-1.49482E-18
 -1      3405 9.52507E-05-2.85572E-05-2.85830E-05-8.55323E-09 8.97807E-19-3.49956E-19
 -1      3406 9.52496E-05-2.85460E-05-2.85871E-05-8.31711E-09 1.43461E-18-6.26222E-19
 -1      3407 9.52489E-05-2.85429E-05-2.85881E-05-2.75157E-09 5.19101E-19-2.13709E-18
 -1      3408 1.23237E-04-5.75823E-05-2.79764E-05 1.77656E-05 7.49677E-19 1.90355E-18
 -1      3409 9.52505E-05-4.44346E-05-2.15095E-05-3.09390E-05-2.27068E-18-9.48306E-19
 -1      3410 1.02436E-04-4.93981E-05-2.25860E-05-3.05770E-05-2.18005E-18-1.45319E-19
 -1      3411 1.07885E-04-4.97915E-05-2.47751E-05-2.43969E-05-1.75004E-18 1.80339E-19
 -1      3412 5.52584E-05-1.52189E-05-1.69383E-05 9.09882E-06 9.26998E-19-3.14096E-18
 -1      3413 4.72139E-05-1.28680E-05-1.42230E-05 4.51606E-06 3.99733E-19-3.97650E-18
 -1      3414 4.99885E-05-1.34768E-05-1.54803E-05-4.30442E-06-1.02153E-19-3.56617E-18
 -1      3415 9.65876E-05-4.50268E-05-2.17288E-05 3.03287E-05 2.05173E-18 3.11999E-19
 -1      3416 9.07526E-05-3.94379E-05-2.18856E-05 2.84888E-05 1.90344E-18-2.04850E-19
 -1      3417 1.04145E-04-4.90644E-05-2.38342E-05 2.71467E-05 1.85222E-18 7.52112E-19
 -1      3418 5.57957E-05-1.86687E-05-1.54327E-05 2.05145E-05-1.03523E-19 1.33731E-18
 -1      3419 5.56271E-05-1.57717E-05-1.68932E-05 1.35026E-05-2.17899E-19 1.32682E-18
 -1      3420 6.50988E-05-2.27751E-05-1.79922E-05 2.25173E-05-6.99983E-19 1.31645E-18
 -1      3421 9.77919E-05-2.83239E-05-2.97534E-05-8.66922E-06 5.35160E-19-3.49609E-19
 -1      3422 9.62546E-05-2.72059E-05-2.96117E-05-8.63778E-06 5.41499E-19-7.17934E-19
 -1      3423 9.85419E-05-2.92021E-05-2.97104E-05-9.11506E-06 1.97974E-19-3.95085E-19
 -1      3424 7.79857E-05-2.96874E-05-2.05274E-05 2.54301E-05 1.92928E-18-8.10081E-19
 -1      3425 6.80066E-05-2.56103E-05-1.78290E-05 2.61935E-05 1.84428E-18-1.97030E-18
 -1      3426 6.45163E-05-2.07221E-05-1.86603E-05 1.96864E-05 1.43669E-18-2.30732E-18
 -1      3427 8.89735E-05-1.53674E-05-3.15574E-05 2.44742E-07 1.59137E-18-1.64288E-18
 -1      3428 8.81465E-05-1.45967E-05-3.15412E-05 2.15283E-08 1.29360E-18-1.90850E-18
 -1      3429 8.82569E-05-1.53921E-05-3.12033E-05-4.98098E-07 1.11040E-18-1.83951E-18
 -1      3430 8.99724E-05-1.70343E-05-3.12359E-05-5.84150E-07 1.48246E-18-1.46094E-18
 -1      3431 1.16396E-04-5.14243E-05-2.79539E-05 1.38000E-05-1.29658E-18-6.36747E-19
 -1      3432 1.13144E-04-5.19229E-05-2.61271E-05 2.03060E-05-1.77753E-18-1.60251E-18
 -1      3433 1.04791E-04-4.63031E-05-2.50466E-05 2.19902E-05-1.65619E-18-6.28776E-19
 -1      3434 8.79597E-05-1.44014E-05-3.15423E-05-1.21456E-07-9.29854E-21-2.29160E-18
 -1      3435 8.87525E-05-1.51447E-05-3.15600E-05-3.22878E-07-1.94428E-19-2.38512E-18
 -1      3436 8.97033E-05-1.67633E-05-3.12403E-05 5.23708E-07-3.68554E-19-2.13922E-18
 -1      3437 9.64239E-05-2.54682E-05-3.04098E-05-4.17924E-06 1.25485E-18-4.20754E-19
 -1      3438 9.62400E-05-2.48208E-05-3.05951E-05-2.86119E-06 1.51763E-18-3.92956E-19
 -1      3439 9.54146E-05-2.37516E-05-3.07258E-05-2.48565E-06 1.59461E-18-5.05534E-19
 -1      3440 9.54769E-05-2.47547E-05-3.03173E-05-4.77233E-06 1.13474E-18-5.44322E-19
 -1      3441 9.52481E-05-2.85643E-05-2.85788E-05 2.68065E-08 7.06428E-19 2.42860E-18
 -1      3442 9.52495E-05-2.85654E-05-2.85790E-05 2.50789E-08 1.36845E-18 1.12265E-18
 -1      3443 9.52498E-05-2.85551E-05-2.85833E-05 1.99615E-08 2.35591E-18-6.24149E-19
 -1      3444 9.52483E-05-2.85567E-05-2.85819E-05 2.28781E-08 8.32650E-19 2.65367E-18
 -1      3445 1.17070E-04-5.31861E-05-2.70729E-05 1.78625E-05 1.02037E-18 1.13862E-18
 -1      3446 9.22909E-05-2.42719E-05-2.91550E-05 8.74996E-06 9.70986E-21-1.10735E-18
 -1      3447 9.24701E-05-2.49834E-05-2.89054E-05 9.74877E-06 1.66961E-19-9.65246E-19
 -1      3448 9.23062E-05-2.56907E-05-2.85519E-05 1.09034E-05 2.25295E-19-7.65865E-19
 -1      3449 9.28555E-05-2.67757E-05-2.82882E-05 1.18570E-05 4.07322E-19-6.84662E-19
 -1      3450 9.03622E-05-2.41045E-05-2.84001E-05 1.01376E-05 2.83871E-19-9.54842E-19
 -1      3451 9.30301E-05-2.79365E-05-2.78909E-05 1.31559E-05 5.47937E-19-5.05517E-19
 -1      3452 9.42570E-05-2.96816E-05-2.76240E-05 1.40517E-05 6.42867E-19-5.72436E-19
 -1      3453 9.02803E-05-2.59397E-05-2.75959E-05 1.26669E-05 5.44741E-19-4.56176E-19
 -1      3454 9.51694E-05-3.16352E-05-2.71962E-05 1.55326E-05 7.84456E-19-6.19561E-19
 -1      3455 9.74758E-05-3.43342E-05-2.69872E-05 1.61966E-05 9.13199E-19-5.64011E-19
 -1      3456 9.11769E-05-2.90160E-05-2.66931E-05 1.56672E-05 7.01349E-19-7.38417E-19
 -1      3457 9.98099E-05-3.74600E-05-2.66200E-05 1.76938E-05 9.60500E-19-5.94773E-19
 -1      3458 1.03816E-04-4.12399E-05-2.66825E-05 1.75324E-05 1.02366E-18-4.41675E-19
 -1      3459 9.40717E-05-3.40816E-05-2.57619E-05 1.91511E-05 9.85721E-19-8.22694E-19
 -1      3460 1.05155E-04-4.44034E-05-2.58471E-05 2.03990E-05 1.47602E-18-1.00483E-19
 -1      3461 1.10725E-04-4.87925E-05-2.63842E-05 1.91578E-05 1.08669E-18 4.35170E-19
 -1      3462 9.52471E-05-2.85335E-05-2.85916E-05 5.95897E-09 7.44837E-19-7.00391E-19
 -1      3463 9.52463E-05-2.85313E-05-2.85924E-05 3.54398E-09 7.91485E-19-4.81601E-19
 -1      3464 1.12850E-04-4.87895E-05-2.74419E-05-1.49178E-05 1.95088E-18-5.23443E-19
 -1      3465 1.07737E-04-4.45274E-05-2.69056E-05-1.62971E-05 1.34657E-18-3.81927E-19
 -1      3466 1.03353E-04-4.04519E-05-2.69027E-05-1.58923E-05 9.62256E-19-2.67139E-19
 -1      3467 9.96981E-05-3.67614E-05-2.68760E-05-1.58554E-05 1.00767E-18-2.15966E-19
 -1      3468 1.00916E-04-4.13849E-05-2.56366E-05-1.97777E-05 1.20297E-18-4.55651E-19
 -1      3469 9.73576E-05-3.38696E-05-2.71582E-05-1.46336E-05 1.27972E-18-3.18015E-19
 -1      3470 9.51383E-05-3.13154E-05-2.73172E-05-1.40189E-05 9.15383E-19 4.55827E-19
 -1      3471 9.45001E-05-3.38265E-05-2.60727E-05-1.72121E-05 1.24545E-18-1.61595E-19
 -1      3472 9.41297E-05-2.95343E-05-2.76428E-05-1.27623E-05 5.44260E-20 4.31034E-19
 -1      3473 9.29191E-05-2.79654E-05-2.78320E-05-1.19948E-05-4.10957E-19-6.65527E-20
 -1      3474 9.14481E-05-2.90586E-05-2.67831E-05-1.42916E-05 5.52263E-19-5.61206E-19
 -1      3475 9.26433E-05-2.69801E-05-2.81125E-05-1.08862E-05-6.08149E-19-1.81806E-19
 -1      3476 9.20746E-05-2.61197E-05-2.82719E-05-1.01186E-05-5.82552E-19-5.92838E-20
 -1      3477 9.02801E-05-2.62669E-05-2.74523E-05-1.17270E-05-5.64837E-19-1.00220E-18
 -1      3478 9.21812E-05-2.56730E-05-2.84845E-05-9.18896E-06-2.97425E-19-2.80987E-19
 -1      3479 9.19845E-05-2.52799E-05-2.85968E-05-8.47106E-06-4.56597E-19 2.24976E-19
 -1      3480 9.01766E-05-2.48791E-05-2.79881E-05-9.62662E-06-5.97401E-19-6.70386E-20
 -1      3481 9.22684E-05-2.51701E-05-2.87438E-05-7.69174E-06-1.24939E-18 6.84247E-20
 -1      3482 9.22671E-05-2.50652E-05-2.88108E-05-7.03733E-06-1.88795E-18 1.72763E-20
 -1      3483 9.05960E-05-2.43722E-05-2.83781E-05-7.91556E-06-6.34341E-19 3.69591E-19
 -1      3484 9.26127E-05-2.51513E-05-2.89033E-05-6.37725E-06-2.15482E-18-5.13436E-21
 -1      3485 9.27018E-05-2.52122E-05-2.89338E-05-5.78973E-06-1.57360E-18-1.42198E-19
 -1      3486 9.12351E-05-2.43933E-05-2.86403E-05-6.49832E-06-1.97237E-18 4.16462E-19
 -1      3487 9.30476E-05-2.54012E-05-2.89848E-05-5.22710E-06-1.36733E-18-1.31840E-18
 -1      3488 9.31681E-05-2.55481E-05-2.89890E-05-4.70777E-06-7.73635E-19-1.84953E-18
 -1      3489 9.19266E-05-2.47085E-05-2.88010E-05-5.30438E-06-2.33476E-18 1.69713E-19
 -1      3490 9.34830E-05-2.57801E-05-2.90103E-05-4.22883E-06 7.55956E-19-2.14900E-18
 -1      3491 9.36045E-05-2.59629E-05-2.89972E-05-3.77752E-06 1.13426E-18-1.60391E-18
 -1      3492 9.25833E-05-2.51668E-05-2.88865E-05-4.29059E-06-4.88011E-19-7.89804E-19
 -1      3493 9.38756E-05-2.62017E-05-2.89987E-05-3.37277E-06 5.09691E-19-2.28499E-18
 -1      3494 9.39840E-05-2.63904E-05-2.89755E-05-2.98757E-06-1.33519E-19-2.35341E-18
 -1      3495 9.31638E-05-2.56730E-05-2.89192E-05-3.43050E-06 7.59891E-19-1.81932E-18
 -1      3496 9.42086E-05-2.66155E-05-2.89647E-05-2.64950E-06-5.50934E-19-1.84101E-18
 -1      3497 9.42989E-05-2.67933E-05-2.89367E-05-2.32673E-06-2.59721E-19-1.73046E-18
 -1      3498 9.36541E-05-2.61703E-05-2.89172E-05-2.70624E-06-6.23001E-20-1.97087E-18
 -1      3499 9.44794E-05-2.69940E-05-2.89190E-05-2.04827E-06 3.58795E-19-1.90895E-18
 -1      3500 9.45512E-05-2.71524E-05-2.88900E-05-1.78259E-06 7.51937E-19-1.98494E-18
 -1      3501 9.40544E-05-2.66271E-05-2.88939E-05-2.10365E-06-1.24111E-19-1.18093E-18
 -1      3502 9.46929E-05-2.73246E-05-2.88693E-05-1.55652E-06 7.62847E-19-1.93298E-18
 -1      3503 9.47481E-05-2.74605E-05-2.88414E-05-1.34156E-06 6.54651E-19-2.04452E-18
 -1      3504 9.43727E-05-2.70280E-05-2.88593E-05-1.60908E-06 6.10158E-19-1.83248E-18
 -1      3505 9.48570E-05-2.76042E-05-2.88202E-05-1.16081E-06 6.29837E-19-1.94707E-18
 -1      3506 9.48983E-05-2.77174E-05-2.87949E-05-9.89827E-07 9.27305E-19-1.95738E-18
 -1      3507 9.46201E-05-2.73686E-05-2.88201E-05-1.20902E-06 9.92964E-19-2.41010E-18
 -1      3508 9.49802E-05-2.78345E-05-2.87747E-05-8.47652E-07 1.03929E-18-2.54366E-18
 -1      3509 9.50103E-05-2.79268E-05-2.87525E-05-7.13948E-07 3.57881E-19-1.51094E-18
 -1      3510 9.48087E-05-2.76507E-05-2.87805E-05-8.90498E-07 6.92746E-19-2.19015E-18
 -1      3511 9.50707E-05-2.80202E-05-2.87343E-05-6.03950E-07 1.31096E-19-2.29210E-19
 -1      3512 9.50919E-05-2.80937E-05-2.87154E-05-5.01161E-07 7.13391E-19-5.92046E-19
 -1      3513 9.49493E-05-2.78793E-05-2.87433E-05-6.41018E-07 8.94762E-19-6.00345E-19
 -1      3514 9.51353E-05-2.81668E-05-2.86994E-05-4.17480E-07 3.89377E-19-1.17209E-18
 -1      3515 9.51499E-05-2.82244E-05-2.86837E-05-3.39822E-07-5.77341E-19-1.30445E-18
 -1      3516 9.50518E-05-2.80608E-05-2.87098E-05-4.48826E-07-1.04279E-19-8.74922E-19
 -1      3517 9.51802E-05-2.82806E-05-2.86702E-05-2.77278E-07-4.49581E-19 3.47094E-19
 -1      3518 9.51897E-05-2.83249E-05-2.86574E-05-2.19685E-07 5.17119E-19 3.37754E-19
 -1      3519 9.51247E-05-2.82022E-05-2.86806E-05-3.03269E-07 2.23494E-19-1.09749E-18
 -1      3520 9.52102E-05-2.83673E-05-2.86461E-05-1.73839E-07 2.79085E-19 1.05606E-18
 -1      3521 9.52160E-05-2.84008E-05-2.86358E-05-1.32003E-07 9.43909E-19 1.29270E-18
 -1      3522 9.51750E-05-2.83105E-05-2.86559E-05-1.95021E-07 7.35204E-19 1.44834E-18
 -1      3523 9.52292E-05-2.84323E-05-2.86266E-05-9.91384E-08 1.61490E-18 1.96423E-18
 -1      3524 9.52325E-05-2.84573E-05-2.86185E-05-6.94942E-08 1.76829E-18 2.29232E-18
 -1      3525 9.52082E-05-2.83920E-05-2.86353E-05-1.16148E-07 1.16806E-18 1.02579E-18
 -1      3526 9.52404E-05-2.84804E-05-2.86110E-05-4.66026E-08 8.53689E-19 1.53554E-18
 -1      3527 9.52419E-05-2.84989E-05-2.86045E-05-2.63093E-08 8.64215E-19 1.04513E-18
 -1      3528 9.52291E-05-2.84525E-05-2.86184E-05-6.00262E-08 5.96472E-19 1.05096E-18
 -1      3529 9.52462E-05-2.85158E-05-2.85984E-05-1.09113E-08 5.83721E-19 9.40130E-19
 -1      3530 9.52467E-05-2.85294E-05-2.85933E-05 2.04323E-09 7.66564E-19 6.56266E-19
 -1      3531 9.52411E-05-2.84969E-05-2.86046E-05-2.13623E-08 4.18504E-19 3.17371E-19
 -1      3532 1.23247E-04-5.08931E-05-3.11223E-05-3.02826E-06-9.09024E-19 2.22676E-18
 -1      3533 1.05980E-04-4.01405E-05-2.80914E-05 1.17992E-05-6.24217E-19 7.89941E-20
 -1      3534 1.09484E-04-4.31311E-05-2.83809E-05 1.04440E-05-1.28834E-18-7.22857E-20
 -1      3535 1.12645E-04-4.63532E-05-2.82595E-05 1.12141E-05-9.70519E-19-4.31266E-19
 -1      3536 1.16817E-04-4.89980E-05-2.90241E-05 8.56531E-06-6.36122E-19-2.37169E-19
 -1      3537 1.00239E-04-3.45746E-05-2.80790E-05 1.20084E-05 6.31025E-19 9.20339E-19
 -1      3538 1.02771E-04-3.71343E-05-2.80937E-05 1.17739E-05 1.72866E-19 7.52299E-19
 -1      3539 1.01346E-04-3.81474E-05-2.71999E-05 1.46635E-05-5.87943E-19-2.01471E-19
 -1      3540 9.67853E-05-3.06558E-05-2.83123E-05 1.11136E-05-3.81310E-20 1.43715E-18
 -1      3541 9.84223E-05-3.24628E-05-2.82358E-05 1.13644E-05 2.41054E-19 1.15796E-18
 -1      3542 9.64272E-05-3.25711E-05-2.74385E-05 1.33007E-05 8.75232E-20 7.14565E-19
 -1      3543 9.49138E-05-2.82008E-05-2.85815E-05 9.85101E-06-4.94269E-20 2.49560E-18
 -1      3544 9.58775E-05-2.93302E-05-2.84941E-05 1.03191E-05 7.06214E-20 2.31477E-18
 -1      3545 9.38724E-05-2.89883E-05-2.78431E-05 1.15544E-05-6.13895E-19 1.53377E-18
 -1      3546 9.40297E-05-2.68234E-05-2.88029E-05 8.51341E-06 4.86512E-20 2.13081E-18
 -1      3547 9.45537E-05-2.74569E-05-2.87366E-05 9.06708E-06 4.07152E-19 2.93218E-18
 -1      3548 9.26977E-05-2.68780E-05-2.82262E-05 9.83197E-06-1.31201E-20 2.27149E-18
 -1      3549 9.37276E-05-2.61828E-05-2.89528E-05 7.21937E-06-1.29236E-19 2.81154E-18
 -1      3550 9.39831E-05-2.64800E-05-2.89161E-05 7.79015E-06-1.38518E-19 2.41467E-18
 -1      3551 9.23451E-05-2.57934E-05-2.85290E-05 8.26460E-06-1.82456E-19 3.22015E-18
 -1      3552 9.37415E-05-2.60103E-05-2.90346E-05 6.02228E-06-2.63435E-19 2.69864E-18
 -1      3553 9.38441E-05-2.60956E-05-2.90248E-05 6.57199E-06-1.19321E-19 2.54242E-18
 -1      3554 9.24440E-05-2.53847E-05-2.87403E-05 6.87746E-06 4.20066E-21 3.00144E-18
 -1      3555 9.39067E-05-2.61122E-05-2.90623E-05 4.94486E-06 6.34375E-19 2.20717E-18
 -1      3556 9.39287E-05-2.60736E-05-2.90727E-05 5.45205E-06 6.35470E-19 2.22400E-18
 -1      3557 9.27612E-05-2.53915E-05-2.88704E-05 5.66382E-06 5.81026E-19 9.66546E-19
 -1      3558 9.41282E-05-2.63585E-05-2.90513E-05 3.99646E-06 3.90792E-19 8.56805E-19
 -1      3559 9.41120E-05-2.62548E-05-2.90751E-05 4.44942E-06 5.54824E-19 1.97124E-18
 -1      3560 9.31587E-05-2.56320E-05-2.89366E-05 4.60942E-06 8.74078E-19 1.03998E-18
 -1      3561 9.43539E-05-2.66657E-05-2.90157E-05 3.17845E-06-1.32438E-19 3.77786E-19
 -1      3562 9.43233E-05-2.65343E-05-2.90468E-05 3.57224E-06-1.05047E-19 2.71811E-19
 -1      3563 9.35600E-05-2.59864E-05-2.89566E-05 3.70233E-06 1.25464E-19 6.95238E-19
 -1      3564 9.45587E-05-2.69834E-05-2.89665E-05 2.48646E-06 2.91603E-19 4.79361E-19
 -1      3565 9.45257E-05-2.68467E-05-2.90005E-05 2.82074E-06 4.97611E-20 6.35814E-19
 -1      3566 9.39259E-05-2.63788E-05-2.89456E-05 2.93138E-06 4.51869E-20-2.50873E-19
 -1      3567 9.47324E-05-2.72828E-05-2.89117E-05 1.91216E-06 6.48020E-19 1.12413E-18
 -1      3568 9.47026E-05-2.71537E-05-2.89454E-05 2.18982E-06 4.27626E-19 8.22823E-19
 -1      3569 9.42401E-05-2.67640E-05-2.89157E-05 2.28552E-06 2.23973E-19-1.18945E-19
 -1      3570 9.48731E-05-2.75492E-05-2.88570E-05 1.44415E-06 2.03804E-19 1.92889E-18
 -1      3571 9.48487E-05-2.74342E-05-2.88884E-05 1.67028E-06 8.66475E-19 1.53617E-18
 -1      3572 9.44988E-05-2.71169E-05-2.88759E-05 1.75310E-06-1.29942E-19 1.39692E-18
 -1      3573 9.49831E-05-2.77770E-05-2.88057E-05 1.06928E-06 3.10109E-19 2.10433E-18
 -1      3574 9.49642E-05-2.76786E-05-2.88337E-05 1.25008E-06 6.77286E-19 1.80261E-18
 -1      3575 9.47049E-05-2.74253E-05-2.88326E-05 1.32113E-06 1.70541E-19 2.34399E-18
 -1      3576 9.50665E-05-2.79659E-05-2.87598E-05 7.74112E-07-1.31806E-18 1.96576E-18
 -1      3577 9.50526E-05-2.78843E-05-2.87840E-05 9.16100E-07-7.80680E-19 1.40373E-18
 -1      3578 9.48646E-05-2.76860E-05-2.87898E-05 9.76177E-07-2.06306E-19 2.45704E-18
 -1      3579 9.51280E-05-2.81189E-05-2.87201E-05 5.45664E-07-1.73923E-18 2.14607E-18
 -1      3580 9.51183E-05-2.80528E-05-2.87404E-05 6.55219E-07-1.35626E-18 2.15901E-18
 -1      3581 9.49853E-05-2.79004E-05-2.87500E-05 7.05207E-07-1.51878E-18 2.20753E-18
 -1      3582 9.51721E-05-2.82400E-05-2.86866E-05 3.71915E-07-2.53015E-19 1.48812E-18
 -1      3583 9.51656E-05-2.81876E-05-2.87033E-05 4.54948E-07-1.27435E-18 2.07544E-18
 -1      3584 9.50743E-05-2.80727E-05-2.87145E-05 4.95888E-07-1.27632E-18 1.20732E-18
 -1      3585 9.52025E-05-2.83341E-05-2.86589E-05 2.42152E-07-8.40268E-19 1.54595E-18
 -1      3586 9.51985E-05-2.82933E-05-2.86724E-05 3.03915E-07 5.33498E-20 1.80967E-18
 -1      3587 9.51381E-05-2.82083E-05-2.86839E-05 3.36939E-07-2.42379E-19 1.05648E-18
 -1      3588 9.52226E-05-2.84057E-05-2.86366E-05 1.47152E-07-7.23165E-19 5.77648E-19
 -1      3589 9.52204E-05-2.83746E-05-2.86472E-05 1.92152E-07-1.03393E-18 1.07978E-18
 -1      3590 9.51823E-05-2.83130E-05-2.86581E-05 2.18405E-07-5.99661E-19 9.53149E-19
 -1      3591 9.52352E-05-2.84594E-05-2.86187E-05 7.91964E-08 6.26520E-20-1.23673E-19
 -1      3592 9.52342E-05-2.84360E-05-2.86271E-05 1.11190E-07 5.73657E-20-1.87275E-19
 -1      3593 9.52118E-05-2.83923E-05-2.86368E-05 1.31768E-07-3.13885E-20 1.49569E-19
 -1      3594 9.52423E-05-2.84991E-05-2.86046E-05 3.20138E-08-9.35868E-19 6.99973E-19
 -1      3595 9.52421E-05-2.84817E-05-2.86111E-05 5.40346E-08-2.66722E-19 9.31086E-20
 -1      3596 9.52303E-05-2.84515E-05-2.86194E-05 6.99331E-08-3.84525E-19 4.81922E-19
 -1      3597 9.52460E-05-2.85286E-05-2.85934E-05 4.81640E-10 1.12159E-19-1.45937E-19
 -1      3598 9.52460E-05-2.85156E-05-2.85984E-05 1.48657E-08-7.43250E-19 1.45205E-19
 -1      3599 9.52409E-05-2.84950E-05-2.86054E-05 2.70610E-08-2.63344E-19 8.46076E-19
 -1      3600 9.52474E-05-2.85441E-05-2.85871E-05-1.26411E-08 1.59154E-18 1.21733E-19
 -1      3601 9.23275E-05-1.89365E-05-3.14542E-05-1.93476E-07-9.20649E-19-2.11965E-18
 -1      3602 9.45208E-05-2.51280E-05-2.97347E-05-7.23198E-06 7.82638E-19-9.85725E-19
 -1      3603 9.43134E-05-2.44663E-05-2.99297E-05-6.20895E-06 9.14474E-19-8.58640E-19
 -1      3604 5.53209E-05-1.78193E-05-1.59100E-05-1.75199E-05-9.58524E-19-3.30348E-18
 -1      3605 6.11562E-05-2.32006E-05-1.59148E-05-2.61800E-05-1.50055E-18-3.06001E-18
 -1      3606 9.21487E-05-1.94676E-05-3.11352E-05 9.95514E-07-7.44529E-19-1.95879E-18
 -1      3607 9.52454E-05-2.85286E-05-2.85930E-05 2.31157E-09 1.05730E-18-6.23735E-19
 -1      3608 9.52450E-05-2.85277E-05-2.85933E-05 2.48756E-10 8.56227E-19-2.99449E-18
 -1      3609 9.52427E-05-2.85140E-05-2.85977E-05 6.61112E-10 3.72020E-19-1.08000E-18
 -1      3610 9.27079E-05-2.20310E-05-3.02949E-05 4.26607E-06-4.16893E-19-1.52378E-18
 -1      3611 9.27348E-05-2.26629E-05-3.00307E-05 5.47768E-06-3.09613E-19-1.44174E-18
 -1      3612 1.01725E-04-3.58467E-05-2.82032E-05-1.27551E-05-2.61942E-19 8.29501E-20
 -1      3613 9.95176E-05-3.34482E-05-2.82620E-05-1.27826E-05-1.80704E-19-7.47498E-20
 -1      3614 1.29459E-04-4.54328E-05-3.62952E-05-8.98977E-06-1.12759E-18-1.48027E-18
 -1      3615 8.69391E-05-1.34522E-05-3.15105E-05-4.25275E-08 2.75432E-19-2.32597E-18
 -1      3616 8.73379E-05-1.38147E-05-3.15240E-05-1.92642E-07 1.11850E-19-2.32037E-18
 -1      3617 8.80573E-05-1.52000E-05-3.12032E-05 3.46116E-07 4.00684E-20-2.14005E-18
 -1      3618 1.19496E-04-5.26705E-05-2.83610E-05-1.26789E-05 2.43171E-18-6.06125E-19
 -1      3619 9.25316E-05-2.31883E-05-2.97221E-05 6.57836E-06-2.60350E-19-1.36997E-18
 -1      3620 9.25540E-05-2.37623E-05-2.94757E-05 7.65928E-06-1.40984E-19-1.30540E-18
 -1      3621 9.08337E-05-2.28915E-05-2.91137E-05 7.87943E-06 2.88933E-20-1.26333E-18
 -1      3622 5.38075E-05-1.32558E-05-1.72430E-05 2.72628E-06 1.27578E-19 2.37757E-18
 -1      3623 5.42248E-05-1.35940E-05-1.71150E-05-6.97530E-06 2.99102E-19 1.90074E-18
 -1      3624 9.52490E-05-2.85415E-05-2.85889E-05 1.14520E-08 1.27133E-18 1.86976E-18
 -1      3625 9.52487E-05-2.85385E-05-2.85903E-05 8.12611E-09 2.95819E-19 1.32410E-18
 -1      3626 9.52452E-05-2.85219E-05-2.85956E-05 3.12272E-09 1.16556E-18 4.60004E-20
 -1      3627 6.96794E-05-2.94212E-05-1.69514E-05-3.05215E-05-1.80834E-18-2.86784E-18
 -1      3628 8.39734E-05-3.82356E-05-1.95489E-05-3.25677E-05-2.05533E-18-2.28879E-18
 -1      3629 9.24802E-05-4.08304E-05-2.18843E-05-2.86213E-05-2.01094E-18-1.12370E-18
 -1      3630 7.27468E-05-2.77860E-05-1.90825E-05-2.61465E-05-1.53906E-18-2.62628E-18
 -1      3631 7.95694E-05-3.17936E-05-2.02552E-05-2.69984E-05 1.14396E-18 1.55457E-19
 -1      3632 9.10768E-05-3.95570E-05-2.21853E-05-2.73702E-05 1.99990E-18-1.17036E-18
 -1      3633 9.52467E-05-2.85308E-05-2.85925E-05-3.35768E-09 7.84336E-19-9.52911E-19
 -1      3634 9.30958E-05-2.09342E-05-3.09334E-05-1.64743E-06 1.60514E-18-9.78425E-19
 -1      3635 9.18358E-05-1.96464E-05-3.09493E-05-1.64611E-06 1.46759E-18-1.21488E-18
 -1      3636 9.93196E-05-4.24400E-05-2.42166E-05 2.33792E-05-2.00838E-18 1.48893E-20
 -1      3637 9.26907E-05-3.76737E-05-2.36039E-05 2.33951E-05-1.61148E-18 4.90723E-19
 -1      3638 1.04893E-04-4.44207E-05-2.58367E-05 1.89896E-05-8.18247E-19 1.89580E-19
 -1      3639 6.09769E-05-1.64070E-05-1.88980E-05-1.05627E-05 7.67483E-19 8.66038E-19
 -1      3640 1.11719E-04-5.06455E-05-2.63322E-05-1.95423E-05 2.06706E-18-1.26605E-18
 -1      3641 9.30769E-05-2.30939E-05-2.99925E-05-5.52547E-06 1.04741E-18-1.11801E-18
 -1      3642 9.42920E-05-2.38307E-05-3.01969E-05-5.08382E-06 1.06915E-18-8.06364E-19
 -1      3643 9.42807E-05-2.33444E-05-3.04007E-05-4.03161E-06 1.26886E-18-7.54711E-19
 -1      3644 9.71267E-05-4.03223E-05-2.43766E-05 2.38434E-05 1.47961E-18-5.02396E-19
 -1      3645 9.13234E-05-2.18369E-05-2.97726E-05 5.69995E-06-2.08815E-19-1.39333E-18
 -1      3646 9.24246E-05-2.04916E-05-3.08391E-05 2.03628E-06-6.93909E-19-1.80861E-18
 -1      3647 9.26091E-05-2.12880E-05-3.05668E-05 3.25376E-06-5.48215E-19-1.70690E-18
 -1      3648 9.14163E-05-2.05308E-05-3.03727E-05 3.59219E-06-3.19555E-19-1.68379E-18
 -1      3649 9.10175E-05-1.87837E-05-3.09534E-05 1.56085E-06-4.67423E-19-1.86457E-18
 -1      3650 9.52449E-05-2.85277E-05-2.85932E-05-5.52870E-10 6.73387E-19-3.14082E-18
 -1      3651 9.52452E-05-2.85284E-05-2.85930E-05-2.57449E-09 3.23110E-19-1.28110E-18
 -1      3652 9.52414E-05-2.85112E-05-2.85983E-05-1.58963E-10 9.30990E-19-2.62773E-18
 -1      3653 9.52481E-05-2.85394E-05-2.85892E-05 1.01071E-08 1.25209E-18 5.63692E-19
 -1      3654 9.52481E-05-2.85488E-05-2.85854E-05 1.73702E-08 1.09939E-18 1.41403E-18
 -1      3655 9.52489E-05-2.85476E-05-2.85863E-05 1.59407E-08 1.41777E-18-9.41149E-19
 -1      3656 9.52468E-05-2.85269E-05-2.85942E-05 1.83321E-09 5.26046E-19-6.13605E-19
 -1      3657 1.14472E-04-5.19428E-05-2.66487E-05-1.93394E-05-1.42786E-18 1.22114E-18
 -1      3658 1.17590E-04-5.18192E-05-2.83305E-05-1.33130E-05-1.09231E-18 1.61529E-18
 -1      3659 1.08802E-04-4.88017E-05-2.55953E-05-2.15838E-05-1.46727E-18 5.37204E-19
 -1      3660 9.80624E-05-3.15177E-05-2.84897E-05-1.20393E-05-2.39892E-19-2.77521E-19
 -1      3661 9.66882E-05-2.98264E-05-2.86289E-05-1.16316E-05-2.77015E-19-4.01169E-19
 -1      3662 9.62500E-05-3.15528E-05-2.77861E-05-1.36758E-05-4.35886E-19-6.03893E-19
 -1      3663 1.22479E-04-5.12008E-05-3.03323E-05 4.51242E-06-7.19746E-19-1.10306E-18
 -1      3664 1.25512E-04-5.10318E-05-3.19491E-05 3.45082E-07-8.55121E-19-1.04787E-18
 -1      3665 1.04361E-04-3.85798E-05-2.80991E-05-1.30488E-05-5.72323E-19 4.98299E-19
 -1      3666 1.00150E-04-3.65368E-05-2.73686E-05-1.51982E-05-6.60643E-19 8.68308E-20
 -1      3667 1.07516E-04-4.15861E-05-2.82418E-05-1.22363E-05-7.26288E-19 7.25394E-19
 -1      3668 9.52483E-05-2.85382E-05-2.85902E-05-8.22511E-09 1.63095E-18-9.87823E-19
 -1      3669 9.52487E-05-2.85414E-05-2.85889E-05-1.09945E-08 1.46106E-18-5.34134E-19
 -1      3670 5.53653E-05-1.50716E-05-1.68362E-05-1.06768E-05-5.28046E-19-3.09871E-18
 -1      3671 6.26173E-05-1.83609E-05-1.88970E-05-1.54148E-05-8.23194E-19-2.79010E-18
 -1      3672 5.77143E-05-1.44961E-05-1.84690E-05-3.85668E-06 1.60625E-19-2.88184E-18
 -1      3673 9.52487E-05-2.85481E-05-2.85860E-05-1.64578E-08 1.39996E-18 2.80164E-19
 -1      3674 9.52479E-05-2.85405E-05-2.85888E-05-1.22393E-08 1.55224E-18-4.17644E-19
 -1      3675 9.52467E-05-2.85248E-05-2.85952E-05 5.97211E-10 4.97416E-19-3.87045E-20
 -1      3676 9.52493E-05-2.85451E-05-2.85877E-05-1.34037E-08 1.36556E-18-5.20217E-19
 -1      3677 9.45665E-05-2.57619E-05-2.94811E-05-8.25870E-06 4.55908E-19-9.50735E-19
 -1      3678 9.31204E-05-2.44337E-05-2.94432E-05-7.70069E-06 6.20477E-19-9.83485E-19
 -1      3679 9.49744E-05-2.65647E-05-2.93054E-05-9.10451E-06 2.76796E-19-7.31948E-19
 -1      3680 9.52495E-05-2.85468E-05-2.85869E-05 1.44672E-08 1.84521E-18-7.28336E-19
 -1      3681 9.66470E-05-4.05306E-05-2.39030E-05-2.33975E-05 1.75950E-18-1.01543E-18
 -1      3682 1.01661E-04-4.49986E-05-2.39577E-05-2.45403E-05 2.07219E-18-1.31865E-18
 -1      3683 7.49519E-05-2.73865E-05-2.02026E-05-2.43403E-05 8.95380E-19 3.55172E-19
 -1      3684 8.22084E-05-3.01030E-05-2.21764E-05-2.25398E-05 1.42772E-18-5.83672E-19
 -1      3685 7.08218E-05-2.29940E-05-2.05142E-05-1.99828E-05 8.21040E-19-5.44351E-20
 -1      3686 6.08237E-05-1.72228E-05-1.83504E-05 1.47803E-05 1.27267E-18-2.91813E-18
 -1      3687 5.90741E-05-1.55392E-05-1.86006E-05 8.35361E-06 9.16648E-19-2.74751E-18
 -1      3688 6.85238E-05-2.09679E-05-2.02367E-05 1.75780E-05 1.58510E-18-2.06717E-18
 -1      3689 7.31518E-05-2.62166E-05-1.98388E-05 2.40924E-05-9.97381E-19 1.06250E-18
 -1      3690 6.92496E-05-2.19554E-05-2.02612E-05 1.90492E-05-7.91446E-19 4.98373E-19
 -1      3691 8.11439E-05-2.97298E-05-2.19872E-05 2.26928E-05-1.52015E-18 1.72901E-19
 -1      3692 8.89377E-05-1.68503E-05-3.09009E-05 1.18810E-06-8.51849E-20-1.96891E-18
 -1      3693 8.99025E-05-1.77845E-05-3.09206E-05 1.29774E-06-3.52703E-19-1.88228E-18
 -1      3694 9.01870E-05-1.87210E-05-3.06176E-05 2.25383E-06-2.40649E-19-1.75148E-18
 -1      3695 9.73859E-05-2.90623E-05-2.93129E-05-1.00507E-05 1.10447E-19-5.11519E-19
 -1      3696 1.30927E-04-4.75172E-05-3.56905E-05 6.38540E-06-3.33241E-19 2.98277E-18
 -1      3697 6.29131E-05-1.68068E-05-1.97197E-05 1.13980E-05-7.16199E-19 1.29159E-18
 -1      3698 5.76008E-05-1.43863E-05-1.82256E-05 7.18465E-06-4.18666E-19 2.04831E-18
 -1      3699 6.14823E-05-1.46488E-05-2.00557E-05 2.35855E-06-8.51400E-20 1.61680E-18
 -1      3700 8.72351E-05-1.44328E-05-3.11755E-05 5.04883E-08 2.81819E-19-2.05993E-18
 -1      3701 9.52475E-05-2.85323E-05-2.85922E-05 7.43279E-09 8.61043E-19 1.01639E-18
 -1      3702 9.52462E-05-2.85313E-05-2.85923E-05-3.73987E-09 8.64557E-19-5.91815E-19
 -1      3703 9.52470E-05-2.85335E-05-2.85915E-05-6.17460E-09 1.84059E-18-1.32273E-18
 -1      3704 9.52451E-05-2.85216E-05-2.85955E-05-3.21470E-09 1.89033E-18-9.98676E-19
 -1      3705 9.52425E-05-2.85141E-05-2.85976E-05-8.10939E-10 3.51849E-19-1.00371E-18
 -1      3706 9.11070E-05-3.71625E-05-2.30311E-05 2.50398E-05 1.72703E-18-3.64198E-19
 -1      3707 8.48629E-05-3.33815E-05-2.17699E-05 2.62981E-05 1.89181E-18-4.93000E-19
 -1      3708 7.93159E-05-2.83390E-05-2.17724E-05 2.28599E-05 1.46575E-18-9.35429E-19
 -1      3709 9.08028E-05-3.45196E-05-2.41428E-05 2.22407E-05 1.21384E-18-7.86100E-19
 -1      3710 8.86819E-05-1.66504E-05-3.08796E-05-1.12933E-06 1.22764E-18-1.52970E-18
 -1      3711 8.79686E-05-1.60046E-05-3.08594E-05-9.96704E-07 9.51751E-19-1.83266E-18
 -1      3712 8.78380E-05-1.65879E-05-3.05110E-05-1.19097E-06 7.49026E-19-1.61438E-18
 -1      3713 8.74450E-05-1.55163E-05-3.08373E-05-5.81517E-07 7.19918E-19-1.89952E-18
 -1      3714 8.71695E-05-1.52728E-05-3.08283E-05-3.80138E-07 5.44142E-19-1.84544E-18
 -1      3715 8.94341E-05-2.15493E-05-2.91101E-05 6.61172E-06-1.03542E-20-1.30390E-18
 -1      3716 8.91608E-05-2.20443E-05-2.87562E-05 7.67067E-06 1.56137E-19-1.25997E-18
 -1      3717 9.18684E-05-2.24167E-05-2.97630E-05-5.73919E-06 9.51283E-19-1.09014E-18
 -1      3718 9.18495E-05-2.17296E-05-3.00548E-05-4.63415E-06 1.10061E-18-1.08653E-18
 -1      3719 9.28524E-05-2.17608E-05-3.04690E-05-3.57388E-06 1.30152E-18-8.58637E-19
 -1      3720 9.41046E-05-2.27198E-05-3.05846E-05-3.23181E-06 1.42928E-18-7.33305E-19
 -1      3721 8.74408E-05-2.36320E-05-2.73745E-05 1.12539E-05 6.18834E-19-8.85798E-19
 -1      3722 8.75821E-05-2.46725E-05-2.69183E-05 1.26134E-05 7.42050E-19-7.34122E-19
 -1      3723 8.68511E-05-2.56354E-05-2.62595E-05 1.44075E-05 7.87456E-19-8.15112E-19
 -1      3724 8.76191E-05-2.74339E-05-2.57308E-05 1.61623E-05 8.29378E-19-7.38595E-19
 -1      3725 8.39478E-05-2.32106E-05-2.60262E-05 1.28793E-05 7.71538E-19-1.16951E-18
 -1      3726 8.77778E-05-2.90148E-05-2.51929E-05 1.80149E-05 7.20793E-19-6.93134E-19
 -1      3727 8.97061E-05-3.19762E-05-2.46662E-05 2.01412E-05 8.56225E-19-9.41427E-19
 -1      3728 8.43728E-05-2.93554E-05-2.35849E-05 2.09886E-05 9.03635E-19-9.33483E-19
 -1      3729 8.32419E-05-2.55975E-05-2.47505E-05 1.66744E-05 7.43319E-19-1.02537E-18
 -1      3730 9.60034E-05-2.85521E-05-2.88858E-05-1.07300E-05-1.31465E-19-5.30238E-19
 -1      3731 9.52216E-05-2.74093E-05-2.90501E-05-1.00693E-05 7.08128E-20-6.49612E-19
 -1      3732 9.33714E-05-2.59847E-05-2.88961E-05-9.75980E-06 7.67763E-20-7.44065E-19
 -1      3733 9.06926E-05-2.67416E-05-2.74187E-05 1.13231E-05-1.14046E-18 2.02262E-18
 -1      3734 9.15848E-05-2.80381E-05-2.71884E-05 1.22301E-05-6.59276E-19 1.85783E-18
 -1      3735 9.52462E-05-2.85211E-05-2.85964E-05-8.56971E-10 8.61249E-19 1.10260E-18
 -1      3736 9.23634E-05-3.58519E-05-2.41124E-05-2.18303E-05 1.42723E-18-2.77271E-19
 -1      3737 1.19662E-04-4.98120E-05-2.98173E-05-6.43275E-06-8.19107E-19 1.70473E-18
 -1      3738 8.80067E-05-2.75635E-05-2.58464E-05-1.49815E-05 6.69141E-19-9.91709E-19
 -1      3739 8.70997E-05-2.58674E-05-2.62571E-05-1.34848E-05-7.43871E-20-8.08952E-19
 -1      3740 8.75902E-05-2.50025E-05-2.67786E-05-1.18324E-05-3.91704E-19-5.75681E-19
 -1      3741 8.73302E-05-2.41345E-05-2.71087E-05-1.06708E-05-6.97720E-19-6.61313E-19
 -1      3742 8.40560E-05-2.36055E-05-2.59085E-05-1.22977E-05-4.81949E-20-5.88367E-19
 -1      3743 8.80065E-05-2.37909E-05-2.74961E-05-9.48028E-06-6.37335E-19-2.70083E-19
 -1      3744 8.81266E-05-2.34423E-05-2.77441E-05-8.56300E-06 1.86108E-19 6.40026E-19
 -1      3745 8.53235E-05-2.25936E-05-2.68701E-05-9.50688E-06-1.63701E-19 4.33291E-19
 -1      3746 8.88439E-05-2.34293E-05-2.80211E-05-7.67944E-06-3.73905E-19 1.76850E-19
 -1      3747 8.91370E-05-2.33927E-05-2.81945E-05-6.93809E-06-1.57223E-18-3.96857E-19
 -1      3748 8.67605E-05-2.23976E-05-2.75680E-05-7.50186E-06-5.44108E-19 2.08826E-19
 -1      3749 8.98205E-05-2.35715E-05-2.83849E-05-6.25520E-06-2.25658E-18-7.38348E-19
 -1      3750 9.01723E-05-2.37131E-05-2.84977E-05-5.63919E-06-2.48320E-18-9.31257E-19
 -1      3751 8.81772E-05-2.26713E-05-2.80586E-05-6.01158E-06-2.05237E-18-1.58188E-18
 -1      3752 9.07894E-05-2.39939E-05-2.86224E-05-5.09101E-06-2.28880E-18-7.91106E-19
 -1      3753 9.11395E-05-2.42281E-05-2.86889E-05-4.57012E-06-1.96613E-18-8.33463E-19
 -1      3754 8.94813E-05-2.32046E-05-2.83907E-05-4.84997E-06-2.57019E-18-2.11499E-18
 -1      3755 9.16768E-05-2.45516E-05-2.87652E-05-4.12000E-06-1.34901E-18-7.51424E-20
 -1      3756 9.19949E-05-2.48229E-05-2.87985E-05-3.67705E-06 6.55508E-20-2.11132E-19
 -1      3757 9.06339E-05-2.38631E-05-2.86044E-05-3.91108E-06-1.05630E-18-1.70600E-20
 -1      3758 9.24487E-05-2.51501E-05-2.88404E-05-3.30338E-06 5.05272E-19-1.11399E-18
 -1      3759 9.27224E-05-2.54243E-05-2.88508E-05-2.92756E-06 4.72234E-19-1.03985E-18
 -1      3760 9.16213E-05-2.45569E-05-2.87321E-05-3.13675E-06-5.48996E-19-9.80951E-20
 -1      3761 9.30974E-05-2.57328E-05-2.88689E-05-2.61697E-06 2.61541E-19-1.37810E-18
 -1      3762 9.33240E-05-2.59900E-05-2.88646E-05-2.30130E-06-6.21907E-19-1.36749E-18
 -1      3763 9.24460E-05-2.52289E-05-2.87993E-05-2.49168E-06 1.01837E-19-9.31652E-19
 -1      3764 9.36273E-05-2.62670E-05-2.88672E-05-2.04502E-06-1.04991E-19-5.25109E-19
 -1      3765 9.38095E-05-2.64966E-05-2.88543E-05-1.78320E-06 6.75907E-19-5.88522E-19
 -1      3766 9.31202E-05-2.58464E-05-2.88253E-05-1.95551E-06 5.38622E-20-5.80348E-19
 -1      3767 9.40500E-05-2.67364E-05-2.88473E-05-1.57376E-06 2.89864E-19-3.90579E-19
 -1      3768 9.41930E-05-2.69341E-05-2.88300E-05-1.35957E-06 8.42101E-19-6.81226E-19
 -1      3769 9.36604E-05-2.63911E-05-2.88247E-05-1.51329E-06 2.21506E-19 4.64607E-19
 -1      3770 9.43807E-05-2.71363E-05-2.88178E-05-1.19041E-06 8.57645E-19-6.68191E-19
 -1      3771 9.44907E-05-2.73021E-05-2.87989E-05-1.01791E-06 7.39837E-19-7.55056E-19
 -1      3772 9.40858E-05-2.68575E-05-2.88083E-05-1.15208E-06 8.02540E-19 4.49288E-19
 -1      3773 9.46346E-05-2.74687E-05-2.87842E-05-8.83399E-07 9.81479E-19-1.08530E-18
 -1      3774 9.47174E-05-2.76047E-05-2.87656E-05-7.46755E-07 9.46112E-19-1.01764E-18
 -1      3775 9.44152E-05-2.72473E-05-2.87833E-05-8.61145E-07 9.26728E-19-1.08328E-19
 -1      3776 9.48256E-05-2.77392E-05-2.87503E-05-6.41538E-07 1.75782E-18-1.00483E-18
 -1      3777 9.48866E-05-2.78483E-05-2.87330E-05-5.35056E-07 1.11923E-18-4.51044E-19
 -1      3778 9.46657E-05-2.75663E-05-2.87547E-05-6.30643E-07 1.29319E-18-1.28847E-18
 -1      3779 9.49663E-05-2.79547E-05-2.87184E-05-4.54052E-07-2.11904E-19-3.72513E-19
 -1      3780 9.50102E-05-2.80407E-05-2.87030E-05-3.72447E-07-1.44216E-19-1.04669E-18
 -1      3781 9.48523E-05-2.78221E-05-2.87256E-05-4.50890E-07 6.93528E-19-8.86730E-19
 -1      3782 9.50675E-05-2.81234E-05-2.86896E-05-3.11118E-07 3.25465E-19-4.29376E-19
 -1      3783 9.50982E-05-2.81899E-05-2.86763E-05-2.49661E-07 8.24439E-19 2.51694E-19
 -1      3784 9.49882E-05-2.80234E-05-2.86981E-05-3.12956E-07 4.49180E-19-9.64602E-19
 -1      3785 9.51382E-05-2.82530E-05-2.86645E-05-2.04059E-07 8.04687E-19-2.12207E-19
 -1      3786 9.51590E-05-2.83036E-05-2.86533E-05-1.58645E-07 9.89360E-19 2.66253E-19
 -1      3787 9.50849E-05-2.81790E-05-2.86732E-05-2.08914E-07 7.15058E-19-1.85848E-19
 -1      3788 9.51860E-05-2.83510E-05-2.86432E-05-1.25426E-07 8.73936E-19-4.21981E-19
 -1      3789 9.51994E-05-2.83888E-05-2.86338E-05-9.25909E-08 7.37287E-19-3.31847E-19
 -1      3790 9.51516E-05-2.82972E-05-2.86513E-05-1.31893E-07 7.31307E-19-6.96764E-19
 -1      3791 9.52168E-05-2.84237E-05-2.86252E-05-6.90204E-08 5.00319E-19-8.47905E-19
 -1      3792 9.52247E-05-2.84518E-05-2.86175E-05-4.58494E-08 7.00101E-19-8.86780E-19
 -1      3793 9.51959E-05-2.83857E-05-2.86326E-05-7.61306E-08 3.64961E-19-7.28669E-19
 -1      3794 9.52354E-05-2.84772E-05-2.86103E-05-2.96412E-08 5.28558E-19-6.34800E-19
 -1      3795 9.52398E-05-2.84978E-05-2.86040E-05-1.37055E-08 5.67929E-19-1.07453E-18
 -1      3796 9.52234E-05-2.84507E-05-2.86167E-05-3.68384E-08 6.71264E-19-1.45284E-18
 -1      3797 1.07251E-04-4.46624E-05-2.69257E-05 1.61984E-05-8.03047E-19-9.03917E-19
 -1      3798 9.20922E-05-2.95356E-05-2.68058E-05 1.37803E-05-2.48851E-19 9.46288E-19
 -1      3799 9.39848E-05-3.17564E-05-2.66020E-05 1.46362E-05-3.71754E-19 7.66250E-19
 -1      3800 8.85810E-05-2.70573E-05-2.63515E-05 1.34999E-05-1.01887E-18 2.00378E-18
 -1      3801 1.15440E-04-4.77174E-05-2.90428E-05-9.06428E-06-5.91692E-19 1.42840E-18
 -1      3802 1.11752E-04-4.50040E-05-2.84659E-05-1.12850E-05-5.47272E-19 1.21656E-18
 -1      3803 9.03783E-05-2.52499E-05-2.79257E-05 9.27893E-06-2.60514E-19 2.26006E-18
 -1      3804 9.07286E-05-2.59440E-05-2.77335E-05 1.01124E-05-7.00299E-19 1.67208E-18
 -1      3805 8.82450E-05-2.49864E-05-2.71090E-05 1.07225E-05-9.18252E-19 2.29098E-18
 -1      3806 9.06448E-05-2.46278E-05-2.83064E-05 7.60242E-06-3.88802E-19 2.49045E-18
 -1      3807 9.06842E-05-2.49218E-05-2.81646E-05 8.33399E-06 4.36626E-20 3.11919E-18
 -1      3808 8.86627E-05-2.40199E-05-2.77030E-05 8.57460E-06-6.39659E-19 1.50340E-18
 -1      3809 9.11852E-05-2.45512E-05-2.85701E-05 6.21528E-06 4.55546E-19 1.77698E-18
 -1      3810 9.10638E-05-2.45923E-05-2.84760E-05 6.84795E-06 2.34527E-19 2.50877E-18
 -1      3811 8.94225E-05-2.37525E-05-2.81384E-05 6.89566E-06 1.02496E-19 2.21136E-18
 -1      3812 9.18195E-05-2.47895E-05-2.87386E-05 5.05284E-06 9.20171E-19 5.77529E-19
 -1      3813 9.16290E-05-2.46835E-05-2.86833E-05 5.60046E-06 5.97692E-19 1.48431E-18
 -1      3814 9.02978E-05-2.39186E-05-2.84406E-05 5.56288E-06 7.46650E-19 9.69336E-19
 -1      3815 9.24509E-05-2.51940E-05-2.88344E-05 4.07250E-06 1.98179E-19 2.05225E-18
 -1      3816 9.22431E-05-2.50113E-05-2.88084E-05 4.54460E-06 1.24824E-19 1.33460E-18
 -1      3817 9.11681E-05-2.43275E-05-2.86381E-05 4.47854E-06-2.77010E-20 1.83158E-18
 -1      3818 9.30277E-05-2.56659E-05-2.88780E-05 3.24685E-06 4.44561E-19 1.63751E-18
 -1      3819 9.28306E-05-2.54527E-05-2.88724E-05 3.65039E-06 1.11904E-18 2.31368E-18
 -1      3820 9.19698E-05-2.48537E-05-2.87567E-05 3.58432E-06 6.54386E-19 2.90770E-18
 -1      3821 9.35271E-05-2.61437E-05-2.88858E-05 2.55523E-06 2.88764E-19 4.84476E-19
 -1      3822 9.33536E-05-2.59280E-05-2.88936E-05 2.89633E-06 7.35626E-20 8.95851E-19
 -1      3823 9.26718E-05-2.54138E-05-2.88185E-05 2.84286E-06 7.38208E-19 2.14890E-18
 -1      3824 9.39438E-05-2.65924E-05-2.88710E-05 1.98200E-06-3.52863E-19 1.82198E-19
 -1      3825 9.37984E-05-2.63902E-05-2.88866E-05 2.26603E-06 2.88581E-19 1.03774E-19
 -1      3826 9.32650E-05-2.59569E-05-2.88409E-05 2.22810E-06 4.21212E-19 1.16901E-18
 -1      3827 9.42814E-05-2.69924E-05-2.88431E-05 1.51338E-06-5.37231E-19 1.46211E-18
 -1      3828 9.41639E-05-2.68127E-05-2.88626E-05 1.74617E-06-3.70311E-19 5.96588E-19
 -1      3829 9.37525E-05-2.64548E-05-2.88376E-05 1.72273E-06-8.17188E-19 1.01232E-18
 -1      3830 9.45477E-05-2.73360E-05-2.88090E-05 1.13545E-06-4.00313E-20 1.93661E-18
 -1      3831 9.44557E-05-2.71821E-05-2.88296E-05 1.32336E-06-5.51585E-19 1.38843E-18
 -1      3832 9.41435E-05-2.68918E-05-2.88188E-05 1.31187E-06-4.34499E-19 7.66955E-19
 -1      3833 9.47534E-05-2.76230E-05-2.87733E-05 8.35141E-07-9.68532E-19 1.97245E-18
 -1      3834 9.46830E-05-2.74948E-05-2.87933E-05 9.84355E-07 1.00715E-20 1.89633E-18
 -1      3835 9.44503E-05-2.72633E-05-2.87918E-05 9.81685E-07-1.20140E-19 1.49635E-18
 -1      3836 9.49086E-05-2.78570E-05-2.87389E-05 6.00318E-07-1.07611E-18 1.64705E-18
 -1      3837 9.48561E-05-2.77527E-05-2.87572E-05 7.16866E-07-1.15550E-18 1.61855E-18
 -1      3838 9.46861E-05-2.75714E-05-2.87615E-05 7.20206E-07-6.34900E-19 1.09391E-18
 -1      3839 9.50230E-05-2.80436E-05-2.87073E-05 4.19656E-07-7.86056E-19 3.97532E-19
 -1      3840 9.49849E-05-2.79606E-05-2.87236E-05 5.09180E-07-4.84150E-19 1.38850E-18
 -1      3841 9.48635E-05-2.78212E-05-2.87310E-05 5.16299E-07-8.15303E-19 5.34050E-19
 -1      3842 9.51050E-05-2.81896E-05-2.86795E-05 2.82984E-07-2.80394E-19 1.16435E-18
 -1      3843 9.50782E-05-2.81248E-05-2.86934E-05 3.50567E-07-7.88872E-19 8.27601E-19
 -1      3844 9.49938E-05-2.80194E-05-2.87023E-05 3.59765E-07-6.17268E-19 5.20992E-19
 -1      3845 9.51622E-05-2.83016E-05-2.86556E-05 1.81444E-07-2.27935E-19 3.32686E-19
 -1      3846 9.51440E-05-2.82519E-05-2.86673E-05 2.31518E-07-2.19956E-19 6.46047E-19
 -1      3847 9.50871E-05-2.81738E-05-2.86764E-05 2.41572E-07-3.65496E-19 1.14147E-18
 -1      3848 9.52004E-05-2.83860E-05-2.86355E-05 1.07537E-07-1.38211E-19 3.93541E-19
 -1      3849 9.51886E-05-2.83486E-05-2.86451E-05 1.43853E-07-1.59960E-19-3.03543E-19
 -1      3850 9.51519E-05-2.82918E-05-2.86538E-05 1.53925E-07 2.08438E-19-1.61210E-20
 -1      3851 9.52247E-05-2.84487E-05-2.86188E-05 5.50798E-08-9.29676E-19 1.33269E-18
 -1      3852 9.52176E-05-2.84210E-05-2.86267E-05 8.07241E-08-4.25411E-19 7.33422E-19
 -1      3853 9.51952E-05-2.83805E-05-2.86345E-05 9.02861E-08-7.50597E-19 3.75426E-19
 -1      3854 9.52394E-05-2.84949E-05-2.86050E-05 1.86967E-08 2.90238E-19 1.86278E-19
 -1      3855 9.52352E-05-2.84744E-05-2.86115E-05 3.65128E-08 1.49466E-19 6.84738E-19
 -1      3856 9.52225E-05-2.84461E-05-2.86183E-05 4.52431E-08-2.34898E-19 5.24783E-19
 -1      3857 9.44945E-05-2.25339E-05-3.08398E-05-2.08836E-06 1.59111E-18-7.20667E-19
 -1      3858 9.52408E-05-2.85035E-05-2.86017E-05-7.33675E-09 1.51282E-18 5.15403E-19
 -1      3859 1.15920E-04-4.99246E-05-2.83580E-05-1.25660E-05-8.93800E-19 1.38063E-18
 -1      3860 9.01833E-05-2.05908E-05-2.98384E-05 4.58164E-06-1.06846E-19-1.41490E-18
 -1      3861 8.99784E-05-2.11311E-05-2.95048E-05 5.63970E-06-5.74601E-20-1.29280E-18
 -1      3862 8.84223E-05-2.03152E-05-2.91710E-05 5.46221E-06-7.33880E-20-1.27328E-18
 -1      3863 9.52368E-05-2.84971E-05-2.86029E-05-3.08814E-09 1.20880E-18-4.24499E-20
 -1      3864 9.52354E-05-2.84944E-05-2.86035E-05-3.17600E-09 4.35574E-19-1.54050E-18
 -1      3865 8.84331E-05-2.24337E-05-2.83071E-05 8.75675E-06 4.26397E-19-1.19333E-18
 -1      3866 8.82488E-05-2.30715E-05-2.79103E-05 9.90567E-06 4.61921E-19-9.79694E-19
 -1      3867 8.71383E-05-2.10558E-05-2.83006E-05 7.43275E-06 3.16957E-19-1.14454E-18
 -1      3868 9.52479E-05-2.85311E-05-2.85927E-05-6.77555E-09 7.70883E-19-2.98453E-19
 -1      3869 1.27646E-04-4.78104E-05-3.41697E-05-6.67879E-06-1.17642E-18-1.41441E-18
 -1      3870 1.02234E-04-4.09468E-05-2.61189E-05 1.78046E-05-1.22127E-18 5.72922E-20
 -1      3871 9.06558E-05-1.85112E-05-3.09272E-05-1.48172E-06 1.44755E-18-1.41807E-18
 -1      3872 8.95981E-05-1.75082E-05-3.09113E-05-1.43096E-06 1.28257E-18-1.46099E-18
 -1      3873 8.93160E-05-1.79405E-05-3.05717E-05-2.01620E-06 1.14716E-18-1.35247E-18
 -1      3874 9.14799E-05-1.99591E-05-3.06370E-05-2.57063E-06 1.32890E-18-1.20647E-18
 -1      3875 9.02084E-05-1.93703E-05-3.03698E-05 2.91768E-06-1.57774E-19-1.63112E-18
 -1      3876 9.03003E-05-2.01012E-05-3.00837E-05 3.88829E-06-1.13457E-19-1.47289E-18
 -1      3877 8.90290E-05-1.94046E-05-2.98246E-05 3.83991E-06-4.96936E-20-1.42619E-18
 -1      3878 8.91365E-05-1.83529E-05-3.03271E-05 2.52785E-06-1.58188E-20-1.57732E-18
 -1      3879 8.71236E-05-1.52260E-05-3.08266E-05 8.66240E-08 4.37053E-19-1.87758E-18
 -1      3880 8.73163E-05-1.54025E-05-3.08348E-05 3.12344E-07 2.06241E-19-2.03794E-18
 -1      3881 8.72543E-05-1.60486E-05-3.04847E-05-1.85583E-07 4.37712E-19-1.68887E-18
 -1      3882 9.52385E-05-2.84977E-05-2.86033E-05-8.22869E-09 1.57465E-18-9.72495E-19
 -1      3883 6.38425E-05-1.58548E-05-2.05684E-05-7.31006E-06 8.02445E-19 8.03914E-19
 -1      3884 6.68937E-05-1.87264E-05-2.04464E-05-1.49767E-05 7.27926E-19-2.99731E-19
 -1      3885 9.17830E-05-2.12010E-05-3.02438E-05-3.99264E-06 1.14966E-18-1.05565E-18
 -1      3886 9.15987E-05-2.05759E-05-3.04423E-05-3.20154E-06 1.26330E-18-1.19169E-18
 -1      3887 9.03939E-05-1.94543E-05-3.04092E-05-2.97452E-06 1.15485E-18-1.20527E-18
 -1      3888 9.05825E-05-2.05230E-05-3.00149E-05-4.23338E-06 1.07069E-18-1.01523E-18
 -1      3889 1.07007E-04-4.34526E-05-2.73887E-05-1.55098E-05-9.97049E-19 6.10724E-19
 -1      3890 8.76780E-05-1.57136E-05-3.08530E-05 6.86605E-07 1.50962E-19-2.07200E-18
 -1      3891 8.82830E-05-1.62747E-05-3.08735E-05 8.57680E-07-1.39920E-20-2.05978E-18
 -1      3892 8.84497E-05-1.71547E-05-3.05476E-05 1.52701E-06 7.75585E-20-1.85212E-18
 -1      3893 8.75540E-05-1.63324E-05-3.05023E-05 7.70483E-07 1.48187E-19-1.94093E-18
 -1      3894 8.66784E-05-3.18606E-05-2.34809E-05-2.17282E-05 1.31254E-18-4.84265E-19
 -1      3895 9.19410E-05-3.30457E-05-2.51414E-05-1.85600E-05 9.24105E-19-7.21227E-20
 -1      3896 8.95930E-05-3.00129E-05-2.55003E-05-1.69677E-05 7.00791E-19-8.44089E-19
 -1      3897 8.19969E-05-2.75509E-05-2.33420E-05-1.94456E-05 9.72295E-19-6.88962E-19
 -1      3898 9.33223E-05-3.63655E-05-2.44817E-05 2.08732E-05-1.52229E-18 4.70884E-19
 -1      3899 8.74741E-05-3.30645E-05-2.30940E-05 2.28475E-05-1.49319E-18-4.09196E-19
 -1      3900 8.20293E-05-2.85955E-05-2.29369E-05 2.05065E-05-1.38156E-18-3.72701E-19
 -1      3901 7.31517E-05-2.16552E-05-2.19438E-05-1.58641E-05 9.09207E-19-5.51127E-19
 -1      3902 8.47806E-05-2.66909E-05-2.49270E-05-1.62416E-05 2.44907E-19-4.85548E-19
 -1      3903 9.39472E-05-3.07380E-05-2.70201E-05-1.47692E-05-5.77410E-19-4.75309E-19
 -1      3904 9.24506E-05-2.87182E-05-2.73155E-05-1.37881E-05-3.65637E-19-6.60845E-19
 -1      3905 8.86163E-05-3.01659E-05-2.50328E-05 1.76084E-05-8.28271E-19 6.56479E-19
 -1      3906 9.38041E-05-3.36281E-05-2.57434E-05 1.72606E-05-7.44197E-19 5.34026E-19
 -1      3907 6.80670E-05-1.90011E-05-2.08280E-05 1.44082E-05-1.15276E-18 7.85994E-19
 -1      3908 6.82277E-05-1.74311E-05-2.18403E-05 9.50388E-06-1.09760E-18 9.58491E-19
 -1      3909 7.42310E-05-2.20335E-05-2.23590E-05 1.58410E-05-1.40045E-18-2.39360E-19
 -1      3910 5.96092E-05-1.41686E-05-1.91261E-05 2.17166E-06 5.91118E-19-2.52409E-18
 -1      3911 6.23254E-05-1.53257E-05-2.01949E-05-3.61694E-06 2.65490E-19-2.54585E-18
 -1      3912 6.38469E-05-1.60931E-05-2.03714E-05 7.37148E-06 1.02597E-18-2.32620E-18
 -1      3913 9.67836E-05-3.69920E-05-2.55778E-05 1.81704E-05-1.50220E-18 4.26827E-19
 -1      3914 9.52417E-05-2.85067E-05-2.86008E-05 8.56490E-09 1.03984E-18-1.12086E-19
 -1      3915 9.42287E-05-2.81887E-05-2.83351E-05-1.17625E-05-1.51183E-19-7.46258E-19
 -1      3916 6.75510E-05-1.91278E-05-2.07709E-05-1.40087E-05-5.33399E-19-2.52016E-18
 -1      3917 6.94795E-05-2.16930E-05-2.01141E-05-1.93856E-05-1.06536E-18-2.81265E-18
 -1      3918 9.16850E-05-2.36705E-05-2.91364E-05-7.85235E-06 3.04665E-19-8.87850E-19
 -1      3919 9.16308E-05-2.29970E-05-2.94226E-05-6.80502E-06 6.23166E-19-1.07368E-18
 -1      3920 9.04252E-05-2.16266E-05-2.94712E-05-5.93237E-06 7.59894E-19-8.92022E-19
 -1      3921 9.52308E-05-2.84747E-05-2.86095E-05-1.42138E-08 1.06697E-18-8.56651E-19
 -1      3922 7.84989E-05-2.57895E-05-2.24907E-05 2.00534E-05 1.26893E-18-1.26551E-18
 -1      3923 8.55685E-05-2.18732E-05-2.72785E-05 9.78709E-06 6.14817E-19-1.23848E-18
 -1      3924 9.52342E-05-2.84921E-05-2.86039E-05-6.33339E-10 7.92562E-19-2.58364E-18
 -1      3925 9.52341E-05-2.84919E-05-2.86039E-05 5.89359E-11 1.27646E-18-2.04918E-18
 -1      3926 9.52282E-05-2.84721E-05-2.86093E-05-4.08325E-09 6.72929E-19-2.64240E-18
 -1      3927 9.78747E-05-3.60535E-05-2.63857E-05-1.72101E-05-1.08560E-18-1.34296E-19
 -1      3928 9.50437E-05-3.29965E-05-2.65563E-05-1.65214E-05-7.94847E-19-3.84727E-19
 -1      3929 9.06544E-05-2.99257E-05-2.60079E-05-1.68395E-05-8.24163E-19-5.33340E-19
 -1      3930 6.41023E-05-1.48744E-05-2.08808E-05-3.21980E-06 2.61143E-19 7.96793E-19
 -1      3931 6.85743E-05-1.68474E-05-2.21594E-05-7.42553E-06 6.91079E-19 3.64621E-21
 -1      3932 6.59741E-05-1.55718E-05-2.15775E-05 8.87493E-07-2.12930E-19 1.15983E-18
 -1      3933 7.60928E-05-2.73152E-05-2.08896E-05-2.38397E-05-1.25217E-18-2.29705E-18
 -1      3934 8.78575E-05-1.74690E-05-3.01713E-05-1.87082E-06 7.68318E-19-1.27375E-18
 -1      3935 8.72828E-05-1.69874E-05-3.01431E-05-1.34213E-06 4.79065E-19-1.42492E-18
 -1      3936 8.94922E-05-1.87860E-05-3.03087E-05-2.70672E-06 1.00660E-18-1.23565E-18
 -1      3937 8.85485E-05-1.79565E-05-3.02694E-05-2.32592E-06 8.96083E-19-1.28892E-18
 -1      3938 8.80175E-05-1.82058E-05-2.99016E-05-2.56673E-06 6.09267E-19-1.18591E-18
 -1      3939 8.95816E-05-1.93353E-05-3.01039E-05-3.30557E-06 9.27672E-19-1.10490E-18
 -1      3940 7.96904E-05-2.43072E-05-2.36367E-05 1.69468E-05 9.61313E-19-1.37176E-18
 -1      3941 7.40695E-05-2.29158E-05-2.18717E-05 1.83726E-05 1.47858E-18-1.53685E-18
 -1      3942 6.99743E-05-1.96132E-05-2.15857E-05 1.41806E-05 1.24957E-18-2.10182E-18
 -1      3943 7.93399E-05-2.27932E-05-2.42296E-05 1.48347E-05 9.28073E-19-1.49428E-18
 -1      3944 8.77968E-05-3.60367E-05-2.19871E-05-2.68378E-05-1.70339E-18-1.38244E-18
 -1      3945 9.77372E-05-4.25269E-05-2.37128E-05-2.59623E-05-1.80484E-18-4.81168E-19
 -1      3946 1.04370E-04-4.48762E-05-2.54475E-05-2.12051E-05-1.40249E-18 1.89874E-19
 -1      3947 8.75922E-05-1.93360E-05-2.92722E-05 4.04455E-06 8.14969E-21-1.53157E-18
 -1      3948 8.70347E-05-1.97078E-05-2.88567E-05 4.92037E-06 1.04014E-19-1.39382E-18
 -1      3949 8.51536E-05-2.64206E-05-2.52650E-05 1.50679E-05-1.20095E-18 1.15194E-18
 -1      3950 8.44812E-05-2.77747E-05-2.42973E-05 1.74458E-05-1.45401E-18-9.16847E-20
 -1      3951 7.94252E-05-2.46373E-05-2.33251E-05 1.71310E-05-1.43975E-18-2.67040E-19
 -1      3952 8.39375E-05-2.03596E-05-2.72884E-05 7.57380E-06 4.89932E-19-1.43076E-18
 -1      3953 8.30862E-05-2.07261E-05-2.67091E-05 8.79573E-06 5.55854E-19-1.49717E-18
 -1      3954 9.16642E-05-2.51538E-05-2.84768E-05-9.98575E-06 4.39349E-20-6.32022E-19
 -1      3955 9.14041E-05-2.42928E-05-2.87729E-05-8.96364E-06 1.32644E-19-7.08810E-19
 -1      3956 8.99066E-05-2.28294E-05-2.87383E-05-8.08846E-06 1.85351E-19-7.24206E-19
 -1      3957 8.70242E-05-2.27875E-05-2.75558E-05 7.33784E-06-1.05714E-18 1.36231E-18
 -1      3958 8.66764E-05-2.29803E-05-2.72821E-05 8.25578E-06-8.20674E-19 9.90506E-19
 -1      3959 8.06618E-05-2.19194E-05-2.51192E-05-1.15229E-05 4.14841E-19-7.78537E-19
 -1      3960 8.12167E-05-2.13421E-05-2.57099E-05-9.98177E-06 2.62880E-19-1.36708E-19
 -1      3961 8.28108E-05-2.13421E-05-2.63216E-05-8.68990E-06 2.65341E-19-6.41882E-19
 -1      3962 8.35284E-05-2.12116E-05-2.67483E-05-7.61151E-06 2.20483E-19-1.43681E-19
 -1      3963 7.97060E-05-1.98477E-05-2.56149E-05-7.83408E-06 8.71227E-19-9.54487E-19
 -1      3964 8.48425E-05-2.14078E-05-2.71777E-05-6.75417E-06-3.82609E-19 2.22095E-19
 -1      3965 8.55871E-05-2.15335E-05-2.74814E-05-5.97469E-06-9.21072E-19-3.05910E-19
 -1      3966 8.26215E-05-2.02711E-05-2.66837E-05-5.94230E-06-5.85844E-20-1.45654E-18
 -1      3967 8.66851E-05-2.18575E-05-2.77805E-05-5.36604E-06-1.81498E-18-6.70780E-19
 -1      3968 8.73832E-05-2.21233E-05-2.79904E-05-4.77457E-06-2.62567E-18-1.07961E-18
 -1      3969 8.50098E-05-2.09368E-05-2.74300E-05-4.63378E-06-1.34650E-18-1.24027E-18
 -1      3970 8.83018E-05-2.25139E-05-2.81948E-05-4.31234E-06-2.88417E-18-9.13210E-19
 -1      3971 8.89283E-05-2.28545E-05-2.83342E-05-3.84106E-06-2.14812E-18-4.90084E-19
 -1      3972 8.70026E-05-2.17420E-05-2.79465E-05-3.69298E-06-2.90995E-18-5.69964E-19
 -1      3973 8.96981E-05-2.32726E-05-2.84691E-05-3.47672E-06-1.39161E-18-2.43681E-19
 -1      3974 9.02415E-05-2.36408E-05-2.85564E-05-3.08999E-06-4.97968E-19 1.29472E-19
 -1      3975 8.86746E-05-2.26103E-05-2.82954E-05-2.96242E-06-1.42665E-18 1.32431E-18
 -1      3976 9.08803E-05-2.40536E-05-2.86413E-05-2.79568E-06-7.01450E-19-5.28161E-19
 -1      3977 9.13383E-05-2.44156E-05-2.86916E-05-2.47314E-06-7.82451E-19-8.73341E-19
 -1      3978 9.00690E-05-2.34847E-05-2.85221E-05-2.38116E-06-5.33042E-19 1.45339E-19
 -1      3979 9.18628E-05-2.48028E-05-2.87410E-05-2.22949E-06-6.17907E-19-1.67313E-18
 -1      3980 9.22414E-05-2.51417E-05-2.87654E-05-1.95963E-06-3.54496E-19-2.01980E-18
 -1      3981 9.12202E-05-2.43162E-05-2.86620E-05-1.90574E-06-8.37810E-19-8.58200E-19
 -1      3982 9.26654E-05-2.54900E-05-2.87901E-05-1.75980E-06 2.57779E-19-2.58576E-18
 -1      3983 9.29711E-05-2.57932E-05-2.87972E-05-1.53423E-06 5.00461E-19-1.60698E-18
 -1      3984 9.21603E-05-2.50788E-05-2.87401E-05-1.50939E-06 9.18748E-20-2.90732E-18
 -1      3985 9.33105E-05-2.60979E-05-2.88058E-05-1.37000E-06 7.44036E-19-1.03197E-18
 -1      3986 9.35527E-05-2.63602E-05-2.88022E-05-1.18386E-06 1.02233E-18-7.49093E-19
 -1      3987 9.29150E-05-2.57533E-05-2.87763E-05-1.18132E-06 1.16408E-18-2.87651E-18
 -1      3988 9.38201E-05-2.66193E-05-2.88005E-05-1.04935E-06 9.87412E-19 1.05244E-19
 -1      3989 9.40093E-05-2.68413E-05-2.87906E-05-8.97482E-07 1.15605E-18 1.01241E-19
 -1      3990 9.35148E-05-2.63362E-05-2.87854E-05-9.11307E-07 1.26823E-18-8.95146E-19
 -1      3991 9.42173E-05-2.70576E-05-2.87827E-05-7.89626E-07 7.91559E-19 5.98214E-20
 -1      3992 9.43625E-05-2.72413E-05-2.87697E-05-6.67839E-07 8.56821E-19 6.70361E-20
 -1      3993 9.39855E-05-2.68284E-05-2.87774E-05-6.89507E-07 5.89190E-19 2.31992E-19
 -1      3994 9.45209E-05-2.74177E-05-2.87585E-05-5.82821E-07 9.06290E-19-3.67748E-19
 -1      3995 9.46301E-05-2.75665E-05-2.87442E-05-4.86665E-07 8.73318E-19-8.30638E-19
 -1      3996 9.43482E-05-2.72357E-05-2.87593E-05-5.12501E-07 8.86816E-19-2.42723E-19
 -1      3997 9.47487E-05-2.77076E-05-2.87318E-05-4.20530E-07 5.45120E-19-4.19792E-19
 -1      3998 9.48291E-05-2.78258E-05-2.87178E-05-3.45812E-07 2.80135E-19-5.03135E-19
 -1      3999 9.46222E-05-2.75654E-05-2.87363E-05-3.72870E-07 2.82997E-19-4.93320E-19
 -1      4000 9.49160E-05-2.79366E-05-2.87053E-05-2.95181E-07 7.92189E-19-6.09463E-19
 -1      4001 9.49739E-05-2.80289E-05-2.86923E-05-2.38082E-07 1.19737E-18-8.56992E-20
 -1      4002 9.48254E-05-2.78274E-05-2.87117E-05-2.64338E-07 8.72551E-19 3.26319E-19
 -1      4003 9.50361E-05-2.81144E-05-2.86805E-05-1.99994E-07 5.31272E-19-7.41347E-19
 -1      4004 9.50766E-05-2.81852E-05-2.86689E-05-1.57129E-07 7.08915E-19-3.82481E-19
 -1      4005 9.49728E-05-2.80319E-05-2.86877E-05-1.81377E-07 9.32117E-19-1.20092E-19
 -1      4006 9.51199E-05-2.82500E-05-2.86583E-05-1.29000E-07 1.26961E-18-1.16494E-18
 -1      4007 9.51472E-05-2.83034E-05-2.86482E-05-9.74102E-08 8.48454E-19-1.32040E-18
 -1      4008 9.50770E-05-2.81889E-05-2.86655E-05-1.19106E-07 6.35445E-19-1.97548E-18
 -1      4009 9.51763E-05-2.83517E-05-2.86389E-05-7.71338E-08-1.01137E-19-1.30501E-18
 -1      4010 9.51938E-05-2.83914E-05-2.86302E-05-5.43849E-08-7.62234E-20-1.75188E-18
 -1      4011 9.51484E-05-2.83076E-05-2.86456E-05-7.32963E-08 2.54872E-19-1.32442E-18
 -1      4012 9.52095E-05-2.84216E-05-2.86231E-05-3.92147E-08 2.24156E-19-1.89886E-18
 -1      4013 9.52205E-05-2.84513E-05-2.86158E-05-2.36372E-08 5.98383E-19-1.23039E-18
 -1      4014 9.52186E-05-2.84497E-05-2.86153E-05-1.48873E-08 8.20348E-19-5.65482E-19
 -1      4015 9.51919E-05-2.83905E-05-2.86290E-05-3.85502E-08-5.54933E-20-1.92546E-18
 -1      4016 8.82938E-05-2.29371E-05-2.80311E-05 5.82118E-06 3.15369E-19 1.42546E-18
 -1      4017 8.78636E-05-2.28795E-05-2.78397E-05 6.52369E-06-2.61093E-19 1.38785E-18
 -1      4018 8.60237E-05-2.19126E-05-2.74594E-05 6.16760E-06-7.40097E-19 3.75638E-19
 -1      4019 8.54428E-05-2.42254E-05-2.63070E-05 1.15191E-05-8.85135E-19 1.73051E-18
 -1      4020 8.58174E-05-2.54209E-05-2.58678E-05 1.30998E-05-1.16442E-18 1.11361E-18
 -1      4021 8.24805E-05-2.33332E-05-2.52596E-05 1.27138E-05-1.23159E-18 4.48671E-19
 -1      4022 8.60996E-05-2.31729E-05-2.70085E-05 9.14918E-06-1.70903E-19 5.40434E-19
 -1      4023 8.59710E-05-2.37568E-05-2.66501E-05 1.03575E-05-5.08831E-19 1.26403E-18
 -1      4024 8.35959E-05-2.22545E-05-2.62334E-05 9.76177E-06-5.66516E-19 5.41915E-20
 -1      4025 8.46249E-05-2.18533E-05-2.68718E-05 7.79746E-06-8.91192E-19 2.91577E-19
 -1      4026 8.95039E-05-2.33742E-05-2.83582E-05 4.64692E-06 1.59416E-19 1.97958E-18
 -1      4027 8.90539E-05-2.31753E-05-2.82285E-05 5.20895E-06 3.96043E-19 1.48085E-18
 -1      4028 8.76231E-05-2.23504E-05-2.79580E-05 4.83583E-06 3.11688E-19 1.31147E-18
 -1      4029 9.06013E-05-2.39632E-05-2.85728E-05 3.70853E-06-8.15908E-19 2.53006E-18
 -1      4030 9.01739E-05-2.36898E-05-2.84906E-05 4.16856E-06-2.98150E-19 2.30633E-18
 -1      4031 8.90459E-05-2.29790E-05-2.83002E-05 3.82097E-06-7.25499E-19 2.35687E-18
 -1      4032 9.15616E-05-2.46105E-05-2.87043E-05 2.94673E-06 6.27707E-19 2.54116E-18
 -1      4033 9.11790E-05-2.43098E-05-2.86569E-05 3.32727E-06 3.46754E-20 2.46027E-18
 -1      4034 9.02845E-05-2.36973E-05-2.85256E-05 3.02484E-06-3.13953E-19 1.68060E-18
 -1      4035 9.23755E-05-2.52507E-05-2.87764E-05 2.32311E-06 9.31301E-19 1.59063E-18
 -1      4036 9.20478E-05-2.49539E-05-2.87537E-05 2.63971E-06 7.39325E-19 1.95337E-18
 -1      4037 9.13409E-05-2.44297E-05-2.86658E-05 2.39179E-06 1.14858E-18 1.37129E-18
 -1      4038 9.30503E-05-2.58494E-05-2.88074E-05 1.81096E-06 4.57295E-20 1.37885E-18
 -1      4039 9.27777E-05-2.55725E-05-2.88015E-05 2.07287E-06 7.73342E-19 1.53846E-18
 -1      4040 9.22221E-05-2.51296E-05-2.87453E-05 1.87594E-06 1.16456E-18 6.57912E-19
 -1      4041 9.35975E-05-2.63847E-05-2.88113E-05 1.39280E-06-7.55906E-19 1.24314E-18
 -1      4042 9.33764E-05-2.61377E-05-2.88160E-05 1.60782E-06-5.21023E-19 1.53773E-18
 -1      4043 9.29427E-05-2.57684E-05-2.87825E-05 1.45619E-06-2.77485E-19 8.77122E-19
 -1      4044 9.40328E-05-2.68471E-05-2.87986E-05 1.05498E-06-3.41541E-19 2.56984E-19
 -1      4045 9.38578E-05-2.66348E-05-2.88094E-05 1.22951E-06-3.67732E-19 9.20552E-19
 -1      4046 9.35230E-05-2.63304E-05-2.87917E-05 1.11667E-06-4.08271E-19 6.26008E-19
 -1      4047 9.43729E-05-2.72365E-05-2.87765E-05 7.85044E-07 1.69321E-19 8.64462E-19
 -1      4048 9.42371E-05-2.70583E-05-2.87904E-05 9.24684E-07 9.56924E-20 7.07824E-19
 -1      4049 9.39827E-05-2.68118E-05-2.87835E-05 8.42712E-07-1.89820E-19 1.23854E-19
 -1      4050 9.46333E-05-2.75566E-05-2.87501E-05 5.72619E-07-9.62584E-19 8.37530E-19
 -1      4051 9.45301E-05-2.74106E-05-2.87650E-05 6.82703E-07-3.06946E-19 9.41462E-19
 -1      4052 9.43403E-05-2.72146E-05-2.87651E-05 6.25166E-07-3.68025E-20 6.66998E-19
 -1      4053 9.48284E-05-2.78142E-05-2.87226E-05 4.07816E-07-6.60647E-19 3.55476E-19
 -1      4054 9.47517E-05-2.76971E-05-2.87373E-05 4.93287E-07-7.49470E-19 5.17595E-19
 -1      4055 9.46127E-05-2.75438E-05-2.87415E-05 4.54629E-07-2.48030E-19 5.90406E-19
 -1      4056 9.49713E-05-2.80174E-05-2.86963E-05 2.81894E-07-1.04517E-18 8.70570E-19
 -1      4057 9.49158E-05-2.79253E-05-2.87098E-05 3.47203E-07-1.10401E-18 7.56523E-20
 -1      4058 9.48161E-05-2.78074E-05-2.87163E-05 3.22697E-07-1.00654E-18 3.37284E-19
 -1      4059 9.50735E-05-2.81747E-05-2.86722E-05 1.87263E-07 1.65336E-19 8.51161E-19
 -1      4060 9.50343E-05-2.81037E-05-2.86842E-05 2.36322E-07-2.42251E-19 1.22469E-18
 -1      4061 9.49646E-05-2.80145E-05-2.86917E-05 2.22142E-07-8.77188E-19-4.98613E-19
 -1      4062 9.51442E-05-2.82944E-05-2.86508E-05 1.17416E-07 6.07852E-19 6.48199E-20
 -1      4063 9.51175E-05-2.82405E-05-2.86613E-05 1.53581E-07 7.83860E-19 8.54594E-19
 -1      4064 9.50703E-05-2.81743E-05-2.86688E-05 1.46748E-07 4.65289E-19 1.05296E-19
 -1      4065 9.51914E-05-2.83840E-05-2.86324E-05 6.69780E-08-7.73998E-19 2.86915E-19
 -1      4066 9.51740E-05-2.83438E-05-2.86413E-05 9.30119E-08-5.23029E-19 5.98466E-19
 -1      4067 9.51431E-05-2.82956E-05-2.86484E-05 9.11292E-08 5.86575E-20 9.93017E-19
 -1      4068 9.52214E-05-2.84503E-05-2.86166E-05 3.14507E-08 6.47393E-19-1.66919E-18
 -1      4069 9.52105E-05-2.84204E-05-2.86241E-05 4.99116E-08 1.87885E-19-4.55514E-19
 -1      4070 9.51915E-05-2.83860E-05-2.86305E-05 5.14045E-08 8.89754E-20 3.49934E-19
 -1      4071 8.60519E-05-1.99390E-05-2.83652E-05 5.66108E-06 1.16788E-19-1.30982E-18
 -1      4072 8.52966E-05-2.02264E-05-2.78854E-05 6.63549E-06 3.43946E-19-1.42668E-18
 -1      4073 8.54685E-05-1.89909E-05-2.84778E-05 4.10936E-06 1.26737E-19-1.35338E-18
 -1      4074 6.71823E-05-1.66798E-05-2.13605E-05-9.09089E-06 9.65436E-20-2.31397E-18
 -1      4075 7.19551E-05-1.98106E-05-2.24253E-05-1.29041E-05-2.06214E-19-2.11595E-18
 -1      4076 8.14373E-05-2.51657E-05-2.40275E-05-1.63103E-05 6.10856E-19-6.11687E-19
 -1      4077 8.00156E-05-2.29547E-05-2.44738E-05-1.39186E-05 2.11649E-19-1.00639E-18
 -1      4078 7.72175E-05-2.05140E-05-2.42905E-05-1.13609E-05 3.90826E-19-4.79490E-19
 -1      4079 7.68220E-05-2.34667E-05-2.28205E-05-1.70821E-05 9.95275E-19-7.78112E-19
 -1      4080 8.29732E-05-2.98145E-05-2.26596E-05-2.18642E-05-1.12788E-18-1.61026E-18
 -1      4081 7.28187E-05-1.98177E-05-2.27685E-05-1.25777E-05 5.38071E-19-5.97794E-19
 -1      4082 8.26986E-05-2.75064E-05-2.36959E-05-1.90560E-05-9.44468E-19-1.29265E-18
 -1      4083 9.27236E-05-3.51316E-05-2.46717E-05-2.15446E-05-1.34873E-18-5.50141E-19
 -1      4084 9.52351E-05-2.84943E-05-2.86034E-05 2.76393E-09 7.62325E-19-1.37018E-18
 -1      4085 9.52366E-05-2.84972E-05-2.86027E-05 2.99570E-09 9.63534E-19-5.80432E-19
 -1      4086 9.52280E-05-2.84720E-05-2.86092E-05 3.22494E-09 6.82092E-19-1.47358E-18
 -1      4087 9.52396E-05-2.85036E-05-2.86014E-05 4.24541E-09 1.24614E-18-5.78310E-19
 -1      4088 9.52414E-05-2.85089E-05-2.85999E-05 2.45291E-09 1.26758E-18-1.06138E-18
 -1      4089 8.69360E-05-1.66835E-05-3.01212E-05-5.18284E-07 4.30081E-19-1.66024E-18
 -1      4090 8.68686E-05-1.66351E-05-3.01169E-05 4.67725E-08 3.28514E-19-1.71243E-18
 -1      4091 8.69273E-05-1.73945E-05-2.97728E-05-1.17618E-06 4.06652E-19-1.37628E-18
 -1      4092 8.12798E-05-2.08610E-05-2.59438E-05 1.01219E-05 6.56028E-19-1.63536E-18
 -1      4093 8.04961E-05-2.15485E-05-2.52151E-05 1.18050E-05 7.67668E-19-1.62862E-18
 -1      4094 8.00055E-05-1.92686E-05-2.59777E-05 7.65300E-06 5.09805E-19-1.84548E-18
 -1      4095 9.22151E-05-2.73180E-05-2.77653E-05-1.22627E-05-1.35207E-19-8.32236E-19
 -1      4096 9.15113E-05-2.60329E-05-2.80733E-05-1.12431E-05-6.14905E-22-6.25005E-19
 -1      4097 8.94490E-05-2.42665E-05-2.79306E-05-1.04603E-05 1.13185E-19-6.83483E-19
 -1      4098 8.94450E-05-2.63855E-05-2.70191E-05-1.32879E-05-2.49759E-19-6.57229E-19
 -1      4099 9.52402E-05-2.85021E-05-2.86022E-05 9.50673E-09 1.05096E-18-9.09315E-19
 -1      4100 9.52340E-05-2.84803E-05-2.86085E-05 1.85677E-08 7.25483E-19-1.60202E-18
 -1      4101 9.52323E-05-2.84809E-05-2.86075E-05 8.62921E-09 8.92520E-19-1.05940E-18
 -1      4102 9.52231E-05-2.84567E-05-2.86141E-05 2.22958E-08 2.70330E-19-1.68834E-18
 -1      4103 7.70841E-05-2.19707E-05-2.37174E-05 1.36300E-05-1.32528E-18-3.12529E-19
 -1      4104 1.03349E-04-4.32581E-05-2.56972E-05-2.02283E-05-1.25816E-18 6.18847E-20
 -1      4105 9.90335E-05-3.89626E-05-2.56751E-05-1.97685E-05-1.34945E-18-8.86688E-20
 -1      4106 8.31471E-05-1.91882E-05-2.73684E-05 5.68911E-06 3.22052E-19-1.53988E-18
 -1      4107 8.79602E-05-1.89921E-05-2.95592E-05 3.52475E-06-3.20569E-21-1.65131E-18
 -1      4108 8.67830E-05-1.84830E-05-2.92641E-05 2.99965E-06 1.58794E-19-1.56951E-18
 -1      4109 8.80835E-05-1.85409E-05-2.98166E-05 2.85314E-06 7.37280E-20-1.66452E-18
 -1      4110 9.52041E-05-2.84166E-05-2.86227E-05-1.52750E-08 1.03573E-18-1.40076E-18
 -1      4111 9.52155E-05-2.84453E-05-2.86160E-05-7.34388E-09 1.04174E-18-1.39530E-18
 -1      4112 9.52146E-05-2.84432E-05-2.86164E-05-2.82255E-09 3.97022E-19-2.78440E-18
 -1      4113 7.76746E-05-2.26360E-05-2.34049E-05-1.58609E-05-5.81971E-19-1.70222E-18
 -1      4114 8.58336E-05-2.73810E-05-2.50430E-05-1.67567E-05-9.87950E-19-7.77103E-19
 -1      4115 8.49813E-05-2.54243E-05-2.56176E-05-1.46425E-05-5.45072E-19-7.76120E-19
 -1      4116 7.56965E-05-2.03258E-05-2.38275E-05-1.16747E-05-2.32964E-19-1.63908E-18
 -1      4117 1.13019E-04-4.86209E-05-2.74258E-05-1.58273E-05-8.53783E-19 1.22741E-18
 -1      4118 7.15862E-05-1.77841E-05-2.30453E-05 7.48722E-06-9.17621E-19 2.50470E-19
 -1      4119 6.78755E-05-1.58449E-05-2.21359E-05 4.72945E-06-5.09100E-19 8.82625E-19
 -1      4120 6.94565E-05-1.61541E-05-2.28625E-05-9.91733E-08-2.25853E-20 1.16144E-19
 -1      4121 8.64920E-05-1.78995E-05-2.93936E-05-1.87681E-06 4.62122E-19-1.29431E-18
 -1      4122 8.60930E-05-1.76224E-05-2.93663E-05-9.90075E-07 3.59576E-19-1.52134E-18
 -1      4123 6.82671E-05-1.74721E-05-2.16606E-05 1.02268E-05 1.04935E-18-2.29900E-18
 -1      4124 6.75071E-05-1.62168E-05-2.20506E-05 4.81201E-06 7.31977E-19-1.98648E-18
 -1      4125 7.34374E-05-1.92678E-05-2.31176E-05 1.11779E-05 9.32675E-19-1.96350E-18
 -1      4126 8.84561E-05-1.77842E-05-3.02934E-05 2.11025E-06 9.24147E-20-1.77798E-18
 -1      4127 6.72806E-05-1.62460E-05-2.18810E-05-3.76706E-06 4.83696E-19-2.13981E-18
 -1      4128 8.96165E-05-1.98551E-05-2.99076E-05-3.93859E-06 8.27576E-19-1.02872E-18
 -1      4129 8.19269E-05-2.21509E-05-2.55211E-05-1.21308E-05-3.39986E-19-1.11957E-18
 -1      4130 8.60904E-05-2.44983E-05-2.63685E-05-1.26986E-05-2.87017E-19-7.06517E-19
 -1      4131 8.59745E-05-2.33980E-05-2.68843E-05-1.11517E-05-8.69991E-20-7.34562E-19
 -1      4132 9.52194E-05-2.84501E-05-2.86155E-05 1.89600E-08 2.93797E-19-7.82311E-19
 -1      4133 8.72438E-05-1.85565E-05-2.94627E-05-3.06542E-06 4.05618E-19-1.00526E-18
 -1      4134 8.63448E-05-1.85826E-05-2.90456E-05-2.93580E-06 3.34134E-19-1.15132E-18
 -1      4135 8.80734E-05-1.90372E-05-2.95745E-05-3.58534E-06 6.08348E-19-1.07713E-18
 -1      4136 8.89323E-05-2.01660E-05-2.94814E-05-4.57047E-06 7.12414E-19-8.51581E-19
 -1      4137 8.67492E-05-1.75192E-05-2.96437E-05 1.04100E-06 2.75223E-19-1.53964E-18
 -1      4138 8.71472E-05-1.71198E-05-3.00175E-05 1.28801E-06 1.83747E-19-1.86816E-18
 -1      4139 7.66207E-05-2.02527E-05-2.41457E-05 1.18673E-05 8.49910E-19-1.94150E-18
 -1      4140 8.86432E-05-2.07183E-05-2.91123E-05-5.56766E-06 5.32035E-19-7.72958E-19
 -1      4141 7.14506E-05-1.78934E-05-2.28722E-05-9.17072E-06 5.87024E-19 3.31269E-19
 -1      4142 7.47671E-05-1.94521E-05-2.36446E-05-1.04137E-05 3.45940E-19-1.80061E-20
 -1      4143 7.54574E-05-1.87700E-05-2.43549E-05-8.06284E-06 5.48720E-19 4.29984E-19
 -1      4144 7.05651E-05-1.68667E-05-2.30729E-05-5.46876E-06 3.18919E-19 2.73509E-19
 -1      4145 8.75712E-05-1.74586E-05-3.00433E-05 1.77574E-06 1.12343E-19-1.83874E-18
 -1      4146 8.27539E-05-1.85106E-05-2.75438E-05 3.42755E-06 1.46570E-19-1.45653E-18
 -1      4147 8.14031E-05-1.85817E-05-2.69364E-05 4.06607E-06 2.63897E-19-1.50147E-18
 -1      4148 8.75997E-05-2.16441E-05-2.82547E-05-7.53194E-06 1.39942E-19-6.75357E-19
 -1      4149 8.79252E-05-2.11115E-05-2.86587E-05-6.46729E-06 3.23840E-19-6.76888E-19
 -1      4150 8.65913E-05-1.96335E-05-2.86665E-05-4.94761E-06 4.08715E-19-6.96599E-19
 -1      4151 7.98740E-05-2.10761E-05-2.52779E-05 9.81900E-06-8.75059E-19-5.22584E-19
 -1      4152 7.91328E-05-2.16456E-05-2.46228E-05 1.15027E-05-1.51146E-18-5.37699E-19
 -1      4153 7.49776E-05-1.92167E-05-2.37773E-05 1.01449E-05-1.36781E-18-7.29671E-19
 -1      4154 7.44264E-05-1.78384E-05-2.40915E-05-7.13968E-06 6.12701E-20-1.53384E-18
 -1      4155 7.83632E-05-2.02988E-05-2.48937E-05-1.00032E-05-3.26248E-19-1.26561E-18
 -1      4156 7.95340E-05-1.98325E-05-2.56996E-05-8.29821E-06-6.32628E-21-1.12899E-18
 -1      4157 8.52239E-05-2.12523E-05-2.74494E-05 4.64935E-06 8.66962E-20-8.18329E-19
 -1      4158 8.43864E-05-2.10432E-05-2.71411E-05 5.35405E-06-1.14075E-18-7.26642E-19
 -1      4159 8.07629E-05-1.94274E-05-2.62914E-05-4.51830E-06 5.54742E-19-1.21900E-18
 -1      4160 8.20883E-05-1.97735E-05-2.67442E-05-3.87488E-06-1.21180E-19-1.17993E-18
 -1      4161 8.36127E-05-2.02722E-05-2.71548E-05-3.50820E-06-1.30770E-18-1.63317E-18
 -1      4162 8.47044E-05-2.06882E-05-2.74695E-05-3.07847E-06-2.18096E-18-1.44205E-18
 -1      4163 8.21867E-05-1.94972E-05-2.68146E-05-2.13543E-06-9.19963E-19-1.73236E-18
 -1      4164 8.59080E-05-2.11719E-05-2.77540E-05-2.77879E-06-2.21567E-18-9.38632E-19
 -1      4165 8.68372E-05-2.16243E-05-2.79699E-05-2.44952E-06-2.06209E-18-2.20114E-19
 -1      4166 8.47733E-05-2.04711E-05-2.75051E-05-1.66242E-06-1.79306E-18-1.63981E-18
 -1      4167 8.78120E-05-2.21243E-05-2.81618E-05-2.23962E-06-1.62633E-18 1.17274E-18
 -1      4168 8.85904E-05-2.25832E-05-2.83049E-05-1.98067E-06-7.32213E-19 1.01667E-18
 -1      4169 8.69556E-05-2.15418E-05-2.79872E-05-1.36223E-06-6.48182E-19-1.51896E-19
 -1      4170 8.93813E-05-2.30598E-05-2.84312E-05-1.81198E-06-1.24140E-18 1.45274E-18
 -1      4171 9.00263E-05-2.35030E-05-2.85221E-05-1.59732E-06-9.25036E-19 3.96315E-19
 -1      4172 8.86979E-05-2.25570E-05-2.83102E-05-1.12621E-06-1.06924E-18 9.91221E-19
 -1      4173 9.06728E-05-2.39471E-05-2.86024E-05-1.45709E-06-1.30979E-18 5.90910E-19
 -1      4174 9.12097E-05-2.43598E-05-2.86565E-05-1.26996E-06-1.20843E-18 2.88545E-20
 -1      4175 9.01150E-05-2.35195E-05-2.85201E-05-9.31187E-07-1.51335E-18 1.12051E-18
 -1      4176 9.17308E-05-2.47687E-05-2.87025E-05-1.17259E-06-2.62241E-19-7.82059E-19
 -1      4177 9.21556E-05-2.51324E-05-2.87309E-05-1.01745E-06 2.16585E-19-9.91462E-19
 -1      4178 9.13082E-05-2.44227E-05-2.86523E-05-7.64300E-07-1.24677E-18 1.34381E-18
 -1      4179 9.25805E-05-2.54909E-05-2.87550E-05-9.23272E-07 8.93770E-19-1.32521E-18
 -1      4180 9.29168E-05-2.58114E-05-2.87663E-05-7.96843E-07 1.33306E-18-1.24393E-18
 -1      4181 9.22323E-05-2.51830E-05-2.87243E-05-6.00461E-07 2.23249E-19 1.33975E-18
 -1      4182 9.32535E-05-2.61164E-05-2.87754E-05-7.14913E-07 1.61559E-18-1.34715E-18
 -1      4183 9.35230E-05-2.63904E-05-2.87757E-05-6.07267E-07 8.96860E-19-5.62658E-19
 -1      4184 9.29714E-05-2.58435E-05-2.87577E-05-4.60219E-07 1.37328E-18-5.27785E-19
 -1      4185 9.37869E-05-2.66510E-05-2.87747E-05-5.45578E-07 7.85548E-19-2.30982E-19
 -1      4186 9.39971E-05-2.68799E-05-2.87681E-05-4.58155E-07 1.04620E-18 6.19458E-19
 -1      4187 9.35753E-05-2.64286E-05-2.87669E-05-3.55068E-07 1.46533E-18-5.89207E-19
 -1      4188 9.41997E-05-2.70939E-05-2.87612E-05-4.09239E-07 1.02196E-19-4.53728E-19
 -1      4189 9.43598E-05-2.72809E-05-2.87509E-05-3.38996E-07 2.00820E-19-1.15499E-18
 -1      4190 9.40386E-05-2.69139E-05-2.87598E-05-2.69823E-07 4.13257E-19-1.07160E-18
 -1      4191 9.45132E-05-2.74539E-05-2.87408E-05-3.00668E-07 5.03224E-19-1.37608E-18
 -1      4192 9.46331E-05-2.76039E-05-2.87289E-05-2.44987E-07 3.29769E-19-1.03092E-18
 -1      4193 9.43924E-05-2.73106E-05-2.87434E-05-2.00315E-07-2.35624E-19-2.53357E-18
 -1      4194 9.47470E-05-2.77412E-05-2.87176E-05-2.15539E-07 1.05487E-18-1.83599E-19
 -1      4195 9.48350E-05-2.78594E-05-2.87054E-05-1.72119E-07 1.45525E-18 6.04681E-20
 -1      4196 9.46583E-05-2.76291E-05-2.87224E-05-1.45015E-07 1.14267E-18-1.52003E-18
 -1      4197 9.49179E-05-2.79665E-05-2.86940E-05-1.49931E-07 5.91580E-19 9.65574E-19
 -1      4198 9.49810E-05-2.80579E-05-2.86824E-05-1.16657E-07 1.62758E-19-1.45566E-19
 -1      4199 9.48542E-05-2.78804E-05-2.86999E-05-1.01957E-07 1.21697E-18-1.17675E-18
 -1      4200 9.50398E-05-2.81401E-05-2.86716E-05-1.00257E-07-2.00100E-19-7.26127E-19
 -1      4201 9.50837E-05-2.82097E-05-2.86611E-05-7.52227E-08 1.91388E-19-1.48506E-18
 -1      4202 9.49952E-05-2.80751E-05-2.86778E-05-6.91174E-08-6.03110E-19-1.18746E-18
 -1      4203 9.51239E-05-2.82711E-05-2.86513E-05-6.32178E-08 3.41927E-19-1.92709E-18
 -1      4204 9.51538E-05-2.83237E-05-2.86419E-05-4.44126E-08-2.21042E-19-1.95616E-18
 -1      4205 9.50936E-05-2.82235E-05-2.86573E-05-4.47779E-08-5.33179E-19-2.15860E-18
 -1      4206 9.51731E-05-2.83562E-05-2.86357E-05-3.67145E-08 3.49554E-20-1.63533E-18
 -1      4207 9.51893E-05-2.83906E-05-2.86284E-05-2.20192E-08 6.24828E-19-1.04484E-18
 -1      4208 9.51864E-05-2.83847E-05-2.86291E-05-1.10902E-08 5.86841E-19-1.13683E-18
 -1      4209 9.51536E-05-2.83249E-05-2.86411E-05-2.33807E-08-4.30494E-20-1.44952E-18
 -1      4210 9.00795E-05-2.35846E-05-2.85130E-05 2.22843E-06-3.29146E-20 1.84075E-19
 -1      4211 8.95047E-05-2.31941E-05-2.84214E-05 2.53651E-06-6.29082E-19-1.03808E-19
 -1      4212 9.12178E-05-2.43865E-05-2.86519E-05 1.74553E-06 1.58363E-18 8.81315E-19
 -1      4213 9.07236E-05-2.40085E-05-2.85967E-05 1.98983E-06 7.26320E-19 7.91458E-19
 -1      4214 9.00505E-05-2.34796E-05-2.85010E-05 1.57064E-06 1.16565E-19-1.23549E-18
 -1      4215 9.21427E-05-2.51226E-05-2.87306E-05 1.36117E-06 6.74383E-19 1.15224E-18
 -1      4216 9.17367E-05-2.47710E-05-2.87015E-05 1.56750E-06 1.58269E-18 1.33593E-18
 -1      4217 9.12305E-05-2.43610E-05-2.86424E-05 1.20301E-06 1.28574E-18 2.05226E-19
 -1      4218 9.28876E-05-2.57771E-05-2.87689E-05 1.05385E-06-3.65567E-19 6.44933E-19
 -1      4219 9.25676E-05-2.54678E-05-2.87571E-05 1.22647E-06 3.99290E-19 1.02675E-18
 -1      4220 9.21684E-05-2.51309E-05-2.87204E-05 9.23450E-07 3.08006E-19 1.31195E-18
 -1      4221 9.34900E-05-2.63523E-05-2.87794E-05 8.00165E-07-3.87207E-19 6.14036E-19
 -1      4222 9.32328E-05-2.60839E-05-2.87790E-05 9.37844E-07-6.93289E-19 5.36781E-19
 -1      4223 9.29061E-05-2.57836E-05-2.87571E-05 7.14021E-07-2.81488E-19 5.72423E-19
 -1      4224 9.39650E-05-2.68400E-05-2.87727E-05 5.99495E-07 3.96262E-19-2.49726E-19
 -1      4225 9.37627E-05-2.66127E-05-2.87794E-05 7.09863E-07 1.90075E-20 5.95870E-19
 -1      4226 9.35153E-05-2.63625E-05-2.87688E-05 5.45847E-07-1.69343E-19 4.01678E-19
 -1      4227 9.43315E-05-2.72436E-05-2.87558E-05 4.41708E-07-1.22690E-19 3.65002E-19
 -1      4228 9.41762E-05-2.70560E-05-2.87663E-05 5.29423E-07 1.90870E-19-3.59112E-20
 -1      4229 9.39891E-05-2.68538E-05-2.87633E-05 4.09286E-07-2.00005E-19-4.35263E-19
 -1      4230 9.46094E-05-2.75710E-05-2.87337E-05 3.18696E-07-3.32318E-19 4.64572E-19
 -1      4231 9.44925E-05-2.74194E-05-2.87459E-05 3.87612E-07-3.18288E-19 7.50737E-19
 -1      4232 9.43526E-05-2.72588E-05-2.87476E-05 3.01018E-07-4.10229E-19-3.10558E-19
 -1      4233 9.48161E-05-2.78316E-05-2.87098E-05 2.24083E-07-7.44377E-19 2.99379E-19
 -1      4234 9.47299E-05-2.77115E-05-2.87223E-05 2.77480E-07-2.33709E-19 1.09675E-18
 -1      4235 9.46272E-05-2.75860E-05-2.87269E-05 2.16617E-07-1.23398E-19 2.46892E-19
 -1      4236 9.49663E-05-2.80353E-05-2.86864E-05 1.52425E-07-9.74765E-19 5.60377E-20
 -1      4237 9.49044E-05-2.79418E-05-2.86983E-05 1.93162E-07-1.00109E-18-1.94928E-19
 -1      4238 9.48305E-05-2.78454E-05-2.87042E-05 1.51850E-07-3.08893E-19 5.18376E-21
 -1      4239 9.50727E-05-2.81916E-05-2.86645E-05 9.90612E-08 5.94102E-20 1.50143E-19
 -1      4240 9.50295E-05-2.81201E-05-2.86754E-05 1.29632E-07-2.90081E-19-2.07358E-20
 -1      4241 9.49777E-05-2.80474E-05-2.86818E-05 1.02945E-07-6.46226E-19-1.39798E-18
 -1      4242 9.51456E-05-2.83094E-05-2.86449E-05 6.00424E-08 1.15718E-19 5.55945E-19
 -1      4243 9.51164E-05-2.82557E-05-2.86545E-05 8.26282E-08 4.75566E-19 1.19190E-18
 -1      4244 9.50814E-05-2.82019E-05-2.86609E-05 6.67509E-08-2.00198E-19-8.88556E-19
 -1      4245 9.51942E-05-2.83975E-05-2.86277E-05 3.22185E-08 1.74510E-19 3.28000E-19
 -1      4246 9.51749E-05-2.83578E-05-2.86360E-05 4.76385E-08-2.19945E-19 5.25934E-19
 -1      4247 9.51509E-05-2.83174E-05-2.86419E-05 4.00406E-08-1.73447E-19 2.35846E-19
 -1      4248 8.61900E-05-1.80864E-05-2.92076E-05 2.06227E-06 1.81876E-19-1.43479E-18
 -1      4249 8.58885E-05-1.83920E-05-2.89111E-05 2.57013E-06 2.42565E-19-1.34723E-18
 -1      4250 8.47808E-05-1.85204E-05-2.84001E-05 3.14395E-06 2.48382E-19-1.25651E-18
 -1      4251 8.59118E-05-1.75419E-05-2.93022E-05 5.72300E-07 4.37726E-19-1.34742E-18
 -1      4252 8.71190E-05-2.19679E-05-2.79492E-05 3.60770E-06-4.79638E-19 2.46105E-19
 -1      4253 8.63644E-05-2.16450E-05-2.77372E-05 4.11024E-06 2.18541E-19-3.25301E-20
 -1      4254 8.49327E-05-2.07924E-05-2.74459E-05 3.30848E-06-1.80911E-19-1.45944E-18
 -1      4255 7.71980E-05-1.86907E-05-2.50483E-05-6.00426E-06 5.39055E-19-2.54844E-19
 -1      4256 7.88014E-05-1.89560E-05-2.56969E-05-5.07482E-06 7.10432E-19-8.12873E-19
 -1      4257 7.87542E-05-1.84407E-05-2.58033E-05-2.76024E-06 2.67007E-19-2.86105E-19
 -1      4258 8.67013E-05-2.27860E-05-2.73736E-05-9.83184E-06 7.91178E-20-8.51923E-19
 -1      4259 8.69045E-05-2.20764E-05-2.78291E-05-8.60100E-06 1.14180E-19-7.56983E-19
 -1      4260 8.50650E-05-2.02020E-05-2.77479E-05-6.76330E-06 2.94871E-19-1.02272E-18
 -1      4261 8.37065E-05-2.10246E-05-2.67969E-05-9.02008E-06 9.33118E-20-1.02409E-18
 -1      4262 6.86658E-05-1.58078E-05-2.25126E-05 6.50176E-07 6.63459E-19-1.96796E-18
 -1      4263 7.16088E-05-1.69748E-05-2.34661E-05-4.26690E-06 4.02233E-19-1.80739E-18
 -1      4264 7.44314E-05-1.73359E-05-2.45712E-05-3.18546E-06 2.81705E-19-1.44292E-18
 -1      4265 7.21229E-05-1.69103E-05-2.36071E-05 3.30376E-06 6.21431E-19-1.99658E-18
 -1      4266 8.54535E-05-1.79405E-05-2.89109E-05-1.04922E-07 3.54866E-19-1.33934E-18
 -1      4267 9.52177E-05-2.84503E-05-2.86148E-05 7.80994E-09 4.09148E-19-5.32277E-19
 -1      4268 9.52067E-05-2.84214E-05-2.86218E-05 2.20038E-08 4.61592E-19-7.25280E-19
 -1      4269 9.51930E-05-2.83978E-05-2.86268E-05 1.95929E-08 4.30334E-19-1.15410E-18
 -1      4270 9.52161E-05-2.84487E-05-2.86152E-05 3.07059E-09 4.09559E-19-2.62451E-18
 -1      4271 8.87276E-05-2.27663E-05-2.82898E-05 2.83197E-06-6.81287E-19 2.46687E-19
 -1      4272 8.80607E-05-2.23899E-05-2.81472E-05 3.21766E-06-2.16396E-19 7.74315E-20
 -1      4273 8.86708E-05-2.25876E-05-2.82799E-05 2.01006E-06-3.72290E-19-1.10903E-18
 -1      4274 7.47663E-05-1.83743E-05-2.42114E-05 8.05996E-06 7.56281E-19-1.97118E-18
 -1      4275 7.93741E-05-1.83868E-05-2.61863E-05 4.61122E-06 3.48045E-19-1.67573E-18
 -1      4276 7.76178E-05-1.83067E-05-2.53948E-05 5.51617E-06 5.32844E-19-1.87395E-18
 -1      4277 7.94817E-05-1.76956E-05-2.64097E-05 2.12019E-06 2.50760E-19-1.47968E-18
 -1      4278 8.55261E-05-1.89292E-05-2.85705E-05-3.66169E-06 4.32381E-19-1.29916E-18
 -1      4279 8.11293E-05-2.09797E-05-2.57718E-05 8.62110E-06-4.26667E-19-2.67589E-19
 -1      4280 7.83903E-05-1.93939E-05-2.52182E-05 7.30111E-06-9.62717E-19-7.84070E-19
 -1      4281 8.16400E-05-2.07494E-05-2.61418E-05 7.57087E-06-7.84586E-19-3.08953E-19
 -1      4282 7.38646E-05-1.79491E-05-2.40223E-05 6.04095E-06-4.37757E-19-3.68901E-19
 -1      4283 7.45008E-05-1.73460E-05-2.44659E-05 4.78537E-06 5.57269E-19-1.95221E-18
 -1      4284 8.34123E-05-2.08734E-05-2.68437E-05 5.97244E-06-1.80579E-18-1.20775E-19
 -1      4285 8.28521E-05-2.09139E-05-2.65500E-05 6.78363E-06-1.67019E-18-6.34272E-19
 -1      4286 8.29843E-05-2.01945E-05-2.68563E-05 4.28114E-06-1.46488E-18-1.53483E-18
 -1      4287 8.41477E-05-1.89961E-05-2.79583E-05-3.87996E-06 3.53188E-19-1.22546E-18
 -1      4288 8.43902E-05-1.80827E-05-2.83881E-05-1.71041E-06 3.90223E-19-1.40995E-18
 -1      4289 8.40120E-05-1.80022E-05-2.83070E-05 4.80572E-08 2.89837E-19-1.28738E-18
 -1      4290 8.32418E-05-1.83333E-05-2.78168E-05 1.57895E-06 2.06470E-19-1.23845E-18
 -1      4291 8.69869E-05-2.16694E-05-2.79427E-05 2.57286E-06-1.89304E-19-8.47026E-19
 -1      4292 7.49498E-05-1.77532E-05-2.44748E-05-5.05971E-06 6.54713E-20 5.69627E-19
 -1      4293 9.52035E-05-2.84181E-05-2.86221E-05 2.19049E-09 4.54252E-19-2.65012E-18
 -1      4294 7.12005E-05-1.64244E-05-2.34084E-05-1.82963E-06 4.03623E-19-3.22712E-19
 -1      4295 7.33813E-05-1.72348E-05-2.40312E-05-3.48230E-06 2.83002E-19 1.53155E-19
 -1      4296 7.51351E-05-1.74588E-05-2.47694E-05-1.63467E-06 2.98590E-19-1.76115E-19
 -1      4297 7.23894E-05-1.67954E-05-2.38755E-05 1.59207E-06 8.10488E-20-5.23622E-19
 -1      4298 8.11599E-05-1.91820E-05-2.65778E-05-4.69673E-07-1.23142E-18-1.71445E-18
 -1      4299 8.25627E-05-1.96125E-05-2.69796E-05-3.66170E-07-1.86538E-18-2.39561E-18
 -1      4300 9.13177E-05-2.44743E-05-2.86533E-05 6.26941E-07-9.76528E-21 9.05002E-19
 -1      4301 9.07595E-05-2.40235E-05-2.85957E-05 7.46956E-07 2.99196E-19-1.78303E-19
 -1      4302 7.75230E-05-1.80597E-05-2.54871E-05-1.06003E-06 1.86019E-19-9.18378E-19
 -1      4303 7.94067E-05-1.86248E-05-2.60876E-05-8.55018E-07-1.33995E-19-1.22332E-18
 -1      4304 8.02556E-05-1.87964E-05-2.63032E-05 1.07435E-06-1.09517E-18-1.94096E-18
 -1      4305 7.63472E-05-1.76745E-05-2.51089E-05 3.98342E-07 6.13392E-20-1.21835E-18
 -1      4306 8.44232E-05-2.04918E-05-2.74349E-05 6.54944E-07-6.98831E-19-1.79161E-18
 -1      4307 8.56449E-05-2.10339E-05-2.77217E-05 6.79441E-07-3.59222E-19-8.86207E-19
 -1      4308 8.66157E-05-2.15274E-05-2.79343E-05 4.43785E-07-3.14513E-19-1.33212E-18
 -1      4309 8.76023E-05-2.20305E-05-2.81292E-05 4.90350E-07-6.46682E-20-2.90938E-19
 -1      4310 8.84140E-05-2.25170E-05-2.82724E-05 3.12475E-07-3.22621E-19-8.17468E-19
 -1      4311 8.92247E-05-2.29987E-05-2.84021E-05 3.60208E-07-6.21946E-19-2.35408E-19
 -1      4312 9.08076E-05-2.40849E-05-2.86030E-05-3.47956E-07-1.29144E-18 1.39132E-18
 -1      4313 9.13491E-05-2.45003E-05-2.86575E-05-2.83218E-07-7.19949E-19 1.75451E-18
 -1      4314 9.19580E-05-2.49834E-05-2.87063E-05-2.21628E-07-5.21618E-19 1.95660E-18
 -1      4315 9.23597E-05-2.53244E-05-2.87293E-05-1.79941E-07 3.85061E-19 1.76170E-18
 -1      4316 9.28655E-05-2.57948E-05-2.87521E-05 8.16881E-08 3.52837E-19 1.16094E-18
 -1      4317 9.32048E-05-2.61077E-05-2.87621E-05 1.07887E-07 5.63947E-19-5.33634E-20
 -1      4318 9.34829E-05-2.63868E-05-2.87639E-05 5.20357E-08 9.57243E-19-5.70595E-19
 -1      4319 9.37478E-05-2.66450E-05-2.87638E-05 7.91606E-08 5.43956E-19-8.51133E-19
 -1      4320 9.39658E-05-2.68781E-05-2.87588E-05 3.42525E-08 3.27613E-20-1.10931E-18
 -1      4321 9.41704E-05-2.70907E-05-2.87526E-05 5.80942E-08-5.84735E-19-1.49316E-18
 -1      4322 9.43373E-05-2.72810E-05-2.87437E-05 2.23730E-08-6.84737E-19-1.19357E-18
 -1      4323 9.44925E-05-2.74530E-05-2.87343E-05 4.21365E-08-2.72642E-19-1.71638E-18
 -1      4324 9.46178E-05-2.76054E-05-2.87235E-05 1.42197E-08-7.73382E-20-1.81204E-18
 -1      4325 9.47331E-05-2.77420E-05-2.87127E-05 3.00956E-08 8.53564E-19-1.86442E-18
 -1      4326 9.48251E-05-2.78617E-05-2.87015E-05 8.61371E-09 8.56175E-19-2.49275E-18
 -1      4327 9.49090E-05-2.79683E-05-2.86904E-05 2.10559E-08 1.67359E-19-2.97416E-18
 -1      4328 9.49750E-05-2.80608E-05-2.86796E-05 4.79927E-09-8.37133E-20-3.12026E-18
 -1      4329 9.50345E-05-2.81425E-05-2.86690E-05 1.42871E-08-8.22581E-19-3.47165E-18
 -1      4330 9.50805E-05-2.82126E-05-2.86590E-05 2.38456E-09-1.26522E-18-2.59037E-18
 -1      4331 9.51217E-05-2.82746E-05-2.86494E-05 9.58571E-09-4.69983E-19-2.85625E-18
 -1      4332 9.23303E-05-2.53121E-05-2.87286E-05 5.01508E-07 2.64756E-20 1.36450E-18
 -1      4333 9.19175E-05-2.49543E-05-2.87033E-05 6.03210E-07 3.32667E-19 1.82588E-18
 -1      4334 8.98947E-05-2.34504E-05-2.84943E-05 2.29467E-07-5.16631E-19-4.50765E-19
 -1      4335 8.33865E-05-1.92462E-05-2.75026E-05-4.75152E-06 2.77326E-19-1.23302E-18
 -1      4336 9.51528E-05-2.83259E-05-2.86404E-05 1.49618E-09 1.99343E-20-1.98905E-18
 -1      4337 7.86530E-05-1.81017E-05-2.58453E-05-4.89534E-06 7.98254E-20-1.01399E-18
 -1      4338 8.12644E-05-1.97795E-05-2.63663E-05-7.16410E-06 1.46709E-19-1.11125E-18
 -1      4339 8.19866E-05-1.94273E-05-2.68943E-05-5.97423E-06 2.76582E-19-1.17872E-18
 -1      4340 7.41433E-05-1.73195E-05-2.42957E-05 3.31220E-06-1.11054E-19-8.20355E-19
 -1      4341 7.53334E-05-1.75294E-05-2.47672E-05 1.75710E-06-5.16268E-20-9.61292E-19
 -1      4342 7.75377E-05-1.81711E-05-2.54790E-05 2.08993E-06-7.00319E-19-1.64862E-18
 -1      4343 8.05579E-05-1.80425E-05-2.68150E-05-9.69682E-07 1.73113E-19-1.17979E-18
 -1      4344 7.84281E-05-1.77898E-05-2.60479E-05-9.69767E-07 2.52692E-19-1.31652E-18
 -1      4345 7.66948E-05-1.86163E-05-2.49110E-05 5.79267E-06-8.45572E-19-8.34935E-19
 -1      4346 7.50255E-05-1.70344E-05-2.48379E-05 1.03627E-06 5.08412E-19-1.76261E-18
 -1      4347 7.67410E-05-1.76395E-05-2.53474E-05-1.67673E-06 2.32648E-19-1.29918E-18
 -1      4348 7.80813E-05-1.87802E-05-2.54349E-05 4.83369E-06-4.77342E-19-1.02504E-18
 -1      4349 9.25148E-05-2.54677E-05-2.87391E-05 1.37141E-07 3.40644E-19 1.67173E-18
 -1      4350 8.26989E-05-1.99108E-05-2.69458E-05 2.50022E-06-1.33412E-18-2.09297E-18
 -1      4351 8.17658E-05-1.96345E-05-2.66555E-05 3.00227E-06-1.50092E-18-1.44417E-18
 -1      4352 8.17162E-05-1.81642E-05-2.71537E-05-2.84053E-06 2.53269E-19-1.08529E-18
 -1      4353 9.15759E-05-2.46623E-05-2.86710E-05 1.75635E-07-4.36048E-19 1.93692E-18
 -1      4354 9.05514E-05-2.39008E-05-2.85765E-05 2.52877E-07-2.53863E-19-1.34326E-19
 -1      4355 9.51710E-05-2.83581E-05-2.86340E-05-7.34836E-09-5.10534E-20-2.33262E-18
 -1      4356 8.18994E-05-1.79793E-05-2.74400E-05-4.56137E-08 2.17568E-19-1.18459E-18
 -1      4357 8.32499E-05-2.00142E-05-2.71254E-05 9.17027E-07-1.15687E-18-1.84662E-18
 -1      4358 8.07933E-05-1.97342E-05-2.61544E-05 5.59410E-06-1.26387E-18-7.81179E-19
 -1      4359 8.01169E-05-1.90750E-05-2.61675E-05 3.00153E-06-1.14502E-18-1.12724E-18
 -1      4360 9.51892E-05-2.83896E-05-2.86278E-05-1.71610E-09-3.05241E-20-2.01452E-18
 -1      4361 7.93993E-05-1.89758E-05-2.58811E-05 4.17132E-06-1.27269E-18-9.73322E-19
 -3
    1PSTEP                         4           1           1          
  100CL  101 1.000000000        4361                     0    1           1
 -4  ERROR       1    1
 -5  STR(%)      1    1    0    0
 -1         1 1.96025E+01
 -1         2 2.64219E+01
 -1         3 6.55751E-04
 -1         4 6.89533E-04
 -1         5 1.36413E+01
 -1         6 1.27362E+01
 -1         7 1.27362E+01
 -1         8 3.52411E+00
 -1         9 1.85091E+00
 -1        10 1.34945E+00
 -1        11 1.07571E+00
 -1        12 8.78356E-01
 -1        13 7.28515E-01
 -1        14 6.17899E-01
 -1        15 6.25069E-01
 -1        16 7.38381E-01
 -1        17 8.80866E-01
 -1        18 1.08556E+00
 -1        19 1.36961E+00
 -1        20 1.86102E+00
 -1        21 3.37327E+00
 -1        22 8.26841E+00
 -1        23 1.27362E+01
 -1        24 4.16692E+00
 -1        25 3.03381E+00
 -1        26 1.86658E+00
 -1        27 1.34768E+00
 -1        28 9.70805E-01
 -1        29 8.60711E-01
 -1        30 8.70458E-01
 -1        31 1.17945E+00
 -1        32 1.38024E+00
 -1        33 1.38024E+00
 -1        34 1.39220E+00
 -1        35 1.39220E+00
 -1        36 1.81500E+00
 -1        37 3.06920E+00
 -1        38 4.16105E+00
 -1        39 4.16105E+00
 -1        40 4.12713E+00
 -1        41 4.10794E+00
 -1        42 2.89562E+00
 -1        43 1.82507E+00
 -1        44 1.47676E+00
 -1        45 1.47676E+00
 -1        46 1.42009E+00
 -1        47 1.42009E+00
 -1        48 1.25646E+00
 -1        49 1.02406E+00
 -1        50 8.18988E-01
 -1        51 6.37037E-01
 -1        52 5.25548E-01
 -1        53 4.37052E-01
 -1        54 3.51248E-01
 -1        55 2.74225E-01
 -1        56 2.08552E-01
 -1        57 1.54633E-01
 -1        58 1.13524E-01
 -1        59 9.47967E-02
 -1        60 7.72691E-02
 -1        61 6.15994E-02
 -1        62 4.80366E-02
 -1        63 3.65724E-02
 -1        64 2.70462E-02
 -1        65 2.13644E-02
 -1        66 1.71566E-02
 -1        67 1.30949E-02
 -1        68 9.20242E-03
 -1        69 5.84849E-03
 -1        70 5.10985E-03
 -1        71 3.37229E-03
 -1        72 1.36413E+01
 -1        73 3.33651E+00
 -1        74 2.27027E+00
 -1        75 1.56189E+00
 -1        76 1.30792E+00
 -1        77 1.07979E+00
 -1        78 8.56291E-01
 -1        79 7.89459E-01
 -1        80 7.65011E-01
 -1        81 9.38188E-01
 -1        82 1.00474E+00
 -1        83 1.29483E+00
 -1        84 1.32589E+00
 -1        85 1.65907E+00
 -1        86 2.06757E+00
 -1        87 3.04121E+00
 -1        88 3.33921E+00
 -1        89 3.72950E+00
 -1        90 3.72950E+00
 -1        91 3.01835E+00
 -1        92 1.79773E+00
 -1        93 1.21411E+00
 -1        94 1.03760E+00
 -1        95 1.22312E+00
 -1        96 1.22312E+00
 -1        97 1.20837E+00
 -1        98 1.07793E+00
 -1        99 9.09908E-01
 -1       100 7.55424E-01
 -1       101 5.99639E-01
 -1       102 4.57632E-01
 -1       103 3.36623E-01
 -1       104 2.65627E-01
 -1       105 2.03811E-01
 -1       106 1.52248E-01
 -1       107 1.10657E-01
 -1       108 7.80325E-02
 -1       109 5.30698E-02
 -1       110 4.38796E-02
 -1       111 3.60128E-02
 -1       112 2.88173E-02
 -1       113 2.24431E-02
 -1       114 1.89357E-02
 -1       115 1.63918E-02
 -1       116 1.34886E-02
 -1       117 1.03498E-02
 -1       118 7.26019E-03
 -1       119 5.02120E-03
 -1       120 3.09466E-03
 -1       121 1.44616E-03
 -1       122 1.16739E-03
 -1       123 5.40319E-04
 -1       124 4.30703E-04
 -1       125 6.07832E-04
 -1       126 6.89462E-04
 -1       127 7.15135E-04
 -1       128 7.16839E-04
 -1       129 7.16839E-04
 -1       130 7.16245E-04
 -1       131 6.85173E-04
 -1       132 6.09744E-04
 -1       133 4.30821E-04
 -1       134 5.69317E-04
 -1       135 1.54594E-03
 -1       136 2.24934E-03
 -1       137 2.64219E+01
 -1       138 4.65144E+01
 -1       139 4.65144E+01
 -1       140 1.89030E+01
 -1       141 1.18363E+01
 -1       142 1.22940E+01
 -1       143 1.22940E+01
 -1       144 1.34150E+01
 -1       145 1.34150E+01
 -1       146 1.23565E+01
 -1       147 2.76970E+01
 -1       148 2.97287E+01
 -1       149 2.97287E+01
 -1       150 2.60009E+01
 -1       151 2.50721E+01
 -1       152 2.53505E+01
 -1       153 3.76568E+01
 -1       154 3.76568E+01
 -1       155 1.43698E+01
 -1       156 1.23602E+01
 -1       157 1.32356E+01
 -1       158 1.32356E+01
 -1       159 1.26510E+01
 -1       160 1.19999E+01
 -1       161 4.72346E+01
 -1       162 4.72346E+01
 -1       163 2.56126E+01
 -1       164 5.81447E+00
 -1       165 2.33573E+00
 -1       166 1.59070E+00
 -1       167 1.21339E+00
 -1       168 9.74969E-01
 -1       169 8.03005E-01
 -1       170 6.72827E-01
 -1       171 5.86807E-01
 -1       172 6.81116E-01
 -1       173 8.08757E-01
 -1       174 9.86797E-01
 -1       175 1.23042E+00
 -1       176 1.61139E+00
 -1       177 2.32432E+00
 -1       178 3.78897E+00
 -1       179 1.36413E+01
 -1       180 4.16692E+00
 -1       181 3.03381E+00
 -1       182 1.86658E+00
 -1       183 1.34768E+00
 -1       184 9.70805E-01
 -1       185 8.23615E-01
 -1       186 8.60711E-01
 -1       187 8.75011E-01
 -1       188 1.17945E+00
 -1       189 1.38024E+00
 -1       190 1.36874E+00
 -1       191 1.39220E+00
 -1       192 1.27747E+00
 -1       193 1.85604E+00
 -1       194 3.06920E+00
 -1       195 4.16105E+00
 -1       196 4.12713E+00
 -1       197 4.10794E+00
 -1       198 2.89562E+00
 -1       199 1.82507E+00
 -1       200 1.30710E+00
 -1       201 1.47676E+00
 -1       202 1.40829E+00
 -1       203 1.42009E+00
 -1       204 1.25646E+00
 -1       205 1.03670E+00
 -1       206 8.83953E-01
 -1       207 7.57008E-01
 -1       208 6.15578E-01
 -1       209 4.79723E-01
 -1       210 3.59997E-01
 -1       211 2.74225E-01
 -1       212 2.14080E-01
 -1       213 1.64245E-01
 -1       214 1.23126E-01
 -1       215 9.47967E-02
 -1       216 7.72691E-02
 -1       217 6.15994E-02
 -1       218 4.80366E-02
 -1       219 3.65724E-02
 -1       220 2.74891E-02
 -1       221 2.13644E-02
 -1       222 1.71566E-02
 -1       223 1.30949E-02
 -1       224 9.31203E-03
 -1       225 6.34258E-03
 -1       226 5.10985E-03
 -1       227 3.37229E-03
 -1       228 3.33651E+00
 -1       229 2.27027E+00
 -1       230 1.56189E+00
 -1       231 1.30792E+00
 -1       232 1.07979E+00
 -1       233 8.56291E-01
 -1       234 7.89459E-01
 -1       235 7.65011E-01
 -1       236 7.30043E-01
 -1       237 9.38188E-01
 -1       238 1.00474E+00
 -1       239 1.29483E+00
 -1       240 1.32589E+00
 -1       241 1.65907E+00
 -1       242 2.15912E+00
 -1       243 3.04121E+00
 -1       244 3.33921E+00
 -1       245 3.72950E+00
 -1       246 3.01835E+00
 -1       247 1.79773E+00
 -1       248 1.21411E+00
 -1       249 9.99626E-01
 -1       250 1.03760E+00
 -1       251 1.22312E+00
 -1       252 1.20837E+00
 -1       253 1.07793E+00
 -1       254 9.09908E-01
 -1       255 7.58505E-01
 -1       256 6.20260E-01
 -1       257 4.87334E-01
 -1       258 3.69360E-01
 -1       259 2.70348E-01
 -1       260 2.03811E-01
 -1       261 1.52248E-01
 -1       262 1.11613E-01
 -1       263 8.09380E-02
 -1       264 5.69906E-02
 -1       265 4.38796E-02
 -1       266 3.60128E-02
 -1       267 2.88173E-02
 -1       268 2.24431E-02
 -1       269 1.89357E-02
 -1       270 1.63918E-02
 -1       271 1.34886E-02
 -1       272 1.03498E-02
 -1       273 7.26019E-03
 -1       274 5.02120E-03
 -1       275 3.09466E-03
 -1       276 1.21174E-03
 -1       277 1.04520E-03
 -1       278 6.97749E-04
 -1       279 1.01643E-03
 -1       280 1.18724E-03
 -1       281 1.24448E-03
 -1       282 1.25850E-03
 -1       283 1.25899E-03
 -1       284 1.25899E-03
 -1       285 1.24303E-03
 -1       286 1.18863E-03
 -1       287 1.03301E-03
 -1       288 7.47016E-04
 -1       289 7.47016E-04
 -1       290 2.10700E-03
 -1       291 2.95430E+01
 -1       292 2.65685E+01
 -1       293 4.65144E+01
 -1       294 1.95020E+01
 -1       295 1.07513E+01
 -1       296 1.18363E+01
 -1       297 1.22940E+01
 -1       298 1.16379E+01
 -1       299 1.34150E+01
 -1       300 1.23565E+01
 -1       301 1.22877E+01
 -1       302 2.96599E+01
 -1       303 3.31487E+01
 -1       304 3.31487E+01
 -1       305 2.84722E+01
 -1       306 2.84722E+01
 -1       307 3.37523E+01
 -1       308 3.76568E+01
 -1       309 1.52398E+01
 -1       310 1.12964E+01
 -1       311 1.23602E+01
 -1       312 1.32356E+01
 -1       313 1.26510E+01
 -1       314 1.19999E+01
 -1       315 1.12893E+01
 -1       316 2.09563E+01
 -1       317 4.72346E+01
 -1       318 2.95437E+01
 -1       319 2.95430E+01
 -1       320 1.13801E+00
 -1       321 2.38861E+00
 -1       322 8.48513E-01
 -1       323 7.02691E-01
 -1       324 5.89737E-01
 -1       325 4.95997E-01
 -1       326 5.05127E-01
 -1       327 5.97319E-01
 -1       328 7.15344E-01
 -1       329 8.52267E-01
 -1       330 1.01558E+00
 -1       331 1.24197E+00
 -1       332 1.36078E+00
 -1       333 1.95994E+00
 -1       334 1.60393E+00
 -1       335 1.40226E+00
 -1       336 8.44579E-01
 -1       337 6.35555E-01
 -1       338 5.27162E-01
 -1       339 6.05734E-01
 -1       340 6.89731E-01
 -1       341 8.38886E-01
 -1       342 9.73645E-01
 -1       343 9.52220E-01
 -1       344 8.72290E-01
 -1       345 9.54490E-01
 -1       346 1.29679E+00
 -1       347 1.85283E+00
 -1       348 2.41993E+00
 -1       349 2.51206E+00
 -1       350 2.55706E+00
 -1       351 2.37934E+00
 -1       352 1.80090E+00
 -1       353 1.17569E+00
 -1       354 9.40291E-01
 -1       355 8.54331E-01
 -1       356 1.05300E+00
 -1       357 1.09825E+00
 -1       358 1.01438E+00
 -1       359 9.05225E-01
 -1       360 8.09305E-01
 -1       361 6.90490E-01
 -1       362 5.63989E-01
 -1       363 4.44414E-01
 -1       364 3.39326E-01
 -1       365 2.51519E-01
 -1       366 1.80914E-01
 -1       367 1.25903E-01
 -1       368 9.01284E-02
 -1       369 6.44973E-02
 -1       370 4.69915E-02
 -1       371 3.84004E-02
 -1       372 3.11863E-02
 -1       373 2.46154E-02
 -1       374 1.87948E-02
 -1       375 1.37696E-02
 -1       376 1.13085E-02
 -1       377 8.73510E-03
 -1       378 6.18131E-03
 -1       379 4.26609E-03
 -1       380 2.99170E-03
 -1       381 9.49911E-01
 -1       382 6.95021E-01
 -1       383 6.44458E-01
 -1       384 5.66605E-01
 -1       385 6.06698E-01
 -1       386 6.86644E-01
 -1       387 7.06299E-01
 -1       388 7.06299E-01
 -1       389 5.67737E-01
 -1       390 5.38034E-01
 -1       391 1.03639E+00
 -1       392 1.64744E+00
 -1       393 1.90792E+00
 -1       394 1.90792E+00
 -1       395 1.89794E+00
 -1       396 2.18497E+00
 -1       397 2.01244E+00
 -1       398 1.36246E+00
 -1       399 8.30405E-01
 -1       400 5.63805E-01
 -1       401 8.02521E-01
 -1       402 8.77591E-01
 -1       403 9.10776E-01
 -1       404 8.68827E-01
 -1       405 7.79531E-01
 -1       406 6.87667E-01
 -1       407 5.76175E-01
 -1       408 4.63183E-01
 -1       409 3.59337E-01
 -1       410 2.69801E-01
 -1       411 1.96706E-01
 -1       412 1.49942E-01
 -1       413 1.11613E-01
 -1       414 8.09380E-02
 -1       415 5.69906E-02
 -1       416 3.87132E-02
 -1       417 2.73584E-02
 -1       418 2.31875E-02
 -1       419 1.89591E-02
 -1       420 1.49146E-02
 -1       421 1.11902E-02
 -1       422 9.03273E-03
 -1       423 7.37026E-03
 -1       424 5.63618E-03
 -1       425 4.12456E-03
 -1       426 2.84043E-03
 -1       427 1.37589E-03
 -1       428 2.07756E-03
 -1       429 2.19271E-03
 -1       430 1.54268E-03
 -1       431 1.55419E-03
 -1       432 1.55419E-03
 -1       433 1.53054E-03
 -1       434 1.53111E-03
 -1       435 1.55697E-03
 -1       436 1.55697E-03
 -1       437 1.53994E-03
 -1       438 1.40754E-03
 -1       439 2.45330E-03
 -1       440 2.65685E+01
 -1       441 3.06472E+01
 -1       442 3.06472E+01
 -1       443 1.58495E+01
 -1       444 9.22698E+00
 -1       445 1.01882E+00
 -1       446 9.76138E+00
 -1       447 1.14035E+01
 -1       448 1.12725E+01
 -1       449 7.84677E+00
 -1       450 6.40540E+00
 -1       451 1.14096E+01
 -1       452 2.04369E+01
 -1       453 3.31487E+01
 -1       454 3.48012E+01
 -1       455 3.48012E+01
 -1       456 2.62545E+01
 -1       457 2.23197E+01
 -1       458 1.28082E+01
 -1       459 7.71285E+00
 -1       460 8.91622E+00
 -1       461 9.91458E+00
 -1       462 1.11663E+01
 -1       463 9.52758E+00
 -1       464 7.52727E+00
 -1       465 9.21825E+00
 -1       466 1.69172E+01
 -1       467 2.95437E+01
 -1       468 2.87804E+01
 -1       469 7.33529E+00
 -1       470 7.14544E+00
 -1       471 2.37653E+01
 -1       472 8.49501E+00
 -1       473 7.50562E-01
 -1       474 4.94401E-01
 -1       475 5.75077E-01
 -1       476 3.35637E-01
 -1       477 4.14124E-01
 -1       478 5.01052E-01
 -1       479 5.75736E-01
 -1       480 6.13451E-01
 -1       481 8.75609E-01
 -1       482 4.51953E-01
 -1       483 5.95408E-01
 -1       484 4.18934E+00
 -1       485 4.69592E-01
 -1       486 4.05750E-01
 -1       487 5.35236E-01
 -1       488 6.74516E-01
 -1       489 7.89877E-01
 -1       490 9.62611E-01
 -1       491 1.12708E+00
 -1       492 1.23474E+00
 -1       493 1.48635E+00
 -1       494 1.68289E+00
 -1       495 2.02330E+00
 -1       496 2.04841E+00
 -1       497 2.99275E+00
 -1       498 3.35704E+00
 -1       499 2.90511E+00
 -1       500 1.95670E+00
 -1       501 1.84014E+00
 -1       502 1.72375E+00
 -1       503 1.42513E+00
 -1       504 1.31830E+00
 -1       505 1.22340E+00
 -1       506 1.07563E+00
 -1       507 9.55318E-01
 -1       508 8.53910E-01
 -1       509 7.34938E-01
 -1       510 6.09614E-01
 -1       511 4.90511E-01
 -1       512 3.84399E-01
 -1       513 2.94053E-01
 -1       514 2.19738E-01
 -1       515 1.60308E-01
 -1       516 1.13930E-01
 -1       517 7.85473E-02
 -1       518 5.21535E-02
 -1       519 3.33655E-02
 -1       520 2.29535E-02
 -1       521 1.83882E-02
 -1       522 1.55110E-02
 -1       523 1.25152E-02
 -1       524 9.60047E-03
 -1       525 6.97315E-03
 -1       526 5.48622E-03
 -1       527 3.93164E-03
 -1       528 4.07281E-01
 -1       529 5.28180E-01
 -1       530 6.36737E-01
 -1       531 7.51472E-01
 -1       532 8.21270E-01
 -1       533 8.23279E-01
 -1       534 1.03275E+00
 -1       535 1.01753E+00
 -1       536 1.55338E+00
 -1       537 1.73413E+00
 -1       538 2.26469E+00
 -1       539 2.23091E+00
 -1       540 2.27275E+00
 -1       541 1.82633E+00
 -1       542 1.50734E+00
 -1       543 1.19674E+00
 -1       544 1.07679E+00
 -1       545 8.85972E-01
 -1       546 9.59255E-01
 -1       547 9.32770E-01
 -1       548 8.49899E-01
 -1       549 7.84083E-01
 -1       550 7.02781E-01
 -1       551 6.02080E-01
 -1       552 4.95503E-01
 -1       553 3.94313E-01
 -1       554 3.04589E-01
 -1       555 2.28786E-01
 -1       556 1.67085E-01
 -1       557 1.18392E-01
 -1       558 8.10084E-02
 -1       559 5.33468E-02
 -1       560 3.74806E-02
 -1       561 2.73584E-02
 -1       562 2.31875E-02
 -1       563 1.89591E-02
 -1       564 1.49146E-02
 -1       565 1.11902E-02
 -1       566 8.67993E-03
 -1       567 6.77136E-03
 -1       568 4.87704E-03
 -1       569 3.88941E-03
 -1       570 1.96633E-03
 -1       571 1.77057E-03
 -1       572 3.01138E-03
 -1       573 1.96633E-03
 -1       574 1.63356E-03
 -1       575 1.53926E-03
 -1       576 1.63446E-03
 -1       577 1.78080E-03
 -1       578 1.85707E-03
 -1       579 1.85707E-03
 -1       580 1.94789E-03
 -1       581 3.06472E+01
 -1       582 1.27749E+01
 -1       583 3.41802E-01
 -1       584 2.87804E+01
 -1       585 1.94051E+01
 -1       586 1.01882E+00
 -1       587 2.03012E+01
 -1       588 1.78073E+01
 -1       589 4.08857E-01
 -1       590 7.07546E+00
 -1       591 4.10042E+00
 -1       592 7.97225E+00
 -1       593 7.62916E+00
 -1       594 7.16101E+00
 -1       595 9.36163E+00
 -1       596 1.51891E+01
 -1       597 3.48012E+01
 -1       598 2.62545E+01
 -1       599 1.03127E+01
 -1       600 3.72309E+00
 -1       601 5.81235E+00
 -1       602 7.13311E+00
 -1       603 5.86671E+00
 -1       604 6.05490E+00
 -1       605 8.12098E+00
 -1       606 1.31829E+01
 -1       607 5.33789E+00
 -1       608 1.10287E+00
 -1       609 8.72053E+00
 -1       610 6.89328E-01
 -1       611 6.39003E+00
 -1       612 6.56417E+00
 -1       613 1.60763E+01
 -1       614 1.99891E+01
 -1       615 6.61179E+00
 -1       616 3.50396E+00
 -1       617 5.76315E+00
 -1       618 2.58152E-03
 -1       619 3.44970E-01
 -1       620 2.63384E-01
 -1       621 5.19772E-01
 -1       622 5.67751E-01
 -1       623 5.67585E-01
 -1       624 1.47832E+01
 -1       625 4.66234E+00
 -1       626 4.13890E+00
 -1       627 1.11928E+01
 -1       628 4.86867E-01
 -1       629 5.35042E-01
 -1       630 6.69791E-01
 -1       631 8.37643E-01
 -1       632 1.01614E+00
 -1       633 1.25371E+00
 -1       634 1.60544E+00
 -1       635 2.00045E+00
 -1       636 2.35075E+00
 -1       637 2.44475E+00
 -1       638 3.16364E+00
 -1       639 2.99275E+00
 -1       640 3.35704E+00
 -1       641 2.90511E+00
 -1       642 2.48235E+00
 -1       643 2.80666E+00
 -1       644 2.19379E+00
 -1       645 1.87414E+00
 -1       646 1.54621E+00
 -1       647 1.23551E+00
 -1       648 1.07563E+00
 -1       649 9.27919E-01
 -1       650 7.77767E-01
 -1       651 6.32105E-01
 -1       652 5.00927E-01
 -1       653 3.88150E-01
 -1       654 2.95246E-01
 -1       655 2.24719E-01
 -1       656 1.68071E-01
 -1       657 1.23333E-01
 -1       658 8.85845E-02
 -1       659 6.20565E-02
 -1       660 4.21787E-02
 -1       661 2.75906E-02
 -1       662 1.71386E-02
 -1       663 1.10213E-02
 -1       664 8.88395E-03
 -1       665 7.80166E-03
 -1       666 6.38985E-03
 -1       667 4.85792E-03
 -1       668 3.56382E-03
 -1       669 6.61900E-01
 -1       670 4.24522E-03
 -1       671 5.45980E-01
 -1       672 9.85315E-01
 -1       673 1.16063E+00
 -1       674 1.28469E+00
 -1       675 1.68732E+00
 -1       676 2.02972E+00
 -1       677 2.96067E+00
 -1       678 3.04159E+00
 -1       679 4.19480E+00
 -1       680 4.30330E+00
 -1       681 4.13890E+00
 -1       682 4.03359E+00
 -1       683 1.99596E+00
 -1       684 1.91706E+00
 -1       685 1.39421E+00
 -1       686 1.31959E+00
 -1       687 1.16908E+00
 -1       688 9.92061E-01
 -1       689 8.64587E-01
 -1       690 7.63054E-01
 -1       691 6.48608E-01
 -1       692 5.34854E-01
 -1       693 4.29777E-01
 -1       694 3.37407E-01
 -1       695 2.59145E-01
 -1       696 1.94763E-01
 -1       697 1.43117E-01
 -1       698 1.02616E-01
 -1       699 7.15301E-02
 -1       700 4.81823E-02
 -1       701 3.10493E-02
 -1       702 1.88043E-02
 -1       703 1.28918E-02
 -1       704 1.15127E-02
 -1       705 9.68931E-03
 -1       706 7.67533E-03
 -1       707 5.69743E-03
 -1       708 4.87704E-03
 -1       709 8.28985E+00
 -1       710 1.53921E-03
 -1       711 5.30988E+00
 -1       712 1.93821E-03
 -1       713 1.53926E-03
 -1       714 1.63356E-03
 -1       715 1.63446E-03
 -1       716 1.97382E-03
 -1       717 2.16541E-03
 -1       718 1.57389E+01
 -1       719 1.06782E+01
 -1       720 7.86506E-01
 -1       721 9.61154E+00
 -1       722 4.41670E-01
 -1       723 6.26545E+00
 -1       724 8.01338E-01
 -1       725 7.86506E-01
 -1       726 3.28612E+00
 -1       727 4.45371E-01
 -1       728 3.72780E-01
 -1       729 4.03359E+00
 -1       730 4.45787E-01
 -1       731 2.68975E+00
 -1       732 1.47422E+01
 -1       733 1.32281E+01
 -1       734 5.47164E+00
 -1       735 7.47590E+00
 -1       736 2.65600E-03
 -1       737 3.22005E+00
 -1       738 4.90871E+00
 -1       739 3.94655E+00
 -1       740 8.57077E+00
 -1       741 1.60436E+01
 -1       742 7.86506E-01
 -1       743 2.54529E-01
 -1       744 4.90583E+00
 -1       745 9.98700E+00
 -1       746 3.80994E+00
 -1       747 3.24060E-03
 -1       748 5.62341E+00
 -1       749 9.64482E+00
 -1       750 5.28262E+00
 -1       751 2.68594E-03
 -1       752 1.29766E+01
 -1       753 4.64512E+00
 -1       754 3.33405E-01
 -1       755 5.32121E-01
 -1       756 5.74351E+00
 -1       757 6.45445E-01
 -1       758 7.97332E-01
 -1       759 1.06537E+00
 -1       760 1.41771E+00
 -1       761 1.83078E+00
 -1       762 2.28348E+00
 -1       763 3.35210E+00
 -1       764 5.62341E+00
 -1       765 3.85142E+00
 -1       766 3.64503E+00
 -1       767 2.86048E+00
 -1       768 2.16613E+00
 -1       769 1.71504E+00
 -1       770 1.35839E+00
 -1       771 1.05419E+00
 -1       772 8.26351E-01
 -1       773 6.49814E-01
 -1       774 5.21070E-01
 -1       775 4.14655E-01
 -1       776 3.21860E-01
 -1       777 2.44188E-01
 -1       778 1.81098E-01
 -1       779 1.31140E-01
 -1       780 9.35808E-02
 -1       781 6.58091E-02
 -1       782 4.57367E-02
 -1       783 3.13660E-02
 -1       784 2.08211E-02
 -1       785 1.32560E-02
 -1       786 7.97856E-03
 -1       787 5.19559E-03
 -1       788 4.55147E-03
 -1       789 4.05204E-03
 -1       790 3.38774E-03
 -1       791 6.87543E-01
 -1       792 1.74847E+00
 -1       793 1.34864E+00
 -1       794 2.92955E+00
 -1       795 2.68995E+00
 -1       796 3.31727E+00
 -1       797 2.34942E+00
 -1       798 1.92702E+00
 -1       799 1.58475E+00
 -1       800 1.24112E+00
 -1       801 1.05189E+00
 -1       802 8.66888E-01
 -1       803 7.07828E-01
 -1       804 5.67203E-01
 -1       805 4.46055E-01
 -1       806 3.45491E-01
 -1       807 2.66098E-01
 -1       808 2.02054E-01
 -1       809 1.51024E-01
 -1       810 1.10903E-01
 -1       811 7.98045E-02
 -1       812 5.60730E-02
 -1       813 3.82841E-02
 -1       814 2.52184E-02
 -1       815 1.58468E-02
 -1       816 9.31734E-03
 -1       817 6.24079E-03
 -1       818 5.89748E-03
 -1       819 5.02260E-03
 -1       820 1.04311E+01
 -1       821 4.79912E+00
 -1       822 1.49314E-03
 -1       823 1.38694E-03
 -1       824 5.51343E-01
 -1       825 1.69352E-03
 -1       826 2.16541E-03
 -1       827 2.10590E+00
 -1       828 2.68995E+00
 -1       829 1.04311E+01
 -1       830 8.18923E+00
 -1       831 3.93397E+00
 -1       832 5.55917E-01
 -1       833 3.04159E+00
 -1       834 6.93684E+00
 -1       835 4.02838E-01
 -1       836 5.68872E+00
 -1       837 8.75791E+00
 -1       838 1.01325E+01
 -1       839 4.43109E+00
 -1       840 9.42408E+00
 -1       841 2.95064E-01
 -1       842 2.35418E-01
 -1       843 4.79596E-01
 -1       844 5.84696E+00
 -1       845 5.37972E-01
 -1       846 6.97602E-01
 -1       847 3.99180E-03
 -1       848 3.14386E+00
 -1       849 1.05780E+00
 -1       850 6.67732E+00
 -1       851 4.87587E-03
 -1       852 1.71686E-03
 -1       853 2.10060E-03
 -1       854 1.49020E-03
 -1       855 5.13187E+00
 -1       856 8.70250E+00
 -1       857 5.62341E+00
 -1       858 6.48332E+00
 -1       859 8.63187E-01
 -1       860 6.43864E+00
 -1       861 4.11718E-01
 -1       862 3.96180E+00
 -1       863 4.26511E-01
 -1       864 5.32121E-01
 -1       865 2.68594E-03
 -1       866 1.02548E+00
 -1       867 1.39524E+00
 -1       868 1.98910E+00
 -1       869 2.88486E+00
 -1       870 3.12542E+00
 -1       871 1.72645E-03
 -1       872 4.58347E+00
 -1       873 3.52189E+00
 -1       874 2.21325E+00
 -1       875 1.95619E+00
 -1       876 1.40761E+00
 -1       877 1.07596E+00
 -1       878 8.51956E-01
 -1       879 6.75516E-01
 -1       880 5.29152E-01
 -1       881 4.09429E-01
 -1       882 3.12716E-01
 -1       883 2.35418E-01
 -1       884 1.74377E-01
 -1       885 1.26869E-01
 -1       886 9.22665E-02
 -1       887 6.56511E-02
 -1       888 4.55150E-02
 -1       889 3.05537E-02
 -1       890 1.96589E-02
 -1       891 1.19107E-02
 -1       892 6.55103E-03
 -1       893 3.51632E-03
 -1       894 2.80643E-03
 -1       895 4.02627E+00
 -1       896 2.96781E+00
 -1       897 1.80306E+00
 -1       898 1.36907E+00
 -1       899 1.02049E+00
 -1       900 8.08096E-01
 -1       901 6.49108E-01
 -1       902 5.29075E-01
 -1       903 4.21287E-01
 -1       904 3.28508E-01
 -1       905 2.51167E-01
 -1       906 1.88212E-01
 -1       907 1.37999E-01
 -1       908 9.88071E-02
 -1       909 6.92753E-02
 -1       910 4.78975E-02
 -1       911 3.19651E-02
 -1       912 2.03594E-02
 -1       913 1.22498E-02
 -1       914 6.91795E-03
 -1       915 3.99560E-03
 -1       916 3.32824E-03
 -1       917 6.67688E-01
 -1       918 8.69110E+00
 -1       919 1.72645E-03
 -1       920 6.35467E-01
 -1       921 2.01204E+00
 -1       922 3.04825E-01
 -1       923 7.96769E-01
 -1       924 6.44027E+00
 -1       925 1.88479E-03
 -1       926 8.07968E+00
 -1       927 5.50199E+00
 -1       928 5.32121E-01
 -1       929 4.02627E+00
 -1       930 5.61024E-01
 -1       931 5.47351E-01
 -1       932 1.63132E-03
 -1       933 2.92624E-03
 -1       934 4.26692E+00
 -1       935 1.56055E+00
 -1       936 2.91960E+00
 -1       937 1.82174E-03
 -1       938 6.63555E+00
 -1       939 2.72767E-03
 -1       940 8.56621E-01
 -1       941 4.60870E+00
 -1       942 5.11366E+00
 -1       943 5.20921E+00
 -1       944 5.12579E-01
 -1       945 6.44027E+00
 -1       946 1.61400E-03
 -1       947 4.20466E+00
 -1       948 4.25431E-01
 -1       949 4.05781E-01
 -1       950 1.02548E+00
 -1       951 8.57103E-01
 -1       952 1.89607E+00
 -1       953 2.32998E+00
 -1       954 3.12012E+00
 -1       955 1.15358E+00
 -1       956 1.54141E+00
 -1       957 2.38386E+00
 -1       958 1.83971E+00
 -1       959 1.40761E+00
 -1       960 1.07596E+00
 -1       961 8.25749E-01
 -1       962 6.35879E-01
 -1       963 4.89439E-01
 -1       964 3.74874E-01
 -1       965 2.84956E-01
 -1       966 2.14356E-01
 -1       967 1.59102E-01
 -1       968 1.16274E-01
 -1       969 8.32830E-02
 -1       970 5.81827E-02
 -1       971 3.97360E-02
 -1       972 2.68571E-02
 -1       973 1.74381E-02
 -1       974 1.07076E-02
 -1       975 6.01937E-03
 -1       976 3.52821E-03
 -1       977 2.36895E+00
 -1       978 4.19004E+00
 -1       979 1.23827E+00
 -1       980 1.01215E+00
 -1       981 8.08096E-01
 -1       982 6.38892E-01
 -1       983 5.01003E-01
 -1       984 3.88781E-01
 -1       985 2.98224E-01
 -1       986 2.26021E-01
 -1       987 1.68605E-01
 -1       988 1.23664E-01
 -1       989 8.88920E-02
 -1       990 6.23015E-02
 -1       991 4.27041E-02
 -1       992 2.88950E-02
 -1       993 1.87803E-02
 -1       994 1.15437E-02
 -1       995 6.50968E-03
 -1       996 3.16589E-03
 -1       997 7.58316E-01
 -1       998 3.58476E-03
 -1       999 1.39524E+00
 -1      1000 4.90303E-01
 -1      1001 5.99337E-01
 -1      1002 3.55610E-01
 -1      1003 4.55528E+00
 -1      1004 5.28627E-01
 -1      1005 4.58847E-01
 -1      1006 2.70734E+00
 -1      1007 4.02627E+00
 -1      1008 2.85053E+00
 -1      1009 3.77074E+00
 -1      1010 4.16030E+00
 -1      1011 5.35387E+00
 -1      1012 1.12442E+00
 -1      1013 3.90289E-03
 -1      1014 5.08493E+00
 -1      1015 3.89032E+00
 -1      1016 5.61172E-01
 -1      1017 7.22744E-01
 -1      1018 3.64115E+00
 -1      1019 5.35387E+00
 -1      1020 8.47858E-01
 -1      1021 2.94137E+00
 -1      1022 1.80515E+00
 -1      1023 1.33842E+00
 -1      1024 1.08441E+00
 -1      1025 2.07199E+00
 -1      1026 1.81464E+00
 -1      1027 1.25066E+00
 -1      1028 9.08120E-01
 -1      1029 6.73703E-01
 -1      1030 5.08002E-01
 -1      1031 3.85613E-01
 -1      1032 2.92575E-01
 -1      1033 2.20704E-01
 -1      1034 1.66254E-01
 -1      1035 1.23383E-01
 -1      1036 9.00240E-02
 -1      1037 6.42644E-02
 -1      1038 4.48626E-02
 -1      1039 3.04009E-02
 -1      1040 2.05872E-02
 -1      1041 1.34343E-02
 -1      1042 8.47253E-03
 -1      1043 5.03785E-03
 -1      1044 9.69915E-01
 -1      1045 1.88917E+00
 -1      1046 1.38631E+00
 -1      1047 7.30694E-01
 -1      1048 5.55893E-01
 -1      1049 4.24379E-01
 -1      1050 3.22617E-01
 -1      1051 2.44147E-01
 -1      1052 1.83485E-01
 -1      1053 1.36583E-01
 -1      1054 9.99354E-02
 -1      1055 7.15545E-02
 -1      1056 5.00764E-02
 -1      1057 3.40467E-02
 -1      1058 2.30250E-02
 -1      1059 1.50600E-02
 -1      1060 9.35480E-03
 -1      1061 5.29886E-03
 -1      1062 1.19480E+00
 -1      1063 4.06631E+00
 -1      1064 2.70734E+00
 -1      1065 3.90289E-03
 -1      1066 2.45319E-03
 -1      1067 5.61172E-01
 -1      1068 2.32998E+00
 -1      1069 1.70333E+00
 -1      1070 6.19024E-01
 -1      1071 5.02957E-03
 -1      1072 3.82868E+00
 -1      1073 2.81398E+00
 -1      1074 9.05626E-01
 -1      1075 3.64115E+00
 -1      1076 2.15133E+00
 -1      1077 1.02473E+00
 -1      1078 2.31473E+00
 -1      1079 1.30612E+00
 -1      1080 1.32354E+00
 -1      1081 2.45826E+00
 -1      1082 2.41220E+00
 -1      1083 9.69153E-01
 -1      1084 1.26452E+00
 -1      1085 9.69153E-01
 -1      1086 7.52852E-01
 -1      1087 5.70824E-01
 -1      1088 4.20454E-01
 -1      1089 3.02803E-01
 -1      1090 2.69579E-01
 -1      1091 1.84101E-01
 -1      1092 1.40131E-01
 -1      1093 1.03650E-01
 -1      1094 7.54403E-02
 -1      1095 5.43408E-02
 -1      1096 3.82668E-02
 -1      1097 2.61841E-02
 -1      1098 1.78838E-02
 -1      1099 1.16082E-02
 -1      1100 9.69485E-03
 -1      1101 5.70824E-01
 -1      1102 4.20454E-01
 -1      1103 2.56751E-01
 -1      1104 1.87295E-01
 -1      1105 1.75450E-01
 -1      1106 1.38367E-01
 -1      1107 1.03650E-01
 -1      1108 7.54403E-02
 -1      1109 5.35678E-02
 -1      1110 3.76797E-02
 -1      1111 2.58906E-02
 -1      1112 1.70265E-02
 -1      1113 9.90758E-03
 -1      1114 9.05626E-01
 -1      1115 9.69153E-01
 -1      1116 1.65046E+00
 -1      1117 1.57015E+00
 -1      1118 3.47239E+00
 -1      1119 9.69485E-03
 -1      1120 7.52852E-01
 -1      1121 2.23204E+00
 -1      1122 1.60735E+00
 -1      1123 1.67541E+00
 -1      1124 9.86787E-01
 -1      1125 2.16256E+00
 -1      1126 1.14379E+00
 -1      1127 2.69579E-01
 -1      1128 1.67541E+00
 -1      1129 2.69579E-01
 -1      1130 1.56642E+00
 -1      1131 1.99700E+00
 -1      1132 1.27362E+01
 -1      1133 8.13016E+00
 -1      1134 2.68751E+00
 -1      1135 1.60018E+00
 -1      1136 1.21258E+00
 -1      1137 9.77035E-01
 -1      1138 8.03435E-01
 -1      1139 6.73207E-01
 -1      1140 6.21484E-01
 -1      1141 6.81725E-01
 -1      1142 8.09623E-01
 -1      1143 9.83215E-01
 -1      1144 1.22759E+00
 -1      1145 1.61531E+00
 -1      1146 2.61714E+00
 -1      1147 5.82084E+00
 -1      1148 1.09549E+01
 -1      1149 1.27362E+01
 -1      1150 8.45156E+00
 -1      1151 3.60036E+00
 -1      1152 2.45019E+00
 -1      1153 1.60713E+00
 -1      1154 1.15924E+00
 -1      1155 9.15758E-01
 -1      1156 8.65585E-01
 -1      1157 1.02496E+00
 -1      1158 1.27985E+00
 -1      1159 1.38024E+00
 -1      1160 1.38622E+00
 -1      1161 1.39220E+00
 -1      1162 1.60360E+00
 -1      1163 2.44210E+00
 -1      1164 3.61513E+00
 -1      1165 4.16105E+00
 -1      1166 4.14409E+00
 -1      1167 4.11753E+00
 -1      1168 3.50178E+00
 -1      1169 2.36034E+00
 -1      1170 1.65092E+00
 -1      1171 1.47676E+00
 -1      1172 1.44842E+00
 -1      1173 1.42009E+00
 -1      1174 1.33827E+00
 -1      1175 1.14026E+00
 -1      1176 9.21523E-01
 -1      1177 7.28013E-01
 -1      1178 5.81292E-01
 -1      1179 4.81300E-01
 -1      1180 3.94150E-01
 -1      1181 3.12737E-01
 -1      1182 2.41389E-01
 -1      1183 1.81592E-01
 -1      1184 1.34078E-01
 -1      1185 1.04161E-01
 -1      1186 8.60329E-02
 -1      1187 6.94342E-02
 -1      1188 5.48180E-02
 -1      1189 4.23045E-02
 -1      1190 3.18093E-02
 -1      1191 2.42053E-02
 -1      1192 1.92605E-02
 -1      1193 1.51257E-02
 -1      1194 1.11487E-02
 -1      1195 7.52546E-03
 -1      1196 5.47917E-03
 -1      1197 4.24107E-03
 -1      1198 2.03091E-03
 -1      1199 1.36413E+01
 -1      1200 8.48891E+00
 -1      1201 2.80339E+00
 -1      1202 1.91608E+00
 -1      1203 1.43490E+00
 -1      1204 1.19386E+00
 -1      1205 9.68042E-01
 -1      1206 8.22875E-01
 -1      1207 7.77235E-01
 -1      1208 8.51599E-01
 -1      1209 9.71464E-01
 -1      1210 1.14979E+00
 -1      1211 1.31036E+00
 -1      1212 1.49248E+00
 -1      1213 1.86332E+00
 -1      1214 2.55439E+00
 -1      1215 3.19021E+00
 -1      1216 3.53435E+00
 -1      1217 3.72950E+00
 -1      1218 3.37392E+00
 -1      1219 2.40804E+00
 -1      1220 1.50592E+00
 -1      1221 1.12585E+00
 -1      1222 1.13036E+00
 -1      1223 1.22312E+00
 -1      1224 1.21574E+00
 -1      1225 1.14315E+00
 -1      1226 9.93920E-01
 -1      1227 8.32666E-01
 -1      1228 6.77531E-01
 -1      1229 5.28636E-01
 -1      1230 3.97128E-01
 -1      1231 3.01125E-01
 -1      1232 2.34719E-01
 -1      1233 1.78030E-01
 -1      1234 1.31453E-01
 -1      1235 9.43446E-02
 -1      1236 6.55511E-02
 -1      1237 4.84747E-02
 -1      1238 3.99462E-02
 -1      1239 3.24150E-02
 -1      1240 2.56302E-02
 -1      1241 2.06894E-02
 -1      1242 1.76637E-02
 -1      1243 1.49402E-02
 -1      1244 1.19192E-02
 -1      1245 8.80500E-03
 -1      1246 6.14070E-03
 -1      1247 4.05793E-03
 -1      1248 1.87521E-03
 -1      1249 1.05096E-03
 -1      1250 1.30678E-03
 -1      1251 8.53856E-04
 -1      1252 4.85511E-04
 -1      1253 5.19268E-04
 -1      1254 6.48647E-04
 -1      1255 7.02298E-04
 -1      1256 7.15987E-04
 -1      1257 7.16839E-04
 -1      1258 7.16542E-04
 -1      1259 7.00709E-04
 -1      1260 6.47458E-04
 -1      1261 5.20282E-04
 -1      1262 5.00069E-04
 -1      1263 1.05763E-03
 -1      1264 1.89764E-03
 -1      1265 1.46943E-03
 -1      1266 2.64219E+01
 -1      1267 3.64682E+01
 -1      1268 4.65144E+01
 -1      1269 3.27087E+01
 -1      1270 1.53696E+01
 -1      1271 1.20652E+01
 -1      1272 1.22940E+01
 -1      1273 1.28545E+01
 -1      1274 1.34150E+01
 -1      1275 1.28857E+01
 -1      1276 2.00267E+01
 -1      1277 2.87128E+01
 -1      1278 2.97287E+01
 -1      1279 2.78648E+01
 -1      1280 2.55365E+01
 -1      1281 2.52113E+01
 -1      1282 3.15037E+01
 -1      1283 3.76568E+01
 -1      1284 2.60133E+01
 -1      1285 1.33650E+01
 -1      1286 1.27979E+01
 -1      1287 1.32356E+01
 -1      1288 1.29433E+01
 -1      1289 1.23255E+01
 -1      1290 1.58012E+01
 -1      1291 3.34185E+01
 -1      1292 4.72346E+01
 -1      1293 3.64236E+01
 -1      1294 2.60172E+01
 -1      1295 1.27362E+01
 -1      1296 4.66929E+00
 -1      1297 9.27533E+00
 -1      1298 2.09332E+00
 -1      1299 2.92992E+00
 -1      1300 4.07510E+00
 -1      1301 1.47007E+00
 -1      1302 1.72080E+00
 -1      1303 1.96321E+00
 -1      1304 1.14455E+00
 -1      1305 1.28142E+00
 -1      1306 1.40204E+00
 -1      1307 9.26662E-01
 -1      1308 1.02534E+00
 -1      1309 1.09418E+00
 -1      1310 7.65760E-01
 -1      1311 8.40681E-01
 -1      1312 8.88987E-01
 -1      1313 6.45363E-01
 -1      1314 7.00671E-01
 -1      1315 7.37916E-01
 -1      1316 6.05938E-01
 -1      1317 6.02353E-01
 -1      1318 6.29817E-01
 -1      1319 7.09749E-01
 -1      1320 6.53093E-01
 -1      1321 6.33962E-01
 -1      1322 8.44811E-01
 -1      1323 7.73569E-01
 -1      1324 7.44936E-01
 -1      1325 1.03618E+00
 -1      1326 9.33831E-01
 -1      1327 8.97777E-01
 -1      1328 1.30002E+00
 -1      1329 1.15799E+00
 -1      1330 1.10861E+00
 -1      1331 1.73620E+00
 -1      1332 1.49050E+00
 -1      1333 1.42091E+00
 -1      1334 2.84880E+00
 -1      1335 2.09267E+00
 -1      1336 1.96786E+00
 -1      1337 6.02869E+00
 -1      1338 3.58112E+00
 -1      1339 3.05665E+00
 -1      1340 1.36413E+01
 -1      1341 1.09549E+01
 -1      1342 8.71514E+00
 -1      1343 1.36413E+01
 -1      1344 8.45156E+00
 -1      1345 4.16692E+00
 -1      1346 3.60036E+00
 -1      1347 3.03381E+00
 -1      1348 3.60036E+00
 -1      1349 2.45019E+00
 -1      1350 1.86658E+00
 -1      1351 2.45019E+00
 -1      1352 1.60713E+00
 -1      1353 1.34768E+00
 -1      1354 1.60713E+00
 -1      1355 1.15924E+00
 -1      1356 9.70805E-01
 -1      1357 1.15924E+00
 -1      1358 8.97210E-01
 -1      1359 8.42163E-01
 -1      1360 8.97210E-01
 -1      1361 8.60711E-01
 -1      1362 8.65585E-01
 -1      1363 8.42163E-01
 -1      1364 8.72735E-01
 -1      1365 1.02723E+00
 -1      1366 8.67861E-01
 -1      1367 1.17945E+00
 -1      1368 1.27985E+00
 -1      1369 1.02723E+00
 -1      1370 1.38024E+00
 -1      1371 1.38024E+00
 -1      1372 1.27985E+00
 -1      1373 1.37449E+00
 -1      1374 1.38047E+00
 -1      1375 1.37449E+00
 -1      1376 1.39220E+00
 -1      1377 1.39220E+00
 -1      1378 1.38047E+00
 -1      1379 1.33484E+00
 -1      1380 1.54624E+00
 -1      1381 1.33484E+00
 -1      1382 1.83552E+00
 -1      1383 2.46262E+00
 -1      1384 1.56676E+00
 -1      1385 3.06920E+00
 -1      1386 3.61513E+00
 -1      1387 2.46262E+00
 -1      1388 4.16105E+00
 -1      1389 4.16105E+00
 -1      1390 3.61513E+00
 -1      1391 4.14409E+00
 -1      1392 4.12713E+00
 -1      1393 4.14409E+00
 -1      1394 4.11753E+00
 -1      1395 4.10794E+00
 -1      1396 4.11753E+00
 -1      1397 3.50178E+00
 -1      1398 2.89562E+00
 -1      1399 3.50178E+00
 -1      1400 2.36034E+00
 -1      1401 1.82507E+00
 -1      1402 2.36034E+00
 -1      1403 1.56609E+00
 -1      1404 1.39193E+00
 -1      1405 1.56609E+00
 -1      1406 1.47676E+00
 -1      1407 1.47676E+00
 -1      1408 1.39193E+00
 -1      1409 1.44253E+00
 -1      1410 1.41419E+00
 -1      1411 1.44253E+00
 -1      1412 1.42009E+00
 -1      1413 1.42009E+00
 -1      1414 1.41419E+00
 -1      1415 1.33827E+00
 -1      1416 1.25646E+00
 -1      1417 1.33827E+00
 -1      1418 1.14658E+00
 -1      1419 1.03038E+00
 -1      1420 1.14658E+00
 -1      1421 9.54006E-01
 -1      1422 8.51471E-01
 -1      1423 9.60325E-01
 -1      1424 7.87998E-01
 -1      1425 6.97023E-01
 -1      1426 8.20481E-01
 -1      1427 6.26307E-01
 -1      1428 5.70563E-01
 -1      1429 6.86293E-01
 -1      1430 5.02635E-01
 -1      1431 4.58387E-01
 -1      1432 5.47650E-01
 -1      1433 3.98524E-01
 -1      1434 3.55622E-01
 -1      1435 4.19860E-01
 -1      1436 3.12737E-01
 -1      1437 2.74225E-01
 -1      1438 3.17111E-01
 -1      1439 2.44152E-01
 -1      1440 2.11316E-01
 -1      1441 2.44152E-01
 -1      1442 1.86398E-01
 -1      1443 1.59439E-01
 -1      1444 1.89162E-01
 -1      1445 1.38879E-01
 -1      1446 1.18325E-01
 -1      1447 1.43685E-01
 -1      1448 1.04161E-01
 -1      1449 9.47967E-02
 -1      1450 1.08961E-01
 -1      1451 8.60329E-02
 -1      1452 7.72691E-02
 -1      1453 8.60329E-02
 -1      1454 6.94342E-02
 -1      1455 6.15994E-02
 -1      1456 6.94342E-02
 -1      1457 5.48180E-02
 -1      1458 4.80366E-02
 -1      1459 5.48180E-02
 -1      1460 4.23045E-02
 -1      1461 3.65724E-02
 -1      1462 4.23045E-02
 -1      1463 3.20308E-02
 -1      1464 2.72677E-02
 -1      1465 3.20308E-02
 -1      1466 2.42053E-02
 -1      1467 2.13644E-02
 -1      1468 2.44267E-02
 -1      1469 1.92605E-02
 -1      1470 1.71566E-02
 -1      1471 1.92605E-02
 -1      1472 1.51257E-02
 -1      1473 1.30949E-02
 -1      1474 1.51257E-02
 -1      1475 1.12035E-02
 -1      1476 9.25723E-03
 -1      1477 1.12035E-02
 -1      1478 7.77250E-03
 -1      1479 6.09554E-03
 -1      1480 7.82731E-03
 -1      1481 5.47917E-03
 -1      1482 5.10985E-03
 -1      1483 5.72622E-03
 -1      1484 4.24107E-03
 -1      1485 3.37229E-03
 -1      1486 4.24107E-03
 -1      1487 2.81082E-03
 -1      1488 2.81082E-03
 -1      1489 3.33651E+00
 -1      1490 8.48891E+00
 -1      1491 8.48891E+00
 -1      1492 2.27027E+00
 -1      1493 2.80339E+00
 -1      1494 2.80339E+00
 -1      1495 1.56189E+00
 -1      1496 1.91608E+00
 -1      1497 1.91608E+00
 -1      1498 1.30792E+00
 -1      1499 1.43490E+00
 -1      1500 1.43490E+00
 -1      1501 1.07979E+00
 -1      1502 1.19386E+00
 -1      1503 1.19386E+00
 -1      1504 8.56291E-01
 -1      1505 9.68042E-01
 -1      1506 9.68042E-01
 -1      1507 7.89459E-01
 -1      1508 8.22875E-01
 -1      1509 8.22875E-01
 -1      1510 7.65011E-01
 -1      1511 7.77235E-01
 -1      1512 7.77235E-01
 -1      1513 8.34116E-01
 -1      1514 7.47527E-01
 -1      1515 7.47527E-01
 -1      1516 9.71464E-01
 -1      1517 9.38188E-01
 -1      1518 8.34116E-01
 -1      1519 1.14979E+00
 -1      1520 1.00474E+00
 -1      1521 9.71464E-01
 -1      1522 1.31036E+00
 -1      1523 1.29483E+00
 -1      1524 1.14979E+00
 -1      1525 1.49248E+00
 -1      1526 1.32589E+00
 -1      1527 1.31036E+00
 -1      1528 1.86332E+00
 -1      1529 1.65907E+00
 -1      1530 1.49248E+00
 -1      1531 2.60016E+00
 -1      1532 2.11335E+00
 -1      1533 1.90910E+00
 -1      1534 3.19021E+00
 -1      1535 3.04121E+00
 -1      1536 2.60016E+00
 -1      1537 3.53435E+00
 -1      1538 3.33921E+00
 -1      1539 3.19021E+00
 -1      1540 3.72950E+00
 -1      1541 3.72950E+00
 -1      1542 3.53435E+00
 -1      1543 3.01835E+00
 -1      1544 3.37392E+00
 -1      1545 3.37392E+00
 -1      1546 1.79773E+00
 -1      1547 2.40804E+00
 -1      1548 2.40804E+00
 -1      1549 1.21411E+00
 -1      1550 1.50592E+00
 -1      1551 1.50592E+00
 -1      1552 1.01861E+00
 -1      1553 1.10687E+00
 -1      1554 1.10687E+00
 -1      1555 1.13036E+00
 -1      1556 1.03760E+00
 -1      1557 1.01861E+00
 -1      1558 1.22312E+00
 -1      1559 1.22312E+00
 -1      1560 1.13036E+00
 -1      1561 1.20837E+00
 -1      1562 1.21574E+00
 -1      1563 1.21574E+00
 -1      1564 1.07793E+00
 -1      1565 1.14315E+00
 -1      1566 1.14315E+00
 -1      1567 9.09908E-01
 -1      1568 9.93920E-01
 -1      1569 9.93920E-01
 -1      1570 7.56964E-01
 -1      1571 8.34206E-01
 -1      1572 8.34206E-01
 -1      1573 6.09949E-01
 -1      1574 6.87842E-01
 -1      1575 6.89382E-01
 -1      1576 4.72483E-01
 -1      1577 5.43486E-01
 -1      1578 5.53797E-01
 -1      1579 3.52991E-01
 -1      1580 4.13496E-01
 -1      1581 4.28347E-01
 -1      1582 2.67988E-01
 -1      1583 3.03485E-01
 -1      1584 3.19854E-01
 -1      1585 2.03811E-01
 -1      1586 2.34719E-01
 -1      1587 2.37080E-01
 -1      1588 1.52248E-01
 -1      1589 1.78030E-01
 -1      1590 1.78030E-01
 -1      1591 1.11135E-01
 -1      1592 1.31931E-01
 -1      1593 1.31931E-01
 -1      1594 7.94853E-02
 -1      1595 9.57973E-02
 -1      1596 9.62754E-02
 -1      1597 5.50302E-02
 -1      1598 6.75115E-02
 -1      1599 6.89643E-02
 -1      1600 4.38796E-02
 -1      1601 4.84747E-02
 -1      1602 5.04351E-02
 -1      1603 3.60128E-02
 -1      1604 3.99462E-02
 -1      1605 3.99462E-02
 -1      1606 2.88173E-02
 -1      1607 3.24150E-02
 -1      1608 3.24150E-02
 -1      1609 2.24431E-02
 -1      1610 2.56302E-02
 -1      1611 2.56302E-02
 -1      1612 1.89357E-02
 -1      1613 2.06894E-02
 -1      1614 2.06894E-02
 -1      1615 1.63918E-02
 -1      1616 1.76637E-02
 -1      1617 1.76637E-02
 -1      1618 1.34886E-02
 -1      1619 1.49402E-02
 -1      1620 1.49402E-02
 -1      1621 1.03498E-02
 -1      1622 1.19192E-02
 -1      1623 1.19192E-02
 -1      1624 7.26019E-03
 -1      1625 8.80500E-03
 -1      1626 8.80500E-03
 -1      1627 5.02120E-03
 -1      1628 6.14070E-03
 -1      1629 6.14070E-03
 -1      1630 3.09466E-03
 -1      1631 4.05793E-03
 -1      1632 4.05793E-03
 -1      1633 2.27041E-03
 -1      1634 1.18957E-03
 -1      1635 1.32895E-03
 -1      1636 7.92760E-04
 -1      1637 1.10630E-03
 -1      1638 1.12847E-03
 -1      1639 5.64226E-04
 -1      1640 6.19034E-04
 -1      1641 8.71475E-04
 -1      1642 8.12131E-04
 -1      1643 7.23567E-04
 -1      1644 8.57090E-04
 -1      1645 9.38351E-04
 -1      1646 8.97536E-04
 -1      1647 1.10183E-03
 -1      1648 9.79810E-04
 -1      1649 9.66973E-04
 -1      1650 1.21586E-03
 -1      1651 9.87670E-04
 -1      1652 9.86818E-04
 -1      1653 1.25149E-03
 -1      1654 9.87912E-04
 -1      1655 9.87912E-04
 -1      1656 1.25874E-03
 -1      1657 9.87616E-04
 -1      1658 9.87912E-04
 -1      1659 1.25899E-03
 -1      1660 9.64100E-04
 -1      1661 9.79636E-04
 -1      1662 1.25101E-03
 -1      1663 8.99186E-04
 -1      1664 9.36900E-04
 -1      1665 1.21583E-03
 -1      1666 7.31916E-04
 -1      1667 8.21378E-04
 -1      1668 1.11082E-03
 -1      1669 6.58167E-04
 -1      1670 5.88918E-04
 -1      1671 8.90014E-04
 -1      1672 1.14648E-03
 -1      1673 6.58167E-04
 -1      1674 7.47016E-04
 -1      1675 2.17817E-03
 -1      1676 1.82647E-03
 -1      1677 1.42701E-03
 -1      1678 2.73965E-03
 -1      1679 2.79824E+01
 -1      1680 2.79824E+01
 -1      1681 3.65415E+01
 -1      1682 2.64952E+01
 -1      1683 4.65144E+01
 -1      1684 4.65144E+01
 -1      1685 1.92025E+01
 -1      1686 3.30082E+01
 -1      1687 1.12938E+01
 -1      1688 1.48271E+01
 -1      1689 1.20652E+01
 -1      1690 1.18363E+01
 -1      1691 1.22940E+01
 -1      1692 1.22940E+01
 -1      1693 1.25265E+01
 -1      1694 1.19659E+01
 -1      1695 1.34150E+01
 -1      1696 1.34150E+01
 -1      1697 1.23565E+01
 -1      1698 1.28857E+01
 -1      1699 1.99923E+01
 -1      1700 1.23221E+01
 -1      1701 2.96943E+01
 -1      1702 2.86785E+01
 -1      1703 3.14387E+01
 -1      1704 3.14387E+01
 -1      1705 2.95748E+01
 -1      1706 3.14387E+01
 -1      1707 2.67722E+01
 -1      1708 2.72366E+01
 -1      1709 2.69114E+01
 -1      1710 2.67722E+01
 -1      1711 3.57045E+01
 -1      1712 2.95514E+01
 -1      1713 3.76568E+01
 -1      1714 3.76568E+01
 -1      1715 1.48048E+01
 -1      1716 2.64483E+01
 -1      1717 1.18283E+01
 -1      1718 1.28331E+01
 -1      1719 1.27979E+01
 -1      1720 1.23602E+01
 -1      1721 1.32356E+01
 -1      1722 1.32356E+01
 -1      1723 1.26510E+01
 -1      1724 1.29433E+01
 -1      1725 1.19999E+01
 -1      1726 1.23255E+01
 -1      1727 1.54459E+01
 -1      1728 1.16446E+01
 -1      1729 3.40954E+01
 -1      1730 2.02794E+01
 -1      1731 4.72346E+01
 -1      1732 4.72346E+01
 -1      1733 2.75781E+01
 -1      1734 3.83892E+01
 -1      1735 2.79824E+01
 -1      1736 2.75778E+01
 -1      1737 1.51266E+01
 -1      1738 3.30082E+01
 -1      1739 2.27041E-03
 -1      1740 2.15320E-03
 -1      1741 2.80557E+01
 -1      1742 3.65415E+01
 -1      1743 2.95430E+01
 -1      1744 1.12938E+01
 -1      1745 1.20652E+01
 -1      1746 1.19659E+01
 -1      1747 1.25265E+01
 -1      1748 1.28857E+01
 -1      1749 1.23221E+01
 -1      1750 2.09738E+01
 -1      1751 3.14043E+01
 -1      1752 3.31487E+01
 -1      1753 3.08104E+01
 -1      1754 2.84722E+01
 -1      1755 3.11123E+01
 -1      1756 3.57045E+01
 -1      1757 2.64483E+01
 -1      1758 1.32681E+01
 -1      1759 1.18283E+01
 -1      1760 1.27979E+01
 -1      1761 1.29433E+01
 -1      1762 1.23255E+01
 -1      1763 1.16446E+01
 -1      1764 1.61228E+01
 -1      1765 3.40954E+01
 -1      1766 3.83892E+01
 -1      1767 2.95433E+01
 -1      1768 9.27533E+00
 -1      1769 1.36435E+00
 -1      1770 1.73687E+00
 -1      1771 2.36217E+00
 -1      1772 4.10154E+00
 -1      1773 1.76331E+00
 -1      1774 9.11741E-01
 -1      1775 1.03095E+00
 -1      1776 7.52848E-01
 -1      1777 8.38830E-01
 -1      1778 7.75602E-01
 -1      1779 6.31282E-01
 -1      1780 6.96371E-01
 -1      1781 6.46214E-01
 -1      1782 5.41402E-01
 -1      1783 5.84412E-01
 -1      1784 5.42867E-01
 -1      1785 5.93121E-01
 -1      1786 5.45967E-01
 -1      1787 5.00562E-01
 -1      1788 7.03038E-01
 -1      1789 6.39217E-01
 -1      1790 5.51223E-01
 -1      1791 8.51070E-01
 -1      1792 7.62050E-01
 -1      1793 6.56331E-01
 -1      1794 1.04134E+00
 -1      1795 9.19532E-01
 -1      1796 7.83805E-01
 -1      1797 1.31349E+00
 -1      1798 1.12300E+00
 -1      1799 9.33925E-01
 -1      1800 1.78315E+00
 -1      1801 1.42668E+00
 -1      1802 1.12878E+00
 -1      1803 2.57488E+00
 -1      1804 1.84255E+00
 -1      1805 1.30138E+00
 -1      1806 7.80063E+00
 -1      1807 2.87445E+00
 -1      1808 1.66036E+00
 -1      1809 2.64822E+00
 -1      1810 4.99069E+00
 -1      1811 1.93710E+00
 -1      1812 2.47022E+00
 -1      1813 1.78193E+00
 -1      1814 3.27777E+00
 -1      1815 2.21803E+00
 -1      1816 1.63442E+00
 -1      1817 1.35558E+00
 -1      1818 1.09613E+00
 -1      1819 1.12342E+00
 -1      1820 9.91620E-01
 -1      1821 8.03180E-01
 -1      1822 7.40067E-01
 -1      1823 7.48983E-01
 -1      1824 6.75388E-01
 -1      1825 5.81358E-01
 -1      1826 7.14674E-01
 -1      1827 7.33222E-01
 -1      1828 5.66448E-01
 -1      1829 7.75221E-01
 -1      1830 7.82371E-01
 -1      1831 6.47733E-01
 -1      1832 8.56948E-01
 -1      1833 1.00917E+00
 -1      1834 7.64309E-01
 -1      1835 1.07655E+00
 -1      1836 1.17694E+00
 -1      1837 9.06265E-01
 -1      1838 1.16623E+00
 -1      1839 1.16048E+00
 -1      1840 9.62932E-01
 -1      1841 1.12051E+00
 -1      1842 1.13224E+00
 -1      1843 9.12255E-01
 -1      1844 1.17334E+00
 -1      1845 1.11598E+00
 -1      1846 9.13390E-01
 -1      1847 1.28713E+00
 -1      1848 1.57641E+00
 -1      1849 1.12564E+00
 -1      1850 1.85444E+00
 -1      1851 2.46102E+00
 -1      1852 1.57481E+00
 -1      1853 2.74457E+00
 -1      1854 3.29049E+00
 -1      1855 2.13638E+00
 -1      1856 3.33655E+00
 -1      1857 3.31959E+00
 -1      1858 2.46599E+00
 -1      1859 3.34209E+00
 -1      1860 3.33250E+00
 -1      1861 2.53456E+00
 -1      1862 3.24364E+00
 -1      1863 2.63748E+00
 -1      1864 2.46820E+00
 -1      1865 2.34826E+00
 -1      1866 1.81299E+00
 -1      1867 2.09012E+00
 -1      1868 1.50038E+00
 -1      1869 1.24139E+00
 -1      1870 1.48830E+00
 -1      1871 1.12370E+00
 -1      1872 1.20853E+00
 -1      1873 1.05799E+00
 -1      1874 1.16555E+00
 -1      1875 1.13131E+00
 -1      1876 8.97311E-01
 -1      1877 1.23064E+00
 -1      1878 1.23654E+00
 -1      1879 9.53664E-01
 -1      1880 1.25917E+00
 -1      1881 1.17735E+00
 -1      1882 1.07562E+00
 -1      1883 1.13542E+00
 -1      1884 1.02554E+00
 -1      1885 1.05631E+00
 -1      1886 9.70961E-01
 -1      1887 8.94589E-01
 -1      1888 9.59803E-01
 -1      1889 8.46629E-01
 -1      1890 7.83157E-01
 -1      1891 8.57265E-01
 -1      1892 7.23749E-01
 -1      1893 6.53034E-01
 -1      1894 7.49898E-01
 -1      1895 5.89783E-01
 -1      1896 5.21856E-01
 -1      1897 6.27239E-01
 -1      1898 4.62068E-01
 -1      1899 4.02205E-01
 -1      1900 5.04201E-01
 -1      1901 3.49661E-01
 -1      1902 3.06776E-01
 -1      1903 3.91870E-01
 -1      1904 2.62872E-01
 -1      1905 2.32800E-01
 -1      1906 2.95423E-01
 -1      1907 1.97497E-01
 -1      1908 1.72579E-01
 -1      1909 2.16217E-01
 -1      1910 1.45074E-01
 -1      1911 1.24514E-01
 -1      1912 1.53408E-01
 -1      1913 1.06627E-01
 -1      1914 9.24625E-02
 -1      1915 1.08016E-01
 -1      1916 7.96470E-02
 -1      1917 7.08832E-02
 -1      1918 7.73129E-02
 -1      1919 6.21303E-02
 -1      1920 5.42955E-02
 -1      1921 5.57444E-02
 -1      1922 4.99999E-02
 -1      1923 4.32185E-02
 -1      1924 4.26959E-02
 -1      1925 3.96115E-02
 -1      1926 3.38794E-02
 -1      1927 3.47933E-02
 -1      1928 3.05939E-02
 -1      1929 2.60523E-02
 -1      1930 2.79009E-02
 -1      1931 2.31420E-02
 -1      1932 2.00796E-02
 -1      1933 2.17051E-02
 -1      1934 1.75670E-02
 -1      1935 1.54631E-02
 -1      1936 1.62822E-02
 -1      1937 1.42326E-02
 -1      1938 1.22017E-02
 -1      1939 1.25390E-02
 -1      1940 1.09150E-02
 -1      1941 9.02356E-03
 -1      1942 1.00218E-02
 -1      1943 7.74667E-03
 -1      1944 6.26195E-03
 -1      1945 7.45820E-03
 -1      1946 5.30434E-03
 -1      1947 4.68797E-03
 -1      1948 5.22370E-03
 -1      1949 4.05077E-03
 -1      1950 3.18200E-03
 -1      1951 2.54935E-03
 -1      1952 3.62890E-03
 -1      1953 1.25590E+00
 -1      1954 1.61009E+00
 -1      1955 1.27692E+00
 -1      1956 1.00147E+00
 -1      1957 1.12845E+00
 -1      1958 8.22466E-01
 -1      1959 8.62126E-01
 -1      1960 9.76191E-01
 -1      1961 6.69740E-01
 -1      1962 7.11448E-01
 -1      1963 8.23199E-01
 -1      1964 6.05532E-01
 -1      1965 6.98079E-01
 -1      1966 7.31495E-01
 -1      1967 5.86652E-01
 -1      1968 7.25828E-01
 -1      1969 7.38052E-01
 -1      1970 6.46671E-01
 -1      1971 7.18171E-01
 -1      1972 7.35655E-01
 -1      1973 6.96472E-01
 -1      1974 8.22243E-01
 -1      1975 7.18171E-01
 -1      1976 7.06299E-01
 -1      1977 7.86239E-01
 -1      1978 7.52962E-01
 -1      1979 6.37018E-01
 -1      1980 9.16434E-01
 -1      1981 7.71388E-01
 -1      1982 5.52886E-01
 -1      1983 1.18114E+00
 -1      1984 1.16561E+00
 -1      1985 7.87212E-01
 -1      1986 1.65326E+00
 -1      1987 1.48666E+00
 -1      1988 1.34192E+00
 -1      1989 2.03352E+00
 -1      1990 1.78350E+00
 -1      1991 1.77768E+00
 -1      1992 2.47457E+00
 -1      1993 2.03352E+00
 -1      1994 1.90792E+00
 -1      1995 2.61857E+00
 -1      1996 2.46958E+00
 -1      1997 1.90293E+00
 -1      1998 2.95723E+00
 -1      1999 2.76209E+00
 -1      2000 2.04146E+00
 -1      2001 2.51539E+00
 -1      2002 2.87097E+00
 -1      2003 2.09871E+00
 -1      2004 1.58010E+00
 -1      2005 2.19040E+00
 -1      2006 1.68745E+00
 -1      2007 1.02226E+00
 -1      2008 1.31407E+00
 -1      2009 1.09643E+00
 -1      2010 7.81716E-01
 -1      2011 8.88957E-01
 -1      2012 6.97105E-01
 -1      2013 9.20060E-01
 -1      2014 9.01074E-01
 -1      2015 6.83163E-01
 -1      2016 1.05036E+00
 -1      2017 9.57595E-01
 -1      2018 8.40056E-01
 -1      2019 1.05957E+00
 -1      2020 1.06695E+00
 -1      2021 8.94183E-01
 -1      2022 9.73379E-01
 -1      2023 1.03860E+00
 -1      2024 8.89802E-01
 -1      2025 8.44719E-01
 -1      2026 9.28731E-01
 -1      2027 8.24179E-01
 -1      2028 7.23086E-01
 -1      2029 7.98787E-01
 -1      2030 7.33599E-01
 -1      2031 5.98218E-01
 -1      2032 6.67340E-01
 -1      2033 6.31921E-01
 -1      2034 4.75258E-01
 -1      2035 5.41721E-01
 -1      2036 5.19679E-01
 -1      2037 3.64349E-01
 -1      2038 4.23335E-01
 -1      2039 4.11260E-01
 -1      2040 2.70075E-01
 -1      2041 3.19580E-01
 -1      2042 3.14569E-01
 -1      2043 2.00258E-01
 -1      2044 2.33527E-01
 -1      2045 2.33254E-01
 -1      2046 1.51095E-01
 -1      2047 1.76876E-01
 -1      2048 1.73324E-01
 -1      2049 1.11613E-01
 -1      2050 1.31931E-01
 -1      2051 1.30777E-01
 -1      2052 8.09380E-02
 -1      2053 9.62754E-02
 -1      2054 9.62754E-02
 -1      2055 5.69906E-02
 -1      2056 6.89643E-02
 -1      2057 6.89643E-02
 -1      2058 4.12964E-02
 -1      2059 4.78519E-02
 -1      2060 4.78519E-02
 -1      2061 3.16856E-02
 -1      2062 3.56190E-02
 -1      2063 3.30358E-02
 -1      2064 2.60024E-02
 -1      2065 2.96001E-02
 -1      2066 2.52729E-02
 -1      2067 2.07011E-02
 -1      2068 2.38882E-02
 -1      2069 2.10733E-02
 -1      2070 1.69252E-02
 -1      2071 1.86789E-02
 -1      2072 1.69369E-02
 -1      2073 1.37910E-02
 -1      2074 1.50629E-02
 -1      2075 1.30524E-02
 -1      2076 1.12606E-02
 -1      2077 1.27122E-02
 -1      2078 1.01114E-02
 -1      2079 8.86003E-03
 -1      2080 1.04294E-02
 -1      2081 8.20149E-03
 -1      2082 6.44818E-03
 -1      2083 7.99299E-03
 -1      2084 6.50322E-03
 -1      2085 4.57288E-03
 -1      2086 5.69238E-03
 -1      2087 4.88037E-03
 -1      2088 2.96755E-03
 -1      2089 3.93082E-03
 -1      2090 3.48250E-03
 -1      2091 2.02609E-03
 -1      2092 1.19616E-03
 -1      2093 1.03682E-03
 -1      2094 1.38766E-03
 -1      2095 1.56138E-03
 -1      2096 1.72672E-03
 -1      2097 1.61895E-03
 -1      2098 1.70222E-03
 -1      2099 2.51657E-03
 -1      2100 2.13513E-03
 -1      2101 1.36496E-03
 -1      2102 1.27956E-03
 -1      2103 1.45928E-03
 -1      2104 1.39934E-03
 -1      2105 1.37072E-03
 -1      2106 1.54844E-03
 -1      2107 1.40635E-03
 -1      2108 1.39934E-03
 -1      2109 1.55419E-03
 -1      2110 1.39476E-03
 -1      2111 1.39452E-03
 -1      2112 1.54236E-03
 -1      2113 1.39505E-03
 -1      2114 1.39505E-03
 -1      2115 1.53082E-03
 -1      2116 1.40000E-03
 -1      2117 1.40798E-03
 -1      2118 1.54404E-03
 -1      2119 1.37280E-03
 -1      2120 1.40000E-03
 -1      2121 1.55697E-03
 -1      2122 1.28648E-03
 -1      2123 1.36429E-03
 -1      2124 1.54845E-03
 -1      2125 1.07728E-03
 -1      2126 1.22028E-03
 -1      2127 1.47374E-03
 -1      2128 1.60016E-03
 -1      2129 1.60016E-03
 -1      2130 1.93042E-03
 -1      2131 3.65415E+01
 -1      2132 2.65685E+01
 -1      2133 3.00951E+01
 -1      2134 3.00951E+01
 -1      2135 2.86079E+01
 -1      2136 3.00951E+01
 -1      2137 1.76757E+01
 -1      2138 3.11820E+01
 -1      2139 9.98913E+00
 -1      2140 1.43645E+01
 -1      2141 1.11611E+00
 -1      2142 1.30476E+00
 -1      2143 1.07842E+00
 -1      2144 9.33668E-01
 -1      2145 1.10277E+01
 -1      2146 1.07989E+01
 -1      2147 1.15207E+01
 -1      2148 1.18488E+01
 -1      2149 1.23437E+01
 -1      2150 1.14552E+01
 -1      2151 1.13380E+01
 -1      2152 1.01016E+01
 -1      2153 1.06309E+01
 -1      2154 9.34656E+00
 -1      2155 9.38092E+00
 -1      2156 2.05348E+01
 -1      2157 1.18487E+01
 -1      2158 2.67928E+01
 -1      2159 2.50484E+01
 -1      2160 3.31487E+01
 -1      2161 3.31487E+01
 -1      2162 3.16367E+01
 -1      2163 3.39749E+01
 -1      2164 3.16367E+01
 -1      2165 3.16367E+01
 -1      2166 3.00034E+01
 -1      2167 2.73634E+01
 -1      2168 2.99882E+01
 -1      2169 2.80360E+01
 -1      2170 1.40240E+01
 -1      2171 2.52325E+01
 -1      2172 1.75640E+01
 -1      2173 9.50461E+00
 -1      2174 1.14763E+01
 -1      2175 1.06382E+01
 -1      2176 1.01063E+01
 -1      2177 8.31453E+00
 -1      2178 1.15751E+01
 -1      2179 1.11374E+01
 -1      2180 1.19087E+01
 -1      2181 1.22009E+01
 -1      2182 1.07637E+01
 -1      2183 1.10893E+01
 -1      2184 9.40830E+00
 -1      2185 9.76359E+00
 -1      2186 1.50873E+01
 -1      2187 1.02538E+01
 -1      2188 3.20759E+01
 -1      2189 1.89367E+01
 -1      2190 2.95437E+01
 -1      2191 3.83892E+01
 -1      2192 2.91617E+01
 -1      2193 2.91621E+01
 -1      2194 9.58581E+00
 -1      2195 9.04328E+00
 -1      2196 1.25383E+01
 -1      2197 2.71121E+00
 -1      2198 8.28114E+00
 -1      2199 8.54833E+00
 -1      2200 1.89543E+00
 -1      2201 2.86079E+01
 -1      2202 3.06472E+01
 -1      2203 2.28015E-03
 -1      2204 2.12090E+01
 -1      2205 2.97138E+01
 -1      2206 2.91621E+01
 -1      2207 2.32304E+01
 -1      2208 1.30677E+01
 -1      2209 8.37276E+00
 -1      2210 8.52743E+00
 -1      2211 1.03470E+01
 -1      2212 9.41540E+00
 -1      2213 1.11926E+01
 -1      2214 9.97683E+00
 -1      2215 7.42914E+00
 -1      2216 2.42871E+01
 -1      2217 3.05278E+01
 -1      2218 3.48012E+01
 -1      2219 2.84570E+01
 -1      2220 2.84570E+01
 -1      2221 2.92832E+01
 -1      2222 2.67928E+01
 -1      2223 1.59233E+01
 -1      2224 8.90750E+00
 -1      2225 1.09550E+01
 -1      2226 9.88375E+00
 -1      2227 8.17089E+00
 -1      2228 1.05825E+01
 -1      2229 7.12609E+00
 -1      2230 1.05405E+01
 -1      2231 8.50237E-01
 -1      2232 1.17724E+00
 -1      2233 5.42069E-01
 -1      2234 5.98546E-01
 -1      2235 6.38884E-01
 -1      2236 7.11795E-01
 -1      2237 5.34739E-01
 -1      2238 4.20382E-01
 -1      2239 4.15817E-01
 -1      2240 5.05721E-01
 -1      2241 4.59625E-01
 -1      2242 3.74881E-01
 -1      2243 6.08198E-01
 -1      2244 5.49186E-01
 -1      2245 4.57588E-01
 -1      2246 7.14002E-01
 -1      2247 6.45540E-01
 -1      2248 5.38394E-01
 -1      2249 8.14517E-01
 -1      2250 7.32859E-01
 -1      2251 5.94594E-01
 -1      2252 1.05879E+00
 -1      2253 9.45596E-01
 -1      2254 7.44530E-01
 -1      2255 5.73487E-01
 -1      2256 7.00932E-01
 -1      2257 6.01257E-01
 -1      2258 9.98832E-01
 -1      2259 7.19993E-01
 -1      2260 5.76232E+00
 -1      2261 6.70816E+00
 -1      2262 6.57085E-01
 -1      2263 5.52573E-01
 -1      2264 5.32500E-01
 -1      2265 5.20652E-01
 -1      2266 4.66456E-01
 -1      2267 4.37671E-01
 -1      2268 5.31199E-01
 -1      2269 5.70485E-01
 -1      2270 4.70493E-01
 -1      2271 6.40125E-01
 -1      2272 6.82123E-01
 -1      2273 6.04876E-01
 -1      2274 7.39804E-01
 -1      2275 8.14381E-01
 -1      2276 7.32196E-01
 -1      2277 9.00748E-01
 -1      2278 9.68128E-01
 -1      2279 8.76244E-01
 -1      2280 1.05036E+00
 -1      2281 1.03965E+00
 -1      2282 1.04485E+00
 -1      2283 1.09348E+00
 -1      2284 1.05352E+00
 -1      2285 1.18091E+00
 -1      2286 1.17932E+00
 -1      2287 1.22042E+00
 -1      2288 1.36055E+00
 -1      2289 1.31869E+00
 -1      2290 1.48984E+00
 -1      2291 1.58462E+00
 -1      2292 1.66005E+00
 -1      2293 1.93807E+00
 -1      2294 1.85310E+00
 -1      2295 1.95062E+00
 -1      2296 2.23417E+00
 -1      2297 2.03585E+00
 -1      2298 2.70634E+00
 -1      2299 2.75240E+00
 -1      2300 2.52058E+00
 -1      2301 2.93455E+00
 -1      2302 2.95705E+00
 -1      2303 3.17490E+00
 -1      2304 2.73108E+00
 -1      2305 2.64222E+00
 -1      2306 3.13108E+00
 -1      2307 2.16802E+00
 -1      2308 1.87880E+00
 -1      2309 2.43091E+00
 -1      2310 1.82052E+00
 -1      2311 1.50791E+00
 -1      2312 1.89842E+00
 -1      2313 1.44972E+00
 -1      2314 1.33202E+00
 -1      2315 1.78194E+00
 -1      2316 1.18271E+00
 -1      2317 1.13973E+00
 -1      2318 1.57444E+00
 -1      2319 1.08631E+00
 -1      2320 1.18565E+00
 -1      2321 1.37171E+00
 -1      2322 1.13820E+00
 -1      2323 1.16082E+00
 -1      2324 1.27085E+00
 -1      2325 1.08694E+00
 -1      2326 1.04501E+00
 -1      2327 1.14951E+00
 -1      2328 9.84850E-01
 -1      2329 9.30272E-01
 -1      2330 1.01547E+00
 -1      2331 8.79567E-01
 -1      2332 8.31607E-01
 -1      2333 9.04614E-01
 -1      2334 7.72122E-01
 -1      2335 7.12714E-01
 -1      2336 7.94424E-01
 -1      2337 6.50052E-01
 -1      2338 5.86801E-01
 -1      2339 6.72276E-01
 -1      2340 5.27250E-01
 -1      2341 4.67462E-01
 -1      2342 5.50062E-01
 -1      2343 4.14406E-01
 -1      2344 3.61862E-01
 -1      2345 4.37455E-01
 -1      2346 3.16689E-01
 -1      2347 2.72786E-01
 -1      2348 3.39226E-01
 -1      2349 2.35629E-01
 -1      2350 2.00326E-01
 -1      2351 2.56895E-01
 -1      2352 1.70611E-01
 -1      2353 1.43106E-01
 -1      2354 1.90023E-01
 -1      2355 1.19916E-01
 -1      2356 1.02029E-01
 -1      2357 1.37119E-01
 -1      2358 8.43379E-02
 -1      2359 7.15223E-02
 -1      2360 9.62386E-02
 -1      2361 5.83254E-02
 -1      2362 4.95725E-02
 -1      2363 6.53504E-02
 -1      2364 4.01785E-02
 -1      2365 3.58829E-02
 -1      2366 4.27595E-02
 -1      2367 3.06769E-02
 -1      2368 2.70699E-02
 -1      2369 2.81595E-02
 -1      2370 2.47873E-02
 -1      2371 2.15018E-02
 -1      2372 2.06708E-02
 -1      2373 2.00632E-02
 -1      2374 1.71529E-02
 -1      2375 1.69496E-02
 -1      2376 1.56550E-02
 -1      2377 1.31424E-02
 -1      2378 1.40131E-02
 -1      2379 1.16850E-02
 -1      2380 1.04545E-02
 -1      2381 1.10578E-02
 -1      2382 9.14085E-03
 -1      2383 7.85413E-03
 -1      2384 8.28682E-03
 -1      2385 7.11066E-03
 -1      2386 5.83377E-03
 -1      2387 6.22969E-03
 -1      2388 5.05647E-03
 -1      2389 4.09887E-03
 -1      2390 4.70893E-03
 -1      2391 4.86943E-01
 -1      2392 5.25870E-01
 -1      2393 5.67439E-01
 -1      2394 5.47392E-01
 -1      2395 4.67730E-01
 -1      2396 6.61691E-01
 -1      2397 6.21717E-01
 -1      2398 5.82458E-01
 -1      2399 7.28886E-01
 -1      2400 7.19058E-01
 -1      2401 6.94104E-01
 -1      2402 7.63784E-01
 -1      2403 7.63784E-01
 -1      2404 7.86371E-01
 -1      2405 6.95508E-01
 -1      2406 7.64789E-01
 -1      2407 8.22275E-01
 -1      2408 7.85392E-01
 -1      2409 8.00243E-01
 -1      2410 9.28014E-01
 -1      2411 1.02696E+00
 -1      2412 7.77783E-01
 -1      2413 1.02514E+00
 -1      2414 1.60041E+00
 -1      2415 1.29489E+00
 -1      2416 1.28546E+00
 -1      2417 1.82103E+00
 -1      2418 1.69079E+00
 -1      2419 1.64376E+00
 -1      2420 2.08630E+00
 -1      2421 2.08630E+00
 -1      2422 1.99941E+00
 -1      2423 2.06443E+00
 -1      2424 2.06942E+00
 -1      2425 2.24780E+00
 -1      2426 2.22886E+00
 -1      2427 2.08535E+00
 -1      2428 2.25183E+00
 -1      2429 1.91938E+00
 -1      2430 2.00565E+00
 -1      2431 2.04954E+00
 -1      2432 1.43490E+00
 -1      2433 1.75989E+00
 -1      2434 1.66683E+00
 -1      2435 1.01357E+00
 -1      2436 1.27960E+00
 -1      2437 1.35204E+00
 -1      2438 8.20295E-01
 -1      2439 9.53596E-01
 -1      2440 1.13676E+00
 -1      2441 8.44247E-01
 -1      2442 7.24889E-01
 -1      2443 9.81379E-01
 -1      2444 9.18423E-01
 -1      2445 8.80888E-01
 -1      2446 9.22614E-01
 -1      2447 9.21773E-01
 -1      2448 9.05180E-01
 -1      2449 9.46013E-01
 -1      2450 8.59363E-01
 -1      2451 8.80337E-01
 -1      2452 8.91334E-01
 -1      2453 7.81807E-01
 -1      2454 8.26455E-01
 -1      2455 8.16991E-01
 -1      2456 6.95224E-01
 -1      2457 7.41156E-01
 -1      2458 7.43432E-01
 -1      2459 5.89128E-01
 -1      2460 6.44873E-01
 -1      2461 6.52431E-01
 -1      2462 4.79343E-01
 -1      2463 5.35839E-01
 -1      2464 5.48792E-01
 -1      2465 3.76825E-01
 -1      2466 4.28748E-01
 -1      2467 4.44908E-01
 -1      2468 2.87195E-01
 -1      2469 3.31963E-01
 -1      2470 3.49451E-01
 -1      2471 2.12746E-01
 -1      2472 2.49293E-01
 -1      2473 2.66688E-01
 -1      2474 1.58513E-01
 -1      2475 1.81895E-01
 -1      2476 1.97935E-01
 -1      2477 1.15002E-01
 -1      2478 1.34167E-01
 -1      2479 1.42738E-01
 -1      2480 8.09732E-02
 -1      2481 9.63106E-02
 -1      2482 9.97001E-02
 -1      2483 5.51687E-02
 -1      2484 6.71424E-02
 -1      2485 6.71776E-02
 -1      2486 3.80969E-02
 -1      2487 4.72356E-02
 -1      2488 4.54137E-02
 -1      2489 2.73584E-02
 -1      2490 3.30358E-02
 -1      2491 3.24195E-02
 -1      2492 2.31875E-02
 -1      2493 2.52729E-02
 -1      2494 2.52729E-02
 -1      2495 1.89591E-02
 -1      2496 2.10733E-02
 -1      2497 2.10733E-02
 -1      2498 1.49146E-02
 -1      2499 1.69369E-02
 -1      2500 1.69369E-02
 -1      2501 1.11902E-02
 -1      2502 1.30524E-02
 -1      2503 1.30524E-02
 -1      2504 8.85633E-03
 -1      2505 9.93505E-03
 -1      2506 9.93505E-03
 -1      2507 7.07081E-03
 -1      2508 7.90204E-03
 -1      2509 7.72565E-03
 -1      2510 5.25661E-03
 -1      2511 6.12365E-03
 -1      2512 5.82420E-03
 -1      2513 4.00698E-03
 -1      2514 4.76279E-03
 -1      2515 4.38323E-03
 -1      2516 3.15863E-03
 -1      2517 1.76026E-03
 -1      2518 1.75451E-03
 -1      2519 1.66238E-03
 -1      2520 1.66238E-03
 -1      2521 1.86845E-03
 -1      2522 2.19363E-03
 -1      2523 2.54447E-03
 -1      2524 1.75451E-03
 -1      2525 1.67111E-03
 -1      2526 2.48886E-03
 -1      2527 1.96633E-03
 -1      2528 1.58205E-03
 -1      2529 1.59388E-03
 -1      2530 1.70207E-03
 -1      2531 1.53519E-03
 -1      2532 1.53490E-03
 -1      2533 1.58641E-03
 -1      2534 1.59571E-03
 -1      2535 1.58279E-03
 -1      2536 1.58686E-03
 -1      2537 1.66888E-03
 -1      2538 1.66888E-03
 -1      2539 1.70763E-03
 -1      2540 1.69851E-03
 -1      2541 1.70702E-03
 -1      2542 1.81894E-03
 -1      2543 1.63231E-03
 -1      2544 1.69851E-03
 -1      2545 1.85707E-03
 -1      2546 2.20060E-03
 -1      2547 1.67771E-03
 -1      2548 1.90248E-03
 -1      2549 3.06472E+01
 -1      2550 3.06472E+01
 -1      2551 1.43122E+01
 -1      2552 1.96717E+01
 -1      2553 4.93130E-01
 -1      2554 5.18412E-01
 -1      2555 3.74542E-01
 -1      2556 2.72250E-03
 -1      2557 2.97138E+01
 -1      2558 2.87804E+01
 -1      2559 2.29868E+01
 -1      2560 2.50262E+01
 -1      2561 1.70372E+00
 -1      2562 1.21054E+00
 -1      2563 8.07116E-01
 -1      2564 1.07842E+00
 -1      2565 2.45408E+01
 -1      2566 2.49224E+01
 -1      2567 2.00635E+01
 -1      2568 2.20309E+01
 -1      2569 4.52427E-01
 -1      2570 4.99297E-01
 -1      2571 4.51629E-01
 -1      2572 3.72247E-01
 -1      2573 9.23950E+00
 -1      2574 8.41842E+00
 -1      2575 5.25291E+00
 -1      2576 5.97360E+00
 -1      2577 9.62237E+00
 -1      2578 9.68789E+00
 -1      2579 9.39775E+00
 -1      2580 8.77187E+00
 -1      2581 9.28531E+00
 -1      2582 6.78320E+00
 -1      2583 1.48993E+01
 -1      2584 1.03856E+01
 -1      2585 2.41689E+01
 -1      2586 1.78130E+01
 -1      2587 1.22753E+01
 -1      2588 3.48012E+01
 -1      2589 3.48012E+01
 -1      2590 2.62545E+01
 -1      2591 3.05278E+01
 -1      2592 1.15605E+01
 -1      2593 1.63162E+01
 -1      2594 6.31965E+00
 -1      2595 5.71797E+00
 -1      2596 7.86346E+00
 -1      2597 7.36428E+00
 -1      2598 4.76772E+00
 -1      2599 8.33035E+00
 -1      2600 9.14972E+00
 -1      2601 6.69699E+00
 -1      2602 7.69714E+00
 -1      2603 6.49991E+00
 -1      2604 7.63658E+00
 -1      2605 6.79109E+00
 -1      2606 1.25191E+01
 -1      2607 8.66961E+00
 -1      2608 2.13633E+01
 -1      2609 1.50501E+01
 -1      2610 1.06520E+01
 -1      2611 7.54963E+00
 -1      2612 6.33659E+00
 -1      2613 1.35340E+00
 -1      2614 1.53140E+00
 -1      2615 1.23183E+00
 -1      2616 9.26716E-01
 -1      2617 8.97376E+00
 -1      2618 1.22850E+01
 -1      2619 6.45494E+00
 -1      2620 6.20667E+00
 -1      2621 6.32202E-01
 -1      2622 7.68920E-01
 -1      2623 8.54076E-01
 -1      2624 3.96877E-01
 -1      2625 1.17242E+00
 -1      2626 2.45408E+01
 -1      2627 1.67421E+01
 -1      2628 4.76362E+00
 -1      2629 5.96081E+00
 -1      2630 3.04106E-03
 -1      2631 1.07477E+01
 -1      2632 2.98348E-03
 -1      2633 6.72075E+00
 -1      2634 2.97138E+01
 -1      2635 2.50262E+01
 -1      2636 1.60900E+01
 -1      2637 6.76157E+00
 -1      2638 8.77818E+00
 -1      2639 7.00960E+00
 -1      2640 9.68619E+00
 -1      2641 8.43845E+00
 -1      2642 6.85481E+00
 -1      2643 9.89240E-01
 -1      2644 2.20309E+01
 -1      2645 1.40600E+01
 -1      2646 2.46125E+01
 -1      2647 1.56327E+01
 -1      2648 1.99208E+01
 -1      2649 2.73951E+01
 -1      2650 2.73951E+01
 -1      2651 2.18772E+01
 -1      2652 8.26132E+00
 -1      2653 8.94214E+00
 -1      2654 7.29202E+00
 -1      2655 7.55340E+00
 -1      2656 5.60841E+00
 -1      2657 5.32470E+00
 -1      2658 3.61353E+00
 -1      2659 1.01882E+00
 -1      2660 6.80496E+00
 -1      2661 7.12908E+00
 -1      2662 4.93179E+00
 -1      2663 5.63072E+00
 -1      2664 7.52385E+00
 -1      2665 3.05278E+01
 -1      2666 2.78661E-03
 -1      2667 2.51741E-03
 -1      2668 2.26470E-03
 -1      2669 3.42380E-03
 -1      2670 3.45039E-03
 -1      2671 7.08794E+00
 -1      2672 3.25658E-03
 -1      2673 4.23011E-01
 -1      2674 3.79547E-01
 -1      2675 3.38754E-01
 -1      2676 2.99511E-01
 -1      2677 3.04177E-01
 -1      2678 5.66611E-01
 -1      2679 5.47754E-01
 -1      2680 7.21680E-01
 -1      2681 5.90601E-01
 -1      2682 5.43762E-01
 -1      2683 5.09769E-01
 -1      2684 6.59074E-01
 -1      2685 1.62952E+01
 -1      2686 2.05188E+01
 -1      2687 4.42584E+00
 -1      2688 6.69144E+00
 -1      2689 8.13086E-01
 -1      2690 5.60718E+00
 -1      2691 4.73839E+00
 -1      2692 1.57470E+01
 -1      2693 1.21879E+01
 -1      2694 4.78229E-01
 -1      2695 4.46308E-01
 -1      2696 4.70396E-01
 -1      2697 5.35139E-01
 -1      2698 5.10954E-01
 -1      2699 6.02514E-01
 -1      2700 6.72154E-01
 -1      2701 6.02417E-01
 -1      2702 7.56079E-01
 -1      2703 8.13760E-01
 -1      2704 7.53717E-01
 -1      2705 9.03007E-01
 -1      2706 9.89374E-01
 -1      2707 9.26890E-01
 -1      2708 1.10816E+00
 -1      2709 1.19040E+00
 -1      2710 1.13492E+00
 -1      2711 1.36626E+00
 -1      2712 1.42009E+00
 -1      2713 1.42957E+00
 -1      2714 1.61760E+00
 -1      2715 1.74340E+00
 -1      2716 1.80294E+00
 -1      2717 1.91855E+00
 -1      2718 2.01682E+00
 -1      2719 2.17560E+00
 -1      2720 2.06382E+00
 -1      2721 2.23403E+00
 -1      2722 2.39775E+00
 -1      2723 2.59347E+00
 -1      2724 2.60602E+00
 -1      2725 2.80419E+00
 -1      2726 2.52058E+00
 -1      2727 2.99275E+00
 -1      2728 3.07819E+00
 -1      2729 3.35704E+00
 -1      2730 3.13108E+00
 -1      2731 2.90511E+00
 -1      2732 2.43091E+00
 -1      2733 3.13108E+00
 -1      2734 2.21953E+00
 -1      2735 2.16125E+00
 -1      2736 2.69373E+00
 -1      2737 2.32340E+00
 -1      2738 2.26520E+00
 -1      2739 2.64450E+00
 -1      2740 1.95877E+00
 -1      2741 1.80946E+00
 -1      2742 2.50022E+00
 -1      2743 1.64963E+00
 -1      2744 1.59622E+00
 -1      2745 2.03396E+00
 -1      2746 1.43225E+00
 -1      2747 1.38480E+00
 -1      2748 1.71017E+00
 -1      2749 1.22945E+00
 -1      2750 1.15557E+00
 -1      2751 1.39086E+00
 -1      2752 1.07563E+00
 -1      2753 1.01547E+00
 -1      2754 1.15557E+00
 -1      2755 9.41618E-01
 -1      2756 8.90914E-01
 -1      2757 1.00177E+00
 -1      2758 8.15838E-01
 -1      2759 7.56352E-01
 -1      2760 8.52843E-01
 -1      2761 6.83521E-01
 -1      2762 6.20860E-01
 -1      2763 7.04936E-01
 -1      2764 5.55271E-01
 -1      2765 4.95719E-01
 -1      2766 5.66516E-01
 -1      2767 4.39330E-01
 -1      2768 3.86274E-01
 -1      2769 4.44538E-01
 -1      2770 3.39823E-01
 -1      2771 2.94649E-01
 -1      2772 3.41698E-01
 -1      2773 2.59386E-01
 -1      2774 2.22229E-01
 -1      2775 2.59983E-01
 -1      2776 1.93904E-01
 -1      2777 1.64189E-01
 -1      2778 1.96395E-01
 -1      2779 1.41820E-01
 -1      2780 1.18631E-01
 -1      2781 1.45702E-01
 -1      2782 1.01257E-01
 -1      2783 8.35659E-02
 -1      2784 1.05959E-01
 -1      2785 7.03019E-02
 -1      2786 5.71050E-02
 -1      2787 7.53205E-02
 -1      2788 4.71661E-02
 -1      2789 3.77721E-02
 -1      2790 5.21176E-02
 -1      2791 3.04780E-02
 -1      2792 2.52720E-02
 -1      2793 3.48847E-02
 -1      2794 2.00460E-02
 -1      2795 1.77634E-02
 -1      2796 2.23646E-02
 -1      2797 1.47047E-02
 -1      2798 1.32661E-02
 -1      2799 1.40799E-02
 -1      2800 1.21975E-02
 -1      2801 1.06995E-02
 -1      2802 9.95260E-03
 -1      2803 1.01584E-02
 -1      2804 8.70107E-03
 -1      2805 8.34280E-03
 -1      2806 7.99516E-03
 -1      2807 6.68150E-03
 -1      2808 7.09575E-03
 -1      2809 5.91554E-03
 -1      2810 5.17207E-03
 -1      2811 5.62389E-03
 -1      2812 4.52502E-03
 -1      2813 3.74773E-03
 -1      2814 4.21087E-03
 -1      2815 6.49318E-01
 -1      2816 5.95040E-01
 -1      2817 3.62830E-03
 -1      2818 4.06731E-03
 -1      2819 4.56113E-03
 -1      2820 5.37080E-01
 -1      2821 4.76630E-01
 -1      2822 6.03940E-01
 -1      2823 9.03292E-01
 -1      2824 8.68394E-01
 -1      2825 9.91953E-01
 -1      2826 9.90948E-01
 -1      2827 1.07297E+00
 -1      2828 1.15872E+00
 -1      2829 1.05398E+00
 -1      2830 1.22266E+00
 -1      2831 1.35242E+00
 -1      2832 1.36003E+00
 -1      2833 1.48600E+00
 -1      2834 1.79155E+00
 -1      2835 1.52362E+00
 -1      2836 1.85852E+00
 -1      2837 2.34740E+00
 -1      2838 2.25703E+00
 -1      2839 2.49519E+00
 -1      2840 2.65314E+00
 -1      2841 2.38786E+00
 -1      2842 3.00113E+00
 -1      2843 3.21286E+00
 -1      2844 3.22974E+00
 -1      2845 3.61820E+00
 -1      2846 3.28803E+00
 -1      2847 3.26710E+00
 -1      2848 4.24905E+00
 -1      2849 2.98261E+00
 -1      2850 3.20583E+00
 -1      2851 4.22110E+00
 -1      2852 2.77046E+00
 -1      2853 2.92996E+00
 -1      2854 4.08624E+00
 -1      2855 1.59635E+00
 -1      2856 1.75165E+00
 -1      2857 3.01477E+00
 -1      2858 1.49692E+00
 -1      2859 1.55690E+00
 -1      2860 1.95651E+00
 -1      2861 1.14009E+00
 -1      2862 1.23550E+00
 -1      2863 1.65563E+00
 -1      2864 1.13942E+00
 -1      2865 1.10278E+00
 -1      2866 1.35690E+00
 -1      2867 1.05092E+00
 -1      2868 1.06417E+00
 -1      2869 1.24433E+00
 -1      2870 9.20980E-01
 -1      2871 9.62416E-01
 -1      2872 1.08057E+00
 -1      2873 8.24335E-01
 -1      2874 8.57243E-01
 -1      2875 9.28324E-01
 -1      2876 7.32917E-01
 -1      2877 7.73568E-01
 -1      2878 8.13820E-01
 -1      2879 6.25344E-01
 -1      2880 6.75694E-01
 -1      2881 7.05831E-01
 -1      2882 5.15179E-01
 -1      2883 5.68467E-01
 -1      2884 5.91731E-01
 -1      2885 4.12045E-01
 -1      2886 4.62640E-01
 -1      2887 4.82315E-01
 -1      2888 3.20998E-01
 -1      2889 3.65860E-01
 -1      2890 3.83592E-01
 -1      2891 2.43965E-01
 -1      2892 2.81867E-01
 -1      2893 2.98276E-01
 -1      2894 1.80924E-01
 -1      2895 2.11774E-01
 -1      2896 2.26954E-01
 -1      2897 1.30754E-01
 -1      2898 1.55101E-01
 -1      2899 1.68940E-01
 -1      2900 9.18120E-02
 -1      2901 1.10504E-01
 -1      2902 1.22866E-01
 -1      2903 6.24385E-02
 -1      2904 7.62692E-02
 -1      2905 8.70729E-02
 -1      2906 4.28315E-02
 -1      2907 5.07646E-02
 -1      2908 5.98562E-02
 -1      2909 2.92039E-02
 -1      2910 3.42650E-02
 -1      2911 3.96158E-02
 -1      2912 2.09959E-02
 -1      2913 2.30814E-02
 -1      2914 2.49268E-02
 -1      2915 1.59254E-02
 -1      2916 1.80396E-02
 -1      2917 1.58481E-02
 -1      2918 1.32137E-02
 -1      2919 1.52359E-02
 -1      2920 1.22022E-02
 -1      2921 1.04397E-02
 -1      2922 1.23020E-02
 -1      2923 1.06010E-02
 -1      2924 8.17763E-03
 -1      2925 9.43275E-03
 -1      2926 8.68232E-03
 -1      2927 6.23440E-03
 -1      2928 7.18868E-03
 -1      2929 6.68638E-03
 -1      2930 4.87704E-03
 -1      2931 5.82420E-03
 -1      2932 5.28724E-03
 -1      2933 4.56113E-03
 -1      2934 8.50519E+00
 -1      2935 1.05324E+01
 -1      2936 1.53923E-03
 -1      2937 1.58639E-03
 -1      2938 6.71543E+00
 -1      2939 5.68239E+00
 -1      2940 1.85439E-03
 -1      2941 1.95227E-03
 -1      2942 1.58686E-03
 -1      2943 1.53926E-03
 -1      2944 1.53923E-03
 -1      2945 1.63356E-03
 -1      2946 1.70207E-03
 -1      2947 1.78588E-03
 -1      2948 1.58639E-03
 -1      2949 1.70763E-03
 -1      2950 1.63446E-03
 -1      2951 1.58686E-03
 -1      2952 1.91545E-03
 -1      2953 1.87731E-03
 -1      2954 1.80414E-03
 -1      2955 2.01124E-03
 -1      2956 2.01124E-03
 -1      2957 2.06962E-03
 -1      2958 1.75720E+01
 -1      2959 2.31931E+01
 -1      2960 1.17265E+01
 -1      2961 1.50417E+01
 -1      2962 9.02665E-01
 -1      2963 6.90957E-01
 -1      2964 9.96213E+00
 -1      2965 1.37094E+01
 -1      2966 4.24475E-01
 -1      2967 3.91736E-01
 -1      2968 4.93825E-01
 -1      2969 7.81354E+00
 -1      2970 6.71323E+00
 -1      2971 7.76405E-01
 -1      2972 7.19037E-01
 -1      2973 7.31619E-01
 -1      2974 8.93327E-01
 -1      2975 6.90957E-01
 -1      2976 6.28049E-01
 -1      2977 6.36686E-01
 -1      2978 7.86506E-01
 -1      2979 4.67051E+00
 -1      2980 4.57641E+00
 -1      2981 5.10554E-01
 -1      2982 4.73212E-01
 -1      2983 3.95170E-01
 -1      2984 4.82572E-01
 -1      2985 3.57291E-01
 -1      2986 4.12366E-01
 -1      2987 4.70183E-01
 -1      2988 4.07225E-01
 -1      2989 4.68574E+00
 -1      2990 4.11146E+00
 -1      2991 4.34796E+00
 -1      2992 4.70094E-01
 -1      2993 5.10432E-01
 -1      2994 4.92538E+00
 -1      2995 3.39509E+00
 -1      2996 2.26947E+01
 -1      2997 2.17613E+01
 -1      2998 1.97413E+01
 -1      2999 2.40146E+01
 -1      3000 6.72194E+00
 -1      3001 6.27355E+00
 -1      3002 1.13325E+01
 -1      3003 8.41876E+00
 -1      3004 2.61876E-03
 -1      3005 2.30194E-03
 -1      3006 3.29382E-03
 -1      3007 9.02665E-01
 -1      3008 4.51620E+00
 -1      3009 3.47157E+00
 -1      3010 6.26893E+00
 -1      3011 5.36053E+00
 -1      3012 4.90663E+00
 -1      3013 5.53983E+00
 -1      3014 1.08769E+01
 -1      3015 8.34587E+00
 -1      3016 2.24120E+01
 -1      3017 1.81724E+01
 -1      3018 6.80791E-01
 -1      3019 7.37917E-01
 -1      3020 6.16147E-01
 -1      3021 2.58957E-01
 -1      3022 2.95083E-01
 -1      3023 3.31693E-01
 -1      3024 4.08624E+00
 -1      3025 1.40056E+01
 -1      3026 6.47610E+00
 -1      3027 1.53929E+01
 -1      3028 7.21597E-01
 -1      3029 4.80527E+00
 -1      3030 9.88179E+00
 -1      3031 3.61633E+00
 -1      3032 3.10991E-03
 -1      3033 3.94929E+00
 -1      3034 4.13143E+00
 -1      3035 4.13143E+00
 -1      3036 3.94929E+00
 -1      3037 9.48401E+00
 -1      3038 1.25880E+01
 -1      3039 8.73145E+00
 -1      3040 1.30316E+01
 -1      3041 5.03769E+00
 -1      3042 5.48547E+00
 -1      3043 3.24984E+00
 -1      3044 4.29800E+00
 -1      3045 2.58940E-03
 -1      3046 2.60347E-03
 -1      3047 2.60347E-03
 -1      3048 3.10578E-03
 -1      3049 7.96807E+00
 -1      3050 7.61748E+00
 -1      3051 6.09379E+00
 -1      3052 1.52406E+01
 -1      3053 1.45250E+01
 -1      3054 1.26918E+01
 -1      3055 1.01615E+01
 -1      3056 2.25654E-03
 -1      3057 3.36201E+00
 -1      3058 1.21973E+01
 -1      3059 5.16829E+00
 -1      3060 6.21403E+00
 -1      3061 5.92340E+00
 -1      3062 4.39329E+00
 -1      3063 6.94032E+00
 -1      3064 2.67097E-03
 -1      3065 2.27151E-03
 -1      3066 2.42567E-03
 -1      3067 3.12488E-03
 -1      3068 1.83710E+01
 -1      3069 1.45265E+01
 -1      3070 1.64829E+01
 -1      3071 1.66086E+01
 -1      3072 6.57007E+00
 -1      3073 5.62846E+00
 -1      3074 5.20414E+00
 -1      3075 4.22645E+00
 -1      3076 3.71131E-01
 -1      3077 4.13903E-01
 -1      3078 3.89596E-01
 -1      3079 2.93967E-01
 -1      3080 6.87067E+00
 -1      3081 5.67668E-01
 -1      3082 1.36182E+01
 -1      3083 4.06438E+00
 -1      3084 7.37917E-01
 -1      3085 4.80527E+00
 -1      3086 4.13890E+00
 -1      3087 5.49936E-01
 -1      3088 5.25947E-01
 -1      3089 7.01668E+00
 -1      3090 8.21084E+00
 -1      3091 5.90244E-01
 -1      3092 6.57618E-01
 -1      3093 7.33562E-01
 -1      3094 8.17487E-01
 -1      3095 7.21388E-01
 -1      3096 9.51507E-01
 -1      3097 1.04075E+00
 -1      3098 9.31351E-01
 -1      3099 1.21693E+00
 -1      3100 1.33571E+00
 -1      3101 1.24154E+00
 -1      3102 1.54225E+00
 -1      3103 1.71811E+00
 -1      3104 1.62425E+00
 -1      3105 1.94446E+00
 -1      3106 2.14196E+00
 -1      3107 2.05713E+00
 -1      3108 2.67627E+00
 -1      3109 2.85143E+00
 -1      3110 2.81779E+00
 -1      3111 3.98708E+00
 -1      3112 4.03408E+00
 -1      3113 4.48776E+00
 -1      3114 3.86368E+00
 -1      3115 4.22313E+00
 -1      3116 3.16688E+00
 -1      3117 3.32904E+00
 -1      3118 3.22584E+00
 -1      3119 2.91941E+00
 -1      3120 3.74822E+00
 -1      3121 2.52713E+00
 -1      3122 2.36731E+00
 -1      3123 3.25275E+00
 -1      3124 2.02013E+00
 -1      3125 1.85617E+00
 -1      3126 2.51330E+00
 -1      3127 1.63063E+00
 -1      3128 1.47528E+00
 -1      3129 1.94059E+00
 -1      3130 1.29695E+00
 -1      3131 1.21701E+00
 -1      3132 1.53672E+00
 -1      3133 1.06491E+00
 -1      3134 9.91053E-01
 -1      3135 1.20629E+00
 -1      3136 8.77135E-01
 -1      3137 8.02059E-01
 -1      3138 9.40269E-01
 -1      3139 7.13790E-01
 -1      3140 6.40959E-01
 -1      3141 7.38082E-01
 -1      3142 5.76587E-01
 -1      3143 5.10998E-01
 -1      3144 5.85442E-01
 -1      3145 4.57791E-01
 -1      3146 4.01402E-01
 -1      3147 4.67862E-01
 -1      3148 3.55005E-01
 -1      3149 3.08553E-01
 -1      3150 3.68257E-01
 -1      3151 2.69717E-01
 -1      3152 2.34454E-01
 -1      3153 2.83024E-01
 -1      3154 2.02909E-01
 -1      3155 1.74584E-01
 -1      3156 2.12643E-01
 -1      3157 1.49605E-01
 -1      3158 1.27236E-01
 -1      3159 1.56119E-01
 -1      3160 1.08457E-01
 -1      3161 9.10827E-02
 -1      3162 1.12360E-01
 -1      3163 7.71968E-02
 -1      3164 6.39328E-02
 -1      3165 7.96950E-02
 -1      3166 5.38966E-02
 -1      3167 4.39577E-02
 -1      3168 5.57729E-02
 -1      3169 3.67724E-02
 -1      3170 2.94783E-02
 -1      3171 3.85513E-02
 -1      3172 2.42058E-02
 -1      3173 1.89798E-02
 -1      3174 2.60936E-02
 -1      3175 1.51973E-02
 -1      3176 1.21386E-02
 -1      3177 1.70385E-02
 -1      3178 9.49991E-03
 -1      3179 8.43125E-03
 -1      3180 1.06173E-02
 -1      3181 7.03977E-03
 -1      3182 6.49862E-03
 -1      3183 6.58708E-03
 -1      3184 6.17656E-03
 -1      3185 5.47066E-03
 -1      3186 4.87353E-03
 -1      3187 5.22095E-03
 -1      3188 4.45498E-03
 -1      3189 4.30176E-03
 -1      3190 4.12283E-03
 -1      3191 3.47578E-03
 -1      3192 3.03684E-03
 -1      3193 3.71989E-03
 -1      3194 6.74722E-01
 -1      3195 6.16761E-01
 -1      3196 1.51658E+00
 -1      3197 1.45455E+00
 -1      3198 1.25463E+00
 -1      3199 1.16698E+00
 -1      3200 1.54855E+00
 -1      3201 2.47964E+00
 -1      3202 2.30844E+00
 -1      3203 3.38530E+00
 -1      3204 2.91983E+00
 -1      3205 4.41996E+00
 -1      3206 3.84336E+00
 -1      3207 4.88747E+00
 -1      3208 4.08624E+00
 -1      3209 2.34295E+00
 -1      3210 3.36177E+00
 -1      3211 2.61717E+00
 -1      3212 2.65662E+00
 -1      3213 3.00361E+00
 -1      3214 1.87181E+00
 -1      3215 2.13324E+00
 -1      3216 2.83334E+00
 -1      3217 1.62330E+00
 -1      3218 1.66061E+00
 -1      3219 2.13822E+00
 -1      3220 1.37692E+00
 -1      3221 1.45217E+00
 -1      3222 1.75588E+00
 -1      3223 1.11659E+00
 -1      3224 1.20510E+00
 -1      3225 1.41294E+00
 -1      3226 9.58240E-01
 -1      3227 1.02198E+00
 -1      3228 1.14651E+00
 -1      3229 8.14971E-01
 -1      3230 8.65737E-01
 -1      3231 9.59391E-01
 -1      3232 6.78218E-01
 -1      3233 7.35441E-01
 -1      3234 7.87358E-01
 -1      3235 5.51029E-01
 -1      3236 6.07905E-01
 -1      3237 6.37515E-01
 -1      3238 4.37916E-01
 -1      3239 4.90455E-01
 -1      3240 5.06629E-01
 -1      3241 3.41449E-01
 -1      3242 3.87634E-01
 -1      3243 3.95773E-01
 -1      3244 2.62621E-01
 -1      3245 3.01752E-01
 -1      3246 3.05794E-01
 -1      3247 1.98409E-01
 -1      3248 2.30600E-01
 -1      3249 2.34076E-01
 -1      3250 1.47071E-01
 -1      3251 1.72894E-01
 -1      3252 1.76539E-01
 -1      3253 1.06759E-01
 -1      3254 1.27010E-01
 -1      3255 1.30964E-01
 -1      3256 7.56673E-02
 -1      3257 9.12101E-02
 -1      3258 9.53537E-02
 -1      3259 5.21277E-02
 -1      3260 6.38015E-02
 -1      3261 6.79388E-02
 -1      3262 3.46667E-02
 -1      3263 4.32332E-02
 -1      3264 4.71786E-02
 -1      3265 2.20114E-02
 -1      3266 2.81339E-02
 -1      3267 3.17513E-02
 -1      3268 1.43693E-02
 -1      3269 1.73256E-02
 -1      3270 2.05326E-02
 -1      3271 1.04150E-02
 -1      3272 1.11046E-02
 -1      3273 1.25821E-02
 -1      3274 7.96505E-03
 -1      3275 8.87673E-03
 -1      3276 7.77907E-03
 -1      3277 6.78640E-03
 -1      3278 7.79339E-03
 -1      3279 6.06913E-03
 -1      3280 5.36001E-03
 -1      3281 6.34896E-03
 -1      3282 5.46004E-03
 -1      3283 1.25867E+01
 -1      3284 1.32374E+01
 -1      3285 6.38568E+00
 -1      3286 5.13538E+00
 -1      3287 1.56380E-03
 -1      3288 1.51620E-03
 -1      3289 1.46310E-03
 -1      3290 1.46307E-03
 -1      3291 1.44004E-03
 -1      3292 5.48661E-01
 -1      3293 4.96506E-01
 -1      3294 6.19443E-01
 -1      3295 1.83367E-03
 -1      3296 1.66399E-03
 -1      3297 1.59333E-03
 -1      3298 5.70545E+00
 -1      3299 4.55121E+00
 -1      3300 4.72212E+00
 -1      3301 2.16541E-03
 -1      3302 2.06962E-03
 -1      3303 1.92947E-03
 -1      3304 5.64793E+00
 -1      3305 6.26749E+00
 -1      3306 1.89661E+00
 -1      3307 1.69530E+00
 -1      3308 1.92719E+00
 -1      3309 2.51773E+00
 -1      3310 3.65180E+00
 -1      3311 4.87354E+00
 -1      3312 3.36177E+00
 -1      3313 3.67614E+00
 -1      3314 1.30850E+01
 -1      3315 1.25867E+01
 -1      3316 8.90038E+00
 -1      3317 1.14862E+01
 -1      3318 4.03359E+00
 -1      3319 3.42583E+00
 -1      3320 3.74291E-03
 -1      3321 4.29816E+00
 -1      3322 6.11191E+00
 -1      3323 3.31196E+00
 -1      3324 5.21392E-01
 -1      3325 5.45480E-01
 -1      3326 6.00681E-01
 -1      3327 4.58065E+00
 -1      3328 3.56877E+00
 -1      3329 2.86567E+00
 -1      3330 4.40237E+00
 -1      3331 3.84336E+00
 -1      3332 9.06482E+00
 -1      3333 7.75381E+00
 -1      3334 4.85212E-01
 -1      3335 4.85295E-01
 -1      3336 4.67480E-01
 -1      3337 3.87809E-01
 -1      3338 7.12974E+00
 -1      3339 5.49930E+00
 -1      3340 4.77007E+00
 -1      3341 6.31278E+00
 -1      3342 4.49696E+00
 -1      3343 1.09930E+01
 -1      3344 1.43735E+01
 -1      3345 4.90727E+00
 -1      3346 1.24578E+01
 -1      3347 1.16803E+01
 -1      3348 7.86506E-01
 -1      3349 5.95350E+00
 -1      3350 5.34827E+00
 -1      3351 1.27339E+01
 -1      3352 1.03084E+01
 -1      3353 8.18046E+00
 -1      3354 3.20017E-01
 -1      3355 2.79224E-01
 -1      3356 3.09562E+00
 -1      3357 3.95073E+00
 -1      3358 2.88424E+00
 -1      3359 3.10640E+00
 -1      3360 3.19184E+00
 -1      3361 3.33380E+00
 -1      3362 2.49401E-01
 -1      3363 2.44974E-01
 -1      3364 2.65241E-01
 -1      3365 5.05859E-01
 -1      3366 4.99684E-01
 -1      3367 4.62484E-01
 -1      3368 5.79524E+00
 -1      3369 8.26257E+00
 -1      3370 7.74589E+00
 -1      3371 4.91879E-01
 -1      3372 6.62239E-01
 -1      3373 5.45302E+00
 -1      3374 7.42054E-01
 -1      3375 5.92234E-01
 -1      3376 6.26760E-01
 -1      3377 3.61620E-03
 -1      3378 4.11851E-03
 -1      3379 4.43442E-03
 -1      3380 7.86506E-01
 -1      3381 1.14818E+01
 -1      3382 4.70465E+00
 -1      3383 3.47690E+00
 -1      3384 3.78748E+00
 -1      3385 1.20322E+00
 -1      3386 1.02156E+00
 -1      3387 9.29570E-01
 -1      3388 3.04159E+00
 -1      3389 3.00113E+00
 -1      3390 1.08673E+01
 -1      3391 8.55423E+00
 -1      3392 1.13605E+01
 -1      3393 8.05070E+00
 -1      3394 1.04311E+01
 -1      3395 4.87646E-03
 -1      3396 5.28665E-03
 -1      3397 4.43383E-03
 -1      3398 1.67521E-03
 -1      3399 1.82753E-03
 -1      3400 2.01941E-03
 -1      3401 2.67060E-03
 -1      3402 3.04620E-03
 -1      3403 1.90873E-03
 -1      3404 1.51471E-03
 -1      3405 1.56188E-03
 -1      3406 1.60353E-03
 -1      3407 1.43857E-03
 -1      3408 5.45302E+00
 -1      3409 7.55943E+00
 -1      3410 6.30388E+00
 -1      3411 4.78148E+00
 -1      3412 9.41752E+00
 -1      3413 1.09653E+01
 -1      3414 8.73021E+00
 -1      3415 7.61748E+00
 -1      3416 6.90632E+00
 -1      3417 5.62341E+00
 -1      3418 1.11111E+01
 -1      3419 8.45723E+00
 -1      3420 8.06407E+00
 -1      3421 7.62544E-01
 -1      3422 7.75365E-01
 -1      3423 8.32263E-01
 -1      3424 7.31393E+00
 -1      3425 1.06109E+01
 -1      3426 8.28558E+00
 -1      3427 4.28545E-01
 -1      3428 3.78344E-01
 -1      3429 3.53391E-01
 -1      3430 4.45657E-01
 -1      3431 3.94789E+00
 -1      3432 6.12583E+00
 -1      3433 4.85265E+00
 -1      3434 3.79958E-01
 -1      3435 4.36149E-01
 -1      3436 4.82241E-01
 -1      3437 4.86895E-01
 -1      3438 4.52451E-01
 -1      3439 4.67480E-01
 -1      3440 5.41732E-01
 -1      3441 2.68594E-03
 -1      3442 2.42567E-03
 -1      3443 2.42567E-03
 -1      3444 3.03684E-03
 -1      3445 5.62341E+00
 -1      3446 9.11408E-01
 -1      3447 1.04543E+00
 -1      3448 1.23031E+00
 -1      3449 1.40648E+00
 -1      3450 1.21036E+00
 -1      3451 1.70341E+00
 -1      3452 1.90994E+00
 -1      3453 1.69217E+00
 -1      3454 2.35782E+00
 -1      3455 2.58417E+00
 -1      3456 2.43698E+00
 -1      3457 2.70445E+00
 -1      3458 3.23876E+00
 -1      3459 3.00514E+00
 -1      3460 4.48776E+00
 -1      3461 5.62341E+00
 -1      3462 1.70999E-03
 -1      3463 1.60980E-03
 -1      3464 4.11425E+00
 -1      3465 3.72197E+00
 -1      3466 3.19118E+00
 -1      3467 2.84401E+00
 -1      3468 4.05268E+00
 -1      3469 2.18969E+00
 -1      3470 1.96415E+00
 -1      3471 2.86757E+00
 -1      3472 1.83562E+00
 -1      3473 1.65729E+00
 -1      3474 2.08472E+00
 -1      3475 1.38300E+00
 -1      3476 1.23090E+00
 -1      3477 1.68190E+00
 -1      3478 1.06508E+00
 -1      3479 9.51158E-01
 -1      3480 1.24179E+00
 -1      3481 8.39153E-01
 -1      3482 7.50885E-01
 -1      3483 9.63960E-01
 -1      3484 6.62665E-01
 -1      3485 5.98293E-01
 -1      3486 7.63736E-01
 -1      3487 5.25111E-01
 -1      3488 4.71903E-01
 -1      3489 6.02334E-01
 -1      3490 4.12042E-01
 -1      3491 3.65644E-01
 -1      3492 4.69290E-01
 -1      3493 3.17288E-01
 -1      3494 2.78452E-01
 -1      3495 3.61073E-01
 -1      3496 2.39803E-01
 -1      3497 2.08258E-01
 -1      3498 2.74067E-01
 -1      3499 1.77738E-01
 -1      3500 1.52759E-01
 -1      3501 2.04898E-01
 -1      3502 1.29005E-01
 -1      3503 1.10225E-01
 -1      3504 1.50623E-01
 -1      3505 9.29237E-02
 -1      3506 7.90378E-02
 -1      3507 1.09568E-01
 -1      3508 6.57301E-02
 -1      3509 5.56939E-02
 -1      3510 7.89588E-02
 -1      3511 4.56258E-02
 -1      3512 3.84405E-02
 -1      3513 5.55830E-02
 -1      3514 3.09599E-02
 -1      3515 2.56874E-02
 -1      3516 3.80343E-02
 -1      3517 2.02400E-02
 -1      3518 1.64574E-02
 -1      3519 2.51063E-02
 -1      3520 1.25833E-02
 -1      3521 9.94463E-03
 -1      3522 1.57848E-02
 -1      3523 7.26480E-03
 -1      3524 5.87331E-03
 -1      3525 9.23086E-03
 -1      3526 4.35595E-03
 -1      3527 4.03390E-03
 -1      3528 5.03367E-03
 -1      3529 3.67895E-03
 -1      3530 3.42923E-03
 -1      3531 3.16137E-03
 -1      3532 3.36975E+00
 -1      3533 2.97664E+00
 -1      3534 3.18784E+00
 -1      3535 3.15561E+00
 -1      3536 3.63954E+00
 -1      3537 2.27628E+00
 -1      3538 2.44741E+00
 -1      3539 3.49704E+00
 -1      3540 1.52209E+00
 -1      3541 1.69390E+00
 -1      3542 2.38543E+00
 -1      3543 1.21048E+00
 -1      3544 1.30510E+00
 -1      3545 1.58606E+00
 -1      3546 9.43690E-01
 -1      3547 1.03619E+00
 -1      3548 1.19478E+00
 -1      3549 7.57962E-01
 -1      3550 8.37492E-01
 -1      3551 9.14294E-01
 -1      3552 6.08155E-01
 -1      3553 6.78468E-01
 -1      3554 7.28602E-01
 -1      3555 4.87565E-01
 -1      3556 5.48139E-01
 -1      3557 5.89091E-01
 -1      3558 3.83389E-01
 -1      3559 4.33671E-01
 -1      3560 4.75181E-01
 -1      3561 2.97303E-01
 -1      3562 3.36999E-01
 -1      3563 3.74898E-01
 -1      3564 2.26610E-01
 -1      3565 2.58632E-01
 -1      3566 2.89837E-01
 -1      3567 1.69618E-01
 -1      3568 1.95133E-01
 -1      3569 2.19689E-01
 -1      3570 1.24451E-01
 -1      3571 1.44511E-01
 -1      3572 1.63105E-01
 -1      3573 8.93058E-02
 -1      3574 1.04855E-01
 -1      3575 1.18403E-01
 -1      3576 6.26742E-02
 -1      3577 7.45399E-02
 -1      3578 8.40412E-02
 -1      3579 4.30908E-02
 -1      3580 5.19852E-02
 -1      3581 5.85864E-02
 -1      3582 2.85917E-02
 -1      3583 3.51246E-02
 -1      3584 3.99313E-02
 -1      3585 1.81031E-02
 -1      3586 2.27889E-02
 -1      3587 2.61622E-02
 -1      3588 1.07836E-02
 -1      3589 1.40483E-02
 -1      3590 1.63046E-02
 -1      3591 6.57937E-03
 -1      3592 8.11765E-03
 -1      3593 9.58389E-03
 -1      3594 4.94654E-03
 -1      3595 5.11819E-03
 -1      3596 5.45677E-03
 -1      3597 4.17542E-03
 -1      3598 4.61286E-03
 -1      3599 3.66192E-03
 -1      3600 4.94923E-03
 -1      3601 7.42054E-01
 -1      3602 6.77616E-01
 -1      3603 6.09515E-01
 -1      3604 8.72450E+00
 -1      3605 1.08339E+01
 -1      3606 6.17787E-01
 -1      3607 1.60980E-03
 -1      3608 1.55669E-03
 -1      3609 1.72645E-03
 -1      3610 5.95692E-01
 -1      3611 6.40456E-01
 -1      3612 1.88025E+00
 -1      3613 1.68034E+00
 -1      3614 3.36177E+00
 -1      3615 2.79677E-01
 -1      3616 3.19115E-01
 -1      3617 3.65668E-01
 -1      3618 4.66687E+00
 -1      3619 7.21107E-01
 -1      3620 7.97050E-01
 -1      3621 9.11127E-01
 -1      3622 8.43571E+00
 -1      3623 8.43571E+00
 -1      3624 2.02510E-03
 -1      3625 1.78916E-03
 -1      3626 1.80562E-03
 -1      3627 1.05282E+01
 -1      3628 9.03334E+00
 -1      3629 6.60577E+00
 -1      3630 8.38539E+00
 -1      3631 7.46304E+00
 -1      3632 6.21942E+00
 -1      3633 4.10205E-03
 -1      3634 5.32121E-01
 -1      3635 5.05859E-01
 -1      3636 4.88489E+00
 -1      3637 4.93662E+00
 -1      3638 3.99404E+00
 -1      3639 6.55880E+00
 -1      3640 5.13609E+00
 -1      3641 6.14356E-01
 -1      3642 5.56183E-01
 -1      3643 5.46573E-01
 -1      3644 4.37442E+00
 -1      3645 7.16118E-01
 -1      3646 6.22476E-01
 -1      3647 5.51634E-01
 -1      3648 5.91409E-01
 -1      3649 5.42661E-01
 -1      3650 1.50913E-03
 -1      3651 1.56076E-03
 -1      3652 1.67889E-03
 -1      3653 3.48914E-03
 -1      3654 3.15699E-03
 -1      3655 2.80609E-03
 -1      3656 2.86634E-03
 -1      3657 4.34901E+00
 -1      3658 3.70539E+00
 -1      3659 4.69940E+00
 -1      3660 1.45459E+00
 -1      3661 1.30917E+00
 -1      3662 1.78629E+00
 -1      3663 3.62562E+00
 -1      3664 3.31196E+00
 -1      3665 2.33404E+00
 -1      3666 2.46582E+00
 -1      3667 2.51275E+00
 -1      3668 1.76930E-03
 -1      3669 1.96117E-03
 -1      3670 7.69673E+00
 -1      3671 7.66333E+00
 -1      3672 7.66903E+00
 -1      3673 3.35974E-03
 -1      3674 3.80177E-03
 -1      3675 3.02796E-03
 -1      3676 2.41414E-03
 -1      3677 7.72082E-01
 -1      3678 7.62154E-01
 -1      3679 8.59904E-01
 -1      3680 2.54583E-03
 -1      3681 5.04273E+00
 -1      3682 5.76015E+00
 -1      3683 7.01639E+00
 -1      3684 5.05535E+00
 -1      3685 5.64301E+00
 -1      3686 7.62309E+00
 -1      3687 6.90808E+00
 -1      3688 5.77615E+00
 -1      3689 7.42702E+00
 -1      3690 5.84627E+00
 -1      3691 5.52809E+00
 -1      3692 4.69545E-01
 -1      3693 5.25275E-01
 -1      3694 5.29965E-01
 -1      3695 9.60495E-01
 -1      3696 3.42577E+00
 -1      3697 6.46180E+00
 -1      3698 8.43571E+00
 -1      3699 6.44027E+00
 -1      3700 2.70121E-01
 -1      3701 2.40552E-03
 -1      3702 1.55210E-03
 -1      3703 1.66543E-03
 -1      3704 1.71787E-03
 -1      3705 1.62266E-03
 -1      3706 4.91404E+00
 -1      3707 6.19695E+00
 -1      3708 5.32165E+00
 -1      3709 3.66504E+00
 -1      3710 4.18574E-01
 -1      3711 3.60247E-01
 -1      3712 4.15606E-01
 -1      3713 3.50422E-01
 -1      3714 3.20599E-01
 -1      3715 9.11127E-01
 -1      3716 1.02548E+00
 -1      3717 7.62395E-01
 -1      3718 7.09063E-01
 -1      3719 5.46573E-01
 -1      3720 5.32121E-01
 -1      3721 1.64566E+00
 -1      3722 1.94259E+00
 -1      3723 2.15954E+00
 -1      3724 2.60742E+00
 -1      3725 2.11302E+00
 -1      3726 3.00249E+00
 -1      3727 3.12277E+00
 -1      3728 3.66239E+00
 -1      3729 2.72505E+00
 -1      3730 1.10569E+00
 -1      3731 1.00838E+00
 -1      3732 1.00510E+00
 -1      3733 1.45524E+00
 -1      3734 1.67224E+00
 -1      3735 2.34561E-03
 -1      3736 4.51194E+00
 -1      3737 3.03671E+00
 -1      3738 2.29855E+00
 -1      3739 2.17003E+00
 -1      3740 1.89795E+00
 -1      3741 1.62366E+00
 -1      3742 2.11179E+00
 -1      3743 1.40761E+00
 -1      3744 1.24179E+00
 -1      3745 1.62366E+00
 -1      3746 1.07596E+00
 -1      3747 9.63960E-01
 -1      3748 1.24179E+00
 -1      3749 8.38852E-01
 -1      3750 7.50632E-01
 -1      3751 9.50857E-01
 -1      3752 6.55698E-01
 -1      3753 5.82516E-01
 -1      3754 7.30814E-01
 -1      3755 5.09295E-01
 -1      3756 4.49434E-01
 -1      3757 5.62659E-01
 -1      3758 3.92152E-01
 -1      3759 3.43795E-01
 -1      3760 4.32156E-01
 -1      3761 2.98836E-01
 -1      3762 2.60187E-01
 -1      3763 3.29915E-01
 -1      3764 2.24887E-01
 -1      3765 1.94367E-01
 -1      3766 2.49656E-01
 -1      3767 1.66740E-01
 -1      3768 1.42986E-01
 -1      3769 1.86729E-01
 -1      3770 1.21572E-01
 -1      3771 1.04270E-01
 -1      3772 1.37688E-01
 -1      3773 8.77748E-02
 -1      3774 7.44670E-02
 -1      3775 9.97784E-02
 -1      3776 6.19169E-02
 -1      3777 5.18489E-02
 -1      3778 7.07329E-02
 -1      3779 4.26255E-02
 -1      3780 3.51448E-02
 -1      3781 4.89594E-02
 -1      3782 2.87054E-02
 -1      3783 2.32580E-02
 -1      3784 3.32965E-02
 -1      3785 1.85485E-02
 -1      3786 1.46744E-02
 -1      3787 2.21476E-02
 -1      3788 1.13091E-02
 -1      3789 8.62930E-03
 -1      3790 1.40728E-02
 -1      3791 6.28520E-03
 -1      3792 4.76784E-03
 -1      3793 8.36347E-03
 -1      3794 3.52226E-03
 -1      3795 3.16732E-03
 -1      3796 4.77379E-03
 -1      3797 3.99404E+00
 -1      3798 2.08600E+00
 -1      3799 2.66838E+00
 -1      3800 1.95518E+00
 -1      3801 3.55980E+00
 -1      3802 3.14797E+00
 -1      3803 1.12938E+00
 -1      3804 1.30367E+00
 -1      3805 1.38984E+00
 -1      3806 9.10122E-01
 -1      3807 1.01632E+00
 -1      3808 1.12521E+00
 -1      3809 7.28602E-01
 -1      3810 8.08096E-01
 -1      3811 9.10122E-01
 -1      3812 5.83983E-01
 -1      3813 6.44000E-01
 -1      3814 7.23494E-01
 -1      3815 4.61145E-01
 -1      3816 5.15039E-01
 -1      3817 5.69947E-01
 -1      3818 3.58644E-01
 -1      3819 4.05034E-01
 -1      3820 4.44892E-01
 -1      3821 2.74695E-01
 -1      3822 3.13366E-01
 -1      3823 3.43502E-01
 -1      3824 2.07116E-01
 -1      3825 2.38594E-01
 -1      3826 2.62122E-01
 -1      3827 1.53302E-01
 -1      3828 1.78408E-01
 -1      3829 1.97313E-01
 -1      3830 1.11235E-01
 -1      3831 1.30831E-01
 -1      3832 1.46134E-01
 -1      3833 7.90837E-02
 -1      3834 9.38495E-02
 -1      3835 1.06278E-01
 -1      3836 5.50995E-02
 -1      3837 6.57884E-02
 -1      3838 7.55968E-02
 -1      3839 3.73346E-02
 -1      3840 4.53008E-02
 -1      3841 5.25028E-02
 -1      3842 2.46272E-02
 -1      3843 3.04300E-02
 -1      3844 3.57995E-02
 -1      3845 1.55151E-02
 -1      3846 1.95699E-02
 -1      3847 2.38377E-02
 -1      3848 9.23083E-03
 -1      3849 1.18968E-02
 -1      3850 1.51620E-02
 -1      3851 5.25264E-03
 -1      3852 6.71381E-03
 -1      3853 9.02669E-03
 -1      3854 3.24707E-03
 -1      3855 3.58074E-03
 -1      3856 4.83778E-03
 -1      3857 5.32121E-01
 -1      3858 2.70650E-03
 -1      3859 3.66695E+00
 -1      3860 6.96892E-01
 -1      3861 7.77543E-01
 -1      3862 8.91900E-01
 -1      3863 2.65561E-03
 -1      3864 2.65561E-03
 -1      3865 1.21036E+00
 -1      3866 1.39524E+00
 -1      3867 1.21036E+00
 -1      3868 2.27471E-03
 -1      3869 2.68995E+00
 -1      3870 4.02627E+00
 -1      3871 4.84950E-01
 -1      3872 4.51010E-01
 -1      3873 4.57867E-01
 -1      3874 5.11212E-01
 -1      3875 5.73344E-01
 -1      3876 6.17402E-01
 -1      3877 6.78827E-01
 -1      3878 5.55958E-01
 -1      3879 2.95514E-01
 -1      3880 3.30217E-01
 -1      3881 3.80695E-01
 -1      3882 2.62733E-03
 -1      3883 5.49778E+00
 -1      3884 5.61630E+00
 -1      3885 5.44825E-01
 -1      3886 5.30374E-01
 -1      3887 5.09465E-01
 -1      3888 6.92865E-01
 -1      3889 3.55482E+00
 -1      3890 3.81836E-01
 -1      3891 4.42679E-01
 -1      3892 4.85713E-01
 -1      3893 4.07228E-01
 -1      3894 4.10467E+00
 -1      3895 3.11461E+00
 -1      3896 2.46029E+00
 -1      3897 3.65802E+00
 -1      3898 4.02627E+00
 -1      3899 4.93662E+00
 -1      3900 4.61774E+00
 -1      3901 4.58199E+00
 -1      3902 2.54560E+00
 -1      3903 2.43128E+00
 -1      3904 2.20554E+00
 -1      3905 3.19761E+00
 -1      3906 3.49704E+00
 -1      3907 5.12703E+00
 -1      3908 5.10550E+00
 -1      3909 4.48997E+00
 -1      3910 6.43140E+00
 -1      3911 5.39793E+00
 -1      3912 4.63698E+00
 -1      3913 4.02627E+00
 -1      3914 2.94678E-03
 -1      3915 1.35706E+00
 -1      3916 5.99471E+00
 -1      3917 7.02248E+00
 -1      3918 9.90520E-01
 -1      3919 8.96053E-01
 -1      3920 9.90761E-01
 -1      3921 3.55649E-03
 -1      3922 4.77938E+00
 -1      3923 1.64566E+00
 -1      3924 2.81467E-03
 -1      3925 2.76711E-03
 -1      3926 3.74383E-03
 -1      3927 4.00226E+00
 -1      3928 3.54848E+00
 -1      3929 3.96773E+00
 -1      3930 5.16530E+00
 -1      3931 4.22280E+00
 -1      3932 5.16530E+00
 -1      3933 6.71677E+00
 -1      3934 4.93302E-01
 -1      3935 4.83477E-01
 -1      3936 6.06523E-01
 -1      3937 5.74087E-01
 -1      3938 6.41958E-01
 -1      3939 6.25685E-01
 -1      3940 3.38064E+00
 -1      3941 5.03990E+00
 -1      3942 4.37741E+00
 -1      3943 2.98556E+00
 -1      3944 6.71677E+00
 -1      3945 5.24287E+00
 -1      3946 4.81040E+00
 -1      3947 8.03087E-01
 -1      3948 9.36672E-01
 -1      3949 2.65516E+00
 -1      3950 3.48382E+00
 -1      3951 4.07529E+00
 -1      3952 1.60020E+00
 -1      3953 1.85061E+00
 -1      3954 1.24600E+00
 -1      3955 1.09752E+00
 -1      3956 1.23142E+00
 -1      3957 1.04828E+00
 -1      3958 1.16134E+00
 -1      3959 2.22793E+00
 -1      3960 1.95585E+00
 -1      3961 1.82718E+00
 -1      3962 1.61113E+00
 -1      3963 1.94331E+00
 -1      3964 1.32914E+00
 -1      3965 1.16331E+00
 -1      3966 1.53265E+00
 -1      3967 9.92042E-01
 -1      3968 8.66934E-01
 -1      3969 1.07939E+00
 -1      3970 7.49726E-01
 -1      3971 6.54791E-01
 -1      3972 7.90911E-01
 -1      3973 5.71941E-01
 -1      3974 4.98720E-01
 -1      3975 5.90852E-01
 -1      3976 4.37526E-01
 -1      3977 3.80243E-01
 -1      3978 4.46807E-01
 -1      3979 3.33725E-01
 -1      3980 2.88766E-01
 -1      3981 3.39094E-01
 -1      3982 2.52830E-01
 -1      3983 2.17530E-01
 -1      3984 2.56639E-01
 -1      3985 1.90305E-01
 -1      3986 1.62678E-01
 -1      3987 1.93479E-01
 -1      3988 1.41242E-01
 -1      3989 1.19828E-01
 -1      3990 1.44819E-01
 -1      3991 1.03149E-01
 -1      3992 8.66535E-02
 -1      3993 1.06703E-01
 -1      3994 7.37737E-02
 -1      3995 6.12236E-02
 -1      3996 7.71442E-02
 -1      3997 5.15227E-02
 -1      3998 4.22993E-02
 -1      3999 5.45635E-02
 -1      4000 3.50684E-02
 -1      4001 2.86290E-02
 -1      4002 3.76318E-02
 -1      4003 2.37221E-02
 -1      4004 1.90126E-02
 -1      4005 2.54940E-02
 -1      4006 1.54362E-02
 -1      4007 1.20709E-02
 -1      4008 1.70107E-02
 -1      4009 9.59005E-03
 -1      4010 7.24595E-03
 -1      4011 1.09534E-02
 -1      4012 5.52861E-03
 -1      4013 4.28303E-03
 -1      4014 4.31131E-03
 -1      4015 6.75519E-03
 -1      4016 8.89005E-01
 -1      4017 9.91031E-01
 -1      4018 1.02716E+00
 -1      4019 1.71529E+00
 -1      4020 2.12906E+00
 -1      4021 2.41527E+00
 -1      4022 1.31229E+00
 -1      4023 1.46386E+00
 -1      4024 1.63774E+00
 -1      4025 1.23536E+00
 -1      4026 6.84793E-01
 -1      4027 7.69395E-01
 -1      4028 8.50305E-01
 -1      4029 5.28448E-01
 -1      4030 5.97392E-01
 -1      4031 6.43294E-01
 -1      4032 4.06580E-01
 -1      4033 4.62691E-01
 -1      4034 4.90136E-01
 -1      4035 3.10421E-01
 -1      4036 3.55699E-01
 -1      4037 3.73498E-01
 -1      4038 2.35084E-01
 -1      4039 2.71186E-01
 -1      4040 2.83382E-01
 -1      4041 1.76045E-01
 -1      4042 2.04753E-01
 -1      4043 2.13816E-01
 -1      4044 1.30123E-01
 -1      4045 1.52594E-01
 -1      4046 1.60034E-01
 -1      4047 9.44137E-02
 -1      4048 1.11800E-01
 -1      4049 1.18259E-01
 -1      4050 6.69280E-02
 -1      4051 8.02232E-02
 -1      4052 8.57450E-02
 -1      4053 4.63903E-02
 -1      4054 5.61890E-02
 -1      4055 6.08155E-02
 -1      4056 3.14708E-02
 -1      4057 3.83754E-02
 -1      4058 4.20616E-02
 -1      4059 2.09027E-02
 -1      4060 2.59600E-02
 -1      4061 2.85358E-02
 -1      4062 1.33018E-02
 -1      4063 1.69202E-02
 -1      4064 1.90425E-02
 -1      4065 7.93224E-03
 -1      4066 1.04493E-02
 -1      4067 1.22074E-02
 -1      4068 4.23237E-03
 -1      4069 5.90427E-03
 -1      4070 7.32683E-03
 -1      4071 1.11014E+00
 -1      4072 1.29502E+00
 -1      4073 1.02133E+00
 -1      4074 5.35093E+00
 -1      4075 4.71009E+00
 -1      4076 2.70734E+00
 -1      4077 2.54560E+00
 -1      4078 2.38966E+00
 -1      4079 3.65802E+00
 -1      4080 5.35387E+00
 -1      4081 3.63131E+00
 -1      4082 5.21940E+00
 -1      4083 5.21940E+00
 -1      4084 2.76711E-03
 -1      4085 2.75844E-03
 -1      4086 3.90289E-03
 -1      4087 2.03359E-03
 -1      4088 2.13747E-03
 -1      4089 4.83477E-01
 -1      4090 4.58391E-01
 -1      4091 5.61172E-01
 -1      4092 2.11302E+00
 -1      4093 2.32998E+00
 -1      4094 2.06756E+00
 -1      4095 1.63194E+00
 -1      4096 1.42846E+00
 -1      4097 1.52087E+00
 -1      4098 2.27693E+00
 -1      4099 2.49382E-03
 -1      4100 2.80954E-03
 -1      4101 3.17804E-03
 -1      4102 3.87602E-03
 -1      4103 3.35605E+00
 -1      4104 4.77195E+00
 -1      4105 4.13674E+00
 -1      4106 1.49997E+00
 -1      4107 6.88670E-01
 -1      4108 7.33441E-01
 -1      4109 6.09180E-01
 -1      4110 5.03371E-03
 -1      4111 4.30716E-03
 -1      4112 4.46623E-03
 -1      4113 4.59128E+00
 -1      4114 4.45680E+00
 -1      4115 3.33961E+00
 -1      4116 3.94750E+00
 -1      4117 4.22848E+00
 -1      4118 3.29236E+00
 -1      4119 4.62713E+00
 -1      4120 3.35215E+00
 -1      4121 7.33399E-01
 -1      4122 7.33399E-01
 -1      4123 4.37741E+00
 -1      4124 3.90073E+00
 -1      4125 3.64115E+00
 -1      4126 5.29092E-01
 -1      4127 4.11330E+00
 -1      4128 7.89923E-01
 -1      4129 2.99001E+00
 -1      4130 2.50093E+00
 -1      4131 1.92733E+00
 -1      4132 4.60087E-03
 -1      4133 7.92950E-01
 -1      4134 9.65177E-01
 -1      4135 8.73735E-01
 -1      4136 9.40915E-01
 -1      4137 5.90098E-01
 -1      4138 4.87317E-01
 -1      4139 2.98556E+00
 -1      4140 1.07457E+00
 -1      4141 3.43500E+00
 -1      4142 2.51103E+00
 -1      4143 2.19336E+00
 -1      4144 3.10252E+00
 -1      4145 5.38935E-01
 -1      4146 1.25046E+00
 -1      4147 1.55563E+00
 -1      4148 1.33098E+00
 -1      4149 1.22398E+00
 -1      4150 1.17414E+00
 -1      4151 2.17371E+00
 -1      4152 2.69981E+00
 -1      4153 3.11450E+00
 -1      4154 3.23925E+00
 -1      4155 3.12044E+00
 -1      4156 2.28177E+00
 -1      4157 9.69534E-01
 -1      4158 1.02678E+00
 -1      4159 1.53958E+00
 -1      4160 1.25759E+00
 -1      4161 1.10991E+00
 -1      4162 9.38636E-01
 -1      4163 1.11684E+00
 -1      4164 8.30486E-01
 -1      4165 7.13278E-01
 -1      4166 8.61003E-01
 -1      4167 6.22263E-01
 -1      4168 5.39413E-01
 -1      4169 6.61838E-01
 -1      4170 4.64228E-01
 -1      4171 4.03034E-01
 -1      4172 4.95639E-01
 -1      4173 3.44208E-01
 -1      4174 2.97689E-01
 -1      4175 3.61629E-01
 -1      4176 2.81077E-01
 -1      4177 2.45142E-01
 -1      4178 2.86191E-01
 -1      4179 2.02403E-01
 -1      4180 1.75178E-01
 -1      4181 2.26840E-01
 -1      4182 1.53193E-01
 -1      4183 1.31757E-01
 -1      4184 1.62116E-01
 -1      4185 1.13517E-01
 -1      4186 9.68371E-02
 -1      4187 1.21891E-01
 -1      4188 8.27322E-02
 -1      4189 6.98524E-02
 -1      4190 8.95453E-02
 -1      4191 5.93026E-02
 -1      4192 4.96017E-02
 -1      4193 6.48905E-02
 -1      4194 4.15647E-02
 -1      4195 3.43338E-02
 -1      4196 4.63038E-02
 -1      4197 2.82925E-02
 -1      4198 2.33857E-02
 -1      4199 3.22255E-02
 -1      4200 1.92355E-02
 -1      4201 1.56591E-02
 -1      4202 2.20340E-02
 -1      4203 1.25213E-02
 -1      4204 1.00404E-02
 -1      4205 1.47460E-02
 -1      4206 9.08369E-03
 -1      4207 7.36635E-03
 -1      4208 7.36221E-03
 -1      4209 1.06515E-02
 -1      4210 4.97601E-01
 -1      4211 5.63359E-01
 -1      4212 3.71536E-01
 -1      4213 4.22417E-01
 -1      4214 4.95639E-01
 -1      4215 2.50449E-01
 -1      4216 2.89684E-01
 -1      4217 3.38603E-01
 -1      4218 1.85390E-01
 -1      4219 2.15721E-01
 -1      4220 2.22023E-01
 -1      4221 1.56016E-01
 -1      4222 1.79467E-01
 -1      4223 1.81373E-01
 -1      4224 1.19151E-01
 -1      4225 1.37475E-01
 -1      4226 1.56909E-01
 -1      4227 8.76024E-02
 -1      4228 1.01793E-01
 -1      4229 1.21009E-01
 -1      4230 6.27584E-02
 -1      4231 7.34974E-02
 -1      4232 8.95453E-02
 -1      4233 4.38073E-02
 -1      4234 5.18221E-02
 -1      4235 6.45041E-02
 -1      4236 3.03523E-02
 -1      4237 3.58632E-02
 -1      4238 4.56238E-02
 -1      4239 2.04753E-02
 -1      4240 2.44578E-02
 -1      4241 3.17852E-02
 -1      4242 1.31907E-02
 -1      4243 1.60433E-02
 -1      4244 2.14586E-02
 -1      4245 7.60322E-03
 -1      4246 9.63119E-03
 -1      4247 1.34671E-02
 -1      4248 7.62325E-01
 -1      4249 8.76742E-01
 -1      4250 1.05021E+00
 -1      4251 7.33399E-01
 -1      4252 8.49923E-01
 -1      4253 9.69534E-01
 -1      4254 9.69153E-01
 -1      4255 1.86123E+00
 -1      4256 1.73255E+00
 -1      4257 1.45749E+00
 -1      4258 1.63674E+00
 -1      4259 1.45428E+00
 -1      4260 1.44685E+00
 -1      4261 1.86074E+00
 -1      4262 3.81635E+00
 -1      4263 3.76935E+00
 -1      4264 2.94230E+00
 -1      4265 3.55677E+00
 -1      4266 9.05626E-01
 -1      4267 6.79887E-03
 -1      4268 7.49685E-03
 -1      4269 9.80122E-03
 -1      4270 6.79887E-03
 -1      4271 6.54373E-01
 -1      4272 7.41773E-01
 -1      4273 6.61838E-01
 -1      4274 2.98556E+00
 -1      4275 2.01859E+00
 -1      4276 2.28101E+00
 -1      4277 1.76908E+00
 -1      4278 1.11458E+00
 -1      4279 1.74826E+00
 -1      4280 2.03281E+00
 -1      4281 1.49683E+00
 -1      4282 2.63612E+00
 -1      4283 2.93660E+00
 -1      4284 1.37991E+00
 -1      4285 1.53086E+00
 -1      4286 1.32228E+00
 -1      4287 1.15516E+00
 -1      4288 9.46207E-01
 -1      4289 9.46207E-01
 -1      4290 1.09079E+00
 -1      4291 8.61003E-01
 -1      4292 1.98260E+00
 -1      4293 7.36221E-03
 -1      4294 3.02644E+00
 -1      4295 2.23864E+00
 -1      4296 1.90651E+00
 -1      4297 2.48827E+00
 -1      4298 1.20416E+00
 -1      4299 1.05647E+00
 -1      4300 2.63165E-01
 -1      4301 3.45017E-01
 -1      4302 1.66294E+00
 -1      4303 1.46996E+00
 -1      4304 1.40960E+00
 -1      4305 1.91898E+00
 -1      4306 9.69153E-01
 -1      4307 8.61003E-01
 -1      4308 7.52852E-01
 -1      4309 6.61838E-01
 -1      4310 5.70824E-01
 -1      4311 4.95639E-01
 -1      4312 2.86191E-01
 -1      4313 2.69579E-01
 -1      4314 2.69579E-01
 -1      4315 2.26840E-01
 -1      4316 1.79776E-01
 -1      4317 1.57791E-01
 -1      4318 1.39249E-01
 -1      4319 1.21009E-01
 -1      4320 1.03650E-01
 -1      4321 8.95453E-02
 -1      4322 7.54403E-02
 -1      4323 6.48905E-02
 -1      4324 5.39543E-02
 -1      4325 4.59173E-02
 -1      4326 3.79732E-02
 -1      4327 3.19319E-02
 -1      4328 2.60374E-02
 -1      4329 2.18872E-02
 -1      4330 1.74552E-02
 -1      4331 1.43174E-02
 -1      4332 2.28437E-01
 -1      4333 2.63165E-01
 -1      4334 4.20454E-01
 -1      4335 1.27847E+00
 -1      4336 1.07579E-02
 -1      4337 1.98931E+00
 -1      4338 1.85888E+00
 -1      4339 1.56828E+00
 -1      4340 2.40549E+00
 -1      4341 2.07978E+00
 -1      4342 1.83621E+00
 -1      4343 1.43627E+00
 -1      4344 1.89923E+00
 -1      4345 2.22763E+00
 -1      4346 2.85222E+00
 -1      4347 2.32212E+00
 -1      4348 1.80218E+00
 -1      4349 1.85698E-01
 -1      4350 1.05647E+00
 -1      4351 1.40960E+00
 -1      4352 1.27660E+00
 -1      4353 2.69579E-01
 -1      4354 3.61629E-01
 -1      4355 1.06515E-02
 -1      4356 1.14645E+00
 -1      4357 9.69153E-01
 -1      4358 1.64138E+00
 -1      4359 1.67541E+00
 -1      4360 9.69485E-03
 -1      4361 1.83621E+00
 -3
 9999
