    1C
    1UUSER                                                              
    1UDATE              27.october.2022                                 
    1UTIME              00:51:05                                        
    1UHOST                                                              
    1UPGM               CalculiX                                        
    1UVERSION           Version 2.17                             
    1UCOMPILETIME       Thu Jul 23 21:43:50 CEST 2020                    
    1UDIR                                                               
    1UDBN                                                               
    1UMAT    1SOLIDMATERIAL                                             
    2C                          4224                                     1
 -1         1 9.77794E+01 1.72727E+01 0.00000E+00
 -1         2 1.11358E+02 1.48818E+01 0.00000E+00
 -1         3 1.50000E+02 0.00000E+00 0.00000E+00
 -1         4 1.50000E+02 5.00000E+01 0.00000E+00
 -1         5 0.00000E+00 0.00000E+00 0.00000E+00
 -1         6 0.00000E+00 5.00000E+01 0.00000E+00
 -1         7 0.00000E+00 4.70500E+01 0.00000E+00
 -1         8 0.00000E+00 4.41000E+01 0.00000E+00
 -1         9 0.00000E+00 4.11500E+01 0.00000E+00
 -1        10 0.00000E+00 3.82000E+01 0.00000E+00
 -1        11 0.00000E+00 3.52500E+01 0.00000E+00
 -1        12 0.00000E+00 3.23500E+01 0.00000E+00
 -1        13 0.00000E+00 2.94000E+01 0.00000E+00
 -1        14 0.00000E+00 2.64500E+01 0.00000E+00
 -1        15 0.00000E+00 2.35000E+01 0.00000E+00
 -1        16 0.00000E+00 2.05500E+01 0.00000E+00
 -1        17 0.00000E+00 1.76000E+01 0.00000E+00
 -1        18 0.00000E+00 1.47000E+01 0.00000E+00
 -1        19 0.00000E+00 1.17500E+01 0.00000E+00
 -1        20 0.00000E+00 8.80000E+00 0.00000E+00
 -1        21 0.00000E+00 5.85000E+00 0.00000E+00
 -1        22 0.00000E+00 2.90000E+00 0.00000E+00
 -1        23 3.15000E+00 5.00000E+01 0.00000E+00
 -1        24 6.15000E+00 5.00000E+01 0.00000E+00
 -1        25 9.15000E+00 5.00000E+01 0.00000E+00
 -1        26 1.21500E+01 5.00000E+01 0.00000E+00
 -1        27 1.51500E+01 5.00000E+01 0.00000E+00
 -1        28 1.81500E+01 5.00000E+01 0.00000E+00
 -1        29 2.11500E+01 5.00000E+01 0.00000E+00
 -1        30 2.41500E+01 5.00000E+01 0.00000E+00
 -1        31 2.71500E+01 5.00000E+01 0.00000E+00
 -1        32 3.01500E+01 5.00000E+01 0.00000E+00
 -1        33 3.31500E+01 5.00000E+01 0.00000E+00
 -1        34 3.61500E+01 5.00000E+01 0.00000E+00
 -1        35 3.91500E+01 5.00000E+01 0.00000E+00
 -1        36 4.21500E+01 5.00000E+01 0.00000E+00
 -1        37 4.51500E+01 5.00000E+01 0.00000E+00
 -1        38 4.81500E+01 5.00000E+01 0.00000E+00
 -1        39 5.11500E+01 5.00000E+01 0.00000E+00
 -1        40 5.41500E+01 5.00000E+01 0.00000E+00
 -1        41 5.71500E+01 5.00000E+01 0.00000E+00
 -1        42 6.01500E+01 5.00000E+01 0.00000E+00
 -1        43 6.31500E+01 5.00000E+01 0.00000E+00
 -1        44 6.61500E+01 5.00000E+01 0.00000E+00
 -1        45 6.91500E+01 5.00000E+01 0.00000E+00
 -1        46 7.21500E+01 5.00000E+01 0.00000E+00
 -1        47 7.51500E+01 5.00000E+01 0.00000E+00
 -1        48 7.81500E+01 5.00000E+01 0.00000E+00
 -1        49 8.11500E+01 5.00000E+01 0.00000E+00
 -1        50 8.41500E+01 5.00000E+01 0.00000E+00
 -1        51 8.71500E+01 5.00000E+01 0.00000E+00
 -1        52 9.01500E+01 5.00000E+01 0.00000E+00
 -1        53 9.31500E+01 5.00000E+01 0.00000E+00
 -1        54 9.61500E+01 5.00000E+01 0.00000E+00
 -1        55 9.91500E+01 5.00000E+01 0.00000E+00
 -1        56 1.02150E+02 5.00000E+01 0.00000E+00
 -1        57 1.05150E+02 5.00000E+01 0.00000E+00
 -1        58 1.08150E+02 5.00000E+01 0.00000E+00
 -1        59 1.11150E+02 5.00000E+01 0.00000E+00
 -1        60 1.14150E+02 5.00000E+01 0.00000E+00
 -1        61 1.17150E+02 5.00000E+01 0.00000E+00
 -1        62 1.20150E+02 5.00000E+01 0.00000E+00
 -1        63 1.23150E+02 5.00000E+01 0.00000E+00
 -1        64 1.26150E+02 5.00000E+01 0.00000E+00
 -1        65 1.29150E+02 5.00000E+01 0.00000E+00
 -1        66 1.32150E+02 5.00000E+01 0.00000E+00
 -1        67 1.35150E+02 5.00000E+01 0.00000E+00
 -1        68 1.38150E+02 5.00000E+01 0.00000E+00
 -1        69 1.41150E+02 5.00000E+01 0.00000E+00
 -1        70 1.44150E+02 5.00000E+01 0.00000E+00
 -1        71 1.47150E+02 5.00000E+01 0.00000E+00
 -1        72 3.15000E+00 0.00000E+00 0.00000E+00
 -1        73 6.15000E+00 0.00000E+00 0.00000E+00
 -1        74 9.15000E+00 0.00000E+00 0.00000E+00
 -1        75 1.21500E+01 0.00000E+00 0.00000E+00
 -1        76 1.51500E+01 0.00000E+00 0.00000E+00
 -1        77 1.81500E+01 0.00000E+00 0.00000E+00
 -1        78 2.11500E+01 0.00000E+00 0.00000E+00
 -1        79 2.43000E+01 0.00000E+00 0.00000E+00
 -1        80 2.73000E+01 0.00000E+00 0.00000E+00
 -1        81 3.03000E+01 0.00000E+00 0.00000E+00
 -1        82 3.33000E+01 0.00000E+00 0.00000E+00
 -1        83 3.63000E+01 0.00000E+00 0.00000E+00
 -1        84 3.93000E+01 0.00000E+00 0.00000E+00
 -1        85 4.23000E+01 0.00000E+00 0.00000E+00
 -1        86 4.54500E+01 0.00000E+00 0.00000E+00
 -1        87 4.84500E+01 0.00000E+00 0.00000E+00
 -1        88 5.14500E+01 0.00000E+00 0.00000E+00
 -1        89 5.44500E+01 0.00000E+00 0.00000E+00
 -1        90 5.74500E+01 0.00000E+00 0.00000E+00
 -1        91 6.04500E+01 0.00000E+00 0.00000E+00
 -1        92 6.34500E+01 0.00000E+00 0.00000E+00
 -1        93 6.66000E+01 0.00000E+00 0.00000E+00
 -1        94 6.96000E+01 0.00000E+00 0.00000E+00
 -1        95 7.26000E+01 0.00000E+00 0.00000E+00
 -1        96 7.56000E+01 0.00000E+00 0.00000E+00
 -1        97 7.86000E+01 0.00000E+00 0.00000E+00
 -1        98 8.16000E+01 0.00000E+00 0.00000E+00
 -1        99 8.46000E+01 0.00000E+00 0.00000E+00
 -1       100 8.77500E+01 0.00000E+00 0.00000E+00
 -1       101 9.07500E+01 0.00000E+00 0.00000E+00
 -1       102 9.37500E+01 0.00000E+00 0.00000E+00
 -1       103 9.67500E+01 0.00000E+00 0.00000E+00
 -1       104 9.94500E+01 0.00000E+00 0.00000E+00
 -1       105 1.02300E+02 0.00000E+00 0.00000E+00
 -1       106 1.05300E+02 0.00000E+00 0.00000E+00
 -1       107 1.08150E+02 0.00000E+00 0.00000E+00
 -1       108 1.10850E+02 0.00000E+00 0.00000E+00
 -1       109 1.13850E+02 0.00000E+00 0.00000E+00
 -1       110 1.16850E+02 0.00000E+00 0.00000E+00
 -1       111 1.19850E+02 0.00000E+00 0.00000E+00
 -1       112 1.22850E+02 0.00000E+00 0.00000E+00
 -1       113 1.25850E+02 0.00000E+00 0.00000E+00
 -1       114 1.29000E+02 0.00000E+00 0.00000E+00
 -1       115 1.32000E+02 0.00000E+00 0.00000E+00
 -1       116 1.35000E+02 0.00000E+00 0.00000E+00
 -1       117 1.38000E+02 0.00000E+00 0.00000E+00
 -1       118 1.41000E+02 0.00000E+00 0.00000E+00
 -1       119 1.44000E+02 0.00000E+00 0.00000E+00
 -1       120 1.47000E+02 0.00000E+00 0.00000E+00
 -1       121 1.50000E+02 2.95000E+00 0.00000E+00
 -1       122 1.50000E+02 5.90000E+00 0.00000E+00
 -1       123 1.50000E+02 8.85000E+00 0.00000E+00
 -1       124 1.50000E+02 1.18000E+01 0.00000E+00
 -1       125 1.50000E+02 1.47500E+01 0.00000E+00
 -1       126 1.50000E+02 1.76500E+01 0.00000E+00
 -1       127 1.50000E+02 2.06000E+01 0.00000E+00
 -1       128 1.50000E+02 2.35500E+01 0.00000E+00
 -1       129 1.50000E+02 2.65000E+01 0.00000E+00
 -1       130 1.50000E+02 2.94500E+01 0.00000E+00
 -1       131 1.50000E+02 3.24000E+01 0.00000E+00
 -1       132 1.50000E+02 3.53000E+01 0.00000E+00
 -1       133 1.50000E+02 3.82500E+01 0.00000E+00
 -1       134 1.50000E+02 4.12000E+01 0.00000E+00
 -1       135 1.50000E+02 4.41500E+01 0.00000E+00
 -1       136 1.50000E+02 4.71000E+01 0.00000E+00
 -1       137 1.11194E+02 1.33716E+01 0.00000E+00
 -1       138 1.10765E+02 1.20622E+01 0.00000E+00
 -1       139 1.10070E+02 1.08354E+01 0.00000E+00
 -1       140 1.09082E+02 9.71555E+00 0.00000E+00
 -1       141 1.07941E+02 8.86828E+00 0.00000E+00
 -1       142 1.06581E+02 8.24420E+00 0.00000E+00
 -1       143 1.05151E+02 7.92685E+00 0.00000E+00
 -1       144 1.03653E+02 7.91746E+00 0.00000E+00
 -1       145 1.02188E+02 8.22688E+00 0.00000E+00
 -1       146 1.00890E+02 8.80158E+00 0.00000E+00
 -1       147 9.97646E+01 9.60003E+00 0.00000E+00
 -1       148 9.88128E+01 1.06103E+01 0.00000E+00
 -1       149 9.80829E+01 1.17806E+01 0.00000E+00
 -1       150 9.75834E+01 1.31212E+01 0.00000E+00
 -1       151 9.73677E+01 1.45211E+01 0.00000E+00
 -1       152 9.74371E+01 1.59287E+01 0.00000E+00
 -1       153 9.84164E+01 1.85822E+01 0.00000E+00
 -1       154 9.93024E+01 1.97230E+01 0.00000E+00
 -1       155 1.00404E+02 2.06580E+01 0.00000E+00
 -1       156 1.01779E+02 2.13891E+01 0.00000E+00
 -1       157 1.03295E+02 2.18006E+01 0.00000E+00
 -1       158 1.04776E+02 2.18693E+01 0.00000E+00
 -1       159 1.06330E+02 2.15985E+01 0.00000E+00
 -1       160 1.07750E+02 2.10055E+01 0.00000E+00
 -1       161 1.08956E+02 2.01600E+01 0.00000E+00
 -1       162 1.09988E+02 1.90423E+01 0.00000E+00
 -1       163 1.10752E+02 1.77308E+01 0.00000E+00
 -1       164 1.11207E+02 1.63310E+01 0.00000E+00
 -1       165 2.59800E+00 4.55750E+01 0.00000E+00
 -1       166 2.59800E+00 4.26250E+01 0.00000E+00
 -1       167 2.59800E+00 3.96750E+01 0.00000E+00
 -1       168 2.59800E+00 3.67250E+01 0.00000E+00
 -1       169 2.59800E+00 3.38250E+01 0.00000E+00
 -1       170 2.59800E+00 3.08750E+01 0.00000E+00
 -1       171 2.59800E+00 2.79250E+01 0.00000E+00
 -1       172 2.59800E+00 2.49750E+01 0.00000E+00
 -1       173 2.59800E+00 2.20250E+01 0.00000E+00
 -1       174 2.59800E+00 1.90750E+01 0.00000E+00
 -1       175 2.59800E+00 1.61750E+01 0.00000E+00
 -1       176 2.59800E+00 1.32250E+01 0.00000E+00
 -1       177 2.59800E+00 1.02750E+01 0.00000E+00
 -1       178 2.59800E+00 7.32500E+00 0.00000E+00
 -1       179 2.59800E+00 4.37500E+00 0.00000E+00
 -1       180 2.87400E+00 2.18750E+00 0.00000E+00
 -1       181 4.65000E+00 4.74020E+01 0.00000E+00
 -1       182 7.65000E+00 4.74020E+01 0.00000E+00
 -1       183 1.06500E+01 4.74020E+01 0.00000E+00
 -1       184 1.36500E+01 4.74020E+01 0.00000E+00
 -1       185 1.66500E+01 4.74020E+01 0.00000E+00
 -1       186 1.96500E+01 4.74020E+01 0.00000E+00
 -1       187 2.26500E+01 4.74020E+01 0.00000E+00
 -1       188 2.56500E+01 4.74020E+01 0.00000E+00
 -1       189 2.86500E+01 4.74020E+01 0.00000E+00
 -1       190 3.16500E+01 4.74020E+01 0.00000E+00
 -1       191 3.46500E+01 4.74020E+01 0.00000E+00
 -1       192 3.76500E+01 4.74020E+01 0.00000E+00
 -1       193 4.06500E+01 4.74020E+01 0.00000E+00
 -1       194 4.36500E+01 4.74020E+01 0.00000E+00
 -1       195 4.66500E+01 4.74020E+01 0.00000E+00
 -1       196 4.96500E+01 4.74020E+01 0.00000E+00
 -1       197 5.26500E+01 4.74020E+01 0.00000E+00
 -1       198 5.56500E+01 4.74020E+01 0.00000E+00
 -1       199 5.86500E+01 4.74020E+01 0.00000E+00
 -1       200 6.16500E+01 4.74020E+01 0.00000E+00
 -1       201 6.46500E+01 4.74020E+01 0.00000E+00
 -1       202 6.76500E+01 4.74020E+01 0.00000E+00
 -1       203 7.06500E+01 4.74020E+01 0.00000E+00
 -1       204 7.36500E+01 4.74020E+01 0.00000E+00
 -1       205 7.66500E+01 4.74020E+01 0.00000E+00
 -1       206 7.96500E+01 4.74020E+01 0.00000E+00
 -1       207 8.26500E+01 4.74020E+01 0.00000E+00
 -1       208 8.56500E+01 4.74020E+01 0.00000E+00
 -1       209 8.86500E+01 4.74020E+01 0.00000E+00
 -1       210 9.16500E+01 4.74020E+01 0.00000E+00
 -1       211 9.46500E+01 4.74020E+01 0.00000E+00
 -1       212 9.76500E+01 4.74020E+01 0.00000E+00
 -1       213 1.00650E+02 4.74020E+01 0.00000E+00
 -1       214 1.03650E+02 4.74020E+01 0.00000E+00
 -1       215 1.06650E+02 4.74020E+01 0.00000E+00
 -1       216 1.09650E+02 4.74020E+01 0.00000E+00
 -1       217 1.12650E+02 4.74020E+01 0.00000E+00
 -1       218 1.15650E+02 4.74020E+01 0.00000E+00
 -1       219 1.18650E+02 4.74020E+01 0.00000E+00
 -1       220 1.21650E+02 4.74020E+01 0.00000E+00
 -1       221 1.24650E+02 4.74020E+01 0.00000E+00
 -1       222 1.27650E+02 4.74020E+01 0.00000E+00
 -1       223 1.30650E+02 4.74020E+01 0.00000E+00
 -1       224 1.33650E+02 4.74020E+01 0.00000E+00
 -1       225 1.36650E+02 4.74020E+01 0.00000E+00
 -1       226 1.39650E+02 4.74020E+01 0.00000E+00
 -1       227 1.42650E+02 4.74020E+01 0.00000E+00
 -1       228 1.45650E+02 4.74020E+01 0.00000E+00
 -1       229 5.87400E+00 2.18750E+00 0.00000E+00
 -1       230 8.87400E+00 2.18750E+00 0.00000E+00
 -1       231 1.18740E+01 2.18750E+00 0.00000E+00
 -1       232 1.48740E+01 2.18750E+00 0.00000E+00
 -1       233 1.78740E+01 2.18750E+00 0.00000E+00
 -1       234 2.08740E+01 2.18750E+00 0.00000E+00
 -1       235 2.40240E+01 2.18750E+00 0.00000E+00
 -1       236 2.70240E+01 2.18750E+00 0.00000E+00
 -1       237 3.00240E+01 2.18750E+00 0.00000E+00
 -1       238 3.30240E+01 2.18750E+00 0.00000E+00
 -1       239 3.60240E+01 2.18750E+00 0.00000E+00
 -1       240 3.90240E+01 2.18750E+00 0.00000E+00
 -1       241 4.20240E+01 2.18750E+00 0.00000E+00
 -1       242 4.51740E+01 2.18750E+00 0.00000E+00
 -1       243 4.81740E+01 2.18750E+00 0.00000E+00
 -1       244 5.11740E+01 2.18750E+00 0.00000E+00
 -1       245 5.41740E+01 2.18750E+00 0.00000E+00
 -1       246 5.71740E+01 2.18750E+00 0.00000E+00
 -1       247 6.01740E+01 2.18750E+00 0.00000E+00
 -1       248 6.31740E+01 2.18750E+00 0.00000E+00
 -1       249 6.63240E+01 2.18750E+00 0.00000E+00
 -1       250 6.93240E+01 2.18750E+00 0.00000E+00
 -1       251 7.23240E+01 2.18750E+00 0.00000E+00
 -1       252 7.53240E+01 2.18750E+00 0.00000E+00
 -1       253 7.83240E+01 2.18750E+00 0.00000E+00
 -1       254 8.13240E+01 2.18750E+00 0.00000E+00
 -1       255 8.43240E+01 2.18750E+00 0.00000E+00
 -1       256 8.74740E+01 2.18750E+00 0.00000E+00
 -1       257 9.04740E+01 2.18750E+00 0.00000E+00
 -1       258 9.34740E+01 2.18750E+00 0.00000E+00
 -1       259 9.64740E+01 2.18750E+00 0.00000E+00
 -1       260 9.91740E+01 2.18750E+00 0.00000E+00
 -1       261 1.02024E+02 2.18750E+00 0.00000E+00
 -1       262 1.05024E+02 2.18750E+00 0.00000E+00
 -1       263 1.07874E+02 2.18750E+00 0.00000E+00
 -1       264 1.10574E+02 2.18750E+00 0.00000E+00
 -1       265 1.13574E+02 2.18750E+00 0.00000E+00
 -1       266 1.16574E+02 2.18750E+00 0.00000E+00
 -1       267 1.19574E+02 2.18750E+00 0.00000E+00
 -1       268 1.22574E+02 2.18750E+00 0.00000E+00
 -1       269 1.25574E+02 2.18750E+00 0.00000E+00
 -1       270 1.28724E+02 2.18750E+00 0.00000E+00
 -1       271 1.31724E+02 2.18750E+00 0.00000E+00
 -1       272 1.34724E+02 2.18750E+00 0.00000E+00
 -1       273 1.37724E+02 2.18750E+00 0.00000E+00
 -1       274 1.40724E+02 2.18750E+00 0.00000E+00
 -1       275 1.43724E+02 2.18750E+00 0.00000E+00
 -1       276 1.46724E+02 2.18750E+00 0.00000E+00
 -1       277 1.47402E+02 4.42500E+00 0.00000E+00
 -1       278 1.47402E+02 7.37500E+00 0.00000E+00
 -1       279 1.47402E+02 1.03250E+01 0.00000E+00
 -1       280 1.47402E+02 1.32750E+01 0.00000E+00
 -1       281 1.47402E+02 1.61750E+01 0.00000E+00
 -1       282 1.47402E+02 1.91250E+01 0.00000E+00
 -1       283 1.47402E+02 2.20750E+01 0.00000E+00
 -1       284 1.47402E+02 2.50250E+01 0.00000E+00
 -1       285 1.47402E+02 2.79750E+01 0.00000E+00
 -1       286 1.47402E+02 3.09250E+01 0.00000E+00
 -1       287 1.47402E+02 3.38250E+01 0.00000E+00
 -1       288 1.47402E+02 3.67750E+01 0.00000E+00
 -1       289 1.47402E+02 3.97250E+01 0.00000E+00
 -1       290 1.47402E+02 4.26750E+01 0.00000E+00
 -1       291 1.46526E+02 4.50385E+01 0.00000E+00
 -1       292 1.12648E+02 1.39769E+01 0.00000E+00
 -1       293 1.12132E+02 1.23401E+01 0.00000E+00
 -1       294 1.11473E+02 1.08512E+01 0.00000E+00
 -1       295 1.10736E+02 9.25126E+00 0.00000E+00
 -1       296 1.09285E+02 8.25147E+00 0.00000E+00
 -1       297 1.07837E+02 7.30204E+00 0.00000E+00
 -1       298 1.06129E+02 6.90192E+00 0.00000E+00
 -1       299 1.04410E+02 6.70978E+00 0.00000E+00
 -1       300 1.02652E+02 6.80395E+00 0.00000E+00
 -1       301 1.01048E+02 7.40565E+00 0.00000E+00
 -1       302 9.96256E+01 8.21204E+00 0.00000E+00
 -1       303 9.84063E+01 9.27375E+00 0.00000E+00
 -1       304 9.74191E+01 1.05539E+01 0.00000E+00
 -1       305 9.63830E+01 1.19107E+01 0.00000E+00
 -1       306 9.61672E+01 1.33105E+01 0.00000E+00
 -1       307 9.61915E+01 1.52846E+01 0.00000E+00
 -1       308 9.64333E+01 1.68999E+01 0.00000E+00
 -1       309 9.70077E+01 1.84578E+01 0.00000E+00
 -1       310 9.77695E+01 1.99990E+01 0.00000E+00
 -1       311 9.90146E+01 2.11788E+01 0.00000E+00
 -1       312 1.00404E+02 2.23158E+01 0.00000E+00
 -1       313 1.02197E+02 2.28458E+01 0.00000E+00
 -1       314 1.03979E+02 2.30460E+01 0.00000E+00
 -1       315 1.05776E+02 2.30108E+01 0.00000E+00
 -1       316 1.07507E+02 2.24207E+01 0.00000E+00
 -1       317 1.09049E+02 2.15756E+01 0.00000E+00
 -1       318 1.10486E+02 2.05370E+01 0.00000E+00
 -1       319 1.11418E+02 1.89972E+01 0.00000E+00
 -1       320 1.12133E+02 1.74052E+01 0.00000E+00
 -1       321 1.12488E+02 1.57326E+01 0.00000E+00
 -1       322 5.19600E+00 4.11500E+01 0.00000E+00
 -1       323 5.19600E+00 4.41000E+01 0.00000E+00
 -1       324 5.19600E+00 3.52750E+01 0.00000E+00
 -1       325 5.19600E+00 3.23250E+01 0.00000E+00
 -1       326 5.19600E+00 2.93750E+01 0.00000E+00
 -1       327 5.19600E+00 2.64250E+01 0.00000E+00
 -1       328 5.19600E+00 2.34750E+01 0.00000E+00
 -1       329 5.19600E+00 2.05250E+01 0.00000E+00
 -1       330 5.19600E+00 1.76250E+01 0.00000E+00
 -1       331 5.19600E+00 1.46750E+01 0.00000E+00
 -1       332 5.19600E+00 1.17250E+01 0.00000E+00
 -1       333 5.19600E+00 8.77500E+00 0.00000E+00
 -1       334 5.19600E+00 5.82500E+00 0.00000E+00
 -1       335 5.53500E+00 4.00625E+00 0.00000E+00
 -1       336 8.53500E+00 4.00625E+00 0.00000E+00
 -1       337 9.47995E+01 1.43145E+01 0.00000E+00
 -1       338 9.15000E+00 4.48040E+01 0.00000E+00
 -1       339 1.21500E+01 4.48040E+01 0.00000E+00
 -1       340 1.51500E+01 4.48040E+01 0.00000E+00
 -1       341 1.81500E+01 4.48040E+01 0.00000E+00
 -1       342 2.11500E+01 4.48040E+01 0.00000E+00
 -1       343 2.41500E+01 4.48040E+01 0.00000E+00
 -1       344 2.71500E+01 4.48040E+01 0.00000E+00
 -1       345 3.01500E+01 4.48040E+01 0.00000E+00
 -1       346 3.31500E+01 4.48040E+01 0.00000E+00
 -1       347 3.61500E+01 4.48040E+01 0.00000E+00
 -1       348 3.91500E+01 4.48040E+01 0.00000E+00
 -1       349 4.21500E+01 4.48040E+01 0.00000E+00
 -1       350 4.51500E+01 4.48040E+01 0.00000E+00
 -1       351 4.81500E+01 4.48040E+01 0.00000E+00
 -1       352 5.11500E+01 4.48040E+01 0.00000E+00
 -1       353 5.41500E+01 4.48040E+01 0.00000E+00
 -1       354 5.71500E+01 4.48040E+01 0.00000E+00
 -1       355 6.01500E+01 4.48040E+01 0.00000E+00
 -1       356 6.31500E+01 4.48040E+01 0.00000E+00
 -1       357 6.61500E+01 4.48040E+01 0.00000E+00
 -1       358 6.91500E+01 4.48040E+01 0.00000E+00
 -1       359 7.21500E+01 4.48040E+01 0.00000E+00
 -1       360 7.51500E+01 4.48040E+01 0.00000E+00
 -1       361 7.81500E+01 4.48040E+01 0.00000E+00
 -1       362 8.11500E+01 4.48040E+01 0.00000E+00
 -1       363 8.41500E+01 4.48040E+01 0.00000E+00
 -1       364 8.71500E+01 4.48040E+01 0.00000E+00
 -1       365 9.01500E+01 4.48040E+01 0.00000E+00
 -1       366 9.31500E+01 4.48040E+01 0.00000E+00
 -1       367 9.61500E+01 4.48040E+01 0.00000E+00
 -1       368 9.91500E+01 4.48040E+01 0.00000E+00
 -1       369 1.02150E+02 4.48040E+01 0.00000E+00
 -1       370 1.05150E+02 4.48040E+01 0.00000E+00
 -1       371 1.08150E+02 4.48040E+01 0.00000E+00
 -1       372 1.11150E+02 4.48040E+01 0.00000E+00
 -1       373 1.14150E+02 4.48040E+01 0.00000E+00
 -1       374 1.17150E+02 4.48040E+01 0.00000E+00
 -1       375 1.20150E+02 4.48040E+01 0.00000E+00
 -1       376 1.23150E+02 4.48040E+01 0.00000E+00
 -1       377 1.26150E+02 4.48040E+01 0.00000E+00
 -1       378 1.29150E+02 4.48040E+01 0.00000E+00
 -1       379 1.32150E+02 4.48040E+01 0.00000E+00
 -1       380 1.35150E+02 4.48040E+01 0.00000E+00
 -1       381 1.38150E+02 4.48040E+01 0.00000E+00
 -1       382 1.41150E+02 4.48040E+01 0.00000E+00
 -1       383 1.43838E+02 4.49212E+01 0.00000E+00
 -1       384 1.15350E+01 4.00625E+00 0.00000E+00
 -1       385 1.45350E+01 4.00625E+00 0.00000E+00
 -1       386 1.75350E+01 4.00625E+00 0.00000E+00
 -1       387 2.05350E+01 4.00625E+00 0.00000E+00
 -1       388 2.36850E+01 4.00625E+00 0.00000E+00
 -1       389 2.66850E+01 4.00625E+00 0.00000E+00
 -1       390 2.96850E+01 4.00625E+00 0.00000E+00
 -1       391 3.26850E+01 4.00625E+00 0.00000E+00
 -1       392 3.56850E+01 4.00625E+00 0.00000E+00
 -1       393 3.86850E+01 4.00625E+00 0.00000E+00
 -1       394 4.16850E+01 4.00625E+00 0.00000E+00
 -1       395 4.48350E+01 4.00625E+00 0.00000E+00
 -1       396 4.78350E+01 4.00625E+00 0.00000E+00
 -1       397 5.08350E+01 4.00625E+00 0.00000E+00
 -1       398 5.38350E+01 4.00625E+00 0.00000E+00
 -1       399 5.68350E+01 4.00625E+00 0.00000E+00
 -1       400 5.98350E+01 4.00625E+00 0.00000E+00
 -1       401 6.28350E+01 4.00625E+00 0.00000E+00
 -1       402 6.59850E+01 4.00625E+00 0.00000E+00
 -1       403 6.89850E+01 4.00625E+00 0.00000E+00
 -1       404 7.19850E+01 4.00625E+00 0.00000E+00
 -1       405 7.49850E+01 4.00625E+00 0.00000E+00
 -1       406 7.79850E+01 4.00625E+00 0.00000E+00
 -1       407 8.09850E+01 4.00625E+00 0.00000E+00
 -1       408 8.39850E+01 4.00625E+00 0.00000E+00
 -1       409 8.71350E+01 4.00625E+00 0.00000E+00
 -1       410 9.01350E+01 4.00625E+00 0.00000E+00
 -1       411 9.31350E+01 4.00625E+00 0.00000E+00
 -1       412 9.61350E+01 4.00625E+00 0.00000E+00
 -1       413 9.88350E+01 4.00625E+00 0.00000E+00
 -1       414 1.01685E+02 4.00625E+00 0.00000E+00
 -1       415 1.04685E+02 4.00625E+00 0.00000E+00
 -1       416 1.07535E+02 4.00625E+00 0.00000E+00
 -1       417 1.10235E+02 4.00625E+00 0.00000E+00
 -1       418 1.13235E+02 4.00625E+00 0.00000E+00
 -1       419 1.16235E+02 4.00625E+00 0.00000E+00
 -1       420 1.19235E+02 4.00625E+00 0.00000E+00
 -1       421 1.22235E+02 4.00625E+00 0.00000E+00
 -1       422 1.25235E+02 4.00625E+00 0.00000E+00
 -1       423 1.28385E+02 4.00625E+00 0.00000E+00
 -1       424 1.31385E+02 4.00625E+00 0.00000E+00
 -1       425 1.34385E+02 4.00625E+00 0.00000E+00
 -1       426 1.37385E+02 4.00625E+00 0.00000E+00
 -1       427 1.40385E+02 4.00625E+00 0.00000E+00
 -1       428 1.43385E+02 4.00625E+00 0.00000E+00
 -1       429 1.45393E+02 4.21562E+00 0.00000E+00
 -1       430 1.44804E+02 1.18000E+01 0.00000E+00
 -1       431 1.44804E+02 8.85000E+00 0.00000E+00
 -1       432 1.45099E+02 6.53281E+00 0.00000E+00
 -1       433 1.44804E+02 1.47000E+01 0.00000E+00
 -1       434 1.44804E+02 1.76500E+01 0.00000E+00
 -1       435 1.44804E+02 2.06000E+01 0.00000E+00
 -1       436 1.44804E+02 2.35500E+01 0.00000E+00
 -1       437 1.44804E+02 2.65000E+01 0.00000E+00
 -1       438 1.44804E+02 2.94500E+01 0.00000E+00
 -1       439 1.44804E+02 3.23500E+01 0.00000E+00
 -1       440 1.44804E+02 3.53000E+01 0.00000E+00
 -1       441 1.44804E+02 3.82500E+01 0.00000E+00
 -1       442 1.44804E+02 4.12000E+01 0.00000E+00
 -1       443 1.12988E+02 1.10710E+01 0.00000E+00
 -1       444 1.14276E+02 1.50099E+01 0.00000E+00
 -1       445 1.13866E+02 1.26933E+01 0.00000E+00
 -1       446 1.12251E+02 9.47107E+00 0.00000E+00
 -1       447 9.49940E+01 1.24132E+01 0.00000E+00
 -1       448 9.54257E+01 1.81562E+01 0.00000E+00
 -1       449 1.10936E+02 7.40787E+00 0.00000E+00
 -1       450 5.19600E+00 3.82125E+01 0.00000E+00
 -1       451 1.07298E+02 5.75839E+00 0.00000E+00
 -1       452 1.05578E+02 5.56625E+00 0.00000E+00
 -1       453 1.03457E+02 5.37887E+00 0.00000E+00
 -1       454 1.01248E+02 5.49889E+00 0.00000E+00
 -1       455 9.98257E+01 6.30528E+00 0.00000E+00
 -1       456 9.81648E+01 7.76534E+00 0.00000E+00
 -1       457 9.67536E+01 9.01992E+00 0.00000E+00
 -1       458 9.57174E+01 1.03767E+01 0.00000E+00
 -1       459 9.49477E+01 1.62966E+01 0.00000E+00
 -1       460 9.60013E+01 1.99142E+01 0.00000E+00
 -1       461 9.72701E+01 2.17731E+01 0.00000E+00
 -1       462 9.86594E+01 2.29102E+01 0.00000E+00
 -1       463 1.00886E+02 2.39846E+01 0.00000E+00
 -1       464 1.02906E+02 2.45671E+01 0.00000E+00
 -1       465 1.04905E+02 2.44081E+01 0.00000E+00
 -1       466 1.07141E+02 2.41806E+01 0.00000E+00
 -1       467 1.09022E+02 2.33552E+01 0.00000E+00
 -1       468 1.10576E+02 2.21749E+01 0.00000E+00
 -1       469 1.12276E+02 2.05680E+01 0.00000E+00
 -1       470 1.12991E+02 1.89760E+01 0.00000E+00
 -1       471 1.13578E+02 1.68385E+01 0.00000E+00
 -1       472 1.09488E+02 6.45844E+00 0.00000E+00
 -1       473 1.12451E+02 7.62768E+00 0.00000E+00
 -1       474 1.00350E+01 6.60425E+00 0.00000E+00
 -1       475 7.79400E+00 3.08500E+01 0.00000E+00
 -1       476 7.79400E+00 3.38000E+01 0.00000E+00
 -1       477 7.79400E+00 2.49500E+01 0.00000E+00
 -1       478 7.79400E+00 2.20000E+01 0.00000E+00
 -1       479 7.79400E+00 1.91000E+01 0.00000E+00
 -1       480 7.79400E+00 1.61500E+01 0.00000E+00
 -1       481 7.79400E+00 1.32000E+01 0.00000E+00
 -1       482 7.79400E+00 1.02500E+01 0.00000E+00
 -1       483 1.06500E+01 4.22060E+01 0.00000E+00
 -1       484 1.30350E+01 6.60425E+00 0.00000E+00
 -1       485 7.92300E+00 4.16780E+01 0.00000E+00
 -1       486 1.36500E+01 4.22060E+01 0.00000E+00
 -1       487 1.66500E+01 4.22060E+01 0.00000E+00
 -1       488 1.96500E+01 4.22060E+01 0.00000E+00
 -1       489 2.26500E+01 4.22060E+01 0.00000E+00
 -1       490 2.56500E+01 4.22060E+01 0.00000E+00
 -1       491 2.86500E+01 4.22060E+01 0.00000E+00
 -1       492 3.16500E+01 4.22060E+01 0.00000E+00
 -1       493 3.46500E+01 4.22060E+01 0.00000E+00
 -1       494 3.76500E+01 4.22060E+01 0.00000E+00
 -1       495 4.06500E+01 4.22060E+01 0.00000E+00
 -1       496 4.36500E+01 4.22060E+01 0.00000E+00
 -1       497 4.66500E+01 4.22060E+01 0.00000E+00
 -1       498 4.96500E+01 4.22060E+01 0.00000E+00
 -1       499 5.26500E+01 4.22060E+01 0.00000E+00
 -1       500 5.56500E+01 4.22060E+01 0.00000E+00
 -1       501 5.86500E+01 4.22060E+01 0.00000E+00
 -1       502 6.16500E+01 4.22060E+01 0.00000E+00
 -1       503 6.46500E+01 4.22060E+01 0.00000E+00
 -1       504 6.76500E+01 4.22060E+01 0.00000E+00
 -1       505 7.06500E+01 4.22060E+01 0.00000E+00
 -1       506 7.36500E+01 4.22060E+01 0.00000E+00
 -1       507 7.66500E+01 4.22060E+01 0.00000E+00
 -1       508 7.96500E+01 4.22060E+01 0.00000E+00
 -1       509 8.26500E+01 4.22060E+01 0.00000E+00
 -1       510 8.56500E+01 4.22060E+01 0.00000E+00
 -1       511 8.86500E+01 4.22060E+01 0.00000E+00
 -1       512 9.16500E+01 4.22060E+01 0.00000E+00
 -1       513 9.46500E+01 4.22060E+01 0.00000E+00
 -1       514 9.76500E+01 4.22060E+01 0.00000E+00
 -1       515 1.00650E+02 4.22060E+01 0.00000E+00
 -1       516 1.03650E+02 4.22060E+01 0.00000E+00
 -1       517 1.06650E+02 4.22060E+01 0.00000E+00
 -1       518 1.09650E+02 4.22060E+01 0.00000E+00
 -1       519 1.12650E+02 4.22060E+01 0.00000E+00
 -1       520 1.15650E+02 4.22060E+01 0.00000E+00
 -1       521 1.18650E+02 4.22060E+01 0.00000E+00
 -1       522 1.21650E+02 4.22060E+01 0.00000E+00
 -1       523 1.24650E+02 4.22060E+01 0.00000E+00
 -1       524 1.27650E+02 4.22060E+01 0.00000E+00
 -1       525 1.30650E+02 4.22060E+01 0.00000E+00
 -1       526 1.33650E+02 4.22060E+01 0.00000E+00
 -1       527 1.36650E+02 4.22060E+01 0.00000E+00
 -1       528 1.39650E+02 4.22060E+01 0.00000E+00
 -1       529 1.90350E+01 6.60425E+00 0.00000E+00
 -1       530 2.21850E+01 6.60425E+00 0.00000E+00
 -1       531 2.51850E+01 6.60425E+00 0.00000E+00
 -1       532 2.81850E+01 6.60425E+00 0.00000E+00
 -1       533 3.11850E+01 6.60425E+00 0.00000E+00
 -1       534 3.41850E+01 6.60425E+00 0.00000E+00
 -1       535 3.71850E+01 6.60425E+00 0.00000E+00
 -1       536 4.01850E+01 6.60425E+00 0.00000E+00
 -1       537 4.33350E+01 6.60425E+00 0.00000E+00
 -1       538 4.63350E+01 6.60425E+00 0.00000E+00
 -1       539 4.93350E+01 6.60425E+00 0.00000E+00
 -1       540 5.23350E+01 6.60425E+00 0.00000E+00
 -1       541 5.53350E+01 6.60425E+00 0.00000E+00
 -1       542 5.83350E+01 6.60425E+00 0.00000E+00
 -1       543 6.13350E+01 6.60425E+00 0.00000E+00
 -1       544 6.44850E+01 6.60425E+00 0.00000E+00
 -1       545 6.74850E+01 6.60425E+00 0.00000E+00
 -1       546 7.04850E+01 6.60425E+00 0.00000E+00
 -1       547 7.34850E+01 6.60425E+00 0.00000E+00
 -1       548 7.64850E+01 6.60425E+00 0.00000E+00
 -1       549 7.94850E+01 6.60425E+00 0.00000E+00
 -1       550 8.24850E+01 6.60425E+00 0.00000E+00
 -1       551 8.56350E+01 6.60425E+00 0.00000E+00
 -1       552 8.86350E+01 6.60425E+00 0.00000E+00
 -1       553 9.16350E+01 6.60425E+00 0.00000E+00
 -1       554 9.46350E+01 6.60425E+00 0.00000E+00
 -1       555 1.15451E+02 7.62768E+00 0.00000E+00
 -1       556 1.18451E+02 7.62768E+00 0.00000E+00
 -1       557 1.21451E+02 7.62768E+00 0.00000E+00
 -1       558 1.24451E+02 7.62768E+00 0.00000E+00
 -1       559 1.27600E+02 7.62768E+00 0.00000E+00
 -1       560 1.30600E+02 7.62768E+00 0.00000E+00
 -1       561 1.33600E+02 7.62768E+00 0.00000E+00
 -1       562 1.36600E+02 7.62768E+00 0.00000E+00
 -1       563 1.39600E+02 7.62768E+00 0.00000E+00
 -1       564 1.42206E+02 1.61750E+01 0.00000E+00
 -1       565 1.42206E+02 1.91250E+01 0.00000E+00
 -1       566 1.42206E+02 1.03250E+01 0.00000E+00
 -1       567 1.42206E+02 1.32500E+01 0.00000E+00
 -1       568 1.42206E+02 2.20750E+01 0.00000E+00
 -1       569 1.42206E+02 2.50250E+01 0.00000E+00
 -1       570 1.42206E+02 2.79750E+01 0.00000E+00
 -1       571 1.42206E+02 3.08750E+01 0.00000E+00
 -1       572 1.42206E+02 3.38250E+01 0.00000E+00
 -1       573 1.42206E+02 3.67750E+01 0.00000E+00
 -1       574 1.42206E+02 3.97250E+01 0.00000E+00
 -1       575 1.15677E+02 1.35670E+01 0.00000E+00
 -1       576 9.39764E+01 1.09050E+01 0.00000E+00
 -1       577 1.60350E+01 6.60425E+00 0.00000E+00
 -1       578 1.14177E+02 9.55375E+00 0.00000E+00
 -1       579 1.12719E+02 2.27398E+01 0.00000E+00
 -1       580 9.31633E+01 1.54334E+01 0.00000E+00
 -1       581 9.52191E+01 2.18105E+01 0.00000E+00
 -1       582 1.15295E+02 1.64460E+01 0.00000E+00
 -1       583 1.15055E+02 1.11761E+01 0.00000E+00
 -1       584 9.40836E+01 1.95689E+01 0.00000E+00
 -1       585 9.31906E+01 1.31893E+01 0.00000E+00
 -1       586 7.79400E+00 2.79000E+01 0.00000E+00
 -1       587 9.64310E+01 7.23605E+00 0.00000E+00
 -1       588 1.01421E+02 2.59238E+01 0.00000E+00
 -1       589 9.49390E+01 8.70823E+00 0.00000E+00
 -1       590 1.08905E+02 2.56454E+01 0.00000E+00
 -1       591 1.14708E+02 1.85836E+01 0.00000E+00
 -1       592 9.76330E+01 5.62115E+00 0.00000E+00
 -1       593 9.68785E+01 2.36689E+01 0.00000E+00
 -1       594 9.90272E+01 2.49920E+01 0.00000E+00
 -1       595 1.04041E+02 2.61973E+01 0.00000E+00
 -1       596 1.06277E+02 2.59697E+01 0.00000E+00
 -1       597 9.36055E+01 1.77093E+01 0.00000E+00
 -1       598 1.10836E+02 2.41309E+01 0.00000E+00
 -1       599 1.14045E+02 2.04062E+01 0.00000E+00
 -1       600 7.61550E+00 6.21462E+00 0.00000E+00
 -1       601 7.79400E+00 3.67375E+01 0.00000E+00
 -1       602 1.41678E+02 4.22645E+01 0.00000E+00
 -1       603 1.08950E+02 5.08998E+00 0.00000E+00
 -1       604 1.42594E+02 6.42812E+00 0.00000E+00
 -1       605 1.16696E+02 1.50032E+01 0.00000E+00
 -1       606 9.69657E+01 2.59336E+01 0.00000E+00
 -1       607 1.03920E+01 2.05500E+01 0.00000E+00
 -1       608 1.03920E+01 2.35000E+01 0.00000E+00
 -1       609 1.03920E+01 1.46750E+01 0.00000E+00
 -1       610 1.03920E+01 1.17250E+01 0.00000E+00
 -1       611 9.96323E+01 2.69781E+01 0.00000E+00
 -1       612 1.21500E+01 3.96080E+01 0.00000E+00
 -1       613 1.15350E+01 9.20225E+00 0.00000E+00
 -1       614 2.66850E+01 9.20225E+00 0.00000E+00
 -1       615 1.51500E+01 3.96080E+01 0.00000E+00
 -1       616 1.81500E+01 3.96080E+01 0.00000E+00
 -1       617 2.11500E+01 3.96080E+01 0.00000E+00
 -1       618 2.41500E+01 3.96080E+01 0.00000E+00
 -1       619 2.71500E+01 3.96080E+01 0.00000E+00
 -1       620 3.01500E+01 3.96080E+01 0.00000E+00
 -1       621 3.31500E+01 3.96080E+01 0.00000E+00
 -1       622 3.61500E+01 3.96080E+01 0.00000E+00
 -1       623 3.91500E+01 3.96080E+01 0.00000E+00
 -1       624 4.21500E+01 3.96080E+01 0.00000E+00
 -1       625 4.51500E+01 3.96080E+01 0.00000E+00
 -1       626 4.81500E+01 3.96080E+01 0.00000E+00
 -1       627 5.11500E+01 3.96080E+01 0.00000E+00
 -1       628 5.41500E+01 3.96080E+01 0.00000E+00
 -1       629 5.71500E+01 3.96080E+01 0.00000E+00
 -1       630 6.01500E+01 3.96080E+01 0.00000E+00
 -1       631 6.31500E+01 3.96080E+01 0.00000E+00
 -1       632 6.61500E+01 3.96080E+01 0.00000E+00
 -1       633 6.91500E+01 3.96080E+01 0.00000E+00
 -1       634 7.21500E+01 3.96080E+01 0.00000E+00
 -1       635 7.51500E+01 3.96080E+01 0.00000E+00
 -1       636 7.81500E+01 3.96080E+01 0.00000E+00
 -1       637 8.11500E+01 3.96080E+01 0.00000E+00
 -1       638 8.41500E+01 3.96080E+01 0.00000E+00
 -1       639 8.71500E+01 3.96080E+01 0.00000E+00
 -1       640 9.01500E+01 3.96080E+01 0.00000E+00
 -1       641 9.31500E+01 3.96080E+01 0.00000E+00
 -1       642 9.61500E+01 3.96080E+01 0.00000E+00
 -1       643 9.91500E+01 3.96080E+01 0.00000E+00
 -1       644 1.02150E+02 3.96080E+01 0.00000E+00
 -1       645 1.05150E+02 3.96080E+01 0.00000E+00
 -1       646 1.08150E+02 3.96080E+01 0.00000E+00
 -1       647 1.11150E+02 3.96080E+01 0.00000E+00
 -1       648 1.14150E+02 3.96080E+01 0.00000E+00
 -1       649 1.17150E+02 3.96080E+01 0.00000E+00
 -1       650 1.20150E+02 3.96080E+01 0.00000E+00
 -1       651 1.23150E+02 3.96080E+01 0.00000E+00
 -1       652 1.26150E+02 3.96080E+01 0.00000E+00
 -1       653 1.29150E+02 3.96080E+01 0.00000E+00
 -1       654 1.32150E+02 3.96080E+01 0.00000E+00
 -1       655 1.35150E+02 3.96080E+01 0.00000E+00
 -1       656 1.38150E+02 3.96080E+01 0.00000E+00
 -1       657 2.36850E+01 9.20225E+00 0.00000E+00
 -1       658 2.05350E+01 9.20225E+00 0.00000E+00
 -1       659 2.96850E+01 9.20225E+00 0.00000E+00
 -1       660 3.26850E+01 9.20225E+00 0.00000E+00
 -1       661 3.56850E+01 9.20225E+00 0.00000E+00
 -1       662 3.86850E+01 9.20225E+00 0.00000E+00
 -1       663 4.18350E+01 9.20225E+00 0.00000E+00
 -1       664 4.48350E+01 9.20225E+00 0.00000E+00
 -1       665 4.78350E+01 9.20225E+00 0.00000E+00
 -1       666 5.08350E+01 9.20225E+00 0.00000E+00
 -1       667 5.38350E+01 9.20225E+00 0.00000E+00
 -1       668 5.68350E+01 9.20225E+00 0.00000E+00
 -1       669 5.98350E+01 9.20225E+00 0.00000E+00
 -1       670 6.29850E+01 9.20225E+00 0.00000E+00
 -1       671 6.59850E+01 9.20225E+00 0.00000E+00
 -1       672 6.89850E+01 9.20225E+00 0.00000E+00
 -1       673 7.19850E+01 9.20225E+00 0.00000E+00
 -1       674 7.49850E+01 9.20225E+00 0.00000E+00
 -1       675 7.79850E+01 9.20225E+00 0.00000E+00
 -1       676 8.09850E+01 9.20225E+00 0.00000E+00
 -1       677 8.41350E+01 9.20225E+00 0.00000E+00
 -1       678 8.71350E+01 9.20225E+00 0.00000E+00
 -1       679 9.01350E+01 9.20225E+00 0.00000E+00
 -1       680 1.45350E+01 9.20225E+00 0.00000E+00
 -1       681 1.15988E+02 2.00808E+01 0.00000E+00
 -1       682 9.19617E+01 1.14892E+01 0.00000E+00
 -1       683 1.22951E+02 1.02257E+01 0.00000E+00
 -1       684 1.26100E+02 1.02257E+01 0.00000E+00
 -1       685 1.29100E+02 1.02257E+01 0.00000E+00
 -1       686 1.32100E+02 1.02257E+01 0.00000E+00
 -1       687 1.35100E+02 1.02257E+01 0.00000E+00
 -1       688 1.38100E+02 1.02257E+01 0.00000E+00
 -1       689 1.39608E+02 2.35500E+01 0.00000E+00
 -1       690 1.39608E+02 1.76500E+01 0.00000E+00
 -1       691 1.39608E+02 2.65000E+01 0.00000E+00
 -1       692 1.39608E+02 2.06000E+01 0.00000E+00
 -1       693 1.39608E+02 2.94000E+01 0.00000E+00
 -1       694 1.39608E+02 3.23500E+01 0.00000E+00
 -1       695 1.39608E+02 3.53000E+01 0.00000E+00
 -1       696 1.12896E+02 2.49496E+01 0.00000E+00
 -1       697 1.17188E+02 1.18976E+01 0.00000E+00
 -1       698 1.75350E+01 9.20225E+00 0.00000E+00
 -1       699 1.19951E+02 1.02257E+01 0.00000E+00
 -1       700 1.17064E+02 9.88971E+00 0.00000E+00
 -1       701 9.28868E+01 9.11827E+00 0.00000E+00
 -1       702 9.17008E+01 1.68985E+01 0.00000E+00
 -1       703 1.40178E+02 3.96665E+01 0.00000E+00
 -1       704 1.15165E+02 2.25861E+01 0.00000E+00
 -1       705 1.03920E+01 1.76125E+01 0.00000E+00
 -1       706 9.11268E+01 1.42864E+01 0.00000E+00
 -1       707 1.03920E+01 3.23250E+01 0.00000E+00
 -1       708 9.46445E+01 2.39937E+01 0.00000E+00
 -1       709 9.26729E+01 2.16919E+01 0.00000E+00
 -1       710 1.16655E+02 1.79691E+01 0.00000E+00
 -1       711 1.02553E+02 2.77664E+01 0.00000E+00
 -1       712 1.05333E+02 2.77898E+01 0.00000E+00
 -1       713 9.21788E+01 1.87581E+01 0.00000E+00
 -1       714 1.10965E+02 2.64641E+01 0.00000E+00
 -1       715 1.07801E+02 2.75098E+01 0.00000E+00
 -1       716 1.03920E+01 3.52625E+01 0.00000E+00
 -1       717 1.03920E+01 2.64500E+01 0.00000E+00
 -1       718 1.00764E+02 2.88208E+01 0.00000E+00
 -1       719 1.39608E+02 1.47250E+01 0.00000E+00
 -1       720 1.38854E+02 1.24753E+01 0.00000E+00
 -1       721 1.18207E+02 1.33338E+01 0.00000E+00
 -1       722 1.18056E+02 1.65262E+01 0.00000E+00
 -1       723 1.09861E+02 2.83285E+01 0.00000E+00
 -1       724 1.03920E+01 2.93875E+01 0.00000E+00
 -1       725 9.78035E+00 3.93914E+01 0.00000E+00
 -1       726 1.38879E+02 3.74540E+01 0.00000E+00
 -1       727 1.29900E+01 1.32000E+01 0.00000E+00
 -1       728 1.17683E+02 2.20262E+01 0.00000E+00
 -1       729 3.11850E+01 1.18003E+01 0.00000E+00
 -1       730 1.18350E+02 1.99146E+01 0.00000E+00
 -1       731 1.36500E+01 3.70100E+01 0.00000E+00
 -1       732 1.66500E+01 3.70100E+01 0.00000E+00
 -1       733 1.96500E+01 3.70100E+01 0.00000E+00
 -1       734 2.26500E+01 3.70100E+01 0.00000E+00
 -1       735 2.56500E+01 3.70100E+01 0.00000E+00
 -1       736 2.86500E+01 3.70100E+01 0.00000E+00
 -1       737 3.16500E+01 3.70100E+01 0.00000E+00
 -1       738 3.46500E+01 3.70100E+01 0.00000E+00
 -1       739 3.76500E+01 3.70100E+01 0.00000E+00
 -1       740 4.06500E+01 3.70100E+01 0.00000E+00
 -1       741 4.36500E+01 3.70100E+01 0.00000E+00
 -1       742 4.66500E+01 3.70100E+01 0.00000E+00
 -1       743 4.96500E+01 3.70100E+01 0.00000E+00
 -1       744 5.26500E+01 3.70100E+01 0.00000E+00
 -1       745 5.56500E+01 3.70100E+01 0.00000E+00
 -1       746 5.86500E+01 3.70100E+01 0.00000E+00
 -1       747 6.16500E+01 3.70100E+01 0.00000E+00
 -1       748 6.46500E+01 3.70100E+01 0.00000E+00
 -1       749 6.76500E+01 3.70100E+01 0.00000E+00
 -1       750 7.06500E+01 3.70100E+01 0.00000E+00
 -1       751 7.36500E+01 3.70100E+01 0.00000E+00
 -1       752 7.66500E+01 3.70100E+01 0.00000E+00
 -1       753 7.96500E+01 3.70100E+01 0.00000E+00
 -1       754 8.26500E+01 3.70100E+01 0.00000E+00
 -1       755 8.56500E+01 3.70100E+01 0.00000E+00
 -1       756 8.86500E+01 3.70100E+01 0.00000E+00
 -1       757 9.16500E+01 3.70100E+01 0.00000E+00
 -1       758 9.46500E+01 3.70100E+01 0.00000E+00
 -1       759 9.76500E+01 3.70100E+01 0.00000E+00
 -1       760 1.00650E+02 3.70100E+01 0.00000E+00
 -1       761 1.03650E+02 3.70100E+01 0.00000E+00
 -1       762 1.06650E+02 3.70100E+01 0.00000E+00
 -1       763 1.09650E+02 3.70100E+01 0.00000E+00
 -1       764 1.12650E+02 3.70100E+01 0.00000E+00
 -1       765 1.15650E+02 3.70100E+01 0.00000E+00
 -1       766 1.18650E+02 3.70100E+01 0.00000E+00
 -1       767 1.21650E+02 3.70100E+01 0.00000E+00
 -1       768 1.24650E+02 3.70100E+01 0.00000E+00
 -1       769 1.27650E+02 3.70100E+01 0.00000E+00
 -1       770 1.30650E+02 3.70100E+01 0.00000E+00
 -1       771 1.33650E+02 3.70100E+01 0.00000E+00
 -1       772 1.36264E+02 3.72320E+01 0.00000E+00
 -1       773 2.51850E+01 1.18003E+01 0.00000E+00
 -1       774 2.20350E+01 1.18003E+01 0.00000E+00
 -1       775 3.41850E+01 1.18003E+01 0.00000E+00
 -1       776 3.71850E+01 1.18003E+01 0.00000E+00
 -1       777 4.03350E+01 1.18003E+01 0.00000E+00
 -1       778 4.33350E+01 1.18003E+01 0.00000E+00
 -1       779 4.63350E+01 1.18003E+01 0.00000E+00
 -1       780 4.93350E+01 1.18003E+01 0.00000E+00
 -1       781 5.23350E+01 1.18003E+01 0.00000E+00
 -1       782 5.53350E+01 1.18003E+01 0.00000E+00
 -1       783 5.83350E+01 1.18003E+01 0.00000E+00
 -1       784 6.14850E+01 1.18003E+01 0.00000E+00
 -1       785 6.44850E+01 1.18003E+01 0.00000E+00
 -1       786 6.74850E+01 1.18003E+01 0.00000E+00
 -1       787 7.04850E+01 1.18003E+01 0.00000E+00
 -1       788 7.34850E+01 1.18003E+01 0.00000E+00
 -1       789 7.64850E+01 1.18003E+01 0.00000E+00
 -1       790 7.94850E+01 1.18003E+01 0.00000E+00
 -1       791 8.26350E+01 1.18003E+01 0.00000E+00
 -1       792 8.56350E+01 1.18003E+01 0.00000E+00
 -1       793 8.86350E+01 1.18003E+01 0.00000E+00
 -1       794 1.21451E+02 1.27786E+01 0.00000E+00
 -1       795 1.27600E+02 1.28237E+01 0.00000E+00
 -1       796 1.24525E+02 1.28012E+01 0.00000E+00
 -1       797 1.33600E+02 1.28237E+01 0.00000E+00
 -1       798 1.36227E+02 1.26495E+01 0.00000E+00
 -1       799 1.37010E+02 2.79500E+01 0.00000E+00
 -1       800 1.37010E+02 2.50000E+01 0.00000E+00
 -1       801 2.81850E+01 1.18003E+01 0.00000E+00
 -1       802 1.37010E+02 3.09000E+01 0.00000E+00
 -1       803 1.06798E+02 2.96870E+01 0.00000E+00
 -1       804 1.37010E+02 3.38500E+01 0.00000E+00
 -1       805 9.75512E+01 2.83649E+01 0.00000E+00
 -1       806 1.30600E+02 1.28237E+01 0.00000E+00
 -1       807 1.03927E+02 2.96607E+01 0.00000E+00
 -1       808 9.05693E+01 2.05377E+01 0.00000E+00
 -1       809 9.19743E+01 2.42856E+01 0.00000E+00
 -1       810 9.43829E+01 2.66654E+01 0.00000E+00
 -1       811 1.29900E+01 2.20250E+01 0.00000E+00
 -1       812 1.37625E+01 1.12011E+01 0.00000E+00
 -1       813 1.15631E+02 2.53035E+01 0.00000E+00
 -1       814 9.00912E+01 1.86781E+01 0.00000E+00
 -1       815 1.13403E+02 2.75839E+01 0.00000E+00
 -1       816 8.94113E+01 1.60324E+01 0.00000E+00
 -1       817 1.29900E+01 2.49750E+01 0.00000E+00
 -1       818 1.02139E+02 3.07151E+01 0.00000E+00
 -1       819 1.90350E+01 1.18003E+01 0.00000E+00
 -1       820 1.37010E+02 1.61875E+01 0.00000E+00
 -1       821 1.37010E+02 2.20500E+01 0.00000E+00
 -1       822 1.37010E+02 1.91187E+01 0.00000E+00
 -1       823 1.19567E+02 1.48568E+01 0.00000E+00
 -1       824 1.08858E+02 3.05057E+01 0.00000E+00
 -1       825 1.63988E+01 1.15007E+01 0.00000E+00
 -1       826 8.98708E+01 2.31313E+01 0.00000E+00
 -1       827 1.12299E+02 2.94482E+01 0.00000E+00
 -1       828 1.29900E+01 1.61375E+01 0.00000E+00
 -1       829 1.29900E+01 1.90812E+01 0.00000E+00
 -1       830 1.29900E+01 3.08563E+01 0.00000E+00
 -1       831 8.75232E+01 1.39163E+01 0.00000E+00
 -1       832 1.19751E+02 1.84717E+01 0.00000E+00
 -1       833 1.18149E+02 2.47437E+01 0.00000E+00
 -1       834 1.29900E+01 3.37938E+01 0.00000E+00
 -1       835 1.36637E+02 3.55410E+01 0.00000E+00
 -1       836 3.26850E+01 1.43982E+01 0.00000E+00
 -1       837 1.20291E+02 2.16886E+01 0.00000E+00
 -1       838 1.81500E+01 3.44120E+01 0.00000E+00
 -1       839 2.11500E+01 3.44120E+01 0.00000E+00
 -1       840 2.41500E+01 3.44120E+01 0.00000E+00
 -1       841 2.71500E+01 3.44120E+01 0.00000E+00
 -1       842 3.01500E+01 3.44120E+01 0.00000E+00
 -1       843 3.31500E+01 3.44120E+01 0.00000E+00
 -1       844 3.61500E+01 3.44120E+01 0.00000E+00
 -1       845 3.91500E+01 3.44120E+01 0.00000E+00
 -1       846 4.21500E+01 3.44120E+01 0.00000E+00
 -1       847 4.51500E+01 3.44120E+01 0.00000E+00
 -1       848 4.81500E+01 3.44120E+01 0.00000E+00
 -1       849 5.11500E+01 3.44120E+01 0.00000E+00
 -1       850 5.41500E+01 3.44120E+01 0.00000E+00
 -1       851 5.71500E+01 3.44120E+01 0.00000E+00
 -1       852 6.01500E+01 3.44120E+01 0.00000E+00
 -1       853 6.31500E+01 3.44120E+01 0.00000E+00
 -1       854 6.61500E+01 3.44120E+01 0.00000E+00
 -1       855 6.91500E+01 3.44120E+01 0.00000E+00
 -1       856 7.21500E+01 3.44120E+01 0.00000E+00
 -1       857 7.51500E+01 3.44120E+01 0.00000E+00
 -1       858 7.81500E+01 3.44120E+01 0.00000E+00
 -1       859 8.11500E+01 3.44120E+01 0.00000E+00
 -1       860 8.41500E+01 3.44120E+01 0.00000E+00
 -1       861 8.71500E+01 3.44120E+01 0.00000E+00
 -1       862 9.01500E+01 3.44120E+01 0.00000E+00
 -1       863 9.31500E+01 3.44120E+01 0.00000E+00
 -1       864 9.61500E+01 3.44120E+01 0.00000E+00
 -1       865 9.91500E+01 3.44120E+01 0.00000E+00
 -1       866 1.02150E+02 3.44120E+01 0.00000E+00
 -1       867 1.05150E+02 3.44120E+01 0.00000E+00
 -1       868 1.08150E+02 3.44120E+01 0.00000E+00
 -1       869 1.11150E+02 3.44120E+01 0.00000E+00
 -1       870 1.14150E+02 3.44120E+01 0.00000E+00
 -1       871 1.17150E+02 3.44120E+01 0.00000E+00
 -1       872 1.20150E+02 3.44120E+01 0.00000E+00
 -1       873 1.23150E+02 3.44120E+01 0.00000E+00
 -1       874 1.26150E+02 3.44120E+01 0.00000E+00
 -1       875 1.29150E+02 3.44120E+01 0.00000E+00
 -1       876 1.32150E+02 3.44120E+01 0.00000E+00
 -1       877 2.36100E+01 1.43982E+01 0.00000E+00
 -1       878 3.87600E+01 1.43982E+01 0.00000E+00
 -1       879 4.17600E+01 1.43982E+01 0.00000E+00
 -1       880 4.47600E+01 1.43982E+01 0.00000E+00
 -1       881 4.77600E+01 1.43982E+01 0.00000E+00
 -1       882 5.07600E+01 1.43982E+01 0.00000E+00
 -1       883 5.37600E+01 1.43982E+01 0.00000E+00
 -1       884 5.67600E+01 1.43982E+01 0.00000E+00
 -1       885 5.99100E+01 1.43982E+01 0.00000E+00
 -1       886 6.29100E+01 1.43982E+01 0.00000E+00
 -1       887 6.59100E+01 1.43982E+01 0.00000E+00
 -1       888 6.89100E+01 1.43982E+01 0.00000E+00
 -1       889 7.19100E+01 1.43982E+01 0.00000E+00
 -1       890 7.49100E+01 1.43982E+01 0.00000E+00
 -1       891 7.79100E+01 1.43982E+01 0.00000E+00
 -1       892 8.10600E+01 1.43982E+01 0.00000E+00
 -1       893 8.40600E+01 1.43982E+01 0.00000E+00
 -1       894 1.29100E+02 1.54217E+01 0.00000E+00
 -1       895 1.32100E+02 1.54217E+01 0.00000E+00
 -1       896 1.34412E+02 2.64750E+01 0.00000E+00
 -1       897 1.36619E+02 1.44185E+01 0.00000E+00
 -1       898 3.56850E+01 1.43982E+01 0.00000E+00
 -1       899 9.49187E+01 2.94695E+01 0.00000E+00
 -1       900 1.05344E+02 3.17240E+01 0.00000E+00
 -1       901 1.34412E+02 3.23750E+01 0.00000E+00
 -1       902 1.16343E+02 2.82278E+01 0.00000E+00
 -1       903 2.66100E+01 1.43982E+01 0.00000E+00
 -1       904 2.96850E+01 1.43982E+01 0.00000E+00
 -1       905 1.29900E+01 2.79188E+01 0.00000E+00
 -1       906 9.88463E+01 3.07886E+01 0.00000E+00
 -1       907 1.55700E+01 3.41029E+01 0.00000E+00
 -1       908 9.15020E+01 2.71723E+01 0.00000E+00
 -1       909 8.72350E+01 1.80019E+01 0.00000E+00
 -1       910 1.34412E+02 2.94250E+01 0.00000E+00
 -1       911 1.56263E+01 1.34996E+01 0.00000E+00
 -1       912 8.85529E+01 2.05666E+01 0.00000E+00
 -1       913 2.06100E+01 1.43982E+01 0.00000E+00
 -1       914 1.55880E+01 2.93875E+01 0.00000E+00
 -1       915 9.20379E+01 2.99765E+01 0.00000E+00
 -1       916 1.34394E+02 3.49765E+01 0.00000E+00
 -1       917 8.93985E+01 2.60180E+01 0.00000E+00
 -1       918 1.21262E+02 1.68023E+01 0.00000E+00
 -1       919 1.34412E+02 2.35250E+01 0.00000E+00
 -1       920 1.22972E+02 1.50077E+01 0.00000E+00
 -1       921 1.34360E+02 1.49201E+01 0.00000E+00
 -1       922 1.15239E+02 3.00921E+01 0.00000E+00
 -1       923 1.26025E+02 1.53992E+01 0.00000E+00
 -1       924 1.55880E+01 2.05531E+01 0.00000E+00
 -1       925 1.55880E+01 2.35031E+01 0.00000E+00
 -1       926 1.55790E+01 3.17452E+01 0.00000E+00
 -1       927 1.34360E+02 1.78513E+01 0.00000E+00
 -1       928 3.72225E+01 1.69963E+01 0.00000E+00
 -1       929 1.22043E+02 1.97406E+01 0.00000E+00
 -1       930 2.26500E+01 3.18140E+01 0.00000E+00
 -1       931 2.56500E+01 3.18140E+01 0.00000E+00
 -1       932 2.86500E+01 3.18140E+01 0.00000E+00
 -1       933 3.16500E+01 3.18140E+01 0.00000E+00
 -1       934 3.46500E+01 3.18140E+01 0.00000E+00
 -1       935 3.76500E+01 3.18140E+01 0.00000E+00
 -1       936 4.06500E+01 3.18140E+01 0.00000E+00
 -1       937 4.36500E+01 3.18140E+01 0.00000E+00
 -1       938 4.66500E+01 3.18140E+01 0.00000E+00
 -1       939 4.96500E+01 3.18140E+01 0.00000E+00
 -1       940 5.26500E+01 3.18140E+01 0.00000E+00
 -1       941 5.56500E+01 3.18140E+01 0.00000E+00
 -1       942 5.86500E+01 3.18140E+01 0.00000E+00
 -1       943 6.16500E+01 3.18140E+01 0.00000E+00
 -1       944 6.46500E+01 3.18140E+01 0.00000E+00
 -1       945 6.76500E+01 3.18140E+01 0.00000E+00
 -1       946 7.06500E+01 3.18140E+01 0.00000E+00
 -1       947 7.36500E+01 3.18140E+01 0.00000E+00
 -1       948 7.66500E+01 3.18140E+01 0.00000E+00
 -1       949 7.96500E+01 3.18140E+01 0.00000E+00
 -1       950 8.26500E+01 3.18140E+01 0.00000E+00
 -1       951 8.56500E+01 3.18140E+01 0.00000E+00
 -1       952 8.86500E+01 3.18140E+01 0.00000E+00
 -1       953 1.21650E+02 3.18140E+01 0.00000E+00
 -1       954 1.24650E+02 3.18140E+01 0.00000E+00
 -1       955 1.27650E+02 3.18140E+01 0.00000E+00
 -1       956 1.30650E+02 3.18140E+01 0.00000E+00
 -1       957 4.02225E+01 1.69963E+01 0.00000E+00
 -1       958 4.92600E+01 1.69963E+01 0.00000E+00
 -1       959 5.22600E+01 1.69963E+01 0.00000E+00
 -1       960 5.52600E+01 1.69963E+01 0.00000E+00
 -1       961 5.84100E+01 1.69963E+01 0.00000E+00
 -1       962 6.14100E+01 1.69963E+01 0.00000E+00
 -1       963 6.44100E+01 1.69963E+01 0.00000E+00
 -1       964 6.74100E+01 1.69963E+01 0.00000E+00
 -1       965 7.04100E+01 1.69963E+01 0.00000E+00
 -1       966 7.34100E+01 1.69963E+01 0.00000E+00
 -1       967 7.64100E+01 1.69963E+01 0.00000E+00
 -1       968 7.95600E+01 1.69963E+01 0.00000E+00
 -1       969 8.25600E+01 1.69963E+01 0.00000E+00
 -1       970 1.30600E+02 1.80197E+01 0.00000E+00
 -1       971 1.55880E+01 2.64453E+01 0.00000E+00
 -1       972 1.34386E+02 2.06882E+01 0.00000E+00
 -1       973 1.21348E+02 2.47076E+01 0.00000E+00
 -1       974 1.81181E+01 1.39489E+01 0.00000E+00
 -1       975 2.51100E+01 1.69963E+01 0.00000E+00
 -1       976 1.19541E+02 2.81917E+01 0.00000E+00
 -1       977 3.11850E+01 1.69963E+01 0.00000E+00
 -1       978 1.61458E+01 1.66550E+01 0.00000E+00
 -1       979 2.81475E+01 1.69963E+01 0.00000E+00
 -1       980 4.62600E+01 1.69963E+01 0.00000E+00
 -1       981 4.32600E+01 1.69963E+01 0.00000E+00
 -1       982 1.96500E+01 3.18140E+01 0.00000E+00
 -1       983 3.41850E+01 1.69963E+01 0.00000E+00
 -1       984 2.21100E+01 1.69963E+01 0.00000E+00
 -1       985 1.23099E+02 2.27596E+01 0.00000E+00
 -1       986 8.92181E+01 2.90620E+01 0.00000E+00
 -1       987 1.18570E+02 3.12011E+01 0.00000E+00
 -1       988 8.43512E+01 2.00390E+01 0.00000E+00
 -1       989 1.24168E+02 1.77803E+01 0.00000E+00
 -1       990 1.31814E+02 2.50000E+01 0.00000E+00
 -1       991 1.81860E+01 2.79164E+01 0.00000E+00
 -1       992 8.70707E+01 2.41552E+01 0.00000E+00
 -1       993 1.81770E+01 3.02741E+01 0.00000E+00
 -1       994 1.84387E+01 1.89721E+01 0.00000E+00
 -1       995 1.27525E+02 1.79972E+01 0.00000E+00
 -1       996 1.84387E+01 2.19221E+01 0.00000E+00
 -1       997 1.31814E+02 2.79500E+01 0.00000E+00
 -1       998 8.67149E+01 2.73863E+01 0.00000E+00
 -1       999 2.71500E+01 2.92160E+01 0.00000E+00
 -1      1000 3.01500E+01 2.92160E+01 0.00000E+00
 -1      1001 3.31500E+01 2.92160E+01 0.00000E+00
 -1      1002 3.61500E+01 2.92160E+01 0.00000E+00
 -1      1003 3.91500E+01 2.92160E+01 0.00000E+00
 -1      1004 4.21500E+01 2.92160E+01 0.00000E+00
 -1      1005 4.51500E+01 2.92160E+01 0.00000E+00
 -1      1006 4.81500E+01 2.92160E+01 0.00000E+00
 -1      1007 5.11500E+01 2.92160E+01 0.00000E+00
 -1      1008 5.41500E+01 2.92160E+01 0.00000E+00
 -1      1009 5.71500E+01 2.92160E+01 0.00000E+00
 -1      1010 6.01500E+01 2.92160E+01 0.00000E+00
 -1      1011 6.31500E+01 2.92160E+01 0.00000E+00
 -1      1012 6.61500E+01 2.92160E+01 0.00000E+00
 -1      1013 6.91500E+01 2.92160E+01 0.00000E+00
 -1      1014 7.21500E+01 2.92160E+01 0.00000E+00
 -1      1015 7.51500E+01 2.92160E+01 0.00000E+00
 -1      1016 7.81500E+01 2.92160E+01 0.00000E+00
 -1      1017 8.11500E+01 2.92160E+01 0.00000E+00
 -1      1018 8.41500E+01 2.92160E+01 0.00000E+00
 -1      1019 1.96181E+01 1.65469E+01 0.00000E+00
 -1      1020 8.12167E+01 1.98356E+01 0.00000E+00
 -1      1021 1.31788E+02 2.21632E+01 0.00000E+00
 -1      1022 1.26150E+02 2.92160E+01 0.00000E+00
 -1      1023 1.29150E+02 2.92160E+01 0.00000E+00
 -1      1024 5.68350E+01 1.95942E+01 0.00000E+00
 -1      1025 5.38350E+01 1.95942E+01 0.00000E+00
 -1      1026 5.08350E+01 1.95942E+01 0.00000E+00
 -1      1027 5.98350E+01 1.95942E+01 0.00000E+00
 -1      1028 6.28350E+01 1.95942E+01 0.00000E+00
 -1      1029 6.58350E+01 1.95942E+01 0.00000E+00
 -1      1030 6.88350E+01 1.95942E+01 0.00000E+00
 -1      1031 7.18350E+01 1.95942E+01 0.00000E+00
 -1      1032 7.48350E+01 1.95942E+01 0.00000E+00
 -1      1033 7.79850E+01 1.95942E+01 0.00000E+00
 -1      1034 4.17412E+01 1.95942E+01 0.00000E+00
 -1      1035 3.26850E+01 1.95942E+01 0.00000E+00
 -1      1036 1.22999E+02 2.82608E+01 0.00000E+00
 -1      1037 1.83123E+01 2.49192E+01 0.00000E+00
 -1      1038 3.87412E+01 1.95942E+01 0.00000E+00
 -1      1039 2.41500E+01 2.92160E+01 0.00000E+00
 -1      1040 4.78350E+01 1.95942E+01 0.00000E+00
 -1      1041 4.47412E+01 1.95942E+01 0.00000E+00
 -1      1042 3.57131E+01 1.95942E+01 0.00000E+00
 -1      1043 1.25224E+02 2.07994E+01 0.00000E+00
 -1      1044 8.35433E+01 2.35292E+01 0.00000E+00
 -1      1045 2.36100E+01 1.95942E+01 0.00000E+00
 -1      1046 2.96475E+01 1.95942E+01 0.00000E+00
 -1      1047 1.29203E+02 2.36056E+01 0.00000E+00
 -1      1048 1.24625E+02 2.59878E+01 0.00000E+00
 -1      1049 2.08449E+01 2.65272E+01 0.00000E+00
 -1      1050 1.29044E+02 2.06063E+01 0.00000E+00
 -1      1051 2.10367E+01 2.04471E+01 0.00000E+00
 -1      1052 2.11500E+01 2.92160E+01 0.00000E+00
 -1      1053 2.66287E+01 1.95942E+01 0.00000E+00
 -1      1054 1.29176E+02 2.64108E+01 0.00000E+00
 -1      1055 8.01817E+01 2.30671E+01 0.00000E+00
 -1      1056 5.53350E+01 2.21922E+01 0.00000E+00
 -1      1057 2.86500E+01 2.66180E+01 0.00000E+00
 -1      1058 3.16500E+01 2.66180E+01 0.00000E+00
 -1      1059 3.46500E+01 2.66180E+01 0.00000E+00
 -1      1060 3.76500E+01 2.66180E+01 0.00000E+00
 -1      1061 4.06500E+01 2.66180E+01 0.00000E+00
 -1      1062 4.36500E+01 2.66180E+01 0.00000E+00
 -1      1063 4.66500E+01 2.66180E+01 0.00000E+00
 -1      1064 4.96500E+01 2.66180E+01 0.00000E+00
 -1      1065 5.26500E+01 2.66180E+01 0.00000E+00
 -1      1066 5.56500E+01 2.66180E+01 0.00000E+00
 -1      1067 5.86500E+01 2.66180E+01 0.00000E+00
 -1      1068 6.16500E+01 2.66180E+01 0.00000E+00
 -1      1069 6.46500E+01 2.66180E+01 0.00000E+00
 -1      1070 6.76500E+01 2.66180E+01 0.00000E+00
 -1      1071 7.06500E+01 2.66180E+01 0.00000E+00
 -1      1072 7.36500E+01 2.66180E+01 0.00000E+00
 -1      1073 7.66500E+01 2.66180E+01 0.00000E+00
 -1      1074 7.96500E+01 2.66180E+01 0.00000E+00
 -1      1075 8.31824E+01 2.70022E+01 0.00000E+00
 -1      1076 2.09712E+01 2.35301E+01 0.00000E+00
 -1      1077 6.13350E+01 2.21922E+01 0.00000E+00
 -1      1078 5.83350E+01 2.21922E+01 0.00000E+00
 -1      1079 5.23350E+01 2.21922E+01 0.00000E+00
 -1      1080 6.43350E+01 2.21922E+01 0.00000E+00
 -1      1081 6.73350E+01 2.21922E+01 0.00000E+00
 -1      1082 7.03350E+01 2.21922E+01 0.00000E+00
 -1      1083 7.33350E+01 2.21922E+01 0.00000E+00
 -1      1084 7.64850E+01 2.21922E+01 0.00000E+00
 -1      1085 4.62881E+01 2.21922E+01 0.00000E+00
 -1      1086 4.02412E+01 2.21922E+01 0.00000E+00
 -1      1087 4.32412E+01 2.21922E+01 0.00000E+00
 -1      1088 2.56500E+01 2.66180E+01 0.00000E+00
 -1      1089 2.32474E+01 2.65726E+01 0.00000E+00
 -1      1090 4.93350E+01 2.21922E+01 0.00000E+00
 -1      1091 2.35445E+01 2.26773E+01 0.00000E+00
 -1      1092 1.26138E+02 2.45852E+01 0.00000E+00
 -1      1093 3.11663E+01 2.21922E+01 0.00000E+00
 -1      1094 3.72131E+01 2.21922E+01 0.00000E+00
 -1      1095 2.65633E+01 2.26773E+01 0.00000E+00
 -1      1096 3.41897E+01 2.21922E+01 0.00000E+00
 -1      1097 2.88648E+01 2.24348E+01 0.00000E+00
 -1      1098 0.00000E+00 4.85250E+01 0.00000E+00
 -1      1099 0.00000E+00 4.55750E+01 0.00000E+00
 -1      1100 0.00000E+00 4.26250E+01 0.00000E+00
 -1      1101 0.00000E+00 3.96750E+01 0.00000E+00
 -1      1102 0.00000E+00 3.67250E+01 0.00000E+00
 -1      1103 0.00000E+00 3.38000E+01 0.00000E+00
 -1      1104 0.00000E+00 3.08750E+01 0.00000E+00
 -1      1105 0.00000E+00 2.79250E+01 0.00000E+00
 -1      1106 0.00000E+00 2.49750E+01 0.00000E+00
 -1      1107 0.00000E+00 2.20250E+01 0.00000E+00
 -1      1108 0.00000E+00 1.90750E+01 0.00000E+00
 -1      1109 0.00000E+00 1.61500E+01 0.00000E+00
 -1      1110 0.00000E+00 1.32250E+01 0.00000E+00
 -1      1111 0.00000E+00 1.02750E+01 0.00000E+00
 -1      1112 0.00000E+00 7.32500E+00 0.00000E+00
 -1      1113 0.00000E+00 4.37500E+00 0.00000E+00
 -1      1114 0.00000E+00 1.45000E+00 0.00000E+00
 -1      1115 1.57500E+00 5.00000E+01 0.00000E+00
 -1      1116 4.65000E+00 5.00000E+01 0.00000E+00
 -1      1117 7.65000E+00 5.00000E+01 0.00000E+00
 -1      1118 1.06500E+01 5.00000E+01 0.00000E+00
 -1      1119 1.36500E+01 5.00000E+01 0.00000E+00
 -1      1120 1.66500E+01 5.00000E+01 0.00000E+00
 -1      1121 1.96500E+01 5.00000E+01 0.00000E+00
 -1      1122 2.26500E+01 5.00000E+01 0.00000E+00
 -1      1123 2.56500E+01 5.00000E+01 0.00000E+00
 -1      1124 2.86500E+01 5.00000E+01 0.00000E+00
 -1      1125 3.16500E+01 5.00000E+01 0.00000E+00
 -1      1126 3.46500E+01 5.00000E+01 0.00000E+00
 -1      1127 3.76500E+01 5.00000E+01 0.00000E+00
 -1      1128 4.06500E+01 5.00000E+01 0.00000E+00
 -1      1129 4.36500E+01 5.00000E+01 0.00000E+00
 -1      1130 4.66500E+01 5.00000E+01 0.00000E+00
 -1      1131 4.96500E+01 5.00000E+01 0.00000E+00
 -1      1132 5.26500E+01 5.00000E+01 0.00000E+00
 -1      1133 5.56500E+01 5.00000E+01 0.00000E+00
 -1      1134 5.86500E+01 5.00000E+01 0.00000E+00
 -1      1135 6.16500E+01 5.00000E+01 0.00000E+00
 -1      1136 6.46500E+01 5.00000E+01 0.00000E+00
 -1      1137 6.76500E+01 5.00000E+01 0.00000E+00
 -1      1138 7.06500E+01 5.00000E+01 0.00000E+00
 -1      1139 7.36500E+01 5.00000E+01 0.00000E+00
 -1      1140 7.66500E+01 5.00000E+01 0.00000E+00
 -1      1141 7.96500E+01 5.00000E+01 0.00000E+00
 -1      1142 8.26500E+01 5.00000E+01 0.00000E+00
 -1      1143 8.56500E+01 5.00000E+01 0.00000E+00
 -1      1144 8.86500E+01 5.00000E+01 0.00000E+00
 -1      1145 9.16500E+01 5.00000E+01 0.00000E+00
 -1      1146 9.46500E+01 5.00000E+01 0.00000E+00
 -1      1147 9.76500E+01 5.00000E+01 0.00000E+00
 -1      1148 1.00650E+02 5.00000E+01 0.00000E+00
 -1      1149 1.03650E+02 5.00000E+01 0.00000E+00
 -1      1150 1.06650E+02 5.00000E+01 0.00000E+00
 -1      1151 1.09650E+02 5.00000E+01 0.00000E+00
 -1      1152 1.12650E+02 5.00000E+01 0.00000E+00
 -1      1153 1.15650E+02 5.00000E+01 0.00000E+00
 -1      1154 1.18650E+02 5.00000E+01 0.00000E+00
 -1      1155 1.21650E+02 5.00000E+01 0.00000E+00
 -1      1156 1.24650E+02 5.00000E+01 0.00000E+00
 -1      1157 1.27650E+02 5.00000E+01 0.00000E+00
 -1      1158 1.30650E+02 5.00000E+01 0.00000E+00
 -1      1159 1.33650E+02 5.00000E+01 0.00000E+00
 -1      1160 1.36650E+02 5.00000E+01 0.00000E+00
 -1      1161 1.39650E+02 5.00000E+01 0.00000E+00
 -1      1162 1.42650E+02 5.00000E+01 0.00000E+00
 -1      1163 1.45650E+02 5.00000E+01 0.00000E+00
 -1      1164 1.48575E+02 5.00000E+01 0.00000E+00
 -1      1165 1.57500E+00 0.00000E+00 0.00000E+00
 -1      1166 4.65000E+00 0.00000E+00 0.00000E+00
 -1      1167 7.65000E+00 0.00000E+00 0.00000E+00
 -1      1168 1.06500E+01 0.00000E+00 0.00000E+00
 -1      1169 1.36500E+01 0.00000E+00 0.00000E+00
 -1      1170 1.66500E+01 0.00000E+00 0.00000E+00
 -1      1171 1.96500E+01 0.00000E+00 0.00000E+00
 -1      1172 2.27250E+01 0.00000E+00 0.00000E+00
 -1      1173 2.58000E+01 0.00000E+00 0.00000E+00
 -1      1174 2.88000E+01 0.00000E+00 0.00000E+00
 -1      1175 3.18000E+01 0.00000E+00 0.00000E+00
 -1      1176 3.48000E+01 0.00000E+00 0.00000E+00
 -1      1177 3.78000E+01 0.00000E+00 0.00000E+00
 -1      1178 4.08000E+01 0.00000E+00 0.00000E+00
 -1      1179 4.38750E+01 0.00000E+00 0.00000E+00
 -1      1180 4.69500E+01 0.00000E+00 0.00000E+00
 -1      1181 4.99500E+01 0.00000E+00 0.00000E+00
 -1      1182 5.29500E+01 0.00000E+00 0.00000E+00
 -1      1183 5.59500E+01 0.00000E+00 0.00000E+00
 -1      1184 5.89500E+01 0.00000E+00 0.00000E+00
 -1      1185 6.19500E+01 0.00000E+00 0.00000E+00
 -1      1186 6.50250E+01 0.00000E+00 0.00000E+00
 -1      1187 6.81000E+01 0.00000E+00 0.00000E+00
 -1      1188 7.11000E+01 0.00000E+00 0.00000E+00
 -1      1189 7.41000E+01 0.00000E+00 0.00000E+00
 -1      1190 7.71000E+01 0.00000E+00 0.00000E+00
 -1      1191 8.01000E+01 0.00000E+00 0.00000E+00
 -1      1192 8.31000E+01 0.00000E+00 0.00000E+00
 -1      1193 8.61750E+01 0.00000E+00 0.00000E+00
 -1      1194 8.92500E+01 0.00000E+00 0.00000E+00
 -1      1195 9.22500E+01 0.00000E+00 0.00000E+00
 -1      1196 9.52500E+01 0.00000E+00 0.00000E+00
 -1      1197 9.81000E+01 0.00000E+00 0.00000E+00
 -1      1198 1.00875E+02 0.00000E+00 0.00000E+00
 -1      1199 1.03800E+02 0.00000E+00 0.00000E+00
 -1      1200 1.06725E+02 0.00000E+00 0.00000E+00
 -1      1201 1.09500E+02 0.00000E+00 0.00000E+00
 -1      1202 1.12350E+02 0.00000E+00 0.00000E+00
 -1      1203 1.15350E+02 0.00000E+00 0.00000E+00
 -1      1204 1.18350E+02 0.00000E+00 0.00000E+00
 -1      1205 1.21350E+02 0.00000E+00 0.00000E+00
 -1      1206 1.24350E+02 0.00000E+00 0.00000E+00
 -1      1207 1.27425E+02 0.00000E+00 0.00000E+00
 -1      1208 1.30500E+02 0.00000E+00 0.00000E+00
 -1      1209 1.33500E+02 0.00000E+00 0.00000E+00
 -1      1210 1.36500E+02 0.00000E+00 0.00000E+00
 -1      1211 1.39500E+02 0.00000E+00 0.00000E+00
 -1      1212 1.42500E+02 0.00000E+00 0.00000E+00
 -1      1213 1.45500E+02 0.00000E+00 0.00000E+00
 -1      1214 1.48500E+02 0.00000E+00 0.00000E+00
 -1      1215 1.50000E+02 1.47500E+00 0.00000E+00
 -1      1216 1.50000E+02 4.42500E+00 0.00000E+00
 -1      1217 1.50000E+02 7.37500E+00 0.00000E+00
 -1      1218 1.50000E+02 1.03250E+01 0.00000E+00
 -1      1219 1.50000E+02 1.32750E+01 0.00000E+00
 -1      1220 1.50000E+02 1.62000E+01 0.00000E+00
 -1      1221 1.50000E+02 1.91250E+01 0.00000E+00
 -1      1222 1.50000E+02 2.20750E+01 0.00000E+00
 -1      1223 1.50000E+02 2.50250E+01 0.00000E+00
 -1      1224 1.50000E+02 2.79750E+01 0.00000E+00
 -1      1225 1.50000E+02 3.09250E+01 0.00000E+00
 -1      1226 1.50000E+02 3.38500E+01 0.00000E+00
 -1      1227 1.50000E+02 3.67750E+01 0.00000E+00
 -1      1228 1.50000E+02 3.97250E+01 0.00000E+00
 -1      1229 1.50000E+02 4.26750E+01 0.00000E+00
 -1      1230 1.50000E+02 4.56250E+01 0.00000E+00
 -1      1231 1.50000E+02 4.85500E+01 0.00000E+00
 -1      1232 1.11317E+02 1.41222E+01 0.00000E+00
 -1      1233 1.11012E+02 1.27063E+01 0.00000E+00
 -1      1234 1.10449E+02 1.14313E+01 0.00000E+00
 -1      1235 1.09606E+02 1.02490E+01 0.00000E+00
 -1      1236 1.08533E+02 9.26291E+00 0.00000E+00
 -1      1237 1.07278E+02 8.51980E+00 0.00000E+00
 -1      1238 1.05875E+02 8.04800E+00 0.00000E+00
 -1      1239 1.04402E+02 7.88195E+00 0.00000E+00
 -1      1240 1.02912E+02 8.03287E+00 0.00000E+00
 -1      1241 1.01524E+02 8.48125E+00 0.00000E+00
 -1      1242 1.00308E+02 9.17301E+00 0.00000E+00
 -1      1243 9.92636E+01 1.00815E+01 0.00000E+00
 -1      1244 9.84189E+01 1.11774E+01 0.00000E+00
 -1      1245 9.77988E+01 1.24381E+01 0.00000E+00
 -1      1246 9.74401E+01 1.38157E+01 0.00000E+00
 -1      1247 9.73669E+01 1.52266E+01 0.00000E+00
 -1      1248 9.75749E+01 1.66092E+01 0.00000E+00
 -1      1249 9.80638E+01 1.79441E+01 0.00000E+00
 -1      1250 9.88299E+01 1.91755E+01 0.00000E+00
 -1      1251 9.98291E+01 2.02190E+01 0.00000E+00
 -1      1252 1.01071E+02 2.10619E+01 0.00000E+00
 -1      1253 1.02525E+02 2.16375E+01 0.00000E+00
 -1      1254 1.04034E+02 2.18743E+01 0.00000E+00
 -1      1255 1.05561E+02 2.17778E+01 0.00000E+00
 -1      1256 1.07056E+02 2.13411E+01 0.00000E+00
 -1      1257 1.08375E+02 2.06145E+01 0.00000E+00
 -1      1258 1.09503E+02 1.96292E+01 0.00000E+00
 -1      1259 1.10406E+02 1.84073E+01 0.00000E+00
 -1      1260 1.11016E+02 1.70429E+01 0.00000E+00
 -1      1261 1.11320E+02 1.56104E+01 0.00000E+00
 -1      1262 1.57500E+00 4.85250E+01 0.00000E+00
 -1      1263 1.29900E+00 4.48375E+01 0.00000E+00
 -1      1264 1.29900E+00 4.63125E+01 0.00000E+00
 -1      1265 1.29900E+00 4.18875E+01 0.00000E+00
 -1      1266 1.29900E+00 4.33625E+01 0.00000E+00
 -1      1267 2.59800E+00 4.41000E+01 0.00000E+00
 -1      1268 1.29900E+00 3.89375E+01 0.00000E+00
 -1      1269 1.29900E+00 4.04125E+01 0.00000E+00
 -1      1270 2.59800E+00 4.11500E+01 0.00000E+00
 -1      1271 1.29900E+00 3.59875E+01 0.00000E+00
 -1      1272 1.29900E+00 3.74625E+01 0.00000E+00
 -1      1273 2.59800E+00 3.82000E+01 0.00000E+00
 -1      1274 1.29900E+00 3.30875E+01 0.00000E+00
 -1      1275 1.29900E+00 3.45375E+01 0.00000E+00
 -1      1276 2.59800E+00 3.52750E+01 0.00000E+00
 -1      1277 1.29900E+00 3.01375E+01 0.00000E+00
 -1      1278 1.29900E+00 3.16125E+01 0.00000E+00
 -1      1279 2.59800E+00 3.23500E+01 0.00000E+00
 -1      1280 1.29900E+00 2.71875E+01 0.00000E+00
 -1      1281 1.29900E+00 2.86625E+01 0.00000E+00
 -1      1282 2.59800E+00 2.94000E+01 0.00000E+00
 -1      1283 1.29900E+00 2.42375E+01 0.00000E+00
 -1      1284 1.29900E+00 2.57125E+01 0.00000E+00
 -1      1285 2.59800E+00 2.64500E+01 0.00000E+00
 -1      1286 1.29900E+00 2.12875E+01 0.00000E+00
 -1      1287 1.29900E+00 2.27625E+01 0.00000E+00
 -1      1288 2.59800E+00 2.35000E+01 0.00000E+00
 -1      1289 1.29900E+00 1.83375E+01 0.00000E+00
 -1      1290 1.29900E+00 1.98125E+01 0.00000E+00
 -1      1291 2.59800E+00 2.05500E+01 0.00000E+00
 -1      1292 1.29900E+00 1.54375E+01 0.00000E+00
 -1      1293 1.29900E+00 1.68875E+01 0.00000E+00
 -1      1294 2.59800E+00 1.76250E+01 0.00000E+00
 -1      1295 1.29900E+00 1.24875E+01 0.00000E+00
 -1      1296 1.29900E+00 1.39625E+01 0.00000E+00
 -1      1297 2.59800E+00 1.47000E+01 0.00000E+00
 -1      1298 1.29900E+00 9.53750E+00 0.00000E+00
 -1      1299 1.29900E+00 1.10125E+01 0.00000E+00
 -1      1300 2.59800E+00 1.17500E+01 0.00000E+00
 -1      1301 1.29900E+00 6.58750E+00 0.00000E+00
 -1      1302 1.29900E+00 8.06250E+00 0.00000E+00
 -1      1303 2.59800E+00 8.80000E+00 0.00000E+00
 -1      1304 1.29900E+00 3.63750E+00 0.00000E+00
 -1      1305 1.29900E+00 5.11250E+00 0.00000E+00
 -1      1306 2.59800E+00 5.85000E+00 0.00000E+00
 -1      1307 1.43700E+00 1.09375E+00 0.00000E+00
 -1      1308 1.43700E+00 2.54375E+00 0.00000E+00
 -1      1309 2.73600E+00 3.28125E+00 0.00000E+00
 -1      1310 3.01200E+00 1.09375E+00 0.00000E+00
 -1      1311 3.90000E+00 4.87010E+01 0.00000E+00
 -1      1312 5.40000E+00 4.87010E+01 0.00000E+00
 -1      1313 6.90000E+00 4.87010E+01 0.00000E+00
 -1      1314 8.40000E+00 4.87010E+01 0.00000E+00
 -1      1315 6.15000E+00 4.74020E+01 0.00000E+00
 -1      1316 9.90000E+00 4.87010E+01 0.00000E+00
 -1      1317 1.14000E+01 4.87010E+01 0.00000E+00
 -1      1318 9.15000E+00 4.74020E+01 0.00000E+00
 -1      1319 1.29000E+01 4.87010E+01 0.00000E+00
 -1      1320 1.44000E+01 4.87010E+01 0.00000E+00
 -1      1321 1.21500E+01 4.74020E+01 0.00000E+00
 -1      1322 1.59000E+01 4.87010E+01 0.00000E+00
 -1      1323 1.74000E+01 4.87010E+01 0.00000E+00
 -1      1324 1.51500E+01 4.74020E+01 0.00000E+00
 -1      1325 1.89000E+01 4.87010E+01 0.00000E+00
 -1      1326 2.04000E+01 4.87010E+01 0.00000E+00
 -1      1327 1.81500E+01 4.74020E+01 0.00000E+00
 -1      1328 2.19000E+01 4.87010E+01 0.00000E+00
 -1      1329 2.34000E+01 4.87010E+01 0.00000E+00
 -1      1330 2.11500E+01 4.74020E+01 0.00000E+00
 -1      1331 2.49000E+01 4.87010E+01 0.00000E+00
 -1      1332 2.64000E+01 4.87010E+01 0.00000E+00
 -1      1333 2.41500E+01 4.74020E+01 0.00000E+00
 -1      1334 2.79000E+01 4.87010E+01 0.00000E+00
 -1      1335 2.94000E+01 4.87010E+01 0.00000E+00
 -1      1336 2.71500E+01 4.74020E+01 0.00000E+00
 -1      1337 3.09000E+01 4.87010E+01 0.00000E+00
 -1      1338 3.24000E+01 4.87010E+01 0.00000E+00
 -1      1339 3.01500E+01 4.74020E+01 0.00000E+00
 -1      1340 3.39000E+01 4.87010E+01 0.00000E+00
 -1      1341 3.54000E+01 4.87010E+01 0.00000E+00
 -1      1342 3.31500E+01 4.74020E+01 0.00000E+00
 -1      1343 3.69000E+01 4.87010E+01 0.00000E+00
 -1      1344 3.84000E+01 4.87010E+01 0.00000E+00
 -1      1345 3.61500E+01 4.74020E+01 0.00000E+00
 -1      1346 3.99000E+01 4.87010E+01 0.00000E+00
 -1      1347 4.14000E+01 4.87010E+01 0.00000E+00
 -1      1348 3.91500E+01 4.74020E+01 0.00000E+00
 -1      1349 4.29000E+01 4.87010E+01 0.00000E+00
 -1      1350 4.44000E+01 4.87010E+01 0.00000E+00
 -1      1351 4.21500E+01 4.74020E+01 0.00000E+00
 -1      1352 4.59000E+01 4.87010E+01 0.00000E+00
 -1      1353 4.74000E+01 4.87010E+01 0.00000E+00
 -1      1354 4.51500E+01 4.74020E+01 0.00000E+00
 -1      1355 4.89000E+01 4.87010E+01 0.00000E+00
 -1      1356 5.04000E+01 4.87010E+01 0.00000E+00
 -1      1357 4.81500E+01 4.74020E+01 0.00000E+00
 -1      1358 5.19000E+01 4.87010E+01 0.00000E+00
 -1      1359 5.34000E+01 4.87010E+01 0.00000E+00
 -1      1360 5.11500E+01 4.74020E+01 0.00000E+00
 -1      1361 5.49000E+01 4.87010E+01 0.00000E+00
 -1      1362 5.64000E+01 4.87010E+01 0.00000E+00
 -1      1363 5.41500E+01 4.74020E+01 0.00000E+00
 -1      1364 5.79000E+01 4.87010E+01 0.00000E+00
 -1      1365 5.94000E+01 4.87010E+01 0.00000E+00
 -1      1366 5.71500E+01 4.74020E+01 0.00000E+00
 -1      1367 6.09000E+01 4.87010E+01 0.00000E+00
 -1      1368 6.24000E+01 4.87010E+01 0.00000E+00
 -1      1369 6.01500E+01 4.74020E+01 0.00000E+00
 -1      1370 6.39000E+01 4.87010E+01 0.00000E+00
 -1      1371 6.54000E+01 4.87010E+01 0.00000E+00
 -1      1372 6.31500E+01 4.74020E+01 0.00000E+00
 -1      1373 6.69000E+01 4.87010E+01 0.00000E+00
 -1      1374 6.84000E+01 4.87010E+01 0.00000E+00
 -1      1375 6.61500E+01 4.74020E+01 0.00000E+00
 -1      1376 6.99000E+01 4.87010E+01 0.00000E+00
 -1      1377 7.14000E+01 4.87010E+01 0.00000E+00
 -1      1378 6.91500E+01 4.74020E+01 0.00000E+00
 -1      1379 7.29000E+01 4.87010E+01 0.00000E+00
 -1      1380 7.44000E+01 4.87010E+01 0.00000E+00
 -1      1381 7.21500E+01 4.74020E+01 0.00000E+00
 -1      1382 7.59000E+01 4.87010E+01 0.00000E+00
 -1      1383 7.74000E+01 4.87010E+01 0.00000E+00
 -1      1384 7.51500E+01 4.74020E+01 0.00000E+00
 -1      1385 7.89000E+01 4.87010E+01 0.00000E+00
 -1      1386 8.04000E+01 4.87010E+01 0.00000E+00
 -1      1387 7.81500E+01 4.74020E+01 0.00000E+00
 -1      1388 8.19000E+01 4.87010E+01 0.00000E+00
 -1      1389 8.34000E+01 4.87010E+01 0.00000E+00
 -1      1390 8.11500E+01 4.74020E+01 0.00000E+00
 -1      1391 8.49000E+01 4.87010E+01 0.00000E+00
 -1      1392 8.64000E+01 4.87010E+01 0.00000E+00
 -1      1393 8.41500E+01 4.74020E+01 0.00000E+00
 -1      1394 8.79000E+01 4.87010E+01 0.00000E+00
 -1      1395 8.94000E+01 4.87010E+01 0.00000E+00
 -1      1396 8.71500E+01 4.74020E+01 0.00000E+00
 -1      1397 9.09000E+01 4.87010E+01 0.00000E+00
 -1      1398 9.24000E+01 4.87010E+01 0.00000E+00
 -1      1399 9.01500E+01 4.74020E+01 0.00000E+00
 -1      1400 9.39000E+01 4.87010E+01 0.00000E+00
 -1      1401 9.54000E+01 4.87010E+01 0.00000E+00
 -1      1402 9.31500E+01 4.74020E+01 0.00000E+00
 -1      1403 9.69000E+01 4.87010E+01 0.00000E+00
 -1      1404 9.84000E+01 4.87010E+01 0.00000E+00
 -1      1405 9.61500E+01 4.74020E+01 0.00000E+00
 -1      1406 9.99000E+01 4.87010E+01 0.00000E+00
 -1      1407 1.01400E+02 4.87010E+01 0.00000E+00
 -1      1408 9.91500E+01 4.74020E+01 0.00000E+00
 -1      1409 1.02900E+02 4.87010E+01 0.00000E+00
 -1      1410 1.04400E+02 4.87010E+01 0.00000E+00
 -1      1411 1.02150E+02 4.74020E+01 0.00000E+00
 -1      1412 1.05900E+02 4.87010E+01 0.00000E+00
 -1      1413 1.07400E+02 4.87010E+01 0.00000E+00
 -1      1414 1.05150E+02 4.74020E+01 0.00000E+00
 -1      1415 1.08900E+02 4.87010E+01 0.00000E+00
 -1      1416 1.10400E+02 4.87010E+01 0.00000E+00
 -1      1417 1.08150E+02 4.74020E+01 0.00000E+00
 -1      1418 1.11900E+02 4.87010E+01 0.00000E+00
 -1      1419 1.13400E+02 4.87010E+01 0.00000E+00
 -1      1420 1.11150E+02 4.74020E+01 0.00000E+00
 -1      1421 1.14900E+02 4.87010E+01 0.00000E+00
 -1      1422 1.16400E+02 4.87010E+01 0.00000E+00
 -1      1423 1.14150E+02 4.74020E+01 0.00000E+00
 -1      1424 1.17900E+02 4.87010E+01 0.00000E+00
 -1      1425 1.19400E+02 4.87010E+01 0.00000E+00
 -1      1426 1.17150E+02 4.74020E+01 0.00000E+00
 -1      1427 1.20900E+02 4.87010E+01 0.00000E+00
 -1      1428 1.22400E+02 4.87010E+01 0.00000E+00
 -1      1429 1.20150E+02 4.74020E+01 0.00000E+00
 -1      1430 1.23900E+02 4.87010E+01 0.00000E+00
 -1      1431 1.25400E+02 4.87010E+01 0.00000E+00
 -1      1432 1.23150E+02 4.74020E+01 0.00000E+00
 -1      1433 1.26900E+02 4.87010E+01 0.00000E+00
 -1      1434 1.28400E+02 4.87010E+01 0.00000E+00
 -1      1435 1.26150E+02 4.74020E+01 0.00000E+00
 -1      1436 1.29900E+02 4.87010E+01 0.00000E+00
 -1      1437 1.31400E+02 4.87010E+01 0.00000E+00
 -1      1438 1.29150E+02 4.74020E+01 0.00000E+00
 -1      1439 1.32900E+02 4.87010E+01 0.00000E+00
 -1      1440 1.34400E+02 4.87010E+01 0.00000E+00
 -1      1441 1.32150E+02 4.74020E+01 0.00000E+00
 -1      1442 1.35900E+02 4.87010E+01 0.00000E+00
 -1      1443 1.37400E+02 4.87010E+01 0.00000E+00
 -1      1444 1.35150E+02 4.74020E+01 0.00000E+00
 -1      1445 1.38900E+02 4.87010E+01 0.00000E+00
 -1      1446 1.40400E+02 4.87010E+01 0.00000E+00
 -1      1447 1.38150E+02 4.74020E+01 0.00000E+00
 -1      1448 1.41900E+02 4.87010E+01 0.00000E+00
 -1      1449 1.43400E+02 4.87010E+01 0.00000E+00
 -1      1450 1.41150E+02 4.74020E+01 0.00000E+00
 -1      1451 1.44900E+02 4.87010E+01 0.00000E+00
 -1      1452 1.46400E+02 4.87010E+01 0.00000E+00
 -1      1453 1.44150E+02 4.74020E+01 0.00000E+00
 -1      1454 1.48575E+02 4.85500E+01 0.00000E+00
 -1      1455 1.47825E+02 4.72510E+01 0.00000E+00
 -1      1456 6.01200E+00 1.09375E+00 0.00000E+00
 -1      1457 4.51200E+00 1.09375E+00 0.00000E+00
 -1      1458 4.37400E+00 2.18750E+00 0.00000E+00
 -1      1459 9.01200E+00 1.09375E+00 0.00000E+00
 -1      1460 7.51200E+00 1.09375E+00 0.00000E+00
 -1      1461 7.37400E+00 2.18750E+00 0.00000E+00
 -1      1462 1.20120E+01 1.09375E+00 0.00000E+00
 -1      1463 1.05120E+01 1.09375E+00 0.00000E+00
 -1      1464 1.03740E+01 2.18750E+00 0.00000E+00
 -1      1465 1.50120E+01 1.09375E+00 0.00000E+00
 -1      1466 1.35120E+01 1.09375E+00 0.00000E+00
 -1      1467 1.33740E+01 2.18750E+00 0.00000E+00
 -1      1468 1.80120E+01 1.09375E+00 0.00000E+00
 -1      1469 1.65120E+01 1.09375E+00 0.00000E+00
 -1      1470 1.63740E+01 2.18750E+00 0.00000E+00
 -1      1471 2.10120E+01 1.09375E+00 0.00000E+00
 -1      1472 1.95120E+01 1.09375E+00 0.00000E+00
 -1      1473 1.93740E+01 2.18750E+00 0.00000E+00
 -1      1474 2.41620E+01 1.09375E+00 0.00000E+00
 -1      1475 2.25870E+01 1.09375E+00 0.00000E+00
 -1      1476 2.24490E+01 2.18750E+00 0.00000E+00
 -1      1477 2.71620E+01 1.09375E+00 0.00000E+00
 -1      1478 2.56620E+01 1.09375E+00 0.00000E+00
 -1      1479 2.55240E+01 2.18750E+00 0.00000E+00
 -1      1480 3.01620E+01 1.09375E+00 0.00000E+00
 -1      1481 2.86620E+01 1.09375E+00 0.00000E+00
 -1      1482 2.85240E+01 2.18750E+00 0.00000E+00
 -1      1483 3.31620E+01 1.09375E+00 0.00000E+00
 -1      1484 3.16620E+01 1.09375E+00 0.00000E+00
 -1      1485 3.15240E+01 2.18750E+00 0.00000E+00
 -1      1486 3.61620E+01 1.09375E+00 0.00000E+00
 -1      1487 3.46620E+01 1.09375E+00 0.00000E+00
 -1      1488 3.45240E+01 2.18750E+00 0.00000E+00
 -1      1489 3.91620E+01 1.09375E+00 0.00000E+00
 -1      1490 3.76620E+01 1.09375E+00 0.00000E+00
 -1      1491 3.75240E+01 2.18750E+00 0.00000E+00
 -1      1492 4.21620E+01 1.09375E+00 0.00000E+00
 -1      1493 4.06620E+01 1.09375E+00 0.00000E+00
 -1      1494 4.05240E+01 2.18750E+00 0.00000E+00
 -1      1495 4.53120E+01 1.09375E+00 0.00000E+00
 -1      1496 4.37370E+01 1.09375E+00 0.00000E+00
 -1      1497 4.35990E+01 2.18750E+00 0.00000E+00
 -1      1498 4.83120E+01 1.09375E+00 0.00000E+00
 -1      1499 4.68120E+01 1.09375E+00 0.00000E+00
 -1      1500 4.66740E+01 2.18750E+00 0.00000E+00
 -1      1501 5.13120E+01 1.09375E+00 0.00000E+00
 -1      1502 4.98120E+01 1.09375E+00 0.00000E+00
 -1      1503 4.96740E+01 2.18750E+00 0.00000E+00
 -1      1504 5.43120E+01 1.09375E+00 0.00000E+00
 -1      1505 5.28120E+01 1.09375E+00 0.00000E+00
 -1      1506 5.26740E+01 2.18750E+00 0.00000E+00
 -1      1507 5.73120E+01 1.09375E+00 0.00000E+00
 -1      1508 5.58120E+01 1.09375E+00 0.00000E+00
 -1      1509 5.56740E+01 2.18750E+00 0.00000E+00
 -1      1510 6.03120E+01 1.09375E+00 0.00000E+00
 -1      1511 5.88120E+01 1.09375E+00 0.00000E+00
 -1      1512 5.86740E+01 2.18750E+00 0.00000E+00
 -1      1513 6.33120E+01 1.09375E+00 0.00000E+00
 -1      1514 6.18120E+01 1.09375E+00 0.00000E+00
 -1      1515 6.16740E+01 2.18750E+00 0.00000E+00
 -1      1516 6.64620E+01 1.09375E+00 0.00000E+00
 -1      1517 6.48870E+01 1.09375E+00 0.00000E+00
 -1      1518 6.47490E+01 2.18750E+00 0.00000E+00
 -1      1519 6.94620E+01 1.09375E+00 0.00000E+00
 -1      1520 6.79620E+01 1.09375E+00 0.00000E+00
 -1      1521 6.78240E+01 2.18750E+00 0.00000E+00
 -1      1522 7.24620E+01 1.09375E+00 0.00000E+00
 -1      1523 7.09620E+01 1.09375E+00 0.00000E+00
 -1      1524 7.08240E+01 2.18750E+00 0.00000E+00
 -1      1525 7.54620E+01 1.09375E+00 0.00000E+00
 -1      1526 7.39620E+01 1.09375E+00 0.00000E+00
 -1      1527 7.38240E+01 2.18750E+00 0.00000E+00
 -1      1528 7.84620E+01 1.09375E+00 0.00000E+00
 -1      1529 7.69620E+01 1.09375E+00 0.00000E+00
 -1      1530 7.68240E+01 2.18750E+00 0.00000E+00
 -1      1531 8.14620E+01 1.09375E+00 0.00000E+00
 -1      1532 7.99620E+01 1.09375E+00 0.00000E+00
 -1      1533 7.98240E+01 2.18750E+00 0.00000E+00
 -1      1534 8.44620E+01 1.09375E+00 0.00000E+00
 -1      1535 8.29620E+01 1.09375E+00 0.00000E+00
 -1      1536 8.28240E+01 2.18750E+00 0.00000E+00
 -1      1537 8.76120E+01 1.09375E+00 0.00000E+00
 -1      1538 8.60370E+01 1.09375E+00 0.00000E+00
 -1      1539 8.58990E+01 2.18750E+00 0.00000E+00
 -1      1540 9.06120E+01 1.09375E+00 0.00000E+00
 -1      1541 8.91120E+01 1.09375E+00 0.00000E+00
 -1      1542 8.89740E+01 2.18750E+00 0.00000E+00
 -1      1543 9.36120E+01 1.09375E+00 0.00000E+00
 -1      1544 9.21120E+01 1.09375E+00 0.00000E+00
 -1      1545 9.19740E+01 2.18750E+00 0.00000E+00
 -1      1546 9.66120E+01 1.09375E+00 0.00000E+00
 -1      1547 9.51120E+01 1.09375E+00 0.00000E+00
 -1      1548 9.49740E+01 2.18750E+00 0.00000E+00
 -1      1549 9.93120E+01 1.09375E+00 0.00000E+00
 -1      1550 9.79620E+01 1.09375E+00 0.00000E+00
 -1      1551 9.78240E+01 2.18750E+00 0.00000E+00
 -1      1552 1.02162E+02 1.09375E+00 0.00000E+00
 -1      1553 1.00737E+02 1.09375E+00 0.00000E+00
 -1      1554 1.00599E+02 2.18750E+00 0.00000E+00
 -1      1555 1.05162E+02 1.09375E+00 0.00000E+00
 -1      1556 1.03662E+02 1.09375E+00 0.00000E+00
 -1      1557 1.03524E+02 2.18750E+00 0.00000E+00
 -1      1558 1.08012E+02 1.09375E+00 0.00000E+00
 -1      1559 1.06587E+02 1.09375E+00 0.00000E+00
 -1      1560 1.06449E+02 2.18750E+00 0.00000E+00
 -1      1561 1.10712E+02 1.09375E+00 0.00000E+00
 -1      1562 1.09362E+02 1.09375E+00 0.00000E+00
 -1      1563 1.09224E+02 2.18750E+00 0.00000E+00
 -1      1564 1.13712E+02 1.09375E+00 0.00000E+00
 -1      1565 1.12212E+02 1.09375E+00 0.00000E+00
 -1      1566 1.12074E+02 2.18750E+00 0.00000E+00
 -1      1567 1.16712E+02 1.09375E+00 0.00000E+00
 -1      1568 1.15212E+02 1.09375E+00 0.00000E+00
 -1      1569 1.15074E+02 2.18750E+00 0.00000E+00
 -1      1570 1.19712E+02 1.09375E+00 0.00000E+00
 -1      1571 1.18212E+02 1.09375E+00 0.00000E+00
 -1      1572 1.18074E+02 2.18750E+00 0.00000E+00
 -1      1573 1.22712E+02 1.09375E+00 0.00000E+00
 -1      1574 1.21212E+02 1.09375E+00 0.00000E+00
 -1      1575 1.21074E+02 2.18750E+00 0.00000E+00
 -1      1576 1.25712E+02 1.09375E+00 0.00000E+00
 -1      1577 1.24212E+02 1.09375E+00 0.00000E+00
 -1      1578 1.24074E+02 2.18750E+00 0.00000E+00
 -1      1579 1.28862E+02 1.09375E+00 0.00000E+00
 -1      1580 1.27287E+02 1.09375E+00 0.00000E+00
 -1      1581 1.27149E+02 2.18750E+00 0.00000E+00
 -1      1582 1.31862E+02 1.09375E+00 0.00000E+00
 -1      1583 1.30362E+02 1.09375E+00 0.00000E+00
 -1      1584 1.30224E+02 2.18750E+00 0.00000E+00
 -1      1585 1.34862E+02 1.09375E+00 0.00000E+00
 -1      1586 1.33362E+02 1.09375E+00 0.00000E+00
 -1      1587 1.33224E+02 2.18750E+00 0.00000E+00
 -1      1588 1.37862E+02 1.09375E+00 0.00000E+00
 -1      1589 1.36362E+02 1.09375E+00 0.00000E+00
 -1      1590 1.36224E+02 2.18750E+00 0.00000E+00
 -1      1591 1.40862E+02 1.09375E+00 0.00000E+00
 -1      1592 1.39362E+02 1.09375E+00 0.00000E+00
 -1      1593 1.39224E+02 2.18750E+00 0.00000E+00
 -1      1594 1.43862E+02 1.09375E+00 0.00000E+00
 -1      1595 1.42362E+02 1.09375E+00 0.00000E+00
 -1      1596 1.42224E+02 2.18750E+00 0.00000E+00
 -1      1597 1.46862E+02 1.09375E+00 0.00000E+00
 -1      1598 1.45362E+02 1.09375E+00 0.00000E+00
 -1      1599 1.45224E+02 2.18750E+00 0.00000E+00
 -1      1600 1.48500E+02 1.47500E+00 0.00000E+00
 -1      1601 1.48701E+02 5.16250E+00 0.00000E+00
 -1      1602 1.48701E+02 3.68750E+00 0.00000E+00
 -1      1603 1.48701E+02 8.11250E+00 0.00000E+00
 -1      1604 1.48701E+02 6.63750E+00 0.00000E+00
 -1      1605 1.47402E+02 5.90000E+00 0.00000E+00
 -1      1606 1.48701E+02 1.10625E+01 0.00000E+00
 -1      1607 1.48701E+02 9.58750E+00 0.00000E+00
 -1      1608 1.47402E+02 8.85000E+00 0.00000E+00
 -1      1609 1.48701E+02 1.40125E+01 0.00000E+00
 -1      1610 1.48701E+02 1.25375E+01 0.00000E+00
 -1      1611 1.47402E+02 1.18000E+01 0.00000E+00
 -1      1612 1.48701E+02 1.69125E+01 0.00000E+00
 -1      1613 1.48701E+02 1.54625E+01 0.00000E+00
 -1      1614 1.47402E+02 1.47250E+01 0.00000E+00
 -1      1615 1.48701E+02 1.98625E+01 0.00000E+00
 -1      1616 1.48701E+02 1.83875E+01 0.00000E+00
 -1      1617 1.47402E+02 1.76500E+01 0.00000E+00
 -1      1618 1.48701E+02 2.28125E+01 0.00000E+00
 -1      1619 1.48701E+02 2.13375E+01 0.00000E+00
 -1      1620 1.47402E+02 2.06000E+01 0.00000E+00
 -1      1621 1.48701E+02 2.57625E+01 0.00000E+00
 -1      1622 1.48701E+02 2.42875E+01 0.00000E+00
 -1      1623 1.47402E+02 2.35500E+01 0.00000E+00
 -1      1624 1.48701E+02 2.87125E+01 0.00000E+00
 -1      1625 1.48701E+02 2.72375E+01 0.00000E+00
 -1      1626 1.47402E+02 2.65000E+01 0.00000E+00
 -1      1627 1.48701E+02 3.16625E+01 0.00000E+00
 -1      1628 1.48701E+02 3.01875E+01 0.00000E+00
 -1      1629 1.47402E+02 2.94500E+01 0.00000E+00
 -1      1630 1.48701E+02 3.45625E+01 0.00000E+00
 -1      1631 1.48701E+02 3.31125E+01 0.00000E+00
 -1      1632 1.47402E+02 3.23750E+01 0.00000E+00
 -1      1633 1.48701E+02 3.75125E+01 0.00000E+00
 -1      1634 1.48701E+02 3.60375E+01 0.00000E+00
 -1      1635 1.47402E+02 3.53000E+01 0.00000E+00
 -1      1636 1.48701E+02 4.04625E+01 0.00000E+00
 -1      1637 1.48701E+02 3.89875E+01 0.00000E+00
 -1      1638 1.47402E+02 3.82500E+01 0.00000E+00
 -1      1639 1.48701E+02 4.34125E+01 0.00000E+00
 -1      1640 1.48701E+02 4.19375E+01 0.00000E+00
 -1      1641 1.47402E+02 4.12000E+01 0.00000E+00
 -1      1642 1.48263E+02 4.60692E+01 0.00000E+00
 -1      1643 1.48263E+02 4.45942E+01 0.00000E+00
 -1      1644 1.46964E+02 4.38568E+01 0.00000E+00
 -1      1645 1.46088E+02 4.62202E+01 0.00000E+00
 -1      1646 1.11921E+02 1.36742E+01 0.00000E+00
 -1      1647 1.12003E+02 1.44294E+01 0.00000E+00
 -1      1648 1.11449E+02 1.22012E+01 0.00000E+00
 -1      1649 1.11663E+02 1.28558E+01 0.00000E+00
 -1      1650 1.10772E+02 1.08433E+01 0.00000E+00
 -1      1651 1.11119E+02 1.14567E+01 0.00000E+00
 -1      1652 1.09909E+02 9.48341E+00 0.00000E+00
 -1      1653 1.10403E+02 1.00433E+01 0.00000E+00
 -1      1654 1.08613E+02 8.55988E+00 0.00000E+00
 -1      1655 1.09183E+02 8.98351E+00 0.00000E+00
 -1      1656 1.07209E+02 7.77312E+00 0.00000E+00
 -1      1657 1.07889E+02 8.08516E+00 0.00000E+00
 -1      1658 1.05640E+02 7.41439E+00 0.00000E+00
 -1      1659 1.06355E+02 7.57306E+00 0.00000E+00
 -1      1660 1.04031E+02 7.31362E+00 0.00000E+00
 -1      1661 1.04780E+02 7.31832E+00 0.00000E+00
 -1      1662 1.02420E+02 7.51542E+00 0.00000E+00
 -1      1663 1.03153E+02 7.36070E+00 0.00000E+00
 -1      1664 1.00969E+02 8.10361E+00 0.00000E+00
 -1      1665 1.01618E+02 7.81627E+00 0.00000E+00
 -1      1666 9.96951E+01 8.90604E+00 0.00000E+00
 -1      1667 1.00258E+02 8.50681E+00 0.00000E+00
 -1      1668 9.86095E+01 9.94202E+00 0.00000E+00
 -1      1669 9.90855E+01 9.43689E+00 0.00000E+00
 -1      1670 9.77510E+01 1.11672E+01 0.00000E+00
 -1      1671 9.81159E+01 1.05821E+01 0.00000E+00
 -1      1672 9.69832E+01 1.25159E+01 0.00000E+00
 -1      1673 9.72329E+01 1.18456E+01 0.00000E+00
 -1      1674 9.67675E+01 1.39158E+01 0.00000E+00
 -1      1675 9.68753E+01 1.32159E+01 0.00000E+00
 -1      1676 9.62751E+01 1.26106E+01 0.00000E+00
 -1      1677 9.68143E+01 1.56067E+01 0.00000E+00
 -1      1678 9.67796E+01 1.49028E+01 0.00000E+00
 -1      1679 9.71064E+01 1.70863E+01 0.00000E+00
 -1      1680 9.69352E+01 1.64143E+01 0.00000E+00
 -1      1681 9.77121E+01 1.85200E+01 0.00000E+00
 -1      1682 9.73935E+01 1.78653E+01 0.00000E+00
 -1      1683 9.85360E+01 1.98610E+01 0.00000E+00
 -1      1684 9.80930E+01 1.92906E+01 0.00000E+00
 -1      1685 9.97094E+01 2.09184E+01 0.00000E+00
 -1      1686 9.91585E+01 2.04509E+01 0.00000E+00
 -1      1687 1.01091E+02 2.18525E+01 0.00000E+00
 -1      1688 1.00404E+02 2.14869E+01 0.00000E+00
 -1      1689 1.02746E+02 2.23232E+01 0.00000E+00
 -1      1690 1.01988E+02 2.21174E+01 0.00000E+00
 -1      1691 1.04378E+02 2.24577E+01 0.00000E+00
 -1      1692 1.03637E+02 2.24233E+01 0.00000E+00
 -1      1693 1.06053E+02 2.23047E+01 0.00000E+00
 -1      1694 1.05276E+02 2.24401E+01 0.00000E+00
 -1      1695 1.07628E+02 2.17131E+01 0.00000E+00
 -1      1696 1.06918E+02 2.20096E+01 0.00000E+00
 -1      1697 1.09003E+02 2.08678E+01 0.00000E+00
 -1      1698 1.08399E+02 2.12905E+01 0.00000E+00
 -1      1699 1.10237E+02 1.97897E+01 0.00000E+00
 -1      1700 1.09721E+02 2.03485E+01 0.00000E+00
 -1      1701 1.11085E+02 1.83640E+01 0.00000E+00
 -1      1702 1.10703E+02 1.90197E+01 0.00000E+00
 -1      1703 1.11670E+02 1.68681E+01 0.00000E+00
 -1      1704 1.11443E+02 1.75680E+01 0.00000E+00
 -1      1705 1.11923E+02 1.53072E+01 0.00000E+00
 -1      1706 1.11848E+02 1.60318E+01 0.00000E+00
 -1      1707 1.10010E+02 8.75136E+00 0.00000E+00
 -1      1708 1.11104E+02 1.00512E+01 0.00000E+00
 -1      1709 1.48362E+02 2.56875E+00 0.00000E+00
 -1      1710 1.47063E+02 3.30625E+00 0.00000E+00
 -1      1711 1.12390E+02 1.31585E+01 0.00000E+00
 -1      1712 1.11802E+02 1.15956E+01 0.00000E+00
 -1      1713 1.12568E+02 1.48548E+01 0.00000E+00
 -1      1714 1.08561E+02 7.77675E+00 0.00000E+00
 -1      1715 1.06983E+02 7.10198E+00 0.00000E+00
 -1      1716 1.05269E+02 6.80585E+00 0.00000E+00
 -1      1717 1.03531E+02 6.75687E+00 0.00000E+00
 -1      1718 1.01850E+02 7.10480E+00 0.00000E+00
 -1      1719 1.00337E+02 7.80885E+00 0.00000E+00
 -1      1720 9.90160E+01 8.74290E+00 0.00000E+00
 -1      1721 9.79127E+01 9.91380E+00 0.00000E+00
 -1      1722 9.69010E+01 1.12323E+01 0.00000E+00
 -1      1723 9.63124E+01 1.60923E+01 0.00000E+00
 -1      1724 9.67205E+01 1.76789E+01 0.00000E+00
 -1      1725 9.73886E+01 1.92284E+01 0.00000E+00
 -1      1726 9.83921E+01 2.05889E+01 0.00000E+00
 -1      1727 9.97093E+01 2.17473E+01 0.00000E+00
 -1      1728 1.01301E+02 2.25808E+01 0.00000E+00
 -1      1729 1.03088E+02 2.29459E+01 0.00000E+00
 -1      1730 1.04878E+02 2.30284E+01 0.00000E+00
 -1      1731 1.06641E+02 2.27158E+01 0.00000E+00
 -1      1732 1.08278E+02 2.19982E+01 0.00000E+00
 -1      1733 1.09767E+02 2.10563E+01 0.00000E+00
 -1      1734 1.10952E+02 1.97671E+01 0.00000E+00
 -1      1735 1.11775E+02 1.82012E+01 0.00000E+00
 -1      1736 1.12311E+02 1.65689E+01 0.00000E+00
 -1      1737 2.87400E+00 4.77875E+01 0.00000E+00
 -1      1738 9.61794E+01 1.42976E+01 0.00000E+00
 -1      1739 3.89700E+00 4.04125E+01 0.00000E+00
 -1      1740 3.89700E+00 4.18875E+01 0.00000E+00
 -1      1741 3.89700E+00 4.33625E+01 0.00000E+00
 -1      1742 3.89700E+00 4.48375E+01 0.00000E+00
 -1      1743 5.19600E+00 4.26250E+01 0.00000E+00
 -1      1744 3.89700E+00 3.45500E+01 0.00000E+00
 -1      1745 3.89700E+00 3.60000E+01 0.00000E+00
 -1      1746 3.89700E+00 3.16000E+01 0.00000E+00
 -1      1747 3.89700E+00 3.30750E+01 0.00000E+00
 -1      1748 5.19600E+00 3.38000E+01 0.00000E+00
 -1      1749 3.89700E+00 2.86500E+01 0.00000E+00
 -1      1750 3.89700E+00 3.01250E+01 0.00000E+00
 -1      1751 5.19600E+00 3.08500E+01 0.00000E+00
 -1      1752 3.89700E+00 2.57000E+01 0.00000E+00
 -1      1753 3.89700E+00 2.71750E+01 0.00000E+00
 -1      1754 5.19600E+00 2.79000E+01 0.00000E+00
 -1      1755 3.89700E+00 2.27500E+01 0.00000E+00
 -1      1756 3.89700E+00 2.42250E+01 0.00000E+00
 -1      1757 5.19600E+00 2.49500E+01 0.00000E+00
 -1      1758 3.89700E+00 1.98000E+01 0.00000E+00
 -1      1759 3.89700E+00 2.12750E+01 0.00000E+00
 -1      1760 5.19600E+00 2.20000E+01 0.00000E+00
 -1      1761 3.89700E+00 1.69000E+01 0.00000E+00
 -1      1762 3.89700E+00 1.83500E+01 0.00000E+00
 -1      1763 5.19600E+00 1.90750E+01 0.00000E+00
 -1      1764 3.89700E+00 1.39500E+01 0.00000E+00
 -1      1765 3.89700E+00 1.54250E+01 0.00000E+00
 -1      1766 5.19600E+00 1.61500E+01 0.00000E+00
 -1      1767 3.89700E+00 1.10000E+01 0.00000E+00
 -1      1768 3.89700E+00 1.24750E+01 0.00000E+00
 -1      1769 5.19600E+00 1.32000E+01 0.00000E+00
 -1      1770 3.89700E+00 8.05000E+00 0.00000E+00
 -1      1771 3.89700E+00 9.52500E+00 0.00000E+00
 -1      1772 5.19600E+00 1.02500E+01 0.00000E+00
 -1      1773 3.89700E+00 5.10000E+00 0.00000E+00
 -1      1774 3.89700E+00 6.57500E+00 0.00000E+00
 -1      1775 5.19600E+00 7.30000E+00 0.00000E+00
 -1      1776 4.20450E+00 3.09687E+00 0.00000E+00
 -1      1777 4.06650E+00 4.19063E+00 0.00000E+00
 -1      1778 5.36550E+00 4.91563E+00 0.00000E+00
 -1      1779 5.70450E+00 3.09687E+00 0.00000E+00
 -1      1780 3.62400E+00 4.64885E+01 0.00000E+00
 -1      1781 8.70450E+00 3.09687E+00 0.00000E+00
 -1      1782 7.20450E+00 3.09687E+00 0.00000E+00
 -1      1783 7.03500E+00 4.00625E+00 0.00000E+00
 -1      1784 9.54955E+01 1.47996E+01 0.00000E+00
 -1      1785 9.54834E+01 1.38125E+01 0.00000E+00
 -1      1786 4.92300E+00 4.57510E+01 0.00000E+00
 -1      1787 8.40000E+00 4.61030E+01 0.00000E+00
 -1      1788 9.90000E+00 4.61030E+01 0.00000E+00
 -1      1789 1.14000E+01 4.61030E+01 0.00000E+00
 -1      1790 1.29000E+01 4.61030E+01 0.00000E+00
 -1      1791 1.06500E+01 4.48040E+01 0.00000E+00
 -1      1792 1.44000E+01 4.61030E+01 0.00000E+00
 -1      1793 1.59000E+01 4.61030E+01 0.00000E+00
 -1      1794 1.36500E+01 4.48040E+01 0.00000E+00
 -1      1795 1.74000E+01 4.61030E+01 0.00000E+00
 -1      1796 1.89000E+01 4.61030E+01 0.00000E+00
 -1      1797 1.66500E+01 4.48040E+01 0.00000E+00
 -1      1798 2.04000E+01 4.61030E+01 0.00000E+00
 -1      1799 2.19000E+01 4.61030E+01 0.00000E+00
 -1      1800 1.96500E+01 4.48040E+01 0.00000E+00
 -1      1801 2.34000E+01 4.61030E+01 0.00000E+00
 -1      1802 2.49000E+01 4.61030E+01 0.00000E+00
 -1      1803 2.26500E+01 4.48040E+01 0.00000E+00
 -1      1804 2.64000E+01 4.61030E+01 0.00000E+00
 -1      1805 2.79000E+01 4.61030E+01 0.00000E+00
 -1      1806 2.56500E+01 4.48040E+01 0.00000E+00
 -1      1807 2.94000E+01 4.61030E+01 0.00000E+00
 -1      1808 3.09000E+01 4.61030E+01 0.00000E+00
 -1      1809 2.86500E+01 4.48040E+01 0.00000E+00
 -1      1810 3.24000E+01 4.61030E+01 0.00000E+00
 -1      1811 3.39000E+01 4.61030E+01 0.00000E+00
 -1      1812 3.16500E+01 4.48040E+01 0.00000E+00
 -1      1813 3.54000E+01 4.61030E+01 0.00000E+00
 -1      1814 3.69000E+01 4.61030E+01 0.00000E+00
 -1      1815 3.46500E+01 4.48040E+01 0.00000E+00
 -1      1816 3.84000E+01 4.61030E+01 0.00000E+00
 -1      1817 3.99000E+01 4.61030E+01 0.00000E+00
 -1      1818 3.76500E+01 4.48040E+01 0.00000E+00
 -1      1819 4.14000E+01 4.61030E+01 0.00000E+00
 -1      1820 4.29000E+01 4.61030E+01 0.00000E+00
 -1      1821 4.06500E+01 4.48040E+01 0.00000E+00
 -1      1822 4.44000E+01 4.61030E+01 0.00000E+00
 -1      1823 4.59000E+01 4.61030E+01 0.00000E+00
 -1      1824 4.36500E+01 4.48040E+01 0.00000E+00
 -1      1825 4.74000E+01 4.61030E+01 0.00000E+00
 -1      1826 4.89000E+01 4.61030E+01 0.00000E+00
 -1      1827 4.66500E+01 4.48040E+01 0.00000E+00
 -1      1828 5.04000E+01 4.61030E+01 0.00000E+00
 -1      1829 5.19000E+01 4.61030E+01 0.00000E+00
 -1      1830 4.96500E+01 4.48040E+01 0.00000E+00
 -1      1831 5.34000E+01 4.61030E+01 0.00000E+00
 -1      1832 5.49000E+01 4.61030E+01 0.00000E+00
 -1      1833 5.26500E+01 4.48040E+01 0.00000E+00
 -1      1834 5.64000E+01 4.61030E+01 0.00000E+00
 -1      1835 5.79000E+01 4.61030E+01 0.00000E+00
 -1      1836 5.56500E+01 4.48040E+01 0.00000E+00
 -1      1837 5.94000E+01 4.61030E+01 0.00000E+00
 -1      1838 6.09000E+01 4.61030E+01 0.00000E+00
 -1      1839 5.86500E+01 4.48040E+01 0.00000E+00
 -1      1840 6.24000E+01 4.61030E+01 0.00000E+00
 -1      1841 6.39000E+01 4.61030E+01 0.00000E+00
 -1      1842 6.16500E+01 4.48040E+01 0.00000E+00
 -1      1843 6.54000E+01 4.61030E+01 0.00000E+00
 -1      1844 6.69000E+01 4.61030E+01 0.00000E+00
 -1      1845 6.46500E+01 4.48040E+01 0.00000E+00
 -1      1846 6.84000E+01 4.61030E+01 0.00000E+00
 -1      1847 6.99000E+01 4.61030E+01 0.00000E+00
 -1      1848 6.76500E+01 4.48040E+01 0.00000E+00
 -1      1849 7.14000E+01 4.61030E+01 0.00000E+00
 -1      1850 7.29000E+01 4.61030E+01 0.00000E+00
 -1      1851 7.06500E+01 4.48040E+01 0.00000E+00
 -1      1852 7.44000E+01 4.61030E+01 0.00000E+00
 -1      1853 7.59000E+01 4.61030E+01 0.00000E+00
 -1      1854 7.36500E+01 4.48040E+01 0.00000E+00
 -1      1855 7.74000E+01 4.61030E+01 0.00000E+00
 -1      1856 7.89000E+01 4.61030E+01 0.00000E+00
 -1      1857 7.66500E+01 4.48040E+01 0.00000E+00
 -1      1858 8.04000E+01 4.61030E+01 0.00000E+00
 -1      1859 8.19000E+01 4.61030E+01 0.00000E+00
 -1      1860 7.96500E+01 4.48040E+01 0.00000E+00
 -1      1861 8.34000E+01 4.61030E+01 0.00000E+00
 -1      1862 8.49000E+01 4.61030E+01 0.00000E+00
 -1      1863 8.26500E+01 4.48040E+01 0.00000E+00
 -1      1864 8.64000E+01 4.61030E+01 0.00000E+00
 -1      1865 8.79000E+01 4.61030E+01 0.00000E+00
 -1      1866 8.56500E+01 4.48040E+01 0.00000E+00
 -1      1867 8.94000E+01 4.61030E+01 0.00000E+00
 -1      1868 9.09000E+01 4.61030E+01 0.00000E+00
 -1      1869 8.86500E+01 4.48040E+01 0.00000E+00
 -1      1870 9.24000E+01 4.61030E+01 0.00000E+00
 -1      1871 9.39000E+01 4.61030E+01 0.00000E+00
 -1      1872 9.16500E+01 4.48040E+01 0.00000E+00
 -1      1873 9.54000E+01 4.61030E+01 0.00000E+00
 -1      1874 9.69000E+01 4.61030E+01 0.00000E+00
 -1      1875 9.46500E+01 4.48040E+01 0.00000E+00
 -1      1876 9.84000E+01 4.61030E+01 0.00000E+00
 -1      1877 9.99000E+01 4.61030E+01 0.00000E+00
 -1      1878 9.76500E+01 4.48040E+01 0.00000E+00
 -1      1879 1.01400E+02 4.61030E+01 0.00000E+00
 -1      1880 1.02900E+02 4.61030E+01 0.00000E+00
 -1      1881 1.00650E+02 4.48040E+01 0.00000E+00
 -1      1882 1.04400E+02 4.61030E+01 0.00000E+00
 -1      1883 1.05900E+02 4.61030E+01 0.00000E+00
 -1      1884 1.03650E+02 4.48040E+01 0.00000E+00
 -1      1885 1.07400E+02 4.61030E+01 0.00000E+00
 -1      1886 1.08900E+02 4.61030E+01 0.00000E+00
 -1      1887 1.06650E+02 4.48040E+01 0.00000E+00
 -1      1888 1.10400E+02 4.61030E+01 0.00000E+00
 -1      1889 1.11900E+02 4.61030E+01 0.00000E+00
 -1      1890 1.09650E+02 4.48040E+01 0.00000E+00
 -1      1891 1.13400E+02 4.61030E+01 0.00000E+00
 -1      1892 1.14900E+02 4.61030E+01 0.00000E+00
 -1      1893 1.12650E+02 4.48040E+01 0.00000E+00
 -1      1894 1.16400E+02 4.61030E+01 0.00000E+00
 -1      1895 1.17900E+02 4.61030E+01 0.00000E+00
 -1      1896 1.15650E+02 4.48040E+01 0.00000E+00
 -1      1897 1.19400E+02 4.61030E+01 0.00000E+00
 -1      1898 1.20900E+02 4.61030E+01 0.00000E+00
 -1      1899 1.18650E+02 4.48040E+01 0.00000E+00
 -1      1900 1.22400E+02 4.61030E+01 0.00000E+00
 -1      1901 1.23900E+02 4.61030E+01 0.00000E+00
 -1      1902 1.21650E+02 4.48040E+01 0.00000E+00
 -1      1903 1.25400E+02 4.61030E+01 0.00000E+00
 -1      1904 1.26900E+02 4.61030E+01 0.00000E+00
 -1      1905 1.24650E+02 4.48040E+01 0.00000E+00
 -1      1906 1.28400E+02 4.61030E+01 0.00000E+00
 -1      1907 1.29900E+02 4.61030E+01 0.00000E+00
 -1      1908 1.27650E+02 4.48040E+01 0.00000E+00
 -1      1909 1.31400E+02 4.61030E+01 0.00000E+00
 -1      1910 1.32900E+02 4.61030E+01 0.00000E+00
 -1      1911 1.30650E+02 4.48040E+01 0.00000E+00
 -1      1912 1.34400E+02 4.61030E+01 0.00000E+00
 -1      1913 1.35900E+02 4.61030E+01 0.00000E+00
 -1      1914 1.33650E+02 4.48040E+01 0.00000E+00
 -1      1915 1.37400E+02 4.61030E+01 0.00000E+00
 -1      1916 1.38900E+02 4.61030E+01 0.00000E+00
 -1      1917 1.36650E+02 4.48040E+01 0.00000E+00
 -1      1918 1.40400E+02 4.61030E+01 0.00000E+00
 -1      1919 1.41900E+02 4.61030E+01 0.00000E+00
 -1      1920 1.39650E+02 4.48040E+01 0.00000E+00
 -1      1921 1.43244E+02 4.61616E+01 0.00000E+00
 -1      1922 1.44744E+02 4.61616E+01 0.00000E+00
 -1      1923 1.45182E+02 4.49799E+01 0.00000E+00
 -1      1924 1.42494E+02 4.48626E+01 0.00000E+00
 -1      1925 1.17045E+01 3.09687E+00 0.00000E+00
 -1      1926 1.02045E+01 3.09687E+00 0.00000E+00
 -1      1927 1.00350E+01 4.00625E+00 0.00000E+00
 -1      1928 1.47045E+01 3.09687E+00 0.00000E+00
 -1      1929 1.32045E+01 3.09687E+00 0.00000E+00
 -1      1930 1.30350E+01 4.00625E+00 0.00000E+00
 -1      1931 1.77045E+01 3.09687E+00 0.00000E+00
 -1      1932 1.62045E+01 3.09687E+00 0.00000E+00
 -1      1933 1.60350E+01 4.00625E+00 0.00000E+00
 -1      1934 2.07045E+01 3.09687E+00 0.00000E+00
 -1      1935 1.92045E+01 3.09687E+00 0.00000E+00
 -1      1936 1.90350E+01 4.00625E+00 0.00000E+00
 -1      1937 2.38545E+01 3.09687E+00 0.00000E+00
 -1      1938 2.22795E+01 3.09687E+00 0.00000E+00
 -1      1939 2.21100E+01 4.00625E+00 0.00000E+00
 -1      1940 2.68545E+01 3.09687E+00 0.00000E+00
 -1      1941 2.53545E+01 3.09687E+00 0.00000E+00
 -1      1942 2.51850E+01 4.00625E+00 0.00000E+00
 -1      1943 2.98545E+01 3.09687E+00 0.00000E+00
 -1      1944 2.83545E+01 3.09687E+00 0.00000E+00
 -1      1945 2.81850E+01 4.00625E+00 0.00000E+00
 -1      1946 3.28545E+01 3.09687E+00 0.00000E+00
 -1      1947 3.13545E+01 3.09687E+00 0.00000E+00
 -1      1948 3.11850E+01 4.00625E+00 0.00000E+00
 -1      1949 3.58545E+01 3.09687E+00 0.00000E+00
 -1      1950 3.43545E+01 3.09687E+00 0.00000E+00
 -1      1951 3.41850E+01 4.00625E+00 0.00000E+00
 -1      1952 3.88545E+01 3.09687E+00 0.00000E+00
 -1      1953 3.73545E+01 3.09687E+00 0.00000E+00
 -1      1954 3.71850E+01 4.00625E+00 0.00000E+00
 -1      1955 4.18545E+01 3.09687E+00 0.00000E+00
 -1      1956 4.03545E+01 3.09687E+00 0.00000E+00
 -1      1957 4.01850E+01 4.00625E+00 0.00000E+00
 -1      1958 4.50045E+01 3.09687E+00 0.00000E+00
 -1      1959 4.34295E+01 3.09687E+00 0.00000E+00
 -1      1960 4.32600E+01 4.00625E+00 0.00000E+00
 -1      1961 4.80045E+01 3.09687E+00 0.00000E+00
 -1      1962 4.65045E+01 3.09687E+00 0.00000E+00
 -1      1963 4.63350E+01 4.00625E+00 0.00000E+00
 -1      1964 5.10045E+01 3.09687E+00 0.00000E+00
 -1      1965 4.95045E+01 3.09687E+00 0.00000E+00
 -1      1966 4.93350E+01 4.00625E+00 0.00000E+00
 -1      1967 5.40045E+01 3.09687E+00 0.00000E+00
 -1      1968 5.25045E+01 3.09687E+00 0.00000E+00
 -1      1969 5.23350E+01 4.00625E+00 0.00000E+00
 -1      1970 5.70045E+01 3.09687E+00 0.00000E+00
 -1      1971 5.55045E+01 3.09687E+00 0.00000E+00
 -1      1972 5.53350E+01 4.00625E+00 0.00000E+00
 -1      1973 6.00045E+01 3.09687E+00 0.00000E+00
 -1      1974 5.85045E+01 3.09687E+00 0.00000E+00
 -1      1975 5.83350E+01 4.00625E+00 0.00000E+00
 -1      1976 6.30045E+01 3.09687E+00 0.00000E+00
 -1      1977 6.15045E+01 3.09687E+00 0.00000E+00
 -1      1978 6.13350E+01 4.00625E+00 0.00000E+00
 -1      1979 6.61545E+01 3.09687E+00 0.00000E+00
 -1      1980 6.45795E+01 3.09687E+00 0.00000E+00
 -1      1981 6.44100E+01 4.00625E+00 0.00000E+00
 -1      1982 6.91545E+01 3.09687E+00 0.00000E+00
 -1      1983 6.76545E+01 3.09687E+00 0.00000E+00
 -1      1984 6.74850E+01 4.00625E+00 0.00000E+00
 -1      1985 7.21545E+01 3.09687E+00 0.00000E+00
 -1      1986 7.06545E+01 3.09687E+00 0.00000E+00
 -1      1987 7.04850E+01 4.00625E+00 0.00000E+00
 -1      1988 7.51545E+01 3.09687E+00 0.00000E+00
 -1      1989 7.36545E+01 3.09687E+00 0.00000E+00
 -1      1990 7.34850E+01 4.00625E+00 0.00000E+00
 -1      1991 7.81545E+01 3.09687E+00 0.00000E+00
 -1      1992 7.66545E+01 3.09687E+00 0.00000E+00
 -1      1993 7.64850E+01 4.00625E+00 0.00000E+00
 -1      1994 8.11545E+01 3.09687E+00 0.00000E+00
 -1      1995 7.96545E+01 3.09687E+00 0.00000E+00
 -1      1996 7.94850E+01 4.00625E+00 0.00000E+00
 -1      1997 8.41545E+01 3.09687E+00 0.00000E+00
 -1      1998 8.26545E+01 3.09687E+00 0.00000E+00
 -1      1999 8.24850E+01 4.00625E+00 0.00000E+00
 -1      2000 8.73045E+01 3.09687E+00 0.00000E+00
 -1      2001 8.57295E+01 3.09687E+00 0.00000E+00
 -1      2002 8.55600E+01 4.00625E+00 0.00000E+00
 -1      2003 9.03045E+01 3.09687E+00 0.00000E+00
 -1      2004 8.88045E+01 3.09687E+00 0.00000E+00
 -1      2005 8.86350E+01 4.00625E+00 0.00000E+00
 -1      2006 9.33045E+01 3.09687E+00 0.00000E+00
 -1      2007 9.18045E+01 3.09687E+00 0.00000E+00
 -1      2008 9.16350E+01 4.00625E+00 0.00000E+00
 -1      2009 9.63045E+01 3.09687E+00 0.00000E+00
 -1      2010 9.48045E+01 3.09687E+00 0.00000E+00
 -1      2011 9.46350E+01 4.00625E+00 0.00000E+00
 -1      2012 9.90045E+01 3.09687E+00 0.00000E+00
 -1      2013 9.76545E+01 3.09687E+00 0.00000E+00
 -1      2014 9.74850E+01 4.00625E+00 0.00000E+00
 -1      2015 1.01854E+02 3.09687E+00 0.00000E+00
 -1      2016 1.00429E+02 3.09687E+00 0.00000E+00
 -1      2017 1.00260E+02 4.00625E+00 0.00000E+00
 -1      2018 1.04854E+02 3.09687E+00 0.00000E+00
 -1      2019 1.03354E+02 3.09687E+00 0.00000E+00
 -1      2020 1.03185E+02 4.00625E+00 0.00000E+00
 -1      2021 1.07704E+02 3.09687E+00 0.00000E+00
 -1      2022 1.06280E+02 3.09687E+00 0.00000E+00
 -1      2023 1.06110E+02 4.00625E+00 0.00000E+00
 -1      2024 1.10405E+02 3.09687E+00 0.00000E+00
 -1      2025 1.09054E+02 3.09687E+00 0.00000E+00
 -1      2026 1.08885E+02 4.00625E+00 0.00000E+00
 -1      2027 1.13405E+02 3.09687E+00 0.00000E+00
 -1      2028 1.11905E+02 3.09687E+00 0.00000E+00
 -1      2029 1.11735E+02 4.00625E+00 0.00000E+00
 -1      2030 1.16405E+02 3.09687E+00 0.00000E+00
 -1      2031 1.14905E+02 3.09687E+00 0.00000E+00
 -1      2032 1.14735E+02 4.00625E+00 0.00000E+00
 -1      2033 1.19405E+02 3.09687E+00 0.00000E+00
 -1      2034 1.17905E+02 3.09687E+00 0.00000E+00
 -1      2035 1.17735E+02 4.00625E+00 0.00000E+00
 -1      2036 1.22405E+02 3.09687E+00 0.00000E+00
 -1      2037 1.20905E+02 3.09687E+00 0.00000E+00
 -1      2038 1.20735E+02 4.00625E+00 0.00000E+00
 -1      2039 1.25405E+02 3.09687E+00 0.00000E+00
 -1      2040 1.23905E+02 3.09687E+00 0.00000E+00
 -1      2041 1.23735E+02 4.00625E+00 0.00000E+00
 -1      2042 1.28555E+02 3.09687E+00 0.00000E+00
 -1      2043 1.26979E+02 3.09687E+00 0.00000E+00
 -1      2044 1.26810E+02 4.00625E+00 0.00000E+00
 -1      2045 1.31555E+02 3.09687E+00 0.00000E+00
 -1      2046 1.30055E+02 3.09687E+00 0.00000E+00
 -1      2047 1.29885E+02 4.00625E+00 0.00000E+00
 -1      2048 1.34555E+02 3.09687E+00 0.00000E+00
 -1      2049 1.33055E+02 3.09687E+00 0.00000E+00
 -1      2050 1.32885E+02 4.00625E+00 0.00000E+00
 -1      2051 1.37555E+02 3.09687E+00 0.00000E+00
 -1      2052 1.36055E+02 3.09687E+00 0.00000E+00
 -1      2053 1.35885E+02 4.00625E+00 0.00000E+00
 -1      2054 1.40555E+02 3.09687E+00 0.00000E+00
 -1      2055 1.39055E+02 3.09687E+00 0.00000E+00
 -1      2056 1.38885E+02 4.00625E+00 0.00000E+00
 -1      2057 1.43555E+02 3.09687E+00 0.00000E+00
 -1      2058 1.42055E+02 3.09687E+00 0.00000E+00
 -1      2059 1.41885E+02 4.00625E+00 0.00000E+00
 -1      2060 1.46059E+02 3.20156E+00 0.00000E+00
 -1      2061 1.44559E+02 3.20156E+00 0.00000E+00
 -1      2062 1.44389E+02 4.11094E+00 0.00000E+00
 -1      2063 1.46398E+02 4.32031E+00 0.00000E+00
 -1      2064 1.46103E+02 1.25375E+01 0.00000E+00
 -1      2065 1.46103E+02 1.10625E+01 0.00000E+00
 -1      2066 1.46103E+02 9.58750E+00 0.00000E+00
 -1      2067 1.46103E+02 8.11250E+00 0.00000E+00
 -1      2068 1.44804E+02 1.03250E+01 0.00000E+00
 -1      2069 1.46250E+02 6.95391E+00 0.00000E+00
 -1      2070 1.46250E+02 5.47891E+00 0.00000E+00
 -1      2071 1.45246E+02 5.37422E+00 0.00000E+00
 -1      2072 1.44951E+02 7.69141E+00 0.00000E+00
 -1      2073 1.46103E+02 1.54375E+01 0.00000E+00
 -1      2074 1.46103E+02 1.39875E+01 0.00000E+00
 -1      2075 1.44804E+02 1.32500E+01 0.00000E+00
 -1      2076 1.46103E+02 1.83875E+01 0.00000E+00
 -1      2077 1.46103E+02 1.69125E+01 0.00000E+00
 -1      2078 1.44804E+02 1.61750E+01 0.00000E+00
 -1      2079 1.46103E+02 2.13375E+01 0.00000E+00
 -1      2080 1.46103E+02 1.98625E+01 0.00000E+00
 -1      2081 1.44804E+02 1.91250E+01 0.00000E+00
 -1      2082 1.46103E+02 2.42875E+01 0.00000E+00
 -1      2083 1.46103E+02 2.28125E+01 0.00000E+00
 -1      2084 1.44804E+02 2.20750E+01 0.00000E+00
 -1      2085 1.46103E+02 2.72375E+01 0.00000E+00
 -1      2086 1.46103E+02 2.57625E+01 0.00000E+00
 -1      2087 1.44804E+02 2.50250E+01 0.00000E+00
 -1      2088 1.46103E+02 3.01875E+01 0.00000E+00
 -1      2089 1.46103E+02 2.87125E+01 0.00000E+00
 -1      2090 1.44804E+02 2.79750E+01 0.00000E+00
 -1      2091 1.46103E+02 3.30875E+01 0.00000E+00
 -1      2092 1.46103E+02 3.16375E+01 0.00000E+00
 -1      2093 1.44804E+02 3.09000E+01 0.00000E+00
 -1      2094 1.46103E+02 3.60375E+01 0.00000E+00
 -1      2095 1.46103E+02 3.45625E+01 0.00000E+00
 -1      2096 1.44804E+02 3.38250E+01 0.00000E+00
 -1      2097 1.46103E+02 3.89875E+01 0.00000E+00
 -1      2098 1.46103E+02 3.75125E+01 0.00000E+00
 -1      2099 1.44804E+02 3.67750E+01 0.00000E+00
 -1      2100 1.46103E+02 4.19375E+01 0.00000E+00
 -1      2101 1.46103E+02 4.04625E+01 0.00000E+00
 -1      2102 1.44804E+02 3.97250E+01 0.00000E+00
 -1      2103 1.12230E+02 1.09611E+01 0.00000E+00
 -1      2104 1.12560E+02 1.17055E+01 0.00000E+00
 -1      2105 1.13462E+02 1.44934E+01 0.00000E+00
 -1      2106 1.13382E+02 1.53712E+01 0.00000E+00
 -1      2107 1.12999E+02 1.25167E+01 0.00000E+00
 -1      2108 1.13257E+02 1.33351E+01 0.00000E+00
 -1      2109 1.11494E+02 9.36116E+00 0.00000E+00
 -1      2110 1.11862E+02 1.01611E+01 0.00000E+00
 -1      2111 1.12619E+02 1.02710E+01 0.00000E+00
 -1      2112 9.55807E+01 1.28619E+01 0.00000E+00
 -1      2113 9.56885E+01 1.21619E+01 0.00000E+00
 -1      2114 9.62167E+01 1.83070E+01 0.00000E+00
 -1      2115 9.59295E+01 1.75281E+01 0.00000E+00
 -1      2116 1.10110E+02 7.82967E+00 0.00000E+00
 -1      2117 1.10836E+02 8.32957E+00 0.00000E+00
 -1      2118 3.89700E+00 3.74688E+01 0.00000E+00
 -1      2119 3.89700E+00 3.89437E+01 0.00000E+00
 -1      2120 5.19600E+00 3.96813E+01 0.00000E+00
 -1      2121 5.19600E+00 3.67438E+01 0.00000E+00
 -1      2122 1.06713E+02 6.33015E+00 0.00000E+00
 -1      2123 1.07567E+02 6.53022E+00 0.00000E+00
 -1      2124 1.04994E+02 6.13802E+00 0.00000E+00
 -1      2125 1.05854E+02 6.23409E+00 0.00000E+00
 -1      2126 1.06438E+02 5.66232E+00 0.00000E+00
 -1      2127 1.03055E+02 6.09141E+00 0.00000E+00
 -1      2128 1.03933E+02 6.04433E+00 0.00000E+00
 -1      2129 1.01148E+02 6.45227E+00 0.00000E+00
 -1      2130 1.01950E+02 6.15142E+00 0.00000E+00
 -1      2131 9.97257E+01 7.25866E+00 0.00000E+00
 -1      2132 1.00437E+02 6.85546E+00 0.00000E+00
 -1      2133 1.00537E+02 5.90208E+00 0.00000E+00
 -1      2134 9.82855E+01 8.51954E+00 0.00000E+00
 -1      2135 9.88952E+01 7.98869E+00 0.00000E+00
 -1      2136 9.70863E+01 9.78688E+00 0.00000E+00
 -1      2137 9.75799E+01 9.14683E+00 0.00000E+00
 -1      2138 9.60502E+01 1.11437E+01 0.00000E+00
 -1      2139 9.65683E+01 1.04653E+01 0.00000E+00
 -1      2140 9.62355E+01 9.69832E+00 0.00000E+00
 -1      2141 9.56905E+01 1.65983E+01 0.00000E+00
 -1      2142 9.55696E+01 1.57906E+01 0.00000E+00
 -1      2143 9.68854E+01 1.99566E+01 0.00000E+00
 -1      2144 9.65045E+01 1.91860E+01 0.00000E+00
 -1      2145 9.81423E+01 2.14759E+01 0.00000E+00
 -1      2146 9.75198E+01 2.08861E+01 0.00000E+00
 -1      2147 9.95317E+01 2.26130E+01 0.00000E+00
 -1      2148 9.88370E+01 2.20445E+01 0.00000E+00
 -1      2149 9.79648E+01 2.23416E+01 0.00000E+00
 -1      2150 1.01542E+02 2.34152E+01 0.00000E+00
 -1      2151 1.00645E+02 2.31502E+01 0.00000E+00
 -1      2152 1.03443E+02 2.38065E+01 0.00000E+00
 -1      2153 1.02552E+02 2.37064E+01 0.00000E+00
 -1      2154 1.05340E+02 2.37095E+01 0.00000E+00
 -1      2155 1.04442E+02 2.37271E+01 0.00000E+00
 -1      2156 1.07324E+02 2.33006E+01 0.00000E+00
 -1      2157 1.06458E+02 2.35957E+01 0.00000E+00
 -1      2158 1.09035E+02 2.24654E+01 0.00000E+00
 -1      2159 1.08264E+02 2.28880E+01 0.00000E+00
 -1      2160 1.10531E+02 2.13560E+01 0.00000E+00
 -1      2161 1.09812E+02 2.18753E+01 0.00000E+00
 -1      2162 1.11847E+02 1.97826E+01 0.00000E+00
 -1      2163 1.11381E+02 2.05525E+01 0.00000E+00
 -1      2164 1.12562E+02 1.81906E+01 0.00000E+00
 -1      2165 1.12204E+02 1.89866E+01 0.00000E+00
 -1      2166 1.12634E+02 1.97720E+01 0.00000E+00
 -1      2167 1.13033E+02 1.62856E+01 0.00000E+00
 -1      2168 1.12856E+02 1.71219E+01 0.00000E+00
 -1      2169 1.08663E+02 6.88024E+00 0.00000E+00
 -1      2170 1.09386E+02 7.35496E+00 0.00000E+00
 -1      2171 1.10212E+02 6.93316E+00 0.00000E+00
 -1      2172 9.48968E+01 1.33638E+01 0.00000E+00
 -1      2173 1.11593E+02 8.43947E+00 0.00000E+00
 -1      2174 1.12351E+02 8.54937E+00 0.00000E+00
 -1      2175 1.11693E+02 7.51777E+00 0.00000E+00
 -1      2176 9.48736E+01 1.53056E+01 0.00000E+00
 -1      2177 6.42300E+00 4.57510E+01 0.00000E+00
 -1      2178 7.17300E+00 4.44520E+01 0.00000E+00
 -1      2179 1.13427E+02 1.18821E+01 0.00000E+00
 -1      2180 1.14071E+02 1.38516E+01 0.00000E+00
 -1      2181 1.45665E+02 4.31193E+01 0.00000E+00
 -1      2182 9.53558E+01 1.13949E+01 0.00000E+00
 -1      2183 1.13927E+02 1.59242E+01 0.00000E+00
 -1      2184 1.08393E+02 6.10842E+00 0.00000E+00
 -1      2185 1.13285E+02 1.79073E+01 0.00000E+00
 -1      2186 1.11426E+02 2.13714E+01 0.00000E+00
 -1      2187 1.09799E+02 2.27651E+01 0.00000E+00
 -1      2188 9.51867E+01 1.72264E+01 0.00000E+00
 -1      2189 1.08081E+02 2.37679E+01 0.00000E+00
 -1      2190 1.06023E+02 2.42944E+01 0.00000E+00
 -1      2191 1.03905E+02 2.44876E+01 0.00000E+00
 -1      2192 9.97727E+01 2.34474E+01 0.00000E+00
 -1      2193 9.66357E+01 2.08437E+01 0.00000E+00
 -1      2194 9.89953E+01 7.03531E+00 0.00000E+00
 -1      2195 9.57135E+01 1.90352E+01 0.00000E+00
 -1      2196 1.04518E+02 5.47256E+00 0.00000E+00
 -1      2197 1.02353E+02 5.43888E+00 0.00000E+00
 -1      2198 9.74592E+01 8.39263E+00 0.00000E+00
 -1      2199 1.01896E+02 2.42758E+01 0.00000E+00
 -1      2200 1.07850E+01 5.30525E+00 0.00000E+00
 -1      2201 9.28500E+00 5.30525E+00 0.00000E+00
 -1      2202 6.49500E+00 3.01125E+01 0.00000E+00
 -1      2203 6.49500E+00 3.15875E+01 0.00000E+00
 -1      2204 6.49500E+00 3.30625E+01 0.00000E+00
 -1      2205 6.49500E+00 3.45375E+01 0.00000E+00
 -1      2206 7.79400E+00 3.23250E+01 0.00000E+00
 -1      2207 6.49500E+00 2.42125E+01 0.00000E+00
 -1      2208 6.49500E+00 2.56875E+01 0.00000E+00
 -1      2209 6.49500E+00 2.12625E+01 0.00000E+00
 -1      2210 6.49500E+00 2.27375E+01 0.00000E+00
 -1      2211 7.79400E+00 2.34750E+01 0.00000E+00
 -1      2212 6.49500E+00 1.83625E+01 0.00000E+00
 -1      2213 6.49500E+00 1.98125E+01 0.00000E+00
 -1      2214 7.79400E+00 2.05500E+01 0.00000E+00
 -1      2215 6.49500E+00 1.54125E+01 0.00000E+00
 -1      2216 6.49500E+00 1.68875E+01 0.00000E+00
 -1      2217 7.79400E+00 1.76250E+01 0.00000E+00
 -1      2218 6.49500E+00 1.24625E+01 0.00000E+00
 -1      2219 6.49500E+00 1.39375E+01 0.00000E+00
 -1      2220 7.79400E+00 1.46750E+01 0.00000E+00
 -1      2221 6.49500E+00 9.51250E+00 0.00000E+00
 -1      2222 6.49500E+00 1.09875E+01 0.00000E+00
 -1      2223 7.79400E+00 1.17250E+01 0.00000E+00
 -1      2224 9.90000E+00 4.35050E+01 0.00000E+00
 -1      2225 1.14000E+01 4.35050E+01 0.00000E+00
 -1      2226 1.37850E+01 5.30525E+00 0.00000E+00
 -1      2227 1.22850E+01 5.30525E+00 0.00000E+00
 -1      2228 1.15350E+01 6.60425E+00 0.00000E+00
 -1      2229 6.55950E+00 4.28890E+01 0.00000E+00
 -1      2230 8.53650E+00 4.32410E+01 0.00000E+00
 -1      2231 9.28650E+00 4.19420E+01 0.00000E+00
 -1      2232 6.55950E+00 4.14140E+01 0.00000E+00
 -1      2233 1.29000E+01 4.35050E+01 0.00000E+00
 -1      2234 1.44000E+01 4.35050E+01 0.00000E+00
 -1      2235 1.21500E+01 4.22060E+01 0.00000E+00
 -1      2236 1.59000E+01 4.35050E+01 0.00000E+00
 -1      2237 1.74000E+01 4.35050E+01 0.00000E+00
 -1      2238 1.51500E+01 4.22060E+01 0.00000E+00
 -1      2239 1.89000E+01 4.35050E+01 0.00000E+00
 -1      2240 2.04000E+01 4.35050E+01 0.00000E+00
 -1      2241 1.81500E+01 4.22060E+01 0.00000E+00
 -1      2242 2.19000E+01 4.35050E+01 0.00000E+00
 -1      2243 2.34000E+01 4.35050E+01 0.00000E+00
 -1      2244 2.11500E+01 4.22060E+01 0.00000E+00
 -1      2245 2.49000E+01 4.35050E+01 0.00000E+00
 -1      2246 2.64000E+01 4.35050E+01 0.00000E+00
 -1      2247 2.41500E+01 4.22060E+01 0.00000E+00
 -1      2248 2.79000E+01 4.35050E+01 0.00000E+00
 -1      2249 2.94000E+01 4.35050E+01 0.00000E+00
 -1      2250 2.71500E+01 4.22060E+01 0.00000E+00
 -1      2251 3.09000E+01 4.35050E+01 0.00000E+00
 -1      2252 3.24000E+01 4.35050E+01 0.00000E+00
 -1      2253 3.01500E+01 4.22060E+01 0.00000E+00
 -1      2254 3.39000E+01 4.35050E+01 0.00000E+00
 -1      2255 3.54000E+01 4.35050E+01 0.00000E+00
 -1      2256 3.31500E+01 4.22060E+01 0.00000E+00
 -1      2257 3.69000E+01 4.35050E+01 0.00000E+00
 -1      2258 3.84000E+01 4.35050E+01 0.00000E+00
 -1      2259 3.61500E+01 4.22060E+01 0.00000E+00
 -1      2260 3.99000E+01 4.35050E+01 0.00000E+00
 -1      2261 4.14000E+01 4.35050E+01 0.00000E+00
 -1      2262 3.91500E+01 4.22060E+01 0.00000E+00
 -1      2263 4.29000E+01 4.35050E+01 0.00000E+00
 -1      2264 4.44000E+01 4.35050E+01 0.00000E+00
 -1      2265 4.21500E+01 4.22060E+01 0.00000E+00
 -1      2266 4.59000E+01 4.35050E+01 0.00000E+00
 -1      2267 4.74000E+01 4.35050E+01 0.00000E+00
 -1      2268 4.51500E+01 4.22060E+01 0.00000E+00
 -1      2269 4.89000E+01 4.35050E+01 0.00000E+00
 -1      2270 5.04000E+01 4.35050E+01 0.00000E+00
 -1      2271 4.81500E+01 4.22060E+01 0.00000E+00
 -1      2272 5.19000E+01 4.35050E+01 0.00000E+00
 -1      2273 5.34000E+01 4.35050E+01 0.00000E+00
 -1      2274 5.11500E+01 4.22060E+01 0.00000E+00
 -1      2275 5.49000E+01 4.35050E+01 0.00000E+00
 -1      2276 5.64000E+01 4.35050E+01 0.00000E+00
 -1      2277 5.41500E+01 4.22060E+01 0.00000E+00
 -1      2278 5.79000E+01 4.35050E+01 0.00000E+00
 -1      2279 5.94000E+01 4.35050E+01 0.00000E+00
 -1      2280 5.71500E+01 4.22060E+01 0.00000E+00
 -1      2281 6.09000E+01 4.35050E+01 0.00000E+00
 -1      2282 6.24000E+01 4.35050E+01 0.00000E+00
 -1      2283 6.01500E+01 4.22060E+01 0.00000E+00
 -1      2284 6.39000E+01 4.35050E+01 0.00000E+00
 -1      2285 6.54000E+01 4.35050E+01 0.00000E+00
 -1      2286 6.31500E+01 4.22060E+01 0.00000E+00
 -1      2287 6.69000E+01 4.35050E+01 0.00000E+00
 -1      2288 6.84000E+01 4.35050E+01 0.00000E+00
 -1      2289 6.61500E+01 4.22060E+01 0.00000E+00
 -1      2290 6.99000E+01 4.35050E+01 0.00000E+00
 -1      2291 7.14000E+01 4.35050E+01 0.00000E+00
 -1      2292 6.91500E+01 4.22060E+01 0.00000E+00
 -1      2293 7.29000E+01 4.35050E+01 0.00000E+00
 -1      2294 7.44000E+01 4.35050E+01 0.00000E+00
 -1      2295 7.21500E+01 4.22060E+01 0.00000E+00
 -1      2296 7.59000E+01 4.35050E+01 0.00000E+00
 -1      2297 7.74000E+01 4.35050E+01 0.00000E+00
 -1      2298 7.51500E+01 4.22060E+01 0.00000E+00
 -1      2299 7.89000E+01 4.35050E+01 0.00000E+00
 -1      2300 8.04000E+01 4.35050E+01 0.00000E+00
 -1      2301 7.81500E+01 4.22060E+01 0.00000E+00
 -1      2302 8.19000E+01 4.35050E+01 0.00000E+00
 -1      2303 8.34000E+01 4.35050E+01 0.00000E+00
 -1      2304 8.11500E+01 4.22060E+01 0.00000E+00
 -1      2305 8.49000E+01 4.35050E+01 0.00000E+00
 -1      2306 8.64000E+01 4.35050E+01 0.00000E+00
 -1      2307 8.41500E+01 4.22060E+01 0.00000E+00
 -1      2308 8.79000E+01 4.35050E+01 0.00000E+00
 -1      2309 8.94000E+01 4.35050E+01 0.00000E+00
 -1      2310 8.71500E+01 4.22060E+01 0.00000E+00
 -1      2311 9.09000E+01 4.35050E+01 0.00000E+00
 -1      2312 9.24000E+01 4.35050E+01 0.00000E+00
 -1      2313 9.01500E+01 4.22060E+01 0.00000E+00
 -1      2314 9.39000E+01 4.35050E+01 0.00000E+00
 -1      2315 9.54000E+01 4.35050E+01 0.00000E+00
 -1      2316 9.31500E+01 4.22060E+01 0.00000E+00
 -1      2317 9.69000E+01 4.35050E+01 0.00000E+00
 -1      2318 9.84000E+01 4.35050E+01 0.00000E+00
 -1      2319 9.61500E+01 4.22060E+01 0.00000E+00
 -1      2320 9.99000E+01 4.35050E+01 0.00000E+00
 -1      2321 1.01400E+02 4.35050E+01 0.00000E+00
 -1      2322 9.91500E+01 4.22060E+01 0.00000E+00
 -1      2323 1.02900E+02 4.35050E+01 0.00000E+00
 -1      2324 1.04400E+02 4.35050E+01 0.00000E+00
 -1      2325 1.02150E+02 4.22060E+01 0.00000E+00
 -1      2326 1.05900E+02 4.35050E+01 0.00000E+00
 -1      2327 1.07400E+02 4.35050E+01 0.00000E+00
 -1      2328 1.05150E+02 4.22060E+01 0.00000E+00
 -1      2329 1.08900E+02 4.35050E+01 0.00000E+00
 -1      2330 1.10400E+02 4.35050E+01 0.00000E+00
 -1      2331 1.08150E+02 4.22060E+01 0.00000E+00
 -1      2332 1.11900E+02 4.35050E+01 0.00000E+00
 -1      2333 1.13400E+02 4.35050E+01 0.00000E+00
 -1      2334 1.11150E+02 4.22060E+01 0.00000E+00
 -1      2335 1.14900E+02 4.35050E+01 0.00000E+00
 -1      2336 1.16400E+02 4.35050E+01 0.00000E+00
 -1      2337 1.14150E+02 4.22060E+01 0.00000E+00
 -1      2338 1.17900E+02 4.35050E+01 0.00000E+00
 -1      2339 1.19400E+02 4.35050E+01 0.00000E+00
 -1      2340 1.17150E+02 4.22060E+01 0.00000E+00
 -1      2341 1.20900E+02 4.35050E+01 0.00000E+00
 -1      2342 1.22400E+02 4.35050E+01 0.00000E+00
 -1      2343 1.20150E+02 4.22060E+01 0.00000E+00
 -1      2344 1.23900E+02 4.35050E+01 0.00000E+00
 -1      2345 1.25400E+02 4.35050E+01 0.00000E+00
 -1      2346 1.23150E+02 4.22060E+01 0.00000E+00
 -1      2347 1.26900E+02 4.35050E+01 0.00000E+00
 -1      2348 1.28400E+02 4.35050E+01 0.00000E+00
 -1      2349 1.26150E+02 4.22060E+01 0.00000E+00
 -1      2350 1.29900E+02 4.35050E+01 0.00000E+00
 -1      2351 1.31400E+02 4.35050E+01 0.00000E+00
 -1      2352 1.29150E+02 4.22060E+01 0.00000E+00
 -1      2353 1.32900E+02 4.35050E+01 0.00000E+00
 -1      2354 1.34400E+02 4.35050E+01 0.00000E+00
 -1      2355 1.32150E+02 4.22060E+01 0.00000E+00
 -1      2356 1.35900E+02 4.35050E+01 0.00000E+00
 -1      2357 1.37400E+02 4.35050E+01 0.00000E+00
 -1      2358 1.35150E+02 4.22060E+01 0.00000E+00
 -1      2359 1.38900E+02 4.35050E+01 0.00000E+00
 -1      2360 1.40400E+02 4.35050E+01 0.00000E+00
 -1      2361 1.38150E+02 4.22060E+01 0.00000E+00
 -1      2362 1.97850E+01 5.30525E+00 0.00000E+00
 -1      2363 1.82850E+01 5.30525E+00 0.00000E+00
 -1      2364 2.29350E+01 5.30525E+00 0.00000E+00
 -1      2365 2.13600E+01 5.30525E+00 0.00000E+00
 -1      2366 2.06100E+01 6.60425E+00 0.00000E+00
 -1      2367 2.59350E+01 5.30525E+00 0.00000E+00
 -1      2368 2.44350E+01 5.30525E+00 0.00000E+00
 -1      2369 2.36850E+01 6.60425E+00 0.00000E+00
 -1      2370 2.89350E+01 5.30525E+00 0.00000E+00
 -1      2371 2.74350E+01 5.30525E+00 0.00000E+00
 -1      2372 2.66850E+01 6.60425E+00 0.00000E+00
 -1      2373 3.19350E+01 5.30525E+00 0.00000E+00
 -1      2374 3.04350E+01 5.30525E+00 0.00000E+00
 -1      2375 2.96850E+01 6.60425E+00 0.00000E+00
 -1      2376 3.49350E+01 5.30525E+00 0.00000E+00
 -1      2377 3.34350E+01 5.30525E+00 0.00000E+00
 -1      2378 3.26850E+01 6.60425E+00 0.00000E+00
 -1      2379 3.79350E+01 5.30525E+00 0.00000E+00
 -1      2380 3.64350E+01 5.30525E+00 0.00000E+00
 -1      2381 3.56850E+01 6.60425E+00 0.00000E+00
 -1      2382 4.09350E+01 5.30525E+00 0.00000E+00
 -1      2383 3.94350E+01 5.30525E+00 0.00000E+00
 -1      2384 3.86850E+01 6.60425E+00 0.00000E+00
 -1      2385 4.40850E+01 5.30525E+00 0.00000E+00
 -1      2386 4.25100E+01 5.30525E+00 0.00000E+00
 -1      2387 4.17600E+01 6.60425E+00 0.00000E+00
 -1      2388 4.70850E+01 5.30525E+00 0.00000E+00
 -1      2389 4.55850E+01 5.30525E+00 0.00000E+00
 -1      2390 4.48350E+01 6.60425E+00 0.00000E+00
 -1      2391 5.00850E+01 5.30525E+00 0.00000E+00
 -1      2392 4.85850E+01 5.30525E+00 0.00000E+00
 -1      2393 4.78350E+01 6.60425E+00 0.00000E+00
 -1      2394 5.30850E+01 5.30525E+00 0.00000E+00
 -1      2395 5.15850E+01 5.30525E+00 0.00000E+00
 -1      2396 5.08350E+01 6.60425E+00 0.00000E+00
 -1      2397 5.60850E+01 5.30525E+00 0.00000E+00
 -1      2398 5.45850E+01 5.30525E+00 0.00000E+00
 -1      2399 5.38350E+01 6.60425E+00 0.00000E+00
 -1      2400 5.90850E+01 5.30525E+00 0.00000E+00
 -1      2401 5.75850E+01 5.30525E+00 0.00000E+00
 -1      2402 5.68350E+01 6.60425E+00 0.00000E+00
 -1      2403 6.20850E+01 5.30525E+00 0.00000E+00
 -1      2404 6.05850E+01 5.30525E+00 0.00000E+00
 -1      2405 5.98350E+01 6.60425E+00 0.00000E+00
 -1      2406 6.52350E+01 5.30525E+00 0.00000E+00
 -1      2407 6.36600E+01 5.30525E+00 0.00000E+00
 -1      2408 6.29100E+01 6.60425E+00 0.00000E+00
 -1      2409 6.82350E+01 5.30525E+00 0.00000E+00
 -1      2410 6.67350E+01 5.30525E+00 0.00000E+00
 -1      2411 6.59850E+01 6.60425E+00 0.00000E+00
 -1      2412 7.12350E+01 5.30525E+00 0.00000E+00
 -1      2413 6.97350E+01 5.30525E+00 0.00000E+00
 -1      2414 6.89850E+01 6.60425E+00 0.00000E+00
 -1      2415 7.42350E+01 5.30525E+00 0.00000E+00
 -1      2416 7.27350E+01 5.30525E+00 0.00000E+00
 -1      2417 7.19850E+01 6.60425E+00 0.00000E+00
 -1      2418 7.72350E+01 5.30525E+00 0.00000E+00
 -1      2419 7.57350E+01 5.30525E+00 0.00000E+00
 -1      2420 7.49850E+01 6.60425E+00 0.00000E+00
 -1      2421 8.02350E+01 5.30525E+00 0.00000E+00
 -1      2422 7.87350E+01 5.30525E+00 0.00000E+00
 -1      2423 7.79850E+01 6.60425E+00 0.00000E+00
 -1      2424 8.32350E+01 5.30525E+00 0.00000E+00
 -1      2425 8.17350E+01 5.30525E+00 0.00000E+00
 -1      2426 8.09850E+01 6.60425E+00 0.00000E+00
 -1      2427 8.63850E+01 5.30525E+00 0.00000E+00
 -1      2428 8.48100E+01 5.30525E+00 0.00000E+00
 -1      2429 8.40600E+01 6.60425E+00 0.00000E+00
 -1      2430 8.93850E+01 5.30525E+00 0.00000E+00
 -1      2431 8.78850E+01 5.30525E+00 0.00000E+00
 -1      2432 8.71350E+01 6.60425E+00 0.00000E+00
 -1      2433 9.23850E+01 5.30525E+00 0.00000E+00
 -1      2434 9.08850E+01 5.30525E+00 0.00000E+00
 -1      2435 9.01350E+01 6.60425E+00 0.00000E+00
 -1      2436 9.53850E+01 5.30525E+00 0.00000E+00
 -1      2437 9.38850E+01 5.30525E+00 0.00000E+00
 -1      2438 9.31350E+01 6.60425E+00 0.00000E+00
 -1      2439 1.01466E+02 4.75257E+00 0.00000E+00
 -1      2440 1.00042E+02 4.75257E+00 0.00000E+00
 -1      2441 1.06557E+02 4.78625E+00 0.00000E+00
 -1      2442 1.05132E+02 4.78625E+00 0.00000E+00
 -1      2443 1.12843E+02 5.81696E+00 0.00000E+00
 -1      2444 1.11343E+02 5.81696E+00 0.00000E+00
 -1      2445 1.15843E+02 5.81696E+00 0.00000E+00
 -1      2446 1.14343E+02 5.81696E+00 0.00000E+00
 -1      2447 1.13951E+02 7.62768E+00 0.00000E+00
 -1      2448 1.18843E+02 5.81696E+00 0.00000E+00
 -1      2449 1.17343E+02 5.81696E+00 0.00000E+00
 -1      2450 1.16951E+02 7.62768E+00 0.00000E+00
 -1      2451 1.21843E+02 5.81696E+00 0.00000E+00
 -1      2452 1.20343E+02 5.81696E+00 0.00000E+00
 -1      2453 1.19951E+02 7.62768E+00 0.00000E+00
 -1      2454 1.24843E+02 5.81696E+00 0.00000E+00
 -1      2455 1.23343E+02 5.81696E+00 0.00000E+00
 -1      2456 1.22951E+02 7.62768E+00 0.00000E+00
 -1      2457 1.27993E+02 5.81696E+00 0.00000E+00
 -1      2458 1.26418E+02 5.81696E+00 0.00000E+00
 -1      2459 1.26025E+02 7.62768E+00 0.00000E+00
 -1      2460 1.30993E+02 5.81696E+00 0.00000E+00
 -1      2461 1.29493E+02 5.81696E+00 0.00000E+00
 -1      2462 1.29100E+02 7.62768E+00 0.00000E+00
 -1      2463 1.33993E+02 5.81696E+00 0.00000E+00
 -1      2464 1.32493E+02 5.81696E+00 0.00000E+00
 -1      2465 1.32100E+02 7.62768E+00 0.00000E+00
 -1      2466 1.36993E+02 5.81696E+00 0.00000E+00
 -1      2467 1.35493E+02 5.81696E+00 0.00000E+00
 -1      2468 1.35100E+02 7.62768E+00 0.00000E+00
 -1      2469 1.39993E+02 5.81696E+00 0.00000E+00
 -1      2470 1.38493E+02 5.81696E+00 0.00000E+00
 -1      2471 1.38100E+02 7.62768E+00 0.00000E+00
 -1      2472 1.44242E+02 5.26953E+00 0.00000E+00
 -1      2473 1.43505E+02 1.69125E+01 0.00000E+00
 -1      2474 1.43505E+02 1.54375E+01 0.00000E+00
 -1      2475 1.43505E+02 1.98625E+01 0.00000E+00
 -1      2476 1.43505E+02 1.83875E+01 0.00000E+00
 -1      2477 1.42206E+02 1.76500E+01 0.00000E+00
 -1      2478 1.43505E+02 1.10625E+01 0.00000E+00
 -1      2479 1.43505E+02 9.58750E+00 0.00000E+00
 -1      2480 1.43505E+02 1.39750E+01 0.00000E+00
 -1      2481 1.43505E+02 1.25250E+01 0.00000E+00
 -1      2482 1.42206E+02 1.17875E+01 0.00000E+00
 -1      2483 1.42206E+02 1.47125E+01 0.00000E+00
 -1      2484 1.43505E+02 2.28125E+01 0.00000E+00
 -1      2485 1.43505E+02 2.13375E+01 0.00000E+00
 -1      2486 1.42206E+02 2.06000E+01 0.00000E+00
 -1      2487 1.43505E+02 2.57625E+01 0.00000E+00
 -1      2488 1.43505E+02 2.42875E+01 0.00000E+00
 -1      2489 1.42206E+02 2.35500E+01 0.00000E+00
 -1      2490 1.43505E+02 2.87125E+01 0.00000E+00
 -1      2491 1.43505E+02 2.72375E+01 0.00000E+00
 -1      2492 1.42206E+02 2.65000E+01 0.00000E+00
 -1      2493 1.43505E+02 3.16125E+01 0.00000E+00
 -1      2494 1.43505E+02 3.01625E+01 0.00000E+00
 -1      2495 1.42206E+02 2.94250E+01 0.00000E+00
 -1      2496 1.43505E+02 3.45625E+01 0.00000E+00
 -1      2497 1.43505E+02 3.30875E+01 0.00000E+00
 -1      2498 1.42206E+02 3.23500E+01 0.00000E+00
 -1      2499 1.43505E+02 3.75125E+01 0.00000E+00
 -1      2500 1.43505E+02 3.60375E+01 0.00000E+00
 -1      2501 1.42206E+02 3.53000E+01 0.00000E+00
 -1      2502 1.43505E+02 4.04625E+01 0.00000E+00
 -1      2503 1.43505E+02 3.89875E+01 0.00000E+00
 -1      2504 1.42206E+02 3.82500E+01 0.00000E+00
 -1      2505 1.14772E+02 1.31301E+01 0.00000E+00
 -1      2506 1.14977E+02 1.42884E+01 0.00000E+00
 -1      2507 9.44852E+01 1.16591E+01 0.00000E+00
 -1      2508 9.48469E+01 1.06409E+01 0.00000E+00
 -1      2509 1.67850E+01 5.30525E+00 0.00000E+00
 -1      2510 1.52850E+01 5.30525E+00 0.00000E+00
 -1      2511 1.75350E+01 6.60425E+00 0.00000E+00
 -1      2512 1.44321E+02 4.30606E+01 0.00000E+00
 -1      2513 1.13214E+02 9.51241E+00 0.00000E+00
 -1      2514 1.13582E+02 1.03124E+01 0.00000E+00
 -1      2515 1.12498E+02 2.16539E+01 0.00000E+00
 -1      2516 1.11647E+02 2.24573E+01 0.00000E+00
 -1      2517 9.40555E+01 1.58650E+01 0.00000E+00
 -1      2518 9.39814E+01 1.48740E+01 0.00000E+00
 -1      2519 9.62446E+01 2.17918E+01 0.00000E+00
 -1      2520 9.56102E+01 2.08624E+01 0.00000E+00
 -1      2521 1.14786E+02 1.57279E+01 0.00000E+00
 -1      2522 1.14437E+02 1.66423E+01 0.00000E+00
 -1      2523 1.14021E+02 1.11235E+01 0.00000E+00
 -1      2524 1.14461E+02 1.19347E+01 0.00000E+00
 -1      2525 1.14616E+02 1.03649E+01 0.00000E+00
 -1      2526 1.07416E+02 4.88232E+00 0.00000E+00
 -1      2527 9.50424E+01 1.97416E+01 0.00000E+00
 -1      2528 9.47546E+01 1.88625E+01 0.00000E+00
 -1      2529 9.39950E+01 1.37519E+01 0.00000E+00
 -1      2530 9.40923E+01 1.28012E+01 0.00000E+00
 -1      2531 6.49500E+00 2.71625E+01 0.00000E+00
 -1      2532 6.49500E+00 2.86375E+01 0.00000E+00
 -1      2533 7.79400E+00 2.93750E+01 0.00000E+00
 -1      2534 7.79400E+00 2.64250E+01 0.00000E+00
 -1      2535 9.65923E+01 8.12798E+00 0.00000E+00
 -1      2536 9.72979E+01 7.50069E+00 0.00000E+00
 -1      2537 9.93304E+01 5.15576E+00 0.00000E+00
 -1      2538 1.02164E+02 2.52454E+01 0.00000E+00
 -1      2539 1.01153E+02 2.49542E+01 0.00000E+00
 -1      2540 9.53282E+01 9.54248E+00 0.00000E+00
 -1      2541 9.58463E+01 8.86407E+00 0.00000E+00
 -1      2542 1.08963E+02 2.45003E+01 0.00000E+00
 -1      2543 1.08023E+02 2.49130E+01 0.00000E+00
 -1      2544 1.04071E+02 4.69256E+00 0.00000E+00
 -1      2545 1.02571E+02 4.69256E+00 0.00000E+00
 -1      2546 1.14143E+02 1.77110E+01 0.00000E+00
 -1      2547 1.13850E+02 1.87798E+01 0.00000E+00
 -1      2548 1.15001E+02 1.75148E+01 0.00000E+00
 -1      2549 9.78989E+01 6.69325E+00 0.00000E+00
 -1      2550 9.87294E+01 5.96321E+00 0.00000E+00
 -1      2551 9.82340E+01 4.81370E+00 0.00000E+00
 -1      2552 9.70320E+01 6.42860E+00 0.00000E+00
 -1      2553 9.77690E+01 2.32895E+01 0.00000E+00
 -1      2554 9.70743E+01 2.27210E+01 0.00000E+00
 -1      2555 9.99566E+01 2.44883E+01 0.00000E+00
 -1      2556 9.88433E+01 2.39511E+01 0.00000E+00
 -1      2557 1.04473E+02 2.53027E+01 0.00000E+00
 -1      2558 1.03474E+02 2.53822E+01 0.00000E+00
 -1      2559 1.06709E+02 2.50752E+01 0.00000E+00
 -1      2560 1.05591E+02 2.51889E+01 0.00000E+00
 -1      2561 1.05159E+02 2.60835E+01 0.00000E+00
 -1      2562 9.45156E+01 1.79327E+01 0.00000E+00
 -1      2563 9.42766E+01 1.70030E+01 0.00000E+00
 -1      2564 9.38445E+01 1.86391E+01 0.00000E+00
 -1      2565 1.10706E+02 2.31529E+01 0.00000E+00
 -1      2566 1.09929E+02 2.37430E+01 0.00000E+00
 -1      2567 1.13518E+02 1.96911E+01 0.00000E+00
 -1      2568 1.13161E+02 2.04871E+01 0.00000E+00
 -1      2569 8.07525E+00 5.11044E+00 0.00000E+00
 -1      2570 6.57525E+00 5.11044E+00 0.00000E+00
 -1      2571 6.40575E+00 6.01981E+00 0.00000E+00
 -1      2572 8.82525E+00 6.40944E+00 0.00000E+00
 -1      2573 9.60488E+01 2.27397E+01 0.00000E+00
 -1      2574 7.79400E+00 3.52687E+01 0.00000E+00
 -1      2575 6.49500E+00 3.60062E+01 0.00000E+00
 -1      2576 6.49500E+00 3.74750E+01 0.00000E+00
 -1      2577 1.42758E+02 4.35929E+01 0.00000E+00
 -1      2578 1.43241E+02 4.17323E+01 0.00000E+00
 -1      2579 1.41942E+02 4.09948E+01 0.00000E+00
 -1      2580 1.41414E+02 4.35342E+01 0.00000E+00
 -1      2581 6.40575E+00 7.49481E+00 0.00000E+00
 -1      2582 6.55950E+00 3.99453E+01 0.00000E+00
 -1      2583 1.08242E+02 4.54812E+00 0.00000E+00
 -1      2584 1.08124E+02 5.42419E+00 0.00000E+00
 -1      2585 7.70475E+00 8.23231E+00 0.00000E+00
 -1      2586 1.00224E+02 2.54579E+01 0.00000E+00
 -1      2587 9.62830E+01 5.62115E+00 0.00000E+00
 -1      2588 9.55330E+01 6.92015E+00 0.00000E+00
 -1      2589 1.14377E+02 1.94949E+01 0.00000E+00
 -1      2590 9.68840E+01 4.81370E+00 0.00000E+00
 -1      2591 1.09592E+02 4.54812E+00 0.00000E+00
 -1      2592 1.43847E+02 6.48047E+00 0.00000E+00
 -1      2593 1.42990E+02 5.21719E+00 0.00000E+00
 -1      2594 1.41490E+02 5.21719E+00 0.00000E+00
 -1      2595 1.43699E+02 7.63906E+00 0.00000E+00
 -1      2596 1.41098E+02 7.02790E+00 0.00000E+00
 -1      2597 1.42400E+02 8.37656E+00 0.00000E+00
 -1      2598 9.35835E+01 1.20471E+01 0.00000E+00
 -1      2599 1.16187E+02 1.42851E+01 0.00000E+00
 -1      2600 1.15486E+02 1.50065E+01 0.00000E+00
 -1      2601 1.15995E+02 1.57246E+01 0.00000E+00
 -1      2602 1.15366E+02 1.23715E+01 0.00000E+00
 -1      2603 9.44577E+01 9.80661E+00 0.00000E+00
 -1      2604 1.45350E+01 6.60425E+00 0.00000E+00
 -1      2605 1.13382E+02 2.15730E+01 0.00000E+00
 -1      2606 1.07591E+02 2.58076E+01 0.00000E+00
 -1      2607 1.13314E+02 8.59071E+00 0.00000E+00
 -1      2608 1.11778E+02 2.34353E+01 0.00000E+00
 -1      2609 1.09871E+02 2.48881E+01 0.00000E+00
 -1      2610 9.31769E+01 1.43113E+01 0.00000E+00
 -1      2611 9.33844E+01 1.65714E+01 0.00000E+00
 -1      2612 9.46513E+01 2.06897E+01 0.00000E+00
 -1      2613 1.09219E+02 5.77421E+00 0.00000E+00
 -1      2614 1.40664E+02 4.22352E+01 0.00000E+00
 -1      2615 9.79529E+01 2.43305E+01 0.00000E+00
 -1      2616 1.02731E+02 2.60606E+01 0.00000E+00
 -1      2617 9.56850E+01 7.97214E+00 0.00000E+00
 -1      2618 9.79965E+01 2.54628E+01 0.00000E+00
 -1      2619 9.69221E+01 2.48012E+01 0.00000E+00
 -1      2620 9.09300E+00 1.98250E+01 0.00000E+00
 -1      2621 9.09300E+00 2.12750E+01 0.00000E+00
 -1      2622 9.09300E+00 2.27500E+01 0.00000E+00
 -1      2623 9.09300E+00 2.42250E+01 0.00000E+00
 -1      2624 1.03920E+01 2.20250E+01 0.00000E+00
 -1      2625 9.09300E+00 1.39375E+01 0.00000E+00
 -1      2626 9.09300E+00 1.54125E+01 0.00000E+00
 -1      2627 9.09300E+00 1.09875E+01 0.00000E+00
 -1      2628 9.09300E+00 1.24625E+01 0.00000E+00
 -1      2629 1.03920E+01 1.32000E+01 0.00000E+00
 -1      2630 1.00527E+02 2.64510E+01 0.00000E+00
 -1      2631 9.93298E+01 2.59851E+01 0.00000E+00
 -1      2632 1.14000E+01 4.09070E+01 0.00000E+00
 -1      2633 1.29000E+01 4.09070E+01 0.00000E+00
 -1      2634 1.22850E+01 7.90325E+00 0.00000E+00
 -1      2635 1.07850E+01 7.90325E+00 0.00000E+00
 -1      2636 1.40903E+02 8.97634E+00 0.00000E+00
 -1      2637 2.74350E+01 7.90325E+00 0.00000E+00
 -1      2638 2.59350E+01 7.90325E+00 0.00000E+00
 -1      2639 8.91450E+00 8.42712E+00 0.00000E+00
 -1      2640 1.44000E+01 4.09070E+01 0.00000E+00
 -1      2641 1.59000E+01 4.09070E+01 0.00000E+00
 -1      2642 1.36500E+01 3.96080E+01 0.00000E+00
 -1      2643 1.74000E+01 4.09070E+01 0.00000E+00
 -1      2644 1.89000E+01 4.09070E+01 0.00000E+00
 -1      2645 1.66500E+01 3.96080E+01 0.00000E+00
 -1      2646 2.04000E+01 4.09070E+01 0.00000E+00
 -1      2647 2.19000E+01 4.09070E+01 0.00000E+00
 -1      2648 1.96500E+01 3.96080E+01 0.00000E+00
 -1      2649 2.34000E+01 4.09070E+01 0.00000E+00
 -1      2650 2.49000E+01 4.09070E+01 0.00000E+00
 -1      2651 2.26500E+01 3.96080E+01 0.00000E+00
 -1      2652 2.64000E+01 4.09070E+01 0.00000E+00
 -1      2653 2.79000E+01 4.09070E+01 0.00000E+00
 -1      2654 2.56500E+01 3.96080E+01 0.00000E+00
 -1      2655 2.94000E+01 4.09070E+01 0.00000E+00
 -1      2656 3.09000E+01 4.09070E+01 0.00000E+00
 -1      2657 2.86500E+01 3.96080E+01 0.00000E+00
 -1      2658 3.24000E+01 4.09070E+01 0.00000E+00
 -1      2659 3.39000E+01 4.09070E+01 0.00000E+00
 -1      2660 3.16500E+01 3.96080E+01 0.00000E+00
 -1      2661 3.54000E+01 4.09070E+01 0.00000E+00
 -1      2662 3.69000E+01 4.09070E+01 0.00000E+00
 -1      2663 3.46500E+01 3.96080E+01 0.00000E+00
 -1      2664 3.84000E+01 4.09070E+01 0.00000E+00
 -1      2665 3.99000E+01 4.09070E+01 0.00000E+00
 -1      2666 3.76500E+01 3.96080E+01 0.00000E+00
 -1      2667 4.14000E+01 4.09070E+01 0.00000E+00
 -1      2668 4.29000E+01 4.09070E+01 0.00000E+00
 -1      2669 4.06500E+01 3.96080E+01 0.00000E+00
 -1      2670 4.44000E+01 4.09070E+01 0.00000E+00
 -1      2671 4.59000E+01 4.09070E+01 0.00000E+00
 -1      2672 4.36500E+01 3.96080E+01 0.00000E+00
 -1      2673 4.74000E+01 4.09070E+01 0.00000E+00
 -1      2674 4.89000E+01 4.09070E+01 0.00000E+00
 -1      2675 4.66500E+01 3.96080E+01 0.00000E+00
 -1      2676 5.04000E+01 4.09070E+01 0.00000E+00
 -1      2677 5.19000E+01 4.09070E+01 0.00000E+00
 -1      2678 4.96500E+01 3.96080E+01 0.00000E+00
 -1      2679 5.34000E+01 4.09070E+01 0.00000E+00
 -1      2680 5.49000E+01 4.09070E+01 0.00000E+00
 -1      2681 5.26500E+01 3.96080E+01 0.00000E+00
 -1      2682 5.64000E+01 4.09070E+01 0.00000E+00
 -1      2683 5.79000E+01 4.09070E+01 0.00000E+00
 -1      2684 5.56500E+01 3.96080E+01 0.00000E+00
 -1      2685 5.94000E+01 4.09070E+01 0.00000E+00
 -1      2686 6.09000E+01 4.09070E+01 0.00000E+00
 -1      2687 5.86500E+01 3.96080E+01 0.00000E+00
 -1      2688 6.24000E+01 4.09070E+01 0.00000E+00
 -1      2689 6.39000E+01 4.09070E+01 0.00000E+00
 -1      2690 6.16500E+01 3.96080E+01 0.00000E+00
 -1      2691 6.54000E+01 4.09070E+01 0.00000E+00
 -1      2692 6.69000E+01 4.09070E+01 0.00000E+00
 -1      2693 6.46500E+01 3.96080E+01 0.00000E+00
 -1      2694 6.84000E+01 4.09070E+01 0.00000E+00
 -1      2695 6.99000E+01 4.09070E+01 0.00000E+00
 -1      2696 6.76500E+01 3.96080E+01 0.00000E+00
 -1      2697 7.14000E+01 4.09070E+01 0.00000E+00
 -1      2698 7.29000E+01 4.09070E+01 0.00000E+00
 -1      2699 7.06500E+01 3.96080E+01 0.00000E+00
 -1      2700 7.44000E+01 4.09070E+01 0.00000E+00
 -1      2701 7.59000E+01 4.09070E+01 0.00000E+00
 -1      2702 7.36500E+01 3.96080E+01 0.00000E+00
 -1      2703 7.74000E+01 4.09070E+01 0.00000E+00
 -1      2704 7.89000E+01 4.09070E+01 0.00000E+00
 -1      2705 7.66500E+01 3.96080E+01 0.00000E+00
 -1      2706 8.04000E+01 4.09070E+01 0.00000E+00
 -1      2707 8.19000E+01 4.09070E+01 0.00000E+00
 -1      2708 7.96500E+01 3.96080E+01 0.00000E+00
 -1      2709 8.34000E+01 4.09070E+01 0.00000E+00
 -1      2710 8.49000E+01 4.09070E+01 0.00000E+00
 -1      2711 8.26500E+01 3.96080E+01 0.00000E+00
 -1      2712 8.64000E+01 4.09070E+01 0.00000E+00
 -1      2713 8.79000E+01 4.09070E+01 0.00000E+00
 -1      2714 8.56500E+01 3.96080E+01 0.00000E+00
 -1      2715 8.94000E+01 4.09070E+01 0.00000E+00
 -1      2716 9.09000E+01 4.09070E+01 0.00000E+00
 -1      2717 8.86500E+01 3.96080E+01 0.00000E+00
 -1      2718 9.24000E+01 4.09070E+01 0.00000E+00
 -1      2719 9.39000E+01 4.09070E+01 0.00000E+00
 -1      2720 9.16500E+01 3.96080E+01 0.00000E+00
 -1      2721 9.54000E+01 4.09070E+01 0.00000E+00
 -1      2722 9.69000E+01 4.09070E+01 0.00000E+00
 -1      2723 9.46500E+01 3.96080E+01 0.00000E+00
 -1      2724 9.84000E+01 4.09070E+01 0.00000E+00
 -1      2725 9.99000E+01 4.09070E+01 0.00000E+00
 -1      2726 9.76500E+01 3.96080E+01 0.00000E+00
 -1      2727 1.01400E+02 4.09070E+01 0.00000E+00
 -1      2728 1.02900E+02 4.09070E+01 0.00000E+00
 -1      2729 1.00650E+02 3.96080E+01 0.00000E+00
 -1      2730 1.04400E+02 4.09070E+01 0.00000E+00
 -1      2731 1.05900E+02 4.09070E+01 0.00000E+00
 -1      2732 1.03650E+02 3.96080E+01 0.00000E+00
 -1      2733 1.07400E+02 4.09070E+01 0.00000E+00
 -1      2734 1.08900E+02 4.09070E+01 0.00000E+00
 -1      2735 1.06650E+02 3.96080E+01 0.00000E+00
 -1      2736 1.10400E+02 4.09070E+01 0.00000E+00
 -1      2737 1.11900E+02 4.09070E+01 0.00000E+00
 -1      2738 1.09650E+02 3.96080E+01 0.00000E+00
 -1      2739 1.13400E+02 4.09070E+01 0.00000E+00
 -1      2740 1.14900E+02 4.09070E+01 0.00000E+00
 -1      2741 1.12650E+02 3.96080E+01 0.00000E+00
 -1      2742 1.16400E+02 4.09070E+01 0.00000E+00
 -1      2743 1.17900E+02 4.09070E+01 0.00000E+00
 -1      2744 1.15650E+02 3.96080E+01 0.00000E+00
 -1      2745 1.19400E+02 4.09070E+01 0.00000E+00
 -1      2746 1.20900E+02 4.09070E+01 0.00000E+00
 -1      2747 1.18650E+02 3.96080E+01 0.00000E+00
 -1      2748 1.22400E+02 4.09070E+01 0.00000E+00
 -1      2749 1.23900E+02 4.09070E+01 0.00000E+00
 -1      2750 1.21650E+02 3.96080E+01 0.00000E+00
 -1      2751 1.25400E+02 4.09070E+01 0.00000E+00
 -1      2752 1.26900E+02 4.09070E+01 0.00000E+00
 -1      2753 1.24650E+02 3.96080E+01 0.00000E+00
 -1      2754 1.28400E+02 4.09070E+01 0.00000E+00
 -1      2755 1.29900E+02 4.09070E+01 0.00000E+00
 -1      2756 1.27650E+02 3.96080E+01 0.00000E+00
 -1      2757 1.31400E+02 4.09070E+01 0.00000E+00
 -1      2758 1.32900E+02 4.09070E+01 0.00000E+00
 -1      2759 1.30650E+02 3.96080E+01 0.00000E+00
 -1      2760 1.34400E+02 4.09070E+01 0.00000E+00
 -1      2761 1.35900E+02 4.09070E+01 0.00000E+00
 -1      2762 1.33650E+02 3.96080E+01 0.00000E+00
 -1      2763 1.37400E+02 4.09070E+01 0.00000E+00
 -1      2764 1.38900E+02 4.09070E+01 0.00000E+00
 -1      2765 1.36650E+02 3.96080E+01 0.00000E+00
 -1      2766 2.44350E+01 7.90325E+00 0.00000E+00
 -1      2767 2.29350E+01 7.90325E+00 0.00000E+00
 -1      2768 2.51850E+01 9.20225E+00 0.00000E+00
 -1      2769 2.13600E+01 7.90325E+00 0.00000E+00
 -1      2770 1.97850E+01 7.90325E+00 0.00000E+00
 -1      2771 2.21100E+01 9.20225E+00 0.00000E+00
 -1      2772 3.04350E+01 7.90325E+00 0.00000E+00
 -1      2773 2.89350E+01 7.90325E+00 0.00000E+00
 -1      2774 2.81850E+01 9.20225E+00 0.00000E+00
 -1      2775 3.34350E+01 7.90325E+00 0.00000E+00
 -1      2776 3.19350E+01 7.90325E+00 0.00000E+00
 -1      2777 3.11850E+01 9.20225E+00 0.00000E+00
 -1      2778 3.64350E+01 7.90325E+00 0.00000E+00
 -1      2779 3.49350E+01 7.90325E+00 0.00000E+00
 -1      2780 3.41850E+01 9.20225E+00 0.00000E+00
 -1      2781 3.94350E+01 7.90325E+00 0.00000E+00
 -1      2782 3.79350E+01 7.90325E+00 0.00000E+00
 -1      2783 3.71850E+01 9.20225E+00 0.00000E+00
 -1      2784 4.25850E+01 7.90325E+00 0.00000E+00
 -1      2785 4.10100E+01 7.90325E+00 0.00000E+00
 -1      2786 4.02600E+01 9.20225E+00 0.00000E+00
 -1      2787 4.55850E+01 7.90325E+00 0.00000E+00
 -1      2788 4.40850E+01 7.90325E+00 0.00000E+00
 -1      2789 4.33350E+01 9.20225E+00 0.00000E+00
 -1      2790 4.85850E+01 7.90325E+00 0.00000E+00
 -1      2791 4.70850E+01 7.90325E+00 0.00000E+00
 -1      2792 4.63350E+01 9.20225E+00 0.00000E+00
 -1      2793 5.15850E+01 7.90325E+00 0.00000E+00
 -1      2794 5.00850E+01 7.90325E+00 0.00000E+00
 -1      2795 4.93350E+01 9.20225E+00 0.00000E+00
 -1      2796 5.45850E+01 7.90325E+00 0.00000E+00
 -1      2797 5.30850E+01 7.90325E+00 0.00000E+00
 -1      2798 5.23350E+01 9.20225E+00 0.00000E+00
 -1      2799 5.75850E+01 7.90325E+00 0.00000E+00
 -1      2800 5.60850E+01 7.90325E+00 0.00000E+00
 -1      2801 5.53350E+01 9.20225E+00 0.00000E+00
 -1      2802 6.05850E+01 7.90325E+00 0.00000E+00
 -1      2803 5.90850E+01 7.90325E+00 0.00000E+00
 -1      2804 5.83350E+01 9.20225E+00 0.00000E+00
 -1      2805 6.37350E+01 7.90325E+00 0.00000E+00
 -1      2806 6.21600E+01 7.90325E+00 0.00000E+00
 -1      2807 6.14100E+01 9.20225E+00 0.00000E+00
 -1      2808 6.67350E+01 7.90325E+00 0.00000E+00
 -1      2809 6.52350E+01 7.90325E+00 0.00000E+00
 -1      2810 6.44850E+01 9.20225E+00 0.00000E+00
 -1      2811 6.97350E+01 7.90325E+00 0.00000E+00
 -1      2812 6.82350E+01 7.90325E+00 0.00000E+00
 -1      2813 6.74850E+01 9.20225E+00 0.00000E+00
 -1      2814 7.27350E+01 7.90325E+00 0.00000E+00
 -1      2815 7.12350E+01 7.90325E+00 0.00000E+00
 -1      2816 7.04850E+01 9.20225E+00 0.00000E+00
 -1      2817 7.57350E+01 7.90325E+00 0.00000E+00
 -1      2818 7.42350E+01 7.90325E+00 0.00000E+00
 -1      2819 7.34850E+01 9.20225E+00 0.00000E+00
 -1      2820 7.87350E+01 7.90325E+00 0.00000E+00
 -1      2821 7.72350E+01 7.90325E+00 0.00000E+00
 -1      2822 7.64850E+01 9.20225E+00 0.00000E+00
 -1      2823 8.17350E+01 7.90325E+00 0.00000E+00
 -1      2824 8.02350E+01 7.90325E+00 0.00000E+00
 -1      2825 7.94850E+01 9.20225E+00 0.00000E+00
 -1      2826 8.48850E+01 7.90325E+00 0.00000E+00
 -1      2827 8.33100E+01 7.90325E+00 0.00000E+00
 -1      2828 8.25600E+01 9.20225E+00 0.00000E+00
 -1      2829 8.78850E+01 7.90325E+00 0.00000E+00
 -1      2830 8.63850E+01 7.90325E+00 0.00000E+00
 -1      2831 8.56350E+01 9.20225E+00 0.00000E+00
 -1      2832 9.08850E+01 7.90325E+00 0.00000E+00
 -1      2833 8.93850E+01 7.90325E+00 0.00000E+00
 -1      2834 8.86350E+01 9.20225E+00 0.00000E+00
 -1      2835 1.52850E+01 7.90325E+00 0.00000E+00
 -1      2836 1.37850E+01 7.90325E+00 0.00000E+00
 -1      2837 1.30350E+01 9.20225E+00 0.00000E+00
 -1      2838 1.15348E+02 1.93322E+01 0.00000E+00
 -1      2839 1.15017E+02 2.02435E+01 0.00000E+00
 -1      2840 9.25761E+01 1.23392E+01 0.00000E+00
 -1      2841 9.29691E+01 1.11971E+01 0.00000E+00
 -1      2842 1.14814E+02 8.59071E+00 0.00000E+00
 -1      2843 1.23701E+02 8.92668E+00 0.00000E+00
 -1      2844 1.22201E+02 8.92668E+00 0.00000E+00
 -1      2845 1.26850E+02 8.92668E+00 0.00000E+00
 -1      2846 1.25275E+02 8.92668E+00 0.00000E+00
 -1      2847 1.24525E+02 1.02257E+01 0.00000E+00
 -1      2848 1.29850E+02 8.92668E+00 0.00000E+00
 -1      2849 1.28350E+02 8.92668E+00 0.00000E+00
 -1      2850 1.27600E+02 1.02257E+01 0.00000E+00
 -1      2851 1.32850E+02 8.92668E+00 0.00000E+00
 -1      2852 1.31350E+02 8.92668E+00 0.00000E+00
 -1      2853 1.30600E+02 1.02257E+01 0.00000E+00
 -1      2854 1.35850E+02 8.92668E+00 0.00000E+00
 -1      2855 1.34350E+02 8.92668E+00 0.00000E+00
 -1      2856 1.33600E+02 1.02257E+01 0.00000E+00
 -1      2857 1.38850E+02 8.92668E+00 0.00000E+00
 -1      2858 1.37350E+02 8.92668E+00 0.00000E+00
 -1      2859 1.36600E+02 1.02257E+01 0.00000E+00
 -1      2860 1.40907E+02 2.42875E+01 0.00000E+00
 -1      2861 1.40907E+02 2.28125E+01 0.00000E+00
 -1      2862 1.40907E+02 1.83875E+01 0.00000E+00
 -1      2863 1.40907E+02 1.69125E+01 0.00000E+00
 -1      2864 1.40907E+02 2.72375E+01 0.00000E+00
 -1      2865 1.40907E+02 2.57625E+01 0.00000E+00
 -1      2866 1.39608E+02 2.50250E+01 0.00000E+00
 -1      2867 1.40907E+02 2.13375E+01 0.00000E+00
 -1      2868 1.40907E+02 1.98625E+01 0.00000E+00
 -1      2869 1.39608E+02 1.91250E+01 0.00000E+00
 -1      2870 1.39608E+02 2.20750E+01 0.00000E+00
 -1      2871 1.40907E+02 3.01375E+01 0.00000E+00
 -1      2872 1.40907E+02 2.86875E+01 0.00000E+00
 -1      2873 1.39608E+02 2.79500E+01 0.00000E+00
 -1      2874 1.40907E+02 3.30875E+01 0.00000E+00
 -1      2875 1.40907E+02 3.16125E+01 0.00000E+00
 -1      2876 1.39608E+02 3.08750E+01 0.00000E+00
 -1      2877 1.40907E+02 3.60375E+01 0.00000E+00
 -1      2878 1.40907E+02 3.45625E+01 0.00000E+00
 -1      2879 1.39608E+02 3.38250E+01 0.00000E+00
 -1      2880 1.12808E+02 2.38447E+01 0.00000E+00
 -1      2881 1.11866E+02 2.45402E+01 0.00000E+00
 -1      2882 1.16122E+02 1.15368E+01 0.00000E+00
 -1      2883 1.16433E+02 1.27323E+01 0.00000E+00
 -1      2884 1.82850E+01 7.90325E+00 0.00000E+00
 -1      2885 1.67850E+01 7.90325E+00 0.00000E+00
 -1      2886 1.60350E+01 9.20225E+00 0.00000E+00
 -1      2887 1.90350E+01 9.20225E+00 0.00000E+00
 -1      2888 1.20701E+02 8.92668E+00 0.00000E+00
 -1      2889 1.19201E+02 8.92668E+00 0.00000E+00
 -1      2890 1.21451E+02 1.02257E+01 0.00000E+00
 -1      2891 1.17757E+02 8.75870E+00 0.00000E+00
 -1      2892 1.16257E+02 8.75870E+00 0.00000E+00
 -1      2893 1.15621E+02 9.72173E+00 0.00000E+00
 -1      2894 1.18507E+02 1.00577E+01 0.00000E+00
 -1      2895 9.34316E+01 1.00116E+01 0.00000E+00
 -1      2896 9.39129E+01 8.91325E+00 0.00000E+00
 -1      2897 9.26531E+01 1.73039E+01 0.00000E+00
 -1      2898 9.24320E+01 1.61660E+01 0.00000E+00
 -1      2899 1.09862E+02 5.23235E+00 0.00000E+00
 -1      2900 1.40928E+02 4.09655E+01 0.00000E+00
 -1      2901 1.41192E+02 3.96958E+01 0.00000E+00
 -1      2902 1.39914E+02 4.09362E+01 0.00000E+00
 -1      2903 1.14605E+02 2.14962E+01 0.00000E+00
 -1      2904 1.13942E+02 2.26629E+01 0.00000E+00
 -1      2905 9.09300E+00 1.68813E+01 0.00000E+00
 -1      2906 9.09300E+00 1.83563E+01 0.00000E+00
 -1      2907 1.03920E+01 1.90812E+01 0.00000E+00
 -1      2908 1.03920E+01 1.61437E+01 0.00000E+00
 -1      2909 9.21450E+01 1.48599E+01 0.00000E+00
 -1      2910 9.21587E+01 1.37378E+01 0.00000E+00
 -1      2911 9.09300E+00 3.15875E+01 0.00000E+00
 -1      2912 9.09300E+00 3.30625E+01 0.00000E+00
 -1      2913 9.57615E+01 2.38313E+01 0.00000E+00
 -1      2914 9.49318E+01 2.29021E+01 0.00000E+00
 -1      2915 9.39460E+01 2.17512E+01 0.00000E+00
 -1      2916 9.33782E+01 2.06304E+01 0.00000E+00
 -1      2917 1.15975E+02 1.72075E+01 0.00000E+00
 -1      2918 1.15681E+02 1.82763E+01 0.00000E+00
 -1      2919 9.47870E+01 7.65624E+00 0.00000E+00
 -1      2920 1.03297E+02 2.69819E+01 0.00000E+00
 -1      2921 1.01987E+02 2.68451E+01 0.00000E+00
 -1      2922 1.05805E+02 2.68798E+01 0.00000E+00
 -1      2923 1.04687E+02 2.69936E+01 0.00000E+00
 -1      2924 9.31312E+01 1.91635E+01 0.00000E+00
 -1      2925 9.28922E+01 1.82337E+01 0.00000E+00
 -1      2926 9.19398E+01 1.78283E+01 0.00000E+00
 -1      2927 1.10901E+02 2.52975E+01 0.00000E+00
 -1      2928 1.09935E+02 2.60548E+01 0.00000E+00
 -1      2929 1.11931E+02 2.57068E+01 0.00000E+00
 -1      2930 1.08353E+02 2.65776E+01 0.00000E+00
 -1      2931 1.07039E+02 2.67398E+01 0.00000E+00
 -1      2932 7.85850E+00 3.92077E+01 0.00000E+00
 -1      2933 1.10585E+02 5.70706E+00 0.00000E+00
 -1      2934 1.40153E+02 1.02753E+01 0.00000E+00
 -1      2935 9.37609E+01 7.86126E+00 0.00000E+00
 -1      2936 9.09300E+00 3.45313E+01 0.00000E+00
 -1      2937 9.09300E+00 3.60000E+01 0.00000E+00
 -1      2938 1.03920E+01 3.37938E+01 0.00000E+00
 -1      2939 9.15443E+01 1.28878E+01 0.00000E+00
 -1      2940 1.03920E+01 2.49750E+01 0.00000E+00
 -1      2941 9.09300E+00 2.57000E+01 0.00000E+00
 -1      2942 9.09300E+00 2.71750E+01 0.00000E+00
 -1      2943 9.82990E+01 2.64559E+01 0.00000E+00
 -1      2944 1.01093E+02 2.73723E+01 0.00000E+00
 -1      2945 1.00198E+02 2.78994E+01 0.00000E+00
 -1      2946 1.01659E+02 2.82936E+01 0.00000E+00
 -1      2947 1.39164E+02 3.96372E+01 0.00000E+00
 -1      2948 9.66450E+00 9.72612E+00 0.00000E+00
 -1      2949 9.22609E+01 7.86126E+00 0.00000E+00
 -1      2950 9.15109E+01 9.16026E+00 0.00000E+00
 -1      2951 1.16322E+02 1.90249E+01 0.00000E+00
 -1      2952 9.24242E+01 1.03037E+01 0.00000E+00
 -1      2953 1.39608E+02 1.61875E+01 0.00000E+00
 -1      2954 1.40907E+02 1.54500E+01 0.00000E+00
 -1      2955 1.40907E+02 1.39875E+01 0.00000E+00
 -1      2956 1.40530E+02 1.28627E+01 0.00000E+00
 -1      2957 1.40530E+02 1.14002E+01 0.00000E+00
 -1      2958 1.38477E+02 1.13505E+01 0.00000E+00
 -1      2959 1.39231E+02 1.36002E+01 0.00000E+00
 -1      2960 1.16060E+02 1.05329E+01 0.00000E+00
 -1      2961 1.17126E+02 1.08937E+01 0.00000E+00
 -1      2962 1.16942E+02 1.34504E+01 0.00000E+00
 -1      2963 1.17452E+02 1.41685E+01 0.00000E+00
 -1      2964 1.17698E+02 1.26157E+01 0.00000E+00
 -1      2965 1.06567E+02 2.76498E+01 0.00000E+00
 -1      2966 1.14030E+02 2.37678E+01 0.00000E+00
 -1      2967 1.41192E+02 3.82207E+01 0.00000E+00
 -1      2968 9.24258E+01 2.02250E+01 0.00000E+00
 -1      2969 1.16676E+02 1.64861E+01 0.00000E+00
 -1      2970 1.17356E+02 1.72476E+01 0.00000E+00
 -1      2971 1.17376E+02 1.57647E+01 0.00000E+00
 -1      2972 9.36587E+01 2.28428E+01 0.00000E+00
 -1      2973 9.58051E+01 2.49636E+01 0.00000E+00
 -1      2974 1.15577E+02 2.13334E+01 0.00000E+00
 -1      2975 1.10413E+02 2.73963E+01 0.00000E+00
 -1      2976 1.09383E+02 2.69869E+01 0.00000E+00
 -1      2977 1.08831E+02 2.79191E+01 0.00000E+00
 -1      2978 9.14138E+01 1.55924E+01 0.00000E+00
 -1      2979 1.09635E+01 1.04636E+01 0.00000E+00
 -1      2980 9.09300E+00 2.86437E+01 0.00000E+00
 -1      2981 9.09300E+00 3.01187E+01 0.00000E+00
 -1      2982 1.03920E+01 3.08563E+01 0.00000E+00
 -1      2983 1.03920E+01 2.79188E+01 0.00000E+00
 -1      2984 1.03943E+02 2.77781E+01 0.00000E+00
 -1      2985 8.85168E+00 4.05347E+01 0.00000E+00
 -1      2986 1.02152E+01 4.07987E+01 0.00000E+00
 -1      2987 1.39529E+02 3.85602E+01 0.00000E+00
 -1      2988 1.40542E+02 3.71145E+01 0.00000E+00
 -1      2989 1.39243E+02 3.63770E+01 0.00000E+00
 -1      2990 1.38514E+02 3.85310E+01 0.00000E+00
 -1      2991 1.09652E+01 3.94997E+01 0.00000E+00
 -1      2992 1.16910E+01 1.24625E+01 0.00000E+00
 -1      2993 1.16910E+01 1.39375E+01 0.00000E+00
 -1      2994 9.10483E+01 1.03457E+01 0.00000E+00
 -1      2995 1.16836E+02 2.10535E+01 0.00000E+00
 -1      2996 1.16424E+02 2.23062E+01 0.00000E+00
 -1      2997 3.19350E+01 1.05013E+01 0.00000E+00
 -1      2998 3.04350E+01 1.05013E+01 0.00000E+00
 -1      2999 1.17503E+02 1.89418E+01 0.00000E+00
 -1      3000 1.17169E+02 1.99977E+01 0.00000E+00
 -1      3001 1.18017E+02 2.09704E+01 0.00000E+00
 -1      3002 1.29000E+01 3.83090E+01 0.00000E+00
 -1      3003 1.44000E+01 3.83090E+01 0.00000E+00
 -1      3004 1.59000E+01 3.83090E+01 0.00000E+00
 -1      3005 1.74000E+01 3.83090E+01 0.00000E+00
 -1      3006 1.51500E+01 3.70100E+01 0.00000E+00
 -1      3007 1.89000E+01 3.83090E+01 0.00000E+00
 -1      3008 2.04000E+01 3.83090E+01 0.00000E+00
 -1      3009 1.81500E+01 3.70100E+01 0.00000E+00
 -1      3010 2.19000E+01 3.83090E+01 0.00000E+00
 -1      3011 2.34000E+01 3.83090E+01 0.00000E+00
 -1      3012 2.11500E+01 3.70100E+01 0.00000E+00
 -1      3013 2.49000E+01 3.83090E+01 0.00000E+00
 -1      3014 2.64000E+01 3.83090E+01 0.00000E+00
 -1      3015 2.41500E+01 3.70100E+01 0.00000E+00
 -1      3016 2.79000E+01 3.83090E+01 0.00000E+00
 -1      3017 2.94000E+01 3.83090E+01 0.00000E+00
 -1      3018 2.71500E+01 3.70100E+01 0.00000E+00
 -1      3019 3.09000E+01 3.83090E+01 0.00000E+00
 -1      3020 3.24000E+01 3.83090E+01 0.00000E+00
 -1      3021 3.01500E+01 3.70100E+01 0.00000E+00
 -1      3022 3.39000E+01 3.83090E+01 0.00000E+00
 -1      3023 3.54000E+01 3.83090E+01 0.00000E+00
 -1      3024 3.31500E+01 3.70100E+01 0.00000E+00
 -1      3025 3.69000E+01 3.83090E+01 0.00000E+00
 -1      3026 3.84000E+01 3.83090E+01 0.00000E+00
 -1      3027 3.61500E+01 3.70100E+01 0.00000E+00
 -1      3028 3.99000E+01 3.83090E+01 0.00000E+00
 -1      3029 4.14000E+01 3.83090E+01 0.00000E+00
 -1      3030 3.91500E+01 3.70100E+01 0.00000E+00
 -1      3031 4.29000E+01 3.83090E+01 0.00000E+00
 -1      3032 4.44000E+01 3.83090E+01 0.00000E+00
 -1      3033 4.21500E+01 3.70100E+01 0.00000E+00
 -1      3034 4.59000E+01 3.83090E+01 0.00000E+00
 -1      3035 4.74000E+01 3.83090E+01 0.00000E+00
 -1      3036 4.51500E+01 3.70100E+01 0.00000E+00
 -1      3037 4.89000E+01 3.83090E+01 0.00000E+00
 -1      3038 5.04000E+01 3.83090E+01 0.00000E+00
 -1      3039 4.81500E+01 3.70100E+01 0.00000E+00
 -1      3040 5.19000E+01 3.83090E+01 0.00000E+00
 -1      3041 5.34000E+01 3.83090E+01 0.00000E+00
 -1      3042 5.11500E+01 3.70100E+01 0.00000E+00
 -1      3043 5.49000E+01 3.83090E+01 0.00000E+00
 -1      3044 5.64000E+01 3.83090E+01 0.00000E+00
 -1      3045 5.41500E+01 3.70100E+01 0.00000E+00
 -1      3046 5.79000E+01 3.83090E+01 0.00000E+00
 -1      3047 5.94000E+01 3.83090E+01 0.00000E+00
 -1      3048 5.71500E+01 3.70100E+01 0.00000E+00
 -1      3049 6.09000E+01 3.83090E+01 0.00000E+00
 -1      3050 6.24000E+01 3.83090E+01 0.00000E+00
 -1      3051 6.01500E+01 3.70100E+01 0.00000E+00
 -1      3052 6.39000E+01 3.83090E+01 0.00000E+00
 -1      3053 6.54000E+01 3.83090E+01 0.00000E+00
 -1      3054 6.31500E+01 3.70100E+01 0.00000E+00
 -1      3055 6.69000E+01 3.83090E+01 0.00000E+00
 -1      3056 6.84000E+01 3.83090E+01 0.00000E+00
 -1      3057 6.61500E+01 3.70100E+01 0.00000E+00
 -1      3058 6.99000E+01 3.83090E+01 0.00000E+00
 -1      3059 7.14000E+01 3.83090E+01 0.00000E+00
 -1      3060 6.91500E+01 3.70100E+01 0.00000E+00
 -1      3061 7.29000E+01 3.83090E+01 0.00000E+00
 -1      3062 7.44000E+01 3.83090E+01 0.00000E+00
 -1      3063 7.21500E+01 3.70100E+01 0.00000E+00
 -1      3064 7.59000E+01 3.83090E+01 0.00000E+00
 -1      3065 7.74000E+01 3.83090E+01 0.00000E+00
 -1      3066 7.51500E+01 3.70100E+01 0.00000E+00
 -1      3067 7.89000E+01 3.83090E+01 0.00000E+00
 -1      3068 8.04000E+01 3.83090E+01 0.00000E+00
 -1      3069 7.81500E+01 3.70100E+01 0.00000E+00
 -1      3070 8.19000E+01 3.83090E+01 0.00000E+00
 -1      3071 8.34000E+01 3.83090E+01 0.00000E+00
 -1      3072 8.11500E+01 3.70100E+01 0.00000E+00
 -1      3073 8.49000E+01 3.83090E+01 0.00000E+00
 -1      3074 8.64000E+01 3.83090E+01 0.00000E+00
 -1      3075 8.41500E+01 3.70100E+01 0.00000E+00
 -1      3076 8.79000E+01 3.83090E+01 0.00000E+00
 -1      3077 8.94000E+01 3.83090E+01 0.00000E+00
 -1      3078 8.71500E+01 3.70100E+01 0.00000E+00
 -1      3079 9.09000E+01 3.83090E+01 0.00000E+00
 -1      3080 9.24000E+01 3.83090E+01 0.00000E+00
 -1      3081 9.01500E+01 3.70100E+01 0.00000E+00
 -1      3082 9.39000E+01 3.83090E+01 0.00000E+00
 -1      3083 9.54000E+01 3.83090E+01 0.00000E+00
 -1      3084 9.31500E+01 3.70100E+01 0.00000E+00
 -1      3085 9.69000E+01 3.83090E+01 0.00000E+00
 -1      3086 9.84000E+01 3.83090E+01 0.00000E+00
 -1      3087 9.61500E+01 3.70100E+01 0.00000E+00
 -1      3088 9.99000E+01 3.83090E+01 0.00000E+00
 -1      3089 1.01400E+02 3.83090E+01 0.00000E+00
 -1      3090 9.91500E+01 3.70100E+01 0.00000E+00
 -1      3091 1.02900E+02 3.83090E+01 0.00000E+00
 -1      3092 1.04400E+02 3.83090E+01 0.00000E+00
 -1      3093 1.02150E+02 3.70100E+01 0.00000E+00
 -1      3094 1.05900E+02 3.83090E+01 0.00000E+00
 -1      3095 1.07400E+02 3.83090E+01 0.00000E+00
 -1      3096 1.05150E+02 3.70100E+01 0.00000E+00
 -1      3097 1.08900E+02 3.83090E+01 0.00000E+00
 -1      3098 1.10400E+02 3.83090E+01 0.00000E+00
 -1      3099 1.08150E+02 3.70100E+01 0.00000E+00
 -1      3100 1.11900E+02 3.83090E+01 0.00000E+00
 -1      3101 1.13400E+02 3.83090E+01 0.00000E+00
 -1      3102 1.11150E+02 3.70100E+01 0.00000E+00
 -1      3103 1.14900E+02 3.83090E+01 0.00000E+00
 -1      3104 1.16400E+02 3.83090E+01 0.00000E+00
 -1      3105 1.14150E+02 3.70100E+01 0.00000E+00
 -1      3106 1.17900E+02 3.83090E+01 0.00000E+00
 -1      3107 1.19400E+02 3.83090E+01 0.00000E+00
 -1      3108 1.17150E+02 3.70100E+01 0.00000E+00
 -1      3109 1.20900E+02 3.83090E+01 0.00000E+00
 -1      3110 1.22400E+02 3.83090E+01 0.00000E+00
 -1      3111 1.20150E+02 3.70100E+01 0.00000E+00
 -1      3112 1.23900E+02 3.83090E+01 0.00000E+00
 -1      3113 1.25400E+02 3.83090E+01 0.00000E+00
 -1      3114 1.23150E+02 3.70100E+01 0.00000E+00
 -1      3115 1.26900E+02 3.83090E+01 0.00000E+00
 -1      3116 1.28400E+02 3.83090E+01 0.00000E+00
 -1      3117 1.26150E+02 3.70100E+01 0.00000E+00
 -1      3118 1.29900E+02 3.83090E+01 0.00000E+00
 -1      3119 1.31400E+02 3.83090E+01 0.00000E+00
 -1      3120 1.29150E+02 3.70100E+01 0.00000E+00
 -1      3121 1.32900E+02 3.83090E+01 0.00000E+00
 -1      3122 1.34400E+02 3.83090E+01 0.00000E+00
 -1      3123 1.32150E+02 3.70100E+01 0.00000E+00
 -1      3124 1.35707E+02 3.84200E+01 0.00000E+00
 -1      3125 1.37207E+02 3.84200E+01 0.00000E+00
 -1      3126 1.37572E+02 3.73430E+01 0.00000E+00
 -1      3127 1.34957E+02 3.71210E+01 0.00000E+00
 -1      3128 2.59350E+01 1.05013E+01 0.00000E+00
 -1      3129 2.44350E+01 1.05013E+01 0.00000E+00
 -1      3130 2.28600E+01 1.05013E+01 0.00000E+00
 -1      3131 2.12850E+01 1.05013E+01 0.00000E+00
 -1      3132 2.36100E+01 1.18003E+01 0.00000E+00
 -1      3133 3.49350E+01 1.05013E+01 0.00000E+00
 -1      3134 3.34350E+01 1.05013E+01 0.00000E+00
 -1      3135 3.26850E+01 1.18003E+01 0.00000E+00
 -1      3136 3.79350E+01 1.05013E+01 0.00000E+00
 -1      3137 3.64350E+01 1.05013E+01 0.00000E+00
 -1      3138 3.56850E+01 1.18003E+01 0.00000E+00
 -1      3139 4.10850E+01 1.05013E+01 0.00000E+00
 -1      3140 3.95100E+01 1.05013E+01 0.00000E+00
 -1      3141 3.87600E+01 1.18003E+01 0.00000E+00
 -1      3142 4.40850E+01 1.05013E+01 0.00000E+00
 -1      3143 4.25850E+01 1.05013E+01 0.00000E+00
 -1      3144 4.18350E+01 1.18003E+01 0.00000E+00
 -1      3145 4.70850E+01 1.05013E+01 0.00000E+00
 -1      3146 4.55850E+01 1.05013E+01 0.00000E+00
 -1      3147 4.48350E+01 1.18003E+01 0.00000E+00
 -1      3148 5.00850E+01 1.05013E+01 0.00000E+00
 -1      3149 4.85850E+01 1.05013E+01 0.00000E+00
 -1      3150 4.78350E+01 1.18003E+01 0.00000E+00
 -1      3151 5.30850E+01 1.05013E+01 0.00000E+00
 -1      3152 5.15850E+01 1.05013E+01 0.00000E+00
 -1      3153 5.08350E+01 1.18003E+01 0.00000E+00
 -1      3154 5.60850E+01 1.05013E+01 0.00000E+00
 -1      3155 5.45850E+01 1.05013E+01 0.00000E+00
 -1      3156 5.38350E+01 1.18003E+01 0.00000E+00
 -1      3157 5.90850E+01 1.05013E+01 0.00000E+00
 -1      3158 5.75850E+01 1.05013E+01 0.00000E+00
 -1      3159 5.68350E+01 1.18003E+01 0.00000E+00
 -1      3160 6.22350E+01 1.05013E+01 0.00000E+00
 -1      3161 6.06600E+01 1.05013E+01 0.00000E+00
 -1      3162 5.99100E+01 1.18003E+01 0.00000E+00
 -1      3163 6.52350E+01 1.05013E+01 0.00000E+00
 -1      3164 6.37350E+01 1.05013E+01 0.00000E+00
 -1      3165 6.29850E+01 1.18003E+01 0.00000E+00
 -1      3166 6.82350E+01 1.05013E+01 0.00000E+00
 -1      3167 6.67350E+01 1.05013E+01 0.00000E+00
 -1      3168 6.59850E+01 1.18003E+01 0.00000E+00
 -1      3169 7.12350E+01 1.05013E+01 0.00000E+00
 -1      3170 6.97350E+01 1.05013E+01 0.00000E+00
 -1      3171 6.89850E+01 1.18003E+01 0.00000E+00
 -1      3172 7.42350E+01 1.05013E+01 0.00000E+00
 -1      3173 7.27350E+01 1.05013E+01 0.00000E+00
 -1      3174 7.19850E+01 1.18003E+01 0.00000E+00
 -1      3175 7.72350E+01 1.05013E+01 0.00000E+00
 -1      3176 7.57350E+01 1.05013E+01 0.00000E+00
 -1      3177 7.49850E+01 1.18003E+01 0.00000E+00
 -1      3178 8.02350E+01 1.05013E+01 0.00000E+00
 -1      3179 7.87350E+01 1.05013E+01 0.00000E+00
 -1      3180 7.79850E+01 1.18003E+01 0.00000E+00
 -1      3181 8.33850E+01 1.05013E+01 0.00000E+00
 -1      3182 8.18100E+01 1.05013E+01 0.00000E+00
 -1      3183 8.10600E+01 1.18003E+01 0.00000E+00
 -1      3184 8.63850E+01 1.05013E+01 0.00000E+00
 -1      3185 8.48850E+01 1.05013E+01 0.00000E+00
 -1      3186 8.41350E+01 1.18003E+01 0.00000E+00
 -1      3187 8.93850E+01 1.05013E+01 0.00000E+00
 -1      3188 8.78850E+01 1.05013E+01 0.00000E+00
 -1      3189 8.71350E+01 1.18003E+01 0.00000E+00
 -1      3190 1.22201E+02 1.15022E+01 0.00000E+00
 -1      3191 1.20701E+02 1.15022E+01 0.00000E+00
 -1      3192 1.18569E+02 1.10616E+01 0.00000E+00
 -1      3193 1.28350E+02 1.15247E+01 0.00000E+00
 -1      3194 1.26850E+02 1.15247E+01 0.00000E+00
 -1      3195 1.25313E+02 1.15134E+01 0.00000E+00
 -1      3196 1.23738E+02 1.15134E+01 0.00000E+00
 -1      3197 1.22988E+02 1.27899E+01 0.00000E+00
 -1      3198 1.26063E+02 1.28124E+01 0.00000E+00
 -1      3199 1.34350E+02 1.15247E+01 0.00000E+00
 -1      3200 1.32850E+02 1.15247E+01 0.00000E+00
 -1      3201 1.37164E+02 1.14376E+01 0.00000E+00
 -1      3202 1.35664E+02 1.14376E+01 0.00000E+00
 -1      3203 1.34914E+02 1.27366E+01 0.00000E+00
 -1      3204 1.37541E+02 1.25624E+01 0.00000E+00
 -1      3205 1.38309E+02 2.86750E+01 0.00000E+00
 -1      3206 1.38309E+02 2.72250E+01 0.00000E+00
 -1      3207 1.38309E+02 2.57500E+01 0.00000E+00
 -1      3208 1.38309E+02 2.42750E+01 0.00000E+00
 -1      3209 1.37010E+02 2.64750E+01 0.00000E+00
 -1      3210 2.89350E+01 1.05013E+01 0.00000E+00
 -1      3211 2.74350E+01 1.05013E+01 0.00000E+00
 -1      3212 2.66850E+01 1.18003E+01 0.00000E+00
 -1      3213 1.38309E+02 3.16250E+01 0.00000E+00
 -1      3214 1.38309E+02 3.01500E+01 0.00000E+00
 -1      3215 1.37010E+02 2.94250E+01 0.00000E+00
 -1      3216 1.07300E+02 2.85984E+01 0.00000E+00
 -1      3217 1.06066E+02 2.87384E+01 0.00000E+00
 -1      3218 1.38309E+02 3.45750E+01 0.00000E+00
 -1      3219 1.38309E+02 3.31000E+01 0.00000E+00
 -1      3220 1.37010E+02 3.23750E+01 0.00000E+00
 -1      3221 9.85917E+01 2.76715E+01 0.00000E+00
 -1      3222 9.72585E+01 2.71492E+01 0.00000E+00
 -1      3223 1.31350E+02 1.15247E+01 0.00000E+00
 -1      3224 1.29850E+02 1.15247E+01 0.00000E+00
 -1      3225 1.32100E+02 1.28237E+01 0.00000E+00
 -1      3226 1.04630E+02 2.87253E+01 0.00000E+00
 -1      3227 1.03240E+02 2.87136E+01 0.00000E+00
 -1      3228 9.16211E+01 2.11148E+01 0.00000E+00
 -1      3229 9.13741E+01 1.96479E+01 0.00000E+00
 -1      3230 9.33094E+01 2.41396E+01 0.00000E+00
 -1      3231 9.23236E+01 2.29888E+01 0.00000E+00
 -1      3232 8.98809E+01 1.30433E+01 0.00000E+00
 -1      3233 9.02983E+01 1.16447E+01 0.00000E+00
 -1      3234 9.56743E+01 2.62995E+01 0.00000E+00
 -1      3235 9.45137E+01 2.53295E+01 0.00000E+00
 -1      3236 1.16910E+01 2.12875E+01 0.00000E+00
 -1      3237 1.16910E+01 2.27625E+01 0.00000E+00
 -1      3238 1.26488E+01 1.02017E+01 0.00000E+00
 -1      3239 1.20772E+01 1.14631E+01 0.00000E+00
 -1      3240 1.33763E+01 1.22006E+01 0.00000E+00
 -1      3241 1.41488E+01 1.02017E+01 0.00000E+00
 -1      3242 1.15398E+02 2.39448E+01 0.00000E+00
 -1      3243 1.14263E+02 2.51265E+01 0.00000E+00
 -1      3244 8.78718E+00 3.80644E+01 0.00000E+00
 -1      3245 9.11350E+01 1.87181E+01 0.00000E+00
 -1      3246 9.08960E+01 1.77883E+01 0.00000E+00
 -1      3247 9.03303E+01 1.96079E+01 0.00000E+00
 -1      3248 1.13150E+02 2.62667E+01 0.00000E+00
 -1      3249 1.12184E+02 2.70240E+01 0.00000E+00
 -1      3250 9.05560E+01 1.64655E+01 0.00000E+00
 -1      3251 9.02691E+01 1.51594E+01 0.00000E+00
 -1      3252 1.19319E+02 1.23381E+01 0.00000E+00
 -1      3253 1.00862E+01 3.73269E+01 0.00000E+00
 -1      3254 1.16910E+01 2.42375E+01 0.00000E+00
 -1      3255 1.16910E+01 2.57125E+01 0.00000E+00
 -1      3256 1.29900E+01 2.35000E+01 0.00000E+00
 -1      3257 1.02346E+02 2.92407E+01 0.00000E+00
 -1      3258 1.01452E+02 2.97679E+01 0.00000E+00
 -1      3259 1.03033E+02 3.01879E+01 0.00000E+00
 -1      3260 2.96850E+01 1.18003E+01 0.00000E+00
 -1      3261 2.05350E+01 1.18003E+01 0.00000E+00
 -1      3262 1.97850E+01 1.05013E+01 0.00000E+00
 -1      3263 1.82850E+01 1.05013E+01 0.00000E+00
 -1      3264 1.05363E+02 2.96739E+01 0.00000E+00
 -1      3265 1.14517E+02 2.64437E+01 0.00000E+00
 -1      3266 1.38309E+02 1.69188E+01 0.00000E+00
 -1      3267 1.38309E+02 1.54563E+01 0.00000E+00
 -1      3268 1.29100E+02 1.28237E+01 0.00000E+00
 -1      3269 1.37010E+02 2.35250E+01 0.00000E+00
 -1      3270 1.38309E+02 2.28000E+01 0.00000E+00
 -1      3271 1.38309E+02 2.13250E+01 0.00000E+00
 -1      3272 1.38309E+02 1.98594E+01 0.00000E+00
 -1      3273 1.38309E+02 1.83844E+01 0.00000E+00
 -1      3274 1.37010E+02 1.76531E+01 0.00000E+00
 -1      3275 1.37010E+02 2.05844E+01 0.00000E+00
 -1      3276 1.18887E+02 1.40953E+01 0.00000E+00
 -1      3277 1.18132E+02 1.49300E+01 0.00000E+00
 -1      3278 1.18812E+02 1.56915E+01 0.00000E+00
 -1      3279 9.59670E+01 2.75151E+01 0.00000E+00
 -1      3280 1.08330E+02 2.90077E+01 0.00000E+00
 -1      3281 1.07828E+02 3.00963E+01 0.00000E+00
 -1      3282 1.09360E+02 2.94171E+01 0.00000E+00
 -1      3283 9.91578E+01 2.85928E+01 0.00000E+00
 -1      3284 1.69669E+01 1.03515E+01 0.00000E+00
 -1      3285 1.54669E+01 1.03515E+01 0.00000E+00
 -1      3286 1.50806E+01 1.13509E+01 0.00000E+00
 -1      3287 1.77169E+01 1.16505E+01 0.00000E+00
 -1      3288 9.12718E+01 2.24116E+01 0.00000E+00
 -1      3289 9.02200E+01 2.18345E+01 0.00000E+00
 -1      3290 9.09225E+01 2.37084E+01 0.00000E+00
 -1      3291 1.12851E+02 2.85160E+01 0.00000E+00
 -1      3292 1.11632E+02 2.79562E+01 0.00000E+00
 -1      3293 1.11080E+02 2.88884E+01 0.00000E+00
 -1      3294 1.16910E+01 1.54063E+01 0.00000E+00
 -1      3295 1.16910E+01 1.68750E+01 0.00000E+00
 -1      3296 1.29900E+01 1.46687E+01 0.00000E+00
 -1      3297 9.31786E+01 2.54755E+01 0.00000E+00
 -1      3298 1.16910E+01 1.83469E+01 0.00000E+00
 -1      3299 1.16910E+01 1.98156E+01 0.00000E+00
 -1      3300 1.29900E+01 2.05531E+01 0.00000E+00
 -1      3301 1.29900E+01 1.76094E+01 0.00000E+00
 -1      3302 1.16910E+01 3.01219E+01 0.00000E+00
 -1      3303 1.16910E+01 3.15906E+01 0.00000E+00
 -1      3304 8.97513E+01 1.73552E+01 0.00000E+00
 -1      3305 8.93250E+01 1.41014E+01 0.00000E+00
 -1      3306 8.80791E+01 1.28583E+01 0.00000E+00
 -1      3307 8.65791E+01 1.28583E+01 0.00000E+00
 -1      3308 8.84672E+01 1.49744E+01 0.00000E+00
 -1      3309 1.18904E+02 1.74989E+01 0.00000E+00
 -1      3310 1.18203E+02 1.82204E+01 0.00000E+00
 -1      3311 1.19051E+02 1.91931E+01 0.00000E+00
 -1      3312 1.17916E+02 2.33850E+01 0.00000E+00
 -1      3313 1.16657E+02 2.36649E+01 0.00000E+00
 -1      3314 1.16890E+02 2.50236E+01 0.00000E+00
 -1      3315 1.16910E+01 3.30594E+01 0.00000E+00
 -1      3316 1.16910E+01 3.45281E+01 0.00000E+00
 -1      3317 1.29900E+01 3.23250E+01 0.00000E+00
 -1      3318 1.37758E+02 3.64975E+01 0.00000E+00
 -1      3319 1.38123E+02 3.54205E+01 0.00000E+00
 -1      3320 1.36824E+02 3.46955E+01 0.00000E+00
 -1      3321 1.36451E+02 3.63865E+01 0.00000E+00
 -1      3322 1.12710E+01 3.74352E+01 0.00000E+00
 -1      3323 1.20210E+01 3.61362E+01 0.00000E+00
 -1      3324 3.34350E+01 1.30992E+01 0.00000E+00
 -1      3325 3.19350E+01 1.30992E+01 0.00000E+00
 -1      3326 1.19321E+02 2.08016E+01 0.00000E+00
 -1      3327 1.18987E+02 2.18574E+01 0.00000E+00
 -1      3328 1.74000E+01 3.57110E+01 0.00000E+00
 -1      3329 1.89000E+01 3.57110E+01 0.00000E+00
 -1      3330 2.04000E+01 3.57110E+01 0.00000E+00
 -1      3331 2.19000E+01 3.57110E+01 0.00000E+00
 -1      3332 1.96500E+01 3.44120E+01 0.00000E+00
 -1      3333 2.34000E+01 3.57110E+01 0.00000E+00
 -1      3334 2.49000E+01 3.57110E+01 0.00000E+00
 -1      3335 2.26500E+01 3.44120E+01 0.00000E+00
 -1      3336 2.64000E+01 3.57110E+01 0.00000E+00
 -1      3337 2.79000E+01 3.57110E+01 0.00000E+00
 -1      3338 2.56500E+01 3.44120E+01 0.00000E+00
 -1      3339 2.94000E+01 3.57110E+01 0.00000E+00
 -1      3340 3.09000E+01 3.57110E+01 0.00000E+00
 -1      3341 2.86500E+01 3.44120E+01 0.00000E+00
 -1      3342 3.24000E+01 3.57110E+01 0.00000E+00
 -1      3343 3.39000E+01 3.57110E+01 0.00000E+00
 -1      3344 3.16500E+01 3.44120E+01 0.00000E+00
 -1      3345 3.54000E+01 3.57110E+01 0.00000E+00
 -1      3346 3.69000E+01 3.57110E+01 0.00000E+00
 -1      3347 3.46500E+01 3.44120E+01 0.00000E+00
 -1      3348 3.84000E+01 3.57110E+01 0.00000E+00
 -1      3349 3.99000E+01 3.57110E+01 0.00000E+00
 -1      3350 3.76500E+01 3.44120E+01 0.00000E+00
 -1      3351 4.14000E+01 3.57110E+01 0.00000E+00
 -1      3352 4.29000E+01 3.57110E+01 0.00000E+00
 -1      3353 4.06500E+01 3.44120E+01 0.00000E+00
 -1      3354 4.44000E+01 3.57110E+01 0.00000E+00
 -1      3355 4.59000E+01 3.57110E+01 0.00000E+00
 -1      3356 4.36500E+01 3.44120E+01 0.00000E+00
 -1      3357 4.74000E+01 3.57110E+01 0.00000E+00
 -1      3358 4.89000E+01 3.57110E+01 0.00000E+00
 -1      3359 4.66500E+01 3.44120E+01 0.00000E+00
 -1      3360 5.04000E+01 3.57110E+01 0.00000E+00
 -1      3361 5.19000E+01 3.57110E+01 0.00000E+00
 -1      3362 4.96500E+01 3.44120E+01 0.00000E+00
 -1      3363 5.34000E+01 3.57110E+01 0.00000E+00
 -1      3364 5.49000E+01 3.57110E+01 0.00000E+00
 -1      3365 5.26500E+01 3.44120E+01 0.00000E+00
 -1      3366 5.64000E+01 3.57110E+01 0.00000E+00
 -1      3367 5.79000E+01 3.57110E+01 0.00000E+00
 -1      3368 5.56500E+01 3.44120E+01 0.00000E+00
 -1      3369 5.94000E+01 3.57110E+01 0.00000E+00
 -1      3370 6.09000E+01 3.57110E+01 0.00000E+00
 -1      3371 5.86500E+01 3.44120E+01 0.00000E+00
 -1      3372 6.24000E+01 3.57110E+01 0.00000E+00
 -1      3373 6.39000E+01 3.57110E+01 0.00000E+00
 -1      3374 6.16500E+01 3.44120E+01 0.00000E+00
 -1      3375 6.54000E+01 3.57110E+01 0.00000E+00
 -1      3376 6.69000E+01 3.57110E+01 0.00000E+00
 -1      3377 6.46500E+01 3.44120E+01 0.00000E+00
 -1      3378 6.84000E+01 3.57110E+01 0.00000E+00
 -1      3379 6.99000E+01 3.57110E+01 0.00000E+00
 -1      3380 6.76500E+01 3.44120E+01 0.00000E+00
 -1      3381 7.14000E+01 3.57110E+01 0.00000E+00
 -1      3382 7.29000E+01 3.57110E+01 0.00000E+00
 -1      3383 7.06500E+01 3.44120E+01 0.00000E+00
 -1      3384 7.44000E+01 3.57110E+01 0.00000E+00
 -1      3385 7.59000E+01 3.57110E+01 0.00000E+00
 -1      3386 7.36500E+01 3.44120E+01 0.00000E+00
 -1      3387 7.74000E+01 3.57110E+01 0.00000E+00
 -1      3388 7.89000E+01 3.57110E+01 0.00000E+00
 -1      3389 7.66500E+01 3.44120E+01 0.00000E+00
 -1      3390 8.04000E+01 3.57110E+01 0.00000E+00
 -1      3391 8.19000E+01 3.57110E+01 0.00000E+00
 -1      3392 7.96500E+01 3.44120E+01 0.00000E+00
 -1      3393 8.34000E+01 3.57110E+01 0.00000E+00
 -1      3394 8.49000E+01 3.57110E+01 0.00000E+00
 -1      3395 8.26500E+01 3.44120E+01 0.00000E+00
 -1      3396 8.64000E+01 3.57110E+01 0.00000E+00
 -1      3397 8.79000E+01 3.57110E+01 0.00000E+00
 -1      3398 8.56500E+01 3.44120E+01 0.00000E+00
 -1      3399 8.94000E+01 3.57110E+01 0.00000E+00
 -1      3400 9.09000E+01 3.57110E+01 0.00000E+00
 -1      3401 8.86500E+01 3.44120E+01 0.00000E+00
 -1      3402 9.24000E+01 3.57110E+01 0.00000E+00
 -1      3403 9.39000E+01 3.57110E+01 0.00000E+00
 -1      3404 9.16500E+01 3.44120E+01 0.00000E+00
 -1      3405 9.54000E+01 3.57110E+01 0.00000E+00
 -1      3406 9.69000E+01 3.57110E+01 0.00000E+00
 -1      3407 9.46500E+01 3.44120E+01 0.00000E+00
 -1      3408 9.84000E+01 3.57110E+01 0.00000E+00
 -1      3409 9.99000E+01 3.57110E+01 0.00000E+00
 -1      3410 9.76500E+01 3.44120E+01 0.00000E+00
 -1      3411 1.01400E+02 3.57110E+01 0.00000E+00
 -1      3412 1.02900E+02 3.57110E+01 0.00000E+00
 -1      3413 1.00650E+02 3.44120E+01 0.00000E+00
 -1      3414 1.04400E+02 3.57110E+01 0.00000E+00
 -1      3415 1.05900E+02 3.57110E+01 0.00000E+00
 -1      3416 1.03650E+02 3.44120E+01 0.00000E+00
 -1      3417 1.07400E+02 3.57110E+01 0.00000E+00
 -1      3418 1.08900E+02 3.57110E+01 0.00000E+00
 -1      3419 1.06650E+02 3.44120E+01 0.00000E+00
 -1      3420 1.10400E+02 3.57110E+01 0.00000E+00
 -1      3421 1.11900E+02 3.57110E+01 0.00000E+00
 -1      3422 1.09650E+02 3.44120E+01 0.00000E+00
 -1      3423 1.13400E+02 3.57110E+01 0.00000E+00
 -1      3424 1.14900E+02 3.57110E+01 0.00000E+00
 -1      3425 1.12650E+02 3.44120E+01 0.00000E+00
 -1      3426 1.16400E+02 3.57110E+01 0.00000E+00
 -1      3427 1.17900E+02 3.57110E+01 0.00000E+00
 -1      3428 1.15650E+02 3.44120E+01 0.00000E+00
 -1      3429 1.19400E+02 3.57110E+01 0.00000E+00
 -1      3430 1.20900E+02 3.57110E+01 0.00000E+00
 -1      3431 1.18650E+02 3.44120E+01 0.00000E+00
 -1      3432 1.22400E+02 3.57110E+01 0.00000E+00
 -1      3433 1.23900E+02 3.57110E+01 0.00000E+00
 -1      3434 1.21650E+02 3.44120E+01 0.00000E+00
 -1      3435 1.25400E+02 3.57110E+01 0.00000E+00
 -1      3436 1.26900E+02 3.57110E+01 0.00000E+00
 -1      3437 1.24650E+02 3.44120E+01 0.00000E+00
 -1      3438 1.28400E+02 3.57110E+01 0.00000E+00
 -1      3439 1.29900E+02 3.57110E+01 0.00000E+00
 -1      3440 1.27650E+02 3.44120E+01 0.00000E+00
 -1      3441 1.31400E+02 3.57110E+01 0.00000E+00
 -1      3442 1.32900E+02 3.57110E+01 0.00000E+00
 -1      3443 1.30650E+02 3.44120E+01 0.00000E+00
 -1      3444 2.43975E+01 1.30992E+01 0.00000E+00
 -1      3445 2.28225E+01 1.30992E+01 0.00000E+00
 -1      3446 3.95475E+01 1.30992E+01 0.00000E+00
 -1      3447 3.79725E+01 1.30992E+01 0.00000E+00
 -1      3448 4.25475E+01 1.30992E+01 0.00000E+00
 -1      3449 4.10475E+01 1.30992E+01 0.00000E+00
 -1      3450 4.02600E+01 1.43982E+01 0.00000E+00
 -1      3451 4.55475E+01 1.30992E+01 0.00000E+00
 -1      3452 4.40475E+01 1.30992E+01 0.00000E+00
 -1      3453 4.32600E+01 1.43982E+01 0.00000E+00
 -1      3454 4.85475E+01 1.30992E+01 0.00000E+00
 -1      3455 4.70475E+01 1.30992E+01 0.00000E+00
 -1      3456 4.62600E+01 1.43982E+01 0.00000E+00
 -1      3457 5.15475E+01 1.30992E+01 0.00000E+00
 -1      3458 5.00475E+01 1.30992E+01 0.00000E+00
 -1      3459 4.92600E+01 1.43982E+01 0.00000E+00
 -1      3460 5.45475E+01 1.30992E+01 0.00000E+00
 -1      3461 5.30475E+01 1.30992E+01 0.00000E+00
 -1      3462 5.22600E+01 1.43982E+01 0.00000E+00
 -1      3463 5.75475E+01 1.30992E+01 0.00000E+00
 -1      3464 5.60475E+01 1.30992E+01 0.00000E+00
 -1      3465 5.52600E+01 1.43982E+01 0.00000E+00
 -1      3466 6.06975E+01 1.30992E+01 0.00000E+00
 -1      3467 5.91225E+01 1.30992E+01 0.00000E+00
 -1      3468 5.83350E+01 1.43982E+01 0.00000E+00
 -1      3469 6.36975E+01 1.30992E+01 0.00000E+00
 -1      3470 6.21975E+01 1.30992E+01 0.00000E+00
 -1      3471 6.14100E+01 1.43982E+01 0.00000E+00
 -1      3472 6.66975E+01 1.30992E+01 0.00000E+00
 -1      3473 6.51975E+01 1.30992E+01 0.00000E+00
 -1      3474 6.44100E+01 1.43982E+01 0.00000E+00
 -1      3475 6.96975E+01 1.30992E+01 0.00000E+00
 -1      3476 6.81975E+01 1.30992E+01 0.00000E+00
 -1      3477 6.74100E+01 1.43982E+01 0.00000E+00
 -1      3478 7.26975E+01 1.30992E+01 0.00000E+00
 -1      3479 7.11975E+01 1.30992E+01 0.00000E+00
 -1      3480 7.04100E+01 1.43982E+01 0.00000E+00
 -1      3481 7.56975E+01 1.30992E+01 0.00000E+00
 -1      3482 7.41975E+01 1.30992E+01 0.00000E+00
 -1      3483 7.34100E+01 1.43982E+01 0.00000E+00
 -1      3484 7.86975E+01 1.30992E+01 0.00000E+00
 -1      3485 7.71975E+01 1.30992E+01 0.00000E+00
 -1      3486 7.64100E+01 1.43982E+01 0.00000E+00
 -1      3487 8.18475E+01 1.30992E+01 0.00000E+00
 -1      3488 8.02725E+01 1.30992E+01 0.00000E+00
 -1      3489 7.94850E+01 1.43982E+01 0.00000E+00
 -1      3490 8.48475E+01 1.30992E+01 0.00000E+00
 -1      3491 8.33475E+01 1.30992E+01 0.00000E+00
 -1      3492 8.25600E+01 1.43982E+01 0.00000E+00
 -1      3493 1.33200E+01 3.54019E+01 0.00000E+00
 -1      3494 1.29850E+02 1.41227E+01 0.00000E+00
 -1      3495 1.28350E+02 1.41227E+01 0.00000E+00
 -1      3496 1.32850E+02 1.41227E+01 0.00000E+00
 -1      3497 1.31350E+02 1.41227E+01 0.00000E+00
 -1      3498 1.30600E+02 1.54217E+01 0.00000E+00
 -1      3499 1.35711E+02 2.72125E+01 0.00000E+00
 -1      3500 1.35711E+02 2.57375E+01 0.00000E+00
 -1      3501 1.38113E+02 1.45718E+01 0.00000E+00
 -1      3502 1.37736E+02 1.34469E+01 0.00000E+00
 -1      3503 1.36423E+02 1.35340E+01 0.00000E+00
 -1      3504 1.36814E+02 1.53030E+01 0.00000E+00
 -1      3505 3.64350E+01 1.30992E+01 0.00000E+00
 -1      3506 3.49350E+01 1.30992E+01 0.00000E+00
 -1      3507 3.41850E+01 1.43982E+01 0.00000E+00
 -1      3508 9.62350E+01 2.89172E+01 0.00000E+00
 -1      3509 9.46508E+01 2.80675E+01 0.00000E+00
 -1      3510 1.06071E+02 3.07055E+01 0.00000E+00
 -1      3511 1.04636E+02 3.06924E+01 0.00000E+00
 -1      3512 1.35711E+02 3.31125E+01 0.00000E+00
 -1      3513 1.35711E+02 3.16375E+01 0.00000E+00
 -1      3514 1.15987E+02 2.67656E+01 0.00000E+00
 -1      3515 1.14873E+02 2.79058E+01 0.00000E+00
 -1      3516 2.73975E+01 1.30992E+01 0.00000E+00
 -1      3517 2.58975E+01 1.30992E+01 0.00000E+00
 -1      3518 2.51100E+01 1.43982E+01 0.00000E+00
 -1      3519 3.04350E+01 1.30992E+01 0.00000E+00
 -1      3520 2.89350E+01 1.30992E+01 0.00000E+00
 -1      3521 3.11850E+01 1.43982E+01 0.00000E+00
 -1      3522 1.16910E+01 2.71844E+01 0.00000E+00
 -1      3523 1.16910E+01 2.86531E+01 0.00000E+00
 -1      3524 1.29900E+01 2.93875E+01 0.00000E+00
 -1      3525 9.98054E+01 2.98047E+01 0.00000E+00
 -1      3526 9.81988E+01 2.95767E+01 0.00000E+00
 -1      3527 1.46100E+01 3.55564E+01 0.00000E+00
 -1      3528 1.61100E+01 3.55564E+01 0.00000E+00
 -1      3529 1.68600E+01 3.42574E+01 0.00000E+00
 -1      3530 1.42800E+01 3.39483E+01 0.00000E+00
 -1      3531 9.29425E+01 2.69189E+01 0.00000E+00
 -1      3532 9.17382E+01 2.57289E+01 0.00000E+00
 -1      3533 8.86631E+01 1.83400E+01 0.00000E+00
 -1      3534 8.83232E+01 1.70172E+01 0.00000E+00
 -1      3535 1.35711E+02 3.01625E+01 0.00000E+00
 -1      3536 1.35711E+02 2.86875E+01 0.00000E+00
 -1      3537 1.34412E+02 2.79500E+01 0.00000E+00
 -1      3538 1.34412E+02 3.09000E+01 0.00000E+00
 -1      3539 1.46944E+01 1.23503E+01 0.00000E+00
 -1      3540 1.43081E+01 1.33498E+01 0.00000E+00
 -1      3541 1.60125E+01 1.25001E+01 0.00000E+00
 -1      3542 8.95611E+01 2.05521E+01 0.00000E+00
 -1      3543 8.93221E+01 1.96223E+01 0.00000E+00
 -1      3544 8.78940E+01 1.92843E+01 0.00000E+00
 -1      3545 8.92118E+01 2.18490E+01 0.00000E+00
 -1      3546 1.03741E+02 3.12196E+01 0.00000E+00
 -1      3547 1.19220E+02 2.32161E+01 0.00000E+00
 -1      3548 2.13225E+01 1.30992E+01 0.00000E+00
 -1      3549 1.98225E+01 1.30992E+01 0.00000E+00
 -1      3550 2.21100E+01 1.43982E+01 0.00000E+00
 -1      3551 1.42890E+01 2.86531E+01 0.00000E+00
 -1      3552 1.42890E+01 3.01219E+01 0.00000E+00
 -1      3553 9.34783E+01 2.97230E+01 0.00000E+00
 -1      3554 9.32104E+01 2.83209E+01 0.00000E+00
 -1      3555 9.17700E+01 2.85744E+01 0.00000E+00
 -1      3556 2.81475E+01 1.43982E+01 0.00000E+00
 -1      3557 1.34022E+02 3.59933E+01 0.00000E+00
 -1      3558 1.35329E+02 3.61043E+01 0.00000E+00
 -1      3559 1.35515E+02 3.52588E+01 0.00000E+00
 -1      3560 1.33272E+02 3.46942E+01 0.00000E+00
 -1      3561 3.72225E+01 1.43982E+01 0.00000E+00
 -1      3562 9.04503E+01 2.65952E+01 0.00000E+00
 -1      3563 9.06864E+01 2.51518E+01 0.00000E+00
 -1      3564 8.96346E+01 2.45747E+01 0.00000E+00
 -1      3565 8.57916E+01 1.41573E+01 0.00000E+00
 -1      3566 1.19659E+02 1.66643E+01 0.00000E+00
 -1      3567 1.20507E+02 1.76370E+01 0.00000E+00
 -1      3568 1.20415E+02 1.58296E+01 0.00000E+00
 -1      3569 1.34412E+02 2.50000E+01 0.00000E+00
 -1      3570 1.35711E+02 2.42625E+01 0.00000E+00
 -1      3571 1.35711E+02 2.27875E+01 0.00000E+00
 -1      3572 1.23749E+02 1.39044E+01 0.00000E+00
 -1      3573 1.22211E+02 1.38931E+01 0.00000E+00
 -1      3574 1.35293E+02 1.37848E+01 0.00000E+00
 -1      3575 1.33980E+02 1.38719E+01 0.00000E+00
 -1      3576 1.33230E+02 1.51709E+01 0.00000E+00
 -1      3577 1.35489E+02 1.46693E+01 0.00000E+00
 -1      3578 1.29900E+01 2.64469E+01 0.00000E+00
 -1      3579 9.68825E+01 3.01291E+01 0.00000E+00
 -1      3580 1.10579E+02 2.99770E+01 0.00000E+00
 -1      3581 1.43081E+01 1.48185E+01 0.00000E+00
 -1      3582 1.17246E+02 2.64857E+01 0.00000E+00
 -1      3583 1.15791E+02 2.91600E+01 0.00000E+00
 -1      3584 1.14321E+02 2.88380E+01 0.00000E+00
 -1      3585 1.13769E+02 2.97702E+01 0.00000E+00
 -1      3586 1.35702E+02 3.44132E+01 0.00000E+00
 -1      3587 1.35685E+02 1.55538E+01 0.00000E+00
 -1      3588 1.26813E+02 1.41114E+01 0.00000E+00
 -1      3589 1.25275E+02 1.41002E+01 0.00000E+00
 -1      3590 1.27563E+02 1.54104E+01 0.00000E+00
 -1      3591 1.00492E+02 3.07519E+01 0.00000E+00
 -1      3592 8.73791E+01 1.59591E+01 0.00000E+00
 -1      3593 1.42890E+01 1.98172E+01 0.00000E+00
 -1      3594 1.42890E+01 2.12891E+01 0.00000E+00
 -1      3595 1.55880E+01 2.20281E+01 0.00000E+00
 -1      3596 1.42890E+01 2.27641E+01 0.00000E+00
 -1      3597 1.42890E+01 2.42391E+01 0.00000E+00
 -1      3598 1.42845E+01 3.13007E+01 0.00000E+00
 -1      3599 1.42845E+01 3.27695E+01 0.00000E+00
 -1      3600 1.55745E+01 3.29240E+01 0.00000E+00
 -1      3601 1.55835E+01 3.05663E+01 0.00000E+00
 -1      3602 1.20021E+02 2.00801E+01 0.00000E+00
 -1      3603 1.21270E+02 1.49322E+01 0.00000E+00
 -1      3604 1.20509E+02 1.38177E+01 0.00000E+00
 -1      3605 1.35685E+02 1.70194E+01 0.00000E+00
 -1      3606 1.34360E+02 1.63857E+01 0.00000E+00
 -1      3607 1.35685E+02 1.84850E+01 0.00000E+00
 -1      3608 1.34403E+02 3.36758E+01 0.00000E+00
 -1      3609 3.79912E+01 1.56973E+01 0.00000E+00
 -1      3610 3.64538E+01 1.56973E+01 0.00000E+00
 -1      3611 1.20897E+02 1.91061E+01 0.00000E+00
 -1      3612 1.21167E+02 2.07146E+01 0.00000E+00
 -1      3613 2.19000E+01 3.31130E+01 0.00000E+00
 -1      3614 2.34000E+01 3.31130E+01 0.00000E+00
 -1      3615 2.49000E+01 3.31130E+01 0.00000E+00
 -1      3616 2.64000E+01 3.31130E+01 0.00000E+00
 -1      3617 2.41500E+01 3.18140E+01 0.00000E+00
 -1      3618 2.79000E+01 3.31130E+01 0.00000E+00
 -1      3619 2.94000E+01 3.31130E+01 0.00000E+00
 -1      3620 2.71500E+01 3.18140E+01 0.00000E+00
 -1      3621 3.09000E+01 3.31130E+01 0.00000E+00
 -1      3622 3.24000E+01 3.31130E+01 0.00000E+00
 -1      3623 3.01500E+01 3.18140E+01 0.00000E+00
 -1      3624 3.39000E+01 3.31130E+01 0.00000E+00
 -1      3625 3.54000E+01 3.31130E+01 0.00000E+00
 -1      3626 3.31500E+01 3.18140E+01 0.00000E+00
 -1      3627 3.69000E+01 3.31130E+01 0.00000E+00
 -1      3628 3.84000E+01 3.31130E+01 0.00000E+00
 -1      3629 3.61500E+01 3.18140E+01 0.00000E+00
 -1      3630 3.99000E+01 3.31130E+01 0.00000E+00
 -1      3631 4.14000E+01 3.31130E+01 0.00000E+00
 -1      3632 3.91500E+01 3.18140E+01 0.00000E+00
 -1      3633 4.29000E+01 3.31130E+01 0.00000E+00
 -1      3634 4.44000E+01 3.31130E+01 0.00000E+00
 -1      3635 4.21500E+01 3.18140E+01 0.00000E+00
 -1      3636 4.59000E+01 3.31130E+01 0.00000E+00
 -1      3637 4.74000E+01 3.31130E+01 0.00000E+00
 -1      3638 4.51500E+01 3.18140E+01 0.00000E+00
 -1      3639 4.89000E+01 3.31130E+01 0.00000E+00
 -1      3640 5.04000E+01 3.31130E+01 0.00000E+00
 -1      3641 4.81500E+01 3.18140E+01 0.00000E+00
 -1      3642 5.19000E+01 3.31130E+01 0.00000E+00
 -1      3643 5.34000E+01 3.31130E+01 0.00000E+00
 -1      3644 5.11500E+01 3.18140E+01 0.00000E+00
 -1      3645 5.49000E+01 3.31130E+01 0.00000E+00
 -1      3646 5.64000E+01 3.31130E+01 0.00000E+00
 -1      3647 5.41500E+01 3.18140E+01 0.00000E+00
 -1      3648 5.79000E+01 3.31130E+01 0.00000E+00
 -1      3649 5.94000E+01 3.31130E+01 0.00000E+00
 -1      3650 5.71500E+01 3.18140E+01 0.00000E+00
 -1      3651 6.09000E+01 3.31130E+01 0.00000E+00
 -1      3652 6.24000E+01 3.31130E+01 0.00000E+00
 -1      3653 6.01500E+01 3.18140E+01 0.00000E+00
 -1      3654 6.39000E+01 3.31130E+01 0.00000E+00
 -1      3655 6.54000E+01 3.31130E+01 0.00000E+00
 -1      3656 6.31500E+01 3.18140E+01 0.00000E+00
 -1      3657 6.69000E+01 3.31130E+01 0.00000E+00
 -1      3658 6.84000E+01 3.31130E+01 0.00000E+00
 -1      3659 6.61500E+01 3.18140E+01 0.00000E+00
 -1      3660 6.99000E+01 3.31130E+01 0.00000E+00
 -1      3661 7.14000E+01 3.31130E+01 0.00000E+00
 -1      3662 6.91500E+01 3.18140E+01 0.00000E+00
 -1      3663 7.29000E+01 3.31130E+01 0.00000E+00
 -1      3664 7.44000E+01 3.31130E+01 0.00000E+00
 -1      3665 7.21500E+01 3.18140E+01 0.00000E+00
 -1      3666 7.59000E+01 3.31130E+01 0.00000E+00
 -1      3667 7.74000E+01 3.31130E+01 0.00000E+00
 -1      3668 7.51500E+01 3.18140E+01 0.00000E+00
 -1      3669 7.89000E+01 3.31130E+01 0.00000E+00
 -1      3670 8.04000E+01 3.31130E+01 0.00000E+00
 -1      3671 7.81500E+01 3.18140E+01 0.00000E+00
 -1      3672 8.19000E+01 3.31130E+01 0.00000E+00
 -1      3673 8.34000E+01 3.31130E+01 0.00000E+00
 -1      3674 8.11500E+01 3.18140E+01 0.00000E+00
 -1      3675 8.49000E+01 3.31130E+01 0.00000E+00
 -1      3676 8.64000E+01 3.31130E+01 0.00000E+00
 -1      3677 8.41500E+01 3.18140E+01 0.00000E+00
 -1      3678 8.79000E+01 3.31130E+01 0.00000E+00
 -1      3679 8.94000E+01 3.31130E+01 0.00000E+00
 -1      3680 8.71500E+01 3.18140E+01 0.00000E+00
 -1      3681 9.10939E+01 3.21942E+01 0.00000E+00
 -1      3682 9.25939E+01 3.21942E+01 0.00000E+00
 -1      3683 9.40344E+01 3.19408E+01 0.00000E+00
 -1      3684 9.55344E+01 3.19408E+01 0.00000E+00
 -1      3685 9.74982E+01 3.26003E+01 0.00000E+00
 -1      3686 9.89982E+01 3.26003E+01 0.00000E+00
 -1      3687 1.00644E+02 3.25635E+01 0.00000E+00
 -1      3688 1.02144E+02 3.25635E+01 0.00000E+00
 -1      3689 1.03644E+02 3.25635E+01 0.00000E+00
 -1      3690 1.05247E+02 3.30680E+01 0.00000E+00
 -1      3691 1.06747E+02 3.30680E+01 0.00000E+00
 -1      3692 1.08504E+02 3.24589E+01 0.00000E+00
 -1      3693 1.10004E+02 3.24589E+01 0.00000E+00
 -1      3694 1.11725E+02 3.19301E+01 0.00000E+00
 -1      3695 1.13225E+02 3.19301E+01 0.00000E+00
 -1      3696 1.14695E+02 3.22521E+01 0.00000E+00
 -1      3697 1.16195E+02 3.22521E+01 0.00000E+00
 -1      3698 1.20900E+02 3.31130E+01 0.00000E+00
 -1      3699 1.22400E+02 3.31130E+01 0.00000E+00
 -1      3700 1.23900E+02 3.31130E+01 0.00000E+00
 -1      3701 1.25400E+02 3.31130E+01 0.00000E+00
 -1      3702 1.23150E+02 3.18140E+01 0.00000E+00
 -1      3703 1.26900E+02 3.31130E+01 0.00000E+00
 -1      3704 1.28400E+02 3.31130E+01 0.00000E+00
 -1      3705 1.26150E+02 3.18140E+01 0.00000E+00
 -1      3706 1.29900E+02 3.31130E+01 0.00000E+00
 -1      3707 1.31400E+02 3.31130E+01 0.00000E+00
 -1      3708 1.29150E+02 3.18140E+01 0.00000E+00
 -1      3709 1.33281E+02 3.33935E+01 0.00000E+00
 -1      3710 4.09912E+01 1.56973E+01 0.00000E+00
 -1      3711 3.94912E+01 1.56973E+01 0.00000E+00
 -1      3712 3.87225E+01 1.69963E+01 0.00000E+00
 -1      3713 5.00100E+01 1.56973E+01 0.00000E+00
 -1      3714 4.85100E+01 1.56973E+01 0.00000E+00
 -1      3715 5.30100E+01 1.56973E+01 0.00000E+00
 -1      3716 5.15100E+01 1.56973E+01 0.00000E+00
 -1      3717 5.07600E+01 1.69963E+01 0.00000E+00
 -1      3718 5.60100E+01 1.56973E+01 0.00000E+00
 -1      3719 5.45100E+01 1.56973E+01 0.00000E+00
 -1      3720 5.37600E+01 1.69963E+01 0.00000E+00
 -1      3721 5.91600E+01 1.56973E+01 0.00000E+00
 -1      3722 5.75850E+01 1.56973E+01 0.00000E+00
 -1      3723 5.68350E+01 1.69963E+01 0.00000E+00
 -1      3724 6.21600E+01 1.56973E+01 0.00000E+00
 -1      3725 6.06600E+01 1.56973E+01 0.00000E+00
 -1      3726 5.99100E+01 1.69963E+01 0.00000E+00
 -1      3727 6.51600E+01 1.56973E+01 0.00000E+00
 -1      3728 6.36600E+01 1.56973E+01 0.00000E+00
 -1      3729 6.29100E+01 1.69963E+01 0.00000E+00
 -1      3730 6.81600E+01 1.56973E+01 0.00000E+00
 -1      3731 6.66600E+01 1.56973E+01 0.00000E+00
 -1      3732 6.59100E+01 1.69963E+01 0.00000E+00
 -1      3733 7.11600E+01 1.56973E+01 0.00000E+00
 -1      3734 6.96600E+01 1.56973E+01 0.00000E+00
 -1      3735 6.89100E+01 1.69963E+01 0.00000E+00
 -1      3736 7.41600E+01 1.56973E+01 0.00000E+00
 -1      3737 7.26600E+01 1.56973E+01 0.00000E+00
 -1      3738 7.19100E+01 1.69963E+01 0.00000E+00
 -1      3739 7.71600E+01 1.56973E+01 0.00000E+00
 -1      3740 7.56600E+01 1.56973E+01 0.00000E+00
 -1      3741 7.49100E+01 1.69963E+01 0.00000E+00
 -1      3742 8.03100E+01 1.56973E+01 0.00000E+00
 -1      3743 7.87350E+01 1.56973E+01 0.00000E+00
 -1      3744 7.79850E+01 1.69963E+01 0.00000E+00
 -1      3745 8.33100E+01 1.56973E+01 0.00000E+00
 -1      3746 8.18100E+01 1.56973E+01 0.00000E+00
 -1      3747 8.10600E+01 1.69963E+01 0.00000E+00
 -1      3748 1.24499E+02 1.52034E+01 0.00000E+00
 -1      3749 1.19829E+02 1.30562E+01 0.00000E+00
 -1      3750 1.31350E+02 1.67207E+01 0.00000E+00
 -1      3751 1.29850E+02 1.67207E+01 0.00000E+00
 -1      3752 1.33230E+02 1.66365E+01 0.00000E+00
 -1      3753 1.42890E+01 2.57102E+01 0.00000E+00
 -1      3754 1.42890E+01 2.71820E+01 0.00000E+00
 -1      3755 1.55880E+01 2.79164E+01 0.00000E+00
 -1      3756 1.55880E+01 2.49742E+01 0.00000E+00
 -1      3757 1.35698E+02 2.13691E+01 0.00000E+00
 -1      3758 1.35698E+02 1.99035E+01 0.00000E+00
 -1      3759 1.34373E+02 1.92698E+01 0.00000E+00
 -1      3760 1.34399E+02 2.21066E+01 0.00000E+00
 -1      3761 1.07101E+02 3.11149E+01 0.00000E+00
 -1      3762 1.20820E+02 2.31981E+01 0.00000E+00
 -1      3763 1.19748E+02 2.47257E+01 0.00000E+00
 -1      3764 8.56475E+01 1.62001E+01 0.00000E+00
 -1      3765 1.85766E+01 1.28746E+01 0.00000E+00
 -1      3766 1.72584E+01 1.27248E+01 0.00000E+00
 -1      3767 1.68722E+01 1.37242E+01 0.00000E+00
 -1      3768 1.93641E+01 1.41736E+01 0.00000E+00
 -1      3769 2.58600E+01 1.56973E+01 0.00000E+00
 -1      3770 2.43600E+01 1.56973E+01 0.00000E+00
 -1      3771 1.18845E+02 2.64677E+01 0.00000E+00
 -1      3772 1.17942E+02 2.82097E+01 0.00000E+00
 -1      3773 1.20444E+02 2.64497E+01 0.00000E+00
 -1      3774 3.19350E+01 1.56973E+01 0.00000E+00
 -1      3775 3.04350E+01 1.56973E+01 0.00000E+00
 -1      3776 1.58860E+01 1.50773E+01 0.00000E+00
 -1      3777 1.45679E+01 1.63963E+01 0.00000E+00
 -1      3778 2.89163E+01 1.56973E+01 0.00000E+00
 -1      3779 2.73787E+01 1.56973E+01 0.00000E+00
 -1      3780 2.66287E+01 1.69963E+01 0.00000E+00
 -1      3781 2.96663E+01 1.69963E+01 0.00000E+00
 -1      3782 1.45679E+01 1.78681E+01 0.00000E+00
 -1      3783 4.70100E+01 1.56973E+01 0.00000E+00
 -1      3784 4.55100E+01 1.56973E+01 0.00000E+00
 -1      3785 4.77600E+01 1.69963E+01 0.00000E+00
 -1      3786 1.58669E+01 1.86041E+01 0.00000E+00
 -1      3787 4.40100E+01 1.56973E+01 0.00000E+00
 -1      3788 4.25100E+01 1.56973E+01 0.00000E+00
 -1      3789 4.47600E+01 1.69963E+01 0.00000E+00
 -1      3790 1.89000E+01 3.31130E+01 0.00000E+00
 -1      3791 2.04000E+01 3.31130E+01 0.00000E+00
 -1      3792 2.11500E+01 3.18140E+01 0.00000E+00
 -1      3793 1.22117E+02 1.59050E+01 0.00000E+00
 -1      3794 3.49350E+01 1.56973E+01 0.00000E+00
 -1      3795 3.34350E+01 1.56973E+01 0.00000E+00
 -1      3796 3.26850E+01 1.69963E+01 0.00000E+00
 -1      3797 1.32531E+02 3.20945E+01 0.00000E+00
 -1      3798 8.48975E+01 1.74991E+01 0.00000E+00
 -1      3799 4.17412E+01 1.69963E+01 0.00000E+00
 -1      3800 2.28600E+01 1.56973E+01 0.00000E+00
 -1      3801 2.13600E+01 1.56973E+01 0.00000E+00
 -1      3802 2.36100E+01 1.69963E+01 0.00000E+00
 -1      3803 1.22571E+02 2.12501E+01 0.00000E+00
 -1      3804 1.21695E+02 2.22241E+01 0.00000E+00
 -1      3805 1.22223E+02 2.37336E+01 0.00000E+00
 -1      3806 9.06280E+01 2.95192E+01 0.00000E+00
 -1      3807 9.03601E+01 2.81171E+01 0.00000E+00
 -1      3808 8.93083E+01 2.75400E+01 0.00000E+00
 -1      3809 1.16905E+02 3.06466E+01 0.00000E+00
 -1      3810 1.17860E+02 3.28065E+01 0.00000E+00
 -1      3811 1.19360E+02 3.28065E+01 0.00000E+00
 -1      3812 8.57931E+01 1.90205E+01 0.00000E+00
 -1      3813 8.34556E+01 1.85176E+01 0.00000E+00
 -1      3814 1.25097E+02 1.65897E+01 0.00000E+00
 -1      3815 1.23570E+02 1.63940E+01 0.00000E+00
 -1      3816 1.32480E+02 1.79355E+01 0.00000E+00
 -1      3817 1.20110E+02 3.15075E+01 0.00000E+00
 -1      3818 1.33113E+02 2.57375E+01 0.00000E+00
 -1      3819 1.33113E+02 2.42625E+01 0.00000E+00
 -1      3820 1.32531E+02 3.06195E+01 0.00000E+00
 -1      3821 1.68870E+01 2.71809E+01 0.00000E+00
 -1      3822 1.68870E+01 2.86520E+01 0.00000E+00
 -1      3823 8.82346E+01 2.50866E+01 0.00000E+00
 -1      3824 8.84707E+01 2.36433E+01 0.00000E+00
 -1      3825 1.21653E+02 1.82714E+01 0.00000E+00
 -1      3826 1.81815E+01 2.90952E+01 0.00000E+00
 -1      3827 1.68825E+01 2.98308E+01 0.00000E+00
 -1      3828 1.68780E+01 3.10096E+01 0.00000E+00
 -1      3829 1.17457E+02 2.97144E+01 0.00000E+00
 -1      3830 1.19056E+02 2.96964E+01 0.00000E+00
 -1      3831 3.57038E+01 1.69963E+01 0.00000E+00
 -1      3832 1.72922E+01 1.78135E+01 0.00000E+00
 -1      3833 1.70133E+01 1.97626E+01 0.00000E+00
 -1      3834 1.71320E+01 1.53020E+01 0.00000E+00
 -1      3835 1.28313E+02 1.67094E+01 0.00000E+00
 -1      3836 1.26775E+02 1.66982E+01 0.00000E+00
 -1      3837 1.29063E+02 1.80084E+01 0.00000E+00
 -1      3838 1.70133E+01 2.12376E+01 0.00000E+00
 -1      3839 1.70133E+01 2.27126E+01 0.00000E+00
 -1      3840 1.84387E+01 2.04471E+01 0.00000E+00
 -1      3841 1.68645E+01 3.30786E+01 0.00000E+00
 -1      3842 1.33113E+02 2.86875E+01 0.00000E+00
 -1      3843 1.33113E+02 2.72125E+01 0.00000E+00
 -1      3844 1.31814E+02 2.64750E+01 0.00000E+00
 -1      3845 8.78118E+01 2.23609E+01 0.00000E+00
 -1      3846 8.64520E+01 2.03028E+01 0.00000E+00
 -1      3847 1.22715E+02 1.72913E+01 0.00000E+00
 -1      3848 9.03439E+01 3.08952E+01 0.00000E+00
 -1      3849 8.89341E+01 3.04380E+01 0.00000E+00
 -1      3850 8.79665E+01 2.82242E+01 0.00000E+00
 -1      3851 8.80567E+01 2.67022E+01 0.00000E+00
 -1      3852 2.64000E+01 3.05150E+01 0.00000E+00
 -1      3853 2.79000E+01 3.05150E+01 0.00000E+00
 -1      3854 2.94000E+01 3.05150E+01 0.00000E+00
 -1      3855 3.09000E+01 3.05150E+01 0.00000E+00
 -1      3856 2.86500E+01 2.92160E+01 0.00000E+00
 -1      3857 3.24000E+01 3.05150E+01 0.00000E+00
 -1      3858 3.39000E+01 3.05150E+01 0.00000E+00
 -1      3859 3.16500E+01 2.92160E+01 0.00000E+00
 -1      3860 3.54000E+01 3.05150E+01 0.00000E+00
 -1      3861 3.69000E+01 3.05150E+01 0.00000E+00
 -1      3862 3.46500E+01 2.92160E+01 0.00000E+00
 -1      3863 3.84000E+01 3.05150E+01 0.00000E+00
 -1      3864 3.99000E+01 3.05150E+01 0.00000E+00
 -1      3865 3.76500E+01 2.92160E+01 0.00000E+00
 -1      3866 4.14000E+01 3.05150E+01 0.00000E+00
 -1      3867 4.29000E+01 3.05150E+01 0.00000E+00
 -1      3868 4.06500E+01 2.92160E+01 0.00000E+00
 -1      3869 4.44000E+01 3.05150E+01 0.00000E+00
 -1      3870 4.59000E+01 3.05150E+01 0.00000E+00
 -1      3871 4.36500E+01 2.92160E+01 0.00000E+00
 -1      3872 4.74000E+01 3.05150E+01 0.00000E+00
 -1      3873 4.89000E+01 3.05150E+01 0.00000E+00
 -1      3874 4.66500E+01 2.92160E+01 0.00000E+00
 -1      3875 5.04000E+01 3.05150E+01 0.00000E+00
 -1      3876 5.19000E+01 3.05150E+01 0.00000E+00
 -1      3877 4.96500E+01 2.92160E+01 0.00000E+00
 -1      3878 5.34000E+01 3.05150E+01 0.00000E+00
 -1      3879 5.49000E+01 3.05150E+01 0.00000E+00
 -1      3880 5.26500E+01 2.92160E+01 0.00000E+00
 -1      3881 5.64000E+01 3.05150E+01 0.00000E+00
 -1      3882 5.79000E+01 3.05150E+01 0.00000E+00
 -1      3883 5.56500E+01 2.92160E+01 0.00000E+00
 -1      3884 5.94000E+01 3.05150E+01 0.00000E+00
 -1      3885 6.09000E+01 3.05150E+01 0.00000E+00
 -1      3886 5.86500E+01 2.92160E+01 0.00000E+00
 -1      3887 6.24000E+01 3.05150E+01 0.00000E+00
 -1      3888 6.39000E+01 3.05150E+01 0.00000E+00
 -1      3889 6.16500E+01 2.92160E+01 0.00000E+00
 -1      3890 6.54000E+01 3.05150E+01 0.00000E+00
 -1      3891 6.69000E+01 3.05150E+01 0.00000E+00
 -1      3892 6.46500E+01 2.92160E+01 0.00000E+00
 -1      3893 6.84000E+01 3.05150E+01 0.00000E+00
 -1      3894 6.99000E+01 3.05150E+01 0.00000E+00
 -1      3895 6.76500E+01 2.92160E+01 0.00000E+00
 -1      3896 7.14000E+01 3.05150E+01 0.00000E+00
 -1      3897 7.29000E+01 3.05150E+01 0.00000E+00
 -1      3898 7.06500E+01 2.92160E+01 0.00000E+00
 -1      3899 7.44000E+01 3.05150E+01 0.00000E+00
 -1      3900 7.59000E+01 3.05150E+01 0.00000E+00
 -1      3901 7.36500E+01 2.92160E+01 0.00000E+00
 -1      3902 7.74000E+01 3.05150E+01 0.00000E+00
 -1      3903 7.89000E+01 3.05150E+01 0.00000E+00
 -1      3904 7.66500E+01 2.92160E+01 0.00000E+00
 -1      3905 8.04000E+01 3.05150E+01 0.00000E+00
 -1      3906 8.19000E+01 3.05150E+01 0.00000E+00
 -1      3907 7.96500E+01 2.92160E+01 0.00000E+00
 -1      3908 8.34000E+01 3.05150E+01 0.00000E+00
 -1      3909 8.49000E+01 3.05150E+01 0.00000E+00
 -1      3910 8.26500E+01 2.92160E+01 0.00000E+00
 -1      3911 2.01141E+01 1.54726E+01 0.00000E+00
 -1      3912 1.88681E+01 1.52479E+01 0.00000E+00
 -1      3913 2.08641E+01 1.67716E+01 0.00000E+00
 -1      3914 1.25847E+02 1.78887E+01 0.00000E+00
 -1      3915 8.27839E+01 1.99373E+01 0.00000E+00
 -1      3916 8.18883E+01 1.84159E+01 0.00000E+00
 -1      3917 1.31801E+02 2.35816E+01 0.00000E+00
 -1      3918 1.33100E+02 2.28441E+01 0.00000E+00
 -1      3919 1.33087E+02 2.14257E+01 0.00000E+00
 -1      3920 1.23106E+02 1.87604E+01 0.00000E+00
 -1      3921 1.25400E+02 3.05150E+01 0.00000E+00
 -1      3922 1.26900E+02 3.05150E+01 0.00000E+00
 -1      3923 1.28400E+02 3.05150E+01 0.00000E+00
 -1      3924 1.29900E+02 3.05150E+01 0.00000E+00
 -1      3925 1.27650E+02 2.92160E+01 0.00000E+00
 -1      3926 5.76225E+01 1.82952E+01 0.00000E+00
 -1      3927 5.60475E+01 1.82952E+01 0.00000E+00
 -1      3928 5.45475E+01 1.82952E+01 0.00000E+00
 -1      3929 5.30475E+01 1.82952E+01 0.00000E+00
 -1      3930 5.53350E+01 1.95942E+01 0.00000E+00
 -1      3931 5.15475E+01 1.82952E+01 0.00000E+00
 -1      3932 5.00475E+01 1.82952E+01 0.00000E+00
 -1      3933 5.23350E+01 1.95942E+01 0.00000E+00
 -1      3934 6.06225E+01 1.82952E+01 0.00000E+00
 -1      3935 5.91225E+01 1.82952E+01 0.00000E+00
 -1      3936 5.83350E+01 1.95942E+01 0.00000E+00
 -1      3937 6.36225E+01 1.82952E+01 0.00000E+00
 -1      3938 6.21225E+01 1.82952E+01 0.00000E+00
 -1      3939 6.13350E+01 1.95942E+01 0.00000E+00
 -1      3940 6.66225E+01 1.82952E+01 0.00000E+00
 -1      3941 6.51225E+01 1.82952E+01 0.00000E+00
 -1      3942 6.43350E+01 1.95942E+01 0.00000E+00
 -1      3943 6.96225E+01 1.82952E+01 0.00000E+00
 -1      3944 6.81225E+01 1.82952E+01 0.00000E+00
 -1      3945 6.73350E+01 1.95942E+01 0.00000E+00
 -1      3946 7.26225E+01 1.82952E+01 0.00000E+00
 -1      3947 7.11225E+01 1.82952E+01 0.00000E+00
 -1      3948 7.03350E+01 1.95942E+01 0.00000E+00
 -1      3949 7.56225E+01 1.82952E+01 0.00000E+00
 -1      3950 7.41225E+01 1.82952E+01 0.00000E+00
 -1      3951 7.33350E+01 1.95942E+01 0.00000E+00
 -1      3952 7.87725E+01 1.82952E+01 0.00000E+00
 -1      3953 7.71975E+01 1.82952E+01 0.00000E+00
 -1      3954 7.64100E+01 1.95942E+01 0.00000E+00
 -1      3955 8.03883E+01 1.84159E+01 0.00000E+00
 -1      3956 1.32493E+02 1.93539E+01 0.00000E+00
 -1      3957 4.25006E+01 1.82952E+01 0.00000E+00
 -1      3958 4.09819E+01 1.82952E+01 0.00000E+00
 -1      3959 8.68928E+01 2.57708E+01 0.00000E+00
 -1      3960 3.34350E+01 1.82952E+01 0.00000E+00
 -1      3961 3.19350E+01 1.82952E+01 0.00000E+00
 -1      3962 8.57109E+01 2.20971E+01 0.00000E+00
 -1      3963 1.20596E+02 3.00029E+01 0.00000E+00
 -1      3964 1.21270E+02 2.82263E+01 0.00000E+00
 -1      3965 1.22324E+02 3.00374E+01 0.00000E+00
 -1      3966 1.23824E+02 3.00374E+01 0.00000E+00
 -1      3967 1.22173E+02 2.64842E+01 0.00000E+00
 -1      3968 1.69502E+01 2.42112E+01 0.00000E+00
 -1      3969 1.69502E+01 2.56823E+01 0.00000E+00
 -1      3970 1.82492E+01 2.64178E+01 0.00000E+00
 -1      3971 1.83755E+01 2.34206E+01 0.00000E+00
 -1      3972 3.94819E+01 1.82952E+01 0.00000E+00
 -1      3973 3.79819E+01 1.82952E+01 0.00000E+00
 -1      3974 4.02412E+01 1.95942E+01 0.00000E+00
 -1      3975 1.78820E+01 1.66010E+01 0.00000E+00
 -1      3976 1.90284E+01 1.77595E+01 0.00000E+00
 -1      3977 2.34000E+01 3.05150E+01 0.00000E+00
 -1      3978 2.49000E+01 3.05150E+01 0.00000E+00
 -1      3979 2.56500E+01 2.92160E+01 0.00000E+00
 -1      3980 4.85475E+01 1.82952E+01 0.00000E+00
 -1      3981 4.70475E+01 1.82952E+01 0.00000E+00
 -1      3982 4.93350E+01 1.95942E+01 0.00000E+00
 -1      3983 4.55006E+01 1.82952E+01 0.00000E+00
 -1      3984 4.40006E+01 1.82952E+01 0.00000E+00
 -1      3985 4.32412E+01 1.95942E+01 0.00000E+00
 -1      3986 3.64678E+01 1.82952E+01 0.00000E+00
 -1      3987 3.49491E+01 1.82952E+01 0.00000E+00
 -1      3988 3.41991E+01 1.95942E+01 0.00000E+00
 -1      3989 3.72272E+01 1.95942E+01 0.00000E+00
 -1      3990 1.76145E+01 3.17796E+01 0.00000E+00
 -1      3991 1.24696E+02 1.92898E+01 0.00000E+00
 -1      3992 1.23634E+02 2.02700E+01 0.00000E+00
 -1      3993 1.24162E+02 2.17795E+01 0.00000E+00
 -1      3994 8.53070E+01 2.38422E+01 0.00000E+00
 -1      3995 8.39472E+01 2.17841E+01 0.00000E+00
 -1      3996 2.43600E+01 1.82952E+01 0.00000E+00
 -1      3997 2.28600E+01 1.82952E+01 0.00000E+00
 -1      3998 8.23800E+01 2.16824E+01 0.00000E+00
 -1      3999 8.51291E+01 2.54578E+01 0.00000E+00
 -1      4000 3.11663E+01 1.95942E+01 0.00000E+00
 -1      4001 3.04163E+01 1.82952E+01 0.00000E+00
 -1      4002 2.88975E+01 1.82952E+01 0.00000E+00
 -1      4003 8.54324E+01 2.83012E+01 0.00000E+00
 -1      4004 8.61824E+01 2.96002E+01 0.00000E+00
 -1      4005 8.76824E+01 2.96002E+01 0.00000E+00
 -1      4006 1.30508E+02 2.43028E+01 0.00000E+00
 -1      4007 1.30495E+02 2.28844E+01 0.00000E+00
 -1      4008 1.24574E+02 2.87384E+01 0.00000E+00
 -1      4009 1.30482E+02 2.85830E+01 0.00000E+00
 -1      4010 1.31232E+02 2.98820E+01 0.00000E+00
 -1      4011 1.26375E+02 1.93983E+01 0.00000E+00
 -1      4012 7.96008E+01 1.97149E+01 0.00000E+00
 -1      4013 1.22986E+02 2.53477E+01 0.00000E+00
 -1      4014 1.23812E+02 2.71243E+01 0.00000E+00
 -1      4015 1.25387E+02 2.76019E+01 0.00000E+00
 -1      4016 1.23862E+02 2.43737E+01 0.00000E+00
 -1      4017 1.95786E+01 2.57232E+01 0.00000E+00
 -1      4018 1.95154E+01 2.72218E+01 0.00000E+00
 -1      4019 1.29822E+02 1.93130E+01 0.00000E+00
 -1      4020 1.28285E+02 1.93018E+01 0.00000E+00
 -1      4021 1.97377E+01 1.97096E+01 0.00000E+00
 -1      4022 1.97377E+01 2.11846E+01 0.00000E+00
 -1      4023 2.04000E+01 3.05150E+01 0.00000E+00
 -1      4024 2.19000E+01 3.05150E+01 0.00000E+00
 -1      4025 1.31194E+02 2.00914E+01 0.00000E+00
 -1      4026 2.73881E+01 1.82952E+01 0.00000E+00
 -1      4027 2.58694E+01 1.82952E+01 0.00000E+00
 -1      4028 2.51194E+01 1.95942E+01 0.00000E+00
 -1      4029 2.81381E+01 1.95942E+01 0.00000E+00
 -1      4030 4.62881E+01 1.95942E+01 0.00000E+00
 -1      4031 2.03274E+01 1.84970E+01 0.00000E+00
 -1      4032 2.09974E+01 2.78716E+01 0.00000E+00
 -1      4033 1.96680E+01 2.85662E+01 0.00000E+00
 -1      4034 1.30495E+02 2.71804E+01 0.00000E+00
 -1      4035 1.30495E+02 2.57054E+01 0.00000E+00
 -1      4036 1.29190E+02 2.50082E+01 0.00000E+00
 -1      4037 1.29163E+02 2.78134E+01 0.00000E+00
 -1      4038 1.89135E+01 3.10440E+01 0.00000E+00
 -1      4039 1.96635E+01 2.97450E+01 0.00000E+00
 -1      4040 2.26500E+01 2.92160E+01 0.00000E+00
 -1      4041 8.18625E+01 2.32981E+01 0.00000E+00
 -1      4042 8.06992E+01 2.14513E+01 0.00000E+00
 -1      4043 5.60850E+01 2.08932E+01 0.00000E+00
 -1      4044 5.45850E+01 2.08932E+01 0.00000E+00
 -1      4045 2.79000E+01 2.79170E+01 0.00000E+00
 -1      4046 2.94000E+01 2.79170E+01 0.00000E+00
 -1      4047 3.09000E+01 2.79170E+01 0.00000E+00
 -1      4048 3.24000E+01 2.79170E+01 0.00000E+00
 -1      4049 3.01500E+01 2.66180E+01 0.00000E+00
 -1      4050 3.39000E+01 2.79170E+01 0.00000E+00
 -1      4051 3.54000E+01 2.79170E+01 0.00000E+00
 -1      4052 3.31500E+01 2.66180E+01 0.00000E+00
 -1      4053 3.69000E+01 2.79170E+01 0.00000E+00
 -1      4054 3.84000E+01 2.79170E+01 0.00000E+00
 -1      4055 3.61500E+01 2.66180E+01 0.00000E+00
 -1      4056 3.99000E+01 2.79170E+01 0.00000E+00
 -1      4057 4.14000E+01 2.79170E+01 0.00000E+00
 -1      4058 3.91500E+01 2.66180E+01 0.00000E+00
 -1      4059 4.29000E+01 2.79170E+01 0.00000E+00
 -1      4060 4.44000E+01 2.79170E+01 0.00000E+00
 -1      4061 4.21500E+01 2.66180E+01 0.00000E+00
 -1      4062 4.59000E+01 2.79170E+01 0.00000E+00
 -1      4063 4.74000E+01 2.79170E+01 0.00000E+00
 -1      4064 4.51500E+01 2.66180E+01 0.00000E+00
 -1      4065 4.89000E+01 2.79170E+01 0.00000E+00
 -1      4066 5.04000E+01 2.79170E+01 0.00000E+00
 -1      4067 4.81500E+01 2.66180E+01 0.00000E+00
 -1      4068 5.19000E+01 2.79170E+01 0.00000E+00
 -1      4069 5.34000E+01 2.79170E+01 0.00000E+00
 -1      4070 5.11500E+01 2.66180E+01 0.00000E+00
 -1      4071 5.49000E+01 2.79170E+01 0.00000E+00
 -1      4072 5.64000E+01 2.79170E+01 0.00000E+00
 -1      4073 5.41500E+01 2.66180E+01 0.00000E+00
 -1      4074 5.79000E+01 2.79170E+01 0.00000E+00
 -1      4075 5.94000E+01 2.79170E+01 0.00000E+00
 -1      4076 5.71500E+01 2.66180E+01 0.00000E+00
 -1      4077 6.09000E+01 2.79170E+01 0.00000E+00
 -1      4078 6.24000E+01 2.79170E+01 0.00000E+00
 -1      4079 6.01500E+01 2.66180E+01 0.00000E+00
 -1      4080 6.39000E+01 2.79170E+01 0.00000E+00
 -1      4081 6.54000E+01 2.79170E+01 0.00000E+00
 -1      4082 6.31500E+01 2.66180E+01 0.00000E+00
 -1      4083 6.69000E+01 2.79170E+01 0.00000E+00
 -1      4084 6.84000E+01 2.79170E+01 0.00000E+00
 -1      4085 6.61500E+01 2.66180E+01 0.00000E+00
 -1      4086 6.99000E+01 2.79170E+01 0.00000E+00
 -1      4087 7.14000E+01 2.79170E+01 0.00000E+00
 -1      4088 6.91500E+01 2.66180E+01 0.00000E+00
 -1      4089 7.29000E+01 2.79170E+01 0.00000E+00
 -1      4090 7.44000E+01 2.79170E+01 0.00000E+00
 -1      4091 7.21500E+01 2.66180E+01 0.00000E+00
 -1      4092 7.59000E+01 2.79170E+01 0.00000E+00
 -1      4093 7.74000E+01 2.79170E+01 0.00000E+00
 -1      4094 7.51500E+01 2.66180E+01 0.00000E+00
 -1      4095 7.89000E+01 2.79170E+01 0.00000E+00
 -1      4096 8.04000E+01 2.79170E+01 0.00000E+00
 -1      4097 7.81500E+01 2.66180E+01 0.00000E+00
 -1      4098 8.21662E+01 2.81091E+01 0.00000E+00
 -1      4099 8.36662E+01 2.81091E+01 0.00000E+00
 -1      4100 8.49486E+01 2.71943E+01 0.00000E+00
 -1      4101 8.14162E+01 2.68101E+01 0.00000E+00
 -1      4102 2.15733E+01 1.87217E+01 0.00000E+00
 -1      4103 1.96418E+01 2.42247E+01 0.00000E+00
 -1      4104 2.09080E+01 2.50287E+01 0.00000E+00
 -1      4105 1.97050E+01 2.27261E+01 0.00000E+00
 -1      4106 8.33629E+01 2.52657E+01 0.00000E+00
 -1      4107 1.27663E+02 2.78134E+01 0.00000E+00
 -1      4108 1.27134E+02 2.07029E+01 0.00000E+00
 -1      4109 6.20850E+01 2.08932E+01 0.00000E+00
 -1      4110 6.05850E+01 2.08932E+01 0.00000E+00
 -1      4111 5.90850E+01 2.08932E+01 0.00000E+00
 -1      4112 5.75850E+01 2.08932E+01 0.00000E+00
 -1      4113 5.68350E+01 2.21922E+01 0.00000E+00
 -1      4114 5.98350E+01 2.21922E+01 0.00000E+00
 -1      4115 5.30850E+01 2.08932E+01 0.00000E+00
 -1      4116 5.15850E+01 2.08932E+01 0.00000E+00
 -1      4117 5.38350E+01 2.21922E+01 0.00000E+00
 -1      4118 6.50850E+01 2.08932E+01 0.00000E+00
 -1      4119 6.35850E+01 2.08932E+01 0.00000E+00
 -1      4120 6.28350E+01 2.21922E+01 0.00000E+00
 -1      4121 6.80850E+01 2.08932E+01 0.00000E+00
 -1      4122 6.65850E+01 2.08932E+01 0.00000E+00
 -1      4123 6.58350E+01 2.21922E+01 0.00000E+00
 -1      4124 7.10850E+01 2.08932E+01 0.00000E+00
 -1      4125 6.95850E+01 2.08932E+01 0.00000E+00
 -1      4126 6.88350E+01 2.21922E+01 0.00000E+00
 -1      4127 7.40850E+01 2.08932E+01 0.00000E+00
 -1      4128 7.25850E+01 2.08932E+01 0.00000E+00
 -1      4129 7.18350E+01 2.21922E+01 0.00000E+00
 -1      4130 7.72350E+01 2.08932E+01 0.00000E+00
 -1      4131 7.56600E+01 2.08932E+01 0.00000E+00
 -1      4132 7.49100E+01 2.21922E+01 0.00000E+00
 -1      4133 4.70616E+01 2.08932E+01 0.00000E+00
 -1      4134 4.55147E+01 2.08932E+01 0.00000E+00
 -1      4135 2.23233E+01 2.00207E+01 0.00000E+00
 -1      4136 4.09912E+01 2.08932E+01 0.00000E+00
 -1      4137 3.94912E+01 2.08932E+01 0.00000E+00
 -1      4138 1.30416E+02 2.13848E+01 0.00000E+00
 -1      4139 4.39912E+01 2.08932E+01 0.00000E+00
 -1      4140 4.24912E+01 2.08932E+01 0.00000E+00
 -1      4141 4.17412E+01 2.21922E+01 0.00000E+00
 -1      4142 2.49000E+01 2.79170E+01 0.00000E+00
 -1      4143 2.64000E+01 2.79170E+01 0.00000E+00
 -1      4144 2.71500E+01 2.66180E+01 0.00000E+00
 -1      4145 2.21987E+01 2.78943E+01 0.00000E+00
 -1      4146 2.36987E+01 2.78943E+01 0.00000E+00
 -1      4147 2.44487E+01 2.65953E+01 0.00000E+00
 -1      4148 2.20462E+01 2.65499E+01 0.00000E+00
 -1      4149 1.29123E+02 2.21060E+01 0.00000E+00
 -1      4150 2.10040E+01 2.19886E+01 0.00000E+00
 -1      4151 5.00850E+01 2.08932E+01 0.00000E+00
 -1      4152 4.85850E+01 2.08932E+01 0.00000E+00
 -1      4153 5.08350E+01 2.21922E+01 0.00000E+00
 -1      4154 1.27214E+02 2.22025E+01 0.00000E+00
 -1      4155 7.90834E+01 2.13307E+01 0.00000E+00
 -1      4156 2.35773E+01 2.11358E+01 0.00000E+00
 -1      4157 2.22906E+01 2.15622E+01 0.00000E+00
 -1      4158 2.22579E+01 2.31037E+01 0.00000E+00
 -1      4159 1.27670E+02 2.40954E+01 0.00000E+00
 -1      4160 1.25681E+02 2.26923E+01 0.00000E+00
 -1      4161 1.24619E+02 2.36724E+01 0.00000E+00
 -1      4162 1.27657E+02 2.54980E+01 0.00000E+00
 -1      4163 3.19256E+01 2.08932E+01 0.00000E+00
 -1      4164 3.04069E+01 2.08932E+01 0.00000E+00
 -1      4165 3.87272E+01 2.21922E+01 0.00000E+00
 -1      4166 3.79772E+01 2.08932E+01 0.00000E+00
 -1      4167 3.64631E+01 2.08932E+01 0.00000E+00
 -1      4168 4.78116E+01 2.21922E+01 0.00000E+00
 -1      4169 2.65960E+01 2.11358E+01 0.00000E+00
 -1      4170 2.50866E+01 2.11358E+01 0.00000E+00
 -1      4171 2.50539E+01 2.26773E+01 0.00000E+00
 -1      4172 4.47647E+01 2.21922E+01 0.00000E+00
 -1      4173 7.83334E+01 2.26297E+01 0.00000E+00
 -1      4174 3.49514E+01 2.08932E+01 0.00000E+00
 -1      4175 3.34373E+01 2.08932E+01 0.00000E+00
 -1      4176 3.26780E+01 2.21922E+01 0.00000E+00
 -1      4177 3.57014E+01 2.21922E+01 0.00000E+00
 -1      4178 1.25381E+02 2.52865E+01 0.00000E+00
 -1      4179 8.15967E+01 2.50736E+01 0.00000E+00
 -1      4180 7.99159E+01 2.48425E+01 0.00000E+00
 -1      4181 2.21093E+01 2.50513E+01 0.00000E+00
 -1      4182 6.29925E+01 2.44051E+01 0.00000E+00
 -1      4183 6.14925E+01 2.44051E+01 0.00000E+00
 -1      4184 1.26901E+02 2.61993E+01 0.00000E+00
 -1      4185 3.29198E+01 2.44051E+01 0.00000E+00
 -1      4186 3.44198E+01 2.44051E+01 0.00000E+00
 -1      4187 3.59316E+01 2.44051E+01 0.00000E+00
 -1      4188 3.74316E+01 2.44051E+01 0.00000E+00
 -1      4189 3.89456E+01 2.44051E+01 0.00000E+00
 -1      4190 4.04456E+01 2.44051E+01 0.00000E+00
 -1      4191 4.19456E+01 2.44051E+01 0.00000E+00
 -1      4192 4.34456E+01 2.44051E+01 0.00000E+00
 -1      4193 4.49691E+01 2.44051E+01 0.00000E+00
 -1      4194 4.64691E+01 2.44051E+01 0.00000E+00
 -1      4195 4.79925E+01 2.44051E+01 0.00000E+00
 -1      4196 4.94925E+01 2.44051E+01 0.00000E+00
 -1      4197 5.09925E+01 2.44051E+01 0.00000E+00
 -1      4198 5.24925E+01 2.44051E+01 0.00000E+00
 -1      4199 5.39925E+01 2.44051E+01 0.00000E+00
 -1      4200 5.54925E+01 2.44051E+01 0.00000E+00
 -1      4201 5.69925E+01 2.44051E+01 0.00000E+00
 -1      4202 5.84925E+01 2.44051E+01 0.00000E+00
 -1      4203 5.99925E+01 2.44051E+01 0.00000E+00
 -1      4204 6.44925E+01 2.44051E+01 0.00000E+00
 -1      4205 6.59925E+01 2.44051E+01 0.00000E+00
 -1      4206 6.74925E+01 2.44051E+01 0.00000E+00
 -1      4207 6.89925E+01 2.44051E+01 0.00000E+00
 -1      4208 7.04925E+01 2.44051E+01 0.00000E+00
 -1      4209 7.19925E+01 2.44051E+01 0.00000E+00
 -1      4210 7.34925E+01 2.44051E+01 0.00000E+00
 -1      4211 7.50675E+01 2.44051E+01 0.00000E+00
 -1      4212 7.65675E+01 2.44051E+01 0.00000E+00
 -1      4213 7.84159E+01 2.48425E+01 0.00000E+00
 -1      4214 2.33960E+01 2.46249E+01 0.00000E+00
 -1      4215 2.99081E+01 2.44051E+01 0.00000E+00
 -1      4216 3.14081E+01 2.44051E+01 0.00000E+00
 -1      4217 2.61066E+01 2.46476E+01 0.00000E+00
 -1      4218 2.76066E+01 2.46476E+01 0.00000E+00
 -1      4219 2.45973E+01 2.46476E+01 0.00000E+00
 -1      4220 2.92561E+01 2.10145E+01 0.00000E+00
 -1      4221 2.77468E+01 2.10145E+01 0.00000E+00
 -1      4222 2.77140E+01 2.25560E+01 0.00000E+00
 -1      4223 3.00155E+01 2.23135E+01 0.00000E+00
 -1      4224 2.87574E+01 2.45264E+01 0.00000E+00
 -3
    3C                          2030                                     1
 -1       165    8    0    1
 -2         6         7        23      1098      1262      1115
 -1       166    8    0    1
 -2         7         8       165      1099      1263      1264
 -1       167    8    0    1
 -2         8         9       166      1100      1265      1266
 -1       168    8    0    1
 -2         8       166       165      1266      1267      1263
 -1       169    8    0    1
 -2         9        10       167      1101      1268      1269
 -1       170    8    0    1
 -2         9       167       166      1269      1270      1265
 -1       171    8    0    1
 -2        10        11       168      1102      1271      1272
 -1       172    8    0    1
 -2        10       168       167      1272      1273      1268
 -1       173    8    0    1
 -2        11        12       169      1103      1274      1275
 -1       174    8    0    1
 -2        11       169       168      1275      1276      1271
 -1       175    8    0    1
 -2        12        13       170      1104      1277      1278
 -1       176    8    0    1
 -2        12       170       169      1278      1279      1274
 -1       177    8    0    1
 -2        13        14       171      1105      1280      1281
 -1       178    8    0    1
 -2        13       171       170      1281      1282      1277
 -1       179    8    0    1
 -2        14        15       172      1106      1283      1284
 -1       180    8    0    1
 -2        14       172       171      1284      1285      1280
 -1       181    8    0    1
 -2        15        16       173      1107      1286      1287
 -1       182    8    0    1
 -2        15       173       172      1287      1288      1283
 -1       183    8    0    1
 -2        16        17       174      1108      1289      1290
 -1       184    8    0    1
 -2        16       174       173      1290      1291      1286
 -1       185    8    0    1
 -2        17        18       175      1109      1292      1293
 -1       186    8    0    1
 -2        17       175       174      1293      1294      1289
 -1       187    8    0    1
 -2        18        19       176      1110      1295      1296
 -1       188    8    0    1
 -2        18       176       175      1296      1297      1292
 -1       189    8    0    1
 -2        19        20       177      1111      1298      1299
 -1       190    8    0    1
 -2        19       177       176      1299      1300      1295
 -1       191    8    0    1
 -2        20        21       178      1112      1301      1302
 -1       192    8    0    1
 -2        20       178       177      1302      1303      1298
 -1       193    8    0    1
 -2        21        22       179      1113      1304      1305
 -1       194    8    0    1
 -2        21       179       178      1305      1306      1301
 -1       195    8    0    1
 -2        22         5       180      1114      1307      1308
 -1       196    8    0    1
 -2       179        22       180      1304      1308      1309
 -1       197    8    0    1
 -2         5        72       180      1165      1310      1307
 -1       198    8    0    1
 -2        24        23       181      1116      1311      1312
 -1       199    8    0    1
 -2        25        24       182      1117      1313      1314
 -1       200    8    0    1
 -2        24       181       182      1312      1315      1313
 -1       201    8    0    1
 -2        26        25       183      1118      1316      1317
 -1       202    8    0    1
 -2        25       182       183      1314      1318      1316
 -1       203    8    0    1
 -2        27        26       184      1119      1319      1320
 -1       204    8    0    1
 -2        26       183       184      1317      1321      1319
 -1       205    8    0    1
 -2        28        27       185      1120      1322      1323
 -1       206    8    0    1
 -2        27       184       185      1320      1324      1322
 -1       207    8    0    1
 -2        29        28       186      1121      1325      1326
 -1       208    8    0    1
 -2        28       185       186      1323      1327      1325
 -1       209    8    0    1
 -2        30        29       187      1122      1328      1329
 -1       210    8    0    1
 -2        29       186       187      1326      1330      1328
 -1       211    8    0    1
 -2        31        30       188      1123      1331      1332
 -1       212    8    0    1
 -2        30       187       188      1329      1333      1331
 -1       213    8    0    1
 -2        32        31       189      1124      1334      1335
 -1       214    8    0    1
 -2        31       188       189      1332      1336      1334
 -1       215    8    0    1
 -2        33        32       190      1125      1337      1338
 -1       216    8    0    1
 -2        32       189       190      1335      1339      1337
 -1       217    8    0    1
 -2        34        33       191      1126      1340      1341
 -1       218    8    0    1
 -2        33       190       191      1338      1342      1340
 -1       219    8    0    1
 -2        35        34       192      1127      1343      1344
 -1       220    8    0    1
 -2        34       191       192      1341      1345      1343
 -1       221    8    0    1
 -2        36        35       193      1128      1346      1347
 -1       222    8    0    1
 -2        35       192       193      1344      1348      1346
 -1       223    8    0    1
 -2        37        36       194      1129      1349      1350
 -1       224    8    0    1
 -2        36       193       194      1347      1351      1349
 -1       225    8    0    1
 -2        38        37       195      1130      1352      1353
 -1       226    8    0    1
 -2        37       194       195      1350      1354      1352
 -1       227    8    0    1
 -2        39        38       196      1131      1355      1356
 -1       228    8    0    1
 -2        38       195       196      1353      1357      1355
 -1       229    8    0    1
 -2        40        39       197      1132      1358      1359
 -1       230    8    0    1
 -2        39       196       197      1356      1360      1358
 -1       231    8    0    1
 -2        41        40       198      1133      1361      1362
 -1       232    8    0    1
 -2        40       197       198      1359      1363      1361
 -1       233    8    0    1
 -2        42        41       199      1134      1364      1365
 -1       234    8    0    1
 -2        41       198       199      1362      1366      1364
 -1       235    8    0    1
 -2        43        42       200      1135      1367      1368
 -1       236    8    0    1
 -2        42       199       200      1365      1369      1367
 -1       237    8    0    1
 -2        44        43       201      1136      1370      1371
 -1       238    8    0    1
 -2        43       200       201      1368      1372      1370
 -1       239    8    0    1
 -2        45        44       202      1137      1373      1374
 -1       240    8    0    1
 -2        44       201       202      1371      1375      1373
 -1       241    8    0    1
 -2        46        45       203      1138      1376      1377
 -1       242    8    0    1
 -2        45       202       203      1374      1378      1376
 -1       243    8    0    1
 -2        47        46       204      1139      1379      1380
 -1       244    8    0    1
 -2        46       203       204      1377      1381      1379
 -1       245    8    0    1
 -2        48        47       205      1140      1382      1383
 -1       246    8    0    1
 -2        47       204       205      1380      1384      1382
 -1       247    8    0    1
 -2        49        48       206      1141      1385      1386
 -1       248    8    0    1
 -2        48       205       206      1383      1387      1385
 -1       249    8    0    1
 -2        50        49       207      1142      1388      1389
 -1       250    8    0    1
 -2        49       206       207      1386      1390      1388
 -1       251    8    0    1
 -2        51        50       208      1143      1391      1392
 -1       252    8    0    1
 -2        50       207       208      1389      1393      1391
 -1       253    8    0    1
 -2        52        51       209      1144      1394      1395
 -1       254    8    0    1
 -2        51       208       209      1392      1396      1394
 -1       255    8    0    1
 -2        53        52       210      1145      1397      1398
 -1       256    8    0    1
 -2        52       209       210      1395      1399      1397
 -1       257    8    0    1
 -2        54        53       211      1146      1400      1401
 -1       258    8    0    1
 -2        53       210       211      1398      1402      1400
 -1       259    8    0    1
 -2        55        54       212      1147      1403      1404
 -1       260    8    0    1
 -2        54       211       212      1401      1405      1403
 -1       261    8    0    1
 -2        56        55       213      1148      1406      1407
 -1       262    8    0    1
 -2        55       212       213      1404      1408      1406
 -1       263    8    0    1
 -2        57        56       214      1149      1409      1410
 -1       264    8    0    1
 -2        56       213       214      1407      1411      1409
 -1       265    8    0    1
 -2        58        57       215      1150      1412      1413
 -1       266    8    0    1
 -2        57       214       215      1410      1414      1412
 -1       267    8    0    1
 -2        59        58       216      1151      1415      1416
 -1       268    8    0    1
 -2        58       215       216      1413      1417      1415
 -1       269    8    0    1
 -2        60        59       217      1152      1418      1419
 -1       270    8    0    1
 -2        59       216       217      1416      1420      1418
 -1       271    8    0    1
 -2        61        60       218      1153      1421      1422
 -1       272    8    0    1
 -2        60       217       218      1419      1423      1421
 -1       273    8    0    1
 -2        62        61       219      1154      1424      1425
 -1       274    8    0    1
 -2        61       218       219      1422      1426      1424
 -1       275    8    0    1
 -2        63        62       220      1155      1427      1428
 -1       276    8    0    1
 -2        62       219       220      1425      1429      1427
 -1       277    8    0    1
 -2        64        63       221      1156      1430      1431
 -1       278    8    0    1
 -2        63       220       221      1428      1432      1430
 -1       279    8    0    1
 -2        65        64       222      1157      1433      1434
 -1       280    8    0    1
 -2        64       221       222      1431      1435      1433
 -1       281    8    0    1
 -2        66        65       223      1158      1436      1437
 -1       282    8    0    1
 -2        65       222       223      1434      1438      1436
 -1       283    8    0    1
 -2        67        66       224      1159      1439      1440
 -1       284    8    0    1
 -2        66       223       224      1437      1441      1439
 -1       285    8    0    1
 -2        68        67       225      1160      1442      1443
 -1       286    8    0    1
 -2        67       224       225      1440      1444      1442
 -1       287    8    0    1
 -2        69        68       226      1161      1445      1446
 -1       288    8    0    1
 -2        68       225       226      1443      1447      1445
 -1       289    8    0    1
 -2        70        69       227      1162      1448      1449
 -1       290    8    0    1
 -2        69       226       227      1446      1450      1448
 -1       291    8    0    1
 -2        71        70       228      1163      1451      1452
 -1       292    8    0    1
 -2        70       227       228      1449      1453      1451
 -1       293    8    0    1
 -2         4        71       136      1164      1454      1231
 -1       294    8    0    1
 -2       136        71       228      1454      1452      1455
 -1       295    8    0    1
 -2        72        73       229      1166      1456      1457
 -1       296    8    0    1
 -2        72       229       180      1457      1458      1310
 -1       297    8    0    1
 -2        73        74       230      1167      1459      1460
 -1       298    8    0    1
 -2        73       230       229      1460      1461      1456
 -1       299    8    0    1
 -2        74        75       231      1168      1462      1463
 -1       300    8    0    1
 -2        74       231       230      1463      1464      1459
 -1       301    8    0    1
 -2        75        76       232      1169      1465      1466
 -1       302    8    0    1
 -2        75       232       231      1466      1467      1462
 -1       303    8    0    1
 -2        76        77       233      1170      1468      1469
 -1       304    8    0    1
 -2        76       233       232      1469      1470      1465
 -1       305    8    0    1
 -2        77        78       234      1171      1471      1472
 -1       306    8    0    1
 -2        77       234       233      1472      1473      1468
 -1       307    8    0    1
 -2        78        79       235      1172      1474      1475
 -1       308    8    0    1
 -2        78       235       234      1475      1476      1471
 -1       309    8    0    1
 -2        79        80       236      1173      1477      1478
 -1       310    8    0    1
 -2        79       236       235      1478      1479      1474
 -1       311    8    0    1
 -2        80        81       237      1174      1480      1481
 -1       312    8    0    1
 -2        80       237       236      1481      1482      1477
 -1       313    8    0    1
 -2        81        82       238      1175      1483      1484
 -1       314    8    0    1
 -2        81       238       237      1484      1485      1480
 -1       315    8    0    1
 -2        82        83       239      1176      1486      1487
 -1       316    8    0    1
 -2        82       239       238      1487      1488      1483
 -1       317    8    0    1
 -2        83        84       240      1177      1489      1490
 -1       318    8    0    1
 -2        83       240       239      1490      1491      1486
 -1       319    8    0    1
 -2        84        85       241      1178      1492      1493
 -1       320    8    0    1
 -2        84       241       240      1493      1494      1489
 -1       321    8    0    1
 -2        85        86       242      1179      1495      1496
 -1       322    8    0    1
 -2        85       242       241      1496      1497      1492
 -1       323    8    0    1
 -2        86        87       243      1180      1498      1499
 -1       324    8    0    1
 -2        86       243       242      1499      1500      1495
 -1       325    8    0    1
 -2        87        88       244      1181      1501      1502
 -1       326    8    0    1
 -2        87       244       243      1502      1503      1498
 -1       327    8    0    1
 -2        88        89       245      1182      1504      1505
 -1       328    8    0    1
 -2        88       245       244      1505      1506      1501
 -1       329    8    0    1
 -2        89        90       246      1183      1507      1508
 -1       330    8    0    1
 -2        89       246       245      1508      1509      1504
 -1       331    8    0    1
 -2        90        91       247      1184      1510      1511
 -1       332    8    0    1
 -2        90       247       246      1511      1512      1507
 -1       333    8    0    1
 -2        91        92       248      1185      1513      1514
 -1       334    8    0    1
 -2        91       248       247      1514      1515      1510
 -1       335    8    0    1
 -2        92        93       249      1186      1516      1517
 -1       336    8    0    1
 -2        92       249       248      1517      1518      1513
 -1       337    8    0    1
 -2        93        94       250      1187      1519      1520
 -1       338    8    0    1
 -2        93       250       249      1520      1521      1516
 -1       339    8    0    1
 -2        94        95       251      1188      1522      1523
 -1       340    8    0    1
 -2        94       251       250      1523      1524      1519
 -1       341    8    0    1
 -2        95        96       252      1189      1525      1526
 -1       342    8    0    1
 -2        95       252       251      1526      1527      1522
 -1       343    8    0    1
 -2        96        97       253      1190      1528      1529
 -1       344    8    0    1
 -2        96       253       252      1529      1530      1525
 -1       345    8    0    1
 -2        97        98       254      1191      1531      1532
 -1       346    8    0    1
 -2        97       254       253      1532      1533      1528
 -1       347    8    0    1
 -2        98        99       255      1192      1534      1535
 -1       348    8    0    1
 -2        98       255       254      1535      1536      1531
 -1       349    8    0    1
 -2        99       100       256      1193      1537      1538
 -1       350    8    0    1
 -2        99       256       255      1538      1539      1534
 -1       351    8    0    1
 -2       100       101       257      1194      1540      1541
 -1       352    8    0    1
 -2       100       257       256      1541      1542      1537
 -1       353    8    0    1
 -2       101       102       258      1195      1543      1544
 -1       354    8    0    1
 -2       101       258       257      1544      1545      1540
 -1       355    8    0    1
 -2       102       103       259      1196      1546      1547
 -1       356    8    0    1
 -2       102       259       258      1547      1548      1543
 -1       357    8    0    1
 -2       103       104       260      1197      1549      1550
 -1       358    8    0    1
 -2       103       260       259      1550      1551      1546
 -1       359    8    0    1
 -2       104       105       261      1198      1552      1553
 -1       360    8    0    1
 -2       104       261       260      1553      1554      1549
 -1       361    8    0    1
 -2       105       106       262      1199      1555      1556
 -1       362    8    0    1
 -2       105       262       261      1556      1557      1552
 -1       363    8    0    1
 -2       106       107       263      1200      1558      1559
 -1       364    8    0    1
 -2       106       263       262      1559      1560      1555
 -1       365    8    0    1
 -2       107       108       264      1201      1561      1562
 -1       366    8    0    1
 -2       107       264       263      1562      1563      1558
 -1       367    8    0    1
 -2       108       109       265      1202      1564      1565
 -1       368    8    0    1
 -2       108       265       264      1565      1566      1561
 -1       369    8    0    1
 -2       109       110       266      1203      1567      1568
 -1       370    8    0    1
 -2       109       266       265      1568      1569      1564
 -1       371    8    0    1
 -2       110       111       267      1204      1570      1571
 -1       372    8    0    1
 -2       110       267       266      1571      1572      1567
 -1       373    8    0    1
 -2       111       112       268      1205      1573      1574
 -1       374    8    0    1
 -2       111       268       267      1574      1575      1570
 -1       375    8    0    1
 -2       112       113       269      1206      1576      1577
 -1       376    8    0    1
 -2       112       269       268      1577      1578      1573
 -1       377    8    0    1
 -2       113       114       270      1207      1579      1580
 -1       378    8    0    1
 -2       113       270       269      1580      1581      1576
 -1       379    8    0    1
 -2       114       115       271      1208      1582      1583
 -1       380    8    0    1
 -2       114       271       270      1583      1584      1579
 -1       381    8    0    1
 -2       115       116       272      1209      1585      1586
 -1       382    8    0    1
 -2       115       272       271      1586      1587      1582
 -1       383    8    0    1
 -2       116       117       273      1210      1588      1589
 -1       384    8    0    1
 -2       116       273       272      1589      1590      1585
 -1       385    8    0    1
 -2       117       118       274      1211      1591      1592
 -1       386    8    0    1
 -2       117       274       273      1592      1593      1588
 -1       387    8    0    1
 -2       118       119       275      1212      1594      1595
 -1       388    8    0    1
 -2       118       275       274      1595      1596      1591
 -1       389    8    0    1
 -2       119       120       276      1213      1597      1598
 -1       390    8    0    1
 -2       119       276       275      1598      1599      1594
 -1       391    8    0    1
 -2       120         3       121      1214      1215      1600
 -1       392    8    0    1
 -2       121       122       277      1216      1601      1602
 -1       393    8    0    1
 -2       122       123       278      1217      1603      1604
 -1       394    8    0    1
 -2       122       278       277      1604      1605      1601
 -1       395    8    0    1
 -2       123       124       279      1218      1606      1607
 -1       396    8    0    1
 -2       123       279       278      1607      1608      1603
 -1       397    8    0    1
 -2       124       125       280      1219      1609      1610
 -1       398    8    0    1
 -2       124       280       279      1610      1611      1606
 -1       399    8    0    1
 -2       125       126       281      1220      1612      1613
 -1       400    8    0    1
 -2       125       281       280      1613      1614      1609
 -1       401    8    0    1
 -2       126       127       282      1221      1615      1616
 -1       402    8    0    1
 -2       126       282       281      1616      1617      1612
 -1       403    8    0    1
 -2       127       128       283      1222      1618      1619
 -1       404    8    0    1
 -2       127       283       282      1619      1620      1615
 -1       405    8    0    1
 -2       128       129       284      1223      1621      1622
 -1       406    8    0    1
 -2       128       284       283      1622      1623      1618
 -1       407    8    0    1
 -2       129       130       285      1224      1624      1625
 -1       408    8    0    1
 -2       129       285       284      1625      1626      1621
 -1       409    8    0    1
 -2       130       131       286      1225      1627      1628
 -1       410    8    0    1
 -2       130       286       285      1628      1629      1624
 -1       411    8    0    1
 -2       131       132       287      1226      1630      1631
 -1       412    8    0    1
 -2       131       287       286      1631      1632      1627
 -1       413    8    0    1
 -2       132       133       288      1227      1633      1634
 -1       414    8    0    1
 -2       132       288       287      1634      1635      1630
 -1       415    8    0    1
 -2       133       134       289      1228      1636      1637
 -1       416    8    0    1
 -2       133       289       288      1637      1638      1633
 -1       417    8    0    1
 -2       134       135       290      1229      1639      1640
 -1       418    8    0    1
 -2       134       290       289      1640      1641      1636
 -1       419    8    0    1
 -2       135       136       291      1230      1642      1643
 -1       420    8    0    1
 -2       290       135       291      1639      1643      1644
 -1       421    8    0    1
 -2       136       228       291      1455      1645      1642
 -1       422    8    0    1
 -2         2       137       292      1232      1646      1647
 -1       423    8    0    1
 -2       137       138       293      1233      1648      1649
 -1       424    8    0    1
 -2       138       139       294      1234      1650      1651
 -1       425    8    0    1
 -2       139       140       295      1235      1652      1653
 -1       426    8    0    1
 -2       140       141       296      1236      1654      1655
 -1       427    8    0    1
 -2       141       142       297      1237      1656      1657
 -1       428    8    0    1
 -2       142       143       298      1238      1658      1659
 -1       429    8    0    1
 -2       143       144       299      1239      1660      1661
 -1       430    8    0    1
 -2       144       145       300      1240      1662      1663
 -1       431    8    0    1
 -2       145       146       301      1241      1664      1665
 -1       432    8    0    1
 -2       146       147       302      1242      1666      1667
 -1       433    8    0    1
 -2       147       148       303      1243      1668      1669
 -1       434    8    0    1
 -2       148       149       304      1244      1670      1671
 -1       435    8    0    1
 -2       149       150       305      1245      1672      1673
 -1       436    8    0    1
 -2       150       151       306      1246      1674      1675
 -1       437    8    0    1
 -2       150       306       305      1675      1676      1672
 -1       438    8    0    1
 -2       151       152       307      1247      1677      1678
 -1       439    8    0    1
 -2       152         1       308      1248      1679      1680
 -1       440    8    0    1
 -2         1       153       309      1249      1681      1682
 -1       441    8    0    1
 -2       153       154       310      1250      1683      1684
 -1       442    8    0    1
 -2       154       155       311      1251      1685      1686
 -1       443    8    0    1
 -2       155       156       312      1252      1687      1688
 -1       444    8    0    1
 -2       156       157       313      1253      1689      1690
 -1       445    8    0    1
 -2       157       158       314      1254      1691      1692
 -1       446    8    0    1
 -2       158       159       315      1255      1693      1694
 -1       447    8    0    1
 -2       159       160       316      1256      1695      1696
 -1       448    8    0    1
 -2       160       161       317      1257      1697      1698
 -1       449    8    0    1
 -2       161       162       318      1258      1699      1700
 -1       450    8    0    1
 -2       162       163       319      1259      1701      1702
 -1       451    8    0    1
 -2       163       164       320      1260      1703      1704
 -1       452    8    0    1
 -2       164         2       321      1261      1705      1706
 -1       453    8    0    1
 -2       295       140       296      1652      1655      1707
 -1       454    8    0    1
 -2       294       139       295      1650      1653      1708
 -1       455    8    0    1
 -2       120       121       276      1600      1709      1597
 -1       456    8    0    1
 -2       121       277       276      1602      1710      1709
 -1       457    8    0    1
 -2       292       137       293      1646      1649      1711
 -1       458    8    0    1
 -2       293       138       294      1648      1651      1712
 -1       459    8    0    1
 -2         2       292       321      1647      1713      1705
 -1       460    8    0    1
 -2       141       297       296      1657      1714      1654
 -1       461    8    0    1
 -2       142       298       297      1659      1715      1656
 -1       462    8    0    1
 -2       143       299       298      1661      1716      1658
 -1       463    8    0    1
 -2       144       300       299      1663      1717      1660
 -1       464    8    0    1
 -2       145       301       300      1665      1718      1662
 -1       465    8    0    1
 -2       146       302       301      1667      1719      1664
 -1       466    8    0    1
 -2       147       303       302      1669      1720      1666
 -1       467    8    0    1
 -2       148       304       303      1671      1721      1668
 -1       468    8    0    1
 -2       149       305       304      1673      1722      1670
 -1       469    8    0    1
 -2       307       152       308      1677      1680      1723
 -1       470    8    0    1
 -2         1       309       308      1682      1724      1679
 -1       471    8    0    1
 -2       153       310       309      1684      1725      1681
 -1       472    8    0    1
 -2       154       311       310      1686      1726      1683
 -1       473    8    0    1
 -2       155       312       311      1688      1727      1685
 -1       474    8    0    1
 -2       156       313       312      1690      1728      1687
 -1       475    8    0    1
 -2       157       314       313      1692      1729      1689
 -1       476    8    0    1
 -2       158       315       314      1694      1730      1691
 -1       477    8    0    1
 -2       159       316       315      1696      1731      1693
 -1       478    8    0    1
 -2       160       317       316      1698      1732      1695
 -1       479    8    0    1
 -2       161       318       317      1700      1733      1697
 -1       480    8    0    1
 -2       162       319       318      1702      1734      1699
 -1       481    8    0    1
 -2       163       320       319      1704      1735      1701
 -1       482    8    0    1
 -2       164       321       320      1706      1736      1703
 -1       483    8    0    1
 -2        23         7       165      1262      1264      1737
 -1       484    8    0    1
 -2       151       307       306      1678      1738      1674
 -1       485    8    0    1
 -2       166       167       322      1270      1739      1740
 -1       486    8    0    1
 -2       165       166       323      1267      1741      1742
 -1       487    8    0    1
 -2       166       322       323      1740      1743      1741
 -1       488    8    0    1
 -2       168       169       324      1276      1744      1745
 -1       489    8    0    1
 -2       169       170       325      1279      1746      1747
 -1       490    8    0    1
 -2       169       325       324      1747      1748      1744
 -1       491    8    0    1
 -2       170       171       326      1282      1749      1750
 -1       492    8    0    1
 -2       170       326       325      1750      1751      1746
 -1       493    8    0    1
 -2       171       172       327      1285      1752      1753
 -1       494    8    0    1
 -2       171       327       326      1753      1754      1749
 -1       495    8    0    1
 -2       172       173       328      1288      1755      1756
 -1       496    8    0    1
 -2       172       328       327      1756      1757      1752
 -1       497    8    0    1
 -2       173       174       329      1291      1758      1759
 -1       498    8    0    1
 -2       173       329       328      1759      1760      1755
 -1       499    8    0    1
 -2       174       175       330      1294      1761      1762
 -1       500    8    0    1
 -2       174       330       329      1762      1763      1758
 -1       501    8    0    1
 -2       175       176       331      1297      1764      1765
 -1       502    8    0    1
 -2       175       331       330      1765      1766      1761
 -1       503    8    0    1
 -2       176       177       332      1300      1767      1768
 -1       504    8    0    1
 -2       176       332       331      1768      1769      1764
 -1       505    8    0    1
 -2       177       178       333      1303      1770      1771
 -1       506    8    0    1
 -2       177       333       332      1771      1772      1767
 -1       507    8    0    1
 -2       178       179       334      1306      1773      1774
 -1       508    8    0    1
 -2       178       334       333      1774      1775      1770
 -1       509    8    0    1
 -2       179       180       335      1309      1776      1777
 -1       510    8    0    1
 -2       334       179       335      1773      1777      1778
 -1       511    8    0    1
 -2       180       229       335      1458      1779      1776
 -1       512    8    0    1
 -2       181        23       165      1311      1737      1780
 -1       513    8    0    1
 -2       229       230       336      1461      1781      1782
 -1       514    8    0    1
 -2       229       336       335      1782      1783      1779
 -1       515    8    0    1
 -2       306       307       337      1738      1784      1785
 -1       516    8    0    1
 -2       181       165       323      1780      1742      1786
 -1       517    8    0    1
 -2       183       182       338      1318      1787      1788
 -1       518    8    0    1
 -2       184       183       339      1321      1789      1790
 -1       519    8    0    1
 -2       183       338       339      1788      1791      1789
 -1       520    8    0    1
 -2       185       184       340      1324      1792      1793
 -1       521    8    0    1
 -2       184       339       340      1790      1794      1792
 -1       522    8    0    1
 -2       186       185       341      1327      1795      1796
 -1       523    8    0    1
 -2       185       340       341      1793      1797      1795
 -1       524    8    0    1
 -2       187       186       342      1330      1798      1799
 -1       525    8    0    1
 -2       186       341       342      1796      1800      1798
 -1       526    8    0    1
 -2       188       187       343      1333      1801      1802
 -1       527    8    0    1
 -2       187       342       343      1799      1803      1801
 -1       528    8    0    1
 -2       189       188       344      1336      1804      1805
 -1       529    8    0    1
 -2       188       343       344      1802      1806      1804
 -1       530    8    0    1
 -2       190       189       345      1339      1807      1808
 -1       531    8    0    1
 -2       189       344       345      1805      1809      1807
 -1       532    8    0    1
 -2       191       190       346      1342      1810      1811
 -1       533    8    0    1
 -2       190       345       346      1808      1812      1810
 -1       534    8    0    1
 -2       192       191       347      1345      1813      1814
 -1       535    8    0    1
 -2       191       346       347      1811      1815      1813
 -1       536    8    0    1
 -2       193       192       348      1348      1816      1817
 -1       537    8    0    1
 -2       192       347       348      1814      1818      1816
 -1       538    8    0    1
 -2       194       193       349      1351      1819      1820
 -1       539    8    0    1
 -2       193       348       349      1817      1821      1819
 -1       540    8    0    1
 -2       195       194       350      1354      1822      1823
 -1       541    8    0    1
 -2       194       349       350      1820      1824      1822
 -1       542    8    0    1
 -2       196       195       351      1357      1825      1826
 -1       543    8    0    1
 -2       195       350       351      1823      1827      1825
 -1       544    8    0    1
 -2       197       196       352      1360      1828      1829
 -1       545    8    0    1
 -2       196       351       352      1826      1830      1828
 -1       546    8    0    1
 -2       198       197       353      1363      1831      1832
 -1       547    8    0    1
 -2       197       352       353      1829      1833      1831
 -1       548    8    0    1
 -2       199       198       354      1366      1834      1835
 -1       549    8    0    1
 -2       198       353       354      1832      1836      1834
 -1       550    8    0    1
 -2       200       199       355      1369      1837      1838
 -1       551    8    0    1
 -2       199       354       355      1835      1839      1837
 -1       552    8    0    1
 -2       201       200       356      1372      1840      1841
 -1       553    8    0    1
 -2       200       355       356      1838      1842      1840
 -1       554    8    0    1
 -2       202       201       357      1375      1843      1844
 -1       555    8    0    1
 -2       201       356       357      1841      1845      1843
 -1       556    8    0    1
 -2       203       202       358      1378      1846      1847
 -1       557    8    0    1
 -2       202       357       358      1844      1848      1846
 -1       558    8    0    1
 -2       204       203       359      1381      1849      1850
 -1       559    8    0    1
 -2       203       358       359      1847      1851      1849
 -1       560    8    0    1
 -2       205       204       360      1384      1852      1853
 -1       561    8    0    1
 -2       204       359       360      1850      1854      1852
 -1       562    8    0    1
 -2       206       205       361      1387      1855      1856
 -1       563    8    0    1
 -2       205       360       361      1853      1857      1855
 -1       564    8    0    1
 -2       207       206       362      1390      1858      1859
 -1       565    8    0    1
 -2       206       361       362      1856      1860      1858
 -1       566    8    0    1
 -2       208       207       363      1393      1861      1862
 -1       567    8    0    1
 -2       207       362       363      1859      1863      1861
 -1       568    8    0    1
 -2       209       208       364      1396      1864      1865
 -1       569    8    0    1
 -2       208       363       364      1862      1866      1864
 -1       570    8    0    1
 -2       210       209       365      1399      1867      1868
 -1       571    8    0    1
 -2       209       364       365      1865      1869      1867
 -1       572    8    0    1
 -2       211       210       366      1402      1870      1871
 -1       573    8    0    1
 -2       210       365       366      1868      1872      1870
 -1       574    8    0    1
 -2       212       211       367      1405      1873      1874
 -1       575    8    0    1
 -2       211       366       367      1871      1875      1873
 -1       576    8    0    1
 -2       213       212       368      1408      1876      1877
 -1       577    8    0    1
 -2       212       367       368      1874      1878      1876
 -1       578    8    0    1
 -2       214       213       369      1411      1879      1880
 -1       579    8    0    1
 -2       213       368       369      1877      1881      1879
 -1       580    8    0    1
 -2       215       214       370      1414      1882      1883
 -1       581    8    0    1
 -2       214       369       370      1880      1884      1882
 -1       582    8    0    1
 -2       216       215       371      1417      1885      1886
 -1       583    8    0    1
 -2       215       370       371      1883      1887      1885
 -1       584    8    0    1
 -2       217       216       372      1420      1888      1889
 -1       585    8    0    1
 -2       216       371       372      1886      1890      1888
 -1       586    8    0    1
 -2       218       217       373      1423      1891      1892
 -1       587    8    0    1
 -2       217       372       373      1889      1893      1891
 -1       588    8    0    1
 -2       219       218       374      1426      1894      1895
 -1       589    8    0    1
 -2       218       373       374      1892      1896      1894
 -1       590    8    0    1
 -2       220       219       375      1429      1897      1898
 -1       591    8    0    1
 -2       219       374       375      1895      1899      1897
 -1       592    8    0    1
 -2       221       220       376      1432      1900      1901
 -1       593    8    0    1
 -2       220       375       376      1898      1902      1900
 -1       594    8    0    1
 -2       222       221       377      1435      1903      1904
 -1       595    8    0    1
 -2       221       376       377      1901      1905      1903
 -1       596    8    0    1
 -2       223       222       378      1438      1906      1907
 -1       597    8    0    1
 -2       222       377       378      1904      1908      1906
 -1       598    8    0    1
 -2       224       223       379      1441      1909      1910
 -1       599    8    0    1
 -2       223       378       379      1907      1911      1909
 -1       600    8    0    1
 -2       225       224       380      1444      1912      1913
 -1       601    8    0    1
 -2       224       379       380      1910      1914      1912
 -1       602    8    0    1
 -2       226       225       381      1447      1915      1916
 -1       603    8    0    1
 -2       225       380       381      1913      1917      1915
 -1       604    8    0    1
 -2       227       226       382      1450      1918      1919
 -1       605    8    0    1
 -2       226       381       382      1916      1920      1918
 -1       606    8    0    1
 -2       228       227       383      1453      1921      1922
 -1       607    8    0    1
 -2       291       228       383      1645      1922      1923
 -1       608    8    0    1
 -2       227       382       383      1919      1924      1921
 -1       609    8    0    1
 -2       230       231       384      1464      1925      1926
 -1       610    8    0    1
 -2       230       384       336      1926      1927      1781
 -1       611    8    0    1
 -2       231       232       385      1467      1928      1929
 -1       612    8    0    1
 -2       231       385       384      1929      1930      1925
 -1       613    8    0    1
 -2       232       233       386      1470      1931      1932
 -1       614    8    0    1
 -2       232       386       385      1932      1933      1928
 -1       615    8    0    1
 -2       233       234       387      1473      1934      1935
 -1       616    8    0    1
 -2       233       387       386      1935      1936      1931
 -1       617    8    0    1
 -2       234       235       388      1476      1937      1938
 -1       618    8    0    1
 -2       234       388       387      1938      1939      1934
 -1       619    8    0    1
 -2       235       236       389      1479      1940      1941
 -1       620    8    0    1
 -2       235       389       388      1941      1942      1937
 -1       621    8    0    1
 -2       236       237       390      1482      1943      1944
 -1       622    8    0    1
 -2       236       390       389      1944      1945      1940
 -1       623    8    0    1
 -2       237       238       391      1485      1946      1947
 -1       624    8    0    1
 -2       237       391       390      1947      1948      1943
 -1       625    8    0    1
 -2       238       239       392      1488      1949      1950
 -1       626    8    0    1
 -2       238       392       391      1950      1951      1946
 -1       627    8    0    1
 -2       239       240       393      1491      1952      1953
 -1       628    8    0    1
 -2       239       393       392      1953      1954      1949
 -1       629    8    0    1
 -2       240       241       394      1494      1955      1956
 -1       630    8    0    1
 -2       240       394       393      1956      1957      1952
 -1       631    8    0    1
 -2       241       242       395      1497      1958      1959
 -1       632    8    0    1
 -2       241       395       394      1959      1960      1955
 -1       633    8    0    1
 -2       242       243       396      1500      1961      1962
 -1       634    8    0    1
 -2       242       396       395      1962      1963      1958
 -1       635    8    0    1
 -2       243       244       397      1503      1964      1965
 -1       636    8    0    1
 -2       243       397       396      1965      1966      1961
 -1       637    8    0    1
 -2       244       245       398      1506      1967      1968
 -1       638    8    0    1
 -2       244       398       397      1968      1969      1964
 -1       639    8    0    1
 -2       245       246       399      1509      1970      1971
 -1       640    8    0    1
 -2       245       399       398      1971      1972      1967
 -1       641    8    0    1
 -2       246       247       400      1512      1973      1974
 -1       642    8    0    1
 -2       246       400       399      1974      1975      1970
 -1       643    8    0    1
 -2       247       248       401      1515      1976      1977
 -1       644    8    0    1
 -2       247       401       400      1977      1978      1973
 -1       645    8    0    1
 -2       248       249       402      1518      1979      1980
 -1       646    8    0    1
 -2       248       402       401      1980      1981      1976
 -1       647    8    0    1
 -2       249       250       403      1521      1982      1983
 -1       648    8    0    1
 -2       249       403       402      1983      1984      1979
 -1       649    8    0    1
 -2       250       251       404      1524      1985      1986
 -1       650    8    0    1
 -2       250       404       403      1986      1987      1982
 -1       651    8    0    1
 -2       251       252       405      1527      1988      1989
 -1       652    8    0    1
 -2       251       405       404      1989      1990      1985
 -1       653    8    0    1
 -2       252       253       406      1530      1991      1992
 -1       654    8    0    1
 -2       252       406       405      1992      1993      1988
 -1       655    8    0    1
 -2       253       254       407      1533      1994      1995
 -1       656    8    0    1
 -2       253       407       406      1995      1996      1991
 -1       657    8    0    1
 -2       254       255       408      1536      1997      1998
 -1       658    8    0    1
 -2       254       408       407      1998      1999      1994
 -1       659    8    0    1
 -2       255       256       409      1539      2000      2001
 -1       660    8    0    1
 -2       255       409       408      2001      2002      1997
 -1       661    8    0    1
 -2       256       257       410      1542      2003      2004
 -1       662    8    0    1
 -2       256       410       409      2004      2005      2000
 -1       663    8    0    1
 -2       257       258       411      1545      2006      2007
 -1       664    8    0    1
 -2       257       411       410      2007      2008      2003
 -1       665    8    0    1
 -2       258       259       412      1548      2009      2010
 -1       666    8    0    1
 -2       258       412       411      2010      2011      2006
 -1       667    8    0    1
 -2       259       260       413      1551      2012      2013
 -1       668    8    0    1
 -2       259       413       412      2013      2014      2009
 -1       669    8    0    1
 -2       260       261       414      1554      2015      2016
 -1       670    8    0    1
 -2       260       414       413      2016      2017      2012
 -1       671    8    0    1
 -2       261       262       415      1557      2018      2019
 -1       672    8    0    1
 -2       261       415       414      2019      2020      2015
 -1       673    8    0    1
 -2       262       263       416      1560      2021      2022
 -1       674    8    0    1
 -2       262       416       415      2022      2023      2018
 -1       675    8    0    1
 -2       263       264       417      1563      2024      2025
 -1       676    8    0    1
 -2       263       417       416      2025      2026      2021
 -1       677    8    0    1
 -2       264       265       418      1566      2027      2028
 -1       678    8    0    1
 -2       264       418       417      2028      2029      2024
 -1       679    8    0    1
 -2       265       266       419      1569      2030      2031
 -1       680    8    0    1
 -2       265       419       418      2031      2032      2027
 -1       681    8    0    1
 -2       266       267       420      1572      2033      2034
 -1       682    8    0    1
 -2       266       420       419      2034      2035      2030
 -1       683    8    0    1
 -2       267       268       421      1575      2036      2037
 -1       684    8    0    1
 -2       267       421       420      2037      2038      2033
 -1       685    8    0    1
 -2       268       269       422      1578      2039      2040
 -1       686    8    0    1
 -2       268       422       421      2040      2041      2036
 -1       687    8    0    1
 -2       269       270       423      1581      2042      2043
 -1       688    8    0    1
 -2       269       423       422      2043      2044      2039
 -1       689    8    0    1
 -2       270       271       424      1584      2045      2046
 -1       690    8    0    1
 -2       270       424       423      2046      2047      2042
 -1       691    8    0    1
 -2       271       272       425      1587      2048      2049
 -1       692    8    0    1
 -2       271       425       424      2049      2050      2045
 -1       693    8    0    1
 -2       272       273       426      1590      2051      2052
 -1       694    8    0    1
 -2       272       426       425      2052      2053      2048
 -1       695    8    0    1
 -2       273       274       427      1593      2054      2055
 -1       696    8    0    1
 -2       273       427       426      2055      2056      2051
 -1       697    8    0    1
 -2       274       275       428      1596      2057      2058
 -1       698    8    0    1
 -2       274       428       427      2058      2059      2054
 -1       699    8    0    1
 -2       275       276       429      1599      2060      2061
 -1       700    8    0    1
 -2       428       275       429      2057      2061      2062
 -1       701    8    0    1
 -2       276       277       429      1710      2063      2060
 -1       702    8    0    1
 -2       279       280       430      1611      2064      2065
 -1       703    8    0    1
 -2       278       279       431      1608      2066      2067
 -1       704    8    0    1
 -2       279       430       431      2065      2068      2066
 -1       705    8    0    1
 -2       277       278       432      1605      2069      2070
 -1       706    8    0    1
 -2       429       277       432      2063      2070      2071
 -1       707    8    0    1
 -2       278       431       432      2067      2072      2069
 -1       708    8    0    1
 -2       280       281       433      1614      2073      2074
 -1       709    8    0    1
 -2       280       433       430      2074      2075      2064
 -1       710    8    0    1
 -2       281       282       434      1617      2076      2077
 -1       711    8    0    1
 -2       281       434       433      2077      2078      2073
 -1       712    8    0    1
 -2       282       283       435      1620      2079      2080
 -1       713    8    0    1
 -2       282       435       434      2080      2081      2076
 -1       714    8    0    1
 -2       283       284       436      1623      2082      2083
 -1       715    8    0    1
 -2       283       436       435      2083      2084      2079
 -1       716    8    0    1
 -2       284       285       437      1626      2085      2086
 -1       717    8    0    1
 -2       284       437       436      2086      2087      2082
 -1       718    8    0    1
 -2       285       286       438      1629      2088      2089
 -1       719    8    0    1
 -2       285       438       437      2089      2090      2085
 -1       720    8    0    1
 -2       286       287       439      1632      2091      2092
 -1       721    8    0    1
 -2       286       439       438      2092      2093      2088
 -1       722    8    0    1
 -2       287       288       440      1635      2094      2095
 -1       723    8    0    1
 -2       287       440       439      2095      2096      2091
 -1       724    8    0    1
 -2       288       289       441      1638      2097      2098
 -1       725    8    0    1
 -2       288       441       440      2098      2099      2094
 -1       726    8    0    1
 -2       289       290       442      1641      2100      2101
 -1       727    8    0    1
 -2       289       442       441      2101      2102      2097
 -1       728    8    0    1
 -2       293       294       443      1712      2103      2104
 -1       729    8    0    1
 -2       321       292       444      1713      2105      2106
 -1       730    8    0    1
 -2       292       293       445      1711      2107      2108
 -1       731    8    0    1
 -2       294       295       446      1708      2109      2110
 -1       732    8    0    1
 -2       294       446       443      2110      2111      2103
 -1       733    8    0    1
 -2       305       306       447      1676      2112      2113
 -1       734    8    0    1
 -2       308       309       448      1724      2114      2115
 -1       735    8    0    1
 -2       295       296       449      1707      2116      2117
 -1       736    8    0    1
 -2       167       168       450      1273      2118      2119
 -1       737    8    0    1
 -2       322       167       450      1739      2119      2120
 -1       738    8    0    1
 -2       168       324       450      1745      2121      2118
 -1       739    8    0    1
 -2       297       298       451      1715      2122      2123
 -1       740    8    0    1
 -2       298       299       452      1716      2124      2125
 -1       741    8    0    1
 -2       298       452       451      2125      2126      2122
 -1       742    8    0    1
 -2       299       300       453      1717      2127      2128
 -1       743    8    0    1
 -2       300       301       454      1718      2129      2130
 -1       744    8    0    1
 -2       301       302       455      1719      2131      2132
 -1       745    8    0    1
 -2       301       455       454      2132      2133      2129
 -1       746    8    0    1
 -2       302       303       456      1720      2134      2135
 -1       747    8    0    1
 -2       303       304       457      1721      2136      2137
 -1       748    8    0    1
 -2       304       305       458      1722      2138      2139
 -1       749    8    0    1
 -2       304       458       457      2139      2140      2136
 -1       750    8    0    1
 -2       307       308       459      1723      2141      2142
 -1       751    8    0    1
 -2       309       310       460      1725      2143      2144
 -1       752    8    0    1
 -2       310       311       461      1726      2145      2146
 -1       753    8    0    1
 -2       311       312       462      1727      2147      2148
 -1       754    8    0    1
 -2       311       462       461      2148      2149      2145
 -1       755    8    0    1
 -2       312       313       463      1728      2150      2151
 -1       756    8    0    1
 -2       313       314       464      1729      2152      2153
 -1       757    8    0    1
 -2       314       315       465      1730      2154      2155
 -1       758    8    0    1
 -2       315       316       466      1731      2156      2157
 -1       759    8    0    1
 -2       316       317       467      1732      2158      2159
 -1       760    8    0    1
 -2       317       318       468      1733      2160      2161
 -1       761    8    0    1
 -2       318       319       469      1734      2162      2163
 -1       762    8    0    1
 -2       319       320       470      1735      2164      2165
 -1       763    8    0    1
 -2       319       470       469      2165      2166      2162
 -1       764    8    0    1
 -2       320       321       471      1736      2167      2168
 -1       765    8    0    1
 -2       296       297       472      1714      2169      2170
 -1       766    8    0    1
 -2       296       472       449      2170      2171      2116
 -1       767    8    0    1
 -2       306       337       447      1785      2172      2112
 -1       768    8    0    1
 -2       446       295       473      2109      2173      2174
 -1       769    8    0    1
 -2       295       449       473      2117      2175      2173
 -1       770    8    0    1
 -2       337       307       459      1784      2142      2176
 -1       771    8    0    1
 -2       182       181       323      1315      1786      2177
 -1       772    8    0    1
 -2       338       182       323      1787      2177      2178
 -1       773    8    0    1
 -2       445       293       443      2107      2104      2179
 -1       774    8    0    1
 -2       444       292       445      2105      2108      2180
 -1       775    8    0    1
 -2       442       290       291      2100      1644      2181
 -1       776    8    0    1
 -2       305       447       458      2113      2182      2138
 -1       777    8    0    1
 -2       321       444       471      2106      2183      2167
 -1       778    8    0    1
 -2       472       297       451      2169      2123      2184
 -1       779    8    0    1
 -2       470       320       471      2164      2168      2185
 -1       780    8    0    1
 -2       468       318       469      2160      2163      2186
 -1       781    8    0    1
 -2       467       317       468      2158      2161      2187
 -1       782    8    0    1
 -2       308       448       459      2115      2188      2141
 -1       783    8    0    1
 -2       466       316       467      2156      2159      2189
 -1       784    8    0    1
 -2       465       315       466      2154      2157      2190
 -1       785    8    0    1
 -2       464       314       465      2152      2155      2191
 -1       786    8    0    1
 -2       462       312       463      2147      2151      2192
 -1       787    8    0    1
 -2       460       310       461      2143      2146      2193
 -1       788    8    0    1
 -2       455       302       456      2131      2135      2194
 -1       789    8    0    1
 -2       448       309       460      2114      2144      2195
 -1       790    8    0    1
 -2       452       299       453      2124      2128      2196
 -1       791    8    0    1
 -2       453       300       454      2127      2130      2197
 -1       792    8    0    1
 -2       456       303       457      2134      2137      2198
 -1       793    8    0    1
 -2       463       313       464      2150      2153      2199
 -1       794    8    0    1
 -2       336       384       474      1927      2200      2201
 -1       795    8    0    1
 -2       325       326       475      1751      2202      2203
 -1       796    8    0    1
 -2       324       325       476      1748      2204      2205
 -1       797    8    0    1
 -2       325       475       476      2203      2206      2204
 -1       798    8    0    1
 -2       327       328       477      1757      2207      2208
 -1       799    8    0    1
 -2       328       329       478      1760      2209      2210
 -1       800    8    0    1
 -2       328       478       477      2210      2211      2207
 -1       801    8    0    1
 -2       329       330       479      1763      2212      2213
 -1       802    8    0    1
 -2       329       479       478      2213      2214      2209
 -1       803    8    0    1
 -2       330       331       480      1766      2215      2216
 -1       804    8    0    1
 -2       330       480       479      2216      2217      2212
 -1       805    8    0    1
 -2       331       332       481      1769      2218      2219
 -1       806    8    0    1
 -2       331       481       480      2219      2220      2215
 -1       807    8    0    1
 -2       332       333       482      1772      2221      2222
 -1       808    8    0    1
 -2       332       482       481      2222      2223      2218
 -1       809    8    0    1
 -2       339       338       483      1791      2224      2225
 -1       810    8    0    1
 -2       384       385       484      1930      2226      2227
 -1       811    8    0    1
 -2       384       484       474      2227      2228      2200
 -1       812    8    0    1
 -2       338       323       485      2178      2229      2230
 -1       813    8    0    1
 -2       483       338       485      2224      2230      2231
 -1       814    8    0    1
 -2       323       322       485      1743      2232      2229
 -1       815    8    0    1
 -2       340       339       486      1794      2233      2234
 -1       816    8    0    1
 -2       339       483       486      2225      2235      2233
 -1       817    8    0    1
 -2       341       340       487      1797      2236      2237
 -1       818    8    0    1
 -2       340       486       487      2234      2238      2236
 -1       819    8    0    1
 -2       342       341       488      1800      2239      2240
 -1       820    8    0    1
 -2       341       487       488      2237      2241      2239
 -1       821    8    0    1
 -2       343       342       489      1803      2242      2243
 -1       822    8    0    1
 -2       342       488       489      2240      2244      2242
 -1       823    8    0    1
 -2       344       343       490      1806      2245      2246
 -1       824    8    0    1
 -2       343       489       490      2243      2247      2245
 -1       825    8    0    1
 -2       345       344       491      1809      2248      2249
 -1       826    8    0    1
 -2       344       490       491      2246      2250      2248
 -1       827    8    0    1
 -2       346       345       492      1812      2251      2252
 -1       828    8    0    1
 -2       345       491       492      2249      2253      2251
 -1       829    8    0    1
 -2       347       346       493      1815      2254      2255
 -1       830    8    0    1
 -2       346       492       493      2252      2256      2254
 -1       831    8    0    1
 -2       348       347       494      1818      2257      2258
 -1       832    8    0    1
 -2       347       493       494      2255      2259      2257
 -1       833    8    0    1
 -2       349       348       495      1821      2260      2261
 -1       834    8    0    1
 -2       348       494       495      2258      2262      2260
 -1       835    8    0    1
 -2       350       349       496      1824      2263      2264
 -1       836    8    0    1
 -2       349       495       496      2261      2265      2263
 -1       837    8    0    1
 -2       351       350       497      1827      2266      2267
 -1       838    8    0    1
 -2       350       496       497      2264      2268      2266
 -1       839    8    0    1
 -2       352       351       498      1830      2269      2270
 -1       840    8    0    1
 -2       351       497       498      2267      2271      2269
 -1       841    8    0    1
 -2       353       352       499      1833      2272      2273
 -1       842    8    0    1
 -2       352       498       499      2270      2274      2272
 -1       843    8    0    1
 -2       354       353       500      1836      2275      2276
 -1       844    8    0    1
 -2       353       499       500      2273      2277      2275
 -1       845    8    0    1
 -2       355       354       501      1839      2278      2279
 -1       846    8    0    1
 -2       354       500       501      2276      2280      2278
 -1       847    8    0    1
 -2       356       355       502      1842      2281      2282
 -1       848    8    0    1
 -2       355       501       502      2279      2283      2281
 -1       849    8    0    1
 -2       357       356       503      1845      2284      2285
 -1       850    8    0    1
 -2       356       502       503      2282      2286      2284
 -1       851    8    0    1
 -2       358       357       504      1848      2287      2288
 -1       852    8    0    1
 -2       357       503       504      2285      2289      2287
 -1       853    8    0    1
 -2       359       358       505      1851      2290      2291
 -1       854    8    0    1
 -2       358       504       505      2288      2292      2290
 -1       855    8    0    1
 -2       360       359       506      1854      2293      2294
 -1       856    8    0    1
 -2       359       505       506      2291      2295      2293
 -1       857    8    0    1
 -2       361       360       507      1857      2296      2297
 -1       858    8    0    1
 -2       360       506       507      2294      2298      2296
 -1       859    8    0    1
 -2       362       361       508      1860      2299      2300
 -1       860    8    0    1
 -2       361       507       508      2297      2301      2299
 -1       861    8    0    1
 -2       363       362       509      1863      2302      2303
 -1       862    8    0    1
 -2       362       508       509      2300      2304      2302
 -1       863    8    0    1
 -2       364       363       510      1866      2305      2306
 -1       864    8    0    1
 -2       363       509       510      2303      2307      2305
 -1       865    8    0    1
 -2       365       364       511      1869      2308      2309
 -1       866    8    0    1
 -2       364       510       511      2306      2310      2308
 -1       867    8    0    1
 -2       366       365       512      1872      2311      2312
 -1       868    8    0    1
 -2       365       511       512      2309      2313      2311
 -1       869    8    0    1
 -2       367       366       513      1875      2314      2315
 -1       870    8    0    1
 -2       366       512       513      2312      2316      2314
 -1       871    8    0    1
 -2       368       367       514      1878      2317      2318
 -1       872    8    0    1
 -2       367       513       514      2315      2319      2317
 -1       873    8    0    1
 -2       369       368       515      1881      2320      2321
 -1       874    8    0    1
 -2       368       514       515      2318      2322      2320
 -1       875    8    0    1
 -2       370       369       516      1884      2323      2324
 -1       876    8    0    1
 -2       369       515       516      2321      2325      2323
 -1       877    8    0    1
 -2       371       370       517      1887      2326      2327
 -1       878    8    0    1
 -2       370       516       517      2324      2328      2326
 -1       879    8    0    1
 -2       372       371       518      1890      2329      2330
 -1       880    8    0    1
 -2       371       517       518      2327      2331      2329
 -1       881    8    0    1
 -2       373       372       519      1893      2332      2333
 -1       882    8    0    1
 -2       372       518       519      2330      2334      2332
 -1       883    8    0    1
 -2       374       373       520      1896      2335      2336
 -1       884    8    0    1
 -2       373       519       520      2333      2337      2335
 -1       885    8    0    1
 -2       375       374       521      1899      2338      2339
 -1       886    8    0    1
 -2       374       520       521      2336      2340      2338
 -1       887    8    0    1
 -2       376       375       522      1902      2341      2342
 -1       888    8    0    1
 -2       375       521       522      2339      2343      2341
 -1       889    8    0    1
 -2       377       376       523      1905      2344      2345
 -1       890    8    0    1
 -2       376       522       523      2342      2346      2344
 -1       891    8    0    1
 -2       378       377       524      1908      2347      2348
 -1       892    8    0    1
 -2       377       523       524      2345      2349      2347
 -1       893    8    0    1
 -2       379       378       525      1911      2350      2351
 -1       894    8    0    1
 -2       378       524       525      2348      2352      2350
 -1       895    8    0    1
 -2       380       379       526      1914      2353      2354
 -1       896    8    0    1
 -2       379       525       526      2351      2355      2353
 -1       897    8    0    1
 -2       381       380       527      1917      2356      2357
 -1       898    8    0    1
 -2       380       526       527      2354      2358      2356
 -1       899    8    0    1
 -2       382       381       528      1920      2359      2360
 -1       900    8    0    1
 -2       381       527       528      2357      2361      2359
 -1       901    8    0    1
 -2       386       387       529      1936      2362      2363
 -1       902    8    0    1
 -2       387       388       530      1939      2364      2365
 -1       903    8    0    1
 -2       387       530       529      2365      2366      2362
 -1       904    8    0    1
 -2       388       389       531      1942      2367      2368
 -1       905    8    0    1
 -2       388       531       530      2368      2369      2364
 -1       906    8    0    1
 -2       389       390       532      1945      2370      2371
 -1       907    8    0    1
 -2       389       532       531      2371      2372      2367
 -1       908    8    0    1
 -2       390       391       533      1948      2373      2374
 -1       909    8    0    1
 -2       390       533       532      2374      2375      2370
 -1       910    8    0    1
 -2       391       392       534      1951      2376      2377
 -1       911    8    0    1
 -2       391       534       533      2377      2378      2373
 -1       912    8    0    1
 -2       392       393       535      1954      2379      2380
 -1       913    8    0    1
 -2       392       535       534      2380      2381      2376
 -1       914    8    0    1
 -2       393       394       536      1957      2382      2383
 -1       915    8    0    1
 -2       393       536       535      2383      2384      2379
 -1       916    8    0    1
 -2       394       395       537      1960      2385      2386
 -1       917    8    0    1
 -2       394       537       536      2386      2387      2382
 -1       918    8    0    1
 -2       395       396       538      1963      2388      2389
 -1       919    8    0    1
 -2       395       538       537      2389      2390      2385
 -1       920    8    0    1
 -2       396       397       539      1966      2391      2392
 -1       921    8    0    1
 -2       396       539       538      2392      2393      2388
 -1       922    8    0    1
 -2       397       398       540      1969      2394      2395
 -1       923    8    0    1
 -2       397       540       539      2395      2396      2391
 -1       924    8    0    1
 -2       398       399       541      1972      2397      2398
 -1       925    8    0    1
 -2       398       541       540      2398      2399      2394
 -1       926    8    0    1
 -2       399       400       542      1975      2400      2401
 -1       927    8    0    1
 -2       399       542       541      2401      2402      2397
 -1       928    8    0    1
 -2       400       401       543      1978      2403      2404
 -1       929    8    0    1
 -2       400       543       542      2404      2405      2400
 -1       930    8    0    1
 -2       401       402       544      1981      2406      2407
 -1       931    8    0    1
 -2       401       544       543      2407      2408      2403
 -1       932    8    0    1
 -2       402       403       545      1984      2409      2410
 -1       933    8    0    1
 -2       402       545       544      2410      2411      2406
 -1       934    8    0    1
 -2       403       404       546      1987      2412      2413
 -1       935    8    0    1
 -2       403       546       545      2413      2414      2409
 -1       936    8    0    1
 -2       404       405       547      1990      2415      2416
 -1       937    8    0    1
 -2       404       547       546      2416      2417      2412
 -1       938    8    0    1
 -2       405       406       548      1993      2418      2419
 -1       939    8    0    1
 -2       405       548       547      2419      2420      2415
 -1       940    8    0    1
 -2       406       407       549      1996      2421      2422
 -1       941    8    0    1
 -2       406       549       548      2422      2423      2418
 -1       942    8    0    1
 -2       407       408       550      1999      2424      2425
 -1       943    8    0    1
 -2       407       550       549      2425      2426      2421
 -1       944    8    0    1
 -2       408       409       551      2002      2427      2428
 -1       945    8    0    1
 -2       408       551       550      2428      2429      2424
 -1       946    8    0    1
 -2       409       410       552      2005      2430      2431
 -1       947    8    0    1
 -2       409       552       551      2431      2432      2427
 -1       948    8    0    1
 -2       410       411       553      2008      2433      2434
 -1       949    8    0    1
 -2       410       553       552      2434      2435      2430
 -1       950    8    0    1
 -2       411       412       554      2011      2436      2437
 -1       951    8    0    1
 -2       411       554       553      2437      2438      2433
 -1       952    8    0    1
 -2       413       414       454      2017      2439      2440
 -1       953    8    0    1
 -2       415       416       452      2023      2441      2442
 -1       954    8    0    1
 -2       417       418       473      2029      2443      2444
 -1       955    8    0    1
 -2       418       419       555      2032      2445      2446
 -1       956    8    0    1
 -2       418       555       473      2446      2447      2443
 -1       957    8    0    1
 -2       419       420       556      2035      2448      2449
 -1       958    8    0    1
 -2       419       556       555      2449      2450      2445
 -1       959    8    0    1
 -2       420       421       557      2038      2451      2452
 -1       960    8    0    1
 -2       420       557       556      2452      2453      2448
 -1       961    8    0    1
 -2       421       422       558      2041      2454      2455
 -1       962    8    0    1
 -2       421       558       557      2455      2456      2451
 -1       963    8    0    1
 -2       422       423       559      2044      2457      2458
 -1       964    8    0    1
 -2       422       559       558      2458      2459      2454
 -1       965    8    0    1
 -2       423       424       560      2047      2460      2461
 -1       966    8    0    1
 -2       423       560       559      2461      2462      2457
 -1       967    8    0    1
 -2       424       425       561      2050      2463      2464
 -1       968    8    0    1
 -2       424       561       560      2464      2465      2460
 -1       969    8    0    1
 -2       425       426       562      2053      2466      2467
 -1       970    8    0    1
 -2       425       562       561      2467      2468      2463
 -1       971    8    0    1
 -2       426       427       563      2056      2469      2470
 -1       972    8    0    1
 -2       426       563       562      2470      2471      2466
 -1       973    8    0    1
 -2       428       429       432      2062      2071      2472
 -1       974    8    0    1
 -2       433       434       564      2078      2473      2474
 -1       975    8    0    1
 -2       434       435       565      2081      2475      2476
 -1       976    8    0    1
 -2       434       565       564      2476      2477      2473
 -1       977    8    0    1
 -2       431       430       566      2068      2478      2479
 -1       978    8    0    1
 -2       430       433       567      2075      2480      2481
 -1       979    8    0    1
 -2       566       430       567      2478      2481      2482
 -1       980    8    0    1
 -2       433       564       567      2474      2483      2480
 -1       981    8    0    1
 -2       435       436       568      2084      2484      2485
 -1       982    8    0    1
 -2       435       568       565      2485      2486      2475
 -1       983    8    0    1
 -2       436       437       569      2087      2487      2488
 -1       984    8    0    1
 -2       436       569       568      2488      2489      2484
 -1       985    8    0    1
 -2       437       438       570      2090      2490      2491
 -1       986    8    0    1
 -2       437       570       569      2491      2492      2487
 -1       987    8    0    1
 -2       438       439       571      2093      2493      2494
 -1       988    8    0    1
 -2       438       571       570      2494      2495      2490
 -1       989    8    0    1
 -2       439       440       572      2096      2496      2497
 -1       990    8    0    1
 -2       439       572       571      2497      2498      2493
 -1       991    8    0    1
 -2       440       441       573      2099      2499      2500
 -1       992    8    0    1
 -2       440       573       572      2500      2501      2496
 -1       993    8    0    1
 -2       441       442       574      2102      2502      2503
 -1       994    8    0    1
 -2       441       574       573      2503      2504      2499
 -1       995    8    0    1
 -2       444       445       575      2180      2505      2506
 -1       996    8    0    1
 -2       458       447       576      2182      2507      2508
 -1       997    8    0    1
 -2       385       386       577      1933      2509      2510
 -1       998    8    0    1
 -2       386       529       577      2363      2511      2509
 -1       999    8    0    1
 -2       442       291       383      2181      1923      2512
 -1      1000    8    0    1
 -2       443       446       578      2111      2513      2514
 -1      1001    8    0    1
 -2       468       469       579      2186      2515      2516
 -1      1002    8    0    1
 -2       337       459       580      2176      2517      2518
 -1      1003    8    0    1
 -2       460       461       581      2193      2519      2520
 -1      1004    8    0    1
 -2       471       444       582      2183      2521      2522
 -1      1005    8    0    1
 -2       445       443       583      2179      2523      2524
 -1      1006    8    0    1
 -2       443       578       583      2514      2525      2523
 -1      1007    8    0    1
 -2       452       416       451      2441      2526      2126
 -1      1008    8    0    1
 -2       448       460       584      2195      2527      2528
 -1      1009    8    0    1
 -2       447       337       585      2172      2529      2530
 -1      1010    8    0    1
 -2       326       327       586      1754      2531      2532
 -1      1011    8    0    1
 -2       475       326       586      2202      2532      2533
 -1      1012    8    0    1
 -2       327       477       586      2208      2534      2531
 -1      1013    8    0    1
 -2       456       457       587      2198      2535      2536
 -1      1014    8    0    1
 -2       454       455       413      2133      2537      2440
 -1      1015    8    0    1
 -2       463       464       588      2199      2538      2539
 -1      1016    8    0    1
 -2       457       458       589      2140      2540      2541
 -1      1017    8    0    1
 -2       466       467       590      2189      2542      2543
 -1      1018    8    0    1
 -2       452       453       415      2196      2544      2442
 -1      1019    8    0    1
 -2       453       454       414      2197      2439      2545
 -1      1020    8    0    1
 -2       470       471       591      2185      2546      2547
 -1      1021    8    0    1
 -2       471       582       591      2522      2548      2546
 -1      1022    8    0    1
 -2       455       456       592      2194      2549      2550
 -1      1023    8    0    1
 -2       413       455       592      2537      2550      2551
 -1      1024    8    0    1
 -2       456       587       592      2536      2552      2549
 -1      1025    8    0    1
 -2       461       462       593      2149      2553      2554
 -1      1026    8    0    1
 -2       462       463       594      2192      2555      2556
 -1      1027    8    0    1
 -2       464       465       595      2191      2557      2558
 -1      1028    8    0    1
 -2       465       466       596      2190      2559      2560
 -1      1029    8    0    1
 -2       465       596       595      2560      2561      2557
 -1      1030    8    0    1
 -2       459       448       597      2188      2562      2563
 -1      1031    8    0    1
 -2       448       584       597      2528      2564      2562
 -1      1032    8    0    1
 -2       467       468       598      2187      2565      2566
 -1      1033    8    0    1
 -2       469       470       599      2166      2567      2568
 -1      1034    8    0    1
 -2       335       336       600      1783      2569      2570
 -1      1035    8    0    1
 -2       334       335       600      1778      2570      2571
 -1      1036    8    0    1
 -2       336       474       600      2201      2572      2569
 -1      1037    8    0    1
 -2       453       414       415      2545      2020      2544
 -1      1038    8    0    1
 -2       461       593       581      2554      2573      2519
 -1      1039    8    0    1
 -2       324       476       601      2205      2574      2575
 -1      1040    8    0    1
 -2       324       601       450      2575      2576      2121
 -1      1041    8    0    1
 -2       442       383       602      2512      2577      2578
 -1      1042    8    0    1
 -2       574       442       602      2502      2578      2579
 -1      1043    8    0    1
 -2       383       382       602      1924      2580      2577
 -1      1044    8    0    1
 -2       333       334       600      1775      2571      2581
 -1      1045    8    0    1
 -2       485       322       450      2232      2120      2582
 -1      1046    8    0    1
 -2       451       416       603      2526      2583      2584
 -1      1047    8    0    1
 -2       333       600       482      2581      2585      2221
 -1      1048    8    0    1
 -2       463       588       594      2539      2586      2555
 -1      1049    8    0    1
 -2       554       412       587      2436      2587      2588
 -1      1050    8    0    1
 -2       470       591       599      2547      2589      2567
 -1      1051    8    0    1
 -2       412       413       592      2014      2551      2590
 -1      1052    8    0    1
 -2       416       417       603      2026      2591      2583
 -1      1053    8    0    1
 -2       428       432       604      2472      2592      2593
 -1      1054    8    0    1
 -2       427       428       604      2059      2593      2594
 -1      1055    8    0    1
 -2       432       431       604      2072      2595      2592
 -1      1056    8    0    1
 -2       563       427       604      2469      2594      2596
 -1      1057    8    0    1
 -2       431       566       604      2479      2597      2595
 -1      1058    8    0    1
 -2       576       447       585      2507      2530      2598
 -1      1059    8    0    1
 -2       444       575       605      2506      2599      2600
 -1      1060    8    0    1
 -2       444       605       582      2600      2601      2521
 -1      1061    8    0    1
 -2       575       445       583      2505      2524      2602
 -1      1062    8    0    1
 -2       458       576       589      2508      2603      2540
 -1      1063    8    0    1
 -2       412       592       587      2590      2552      2587
 -1      1064    8    0    1
 -2       385       577       484      2510      2604      2226
 -1      1065    8    0    1
 -2       579       469       599      2515      2568      2605
 -1      1066    8    0    1
 -2       596       466       590      2559      2543      2606
 -1      1067    8    0    1
 -2       578       446       473      2513      2174      2607
 -1      1068    8    0    1
 -2       468       579       598      2516      2608      2565
 -1      1069    8    0    1
 -2       590       467       598      2542      2566      2609
 -1      1070    8    0    1
 -2       337       580       585      2518      2610      2529
 -1      1071    8    0    1
 -2       580       459       597      2517      2563      2611
 -1      1072    8    0    1
 -2       460       581       584      2520      2612      2527
 -1      1073    8    0    1
 -2       451       603       472      2584      2613      2184
 -1      1074    8    0    1
 -2       382       528       602      2360      2614      2580
 -1      1075    8    0    1
 -2       593       462       594      2553      2556      2615
 -1      1076    8    0    1
 -2       588       464       595      2538      2558      2616
 -1      1077    8    0    1
 -2       587       457       589      2535      2541      2617
 -1      1078    8    0    1
 -2       593       594       606      2615      2618      2619
 -1      1079    8    0    1
 -2       478       479       607      2214      2620      2621
 -1      1080    8    0    1
 -2       477       478       608      2211      2622      2623
 -1      1081    8    0    1
 -2       478       607       608      2621      2624      2622
 -1      1082    8    0    1
 -2       480       481       609      2220      2625      2626
 -1      1083    8    0    1
 -2       481       482       610      2223      2627      2628
 -1      1084    8    0    1
 -2       481       610       609      2628      2629      2625
 -1      1085    8    0    1
 -2       594       588       611      2586      2630      2631
 -1      1086    8    0    1
 -2       486       483       612      2235      2632      2633
 -1      1087    8    0    1
 -2       474       484       613      2228      2634      2635
 -1      1088    8    0    1
 -2       604       566       563      2597      2636      2596
 -1      1089    8    0    1
 -2       531       532       614      2372      2637      2638
 -1      1090    8    0    1
 -2       482       600       474      2585      2572      2639
 -1      1091    8    0    1
 -2       487       486       615      2238      2640      2641
 -1      1092    8    0    1
 -2       486       612       615      2633      2642      2640
 -1      1093    8    0    1
 -2       488       487       616      2241      2643      2644
 -1      1094    8    0    1
 -2       487       615       616      2641      2645      2643
 -1      1095    8    0    1
 -2       489       488       617      2244      2646      2647
 -1      1096    8    0    1
 -2       488       616       617      2644      2648      2646
 -1      1097    8    0    1
 -2       490       489       618      2247      2649      2650
 -1      1098    8    0    1
 -2       489       617       618      2647      2651      2649
 -1      1099    8    0    1
 -2       491       490       619      2250      2652      2653
 -1      1100    8    0    1
 -2       490       618       619      2650      2654      2652
 -1      1101    8    0    1
 -2       492       491       620      2253      2655      2656
 -1      1102    8    0    1
 -2       491       619       620      2653      2657      2655
 -1      1103    8    0    1
 -2       493       492       621      2256      2658      2659
 -1      1104    8    0    1
 -2       492       620       621      2656      2660      2658
 -1      1105    8    0    1
 -2       494       493       622      2259      2661      2662
 -1      1106    8    0    1
 -2       493       621       622      2659      2663      2661
 -1      1107    8    0    1
 -2       495       494       623      2262      2664      2665
 -1      1108    8    0    1
 -2       494       622       623      2662      2666      2664
 -1      1109    8    0    1
 -2       496       495       624      2265      2667      2668
 -1      1110    8    0    1
 -2       495       623       624      2665      2669      2667
 -1      1111    8    0    1
 -2       497       496       625      2268      2670      2671
 -1      1112    8    0    1
 -2       496       624       625      2668      2672      2670
 -1      1113    8    0    1
 -2       498       497       626      2271      2673      2674
 -1      1114    8    0    1
 -2       497       625       626      2671      2675      2673
 -1      1115    8    0    1
 -2       499       498       627      2274      2676      2677
 -1      1116    8    0    1
 -2       498       626       627      2674      2678      2676
 -1      1117    8    0    1
 -2       500       499       628      2277      2679      2680
 -1      1118    8    0    1
 -2       499       627       628      2677      2681      2679
 -1      1119    8    0    1
 -2       501       500       629      2280      2682      2683
 -1      1120    8    0    1
 -2       500       628       629      2680      2684      2682
 -1      1121    8    0    1
 -2       502       501       630      2283      2685      2686
 -1      1122    8    0    1
 -2       501       629       630      2683      2687      2685
 -1      1123    8    0    1
 -2       503       502       631      2286      2688      2689
 -1      1124    8    0    1
 -2       502       630       631      2686      2690      2688
 -1      1125    8    0    1
 -2       504       503       632      2289      2691      2692
 -1      1126    8    0    1
 -2       503       631       632      2689      2693      2691
 -1      1127    8    0    1
 -2       505       504       633      2292      2694      2695
 -1      1128    8    0    1
 -2       504       632       633      2692      2696      2694
 -1      1129    8    0    1
 -2       506       505       634      2295      2697      2698
 -1      1130    8    0    1
 -2       505       633       634      2695      2699      2697
 -1      1131    8    0    1
 -2       507       506       635      2298      2700      2701
 -1      1132    8    0    1
 -2       506       634       635      2698      2702      2700
 -1      1133    8    0    1
 -2       508       507       636      2301      2703      2704
 -1      1134    8    0    1
 -2       507       635       636      2701      2705      2703
 -1      1135    8    0    1
 -2       509       508       637      2304      2706      2707
 -1      1136    8    0    1
 -2       508       636       637      2704      2708      2706
 -1      1137    8    0    1
 -2       510       509       638      2307      2709      2710
 -1      1138    8    0    1
 -2       509       637       638      2707      2711      2709
 -1      1139    8    0    1
 -2       511       510       639      2310      2712      2713
 -1      1140    8    0    1
 -2       510       638       639      2710      2714      2712
 -1      1141    8    0    1
 -2       512       511       640      2313      2715      2716
 -1      1142    8    0    1
 -2       511       639       640      2713      2717      2715
 -1      1143    8    0    1
 -2       513       512       641      2316      2718      2719
 -1      1144    8    0    1
 -2       512       640       641      2716      2720      2718
 -1      1145    8    0    1
 -2       514       513       642      2319      2721      2722
 -1      1146    8    0    1
 -2       513       641       642      2719      2723      2721
 -1      1147    8    0    1
 -2       515       514       643      2322      2724      2725
 -1      1148    8    0    1
 -2       514       642       643      2722      2726      2724
 -1      1149    8    0    1
 -2       516       515       644      2325      2727      2728
 -1      1150    8    0    1
 -2       515       643       644      2725      2729      2727
 -1      1151    8    0    1
 -2       517       516       645      2328      2730      2731
 -1      1152    8    0    1
 -2       516       644       645      2728      2732      2730
 -1      1153    8    0    1
 -2       518       517       646      2331      2733      2734
 -1      1154    8    0    1
 -2       517       645       646      2731      2735      2733
 -1      1155    8    0    1
 -2       519       518       647      2334      2736      2737
 -1      1156    8    0    1
 -2       518       646       647      2734      2738      2736
 -1      1157    8    0    1
 -2       520       519       648      2337      2739      2740
 -1      1158    8    0    1
 -2       519       647       648      2737      2741      2739
 -1      1159    8    0    1
 -2       521       520       649      2340      2742      2743
 -1      1160    8    0    1
 -2       520       648       649      2740      2744      2742
 -1      1161    8    0    1
 -2       522       521       650      2343      2745      2746
 -1      1162    8    0    1
 -2       521       649       650      2743      2747      2745
 -1      1163    8    0    1
 -2       523       522       651      2346      2748      2749
 -1      1164    8    0    1
 -2       522       650       651      2746      2750      2748
 -1      1165    8    0    1
 -2       524       523       652      2349      2751      2752
 -1      1166    8    0    1
 -2       523       651       652      2749      2753      2751
 -1      1167    8    0    1
 -2       525       524       653      2352      2754      2755
 -1      1168    8    0    1
 -2       524       652       653      2752      2756      2754
 -1      1169    8    0    1
 -2       526       525       654      2355      2757      2758
 -1      1170    8    0    1
 -2       525       653       654      2755      2759      2757
 -1      1171    8    0    1
 -2       527       526       655      2358      2760      2761
 -1      1172    8    0    1
 -2       526       654       655      2758      2762      2760
 -1      1173    8    0    1
 -2       528       527       656      2361      2763      2764
 -1      1174    8    0    1
 -2       527       655       656      2761      2765      2763
 -1      1175    8    0    1
 -2       530       531       657      2369      2766      2767
 -1      1176    8    0    1
 -2       531       614       657      2638      2768      2766
 -1      1177    8    0    1
 -2       529       530       658      2366      2769      2770
 -1      1178    8    0    1
 -2       530       657       658      2767      2771      2769
 -1      1179    8    0    1
 -2       532       533       659      2375      2772      2773
 -1      1180    8    0    1
 -2       532       659       614      2773      2774      2637
 -1      1181    8    0    1
 -2       533       534       660      2378      2775      2776
 -1      1182    8    0    1
 -2       533       660       659      2776      2777      2772
 -1      1183    8    0    1
 -2       534       535       661      2381      2778      2779
 -1      1184    8    0    1
 -2       534       661       660      2779      2780      2775
 -1      1185    8    0    1
 -2       535       536       662      2384      2781      2782
 -1      1186    8    0    1
 -2       535       662       661      2782      2783      2778
 -1      1187    8    0    1
 -2       536       537       663      2387      2784      2785
 -1      1188    8    0    1
 -2       536       663       662      2785      2786      2781
 -1      1189    8    0    1
 -2       537       538       664      2390      2787      2788
 -1      1190    8    0    1
 -2       537       664       663      2788      2789      2784
 -1      1191    8    0    1
 -2       538       539       665      2393      2790      2791
 -1      1192    8    0    1
 -2       538       665       664      2791      2792      2787
 -1      1193    8    0    1
 -2       539       540       666      2396      2793      2794
 -1      1194    8    0    1
 -2       539       666       665      2794      2795      2790
 -1      1195    8    0    1
 -2       540       541       667      2399      2796      2797
 -1      1196    8    0    1
 -2       540       667       666      2797      2798      2793
 -1      1197    8    0    1
 -2       541       542       668      2402      2799      2800
 -1      1198    8    0    1
 -2       541       668       667      2800      2801      2796
 -1      1199    8    0    1
 -2       542       543       669      2405      2802      2803
 -1      1200    8    0    1
 -2       542       669       668      2803      2804      2799
 -1      1201    8    0    1
 -2       543       544       670      2408      2805      2806
 -1      1202    8    0    1
 -2       543       670       669      2806      2807      2802
 -1      1203    8    0    1
 -2       544       545       671      2411      2808      2809
 -1      1204    8    0    1
 -2       544       671       670      2809      2810      2805
 -1      1205    8    0    1
 -2       545       546       672      2414      2811      2812
 -1      1206    8    0    1
 -2       545       672       671      2812      2813      2808
 -1      1207    8    0    1
 -2       546       547       673      2417      2814      2815
 -1      1208    8    0    1
 -2       546       673       672      2815      2816      2811
 -1      1209    8    0    1
 -2       547       548       674      2420      2817      2818
 -1      1210    8    0    1
 -2       547       674       673      2818      2819      2814
 -1      1211    8    0    1
 -2       548       549       675      2423      2820      2821
 -1      1212    8    0    1
 -2       548       675       674      2821      2822      2817
 -1      1213    8    0    1
 -2       549       550       676      2426      2823      2824
 -1      1214    8    0    1
 -2       549       676       675      2824      2825      2820
 -1      1215    8    0    1
 -2       550       551       677      2429      2826      2827
 -1      1216    8    0    1
 -2       550       677       676      2827      2828      2823
 -1      1217    8    0    1
 -2       551       552       678      2432      2829      2830
 -1      1218    8    0    1
 -2       551       678       677      2830      2831      2826
 -1      1219    8    0    1
 -2       552       553       679      2435      2832      2833
 -1      1220    8    0    1
 -2       552       679       678      2833      2834      2829
 -1      1221    8    0    1
 -2       484       577       680      2604      2835      2836
 -1      1222    8    0    1
 -2       484       680       613      2836      2837      2634
 -1      1223    8    0    1
 -2       599       591       681      2589      2838      2839
 -1      1224    8    0    1
 -2       576       585       682      2598      2840      2841
 -1      1225    8    0    1
 -2       473       555       578      2447      2842      2607
 -1      1226    8    0    1
 -2       557       558       683      2456      2843      2844
 -1      1227    8    0    1
 -2       558       559       684      2459      2845      2846
 -1      1228    8    0    1
 -2       558       684       683      2846      2847      2843
 -1      1229    8    0    1
 -2       559       560       685      2462      2848      2849
 -1      1230    8    0    1
 -2       559       685       684      2849      2850      2845
 -1      1231    8    0    1
 -2       560       561       686      2465      2851      2852
 -1      1232    8    0    1
 -2       560       686       685      2852      2853      2848
 -1      1233    8    0    1
 -2       561       562       687      2468      2854      2855
 -1      1234    8    0    1
 -2       561       687       686      2855      2856      2851
 -1      1235    8    0    1
 -2       562       563       688      2471      2857      2858
 -1      1236    8    0    1
 -2       562       688       687      2858      2859      2854
 -1      1237    8    0    1
 -2       568       569       689      2489      2860      2861
 -1      1238    8    0    1
 -2       564       565       690      2477      2862      2863
 -1      1239    8    0    1
 -2       569       570       691      2492      2864      2865
 -1      1240    8    0    1
 -2       569       691       689      2865      2866      2860
 -1      1241    8    0    1
 -2       565       568       692      2486      2867      2868
 -1      1242    8    0    1
 -2       690       565       692      2862      2868      2869
 -1      1243    8    0    1
 -2       568       689       692      2861      2870      2867
 -1      1244    8    0    1
 -2       570       571       693      2495      2871      2872
 -1      1245    8    0    1
 -2       570       693       691      2872      2873      2864
 -1      1246    8    0    1
 -2       571       572       694      2498      2874      2875
 -1      1247    8    0    1
 -2       571       694       693      2875      2876      2871
 -1      1248    8    0    1
 -2       572       573       695      2501      2877      2878
 -1      1249    8    0    1
 -2       572       695       694      2878      2879      2874
 -1      1250    8    0    1
 -2       598       579       696      2608      2880      2881
 -1      1251    8    0    1
 -2       575       583       697      2602      2882      2883
 -1      1252    8    0    1
 -2       577       529       698      2511      2884      2885
 -1      1253    8    0    1
 -2       680       577       698      2835      2885      2886
 -1      1254    8    0    1
 -2       529       658       698      2770      2887      2884
 -1      1255    8    0    1
 -2       556       557       699      2453      2888      2889
 -1      1256    8    0    1
 -2       557       683       699      2844      2890      2888
 -1      1257    8    0    1
 -2       555       556       700      2450      2891      2892
 -1      1258    8    0    1
 -2       578       555       700      2842      2892      2893
 -1      1259    8    0    1
 -2       556       699       700      2889      2894      2891
 -1      1260    8    0    1
 -2       589       576       701      2603      2895      2896
 -1      1261    8    0    1
 -2       580       597       702      2611      2897      2898
 -1      1262    8    0    1
 -2       472       603       417      2613      2591      2899
 -1      1263    8    0    1
 -2       574       602       703      2579      2900      2901
 -1      1264    8    0    1
 -2       602       528       703      2614      2902      2900
 -1      1265    8    0    1
 -2       579       599       704      2605      2903      2904
 -1      1266    8    0    1
 -2       479       480       705      2217      2905      2906
 -1      1267    8    0    1
 -2       607       479       705      2620      2906      2907
 -1      1268    8    0    1
 -2       480       609       705      2626      2908      2905
 -1      1269    8    0    1
 -2       585       580       706      2610      2909      2910
 -1      1270    8    0    1
 -2       476       475       707      2206      2911      2912
 -1      1271    8    0    1
 -2       581       593       708      2573      2913      2914
 -1      1272    8    0    1
 -2       584       581       709      2612      2915      2916
 -1      1273    8    0    1
 -2       591       582       710      2548      2917      2918
 -1      1274    8    0    1
 -2       554       587       589      2588      2617      2919
 -1      1275    8    0    1
 -2       588       595       711      2616      2920      2921
 -1      1276    8    0    1
 -2       595       596       712      2561      2922      2923
 -1      1277    8    0    1
 -2       597       584       713      2564      2924      2925
 -1      1278    8    0    1
 -2       597       713       702      2925      2926      2897
 -1      1279    8    0    1
 -2       590       598       714      2609      2927      2928
 -1      1280    8    0    1
 -2       598       696       714      2881      2929      2927
 -1      1281    8    0    1
 -2       596       590       715      2606      2930      2931
 -1      1282    8    0    1
 -2       485       450       601      2582      2576      2932
 -1      1283    8    0    1
 -2       449       472       417      2171      2899      2933
 -1      1284    8    0    1
 -2       563       566       688      2636      2934      2857
 -1      1285    8    0    1
 -2       554       589       701      2919      2896      2935
 -1      1286    8    0    1
 -2       601       476       716      2574      2936      2937
 -1      1287    8    0    1
 -2       476       707       716      2912      2938      2936
 -1      1288    8    0    1
 -2       585       706       682      2910      2939      2840
 -1      1289    8    0    1
 -2       477       608       717      2623      2940      2941
 -1      1290    8    0    1
 -2       477       717       586      2941      2942      2534
 -1      1291    8    0    1
 -2       594       611       606      2631      2943      2618
 -1      1292    8    0    1
 -2       611       588       718      2630      2944      2945
 -1      1293    8    0    1
 -2       588       711       718      2921      2946      2944
 -1      1294    8    0    1
 -2       528       656       703      2764      2947      2902
 -1      1295    8    0    1
 -2       482       474       613      2639      2635      2948
 -1      1296    8    0    1
 -2       679       553       701      2832      2949      2950
 -1      1297    8    0    1
 -2       553       554       701      2438      2935      2949
 -1      1298    8    0    1
 -2       681       591       710      2838      2918      2951
 -1      1299    8    0    1
 -2       576       682       701      2841      2952      2895
 -1      1300    8    0    1
 -2       564       690       719      2863      2953      2954
 -1      1301    8    0    1
 -2       564       719       567      2954      2955      2483
 -1      1302    8    0    1
 -2       566       567       720      2482      2956      2957
 -1      1303    8    0    1
 -2       688       566       720      2934      2957      2958
 -1      1304    8    0    1
 -2       567       719       720      2955      2959      2956
 -1      1305    8    0    1
 -2       697       583       700      2882      2960      2961
 -1      1306    8    0    1
 -2       605       575       721      2599      2962      2963
 -1      1307    8    0    1
 -2       575       697       721      2883      2964      2962
 -1      1308    8    0    1
 -2       596       715       712      2931      2965      2922
 -1      1309    8    0    1
 -2       696       579       704      2880      2904      2966
 -1      1310    8    0    1
 -2       573       574       703      2504      2901      2967
 -1      1311    8    0    1
 -2       713       584       709      2924      2916      2968
 -1      1312    8    0    1
 -2       710       582       722      2917      2969      2970
 -1      1313    8    0    1
 -2       582       605       722      2601      2971      2969
 -1      1314    8    0    1
 -2       709       581       708      2915      2914      2972
 -1      1315    8    0    1
 -2       708       593       606      2913      2619      2973
 -1      1316    8    0    1
 -2       583       578       700      2525      2893      2960
 -1      1317    8    0    1
 -2       449       417       473      2933      2444      2175
 -1      1318    8    0    1
 -2       599       681       704      2839      2974      2903
 -1      1319    8    0    1
 -2       590       714       723      2928      2975      2976
 -1      1320    8    0    1
 -2       590       723       715      2976      2977      2930
 -1      1321    8    0    1
 -2       580       702       706      2898      2978      2909
 -1      1322    8    0    1
 -2       482       613       610      2948      2979      2627
 -1      1323    8    0    1
 -2       475       586       724      2533      2980      2981
 -1      1324    8    0    1
 -2       707       475       724      2911      2981      2982
 -1      1325    8    0    1
 -2       586       717       724      2942      2983      2980
 -1      1326    8    0    1
 -2       711       595       712      2920      2923      2984
 -1      1327    8    0    1
 -2       483       485       725      2231      2985      2986
 -1      1328    8    0    1
 -2       573       703       726      2967      2987      2988
 -1      1329    8    0    1
 -2       695       573       726      2877      2988      2989
 -1      1330    8    0    1
 -2       703       656       726      2947      2990      2987
 -1      1331    8    0    1
 -2       483       725       612      2986      2991      2632
 -1      1332    8    0    1
 -2       609       610       727      2629      2992      2993
 -1      1333    8    0    1
 -2       679       701       682      2950      2952      2994
 -1      1334    8    0    1
 -2       704       681       728      2974      2995      2996
 -1      1335    8    0    1
 -2       659       660       729      2777      2997      2998
 -1      1336    8    0    1
 -2       681       710       730      2951      2999      3000
 -1      1337    8    0    1
 -2       681       730       728      3000      3001      2995
 -1      1338    8    0    1
 -2       615       612       731      2642      3002      3003
 -1      1339    8    0    1
 -2       616       615       732      2645      3004      3005
 -1      1340    8    0    1
 -2       615       731       732      3003      3006      3004
 -1      1341    8    0    1
 -2       617       616       733      2648      3007      3008
 -1      1342    8    0    1
 -2       616       732       733      3005      3009      3007
 -1      1343    8    0    1
 -2       618       617       734      2651      3010      3011
 -1      1344    8    0    1
 -2       617       733       734      3008      3012      3010
 -1      1345    8    0    1
 -2       619       618       735      2654      3013      3014
 -1      1346    8    0    1
 -2       618       734       735      3011      3015      3013
 -1      1347    8    0    1
 -2       620       619       736      2657      3016      3017
 -1      1348    8    0    1
 -2       619       735       736      3014      3018      3016
 -1      1349    8    0    1
 -2       621       620       737      2660      3019      3020
 -1      1350    8    0    1
 -2       620       736       737      3017      3021      3019
 -1      1351    8    0    1
 -2       622       621       738      2663      3022      3023
 -1      1352    8    0    1
 -2       621       737       738      3020      3024      3022
 -1      1353    8    0    1
 -2       623       622       739      2666      3025      3026
 -1      1354    8    0    1
 -2       622       738       739      3023      3027      3025
 -1      1355    8    0    1
 -2       624       623       740      2669      3028      3029
 -1      1356    8    0    1
 -2       623       739       740      3026      3030      3028
 -1      1357    8    0    1
 -2       625       624       741      2672      3031      3032
 -1      1358    8    0    1
 -2       624       740       741      3029      3033      3031
 -1      1359    8    0    1
 -2       626       625       742      2675      3034      3035
 -1      1360    8    0    1
 -2       625       741       742      3032      3036      3034
 -1      1361    8    0    1
 -2       627       626       743      2678      3037      3038
 -1      1362    8    0    1
 -2       626       742       743      3035      3039      3037
 -1      1363    8    0    1
 -2       628       627       744      2681      3040      3041
 -1      1364    8    0    1
 -2       627       743       744      3038      3042      3040
 -1      1365    8    0    1
 -2       629       628       745      2684      3043      3044
 -1      1366    8    0    1
 -2       628       744       745      3041      3045      3043
 -1      1367    8    0    1
 -2       630       629       746      2687      3046      3047
 -1      1368    8    0    1
 -2       629       745       746      3044      3048      3046
 -1      1369    8    0    1
 -2       631       630       747      2690      3049      3050
 -1      1370    8    0    1
 -2       630       746       747      3047      3051      3049
 -1      1371    8    0    1
 -2       632       631       748      2693      3052      3053
 -1      1372    8    0    1
 -2       631       747       748      3050      3054      3052
 -1      1373    8    0    1
 -2       633       632       749      2696      3055      3056
 -1      1374    8    0    1
 -2       632       748       749      3053      3057      3055
 -1      1375    8    0    1
 -2       634       633       750      2699      3058      3059
 -1      1376    8    0    1
 -2       633       749       750      3056      3060      3058
 -1      1377    8    0    1
 -2       635       634       751      2702      3061      3062
 -1      1378    8    0    1
 -2       634       750       751      3059      3063      3061
 -1      1379    8    0    1
 -2       636       635       752      2705      3064      3065
 -1      1380    8    0    1
 -2       635       751       752      3062      3066      3064
 -1      1381    8    0    1
 -2       637       636       753      2708      3067      3068
 -1      1382    8    0    1
 -2       636       752       753      3065      3069      3067
 -1      1383    8    0    1
 -2       638       637       754      2711      3070      3071
 -1      1384    8    0    1
 -2       637       753       754      3068      3072      3070
 -1      1385    8    0    1
 -2       639       638       755      2714      3073      3074
 -1      1386    8    0    1
 -2       638       754       755      3071      3075      3073
 -1      1387    8    0    1
 -2       640       639       756      2717      3076      3077
 -1      1388    8    0    1
 -2       639       755       756      3074      3078      3076
 -1      1389    8    0    1
 -2       641       640       757      2720      3079      3080
 -1      1390    8    0    1
 -2       640       756       757      3077      3081      3079
 -1      1391    8    0    1
 -2       642       641       758      2723      3082      3083
 -1      1392    8    0    1
 -2       641       757       758      3080      3084      3082
 -1      1393    8    0    1
 -2       643       642       759      2726      3085      3086
 -1      1394    8    0    1
 -2       642       758       759      3083      3087      3085
 -1      1395    8    0    1
 -2       644       643       760      2729      3088      3089
 -1      1396    8    0    1
 -2       643       759       760      3086      3090      3088
 -1      1397    8    0    1
 -2       645       644       761      2732      3091      3092
 -1      1398    8    0    1
 -2       644       760       761      3089      3093      3091
 -1      1399    8    0    1
 -2       646       645       762      2735      3094      3095
 -1      1400    8    0    1
 -2       645       761       762      3092      3096      3094
 -1      1401    8    0    1
 -2       647       646       763      2738      3097      3098
 -1      1402    8    0    1
 -2       646       762       763      3095      3099      3097
 -1      1403    8    0    1
 -2       648       647       764      2741      3100      3101
 -1      1404    8    0    1
 -2       647       763       764      3098      3102      3100
 -1      1405    8    0    1
 -2       649       648       765      2744      3103      3104
 -1      1406    8    0    1
 -2       648       764       765      3101      3105      3103
 -1      1407    8    0    1
 -2       650       649       766      2747      3106      3107
 -1      1408    8    0    1
 -2       649       765       766      3104      3108      3106
 -1      1409    8    0    1
 -2       651       650       767      2750      3109      3110
 -1      1410    8    0    1
 -2       650       766       767      3107      3111      3109
 -1      1411    8    0    1
 -2       652       651       768      2753      3112      3113
 -1      1412    8    0    1
 -2       651       767       768      3110      3114      3112
 -1      1413    8    0    1
 -2       653       652       769      2756      3115      3116
 -1      1414    8    0    1
 -2       652       768       769      3113      3117      3115
 -1      1415    8    0    1
 -2       654       653       770      2759      3118      3119
 -1      1416    8    0    1
 -2       653       769       770      3116      3120      3118
 -1      1417    8    0    1
 -2       655       654       771      2762      3121      3122
 -1      1418    8    0    1
 -2       654       770       771      3119      3123      3121
 -1      1419    8    0    1
 -2       656       655       772      2765      3124      3125
 -1      1420    8    0    1
 -2       726       656       772      2990      3125      3126
 -1      1421    8    0    1
 -2       655       771       772      3122      3127      3124
 -1      1422    8    0    1
 -2       657       614       773      2768      3128      3129
 -1      1423    8    0    1
 -2       658       657       774      2771      3130      3131
 -1      1424    8    0    1
 -2       657       773       774      3129      3132      3130
 -1      1425    8    0    1
 -2       660       661       775      2780      3133      3134
 -1      1426    8    0    1
 -2       660       775       729      3134      3135      2997
 -1      1427    8    0    1
 -2       661       662       776      2783      3136      3137
 -1      1428    8    0    1
 -2       661       776       775      3137      3138      3133
 -1      1429    8    0    1
 -2       662       663       777      2786      3139      3140
 -1      1430    8    0    1
 -2       662       777       776      3140      3141      3136
 -1      1431    8    0    1
 -2       663       664       778      2789      3142      3143
 -1      1432    8    0    1
 -2       663       778       777      3143      3144      3139
 -1      1433    8    0    1
 -2       664       665       779      2792      3145      3146
 -1      1434    8    0    1
 -2       664       779       778      3146      3147      3142
 -1      1435    8    0    1
 -2       665       666       780      2795      3148      3149
 -1      1436    8    0    1
 -2       665       780       779      3149      3150      3145
 -1      1437    8    0    1
 -2       666       667       781      2798      3151      3152
 -1      1438    8    0    1
 -2       666       781       780      3152      3153      3148
 -1      1439    8    0    1
 -2       667       668       782      2801      3154      3155
 -1      1440    8    0    1
 -2       667       782       781      3155      3156      3151
 -1      1441    8    0    1
 -2       668       669       783      2804      3157      3158
 -1      1442    8    0    1
 -2       668       783       782      3158      3159      3154
 -1      1443    8    0    1
 -2       669       670       784      2807      3160      3161
 -1      1444    8    0    1
 -2       669       784       783      3161      3162      3157
 -1      1445    8    0    1
 -2       670       671       785      2810      3163      3164
 -1      1446    8    0    1
 -2       670       785       784      3164      3165      3160
 -1      1447    8    0    1
 -2       671       672       786      2813      3166      3167
 -1      1448    8    0    1
 -2       671       786       785      3167      3168      3163
 -1      1449    8    0    1
 -2       672       673       787      2816      3169      3170
 -1      1450    8    0    1
 -2       672       787       786      3170      3171      3166
 -1      1451    8    0    1
 -2       673       674       788      2819      3172      3173
 -1      1452    8    0    1
 -2       673       788       787      3173      3174      3169
 -1      1453    8    0    1
 -2       674       675       789      2822      3175      3176
 -1      1454    8    0    1
 -2       674       789       788      3176      3177      3172
 -1      1455    8    0    1
 -2       675       676       790      2825      3178      3179
 -1      1456    8    0    1
 -2       675       790       789      3179      3180      3175
 -1      1457    8    0    1
 -2       676       677       791      2828      3181      3182
 -1      1458    8    0    1
 -2       676       791       790      3182      3183      3178
 -1      1459    8    0    1
 -2       677       678       792      2831      3184      3185
 -1      1460    8    0    1
 -2       677       792       791      3185      3186      3181
 -1      1461    8    0    1
 -2       678       679       793      2834      3187      3188
 -1      1462    8    0    1
 -2       678       793       792      3188      3189      3184
 -1      1463    8    0    1
 -2       699       683       794      2890      3190      3191
 -1      1464    8    0    1
 -2       697       700       699      2961      2894      3192
 -1      1465    8    0    1
 -2       684       685       795      2850      3193      3194
 -1      1466    8    0    1
 -2       683       684       796      2847      3195      3196
 -1      1467    8    0    1
 -2       794       683       796      3190      3196      3197
 -1      1468    8    0    1
 -2       684       795       796      3194      3198      3195
 -1      1469    8    0    1
 -2       686       687       797      2856      3199      3200
 -1      1470    8    0    1
 -2       687       688       798      2859      3201      3202
 -1      1471    8    0    1
 -2       797       687       798      3199      3202      3203
 -1      1472    8    0    1
 -2       688       720       798      2958      3204      3201
 -1      1473    8    0    1
 -2       691       693       799      2873      3205      3206
 -1      1474    8    0    1
 -2       689       691       800      2866      3207      3208
 -1      1475    8    0    1
 -2       691       799       800      3206      3209      3207
 -1      1476    8    0    1
 -2       614       659       801      2774      3210      3211
 -1      1477    8    0    1
 -2       614       801       773      3211      3212      3128
 -1      1478    8    0    1
 -2       693       694       802      2876      3213      3214
 -1      1479    8    0    1
 -2       693       802       799      3214      3215      3205
 -1      1480    8    0    1
 -2       712       715       803      2965      3216      3217
 -1      1481    8    0    1
 -2       694       695       804      2879      3218      3219
 -1      1482    8    0    1
 -2       694       804       802      3219      3220      3213
 -1      1483    8    0    1
 -2       606       611       805      2943      3221      3222
 -1      1484    8    0    1
 -2       685       686       806      2853      3223      3224
 -1      1485    8    0    1
 -2       686       797       806      3200      3225      3223
 -1      1486    8    0    1
 -2       711       712       807      2984      3226      3227
 -1      1487    8    0    1
 -2       713       709       808      2968      3228      3229
 -1      1488    8    0    1
 -2       709       708       809      2972      3230      3231
 -1      1489    8    0    1
 -2       682       706       793      2939      3232      3233
 -1      1490    8    0    1
 -2       708       606       810      2973      3234      3235
 -1      1491    8    0    1
 -2       608       607       811      2624      3236      3237
 -1      1492    8    0    1
 -2       610       613       812      2979      3238      3239
 -1      1493    8    0    1
 -2       727       610       812      2992      3239      3240
 -1      1494    8    0    1
 -2       613       680       812      2837      3241      3238
 -1      1495    8    0    1
 -2       696       704       813      2966      3242      3243
 -1      1496    8    0    1
 -2       725       485       601      2985      2932      3244
 -1      1497    8    0    1
 -2       702       713       814      2926      3245      3246
 -1      1498    8    0    1
 -2       713       808       814      3229      3247      3245
 -1      1499    8    0    1
 -2       714       696       815      2929      3248      3249
 -1      1500    8    0    1
 -2       706       702       816      2978      3250      3251
 -1      1501    8    0    1
 -2       679       682       793      2994      3233      3187
 -1      1502    8    0    1
 -2       697       699       794      3192      3191      3252
 -1      1503    8    0    1
 -2       725       601       716      3244      2937      3253
 -1      1504    8    0    1
 -2       717       608       817      2940      3254      3255
 -1      1505    8    0    1
 -2       608       811       817      3237      3256      3254
 -1      1506    8    0    1
 -2       718       711       818      2946      3257      3258
 -1      1507    8    0    1
 -2       711       807       818      3227      3259      3257
 -1      1508    8    0    1
 -2       659       729       801      2998      3260      3210
 -1      1509    8    0    1
 -2       658       774       819      3131      3261      3262
 -1      1510    8    0    1
 -2       658       819       698      3262      3263      2887
 -1      1511    8    0    1
 -2       712       803       807      3217      3264      3226
 -1      1512    8    0    1
 -2       696       813       815      3243      3265      3248
 -1      1513    8    0    1
 -2       719       690       820      2953      3266      3267
 -1      1514    8    0    1
 -2       795       685       806      3193      3224      3268
 -1      1515    8    0    1
 -2       689       800       821      3208      3269      3270
 -1      1516    8    0    1
 -2       689       821       692      3270      3271      2870
 -1      1517    8    0    1
 -2       690       692       822      2869      3272      3273
 -1      1518    8    0    1
 -2       820       690       822      3266      3273      3274
 -1      1519    8    0    1
 -2       692       821       822      3271      3275      3272
 -1      1520    8    0    1
 -2       605       721       823      2963      3276      3277
 -1      1521    8    0    1
 -2       605       823       722      3277      3278      2971
 -1      1522    8    0    1
 -2       606       805       810      3222      3279      3234
 -1      1523    8    0    1
 -2       803       715       824      3216      3280      3281
 -1      1524    8    0    1
 -2       715       723       824      2977      3282      3280
 -1      1525    8    0    1
 -2       805       611       718      3221      2945      3283
 -1      1526    8    0    1
 -2       680       698       825      2886      3284      3285
 -1      1527    8    0    1
 -2       812       680       825      3241      3285      3286
 -1      1528    8    0    1
 -2       698       819       825      3263      3287      3284
 -1      1529    8    0    1
 -2       808       709       826      3228      3288      3289
 -1      1530    8    0    1
 -2       709       809       826      3231      3290      3288
 -1      1531    8    0    1
 -2       714       815       827      3249      3291      3292
 -1      1532    8    0    1
 -2       714       827       723      3292      3293      2975
 -1      1533    8    0    1
 -2       705       609       828      2908      3294      3295
 -1      1534    8    0    1
 -2       609       727       828      2993      3296      3294
 -1      1535    8    0    1
 -2       809       708       810      3230      3235      3297
 -1      1536    8    0    1
 -2       607       705       829      2907      3298      3299
 -1      1537    8    0    1
 -2       811       607       829      3236      3299      3300
 -1      1538    8    0    1
 -2       705       828       829      3295      3301      3298
 -1      1539    8    0    1
 -2       707       724       830      2982      3302      3303
 -1      1540    8    0    1
 -2       816       702       814      3250      3246      3304
 -1      1541    8    0    1
 -2       793       706       831      3232      3305      3306
 -1      1542    8    0    1
 -2       792       793       831      3189      3306      3307
 -1      1543    8    0    1
 -2       706       816       831      3251      3308      3305
 -1      1544    8    0    1
 -2       710       722       832      2970      3309      3310
 -1      1545    8    0    1
 -2       710       832       730      3310      3311      2999
 -1      1546    8    0    1
 -2       704       728       833      2996      3312      3313
 -1      1547    8    0    1
 -2       704       833       813      3313      3314      3242
 -1      1548    8    0    1
 -2       716       707       834      2938      3315      3316
 -1      1549    8    0    1
 -2       707       830       834      3303      3317      3315
 -1      1550    8    0    1
 -2       695       726       835      2989      3318      3319
 -1      1551    8    0    1
 -2       804       695       835      3218      3319      3320
 -1      1552    8    0    1
 -2       726       772       835      3126      3321      3318
 -1      1553    8    0    1
 -2       612       725       716      2991      3253      3322
 -1      1554    8    0    1
 -2       612       716       731      3322      3323      3002
 -1      1555    8    0    1
 -2       729       775       836      3135      3324      3325
 -1      1556    8    0    1
 -2       728       730       837      3001      3326      3327
 -1      1557    8    0    1
 -2       733       732       838      3009      3328      3329
 -1      1558    8    0    1
 -2       734       733       839      3012      3330      3331
 -1      1559    8    0    1
 -2       733       838       839      3329      3332      3330
 -1      1560    8    0    1
 -2       735       734       840      3015      3333      3334
 -1      1561    8    0    1
 -2       734       839       840      3331      3335      3333
 -1      1562    8    0    1
 -2       736       735       841      3018      3336      3337
 -1      1563    8    0    1
 -2       735       840       841      3334      3338      3336
 -1      1564    8    0    1
 -2       737       736       842      3021      3339      3340
 -1      1565    8    0    1
 -2       736       841       842      3337      3341      3339
 -1      1566    8    0    1
 -2       738       737       843      3024      3342      3343
 -1      1567    8    0    1
 -2       737       842       843      3340      3344      3342
 -1      1568    8    0    1
 -2       739       738       844      3027      3345      3346
 -1      1569    8    0    1
 -2       738       843       844      3343      3347      3345
 -1      1570    8    0    1
 -2       740       739       845      3030      3348      3349
 -1      1571    8    0    1
 -2       739       844       845      3346      3350      3348
 -1      1572    8    0    1
 -2       741       740       846      3033      3351      3352
 -1      1573    8    0    1
 -2       740       845       846      3349      3353      3351
 -1      1574    8    0    1
 -2       742       741       847      3036      3354      3355
 -1      1575    8    0    1
 -2       741       846       847      3352      3356      3354
 -1      1576    8    0    1
 -2       743       742       848      3039      3357      3358
 -1      1577    8    0    1
 -2       742       847       848      3355      3359      3357
 -1      1578    8    0    1
 -2       744       743       849      3042      3360      3361
 -1      1579    8    0    1
 -2       743       848       849      3358      3362      3360
 -1      1580    8    0    1
 -2       745       744       850      3045      3363      3364
 -1      1581    8    0    1
 -2       744       849       850      3361      3365      3363
 -1      1582    8    0    1
 -2       746       745       851      3048      3366      3367
 -1      1583    8    0    1
 -2       745       850       851      3364      3368      3366
 -1      1584    8    0    1
 -2       747       746       852      3051      3369      3370
 -1      1585    8    0    1
 -2       746       851       852      3367      3371      3369
 -1      1586    8    0    1
 -2       748       747       853      3054      3372      3373
 -1      1587    8    0    1
 -2       747       852       853      3370      3374      3372
 -1      1588    8    0    1
 -2       749       748       854      3057      3375      3376
 -1      1589    8    0    1
 -2       748       853       854      3373      3377      3375
 -1      1590    8    0    1
 -2       750       749       855      3060      3378      3379
 -1      1591    8    0    1
 -2       749       854       855      3376      3380      3378
 -1      1592    8    0    1
 -2       751       750       856      3063      3381      3382
 -1      1593    8    0    1
 -2       750       855       856      3379      3383      3381
 -1      1594    8    0    1
 -2       752       751       857      3066      3384      3385
 -1      1595    8    0    1
 -2       751       856       857      3382      3386      3384
 -1      1596    8    0    1
 -2       753       752       858      3069      3387      3388
 -1      1597    8    0    1
 -2       752       857       858      3385      3389      3387
 -1      1598    8    0    1
 -2       754       753       859      3072      3390      3391
 -1      1599    8    0    1
 -2       753       858       859      3388      3392      3390
 -1      1600    8    0    1
 -2       755       754       860      3075      3393      3394
 -1      1601    8    0    1
 -2       754       859       860      3391      3395      3393
 -1      1602    8    0    1
 -2       756       755       861      3078      3396      3397
 -1      1603    8    0    1
 -2       755       860       861      3394      3398      3396
 -1      1604    8    0    1
 -2       757       756       862      3081      3399      3400
 -1      1605    8    0    1
 -2       756       861       862      3397      3401      3399
 -1      1606    8    0    1
 -2       758       757       863      3084      3402      3403
 -1      1607    8    0    1
 -2       757       862       863      3400      3404      3402
 -1      1608    8    0    1
 -2       759       758       864      3087      3405      3406
 -1      1609    8    0    1
 -2       758       863       864      3403      3407      3405
 -1      1610    8    0    1
 -2       760       759       865      3090      3408      3409
 -1      1611    8    0    1
 -2       759       864       865      3406      3410      3408
 -1      1612    8    0    1
 -2       761       760       866      3093      3411      3412
 -1      1613    8    0    1
 -2       760       865       866      3409      3413      3411
 -1      1614    8    0    1
 -2       762       761       867      3096      3414      3415
 -1      1615    8    0    1
 -2       761       866       867      3412      3416      3414
 -1      1616    8    0    1
 -2       763       762       868      3099      3417      3418
 -1      1617    8    0    1
 -2       762       867       868      3415      3419      3417
 -1      1618    8    0    1
 -2       764       763       869      3102      3420      3421
 -1      1619    8    0    1
 -2       763       868       869      3418      3422      3420
 -1      1620    8    0    1
 -2       765       764       870      3105      3423      3424
 -1      1621    8    0    1
 -2       764       869       870      3421      3425      3423
 -1      1622    8    0    1
 -2       766       765       871      3108      3426      3427
 -1      1623    8    0    1
 -2       765       870       871      3424      3428      3426
 -1      1624    8    0    1
 -2       767       766       872      3111      3429      3430
 -1      1625    8    0    1
 -2       766       871       872      3427      3431      3429
 -1      1626    8    0    1
 -2       768       767       873      3114      3432      3433
 -1      1627    8    0    1
 -2       767       872       873      3430      3434      3432
 -1      1628    8    0    1
 -2       769       768       874      3117      3435      3436
 -1      1629    8    0    1
 -2       768       873       874      3433      3437      3435
 -1      1630    8    0    1
 -2       770       769       875      3120      3438      3439
 -1      1631    8    0    1
 -2       769       874       875      3436      3440      3438
 -1      1632    8    0    1
 -2       771       770       876      3123      3441      3442
 -1      1633    8    0    1
 -2       770       875       876      3439      3443      3441
 -1      1634    8    0    1
 -2       774       773       877      3132      3444      3445
 -1      1635    8    0    1
 -2       776       777       878      3141      3446      3447
 -1      1636    8    0    1
 -2       777       778       879      3144      3448      3449
 -1      1637    8    0    1
 -2       777       879       878      3449      3450      3446
 -1      1638    8    0    1
 -2       778       779       880      3147      3451      3452
 -1      1639    8    0    1
 -2       778       880       879      3452      3453      3448
 -1      1640    8    0    1
 -2       779       780       881      3150      3454      3455
 -1      1641    8    0    1
 -2       779       881       880      3455      3456      3451
 -1      1642    8    0    1
 -2       780       781       882      3153      3457      3458
 -1      1643    8    0    1
 -2       780       882       881      3458      3459      3454
 -1      1644    8    0    1
 -2       781       782       883      3156      3460      3461
 -1      1645    8    0    1
 -2       781       883       882      3461      3462      3457
 -1      1646    8    0    1
 -2       782       783       884      3159      3463      3464
 -1      1647    8    0    1
 -2       782       884       883      3464      3465      3460
 -1      1648    8    0    1
 -2       783       784       885      3162      3466      3467
 -1      1649    8    0    1
 -2       783       885       884      3467      3468      3463
 -1      1650    8    0    1
 -2       784       785       886      3165      3469      3470
 -1      1651    8    0    1
 -2       784       886       885      3470      3471      3466
 -1      1652    8    0    1
 -2       785       786       887      3168      3472      3473
 -1      1653    8    0    1
 -2       785       887       886      3473      3474      3469
 -1      1654    8    0    1
 -2       786       787       888      3171      3475      3476
 -1      1655    8    0    1
 -2       786       888       887      3476      3477      3472
 -1      1656    8    0    1
 -2       787       788       889      3174      3478      3479
 -1      1657    8    0    1
 -2       787       889       888      3479      3480      3475
 -1      1658    8    0    1
 -2       788       789       890      3177      3481      3482
 -1      1659    8    0    1
 -2       788       890       889      3482      3483      3478
 -1      1660    8    0    1
 -2       789       790       891      3180      3484      3485
 -1      1661    8    0    1
 -2       789       891       890      3485      3486      3481
 -1      1662    8    0    1
 -2       790       791       892      3183      3487      3488
 -1      1663    8    0    1
 -2       790       892       891      3488      3489      3484
 -1      1664    8    0    1
 -2       791       792       893      3186      3490      3491
 -1      1665    8    0    1
 -2       791       893       892      3491      3492      3487
 -1      1666    8    0    1
 -2       731       716       834      3323      3316      3493
 -1      1667    8    0    1
 -2       795       806       894      3268      3494      3495
 -1      1668    8    0    1
 -2       806       797       895      3225      3496      3497
 -1      1669    8    0    1
 -2       806       895       894      3497      3498      3494
 -1      1670    8    0    1
 -2       800       799       896      3209      3499      3500
 -1      1671    8    0    1
 -2       720       719       897      2959      3501      3502
 -1      1672    8    0    1
 -2       798       720       897      3204      3502      3503
 -1      1673    8    0    1
 -2       719       820       897      3267      3504      3501
 -1      1674    8    0    1
 -2       775       776       898      3138      3505      3506
 -1      1675    8    0    1
 -2       775       898       836      3506      3507      3324
 -1      1676    8    0    1
 -2       810       805       899      3279      3508      3509
 -1      1677    8    0    1
 -2       807       803       900      3264      3510      3511
 -1      1678    8    0    1
 -2       802       804       901      3220      3512      3513
 -1      1679    8    0    1
 -2       815       813       902      3265      3514      3515
 -1      1680    8    0    1
 -2       773       801       903      3212      3516      3517
 -1      1681    8    0    1
 -2       773       903       877      3517      3518      3444
 -1      1682    8    0    1
 -2       801       729       904      3260      3519      3520
 -1      1683    8    0    1
 -2       729       836       904      3325      3521      3519
 -1      1684    8    0    1
 -2       724       717       905      2983      3522      3523
 -1      1685    8    0    1
 -2       724       905       830      3523      3524      3302
 -1      1686    8    0    1
 -2       805       718       906      3283      3525      3526
 -1      1687    8    0    1
 -2       732       731       907      3006      3527      3528
 -1      1688    8    0    1
 -2       838       732       907      3328      3528      3529
 -1      1689    8    0    1
 -2       731       834       907      3493      3530      3527
 -1      1690    8    0    1
 -2       809       810       908      3297      3531      3532
 -1      1691    8    0    1
 -2       816       814       909      3304      3533      3534
 -1      1692    8    0    1
 -2       799       802       910      3215      3535      3536
 -1      1693    8    0    1
 -2       896       799       910      3499      3536      3537
 -1      1694    8    0    1
 -2       802       901       910      3513      3538      3535
 -1      1695    8    0    1
 -2       727       812       911      3240      3539      3540
 -1      1696    8    0    1
 -2       812       825       911      3286      3541      3539
 -1      1697    8    0    1
 -2       814       808       912      3247      3542      3543
 -1      1698    8    0    1
 -2       909       814       912      3533      3543      3544
 -1      1699    8    0    1
 -2       808       826       912      3289      3545      3542
 -1      1700    8    0    1
 -2       818       807       900      3259      3511      3546
 -1      1701    8    0    1
 -2       728       837       833      3327      3547      3312
 -1      1702    8    0    1
 -2       819       774       913      3261      3548      3549
 -1      1703    8    0    1
 -2       774       877       913      3445      3550      3548
 -1      1704    8    0    1
 -2       830       905       914      3524      3551      3552
 -1      1705    8    0    1
 -2       810       899       915      3509      3553      3554
 -1      1706    8    0    1
 -2       810       915       908      3554      3555      3531
 -1      1707    8    0    1
 -2       801       904       903      3520      3556      3516
 -1      1708    8    0    1
 -2       772       771       916      3127      3557      3558
 -1      1709    8    0    1
 -2       835       772       916      3321      3558      3559
 -1      1710    8    0    1
 -2       771       876       916      3442      3560      3557
 -1      1711    8    0    1
 -2       776       878       898      3447      3561      3505
 -1      1712    8    0    1
 -2       809       908       917      3532      3562      3563
 -1      1713    8    0    1
 -2       809       917       826      3563      3564      3290
 -1      1714    8    0    1
 -2       893       792       831      3490      3307      3565
 -1      1715    8    0    1
 -2       832       722       918      3309      3566      3567
 -1      1716    8    0    1
 -2       722       823       918      3278      3568      3566
 -1      1717    8    0    1
 -2       800       896       919      3500      3569      3570
 -1      1718    8    0    1
 -2       800       919       821      3570      3571      3269
 -1      1719    8    0    1
 -2       794       796       920      3197      3572      3573
 -1      1720    8    0    1
 -2       797       798       921      3203      3574      3575
 -1      1721    8    0    1
 -2       895       797       921      3496      3575      3576
 -1      1722    8    0    1
 -2       798       897       921      3503      3577      3574
 -1      1723    8    0    1
 -2       717       817       905      3255      3578      3522
 -1      1724    8    0    1
 -2       899       805       906      3508      3526      3579
 -1      1725    8    0    1
 -2       824       723       827      3282      3293      3580
 -1      1726    8    0    1
 -2       727       911       828      3540      3581      3296
 -1      1727    8    0    1
 -2       902       813       833      3514      3314      3582
 -1      1728    8    0    1
 -2       815       902       922      3515      3583      3584
 -1      1729    8    0    1
 -2       815       922       827      3584      3585      3291
 -1      1730    8    0    1
 -2       804       835       916      3320      3559      3586
 -1      1731    8    0    1
 -2       897       820       921      3504      3587      3577
 -1      1732    8    0    1
 -2       796       795       923      3198      3588      3589
 -1      1733    8    0    1
 -2       795       894       923      3495      3590      3588
 -1      1734    8    0    1
 -2       906       718       818      3525      3258      3591
 -1      1735    8    0    1
 -2       816       909       831      3534      3592      3308
 -1      1736    8    0    1
 -2       811       829       924      3300      3593      3594
 -1      1737    8    0    1
 -2       811       924       925      3594      3595      3596
 -1      1738    8    0    1
 -2       811       925       817      3596      3597      3256
 -1      1739    8    0    1
 -2       834       830       926      3317      3598      3599
 -1      1740    8    0    1
 -2       907       834       926      3530      3599      3600
 -1      1741    8    0    1
 -2       830       914       926      3552      3601      3598
 -1      1742    8    0    1
 -2       837       730       832      3326      3311      3602
 -1      1743    8    0    1
 -2       794       920       823      3573      3603      3604
 -1      1744    8    0    1
 -2       921       820       927      3587      3605      3606
 -1      1745    8    0    1
 -2       820       822       927      3274      3607      3605
 -1      1746    8    0    1
 -2       804       916       901      3586      3608      3512
 -1      1747    8    0    1
 -2       898       878       928      3561      3609      3610
 -1      1748    8    0    1
 -2       837       832       929      3602      3611      3612
 -1      1749    8    0    1
 -2       840       839       930      3335      3613      3614
 -1      1750    8    0    1
 -2       841       840       931      3338      3615      3616
 -1      1751    8    0    1
 -2       840       930       931      3614      3617      3615
 -1      1752    8    0    1
 -2       842       841       932      3341      3618      3619
 -1      1753    8    0    1
 -2       841       931       932      3616      3620      3618
 -1      1754    8    0    1
 -2       843       842       933      3344      3621      3622
 -1      1755    8    0    1
 -2       842       932       933      3619      3623      3621
 -1      1756    8    0    1
 -2       844       843       934      3347      3624      3625
 -1      1757    8    0    1
 -2       843       933       934      3622      3626      3624
 -1      1758    8    0    1
 -2       845       844       935      3350      3627      3628
 -1      1759    8    0    1
 -2       844       934       935      3625      3629      3627
 -1      1760    8    0    1
 -2       846       845       936      3353      3630      3631
 -1      1761    8    0    1
 -2       845       935       936      3628      3632      3630
 -1      1762    8    0    1
 -2       847       846       937      3356      3633      3634
 -1      1763    8    0    1
 -2       846       936       937      3631      3635      3633
 -1      1764    8    0    1
 -2       848       847       938      3359      3636      3637
 -1      1765    8    0    1
 -2       847       937       938      3634      3638      3636
 -1      1766    8    0    1
 -2       849       848       939      3362      3639      3640
 -1      1767    8    0    1
 -2       848       938       939      3637      3641      3639
 -1      1768    8    0    1
 -2       850       849       940      3365      3642      3643
 -1      1769    8    0    1
 -2       849       939       940      3640      3644      3642
 -1      1770    8    0    1
 -2       851       850       941      3368      3645      3646
 -1      1771    8    0    1
 -2       850       940       941      3643      3647      3645
 -1      1772    8    0    1
 -2       852       851       942      3371      3648      3649
 -1      1773    8    0    1
 -2       851       941       942      3646      3650      3648
 -1      1774    8    0    1
 -2       853       852       943      3374      3651      3652
 -1      1775    8    0    1
 -2       852       942       943      3649      3653      3651
 -1      1776    8    0    1
 -2       854       853       944      3377      3654      3655
 -1      1777    8    0    1
 -2       853       943       944      3652      3656      3654
 -1      1778    8    0    1
 -2       855       854       945      3380      3657      3658
 -1      1779    8    0    1
 -2       854       944       945      3655      3659      3657
 -1      1780    8    0    1
 -2       856       855       946      3383      3660      3661
 -1      1781    8    0    1
 -2       855       945       946      3658      3662      3660
 -1      1782    8    0    1
 -2       857       856       947      3386      3663      3664
 -1      1783    8    0    1
 -2       856       946       947      3661      3665      3663
 -1      1784    8    0    1
 -2       858       857       948      3389      3666      3667
 -1      1785    8    0    1
 -2       857       947       948      3664      3668      3666
 -1      1786    8    0    1
 -2       859       858       949      3392      3669      3670
 -1      1787    8    0    1
 -2       858       948       949      3667      3671      3669
 -1      1788    8    0    1
 -2       860       859       950      3395      3672      3673
 -1      1789    8    0    1
 -2       859       949       950      3670      3674      3672
 -1      1790    8    0    1
 -2       861       860       951      3398      3675      3676
 -1      1791    8    0    1
 -2       860       950       951      3673      3677      3675
 -1      1792    8    0    1
 -2       862       861       952      3401      3678      3679
 -1      1793    8    0    1
 -2       861       951       952      3676      3680      3678
 -1      1794    8    0    1
 -2       863       862       915      3404      3681      3682
 -1      1795    8    0    1
 -2       864       863       899      3407      3683      3684
 -1      1796    8    0    1
 -2       865       864       906      3410      3685      3686
 -1      1797    8    0    1
 -2       866       865       818      3413      3687      3688
 -1      1798    8    0    1
 -2       867       866       818      3416      3688      3689
 -1      1799    8    0    1
 -2       868       867       900      3419      3690      3691
 -1      1800    8    0    1
 -2       869       868       824      3422      3692      3693
 -1      1801    8    0    1
 -2       870       869       827      3425      3694      3695
 -1      1802    8    0    1
 -2       871       870       922      3428      3696      3697
 -1      1803    8    0    1
 -2       873       872       953      3434      3698      3699
 -1      1804    8    0    1
 -2       874       873       954      3437      3700      3701
 -1      1805    8    0    1
 -2       873       953       954      3699      3702      3700
 -1      1806    8    0    1
 -2       875       874       955      3440      3703      3704
 -1      1807    8    0    1
 -2       874       954       955      3701      3705      3703
 -1      1808    8    0    1
 -2       876       875       956      3443      3706      3707
 -1      1809    8    0    1
 -2       875       955       956      3704      3708      3706
 -1      1810    8    0    1
 -2       916       876       901      3560      3709      3608
 -1      1811    8    0    1
 -2       878       879       957      3450      3710      3711
 -1      1812    8    0    1
 -2       878       957       928      3711      3712      3609
 -1      1813    8    0    1
 -2       881       882       958      3459      3713      3714
 -1      1814    8    0    1
 -2       882       883       959      3462      3715      3716
 -1      1815    8    0    1
 -2       882       959       958      3716      3717      3713
 -1      1816    8    0    1
 -2       883       884       960      3465      3718      3719
 -1      1817    8    0    1
 -2       883       960       959      3719      3720      3715
 -1      1818    8    0    1
 -2       884       885       961      3468      3721      3722
 -1      1819    8    0    1
 -2       884       961       960      3722      3723      3718
 -1      1820    8    0    1
 -2       885       886       962      3471      3724      3725
 -1      1821    8    0    1
 -2       885       962       961      3725      3726      3721
 -1      1822    8    0    1
 -2       886       887       963      3474      3727      3728
 -1      1823    8    0    1
 -2       886       963       962      3728      3729      3724
 -1      1824    8    0    1
 -2       887       888       964      3477      3730      3731
 -1      1825    8    0    1
 -2       887       964       963      3731      3732      3727
 -1      1826    8    0    1
 -2       888       889       965      3480      3733      3734
 -1      1827    8    0    1
 -2       888       965       964      3734      3735      3730
 -1      1828    8    0    1
 -2       889       890       966      3483      3736      3737
 -1      1829    8    0    1
 -2       889       966       965      3737      3738      3733
 -1      1830    8    0    1
 -2       890       891       967      3486      3739      3740
 -1      1831    8    0    1
 -2       890       967       966      3740      3741      3736
 -1      1832    8    0    1
 -2       891       892       968      3489      3742      3743
 -1      1833    8    0    1
 -2       891       968       967      3743      3744      3739
 -1      1834    8    0    1
 -2       892       893       969      3492      3745      3746
 -1      1835    8    0    1
 -2       892       969       968      3746      3747      3742
 -1      1836    8    0    1
 -2       920       796       923      3572      3589      3748
 -1      1837    8    0    1
 -2       697       794       721      3252      3749      2964
 -1      1838    8    0    1
 -2       823       721       794      3276      3749      3604
 -1      1839    8    0    1
 -2       894       895       970      3498      3750      3751
 -1      1840    8    0    1
 -2       895       921       927      3576      3606      3752
 -1      1841    8    0    1
 -2       905       817       971      3578      3753      3754
 -1      1842    8    0    1
 -2       914       905       971      3551      3754      3755
 -1      1843    8    0    1
 -2       817       925       971      3597      3756      3753
 -1      1844    8    0    1
 -2       822       821       972      3275      3757      3758
 -1      1845    8    0    1
 -2       927       822       972      3607      3758      3759
 -1      1846    8    0    1
 -2       821       919       972      3571      3760      3757
 -1      1847    8    0    1
 -2       900       803       824      3510      3281      3761
 -1      1848    8    0    1
 -2       827       869       824      3694      3693      3580
 -1      1849    8    0    1
 -2       824       868       900      3692      3691      3761
 -1      1850    8    0    1
 -2       833       837       973      3547      3762      3763
 -1      1851    8    0    1
 -2       893       831       909      3565      3592      3764
 -1      1852    8    0    1
 -2       818       865       906      3687      3686      3591
 -1      1853    8    0    1
 -2       906       864       899      3685      3684      3579
 -1      1854    8    0    1
 -2       825       819       974      3287      3765      3766
 -1      1855    8    0    1
 -2       911       825       974      3541      3766      3767
 -1      1856    8    0    1
 -2       819       913       974      3549      3768      3765
 -1      1857    8    0    1
 -2       877       903       975      3518      3769      3770
 -1      1858    8    0    1
 -2       902       833       976      3582      3771      3772
 -1      1859    8    0    1
 -2       833       973       976      3763      3773      3771
 -1      1860    8    0    1
 -2       899       863       915      3683      3682      3553
 -1      1861    8    0    1
 -2       904       836       977      3521      3774      3775
 -1      1862    8    0    1
 -2       828       911       978      3581      3776      3777
 -1      1863    8    0    1
 -2       903       904       979      3556      3778      3779
 -1      1864    8    0    1
 -2       975       903       979      3769      3779      3780
 -1      1865    8    0    1
 -2       904       977       979      3775      3781      3778
 -1      1866    8    0    1
 -2       829       828       978      3301      3777      3782
 -1      1867    8    0    1
 -2       880       881       980      3456      3783      3784
 -1      1868    8    0    1
 -2       881       958       980      3714      3785      3783
 -1      1869    8    0    1
 -2       924       829       978      3593      3782      3786
 -1      1870    8    0    1
 -2       879       880       981      3453      3787      3788
 -1      1871    8    0    1
 -2       880       980       981      3784      3789      3787
 -1      1872    8    0    1
 -2       839       838       982      3332      3790      3791
 -1      1873    8    0    1
 -2       839       982       930      3791      3792      3613
 -1      1874    8    0    1
 -2       823       920       918      3603      3793      3568
 -1      1875    8    0    1
 -2       836       898       983      3507      3794      3795
 -1      1876    8    0    1
 -2       836       983       977      3795      3796      3774
 -1      1877    8    0    1
 -2       870       827       922      3695      3585      3696
 -1      1878    8    0    1
 -2       901       876       956      3709      3707      3797
 -1      1879    8    0    1
 -2       893       909       969      3764      3798      3745
 -1      1880    8    0    1
 -2       879       981       957      3788      3799      3710
 -1      1881    8    0    1
 -2       913       877       984      3550      3800      3801
 -1      1882    8    0    1
 -2       877       975       984      3770      3802      3800
 -1      1883    8    0    1
 -2       837       929       985      3612      3803      3804
 -1      1884    8    0    1
 -2       837       985       973      3804      3805      3762
 -1      1885    8    0    1
 -2       908       915       986      3555      3806      3807
 -1      1886    8    0    1
 -2       908       986       917      3807      3808      3562
 -1      1887    8    0    1
 -2       867       818       900      3689      3546      3690
 -1      1888    8    0    1
 -2       871       922       987      3697      3809      3810
 -1      1889    8    0    1
 -2       872       871       987      3431      3810      3811
 -1      1890    8    0    1
 -2       969       909       988      3798      3812      3813
 -1      1891    8    0    1
 -2       920       923       989      3748      3814      3815
 -1      1892    8    0    1
 -2       970       895       927      3750      3752      3816
 -1      1893    8    0    1
 -2       953       872       987      3698      3811      3817
 -1      1894    8    0    1
 -2       919       896       990      3569      3818      3819
 -1      1895    8    0    1
 -2       910       901       956      3538      3797      3820
 -1      1896    8    0    1
 -2       914       971       991      3755      3821      3822
 -1      1897    8    0    1
 -2       826       917       992      3564      3823      3824
 -1      1898    8    0    1
 -2       929       832       918      3611      3567      3825
 -1      1899    8    0    1
 -2       914       991       993      3822      3826      3827
 -1      1900    8    0    1
 -2       914       993       926      3827      3828      3601
 -1      1901    8    0    1
 -2       922       902       987      3583      3829      3809
 -1      1902    8    0    1
 -2       902       976       987      3772      3830      3829
 -1      1903    8    0    1
 -2       898       928       983      3610      3831      3794
 -1      1904    8    0    1
 -2       924       978       994      3786      3832      3833
 -1      1905    8    0    1
 -2       978       911       974      3776      3767      3834
 -1      1906    8    0    1
 -2       923       894       995      3590      3835      3836
 -1      1907    8    0    1
 -2       894       970       995      3751      3837      3835
 -1      1908    8    0    1
 -2       925       924       996      3595      3838      3839
 -1      1909    8    0    1
 -2       924       994       996      3833      3840      3838
 -1      1910    8    0    1
 -2       838       907       926      3529      3600      3841
 -1      1911    8    0    1
 -2       896       910       997      3537      3842      3843
 -1      1912    8    0    1
 -2       896       997       990      3843      3844      3818
 -1      1913    8    0    1
 -2       912       826       992      3545      3824      3845
 -1      1914    8    0    1
 -2       909       912       988      3544      3846      3812
 -1      1915    8    0    1
 -2       918       920       989      3793      3815      3847
 -1      1916    8    0    1
 -2       986       915       952      3806      3848      3849
 -1      1917    8    0    1
 -2       917       986       998      3808      3850      3851
 -1      1918    8    0    1
 -2       862       952       915      3679      3848      3681
 -1      1919    8    0    1
 -2       932       931       999      3620      3852      3853
 -1      1920    8    0    1
 -2       933       932      1000      3623      3854      3855
 -1      1921    8    0    1
 -2       932       999      1000      3853      3856      3854
 -1      1922    8    0    1
 -2       934       933      1001      3626      3857      3858
 -1      1923    8    0    1
 -2       933      1000      1001      3855      3859      3857
 -1      1924    8    0    1
 -2       935       934      1002      3629      3860      3861
 -1      1925    8    0    1
 -2       934      1001      1002      3858      3862      3860
 -1      1926    8    0    1
 -2       936       935      1003      3632      3863      3864
 -1      1927    8    0    1
 -2       935      1002      1003      3861      3865      3863
 -1      1928    8    0    1
 -2       937       936      1004      3635      3866      3867
 -1      1929    8    0    1
 -2       936      1003      1004      3864      3868      3866
 -1      1930    8    0    1
 -2       938       937      1005      3638      3869      3870
 -1      1931    8    0    1
 -2       937      1004      1005      3867      3871      3869
 -1      1932    8    0    1
 -2       939       938      1006      3641      3872      3873
 -1      1933    8    0    1
 -2       938      1005      1006      3870      3874      3872
 -1      1934    8    0    1
 -2       940       939      1007      3644      3875      3876
 -1      1935    8    0    1
 -2       939      1006      1007      3873      3877      3875
 -1      1936    8    0    1
 -2       941       940      1008      3647      3878      3879
 -1      1937    8    0    1
 -2       940      1007      1008      3876      3880      3878
 -1      1938    8    0    1
 -2       942       941      1009      3650      3881      3882
 -1      1939    8    0    1
 -2       941      1008      1009      3879      3883      3881
 -1      1940    8    0    1
 -2       943       942      1010      3653      3884      3885
 -1      1941    8    0    1
 -2       942      1009      1010      3882      3886      3884
 -1      1942    8    0    1
 -2       944       943      1011      3656      3887      3888
 -1      1943    8    0    1
 -2       943      1010      1011      3885      3889      3887
 -1      1944    8    0    1
 -2       945       944      1012      3659      3890      3891
 -1      1945    8    0    1
 -2       944      1011      1012      3888      3892      3890
 -1      1946    8    0    1
 -2       946       945      1013      3662      3893      3894
 -1      1947    8    0    1
 -2       945      1012      1013      3891      3895      3893
 -1      1948    8    0    1
 -2       947       946      1014      3665      3896      3897
 -1      1949    8    0    1
 -2       946      1013      1014      3894      3898      3896
 -1      1950    8    0    1
 -2       948       947      1015      3668      3899      3900
 -1      1951    8    0    1
 -2       947      1014      1015      3897      3901      3899
 -1      1952    8    0    1
 -2       949       948      1016      3671      3902      3903
 -1      1953    8    0    1
 -2       948      1015      1016      3900      3904      3902
 -1      1954    8    0    1
 -2       950       949      1017      3674      3905      3906
 -1      1955    8    0    1
 -2       949      1016      1017      3903      3907      3905
 -1      1956    8    0    1
 -2       951       950      1018      3677      3908      3909
 -1      1957    8    0    1
 -2       950      1017      1018      3906      3910      3908
 -1      1958    8    0    1
 -2       974       913      1019      3768      3911      3912
 -1      1959    8    0    1
 -2       913       984      1019      3801      3913      3911
 -1      1960    8    0    1
 -2       989       923       995      3814      3836      3914
 -1      1961    8    0    1
 -2       969       988      1020      3813      3915      3916
 -1      1962    8    0    1
 -2       919       990      1021      3819      3917      3918
 -1      1963    8    0    1
 -2       919      1021       972      3918      3919      3760
 -1      1964    8    0    1
 -2       918       989       929      3847      3920      3825
 -1      1965    8    0    1
 -2       955       954      1022      3705      3921      3922
 -1      1966    8    0    1
 -2       956       955      1023      3708      3923      3924
 -1      1967    8    0    1
 -2       955      1022      1023      3922      3925      3923
 -1      1968    8    0    1
 -2       960       961      1024      3723      3926      3927
 -1      1969    8    0    1
 -2       959       960      1025      3720      3928      3929
 -1      1970    8    0    1
 -2       960      1024      1025      3927      3930      3928
 -1      1971    8    0    1
 -2       958       959      1026      3717      3931      3932
 -1      1972    8    0    1
 -2       959      1025      1026      3929      3933      3931
 -1      1973    8    0    1
 -2       961       962      1027      3726      3934      3935
 -1      1974    8    0    1
 -2       961      1027      1024      3935      3936      3926
 -1      1975    8    0    1
 -2       962       963      1028      3729      3937      3938
 -1      1976    8    0    1
 -2       962      1028      1027      3938      3939      3934
 -1      1977    8    0    1
 -2       963       964      1029      3732      3940      3941
 -1      1978    8    0    1
 -2       963      1029      1028      3941      3942      3937
 -1      1979    8    0    1
 -2       964       965      1030      3735      3943      3944
 -1      1980    8    0    1
 -2       964      1030      1029      3944      3945      3940
 -1      1981    8    0    1
 -2       965       966      1031      3738      3946      3947
 -1      1982    8    0    1
 -2       965      1031      1030      3947      3948      3943
 -1      1983    8    0    1
 -2       966       967      1032      3741      3949      3950
 -1      1984    8    0    1
 -2       966      1032      1031      3950      3951      3946
 -1      1985    8    0    1
 -2       967       968      1033      3744      3952      3953
 -1      1986    8    0    1
 -2       967      1033      1032      3953      3954      3949
 -1      1987    8    0    1
 -2       968       969      1020      3747      3916      3955
 -1      1988    8    0    1
 -2       970       927       972      3816      3759      3956
 -1      1989    8    0    1
 -2       957       981      1034      3799      3957      3958
 -1      1990    8    0    1
 -2       992       917       998      3823      3851      3959
 -1      1991    8    0    1
 -2       977       983      1035      3796      3960      3961
 -1      1992    8    0    1
 -2       912       992       988      3845      3962      3846
 -1      1993    8    0    1
 -2       953       987       976      3817      3830      3963
 -1      1994    8    0    1
 -2       953       976      1036      3963      3964      3965
 -1      1995    8    0    1
 -2       954       953      1036      3702      3965      3966
 -1      1996    8    0    1
 -2       976       973      1036      3773      3967      3964
 -1      1997    8    0    1
 -2       971       925      1037      3756      3968      3969
 -1      1998    8    0    1
 -2       991       971      1037      3821      3969      3970
 -1      1999    8    0    1
 -2       925       996      1037      3839      3971      3968
 -1      2000    8    0    1
 -2       928       957      1038      3712      3972      3973
 -1      2001    8    0    1
 -2       957      1034      1038      3958      3974      3972
 -1      2002    8    0    1
 -2       994       978      1019      3832      3975      3976
 -1      2003    8    0    1
 -2       978       974      1019      3834      3912      3975
 -1      2004    8    0    1
 -2       931       930      1039      3617      3977      3978
 -1      2005    8    0    1
 -2       931      1039       999      3978      3979      3852
 -1      2006    8    0    1
 -2       980       958      1040      3785      3980      3981
 -1      2007    8    0    1
 -2       958      1026      1040      3932      3982      3980
 -1      2008    8    0    1
 -2       981       980      1041      3789      3983      3984
 -1      2009    8    0    1
 -2       981      1041      1034      3984      3985      3957
 -1      2010    8    0    1
 -2       983       928      1042      3831      3986      3987
 -1      2011    8    0    1
 -2      1035       983      1042      3960      3987      3988
 -1      2012    8    0    1
 -2       928      1038      1042      3973      3989      3986
 -1      2013    8    0    1
 -2       982       838       926      3790      3841      3990
 -1      2014    8    0    1
 -2       929       989      1043      3920      3991      3992
 -1      2015    8    0    1
 -2       929      1043       985      3992      3993      3803
 -1      2016    8    0    1
 -2       988       992      1044      3962      3994      3995
 -1      2017    8    0    1
 -2       984       975      1045      3802      3996      3997
 -1      2018    8    0    1
 -2       988      1044      1020      3995      3998      3915
 -1      2019    8    0    1
 -2      1044       992       998      3994      3959      3999
 -1      2020    8    0    1
 -2       977      1035      1046      3961      4000      4001
 -1      2021    8    0    1
 -2       977      1046       979      4001      4002      3781
 -1      2022    8    0    1
 -2       951      1018       998      3909      4003      4004
 -1      2023    8    0    1
 -2       952       951       998      3680      4004      4005
 -1      2024    8    0    1
 -2      1021       990      1047      3917      4006      4007
 -1      2025    8    0    1
 -2      1022       954      1036      3921      3966      4008
 -1      2026    8    0    1
 -2       956      1023       997      3924      4009      4010
 -1      2027    8    0    1
 -2       989       995      1043      3914      4011      3991
 -1      2028    8    0    1
 -2       968      1020      1033      3955      4012      3952
 -1      2029    8    0    1
 -2       910       956       997      3820      4010      3842
 -1      2030    8    0    1
 -2      1036       973      1048      3967      4013      4014
 -1      2031    8    0    1
 -2      1022      1036      1048      4008      4014      4015
 -1      2032    8    0    1
 -2       973       985      1048      3805      4016      4013
 -1      2033    8    0    1
 -2       991      1037      1049      3970      4017      4018
 -1      2034    8    0    1
 -2       995       970      1050      3837      4019      4020
 -1      2035    8    0    1
 -2       996       994      1051      3840      4021      4022
 -1      2036    8    0    1
 -2       930       982      1052      3792      4023      4024
 -1      2037    8    0    1
 -2       970       972      1021      3956      3919      4025
 -1      2038    8    0    1
 -2       975       979      1053      3780      4026      4027
 -1      2039    8    0    1
 -2      1045       975      1053      3996      4027      4028
 -1      2040    8    0    1
 -2       979      1046      1053      4002      4029      4026
 -1      2041    8    0    1
 -2      1041       980      1040      3983      3981      4030
 -1      2042    8    0    1
 -2       994      1019      1051      3976      4031      4021
 -1      2043    8    0    1
 -2       991      1049      1052      4018      4032      4033
 -1      2044    8    0    1
 -2       990       997      1054      3844      4034      4035
 -1      2045    8    0    1
 -2      1047       990      1054      4006      4035      4036
 -1      2046    8    0    1
 -2       997      1023      1054      4009      4037      4034
 -1      2047    8    0    1
 -2       982       926       993      3990      3828      4038
 -1      2048    8    0    1
 -2       982       993      1052      4038      4039      4023
 -1      2049    8    0    1
 -2       991      1052       993      4033      4039      3826
 -1      2050    8    0    1
 -2       930      1052      1039      4024      4040      3977
 -1      2051    8    0    1
 -2      1020      1044      1055      3998      4041      4042
 -1      2052    8    0    1
 -2      1025      1024      1056      3930      4043      4044
 -1      2053    8    0    1
 -2      1000       999      1057      3856      4045      4046
 -1      2054    8    0    1
 -2      1001      1000      1058      3859      4047      4048
 -1      2055    8    0    1
 -2      1000      1057      1058      4046      4049      4047
 -1      2056    8    0    1
 -2      1002      1001      1059      3862      4050      4051
 -1      2057    8    0    1
 -2      1001      1058      1059      4048      4052      4050
 -1      2058    8    0    1
 -2      1003      1002      1060      3865      4053      4054
 -1      2059    8    0    1
 -2      1002      1059      1060      4051      4055      4053
 -1      2060    8    0    1
 -2      1004      1003      1061      3868      4056      4057
 -1      2061    8    0    1
 -2      1003      1060      1061      4054      4058      4056
 -1      2062    8    0    1
 -2      1005      1004      1062      3871      4059      4060
 -1      2063    8    0    1
 -2      1004      1061      1062      4057      4061      4059
 -1      2064    8    0    1
 -2      1006      1005      1063      3874      4062      4063
 -1      2065    8    0    1
 -2      1005      1062      1063      4060      4064      4062
 -1      2066    8    0    1
 -2      1007      1006      1064      3877      4065      4066
 -1      2067    8    0    1
 -2      1006      1063      1064      4063      4067      4065
 -1      2068    8    0    1
 -2      1008      1007      1065      3880      4068      4069
 -1      2069    8    0    1
 -2      1007      1064      1065      4066      4070      4068
 -1      2070    8    0    1
 -2      1009      1008      1066      3883      4071      4072
 -1      2071    8    0    1
 -2      1008      1065      1066      4069      4073      4071
 -1      2072    8    0    1
 -2      1010      1009      1067      3886      4074      4075
 -1      2073    8    0    1
 -2      1009      1066      1067      4072      4076      4074
 -1      2074    8    0    1
 -2      1011      1010      1068      3889      4077      4078
 -1      2075    8    0    1
 -2      1010      1067      1068      4075      4079      4077
 -1      2076    8    0    1
 -2      1012      1011      1069      3892      4080      4081
 -1      2077    8    0    1
 -2      1011      1068      1069      4078      4082      4080
 -1      2078    8    0    1
 -2      1013      1012      1070      3895      4083      4084
 -1      2079    8    0    1
 -2      1012      1069      1070      4081      4085      4083
 -1      2080    8    0    1
 -2      1014      1013      1071      3898      4086      4087
 -1      2081    8    0    1
 -2      1013      1070      1071      4084      4088      4086
 -1      2082    8    0    1
 -2      1015      1014      1072      3901      4089      4090
 -1      2083    8    0    1
 -2      1014      1071      1072      4087      4091      4089
 -1      2084    8    0    1
 -2      1016      1015      1073      3904      4092      4093
 -1      2085    8    0    1
 -2      1015      1072      1073      4090      4094      4092
 -1      2086    8    0    1
 -2      1017      1016      1074      3907      4095      4096
 -1      2087    8    0    1
 -2      1016      1073      1074      4093      4097      4095
 -1      2088    8    0    1
 -2      1018      1017      1075      3910      4098      4099
 -1      2089    8    0    1
 -2       998      1018      1075      4003      4099      4100
 -1      2090    8    0    1
 -2      1017      1074      1075      4096      4101      4098
 -1      2091    8    0    1
 -2      1019       984      1051      3913      4102      4031
 -1      2092    8    0    1
 -2      1049      1037      1076      4017      4103      4104
 -1      2093    8    0    1
 -2      1037       996      1076      3971      4105      4103
 -1      2094    8    0    1
 -2      1044       998      1075      3999      4100      4106
 -1      2095    8    0    1
 -2      1023      1022      1054      3925      4107      4037
 -1      2096    8    0    1
 -2       986       952       998      3849      4005      3850
 -1      2097    8    0    1
 -2      1043       995      1050      4011      4020      4108
 -1      2098    8    0    1
 -2      1027      1028      1077      3939      4109      4110
 -1      2099    8    0    1
 -2      1024      1027      1078      3936      4111      4112
 -1      2100    8    0    1
 -2      1056      1024      1078      4043      4112      4113
 -1      2101    8    0    1
 -2      1027      1077      1078      4110      4114      4111
 -1      2102    8    0    1
 -2      1026      1025      1079      3933      4115      4116
 -1      2103    8    0    1
 -2      1025      1056      1079      4044      4117      4115
 -1      2104    8    0    1
 -2      1028      1029      1080      3942      4118      4119
 -1      2105    8    0    1
 -2      1028      1080      1077      4119      4120      4109
 -1      2106    8    0    1
 -2      1029      1030      1081      3945      4121      4122
 -1      2107    8    0    1
 -2      1029      1081      1080      4122      4123      4118
 -1      2108    8    0    1
 -2      1030      1031      1082      3948      4124      4125
 -1      2109    8    0    1
 -2      1030      1082      1081      4125      4126      4121
 -1      2110    8    0    1
 -2      1031      1032      1083      3951      4127      4128
 -1      2111    8    0    1
 -2      1031      1083      1082      4128      4129      4124
 -1      2112    8    0    1
 -2      1032      1033      1084      3954      4130      4131
 -1      2113    8    0    1
 -2      1032      1084      1083      4131      4132      4127
 -1      2114    8    0    1
 -2      1041      1040      1085      4030      4133      4134
 -1      2115    8    0    1
 -2       984      1045      1051      3997      4135      4102
 -1      2116    8    0    1
 -2      1038      1034      1086      3974      4136      4137
 -1      2117    8    0    1
 -2      1050       970      1021      4019      4025      4138
 -1      2118    8    0    1
 -2      1034      1041      1087      3985      4139      4140
 -1      2119    8    0    1
 -2      1034      1087      1086      4140      4141      4136
 -1      2120    8    0    1
 -2       999      1039      1088      3979      4142      4143
 -1      2121    8    0    1
 -2       999      1088      1057      4143      4144      4045
 -1      2122    8    0    1
 -2      1039      1052      1089      4040      4145      4146
 -1      2123    8    0    1
 -2      1088      1039      1089      4142      4146      4147
 -1      2124    8    0    1
 -2      1052      1049      1089      4032      4148      4145
 -1      2125    8    0    1
 -2      1021      1047      1050      4007      4149      4138
 -1      2126    8    0    1
 -2       996      1051      1076      4022      4150      4105
 -1      2127    8    0    1
 -2      1040      1026      1090      3982      4151      4152
 -1      2128    8    0    1
 -2      1026      1079      1090      4116      4153      4151
 -1      2129    8    0    1
 -2      1050      1047      1043      4149      4154      4108
 -1      2130    8    0    1
 -2      1033      1020      1055      4012      4042      4155
 -1      2131    8    0    1
 -2      1051      1045      1091      4135      4156      4157
 -1      2132    8    0    1
 -2      1051      1091      1076      4157      4158      4150
 -1      2133    8    0    1
 -2      1043      1047      1092      4154      4159      4160
 -1      2134    8    0    1
 -2       985      1043      1092      3993      4160      4161
 -1      2135    8    0    1
 -2      1047      1054      1092      4036      4162      4159
 -1      2136    8    0    1
 -2      1046      1035      1093      4000      4163      4164
 -1      2137    8    0    1
 -2      1038      1086      1094      4137      4165      4166
 -1      2138    8    0    1
 -2      1038      1094      1042      4166      4167      3989
 -1      2139    8    0    1
 -2      1040      1090      1085      4152      4168      4133
 -1      2140    8    0    1
 -2      1045      1053      1095      4028      4169      4170
 -1      2141    8    0    1
 -2      1045      1095      1091      4170      4171      4156
 -1      2142    8    0    1
 -2      1041      1085      1087      4134      4172      4139
 -1      2143    8    0    1
 -2      1084      1033      1055      4130      4155      4173
 -1      2144    8    0    1
 -2      1035      1042      1096      3988      4174      4175
 -1      2145    8    0    1
 -2      1093      1035      1096      4163      4175      4176
 -1      2146    8    0    1
 -2      1042      1094      1096      4167      4177      4174
 -1      2147    8    0    1
 -2       985      1092      1048      4161      4178      4016
 -1      2148    8    0    1
 -2      1044      1075      1074      4106      4101      4179
 -1      2149    8    0    1
 -2      1044      1074      1055      4179      4180      4041
 -1      2150    8    0    1
 -2      1089      1049      1076      4148      4104      4181
 -1      2151    8    0    1
 -2      1077      1080      1068      4120      4182      4183
 -1      2152    8    0    1
 -2      1054      1022      1048      4107      4015      4184
 -1      2153    8    0    1
 -2      1059      1058      1096      4052      4185      4186
 -1      2154    8    0    1
 -2      1060      1059      1094      4055      4187      4188
 -1      2155    8    0    1
 -2      1061      1060      1086      4058      4189      4190
 -1      2156    8    0    1
 -2      1062      1061      1087      4061      4191      4192
 -1      2157    8    0    1
 -2      1063      1062      1085      4064      4193      4194
 -1      2158    8    0    1
 -2      1064      1063      1090      4067      4195      4196
 -1      2159    8    0    1
 -2      1065      1064      1079      4070      4197      4198
 -1      2160    8    0    1
 -2      1066      1065      1056      4073      4199      4200
 -1      2161    8    0    1
 -2      1067      1066      1078      4076      4201      4202
 -1      2162    8    0    1
 -2      1068      1067      1077      4079      4203      4183
 -1      2163    8    0    1
 -2      1069      1068      1080      4082      4182      4204
 -1      2164    8    0    1
 -2      1070      1069      1081      4085      4205      4206
 -1      2165    8    0    1
 -2      1071      1070      1082      4088      4207      4208
 -1      2166    8    0    1
 -2      1072      1071      1083      4091      4209      4210
 -1      2167    8    0    1
 -2      1073      1072      1084      4094      4211      4212
 -1      2168    8    0    1
 -2      1074      1073      1055      4097      4213      4180
 -1      2169    8    0    1
 -2      1076      1091      1089      4158      4214      4181
 -1      2170    8    0    1
 -2      1056      1065      1079      4199      4198      4117
 -1      2171    8    0    1
 -2      1080      1081      1069      4123      4205      4204
 -1      2172    8    0    1
 -2      1081      1082      1070      4126      4207      4206
 -1      2173    8    0    1
 -2      1082      1083      1071      4129      4209      4208
 -1      2174    8    0    1
 -2      1083      1084      1072      4132      4211      4210
 -1      2175    8    0    1
 -2      1079      1064      1090      4197      4196      4153
 -1      2176    8    0    1
 -2      1058      1057      1093      4049      4215      4216
 -1      2177    8    0    1
 -2      1090      1063      1085      4195      4194      4168
 -1      2178    8    0    1
 -2      1057      1088      1095      4144      4217      4218
 -1      2179    8    0    1
 -2      1088      1089      1091      4147      4214      4219
 -1      2180    8    0    1
 -2      1087      1061      1086      4191      4190      4141
 -1      2181    8    0    1
 -2      1084      1055      1073      4173      4213      4212
 -1      2182    8    0    1
 -2      1086      1060      1094      4189      4188      4165
 -1      2183    8    0    1
 -2      1058      1093      1096      4216      4176      4185
 -1      2184    8    0    1
 -2      1053      1046      1097      4029      4220      4221
 -1      2185    8    0    1
 -2      1095      1053      1097      4169      4221      4222
 -1      2186    8    0    1
 -2      1046      1093      1097      4164      4223      4220
 -1      2187    8    0    1
 -2      1087      1085      1062      4172      4193      4192
 -1      2188    8    0    1
 -2      1077      1067      1078      4203      4202      4114
 -1      2189    8    0    1
 -2      1088      1091      1095      4219      4171      4217
 -1      2190    8    0    1
 -2      1078      1066      1056      4201      4200      4113
 -1      2191    8    0    1
 -2      1094      1059      1096      4187      4186      4177
 -1      2192    8    0    1
 -2      1054      1048      1092      4184      4178      4162
 -1      2193    8    0    1
 -2      1093      1057      1097      4215      4224      4223
 -1      2194    8    0    1
 -2      1097      1057      1095      4224      4218      4222
 -3
    1PSTEP                         1           1           1          
  100CL  101 1.000000000        4224                     0    1           1
 -4  DISP        4    1
 -5  D1          1    2    1    0
 -5  D2          1    2    2    0
 -5  D3          1    2    3    0
 -5  ALL         1    2    0    0    1ALL
 -1         1 8.40492E-03 3.10103E-04-5.76304E-14
 -1         2 1.30653E-02 9.63941E-04-7.25446E-14
 -1         3 1.65291E-02 3.01919E-03-1.20493E-13
 -1         4 1.39372E-02 1.72421E-03-1.23613E-13
 -1         5 0.00000E+00 0.00000E+00 0.00000E+00
 -1         6 0.00000E+00 0.00000E+00 0.00000E+00
 -1         7 0.00000E+00 0.00000E+00 0.00000E+00
 -1         8 0.00000E+00 0.00000E+00 0.00000E+00
 -1         9 0.00000E+00 0.00000E+00 0.00000E+00
 -1        10 0.00000E+00 0.00000E+00 0.00000E+00
 -1        11 0.00000E+00 0.00000E+00 0.00000E+00
 -1        12 0.00000E+00 0.00000E+00 0.00000E+00
 -1        13 0.00000E+00 0.00000E+00 0.00000E+00
 -1        14 0.00000E+00 0.00000E+00 0.00000E+00
 -1        15 0.00000E+00 0.00000E+00 0.00000E+00
 -1        16 0.00000E+00 0.00000E+00 0.00000E+00
 -1        17 0.00000E+00 0.00000E+00 0.00000E+00
 -1        18 0.00000E+00 0.00000E+00 0.00000E+00
 -1        19 0.00000E+00 0.00000E+00 0.00000E+00
 -1        20 0.00000E+00 0.00000E+00 0.00000E+00
 -1        21 0.00000E+00 0.00000E+00 0.00000E+00
 -1        22 0.00000E+00 0.00000E+00 0.00000E+00
 -1        23 4.11365E-04-2.60738E-04 3.40982E-17
 -1        24 7.03329E-04-4.00987E-04-7.90858E-17
 -1        25 9.73371E-04-4.98359E-04-3.34415E-16
 -1        26 1.23783E-03-5.67083E-04-7.29370E-16
 -1        27 1.50132E-03-6.16300E-04-1.26105E-15
 -1        28 1.76595E-03-6.51390E-04-1.92576E-15
 -1        29 2.03265E-03-6.76056E-04-2.72171E-15
 -1        30 2.30181E-03-6.92986E-04-3.64472E-15
 -1        31 2.57348E-03-7.04189E-04-4.69530E-15
 -1        32 2.84754E-03-7.11179E-04-5.87323E-15
 -1        33 3.12375E-03-7.15096E-04-7.17191E-15
 -1        34 3.40188E-03-7.16788E-04-8.58347E-15
 -1        35 3.68168E-03-7.16877E-04-1.01095E-14
 -1        36 3.96291E-03-7.15809E-04-1.17463E-14
 -1        37 4.24542E-03-7.13903E-04-1.34921E-14
 -1        38 4.52907E-03-7.11386E-04-1.53450E-14
 -1        39 4.81381E-03-7.08428E-04-1.72972E-14
 -1        40 5.09965E-03-7.05180E-04-1.93461E-14
 -1        41 5.38665E-03-7.01804E-04-2.14846E-14
 -1        42 5.67492E-03-6.98510E-04-2.37185E-14
 -1        43 5.96460E-03-6.95584E-04-2.60474E-14
 -1        44 6.25580E-03-6.93417E-04-2.84657E-14
 -1        45 6.54855E-03-6.92515E-04-3.09796E-14
 -1        46 6.84273E-03-6.93486E-04-3.35848E-14
 -1        47 7.13792E-03-6.96983E-04-3.62793E-14
 -1        48 7.43330E-03-7.03567E-04-3.90620E-14
 -1        49 7.72753E-03-7.13489E-04-4.19175E-14
 -1        50 8.01869E-03-7.26372E-04-4.48509E-14
 -1        51 8.30438E-03-7.40821E-04-4.78650E-14
 -1        52 8.58200E-03-7.54059E-04-5.09524E-14
 -1        53 8.84929E-03-7.61749E-04-5.41065E-14
 -1        54 9.10505E-03-7.58198E-04-5.73256E-14
 -1        55 9.34980E-03-7.37091E-04-6.06109E-14
 -1        56 9.58615E-03-6.92706E-04-6.39507E-14
 -1        57 9.81852E-03-6.21288E-04-6.73388E-14
 -1        58 1.00522E-02-5.22070E-04-7.07652E-14
 -1        59 1.02923E-02-3.97488E-04-7.42381E-14
 -1        60 1.05421E-02-2.52486E-04-7.77491E-14
 -1        61 1.08032E-02-9.32380E-05-8.13019E-14
 -1        62 1.10750E-02 7.42071E-05-8.49169E-14
 -1        63 1.13555E-02 2.44918E-04-8.86028E-14
 -1        64 1.16422E-02 4.15534E-04-9.23500E-14
 -1        65 1.19325E-02 5.84246E-04-9.61514E-14
 -1        66 1.22240E-02 7.50507E-04-1.00007E-13
 -1        67 1.25153E-02 9.14634E-04-1.03917E-13
 -1        68 1.28052E-02 1.07744E-03-1.07861E-13
 -1        69 1.30935E-02 1.23993E-03-1.11831E-13
 -1        70 1.33802E-02 1.40304E-03-1.15805E-13
 -1        71 1.36659E-02 1.56730E-03-1.19799E-13
 -1        72 4.13811E-04 2.61444E-04 6.52927E-17
 -1        73 7.03152E-04 4.03694E-04 4.29954E-18
 -1        74 9.73907E-04 5.00133E-04-1.80394E-16
 -1        75 1.23866E-03 5.68798E-04-4.92787E-16
 -1        76 1.50227E-03 6.18067E-04-9.34105E-16
 -1        77 1.76696E-03 6.53250E-04-1.50185E-15
 -1        78 2.03370E-03 6.78029E-04-2.19776E-15
 -1        79 2.31640E-03 6.95770E-04-3.06975E-15
 -1        80 2.58819E-03 7.06855E-04-4.03235E-15
 -1        81 2.86234E-03 7.13791E-04-5.12129E-15
 -1        82 3.13862E-03 7.17693E-04-6.33432E-15
 -1        83 3.41678E-03 7.19385E-04-7.66534E-15
 -1        84 3.69656E-03 7.19463E-04-9.11499E-15
 -1        85 3.97775E-03 7.18341E-04-1.06894E-14
 -1        86 4.27431E-03 7.16163E-04-1.24658E-14
 -1        87 4.55790E-03 7.13302E-04-1.42621E-14
 -1        88 4.84257E-03 7.09747E-04-1.61598E-14
 -1        89 5.12841E-03 7.05511E-04-1.81618E-14
 -1        90 5.41564E-03 7.00568E-04-2.02704E-14
 -1        91 5.70465E-03 6.94885E-04-2.24765E-14
 -1        92 5.99605E-03 6.88459E-04-2.47755E-14
 -1        93 6.30569E-03 6.81003E-04-2.72784E-14
 -1        94 6.60559E-03 6.73535E-04-2.97423E-14
 -1        95 6.91262E-03 6.66407E-04-3.22886E-14
 -1        96 7.23000E-03 6.61081E-04-3.49094E-14
 -1        97 7.56239E-03 6.60430E-04-3.75989E-14
 -1        98 7.91621E-03 6.69879E-04-4.03512E-14
 -1        99 8.29969E-03 6.99251E-04-4.31639E-14
 -1       100 8.74376E-03 7.69960E-04-4.61815E-14
 -1       101 9.21076E-03 9.02090E-04-4.91140E-14
 -1       102 9.71024E-03 1.12857E-03-5.21001E-14
 -1       103 1.02034E-02 1.46368E-03-5.51539E-14
 -1       104 1.05876E-02 1.82091E-03-5.79732E-14
 -1       105 1.08916E-02 2.14265E-03-6.10289E-14
 -1       106 1.11358E-02 2.27187E-03-6.43535E-14
 -1       107 1.14006E-02 2.16395E-03-6.76086E-14
 -1       108 1.17457E-02 1.95433E-03-7.07676E-14
 -1       109 1.22190E-02 1.74285E-03-7.43297E-14
 -1       110 1.27217E-02 1.63124E-03-7.79314E-14
 -1       111 1.32019E-02 1.62315E-03-8.15773E-14
 -1       112 1.36401E-02 1.69031E-03-8.52655E-14
 -1       113 1.40364E-02 1.80364E-03-8.90066E-14
 -1       114 1.44159E-02 1.94982E-03-9.29874E-14
 -1       115 1.47514E-02 2.10179E-03-9.68235E-14
 -1       116 1.50687E-02 2.25875E-03-1.00700E-13
 -1       117 1.53731E-02 2.41650E-03-1.04611E-13
 -1       118 1.56684E-02 2.57248E-03-1.08554E-13
 -1       119 1.59577E-02 2.72509E-03-1.12512E-13
 -1       120 1.62437E-02 2.87363E-03-1.16485E-13
 -1       121 1.63867E-02 2.93455E-03-1.20725E-13
 -1       122 1.62470E-02 2.85058E-03-1.20952E-13
 -1       123 1.61105E-02 2.76964E-03-1.21171E-13
 -1       124 1.59751E-02 2.69320E-03-1.21382E-13
 -1       125 1.58382E-02 2.62137E-03-1.21573E-13
 -1       126 1.56999E-02 2.55426E-03-1.21732E-13
 -1       127 1.55541E-02 2.48795E-03-1.21886E-13
 -1       128 1.54025E-02 2.42178E-03-1.22052E-13
 -1       129 1.52457E-02 2.35419E-03-1.22228E-13
 -1       130 1.50845E-02 2.28406E-03-1.22387E-13
 -1       131 1.49204E-02 2.21082E-03-1.22567E-13
 -1       132 1.47574E-02 2.13572E-03-1.22763E-13
 -1       133 1.45912E-02 2.05645E-03-1.22956E-13
 -1       134 1.44253E-02 1.97481E-03-1.23136E-13
 -1       135 1.42606E-02 1.89143E-03-1.23312E-13
 -1       136 1.40971E-02 1.80721E-03-1.23468E-13
 -1       137 1.30809E-02 1.15604E-03-7.22437E-14
 -1       138 1.29990E-02 1.33096E-03-7.16432E-14
 -1       139 1.28188E-02 1.50616E-03-7.07317E-14
 -1       140 1.25242E-02 1.68079E-03-6.95005E-14
 -1       141 1.21518E-02 1.82736E-03-6.81298E-14
 -1       142 1.16773E-02 1.94121E-03-6.65339E-14
 -1       143 1.11509E-02 1.98762E-03-6.48963E-14
 -1       144 1.05846E-02 1.95029E-03-6.32192E-14
 -1       145 1.00302E-02 1.82861E-03-6.16275E-14
 -1       146 9.54440E-03 1.65505E-03-6.02565E-14
 -1       147 9.13278E-03 1.45550E-03-5.91020E-14
 -1       148 8.79281E-03 1.24399E-03-5.81610E-14
 -1       149 8.53781E-03 1.03463E-03-5.74751E-14
 -1       150 8.36467E-03 8.29924E-04-5.70526E-14
 -1       151 8.28595E-03 6.38983E-04-5.69474E-14
 -1       152 8.30195E-03 4.63995E-04-5.71498E-14
 -1       153 8.60150E-03 1.70642E-04-5.84125E-14
 -1       154 8.87752E-03 5.87417E-05-5.94530E-14
 -1       155 9.22428E-03-2.34654E-05-6.07200E-14
 -1       156 9.65920E-03-7.53067E-05-6.22808E-14
 -1       157 1.01464E-02-8.50431E-05-6.39819E-14
 -1       158 1.06300E-02-5.44130E-05-6.56343E-14
 -1       159 1.11453E-02 1.91921E-05-6.73483E-14
 -1       160 1.16293E-02 1.27907E-04-6.88975E-14
 -1       161 1.20542E-02 2.60980E-04-7.01959E-14
 -1       162 1.24343E-02 4.21170E-04-7.12797E-14
 -1       163 1.27390E-02 5.97861E-04-7.20575E-14
 -1       164 1.29493E-02 7.79129E-04-7.24754E-14
 -1       165 2.40395E-04-1.25526E-04-2.86467E-17
 -1       166 2.25269E-04-9.46295E-05-4.74948E-17
 -1       167 2.19521E-04-7.27871E-05-5.76626E-17
 -1       168 2.16712E-04-5.51168E-05-6.28736E-17
 -1       169 2.15227E-04-3.99762E-05-6.54180E-17
 -1       170 2.14395E-04-2.59212E-05-6.65700E-17
 -1       171 2.13978E-04-1.26472E-05-6.65158E-17
 -1       172 2.13857E-04 2.72545E-07-6.61905E-17
 -1       173 2.13997E-04 1.32047E-05-6.52046E-17
 -1       174 2.14436E-04 2.65184E-05-6.31480E-17
 -1       175 2.15277E-04 4.04010E-05-5.98107E-17
 -1       176 2.16822E-04 5.59237E-05-5.43118E-17
 -1       177 2.19673E-04 7.38278E-05-4.58042E-17
 -1       178 2.25439E-04 9.60292E-05-3.19230E-17
 -1       179 2.39325E-04 1.27605E-04-8.42290E-18
 -1       180 2.97694E-04 1.85507E-04 1.70152E-17
 -1       181 4.68601E-04-2.63561E-04-7.79812E-17
 -1       182 7.66725E-04-3.82152E-04-2.88784E-16
 -1       183 1.05055E-03-4.65021E-04-6.32344E-16
 -1       184 1.32792E-03-5.23765E-04-1.10863E-15
 -1       185 1.60249E-03-5.65401E-04-1.71609E-15
 -1       186 1.87635E-03-5.94612E-04-2.45301E-15
 -1       187 2.15063E-03-6.14692E-04-3.31745E-15
 -1       188 2.42594E-03-6.28056E-04-4.30723E-15
 -1       189 2.70253E-03-6.36501E-04-5.42103E-15
 -1       190 2.98048E-03-6.41373E-04-6.65612E-15
 -1       191 3.25977E-03-6.43671E-04-8.00755E-15
 -1       192 3.54031E-03-6.44126E-04-9.47183E-15
 -1       193 3.82199E-03-6.43263E-04-1.10495E-14
 -1       194 4.10471E-03-6.41452E-04-1.27358E-14
 -1       195 4.38839E-03-6.38950E-04-1.45305E-14
 -1       196 4.67299E-03-6.35936E-04-1.64264E-14
 -1       197 4.95850E-03-6.32556E-04-1.84207E-14
 -1       198 5.24495E-03-6.28948E-04-2.05102E-14
 -1       199 5.53240E-03-6.25283E-04-2.26918E-14
 -1       200 5.82095E-03-6.21802E-04-2.49659E-14
 -1       201 6.11067E-03-6.18842E-04-2.73338E-14
 -1       202 6.40160E-03-6.16870E-04-2.97931E-14
 -1       203 6.69369E-03-6.16484E-04-3.23454E-14
 -1       204 6.98673E-03-6.18384E-04-3.49860E-14
 -1       205 7.28030E-03-6.23288E-04-3.77124E-14
 -1       206 7.57364E-03-6.31750E-04-4.05197E-14
 -1       207 7.86565E-03-6.43881E-04-4.34035E-14
 -1       208 8.15490E-03-6.58959E-04-4.63670E-14
 -1       209 8.43972E-03-6.74991E-04-4.94050E-14
 -1       210 8.71851E-03-6.88363E-04-5.25176E-14
 -1       211 8.99009E-03-6.93779E-04-5.56933E-14
 -1       212 9.25420E-03-6.84720E-04-5.89338E-14
 -1       213 9.51185E-03-6.54513E-04-6.22334E-14
 -1       214 9.76535E-03-5.97824E-04-6.55878E-14
 -1       215 1.00179E-02-5.12088E-04-6.89882E-14
 -1       216 1.02731E-02-3.98259E-04-7.24330E-14
 -1       217 1.05336E-02-2.60514E-04-7.59221E-14
 -1       218 1.08010E-02-1.05075E-04-7.94536E-14
 -1       219 1.10756E-02 6.13416E-05-8.30359E-14
 -1       220 1.13566E-02 2.32849E-04-8.66857E-14
 -1       221 1.16424E-02 4.05143E-04-9.03992E-14
 -1       222 1.19314E-02 5.75672E-04-9.41668E-14
 -1       223 1.22218E-02 7.43404E-04-9.79853E-14
 -1       224 1.25125E-02 9.08408E-04-1.01862E-13
 -1       225 1.28026E-02 1.07143E-03-1.05780E-13
 -1       226 1.30915E-02 1.23355E-03-1.09727E-13
 -1       227 1.33792E-02 1.39586E-03-1.13695E-13
 -1       228 1.36659E-02 1.55926E-03-1.17675E-13
 -1       229 6.04532E-04 3.31048E-04-6.57365E-17
 -1       230 8.93603E-04 4.32658E-04-2.65118E-16
 -1       231 1.17247E-03 5.04385E-04-5.87018E-16
 -1       232 1.44678E-03 5.55434E-04-1.03385E-15
 -1       233 1.71956E-03 5.91620E-04-1.60537E-15
 -1       234 1.99242E-03 6.16916E-04-2.30320E-15
 -1       235 2.27994E-03 6.34878E-04-3.17341E-15
 -1       236 2.55513E-03 6.45988E-04-4.13292E-15
 -1       237 2.83181E-03 6.52844E-04-5.21713E-15
 -1       238 3.10997E-03 6.56610E-04-6.42396E-15
 -1       239 3.38950E-03 6.58142E-04-7.74931E-15
 -1       240 3.67030E-03 6.58055E-04-9.19361E-15
 -1       241 3.95223E-03 6.56769E-04-1.07559E-14
 -1       242 4.24939E-03 6.54427E-04-1.25194E-14
 -1       243 4.53341E-03 6.51410E-04-1.43068E-14
 -1       244 4.81843E-03 6.47689E-04-1.61959E-14
 -1       245 5.10454E-03 6.43259E-04-1.81877E-14
 -1       246 5.39193E-03 6.38068E-04-2.02836E-14
 -1       247 5.68094E-03 6.32045E-04-2.24786E-14
 -1       248 5.97209E-03 6.25128E-04-2.47643E-14
 -1       249 6.28094E-03 6.16903E-04-2.72576E-14
 -1       250 6.57923E-03 6.08326E-04-2.97126E-14
 -1       251 6.88320E-03 5.99523E-04-3.22497E-14
 -1       252 7.19508E-03 5.91659E-04-3.48613E-14
 -1       253 7.51789E-03 5.87165E-04-3.75430E-14
 -1       254 7.85558E-03 5.90835E-04-4.02894E-14
 -1       255 8.21292E-03 6.11676E-04-4.30989E-14
 -1       256 8.61466E-03 6.69613E-04-4.61132E-14
 -1       257 9.02604E-03 7.86064E-04-4.90418E-14
 -1       258 9.46364E-03 9.96664E-04-5.20290E-14
 -1       259 9.91547E-03 1.32510E-03-5.50791E-14
 -1       260 1.03137E-02 1.69533E-03-5.78953E-14
 -1       261 1.07044E-02 2.05081E-03-6.09495E-14
 -1       262 1.10865E-02 2.21091E-03-6.42612E-14
 -1       263 1.14575E-02 2.10389E-03-6.74993E-14
 -1       264 1.18398E-02 1.87893E-03-7.06416E-14
 -1       265 1.22887E-02 1.65140E-03-7.41980E-14
 -1       266 1.27357E-02 1.53273E-03-7.77971E-14
 -1       267 1.31612E-02 1.52435E-03-8.14346E-14
 -1       268 1.35583E-02 1.59447E-03-8.51213E-14
 -1       269 1.39280E-02 1.71172E-03-8.88602E-14
 -1       270 1.42914E-02 1.86187E-03-9.28319E-14
 -1       271 1.46188E-02 2.01707E-03-9.66586E-14
 -1       272 1.49325E-02 2.17669E-03-1.00522E-13
 -1       273 1.52361E-02 2.33659E-03-1.04427E-13
 -1       274 1.55323E-02 2.49431E-03-1.08366E-13
 -1       275 1.58233E-02 2.64827E-03-1.12325E-13
 -1       276 1.61110E-02 2.79766E-03-1.16298E-13
 -1       277 1.60691E-02 2.76758E-03-1.17378E-13
 -1       278 1.59319E-02 2.68623E-03-1.17608E-13
 -1       279 1.57974E-02 2.60797E-03-1.17825E-13
 -1       280 1.56627E-02 2.53301E-03-1.18029E-13
 -1       281 1.55273E-02 2.46209E-03-1.18208E-13
 -1       282 1.53847E-02 2.39176E-03-1.18383E-13
 -1       283 1.52360E-02 2.32203E-03-1.18556E-13
 -1       284 1.50813E-02 2.25170E-03-1.18724E-13
 -1       285 1.49215E-02 2.17982E-03-1.18892E-13
 -1       286 1.47580E-02 2.10581E-03-1.19062E-13
 -1       287 1.45949E-02 2.03075E-03-1.19242E-13
 -1       288 1.44281E-02 1.95212E-03-1.19419E-13
 -1       289 1.42614E-02 1.87150E-03-1.19590E-13
 -1       290 1.40956E-02 1.78929E-03-1.19757E-13
 -1       291 1.38803E-02 1.67448E-03-1.18719E-13
 -1       292 1.31187E-02 1.06164E-03-7.40219E-14
 -1       293 1.30505E-02 1.16576E-03-7.32882E-14
 -1       294 1.28615E-02 1.29375E-03-7.23982E-14
 -1       295 1.25387E-02 1.44683E-03-7.14107E-14
 -1       296 1.21706E-02 1.67002E-03-6.96358E-14
 -1       297 1.17485E-02 1.88265E-03-6.78902E-14
 -1       298 1.13280E-02 2.03723E-03-6.59143E-14
 -1       299 1.08963E-02 2.07071E-03-6.39686E-14
 -1       300 1.04577E-02 1.95477E-03-6.20309E-14
 -1       301 9.99808E-03 1.71888E-03-6.03332E-14
 -1       302 9.55391E-03 1.44495E-03-5.88687E-14
 -1       303 9.13068E-03 1.18084E-03-5.76587E-14
 -1       304 8.76002E-03 9.57427E-04-5.67217E-14
 -1       305 8.47880E-03 7.54706E-04-5.57579E-14
 -1       306 8.31855E-03 6.65303E-04-5.56421E-14
 -1       307 8.25492E-03 5.54232E-04-5.58236E-14
 -1       308 8.34123E-03 4.60870E-04-5.62053E-14
 -1       309 8.54285E-03 3.54154E-04-5.69300E-14
 -1       310 8.84541E-03 2.35523E-04-5.78524E-14
 -1       311 9.19020E-03 9.14452E-05-5.92661E-14
 -1       312 9.58537E-03-4.38442E-05-6.08504E-14
 -1       313 9.98110E-03-1.38795E-04-6.28469E-14
 -1       314 1.03763E-02-1.52113E-04-6.48290E-14
 -1       315 1.07787E-02-8.21044E-05-6.68262E-14
 -1       316 1.12167E-02 7.48414E-05-6.87300E-14
 -1       317 1.16521E-02 2.74731E-04-7.04201E-14
 -1       318 1.20706E-02 5.00496E-04-7.19957E-14
 -1       319 1.24948E-02 6.81831E-04-7.29566E-14
 -1       320 1.28237E-02 8.38573E-04-7.36723E-14
 -1       321 1.30370E-02 9.58130E-04-7.39628E-14
 -1       322 4.55389E-04-1.64807E-04-1.97135E-16
 -1       323 4.74240E-04-2.12991E-04-1.66435E-16
 -1       324 4.40459E-04-9.40274E-05-2.24664E-16
 -1       325 4.37504E-04-6.49207E-05-2.29712E-16
 -1       326 4.35887E-04-3.79119E-05-2.31579E-16
 -1       327 4.35179E-04-1.20201E-05-2.31172E-16
 -1       328 4.35210E-04 1.35372E-05-2.28563E-16
 -1       329 4.35984E-04 3.94869E-05-2.23681E-16
 -1       330 4.37646E-04 6.61473E-05-2.15929E-16
 -1       331 4.40695E-04 9.54262E-05-2.03772E-16
 -1       332 4.46072E-04 1.28341E-04-1.85697E-16
 -1       333 4.55894E-04 1.67322E-04-1.58741E-16
 -1       334 4.75874E-04 2.17061E-04-1.17975E-16
 -1       335 5.31991E-04 2.69986E-04-9.90995E-17
 -1       336 8.24454E-04 3.73515E-04-3.06402E-16
 -1       337 8.24565E-03 5.62005E-04-5.43348E-14
 -1       338 8.63234E-04-3.57411E-04-5.21911E-16
 -1       339 1.14958E-03-4.26139E-04-9.47620E-16
 -1       340 1.43235E-03-4.75268E-04-1.50154E-15
 -1       341 1.71305E-03-5.09933E-04-2.18231E-15
 -1       342 1.99282E-03-5.33927E-04-2.98924E-15
 -1       343 2.27242E-03-5.50062E-04-3.92052E-15
 -1       344 2.55231E-03-5.60441E-04-4.97351E-15
 -1       345 2.83277E-03-5.66638E-04-6.14685E-15
 -1       346 3.11393E-03-5.69827E-04-7.43733E-15
 -1       347 3.39583E-03-5.70868E-04-8.84264E-15
 -1       348 3.67846E-03-5.70383E-04-1.03591E-14
 -1       349 3.96180E-03-5.68808E-04-1.19870E-14
 -1       350 4.24582E-03-5.66443E-04-1.37225E-14
 -1       351 4.53049E-03-5.63495E-04-1.55623E-14
 -1       352 4.81583E-03-5.60109E-04-1.75020E-14
 -1       353 5.10186E-03-5.56411E-04-1.95392E-14
 -1       354 5.38862E-03-5.52538E-04-2.16724E-14
 -1       355 5.67619E-03-5.48678E-04-2.38945E-14
 -1       356 5.96466E-03-5.45105E-04-2.62109E-14
 -1       357 6.25412E-03-5.42212E-04-2.86183E-14
 -1       358 6.54464E-03-5.40536E-04-3.11151E-14
 -1       359 6.83624E-03-5.40750E-04-3.37039E-14
 -1       360 7.12884E-03-5.43625E-04-3.63785E-14
 -1       361 7.42219E-03-5.49911E-04-3.91334E-14
 -1       362 7.71583E-03-5.60115E-04-4.19685E-14
 -1       363 8.00900E-03-5.74162E-04-4.48798E-14
 -1       364 8.30061E-03-5.90943E-04-4.78713E-14
 -1       365 8.58932E-03-6.07825E-04-5.09356E-14
 -1       366 8.87378E-03-6.20313E-04-5.40692E-14
 -1       367 9.15295E-03-6.22118E-04-5.72663E-14
 -1       368 9.42668E-03-6.05905E-04-6.05289E-14
 -1       369 9.69600E-03-5.64761E-04-6.38460E-14
 -1       370 9.96317E-03-4.94033E-04-6.72144E-14
 -1       371 1.02311E-02-3.92765E-04-7.06342E-14
 -1       372 1.05023E-02-2.64004E-04-7.40984E-14
 -1       373 1.07785E-02-1.13816E-04-7.76079E-14
 -1       374 1.10600E-02 5.04693E-05-8.11633E-14
 -1       375 1.13462E-02 2.21988E-04-8.47769E-14
 -1       376 1.16356E-02 3.95451E-04-8.84526E-14
 -1       377 1.19270E-02 5.67519E-04-9.21890E-14
 -1       378 1.22190E-02 7.36625E-04-9.59807E-14
 -1       379 1.25107E-02 9.02535E-04-9.98210E-14
 -1       380 1.28016E-02 1.06587E-03-1.03711E-13
 -1       381 1.30912E-02 1.22768E-03-1.07636E-13
 -1       382 1.33795E-02 1.38918E-03-1.11584E-13
 -1       383 1.36303E-02 1.53120E-03-1.15145E-13
 -1       384 1.10991E-03 4.47816E-04-6.32500E-16
 -1       385 1.39065E-03 5.00841E-04-1.08085E-15
 -1       386 1.66894E-03 5.38392E-04-1.65136E-15
 -1       387 1.94632E-03 5.64583E-04-2.34605E-15
 -1       388 2.23761E-03 5.83124E-04-3.21057E-15
 -1       389 2.51562E-03 5.94555E-04-4.16309E-15
 -1       390 2.79449E-03 6.01578E-04-5.23952E-15
 -1       391 3.07434E-03 6.05413E-04-6.43750E-15
 -1       392 3.35516E-03 6.06953E-04-7.75451E-15
 -1       393 3.63693E-03 6.06837E-04-9.18841E-15
 -1       394 3.91958E-03 6.05506E-04-1.07391E-14
 -1       395 4.21728E-03 6.03106E-04-1.24891E-14
 -1       396 4.50165E-03 6.00029E-04-1.42659E-14
 -1       397 4.78686E-03 5.96244E-04-1.61433E-14
 -1       398 5.07299E-03 5.91740E-04-1.81223E-14
 -1       399 5.36019E-03 5.86454E-04-2.02055E-14
 -1       400 5.64870E-03 5.80298E-04-2.23882E-14
 -1       401 5.93889E-03 5.73186E-04-2.46621E-14
 -1       402 6.24596E-03 5.64644E-04-2.71419E-14
 -1       403 6.54142E-03 5.55590E-04-2.95863E-14
 -1       404 6.84081E-03 5.46034E-04-3.21143E-14
 -1       405 7.14540E-03 5.36960E-04-3.47170E-14
 -1       406 7.45686E-03 5.30479E-04-3.73893E-14
 -1       407 7.77728E-03 5.30804E-04-4.01283E-14
 -1       408 8.10937E-03 5.45904E-04-4.29332E-14
 -1       409 8.47459E-03 5.93226E-04-4.59437E-14
 -1       410 8.84372E-03 6.92808E-04-4.88672E-14
 -1       411 9.24126E-03 8.79395E-04-5.18497E-14
 -1       412 9.67352E-03 1.18515E-03-5.48938E-14
 -1       413 1.00895E-02 1.55689E-03-5.77041E-14
 -1       414 1.05384E-02 1.95127E-03-6.07472E-14
 -1       415 1.10052E-02 2.15913E-03-6.40471E-14
 -1       416 1.14497E-02 2.05813E-03-6.72711E-14
 -1       417 1.18735E-02 1.81665E-03-7.04032E-14
 -1       418 1.23319E-02 1.57649E-03-7.39516E-14
 -1       419 1.27562E-02 1.45458E-03-7.75474E-14
 -1       420 1.31459E-02 1.44656E-03-8.11787E-14
 -1       421 1.35087E-02 1.51754E-03-8.48602E-14
 -1       422 1.38517E-02 1.63571E-03-8.85930E-14
 -1       423 1.41958E-02 1.78695E-03-9.25592E-14
 -1       424 1.45117E-02 1.94328E-03-9.63770E-14
 -1       425 1.48187E-02 2.10409E-03-1.00236E-13
 -1       426 1.51187E-02 2.26517E-03-1.04131E-13
 -1       427 1.54134E-02 2.42405E-03-1.08064E-13
 -1       428 1.57040E-02 2.57916E-03-1.12024E-13
 -1       429 1.58871E-02 2.67446E-03-1.14697E-13
 -1       430 1.54856E-02 2.44162E-03-1.14484E-13
 -1       431 1.56183E-02 2.51820E-03-1.14270E-13
 -1       432 1.57514E-02 2.59540E-03-1.14486E-13
 -1       433 1.53532E-02 2.36906E-03-1.14679E-13
 -1       434 1.52139E-02 2.29710E-03-1.14866E-13
 -1       435 1.50683E-02 2.22583E-03-1.15044E-13
 -1       436 1.49162E-02 2.15411E-03-1.15220E-13
 -1       437 1.47581E-02 2.08107E-03-1.15391E-13
 -1       438 1.45953E-02 2.00614E-03-1.15563E-13
 -1       439 1.44324E-02 1.93047E-03-1.15732E-13
 -1       440 1.42652E-02 1.85151E-03-1.15900E-13
 -1       441 1.40978E-02 1.77083E-03-1.16063E-13
 -1       442 1.39310E-02 1.68875E-03-1.16227E-13
 -1       443 1.29653E-02 1.18474E-03-7.42150E-14
 -1       444 1.31106E-02 1.05719E-03-7.60508E-14
 -1       445 1.31140E-02 1.11008E-03-7.53837E-14
 -1       446 1.27182E-02 1.30089E-03-7.32204E-14
 -1       447 8.37604E-03 6.25308E-04-5.43880E-14
 -1       448 8.43128E-03 4.43049E-04-5.52691E-14
 -1       449 1.22712E-02 1.53595E-03-7.15041E-14
 -1       450 4.45609E-04-1.26496E-04-2.14787E-16
 -1       451 1.14799E-02 2.00562E-03-6.71470E-14
 -1       452 1.11490E-02 2.11126E-03-6.51817E-14
 -1       453 1.07504E-02 2.07497E-03-6.28027E-14
 -1       454 1.03346E-02 1.83654E-03-6.04011E-14
 -1       455 9.97665E-03 1.58000E-03-5.89421E-14
 -1       456 9.44480E-03 1.22134E-03-5.73033E-14
 -1       457 9.02017E-03 9.43816E-04-5.59329E-14
 -1       458 8.68681E-03 7.59563E-04-5.49709E-14
 -1       459 8.26800E-03 5.09906E-04-5.46362E-14
 -1       460 8.68464E-03 3.50467E-04-5.59971E-14
 -1       461 9.06882E-03 1.92935E-04-5.74607E-14
 -1       462 9.39364E-03 4.92633E-05-5.90158E-14
 -1       463 9.83201E-03-1.22466E-04-6.14946E-14
 -1       464 1.01825E-02-1.93675E-04-6.37464E-14
 -1       465 1.05192E-02-1.60422E-04-6.59500E-14
 -1       466 1.09109E-02-1.04059E-05-6.84433E-14
 -1       467 1.13133E-02 2.09124E-04-7.05249E-14
 -1       468 1.17361E-02 4.44871E-04-7.22313E-14
 -1       469 1.22403E-02 7.15639E-04-7.40966E-14
 -1       470 1.25932E-02 8.56104E-04-7.48200E-14
 -1       471 1.29427E-02 9.78231E-04-7.53531E-14
 -1       472 1.19327E-02 1.74512E-03-6.97319E-14
 -1       473 1.25090E-02 1.39955E-03-7.33145E-14
 -1       474 9.31225E-04 3.46036E-04-5.45255E-16
 -1       475 6.65879E-04-7.51437E-05-4.91557E-16
 -1       476 6.69832E-04-1.15904E-04-4.85323E-16
 -1       477 6.63219E-04 1.10286E-06-4.89395E-16
 -1       478 6.63936E-04 3.87697E-05-4.81745E-16
 -1       479 6.66067E-04 7.68281E-05-4.69598E-16
 -1       480 6.70148E-04 1.17745E-04-4.51076E-16
 -1       481 6.77138E-04 1.62367E-04-4.24577E-16
 -1       482 6.89028E-04 2.12732E-04-3.86220E-16
 -1       483 9.76287E-04-3.28625E-04-7.80663E-16
 -1       484 1.21710E-03 4.06496E-04-9.55328E-16
 -1       485 7.12606E-04-2.51848E-04-4.40355E-16
 -1       486 1.26219E-03-3.83474E-04-1.28346E-15
 -1       487 1.54720E-03-4.23169E-04-1.91065E-15
 -1       488 1.83133E-03-4.51141E-04-2.66194E-15
 -1       489 2.11487E-03-4.70284E-04-3.53599E-15
 -1       490 2.39815E-03-4.82876E-04-4.53028E-15
 -1       491 2.68142E-03-4.90671E-04-5.64347E-15
 -1       492 2.96484E-03-4.94996E-04-6.87254E-15
 -1       493 3.24852E-03-4.96840E-04-8.21801E-15
 -1       494 3.53251E-03-4.96920E-04-9.67692E-15
 -1       495 3.81684E-03-4.95749E-04-1.12456E-14
 -1       496 4.10151E-03-4.93678E-04-1.29222E-14
 -1       497 4.38654E-03-4.90944E-04-1.47047E-14
 -1       498 4.67194E-03-4.87707E-04-1.65899E-14
 -1       499 4.95773E-03-4.84082E-04-1.85732E-14
 -1       500 5.24397E-03-4.80178E-04-2.06568E-14
 -1       501 5.53073E-03-4.76130E-04-2.28298E-14
 -1       502 5.81811E-03-4.72136E-04-2.50957E-14
 -1       503 6.10626E-03-4.68491E-04-2.74542E-14
 -1       504 6.39535E-03-4.65624E-04-2.98986E-14
 -1       505 6.68559E-03-4.64116E-04-3.24326E-14
 -1       506 6.97720E-03-4.64695E-04-3.50568E-14
 -1       507 7.27038E-03-4.68189E-04-3.77607E-14
 -1       508 7.56522E-03-4.75391E-04-4.05442E-14
 -1       509 7.86158E-03-4.86816E-04-4.34075E-14
 -1       510 8.15897E-03-5.02301E-04-4.63487E-14
 -1       511 8.45638E-03-5.20455E-04-4.93669E-14
 -1       512 8.75227E-03-5.38052E-04-5.24553E-14
 -1       513 9.04487E-03-5.49610E-04-5.56095E-14
 -1       514 9.33275E-03-5.47544E-04-5.88294E-14
 -1       515 9.61563E-03-5.23319E-04-6.21105E-14
 -1       516 9.89491E-03-4.69615E-04-6.54460E-14
 -1       517 1.01734E-02-3.82777E-04-6.88347E-14
 -1       518 1.04542E-02-2.64183E-04-7.22764E-14
 -1       519 1.07396E-02-1.19698E-04-7.57631E-14
 -1       520 1.10298E-02 4.24153E-05-7.92959E-14
 -1       521 1.13241E-02 2.13948E-04-8.28771E-14
 -1       522 1.16205E-02 3.88423E-04-8.65159E-14
 -1       523 1.19175E-02 5.61698E-04-9.02165E-14
 -1       524 1.22136E-02 7.31759E-04-9.39773E-14
 -1       525 1.25083E-02 8.98166E-04-9.77887E-14
 -1       526 1.28010E-02 1.06147E-03-1.01646E-13
 -1       527 1.30919E-02 1.22272E-03-1.05548E-13
 -1       528 1.33811E-02 1.38318E-03-1.09477E-13
 -1       529 1.78394E-03 4.80933E-04-2.13475E-15
 -1       530 2.08002E-03 5.03024E-04-2.94941E-15
 -1       531 2.36177E-03 5.16874E-04-3.85026E-15
 -1       532 2.64364E-03 5.25612E-04-4.87436E-15
 -1       533 2.92584E-03 5.30645E-04-6.02044E-15
 -1       534 3.20848E-03 5.33016E-04-7.28525E-15
 -1       535 3.49162E-03 5.33478E-04-8.66620E-15
 -1       536 3.77528E-03 5.32560E-04-1.01630E-14
 -1       537 4.07367E-03 5.30493E-04-1.18569E-14
 -1       538 4.35838E-03 5.27691E-04-1.35810E-14
 -1       539 4.64361E-03 5.24177E-04-1.54096E-14
 -1       540 4.92941E-03 5.19969E-04-1.73381E-14
 -1       541 5.21583E-03 5.15027E-04-1.93690E-14
 -1       542 5.50295E-03 5.09274E-04-2.15001E-14
 -1       543 5.79090E-03 5.02624E-04-2.37273E-14
 -1       544 6.09427E-03 4.94613E-04-2.61604E-14
 -1       545 6.38434E-03 4.86047E-04-2.85608E-14
 -1       546 6.67565E-03 4.76818E-04-3.10451E-14
 -1       547 6.96826E-03 4.67584E-04-3.36105E-14
 -1       548 7.26215E-03 4.59753E-04-3.62493E-14
 -1       549 7.55716E-03 4.56064E-04-3.89555E-14
 -1       550 7.85328E-03 4.61529E-04-4.17298E-14
 -1       551 8.16626E-03 4.86677E-04-4.47125E-14
 -1       552 8.47021E-03 5.44443E-04-4.76159E-14
 -1       553 8.79044E-03 6.59190E-04-5.05691E-14
 -1       554 9.14829E-03 8.68068E-04-5.35814E-14
 -1       555 1.28636E-02 1.29243E-03-7.68997E-14
 -1       556 1.31693E-02 1.30343E-03-8.05277E-14
 -1       557 1.34544E-02 1.38217E-03-8.41918E-14
 -1       558 1.37351E-02 1.50044E-03-8.79122E-14
 -1       559 1.40315E-02 1.64899E-03-9.18691E-14
 -1       560 1.43162E-02 1.80283E-03-9.56750E-14
 -1       561 1.46027E-02 1.96212E-03-9.95159E-14
 -1       562 1.48899E-02 2.12278E-03-1.03399E-13
 -1       563 1.51770E-02 2.28218E-03-1.07319E-13
 -1       564 1.50427E-02 2.20203E-03-1.11347E-13
 -1       565 1.49007E-02 2.13088E-03-1.11529E-13
 -1       566 1.53069E-02 2.34728E-03-1.10950E-13
 -1       567 1.51769E-02 2.27346E-03-1.11153E-13
 -1       568 1.47512E-02 2.05926E-03-1.11709E-13
 -1       569 1.45948E-02 1.98607E-03-1.11885E-13
 -1       570 1.44328E-02 1.91071E-03-1.12060E-13
 -1       571 1.42699E-02 1.83436E-03-1.12227E-13
 -1       572 1.41022E-02 1.75460E-03-1.12387E-13
 -1       573 1.39340E-02 1.67314E-03-1.12550E-13
 -1       574 1.37663E-02 1.59044E-03-1.12711E-13
 -1       575 1.31752E-02 1.11442E-03-7.76267E-14
 -1       576 8.50388E-03 6.15975E-04-5.32480E-14
 -1       577 1.50120E-03 4.50120E-04-1.48483E-15
 -1       578 1.28966E-02 1.22086E-03-7.55221E-14
 -1       579 1.19265E-02 6.36168E-04-7.47816E-14
 -1       580 8.20566E-03 4.98237E-04-5.27621E-14
 -1       581 8.82914E-03 2.75028E-04-5.53180E-14
 -1       582 1.30317E-02 1.06208E-03-7.73852E-14
 -1       583 1.30819E-02 1.15493E-03-7.66982E-14
 -1       584 8.49337E-03 4.01982E-04-5.39922E-14
 -1       585 8.26409E-03 5.29878E-04-5.26272E-14
 -1       586 6.63824E-04-3.65277E-05-4.92716E-16
 -1       587 9.29633E-03 1.01752E-03-5.54676E-14
 -1       588 9.97361E-03-1.87664E-04-6.22067E-14
 -1       589 8.88666E-03 7.76256E-04-5.40560E-14
 -1       590 1.10479E-02 1.14538E-04-7.05540E-14
 -1       591 1.27592E-02 9.82138E-04-7.68399E-14
 -1       592 9.71057E-03 1.28456E-03-5.65816E-14
 -1       593 9.21176E-03 1.07795E-04-5.71774E-14
 -1       594 9.60304E-03-6.38335E-05-5.95509E-14
 -1       595 1.03362E-02-2.02748E-04-6.51103E-14
 -1       596 1.06543E-02-1.06961E-04-6.75920E-14
 -1       597 8.30903E-03 4.62117E-04-5.33735E-14
 -1       598 1.14808E-02 3.73971E-04-7.26781E-14
 -1       599 1.24359E-02 8.68196E-04-7.61831E-14
 -1       600 7.03789E-04 2.90909E-04-2.91322E-16
 -1       601 6.76611E-04-1.60096E-04-4.72475E-16
 -1       602 1.35724E-02 1.49017E-03-1.12149E-13
 -1       603 1.17270E-02 1.88238E-03-6.89940E-14
 -1       604 1.55167E-02 2.47101E-03-1.11167E-13
 -1       605 1.31684E-02 1.12345E-03-7.89631E-14
 -1       606 9.35312E-03-1.54731E-05-5.74083E-14
 -1       607 8.99849E-04 7.41153E-05-8.19562E-16
 -1       608 8.97768E-04 2.51772E-05-8.35503E-16
 -1       609 9.11885E-04 1.78243E-04-7.61916E-16
 -1       610 9.24220E-04 2.36809E-04-7.14537E-16
 -1       611 9.74103E-03-1.57873E-04-6.03264E-14
 -1       612 1.09774E-03-2.94620E-04-1.06539E-15
 -1       613 1.04888E-03 3.13923E-04-8.15916E-16
 -1       614 2.48970E-03 4.48361E-04-4.50603E-15
 -1       615 1.38330E-03-3.37007E-04-1.64031E-15
 -1       616 1.66950E-03-3.67861E-04-2.33710E-15
 -1       617 1.95572E-03-3.89541E-04-3.15497E-15
 -1       618 2.24176E-03-4.04194E-04-4.09165E-15
 -1       619 2.52762E-03-4.13595E-04-5.14605E-15
 -1       620 2.81334E-03-4.19147E-04-6.31653E-15
 -1       621 3.09897E-03-4.21919E-04-7.60162E-15
 -1       622 3.38456E-03-4.22709E-04-9.00093E-15
 -1       623 3.67013E-03-4.22090E-04-1.05120E-14
 -1       624 3.95573E-03-4.20464E-04-1.21312E-14
 -1       625 4.24136E-03-4.18101E-04-1.38558E-14
 -1       626 4.52705E-03-4.15176E-04-1.56854E-14
 -1       627 4.81284E-03-4.11803E-04-1.76159E-14
 -1       628 5.09877E-03-4.08067E-04-1.96453E-14
 -1       629 5.38490E-03-4.04052E-04-2.17696E-14
 -1       630 5.67135E-03-3.99877E-04-2.39855E-14
 -1       631 5.95828E-03-3.95728E-04-2.62952E-14
 -1       632 6.24592E-03-3.91895E-04-2.86936E-14
 -1       633 6.53462E-03-3.88807E-04-3.11748E-14
 -1       634 6.82480E-03-3.87057E-04-3.37466E-14
 -1       635 7.11700E-03-3.87417E-04-3.63984E-14
 -1       636 7.41181E-03-3.90796E-04-3.91327E-14
 -1       637 7.70973E-03-3.98133E-04-4.19475E-14
 -1       638 8.01099E-03-4.10134E-04-4.48400E-14
 -1       639 8.31522E-03-4.26801E-04-4.78116E-14
 -1       640 8.62113E-03-4.46678E-04-5.08534E-14
 -1       641 8.92649E-03-4.65944E-04-5.39648E-14
 -1       642 9.22858E-03-4.77694E-04-5.71399E-14
 -1       643 9.52526E-03-4.72197E-04-6.03807E-14
 -1       644 9.81641E-03-4.38826E-04-6.36795E-14
 -1       645 1.01046E-02-3.69720E-04-6.70387E-14
 -1       646 1.03939E-02-2.63239E-04-7.04503E-14
 -1       647 1.06878E-02-1.24627E-04-7.39172E-14
 -1       648 1.09875E-02 3.62925E-05-7.74287E-14
 -1       649 1.12917E-02 2.09027E-04-8.09840E-14
 -1       650 1.15976E-02 3.85250E-04-8.45935E-14
 -1       651 1.19028E-02 5.59827E-04-8.82580E-14
 -1       652 1.22054E-02 7.30442E-04-9.19809E-14
 -1       653 1.25046E-02 8.96704E-04-9.57623E-14
 -1       654 1.28005E-02 1.05930E-03-9.95923E-14
 -1       655 1.30933E-02 1.21942E-03-1.03464E-13
 -1       656 1.33836E-02 1.37837E-03-1.07375E-13
 -1       657 2.20492E-03 4.37783E-04-3.53251E-15
 -1       658 1.90567E-03 4.20505E-04-2.63954E-15
 -1       659 2.77439E-03 4.54759E-04-5.59983E-15
 -1       660 3.05912E-03 4.58136E-04-6.81342E-15
 -1       661 3.34393E-03 4.59346E-04-8.14252E-15
 -1       662 3.62888E-03 4.59003E-04-9.58719E-15
 -1       663 3.92826E-03 4.57428E-04-1.12250E-14
 -1       664 4.21356E-03 4.55050E-04-1.28979E-14
 -1       665 4.49904E-03 4.51964E-04-1.46767E-14
 -1       666 4.78472E-03 4.48231E-04-1.65572E-14
 -1       667 5.07057E-03 4.43851E-04-1.85377E-14
 -1       668 5.35658E-03 4.38783E-04-2.06179E-14
 -1       669 5.64270E-03 4.32982E-04-2.27960E-14
 -1       670 5.94310E-03 4.26083E-04-2.51811E-14
 -1       671 6.22895E-03 4.18812E-04-2.75411E-14
 -1       672 6.51414E-03 4.11100E-04-2.99815E-14
 -1       673 6.79803E-03 4.03501E-04-3.25048E-14
 -1       674 7.07954E-03 3.97095E-04-3.51081E-14
 -1       675 7.35714E-03 3.93802E-04-3.77847E-14
 -1       676 7.62874E-03 3.96822E-04-4.05271E-14
 -1       677 7.90495E-03 4.12314E-04-4.34774E-14
 -1       678 8.15798E-03 4.46808E-04-4.63568E-14
 -1       679 8.40324E-03 5.12718E-04-4.92880E-14
 -1       680 1.33462E-03 3.61521E-04-1.30554E-15
 -1       681 1.26470E-02 9.87366E-04-7.84874E-14
 -1       682 8.33517E-03 5.17766E-04-5.12709E-14
 -1       683 1.35914E-02 1.38439E-03-8.62497E-14
 -1       684 1.38473E-02 1.52211E-03-9.01862E-14
 -1       685 1.41048E-02 1.66737E-03-9.39740E-14
 -1       686 1.43723E-02 1.82064E-03-9.77972E-14
 -1       687 1.46467E-02 1.97779E-03-1.01656E-13
 -1       688 1.49256E-02 2.13587E-03-1.05555E-13
 -1       689 1.44329E-02 1.89361E-03-1.08389E-13
 -1       690 1.47338E-02 2.03581E-03-1.08029E-13
 -1       691 1.42713E-02 1.81863E-03-1.08561E-13
 -1       692 1.45876E-02 1.96570E-03-1.08212E-13
 -1       693 1.41079E-02 1.74192E-03-1.08727E-13
 -1       694 1.39392E-02 1.66122E-03-1.08890E-13
 -1       695 1.37699E-02 1.57850E-03-1.09050E-13
 -1       696 1.16731E-02 5.24248E-04-7.51454E-14
 -1       697 1.32186E-02 1.17136E-03-7.93261E-14
 -1       698 1.62032E-03 3.96119E-04-1.91277E-15
 -1       699 1.33636E-02 1.27585E-03-8.25588E-14
 -1       700 1.31437E-02 1.21234E-03-7.90234E-14
 -1       701 8.63994E-03 6.22278E-04-5.20157E-14
 -1       702 8.18633E-03 4.45200E-04-5.13925E-14
 -1       703 1.35753E-02 1.48415E-03-1.10038E-13
 -1       704 1.22394E-02 8.26468E-04-7.76764E-14
 -1       705 9.04285E-04 1.24625E-04-7.95699E-16
 -1       706 8.15210E-03 4.60036E-04-5.06384E-14
 -1       707 9.03909E-04-1.22219E-04-8.41432E-16
 -1       708 8.94096E-03 1.64300E-04-5.48569E-14
 -1       709 8.55054E-03 3.08450E-04-5.26857E-14
 -1       710 1.29401E-02 1.07762E-03-7.91354E-14
 -1       711 1.01159E-02-2.28279E-04-6.35642E-14
 -1       712 1.04578E-02-1.73164E-04-6.66484E-14
 -1       713 8.30014E-03 4.14767E-04-5.19986E-14
 -1       714 1.12685E-02 2.75703E-04-7.29900E-14
 -1       715 1.07794E-02-2.57300E-05-6.94163E-14
 -1       716 9.11294E-04-1.75619E-04-8.27693E-16
 -1       717 8.97705E-04-2.31625E-05-8.44251E-16
 -1       718 9.88500E-03-2.29209E-04-6.16638E-14
 -1       719 1.48701E-02 2.10492E-03-1.07842E-13
 -1       720 1.49003E-02 2.12000E-03-1.06705E-13
 -1       721 1.32712E-02 1.18061E-03-8.06690E-14
 -1       722 1.31330E-02 1.14565E-03-8.07227E-14
 -1       723 1.09984E-02 1.12433E-04-7.18313E-14
 -1       724 8.99641E-04-7.18347E-05-8.46315E-16
 -1       725 8.72391E-04-2.47128E-04-7.01038E-16
 -1       726 1.35766E-02 1.47903E-03-1.08211E-13
 -1       727 1.16159E-03 2.43643E-04-1.14236E-15
 -1       728 1.25647E-02 9.82857E-04-8.06644E-14
 -1       729 2.90787E-03 3.82351E-04-6.33992E-15
 -1       730 1.28483E-02 1.08528E-03-8.13256E-14
 -1       731 1.22457E-03-2.55012E-04-1.37516E-15
 -1       732 1.51026E-03-2.86459E-04-2.01802E-15
 -1       733 1.79736E-03-3.09350E-04-2.78011E-15
 -1       734 2.08502E-03-3.25319E-04-3.65984E-15
 -1       735 2.37281E-03-3.35935E-04-4.65622E-15
 -1       736 2.66050E-03-3.42535E-04-5.76840E-15
 -1       737 2.94797E-03-3.46189E-04-6.99530E-15
 -1       738 3.23518E-03-3.47718E-04-8.33517E-15
 -1       739 3.52213E-03-3.47730E-04-9.78738E-15
 -1       740 3.80881E-03-3.46658E-04-1.13486E-14
 -1       741 4.09525E-03-3.44795E-04-1.30170E-14
 -1       742 4.38146E-03-3.42334E-04-1.47899E-14
 -1       743 4.66746E-03-3.39387E-04-1.66667E-14
 -1       744 4.95330E-03-3.36021E-04-1.86411E-14
 -1       745 5.23903E-03-3.32281E-04-2.07145E-14
 -1       746 5.52473E-03-3.28212E-04-2.28815E-14
 -1       747 5.81057E-03-3.23892E-04-2.51414E-14
 -1       748 6.09677E-03-3.19462E-04-2.74933E-14
 -1       749 6.38370E-03-3.15164E-04-2.99286E-14
 -1       750 6.67191E-03-3.11382E-04-3.24471E-14
 -1       751 6.96213E-03-3.08696E-04-3.50504E-14
 -1       752 7.25530E-03-3.07924E-04-3.77351E-14
 -1       753 7.55249E-03-3.10145E-04-4.05011E-14
 -1       754 7.85475E-03-3.16643E-04-4.33468E-14
 -1       755 8.16270E-03-3.28663E-04-4.62691E-14
 -1       756 8.47600E-03-3.46802E-04-4.92649E-14
 -1       757 8.79280E-03-3.69828E-04-5.23314E-14
 -1       758 9.10958E-03-3.93126E-04-5.54648E-14
 -1       759 9.42208E-03-4.07321E-04-5.86643E-14
 -1       760 9.72743E-03-3.98702E-04-6.19247E-14
 -1       761 1.00264E-02-3.53236E-04-6.52445E-14
 -1       762 1.03241E-02-2.63178E-04-6.86240E-14
 -1       763 1.06261E-02-1.31574E-04-7.20635E-14
 -1       764 1.09356E-02 2.97938E-05-7.55549E-14
 -1       765 1.12511E-02 2.06291E-04-7.90910E-14
 -1       766 1.15687E-02 3.86289E-04-8.26748E-14
 -1       767 1.18843E-02 5.63060E-04-8.63091E-14
 -1       768 1.21953E-02 7.34114E-04-8.99996E-14
 -1       769 1.25005E-02 8.99514E-04-9.37484E-14
 -1       770 1.28003E-02 1.06049E-03-9.75477E-14
 -1       771 1.30955E-02 1.21861E-03-1.01390E-13
 -1       772 1.33371E-02 1.34870E-03-1.04784E-13
 -1       773 2.33420E-03 3.70287E-04-4.13485E-15
 -1       774 2.03279E-03 3.57401E-04-3.16602E-15
 -1       775 3.19444E-03 3.84379E-04-7.61838E-15
 -1       776 3.48084E-03 3.84712E-04-9.01093E-15
 -1       777 3.78141E-03 3.83752E-04-1.05949E-14
 -1       778 4.06752E-03 3.81923E-04-1.22165E-14
 -1       779 4.35350E-03 3.79399E-04-1.39453E-14
 -1       780 4.63932E-03 3.76284E-04-1.57781E-14
 -1       781 4.92495E-03 3.72623E-04-1.77104E-14
 -1       782 5.21029E-03 3.68427E-04-1.97408E-14
 -1       783 5.49521E-03 3.63702E-04-2.18708E-14
 -1       784 5.79363E-03 3.58219E-04-2.42079E-14
 -1       785 6.07671E-03 3.52632E-04-2.65253E-14
 -1       786 6.35806E-03 3.46984E-04-2.89238E-14
 -1       787 6.63669E-03 3.41837E-04-3.14059E-14
 -1       788 6.91114E-03 3.38168E-04-3.39711E-14
 -1       789 7.17929E-03 3.37557E-04-3.66127E-14
 -1       790 7.43822E-03 3.42384E-04-3.93249E-14
 -1       791 7.69580E-03 3.56978E-04-4.22444E-14
 -1       792 7.92211E-03 3.84477E-04-4.50955E-14
 -1       793 8.12386E-03 4.30368E-04-4.80055E-14
 -1       794 1.34576E-02 1.29172E-03-8.45938E-14
 -1       795 1.39018E-02 1.54770E-03-9.22719E-14
 -1       796 1.36669E-02 1.41195E-03-8.84082E-14
 -1       797 1.44099E-02 1.84143E-03-9.99157E-14
 -1       798 1.46524E-02 1.98001E-03-1.03294E-13
 -1       799 1.39458E-02 1.65219E-03-1.05249E-13
 -1       800 1.41134E-02 1.73001E-03-1.05083E-13
 -1       801 2.62112E-03 3.77957E-04-5.17815E-15
 -1       802 1.37753E-02 1.57057E-03-1.05415E-13
 -1       803 1.05668E-02-1.24420E-04-6.84109E-14
 -1       804 1.36041E-02 1.48622E-03-1.05576E-13
 -1       805 9.48455E-03-1.40163E-04-5.81685E-14
 -1       806 1.41495E-02 1.69119E-03-9.60755E-14
 -1       807 1.02400E-02-2.31728E-04-6.51934E-14
 -1       808 8.28876E-03 3.35699E-04-5.04880E-14
 -1       809 8.63897E-03 1.82433E-04-5.21226E-14
 -1       810 9.03845E-03 2.41945E-05-5.47338E-14
 -1       811 1.13838E-03 5.90487E-05-1.26342E-15
 -1       812 1.24624E-03 3.00820E-04-1.22856E-15
 -1       813 1.19869E-02 7.09301E-04-7.84153E-14
 -1       814 8.16464E-03 3.78646E-04-4.98957E-14
 -1       815 1.15034E-02 4.28345E-04-7.59144E-14
 -1       816 8.06398E-03 4.05555E-04-4.90531E-14
 -1       817 1.13701E-03 1.19156E-06-1.28134E-15
 -1       818 1.00162E-02-2.67271E-04-6.32753E-14
 -1       819 1.74573E-03 3.38955E-04-2.36525E-15
 -1       820 1.45676E-02 1.93950E-03-1.04551E-13
 -1       821 1.42749E-02 1.80352E-03-1.04915E-13
 -1       822 1.44266E-02 1.87268E-03-1.04739E-13
 -1       823 1.32949E-02 1.20831E-03-8.24389E-14
 -1       824 1.07737E-02-1.87059E-05-7.08085E-14
 -1       825 1.49562E-03 3.24051E-04-1.75011E-15
 -1       826 8.35854E-03 2.30573E-04-4.99353E-14
 -1       827 1.12394E-02 2.61634E-04-7.47351E-14
 -1       828 1.14988E-03 1.79123E-04-1.19642E-15
 -1       829 1.14246E-03 1.17913E-04-1.23562E-15
 -1       830 1.14213E-03-1.15196E-04-1.28883E-15
 -1       831 7.98157E-03 3.88390E-04-4.70650E-14
 -1       832 1.30791E-02 1.16669E-03-8.29270E-14
 -1       833 1.23328E-02 8.83326E-04-8.14070E-14
 -1       834 1.14932E-03-1.76116E-04-1.27739E-15
 -1       835 1.34704E-02 1.41784E-03-1.05179E-13
 -1       836 3.04390E-03 3.08692E-04-7.09396E-15
 -1       837 1.28358E-02 1.10087E-03-8.38052E-14
 -1       838 1.64170E-03-2.31667E-04-2.41480E-15
 -1       839 1.92964E-03-2.47605E-04-3.23773E-15
 -1       840 2.21843E-03-2.58583E-04-4.17679E-15
 -1       841 2.50748E-03-2.65714E-04-5.23028E-15
 -1       842 2.79644E-03-2.69959E-04-6.39887E-15
 -1       843 3.08511E-03-2.72088E-04-7.68125E-15
 -1       844 3.37339E-03-2.72691E-04-9.07477E-15
 -1       845 3.66121E-03-2.72199E-04-1.05768E-14
 -1       846 3.94856E-03-2.70910E-04-1.21889E-14
 -1       847 4.23544E-03-2.69021E-04-1.39053E-14
 -1       848 4.52186E-03-2.66643E-04-1.57269E-14
 -1       849 4.80783E-03-2.63832E-04-1.76478E-14
 -1       850 5.09339E-03-2.60600E-04-1.96675E-14
 -1       851 5.37859E-03-2.56938E-04-2.17848E-14
 -1       852 5.66353E-03-2.52831E-04-2.39954E-14
 -1       853 5.94841E-03-2.48281E-04-2.62981E-14
 -1       854 6.23353E-03-2.43341E-04-2.86886E-14
 -1       855 6.51942E-03-2.38149E-04-3.11618E-14
 -1       856 6.80682E-03-2.32998E-04-3.37157E-14
 -1       857 7.09682E-03-2.28420E-04-3.63510E-14
 -1       858 7.39085E-03-2.25308E-04-3.90676E-14
 -1       859 7.69062E-03-2.25050E-04-4.18661E-14
 -1       860 7.99788E-03-2.29589E-04-4.47415E-14
 -1       861 8.31391E-03-2.41267E-04-4.76907E-14
 -1       862 8.63841E-03-2.61988E-04-5.07107E-14
 -1       863 8.96879E-03-2.91198E-04-5.38013E-14
 -1       864 9.29879E-03-3.22538E-04-5.69599E-14
 -1       865 9.62328E-03-3.42335E-04-6.01821E-14
 -1       866 9.93781E-03-3.28973E-04-6.34638E-14
 -1       867 1.02456E-02-2.64205E-04-6.68060E-14
 -1       868 1.05565E-02-1.43987E-04-7.02108E-14
 -1       869 1.08767E-02 1.92970E-05-7.36760E-14
 -1       870 1.12048E-02 2.03520E-04-7.71924E-14
 -1       871 1.15366E-02 3.91158E-04-8.07548E-14
 -1       872 1.18650E-02 5.72173E-04-8.43672E-14
 -1       873 1.21859E-02 7.43997E-04-8.80287E-14
 -1       874 1.24980E-02 9.07802E-04-9.17450E-14
 -1       875 1.28020E-02 1.06603E-03-9.55140E-14
 -1       876 1.30994E-02 1.22100E-03-9.93291E-14
 -1       877 2.17153E-03 2.92015E-04-3.73743E-15
 -1       878 3.62641E-03 3.09404E-04-9.92734E-15
 -1       879 3.91349E-03 3.08213E-04-1.14956E-14
 -1       880 4.20016E-03 3.06349E-04-1.31732E-14
 -1       881 4.48641E-03 3.03956E-04-1.49539E-14
 -1       882 4.77215E-03 3.01118E-04-1.68359E-14
 -1       883 5.05730E-03 2.97893E-04-1.88177E-14
 -1       884 5.34167E-03 2.94335E-04-2.08962E-14
 -1       885 5.63911E-03 2.90348E-04-2.31846E-14
 -1       886 5.92084E-03 2.86501E-04-2.54555E-14
 -1       887 6.20039E-03 2.82950E-04-2.78110E-14
 -1       888 6.47678E-03 2.80278E-04-3.02502E-14
 -1       889 6.74862E-03 2.79423E-04-3.27736E-14
 -1       890 7.01392E-03 2.81810E-04-3.53771E-14
 -1       891 7.26992E-03 2.89470E-04-3.80549E-14
 -1       892 7.52456E-03 3.06168E-04-4.09416E-14
 -1       893 7.74833E-03 3.33238E-04-4.37605E-14
 -1       894 1.39228E-02 1.57316E-03-9.43563E-14
 -1       895 1.41718E-02 1.71395E-03-9.81753E-14
 -1       896 1.37879E-02 1.56658E-03-1.01803E-13
 -1       897 1.46121E-02 1.95977E-03-1.03927E-13
 -1       898 3.33175E-03 3.09686E-04-8.43521E-15
 -1       899 9.16598E-03-1.20950E-04-5.54383E-14
 -1       900 1.03411E-02-2.16136E-04-6.68868E-14
 -1       901 1.34398E-02 1.39796E-03-1.02124E-13
 -1       902 1.18209E-02 6.05793E-04-7.94481E-14
 -1       903 2.46007E-03 3.00601E-04-4.72941E-15
 -1       904 2.75572E-03 3.05945E-04-5.86690E-15
 -1       905 1.13821E-03-5.65184E-05-1.28985E-15
 -1       906 9.63988E-03-2.47032E-04-5.96862E-14
 -1       907 1.39427E-03-2.05762E-04-1.80274E-15
 -1       908 8.70132E-03 4.10743E-05-5.17907E-14
 -1       909 7.95940E-03 3.35366E-04-4.70403E-14
 -1       910 1.36140E-02 1.48422E-03-1.01964E-13
 -1       911 1.41050E-03 2.65920E-04-1.64657E-15
 -1       912 8.12844E-03 3.02940E-04-4.84837E-14
 -1       913 1.88320E-03 2.78979E-04-2.86260E-15
 -1       914 1.38404E-03-9.70689E-05-1.82346E-15
 -1       915 8.82511E-03-9.69458E-05-5.24712E-14
 -1       916 1.32857E-02 1.31899E-03-1.02241E-13
 -1       917 8.42551E-03 1.03313E-04-4.96095E-14
 -1       918 1.32914E-02 1.24210E-03-8.46585E-14
 -1       919 1.39579E-02 1.64340E-03-1.01641E-13
 -1       920 1.34877E-02 1.32350E-03-8.66409E-14
 -1       921 1.43892E-02 1.83505E-03-1.01041E-13
 -1       922 1.15592E-02 4.45337E-04-7.82430E-14
 -1       923 1.36851E-02 1.43906E-03-9.04762E-14
 -1       924 1.38435E-03 1.00036E-04-1.76897E-15
 -1       925 1.38118E-03 3.40265E-05-1.79901E-15
 -1       926 1.38793E-03-1.50725E-04-1.81765E-15
 -1       927 1.42539E-02 1.77242E-03-1.01237E-13
 -1       928 3.47451E-03 2.34360E-04-9.28438E-15
 -1       929 1.31419E-02 1.21660E-03-8.58253E-14
 -1       930 2.06570E-03-1.82674E-04-3.70909E-15
 -1       931 2.35538E-03-1.89472E-04-4.70479E-15
 -1       932 2.64532E-03-1.93745E-04-5.81390E-15
 -1       933 2.93512E-03-1.96128E-04-7.03744E-15
 -1       934 3.22454E-03-1.97130E-04-8.37328E-15
 -1       935 3.51342E-03-1.97132E-04-9.81798E-15
 -1       936 3.80169E-03-1.96405E-04-1.13712E-14
 -1       937 4.08932E-03-1.95131E-04-1.30309E-14
 -1       938 4.37629E-03-1.93412E-04-1.47980E-14
 -1       939 4.66258E-03-1.91292E-04-1.66659E-14
 -1       940 4.94821E-03-1.88764E-04-1.86315E-14
 -1       941 5.23317E-03-1.85780E-04-2.06956E-14
 -1       942 5.51752E-03-1.82260E-04-2.28559E-14
 -1       943 5.80135E-03-1.78102E-04-2.51098E-14
 -1       944 6.08485E-03-1.73194E-04-2.74551E-14
 -1       945 6.36841E-03-1.67444E-04-2.98841E-14
 -1       946 6.65263E-03-1.60828E-04-3.23924E-14
 -1       947 6.93848E-03-1.53480E-04-3.49806E-14
 -1       948 7.22741E-03-1.45840E-04-3.76500E-14
 -1       949 7.52142E-03-1.38903E-04-4.03996E-14
 -1       950 7.82305E-03-1.34551E-04-4.32284E-14
 -1       951 8.13488E-03-1.35791E-04-4.61295E-14
 -1       952 8.46002E-03-1.46899E-04-4.91041E-14
 -1       953 1.21816E-02 7.61199E-04-8.60642E-14
 -1       954 1.25007E-02 9.22552E-04-8.97526E-14
 -1       955 1.28080E-02 1.07660E-03-9.34927E-14
 -1       956 1.31067E-02 1.22711E-03-9.72806E-14
 -1       957 3.76259E-03 2.33782E-04-1.08004E-14
 -1       958 4.62664E-03 2.28915E-04-1.60146E-14
 -1       959 4.91196E-03 2.26659E-04-1.79493E-14
 -1       960 5.19631E-03 2.24237E-04-1.99813E-14
 -1       961 5.49353E-03 2.21661E-04-2.22217E-14
 -1       962 5.77491E-03 2.19402E-04-2.44502E-14
 -1       963 6.05408E-03 2.17703E-04-2.67661E-14
 -1       964 6.33022E-03 2.17146E-04-2.91651E-14
 -1       965 6.60223E-03 2.18619E-04-3.16479E-14
 -1       966 6.86859E-03 2.23421E-04-3.42118E-14
 -1       967 7.12729E-03 2.33345E-04-3.68558E-14
 -1       968 7.38776E-03 2.51833E-04-3.97095E-14
 -1       969 7.62130E-03 2.80164E-04-4.25001E-14
 -1       970 1.39234E-02 1.59293E-03-9.64356E-14
 -1       971 1.38108E-03-3.12904E-05-1.81700E-15
 -1       972 1.41115E-02 1.71027E-03-1.01446E-13
 -1       973 1.26701E-02 1.03575E-03-8.52898E-14
 -1       974 1.64635E-03 2.75465E-04-2.21262E-15
 -1       975 2.30685E-03 2.23836E-04-4.30834E-15
 -1       976 1.21961E-02 7.98280E-04-8.32985E-14
 -1       977 2.89315E-03 2.32587E-04-6.57186E-15
 -1       978 1.44682E-03 1.93654E-04-1.82783E-15
 -1       979 2.60006E-03 2.29384E-04-5.38142E-15
 -1       980 4.34051E-03 2.30914E-04-1.41803E-14
 -1       981 4.05367E-03 2.32569E-04-1.24470E-14
 -1       982 1.77690E-03-1.72593E-04-2.82798E-15
 -1       983 3.18226E-03 2.34074E-04-7.86218E-15
 -1       984 2.01752E-03 2.15280E-04-3.36515E-15
 -1       985 1.29941E-02 1.17552E-03-8.73253E-14
 -1       986 8.48455E-03-3.21735E-05-4.95664E-14
 -1       987 1.18785E-02 6.09187E-04-8.22947E-14
 -1       988 7.78275E-03 2.48003E-04-4.43710E-14
 -1       989 1.34301E-02 1.32982E-03-8.83237E-14
 -1       990 1.36346E-02 1.48478E-03-9.83939E-14
 -1       991 1.62924E-03-7.01120E-05-2.44102E-15
 -1       992 8.12466E-03 1.66156E-04-4.72141E-14
 -1       993 1.63205E-03-1.28009E-04-2.44151E-15
 -1       994 1.65905E-03 1.49539E-04-2.40937E-15
 -1       995 1.36736E-02 1.45918E-03-9.25391E-14
 -1       996 1.65373E-03 7.63640E-05-2.45603E-15
 -1       997 1.34553E-02 1.40205E-03-9.85534E-14
 -1       998 8.17660E-03 3.98522E-05-4.70095E-14
 -1       999 2.49545E-03-1.18211E-04-5.24253E-15
 -1      1000 2.78596E-03-1.20292E-04-6.40631E-15
 -1      1001 3.07621E-03-1.21332E-04-7.68286E-15
 -1      1002 3.36596E-03-1.21611E-04-9.07088E-15
 -1      1003 3.65506E-03-1.21332E-04-1.05658E-14
 -1      1004 3.94342E-03-1.20631E-04-1.21688E-14
 -1      1005 4.23099E-03-1.19587E-04-1.38799E-14
 -1      1006 4.51774E-03-1.18225E-04-1.56946E-14
 -1      1007 4.80364E-03-1.16526E-04-1.76075E-14
 -1      1008 5.08865E-03-1.14423E-04-1.96173E-14
 -1      1009 5.37274E-03-1.11800E-04-2.17262E-14
 -1      1010 5.65593E-03-1.08491E-04-2.39301E-14
 -1      1011 5.93825E-03-1.04275E-04-2.62265E-14
 -1      1012 6.21988E-03-9.88851E-05-2.86116E-14
 -1      1013 6.50115E-03-9.20246E-05-3.10776E-14
 -1      1014 6.78273E-03-8.34317E-05-3.36212E-14
 -1      1015 7.06570E-03-7.29962E-05-3.62436E-14
 -1      1016 7.35180E-03-6.09738E-05-3.89466E-14
 -1      1017 7.64369E-03-4.84700E-05-4.17300E-14
 -1      1018 7.94503E-03-3.78478E-05-4.45851E-14
 -1      1019 1.77934E-03 2.16895E-04-2.65879E-15
 -1      1020 7.52860E-03 2.13260E-04-4.13992E-14
 -1      1021 1.37996E-02 1.55571E-03-9.82039E-14
 -1      1022 1.28226E-02 1.09256E-03-9.14796E-14
 -1      1023 1.31200E-02 1.23686E-03-9.52426E-14
 -1      1024 5.34236E-03 1.51972E-04-2.12084E-14
 -1      1025 5.05898E-03 1.53226E-04-1.91217E-14
 -1      1026 4.77432E-03 1.54594E-04-1.71327E-14
 -1      1027 5.62416E-03 1.51053E-04-2.33911E-14
 -1      1028 5.90395E-03 1.50817E-04-2.56645E-14
 -1      1029 6.18116E-03 1.51795E-04-2.80247E-14
 -1      1030 6.45505E-03 1.54767E-04-3.04677E-14
 -1      1031 6.72468E-03 1.60835E-04-3.29906E-14
 -1      1032 6.98889E-03 1.71485E-04-3.55934E-14
 -1      1033 7.25904E-03 1.89647E-04-3.84110E-14
 -1      1034 3.90542E-03 1.58107E-04-1.17158E-14
 -1      1035 3.03309E-03 1.58165E-04-7.29410E-15
 -1      1036 1.25653E-02 9.74277E-04-8.75241E-14
 -1      1037 1.63978E-03 2.84410E-06-2.45645E-15
 -1      1038 3.61713E-03 1.58704E-04-1.01394E-14
 -1      1039 2.20510E-03-1.14736E-04-4.19249E-15
 -1      1040 4.48859E-03 1.55929E-04-1.52433E-14
 -1      1041 4.19295E-03 1.57158E-04-1.33991E-14
 -1      1042 3.32542E-03 1.58797E-04-8.65985E-15
 -1      1043 1.33197E-02 1.31011E-03-8.98392E-14
 -1      1044 7.77973E-03 1.49534E-04-4.37737E-14
 -1      1045 2.15534E-03 1.48531E-04-3.89019E-15
 -1      1046 2.73938E-03 1.56510E-04-6.03858E-15
 -1      1047 1.34825E-02 1.40466E-03-9.50012E-14
 -1      1048 1.28937E-02 1.13417E-03-8.94040E-14
 -1      1049 1.88318E-03-3.87198E-05-3.15641E-15
 -1      1050 1.36516E-02 1.47079E-03-9.46248E-14
 -1      1051 1.90541E-03 1.19947E-04-3.13316E-15
 -1      1052 1.91551E-03-1.09440E-04-3.25672E-15
 -1      1053 2.44726E-03 1.53465E-04-4.90626E-15
 -1      1054 1.33013E-02 1.32481E-03-9.51236E-14
 -1      1055 7.47328E-03 1.28217E-04-4.05935E-14
 -1      1056 5.19935E-03 8.10404E-05-2.02529E-14
 -1      1057 2.63828E-03-4.51373E-05-5.78979E-15
 -1      1058 2.92902E-03-4.56927E-05-7.00665E-15
 -1      1059 3.21936E-03-4.58980E-05-8.33546E-15
 -1      1060 3.50909E-03-4.58403E-05-9.77360E-15
 -1      1061 3.79807E-03-4.55780E-05-1.13194E-14
 -1      1062 4.08622E-03-4.51395E-05-1.29722E-14
 -1      1063 4.37347E-03-4.45225E-05-1.47330E-14
 -1      1064 4.65977E-03-4.36918E-05-1.65924E-14
 -1      1065 4.94506E-03-4.25728E-05-1.85494E-14
 -1      1066 5.22925E-03-4.10418E-05-2.06061E-14
 -1      1067 5.51226E-03-3.89123E-05-2.27583E-14
 -1      1068 5.79399E-03-3.59185E-05-2.50061E-14
 -1      1069 6.07441E-03-3.16985E-05-2.73466E-14
 -1      1070 6.35354E-03-2.57851E-05-2.97687E-14
 -1      1071 6.63159E-03-1.76181E-05-3.22688E-14
 -1      1072 6.90910E-03-6.61135E-06-3.48468E-14
 -1      1073 7.18718E-03 7.67852E-06-3.75042E-14
 -1      1074 7.46756E-03 2.54163E-05-4.02422E-14
 -1      1075 7.81152E-03 3.62684E-05-4.35765E-14
 -1      1076 1.89538E-03 3.92146E-05-3.16273E-15
 -1      1077 5.76276E-03 8.21124E-05-2.46243E-14
 -1      1078 5.48191E-03 8.12212E-05-2.23921E-14
 -1      1079 4.91535E-03 8.12664E-05-1.82127E-14
 -1      1080 6.04156E-03 8.41619E-05-2.69449E-14
 -1      1081 6.31787E-03 8.80089E-05-2.93517E-14
 -1      1082 6.59124E-03 9.45284E-05-3.18387E-14
 -1      1083 6.86121E-03 1.04855E-04-3.44018E-14
 -1      1084 7.14062E-03 1.21260E-04-3.71813E-14
 -1      1085 4.33935E-03 8.22027E-05-1.44005E-14
 -1      1086 3.75938E-03 8.30233E-05-1.09992E-14
 -1      1087 4.04757E-03 8.26754E-05-1.26327E-14
 -1      1088 2.34753E-03-4.41025E-05-4.68540E-15
 -1      1089 2.11500E-03-4.16051E-05-3.88470E-15
 -1      1090 4.63013E-03 8.16967E-05-1.62713E-14
 -1      1091 2.14438E-03 6.42057E-05-3.93046E-15
 -1      1092 1.31377E-02 1.24532E-03-9.12061E-14
 -1      1093 2.88307E-03 8.23735E-05-6.72231E-15
 -1      1094 3.46766E-03 8.31679E-05-9.46036E-15
 -1      1095 2.43662E-03 6.64561E-05-4.95246E-15
 -1      1096 3.17566E-03 8.29976E-05-8.03522E-15
 -1      1097 2.65987E-03 7.45328E-05-5.80458E-15
 -1      1098 0.00000E+00 0.00000E+00 0.00000E+00
 -1      1099 0.00000E+00 0.00000E+00 0.00000E+00
 -1      1100 0.00000E+00 0.00000E+00 0.00000E+00
 -1      1101 0.00000E+00 0.00000E+00 0.00000E+00
 -1      1102 0.00000E+00 0.00000E+00 0.00000E+00
 -1      1103 0.00000E+00 0.00000E+00 0.00000E+00
 -1      1104 0.00000E+00 0.00000E+00 0.00000E+00
 -1      1105 0.00000E+00 0.00000E+00 0.00000E+00
 -1      1106 0.00000E+00 0.00000E+00 0.00000E+00
 -1      1107 0.00000E+00 0.00000E+00 0.00000E+00
 -1      1108 0.00000E+00 0.00000E+00 0.00000E+00
 -1      1109 0.00000E+00 0.00000E+00 0.00000E+00
 -1      1110 0.00000E+00 0.00000E+00 0.00000E+00
 -1      1111 0.00000E+00 0.00000E+00 0.00000E+00
 -1      1112 0.00000E+00 0.00000E+00 0.00000E+00
 -1      1113 0.00000E+00 0.00000E+00 0.00000E+00
 -1      1114 0.00000E+00 0.00000E+00 0.00000E+00
 -1      1115 2.11656E-04-1.48330E-04 1.45148E-17
 -1      1116 5.51600E-04-3.37511E-04-4.19857E-17
 -1      1117 8.33391E-04-4.58997E-04-2.23075E-16
 -1      1118 1.10293E-03-5.40660E-04-5.49148E-16
 -1      1119 1.36831E-03-5.97873E-04-1.01362E-15
 -1      1120 1.63308E-03-6.38526E-04-1.61241E-15
 -1      1121 1.89910E-03-6.67262E-04-2.34303E-15
 -1      1122 2.16722E-03-6.87194E-04-3.20159E-15
 -1      1123 2.43773E-03-7.00598E-04-4.18747E-15
 -1      1124 2.71064E-03-7.09185E-04-5.30160E-15
 -1      1125 2.98579E-03-7.14250E-04-6.53950E-15
 -1      1126 3.26297E-03-7.16761E-04-7.89441E-15
 -1      1127 3.54193E-03-7.17432E-04-9.36312E-15
 -1      1128 3.82244E-03-7.16780E-04-1.09443E-14
 -1      1129 4.10431E-03-7.15172E-04-1.26346E-14
 -1      1130 4.38738E-03-7.12868E-04-1.44330E-14
 -1      1131 4.67158E-03-7.10052E-04-1.63356E-14
 -1      1132 4.95687E-03-7.06874E-04-1.83352E-14
 -1      1133 5.24330E-03-7.03479E-04-2.04280E-14
 -1      1134 5.53094E-03-7.00041E-04-2.26162E-14
 -1      1135 5.81991E-03-6.96800E-04-2.48985E-14
 -1      1136 6.11033E-03-6.94091E-04-2.72722E-14
 -1      1137 6.40228E-03-6.92369E-04-2.97368E-14
 -1      1138 6.69570E-03-6.92211E-04-3.22947E-14
 -1      1139 6.99030E-03-6.94287E-04-3.49445E-14
 -1      1140 7.28548E-03-6.99270E-04-3.76840E-14
 -1      1141 7.58016E-03-7.07662E-04-4.05007E-14
 -1      1142 7.87272E-03-7.19513E-04-4.33937E-14
 -1      1143 8.16104E-03-7.34046E-04-4.63702E-14
 -1      1144 8.44263E-03-7.49241E-04-4.94198E-14
 -1      1145 8.71508E-03-7.61504E-04-5.25389E-14
 -1      1146 8.97668E-03-7.65644E-04-5.57246E-14
 -1      1147 9.22706E-03-7.55332E-04-5.89738E-14
 -1      1148 9.46776E-03-7.24144E-04-6.22894E-14
 -1      1149 9.70228E-03-6.66979E-04-6.56532E-14
 -1      1150 9.93549E-03-5.81393E-04-6.90581E-14
 -1      1151 1.01725E-02-4.68291E-04-7.25076E-14
 -1      1152 1.04176E-02-3.31660E-04-7.60020E-14
 -1      1153 1.06731E-02-1.77465E-04-7.95366E-14
 -1      1154 1.09396E-02-1.21950E-05-8.31186E-14
 -1      1155 1.12157E-02 1.58407E-04-8.67650E-14
 -1      1156 1.14993E-02 3.30095E-04-9.04800E-14
 -1      1157 1.17876E-02 5.00306E-04-9.42587E-14
 -1      1158 1.20784E-02 6.67957E-04-9.80899E-14
 -1      1159 1.23697E-02 8.33054E-04-1.01973E-13
 -1      1160 1.26602E-02 9.96280E-04-1.05893E-13
 -1      1161 1.29493E-02 1.15865E-03-1.09849E-13
 -1      1162 1.32367E-02 1.32123E-03-1.13821E-13
 -1      1163 1.35229E-02 1.48484E-03-1.17802E-13
 -1      1164 1.38014E-02 1.64552E-03-1.21709E-13
 -1      1165 2.28414E-04 1.60708E-04 3.33257E-17
 -1      1166 5.53772E-04 3.42145E-04 2.06541E-17
 -1      1167 8.34320E-04 4.61166E-04-1.02701E-16
 -1      1168 1.10383E-03 5.42350E-04-3.52935E-16
 -1      1169 1.36921E-03 5.99559E-04-7.31118E-16
 -1      1170 1.63403E-03 6.40304E-04-1.23591E-15
 -1      1171 1.90010E-03 6.69147E-04-1.86812E-15
 -1      1172 2.17498E-03 6.89611E-04-2.65049E-15
 -1      1173 2.45235E-03 7.03271E-04-3.56925E-15
 -1      1174 2.72538E-03 7.11784E-04-4.59398E-15
 -1      1175 3.00061E-03 7.16826E-04-5.74489E-15
 -1      1176 3.27785E-03 7.19343E-04-7.01728E-15
 -1      1177 3.55682E-03 7.20023E-04-8.40665E-15
 -1      1178 3.83730E-03 7.19357E-04-9.91728E-15
 -1      1179 4.12616E-03 7.17617E-04-1.15923E-14
 -1      1180 4.41626E-03 7.15025E-04-1.33807E-14
 -1      1181 4.70040E-03 7.11780E-04-1.52270E-14
 -1      1182 4.98569E-03 7.07861E-04-1.71755E-14
 -1      1183 5.27228E-03 7.03246E-04-1.92300E-14
 -1      1184 5.56046E-03 6.97891E-04-2.13860E-14
 -1      1185 5.85077E-03 6.91749E-04-2.36379E-14
 -1      1186 6.15139E-03 6.84629E-04-2.60400E-14
 -1      1187 6.45642E-03 6.76805E-04-2.85210E-14
 -1      1188 6.76015E-03 6.68857E-04-3.10271E-14
 -1      1189 7.07267E-03 6.61465E-04-3.36119E-14
 -1      1190 7.39788E-03 6.56445E-04-3.62626E-14
 -1      1191 7.74119E-03 6.57444E-04-3.89843E-14
 -1      1192 8.10968E-03 6.71511E-04-4.17657E-14
 -1      1193 8.52215E-03 7.13225E-04-4.46813E-14
 -1      1194 8.97708E-03 8.06723E-04-4.76574E-14
 -1      1195 9.46062E-03 9.81583E-04-5.06164E-14
 -1      1196 9.96125E-03 1.27056E-03-5.36391E-14
 -1      1197 1.04046E-02 1.64452E-03-5.65793E-14
 -1      1198 1.07513E-02 2.02342E-03-5.95141E-14
 -1      1199 1.10163E-02 2.28015E-03-6.27034E-14
 -1      1200 1.12589E-02 2.27458E-03-6.59920E-14
 -1      1201 1.15631E-02 2.07561E-03-6.92007E-14
 -1      1202 1.19756E-02 1.82938E-03-7.25586E-14
 -1      1203 1.24688E-02 1.65257E-03-7.61373E-14
 -1      1204 1.29617E-02 1.59507E-03-7.97612E-14
 -1      1205 1.34203E-02 1.63314E-03-8.34269E-14
 -1      1206 1.38367E-02 1.73178E-03-8.71398E-14
 -1      1207 1.42246E-02 1.86772E-03-9.10006E-14
 -1      1208 1.45818E-02 2.02120E-03-9.49098E-14
 -1      1209 1.49085E-02 2.17820E-03-9.87693E-14
 -1      1210 1.52197E-02 2.33712E-03-1.02665E-13
 -1      1211 1.55199E-02 2.49495E-03-1.06585E-13
 -1      1212 1.58125E-02 2.64979E-03-1.10536E-13
 -1      1213 1.61002E-02 2.80047E-03-1.14505E-13
 -1      1214 1.63857E-02 2.94716E-03-1.18495E-13
 -1      1215 1.64571E-02 2.97745E-03-1.20612E-13
 -1      1216 1.63159E-02 2.89294E-03-1.20830E-13
 -1      1217 1.61781E-02 2.81035E-03-1.21056E-13
 -1      1218 1.60428E-02 2.73163E-03-1.21272E-13
 -1      1219 1.59075E-02 2.65747E-03-1.21483E-13
 -1      1220 1.57706E-02 2.58797E-03-1.21660E-13
 -1      1221 1.56289E-02 2.52118E-03-1.21812E-13
 -1      1222 1.54803E-02 2.45484E-03-1.21967E-13
 -1      1223 1.53258E-02 2.38788E-03-1.22142E-13
 -1      1224 1.51665E-02 2.31894E-03-1.22310E-13
 -1      1225 1.50034E-02 2.24721E-03-1.22471E-13
 -1      1226 1.48394E-02 2.17301E-03-1.22662E-13
 -1      1227 1.46744E-02 2.09584E-03-1.22864E-13
 -1      1228 1.45081E-02 2.01542E-03-1.23047E-13
 -1      1229 1.43426E-02 1.93295E-03-1.23218E-13
 -1      1230 1.41785E-02 1.84915E-03-1.23389E-13
 -1      1231 1.40169E-02 1.76550E-03-1.23549E-13
 -1      1232 1.31322E-02 1.04721E-03-7.24485E-14
 -1      1233 1.30847E-02 1.20641E-03-7.19860E-14
 -1      1234 1.29297E-02 1.36982E-03-7.12245E-14
 -1      1235 1.26641E-02 1.55124E-03-7.01574E-14
 -1      1236 1.23076E-02 1.73746E-03-6.88606E-14
 -1      1237 1.18787E-02 1.90466E-03-6.73777E-14
 -1      1238 1.13896E-02 2.01835E-03-6.57509E-14
 -1      1239 1.08681E-02 2.03664E-03-6.40839E-14
 -1      1240 1.03327E-02 1.94355E-03-6.24396E-14
 -1      1241 9.82538E-03 1.76367E-03-6.09493E-14
 -1      1242 9.37220E-03 1.54135E-03-5.96745E-14
 -1      1243 8.97639E-03 1.30910E-03-5.86180E-14
 -1      1244 8.65128E-03 1.08886E-03-5.77974E-14
 -1      1245 8.41054E-03 8.89616E-04-5.72304E-14
 -1      1246 8.26947E-03 7.13687E-04-5.69600E-14
 -1      1247 8.23776E-03 5.57885E-04-5.70126E-14
 -1      1248 8.31114E-03 4.16538E-04-5.73646E-14
 -1      1249 8.48516E-03 2.80966E-04-5.79970E-14
 -1      1250 8.74990E-03 1.51147E-04-5.89139E-14
 -1      1251 9.08197E-03 3.52752E-05-6.00783E-14
 -1      1252 9.47881E-03-5.88486E-05-6.14973E-14
 -1      1253 9.92970E-03-1.15725E-04-6.31374E-14
 -1      1254 1.03927E-02-1.17690E-04-6.48277E-14
 -1      1255 1.08674E-02-5.99891E-05-6.65279E-14
 -1      1256 1.13506E-02 5.26897E-05-6.81736E-14
 -1      1257 1.18044E-02 2.01807E-04-6.96022E-14
 -1      1258 1.22237E-02 3.72570E-04-7.07943E-14
 -1      1259 1.25942E-02 5.51965E-04-7.17208E-14
 -1      1260 1.28800E-02 7.24551E-04-7.23149E-14
 -1      1261 1.30623E-02 8.86645E-04-7.25612E-14
 -1      1262 1.66689E-04-1.10343E-04-5.66496E-18
 -1      1263 1.12536E-04-5.69807E-05-2.89618E-17
 -1      1264 1.17616E-04-6.75870E-05-2.25379E-17
 -1      1265 1.08422E-04-4.35007E-05-3.92075E-17
 -1      1266 1.10282E-04-4.96144E-05-3.60633E-17
 -1      1267 2.26321E-04-1.07636E-04-8.53674E-17
 -1      1268 1.06841E-04-3.36167E-05-4.50486E-17
 -1      1269 1.07688E-04-3.83406E-05-4.34901E-17
 -1      1270 2.19107E-04-8.24726E-05-1.04029E-16
 -1      1271 1.06063E-04-2.53619E-05-4.81250E-17
 -1      1272 1.06492E-04-2.93933E-05-4.73932E-17
 -1      1273 2.15864E-04-6.32893E-05-1.14749E-16
 -1      1274 1.05665E-04-1.80986E-05-4.97649E-17
 -1      1275 1.05894E-04-2.16676E-05-4.94532E-17
 -1      1276 2.14214E-04-4.72048E-05-1.20523E-16
 -1      1277 1.05445E-04-1.12439E-05-5.06051E-17
 -1      1278 1.05568E-04-1.46303E-05-5.05238E-17
 -1      1279 2.13306E-04-3.27642E-05-1.23667E-16
 -1      1280 1.05346E-04-4.69131E-06-5.05916E-17
 -1      1281 1.05399E-04-7.94573E-06-5.06051E-17
 -1      1282 2.12811E-04-1.91970E-05-1.24778E-16
 -1      1283 1.05335E-04 1.74342E-06-5.02934E-17
 -1      1284 1.05333E-04-1.47113E-06-5.03747E-17
 -1      1285 2.12597E-04-6.16287E-06-1.24548E-16
 -1      1286 1.05407E-04 8.22776E-06-4.94125E-17
 -1      1287 1.05351E-04 4.96685E-06-4.96836E-17
 -1      1288 2.12605E-04 6.71050E-06-1.23165E-16
 -1      1289 1.05584E-04 1.49375E-05-4.78404E-17
 -1      1290 1.05457E-04 1.15365E-05-4.83419E-17
 -1      1291 2.12836E-04 1.97706E-05-1.20468E-16
 -1      1292 1.05915E-04 2.19585E-05-4.51299E-17
 -1      1293 1.05681E-04 1.83664E-05-4.59837E-17
 -1      1294 2.13345E-04 3.32770E-05-1.15955E-16
 -1      1295 1.06537E-04 2.98270E-05-4.12268E-17
 -1      1296 1.06099E-04 2.57494E-05-4.25956E-17
 -1      1297 2.14282E-04 4.78085E-05-1.08976E-16
 -1      1298 1.07725E-04 3.89266E-05-3.52095E-17
 -1      1299 1.06875E-04 3.41328E-05-3.75134E-17
 -1      1300 2.15982E-04 6.42240E-05-9.88250E-17
 -1      1301 1.10261E-04 5.03529E-05-2.58176E-17
 -1      1302 1.08425E-04 4.41697E-05-2.98698E-17
 -1      1303 2.19202E-04 8.37226E-05-8.36326E-17
 -1      1304 1.16931E-04 6.76234E-05-1.06116E-17
 -1      1305 1.12182E-04 5.77803E-05-1.79300E-17
 -1      1306 2.26309E-04 1.09456E-04-6.08373E-17
 -1      1307 1.57570E-04 1.09859E-04 1.29562E-17
 -1      1308 1.35653E-04 8.60935E-05-1.62630E-18
 -1      1309 2.56024E-04 1.52099E-04-3.33663E-17
 -1      1310 3.35063E-04 2.20738E-04 5.86824E-18
 -1      1311 4.21512E-04-2.61739E-04-5.63379E-17
 -1      1312 5.74596E-04-3.36797E-04-1.17270E-16
 -1      1313 7.21771E-04-3.97395E-04-2.16163E-16
 -1      1314 8.64925E-04-4.46685E-04-3.49804E-16
 -1      1315 6.12031E-04-3.30893E-04-2.03423E-16
 -1      1316 1.00494E-03-4.87748E-04-5.16731E-16
 -1      1317 1.14276E-03-5.21723E-04-7.18203E-16
 -1      1318 9.05241E-04-4.31579E-04-4.80247E-16
 -1      1319 1.27924E-03-5.50478E-04-9.53122E-16
 -1      1320 1.41487E-03-5.74492E-04-1.22177E-15
 -1      1321 1.18765E-03-5.00973E-04-8.90211E-16
 -1      1322 1.55010E-03-5.94828E-04-1.52317E-15
 -1      1323 1.68517E-03-6.11820E-04-1.85755E-15
 -1      1324 1.46455E-03-5.49699E-04-1.43249E-15
 -1      1325 1.82034E-03-6.26095E-04-2.22428E-15
 -1      1326 1.95571E-03-6.37944E-04-2.62294E-15
 -1      1327 1.73921E-03-5.83932E-04-2.10459E-15
 -1      1328 2.09141E-03-6.47769E-04-3.05343E-15
 -1      1329 2.22748E-03-6.55818E-04-3.51595E-15
 -1      1330 2.01350E-03-6.07646E-04-2.90507E-15
 -1      1331 2.36397E-03-6.62364E-04-4.00960E-15
 -1      1332 2.50090E-03-6.67611E-04-4.53431E-15
 -1      1333 2.28840E-03-6.23644E-04-3.83127E-15
 -1      1334 2.63829E-03-6.71753E-04-5.09129E-15
 -1      1335 2.77611E-03-6.74951E-04-5.67980E-15
 -1      1336 2.56439E-03-6.33986E-04-4.88243E-15
 -1      1337 2.91438E-03-6.77343E-04-6.29730E-15
 -1      1338 3.05307E-03-6.79056E-04-6.94431E-15
 -1      1339 2.84169E-03-6.40211E-04-6.05650E-15
 -1      1340 3.19217E-03-6.80186E-04-7.62065E-15
 -1      1341 3.33166E-03-6.80832E-04-8.32589E-15
 -1      1342 3.12031E-03-6.43465E-04-7.34903E-15
 -1      1343 3.47151E-03-6.81058E-04-9.05928E-15
 -1      1344 3.61171E-03-6.80938E-04-9.82062E-15
 -1      1345 3.40022E-03-6.44592E-04-8.75661E-15
 -1      1346 3.75224E-03-6.80517E-04-1.06101E-14
 -1      1347 3.89308E-03-6.79850E-04-1.14272E-14
 -1      1348 3.68132E-03-6.44203E-04-1.02777E-14
 -1      1349 4.03421E-03-6.78962E-04-1.22715E-14
 -1      1350 4.17562E-03-6.77896E-04-1.31423E-14
 -1      1351 3.96351E-03-6.42728E-04-1.19094E-14
 -1      1352 4.31730E-03-6.76668E-04-1.40401E-14
 -1      1353 4.45924E-03-6.75309E-04-1.49641E-14
 -1      1354 4.24670E-03-6.40467E-04-1.36489E-14
 -1      1355 4.60144E-03-6.73829E-04-1.59128E-14
 -1      1356 4.74389E-03-6.72255E-04-1.68872E-14
 -1      1357 4.53084E-03-6.37625E-04-1.54927E-14
 -1      1358 4.88659E-03-6.70593E-04-1.78856E-14
 -1      1359 5.02956E-03-6.68871E-04-1.89073E-14
 -1      1360 4.81589E-03-6.34354E-04-1.74368E-14
 -1      1361 5.17279E-03-6.67096E-04-1.99525E-14
 -1      1362 5.31629E-03-6.65300E-04-2.10216E-14
 -1      1363 5.10187E-03-6.30782E-04-1.94785E-14
 -1      1364 5.46008E-03-6.63497E-04-2.21148E-14
 -1      1365 5.60416E-03-6.61725E-04-2.32312E-14
 -1      1366 5.38883E-03-6.27055E-04-2.16149E-14
 -1      1367 5.74855E-03-6.60013E-04-2.43700E-14
 -1      1368 5.89326E-03-6.58405E-04-2.55323E-14
 -1      1369 5.67684E-03-6.23368E-04-2.38441E-14
 -1      1370 6.03830E-03-6.56952E-04-2.67175E-14
 -1      1371 6.18368E-03-6.55708E-04-2.79251E-14
 -1      1372 5.96597E-03-6.20004E-04-2.61648E-14
 -1      1373 6.32938E-03-6.54746E-04-2.91570E-14
 -1      1374 6.47541E-03-6.54130E-04-3.04113E-14
 -1      1375 6.25628E-03-6.17367E-04-2.85784E-14
 -1      1376 6.62175E-03-6.53960E-04-3.16882E-14
 -1      1377 6.76835E-03-6.54301E-04-3.29873E-14
 -1      1378 6.54775E-03-6.15998E-04-3.10840E-14
 -1      1379 6.91518E-03-6.55275E-04-3.43091E-14
 -1      1380 7.06216E-03-6.56937E-04-3.56551E-14
 -1      1381 6.84024E-03-6.16576E-04-3.36788E-14
 -1      1382 7.20921E-03-6.59418E-04-3.70211E-14
 -1      1383 7.35621E-03-6.62741E-04-3.84066E-14
 -1      1384 7.13344E-03-6.19861E-04-3.63615E-14
 -1      1385 7.50302E-03-6.67014E-04-3.98126E-14
 -1      1386 7.64946E-03-6.72196E-04-4.12376E-14
 -1      1387 7.42675E-03-6.26567E-04-3.91279E-14
 -1      1388 7.79535E-03-6.78323E-04-4.26821E-14
 -1      1389 7.94048E-03-6.85251E-04-4.41472E-14
 -1      1390 7.71926E-03-6.37131E-04-4.19734E-14
 -1      1391 8.08458E-03-6.92879E-04-4.56309E-14
 -1      1392 8.22744E-03-7.00912E-04-4.71357E-14
 -1      1393 8.00973E-03-6.51365E-04-4.48964E-14
 -1      1394 8.36878E-03-7.09046E-04-4.86583E-14
 -1      1395 8.50837E-03-7.16803E-04-5.01969E-14
 -1      1396 8.29662E-03-6.68008E-04-4.78976E-14
 -1      1397 8.64601E-03-7.23629E-04-5.17536E-14
 -1      1398 8.78152E-03-7.28864E-04-5.33279E-14
 -1      1399 8.57835E-03-6.84287E-04-5.09720E-14
 -1      1400 8.91479E-03-7.31717E-04-5.49196E-14
 -1      1401 9.04581E-03-7.31405E-04-5.65248E-14
 -1      1402 8.85355E-03-6.95652E-04-5.41149E-14
 -1      1403 9.17462E-03-7.27005E-04-5.81468E-14
 -1      1404 9.30138E-03-7.17731E-04-5.97849E-14
 -1      1405 9.12150E-03-6.95947E-04-5.73225E-14
 -1      1406 9.42636E-03-7.02719E-04-6.14379E-14
 -1      1407 9.54990E-03-6.81348E-04-6.31062E-14
 -1      1408 9.38257E-03-6.78188E-04-6.05920E-14
 -1      1409 9.67245E-03-6.53043E-04-6.47848E-14
 -1      1410 9.79446E-03-6.17506E-04-6.64745E-14
 -1      1411 9.63839E-03-6.35952E-04-6.39187E-14
 -1      1412 9.91648E-03-5.74619E-04-6.81764E-14
 -1      1413 1.00390E-02-5.24491E-04-6.98872E-14
 -1      1414 9.89170E-03-5.64988E-04-6.72945E-14
 -1      1415 1.01625E-02-4.67501E-04-7.16120E-14
 -1      1416 1.02874E-02-4.04131E-04-7.33468E-14
 -1      1417 1.01458E-02-4.64427E-04-7.07174E-14
 -1      1418 1.04141E-02-3.35138E-04-7.50919E-14
 -1      1419 1.05427E-02-2.61248E-04-7.68502E-14
 -1      1420 1.04038E-02-3.37038E-04-7.41860E-14
 -1      1421 1.06736E-02-1.83382E-04-7.86175E-14
 -1      1422 1.08066E-02-1.02336E-04-8.03942E-14
 -1      1423 1.06679E-02-1.88409E-04-7.76971E-14
 -1      1424 1.09417E-02-1.89772E-05-8.21873E-14
 -1      1425 1.10789E-02 6.59775E-05-8.39958E-14
 -1      1426 1.09390E-02-2.54291E-05-8.12559E-14
 -1      1427 1.12179E-02 1.51865E-04-8.58193E-14
 -1      1428 1.13586E-02 2.38136E-04-8.76579E-14
 -1      1429 1.12168E-02 1.45275E-04-8.48715E-14
 -1      1430 1.15007E-02 3.24389E-04-8.95142E-14
 -1      1431 1.16439E-02 4.10266E-04-9.13868E-14
 -1      1432 1.15001E-02 3.18440E-04-8.85502E-14
 -1      1433 1.17879E-02 4.95604E-04-9.32722E-14
 -1      1434 1.19326E-02 5.80223E-04-9.51730E-14
 -1      1435 1.17873E-02 4.90611E-04-9.22900E-14
 -1      1436 1.20777E-02 6.64135E-04-9.70869E-14
 -1      1437 1.22230E-02 7.47293E-04-9.90125E-14
 -1      1438 1.20768E-02 6.60071E-04-9.60856E-14
 -1      1439 1.23683E-02 8.29822E-04-1.00950E-13
 -1      1440 1.25136E-02 9.11762E-04-1.02900E-13
 -1      1441 1.23673E-02 8.26451E-04-9.99324E-14
 -1      1442 1.26586E-02 9.93290E-04-1.04859E-13
 -1      1443 1.28034E-02 1.07450E-03-1.06824E-13
 -1      1444 1.26575E-02 9.90281E-04-1.03826E-13
 -1      1445 1.29479E-02 1.15557E-03-1.08799E-13
 -1      1446 1.30920E-02 1.23661E-03-1.10784E-13
 -1      1447 1.29470E-02 1.15258E-03-1.07756E-13
 -1      1448 1.32358E-02 1.31779E-03-1.12767E-13
 -1      1449 1.33793E-02 1.39920E-03-1.14751E-13
 -1      1450 1.32353E-02 1.31453E-03-1.11712E-13
 -1      1451 1.35226E-02 1.48094E-03-1.16743E-13
 -1      1452 1.36657E-02 1.56305E-03-1.18741E-13
 -1      1453 1.35224E-02 1.47721E-03-1.15685E-13
 -1      1454 1.38812E-02 1.68694E-03-1.21637E-13
 -1      1455 1.38814E-02 1.68271E-03-1.20569E-13
 -1      1456 6.43032E-04 3.72011E-04-6.40357E-17
 -1      1457 4.92918E-04 3.03690E-04-1.35932E-17
 -1      1458 4.44853E-04 2.65897E-04-4.26634E-17
 -1      1459 9.28588E-04 4.71963E-04-2.58081E-16
 -1      1460 7.87740E-04 4.26479E-04-1.45676E-16
 -1      1461 7.44690E-04 3.90712E-04-1.81929E-16
 -1      1462 1.20344E-03 5.41358E-04-5.76809E-16
 -1      1463 1.06680E-03 5.09693E-04-4.01467E-16
 -1      1464 1.03071E-03 4.76135E-04-4.43750E-16
 -1      1465 1.47395E-03 5.90512E-04-1.02067E-15
 -1      1466 1.33892E-03 5.68077E-04-7.82753E-16
 -1      1467 1.30859E-03 5.35927E-04-8.28791E-16
 -1      1468 1.74344E-03 6.25340E-04-1.59062E-15
 -1      1469 1.60865E-03 6.09476E-04-1.28997E-15
 -1      1470 1.58279E-03 5.78162E-04-1.33801E-15
 -1      1471 2.01360E-03 6.49700E-04-2.28826E-15
 -1      1472 1.87835E-03 6.38657E-04-1.92348E-15
 -1      1473 1.85592E-03 6.07808E-04-1.97302E-15
 -1      1474 2.29886E-03 6.67004E-04-3.15953E-15
 -1      1475 2.15599E-03 6.59266E-04-2.70594E-15
 -1      1476 2.13624E-03 6.28658E-04-2.75570E-15
 -1      1477 2.57239E-03 6.77695E-04-4.11872E-15
 -1      1478 2.43539E-03 6.72952E-04-3.62339E-15
 -1      1479 2.41769E-03 6.42438E-04-3.67199E-15
 -1      1480 2.84778E-03 6.84276E-04-5.20459E-15
 -1      1481 2.70986E-03 6.81424E-04-4.64609E-15
 -1      1482 2.69365E-03 6.50920E-04-4.69301E-15
 -1      1483 3.12495E-03 6.87869E-04-6.41403E-15
 -1      1484 2.98615E-03 6.86390E-04-5.79408E-15
 -1      1485 2.97108E-03 6.55848E-04-5.83828E-15
 -1      1486 3.40373E-03 6.89301E-04-7.74196E-15
 -1      1487 3.26415E-03 6.88815E-04-7.06322E-15
 -1      1488 3.24992E-03 6.58209E-04-7.10441E-15
 -1      1489 3.68396E-03 6.89163E-04-9.18808E-15
 -1      1490 3.54368E-03 6.89399E-04-8.45003E-15
 -1      1491 3.53007E-03 6.58720E-04-8.48831E-15
 -1      1492 3.96548E-03 6.87864E-04-1.07555E-14
 -1      1493 3.82457E-03 6.88639E-04-9.95761E-15
 -1      1494 3.81143E-03 6.57882E-04-9.99163E-15
 -1      1495 4.26231E-03 6.85534E-04-1.25236E-14
 -1      1496 4.11374E-03 6.86808E-04-1.16239E-14
 -1      1497 4.10096E-03 6.55972E-04-1.16530E-14
 -1      1498 4.54612E-03 6.82549E-04-1.43154E-14
 -1      1499 4.40408E-03 6.84127E-04-1.34068E-14
 -1      1500 4.39156E-03 6.53213E-04-1.34296E-14
 -1      1501 4.83100E-03 6.78876E-04-1.62081E-14
 -1      1502 4.68842E-03 6.80794E-04-1.52487E-14
 -1      1503 4.67609E-03 6.49800E-04-1.52670E-14
 -1      1504 5.11707E-03 6.74509E-04-1.82048E-14
 -1      1505 4.97388E-03 6.76775E-04-1.71939E-14
 -1      1506 4.96169E-03 6.45693E-04-1.72072E-14
 -1      1507 5.40454E-03 6.69397E-04-2.03054E-14
 -1      1508 5.26062E-03 6.72040E-04-1.92426E-14
 -1      1509 5.24849E-03 6.40851E-04-1.92506E-14
 -1      1510 5.69379E-03 6.63470E-04-2.25030E-14
 -1      1511 5.54892E-03 6.66524E-04-2.13926E-14
 -1      1512 5.53676E-03 6.35195E-04-2.13951E-14
 -1      1513 5.98543E-03 6.56666E-04-2.47949E-14
 -1      1514 5.83927E-03 6.60156E-04-2.36370E-14
 -1      1515 5.82695E-03 6.28632E-04-2.36340E-14
 -1      1516 6.29522E-03 6.48578E-04-2.72918E-14
 -1      1517 6.13980E-03 6.52698E-04-2.60325E-14
 -1      1518 6.12707E-03 6.20885E-04-2.60223E-14
 -1      1519 6.59507E-03 6.40131E-04-2.97500E-14
 -1      1520 6.44447E-03 6.44369E-04-2.85111E-14
 -1      1521 6.43092E-03 6.12128E-04-2.84961E-14
 -1      1522 6.90161E-03 6.31438E-04-3.22916E-14
 -1      1523 6.74737E-03 6.35681E-04-3.10110E-14
 -1      1524 6.73237E-03 6.02818E-04-3.09928E-14
 -1      1525 7.21763E-03 6.23611E-04-3.49062E-14
 -1      1526 7.05824E-03 6.27182E-04-3.35899E-14
 -1      1527 7.04069E-03 5.93395E-04-3.35663E-14
 -1      1528 7.54694E-03 6.19017E-04-3.75876E-14
 -1      1529 7.38035E-03 6.20514E-04-3.62392E-14
 -1      1530 7.35851E-03 5.85348E-04-3.62114E-14
 -1      1531 7.89453E-03 6.22414E-04-4.03392E-14
 -1      1532 7.71808E-03 6.19064E-04-3.89558E-14
 -1      1533 7.68919E-03 5.81838E-04-3.89254E-14
 -1      1534 8.26630E-03 6.42963E-04-4.31477E-14
 -1      1535 8.07694E-03 6.29513E-04-4.17356E-14
 -1      1536 8.03688E-03 5.89214E-04-4.17029E-14
 -1      1537 8.68889E-03 7.01502E-04-4.61656E-14
 -1      1538 8.47303E-03 6.65782E-04-4.46487E-14
 -1      1539 8.41560E-03 6.20792E-04-4.46149E-14
 -1      1540 9.12481E-03 8.21376E-04-4.90949E-14
 -1      1541 8.90280E-03 7.51617E-04-4.76232E-14
 -1      1542 8.82126E-03 6.99778E-04-4.75871E-14
 -1      1543 9.58715E-03 1.04131E-03-5.20839E-14
 -1      1544 9.35381E-03 9.17479E-04-5.05821E-14
 -1      1545 9.24463E-03 8.56820E-04-5.05452E-14
 -1      1546 1.00535E-02 1.38542E-03-5.51425E-14
 -1      1547 9.82256E-03 1.19954E-03-5.36041E-14
 -1      1548 9.69061E-03 1.13021E-03-5.35664E-14
 -1      1549 1.04432E-02 1.77166E-03-5.79596E-14
 -1      1550 1.02543E-02 1.57587E-03-5.65415E-14
 -1      1551 1.01194E-02 1.50476E-03-5.65019E-14
 -1      1552 1.07950E-02 2.13487E-03-6.10174E-14
 -1      1553 1.06265E-02 1.96966E-03-5.94777E-14
 -1      1554 1.05166E-02 1.90960E-03-5.94357E-14
 -1      1555 1.11162E-02 2.28761E-03-6.43361E-14
 -1      1556 1.09570E-02 2.24698E-03-6.26632E-14
 -1      1557 1.08977E-02 2.20719E-03-6.26178E-14
 -1      1558 1.14393E-02 2.16182E-03-6.75748E-14
 -1      1559 1.12715E-02 2.24994E-03-6.59449E-14
 -1      1560 1.12659E-02 2.22102E-03-6.58923E-14
 -1      1561 1.18010E-02 1.91897E-03-7.07266E-14
 -1      1562 1.16136E-02 2.04483E-03-6.91430E-14
 -1      1563 1.16421E-02 2.01168E-03-6.90836E-14
 -1      1564 1.22545E-02 1.67925E-03-7.42755E-14
 -1      1565 1.20239E-02 1.78791E-03-7.24939E-14
 -1      1566 1.20614E-02 1.74631E-03-7.24288E-14
 -1      1567 1.27215E-02 1.55838E-03-7.78752E-14
 -1      1568 1.24888E-02 1.60365E-03-7.60699E-14
 -1      1569 1.25123E-02 1.55672E-03-7.60029E-14
 -1      1570 1.31701E-02 1.55319E-03-8.15186E-14
 -1      1571 1.29493E-02 1.54389E-03-7.96931E-14
 -1      1572 1.29481E-02 1.49547E-03-7.96221E-14
 -1      1573 1.35871E-02 1.62752E-03-8.52098E-14
 -1      1574 1.33828E-02 1.58286E-03-8.33580E-14
 -1      1575 1.33580E-02 1.53500E-03-8.32861E-14
 -1      1576 1.39715E-02 1.74808E-03-8.89431E-14
 -1      1577 1.37832E-02 1.68364E-03-8.70696E-14
 -1      1578 1.37406E-02 1.63718E-03-8.69975E-14
 -1      1579 1.43451E-02 1.90029E-03-9.29217E-14
 -1      1580 1.41617E-02 1.82195E-03-9.09263E-14
 -1      1581 1.41073E-02 1.77718E-03-9.08512E-14
 -1      1582 1.46786E-02 2.05643E-03-9.67517E-14
 -1      1583 1.45142E-02 1.97753E-03-9.48312E-14
 -1      1584 1.44527E-02 1.93438E-03-9.47504E-14
 -1      1585 1.49959E-02 2.21635E-03-1.00628E-13
 -1      1586 1.48390E-02 2.13620E-03-9.86836E-14
 -1      1587 1.47738E-02 2.09444E-03-9.85993E-14
 -1      1588 1.53012E-02 2.37621E-03-1.04530E-13
 -1      1589 1.51498E-02 2.29646E-03-1.02575E-13
 -1      1590 1.50829E-02 2.25587E-03-1.02484E-13
 -1      1591 1.55981E-02 2.53369E-03-1.08465E-13
 -1      1592 1.54505E-02 2.45535E-03-1.06495E-13
 -1      1593 1.53832E-02 2.41572E-03-1.06403E-13
 -1      1594 1.58891E-02 2.68728E-03-1.12423E-13
 -1      1595 1.57442E-02 2.61103E-03-1.10440E-13
 -1      1596 1.56771E-02 2.57218E-03-1.10348E-13
 -1      1597 1.61765E-02 2.83625E-03-1.16403E-13
 -1      1598 1.60331E-02 2.76233E-03-1.14410E-13
 -1      1599 1.59667E-02 2.72410E-03-1.14314E-13
 -1      1600 1.63142E-02 2.90504E-03-1.18610E-13
 -1      1601 1.61575E-02 2.81035E-03-1.19162E-13
 -1      1602 1.62271E-02 2.85180E-03-1.19048E-13
 -1      1603 1.60210E-02 2.72944E-03-1.19388E-13
 -1      1604 1.60888E-02 2.76950E-03-1.19275E-13
 -1      1605 1.59995E-02 2.72720E-03-1.17496E-13
 -1      1606 1.58866E-02 2.65198E-03-1.19598E-13
 -1      1607 1.59537E-02 2.69024E-03-1.19493E-13
 -1      1608 1.58643E-02 2.64738E-03-1.17715E-13
 -1      1609 1.57513E-02 2.57817E-03-1.19802E-13
 -1      1610 1.58192E-02 2.61464E-03-1.19703E-13
 -1      1611 1.57305E-02 2.57077E-03-1.17925E-13
 -1      1612 1.56149E-02 2.50856E-03-1.19973E-13
 -1      1613 1.56837E-02 2.54306E-03-1.19889E-13
 -1      1614 1.55962E-02 2.49780E-03-1.18120E-13
 -1      1615 1.54709E-02 2.43960E-03-1.20136E-13
 -1      1616 1.55436E-02 2.47393E-03-1.20055E-13
 -1      1617 1.54578E-02 2.42707E-03-1.18294E-13
 -1      1618 1.53207E-02 2.37110E-03-1.20301E-13
 -1      1619 1.53965E-02 2.40537E-03-1.20218E-13
 -1      1620 1.53123E-02 2.35693E-03-1.18465E-13
 -1      1621 1.51647E-02 2.30176E-03-1.20475E-13
 -1      1622 1.52434E-02 2.33661E-03-1.20389E-13
 -1      1623 1.51605E-02 2.28678E-03-1.18637E-13
 -1      1624 1.50039E-02 2.23058E-03-1.20641E-13
 -1      1625 1.50848E-02 2.26645E-03-1.20560E-13
 -1      1626 1.50030E-02 2.21558E-03-1.18809E-13
 -1      1627 1.48397E-02 2.15696E-03-1.20812E-13
 -1      1628 1.49222E-02 2.19410E-03-1.20724E-13
 -1      1629 1.48409E-02 2.14256E-03-1.18976E-13
 -1      1630 1.46764E-02 2.08203E-03-1.20997E-13
 -1      1631 1.47582E-02 2.11981E-03-1.20904E-13
 -1      1632 1.46771E-02 2.06798E-03-1.19149E-13
 -1      1633 1.45096E-02 2.00331E-03-1.21188E-13
 -1      1634 1.45931E-02 2.04297E-03-1.21095E-13
 -1      1635 1.45118E-02 1.99115E-03-1.19331E-13
 -1      1636 1.43432E-02 1.92245E-03-1.21360E-13
 -1      1637 1.44263E-02 1.96313E-03-1.21278E-13
 -1      1638 1.43447E-02 1.91156E-03-1.19509E-13
 -1      1639 1.41778E-02 1.83994E-03-1.21531E-13
 -1      1640 1.42603E-02 1.88137E-03-1.21447E-13
 -1      1641 1.41783E-02 1.83019E-03-1.19678E-13
 -1      1642 1.39884E-02 1.74048E-03-1.21093E-13
 -1      1643 1.40703E-02 1.78235E-03-1.21012E-13
 -1      1644 1.39877E-02 1.73166E-03-1.19243E-13
 -1      1645 1.37728E-02 1.61669E-03-1.18202E-13
 -1      1646 1.31480E-02 1.06923E-03-7.31407E-14
 -1      1647 1.31469E-02 1.02151E-03-7.32937E-14
 -1      1648 1.30506E-02 1.18524E-03-7.24710E-14
 -1      1649 1.31106E-02 1.13119E-03-7.27739E-14
 -1      1650 1.28331E-02 1.32936E-03-7.15677E-14
 -1      1651 1.29485E-02 1.25787E-03-7.20242E-14
 -1      1652 1.24847E-02 1.50394E-03-7.04666E-14
 -1      1653 1.26523E-02 1.40911E-03-7.10790E-14
 -1      1654 1.21035E-02 1.73253E-03-6.89071E-14
 -1      1655 1.22880E-02 1.63198E-03-6.95909E-14
 -1      1656 1.16639E-02 1.94347E-03-6.72410E-14
 -1      1657 1.18673E-02 1.84853E-03-6.80427E-14
 -1      1658 1.12275E-02 2.07831E-03-6.54338E-14
 -1      1659 1.14320E-02 2.02959E-03-6.62545E-14
 -1      1660 1.07759E-02 2.07933E-03-6.36238E-14
 -1      1661 1.09864E-02 2.09758E-03-6.44611E-14
 -1      1662 1.03164E-02 1.93271E-03-6.18611E-14
 -1      1663 1.05309E-02 2.01889E-03-6.26544E-14
 -1      1664 9.84858E-03 1.68606E-03-6.03214E-14
 -1      1665 1.00598E-02 1.80710E-03-6.10062E-14
 -1      1666 9.40379E-03 1.41097E-03-5.90056E-14
 -1      1667 9.60644E-03 1.53847E-03-5.95810E-14
 -1      1668 8.98890E-03 1.15257E-03-5.79272E-14
 -1      1669 9.17536E-03 1.26853E-03-5.83952E-14
 -1      1670 8.63793E-03 9.38450E-04-5.71118E-14
 -1      1671 8.79022E-03 1.03103E-03-5.74532E-14
 -1      1672 8.38111E-03 7.53906E-04-5.64115E-14
 -1      1673 8.49157E-03 8.21293E-04-5.66241E-14
 -1      1674 8.24573E-03 6.52460E-04-5.62940E-14
 -1      1675 8.29833E-03 7.02932E-04-5.63500E-14
 -1      1676 8.35614E-03 6.76109E-04-5.57036E-14
 -1      1677 8.23073E-03 5.42146E-04-5.64885E-14
 -1      1678 8.21770E-03 5.87697E-04-5.63880E-14
 -1      1679 8.34850E-03 4.42203E-04-5.69271E-14
 -1      1680 8.27951E-03 4.88779E-04-5.66881E-14
 -1      1681 8.57952E-03 3.25038E-04-5.76796E-14
 -1      1682 8.45873E-03 3.81925E-04-5.72921E-14
 -1      1683 8.90128E-03 1.97878E-04-5.86651E-14
 -1      1684 8.74791E-03 2.62177E-04-5.81466E-14
 -1      1685 9.25990E-03 5.16084E-05-6.00105E-14
 -1      1686 9.08928E-03 1.17096E-04-5.93789E-14
 -1      1687 9.66972E-03-7.93100E-05-6.15813E-14
 -1      1688 9.48244E-03-2.01704E-05-6.08062E-14
 -1      1689 1.00792E-02-1.60257E-04-6.34300E-14
 -1      1690 9.88753E-03-1.31582E-04-6.25802E-14
 -1      1691 1.04823E-02-1.57217E-04-6.52505E-14
 -1      1692 1.02983E-02-1.68279E-04-6.44232E-14
 -1      1693 1.09043E-02-6.83107E-05-6.71142E-14
 -1      1694 1.07047E-02-1.21860E-04-6.62526E-14
 -1      1695 1.13521E-02 9.72077E-05-6.88453E-14
 -1      1696 1.11467E-02 1.38070E-05-6.80668E-14
 -1      1697 1.17902E-02 2.97159E-04-7.03344E-14
 -1      1698 1.15893E-02 2.02620E-04-6.96836E-14
 -1      1699 1.22140E-02 5.16178E-04-7.16588E-14
 -1      1700 1.20143E-02 4.19205E-04-7.11150E-14
 -1      1701 1.26202E-02 6.93845E-04-7.25174E-14
 -1      1702 1.24458E-02 6.10814E-04-7.21293E-14
 -1      1703 1.29222E-02 8.43238E-04-7.30828E-14
 -1      1704 1.27957E-02 7.79503E-04-7.28718E-14
 -1      1705 1.31041E-02 9.60843E-04-7.32644E-14
 -1      1706 1.30364E-02 9.09651E-04-7.32284E-14
 -1      1707 1.23293E-02 1.51910E-03-7.05366E-14
 -1      1708 1.27024E-02 1.31725E-03-7.19101E-14
 -1      1709 1.62483E-02 2.86717E-03-1.18510E-13
 -1      1710 1.60891E-02 2.78312E-03-1.16844E-13
 -1      1711 1.31368E-02 1.08326E-03-7.36642E-14
 -1      1712 1.29879E-02 1.18079E-03-7.28488E-14
 -1      1713 1.31366E-02 1.01397E-03-7.40038E-14
 -1      1714 1.19157E-02 1.77108E-03-6.87875E-14
 -1      1715 1.15025E-02 1.99754E-03-6.69284E-14
 -1      1716 1.10957E-02 2.11966E-03-6.49663E-14
 -1      1717 1.06902E-02 2.07852E-03-6.30249E-14
 -1      1718 1.02689E-02 1.87440E-03-6.12072E-14
 -1      1719 9.81973E-03 1.58050E-03-5.96205E-14
 -1      1720 9.37197E-03 1.27759E-03-5.82790E-14
 -1      1721 8.94873E-03 1.01570E-03-5.72031E-14
 -1      1722 8.59447E-03 7.99852E-04-5.62477E-14
 -1      1723 8.24856E-03 5.30238E-04-5.60208E-14
 -1      1724 8.41364E-03 4.49548E-04-5.65781E-14
 -1      1725 8.69507E-03 3.41001E-04-5.74029E-14
 -1      1726 9.04495E-03 1.97674E-04-5.85741E-14
 -1      1727 9.43212E-03 3.31130E-05-6.00759E-14
 -1      1728 9.81918E-03-1.13696E-04-6.18634E-14
 -1      1729 1.01965E-02-1.89023E-04-6.38518E-14
 -1      1730 1.05713E-02-1.64504E-04-6.58465E-14
 -1      1731 1.09632E-02-3.55147E-05-6.78032E-14
 -1      1732 1.13916E-02 1.70195E-04-6.96000E-14
 -1      1733 1.18277E-02 4.11556E-04-7.12281E-14
 -1      1734 1.22714E-02 6.34478E-04-7.24905E-14
 -1      1735 1.26793E-02 8.05527E-04-7.33236E-14
 -1      1736 1.29762E-02 9.27602E-04-7.38278E-14
 -1      1737 2.85222E-04-1.76233E-04-5.09982E-17
 -1      1738 8.22315E-03 6.04259E-04-5.57334E-14
 -1      1739 3.32190E-04-1.16783E-04-1.65490E-16
 -1      1740 3.36323E-04-1.33027E-04-1.55258E-16
 -1      1741 3.42197E-04-1.52015E-04-1.42789E-16
 -1      1742 3.51745E-04-1.74016E-04-1.25496E-16
 -1      1743 4.58321E-04-1.88081E-04-2.25731E-16
 -1      1744 3.24579E-04-6.53868E-05-1.85615E-16
 -1      1745 3.25713E-04-7.66856E-05-1.82525E-16
 -1      1746 3.23092E-04-4.38932E-05-1.89573E-16
 -1      1747 3.23742E-04-5.43836E-05-1.88001E-16
 -1      1748 4.36531E-04-7.92893E-05-2.75821E-16
 -1      1749 3.22313E-04-2.37740E-05-1.90576E-16
 -1      1750 3.22642E-04-3.36882E-05-1.90399E-16
 -1      1751 4.34541E-04-5.13190E-05-2.80077E-16
 -1      1752 3.22022E-04-4.33806E-06-1.89912E-16
 -1      1753 3.22118E-04-1.39912E-05-1.90508E-16
 -1      1754 4.33527E-04-2.49253E-05-2.81025E-16
 -1      1755 3.22143E-04 1.49816E-05-1.87011E-16
 -1      1756 3.22030E-04 5.31832E-06-1.88624E-16
 -1      1757 4.33232E-04 7.56540E-07-2.79114E-16
 -1      1758 3.22705E-04 3.47323E-05-1.82485E-16
 -1      1759 3.22356E-04 2.47856E-05-1.85087E-16
 -1      1760 4.33585E-04 2.64675E-05-2.74330E-16
 -1      1761 3.23827E-04 5.51710E-05-1.75044E-16
 -1      1762 3.23168E-04 4.48078E-05-1.79368E-16
 -1      1763 4.34655E-04 5.27238E-05-2.66903E-16
 -1      1764 3.25875E-04 7.78234E-05-1.63864E-16
 -1      1765 3.24682E-04 6.62419E-05-1.70138E-16
 -1      1766 4.36699E-04 8.06042E-05-2.55452E-16
 -1      1767 3.29551E-04 1.03662E-04-1.47370E-16
 -1      1768 3.27409E-04 9.03114E-05-1.56708E-16
 -1      1769 4.40334E-04 1.11574E-04-2.38443E-16
 -1      1770 3.36572E-04 1.35118E-04-1.22759E-16
 -1      1771 3.32397E-04 1.18621E-04-1.36555E-16
 -1      1772 4.46787E-04 1.47343E-04-2.13493E-16
 -1      1773 3.52284E-04 1.77608E-04-8.58010E-17
 -1      1774 3.42796E-04 1.54765E-04-1.06469E-16
 -1      1775 4.59302E-04 1.91462E-04-1.76915E-16
 -1      1776 4.07673E-04 2.33687E-04-5.93465E-17
 -1      1777 3.78068E-04 2.02665E-04-7.65582E-17
 -1      1778 4.95829E-04 2.43997E-04-1.43508E-16
 -1      1779 5.58510E-04 3.02501E-04-1.15983E-16
 -1      1780 3.40001E-04-1.90911E-04-9.07613E-17
 -1      1781 8.53510E-04 4.07099E-04-3.21032E-16
 -1      1782 7.07116E-04 3.59367E-04-2.03559E-16
 -1      1783 6.73360E-04 3.28802E-04-2.21326E-16
 -1      1784 8.20591E-03 5.68844E-04-5.50830E-14
 -1      1785 8.23801E-03 5.89017E-04-5.49937E-14
 -1      1786 4.58929E-04-2.36719E-04-1.62996E-16
 -1      1787 8.07182E-04-3.74098E-04-4.39698E-16
 -1      1788 9.52439E-04-4.15270E-04-6.15935E-16
 -1      1789 1.09527E-03-4.49941E-04-8.24576E-16
 -1      1790 1.23693E-03-4.78814E-04-1.06615E-15
 -1      1791 1.00388E-03-3.97880E-04-7.56909E-16
 -1      1792 1.37733E-03-5.03271E-04-1.33980E-15
 -1      1793 1.51701E-03-5.23609E-04-1.64614E-15
 -1      1794 1.28955E-03-4.55799E-04-1.24611E-15
 -1      1795 1.65616E-03-5.40747E-04-1.98418E-15
 -1      1796 1.79500E-03-5.54923E-04-2.35413E-15
 -1      1797 1.57195E-03-4.96678E-04-1.86298E-15
 -1      1798 1.93371E-03-5.66742E-04-2.75555E-15
 -1      1799 2.07236E-03-5.76408E-04-3.18861E-15
 -1      1800 1.85256E-03-5.25124E-04-2.60610E-15
 -1      1801 2.21111E-03-5.84336E-04-3.65325E-15
 -1      1802 2.34995E-03-5.90696E-04-4.14817E-15
 -1      1803 2.13246E-03-5.44464E-04-3.47476E-15
 -1      1804 2.48900E-03-5.95783E-04-4.67360E-15
 -1      1805 2.62822E-03-5.99734E-04-5.23039E-15
 -1      1806 2.41233E-03-5.57141E-04-4.46632E-15
 -1      1807 2.76770E-03-6.02759E-04-5.81710E-15
 -1      1808 2.90740E-03-6.04969E-04-6.43302E-15
 -1      1809 2.69258E-03-5.64971E-04-5.57850E-15
 -1      1810 3.04737E-03-6.06513E-04-7.07933E-15
 -1      1811 3.18756E-03-6.07476E-04-7.75345E-15
 -1      1812 2.97344E-03-5.69307E-04-6.81020E-15
 -1      1813 3.32802E-03-6.07963E-04-8.45617E-15
 -1      1814 3.46871E-03-6.08040E-04-9.18772E-15
 -1      1815 3.25499E-03-5.71147E-04-8.15778E-15
 -1      1816 3.60965E-03-6.07777E-04-9.94684E-15
 -1      1817 3.75080E-03-6.07222E-04-1.07342E-14
 -1      1818 3.53726E-03-5.71217E-04-9.61842E-15
 -1      1819 3.89218E-03-6.06424E-04-1.15489E-14
 -1      1820 4.03376E-03-6.05416E-04-1.23907E-14
 -1      1821 3.82025E-03-5.70029E-04-1.11902E-14
 -1      1822 4.17557E-03-6.04230E-04-1.32595E-14
 -1      1823 4.31757E-03-6.02891E-04-1.41543E-14
 -1      1824 4.10393E-03-5.67940E-04-1.28713E-14
 -1      1825 4.45977E-03-6.01417E-04-1.50744E-14
 -1      1826 4.60217E-03-5.99830E-04-1.60196E-14
 -1      1827 4.38828E-03-5.65190E-04-1.46577E-14
 -1      1828 4.74477E-03-5.98142E-04-1.69916E-14
 -1      1829 4.88758E-03-5.96371E-04-1.79868E-14
 -1      1830 4.67329E-03-5.61944E-04-1.65470E-14
 -1      1831 5.03058E-03-5.94530E-04-1.90061E-14
 -1      1832 5.17381E-03-5.92638E-04-2.00491E-14
 -1      1833 4.95898E-03-5.58326E-04-1.85350E-14
 -1      1834 5.31724E-03-5.90713E-04-2.11156E-14
 -1      1835 5.46091E-03-5.88780E-04-2.22068E-14
 -1      1836 5.24537E-03-5.54458E-04-2.06192E-14
 -1      1837 5.60481E-03-5.86867E-04-2.33206E-14
 -1      1838 5.74896E-03-5.85006E-04-2.44561E-14
 -1      1839 5.53254E-03-5.50493E-04-2.27976E-14
 -1      1840 5.89336E-03-5.83245E-04-2.56150E-14
 -1      1841 6.03803E-03-5.81625E-04-2.67971E-14
 -1      1842 5.82055E-03-5.46656E-04-2.50670E-14
 -1      1843 6.18296E-03-5.80218E-04-2.80024E-14
 -1      1844 6.32817E-03-5.79074E-04-2.92309E-14
 -1      1845 6.10949E-03-5.43276E-04-2.74293E-14
 -1      1846 6.47365E-03-5.78294E-04-3.04818E-14
 -1      1847 6.61938E-03-5.77939E-04-3.17544E-14
 -1      1848 6.39945E-03-5.40825E-04-2.98816E-14
 -1      1849 6.76537E-03-5.78132E-04-3.30496E-14
 -1      1850 6.91155E-03-5.78941E-04-3.43667E-14
 -1      1851 6.69045E-03-5.39924E-04-3.24234E-14
 -1      1852 7.05795E-03-5.80500E-04-3.57057E-14
 -1      1853 7.20443E-03-5.82872E-04-3.70653E-14
 -1      1854 6.98247E-03-5.41333E-04-3.50532E-14
 -1      1855 7.35102E-03-5.86178E-04-3.84465E-14
 -1      1856 7.49752E-03-5.90449E-04-3.98466E-14
 -1      1857 7.27536E-03-5.45870E-04-3.77672E-14
 -1      1858 7.64397E-03-5.95753E-04-4.12670E-14
 -1      1859 7.79007E-03-6.02054E-04-4.27059E-14
 -1      1860 7.56877E-03-5.54249E-04-4.05629E-14
 -1      1861 7.93588E-03-6.09302E-04-4.41650E-14
 -1      1862 8.08103E-03-6.17349E-04-4.56436E-14
 -1      1863 7.86211E-03-5.66794E-04-4.34360E-14
 -1      1864 8.22557E-03-6.25954E-04-4.71413E-14
 -1      1865 8.36909E-03-6.34805E-04-4.86577E-14
 -1      1866 8.15449E-03-5.83022E-04-4.63880E-14
 -1      1867 8.51164E-03-6.43407E-04-5.01919E-14
 -1      1868 8.65286E-03-6.51247E-04-5.17427E-14
 -1      1869 8.44472E-03-6.01139E-04-4.94140E-14
 -1      1870 8.79276E-03-6.57559E-04-5.33119E-14
 -1      1871 8.93113E-03-6.61637E-04-5.48977E-14
 -1      1872 8.73143E-03-6.17570E-04-5.25123E-14
 -1      1873 9.06795E-03-6.62506E-04-5.65000E-14
 -1      1874 9.20329E-03-6.59347E-04-5.81168E-14
 -1      1875 9.01339E-03-6.26772E-04-5.56778E-14
 -1      1876 9.33709E-03-6.51138E-04-5.97465E-14
 -1      1877 9.46974E-03-6.37115E-04-6.13937E-14
 -1      1878 9.28993E-03-6.21618E-04-5.89054E-14
 -1      1879 9.60117E-03-6.16447E-04-6.30547E-14
 -1      1880 9.73207E-03-5.88620E-04-6.47276E-14
 -1      1881 9.56145E-03-5.94551E-04-6.21931E-14
 -1      1882 9.86235E-03-5.53234E-04-6.64153E-14
 -1      1883 9.99287E-03-5.10182E-04-6.81133E-14
 -1      1884 9.82960E-03-5.39386E-04-6.55360E-14
 -1      1885 1.01235E-02-4.59615E-04-6.98240E-14
 -1      1886 1.02551E-02-4.01868E-04-7.15462E-14
 -1      1887 1.00970E-02-4.53108E-04-6.89316E-14
 -1      1888 1.03875E-02-3.37596E-04-7.32789E-14
 -1      1889 1.05214E-02-2.67468E-04-7.50234E-14
 -1      1890 1.03665E-02-3.36844E-04-7.23737E-14
 -1      1891 1.06565E-02-1.92447E-04-7.67780E-14
 -1      1892 1.07932E-02-1.13346E-04-7.85449E-14
 -1      1893 1.06403E-02-1.95484E-04-7.58612E-14
 -1      1894 1.09313E-02-3.11862E-05-8.03249E-14
 -1      1895 1.10709E-02 5.32691E-05-8.21181E-14
 -1      1896 1.09193E-02-3.61690E-05-7.93944E-14
 -1      1897 1.12118E-02 1.39148E-04-8.39271E-14
 -1      1898 1.13538E-02 2.25854E-04-8.57494E-14
 -1      1899 1.12033E-02 1.33620E-04-8.29809E-14
 -1      1900 1.14969E-02 3.12778E-04-8.75876E-14
 -1      1901 1.16407E-02 3.99534E-04-8.94405E-14
 -1      1902 1.14912E-02 3.07574E-04-8.66268E-14
 -1      1903 1.17853E-02 4.85789E-04-9.13088E-14
 -1      1904 1.19302E-02 5.71348E-04-9.31923E-14
 -1      1905 1.17816E-02 4.81306E-04-9.03307E-14
 -1      1906 1.20755E-02 6.56113E-04-9.50879E-14
 -1      1907 1.22208E-02 7.40031E-04-9.69979E-14
 -1      1908 1.20732E-02 6.52404E-04-9.40938E-14
 -1      1909 1.23663E-02 8.23166E-04-9.89209E-14
 -1      1910 1.25116E-02 9.05558E-04-1.00854E-13
 -1      1911 1.23650E-02 8.20068E-04-9.79087E-14
 -1      1912 1.26568E-02 9.87366E-04-1.02797E-13
 -1      1913 1.28018E-02 1.06868E-03-1.04751E-13
 -1      1914 1.26562E-02 9.84605E-04-1.01772E-13
 -1      1915 1.29465E-02 1.14970E-03-1.06715E-13
 -1      1916 1.30910E-02 1.23053E-03-1.08685E-13
 -1      1917 1.29464E-02 1.14696E-03-1.05675E-13
 -1      1918 1.32351E-02 1.31137E-03-1.10663E-13
 -1      1919 1.33790E-02 1.39233E-03-1.12643E-13
 -1      1920 1.32354E-02 1.30836E-03-1.09613E-13
 -1      1921 1.35044E-02 1.46342E-03-1.14422E-13
 -1      1922 1.36478E-02 1.54496E-03-1.16412E-13
 -1      1923 1.37552E-02 1.60244E-03-1.16932E-13
 -1      1924 1.35049E-02 1.45991E-03-1.13366E-13
 -1      1925 1.13854E-03 4.80033E-04-6.45886E-16
 -1      1926 9.96780E-04 4.46799E-04-4.67765E-16
 -1      1927 9.64409E-04 4.17348E-04-4.88189E-16
 -1      1928 1.41763E-03 5.31466E-04-1.09312E-15
 -1      1929 1.27849E-03 5.08044E-04-8.54040E-16
 -1      1930 1.24887E-03 4.79913E-04-8.75276E-16
 -1      1931 1.69398E-03 5.67687E-04-1.66470E-15
 -1      1932 1.55596E-03 5.51234E-04-1.36352E-15
 -1      1933 1.52911E-03 5.24068E-04-1.38489E-15
 -1      1934 1.96952E-03 5.92866E-04-2.36150E-15
 -1      1935 1.83176E-03 5.81487E-04-1.99721E-15
 -1      1936 1.80734E-03 5.54961E-04-2.01782E-15
 -1      1937 2.25915E-03 6.10632E-04-3.22950E-15
 -1      1938 2.11425E-03 6.02719E-04-2.77802E-15
 -1      1939 2.09188E-03 5.76609E-04-2.79643E-15
 -1      1940 2.53584E-03 6.21530E-04-4.18380E-15
 -1      1941 2.39737E-03 6.16720E-04-3.69095E-15
 -1      1942 2.37665E-03 5.90861E-04-3.70644E-15
 -1      1943 2.81365E-03 6.28174E-04-5.26364E-15
 -1      1944 2.67460E-03 6.25316E-04-4.70853E-15
 -1      1945 2.65516E-03 5.99598E-04-4.72018E-15
 -1      1946 3.09263E-03 6.31744E-04-6.46483E-15
 -1      1947 2.95300E-03 6.30293E-04-5.84876E-15
 -1      1948 2.93455E-03 6.04647E-04-5.85683E-15
 -1      1949 3.37278E-03 6.33102E-04-7.78574E-15
 -1      1950 3.23257E-03 6.32663E-04-7.11086E-15
 -1      1951 3.21489E-03 6.07045E-04-7.11383E-15
 -1      1952 3.65403E-03 6.32866E-04-9.22416E-15
 -1      1953 3.51328E-03 6.33158E-04-8.49050E-15
 -1      1954 3.49619E-03 6.07542E-04-8.48902E-15
 -1      1955 3.93630E-03 6.31456E-04-1.07810E-14
 -1      1956 3.79505E-03 6.32291E-04-9.98804E-15
 -1      1957 3.77840E-03 6.06661E-04-9.98168E-15
 -1      1958 4.23372E-03 6.29008E-04-1.25349E-14
 -1      1959 4.08488E-03 6.30345E-04-1.16426E-14
 -1      1960 4.06857E-03 6.04692E-04-1.16295E-14
 -1      1961 4.51792E-03 6.25905E-04-1.43161E-14
 -1      1962 4.37570E-03 6.27545E-04-1.34125E-14
 -1      1963 4.35962E-03 6.01866E-04-1.33936E-14
 -1      1964 4.80307E-03 6.22105E-04-1.61988E-14
 -1      1965 4.66037E-03 6.24090E-04-1.52446E-14
 -1      1966 4.64443E-03 5.98384E-04-1.52194E-14
 -1      1967 5.08926E-03 6.17588E-04-1.81849E-14
 -1      1968 4.94603E-03 6.19935E-04-1.71794E-14
 -1      1969 4.93012E-03 5.94199E-04-1.71486E-14
 -1      1970 5.37667E-03 6.12286E-04-2.02734E-14
 -1      1971 5.23280E-03 6.15034E-04-1.92165E-14
 -1      1972 5.21683E-03 5.89263E-04-1.91795E-14
 -1      1973 5.66561E-03 6.06100E-04-2.24588E-14
 -1      1974 5.52093E-03 6.09300E-04-2.13540E-14
 -1      1975 5.50476E-03 5.83484E-04-2.13114E-14
 -1      1976 5.95654E-03 5.98927E-04-2.47372E-14
 -1      1977 5.81079E-03 6.02627E-04-2.35870E-14
 -1      1978 5.79421E-03 5.76748E-04-2.35380E-14
 -1      1979 6.26489E-03 5.90265E-04-2.72226E-14
 -1      1980 6.11029E-03 5.94717E-04-2.59687E-14
 -1      1981 6.09296E-03 5.68743E-04-2.59133E-14
 -1      1982 6.56229E-03 5.80996E-04-2.96729E-14
 -1      1983 6.41304E-03 5.85712E-04-2.84377E-14
 -1      1984 6.39446E-03 5.59591E-04-2.83761E-14
 -1      1985 6.86464E-03 5.71072E-04-3.22032E-14
 -1      1986 6.71271E-03 5.76037E-04-3.09277E-14
 -1      1987 6.69214E-03 5.49692E-04-3.08617E-14
 -1      1988 7.17373E-03 5.61392E-04-3.48088E-14
 -1      1989 7.01815E-03 5.66058E-04-3.34973E-14
 -1      1990 6.99445E-03 5.39357E-04-3.34256E-14
 -1      1991 7.49183E-03 5.53985E-04-3.74844E-14
 -1      1992 7.33138E-03 5.57148E-04-3.61384E-14
 -1      1993 7.30280E-03 5.29857E-04-3.60628E-14
 -1      1994 7.82178E-03 5.53062E-04-4.02281E-14
 -1      1995 7.65496E-03 5.52261E-04-3.88483E-14
 -1      1996 7.61897E-03 5.23949E-04-3.87693E-14
 -1      1997 8.16694E-03 5.66895E-04-4.30328E-14
 -1      1998 7.99203E-03 5.57355E-04-4.16225E-14
 -1      1999 7.94513E-03 5.27180E-04-4.15407E-14
 -1      2000 8.54988E-03 6.14176E-04-4.60452E-14
 -1      2001 8.35532E-03 5.84844E-04-4.45311E-14
 -1      2002 8.29277E-03 5.51053E-04-4.44467E-14
 -1      2003 8.93862E-03 7.17627E-04-4.89720E-14
 -1      2004 8.74119E-03 6.56651E-04-4.75021E-14
 -1      2005 8.65857E-03 6.16029E-04-4.74146E-14
 -1      2006 9.35541E-03 9.16058E-04-5.19575E-14
 -1      2007 9.14429E-03 8.02563E-04-5.04568E-14
 -1      2008 9.04067E-03 7.50526E-04-5.03676E-14
 -1      2009 9.80098E-03 1.24285E-03-5.50114E-14
 -1      2010 9.57710E-03 1.06278E-03-5.34755E-14
 -1      2011 9.45840E-03 9.95751E-04-5.33825E-14
 -1      2012 1.02135E-02 1.63483E-03-5.78233E-14
 -1      2013 1.00087E-02 1.43195E-03-5.64088E-14
 -1      2014 9.89182E-03 1.35567E-03-5.63126E-14
 -1      2015 1.06335E-02 2.03616E-03-6.08757E-14
 -1      2016 1.04261E-02 1.84922E-03-5.93390E-14
 -1      2017 1.03301E-02 1.78237E-03-5.92382E-14
 -1      2018 1.10462E-02 2.23047E-03-6.41814E-14
 -1      2019 1.08381E-02 2.17203E-03-6.25161E-14
 -1      2020 1.07798E-02 2.13382E-03-6.24114E-14
 -1      2021 1.14438E-02 2.10805E-03-6.74103E-14
 -1      2022 1.12393E-02 2.19829E-03-6.57866E-14
 -1      2023 1.12172E-02 2.17755E-03-6.56751E-14
 -1      2024 1.18469E-02 1.85002E-03-7.05454E-14
 -1      2025 1.16431E-02 1.98440E-03-6.89683E-14
 -1      2026 1.16437E-02 1.95681E-03-6.88538E-14
 -1      2027 1.23048E-02 1.59720E-03-7.40869E-14
 -1      2028 1.20794E-02 1.71183E-03-7.23086E-14
 -1      2029 1.20948E-02 1.67363E-03-7.21877E-14
 -1      2030 1.27405E-02 1.47134E-03-7.76808E-14
 -1      2031 1.25274E-02 1.51861E-03-7.58788E-14
 -1      2032 1.25444E-02 1.47818E-03-7.57546E-14
 -1      2033 1.31466E-02 1.46547E-03-8.13206E-14
 -1      2034 1.29477E-02 1.45620E-03-7.94967E-14
 -1      2035 1.29526E-02 1.41712E-03-7.93691E-14
 -1      2036 1.35258E-02 1.54095E-03-8.50087E-14
 -1      2037 1.33394E-02 1.49549E-03-8.31585E-14
 -1      2038 1.33273E-02 1.45747E-03-8.30286E-14
 -1      2039 1.38825E-02 1.66352E-03-8.87362E-14
 -1      2040 1.37067E-02 1.59793E-03-8.68661E-14
 -1      2041 1.36788E-02 1.56032E-03-8.67349E-14
 -1      2042 1.42374E-02 1.81815E-03-9.27074E-14
 -1      2043 1.40621E-02 1.73851E-03-9.07173E-14
 -1      2044 1.40219E-02 1.70116E-03-9.05825E-14
 -1      2045 1.45604E-02 1.97652E-03-9.65307E-14
 -1      2046 1.44004E-02 1.89647E-03-9.46139E-14
 -1      2047 1.43518E-02 1.85948E-03-9.44752E-14
 -1      2048 1.48719E-02 2.13848E-03-1.00394E-13
 -1      2049 1.47173E-02 2.05731E-03-9.84559E-14
 -1      2050 1.46635E-02 2.02077E-03-9.83151E-14
 -1      2051 1.51747E-02 2.30011E-03-1.04292E-13
 -1      2052 1.50242E-02 2.21949E-03-1.02339E-13
 -1      2053 1.49674E-02 2.18346E-03-1.02192E-13
 -1      2054 1.54709E-02 2.45914E-03-1.08223E-13
 -1      2055 1.53234E-02 2.38004E-03-1.06255E-13
 -1      2056 1.52651E-02 2.34458E-03-1.06106E-13
 -1      2057 1.57624E-02 2.61408E-03-1.12176E-13
 -1      2058 1.56171E-02 2.53717E-03-1.10197E-13
 -1      2059 1.55581E-02 2.50229E-03-1.10047E-13
 -1      2060 1.59981E-02 2.73666E-03-1.15504E-13
 -1      2061 1.58542E-02 2.66188E-03-1.13514E-13
 -1      2062 1.57949E-02 2.62751E-03-1.13363E-13
 -1      2063 1.59775E-02 2.72186E-03-1.16041E-13
 -1      2064 1.55747E-02 2.48818E-03-1.16257E-13
 -1      2065 1.56415E-02 2.52576E-03-1.16153E-13
 -1      2066 1.57080E-02 2.56410E-03-1.16046E-13
 -1      2067 1.57747E-02 2.60319E-03-1.15939E-13
 -1      2068 1.55520E-02 2.47986E-03-1.14382E-13
 -1      2069 1.58414E-02 2.64179E-03-1.16047E-13
 -1      2070 1.59094E-02 2.68225E-03-1.15935E-13
 -1      2071 1.58183E-02 2.63520E-03-1.14597E-13
 -1      2072 1.56843E-02 2.55696E-03-1.14382E-13
 -1      2073 1.54412E-02 2.41612E-03-1.16446E-13
 -1      2074 1.55084E-02 2.45190E-03-1.16353E-13
 -1      2075 1.54203E-02 2.40534E-03-1.14588E-13
 -1      2076 1.53004E-02 2.34454E-03-1.16625E-13
 -1      2077 1.53715E-02 2.38021E-03-1.16536E-13
 -1      2078 1.52851E-02 2.33311E-03-1.14777E-13
 -1      2079 1.51534E-02 2.27359E-03-1.16798E-13
 -1      2080 1.52277E-02 2.30909E-03-1.16712E-13
 -1      2081 1.51430E-02 2.26151E-03-1.14955E-13
 -1      2082 1.49999E-02 2.20220E-03-1.16972E-13
 -1      2083 1.50774E-02 2.23804E-03-1.16884E-13
 -1      2084 1.49941E-02 2.19000E-03-1.15130E-13
 -1      2085 1.48407E-02 2.12949E-03-1.17144E-13
 -1      2086 1.49209E-02 2.16607E-03-1.17058E-13
 -1      2087 1.48388E-02 2.11758E-03-1.15305E-13
 -1      2088 1.46773E-02 2.05491E-03-1.17313E-13
 -1      2089 1.47595E-02 2.09246E-03-1.17229E-13
 -1      2090 1.46780E-02 2.04354E-03-1.15479E-13
 -1      2091 1.45141E-02 1.97956E-03-1.17485E-13
 -1      2092 1.45960E-02 2.01749E-03-1.17397E-13
 -1      2093 1.45147E-02 1.96818E-03-1.15648E-13
 -1      2094 1.43469E-02 1.90089E-03-1.17662E-13
 -1      2095 1.44306E-02 1.94046E-03-1.17573E-13
 -1      2096 1.43493E-02 1.89083E-03-1.15817E-13
 -1      2097 1.41796E-02 1.82042E-03-1.17829E-13
 -1      2098 1.42632E-02 1.86085E-03-1.17746E-13
 -1      2099 1.41816E-02 1.81101E-03-1.15986E-13
 -1      2100 1.40132E-02 1.73847E-03-1.17994E-13
 -1      2101 1.40962E-02 1.77960E-03-1.17913E-13
 -1      2102 1.40143E-02 1.72964E-03-1.16150E-13
 -1      2103 1.29233E-02 1.17837E-03-7.33135E-14
 -1      2104 1.30311E-02 1.13272E-03-7.37618E-14
 -1      2105 1.31583E-02 1.04577E-03-7.50462E-14
 -1      2106 1.31150E-02 1.02799E-03-7.50180E-14
 -1      2107 1.31133E-02 1.09189E-03-7.43462E-14
 -1      2108 1.31570E-02 1.07048E-03-7.47161E-14
 -1      2109 1.26142E-02 1.31696E-03-7.23232E-14
 -1      2110 1.27819E-02 1.24183E-03-7.28165E-14
 -1      2111 1.28554E-02 1.19244E-03-7.37284E-14
 -1      2112 8.31285E-03 6.19269E-04-5.50199E-14
 -1      2113 8.39908E-03 6.44523E-04-5.50798E-14
 -1      2114 8.47839E-03 4.53469E-04-5.61096E-14
 -1      2115 8.36566E-03 4.89979E-04-5.57518E-14
 -1      2116 1.21747E-02 1.56552E-03-7.05884E-14
 -1      2117 1.23647E-02 1.44677E-03-7.14721E-14
 -1      2118 3.27136E-04-8.89908E-05-1.78351E-16
 -1      2119 3.29244E-04-1.02135E-04-1.72646E-16
 -1      2120 4.46318E-04-1.45109E-04-2.51752E-16
 -1      2121 4.40004E-04-1.09949E-04-2.66890E-16
 -1      2122 1.13736E-02 2.06199E-03-6.65596E-14
 -1      2123 1.15533E-02 1.96370E-03-6.75514E-14
 -1      2124 1.10278E-02 2.15144E-03-6.46019E-14
 -1      2125 1.11975E-02 2.12326E-03-6.55760E-14
 -1      2126 1.12895E-02 2.10699E-03-6.61909E-14
 -1      2127 1.06450E-02 2.06604E-03-6.24470E-14
 -1      2128 1.08166E-02 2.13205E-03-6.34130E-14
 -1      2129 1.02355E-02 1.79741E-03-6.03948E-14
 -1      2130 1.04248E-02 1.93589E-03-6.12419E-14
 -1      2131 9.83361E-03 1.49745E-03-5.89303E-14
 -1      2132 1.00380E-02 1.65504E-03-5.96621E-14
 -1      2133 1.01955E-02 1.72568E-03-5.96947E-14
 -1      2134 9.33101E-03 1.15600E-03-5.75004E-14
 -1      2135 9.54321E-03 1.30015E-03-5.81028E-14
 -1      2136 8.90506E-03 8.93908E-04-5.63443E-14
 -1      2137 9.10098E-03 1.00322E-03-5.68104E-14
 -1      2138 8.56644E-03 7.11221E-04-5.53754E-14
 -1      2139 8.72429E-03 7.93660E-04-5.58579E-14
 -1      2140 8.84655E-03 7.99407E-04-5.54658E-14
 -1      2141 8.27226E-03 5.24027E-04-5.54299E-14
 -1      2142 8.22197E-03 5.43952E-04-5.52378E-14
 -1      2143 8.78242E-03 3.46742E-04-5.69363E-14
 -1      2144 8.62441E-03 4.04207E-04-5.64774E-14
 -1      2145 9.17226E-03 1.78186E-04-5.83802E-14
 -1      2146 8.99861E-03 2.58553E-04-5.76748E-14
 -1      2147 9.53317E-03 9.67065E-06-5.99496E-14
 -1      2148 9.35296E-03 9.48075E-05-5.91625E-14
 -1      2149 9.26554E-03 1.42614E-04-5.82553E-14
 -1      2150 9.93856E-03-1.56148E-04-6.21846E-14
 -1      2151 9.76876E-03-9.13973E-05-6.11903E-14
 -1      2152 1.02813E-02-2.16463E-04-6.43019E-14
 -1      2153 1.01274E-02-2.00501E-04-6.33117E-14
 -1      2154 1.06181E-02-1.61604E-04-6.64095E-14
 -1      2155 1.04603E-02-2.01086E-04-6.54072E-14
 -1      2156 1.10041E-02 1.29790E-05-6.86158E-14
 -1      2157 1.08240E-02-8.04677E-05-6.76578E-14
 -1      2158 1.14173E-02 2.52620E-04-7.04991E-14
 -1      2159 1.12217E-02 1.33750E-04-6.96527E-14
 -1      2160 1.18554E-02 5.08063E-04-7.21366E-14
 -1      2161 1.16474E-02 3.82539E-04-7.13464E-14
 -1      2162 1.23450E-02 7.51001E-04-7.35419E-14
 -1      2163 1.21284E-02 6.56878E-04-7.30612E-14
 -1      2164 1.27198E-02 8.91344E-04-7.42584E-14
 -1      2165 1.25401E-02 8.25601E-04-7.38990E-14
 -1      2166 1.24155E-02 8.28880E-04-7.44718E-14
 -1      2167 1.30265E-02 9.87885E-04-7.46700E-14
 -1      2168 1.29096E-02 9.53478E-04-7.45219E-14
 -1      2169 1.17959E-02 1.81302E-03-6.88382E-14
 -1      2170 1.19872E-02 1.68599E-03-6.97125E-14
 -1      2171 1.20704E-02 1.61785E-03-7.06409E-14
 -1      2172 8.26108E-03 5.74385E-04-5.43689E-14
 -1      2173 1.24818E-02 1.36790E-03-7.23720E-14
 -1      2174 1.25936E-02 1.30596E-03-7.32786E-14
 -1      2175 1.23696E-02 1.42923E-03-7.24228E-14
 -1      2176 8.20434E-03 5.44449E-04-5.44945E-14
 -1      2177 6.07845E-04-2.98125E-04-2.65752E-16
 -1      2178 6.63570E-04-2.92409E-04-3.57963E-16
 -1      2179 1.30774E-02 1.10586E-03-7.48120E-14
 -1      2180 1.31712E-02 1.06846E-03-7.57302E-14
 -1      2181 1.39052E-02 1.68139E-03-1.17477E-13
 -1      2182 8.49394E-03 6.48565E-04-5.46893E-14
 -1      2183 1.30748E-02 1.03778E-03-7.57133E-14
 -1      2184 1.16720E-02 1.89289E-03-6.84653E-14
 -1      2185 1.28008E-02 9.55855E-04-7.50980E-14
 -1      2186 1.19671E-02 6.15300E-04-7.31793E-14
 -1      2187 1.14839E-02 3.36527E-04-7.13995E-14
 -1      2188 8.31245E-03 5.08590E-04-5.49652E-14
 -1      2189 1.10730E-02 8.17552E-05-6.95063E-14
 -1      2190 1.06962E-02-1.26821E-04-6.72145E-14
 -1      2191 1.03530E-02-2.21198E-04-6.48612E-14
 -1      2192 9.65259E-03-4.44694E-05-6.02666E-14
 -1      2193 8.89041E-03 3.11103E-04-5.67440E-14
 -1      2194 9.74872E-03 1.38416E-03-5.81418E-14
 -1      2195 8.54731E-03 4.38818E-04-5.56482E-14
 -1      2196 1.09443E-02 2.16393E-03-6.40150E-14
 -1      2197 1.05634E-02 2.01192E-03-6.16213E-14
 -1      2198 9.24810E-03 1.03681E-03-5.66342E-14
 -1      2199 1.00367E-02-1.90930E-04-6.26308E-14
 -1      2200 1.01653E-03 3.99783E-04-6.25951E-16
 -1      2201 8.72078E-04 3.63413E-04-4.56463E-16
 -1      2202 5.47822E-04-5.53065E-05-3.98336E-16
 -1      2203 5.48855E-04-7.20236E-05-3.96737E-16
 -1      2204 5.50271E-04-8.93460E-05-3.93918E-16
 -1      2205 5.52136E-04-1.07324E-04-3.89730E-16
 -1      2206 6.65327E-04-9.54973E-05-5.35840E-16
 -1      2207 5.46446E-04 8.85619E-06-3.94772E-16
 -1      2208 5.46426E-04-6.98327E-06-3.97238E-16
 -1      2209 5.47198E-04 4.08714E-05-3.87318E-16
 -1      2210 5.46700E-04 2.47948E-05-3.91533E-16
 -1      2211 6.61392E-04 1.99303E-05-5.32628E-16
 -1      2212 5.49018E-04 7.34968E-05-3.76177E-16
 -1      2213 5.47959E-04 5.70027E-05-3.82452E-16
 -1      2214 6.62714E-04 5.77894E-05-5.21908E-16
 -1      2215 5.52401E-04 1.08973E-04-3.58925E-16
 -1      2216 5.50482E-04 9.08962E-05-3.68317E-16
 -1      2217 6.65567E-04 9.72609E-05-5.05387E-16
 -1      2218 5.58268E-04 1.48309E-04-3.34178E-16
 -1      2219 5.54956E-04 1.28084E-04-3.47799E-16
 -1      2220 6.70646E-04 1.40034E-04-4.81386E-16
 -1      2221 5.68579E-04 1.93906E-04-2.98345E-16
 -1      2222 5.62749E-04 1.70189E-04-3.17969E-16
 -1      2223 6.79278E-04 1.87579E-04-4.47098E-16
 -1      2224 9.15143E-04-3.46355E-04-6.87235E-16
 -1      2225 1.05924E-03-3.79650E-04-9.03547E-16
 -1      2226 1.30198E-03 4.56680E-04-1.05455E-15
 -1      2227 1.15966E-03 4.30763E-04-8.25132E-16
 -1      2228 1.07173E-03 3.81298E-04-7.70637E-16
 -1      2229 5.88488E-04-2.37979E-04-3.29760E-16
 -1      2230 7.81278E-04-3.04819E-04-5.23941E-16
 -1      2231 8.40721E-04-2.93588E-04-6.39178E-16
 -1      2232 5.78963E-04-2.10183E-04-3.49303E-16
 -1      2233 1.20249E-03-4.08019E-04-1.15129E-15
 -1      2234 1.34529E-03-4.31865E-04-1.43075E-15
 -1      2235 1.11694E-03-3.60458E-04-1.05574E-15
 -1      2236 1.48746E-03-4.52048E-04-1.74150E-15
 -1      2237 1.62923E-03-4.68842E-04-2.08381E-15
 -1      2238 1.40326E-03-4.07175E-04-1.62001E-15
 -1      2239 1.77065E-03-4.82920E-04-2.45710E-15
 -1      2240 1.91182E-03-4.94496E-04-2.86164E-15
 -1      2241 1.68838E-03-4.40324E-04-2.30812E-15
 -1      2242 2.05285E-03-5.04063E-04-3.29661E-15
 -1      2243 2.19377E-03-5.11793E-04-3.76301E-15
 -1      2244 1.97257E-03-4.63243E-04-3.11982E-15
 -1      2245 2.33467E-03-5.18048E-04-4.25926E-15
 -1      2246 2.47556E-03-5.22966E-04-4.78534E-15
 -1      2247 2.25621E-03-4.78563E-04-4.05273E-15
 -1      2248 2.61652E-03-5.26810E-04-5.34162E-15
 -1      2249 2.75752E-03-5.29693E-04-5.92731E-15
 -1      2250 2.53963E-03-4.88306E-04-5.10605E-15
 -1      2251 2.89864E-03-5.31801E-04-6.54243E-15
 -1      2252 3.03985E-03-5.33224E-04-7.18715E-15
 -1      2253 2.82307E-03-4.94003E-04-6.27684E-15
 -1      2254 3.18119E-03-5.34094E-04-7.85994E-15
 -1      2255 3.32264E-03-5.34480E-04-8.56147E-15
 -1      2256 3.10669E-03-4.96801E-04-7.56357E-15
 -1      2257 3.46422E-03-5.34475E-04-9.29098E-15
 -1      2258 3.60593E-03-5.34127E-04-1.00484E-14
 -1      2259 3.39056E-03-4.97541E-04-8.96517E-15
 -1      2260 3.74777E-03-5.33501E-04-1.08338E-14
 -1      2261 3.88973E-03-5.32632E-04-1.16461E-14
 -1      2262 3.67475E-03-4.96825E-04-1.04788E-14
 -1      2263 4.03182E-03-5.31560E-04-1.24851E-14
 -1      2264 4.17404E-03-5.30312E-04-1.33510E-14
 -1      2265 3.95927E-03-4.95073E-04-1.21012E-14
 -1      2266 4.31639E-03-5.28914E-04-1.42435E-14
 -1      2267 4.45887E-03-5.27383E-04-1.51606E-14
 -1      2268 4.24413E-03-4.92570E-04-1.38301E-14
 -1      2269 4.60147E-03-5.25737E-04-1.61038E-14
 -1      2270 4.74421E-03-5.23990E-04-1.70728E-14
 -1      2271 4.52935E-03-4.89501E-04-1.56637E-14
 -1      2272 4.88709E-03-5.22156E-04-1.80661E-14
 -1      2273 5.03010E-03-5.20247E-04-1.90826E-14
 -1      2274 4.81494E-03-4.85996E-04-1.75975E-14
 -1      2275 5.17326E-03-5.18280E-04-2.01233E-14
 -1      2276 5.31659E-03-5.16272E-04-2.11884E-14
 -1      2277 5.10096E-03-4.82158E-04-1.96299E-14
 -1      2278 5.46007E-03-5.14244E-04-2.22757E-14
 -1      2279 5.60373E-03-5.12221E-04-2.33874E-14
 -1      2280 5.38745E-03-4.78098E-04-2.17565E-14
 -1      2281 5.74758E-03-5.10239E-04-2.45221E-14
 -1      2282 5.89164E-03-5.08331E-04-2.56788E-14
 -1      2283 5.67451E-03-4.73976E-04-2.39767E-14
 -1      2284 6.03591E-03-5.06553E-04-2.68569E-14
 -1      2285 6.18041E-03-5.04951E-04-2.80593E-14
 -1      2286 5.96224E-03-4.70034E-04-2.62882E-14
 -1      2287 6.32517E-03-5.03604E-04-2.92856E-14
 -1      2288 6.47018E-03-5.02576E-04-3.05316E-14
 -1      2289 6.25082E-03-4.66635E-04-2.86901E-14
 -1      2290 6.61548E-03-5.01967E-04-3.18008E-14
 -1      2291 6.76106E-03-5.01859E-04-3.30919E-14
 -1      2292 6.54043E-03-4.64292E-04-3.11803E-14
 -1      2293 6.90695E-03-5.02369E-04-3.44040E-14
 -1      2294 7.05312E-03-5.03589E-04-3.57372E-14
 -1      2295 6.83128E-03-4.63680E-04-3.37578E-14
 -1      2296 7.19962E-03-5.05640E-04-3.70925E-14
 -1      2297 7.34636E-03-5.08610E-04-3.84676E-14
 -1      2298 7.12361E-03-4.65616E-04-3.64203E-14
 -1      2299 7.49341E-03-5.12591E-04-3.98623E-14
 -1      2300 7.64060E-03-5.17641E-04-4.12773E-14
 -1      2301 7.41758E-03-4.70974E-04-3.91653E-14
 -1      2302 7.78803E-03-5.23774E-04-4.27108E-14
 -1      2303 7.93543E-03-5.30969E-04-4.41651E-14
 -1      2304 7.71319E-03-4.80498E-04-4.19894E-14
 -1      2305 8.08289E-03-5.39102E-04-4.56370E-14
 -1      2306 8.23006E-03-5.48004E-04-4.71295E-14
 -1      2307 8.01018E-03-4.94478E-04-4.48901E-14
 -1      2308 8.37700E-03-5.57341E-04-4.86409E-14
 -1      2309 8.52331E-03-5.66721E-04-5.01691E-14
 -1      2310 8.30781E-03-5.12256E-04-4.78700E-14
 -1      2311 8.66899E-03-5.75548E-04-5.17159E-14
 -1      2312 8.81371E-03-5.83153E-04-5.32791E-14
 -1      2313 8.60479E-03-5.31607E-04-5.09225E-14
 -1      2314 8.95737E-03-5.88681E-04-5.48579E-14
 -1      2315 9.09982E-03-5.91207E-04-5.64547E-14
 -1      2316 8.89939E-03-5.48146E-04-5.40426E-14
 -1      2317 9.24092E-03-5.89715E-04-5.80673E-14
 -1      2318 9.38081E-03-5.83160E-04-5.96925E-14
 -1      2319 9.18983E-03-5.55133E-04-5.72278E-14
 -1      2320 9.51936E-03-5.70566E-04-6.13345E-14
 -1      2321 9.65708E-03-5.51047E-04-6.29905E-14
 -1      2322 9.47511E-03-5.44082E-04-6.04779E-14
 -1      2323 9.79386E-03-5.23937E-04-6.46604E-14
 -1      2324 9.93049E-03-4.88792E-04-6.63434E-14
 -1      2325 9.75573E-03-5.06525E-04-6.37854E-14
 -1      2326 1.00669E-02-4.45479E-04-6.80389E-14
 -1      2327 1.02039E-02-3.94159E-04-6.97475E-14
 -1      2328 1.00340E-02-4.36549E-04-6.71480E-14
 -1      2329 1.03414E-02-3.35273E-04-7.14678E-14
 -1      2330 1.04801E-02-2.69530E-04-7.31999E-14
 -1      2331 1.03130E-02-3.32920E-04-7.05620E-14
 -1      2332 1.06198E-02-1.97794E-04-7.49425E-14
 -1      2333 1.07609E-02-1.21072E-04-7.66973E-14
 -1      2334 1.05959E-02-1.99552E-04-7.40253E-14
 -1      2335 1.09033E-02-4.03894E-05-7.84640E-14
 -1      2336 1.10468E-02 4.32505E-05-8.02436E-14
 -1      2337 1.08837E-02-4.40353E-05-7.75347E-14
 -1      2338 1.11914E-02 1.28907E-04-8.20376E-14
 -1      2339 1.13367E-02 2.15785E-04-8.38446E-14
 -1      2340 1.11763E-02 1.24893E-04-8.10947E-14
 -1      2341 1.14829E-02 3.03178E-04-8.56675E-14
 -1      2342 1.16293E-02 3.90578E-04-8.75024E-14
 -1      2343 1.14720E-02 2.99576E-04-8.47090E-14
 -1      2344 1.17762E-02 4.77553E-04-8.93541E-14
 -1      2345 1.19231E-02 5.63856E-04-9.12200E-14
 -1      2346 1.17690E-02 4.74595E-04-8.83794E-14
 -1      2347 1.20701E-02 6.49301E-04-9.30994E-14
 -1      2348 1.22168E-02 7.33831E-04-9.49934E-14
 -1      2349 1.20657E-02 6.46909E-04-9.21081E-14
 -1      2350 1.23634E-02 8.17443E-04-9.68983E-14
 -1      2351 1.25097E-02 9.00197E-04-9.88182E-14
 -1      2352 1.23612E-02 8.15403E-04-9.58914E-14
 -1      2353 1.26556E-02 9.82202E-04-1.00749E-13
 -1      2354 1.28012E-02 1.06358E-03-1.02687E-13
 -1      2355 1.26549E-02 9.80250E-04-9.97236E-14
 -1      2356 1.29465E-02 1.14449E-03-1.04637E-13
 -1      2357 1.30914E-02 1.22508E-03-1.06597E-13
 -1      2358 1.29467E-02 1.14236E-03-1.03601E-13
 -1      2359 1.32359E-02 1.30553E-03-1.08564E-13
 -1      2360 1.33801E-02 1.38599E-03-1.10536E-13
 -1      2361 1.32367E-02 1.30297E-03-1.07516E-13
 -1      2362 1.86510E-03 5.24995E-04-2.27710E-15
 -1      2363 1.72488E-03 5.12311E-04-1.92541E-15
 -1      2364 2.15916E-03 5.44874E-04-3.11638E-15
 -1      2365 2.01218E-03 5.36011E-04-2.67923E-15
 -1      2366 1.93152E-03 4.94864E-04-2.56028E-15
 -1      2367 2.43922E-03 5.57145E-04-4.04229E-15
 -1      2368 2.29917E-03 5.51713E-04-3.56429E-15
 -1      2369 2.22066E-03 5.12104E-04-3.41964E-15
 -1      2370 2.71966E-03 5.64718E-04-5.09233E-15
 -1      2371 2.57938E-03 5.61440E-04-4.55205E-15
 -1      2372 2.50260E-03 5.22901E-04-4.38247E-15
 -1      2373 3.00068E-03 5.68901E-04-6.26265E-15
 -1      2374 2.86010E-03 5.67173E-04-5.66256E-15
 -1      2375 2.78472E-03 5.29392E-04-5.46701E-15
 -1      2376 3.28239E-03 5.70655E-04-7.55266E-15
 -1      2377 3.14146E-03 5.70037E-04-6.89265E-15
 -1      2378 3.06720E-03 5.32786E-04-6.67122E-15
 -1      2379 3.56481E-03 5.70671E-04-8.95987E-15
 -1      2380 3.42352E-03 5.70848E-04-8.24147E-15
 -1      2381 3.35013E-03 5.33966E-04-7.99363E-15
 -1      2382 3.84792E-03 5.69423E-04-1.04834E-14
 -1      2383 3.70628E-03 5.70182E-04-9.70747E-15
 -1      2384 3.63355E-03 5.33561E-04-9.43303E-15
 -1      2385 4.14594E-03 5.67088E-04-1.22028E-14
 -1      2386 3.99684E-03 5.68370E-04-1.13277E-14
 -1      2387 3.92458E-03 5.31948E-04-1.10260E-14
 -1      2388 4.43046E-03 5.64071E-04-1.39513E-14
 -1      2389 4.28812E-03 5.65667E-04-1.30640E-14
 -1      2390 4.21615E-03 5.29406E-04-1.27354E-14
 -1      2391 4.71569E-03 5.60351E-04-1.58043E-14
 -1      2392 4.57299E-03 5.62294E-04-1.48655E-14
 -1      2393 4.50115E-03 5.26181E-04-1.45112E-14
 -1      2394 5.00168E-03 5.55922E-04-1.77585E-14
 -1      2395 4.85858E-03 5.58223E-04-1.67681E-14
 -1      2396 4.78669E-03 5.22266E-04-1.63895E-14
 -1      2397 5.28855E-03 5.50718E-04-1.98147E-14
 -1      2398 5.14499E-03 5.53416E-04-1.87741E-14
 -1      2399 5.07284E-03 5.17640E-04-1.83693E-14
 -1      2400 5.57645E-03 5.44636E-04-2.19695E-14
 -1      2401 5.43235E-03 5.47786E-04-2.08807E-14
 -1      2402 5.35966E-03 5.12226E-04-2.04505E-14
 -1      2403 5.86563E-03 5.37561E-04-2.42175E-14
 -1      2404 5.72085E-03 5.41220E-04-2.30816E-14
 -1      2405 5.64727E-03 5.05924E-04-2.26273E-14
 -1      2406 6.17100E-03 5.28965E-04-2.66725E-14
 -1      2407 6.01804E-03 5.33404E-04-2.54334E-14
 -1      2408 5.94302E-03 4.98434E-04-2.49549E-14
 -1      2409 6.46391E-03 5.19663E-04-2.90974E-14
 -1      2410 6.31713E-03 5.24432E-04-2.78749E-14
 -1      2411 6.23988E-03 4.89843E-04-2.73744E-14
 -1      2412 6.75937E-03 5.09493E-04-3.16008E-14
 -1      2413 6.61122E-03 5.14650E-04-3.03389E-14
 -1      2414 6.53072E-03 4.80467E-04-2.98165E-14
 -1      2415 7.05798E-03 4.99113E-04-3.41828E-14
 -1      2416 6.90814E-03 5.04259E-04-3.28818E-14
 -1      2417 6.82285E-03 4.70445E-04-3.23398E-14
 -1      2418 7.36040E-03 4.90045E-04-3.68381E-14
 -1      2419 7.20852E-03 4.94283E-04-3.55025E-14
 -1      2420 7.11623E-03 4.60630E-04-3.49407E-14
 -1      2421 7.66738E-03 4.85442E-04-3.95614E-14
 -1      2422 7.51306E-03 4.86937E-04-3.81910E-14
 -1      2423 7.41067E-03 4.52829E-04-3.76140E-14
 -1      2424 7.97997E-03 4.91399E-04-4.23495E-14
 -1      2425 7.82263E-03 4.86629E-04-4.09479E-14
 -1      2426 7.70588E-03 4.50541E-04-4.03546E-14
 -1      2427 8.31667E-03 5.21374E-04-4.53443E-14
 -1      2428 8.14674E-03 5.02301E-04-4.38376E-14
 -1      2429 8.00936E-03 4.60614E-04-4.32299E-14
 -1      2430 8.65117E-03 5.92679E-04-4.82569E-14
 -1      2431 8.48158E-03 5.49921E-04-4.67935E-14
 -1      2432 8.31591E-03 4.95199E-04-4.61719E-14
 -1      2433 9.01234E-03 7.37392E-04-5.12253E-14
 -1      2434 8.82774E-03 6.52536E-04-4.97344E-14
 -1      2435 8.62582E-03 5.71749E-04-4.90999E-14
 -1      2436 9.42180E-03 9.98220E-04-5.42586E-14
 -1      2437 9.21107E-03 8.48631E-04-5.27325E-14
 -1      2438 8.96568E-03 7.22457E-04-5.20846E-14
 -1      2439 1.04686E-02 1.92481E-03-6.06002E-14
 -1      2440 1.02321E-02 1.71099E-03-5.90689E-14
 -1      2441 1.12920E-02 2.13125E-03-6.62490E-14
 -1      2442 1.10575E-02 2.18672E-03-6.46409E-14
 -1      2443 1.23824E-02 1.46496E-03-7.36480E-14
 -1      2444 1.21539E-02 1.58699E-03-7.18751E-14
 -1      2445 1.27929E-02 1.34843E-03-7.72345E-14
 -1      2446 1.25979E-02 1.39225E-03-7.54369E-14
 -1      2447 1.26861E-02 1.29561E-03-7.51127E-14
 -1      2448 1.31482E-02 1.35242E-03-8.08665E-14
 -1      2449 1.29760E-02 1.33991E-03-7.90447E-14
 -1      2450 1.30228E-02 1.26194E-03-7.87188E-14
 -1      2451 1.34740E-02 1.43163E-03-8.45463E-14
 -1      2452 1.33134E-02 1.38510E-03-8.27010E-14
 -1      2453 1.33169E-02 1.31875E-03-8.23671E-14
 -1      2454 1.37863E-02 1.55458E-03-8.82664E-14
 -1      2455 1.36310E-02 1.48897E-03-8.64016E-14
 -1      2456 1.35972E-02 1.42544E-03-8.60599E-14
 -1      2457 1.41072E-02 1.70871E-03-9.22271E-14
 -1      2458 1.39472E-02 1.62920E-03-9.02404E-14
 -1      2459 1.38838E-02 1.56440E-03-8.98974E-14
 -1      2460 1.44085E-02 1.86695E-03-9.60409E-14
 -1      2461 1.42581E-02 1.78683E-03-9.41288E-14
 -1      2462 1.41735E-02 1.71975E-03-9.37790E-14
 -1      2463 1.47062E-02 2.02930E-03-9.98889E-14
 -1      2464 1.45576E-02 1.94782E-03-9.79595E-14
 -1      2465 1.44588E-02 1.87891E-03-9.76025E-14
 -1      2466 1.50008E-02 2.19180E-03-1.03777E-13
 -1      2467 1.48538E-02 2.11066E-03-1.01829E-13
 -1      2468 1.47456E-02 2.04065E-03-1.01464E-13
 -1      2469 1.52926E-02 2.35208E-03-1.07701E-13
 -1      2470 1.51470E-02 2.27230E-03-1.05735E-13
 -1      2471 1.50329E-02 2.20191E-03-1.05365E-13
 -1      2472 1.57269E-02 2.58756E-03-1.13258E-13
 -1      2473 1.51292E-02 2.24973E-03-1.13107E-13
 -1      2474 1.51985E-02 2.28569E-03-1.13016E-13
 -1      2475 1.49855E-02 2.17827E-03-1.13287E-13
 -1      2476 1.50582E-02 2.21402E-03-1.13200E-13
 -1      2477 1.49735E-02 2.16638E-03-1.11444E-13
 -1      2478 1.53966E-02 2.39493E-03-1.12718E-13
 -1      2479 1.54621E-02 2.43313E-03-1.12611E-13
 -1      2480 1.52657E-02 2.32165E-03-1.12920E-13
 -1      2481 1.53313E-02 2.35783E-03-1.12820E-13
 -1      2482 1.52425E-02 2.30996E-03-1.11056E-13
 -1      2483 1.51111E-02 2.23750E-03-1.11253E-13
 -1      2484 1.48346E-02 2.10633E-03-1.13466E-13
 -1      2485 1.49109E-02 2.14245E-03-1.13378E-13
 -1      2486 1.48279E-02 2.09514E-03-1.11626E-13
 -1      2487 1.46773E-02 2.03299E-03-1.13643E-13
 -1      2488 1.47567E-02 2.06990E-03-1.13553E-13
 -1      2489 1.46748E-02 2.02281E-03-1.11804E-13
 -1      2490 1.45148E-02 1.95770E-03-1.13813E-13
 -1      2491 1.45966E-02 1.99562E-03-1.13725E-13
 -1      2492 1.45153E-02 1.94854E-03-1.11976E-13
 -1      2493 1.43517E-02 1.88163E-03-1.13977E-13
 -1      2494 1.44335E-02 1.91992E-03-1.13896E-13
 -1      2495 1.43524E-02 1.87263E-03-1.12143E-13
 -1      2496 1.41840E-02 1.80231E-03-1.14147E-13
 -1      2497 1.42680E-02 1.84220E-03-1.14064E-13
 -1      2498 1.41867E-02 1.79452E-03-1.12309E-13
 -1      2499 1.40160E-02 1.72133E-03-1.14312E-13
 -1      2500 1.41000E-02 1.76200E-03-1.14231E-13
 -1      2501 1.40184E-02 1.71385E-03-1.12476E-13
 -1      2502 1.38487E-02 1.63907E-03-1.14471E-13
 -1      2503 1.39322E-02 1.68033E-03-1.14390E-13
 -1      2504 1.38501E-02 1.63172E-03-1.12638E-13
 -1      2505 1.31773E-02 1.08744E-03-7.65179E-14
 -1      2506 1.31797E-02 1.08459E-03-7.68501E-14
 -1      2507 8.41760E-03 5.89292E-04-5.38282E-14
 -1      2508 8.57813E-03 6.40080E-04-5.41208E-14
 -1      2509 1.58438E-03 4.96933E-04-1.60474E-15
 -1      2510 1.44345E-03 4.78649E-04-1.31441E-15
 -1      2511 1.64175E-03 4.69057E-04-1.82985E-15
 -1      2512 1.37803E-02 1.60996E-03-1.15690E-13
 -1      2513 1.28080E-02 1.20776E-03-7.43810E-14
 -1      2514 1.29343E-02 1.15932E-03-7.48814E-14
 -1      2515 1.20509E-02 7.09790E-04-7.44592E-14
 -1      2516 1.18014E-02 5.72268E-04-7.35239E-14
 -1      2517 8.20408E-03 5.22097E-04-5.37098E-14
 -1      2518 8.19110E-03 5.26390E-04-5.35597E-14
 -1      2519 8.96844E-03 2.70838E-04-5.64030E-14
 -1      2520 8.77853E-03 3.49943E-04-5.56746E-14
 -1      2521 1.31065E-02 1.06654E-03-7.67269E-14
 -1      2522 1.30140E-02 1.04578E-03-7.63770E-14
 -1      2523 1.30404E-02 1.12305E-03-7.54668E-14
 -1      2524 1.31218E-02 1.10409E-03-7.60548E-14
 -1      2525 1.30114E-02 1.14879E-03-7.61244E-14
 -1      2526 1.14327E-02 2.05938E-03-6.72401E-14
 -1      2527 8.58734E-03 4.19892E-04-5.50070E-14
 -1      2528 8.45997E-03 4.59460E-04-5.46472E-14
 -1      2529 8.22247E-03 5.37693E-04-5.34901E-14
 -1      2530 8.28802E-03 5.49006E-04-5.35176E-14
 -1      2531 5.46639E-04-2.29049E-05-3.98526E-16
 -1      2532 5.47094E-04-3.89473E-05-3.98851E-16
 -1      2533 6.62564E-04-5.58211E-05-5.39919E-16
 -1      2534 6.61339E-04-1.77086E-05-5.38672E-16
 -1      2535 9.18239E-03 9.39026E-04-5.57183E-14
 -1      2536 9.39682E-03 1.07894E-03-5.63999E-14
 -1      2537 1.00728E-02 1.56917E-03-5.83476E-14
 -1      2538 1.00928E-02-2.18477E-04-6.29888E-14
 -1      2539 9.94432E-03-1.75894E-04-6.18652E-14
 -1      2540 8.78914E-03 7.24208E-04-5.45287E-14
 -1      2541 8.96160E-03 8.08700E-04-5.50087E-14
 -1      2542 1.11288E-02 1.55073E-04-7.05645E-14
 -1      2543 1.09519E-02 3.69458E-05-6.95192E-14
 -1      2544 1.08931E-02 2.17205E-03-6.34518E-14
 -1      2545 1.06489E-02 2.06289E-03-6.17982E-14
 -1      2546 1.28696E-02 1.00919E-03-7.61079E-14
 -1      2547 1.26866E-02 9.61390E-04-7.58391E-14
 -1      2548 1.29296E-02 1.04817E-03-7.71204E-14
 -1      2549 9.62431E-03 1.22756E-03-5.69643E-14
 -1      2550 9.87137E-03 1.41809E-03-5.77785E-14
 -1      2551 9.92613E-03 1.41557E-03-5.71626E-14
 -1      2552 9.52490E-03 1.12316E-03-5.60414E-14
 -1      2553 9.33684E-03 9.74762E-05-5.81123E-14
 -1      2554 9.18074E-03 1.74340E-04-5.73390E-14
 -1      2555 9.74883E-03-1.00302E-04-6.05363E-14
 -1      2556 9.54945E-03-4.31892E-06-5.93035E-14
 -1      2557 1.04178E-02-2.16531E-04-6.55476E-14
 -1      2558 1.02790E-02-2.32580E-04-6.44422E-14
 -1      2559 1.07469E-02-8.63574E-05-6.80412E-14
 -1      2560 1.05824E-02-1.67515E-04-6.67892E-14
 -1      2561 1.04874E-02-1.93259E-04-6.63643E-14
 -1      2562 8.35156E-03 4.90202E-04-5.43333E-14
 -1      2563 8.26453E-03 5.07845E-04-5.40186E-14
 -1      2564 8.38131E-03 4.62355E-04-5.36989E-14
 -1      2565 1.15596E-02 4.26207E-04-7.24783E-14
 -1      2566 1.13616E-02 2.99574E-04-7.16222E-14
 -1      2567 1.25076E-02 9.01707E-04-7.55148E-14
 -1      2568 1.23301E-02 8.34403E-04-7.51516E-14
 -1      2569 7.57842E-04 3.34216E-04-3.35926E-16
 -1      2570 6.11437E-04 2.84862E-04-2.20012E-16
 -1      2571 5.84721E-04 2.58095E-04-2.29688E-16
 -1      2572 8.13676E-04 3.22886E-04-4.43574E-16
 -1      2573 9.04070E-03 2.16773E-04-5.62611E-14
 -1      2574 6.70262E-04-1.37970E-04-5.25499E-16
 -1      2575 5.54618E-04-1.26229E-04-3.84079E-16
 -1      2576 5.57780E-04-1.46216E-04-3.76449E-16
 -1      2577 1.36011E-02 1.51035E-03-1.13651E-13
 -1      2578 1.37518E-02 1.58912E-03-1.14193E-13
 -1      2579 1.36692E-02 1.54025E-03-1.12437E-13
 -1      2580 1.34757E-02 1.43963E-03-1.11875E-13
 -1      2581 5.72232E-04 2.27901E-04-2.59301E-16
 -1      2582 5.71830E-04-1.85208E-04-3.64373E-16
 -1      2583 1.15581E-02 1.99297E-03-6.81599E-14
 -1      2584 1.15762E-02 1.96278E-03-6.80985E-14
 -1      2585 6.89517E-04 2.51249E-04-3.79972E-16
 -1      2586 9.81957E-03-1.46380E-04-6.08888E-14
 -1      2587 9.51800E-03 1.08012E-03-5.52043E-14
 -1      2588 9.23413E-03 9.06368E-04-5.45387E-14
 -1      2589 1.26086E-02 9.59686E-04-7.65233E-14
 -1      2590 9.71168E-03 1.21639E-03-5.57583E-14
 -1      2591 1.17769E-02 1.85191E-03-6.97235E-14
 -1      2592 1.56337E-02 2.53392E-03-1.12827E-13
 -1      2593 1.56090E-02 2.52512E-03-1.11597E-13
 -1      2594 1.54643E-02 2.44747E-03-1.09620E-13
 -1      2595 1.55674E-02 2.49488E-03-1.12721E-13
 -1      2596 1.53459E-02 2.37680E-03-1.09245E-13
 -1      2597 1.54110E-02 2.40833E-03-1.11062E-13
 -1      2598 8.34107E-03 5.42858E-04-5.29512E-14
 -1      2599 1.32044E-02 1.11225E-03-7.83091E-14
 -1      2600 1.31640E-02 1.09211E-03-7.75196E-14
 -1      2601 1.31328E-02 1.10222E-03-7.81843E-14
 -1      2602 1.31727E-02 1.10890E-03-7.71753E-14
 -1      2603 8.67325E-03 6.51806E-04-5.36659E-14
 -1      2604 1.35774E-03 4.32651E-04-1.24031E-15
 -1      2605 1.21714E-02 7.85831E-04-7.54978E-14
 -1      2606 1.08283E-02-2.45021E-05-6.90870E-14
 -1      2607 1.27114E-02 1.26016E-03-7.44304E-14
 -1      2608 1.16775E-02 5.23099E-04-7.37480E-14
 -1      2609 1.12273E-02 2.37743E-04-7.16351E-14
 -1      2610 8.18830E-03 5.08922E-04-5.27096E-14
 -1      2611 8.21557E-03 4.98151E-04-5.30829E-14
 -1      2612 8.65904E-03 3.74408E-04-5.46696E-14
 -1      2613 1.17899E-02 1.81508E-03-6.93938E-14
 -1      2614 1.34767E-02 1.43653E-03-1.10819E-13
 -1      2615 9.43935E-03 2.69071E-05-5.83759E-14
 -1      2616 1.01688E-02-2.34784E-04-6.36681E-14
 -1      2617 9.09236E-03 8.51800E-04-5.47751E-14
 -1      2618 9.50279E-03-3.51890E-05-5.84932E-14
 -1      2619 9.31785E-03 5.34010E-05-5.73108E-14
 -1      2620 7.80257E-04 7.73369E-05-6.76949E-16
 -1      2621 7.79001E-04 5.54735E-05-6.85256E-16
 -1      2622 7.78158E-04 3.35597E-05-6.91938E-16
 -1      2623 7.77737E-04 1.18941E-05-6.97318E-16
 -1      2624 8.96580E-04 4.96777E-05-8.72254E-16
 -1      2625 7.91568E-04 1.73141E-04-6.21831E-16
 -1      2626 7.87573E-04 1.47724E-04-6.39408E-16
 -1      2627 8.03402E-04 2.28338E-04-5.76850E-16
 -1      2628 7.96795E-04 1.99948E-04-6.01488E-16
 -1      2629 9.14867E-04 2.07830E-04-7.79934E-16
 -1      2630 9.87623E-03-1.87390E-04-6.12798E-14
 -1      2631 9.70708E-03-1.20555E-04-5.99565E-14
 -1      2632 1.03366E-03-3.14214E-04-9.60061E-16
 -1      2633 1.17690E-03-3.40315E-04-1.21375E-15
 -1      2634 1.12977E-03 3.61928E-04-9.22968E-16
 -1      2635 9.86175E-04 3.32879E-04-7.12849E-16
 -1      2636 1.52425E-02 2.31455E-03-1.09141E-13
 -1      2637 2.56682E-03 4.88111E-04-4.72623E-15
 -1      2638 2.42507E-03 4.83992E-04-4.21172E-15
 -1      2639 8.03062E-04 2.78243E-04-5.04561E-16
 -1      2640 1.32011E-03-3.62706E-04-1.49837E-15
 -1      2641 1.46333E-03-3.81652E-04-1.81382E-15
 -1      2642 1.23838E-03-3.19038E-04-1.37744E-15
 -1      2643 1.60637E-03-3.97693E-04-2.15966E-15
 -1      2644 1.74930E-03-4.11052E-04-2.53644E-15
 -1      2645 1.52496E-03-3.55310E-04-2.01220E-15
 -1      2646 1.89208E-03-4.22197E-04-2.94350E-15
 -1      2647 2.03473E-03-4.31316E-04-3.38047E-15
 -1      2648 1.81165E-03-3.81114E-04-2.76816E-15
 -1      2649 2.17728E-03-4.38781E-04-3.84813E-15
 -1      2650 2.31975E-03-4.44745E-04-4.34527E-15
 -1      2651 2.09811E-03-3.98823E-04-3.64460E-15
 -1      2652 2.46217E-03-4.49492E-04-4.87170E-15
 -1      2653 2.60454E-03-4.53144E-04-5.42791E-15
 -1      2654 2.38429E-03-4.10444E-04-4.63925E-15
 -1      2655 2.74690E-03-4.55914E-04-6.01324E-15
 -1      2656 2.88924E-03-4.57897E-04-6.62719E-15
 -1      2657 2.67024E-03-4.17577E-04-5.75133E-15
 -1      2658 3.03161E-03-4.59249E-04-7.27012E-15
 -1      2659 3.17397E-03-4.60041E-04-7.94154E-15
 -1      2660 2.95603E-03-4.21459E-04-6.97889E-15
 -1      2661 3.31638E-03-4.60386E-04-8.64161E-15
 -1      2662 3.45880E-03-4.60335E-04-9.36996E-15
 -1      2663 3.24172E-03-4.23017E-04-8.32040E-15
 -1      2664 3.60126E-03-4.59968E-04-1.01256E-14
 -1      2665 3.74376E-03-4.59321E-04-1.09094E-14
 -1      2666 3.52735E-03-4.22927E-04-9.77526E-15
 -1      2667 3.88630E-03-4.58447E-04-1.17192E-14
 -1      2668 4.02889E-03-4.57371E-04-1.25556E-14
 -1      2669 3.81297E-03-4.21670E-04-1.13390E-14
 -1      2670 4.17152E-03-4.56127E-04-1.34194E-14
 -1      2671 4.31420E-03-4.54733E-04-1.43091E-14
 -1      2672 4.09861E-03-4.19570E-04-1.30108E-14
 -1      2673 4.45694E-03-4.53210E-04-1.52245E-14
 -1      2674 4.59973E-03-4.51570E-04-1.61650E-14
 -1      2675 4.38429E-03-4.16842E-04-1.47875E-14
 -1      2676 4.74259E-03-4.49827E-04-1.71311E-14
 -1      2677 4.88550E-03-4.47990E-04-1.81223E-14
 -1      2678 4.67004E-03-4.13623E-04-1.66670E-14
 -1      2679 5.02849E-03-4.46073E-04-1.91370E-14
 -1      2680 5.17156E-03-4.44086E-04-2.01757E-14
 -1      2681 4.95590E-03-4.10001E-04-1.86455E-14
 -1      2682 5.31472E-03-4.42044E-04-2.12383E-14
 -1      2683 5.45798E-03-4.39962E-04-2.23240E-14
 -1      2684 5.24192E-03-4.06056E-04-2.07214E-14
 -1      2685 5.60136E-03-4.37864E-04-2.34333E-14
 -1      2686 5.74488E-03-4.35774E-04-2.45663E-14
 -1      2687 5.52819E-03-4.01880E-04-2.28920E-14
 -1      2688 5.88854E-03-4.33728E-04-2.57208E-14
 -1      2689 6.03239E-03-4.31764E-04-2.68970E-14
 -1      2690 5.81485E-03-3.97621E-04-2.51533E-14
 -1      2691 6.17645E-03-4.29936E-04-2.80962E-14
 -1      2692 6.32074E-03-4.28300E-04-2.93193E-14
 -1      2693 6.10208E-03-3.93512E-04-2.75065E-14
 -1      2694 6.46532E-03-4.26928E-04-3.05639E-14
 -1      2695 6.61021E-03-4.25900E-04-3.18284E-14
 -1      2696 6.39019E-03-3.89914E-04-2.99473E-14
 -1      2697 6.75548E-03-4.25308E-04-3.31154E-14
 -1      2698 6.90114E-03-4.25258E-04-3.44225E-14
 -1      2699 6.67954E-03-3.87346E-04-3.24748E-14
 -1      2700 7.04730E-03-4.25851E-04-3.57514E-14
 -1      2701 7.19393E-03-4.27217E-04-3.71011E-14
 -1      2702 6.97066E-03-3.86509E-04-3.50862E-14
 -1      2703 7.34117E-03-4.29451E-04-3.84711E-14
 -1      2704 7.48895E-03-4.32694E-04-3.98606E-14
 -1      2705 7.26412E-03-3.88282E-04-3.77796E-14
 -1      2706 7.63741E-03-4.37005E-04-4.12702E-14
 -1      2707 7.78640E-03-4.42497E-04-4.26995E-14
 -1      2708 7.56051E-03-3.93652E-04-4.05547E-14
 -1      2709 7.93607E-03-4.49148E-04-4.41475E-14
 -1      2710 8.08615E-03-4.56977E-04-4.56152E-14
 -1      2711 7.86027E-03-4.03541E-04-4.34079E-14
 -1      2712 8.23675E-03-4.65816E-04-4.71016E-14
 -1      2713 8.38747E-03-4.75484E-04-4.86077E-14
 -1      2714 8.16336E-03-4.18445E-04-4.63385E-14
 -1      2715 8.53833E-03-4.85601E-04-5.01330E-14
 -1      2716 8.68885E-03-4.95646E-04-5.16735E-14
 -1      2717 8.46898E-03-4.37808E-04-4.93448E-14
 -1      2718 8.83893E-03-5.04972E-04-5.32298E-14
 -1      2719 8.98814E-03-5.12632E-04-5.48035E-14
 -1      2720 8.77528E-03-4.59128E-04-5.24213E-14
 -1      2721 9.13627E-03-5.17704E-04-5.63938E-14
 -1      2722 9.28312E-03-5.18882E-04-5.80004E-14
 -1      2723 9.07956E-03-4.77008E-04-5.55628E-14
 -1      2724 9.42848E-03-5.15088E-04-5.96233E-14
 -1      2725 9.57256E-03-5.04908E-04-6.12591E-14
 -1      2726 9.37905E-03-4.82812E-04-5.87713E-14
 -1      2727 9.71522E-03-4.87396E-04-6.29119E-14
 -1      2728 9.85720E-03-4.61519E-04-6.45785E-14
 -1      2729 9.67238E-03-4.65702E-04-6.20409E-14
 -1      2730 9.99843E-03-4.26805E-04-6.62569E-14
 -1      2731 1.01400E-02-3.83019E-04-6.79505E-14
 -1      2732 9.96080E-03-4.15644E-04-6.53680E-14
 -1      2733 1.02817E-02-3.30344E-04-6.96572E-14
 -1      2734 1.04246E-02-2.69486E-04-7.13764E-14
 -1      2735 1.02482E-02-3.27417E-04-6.87515E-14
 -1      2736 1.05686E-02-2.01201E-04-7.31085E-14
 -1      2737 1.07141E-02-1.26791E-04-7.48516E-14
 -1      2738 1.05389E-02-2.03000E-04-7.21901E-14
 -1      2739 1.08610E-02-4.73148E-05-7.66048E-14
 -1      2740 1.10091E-02 3.58298E-05-7.83720E-14
 -1      2741 1.08355E-02-5.06393E-05-7.56763E-14
 -1      2742 1.11583E-02 1.21630E-04-8.01537E-14
 -1      2743 1.13083E-02 2.08946E-04-8.19470E-14
 -1      2744 1.11378E-02 1.18746E-04-7.92111E-14
 -1      2745 1.14588E-02 2.97008E-04-8.37504E-14
 -1      2746 1.16095E-02 3.85108E-04-8.55715E-14
 -1      2747 1.14435E-02 2.95259E-04-8.27964E-14
 -1      2748 1.17602E-02 4.72763E-04-8.74089E-14
 -1      2749 1.19104E-02 5.59662E-04-8.92558E-14
 -1      2750 1.17497E-02 4.72005E-04-8.64359E-14
 -1      2751 1.20604E-02 6.45571E-04-9.11187E-14
 -1      2752 1.22097E-02 7.30449E-04-9.29950E-14
 -1      2753 1.20541E-02 6.45339E-04-9.01323E-14
 -1      2754 1.23585E-02 8.14246E-04-9.48837E-14
 -1      2755 1.25065E-02 8.97068E-04-9.67871E-14
 -1      2756 1.23552E-02 8.14072E-04-9.38815E-14
 -1      2757 1.26540E-02 9.78984E-04-9.87042E-14
 -1      2758 1.28007E-02 1.06016E-03-1.00631E-13
 -1      2759 1.26529E-02 9.78512E-04-9.76852E-14
 -1      2760 1.29469E-02 1.14074E-03-1.02568E-13
 -1      2761 1.30925E-02 1.22089E-03-1.04514E-13
 -1      2762 1.29473E-02 1.13971E-03-1.01536E-13
 -1      2763 1.32376E-02 1.30077E-03-1.06469E-13
 -1      2764 1.33822E-02 1.38056E-03-1.08433E-13
 -1      2765 1.32388E-02 1.29900E-03-1.05425E-13
 -1      2766 2.28329E-03 4.78696E-04-3.72718E-15
 -1      2767 2.14147E-03 4.72098E-04-3.27342E-15
 -1      2768 2.34696E-03 4.44781E-04-4.03936E-15
 -1      2769 1.99247E-03 4.63428E-04-2.83031E-15
 -1      2770 1.84333E-03 4.52783E-04-2.42020E-15
 -1      2771 2.05472E-03 4.31409E-04-3.10478E-15
 -1      2772 2.85039E-03 4.93610E-04-5.84496E-15
 -1      2773 2.70860E-03 4.91284E-04-5.27066E-15
 -1      2774 2.63185E-03 4.52887E-04-5.07332E-15
 -1      2775 3.13413E-03 4.96298E-04-7.08229E-15
 -1      2776 2.99224E-03 4.95256E-04-6.44881E-15
 -1      2777 2.91666E-03 4.57465E-04-6.22622E-15
 -1      2778 3.41813E-03 4.96979E-04-8.43707E-15
 -1      2779 3.27610E-03 4.96853E-04-7.74542E-15
 -1      2780 3.20150E-03 4.59515E-04-7.49657E-15
 -1      2781 3.70244E-03 4.96222E-04-9.90751E-15
 -1      2782 3.56025E-03 4.96755E-04-9.15770E-15
 -1      2783 3.48644E-03 4.59760E-04-8.88313E-15
 -1      2784 4.00131E-03 4.94292E-04-1.15721E-14
 -1      2785 3.85183E-03 4.95384E-04-1.07248E-14
 -1      2786 3.77864E-03 4.58668E-04-1.04228E-14
 -1      2787 4.28631E-03 4.91614E-04-1.32685E-14
 -1      2788 4.14377E-03 4.93045E-04-1.24068E-14
 -1      2789 4.07101E-03 4.56570E-04-1.20787E-14
 -1      2790 4.57167E-03 4.88236E-04-1.50719E-14
 -1      2791 4.42895E-03 4.90008E-04-1.41570E-14
 -1      2792 4.35643E-03 4.53758E-04-1.38033E-14
 -1      2793 4.85741E-03 4.84187E-04-1.69755E-14
 -1      2794 4.71449E-03 4.86294E-04-1.60112E-14
 -1      2795 4.64204E-03 4.50283E-04-1.56332E-14
 -1      2796 5.14356E-03 4.79435E-04-1.89813E-14
 -1      2797 5.00043E-03 4.81900E-04-1.79656E-14
 -1      2798 4.92784E-03 4.46166E-04-1.75632E-14
 -1      2799 5.43013E-03 4.73908E-04-2.10860E-14
 -1      2800 5.28678E-03 4.76771E-04-2.00217E-14
 -1      2801 5.21382E-03 4.41371E-04-1.95933E-14
 -1      2802 5.71717E-03 4.67518E-04-2.32853E-14
 -1      2803 5.57358E-03 4.70823E-04-2.21747E-14
 -1      2804 5.49994E-03 4.35841E-04-2.17220E-14
 -1      2805 6.01904E-03 4.59806E-04-2.56930E-14
 -1      2806 5.86802E-03 4.63791E-04-2.44770E-14
 -1      2807 5.79327E-03 4.29348E-04-2.40009E-14
 -1      2808 6.30692E-03 4.51513E-04-2.80743E-14
 -1      2809 6.16291E-03 4.55771E-04-2.68727E-14
 -1      2810 6.08648E-03 4.22011E-04-2.63741E-14
 -1      2811 6.59498E-03 4.42473E-04-3.05364E-14
 -1      2812 6.45090E-03 4.47074E-04-2.92962E-14
 -1      2813 6.37210E-03 4.14143E-04-2.87745E-14
 -1      2814 6.88284E-03 4.33188E-04-3.30791E-14
 -1      2815 6.73890E-03 4.37833E-04-3.17986E-14
 -1      2816 6.65672E-03 4.05896E-04-3.12576E-14
 -1      2817 7.16977E-03 4.24742E-04-3.56995E-14
 -1      2818 7.02637E-03 4.28805E-04-3.43791E-14
 -1      2819 6.93944E-03 3.97978E-04-3.38197E-14
 -1      2820 7.45471E-03 4.19232E-04-3.83897E-14
 -1      2821 7.31243E-03 4.21515E-04-3.70358E-14
 -1      2822 7.21886E-03 3.91738E-04-3.64585E-14
 -1      2823 7.73629E-03 4.20407E-04-4.11469E-14
 -1      2824 7.59580E-03 4.18792E-04-3.97601E-14
 -1      2825 7.49298E-03 3.89535E-04-3.91661E-14
 -1      2826 8.02722E-03 4.35824E-04-4.41131E-14
 -1      2827 7.88206E-03 4.25847E-04-4.26221E-14
 -1      2828 7.76585E-03 3.95463E-04-4.20118E-14
 -1      2829 8.30122E-03 4.74809E-04-4.70007E-14
 -1      2830 8.16390E-03 4.51547E-04-4.55487E-14
 -1      2831 8.02814E-03 4.16017E-04-4.49270E-14
 -1      2832 8.58060E-03 5.54645E-04-4.99438E-14
 -1      2833 8.43864E-03 5.07722E-04-4.84653E-14
 -1      2834 8.27389E-03 4.58872E-04-4.78306E-14
 -1      2835 1.41600E-03 4.07771E-04-1.43216E-15
 -1      2836 1.27296E-03 3.86771E-04-1.16243E-15
 -1      2837 1.18964E-03 3.41465E-04-1.08256E-15
 -1      2838 1.27061E-02 1.01139E-03-7.76739E-14
 -1      2839 1.25459E-02 9.59792E-04-7.73450E-14
 -1      2840 8.27553E-03 5.05890E-04-5.19627E-14
 -1      2841 8.39813E-03 5.34885E-04-5.22711E-14
 -1      2842 1.28737E-02 1.22201E-03-7.62235E-14
 -1      2843 1.36639E-02 1.43021E-03-8.70964E-14
 -1      2844 1.35362E-02 1.36742E-03-8.52385E-14
 -1      2845 1.39387E-02 1.57695E-03-9.10377E-14
 -1      2846 1.37997E-02 1.50109E-03-8.90599E-14
 -1      2847 1.37218E-02 1.44323E-03-8.82258E-14
 -1      2848 1.42091E-02 1.72918E-03-9.48348E-14
 -1      2849 1.40728E-02 1.65181E-03-9.29306E-14
 -1      2850 1.39769E-02 1.58830E-03-9.20840E-14
 -1      2851 1.44859E-02 1.88748E-03-9.86662E-14
 -1      2852 1.43467E-02 1.80773E-03-9.67471E-14
 -1      2853 1.42385E-02 1.73992E-03-9.58894E-14
 -1      2854 1.47669E-02 2.04791E-03-1.02540E-13
 -1      2855 1.46259E-02 1.96755E-03-1.00598E-13
 -1      2856 1.45092E-02 1.89682E-03-9.97334E-14
 -1      2857 1.50502E-02 2.20778E-03-1.06446E-13
 -1      2858 1.49083E-02 2.12801E-03-1.04487E-13
 -1      2859 1.47858E-02 2.05565E-03-1.03611E-13
 -1      2860 1.45146E-02 1.93952E-03-1.10142E-13
 -1      2861 1.45933E-02 1.97622E-03-1.10056E-13
 -1      2862 1.48181E-02 2.08329E-03-1.09788E-13
 -1      2863 1.48889E-02 2.11853E-03-1.09694E-13
 -1      2864 1.43527E-02 1.86422E-03-1.10312E-13
 -1      2865 1.44343E-02 1.90222E-03-1.10228E-13
 -1      2866 1.43537E-02 1.85651E-03-1.08484E-13
 -1      2867 1.46702E-02 2.01230E-03-1.09967E-13
 -1      2868 1.47452E-02 2.04798E-03-1.09876E-13
 -1      2869 1.46628E-02 2.00076E-03-1.08133E-13
 -1      2870 1.45122E-02 1.92993E-03-1.08311E-13
 -1      2871 1.41894E-02 1.78761E-03-1.10477E-13
 -1      2872 1.42714E-02 1.82623E-03-1.10396E-13
 -1      2873 1.41908E-02 1.78064E-03-1.08651E-13
 -1      2874 1.40211E-02 1.70736E-03-1.10644E-13
 -1      2875 1.41054E-02 1.74775E-03-1.10561E-13
 -1      2876 1.40243E-02 1.70186E-03-1.08817E-13
 -1      2877 1.38522E-02 1.62531E-03-1.10808E-13
 -1      2878 1.39367E-02 1.66652E-03-1.10726E-13
 -1      2879 1.38549E-02 1.62002E-03-1.08981E-13
 -1      2880 1.17691E-02 5.96188E-04-7.49852E-14
 -1      2881 1.15528E-02 4.63765E-04-7.39299E-14
 -1      2882 1.31727E-02 1.13446E-03-7.80229E-14
 -1      2883 1.32199E-02 1.12876E-03-7.84877E-14
 -1      2884 1.70112E-03 4.40379E-04-2.06082E-15
 -1      2885 1.55867E-03 4.25553E-04-1.73161E-15
 -1      2886 1.47607E-03 3.82106E-04-1.63071E-15
 -1      2887 1.76208E-03 4.11034E-04-2.29730E-15
 -1      2888 1.34112E-02 1.31174E-03-8.33908E-14
 -1      2889 1.32858E-02 1.26437E-03-8.15536E-14
 -1      2890 1.34835E-02 1.31479E-03-8.44140E-14
 -1      2891 1.31582E-02 1.23443E-03-7.97848E-14
 -1      2892 1.30239E-02 1.21470E-03-7.79710E-14
 -1      2893 1.30346E-02 1.17359E-03-7.72809E-14
 -1      2894 1.32663E-02 1.21929E-03-8.07994E-14
 -1      2895 8.56413E-03 5.87018E-04-5.26471E-14
 -1      2896 8.75418E-03 6.56986E-04-5.30497E-14
 -1      2897 8.22509E-03 4.73825E-04-5.23950E-14
 -1      2898 8.17158E-03 4.79337E-04-5.20926E-14
 -1      2899 1.18611E-02 1.77698E-03-7.00951E-14
 -1      2900 1.35737E-02 1.48690E-03-1.11101E-13
 -1      2901 1.36710E-02 1.53708E-03-1.11380E-13
 -1      2902 1.34781E-02 1.43368E-03-1.09766E-13
 -1      2903 1.23210E-02 8.74670E-04-7.69437E-14
 -1      2904 1.20737E-02 7.60617E-04-7.62404E-14
 -1      2905 7.84435E-04 1.23467E-04-6.54031E-16
 -1      2906 7.82055E-04 1.00028E-04-6.66595E-16
 -1      2907 8.99679E-04 9.94482E-05-8.51573E-16
 -1      2908 9.05401E-04 1.51591E-04-8.21554E-16
 -1      2909 8.15278E-03 4.80185E-04-5.17135E-14
 -1      2910 8.18058E-03 4.82412E-04-5.16466E-14
 -1      2911 7.81786E-04-9.79754E-05-7.01492E-16
 -1      2912 7.84091E-04-1.21328E-04-6.97237E-16
 -1      2913 9.09438E-03 1.57390E-04-5.60302E-14
 -1      2914 8.90964E-03 2.41495E-04-5.51058E-14
 -1      2915 8.69265E-03 3.23496E-04-5.40136E-14
 -1      2916 8.53035E-03 3.81953E-04-5.33586E-14
 -1      2917 1.30052E-02 1.08518E-03-7.82677E-14
 -1      2918 1.28670E-02 1.05646E-03-7.79962E-14
 -1      2919 9.02732E-03 7.87816E-04-5.38372E-14
 -1      2920 1.02279E-02-2.42500E-04-6.43504E-14
 -1      2921 1.00673E-02-2.33667E-04-6.28981E-14
 -1      2922 1.05400E-02-1.66499E-04-6.71398E-14
 -1      2923 1.04000E-02-2.15815E-04-6.58957E-14
 -1      2924 8.38230E-03 4.37832E-04-5.30081E-14
 -1      2925 8.29307E-03 4.60060E-04-5.27013E-14
 -1      2926 8.21946E-03 4.47642E-04-5.17110E-14
 -1      2927 1.13365E-02 3.26718E-04-7.28556E-14
 -1      2928 1.11358E-02 1.92349E-04-7.17882E-14
 -1      2929 1.14459E-02 4.03710E-04-7.40836E-14
 -1      2930 1.08835E-02 2.57175E-05-7.00080E-14
 -1      2931 1.07035E-02-8.64553E-05-6.85235E-14
 -1      2932 6.88559E-04-2.04003E-04-5.04791E-16
 -1      2933 1.20195E-02 1.66373E-03-7.09763E-14
 -1      2934 1.51159E-02 2.24169E-03-1.08253E-13
 -1      2935 8.87987E-03 7.01459E-04-5.28158E-14
 -1      2936 7.87144E-04-1.45473E-04-6.91098E-16
 -1      2937 7.91034E-04-1.70644E-04-6.82532E-16
 -1      2938 9.04935E-04-1.49065E-04-8.80088E-16
 -1      2939 8.20140E-03 4.72092E-04-5.09731E-14
 -1      2940 8.95558E-04 1.00686E-06-8.85170E-16
 -1      2941 7.77707E-04-9.72416E-06-7.01113E-16
 -1      2942 7.78069E-04-3.13729E-05-7.03512E-16
 -1      2943 9.57252E-03-9.38149E-05-5.88762E-14
 -1      2944 9.95068E-03-2.23737E-04-6.19522E-14
 -1      2945 9.83558E-03-2.09711E-04-6.10098E-14
 -1      2946 1.00096E-02-2.47591E-04-6.26254E-14
 -1      2947 1.34796E-02 1.43118E-03-1.08714E-13
 -1      2948 8.64838E-04 2.66559E-04-6.19283E-16
 -1      2949 8.72015E-03 6.13080E-04-5.13097E-14
 -1      2950 8.51119E-03 5.35675E-04-5.06632E-14
 -1      2951 1.28126E-02 1.05646E-03-7.88220E-14
 -1      2952 8.46005E-03 5.37929E-04-5.16611E-14
 -1      2953 1.48038E-02 2.07000E-03-1.07948E-13
 -1      2954 1.49572E-02 2.15348E-03-1.09598E-13
 -1      2955 1.50237E-02 2.18880E-03-1.09501E-13
 -1      2956 1.50388E-02 2.19681E-03-1.08930E-13
 -1      2957 1.51027E-02 2.23301E-03-1.08829E-13
 -1      2958 1.49137E-02 2.12707E-03-1.06138E-13
 -1      2959 1.48864E-02 2.11195E-03-1.07282E-13
 -1      2960 1.31206E-02 1.15485E-03-7.78711E-14
 -1      2961 1.32028E-02 1.16935E-03-7.91869E-14
 -1      2962 1.32405E-02 1.13575E-03-7.91595E-14
 -1      2963 1.32459E-02 1.14756E-03-7.98318E-14
 -1      2964 1.32696E-02 1.16207E-03-8.00125E-14
 -1      2965 1.06059E-02-1.28386E-04-6.80471E-14
 -1      2966 1.19431E-02 6.97669E-04-7.64224E-14
 -1      2967 1.37548E-02 1.57883E-03-1.11302E-13
 -1      2968 8.41401E-03 3.88494E-04-5.23612E-14
 -1      2969 1.30982E-02 1.11495E-03-7.90612E-14
 -1      2970 1.30604E-02 1.12500E-03-7.99412E-14
 -1      2971 1.31743E-02 1.13777E-03-7.98587E-14
 -1      2972 8.74931E-03 2.62715E-04-5.37855E-14
 -1      2973 9.16872E-03 8.60864E-05-5.61433E-14
 -1      2974 1.24446E-02 9.33754E-04-7.80937E-14
 -1      2975 1.11081E-02 1.85361E-04-7.24289E-14
 -1      2976 1.09957E-02 1.06369E-04-7.12134E-14
 -1      2977 1.08741E-02 3.13321E-05-7.06401E-14
 -1      2978 8.13054E-03 4.57969E-04-5.10317E-14
 -1      2979 9.82939E-04 2.75784E-04-8.04708E-16
 -1      2980 7.78844E-04-5.31587E-05-7.04325E-16
 -1      2981 7.80057E-04-7.53487E-05-7.03607E-16
 -1      2982 8.99396E-04-9.71021E-05-8.89683E-16
 -1      2983 8.96449E-04-4.75314E-05-8.91011E-16
 -1      2984 1.02892E-02-2.36394E-04-6.51154E-14
 -1      2985 7.88863E-04-2.52466E-04-6.06272E-16
 -1      2986 9.20028E-04-2.88247E-04-7.83661E-16
 -1      2987 1.35760E-02 1.48138E-03-1.09134E-13
 -1      2988 1.37558E-02 1.57586E-03-1.10387E-13
 -1      2989 1.36734E-02 1.52888E-03-1.08642E-13
 -1      2990 1.34801E-02 1.42881E-03-1.07802E-13
 -1      2991 9.82142E-04-2.73242E-04-9.14985E-16
 -1      2992 1.04030E-03 2.43268E-04-9.54789E-16
 -1      2993 1.03370E-03 2.11545E-04-9.82951E-16
 -1      2994 8.36186E-03 4.92985E-04-5.02928E-14
 -1      2995 1.26004E-02 1.00418E-03-7.95859E-14
 -1      2996 1.24050E-02 9.27933E-04-7.91779E-14
 -1      2997 2.98354E-03 4.20955E-04-6.61041E-15
 -1      2998 2.84063E-03 4.19425E-04-6.00285E-15
 -1      2999 1.29005E-02 1.09713E-03-8.02411E-14
 -1      3000 1.27557E-02 1.05654E-03-7.99146E-14
 -1      3001 1.27142E-02 1.05190E-03-8.10065E-14
 -1      3002 1.15851E-03-2.76919E-04-1.25809E-15
 -1      3003 1.30139E-03-2.96681E-04-1.54710E-15
 -1      3004 1.44459E-03-3.13676E-04-1.86594E-15
 -1      3005 1.58810E-03-3.28110E-04-2.21524E-15
 -1      3006 1.36548E-03-2.73082E-04-1.72181E-15
 -1      3007 1.73169E-03-3.40310E-04-2.59450E-15
 -1      3008 1.87536E-03-3.50461E-04-3.00352E-15
 -1      3009 1.65241E-03-3.00019E-04-2.42265E-15
 -1      3010 2.01902E-03-3.58883E-04-3.44241E-15
 -1      3011 2.16266E-03-3.65728E-04-3.91106E-15
 -1      3012 1.94021E-03-3.19128E-04-3.24251E-15
 -1      3013 2.30626E-03-3.71272E-04-4.40883E-15
 -1      3014 2.44981E-03-3.75639E-04-4.93532E-15
 -1      3015 2.22824E-03-3.32094E-04-4.17986E-15
 -1      3016 2.59330E-03-3.79049E-04-5.49143E-15
 -1      3017 2.73673E-03-3.81597E-04-6.07659E-15
 -1      3018 2.51621E-03-3.40405E-04-5.23380E-15
 -1      3019 2.88011E-03-3.83453E-04-6.68932E-15
 -1      3020 3.02343E-03-3.84689E-04-7.33121E-15
 -1      3021 2.80395E-03-3.45277E-04-6.40255E-15
 -1      3022 3.16670E-03-3.85433E-04-8.00186E-15
 -1      3023 3.30992E-03-3.85735E-04-8.70019E-15
 -1      3024 3.09141E-03-3.47659E-04-7.68534E-15
 -1      3025 3.45311E-03-3.85688E-04-9.42658E-15
 -1      3026 3.59624E-03-3.85329E-04-1.01806E-14
 -1      3027 3.37858E-03-3.48261E-04-9.08109E-15
 -1      3028 3.73934E-03-3.84721E-04-1.09615E-14
 -1      3029 3.88241E-03-3.83888E-04-1.17696E-14
 -1      3030 3.66546E-03-3.47599E-04-1.05864E-14
 -1      3031 4.02545E-03-3.82874E-04-1.26039E-14
 -1      3032 4.16845E-03-3.81693E-04-1.34656E-14
 -1      3033 3.95206E-03-3.46028E-04-1.22009E-14
 -1      3034 4.31144E-03-3.80373E-04-1.43534E-14
 -1      3035 4.45440E-03-3.78923E-04-1.52665E-14
 -1      3036 4.23841E-03-3.43785E-04-1.39208E-14
 -1      3037 4.59735E-03-3.77360E-04-1.62047E-14
 -1      3038 4.74028E-03-3.75688E-04-1.71687E-14
 -1      3039 4.52454E-03-3.41015E-04-1.57457E-14
 -1      3040 4.88321E-03-3.73920E-04-1.81572E-14
 -1      3041 5.02614E-03-3.72059E-04-1.91694E-14
 -1      3042 4.81047E-03-3.37801E-04-1.76705E-14
 -1      3043 5.16908E-03-3.70116E-04-2.02065E-14
 -1      3044 5.31205E-03-3.68095E-04-2.12671E-14
 -1      3045 5.09624E-03-3.34192E-04-1.96939E-14
 -1      3046 5.45504E-03-3.66011E-04-2.23512E-14
 -1      3047 5.59809E-03-3.63874E-04-2.34590E-14
 -1      3048 5.38194E-03-3.30226E-04-2.18129E-14
 -1      3049 5.74121E-03-3.61706E-04-2.45900E-14
 -1      3050 5.88444E-03-3.59527E-04-2.57426E-14
 -1      3051 5.66768E-03-3.25959E-04-2.40263E-14
 -1      3052 6.02780E-03-3.57369E-04-2.69175E-14
 -1      3053 6.17134E-03-3.55269E-04-2.81149E-14
 -1      3054 5.95364E-03-3.21494E-04-2.63309E-14
 -1      3055 6.31510E-03-3.53272E-04-2.93342E-14
 -1      3056 6.45915E-03-3.51441E-04-3.05755E-14
 -1      3057 6.24013E-03-3.17019E-04-2.87233E-14
 -1      3058 6.60356E-03-3.49835E-04-3.18376E-14
 -1      3059 6.74839E-03-3.48552E-04-3.31200E-14
 -1      3060 6.52761E-03-3.12843E-04-3.12017E-14
 -1      3061 6.89377E-03-3.47662E-04-3.44227E-14
 -1      3062 7.03974E-03-3.47306E-04-3.57464E-14
 -1      3063 6.81673E-03-3.09451E-04-3.37628E-14
 -1      3064 7.18647E-03-3.47565E-04-3.70914E-14
 -1      3065 7.33400E-03-3.48625E-04-3.84565E-14
 -1      3066 7.10834E-03-3.07552E-04-3.64065E-14
 -1      3067 7.48251E-03-3.50561E-04-3.98408E-14
 -1      3068 7.63201E-03-3.53598E-04-4.12463E-14
 -1      3069 7.40351E-03-3.08124E-04-3.91312E-14
 -1      3070 7.78269E-03-3.57783E-04-4.26718E-14
 -1      3071 7.93443E-03-3.63333E-04-4.41158E-14
 -1      3072 7.70336E-03-3.12413E-04-4.19376E-14
 -1      3073 8.08743E-03-3.70229E-04-4.55775E-14
 -1      3074 8.24138E-03-3.78575E-04-4.70587E-14
 -1      3075 8.00882E-03-3.21805E-04-4.48205E-14
 -1      3076 8.39638E-03-3.88210E-04-4.85593E-14
 -1      3077 8.55192E-03-3.98965E-04-5.00790E-14
 -1      3078 8.32011E-03-3.37430E-04-4.77785E-14
 -1      3079 8.70796E-03-4.10466E-04-5.16138E-14
 -1      3080 8.86378E-03-4.21963E-04-5.31650E-14
 -1      3081 8.63615E-03-3.59288E-04-5.08084E-14
 -1      3082 9.01918E-03-4.32770E-04-5.47341E-14
 -1      3083 9.17351E-03-4.41459E-04-5.63194E-14
 -1      3084 8.95404E-03-3.84733E-04-5.39086E-14
 -1      3085 9.32642E-03-4.46940E-04-5.79218E-14
 -1      3086 9.47767E-03-4.47332E-04-5.95390E-14
 -1      3087 9.26943E-03-4.06620E-04-5.70757E-14
 -1      3088 9.62694E-03-4.41376E-04-6.11715E-14
 -1      3089 9.77473E-03-4.27024E-04-6.28186E-14
 -1      3090 9.57813E-03-4.12961E-04-6.03066E-14
 -1      3091 9.92085E-03-4.03400E-04-6.44809E-14
 -1      3092 1.00667E-02-3.69348E-04-6.61568E-14
 -1      3093 9.87870E-03-3.88693E-04-6.35944E-14
 -1      3094 1.02122E-02-3.24672E-04-6.78469E-14
 -1      3095 1.03588E-02-2.69855E-04-6.95518E-14
 -1      3096 1.01745E-02-3.21497E-04-6.69439E-14
 -1      3097 1.05065E-02-2.05457E-04-7.12724E-14
 -1      3098 1.06560E-02-1.33224E-04-7.30042E-14
 -1      3099 1.04723E-02-2.08827E-04-7.03526E-14
 -1      3100 1.08073E-02-5.43307E-05-7.47455E-14
 -1      3101 1.09604E-02 2.92153E-05-7.65009E-14
 -1      3102 1.07772E-02-5.89963E-05-7.38157E-14
 -1      3103 1.11149E-02 1.16216E-04-7.82700E-14
 -1      3104 1.12703E-02 2.04941E-04-8.00517E-14
 -1      3105 1.10900E-02 1.13357E-04-7.73287E-14
 -1      3106 1.14264E-02 2.94527E-04-8.18435E-14
 -1      3107 1.15823E-02 3.83919E-04-8.36469E-14
 -1      3108 1.14076E-02 2.94340E-04-8.08894E-14
 -1      3109 1.17381E-02 4.72618E-04-8.54662E-14
 -1      3110 1.18930E-02 5.60228E-04-8.73008E-14
 -1      3111 1.17253E-02 4.74410E-04-8.45010E-14
 -1      3112 1.20470E-02 6.46522E-04-8.91476E-14
 -1      3113 1.21999E-02 7.31514E-04-9.10077E-14
 -1      3114 1.20395E-02 6.49121E-04-8.81633E-14
 -1      3115 1.23518E-02 8.15157E-04-9.28819E-14
 -1      3116 1.25023E-02 8.97651E-04-9.47682E-14
 -1      3117 1.23481E-02 8.17587E-04-9.18839E-14
 -1      3118 1.26519E-02 9.79051E-04-9.66680E-14
 -1      3119 1.28003E-02 1.05961E-03-9.85808E-14
 -1      3120 1.26509E-02 9.80712E-04-9.56559E-14
 -1      3121 1.29478E-02 1.13945E-03-1.00506E-13
 -1      3122 1.30943E-02 1.21880E-03-1.02439E-13
 -1      3123 1.29484E-02 1.14005E-03-9.94773E-14
 -1      3124 1.32151E-02 1.28435E-03-1.04140E-13
 -1      3125 1.33604E-02 1.36327E-03-1.06090E-13
 -1      3126 1.34572E-02 1.41382E-03-1.06509E-13
 -1      3127 1.32167E-02 1.28382E-03-1.03100E-13
 -1      3128 2.41164E-03 4.10332E-04-4.35634E-15
 -1      3129 2.26855E-03 4.05369E-04-3.86624E-15
 -1      3130 2.11824E-03 3.98764E-04-3.38472E-15
 -1      3131 1.96785E-03 3.90569E-04-2.93629E-15
 -1      3132 2.18285E-03 3.65574E-04-3.67007E-15
 -1      3133 3.26932E-03 4.22442E-04-7.91407E-15
 -1      3134 3.12645E-03 4.21941E-04-7.24795E-15
 -1      3135 3.05101E-03 3.84156E-04-6.99877E-15
 -1      3136 3.55505E-03 4.22321E-04-9.33173E-15
 -1      3137 3.41220E-03 4.22555E-04-8.60843E-15
 -1      3138 3.33759E-03 3.85149E-04-8.33372E-15
 -1      3139 3.85505E-03 4.20950E-04-1.09415E-14
 -1      3140 3.70505E-03 4.21774E-04-1.01209E-14
 -1      3141 3.63114E-03 3.84700E-04-9.81988E-15
 -1      3142 4.14077E-03 4.18760E-04-1.25869E-14
 -1      3143 3.99791E-03 4.19951E-04-1.17512E-14
 -1      3144 3.92453E-03 3.83177E-04-1.14230E-14
 -1      3145 4.42650E-03 4.15877E-04-1.43404E-14
 -1      3146 4.28364E-03 4.17399E-04-1.34504E-14
 -1      3147 4.21061E-03 3.80913E-04-1.30983E-14
 -1      3148 4.71225E-03 4.12377E-04-1.61954E-14
 -1      3149 4.56937E-03 4.14202E-04-1.52550E-14
 -1      3150 4.49655E-03 3.78022E-04-1.48780E-14
 -1      3151 4.99798E-03 4.08274E-04-1.81517E-14
 -1      3152 4.85511E-03 4.10402E-04-1.71614E-14
 -1      3153 4.78231E-03 3.74569E-04-1.67596E-14
 -1      3154 5.28363E-03 4.03544E-04-2.02069E-14
 -1      3155 5.14081E-03 4.05990E-04-1.91670E-14
 -1      3156 5.06783E-03 3.70570E-04-1.87413E-14
 -1      3157 5.56910E-03 3.98154E-04-2.23594E-14
 -1      3158 5.42639E-03 4.00934E-04-2.12715E-14
 -1      3159 5.35300E-03 3.66020E-04-2.08215E-14
 -1      3160 5.86841E-03 3.91774E-04-2.47182E-14
 -1      3161 5.71881E-03 3.95058E-04-2.35269E-14
 -1      3162 5.64473E-03 3.60790E-04-2.30533E-14
 -1      3163 6.15271E-03 3.85088E-04-2.70552E-14
 -1      3164 6.01066E-03 3.88504E-04-2.58758E-14
 -1      3165 5.93554E-03 3.55052E-04-2.53802E-14
 -1      3166 6.43568E-03 3.78035E-04-2.94769E-14
 -1      3167 6.29437E-03 3.81600E-04-2.82554E-14
 -1      3168 6.21781E-03 3.49145E-04-2.77382E-14
 -1      3169 6.71640E-03 3.71116E-04-3.19791E-14
 -1      3170 6.57635E-03 3.74543E-04-3.07174E-14
 -1      3171 6.49783E-03 3.43315E-04-3.01786E-14
 -1      3172 6.99349E-03 3.65276E-04-3.45611E-14
 -1      3173 6.85545E-03 3.68034E-04-3.32609E-14
 -1      3174 6.77433E-03 3.38272E-04-3.27025E-14
 -1      3175 7.26487E-03 3.62137E-04-3.72178E-14
 -1      3176 7.12996E-03 3.63327E-04-3.58802E-14
 -1      3177 7.04546E-03 3.35222E-04-3.53038E-14
 -1      3178 7.52768E-03 3.64290E-04-3.99458E-14
 -1      3179 7.39743E-03 3.62492E-04-3.85741E-14
 -1      3180 7.30855E-03 3.36063E-04-3.79804E-14
 -1      3181 7.79038E-03 3.76406E-04-4.28810E-14
 -1      3182 7.66081E-03 3.69015E-04-4.14036E-14
 -1      3183 7.56596E-03 3.43878E-04-4.07963E-14
 -1      3184 8.02384E-03 4.02771E-04-4.57422E-14
 -1      3185 7.90905E-03 3.87707E-04-4.43046E-14
 -1      3186 7.80575E-03 3.62596E-04-4.36806E-14
 -1      3187 8.23848E-03 4.50359E-04-4.86620E-14
 -1      3188 8.13293E-03 4.23966E-04-4.71950E-14
 -1      3189 8.01639E-03 3.95790E-04-4.65598E-14
 -1      3190 1.35338E-02 1.32754E-03-8.54379E-14
 -1      3191 1.34331E-02 1.26962E-03-8.35884E-14
 -1      3192 1.32962E-02 1.20482E-03-8.09524E-14
 -1      3193 1.40058E-02 1.60181E-03-9.31309E-14
 -1      3194 1.38829E-02 1.52957E-03-9.12378E-14
 -1      3195 1.37621E-02 1.45911E-03-8.93084E-14
 -1      3196 1.36431E-02 1.38976E-03-8.73464E-14
 -1      3197 1.35673E-02 1.34393E-03-8.65099E-14
 -1      3198 1.37867E-02 1.47408E-03-9.03467E-14
 -1      3199 1.45285E-02 1.90685E-03-1.00799E-13
 -1      3200 1.43941E-02 1.82882E-03-9.88668E-14
 -1      3201 1.47887E-02 2.05615E-03-1.04433E-13
 -1      3202 1.46511E-02 1.97745E-03-1.02488E-13
 -1      3203 1.45312E-02 1.90907E-03-1.01612E-13
 -1      3204 1.47763E-02 2.04909E-03-1.05004E-13
 -1      3205 1.40273E-02 1.69674E-03-1.06996E-13
 -1      3206 1.41099E-02 1.73553E-03-1.06915E-13
 -1      3207 1.41929E-02 1.77408E-03-1.06830E-13
 -1      3208 1.42745E-02 1.81172E-03-1.06746E-13
 -1      3209 1.40310E-02 1.69181E-03-1.05183E-13
 -1      3210 2.69767E-03 4.17216E-04-5.42437E-15
 -1      3211 2.55468E-03 4.14246E-04-4.87556E-15
 -1      3212 2.47724E-03 3.75436E-04-4.67696E-15
 -1      3213 1.38577E-02 1.61554E-03-1.07163E-13
 -1      3214 1.39427E-02 1.65649E-03-1.07079E-13
 -1      3215 1.38614E-02 1.61199E-03-1.05349E-13
 -1      3216 1.06559E-02-9.43067E-05-6.89364E-14
 -1      3217 1.05082E-02-1.67727E-04-6.75483E-14
 -1      3218 1.36874E-02 1.53200E-03-1.07323E-13
 -1      3219 1.37725E-02 1.57399E-03-1.07241E-13
 -1      3220 1.36901E-02 1.52881E-03-1.05511E-13
 -1      3221 9.62947E-03-1.53148E-04-5.92623E-14
 -1      3222 9.44614E-03-8.20639E-05-5.78063E-14
 -1      3223 1.42619E-02 1.75184E-03-9.69445E-14
 -1      3224 1.41322E-02 1.67580E-03-9.50327E-14
 -1      3225 1.42799E-02 1.76365E-03-9.80001E-14
 -1      3226 1.03435E-02-2.24856E-04-6.59360E-14
 -1      3227 1.01873E-02-2.52619E-04-6.43898E-14
 -1      3228 8.41005E-03 3.44530E-04-5.16032E-14
 -1      3229 8.29188E-03 3.92580E-04-5.12617E-14
 -1      3230 8.79647E-03 1.92688E-04-5.35021E-14
 -1      3231 8.60732E-03 2.61535E-04-5.24270E-14
 -1      3232 8.12001E-03 4.34662E-04-4.93335E-14
 -1      3233 8.21671E-03 4.53335E-04-4.96459E-14
 -1      3234 9.21025E-03 1.39221E-05-5.60848E-14
 -1      3235 9.01382E-03 1.03007E-04-5.48163E-14
 -1      3236 1.01666E-03 6.81980E-05-1.07270E-15
 -1      3237 1.01549E-03 4.12173E-05-1.08255E-15
 -1      3238 1.14500E-03 3.10550E-04-1.04991E-15
 -1      3239 1.08236E-03 2.71623E-04-9.92452E-16
 -1      3240 1.20146E-03 2.73015E-04-1.22417E-15
 -1      3241 1.28817E-03 3.32498E-04-1.30491E-15
 -1      3242 1.20938E-02 7.82114E-04-7.80611E-14
 -1      3243 1.18194E-02 6.33793E-04-7.67917E-14
 -1      3244 7.69957E-04-2.02493E-04-6.26493E-16
 -1      3245 8.22110E-03 4.12330E-04-5.09617E-14
 -1      3246 8.16240E-03 4.23464E-04-5.06623E-14
 -1      3247 8.21414E-03 3.72340E-04-5.02136E-14
 -1      3248 1.15625E-02 4.80660E-04-7.55517E-14
 -1      3249 1.13703E-02 3.57500E-04-7.44659E-14
 -1      3250 8.10726E-03 4.31959E-04-5.02350E-14
 -1      3251 8.08591E-03 4.31295E-04-4.98639E-14
 -1      3252 1.33501E-02 1.21309E-03-8.19622E-14
 -1      3253 8.87880E-04-2.11819E-04-8.09479E-16
 -1      3254 1.01490E-03 1.44431E-05-1.09034E-15
 -1      3255 1.01486E-03-1.22322E-05-1.09611E-15
 -1      3256 1.13559E-03 3.01564E-05-1.31581E-15
 -1      3257 1.00743E-02-2.62885E-04-6.34336E-14
 -1      3258 9.96313E-03-2.66180E-04-6.24814E-14
 -1      3259 1.01302E-02-2.67796E-04-6.42443E-14
 -1      3260 2.76424E-03 3.81181E-04-5.77899E-15
 -1      3261 1.88829E-03 3.50227E-04-2.78752E-15
 -1      3262 1.82456E-03 3.80967E-04-2.53946E-15
 -1      3263 1.68121E-03 3.69429E-04-2.17266E-15
 -1      3264 1.03998E-02-2.05625E-04-6.68113E-14
 -1      3265 1.17289E-02 5.77251E-04-7.71776E-14
 -1      3266 1.46515E-02 1.98742E-03-1.06298E-13
 -1      3267 1.47193E-02 2.02123E-03-1.06200E-13
 -1      3268 1.40266E-02 1.61546E-03-9.41778E-14
 -1      3269 1.41962E-02 1.76740E-03-1.05013E-13
 -1      3270 1.43546E-02 1.84839E-03-1.06659E-13
 -1      3271 1.44326E-02 1.88423E-03-1.06571E-13
 -1      3272 1.45079E-02 1.91904E-03-1.06483E-13
 -1      3273 1.45812E-02 1.95355E-03-1.06393E-13
 -1      3274 1.44996E-02 1.90588E-03-1.04656E-13
 -1      3275 1.43532E-02 1.83842E-03-1.04840E-13
 -1      3276 1.33048E-02 1.18852E-03-8.15715E-14
 -1      3277 1.32456E-02 1.16351E-03-8.07141E-14
 -1      3278 1.32363E-02 1.17944E-03-8.15968E-14
 -1      3279 9.28066E-03-5.77791E-05-5.64609E-14
 -1      3280 1.07623E-02-3.25835E-05-7.01332E-14
 -1      3281 1.06625E-02-8.64842E-05-6.96247E-14
 -1      3282 1.08686E-02 3.38824E-05-7.13377E-14
 -1      3283 9.70159E-03-1.99993E-04-5.99229E-14
 -1      3284 1.55630E-03 3.61385E-04-1.86922E-15
 -1      3285 1.41293E-03 3.45250E-04-1.55819E-15
 -1      3286 1.36913E-03 3.15039E-04-1.51481E-15
 -1      3287 1.61931E-03 3.33770E-04-2.08279E-15
 -1      3288 8.46020E-03 2.85674E-04-5.13255E-14
 -1      3289 8.32468E-03 2.97499E-04-5.02351E-14
 -1      3290 8.49709E-03 2.21864E-04-5.10452E-14
 -1      3291 1.13542E-02 3.42332E-04-7.53420E-14
 -1      3292 1.12320E-02 2.67790E-04-7.38800E-14
 -1      3293 1.11068E-02 1.83713E-04-7.32959E-14
 -1      3294 1.02838E-03 1.81164E-04-1.00699E-15
 -1      3295 1.02421E-03 1.51835E-04-1.02792E-15
 -1      3296 1.15313E-03 2.11807E-04-1.21016E-15
 -1      3297 8.84914E-03 1.17772E-04-5.34432E-14
 -1      3298 1.02092E-03 1.23283E-04-1.04547E-15
 -1      3299 1.01845E-03 9.55160E-05-1.06028E-15
 -1      3300 1.13825E-03 8.86014E-05-1.29223E-15
 -1      3301 1.14384E-03 1.48754E-04-1.25777E-15
 -1      3302 1.01818E-03-9.29922E-05-1.10063E-15
 -1      3303 1.02055E-03-1.20704E-04-1.09778E-15
 -1      3304 8.08797E-03 4.02273E-04-4.94950E-14
 -1      3305 8.05879E-03 4.16220E-04-4.88586E-14
 -1      3306 8.03246E-03 4.00795E-04-4.75511E-14
 -1      3307 7.94158E-03 3.78269E-04-4.60950E-14
 -1      3308 8.00394E-03 3.94642E-04-4.80742E-14
 -1      3309 1.31191E-02 1.16402E-03-8.18392E-14
 -1      3310 1.30164E-02 1.13398E-03-8.10383E-14
 -1      3311 1.29778E-02 1.13853E-03-8.21387E-14
 -1      3312 1.24419E-02 9.46584E-04-8.10478E-14
 -1      3313 1.22729E-02 8.70815E-04-7.95504E-14
 -1      3314 1.21573E-02 8.10504E-04-7.99209E-14
 -1      3315 1.02373E-03-1.49106E-04-1.09240E-15
 -1      3316 1.02778E-03-1.78343E-04-1.08419E-15
 -1      3317 1.14336E-03-1.45886E-04-1.32727E-15
 -1      3318 1.35237E-02 1.44812E-03-1.06706E-13
 -1      3319 1.36207E-02 1.49813E-03-1.07125E-13
 -1      3320 1.35375E-02 1.45225E-03-1.05392E-13
 -1      3321 1.34039E-02 1.38344E-03-1.04998E-13
 -1      3322 9.99668E-04-2.33159E-04-9.89578E-16
 -1      3323 1.06457E-03-2.15894E-04-1.12791E-15
 -1      3324 3.11906E-03 3.47074E-04-7.39027E-15
 -1      3325 2.97534E-03 3.46186E-04-6.74946E-15
 -1      3326 1.28427E-02 1.10385E-03-8.25771E-14
 -1      3327 1.27058E-02 1.05573E-03-8.22431E-14
 -1      3328 1.57408E-03-2.60605E-04-2.25312E-15
 -1      3329 1.71789E-03-2.71035E-04-2.63425E-15
 -1      3330 1.86193E-03-2.79819E-04-3.04486E-15
 -1      3331 2.00616E-03-2.87092E-04-3.48457E-15
 -1      3332 1.78434E-03-2.41142E-04-2.84993E-15
 -1      3333 2.15047E-03-2.93080E-04-3.95364E-15
 -1      3334 2.29482E-03-2.97901E-04-4.45149E-15
 -1      3335 2.07307E-03-2.54374E-04-3.72997E-15
 -1      3336 2.43916E-03-3.01753E-04-4.97836E-15
 -1      3337 2.58346E-03-3.04730E-04-5.53408E-15
 -1      3338 2.36227E-03-2.63198E-04-4.72594E-15
 -1      3339 2.72771E-03-3.06994E-04-6.11783E-15
 -1      3340 2.87189E-03-3.08617E-04-6.73017E-15
 -1      3341 2.65150E-03-2.68675E-04-5.83584E-15
 -1      3342 3.01598E-03-3.09727E-04-7.37126E-15
 -1      3343 3.15998E-03-3.10374E-04-8.04078E-15
 -1      3344 2.94048E-03-2.71681E-04-7.06027E-15
 -1      3345 3.30388E-03-3.10656E-04-8.73814E-15
 -1      3346 3.44769E-03-3.10607E-04-9.46273E-15
 -1      3347 3.22908E-03-2.72897E-04-8.39748E-15
 -1      3348 3.59140E-03-3.10299E-04-1.02145E-14
 -1      3349 3.73501E-03-3.09754E-04-1.09933E-14
 -1      3350 3.51721E-03-2.72833E-04-9.84530E-15
 -1      3351 3.87852E-03-3.09020E-04-1.17998E-14
 -1      3352 4.02194E-03-3.08111E-04-1.26326E-14
 -1      3353 3.80487E-03-2.71848E-04-1.14015E-14
 -1      3354 4.16527E-03-3.07060E-04-1.34919E-14
 -1      3355 4.30850E-03-3.05871E-04-1.43776E-14
 -1      3356 4.09203E-03-2.70186E-04-1.30657E-14
 -1      3357 4.45165E-03-3.04566E-04-1.52883E-14
 -1      3358 4.59471E-03-3.03145E-04-1.62244E-14
 -1      3359 4.37871E-03-2.67994E-04-1.48340E-14
 -1      3360 4.73769E-03-3.01621E-04-1.71868E-14
 -1      3361 4.88060E-03-2.99990E-04-1.81728E-14
 -1      3362 4.66492E-03-2.65352E-04-1.67051E-14
 -1      3363 5.02344E-03-2.98261E-04-1.91832E-14
 -1      3364 5.16621E-03-2.96429E-04-2.02180E-14
 -1      3365 4.95069E-03-2.62289E-04-1.86753E-14
 -1      3366 5.30894E-03-2.94502E-04-2.12770E-14
 -1      3367 5.45162E-03-2.92475E-04-2.23591E-14
 -1      3368 5.23605E-03-2.58800E-04-2.07426E-14
 -1      3369 5.59429E-03-2.90359E-04-2.34646E-14
 -1      3370 5.73697E-03-2.88155E-04-2.45949E-14
 -1      3371 5.52109E-03-2.54867E-04-2.29063E-14
 -1      3372 5.87967E-03-2.85877E-04-2.57452E-14
 -1      3373 6.02246E-03-2.83536E-04-2.69179E-14
 -1      3374 5.80595E-03-2.50479E-04-2.51609E-14
 -1      3375 6.16537E-03-2.81153E-04-2.81140E-14
 -1      3376 6.30846E-03-2.78762E-04-2.93317E-14
 -1      3377 6.09088E-03-2.45655E-04-2.75072E-14
 -1      3378 6.45181E-03-2.76387E-04-3.05684E-14
 -1      3379 6.59552E-03-2.74097E-04-3.18275E-14
 -1      3380 6.37628E-03-2.40482E-04-2.99379E-14
 -1      3381 6.73968E-03-2.71927E-04-3.31070E-14
 -1      3382 6.88442E-03-2.69992E-04-3.44050E-14
 -1      3383 6.66280E-03-2.35166E-04-3.24520E-14
 -1      3384 7.02989E-03-2.68340E-04-3.57243E-14
 -1      3385 7.17624E-03-2.67156E-04-3.70655E-14
 -1      3386 6.95138E-03-2.30107E-04-3.50471E-14
 -1      3387 7.32366E-03-2.66497E-04-3.84277E-14
 -1      3388 7.47230E-03-2.66639E-04-3.98076E-14
 -1      3389 7.24330E-03-2.26012E-04-3.77245E-14
 -1      3390 7.62242E-03-2.67649E-04-4.12066E-14
 -1      3391 7.77407E-03-2.69890E-04-4.26284E-14
 -1      3392 7.54022E-03-2.24035E-04-4.04817E-14
 -1      3393 7.92756E-03-2.73430E-04-4.40679E-14
 -1      3394 8.08280E-03-2.78679E-04-4.55246E-14
 -1      3395 7.84396E-03-2.25897E-04-4.33169E-14
 -1      3396 8.24004E-03-2.85678E-04-4.70016E-14
 -1      3397 8.39890E-03-2.94694E-04-4.84977E-14
 -1      3398 8.15619E-03-2.33899E-04-4.62287E-14
 -1      3399 8.55946E-03-3.05666E-04-5.00090E-14
 -1      3400 8.72104E-03-3.18429E-04-5.15383E-14
 -1      3401 8.47751E-03-2.50539E-04-4.92136E-14
 -1      3402 8.88360E-03-3.32722E-04-5.30854E-14
 -1      3403 9.04578E-03-3.47279E-04-5.46507E-14
 -1      3404 8.80650E-03-2.76962E-04-5.22665E-14
 -1      3405 9.20755E-03-3.61269E-04-5.62324E-14
 -1      3406 9.36758E-03-3.72716E-04-5.78303E-14
 -1      3407 9.13875E-03-3.10528E-04-5.53914E-14
 -1      3408 9.52545E-03-3.80002E-04-5.94420E-14
 -1      3409 9.68101E-03-3.80106E-04-6.10702E-14
 -1      3410 9.46701E-03-3.40748E-04-5.85817E-14
 -1      3411 9.83364E-03-3.71662E-04-6.27130E-14
 -1      3412 9.98495E-03-3.51392E-04-6.43704E-14
 -1      3413 9.78486E-03-3.49541E-04-6.18333E-14
 -1      3414 1.01344E-02-3.18312E-04-6.60447E-14
 -1      3415 1.02848E-02-2.72383E-04-6.77316E-14
 -1      3416 1.00927E-02-3.13952E-04-6.51466E-14
 -1      3417 1.04358E-02-2.13602E-04-6.94334E-14
 -1      3418 1.05892E-02-1.44056E-04-7.11527E-14
 -1      3419 1.03980E-02-2.19705E-04-6.85186E-14
 -1      3420 1.07447E-02-6.50624E-05-7.28831E-14
 -1      3421 1.09029E-02 2.02703E-05-7.46254E-14
 -1      3422 1.07110E-02-7.33418E-05-7.19499E-14
 -1      3423 1.10633E-02 1.10197E-04-7.63839E-14
 -1      3424 1.12250E-02 2.02142E-04-7.81548E-14
 -1      3425 1.10351E-02 1.05604E-04-7.54386E-14
 -1      3426 1.13877E-02 2.94977E-04-7.99359E-14
 -1      3427 1.15502E-02 3.86994E-04-8.17287E-14
 -1      3428 1.13669E-02 2.95657E-04-7.89803E-14
 -1      3429 1.17122E-02 4.77717E-04-8.35350E-14
 -1      3430 1.18728E-02 5.66573E-04-8.53541E-14
 -1      3431 1.16988E-02 4.82183E-04-8.25701E-14
 -1      3432 1.20320E-02 6.53438E-04-8.71836E-14
 -1      3433 1.21892E-02 7.38438E-04-8.90291E-14
 -1      3434 1.20248E-02 6.59418E-04-8.62067E-14
 -1      3435 1.23448E-02 8.21600E-04-9.08899E-14
 -1      3436 1.24984E-02 9.03313E-04-9.27622E-14
 -1      3437 1.23421E-02 8.27288E-04-8.98960E-14
 -1      3438 1.26504E-02 9.83662E-04-9.46457E-14
 -1      3439 1.28007E-02 1.06306E-03-9.65419E-14
 -1      3440 1.26505E-02 9.88023E-04-9.36385E-14
 -1      3441 1.29496E-02 1.14161E-03-9.84508E-14
 -1      3442 1.30972E-02 1.21967E-03-1.00372E-13
 -1      3443 1.29514E-02 1.14427E-03-9.74294E-14
 -1      3444 2.25212E-03 3.31937E-04-3.97214E-15
 -1      3445 2.10087E-03 3.25996E-04-3.48521E-15
 -1      3446 3.70398E-03 3.46945E-04-1.02930E-14
 -1      3447 3.55338E-03 3.47444E-04-9.50058E-15
 -1      3448 3.99061E-03 3.45360E-04-1.18877E-14
 -1      3449 3.84733E-03 3.46251E-04-1.10765E-14
 -1      3450 3.76995E-03 3.09142E-04-1.07309E-14
 -1      3451 4.27696E-03 3.43097E-04-1.35888E-14
 -1      3452 4.13382E-03 3.44306E-04-1.27244E-14
 -1      3453 4.05688E-03 3.07527E-04-1.23526E-14
 -1      3454 4.56299E-03 3.40276E-04-1.53938E-14
 -1      3455 4.42001E-03 3.41753E-04-1.44790E-14
 -1      3456 4.34338E-03 3.05326E-04-1.40802E-14
 -1      3457 4.84866E-03 3.36959E-04-1.73012E-14
 -1      3458 4.70587E-03 3.38679E-04-1.63347E-14
 -1      3459 4.62942E-03 3.02646E-04-1.59117E-14
 -1      3460 5.13387E-03 3.33173E-04-1.93067E-14
 -1      3461 4.99133E-03 3.35126E-04-1.82916E-14
 -1      3462 4.91490E-03 2.99547E-04-1.78435E-14
 -1      3463 5.41845E-03 3.28942E-04-2.14108E-14
 -1      3464 5.27625E-03 3.31114E-04-2.03466E-14
 -1      3465 5.19970E-03 2.96076E-04-1.98732E-14
 -1      3466 5.71626E-03 3.24082E-04-2.37209E-14
 -1      3467 5.56750E-03 3.26565E-04-2.25530E-14
 -1      3468 5.49066E-03 2.92197E-04-2.20548E-14
 -1      3469 5.99848E-03 3.19207E-04-2.60134E-14
 -1      3470 5.85757E-03 3.21671E-04-2.48570E-14
 -1      3471 5.78027E-03 2.88123E-04-2.43346E-14
 -1      3472 6.27862E-03 3.14394E-04-2.83914E-14
 -1      3473 6.13885E-03 3.16784E-04-2.71919E-14
 -1      3474 6.06093E-03 2.84207E-04-2.66488E-14
 -1      3475 6.55564E-03 3.10191E-04-3.08522E-14
 -1      3476 6.41758E-03 3.12200E-04-2.96116E-14
 -1      3477 6.33891E-03 2.80788E-04-2.90462E-14
 -1      3478 6.82799E-03 3.07527E-04-3.33953E-14
 -1      3479 6.69249E-03 3.08641E-04-3.21138E-14
 -1      3480 6.61297E-03 2.78597E-04-3.15273E-14
 -1      3481 7.09344E-03 3.07863E-04-3.60153E-14
 -1      3482 6.96171E-03 3.07288E-04-3.46962E-14
 -1      3483 6.88137E-03 2.78791E-04-3.40889E-14
 -1      3484 7.34887E-03 3.13354E-04-3.87097E-14
 -1      3485 7.22261E-03 3.09939E-04-3.73528E-14
 -1      3486 7.14164E-03 2.83090E-04-3.67288E-14
 -1      3487 7.60147E-03 3.27842E-04-4.16141E-14
 -1      3488 7.47747E-03 3.19476E-04-4.01534E-14
 -1      3489 7.39632E-03 2.94242E-04-3.95093E-14
 -1      3490 7.82109E-03 3.53605E-04-4.44466E-14
 -1      3491 7.71420E-03 3.39391E-04-4.30215E-14
 -1      3492 7.63376E-03 3.15501E-04-4.23636E-14
 -1      3493 1.18411E-03-2.15432E-04-1.36997E-15
 -1      3494 1.40402E-02 1.62896E-03-9.52252E-14
 -1      3495 1.39191E-02 1.55843E-03-9.33246E-14
 -1      3496 1.42931E-02 1.77523E-03-9.90560E-14
 -1      3497 1.41650E-02 1.70116E-03-9.71346E-14
 -1      3498 1.40483E-02 1.64120E-03-9.62713E-14
 -1      3499 1.38673E-02 1.60927E-03-1.03538E-13
 -1      3500 1.39523E-02 1.64860E-03-1.03456E-13
 -1      3501 1.47413E-02 2.03171E-03-1.05888E-13
 -1      3502 1.47564E-02 2.03854E-03-1.05320E-13
 -1      3503 1.46336E-02 1.96891E-03-1.03621E-13
 -1      3504 1.45913E-02 1.94899E-03-1.04248E-13
 -1      3505 3.40629E-03 3.47647E-04-8.75631E-15
 -1      3506 3.26272E-03 3.47547E-04-8.05929E-15
 -1      3507 3.18766E-03 3.09774E-04-7.78467E-15
 -1      3508 9.33594E-03-1.29688E-04-5.68169E-14
 -1      3509 9.12216E-03-4.92665E-05-5.51083E-14
 -1      3510 1.04462E-02-1.87853E-04-6.76714E-14
 -1      3511 1.02921E-02-2.40388E-04-6.60570E-14
 -1      3512 1.35223E-02 1.44187E-03-1.03863E-13
 -1      3513 1.36085E-02 1.48486E-03-1.03784E-13
 -1      3514 1.18872E-02 6.62890E-04-7.89465E-14
 -1      3515 1.16546E-02 5.25168E-04-7.76908E-14
 -1      3516 2.54014E-03 3.40001E-04-4.98871E-15
 -1      3517 2.39615E-03 3.36464E-04-4.46561E-15
 -1      3518 2.31513E-03 2.97528E-04-4.25503E-15
 -1      3519 2.83154E-03 3.44778E-04-6.13751E-15
 -1      3520 2.68768E-03 3.42790E-04-5.55534E-15
 -1      3521 2.89953E-03 3.08076E-04-6.50058E-15
 -1      3522 1.01538E-03-3.89366E-05-1.09965E-15
 -1      3523 1.01647E-03-6.57748E-05-1.10108E-15
 -1      3524 1.13799E-03-8.59769E-05-1.33339E-15
 -1      3525 9.77200E-03-2.47213E-04-6.06898E-14
 -1      3526 9.58116E-03-2.04797E-04-5.89444E-14
 -1      3527 1.30708E-03-2.32487E-04-1.62502E-15
 -1      3528 1.45003E-03-2.46331E-04-1.95106E-15
 -1      3529 1.51627E-03-2.19978E-04-2.13782E-15
 -1      3530 1.26963E-03-1.92138E-04-1.57082E-15
 -1      3531 8.87615E-03 4.32363E-05-5.32769E-14
 -1      3532 8.68506E-03 1.19515E-04-5.19814E-14
 -1      3533 8.05062E-03 3.63822E-04-4.84800E-14
 -1      3534 8.00031E-03 3.73761E-04-4.80634E-14
 -1      3535 1.36950E-02 1.52723E-03-1.03704E-13
 -1      3536 1.37813E-02 1.56877E-03-1.03622E-13
 -1      3537 1.37020E-02 1.52646E-03-1.01902E-13
 -1      3538 1.35273E-02 1.44185E-03-1.02064E-13
 -1      3539 1.32614E-03 2.85600E-04-1.46881E-15
 -1      3540 1.28396E-03 2.56912E-04-1.42082E-15
 -1      3541 1.45116E-03 2.95905E-04-1.73665E-15
 -1      3542 8.20263E-03 3.31168E-04-4.95026E-14
 -1      3543 8.14123E-03 3.51090E-04-4.92094E-14
 -1      3544 8.02725E-03 3.29143E-04-4.77798E-14
 -1      3545 8.23435E-03 2.81912E-04-4.92285E-14
 -1      3546 1.01823E-02-2.66793E-04-6.50900E-14
 -1      3547 1.25922E-02 1.01006E-03-8.26154E-14
 -1      3548 1.95683E-03 3.18978E-04-3.05172E-15
 -1      3549 1.81284E-03 3.10488E-04-2.64777E-15
 -1      3550 2.02641E-03 2.86983E-04-3.32232E-15
 -1      3551 1.25883E-03-7.63247E-05-1.58762E-15
 -1      3552 1.26092E-03-1.07771E-04-1.58767E-15
 -1      3553 9.00189E-03-1.05522E-04-5.39680E-14
 -1      3554 8.94682E-03-3.27627E-05-5.36233E-14
 -1      3555 8.77578E-03-2.52179E-05-5.21544E-14
 -1      3556 2.60744E-03 3.04262E-04-5.31773E-15
 -1      3557 1.31906E-02 1.26919E-03-1.01832E-13
 -1      3558 1.33114E-02 1.33363E-03-1.03528E-13
 -1      3559 1.33784E-02 1.36844E-03-1.03723E-13
 -1      3560 1.31929E-02 1.27020E-03-1.00796E-13
 -1      3561 3.47901E-03 3.09996E-04-9.20038E-15
 -1      3562 8.56640E-03 8.13910E-05-5.07165E-14
 -1      3563 8.53930E-03 1.52291E-04-5.08818E-14
 -1      3564 8.39886E-03 1.76170E-04-4.97950E-14
 -1      3565 7.86004E-03 3.55232E-04-4.54214E-14
 -1      3566 1.32203E-02 1.19628E-03-8.26989E-14
 -1      3567 1.32011E-02 1.20995E-03-8.38062E-14
 -1      3568 1.33088E-02 1.22581E-03-8.35646E-14
 -1      3569 1.38748E-02 1.60613E-03-1.01735E-13
 -1      3570 1.40362E-02 1.68662E-03-1.03371E-13
 -1      3571 1.41182E-02 1.72334E-03-1.03285E-13
 -1      3572 1.35875E-02 1.36279E-03-8.75368E-14
 -1      3573 1.34886E-02 1.30328E-03-8.56287E-14
 -1      3574 1.45217E-02 1.90553E-03-1.02176E-13
 -1      3575 1.44019E-02 1.83696E-03-1.00489E-13
 -1      3576 1.42814E-02 1.77277E-03-9.96141E-14
 -1      3577 1.45012E-02 1.89607E-03-1.02491E-13
 -1      3578 1.13551E-03-2.76996E-05-1.32926E-15
 -1      3579 9.41864E-03-1.93419E-04-5.75656E-14
 -1      3580 1.09913E-02 1.07931E-04-7.27789E-14
 -1      3581 1.27734E-03 2.22343E-04-1.45368E-15
 -1      3582 1.20655E-02 7.54700E-04-8.04380E-14
 -1      3583 1.16795E-02 5.27221E-04-7.88575E-14
 -1      3584 1.15185E-02 4.39212E-04-7.70943E-14
 -1      3585 1.13915E-02 3.55085E-04-7.64967E-14
 -1      3586 1.34456E-02 1.40307E-03-1.03920E-13
 -1      3587 1.44793E-02 1.88656E-03-1.02802E-13
 -1      3588 1.38002E-02 1.48938E-03-9.13838E-14
 -1      3589 1.36870E-02 1.42274E-03-8.94565E-14
 -1      3590 1.38059E-02 1.50306E-03-9.24230E-14
 -1      3591 9.83718E-03-2.75847E-04-6.14865E-14
 -1      3592 7.94024E-03 3.64557E-04-4.70731E-14
 -1      3593 1.26126E-03 1.10640E-04-1.53114E-15
 -1      3594 1.25906E-03 7.90849E-05-1.54782E-15
 -1      3595 1.38078E-03 6.71449E-05-1.82601E-15
 -1      3596 1.25759E-03 4.78045E-05-1.56139E-15
 -1      3597 1.25686E-03 1.67436E-05-1.57198E-15
 -1      3598 1.26278E-03-1.33314E-04-1.58415E-15
 -1      3599 1.26640E-03-1.65692E-04-1.57841E-15
 -1      3600 1.38916E-03-1.78733E-04-1.85205E-15
 -1      3601 1.38410E-03-1.24211E-04-1.86248E-15
 -1      3602 1.29668E-02 1.14650E-03-8.33825E-14
 -1      3603 1.33975E-02 1.26139E-03-8.45468E-14
 -1      3604 1.33922E-02 1.24400E-03-8.35308E-14
 -1      3605 1.44118E-02 1.85458E-03-1.02897E-13
 -1      3606 1.43249E-02 1.80304E-03-1.01148E-13
 -1      3607 1.43411E-02 1.82213E-03-1.02994E-13
 -1      3608 1.33628E-02 1.35888E-03-1.02201E-13
 -1      3609 3.55036E-03 2.72216E-04-9.63899E-15
 -1      3610 3.40274E-03 2.72381E-04-8.89195E-15
 -1      3611 1.31150E-02 1.19739E-03-8.43875E-14
 -1      3612 1.30003E-02 1.16862E-03-8.48260E-14
 -1      3613 1.99624E-03-2.16177E-04-3.50917E-15
 -1      3614 2.14093E-03-2.20973E-04-3.97836E-15
 -1      3615 2.28573E-03-2.24881E-04-4.47614E-15
 -1      3616 2.43060E-03-2.27982E-04-5.00240E-15
 -1      3617 2.20962E-03-1.86920E-04-4.22972E-15
 -1      3618 2.57546E-03-2.30415E-04-5.55758E-15
 -1      3619 2.72029E-03-2.32243E-04-6.14039E-15
 -1      3620 2.49970E-03-1.92301E-04-5.28153E-15
 -1      3621 2.86505E-03-2.33582E-04-6.75187E-15
 -1      3622 3.00972E-03-2.34476E-04-7.39212E-15
 -1      3623 2.78978E-03-1.95490E-04-6.44709E-15
 -1      3624 3.15427E-03-2.35020E-04-8.06005E-15
 -1      3625 3.29870E-03-2.35242E-04-8.75615E-15
 -1      3626 3.07954E-03-1.97063E-04-7.72535E-15
 -1      3627 3.44300E-03-2.35214E-04-9.47911E-15
 -1      3628 3.58716E-03-2.34954E-04-1.02286E-14
 -1      3629 3.36881E-03-1.97466E-04-9.11547E-15
 -1      3630 3.73117E-03-2.34514E-04-1.10064E-14
 -1      3631 3.87504E-03-2.33902E-04-1.18105E-14
 -1      3632 3.65748E-03-1.97026E-04-1.06139E-14
 -1      3633 4.01876E-03-2.33155E-04-1.26414E-14
 -1      3634 4.16233E-03-2.32274E-04-1.34994E-14
 -1      3635 3.94549E-03-1.95965E-04-1.22202E-14
 -1      3636 4.30576E-03-2.31284E-04-1.43829E-14
 -1      3637 4.44904E-03-2.30179E-04-1.52915E-14
 -1      3638 4.23284E-03-1.94422E-04-1.39335E-14
 -1      3639 4.59218E-03-2.28976E-04-1.62251E-14
 -1      3640 4.73518E-03-2.27663E-04-1.71850E-14
 -1      3641 4.51950E-03-1.92468E-04-1.57496E-14
 -1      3642 4.87803E-03-2.26251E-04-1.81699E-14
 -1      3643 5.02074E-03-2.24726E-04-1.91781E-14
 -1      3644 4.80547E-03-1.90115E-04-1.76662E-14
 -1      3645 5.16332E-03-2.23092E-04-2.02104E-14
 -1      3646 5.30578E-03-2.21333E-04-2.12672E-14
 -1      3647 5.09076E-03-1.87335E-04-1.96812E-14
 -1      3648 5.44812E-03-2.19451E-04-2.23482E-14
 -1      3649 5.59037E-03-2.17430E-04-2.34526E-14
 -1      3650 5.37540E-03-1.84059E-04-2.17924E-14
 -1      3651 5.73253E-03-2.15270E-04-2.45794E-14
 -1      3652 5.87465E-03-2.12959E-04-2.57284E-14
 -1      3653 5.65944E-03-1.80191E-04-2.39988E-14
 -1      3654 6.01675E-03-2.10496E-04-2.69007E-14
 -1      3655 6.15889E-03-2.07880E-04-2.80954E-14
 -1      3656 5.94304E-03-1.75616E-04-2.62966E-14
 -1      3657 6.30113E-03-2.05109E-04-2.93093E-14
 -1      3658 6.44356E-03-2.02208E-04-3.05438E-14
 -1      3659 6.22648E-03-1.70221E-04-2.86824E-14
 -1      3660 6.58625E-03-1.99173E-04-3.18001E-14
 -1      3661 6.72936E-03-1.96070E-04-3.30770E-14
 -1      3662 6.51023E-03-1.63933E-04-3.11506E-14
 -1      3663 6.87301E-03-1.92903E-04-3.43721E-14
 -1      3664 7.01740E-03-1.89806E-04-3.56874E-14
 -1      3665 6.79511E-03-1.56782E-04-3.36990E-14
 -1      3666 7.16271E-03-1.86793E-04-3.70250E-14
 -1      3667 7.30919E-03-1.84109E-04-3.83829E-14
 -1      3668 7.08233E-03-1.49023E-04-3.63294E-14
 -1      3669 7.45711E-03-1.81795E-04-3.97597E-14
 -1      3670 7.60672E-03-1.80251E-04-4.11551E-14
 -1      3671 7.37368E-03-1.41332E-04-3.90397E-14
 -1      3672 7.75838E-03-1.79556E-04-4.25707E-14
 -1      3673 7.91227E-03-1.80289E-04-4.40059E-14
 -1      3674 7.67153E-03-1.35126E-04-4.18289E-14
 -1      3675 8.06884E-03-1.82555E-04-4.54571E-14
 -1      3676 8.22804E-03-1.87175E-04-4.69289E-14
 -1      3677 7.97868E-03-1.32908E-04-4.46909E-14
 -1      3678 8.39048E-03-1.94301E-04-4.84192E-14
 -1      3679 8.55530E-03-2.04442E-04-4.99254E-14
 -1      3680 8.29805E-03-1.38381E-04-4.76275E-14
 -1      3681 8.74112E-03-1.81515E-04-5.16160E-14
 -1      3682 8.91284E-03-1.99249E-04-5.31587E-14
 -1      3683 9.08026E-03-2.09414E-04-5.46456E-14
 -1      3684 9.25506E-03-2.33513E-04-5.62225E-14
 -1      3685 9.47524E-03-2.87110E-04-5.83412E-14
 -1      3686 9.64245E-03-3.03814E-04-5.99547E-14
 -1      3687 9.82150E-03-3.12876E-04-6.17393E-14
 -1      3688 9.98161E-03-3.07803E-04-6.33877E-14
 -1      3689 1.01396E-02-2.85976E-04-6.50483E-14
 -1      3690 1.02916E-02-2.50656E-04-6.68698E-14
 -1      3691 1.04483E-02-1.92596E-04-6.85621E-14
 -1      3692 1.06539E-02-9.27542E-05-7.05305E-14
 -1      3693 1.08189E-02-3.79326E-06-7.22544E-14
 -1      3694 1.10358E-02 1.26748E-04-7.42220E-14
 -1      3695 1.12099E-02 2.29424E-04-7.59809E-14
 -1      3696 1.13654E-02 3.17274E-04-7.77322E-14
 -1      3697 1.15388E-02 4.16121E-04-7.95166E-14
 -1      3698 1.20187E-02 6.67436E-04-8.52293E-14
 -1      3699 1.21810E-02 7.52490E-04-8.70604E-14
 -1      3700 1.23408E-02 8.34851E-04-8.89057E-14
 -1      3701 1.24976E-02 9.15260E-04-9.07645E-14
 -1      3702 1.23412E-02 8.44437E-04-8.79174E-14
 -1      3703 1.26520E-02 9.93877E-04-9.26345E-14
 -1      3704 1.28040E-02 1.07143E-03-9.45154E-14
 -1      3705 1.26550E-02 1.00139E-03-9.16310E-14
 -1      3706 1.29542E-02 1.14802E-03-9.64103E-14
 -1      3707 1.31026E-02 1.22414E-03-9.83175E-14
 -1      3708 1.29582E-02 1.15297E-03-9.53950E-14
 -1      3709 1.32702E-02 1.31055E-03-1.00739E-13
 -1      3710 3.83801E-03 2.71276E-04-1.11804E-14
 -1      3711 3.69425E-03 2.71843E-04-1.03957E-14
 -1      3712 3.61849E-03 2.34373E-04-1.00624E-14
 -1      3713 4.69942E-03 2.65136E-04-1.64548E-14
 -1      3714 4.55654E-03 2.66418E-04-1.55135E-14
 -1      3715 4.98463E-03 2.62340E-04-1.84117E-14
 -1      3716 4.84213E-03 2.63778E-04-1.74205E-14
 -1      3717 4.76945E-03 2.27825E-04-1.69994E-14
 -1      3718 5.26893E-03 2.59289E-04-2.04674E-14
 -1      3719 5.12691E-03 2.60845E-04-1.94271E-14
 -1      3720 5.05431E-03 2.25419E-04-1.89821E-14
 -1      3721 5.56616E-03 2.55930E-04-2.27291E-14
 -1      3722 5.41773E-03 2.57626E-04-2.15857E-14
 -1      3723 5.34514E-03 2.22832E-04-2.11165E-14
 -1      3724 5.84756E-03 2.52790E-04-2.49780E-14
 -1      3725 5.70710E-03 2.54346E-04-2.38417E-14
 -1      3726 5.63445E-03 2.20297E-04-2.33509E-14
 -1      3727 6.12667E-03 2.50058E-04-2.73131E-14
 -1      3728 5.98744E-03 2.51359E-04-2.61350E-14
 -1      3729 5.91474E-03 2.18159E-04-2.56225E-14
 -1      3730 6.40255E-03 2.48314E-04-2.97329E-14
 -1      3731 6.26508E-03 2.49040E-04-2.85124E-14
 -1      3732 6.19237E-03 2.16815E-04-2.79802E-14
 -1      3733 6.67389E-03 2.48474E-04-3.22347E-14
 -1      3734 6.53888E-03 2.48123E-04-3.09734E-14
 -1      3735 6.46638E-03 2.16990E-04-3.04213E-14
 -1      3736 6.93881E-03 2.51912E-04-3.48169E-14
 -1      3737 6.80729E-03 2.49741E-04-3.35165E-14
 -1      3738 6.73541E-03 2.19775E-04-3.29447E-14
 -1      3739 7.19476E-03 2.60575E-04-3.74764E-14
 -1      3740 7.06811E-03 2.55544E-04-3.61377E-14
 -1      3741 6.99762E-03 2.26741E-04-3.55474E-14
 -1      3742 7.44999E-03 2.78089E-04-4.03475E-14
 -1      3743 7.32445E-03 2.68238E-04-3.89015E-14
 -1      3744 7.25672E-03 2.40459E-04-3.82954E-14
 -1      3745 7.67505E-03 3.05936E-04-4.31496E-14
 -1      3746 7.56523E-03 2.90703E-04-4.17401E-14
 -1      3747 7.50252E-03 2.63661E-04-4.11172E-14
 -1      3748 1.35904E-02 1.37791E-03-8.85646E-14
 -1      3749 1.33723E-02 1.22524E-03-8.26408E-14
 -1      3750 1.40518E-02 1.65212E-03-9.73161E-14
 -1      3751 1.39278E-02 1.58294E-03-9.54082E-14
 -1      3752 1.42154E-02 1.74287E-03-9.97130E-14
 -1      3753 1.25681E-03-1.41712E-05-1.57990E-15
 -1      3754 1.25746E-03-4.51542E-05-1.58509E-15
 -1      3755 1.38058E-03-6.42922E-05-1.86293E-15
 -1      3756 1.37918E-03 1.36987E-06-1.85057E-15
 -1      3757 1.41939E-02 1.75676E-03-1.03187E-13
 -1      3758 1.42707E-02 1.79082E-03-1.03100E-13
 -1      3759 1.41858E-02 1.74162E-03-1.01351E-13
 -1      3760 1.40372E-02 1.67771E-03-1.01554E-13
 -1      3761 1.05465E-02-1.43552E-04-6.88578E-14
 -1      3762 1.27497E-02 1.07665E-03-8.45620E-14
 -1      3763 1.25037E-02 9.69745E-04-8.33533E-14
 -1      3764 7.83300E-03 3.33388E-04-4.54127E-14
 -1      3765 1.69454E-03 3.08092E-04-2.32716E-15
 -1      3766 1.56907E-03 3.01614E-04-2.01368E-15
 -1      3767 1.52681E-03 2.72586E-04-1.95666E-15
 -1      3768 1.76349E-03 2.78860E-04-2.56456E-15
 -1      3769 2.38265E-03 2.62716E-04-4.55491E-15
 -1      3770 2.23800E-03 2.58891E-04-4.05723E-15
 -1      3771 1.22522E-02 8.45833E-04-8.23656E-14
 -1      3772 1.20067E-02 7.10404E-04-8.13798E-14
 -1      3773 1.24303E-02 9.27233E-04-8.43046E-14
 -1      3774 2.96817E-03 2.71080E-04-6.86781E-15
 -1      3775 2.82371E-03 2.69885E-04-6.25259E-15
 -1      3776 1.42640E-03 2.30612E-04-1.77708E-15
 -1      3777 1.29614E-03 1.88385E-04-1.53488E-15
 -1      3778 2.67735E-03 2.68147E-04-5.65902E-15
 -1      3779 2.52912E-03 2.65784E-04-5.08839E-15
 -1      3780 2.45280E-03 2.27458E-04-4.86644E-15
 -1      3781 2.74616E-03 2.31659E-04-5.99773E-15
 -1      3782 1.29185E-03 1.55158E-04-1.55972E-15
 -1      3783 4.41349E-03 2.67606E-04-1.45966E-14
 -1      3784 4.27028E-03 2.68701E-04-1.37055E-14
 -1      3785 4.48368E-03 2.30012E-04-1.51158E-14
 -1      3786 1.41311E-03 1.46509E-04-1.84141E-15
 -1      3787 4.12693E-03 2.69682E-04-1.28405E-14
 -1      3788 3.98343E-03 2.70547E-04-1.20025E-14
 -1      3789 4.19715E-03 2.31898E-04-1.33318E-14
 -1      3790 1.70758E-03-2.03374E-04-2.65817E-15
 -1      3791 1.85177E-03-2.10339E-04-3.06920E-15
 -1      3792 1.92005E-03-1.78641E-04-3.29211E-15
 -1      3793 1.34029E-02 1.28207E-03-8.56608E-14
 -1      3794 3.25680E-03 2.72269E-04-8.18321E-15
 -1      3795 3.11254E-03 2.71861E-04-7.51137E-15
 -1      3796 3.03742E-03 2.33852E-04-7.23861E-15
 -1      3797 1.32741E-02 1.31269E-03-9.97092E-14
 -1      3798 7.78642E-03 3.04355E-04-4.47703E-14
 -1      3799 3.90814E-03 2.33400E-04-1.16424E-14
 -1      3800 2.09339E-03 2.54114E-04-3.58813E-15
 -1      3801 1.94889E-03 2.48282E-04-3.14844E-15
 -1      3802 2.16126E-03 2.20583E-04-3.85950E-15
 -1      3803 1.30717E-02 1.20324E-03-8.65894E-14
 -1      3804 1.29156E-02 1.14380E-03-8.55735E-14
 -1      3805 1.28368E-02 1.11370E-03-8.63181E-14
 -1      3806 8.65842E-03-5.93639E-05-5.10320E-14
 -1      3807 8.59913E-03 9.11979E-06-5.06988E-14
 -1      3808 8.46378E-03 3.99680E-05-4.96111E-14
 -1      3809 1.17155E-02 5.31034E-04-8.02760E-14
 -1      3810 1.16985E-02 4.98533E-04-8.15381E-14
 -1      3811 1.18666E-02 5.89845E-04-8.33460E-14
 -1      3812 7.86859E-03 2.94652E-04-4.57196E-14
 -1      3813 7.68993E-03 2.66569E-04-4.34533E-14
 -1      3814 1.35678E-02 1.38376E-03-8.94113E-14
 -1      3815 1.34717E-02 1.32796E-03-8.74943E-14
 -1      3816 1.40889E-02 1.68075E-03-9.88384E-14
 -1      3817 1.20289E-02 6.88034E-04-8.41853E-14
 -1      3818 1.37116E-02 1.52578E-03-1.00110E-13
 -1      3819 1.37986E-02 1.56459E-03-1.00027E-13
 -1      3820 1.33627E-02 1.35771E-03-9.96318E-14
 -1      3821 1.50323E-03-5.02173E-05-2.15873E-15
 -1      3822 1.50477E-03-8.48419E-05-2.16252E-15
 -1      3823 8.27182E-03 1.45617E-04-4.84258E-14
 -1      3824 8.24227E-03 2.06533E-04-4.85894E-14
 -1      3825 1.32301E-02 1.23593E-03-8.52573E-14
 -1      3826 1.62900E-03-9.93079E-05-2.48189E-15
 -1      3827 1.50619E-03-1.12759E-04-2.16191E-15
 -1      3828 1.50816E-03-1.40898E-04-2.15903E-15
 -1      3829 1.18413E-02 6.09294E-04-8.08843E-14
 -1      3830 1.20291E-02 7.06354E-04-8.28096E-14
 -1      3831 3.32823E-03 2.34620E-04-8.59394E-15
 -1      3832 1.55107E-03 1.73327E-04-2.14852E-15
 -1      3833 1.51967E-03 1.24683E-04-2.11762E-15
 -1      3834 1.54450E-03 2.34709E-04-2.05637E-15
 -1      3835 1.38049E-02 1.51496E-03-9.34581E-14
 -1      3836 1.36865E-02 1.44948E-03-9.15206E-14
 -1      3837 1.38001E-02 1.52456E-03-9.44945E-14
 -1      3838 1.51714E-03 8.95240E-05-2.13845E-15
 -1      3839 1.51546E-03 5.46387E-05-2.15625E-15
 -1      3840 1.65460E-03 1.13174E-04-2.47378E-15
 -1      3841 1.51257E-03-1.90972E-04-2.14710E-15
 -1      3842 1.35349E-02 1.44322E-03-1.00275E-13
 -1      3843 1.36235E-02 1.48524E-03-1.00192E-13
 -1      3844 1.35462E-02 1.44508E-03-9.84917E-14
 -1      3845 8.12909E-03 2.44425E-04-4.78715E-14
 -1      3846 7.94800E-03 2.80605E-04-4.64299E-14
 -1      3847 1.33654E-02 1.28640E-03-8.65004E-14
 -1      3848 8.64501E-03-1.18795E-04-5.07996E-14
 -1      3849 8.47858E-03-8.84606E-05-4.93579E-14
 -1      3850 8.33169E-03 1.02940E-05-4.83025E-14
 -1      3851 8.30342E-03 7.65213E-05-4.83246E-14
 -1      3852 2.42433E-03-1.54448E-04-5.00889E-15
 -1      3853 2.56956E-03-1.56170E-04-5.56292E-15
 -1      3854 2.71477E-03-1.57486E-04-6.14514E-15
 -1      3855 2.85993E-03-1.58430E-04-6.75520E-15
 -1      3856 2.64011E-03-1.19643E-04-5.84606E-15
 -1      3857 3.00499E-03-1.59080E-04-7.39426E-15
 -1      3858 3.14993E-03-1.59456E-04-8.06092E-15
 -1      3859 2.93068E-03-1.21122E-04-7.06610E-15
 -1      3860 3.29474E-03-1.59622E-04-8.75465E-15
 -1      3861 3.43938E-03-1.59588E-04-9.47597E-15
 -1      3862 3.22083E-03-1.21715E-04-8.39742E-15
 -1      3863 3.58386E-03-1.59402E-04-1.02245E-14
 -1      3864 3.72817E-03-1.59068E-04-1.10000E-14
 -1      3865 3.51037E-03-1.21661E-04-9.83819E-15
 -1      3866 3.87229E-03-1.58621E-04-1.18023E-14
 -1      3867 4.01623E-03-1.58058E-04-1.26312E-14
 -1      3868 3.79918E-03-1.21130E-04-1.13873E-14
 -1      3869 4.15998E-03-1.57405E-04-1.34868E-14
 -1      3870 4.30354E-03-1.56651E-04-1.43690E-14
 -1      3871 4.08721E-03-1.20227E-04-1.30433E-14
 -1      3872 4.44690E-03-1.55815E-04-1.52762E-14
 -1      3873 4.59007E-03-1.54881E-04-1.62079E-14
 -1      3874 4.37442E-03-1.19003E-04-1.48050E-14
 -1      3875 4.73305E-03-1.53860E-04-1.71648E-14
 -1      3876 4.87582E-03-1.52732E-04-1.81473E-14
 -1      3877 4.66076E-03-1.17459E-04-1.66677E-14
 -1      3878 5.01840E-03-1.51501E-04-1.91537E-14
 -1      3879 5.16077E-03-1.50143E-04-2.01836E-14
 -1      3880 4.94623E-03-1.15550E-04-1.86281E-14
 -1      3881 5.30295E-03-1.48655E-04-2.12395E-14
 -1      3882 5.44493E-03-1.47009E-04-2.23182E-14
 -1      3883 5.23077E-03-1.13184E-04-2.06882E-14
 -1      3884 5.58673E-03-1.45196E-04-2.34201E-14
 -1      3885 5.72835E-03-1.43185E-04-2.45456E-14
 -1      3886 5.51439E-03-1.10215E-04-2.28442E-14
 -1      3887 5.86981E-03-1.40962E-04-2.56940E-14
 -1      3888 6.01116E-03-1.38494E-04-2.68646E-14
 -1      3889 5.79709E-03-1.06447E-04-2.50931E-14
 -1      3890 6.15240E-03-1.35760E-04-2.80562E-14
 -1      3891 6.29362E-03-1.32736E-04-2.92690E-14
 -1      3892 6.07898E-03-1.01626E-04-2.74323E-14
 -1      3893 6.43486E-03-1.29393E-04-3.05029E-14
 -1      3894 6.57625E-03-1.25732E-04-3.17568E-14
 -1      3895 6.36030E-03-9.54523E-05-2.98566E-14
 -1      3896 6.71786E-03-1.21715E-04-3.30294E-14
 -1      3897 6.85990E-03-1.17394E-04-3.43220E-14
 -1      3898 6.64155E-03-8.76200E-05-3.23610E-14
 -1      3899 7.00248E-03-1.12731E-04-3.56356E-14
 -1      3900 7.14590E-03-1.07871E-04-3.69696E-14
 -1      3901 6.92361E-03-7.79005E-05-3.49448E-14
 -1      3902 7.29037E-03-1.02791E-04-3.83230E-14
 -1      3903 7.43628E-03-9.77999E-05-3.96963E-14
 -1      3904 7.20791E-03-6.63045E-05-3.76081E-14
 -1      3905 7.58394E-03-9.29350E-05-4.10886E-14
 -1      3906 7.73383E-03-8.87467E-05-4.24992E-14
 -1      3907 7.49669E-03-5.33946E-05-4.03513E-14
 -1      3908 7.88638E-03-8.53318E-05-4.39300E-14
 -1      3909 8.04216E-03-8.37177E-05-4.53759E-14
 -1      3910 7.79320E-03-4.08762E-05-4.31702E-14
 -1      3911 1.82989E-03 2.48492E-04-2.79902E-15
 -1      3912 1.71111E-03 2.47551E-04-2.47030E-15
 -1      3913 1.89722E-03 2.17259E-04-3.03966E-15
 -1      3914 1.35542E-02 1.39333E-03-9.04378E-14
 -1      3915 7.65228E-03 2.31118E-04-4.28943E-14
 -1      3916 7.56903E-03 2.48271E-04-4.19688E-14
 -1      3917 1.37196E-02 1.52186E-03-9.83136E-14
 -1      3918 1.38794E-02 1.59953E-03-9.99289E-14
 -1      3919 1.39579E-02 1.63280E-03-9.98308E-14
 -1      3920 1.32979E-02 1.27717E-03-8.70838E-14
 -1      3921 1.26606E-02 1.01051E-03-9.06307E-14
 -1      3922 1.28137E-02 1.08531E-03-9.25002E-14
 -1      3923 1.29642E-02 1.15903E-03-9.43820E-14
 -1      3924 1.31127E-02 1.23244E-03-9.62744E-14
 -1      3925 1.29725E-02 1.16630E-03-9.33705E-14
 -1      3926 5.41779E-03 1.86849E-04-2.17426E-14
 -1      3927 5.26932E-03 1.87832E-04-2.06219E-14
 -1      3928 5.12756E-03 1.88789E-04-1.95805E-14
 -1      3929 4.98547E-03 1.89765E-04-1.85630E-14
 -1      3930 5.20084E-03 1.52510E-04-2.01817E-14
 -1      3931 4.84309E-03 1.90721E-04-1.75702E-14
 -1      3932 4.70045E-03 1.91659E-04-1.66028E-14
 -1      3933 4.91680E-03 1.53886E-04-1.81443E-14
 -1      3934 5.69926E-03 1.85221E-04-2.39461E-14
 -1      3935 5.55876E-03 1.85993E-04-2.28334E-14
 -1      3936 5.48344E-03 1.51339E-04-2.23165E-14
 -1      3937 5.97856E-03 1.84215E-04-2.62395E-14
 -1      3938 5.83922E-03 1.84624E-04-2.50816E-14
 -1      3939 5.76423E-03 1.50651E-04-2.45429E-14
 -1      3940 6.25498E-03 1.84392E-04-2.86203E-14
 -1      3941 6.11719E-03 1.84130E-04-2.74194E-14
 -1      3942 6.04271E-03 1.50879E-04-2.68591E-14
 -1      3943 6.52755E-03 1.86602E-04-3.10801E-14
 -1      3944 6.39182E-03 1.85205E-04-2.98393E-14
 -1      3945 6.31819E-03 1.52676E-04-2.92599E-14
 -1      3946 6.79499E-03 1.92073E-04-3.36253E-14
 -1      3947 6.66202E-03 1.88879E-04-3.23440E-14
 -1      3948 6.58980E-03 1.56995E-04-3.17432E-14
 -1      3949 7.05566E-03 2.02506E-04-3.62465E-14
 -1      3950 6.92633E-03 1.96607E-04-3.49260E-14
 -1      3951 6.85644E-03 1.65160E-04-3.43060E-14
 -1      3952 7.31974E-03 2.21218E-04-3.90821E-14
 -1      3953 7.18916E-03 2.10796E-04-3.76538E-14
 -1      3954 7.12323E-03 1.79377E-04-3.70147E-14
 -1      3955 7.45089E-03 2.32835E-04-4.05727E-14
 -1      3956 1.40178E-02 1.65161E-03-9.89462E-14
 -1      3957 3.97945E-03 1.95541E-04-1.21127E-14
 -1      3958 3.83376E-03 1.96076E-04-1.12890E-14
 -1      3959 8.15427E-03 1.09325E-04-4.71352E-14
 -1      3960 3.10727E-03 1.96405E-04-7.61340E-15
 -1      3961 2.96243E-03 1.95799E-04-6.96634E-15
 -1      3962 7.93649E-03 2.21245E-04-4.58058E-14
 -1      3963 1.21816E-02 7.80254E-04-8.46945E-14
 -1      3964 1.23817E-02 8.92396E-04-8.54175E-14
 -1      3965 1.23686E-02 8.71506E-04-8.68083E-14
 -1      3966 1.25280E-02 9.49187E-04-8.86537E-14
 -1      3967 1.26103E-02 1.00858E-03-8.64219E-14
 -1      3968 1.50856E-03 1.93313E-05-2.15548E-15
 -1      3969 1.50850E-03-1.51499E-05-2.16615E-15
 -1      3970 1.63271E-03-3.37667E-05-2.49006E-15
 -1      3971 1.64497E-03 3.96119E-05-2.49741E-15
 -1      3972 3.68969E-03 1.96477E-04-1.05030E-14
 -1      3973 3.54545E-03 1.96747E-04-9.74442E-15
 -1      3974 3.76123E-03 1.58583E-04-1.09468E-14
 -1      3975 1.61137E-03 2.06890E-04-2.26261E-15
 -1      3976 1.71756E-03 1.83367E-04-2.57292E-15
 -1      3977 2.13408E-03-1.49470E-04-3.98679E-15
 -1      3978 2.27915E-03-1.52232E-04-4.48350E-15
 -1      3979 2.34944E-03-1.16950E-04-4.73996E-15
 -1      3980 4.55757E-03 1.92551E-04-1.56587E-14
 -1      3981 4.41447E-03 1.93401E-04-1.47402E-14
 -1      3982 4.63157E-03 1.55290E-04-1.62053E-14
 -1      3983 4.26667E-03 1.94206E-04-1.38205E-14
 -1      3984 4.12315E-03 1.94920E-04-1.29540E-14
 -1      3985 4.04921E-03 1.57757E-04-1.25766E-14
 -1      3986 3.39969E-03 1.96842E-04-9.00641E-15
 -1      3987 3.25333E-03 1.96748E-04-8.29458E-15
 -1      3988 3.17900E-03 1.58800E-04-7.99838E-15
 -1      3989 3.47114E-03 1.58993E-04-9.42063E-15
 -1      3990 1.58042E-03-1.63232E-04-2.33591E-15
 -1      3991 1.33822E-02 1.32420E-03-8.90943E-14
 -1      3992 1.32323E-02 1.26557E-03-8.78375E-14
 -1      3993 1.31647E-02 1.24821E-03-8.85907E-14
 -1      3994 7.94712E-03 1.63430E-04-4.55008E-14
 -1      3995 7.77775E-03 2.04616E-04-4.40933E-14
 -1      3996 2.23000E-03 1.86405E-04-4.13635E-15
 -1      3997 2.08508E-03 1.82774E-04-3.66307E-15
 -1      3998 7.64360E-03 1.86970E-04-4.26021E-14
 -1      3999 7.97065E-03 1.06438E-04-4.54017E-14
 -1      4000 2.88582E-03 1.57748E-04-6.68745E-15
 -1      4001 2.81568E-03 1.94842E-04-6.34027E-15
 -1      4002 2.66884E-03 1.93501E-04-5.74345E-15
 -1      4003 8.06252E-03 2.97406E-06-4.58153E-14
 -1      4004 8.16445E-03-4.69435E-05-4.65953E-14
 -1      4005 8.32641E-03-4.82952E-05-4.80751E-14
 -1      4006 1.35589E-02 1.44517E-03-9.67092E-14
 -1      4007 1.36442E-02 1.48100E-03-9.66117E-14
 -1      4008 1.26941E-02 1.03569E-03-8.95097E-14
 -1      4009 1.32894E-02 1.32092E-03-9.69116E-14
 -1      4010 1.32817E-02 1.31695E-03-9.79338E-14
 -1      4011 1.35066E-02 1.38676E-03-9.11976E-14
 -1      4012 7.39197E-03 2.00448E-04-3.99146E-14
 -1      4013 1.27812E-02 1.08841E-03-8.73569E-14
 -1      4014 1.27302E-02 1.05948E-03-8.84771E-14
 -1      4015 1.28553E-02 1.11533E-03-9.04569E-14
 -1      4016 1.29417E-02 1.15907E-03-8.83809E-14
 -1      4017 1.75987E-03-1.73931E-05-2.83458E-15
 -1      4018 1.75462E-03-5.52831E-05-2.82734E-15
 -1      4019 1.37928E-02 1.53221E-03-9.55415E-14
 -1      4020 1.36665E-02 1.46638E-03-9.35941E-14
 -1      4021 1.78071E-03 1.35952E-04-2.79834E-15
 -1      4022 1.77801E-03 9.80800E-05-2.82405E-15
 -1      4023 1.84463E-03-1.41961E-04-3.07869E-15
 -1      4024 1.98921E-03-1.46070E-04-3.51817E-15
 -1      4025 1.38665E-02 1.57650E-03-9.73335E-14
 -1      4026 2.52285E-03 1.91700E-04-5.17997E-15
 -1      4027 2.37595E-03 1.89358E-04-4.64165E-15
 -1      4028 2.30045E-03 1.51618E-04-4.42154E-15
 -1      4029 2.59271E-03 1.55499E-04-5.49476E-15
 -1      4030 4.34085E-03 1.56621E-04-1.43388E-14
 -1      4031 1.84034E-03 1.69487E-04-2.93320E-15
 -1      4032 1.89784E-03-7.41373E-05-3.24594E-15
 -1      4033 1.77077E-03-8.97207E-05-2.87362E-15
 -1      4034 1.33784E-02 1.36377E-03-9.68525E-14
 -1      4035 1.34706E-02 1.40624E-03-9.67702E-14
 -1      4036 1.33937E-02 1.36725E-03-9.50779E-14
 -1      4037 1.32110E-02 1.28280E-03-9.51990E-14
 -1      4038 1.70298E-03-1.50512E-04-2.67072E-15
 -1      4039 1.77223E-03-1.19858E-04-2.87376E-15
 -1      4040 2.05916E-03-1.12650E-04-3.74768E-15
 -1      4041 7.62365E-03 1.40269E-04-4.21906E-14
 -1      4042 7.49789E-03 1.73559E-04-4.10171E-14
 -1      4043 5.27071E-03 1.16590E-04-2.07599E-14
 -1      4044 5.12906E-03 1.16942E-04-1.97160E-14
 -1      4045 2.56589E-03-8.20502E-05-5.55124E-15
 -1      4046 2.71132E-03-8.27471E-05-6.13199E-15
 -1      4047 2.85671E-03-8.32568E-05-6.74118E-15
 -1      4048 3.00201E-03-8.35926E-05-7.37871E-15
 -1      4049 2.78314E-03-4.55333E-05-6.42012E-15
 -1      4050 3.14719E-03-8.37927E-05-8.04294E-15
 -1      4051 3.29221E-03-8.38625E-05-8.73469E-15
 -1      4052 3.07385E-03-4.58903E-05-7.69186E-15
 -1      4053 3.43708E-03-8.38346E-05-9.45458E-15
 -1      4054 3.58175E-03-8.37082E-05-1.02018E-14
 -1      4055 3.36402E-03-4.59453E-05-9.07430E-15
 -1      4056 3.72624E-03-8.35093E-05-1.09754E-14
 -1      4057 3.87051E-03-8.32318E-05-1.17756E-14
 -1      4058 3.65348E-03-4.57717E-05-1.05664E-14
 -1      4059 4.01459E-03-8.28953E-05-1.26030E-14
 -1      4060 4.15844E-03-8.24894E-05-1.34568E-14
 -1      4061 3.94212E-03-4.54130E-05-1.21648E-14
 -1      4062 4.30207E-03-8.20275E-05-1.43367E-14
 -1      4063 4.44547E-03-8.14948E-05-1.52421E-14
 -1      4064 4.22988E-03-4.48820E-05-1.38710E-14
 -1      4065 4.58865E-03-8.08986E-05-1.61727E-14
 -1      4066 4.73158E-03-8.02195E-05-1.71275E-14
 -1      4067 4.51669E-03-4.41603E-05-1.56798E-14
 -1      4068 4.87427E-03-7.94584E-05-1.81072E-14
 -1      4069 5.01670E-03-7.85904E-05-1.91113E-14
 -1      4070 4.80251E-03-4.31935E-05-1.75880E-14
 -1      4071 5.15888E-03-7.76091E-05-2.01397E-14
 -1      4072 5.30079E-03-7.64832E-05-2.11936E-14
 -1      4073 5.08726E-03-4.18826E-05-1.95944E-14
 -1      4074 5.44243E-03-7.51973E-05-2.22710E-14
 -1      4075 5.58380E-03-7.37129E-05-2.33709E-14
 -1      4076 5.37085E-03-4.00721E-05-2.16992E-14
 -1      4077 5.72488E-03-7.20035E-05-2.44941E-14
 -1      4078 5.86570E-03-7.00233E-05-2.56415E-14
 -1      4079 5.65319E-03-3.75339E-05-2.38982E-14
 -1      4080 6.00624E-03-6.77319E-05-2.68112E-14
 -1      4081 6.14655E-03-6.50790E-05-2.80008E-14
 -1      4082 5.93421E-03-3.39490E-05-2.61903E-14
 -1      4083 6.28662E-03-6.20073E-05-2.92121E-14
 -1      4084 6.42654E-03-5.84697E-05-3.04440E-14
 -1      4085 6.21388E-03-2.88913E-05-2.85704E-14
 -1      4086 6.56632E-03-5.43905E-05-3.16952E-14
 -1      4087 6.70611E-03-4.97441E-05-3.29660E-14
 -1      4088 6.49233E-03-2.18240E-05-3.10305E-14
 -1      4089 6.84597E-03-4.44389E-05-3.42566E-14
 -1      4090 6.98614E-03-3.85063E-05-3.55668E-14
 -1      4091 6.76989E-03-1.21276E-05-3.35700E-14
 -1      4092 7.12672E-03-3.18563E-05-3.68974E-14
 -1      4093 7.26807E-03-2.45909E-05-3.82483E-14
 -1      4094 7.04737E-03 8.00531E-07-3.61887E-14
 -1      4095 7.41044E-03-1.66841E-05-3.96176E-14
 -1      4096 7.55432E-03-8.44612E-06-4.10063E-14
 -1      4097 7.32619E-03 1.73205E-05-3.88864E-14
 -1      4098 7.72916E-03-4.89152E-06-4.26724E-14
 -1      4099 7.87854E-03 2.70108E-06-4.41024E-14
 -1      4100 7.99138E-03 4.27120E-05-4.53019E-14
 -1      4101 7.63720E-03 3.29187E-05-4.19179E-14
 -1      4102 1.95980E-03 1.67591E-04-3.28950E-15
 -1      4103 1.76599E-03 2.05612E-05-2.83820E-15
 -1      4104 1.88768E-03 1.92040E-07-3.19960E-15
 -1      4105 1.77299E-03 5.86873E-05-2.83768E-15
 -1      4106 7.79638E-03 9.72038E-05-4.36975E-14
 -1      4107 1.30655E-02 1.21329E-03-9.33113E-14
 -1      4108 1.34879E-02 1.38994E-03-9.22342E-14
 -1      4109 5.83302E-03 1.16535E-04-2.51687E-14
 -1      4110 5.69319E-03 1.16270E-04-2.40326E-14
 -1      4111 5.55282E-03 1.16210E-04-2.29193E-14
 -1      4112 5.41198E-03 1.16345E-04-2.18275E-14
 -1      4113 5.34077E-03 8.09997E-05-2.13398E-14
 -1      4114 5.62246E-03 8.14615E-05-2.35235E-14
 -1      4115 4.98706E-03 1.17344E-04-1.86961E-14
 -1      4116 4.84475E-03 1.17796E-04-1.77015E-14
 -1      4117 5.05748E-03 8.10794E-05-1.92505E-14
 -1      4118 6.11086E-03 1.18062E-04-2.75102E-14
 -1      4119 5.97228E-03 1.17126E-04-2.63288E-14
 -1      4120 5.90225E-03 8.28388E-05-2.57987E-14
 -1      4121 6.38574E-03 1.21516E-04-2.99318E-14
 -1      4122 6.24873E-03 1.19516E-04-2.87108E-14
 -1      4123 6.17972E-03 8.56778E-05-2.81613E-14
 -1      4124 6.65694E-03 1.27915E-04-3.24376E-14
 -1      4125 6.52187E-03 1.24305E-04-3.11739E-14
 -1      4126 6.45443E-03 9.07486E-05-3.06071E-14
 -1      4127 6.92364E-03 1.38611E-04-3.50207E-14
 -1      4128 6.79095E-03 1.32674E-04-3.37202E-14
 -1      4129 6.72588E-03 9.90880E-05-3.31325E-14
 -1      4130 7.19800E-03 1.56356E-04-3.78189E-14
 -1      4131 7.06169E-03 1.46568E-04-3.64092E-14
 -1      4132 7.00028E-03 1.12396E-04-3.58038E-14
 -1      4133 4.41386E-03 1.19196E-04-1.48510E-14
 -1      4134 4.26599E-03 1.19652E-04-1.39295E-14
 -1      4135 2.02923E-03 1.34595E-04-3.54015E-15
 -1      4136 3.83219E-03 1.20717E-04-1.13894E-14
 -1      4137 3.68792E-03 1.20953E-04-1.06013E-14
 -1      4138 1.37263E-02 1.51328E-03-9.64226E-14
 -1      4139 4.12011E-03 1.20058E-04-1.30483E-14
 -1      4140 3.97626E-03 1.20420E-04-1.22054E-14
 -1      4141 3.90344E-03 8.29162E-05-1.18356E-14
 -1      4142 2.27511E-03-7.99268E-05-4.47536E-15
 -1      4143 2.42046E-03-8.11129E-05-4.99939E-15
 -1      4144 2.49216E-03-4.47735E-05-5.26056E-15
 -1      4145 2.01376E-03-7.63943E-05-3.60387E-15
 -1      4146 2.15878E-03-7.81334E-05-4.07611E-15
 -1      4147 2.23030E-03-4.29957E-05-4.31344E-15
 -1      4148 1.99789E-03-4.03205E-05-3.54911E-15
 -1      4149 1.35706E-02 1.44026E-03-9.48284E-14
 -1      4150 1.89878E-03 7.97109E-05-3.18810E-15
 -1      4151 4.70213E-03 1.18258E-04-1.67309E-14
 -1      4152 4.55925E-03 1.18733E-04-1.57852E-14
 -1      4153 4.77285E-03 8.14518E-05-1.72591E-14
 -1      4154 1.33985E-02 1.35798E-03-9.24266E-14
 -1      4155 7.35932E-03 1.60999E-04-3.95197E-14
 -1      4156 2.14848E-03 1.06566E-04-3.95128E-15
 -1      4157 2.02348E-03 9.30556E-05-3.55973E-15
 -1      4158 2.01867E-03 5.16878E-05-3.57483E-15
 -1      4159 1.33137E-02 1.32696E-03-9.31133E-14
 -1      4160 1.32313E-02 1.28289E-03-9.05385E-14
 -1      4161 1.30650E-02 1.21241E-03-8.92769E-14
 -1      4162 1.32191E-02 1.28572E-03-9.31764E-14
 -1      4163 2.95748E-03 1.20408E-04-7.04309E-15
 -1      4164 2.81042E-03 1.19788E-04-6.41369E-15
 -1      4165 3.61341E-03 8.31946E-05-1.02495E-14
 -1      4166 3.54209E-03 1.21095E-04-9.83302E-15
 -1      4167 3.39608E-03 1.21142E-04-9.09308E-15
 -1      4168 4.48482E-03 8.19555E-05-1.53527E-14
 -1      4169 2.44080E-03 1.10161E-04-4.96958E-15
 -1      4170 2.29457E-03 1.08561E-04-4.44591E-15
 -1      4171 2.28957E-03 6.56070E-05-4.46465E-15
 -1      4172 4.19349E-03 8.24764E-05-1.35349E-14
 -1      4173 7.30472E-03 1.24434E-04-3.88944E-14
 -1      4174 3.25011E-03 1.21053E-04-8.38152E-15
 -1      4175 3.10375E-03 1.20826E-04-7.69742E-15
 -1      4176 3.02900E-03 8.28631E-05-7.39942E-15
 -1      4177 3.32144E-03 8.32179E-05-8.76788E-15
 -1      4178 1.30182E-02 1.19345E-03-9.03197E-14
 -1      4179 7.62729E-03 8.77082E-05-4.20180E-14
 -1      4180 7.46949E-03 7.98739E-05-4.04414E-14
 -1      4181 2.00357E-03-3.93891E-07-3.55430E-15
 -1      4182 5.91745E-03 2.47360E-05-2.60015E-14
 -1      4183 5.77757E-03 2.32832E-05-2.48471E-14
 -1      4184 1.30998E-02 1.23077E-03-9.22670E-14
 -1      4185 3.05132E-03 1.85116E-05-7.55434E-15
 -1      4186 3.19654E-03 1.85935E-05-8.22520E-15
 -1      4187 3.34273E-03 1.86365E-05-8.93009E-15
 -1      4188 3.48760E-03 1.86804E-05-9.65670E-15
 -1      4189 3.63364E-03 1.86960E-05-1.04177E-14
 -1      4190 3.77811E-03 1.87202E-05-1.11987E-14
 -1      4191 3.92236E-03 1.87271E-05-1.20069E-14
 -1      4192 4.06640E-03 1.87513E-05-1.28417E-14
 -1      4193 4.21244E-03 1.87706E-05-1.37161E-14
 -1      4194 4.35599E-03 1.88190E-05-1.46030E-14
 -1      4195 4.50153E-03 1.88790E-05-1.55297E-14
 -1      4196 4.64456E-03 1.89859E-05-1.64672E-14
 -1      4197 4.78732E-03 1.91255E-05-1.74298E-14
 -1      4198 4.92980E-03 1.93410E-05-1.84168E-14
 -1      4199 5.07197E-03 1.96218E-05-1.94290E-14
 -1      4200 5.21382E-03 2.00221E-05-2.04653E-14
 -1      4201 5.35533E-03 2.05364E-05-2.15247E-14
 -1      4202 5.49648E-03 2.12352E-05-2.26101E-14
 -1      4203 5.63722E-03 2.21199E-05-2.37169E-14
 -1      4204 6.05689E-03 2.65982E-05-2.71765E-14
 -1      4205 6.19581E-03 2.88944E-05-2.83720E-14
 -1      4206 6.33425E-03 3.17736E-05-2.95886E-14
 -1      4207 6.47212E-03 3.52793E-05-3.08251E-14
 -1      4208 6.60953E-03 3.95845E-05-3.20811E-14
 -1      4209 6.74635E-03 4.47580E-05-3.33579E-14
 -1      4210 6.88279E-03 5.09797E-05-3.46530E-14
 -1      4211 7.02550E-03 5.87487E-05-3.60345E-14
 -1      4212 7.16124E-03 6.74430E-05-3.73722E-14
 -1      4213 7.33253E-03 6.85183E-05-3.90621E-14
 -1      4214 2.12799E-03 1.12026E-05-3.94938E-15
 -1      4215 2.75940E-03 1.82820E-05-6.29012E-15
 -1      4216 2.90484E-03 1.84221E-05-6.90595E-15
 -1      4217 2.39060E-03 1.09522E-05-4.86042E-15
 -1      4218 2.53609E-03 1.11210E-05-5.40435E-15
 -1      4219 2.24429E-03 1.07736E-05-4.34188E-15
 -1      4220 2.69877E-03 1.15655E-04-5.95934E-15
 -1      4221 2.55249E-03 1.14605E-04-5.38507E-15
 -1      4222 2.54756E-03 7.06635E-05-5.40715E-15
 -1      4223 2.77094E-03 7.86115E-05-6.29095E-15
 -1      4224 2.64775E-03 1.46959E-05-5.83881E-15
 -3
    1PSTEP                         2           1           1          
  100CL  101 1.000000000        4224                     0    1           1
 -4  STRESS      6    1
 -5  SXX         1    4    1    1
 -5  SYY         1    4    2    2
 -5  SZZ         1    4    3    3
 -5  SXY         1    4    1    2
 -5  SYZ         1    4    2    3
 -5  SZX         1    4    3    1
 -1         1-1.58128E+00-1.18950E+01-2.43936E+00-3.60331E+00-1.60300E-12-4.71012E-13
 -1         2-7.55610E-01-2.66618E+01-3.49232E+00-2.55028E-01-1.19807E-13-3.44655E-14
 -1         3 1.99865E+01-1.30608E-02 2.82365E-02-1.35790E-02 5.29797E-13 2.82667E-13
 -1         4 1.99965E+01-3.41278E-03 1.01230E-02 3.50022E-03 1.64927E-13 4.44371E-15
 -1         5 3.27656E+01 6.14224E+00 2.74232E+00 6.22404E+00-4.18901E-14 2.99090E-12
 -1         6 3.57496E+01 1.22625E+01 5.12521E+00-8.64624E+00-1.74250E-13 2.64311E-12
 -1         7 2.08170E+01 6.09923E+00-1.28685E-01-4.72555E+00-2.33286E-14 4.41636E-13
 -1         8 1.96707E+01 5.93468E+00 5.09471E-02-3.27509E+00-3.45834E-14-2.15364E-13
 -1         9 1.91371E+01 5.77185E+00 4.91727E-02-2.52698E+00-2.67668E-14-5.66847E-13
 -1        10 1.88951E+01 5.69214E+00 5.09734E-02-1.95161E+00-1.75181E-14-7.30425E-13
 -1        11 1.87743E+01 5.65142E+00 5.02933E-02-1.45660E+00-1.07562E-14-8.02426E-13
 -1        12 1.87113E+01 5.62995E+00 4.88587E-02-1.01552E+00-6.44862E-15-8.31505E-13
 -1        13 1.86780E+01 5.61859E+00 4.74668E-02-5.95570E-01-3.03620E-15-8.34513E-13
 -1        14 1.86641E+01 5.61380E+00 4.67352E-02-1.91280E-01 2.37836E-15-8.31701E-13
 -1        15 1.86646E+01 5.61395E+00 4.67750E-02 2.08266E-01 9.27947E-15-8.27732E-13
 -1        16 1.86795E+01 5.61907E+00 4.75942E-02 6.13379E-01 1.16750E-14-8.06958E-13
 -1        17 1.87140E+01 5.63069E+00 4.91074E-02 1.03527E+00 1.39608E-14-7.62635E-13
 -1        18 1.87785E+01 5.65260E+00 5.08529E-02 1.47946E+00 2.02074E-14-6.76268E-13
 -1        19 1.89011E+01 5.69382E+00 5.15530E-02 1.98066E+00 2.96646E-14-5.37982E-13
 -1        20 1.91420E+01 5.77435E+00 4.87892E-02 2.56427E+00 3.61308E-14-2.96321E-13
 -1        21 1.96663E+01 5.94926E+00 4.59059E-02 3.30915E+00 4.00097E-14 1.57977E-13
 -1        22 2.11999E+01 6.38098E+00 1.39654E-01 4.52316E+00 5.14866E-15 1.04932E-12
 -1        23 2.30272E+01-1.37909E+00-9.38243E-01-7.11229E-01-1.08278E-13 2.04353E-12
 -1        24 1.93641E+01-9.94827E-02-3.09838E-01 6.31838E-02-2.71042E-14 1.52080E-12
 -1        25 1.86754E+01-5.63237E-02-6.88204E-02 6.07010E-02-1.92216E-14 9.76701E-13
 -1        26 1.84726E+01-2.20945E-02-6.49749E-03 3.29576E-02-8.56043E-15 5.55127E-13
 -1        27 1.84836E+01-1.18083E-02 1.58164E-03 2.25715E-02-1.06842E-14 3.30210E-13
 -1        28 1.85974E+01-6.25308E-03 1.78491E-03 1.62621E-02-1.88857E-15 2.37380E-13
 -1        29 1.87570E+01-3.11045E-03 1.71714E-03 1.21046E-02 2.67193E-15 1.65581E-13
 -1        30 1.89313E+01-1.27306E-03 1.88485E-03 9.13893E-03-6.26403E-15 1.13942E-13
 -1        31 1.91028E+01-2.03008E-04 2.02214E-03 6.90877E-03 4.82913E-15-6.55136E-14
 -1        32 1.92620E+01 3.88298E-04 2.01879E-03 5.18419E-03-1.70641E-14-2.35292E-13
 -1        33 1.94045E+01 6.68409E-04 1.87870E-03 3.83836E-03 2.82795E-14-2.94677E-13
 -1        34 1.95294E+01 7.41474E-04 1.63635E-03 2.79394E-03-1.29720E-14-3.33193E-13
 -1        35 1.96377E+01 6.75863E-04 1.32419E-03 2.00008E-03 3.23156E-15-4.65513E-13
 -1        36 1.97321E+01 5.18849E-04 9.66375E-04 1.42256E-03 8.14623E-15-3.83342E-13
 -1        37 1.98161E+01 3.05589E-04 5.80785E-04 1.03926E-03-9.48903E-14-5.85421E-13
 -1        38 1.98939E+01 6.57411E-05 1.83355E-04 8.37785E-04 5.45470E-14-6.96552E-13
 -1        39 1.99699E+01-1.70757E-04-2.06274E-04 8.13140E-04-3.72958E-14-7.94650E-13
 -1        40 2.00484E+01-3.68145E-04-5.57759E-04 9.64062E-04-2.64622E-14-8.52473E-13
 -1        41 2.01331E+01-4.79540E-04-8.21618E-04 1.28661E-03 3.67747E-14-9.33438E-13
 -1        42 2.02267E+01-4.42648E-04-9.19957E-04 1.76329E-03-8.74236E-16-1.00021E-12
 -1        43 2.03293E+01-1.78219E-04-7.38343E-04 2.34618E-03-2.55294E-14-7.22204E-13
 -1        44 2.04379E+01 4.05554E-04-1.23383E-04 2.93284E-03 2.61358E-14-6.30912E-13
 -1        45 2.05439E+01 1.39793E-03 1.10540E-03 3.33667E-03-7.18016E-15-6.49043E-13
 -1        46 2.06319E+01 2.85393E-03 3.11597E-03 3.25797E-03-3.80306E-14-7.88749E-13
 -1        47 2.06779E+01 4.74153E-03 5.98020E-03 2.27273E-03 4.22588E-14-7.94112E-13
 -1        48 2.06491E+01 6.87052E-03 9.53722E-03-1.30160E-04 4.39411E-14-6.17355E-13
 -1        49 2.05065E+01 8.82219E-03 1.32227E-02-4.41997E-03 6.38937E-15-4.74055E-13
 -1        50 2.02116E+01 9.92690E-03 1.59448E-02-1.07685E-02-4.61537E-14-8.10891E-13
 -1        51 1.97383E+01 9.35649E-03 1.61472E-02-1.86870E-02-7.64444E-15-7.55862E-13
 -1        52 1.90893E+01 6.39297E-03 1.22460E-02-2.66993E-02 1.78717E-14-7.83991E-13
 -1        53 1.83122E+01 8.56313E-04 3.47863E-03-3.23285E-02 4.75957E-14-6.49441E-13
 -1        54 1.75055E+01-6.48959E-03-9.14084E-03-3.27178E-02 8.05400E-16-7.57424E-13
 -1        55 1.68072E+01-1.38588E-02-2.24100E-02-2.59408E-02-5.85315E-14-1.12450E-12
 -1        56 1.63601E+01-1.89590E-02-3.18460E-02-1.24253E-02 5.95317E-14-8.88203E-13
 -1        57 1.62649E+01-1.99882E-02-3.37848E-02 4.58884E-03 3.46228E-14-4.52262E-13
 -1        58 1.65421E+01-1.65540E-02-2.74216E-02 2.02515E-02-5.77302E-14-5.47255E-13
 -1        59 1.71240E+01-9.88689E-03-1.52725E-02 3.03398E-02-1.85565E-14-7.68533E-13
 -1        60 1.78801E+01-2.18892E-03-1.73211E-03 3.30698E-02 4.27467E-14-3.14800E-13
 -1        61 1.86637E+01 4.40973E-03 9.19906E-03 2.93991E-02 5.54303E-14 2.06531E-13
 -1        62 1.93538E+01 8.63002E-03 1.54486E-02 2.19343E-02 6.71989E-16 2.35488E-13
 -1        63 1.98781E+01 1.02321E-02 1.70244E-02 1.34587E-02-1.46978E-13-2.27734E-13
 -1        64 2.02146E+01 9.72218E-03 1.52278E-02 5.96031E-03 3.62678E-14-9.32547E-13
 -1        65 2.03790E+01 7.89787E-03 1.16681E-02 3.80249E-04-5.34069E-14-7.80990E-13
 -1        66 2.04080E+01 5.49526E-03 7.60956E-03-3.14924E-03 4.58242E-14-6.61470E-13
 -1        67 2.03460E+01 3.02476E-03 3.73743E-03-4.90434E-03 8.35101E-14-1.36651E-13
 -1        68 2.02365E+01 7.68523E-04 2.33960E-04-5.21120E-03-1.62223E-14 1.16779E-13
 -1        69 2.01185E+01-1.08876E-03-2.88691E-03-4.17608E-03 7.43276E-14 1.80792E-13
 -1        70 2.00271E+01-1.88144E-03-4.66844E-03-1.15913E-03-5.65298E-15 5.05694E-13
 -1        71 1.99906E+01 8.12915E-04-7.65369E-04 2.99382E-03-7.15761E-14 2.55173E-13
 -1        72 2.10398E+01-4.04857E-01-9.80357E-01-3.11535E-01 3.73382E-14 2.75163E-12
 -1        73 1.93286E+01-6.58813E-02-2.91125E-01-5.38125E-02 2.09533E-14 2.13729E-12
 -1        74 1.86848E+01-2.05065E-02-6.42672E-02-2.03272E-02 1.73669E-14 1.65099E-12
 -1        75 1.84816E+01-9.88174E-03-9.30574E-03-1.54212E-02 1.16778E-14 1.32265E-12
 -1        76 1.84923E+01-5.16736E-03 6.85569E-04-1.23464E-02-7.10743E-15 1.14011E-12
 -1        77 1.86052E+01-2.59875E-03 1.74229E-03-1.00516E-02 1.71324E-14 1.00209E-12
 -1        78 1.87640E+01-1.22453E-03 1.87139E-03-8.17746E-03 5.96266E-15 8.03197E-13
 -1        79 1.89449E+01-2.67628E-04 2.05371E-03-6.88941E-03 1.05306E-14 6.65950E-13
 -1        80 1.91146E+01 1.85663E-04 2.18890E-03-5.52035E-03 8.89222E-15 5.49790E-13
 -1        81 1.92713E+01 4.16817E-04 2.15651E-03-4.42303E-03 9.59829E-15 3.78681E-13
 -1        82 1.94109E+01 4.94222E-04 2.00080E-03-3.44867E-03-1.40397E-14 2.63683E-13
 -1        83 1.95326E+01 4.62744E-04 1.74657E-03-2.58829E-03 1.35151E-14 2.22605E-13
 -1        84 1.96375E+01 3.54296E-04 1.42183E-03-1.82702E-03 1.27555E-14 5.52515E-14
 -1        85 1.97285E+01 1.57588E-04 1.05047E-03-1.15946E-03 6.54840E-15-2.97580E-13
 -1        86 1.98131E+01-8.97684E-05 5.67414E-04-4.96384E-04-1.01162E-14-3.13352E-13
 -1        87 1.98890E+01-4.21317E-04 5.29589E-05 8.71047E-05-3.38563E-14-2.61798E-13
 -1        88 1.99669E+01-8.53201E-04-5.81748E-04 6.60868E-04-1.46057E-14-1.06777E-13
 -1        89 2.00548E+01-1.42800E-03-1.39792E-03 1.25736E-03 3.38531E-14-1.93798E-13
 -1        90 2.01634E+01-2.20821E-03-2.50310E-03 1.90446E-03 4.38962E-14-3.11055E-13
 -1        91 2.03072E+01-3.29880E-03-4.07289E-03 2.64301E-03 1.38164E-14-5.59881E-13
 -1        92 2.05057E+01-4.98987E-03-6.40012E-03 3.84666E-03-2.87834E-15-6.07986E-13
 -1        93 2.08052E+01-6.70968E-03-9.98754E-03 4.00989E-03-8.77336E-15-1.72509E-13
 -1        94 2.12204E+01-9.80244E-03-1.54381E-02 4.57424E-03-1.23000E-14-4.83511E-13
 -1        95 2.18233E+01-1.33633E-02-2.35754E-02 3.93958E-03-2.12521E-14-4.87715E-13
 -1        96 2.26995E+01-1.72949E-02-3.53977E-02 6.01224E-04-8.58189E-15-1.62925E-13
 -1        97 2.39631E+01-2.01740E-02-5.06807E-02-8.76532E-03-9.30679E-15-1.78109E-13
 -1        98 2.57464E+01-1.82632E-02-6.44934E-02-2.99981E-02-3.45488E-14-1.81775E-13
 -1        99 2.81567E+01-5.08835E-03-5.89294E-02-7.05929E-02 1.60113E-14-1.52836E-13
 -1       100 3.12514E+01 3.13168E-02 1.50020E-02-1.41873E-01-7.48049E-14 5.20209E-14
 -1       101 3.41341E+01 8.65334E-02 2.00358E-01-1.95785E-01-4.00548E-14 5.55743E-13
 -1       102 3.53469E+01 1.14631E-01 4.34944E-01-1.18713E-01 6.67418E-14 7.33712E-13
 -1       103 3.25782E+01 2.93218E-02 3.71971E-01 2.80417E-01-5.65225E-14 5.47978E-13
 -1       104 2.58821E+01-1.18548E-01-2.30637E-01 7.27167E-01-7.50962E-15 8.52068E-13
 -1       105 1.82553E+01-1.75507E-01-1.12759E+00 7.58644E-01 4.33369E-14 5.26246E-13
 -1       106 1.69254E+01-5.17558E-02-1.24961E+00-1.00487E-01 1.49932E-14-5.36099E-14
 -1       107 2.32859E+01 3.15150E-02-4.83005E-01-7.26026E-01 8.94749E-14-4.52471E-13
 -1       108 3.08387E+01 8.18532E-02 2.63262E-01-6.73669E-01 4.58054E-15-4.26548E-13
 -1       109 3.50975E+01 6.88007E-02 4.48509E-01-2.53283E-01 2.04580E-14-2.91975E-13
 -1       110 3.47888E+01 3.62337E-02 2.60455E-01 3.83028E-02-9.23755E-14-2.28036E-13
 -1       111 3.21438E+01 4.10735E-03 5.74233E-02 1.27488E-01 1.97650E-14 1.44884E-14
 -1       112 2.90574E+01-1.30901E-02-4.23685E-02 1.19889E-01 7.97604E-15-5.63508E-13
 -1       113 2.63756E+01-1.73706E-02-6.56184E-02 8.95459E-02 9.18665E-14-9.31723E-13
 -1       114 2.42369E+01-1.57135E-02-5.50373E-02 5.71416E-02 3.82364E-14-8.73610E-13
 -1       115 2.27562E+01-1.32277E-02-3.99164E-02 3.71211E-02-2.71300E-15-1.17993E-12
 -1       116 2.16970E+01-1.03925E-02-2.73635E-02 2.46016E-02-2.54773E-14-7.59507E-13
 -1       117 2.09461E+01-8.51084E-03-1.96747E-02 1.72137E-02-2.65907E-14 6.00249E-14
 -1       118 2.04266E+01-7.58426E-03-1.66052E-02 1.28288E-02 1.26082E-13 1.90248E-13
 -1       119 2.01027E+01-6.53790E-03-1.58318E-02 7.91197E-03 2.55051E-14 4.16532E-13
 -1       120 1.99799E+01 5.15429E-03-2.30109E-03-4.12293E-03-1.82900E-13 7.02133E-13
 -1       121 1.99998E+01-1.23369E-02-1.84051E-03-8.65904E-03 7.17420E-13-1.82175E-13
 -1       122 1.99941E+01 1.07925E-01-1.35156E-02 6.30389E-03 1.52797E-13-2.74700E-13
 -1       123 1.99976E+01 3.90490E-01-6.12939E-03 1.35862E-02 1.91309E-13 8.20242E-14
 -1       124 2.00021E+01 7.27203E-01 2.84774E-03 1.41735E-02-2.55882E-13 1.43031E-14
 -1       125 2.00054E+01 1.02675E+00 9.06424E-03 1.05019E-02 8.05864E-13-2.81318E-15
 -1       126 2.00073E+01 1.22467E+00 1.17352E-02 5.42256E-03 1.12246E-12 2.03839E-13
 -1       127 2.00071E+01 1.29941E+00 1.12201E-02 4.26119E-05 7.98850E-13-2.14764E-13
 -1       128 2.00057E+01 1.25052E+00 8.62998E-03-4.16581E-03-7.90099E-14 1.27749E-13
 -1       129 2.00036E+01 1.10449E+00 5.09895E-03-6.66289E-03 2.88760E-13 1.07114E-13
 -1       130 2.00014E+01 8.98839E-01 1.64604E-03-7.46429E-03 5.49630E-13 4.05959E-14
 -1       131 1.99995E+01 6.71516E-01-1.06510E-03-6.95998E-03-6.37498E-13-3.02410E-13
 -1       132 1.99981E+01 4.56466E-01-2.86089E-03-5.75648E-03-9.98535E-13 3.10400E-13
 -1       133 1.99973E+01 2.67579E-01-3.95784E-03-4.22037E-03-4.03295E-13 1.25958E-13
 -1       134 1.99965E+01 1.20927E-01-4.99367E-03-2.80542E-03-2.92363E-13-5.72494E-14
 -1       135 1.99974E+01 2.78679E-02-4.41875E-03-7.60729E-04-5.71440E-13-2.01049E-13
 -1       136 1.99975E+01-4.63310E-03-2.13566E-04 6.59937E-03-5.58670E-13 1.84215E-13
 -1       137-1.70043E+00-2.39136E+01-3.49300E+00-4.73094E+00 5.35044E-13 1.01481E-15
 -1       138-2.76209E+00-1.41577E+01-3.06387E+00-5.48814E+00-2.70339E-14-7.79377E-14
 -1       139 1.94902E-01-1.73873E+00-2.12467E+00-5.88454E-02 5.32907E-13 5.04874E-13
 -1       140 1.21313E+01 7.62737E+00-6.10497E-01 9.86903E+00 8.76965E-13 1.07014E-12
 -1       141 3.26883E+01 1.02032E+01 1.36069E+00 1.78698E+01 4.88332E-13 8.04579E-13
 -1       142 5.83550E+01 6.67620E+00 3.58434E+00 1.84144E+01 3.67761E-14-1.33227E-14
 -1       143 7.68792E+01 1.94593E+00 5.16012E+00 8.24178E+00-1.11288E-13-9.57900E-13
 -1       144 7.72986E+01 1.88002E+00 5.20852E+00-7.45793E+00 2.57017E-13-1.57205E-12
 -1       145 5.94168E+01 6.35632E+00 3.68375E+00-1.80393E+01 6.50563E-13-1.88904E-12
 -1       146 3.45935E+01 1.02235E+01 1.53134E+00-1.84637E+01 1.36419E-12-2.03404E-12
 -1       147 1.37316E+01 8.61966E+00-4.27525E-01-1.09645E+01 1.47848E-12-1.98852E-12
 -1       148 1.35615E+00 4.08461E-01-1.92815E+00-1.40709E+00 1.74916E-12-1.22313E-12
 -1       149-2.48203E+00-1.17597E+01-2.90663E+00 4.52991E+00 1.43080E-12-6.75543E-13
 -1       150-2.04044E+00-2.20040E+01-3.32252E+00 5.35053E+00 2.72088E-13-1.41775E-13
 -1       151-9.94995E-01-2.68544E+01-3.58525E+00 1.63560E+00-1.42146E-12 1.67089E-14
 -1       152-9.83262E-01-2.26723E+01-3.17114E+00-3.02083E+00-2.06002E-12-4.07112E-13
 -1       153 1.34635E+00 1.17496E+00-1.30492E+00 1.68597E+00-1.50324E-12-1.00164E-12
 -1       154 1.11205E+01 1.00652E+01 2.28338E-03 1.05804E+01-1.56630E-12-1.51040E-12
 -1       155 2.81876E+01 1.19673E+01 1.37648E+00 1.79359E+01-1.06748E-12-1.53211E-12
 -1       156 4.91459E+01 7.86162E+00 2.60245E+00 1.86354E+01-5.60885E-13-1.20376E-12
 -1       157 6.52070E+01 2.23627E+00 3.37111E+00 9.77995E+00-1.46586E-13-8.74523E-13
 -1       158 6.82217E+01 1.04572E+00 3.50982E+00-4.06316E+00 9.49796E-14-7.17384E-13
 -1       159 5.70491E+01 5.24659E+00 3.00695E+00-1.60321E+01-2.01630E-13 5.13034E-13
 -1       160 3.69699E+01 1.08822E+01 1.94173E+00-1.95921E+01-6.94472E-13 1.56269E-12
 -1       161 1.75517E+01 1.18970E+01 5.98339E-01-1.43215E+01-1.77491E-12 1.64552E-12
 -1       162 4.09602E+00 5.28784E+00-8.19122E-01-4.84093E+00-2.01938E-12 1.72484E-12
 -1       163-1.29885E+00-7.48847E+00-2.11641E+00 2.55992E+00-1.80250E-12 7.06935E-13
 -1       164-1.30595E+00-2.01754E+01-3.01928E+00 3.76066E+00-6.35214E-13 2.31655E-13
 -1       165 2.10118E+01 3.69385E+00-5.73372E-02-3.61051E+00-3.95493E-13 8.84431E-14
 -1       166 1.99901E+01 4.20768E+00-4.57151E-02-2.80976E+00-3.57795E-13-3.08878E-13
 -1       167 1.95088E+01 4.47697E+00-3.15936E-02-2.19469E+00-2.84424E-13-5.20497E-13
 -1       168 1.92677E+01 4.61521E+00-2.37670E-02-1.67583E+00-2.06185E-13-6.33453E-13
 -1       169 1.91382E+01 4.69695E+00-1.94996E-02-1.21945E+00-1.29512E-13-6.76680E-13
 -1       170 1.90648E+01 4.74809E+00-1.74124E-02-7.92301E-01-6.52752E-14-6.91889E-13
 -1       171 1.90278E+01 4.77602E+00-1.64192E-02-3.87010E-01 8.29650E-15-6.94250E-13
 -1       172 1.90170E+01 4.78457E+00-1.61321E-02 8.25953E-03 6.98798E-14-6.89506E-13
 -1       173 1.90295E+01 4.77473E+00-1.64657E-02 4.03872E-01 1.29644E-13-6.78842E-13
 -1       174 1.90684E+01 4.74513E+00-1.75194E-02 8.10238E-01 1.78329E-13-6.61479E-13
 -1       175 1.91426E+01 4.69261E+00-1.96870E-02 1.23183E+00 2.28983E-13-5.93471E-13
 -1       176 1.92776E+01 4.60536E+00-2.40061E-02 1.69862E+00 3.15876E-13-4.88262E-13
 -1       177 1.95238E+01 4.45948E+00-3.28496E-02 2.22703E+00 3.86100E-13-3.28473E-13
 -1       178 2.00125E+01 4.18370E+00-4.72115E-02 2.84725E+00 4.23639E-13-2.46331E-14
 -1       179 2.11334E+01 3.46354E+00-5.97816E-02 3.53707E+00 3.92859E-13 5.21444E-13
 -1       180 2.24172E+01 1.14339E+00-3.36456E-01 3.01507E+00 2.88671E-13 1.24217E-12
 -1       181 2.19696E+01 8.58238E-01 6.63806E-04-1.95927E+00-3.45921E-13 5.93994E-13
 -1       182 2.04450E+01 1.90192E-01-1.00069E-02-7.64518E-01-3.17999E-13 4.02278E-13
 -1       183 1.96692E+01 1.01697E-01 1.35352E-02-2.85936E-01-2.53352E-13 2.56471E-13
 -1       184 1.93294E+01 4.71751E-02 9.99304E-03-6.82034E-02-1.58860E-13 1.14450E-13
 -1       185 1.91996E+01 2.25985E-02 5.16451E-03 3.91432E-02-4.99781E-14 3.77704E-14
 -1       186 1.91863E+01 9.60227E-03 2.44085E-03 9.19432E-02-5.88038E-14 1.59408E-14
 -1       187 1.92353E+01 2.26982E-03 1.14195E-03 1.14653E-01-3.17618E-14-2.28669E-14
 -1       188 1.93154E+01-1.87069E-03 5.13652E-04 1.20120E-01-6.77709E-14-3.98867E-14
 -1       189 1.94081E+01-4.04254E-03 1.86706E-04 1.15847E-01-6.67087E-14-2.81627E-14
 -1       190 1.95026E+01-4.93736E-03 1.07787E-05 1.06546E-01-5.56171E-14-1.85722E-14
 -1       191 1.95929E+01-4.98413E-03-7.71846E-05 9.53011E-02-5.20467E-14-1.75734E-13
 -1       192 1.96766E+01-4.46395E-03-1.08874E-04 8.41667E-02-5.43823E-14-2.17895E-13
 -1       193 1.97531E+01-3.56754E-03-1.03669E-04 7.45178E-02-2.24403E-14-2.84674E-13
 -1       194 1.98233E+01-2.43010E-03-7.52321E-05 6.72580E-02-1.11714E-13-3.44412E-13
 -1       195 1.98893E+01-1.15760E-03-3.44444E-05 6.29421E-02-7.88488E-14-2.99798E-13
 -1       196 1.99535E+01 1.49311E-04 8.73586E-06 6.18290E-02-9.23036E-14-4.41076E-13
 -1       197 2.00185E+01 1.37036E-03 4.38253E-05 6.38689E-02-8.33274E-14-5.34557E-13
 -1       198 2.00869E+01 2.33854E-03 5.87005E-05 6.86237E-02-3.91593E-15-5.70378E-13
 -1       199 2.01603E+01 2.81205E-03 3.90103E-05 7.51181E-02-4.03974E-14-5.35673E-13
 -1       200 2.02393E+01 2.45006E-03-3.14466E-05 8.16266E-02 9.44524E-14-5.26058E-13
 -1       201 2.03222E+01 8.03248E-04-1.68708E-04 8.54238E-02 7.45070E-14-5.16626E-13
 -1       202 2.04046E+01-2.66047E-03-3.84209E-04 8.25612E-02-2.72729E-14-3.78053E-13
 -1       203 2.04777E+01-8.46307E-03-6.77435E-04 6.78002E-02-2.31176E-14-3.00209E-13
 -1       204 2.05279E+01-1.69153E-02-1.02624E-03 3.49174E-02 4.66810E-14-2.05032E-13
 -1       205 2.05366E+01-2.77730E-02-1.37761E-03-2.23153E-02 3.67868E-14-1.40844E-13
 -1       206 2.04809E+01-3.97678E-02-1.64444E-03-1.08155E-01 9.14646E-14-3.09621E-13
 -1       207 2.03369E+01-5.01528E-02-1.71666E-03-2.21795E-01-1.28147E-13-4.34692E-13
 -1       208 2.00855E+01-5.46023E-02-1.48749E-03-3.53615E-01 7.68504E-15-4.60064E-13
 -1       209 1.97211E+01-4.79788E-02-9.07432E-04-4.82266E-01 2.59375E-14-3.83028E-13
 -1       210 1.92610E+01-2.63509E-02-2.71610E-05-5.75183E-01-2.18993E-15-3.42274E-13
 -1       211 1.87521E+01 1.00207E-02 1.00188E-03-5.95265E-01-1.08129E-13-4.21481E-13
 -1       212 1.82694E+01 5.42060E-02 1.95903E-03-5.14340E-01-1.19573E-13-4.02422E-13
 -1       213 1.79018E+01 9.31477E-02 2.65060E-03-3.29161E-01 1.71587E-13-4.06004E-13
 -1       214 1.77269E+01 1.12709E-01 2.95575E-03-7.05697E-02 1.48017E-13-3.09427E-13
 -1       215 1.77834E+01 1.05080E-01 2.83569E-03 2.02987E-01-9.18384E-14-5.64592E-13
 -1       216 1.80560E+01 7.32718E-02 2.30000E-03 4.27032E-01-2.35304E-14-3.12032E-13
 -1       217 1.84816E+01 2.93194E-02 1.42640E-03 5.56026E-01 1.64466E-13-2.50132E-13
 -1       218 1.89722E+01-1.23504E-02 3.89996E-04 5.77660E-01 2.62200E-13-1.71509E-13
 -1       219 1.94429E+01-4.15523E-02-5.86921E-04 5.10401E-01 8.89131E-14-2.33570E-14
 -1       220 1.98323E+01-5.50038E-02-1.31386E-03 3.89482E-01-2.33837E-13 4.40067E-14
 -1       221 2.01098E+01-5.49812E-02-1.68259E-03 2.51396E-01-3.78106E-13-2.88492E-14
 -1       222 2.02721E+01-4.62907E-02-1.69637E-03 1.23878E-01 1.32727E-13-2.41927E-13
 -1       223 2.03345E+01-3.36526E-02-1.43899E-03 2.28645E-02 1.09205E-13 1.04945E-14
 -1       224 2.03222E+01-2.03641E-02-1.02812E-03-4.56927E-02 2.96720E-13 1.00853E-13
 -1       225 2.02628E+01-8.07887E-03-5.89104E-04-8.21185E-02 2.58155E-13 4.43783E-14
 -1       226 2.01826E+01 2.72931E-03-2.41947E-04-8.96176E-02 2.22447E-13 2.38197E-13
 -1       227 2.01036E+01 1.22336E-02 1.26339E-05-7.24071E-02 2.15092E-13 1.82688E-13
 -1       228 2.00403E+01 1.89397E-02 1.57569E-04-3.69306E-02-3.88463E-14 3.41547E-13
 -1       229 2.09611E+01 2.77026E-01-5.13342E-02 1.16515E+00 2.98390E-13 1.06992E-12
 -1       230 1.98661E+01 1.26836E-01 8.31060E-03 4.43462E-01 2.27688E-13 8.26056E-13
 -1       231 1.93594E+01 5.80586E-02 1.27363E-02 1.50429E-01 1.82076E-13 6.46550E-13
 -1       232 1.91495E+01 2.77255E-02 7.63054E-03 1.11417E-02 8.69738E-14 5.12345E-13
 -1       233 1.90995E+01 1.30563E-02 3.81822E-03-5.80498E-02 9.13175E-14 3.98455E-13
 -1       234 1.91353E+01 5.23692E-03 1.91507E-03-9.06513E-02 6.21341E-14 3.53844E-13
 -1       235 1.92194E+01 4.49885E-04 9.82922E-04-1.02852E-01 5.84500E-14 3.21677E-13
 -1       236 1.93183E+01-1.92134E-03 5.41722E-04-1.02648E-01 7.86875E-14 2.58501E-13
 -1       237 1.94214E+01-3.17316E-03 2.93406E-04-9.61615E-02 7.76699E-14 1.61170E-13
 -1       238 1.95210E+01-3.60976E-03 1.47715E-04-8.67105E-02 6.74861E-14 7.84136E-14
 -1       239 1.96131E+01-3.50422E-03 6.67110E-05-7.64961E-02 2.84035E-14 2.13258E-14
 -1       240 1.96968E+01-3.02009E-03 3.04122E-05-6.70426E-02 7.79845E-14-8.17546E-14
 -1       241 1.97730E+01-2.25170E-03 3.72618E-05-5.94540E-02 1.40632E-13-2.55560E-14
 -1       242 1.98472E+01-1.15862E-03 5.68265E-05-5.45064E-02-3.01992E-14-1.39704E-13
 -1       243 1.99165E+01 1.61366E-04 1.20308E-04-5.35425E-02-1.45298E-14-1.54831E-13
 -1       244 1.99893E+01 1.81917E-03 2.05124E-04-5.72510E-02-3.69700E-14-2.67010E-13
 -1       245 2.00721E+01 3.96953E-03 3.22768E-04-6.69645E-02 3.06461E-14-2.08706E-13
 -1       246 2.01735E+01 6.84717E-03 4.79960E-04-8.45820E-02 1.13869E-13-2.23362E-13
 -1       247 2.03048E+01 1.08103E-02 6.80743E-04-1.12907E-01 7.50087E-14-2.82546E-13
 -1       248 2.04810E+01 1.63942E-02 9.65584E-04-1.55948E-01-8.48437E-14-2.01662E-13
 -1       249 2.07376E+01 2.49831E-02 1.20346E-03-2.23932E-01-1.09544E-13-2.09236E-13
 -1       250 2.10805E+01 3.68715E-02 1.49690E-03-3.19895E-01 1.59573E-13-1.91767E-13
 -1       251 2.15583E+01 5.37489E-02 1.50081E-03-4.58103E-01 8.78204E-17-3.95428E-13
 -1       252 2.22220E+01 7.67004E-02 8.26798E-04-6.53898E-01-1.37039E-13-3.71279E-13
 -1       253 2.31321E+01 1.04926E-01-1.20933E-03-9.21633E-01 9.31720E-15-3.86884E-13
 -1       254 2.43491E+01 1.30949E-01-5.12561E-03-1.26281E+00-4.26638E-14-3.48533E-13
 -1       255 2.59048E+01 1.33962E-01-8.93421E-03-1.63658E+00-7.85810E-14-1.83978E-13
 -1       256 2.78394E+01 4.20562E-02-4.27659E-03-1.89261E+00-1.99227E-13-1.33983E-13
 -1       257 2.97087E+01-2.32467E-01 2.09760E-02-1.64275E+00-2.42938E-13 4.23776E-14
 -1       258 3.10637E+01-7.36680E-01 5.93056E-02-3.66564E-01 2.38750E-14 4.68419E-14
 -1       259 3.11211E+01-1.09677E+00 2.84414E-02 2.10898E+00-3.21835E-15 2.52937E-13
 -1       260 2.96472E+01-5.60391E-01-1.23216E-01 4.17836E+00-7.71674E-14 1.37952E-13
 -1       261 2.74542E+01 1.13321E+00-3.23301E-01 3.46913E+00 2.48856E-13 1.24845E-13
 -1       262 2.69637E+01 1.90934E+00-3.44863E-01-9.31772E-01 3.55882E-13 1.33827E-13
 -1       263 2.88949E+01 4.88828E-01-1.87424E-01-4.16855E+00 2.24348E-13-3.29594E-13
 -1       264 3.09121E+01-8.16617E-01 6.37209E-03-3.70676E+00-1.20744E-13-3.61634E-13
 -1       265 3.15298E+01-1.00459E+00 6.45898E-02-1.07726E+00-8.66425E-14-8.74448E-14
 -1       266 3.05098E+01-5.31899E-01 2.78593E-02 1.00536E+00-1.25558E-13 1.08696E-13
 -1       267 2.87060E+01-1.21073E-01-4.37806E-03 1.84130E+00 8.94423E-15-1.33700E-13
 -1       268 2.67574E+01 7.40205E-02-1.24851E-02 1.86161E+00 3.11642E-13-4.02109E-14
 -1       269 2.50018E+01 1.26853E-01-8.52952E-03 1.55505E+00 4.21200E-13-3.24839E-13
 -1       270 2.35048E+01 1.17946E-01-2.38464E-03 1.17457E+00-1.46990E-13-5.33969E-13
 -1       271 2.24100E+01 9.20761E-02 8.60981E-04 8.63710E-01 5.64219E-14-4.47367E-13
 -1       272 2.15850E+01 6.81430E-02 2.15560E-03 6.24318E-01-3.15975E-13-1.12935E-13
 -1       273 2.09781E+01 5.08161E-02 2.21155E-03 4.45043E-01-3.10102E-13 1.35446E-13
 -1       274 2.05439E+01 4.13925E-02 1.64253E-03 3.05587E-01-8.91492E-14 2.71402E-13
 -1       275 2.02516E+01 4.11964E-02 1.03540E-03 1.83609E-01-1.71186E-14 2.16925E-13
 -1       276 2.00771E+01 4.06992E-02 1.69645E-03 6.56933E-02-7.53832E-14-1.19092E-13
 -1       277 2.00556E+01 1.37527E-01 9.77083E-04 1.27067E-01-9.05227E-14-1.76613E-13
 -1       278 2.00308E+01 3.23931E-01-9.51601E-05 2.22856E-01 1.57504E-14 7.56377E-14
 -1       279 2.00004E+01 5.47945E-01-2.86585E-04 2.56993E-01 1.23657E-13-1.80660E-13
 -1       280 1.99764E+01 7.62665E-01-5.73054E-04 2.26459E-01 1.14725E-13 5.64837E-13
 -1       281 1.99627E+01 9.23349E-01-9.69545E-04 1.51604E-01 9.89665E-14 6.62471E-14
 -1       282 1.99594E+01 1.00938E+00-1.18769E-03 5.47577E-02 1.51955E-13-3.35652E-13
 -1       283 1.99648E+01 1.00968E+00-1.19458E-03-3.96283E-02 2.49478E-13-4.93561E-13
 -1       284 1.99754E+01 9.34418E-01-1.00224E-03-1.14262E-01 1.82534E-13 1.92217E-13
 -1       285 1.99875E+01 8.04829E-01-6.77540E-04-1.60574E-01 1.44276E-13 8.34558E-14
 -1       286 1.99984E+01 6.46314E-01-3.03693E-04-1.78027E-01-2.54307E-13-4.24628E-13
 -1       287 2.00063E+01 4.85175E-01 5.74038E-05-1.71964E-01-1.13643E-13-1.78689E-13
 -1       288 2.00114E+01 3.33669E-01 3.19516E-04-1.49426E-01 6.48494E-14 2.62949E-13
 -1       289 2.00142E+01 2.06616E-01 4.53636E-04-1.16963E-01 1.52626E-15 2.79250E-14
 -1       290 2.00165E+01 1.10097E-01 5.12211E-04-7.78870E-02-1.76353E-13-1.45030E-13
 -1       291 2.00295E+01 5.92327E-02 6.35210E-04-6.24129E-02-1.46901E-13-1.96256E-13
 -1       292-1.31877E+00-1.10180E+01-8.83216E-01 7.66902E-02-3.24553E-13 3.28820E-13
 -1       293 1.35534E+00-1.06479E+01-1.01136E+00 1.90989E+00 4.12725E-14-1.93054E-13
 -1       294 7.51490E+00-7.56852E+00-8.20561E-01 4.15862E+00-6.91669E-14 3.20584E-13
 -1       295 1.98654E+01-5.23954E+00-3.02030E-01 6.01650E+00-3.23075E-13-1.53211E-13
 -1       296 3.01683E+01-8.40200E-01 6.21072E-02 6.03678E+00-4.46865E-14-2.59848E-13
 -1       297 4.15241E+01 2.49692E+00 6.29372E-01 3.97808E+00 2.44228E-13-4.80394E-13
 -1       298 5.09690E+01 5.83067E+00 1.39553E+00 2.80606E+00 2.30177E-13-6.44901E-13
 -1       299 5.43975E+01 7.15648E+00 1.70978E+00 1.26468E-01 2.01172E-13-8.03793E-13
 -1       300 5.03613E+01 6.03056E+00 1.31252E+00-2.17308E+00 4.73593E-13-8.06355E-13
 -1       301 4.27837E+01 3.09948E+00 8.05013E-01-4.96713E+00 5.88175E-13-9.52849E-13
 -1       302 3.12140E+01-2.75923E-02 1.52410E-01-6.42555E+00 4.86999E-13-7.95364E-13
 -1       303 1.91597E+01-3.42198E+00-4.10966E-01-6.12031E+00 5.53058E-13-6.86340E-13
 -1       304 9.18889E+00-6.91110E+00-7.60448E-01-4.48765E+00 4.64628E-13-5.28327E-13
 -1       305 3.45543E+00-8.73889E+00-6.51636E-01-3.52810E+00-1.73084E-13-8.00401E-13
 -1       306-5.31212E-01-1.06170E+01-8.45391E-01-8.91339E-01-4.74787E-13-7.69579E-13
 -1       307-1.30802E+00-1.19571E+01-1.01995E+00 1.63832E+00-4.59258E-13-1.79051E-13
 -1       308 1.53493E+00-9.66858E+00-8.54306E-01 3.52010E+00-6.85202E-13-1.48617E-13
 -1       309 7.28750E+00-5.82565E+00-5.61724E-01 5.62158E+00-6.97498E-13-4.16230E-13
 -1       310 1.67355E+01-2.20733E+00-1.57010E-01 7.62712E+00-4.50084E-13-4.90108E-13
 -1       311 2.62107E+01 1.71528E+00 1.74730E-01 8.24646E+00-5.48256E-13-5.17392E-13
 -1       312 3.59236E+01 4.24369E+00 4.31484E-01 6.51001E+00-5.35769E-13-3.85858E-13
 -1       313 4.43728E+01 6.54010E+00 8.23767E-01 4.78436E+00-3.11917E-13-5.95329E-13
 -1       314 4.89269E+01 7.01047E+00 1.04509E+00 1.01944E+00-1.60677E-13-5.13062E-13
 -1       315 4.66213E+01 6.93836E+00 9.18323E-01-3.30421E+00-3.79044E-13-2.79207E-13
 -1       316 4.04890E+01 5.74387E+00 7.64104E-01-7.13248E+00-7.08416E-13-5.24858E-14
 -1       317 3.05199E+01 3.49825E+00 3.81080E-01-8.54109E+00-9.12381E-13 6.17284E-13
 -1       318 2.05413E+01-7.02258E-01-3.28399E-02-7.88318E+00-7.44710E-13 7.38382E-13
 -1       319 1.00501E+01-4.33412E+00-4.38251E-01-6.33546E+00-8.68805E-13 7.31887E-13
 -1       320 2.95408E+00-8.67374E+00-7.92762E-01-4.09552E+00-5.39957E-13 7.76428E-13
 -1       321-8.18794E-01-1.15853E+01-9.82113E-01-2.11945E+00-2.71727E-13 4.03177E-13
 -1       322 2.01449E+01 3.01522E+00-1.78507E-02-2.11049E+00-3.78917E-13-2.80497E-13
 -1       323 2.07547E+01 2.20816E+00-1.78132E-02-2.36368E+00-4.20124E-13-6.13641E-14
 -1       324 1.95848E+01 3.69204E+00-1.51417E-02-1.31734E+00-2.07126E-13-4.94123E-13
 -1       325 1.94617E+01 3.84882E+00-1.35900E-02-9.23782E-01-1.26814E-13-5.17383E-13
 -1       326 1.93930E+01 3.93971E+00-1.26878E-02-5.43988E-01-3.07864E-14-5.15317E-13
 -1       327 1.93626E+01 3.98105E+00-1.22907E-02-1.73306E-01 6.27382E-14-5.28558E-13
 -1       328 1.93639E+01 3.97942E+00-1.23133E-02 1.94421E-01 1.24673E-13-5.43188E-13
 -1       329 1.93972E+01 3.93447E+00-1.27610E-02 5.65479E-01 1.98142E-13-5.26835E-13
 -1       330 1.94677E+01 3.84110E+00-1.37710E-02 9.39491E-01 2.56511E-13-4.85432E-13
 -1       331 1.95941E+01 3.67874E+00-1.56580E-02 1.33363E+00 3.34776E-13-3.79319E-13
 -1       332 1.98090E+01 3.40998E+00-1.88328E-02 1.73902E+00 4.07615E-13-2.67180E-13
 -1       333 2.01788E+01 2.95518E+00-2.29382E-02 2.12762E+00 4.66089E-13-1.02529E-13
 -1       334 2.07476E+01 2.12939E+00-3.04674E-02 2.32258E+00 4.61175E-13 2.56494E-13
 -1       335 2.10936E+01 1.18771E+00-2.49222E-02 1.92230E+00 4.22103E-13 5.70436E-13
 -1       336 2.03898E+01 4.89262E-01 8.33510E-03 9.27755E-01 3.31420E-13 4.41307E-13
 -1       337 7.78317E-01-4.66125E+00-7.30373E-02 1.97921E-01-1.37355E-13-2.51910E-13
 -1       338 2.04565E+01 6.75751E-01 1.23552E-02-1.02571E+00-3.53994E-13-9.50628E-16
 -1       339 2.00354E+01 3.36799E-01 7.10792E-03-4.58144E-01-2.63736E-13-1.34190E-14
 -1       340 1.97811E+01 1.76643E-01 4.12789E-03-1.49058E-01-1.54341E-13-1.69572E-14
 -1       341 1.96458E+01 9.07796E-02 1.90049E-03 2.24456E-02-1.05209E-13-1.09803E-13
 -1       342 1.95909E+01 4.18869E-02 7.97749E-04 1.14127E-01-6.54625E-14-1.27603E-13
 -1       343 1.95864E+01 1.32612E-02 2.82844E-04 1.58153E-01-5.62096E-14-1.19653E-13
 -1       344 1.96118E+01-3.24388E-03 3.14607E-05 1.73558E-01-4.82400E-14-1.18445E-13
 -1       345 1.96533E+01-1.20474E-02-9.51624E-05 1.72263E-01-8.16499E-14-1.39433E-13
 -1       346 1.97024E+01-1.57789E-02-1.52188E-04 1.62057E-01-1.33315E-13-1.64522E-13
 -1       347 1.97538E+01-1.61124E-02-1.65445E-04 1.48155E-01-1.06231E-13-2.00888E-13
 -1       348 1.98048E+01-1.41629E-02-1.49936E-04 1.34083E-01-9.27562E-14-2.90493E-13
 -1       349 1.98543E+01-1.07043E-02-1.15811E-04 1.22216E-01-8.49467E-14-3.04406E-13
 -1       350 1.99023E+01-6.30896E-03-7.07327E-05 1.14104E-01-1.24814E-13-2.74773E-13
 -1       351 1.99499E+01-1.45832E-03-2.13319E-05 1.10657E-01-1.30161E-13-3.20912E-13
 -1       352 1.99984E+01 3.35494E-03 2.55460E-05 1.12203E-01-1.44150E-13-2.86849E-13
 -1       353 2.00492E+01 7.52305E-03 6.16835E-05 1.18443E-01-1.25579E-13-3.60020E-13
 -1       354 2.01039E+01 1.02170E-02 7.64695E-05 1.28284E-01 4.69309E-14-4.12548E-13
 -1       355 2.01634E+01 1.02891E-02 5.62458E-05 1.39576E-01-9.56882E-15-3.66319E-13
 -1       356 2.02280E+01 6.21478E-03-1.55178E-05 1.48762E-01 1.01807E-13-3.10111E-13
 -1       357 2.02965E+01-3.87150E-03-1.56475E-04 1.50521E-01 1.76793E-13-3.26978E-13
 -1       358 2.03659E+01-2.19498E-02-3.81099E-04 1.37536E-01 2.19667E-14-2.15156E-13
 -1       359 2.04306E+01-4.95688E-02-6.92916E-04 1.00649E-01 7.75024E-14-9.17735E-14
 -1       360 2.04819E+01-8.68427E-02-1.07325E-03 2.97725E-02 6.54618E-14-1.74497E-13
 -1       361 2.05073E+01-1.30948E-01-1.46853E-03-8.39467E-02-3.26793E-14-3.00338E-13
 -1       362 2.04909E+01-1.74370E-01-1.78137E-03-2.44281E-01-1.15447E-13-2.64218E-13
 -1       363 2.04149E+01-2.03746E-01-1.87790E-03-4.44439E-01-1.32396E-13-2.20092E-13
 -1       364 2.02637E+01-2.00867E-01-1.60049E-03-6.61166E-01 6.44123E-14-1.53468E-13
 -1       365 2.00303E+01-1.47711E-01-8.71177E-04-8.51500E-01-3.93572E-14-1.33523E-13
 -1       366 1.97259E+01-3.60175E-02 2.39626E-04-9.56934E-01-5.11707E-14-6.29131E-14
 -1       367 1.93878E+01 1.21521E-01 1.53562E-03-9.19109E-01-9.12737E-14 2.08793E-13
 -1       368 1.90792E+01 2.86123E-01 2.68161E-03-7.05889E-01-3.25666E-14 2.18868E-13
 -1       369 1.88741E+01 4.02949E-01 3.40801E-03-3.36871E-01 3.09616E-14-1.13745E-13
 -1       370 1.88285E+01 4.26847E-01 3.55884E-03 1.10766E-01-1.99503E-13-2.88315E-13
 -1       371 1.89544E+01 3.47957E-01 3.09766E-03 5.27652E-01 3.05843E-14-2.89734E-13
 -1       372 1.92134E+01 1.97311E-01 2.08429E-03 8.16915E-01 1.55255E-13-1.44484E-13
 -1       373 1.95354E+01 2.88533E-02 7.91039E-04 9.31021E-01 2.26985E-13-4.53880E-15
 -1       374 1.98489E+01-1.08655E-01-4.50285E-04 8.80456E-01 3.49771E-13-1.21974E-13
 -1       375 2.01032E+01-1.89882E-01-1.38675E-03 7.15296E-01 1.36704E-13 1.83124E-13
 -1       376 2.02756E+01-2.14195E-01-1.86429E-03 4.97496E-01-4.17857E-13 4.26372E-13
 -1       377 2.03659E+01-1.96166E-01-1.90300E-03 2.79530E-01-2.74834E-13 3.96373E-13
 -1       378 2.03875E+01-1.54396E-01-1.63114E-03 9.52187E-02 2.53932E-13 2.70993E-13
 -1       379 2.03591E+01-1.04224E-01-1.19275E-03-3.96898E-02 3.98710E-13 4.05751E-13
 -1       380 2.02994E+01-5.51248E-02-7.02459E-04-1.22296E-01 1.52019E-13 2.70250E-13
 -1       381 2.02245E+01-1.13206E-02-2.50385E-04-1.56655E-01 1.63087E-13 1.77214E-13
 -1       382 2.01471E+01 2.58303E-02 9.45016E-05-1.49829E-01 1.01239E-13-5.43956E-14
 -1       383 2.00840E+01 4.89368E-02 5.06548E-04-1.13716E-01 6.50667E-14-7.06132E-14
 -1       384 1.98881E+01 2.28468E-01 1.07966E-02 3.99126E-01 2.60077E-13 3.75991E-13
 -1       385 1.95994E+01 1.15372E-01 6.17443E-03 1.20410E-01 1.93137E-13 2.62236E-13
 -1       386 1.94648E+01 5.77379E-02 2.80030E-03-2.85538E-02 1.27492E-13 1.59069E-13
 -1       387 1.94251E+01 2.59373E-02 1.16697E-03-1.05590E-01 8.82228E-14 9.70115E-14
 -1       388 1.94433E+01 6.90827E-03 4.54308E-04-1.42328E-01 7.59045E-14 1.18500E-13
 -1       389 1.94913E+01-3.25147E-03 9.94345E-05-1.52535E-01 1.20251E-13 6.48233E-14
 -1       390 1.95539E+01-8.63723E-03-6.54884E-05-1.49119E-01 1.18519E-13 3.53802E-14
 -1       391 1.96214E+01-1.08954E-02-1.46124E-04-1.38533E-01 9.23456E-14 2.32092E-14
 -1       392 1.96886E+01-1.10240E-02-1.71581E-04-1.25124E-01 5.78143E-14-5.17813E-14
 -1       393 1.97531E+01-9.65172E-03-1.58604E-04-1.11905E-01 8.10932E-14-4.94963E-14
 -1       394 1.98144E+01-7.15123E-03-1.07602E-04-1.01052E-01 7.26732E-14 7.36501E-15
 -1       395 1.98763E+01-3.47508E-03-4.34973E-05-9.41226E-02 5.78541E-14 7.95068E-14
 -1       396 1.99355E+01 1.07649E-03 6.05589E-05-9.34666E-02 4.64021E-14-1.19925E-13
 -1       397 1.99985E+01 6.85681E-03 1.91966E-04-1.00325E-01 1.68051E-14-1.43860E-13
 -1       398 2.00699E+01 1.43377E-02 3.66616E-04-1.16923E-01-2.32575E-14-2.34587E-13
 -1       399 2.01558E+01 2.42806E-02 6.02891E-04-1.46282E-01 6.30514E-14-1.12656E-13
 -1       400 2.02640E+01 3.78550E-02 9.24831E-04-1.92725E-01 8.87067E-14 1.32387E-14
 -1       401 2.04048E+01 5.66734E-02 1.38216E-03-2.62313E-01-1.16043E-13-4.76161E-14
 -1       402 2.06014E+01 8.49709E-02 1.99924E-03-3.70164E-01-5.97780E-14-9.38623E-14
 -1       403 2.08531E+01 1.23268E-01 2.82222E-03-5.19378E-01 1.52241E-13-1.31492E-13
 -1       404 2.11876E+01 1.76185E-01 3.77359E-03-7.29894E-01 1.69749E-13-1.67378E-13
 -1       405 2.16290E+01 2.45963E-01 4.64066E-03-1.02133E+00-7.51237E-14-3.02393E-13
 -1       406 2.22035E+01 3.28568E-01 4.90303E-03-1.41088E+00-1.40823E-14-3.60916E-13
 -1       407 2.29370E+01 4.01615E-01 3.66094E-03-1.89915E+00-8.30640E-14-2.42338E-13
 -1       408 2.38580E+01 4.01431E-01 6.74339E-04-2.43519E+00-5.57443E-14-2.78418E-13
 -1       409 2.50692E+01 1.53168E-01-2.11254E-03-2.86520E+00-1.81341E-13-3.73412E-13
 -1       410 2.65489E+01-5.67184E-01 1.60485E-03-2.74848E+00-2.77606E-13-3.02100E-13
 -1       411 2.84950E+01-1.88472E+00 1.35885E-02-1.48055E+00-3.86167E-14-2.29144E-13
 -1       412 3.08775E+01-3.05433E+00-3.39963E-02 1.37210E+00-6.26790E-14-8.03031E-14
 -1       413 3.23505E+01-1.99903E+00-1.45933E-01 4.28266E+00 4.35554E-14-1.02789E-13
 -1       414 3.33091E+01 2.39290E+00-1.95682E-01 4.22723E+00 2.66967E-13-2.44062E-13
 -1       415 3.36621E+01 5.14198E+00-1.49122E-01-5.42355E-01 2.34979E-13-2.17461E-13
 -1       416 3.32861E+01 1.82579E+00-1.67021E-01-4.54545E+00 4.69430E-13-8.03593E-14
 -1       417 3.29808E+01-2.22496E+00-8.11748E-02-4.04336E+00-1.75134E-13-9.13401E-14
 -1       418 3.05998E+01-3.02040E+00-1.55596E-02-6.43754E-01-2.56183E-13 1.55006E-13
 -1       419 2.80514E+01-1.69506E+00-9.28715E-03 1.94022E+00-5.91489E-14 1.15603E-13
 -1       420 2.60875E+01-4.33887E-01-8.06295E-03 2.92080E+00-2.92197E-14-9.25935E-14
 -1       421 2.46335E+01 2.02743E-01-3.27022E-03 2.88746E+00 2.70228E-13 1.24772E-13
 -1       422 2.35042E+01 3.98010E-01 2.55754E-03 2.43702E+00 4.81794E-13-2.93368E-14
 -1       423 2.25648E+01 3.85888E-01 6.09568E-03 1.87865E+00-8.97388E-14-9.55289E-14
 -1       424 2.18526E+01 3.10846E-01 6.57183E-03 1.41001E+00-1.66533E-13 2.38912E-13
 -1       425 2.12885E+01 2.34267E-01 5.74344E-03 1.03758E+00-3.97969E-13 2.59852E-13
 -1       426 2.08508E+01 1.76726E-01 4.58225E-03 7.51315E-01-1.69955E-13-9.54005E-14
 -1       427 2.05184E+01 1.42213E-01 3.15380E-03 5.23957E-01-1.24375E-13-2.95485E-13
 -1       428 2.02730E+01 1.30637E-01 2.23392E-03 3.34967E-01 1.33655E-13-4.37533E-13
 -1       429 2.01504E+01 1.38331E-01 1.43395E-03 2.28947E-01 8.65109E-14-2.97557E-13
 -1       430 1.99454E+01 6.39623E-01-2.54555E-04 4.17894E-01 8.16252E-15 1.76081E-13
 -1       431 2.00466E+01 4.48028E-01 8.42872E-04 4.33834E-01-2.09068E-13 1.45995E-13
 -1       432 2.01168E+01 2.85768E-01 1.56770E-03 3.57160E-01 9.26159E-14-1.02782E-13
 -1       433 1.98759E+01 7.83327E-01-9.96308E-04 3.16346E-01-9.48053E-14-1.18954E-13
 -1       434 1.98438E+01 8.64724E-01-1.27943E-03 1.61531E-01-1.33710E-13 1.23598E-13
 -1       435 1.98493E+01 8.73026E-01-1.32672E-03-4.83472E-03 4.83510E-14-3.62419E-13
 -1       436 1.98817E+01 8.16410E-01-1.14204E-03-1.48900E-01-9.60740E-14-2.51458E-13
 -1       437 1.99274E+01 7.12614E-01-8.00179E-04-2.49718E-01-4.74084E-14 1.07224E-13
 -1       438 1.99735E+01 5.83365E-01-4.03526E-04-3.00608E-01-1.19428E-13-5.50483E-13
 -1       439 2.00105E+01 4.51128E-01-2.29365E-05-3.06772E-01-9.75783E-14-6.21677E-14
 -1       440 2.00363E+01 3.26292E-01 2.81428E-04-2.79731E-01 4.23941E-13 5.88056E-13
 -1       441 2.00513E+01 2.19964E-01 5.31444E-04-2.32132E-01 5.08725E-13-1.30693E-13
 -1       442 2.00588E+01 1.35084E-01 7.20041E-04-1.74432E-01 7.32704E-14-2.97415E-13
 -1       443 8.82445E+00-6.37007E+00-1.32104E-01 5.78269E+00-9.57845E-14 9.02056E-16
 -1       444 1.60606E+00-3.48610E+00 6.96603E-02-1.74070E+00-3.14668E-13 3.08503E-13
 -1       445 3.47709E+00-4.62727E+00-7.86281E-03 3.45063E+00-1.86101E-13 2.15272E-13
 -1       446 1.72727E+01-6.55616E+00-1.36155E-01 6.22098E+00-3.77504E-13-3.22432E-13
 -1       447 4.13838E+00-5.04030E+00-4.69327E-02-3.90057E+00-2.73837E-13-9.32004E-13
 -1       448 8.29753E+00-5.38162E+00-3.96835E-02 7.37996E+00-2.37671E-13-2.08153E-13
 -1       449 2.93692E+01-5.54732E+00-1.29170E-01 2.61992E+00-3.64889E-13-2.01950E-13
 -1       450 1.97876E+01 3.43990E+00-2.06940E-02-1.72632E+00-3.06099E-13-4.21550E-13
 -1       451 3.95631E+01 2.82032E+00 1.37356E-01-2.32020E+00 2.79624E-13-4.22995E-13
 -1       452 4.14510E+01 6.62739E+00 3.28298E-01-1.24863E+00 2.76779E-13-4.93119E-13
 -1       453 4.06013E+01 6.78970E+00 2.36979E-01 1.17835E+00 2.80775E-13-4.27540E-13
 -1       454 3.79739E+01 2.40125E+00 1.46179E-04 3.15089E+00 2.22183E-13-1.96759E-13
 -1       455 3.67558E+01-1.55050E+00 3.05263E-02 1.17243E+00 1.64847E-13-2.61818E-13
 -1       456 2.91218E+01-5.27943E+00-8.18977E-02-3.37734E+00 1.56944E-13-4.73038E-13
 -1       457 2.02977E+01-6.75680E+00-8.97803E-02-5.79522E+00 2.45914E-14-4.23751E-13
 -1       458 1.23540E+01-6.17933E+00-3.64545E-02-6.36815E+00-2.20546E-13-3.59261E-13
 -1       459 2.47126E+00-4.95676E+00-6.87632E-02 4.55270E+00-1.20834E-13-2.11192E-13
 -1       460 1.63973E+01-5.38075E+00-4.60190E-03 8.00844E+00-2.30399E-13-2.39047E-13
 -1       461 2.55054E+01-4.01716E+00 1.73493E-02 5.81294E+00-9.36334E-14-6.00214E-14
 -1       462 3.06816E+01-1.03149E+00-3.20004E-02 3.16957E+00-1.55053E-13-1.04985E-13
 -1       463 3.51266E+01 4.49812E+00 1.02500E-02 6.54279E-01-3.22381E-13-2.24307E-13
 -1       464 3.61761E+01 8.04102E+00-9.48960E-03-1.80634E-01-3.65347E-13-1.28460E-13
 -1       465 3.76844E+01 8.65125E+00 6.48893E-02-2.40010E-02-3.25295E-13-9.59129E-14
 -1       466 3.58574E+01 5.94554E+00 9.48261E-03-2.52982E-01-4.70790E-13-2.04364E-13
 -1       467 3.32956E+01 1.53889E+00 1.03853E-02-2.04291E+00-5.22481E-13-5.66297E-13
 -1       468 2.82811E+01-2.31116E+00 2.45842E-02-4.94243E+00-3.03604E-13-3.59907E-13
 -1       469 1.96442E+01-5.22094E+00-2.47988E-02-7.51242E+00-6.18255E-14 3.36994E-13
 -1       470 1.18474E+01-5.45597E+00-1.04788E-02-7.94253E+00-2.50355E-13 4.09880E-13
 -1       471 3.60613E+00-5.38697E+00-9.75014E-02-5.46739E+00-2.87229E-13 9.23525E-13
 -1       472 3.53444E+01-2.84370E+00 6.11743E-02-9.04359E-01-2.23658E-14-1.15019E-13
 -1       473 2.63774E+01-6.55868E+00 2.46041E-02 3.87512E+00-3.44516E-13-2.39420E-13
 -1       474 2.03721E+01 8.31946E-01 4.03002E-03 9.72426E-01 3.30658E-13 1.04712E-13
 -1       475 1.97345E+01 3.10443E+00-5.32824E-03-6.34072E-01-6.35898E-14-4.38466E-13
 -1       476 1.98304E+01 2.93114E+00-5.70112E-03-9.50319E-01-1.47860E-13-4.50954E-13
 -1       477 1.96672E+01 3.22709E+00-5.02165E-03 8.76938E-03 8.17864E-14-4.75839E-13
 -1       478 1.96856E+01 3.19401E+00-5.10407E-03 3.30468E-01 1.50423E-13-4.97590E-13
 -1       479 1.97390E+01 3.09715E+00-5.42784E-03 6.45921E-01 2.24270E-13-4.57637E-13
 -1       480 1.98373E+01 2.91914E+00-5.96889E-03 9.61606E-01 3.07389E-13-3.90265E-13
 -1       481 1.99922E+01 2.63396E+00-6.52938E-03 1.25704E+00 3.53370E-13-2.81060E-13
 -1       482 2.02334E+01 2.18787E+00-5.69656E-03 1.50186E+00 3.80264E-13-1.76309E-13
 -1       483 2.03442E+01 9.71391E-01 2.41702E-03-9.42517E-01-3.12470E-13-1.50015E-13
 -1       484 2.01104E+01 4.53694E-01 5.07246E-03 4.64560E-01 3.03738E-13 6.23581E-14
 -1       485 2.03935E+01 1.77285E+00-4.99442E-03-1.54932E+00-3.51619E-13-2.12389E-13
 -1       486 2.01709E+01 5.44281E-01 2.04090E-03-4.67906E-01-2.19174E-13-1.57920E-13
 -1       487 2.00239E+01 3.04219E-01 1.11261E-03-1.66315E-01-1.61600E-13-1.36891E-13
 -1       488 1.99235E+01 1.62617E-01 4.65242E-04 1.57057E-02-9.03013E-14-1.35725E-13
 -1       489 1.98653E+01 7.69625E-02 1.63337E-04 1.19262E-01-7.48937E-14-1.66589E-13
 -1       490 1.98388E+01 2.51387E-02 2.78786E-05 1.72095E-01-7.70541E-14-1.95240E-13
 -1       491 1.98340E+01-5.12777E-03-3.81590E-05 1.92975E-01-5.82629E-14-1.98965E-13
 -1       492 1.98432E+01-2.11597E-02-6.94038E-05 1.94703E-01-1.31566E-13-2.05474E-13
 -1       493 1.98608E+01-2.76006E-02-7.95969E-05 1.86087E-01-1.66190E-13-2.09735E-13
 -1       494 1.98832E+01-2.75291E-02-7.58101E-05 1.73219E-01-1.15067E-13-1.65917E-13
 -1       495 1.99082E+01-2.30594E-02-6.27095E-05 1.60303E-01-7.67992E-14-1.68917E-13
 -1       496 1.99348E+01-1.57071E-02-4.37527E-05 1.50201E-01-1.13829E-13-1.36878E-13
 -1       497 1.99626E+01-6.65083E-03-2.17558E-05 1.44774E-01-1.89960E-13-1.33062E-13
 -1       498 1.99922E+01 3.04640E-03 6.01530E-07 1.45068E-01-1.00720E-13-9.13717E-14
 -1       499 2.00241E+01 1.22250E-02 2.02643E-05 1.51359E-01-1.16542E-13-3.03382E-14
 -1       500 2.00597E+01 1.94149E-02 3.33021E-05 1.63060E-01-8.70639E-14 6.46872E-15
 -1       501 2.01001E+01 2.26280E-02 3.44740E-05 1.78493E-01-5.01755E-14-1.26091E-13
 -1       502 2.01471E+01 1.91933E-02 1.70010E-05 1.94540E-01-1.50286E-14-1.65656E-13
 -1       503 2.02020E+01 5.71247E-03-2.72047E-05 2.06212E-01 1.04857E-13-2.60552E-13
 -1       504 2.02663E+01-2.17272E-02-1.06436E-04 2.06226E-01 1.68728E-13-2.66678E-13
 -1       505 2.03407E+01-6.68696E-02-2.26613E-04 1.84779E-01 1.22997E-13-1.83305E-13
 -1       506 2.04245E+01-1.31865E-01-3.86835E-04 1.29842E-01-1.85886E-14-2.45043E-13
 -1       507 2.05143E+01-2.14866E-01-5.73203E-04 2.84783E-02-7.95977E-14-3.31511E-13
 -1       508 2.06023E+01-3.06694E-01-7.52310E-04-1.30120E-01-8.73212E-14-3.50364E-13
 -1       509 2.06738E+01-3.87372E-01-8.64934E-04-3.49201E-01-3.27329E-15-1.94554E-13
 -1       510 2.07069E+01-4.24797E-01-8.37627E-04-6.16483E-01 7.55524E-14 8.69090E-14
 -1       511 2.06751E+01-3.79306E-01-5.21130E-04-8.95478E-01 6.63315E-15 9.63666E-14
 -1       512 2.05564E+01-2.17958E-01 4.78659E-05-1.12115E+00-1.29165E-14 1.63892E-13
 -1       513 2.03503E+01 6.20327E-02 6.32560E-04-1.20800E+00 1.13121E-14 2.37120E-13
 -1       514 2.00933E+01 4.10784E-01 1.10689E-03-1.07833E+00-8.86530E-14 2.34903E-13
 -1       515 1.98611E+01 7.24300E-01 1.33140E-03-7.06052E-01-2.31704E-13 2.76858E-13
 -1       516 1.97410E+01 8.83523E-01 1.49838E-03-1.53867E-01-2.37456E-13 4.67626E-14
 -1       517 1.97824E+01 8.21277E-01 1.51816E-03 4.35699E-01-6.18287E-14 1.83849E-13
 -1       518 1.99659E+01 5.63773E-01 1.28442E-03 9.02927E-01 1.89527E-13 2.65852E-13
 -1       519 2.02161E+01 2.13434E-01 8.72780E-04 1.14331E+00 2.34812E-13 3.21682E-13
 -1       520 2.04463E+01-1.11266E-01 3.19136E-04 1.14392E+00 1.95073E-13 1.22494E-13
 -1       521 2.05998E+01-3.32534E-01-3.27580E-04 9.64291E-01 3.15092E-13-5.13544E-14
 -1       522 2.06611E+01-4.29712E-01-7.67343E-04 6.92039E-01 1.61965E-13-1.49412E-13
 -1       523 2.06445E+01-4.24424E-01-9.07755E-04 4.05162E-01-2.76364E-13 3.88877E-13
 -1       524 2.05763E+01-3.55012E-01-8.36329E-04 1.54910E-01-1.95438E-13 5.10229E-13
 -1       525 2.04818E+01-2.57197E-01-6.54556E-04-3.42695E-02 2.40813E-13 2.08314E-13
 -1       526 2.03792E+01-1.55555E-01-4.28309E-04-1.57033E-01-1.37216E-13-4.47681E-14
 -1       527 2.02796E+01-6.27463E-02-1.86119E-04-2.18655E-01-1.83954E-14-3.79667E-13
 -1       528 2.01889E+01 1.63226E-02 6.46850E-05-2.27679E-01-3.66310E-14-4.95435E-13
 -1       529 1.98085E+01 1.29469E-01 1.01678E-03-1.99708E-02 1.65057E-13 2.19443E-14
 -1       530 1.97495E+01 5.74067E-02 3.25961E-04-1.22459E-01 7.11936E-14-3.78003E-14
 -1       531 1.97332E+01 1.75925E-02 7.77295E-05-1.69624E-01 1.31628E-13-5.62319E-14
 -1       532 1.97416E+01-5.67306E-03-4.71794E-05-1.86727E-01 1.09702E-13-7.68457E-15
 -1       533 1.97648E+01-1.79370E-02-1.07688E-04-1.86083E-01 1.04292E-13 4.24985E-14
 -1       534 1.97961E+01-2.27864E-02-1.29849E-04-1.76027E-01 1.31490E-13 2.34268E-14
 -1       535 1.98314E+01-2.24810E-02-1.26842E-04-1.62371E-01 7.67307E-14 2.70840E-14
 -1       536 1.98686E+01-1.84393E-02-9.99391E-05-1.49245E-01 4.30213E-14 2.33749E-14
 -1       537 1.99086E+01-1.09786E-02-6.35131E-05-1.39508E-01 6.77817E-14 3.74205E-14
 -1       538 1.99480E+01-1.07184E-03-7.25031E-06-1.36755E-01 1.33507E-13 2.44687E-14
 -1       539 1.99900E+01 1.17697E-02 6.38691E-05-1.42846E-01 3.65268E-14 1.05800E-14
 -1       540 2.00364E+01 2.83149E-02 1.55776E-04-1.60515E-01 7.85293E-15 4.19933E-15
 -1       541 2.00894E+01 4.99210E-02 2.77755E-04-1.93150E-01-1.13511E-13-5.00314E-14
 -1       542 2.01518E+01 7.87150E-02 4.41719E-04-2.45262E-01-7.24599E-15-2.14191E-14
 -1       543 2.02265E+01 1.17738E-01 6.71085E-04-3.22907E-01 5.05257E-14 5.00193E-14
 -1       544 2.03208E+01 1.74691E-01 1.00977E-03-4.41315E-01 2.57237E-14-1.04751E-13
 -1       545 2.04269E+01 2.50204E-01 1.43061E-03-6.01356E-01 1.18696E-15-2.07553E-13
 -1       546 2.05483E+01 3.52994E-01 2.00346E-03-8.21978E-01 1.73187E-13-8.44272E-15
 -1       547 2.06798E+01 4.88604E-01 2.65931E-03-1.12100E+00 1.04190E-13-8.45718E-14
 -1       548 2.08113E+01 6.55255E-01 3.25009E-03-1.51659E+00 5.48275E-14-1.60319E-13
 -1       549 2.09301E+01 8.29414E-01 3.49782E-03-2.02167E+00-9.25423E-14-1.43788E-13
 -1       550 2.10378E+01 9.36818E-01 3.30317E-03-2.63090E+00 4.79067E-14-1.36815E-13
 -1       551 2.12008E+01 7.74965E-01 4.96197E-03-3.33033E+00 2.19920E-15-1.92579E-13
 -1       552 2.16358E+01-4.54319E-03 1.28000E-02-3.91976E+00-2.41019E-13-3.05170E-13
 -1       553 2.29181E+01-1.86341E+00 3.94816E-02-4.11744E+00-2.96907E-13-3.32461E-13
 -1       554 2.59225E+01-4.63107E+00 4.23761E-02-3.28852E+00-1.02786E-13-2.09826E-13
 -1       555 2.19611E+01-3.63085E+00 7.59464E-02 4.87859E+00-1.56472E-14-3.02421E-13
 -1       556 2.02016E+01-8.07655E-01 3.51689E-02 4.58737E+00 1.70638E-13-4.77578E-13
 -1       557 1.98193E+01 6.35601E-01 7.53223E-03 3.87183E+00 6.31509E-14-5.51214E-13
 -1       558 1.99374E+01 1.10609E+00 3.30743E-03 3.13453E+00 2.86475E-13-3.81432E-13
 -1       559 2.01323E+01 1.09512E+00 2.70072E-03 2.44540E+00-6.59921E-15 7.04597E-14
 -1       560 2.02539E+01 9.14211E-01 2.77689E-03 1.89634E+00-1.01049E-13 9.50031E-14
 -1       561 2.02917E+01 7.14105E-01 2.37580E-03 1.45214E+00-1.26068E-13-3.39586E-13
 -1       562 2.02724E+01 5.49484E-01 1.92432E-03 1.09852E+00-2.29489E-13-3.72337E-13
 -1       563 2.02213E+01 4.37023E-01 1.66830E-03 8.11337E-01-2.38633E-13-1.25971E-13
 -1       564 1.96877E+01 8.26214E-01-6.47697E-04 2.99055E-01 2.07724E-13 1.14288E-13
 -1       565 1.96674E+01 8.33462E-01-5.71048E-04 6.76138E-02 1.99027E-13 3.40623E-14
 -1       566 1.99647E+01 5.75805E-01-1.07072E-04 6.11106E-01-1.34363E-13 8.08905E-15
 -1       567 1.97901E+01 7.38707E-01-3.44759E-04 4.96828E-01-2.47133E-13 3.82635E-13
 -1       568 1.97146E+01 7.69307E-01-5.48341E-04-1.46288E-01 8.46927E-14-6.91540E-13
 -1       569 1.98028E+01 6.56407E-01-4.36980E-04-3.06611E-01-4.13331E-14 1.35467E-13
 -1       570 1.99030E+01 5.21403E-01-2.81965E-04-3.97833E-01-1.88492E-13-1.37314E-13
 -1       571 1.99907E+01 3.89914E-01-1.00224E-04-4.22949E-01 1.46646E-13-4.43797E-13
 -1       572 2.00564E+01 2.73225E-01 9.57390E-05-3.97433E-01 2.07609E-13 3.50466E-13
 -1       573 2.00957E+01 1.80588E-01 3.09390E-04-3.40250E-01 1.37178E-13 1.70585E-13
 -1       574 2.01139E+01 1.11877E-01-5.51234E-05-2.66853E-01 1.39031E-13-5.22032E-13
 -1       575 5.33753E+00-8.07949E-01 2.00471E-01 1.51311E+00-4.11240E-13 2.96485E-13
 -1       576 1.08953E+01-3.35701E+00 1.40873E-01-5.76328E+00-3.66006E-13-5.66103E-13
 -1       577 1.99232E+01 2.46511E-01 2.43715E-03 1.58948E-01 2.02596E-13 5.37254E-14
 -1       578 1.63401E+01-4.82040E+00 1.04396E-01 6.30839E+00-1.12202E-13-2.18693E-13
 -1       579 2.57192E+01-4.99272E+00 2.16702E-02-4.68555E+00-1.02432E-13-3.05384E-13
 -1       580 4.60639E+00-9.95951E-01 1.95674E-01 2.60951E+00 8.68472E-14-1.14714E-13
 -1       581 2.25564E+01-5.34985E+00 4.77584E-02 6.30209E+00 6.42542E-15 7.39374E-14
 -1       582 5.69154E+00-1.79540E+00 1.74057E-01-4.62223E+00-2.60375E-13 5.32199E-13
 -1       583 1.02793E+01-2.69268E+00 1.81960E-01 5.43176E+00-9.90041E-14-7.92283E-14
 -1       584 1.45113E+01-4.28909E+00 1.01167E-01 7.84404E+00 7.13804E-14-2.34937E-13
 -1       585 5.47297E+00-1.07974E+00 1.87994E-01-2.19656E+00-1.02321E-13-5.57984E-13
 -1       586 1.96827E+01 3.19849E+00-5.09623E-03-3.12979E-01 1.94981E-14-4.47521E-13
 -1       587 2.73567E+01-6.10093E+00 2.58550E-02-3.06089E+00-5.83075E-14-2.24341E-13
 -1       588 3.09007E+01 5.47256E+00-1.73921E-01-1.62642E+00-3.18877E-13-3.03160E-14
 -1       589 1.99020E+01-5.39999E+00 8.53546E-02-5.83922E+00-1.55737E-13-3.58401E-13
 -1       590 3.05615E+01 2.34034E+00-1.49359E-01 1.51005E+00-4.48794E-13-2.55802E-13
 -1       591 1.09956E+01-3.69189E+00 1.32832E-01-7.54349E+00-3.06699E-15 4.79936E-13
 -1       592 3.21505E+01-4.43521E+00-3.23427E-02 1.02765E+00 7.67858E-14-2.07216E-13
 -1       593 2.81712E+01-3.75271E+00-3.79086E-02 2.65005E+00 1.22525E-13-3.58810E-14
 -1       594 3.07904E+01 5.89733E-01-1.05082E-01-5.44095E-01-1.04416E-13 8.14279E-14
 -1       595 3.08088E+01 8.16145E+00-1.84877E-01-2.37513E-01-3.94851E-13 7.85075E-14
 -1       596 3.11415E+01 7.02946E+00-1.76647E-01 1.23464E+00-1.51129E-13 2.90046E-15
 -1       597 8.51016E+00-2.65416E+00 1.67463E-01 6.60844E+00 1.13395E-13-2.43888E-13
 -1       598 2.98219E+01-2.14029E+00-7.64190E-02-1.23058E+00-3.56937E-13-2.53068E-13
 -1       599 1.77270E+01-5.12986E+00 6.91183E-02-7.68245E+00-8.43284E-14 1.76364E-13
 -1       600 2.05838E+01 1.30520E+00-9.98290E-04 1.54833E+00 4.11678E-13 1.65436E-13
 -1       601 1.99787E+01 2.66784E+00-6.06124E-03-1.25513E+00-2.42047E-13-4.05403E-13
 -1       602 2.01334E+01 6.03274E-02 1.71847E-04-2.08524E-01 1.71797E-13-1.97470E-13
 -1       603 3.46714E+01-8.98894E-01-1.35786E-01-3.09233E+00 3.07442E-13-1.71654E-13
 -1       604 2.02242E+01 2.93940E-01 2.19221E-03 5.31324E-01 1.60140E-13-6.23777E-14
 -1       605 6.77018E+00 2.99057E-01 1.87615E-01-1.39142E+00-3.47682E-13 3.03826E-13
 -1       606 2.82664E+01-2.05681E+00-5.59391E-02-1.49402E-01 9.49397E-14 2.42830E-13
 -1       607 1.99624E+01 2.44974E+00-1.57812E-03 3.94324E-01 1.73089E-13-4.19732E-13
 -1       608 1.99305E+01 2.52494E+00-1.50849E-03 1.35667E-01 1.04425E-13-4.46191E-13
 -1       609 2.01217E+01 2.04619E+00-1.59831E-03 8.50451E-01 2.79547E-13-3.02692E-13
 -1       610 2.02391E+01 1.67616E+00-2.23064E-03 9.92387E-01 2.98416E-13-2.19655E-13
 -1       611 2.86370E+01 2.38881E+00-1.08704E-01-1.96343E+00-2.43069E-14 1.53537E-13
 -1       612 2.02931E+01 1.12078E+00 2.90624E-04-7.65789E-01-2.50780E-13-2.30467E-13
 -1       613 2.03190E+01 1.03670E+00 2.91389E-03 8.31770E-01 2.99899E-13-8.20574E-14
 -1       614 1.99423E+01 2.57551E-02 1.38493E-06-1.74581E-01 6.95396E-14-9.08281E-14
 -1       615 2.02397E+01 6.74231E-01 5.69567E-04-3.93564E-01-1.77640E-13-1.91046E-13
 -1       616 2.01678E+01 3.93012E-01 2.37759E-04-1.39203E-01-1.34937E-13-1.77429E-13
 -1       617 2.01026E+01 2.14475E-01 6.42593E-05 2.34570E-02-9.33838E-14-1.90537E-13
 -1       618 2.00528E+01 1.01482E-01 8.61802E-06 1.19834E-01-9.54232E-14-2.21886E-13
 -1       619 2.00184E+01 3.15601E-02-1.31072E-05 1.70688E-01-1.07961E-13-2.33607E-13
 -1       620 1.99968E+01-9.36833E-03-2.31304E-05 1.91862E-01-4.70622E-14-2.35554E-13
 -1       621 1.99850E+01-3.04789E-02-2.71789E-05 1.94984E-01-9.52390E-14-1.46336E-13
 -1       622 1.99803E+01-3.79446E-02-2.69322E-05 1.88445E-01-1.12892E-13-1.16383E-13
 -1       623 1.99807E+01-3.60291E-02-2.35111E-05 1.78235E-01-1.61143E-13-1.13037E-13
 -1       624 1.99849E+01-2.77566E-02-1.79278E-05 1.68579E-01-9.57676E-14-1.34550E-13
 -1       625 1.99918E+01-1.53743E-02-1.10342E-05 1.62396E-01-1.10713E-13-1.08778E-13
 -1       626 2.00014E+01-7.24014E-04-3.59366E-06 1.61606E-01-5.41584E-14-2.35330E-14
 -1       627 2.00136E+01 1.44197E-02 3.58372E-06 1.67289E-01-8.46257E-14 7.96487E-14
 -1       628 2.00293E+01 2.80151E-02 9.48230E-06 1.79709E-01-1.57668E-13 5.00922E-14
 -1       629 2.00498E+01 3.74185E-02 1.27034E-05 1.98184E-01-1.13381E-13 1.05562E-13
 -1       630 2.00772E+01 3.90738E-02 1.12964E-05 2.20826E-01-1.27140E-13-3.58194E-14
 -1       631 2.01147E+01 2.83008E-02 2.64196E-06 2.44119E-01-4.47361E-14-1.23629E-13
 -1       632 2.01664E+01-6.74790E-04-1.65248E-05 2.62400E-01 1.08819E-13-2.53570E-13
 -1       633 2.02378E+01-5.42058E-02-4.96489E-05 2.67282E-01 2.15125E-13-2.84096E-13
 -1       634 2.03348E+01-1.37859E-01-9.88877E-05 2.47212E-01 2.36917E-14-2.10395E-13
 -1       635 2.04627E+01-2.53738E-01-1.63220E-04 1.87496E-01-1.12699E-13-2.23263E-13
 -1       636 2.06236E+01-3.96113E-01-2.36555E-04 7.14582E-02-1.23927E-13-1.28872E-13
 -1       637 2.08119E+01-5.45529E-01-3.06243E-04-1.16178E-01 4.42320E-14 3.26985E-14
 -1       638 2.10087E+01-6.62886E-01-3.42553E-04-3.82158E-01 9.86999E-14 7.62251E-14
 -1       639 2.11780E+01-6.88215E-01-3.26296E-04-7.12436E-01 9.28503E-14-2.40171E-14
 -1       640 2.12701E+01-5.52046E-01 1.33948E-04-1.05722E+00 4.02395E-14 2.28054E-14
 -1       641 2.12383E+01-2.05828E-01 7.52418E-04-1.32202E+00 1.16989E-13 1.66658E-13
 -1       642 2.10715E+01 3.29138E-01 5.13761E-04-1.38094E+00-3.45994E-14 1.73167E-13
 -1       643 2.08250E+01 9.27322E-01 1.16041E-04-1.12785E+00-4.72543E-14 3.20561E-13
 -1       644 2.06197E+01 1.37077E+00 9.53433E-05-5.56508E-01-3.28200E-13 5.26460E-13
 -1       645 2.05743E+01 1.46233E+00 3.44832E-04 1.87181E-01-8.71191E-14 7.43817E-13
 -1       646 2.07133E+01 1.16164E+00 1.60682E-04 8.62810E-01-1.12447E-13 5.55499E-13
 -1       647 2.09557E+01 6.02061E-01 3.77565E-04 1.26971E+00 3.52398E-14 2.27913E-13
 -1       648 2.11700E+01 1.06407E-02 8.28904E-04 1.34225E+00 2.14368E-13-1.37248E-13
 -1       649 2.12657E+01-4.36781E-01 3.48813E-04 1.14985E+00 3.08028E-14-1.99721E-13
 -1       650 2.12245E+01-6.69907E-01-1.96858E-04 8.18721E-01 1.44186E-13-3.72829E-13
 -1       651 2.10812E+01-7.10505E-01-3.82933E-04 4.63702E-01 1.00838E-13-4.39462E-13
 -1       652 2.08879E+01-6.23013E-01-3.61631E-04 1.56509E-01-5.55895E-14-4.91630E-14
 -1       653 2.06879E+01-4.73106E-01-2.89249E-04-7.26080E-02-1.92449E-14 1.84050E-13
 -1       654 2.05073E+01-3.08207E-01-1.86476E-04-2.20352E-01-8.90113E-15-5.64317E-15
 -1       655 2.03566E+01-1.54587E-01-1.00101E-04-2.96488E-01-4.87480E-13-1.61743E-13
 -1       656 2.02365E+01-2.34147E-02-9.02380E-06-3.14220E-01-3.04021E-13-3.18968E-13
 -1       657 1.99722E+01 8.58035E-02 6.28995E-05-1.24993E-01 1.40382E-13-9.07757E-14
 -1       658 2.00271E+01 1.90321E-01 1.57968E-04-2.19482E-02 1.75549E-13-2.80063E-14
 -1       659 1.99288E+01-9.36559E-03-2.63885E-05-1.94269E-01 6.16065E-14-4.11721E-14
 -1       660 1.99268E+01-2.74385E-02-3.88623E-05-1.95917E-01 9.80885E-14-8.61660E-15
 -1       661 1.99325E+01-3.36723E-02-4.29741E-05-1.88102E-01 8.04020E-14 3.82402E-14
 -1       662 1.99435E+01-3.14594E-02-3.61252E-05-1.76984E-01 4.84022E-14 1.01994E-14
 -1       663 1.99587E+01-2.22566E-02-2.49802E-05-1.66786E-01 8.66436E-14-4.96667E-16
 -1       664 1.99756E+01-8.05481E-03-1.09516E-05-1.62132E-01 1.36069E-13-1.22921E-15
 -1       665 1.99946E+01 1.12220E-02 1.07561E-05-1.65416E-01 1.05859E-13 1.37490E-15
 -1       666 2.00153E+01 3.62326E-02 3.79212E-05-1.79513E-01-5.14697E-14 1.01133E-13
 -1       667 2.00373E+01 6.85013E-02 7.37434E-05-2.07522E-01 2.88029E-14 9.40300E-14
 -1       668 2.00597E+01 1.10586E-01 1.21768E-04-2.53141E-01 2.71898E-14-2.56460E-14
 -1       669 2.00806E+01 1.66221E-01 1.81430E-04-3.20954E-01-1.87061E-15-8.76738E-14
 -1       670 2.00964E+01 2.45243E-01 2.92410E-04-4.22588E-01 7.77148E-14-8.28824E-14
 -1       671 2.00977E+01 3.47674E-01 4.06807E-04-5.56245E-01 2.81727E-14-4.23249E-14
 -1       672 2.00727E+01 4.84904E-01 5.82018E-04-7.34850E-01 4.75826E-14-1.10742E-13
 -1       673 2.00003E+01 6.65373E-01 7.95634E-04-9.68873E-01 1.72088E-13-8.26050E-14
 -1       674 1.98490E+01 8.92604E-01 1.01619E-03-1.26944E+00 1.21992E-13 4.80677E-14
 -1       675 1.95761E+01 1.15468E+00 1.19402E-03-1.64795E+00 3.94965E-14-7.38574E-14
 -1       676 1.91342E+01 1.40327E+00 1.58934E-03-2.11865E+00-5.34794E-14-1.99223E-13
 -1       677 1.84545E+01 1.50274E+00 4.87223E-03-2.73657E+00 1.39786E-14-2.16326E-13
 -1       678 1.76484E+01 1.16134E+00 1.92215E-02-3.50694E+00 1.62197E-15-1.96855E-13
 -1       679 1.69795E+01-1.23537E-01 5.88459E-02-4.52813E+00-2.17395E-13-4.16434E-13
 -1       680 2.02054E+01 6.15106E-01 1.12180E-03 4.20763E-01 2.53934E-13-3.77862E-14
 -1       681 1.58762E+01-3.38900E+00 1.00623E-01-7.04309E+00-1.68858E-13 9.92470E-14
 -1       682 1.08905E+01-4.46171E-01 1.54804E-01-4.19609E+00-2.39538E-13-5.54910E-13
 -1       683 1.68935E+01 1.62424E+00 1.39886E-02 2.85683E+00-2.05227E-13-5.14168E-14
 -1       684 1.80331E+01 1.65237E+00 3.26612E-03 2.23615E+00-1.48631E-14 1.20021E-13
 -1       685 1.88070E+01 1.42604E+00 1.21899E-03 1.80006E+00 1.65329E-16 6.24241E-14
 -1       686 1.93248E+01 1.14736E+00 7.76678E-04 1.44557E+00 1.30258E-13-2.16391E-13
 -1       687 1.96524E+01 8.98207E-01 4.33333E-04 1.15021E+00-1.43231E-13-1.78030E-13
 -1       688 1.98474E+01 7.11677E-01 3.44372E-04 9.01209E-01-4.00333E-13-1.84830E-13
 -1       689 1.96015E+01 6.53038E-01-1.44104E-04-3.55588E-01 1.33716E-13-4.15493E-13
 -1       690 1.94293E+01 8.78439E-01-7.24010E-05 1.71278E-01 2.02602E-13-8.01359E-14
 -1       691 1.97716E+01 4.82749E-01-1.40462E-04-4.94944E-01-1.25312E-13-1.49707E-13
 -1       692 1.94700E+01 7.97975E-01-1.43560E-04-1.23937E-01-1.36695E-13-5.37357E-13
 -1       693 1.99329E+01 3.23330E-01-8.16124E-05-5.41731E-01-1.10822E-13-2.54755E-14
 -1       694 2.00611E+01 1.91967E-01-1.36397E-06-5.16046E-01 3.00178E-13 9.91148E-15
 -1       695 2.01419E+01 1.00927E-01 1.34474E-04-4.43061E-01-2.01266E-14 2.60663E-13
 -1       696 2.73593E+01-3.81435E+00-1.56944E-02-1.68537E+00-7.49288E-14-3.10155E-13
 -1       697 1.05526E+01 1.55776E-01 1.40816E-01 3.53952E+00 1.17482E-13 4.04898E-13
 -1       698 2.01053E+01 3.53634E-01 5.74109E-04 1.49188E-01 1.94848E-13-2.73513E-14
 -1       699 1.55866E+01 9.78842E-01 5.16523E-02 3.68949E+00 1.84405E-13-1.50937E-13
 -1       700 1.51658E+01-1.05052E+00 1.31311E-01 5.10904E+00 1.30378E-13-1.61687E-13
 -1       701 1.73012E+01-2.78411E+00 1.08276E-01-5.63527E+00-2.21254E-13-4.31939E-13
 -1       702 8.95251E+00-2.27392E-01 1.54243E-01 4.42745E+00 1.06845E-13-1.43982E-14
 -1       703 2.01708E+01 5.07515E-02 3.31190E-04-2.98631E-01 2.00616E-13-4.99985E-13
 -1       704 2.22887E+01-4.83466E+00 3.94851E-02-5.50360E+00-6.22766E-15-3.24610E-13
 -1       705 2.00258E+01 2.29512E+00-1.66069E-03 6.37780E-01 2.36381E-13-3.75809E-13
 -1       706 8.17252E+00 1.08505E+00 1.66450E-01 9.76191E-02 7.75883E-14-1.14311E-13
 -1       707 2.00202E+01 2.30548E+00-1.62224E-03-6.29598E-01-8.03963E-14-3.68064E-13
 -1       708 2.53862E+01-4.70535E+00-2.10051E-03 3.52225E+00 2.08973E-13 7.25704E-14
 -1       709 1.96933E+01-4.08186E+00 6.66082E-02 6.27489E+00 2.59136E-13 4.10123E-14
 -1       710 1.07454E+01-1.29639E+00 1.42967E-01-5.81143E+00-4.34031E-13 5.11667E-13
 -1       711 2.75890E+01 6.21040E+00-1.60113E-01-1.27598E+00-3.57644E-13 2.45290E-15
 -1       712 2.75915E+01 6.79492E+00-1.53345E-01 7.49751E-01-2.18513E-13-1.49160E-14
 -1       713 1.25230E+01-1.98114E+00 1.26910E-01 6.52590E+00 2.34340E-13-2.26492E-13
 -1       714 2.84159E+01-7.78170E-01-7.76442E-02 1.03630E+00-3.69000E-13-4.08552E-13
 -1       715 2.80109E+01 4.34111E+00-1.42086E-01 1.98997E+00-1.30854E-13-1.30087E-14
 -1       716 2.01182E+01 2.06449E+00-1.88615E-03-8.54255E-01-1.76538E-13-3.59648E-13
 -1       717 1.99296E+01 2.52662E+00-1.50463E-03-1.26638E-01 4.81433E-14-4.11887E-13
 -1       718 2.64852E+01 3.85351E+00-7.60593E-02-2.06793E+00-8.00228E-14 2.94112E-13
 -1       719 1.95190E+01 8.63030E-01-2.41874E-04 4.72876E-01 2.79514E-13 5.24890E-13
 -1       720 1.96272E+01 8.14249E-01 2.32427E-04 7.03252E-01-8.80268E-14 3.63643E-13
 -1       721 9.95295E+00 1.19047E+00 1.48040E-01 1.31178E+00 2.34184E-14 6.41522E-13
 -1       722 9.96374E+00 5.84792E-01 1.28963E-01-3.30882E+00-2.55538E-13 4.01373E-13
 -1       723 2.69707E+01 1.51705E+00-6.44309E-02 2.05774E+00-2.41425E-13 2.42587E-13
 -1       724 1.99592E+01 2.45562E+00-1.54165E-03-3.84437E-01-1.95906E-14-3.67901E-13
 -1       725 2.02639E+01 1.68907E+00-1.92660E-03-1.12947E+00-2.63876E-13-2.61878E-13
 -1       726 2.01978E+01 2.52626E-02 2.46294E-04-3.85929E-01-3.05027E-13-5.54308E-14
 -1       727 2.02652E+01 1.30819E+00 1.53762E-06 6.30823E-01 2.32017E-13-2.25801E-13
 -1       728 1.91616E+01-3.04777E+00 3.10585E-02-5.42758E+00-1.29066E-13-1.87466E-13
 -1       729 2.00642E+01-1.56683E-02-1.10174E-05-1.85542E-01 5.41644E-14-1.08248E-13
 -1       730 1.54339E+01-1.50016E+00 6.73174E-02-5.49370E+00-1.98057E-13 1.24484E-14
 -1       731 2.02852E+01 1.16797E+00 1.60038E-04-5.68919E-01-1.80123E-13-2.84518E-13
 -1       732 2.02901E+01 7.31742E-01 4.31500E-06-2.90752E-01-1.39168E-13-2.41411E-13
 -1       733 2.02631E+01 4.35255E-01-2.87253E-05-9.27664E-02-1.18424E-13-2.12240E-13
 -1       734 2.02231E+01 2.38046E-01-1.43011E-05 3.79530E-02-1.29305E-13-2.22769E-13
 -1       735 2.01818E+01 1.09751E-01-1.26929E-05 1.16880E-01-1.02400E-13-2.07280E-13
 -1       736 2.01442E+01 2.96361E-02-1.01168E-05 1.59072E-01-8.74738E-14-1.63745E-13
 -1       737 2.01122E+01-1.66944E-02-9.18270E-06 1.76870E-01-3.47537E-14-2.04432E-13
 -1       738 2.00860E+01-3.92948E-02-8.48733E-06 1.79864E-01-3.27842E-14-1.24714E-13
 -1       739 2.00648E+01-4.52732E-02-7.39722E-06 1.75248E-01-8.87653E-14-6.97113E-14
 -1       740 2.00481E+01-3.97116E-02-5.94205E-06 1.68300E-01-1.25222E-13 1.00959E-14
 -1       741 2.00351E+01-2.63167E-02-4.20867E-06 1.62834E-01-6.57149E-14-4.28206E-14
 -1       742 2.00252E+01-7.94186E-03-2.29439E-06 1.61567E-01-6.95420E-14-1.59616E-14
 -1       743 2.00180E+01 1.29500E-02-3.22581E-07 1.66377E-01-3.07899E-14-2.56978E-14
 -1       744 2.00140E+01 3.38376E-02 1.54690E-06 1.78438E-01-1.01333E-13 6.58504E-15
 -1       745 2.00139E+01 5.16853E-02 3.06263E-06 1.98228E-01-1.17937E-13-4.55957E-14
 -1       746 2.00199E+01 6.24855E-02 3.81152E-06 2.25409E-01-2.30823E-13-1.22111E-13
 -1       747 2.00354E+01 6.08453E-02 3.10269E-06 2.58527E-01-3.54812E-14-2.05312E-14
 -1       748 2.00658E+01 3.97309E-02-2.30538E-07 2.94534E-01-5.32508E-14 1.65519E-14
 -1       749 2.01193E+01-9.41455E-03-8.00613E-06 3.28081E-01 1.03472E-13-9.24686E-14
 -1       750 2.02062E+01-9.58166E-02-2.19676E-05 3.50588E-01 2.10106E-13-1.88529E-13
 -1       751 2.03391E+01-2.27233E-01-4.11442E-05 3.49156E-01-2.65726E-14-8.31016E-14
 -1       752 2.05309E+01-4.05742E-01-6.39144E-05 3.05593E-01 2.86166E-15 1.01585E-13
 -1       753 2.07898E+01-6.20716E-01-9.56109E-05 1.96564E-01-1.07271E-15 1.67620E-13
 -1       754 2.11124E+01-8.39244E-01-1.42968E-04-3.49444E-03 1.12468E-13 1.92791E-13
 -1       755 2.14717E+01-9.95223E-01-2.56718E-04-3.13252E-01 5.57327E-14 1.90634E-13
 -1       756 2.18074E+01-9.87139E-01-5.75246E-04-7.22871E-01 2.75407E-14 1.64495E-13
 -1       757 2.20320E+01-7.01719E-01 1.87022E-04-1.16635E+00 1.18502E-14 1.77709E-13
 -1       758 2.20650E+01-7.39824E-02 6.22556E-04-1.49547E+00 5.00923E-14 2.94799E-14
 -1       759 2.18777E+01 8.32624E-01-1.81398E-03-1.51880E+00 7.71936E-14 1.37345E-13
 -1       760 2.15962E+01 1.72612E+00-1.14637E-03-1.07833E+00 1.85283E-14 1.61653E-13
 -1       761 2.14182E+01 2.20887E+00 2.65816E-04-2.36293E-01-1.22747E-13 4.75657E-13
 -1       762 2.14887E+01 2.01792E+00-1.07339E-03 6.88420E-01-3.31569E-13 3.22597E-13
 -1       763 2.17484E+01 1.26642E+00-2.01684E-03 1.34068E+00-2.27404E-13 3.01214E-13
 -1       764 2.20090E+01 3.08994E-01 1.01364E-04 1.51952E+00-1.80942E-13-5.26848E-14
 -1       765 2.20852E+01-4.74566E-01 2.86005E-04 1.30353E+00 4.09155E-14-2.51547E-13
 -1       766 2.19471E+01-9.23811E-01-2.82138E-04 8.79725E-01 9.95831E-14-3.80350E-14
 -1       767 2.16533E+01-1.04800E+00-4.33040E-04 4.31682E-01 1.94838E-13-6.49724E-14
 -1       768 2.12979E+01-9.50290E-01-2.74916E-04 6.28523E-02 1.81794E-13-1.81414E-14
 -1       769 2.09556E+01-7.41569E-01-1.76104E-04-1.93982E-01 6.63309E-14-1.88480E-13
 -1       770 2.06670E+01-5.02874E-01-1.35265E-04-3.46255E-01-7.41433E-14-5.23375E-13
 -1       771 2.04439E+01-2.78158E-01-3.16199E-06-4.13711E-01-2.85731E-13-6.76016E-13
 -1       772 2.03018E+01-1.10142E-01 9.35467E-05-4.13387E-01-4.23578E-13-1.53224E-13
 -1       773 2.01258E+01 1.00474E-01 2.27857E-05-1.23443E-01 8.62057E-14-7.19547E-14
 -1       774 2.01720E+01 2.26379E-01-3.06751E-06-3.40341E-02 1.61281E-13-9.35504E-14
 -1       775 2.00452E+01-3.63941E-02-1.26953E-05-1.87996E-01 6.99474E-14-9.67625E-14
 -1       776 2.00321E+01-4.15712E-02-8.51416E-06-1.82533E-01 8.38891E-14-4.45802E-14
 -1       777 2.00234E+01-3.47590E-02-8.32342E-06-1.74531E-01 1.22771E-13-1.33231E-13
 -1       778 2.00183E+01-1.91200E-02-7.94386E-06-1.69240E-01 5.91930E-14-1.22577E-13
 -1       779 2.00152E+01 4.19126E-03-2.36251E-06-1.69607E-01 3.93496E-14-5.43182E-14
 -1       780 2.00125E+01 3.52240E-02 3.56845E-06-1.78461E-01 2.36037E-14-4.84900E-14
 -1       781 2.00082E+01 7.51178E-02 1.09940E-05-1.98390E-01 7.91558E-15-1.04302E-13
 -1       782 1.99994E+01 1.26199E-01 2.09254E-05-2.31984E-01 1.44307E-14-1.22075E-13
 -1       783 1.99816E+01 1.92041E-01 2.37768E-05-2.81989E-01-1.72876E-14-2.67163E-14
 -1       784 1.99454E+01 2.82879E-01 5.80841E-05-3.55328E-01-5.85314E-14 1.03287E-13
 -1       785 1.98822E+01 3.97384E-01 6.76661E-05-4.48172E-01 3.84901E-14 1.04707E-13
 -1       786 1.97739E+01 5.47341E-01 9.29308E-05-5.66032E-01 5.02130E-14-9.67041E-15
 -1       787 1.95939E+01 7.41663E-01 1.14008E-04-7.10555E-01 8.11295E-14-3.91863E-14
 -1       788 1.93037E+01 9.86693E-01 1.00885E-04-8.81702E-01 1.02901E-13-6.94360E-14
 -1       789 1.88488E+01 1.28010E+00 2.49384E-05-1.07775E+00 9.60066E-14-9.05906E-14
 -1       790 1.81559E+01 1.59931E+00-2.34858E-04-1.29920E+00 1.00604E-13-6.90555E-14
 -1       791 1.70625E+01 1.89145E+00 2.73967E-03-1.57464E+00-4.91869E-14-1.43157E-13
 -1       792 1.55508E+01 1.97692E+00 1.30167E-02-1.92628E+00-1.42657E-15-2.16231E-13
 -1       793 1.34416E+01 1.60392E+00 6.44975E-02-2.58632E+00 1.43486E-13-3.44079E-13
 -1       794 1.37200E+01 2.02900E+00 3.98723E-02 1.51502E+00-1.81686E-13 8.44334E-13
 -1       795 1.72746E+01 1.79621E+00 1.03884E-03 1.14218E+00 2.23241E-14 6.77100E-13
 -1       796 1.58248E+01 2.01757E+00 6.20667E-03 1.27432E+00-1.83707E-13 7.69905E-13
 -1       797 1.89132E+01 1.20091E+00-4.39980E-04 9.11459E-01-3.23476E-14 6.18170E-13
 -1       798 1.93386E+01 9.82197E-01-8.64455E-06 8.17980E-01-1.08950E-13 8.03729E-13
 -1       799 1.98256E+01 2.62771E-01-8.55517E-05-6.88391E-01 1.30708E-13-2.05322E-13
 -1       800 1.95596E+01 4.82431E-01-3.61172E-05-6.13294E-01 2.27815E-13-3.98846E-13
 -1       801 2.00907E+01 2.68041E-02-1.89962E-05-1.67440E-01 5.95357E-14-8.49629E-14
 -1       802 2.00464E+01 9.02755E-02-3.95615E-05-6.55694E-01 1.47817E-15 2.91657E-13
 -1       803 2.54421E+01 4.73139E+00-7.82937E-02 1.48685E+00-2.42393E-13 4.75722E-14
 -1       804 2.01903E+01-1.70649E-02 4.34035E-05-5.57289E-01 1.50360E-13-2.59831E-13
 -1       805 2.68340E+01-3.90840E-02-5.06652E-02-1.73828E+00 3.95482E-14 2.55962E-13
 -1       806 1.82495E+01 1.49420E+00 1.57941E-04 1.03067E+00 1.02861E-13 3.90351E-13
 -1       807 2.52994E+01 5.70368E+00-8.78282E-02-2.96283E-01-3.25760E-13 6.36709E-15
 -1       808 1.64806E+01-1.96958E+00 5.77073E-02 5.65571E+00 1.29527E-13-1.81523E-13
 -1       809 2.27996E+01-3.92131E+00 7.38098E-03 3.90690E+00 1.73151E-13 1.18009E-14
 -1       810 2.60301E+01-3.33415E+00-1.83035E-02 8.82168E-01 2.74915E-14 1.77426E-13
 -1       811 2.01411E+01 1.89006E+00-2.87740E-04 1.99056E-01 1.29570E-13-3.73649E-13
 -1       812 2.02783E+01 9.43313E-01 2.32357E-05 5.53571E-01 2.26261E-13-1.38353E-13
 -1       813 2.45440E+01-4.03060E+00-8.18441E-03-2.69292E+00-1.23715E-14-2.02679E-13
 -1       814 1.33695E+01-4.44455E-01 8.27374E-02 5.01052E+00 1.99714E-13-6.72344E-14
 -1       815 2.64088E+01-2.40329E+00-2.52022E-02 1.92278E-01-1.50064E-13-9.09195E-14
 -1       816 1.08351E+01 1.31278E+00 6.96309E-02 2.21246E+00 1.68796E-13-2.99899E-14
 -1       817 2.01295E+01 1.92824E+00-3.09530E-04 3.20601E-03 6.56411E-14-3.89176E-13
 -1       818 2.45237E+01 4.37099E+00-4.53911E-02-1.25902E+00-4.25909E-14-5.56629E-14
 -1       819 2.02208E+01 4.16461E-01 2.92515E-05 1.10205E-01 1.87188E-13-1.08058E-13
 -1       820 1.91424E+01 9.94978E-01-2.59389E-04 3.17862E-01 1.13977E-13 1.12781E-14
 -1       821 1.93044E+01 7.13867E-01 9.74038E-05-4.08506E-01 1.60086E-13-3.85571E-13
 -1       822 1.91392E+01 9.04291E-01 3.43026E-04-7.99099E-02 1.53306E-13-3.47429E-13
 -1       823 1.10195E+01 1.65381E+00 8.18741E-02-6.58679E-01-3.12411E-14 7.10262E-13
 -1       824 2.50693E+01 2.62310E+00-3.92554E-02 2.01859E+00-3.09625E-13 1.14587E-14
 -1       825 2.02502E+01 6.37463E-01 2.21718E-05 2.94600E-01 1.89511E-13-1.08131E-13
 -1       826 2.01301E+01-2.71401E+00 3.10147E-02 4.51768E+00 1.28777E-14 6.39950E-15
 -1       827 2.57480E+01-6.64072E-01-3.69938E-02 1.53719E+00-9.84555E-14-6.03528E-14
 -1       828 2.02237E+01 1.58198E+00 2.52760E-04 5.36039E-01 2.06872E-13-3.23258E-13
 -1       829 2.01754E+01 1.77520E+00-3.75447E-05 3.83115E-01 1.97937E-13-3.47226E-13
 -1       830 2.01694E+01 1.78303E+00-5.74119E-04-3.75373E-01-5.28765E-14-3.18107E-13
 -1       831 1.28583E+01 2.03123E+00 3.89124E-02-4.19568E-01 1.53589E-13-1.78850E-13
 -1       832 1.37818E+01 1.17635E-01 5.36838E-02-4.13947E+00-1.35539E-13 3.01290E-13
 -1       833 2.22351E+01-3.41044E+00 1.25477E-02-3.62954E+00-9.22977E-14-3.52896E-13
 -1       834 2.02157E+01 1.59371E+00-8.56502E-04-5.27954E-01-1.36625E-13-2.64166E-13
 -1       835 2.02555E+01-7.56438E-02-5.31007E-04-4.90496E-01-1.20531E-13-3.24707E-13
 -1       836 2.01574E+01-2.42371E-02-6.29415E-07-1.64975E-01 5.70810E-14-1.25754E-13
 -1       837 1.79595E+01-1.47525E+00 2.64543E-02-4.47522E+00-1.13035E-13-2.96293E-13
 -1       838 2.03361E+01 7.25883E-01-4.82426E-04-1.89407E-01-1.15519E-13-2.23128E-13
 -1       839 2.03318E+01 4.34552E-01 3.94646E-07-4.49794E-02-1.34925E-13-2.13658E-13
 -1       840 2.03056E+01 2.33738E-01-2.01858E-05 5.02375E-02-7.68150E-14-1.85253E-13
 -1       841 2.02688E+01 1.01653E-01-8.64894E-06 1.07938E-01-8.63488E-14-1.53790E-13
 -1       842 2.02286E+01 1.95897E-02-5.98005E-06 1.38579E-01-6.20345E-14-1.36643E-13
 -1       843 2.01889E+01-2.63906E-02-4.93336E-06 1.51265E-01-1.95346E-14-1.86471E-13
 -1       844 2.01519E+01-4.65401E-02-3.75944E-06 1.53340E-01-4.67884E-15-1.97618E-13
 -1       845 2.01182E+01-4.83777E-02-2.90246E-06 1.50461E-01-5.46093E-14-1.45663E-13
 -1       846 2.00879E+01-3.73991E-02-2.33921E-06 1.46891E-01-1.28250E-13-1.09138E-13
 -1       847 2.00607E+01-1.76975E-02-1.94092E-06 1.45831E-01-1.26466E-14-6.49821E-14
 -1       848 2.00360E+01 7.47614E-03-1.64753E-06 1.49717E-01-1.15194E-14-5.89404E-14
 -1       849 2.00136E+01 3.51756E-02-1.42732E-06 1.60438E-01-8.80834E-14-2.19238E-14
 -1       850 1.99939E+01 6.22124E-02-1.31020E-06 1.79473E-01-1.25507E-13 5.69923E-16
 -1       851 1.99782E+01 8.45843E-02-1.36817E-06 2.07929E-01-1.90882E-13 8.02500E-14
 -1       852 1.99692E+01 9.68907E-02-1.73936E-06 2.46435E-01-9.81633E-14 1.20982E-13
 -1       853 1.99721E+01 9.17922E-02-2.84442E-06 2.94854E-01-7.16318E-14 7.18386E-14
 -1       854 1.99951E+01 5.96595E-02-5.80881E-06 3.51705E-01 1.57648E-14-2.28869E-14
 -1       855 2.00504E+01-1.13077E-02-1.27904E-05 4.13172E-01 1.10879E-13-2.18394E-14
 -1       856 2.01547E+01-1.34019E-01-2.25834E-05 4.71556E-01 1.63945E-13 1.32487E-14
 -1       857 2.03290E+01-3.19767E-01-2.07831E-05 5.12941E-01 7.39622E-14 7.98016E-14
 -1       858 2.05963E+01-5.72260E-01-2.85683E-06 5.14084E-01 3.04028E-14 1.25337E-13
 -1       859 2.09747E+01-8.76627E-01-5.87667E-05 4.40544E-01 1.09933E-13 1.57238E-13
 -1       860 2.14692E+01-1.18677E+00-1.10884E-04 2.47760E-01 4.56561E-14 1.50689E-13
 -1       861 2.20432E+01-1.39502E+00-1.78609E-04-1.13095E-01 9.10775E-15 2.18065E-13
 -1       862 2.26076E+01-1.33792E+00-1.05963E-03-6.53863E-01 7.15026E-14 1.23483E-13
 -1       863 2.30037E+01-8.00821E-01 3.28348E-03-1.28259E+00 1.73240E-14 5.85281E-14
 -1       864 2.30345E+01 2.60305E-01-5.63734E-03-1.70674E+00-1.96488E-14-7.97643E-14
 -1       865 2.27800E+01 1.66223E+00-4.88695E-03-1.64567E+00-1.33218E-14-6.55765E-14
 -1       866 2.25152E+01 2.81291E+00-3.92150E-03-8.93778E-01 2.08742E-13-1.83503E-13
 -1       867 2.23729E+01 3.14015E+00-1.23084E-02 3.32703E-01-2.13299E-13-2.97280E-14
 -1       868 2.26373E+01 2.30343E+00-5.54529E-03 1.35685E+00-3.26960E-13-8.88209E-14
 -1       869 2.29520E+01 8.98797E-01-5.38493E-03 1.73338E+00-3.60603E-13-1.49714E-13
 -1       870 2.30957E+01-3.99099E-01 2.70357E-03 1.48635E+00-9.74886E-14-1.31933E-13
 -1       871 2.28540E+01-1.19755E+00 5.13798E-04 8.93663E-01 1.97770E-13-6.06969E-14
 -1       872 2.23528E+01-1.45127E+00-9.05776E-04 2.89244E-01 1.49209E-13-1.21347E-13
 -1       873 2.17768E+01-1.33997E+00-4.18126E-04-1.64496E-01 1.73817E-13-2.72260E-13
 -1       874 2.12465E+01-1.05307E+00-3.29571E-04-4.38488E-01 6.25135E-14-3.78656E-13
 -1       875 2.08211E+01-7.22877E-01-1.54861E-04-5.67230E-01-2.24015E-13-2.76413E-13
 -1       876 2.05096E+01-4.14909E-01 2.54047E-04-5.98728E-01-2.04258E-13-3.34242E-13
 -1       877 2.02701E+01 2.30157E-01-2.86626E-05-4.98800E-02 1.00079E-13-1.40010E-13
 -1       878 2.00975E+01-4.49023E-02-3.29050E-06-1.63457E-01 9.00608E-14-1.25684E-13
 -1       879 2.00732E+01-3.21997E-02-2.70407E-06-1.59090E-01 8.44940E-14-8.83944E-15
 -1       880 2.00508E+01-8.57340E-03-3.61915E-08-1.57461E-01 2.92569E-14-2.44279E-14
 -1       881 2.00285E+01 2.48705E-02-6.88665E-07-1.61260E-01 2.81992E-14-5.68022E-14
 -1       882 2.00037E+01 6.83744E-02-8.44887E-07-1.72567E-01 7.86458E-14-9.48795E-14
 -1       883 1.99727E+01 1.23422E-01 3.74914E-08-1.92964E-01-3.62761E-14-9.85126E-14
 -1       884 1.99304E+01 1.92715E-01-8.56607E-06-2.23593E-01-5.03074E-14-6.99362E-14
 -1       885 1.98652E+01 2.85379E-01 7.55238E-06-2.67146E-01-4.40047E-14-1.92428E-13
 -1       886 1.97713E+01 3.98355E-01-8.10834E-07-3.18795E-01-4.34990E-14-2.88082E-13
 -1       887 1.96300E+01 5.41797E-01-4.93172E-06-3.77824E-01 9.41695E-14-2.72795E-13
 -1       888 1.94171E+01 7.22600E-01-1.77532E-05-4.38733E-01-1.63380E-14-1.87822E-13
 -1       889 1.90985E+01 9.46013E-01-6.79549E-05-4.91745E-01 1.01881E-13-4.33138E-14
 -1       890 1.86258E+01 1.21215E+00-1.88135E-04-5.21510E-01 1.49595E-13-9.28453E-14
 -1       891 1.79318E+01 1.50978E+00-5.61522E-04-5.08246E-01 5.71916E-14-1.40909E-13
 -1       892 1.68616E+01 1.81700E+00 4.91932E-04-4.17200E-01 8.44469E-14-8.46321E-14
 -1       893 1.53275E+01 2.06634E+00 1.08953E-02-2.67968E-01 4.68670E-14-1.55366E-13
 -1       894 1.73705E+01 1.60136E+00 1.45458E-04 1.93072E-01 1.55492E-13 9.23264E-13
 -1       895 1.82560E+01 1.35167E+00 7.67887E-04 3.51122E-01 5.96629E-14 9.50950E-13
 -1       896 1.96488E+01 2.16731E-01 8.41325E-06-8.87703E-01 2.89384E-13-2.28335E-13
 -1       897 1.92001E+01 1.00943E+00 4.15975E-04 5.66813E-01-4.03514E-14 9.21854E-13
 -1       898 2.01258E+01-4.37102E-02 1.82958E-06-1.67091E-01 7.69092E-14-1.15789E-13
 -1       899 2.53189E+01-1.57046E+00-3.29014E-02-9.52288E-01-8.45587E-14 3.17014E-14
 -1       900 2.37646E+01 4.32729E+00-6.12715E-02 5.73965E-01-2.72523E-13-3.96674E-13
 -1       901 2.02430E+01-1.75568E-01-6.44041E-04-7.08663E-01-1.09565E-13-1.56621E-13
 -1       902 2.46162E+01-2.94921E+00 4.60352E-03-8.35641E-01-1.89245E-14-1.04039E-13
 -1       903 2.02320E+01 1.01577E-01 8.46067E-07-1.15602E-01 7.28765E-14-1.28939E-13
 -1       904 2.01928E+01 2.00798E-02 4.46058E-06-1.50969E-01 1.04492E-14-1.21196E-13
 -1       905 2.01397E+01 1.89301E+00-3.39061E-04-1.92662E-01 3.24509E-15-3.25788E-13
 -1       906 2.49772E+01 1.70608E+00-3.22434E-02-2.08379E+00-4.94388E-14 1.70136E-13
 -1       907 2.03048E+01 1.10617E+00 9.19727E-04-3.49080E-01-1.14544E-13-2.27087E-13
 -1       908 2.38652E+01-3.14970E+00-8.10182E-04 1.73223E+00-2.21845E-14-1.03593E-14
 -1       909 1.41059E+01 1.03161E+00 4.17755E-02 2.93429E+00 1.64472E-13 3.12675E-14
 -1       910 2.00008E+01-2.43481E-02 7.01460E-04-8.48936E-01 2.20530E-13-3.27443E-13
 -1       911 2.02987E+01 9.02628E-01-1.40569E-04 3.75932E-01 1.90881E-13-2.16398E-13
 -1       912 1.64788E+01-8.92256E-01 2.21282E-02 4.56865E+00 1.73213E-13-1.87579E-13
 -1       913 2.03008E+01 4.28094E-01-4.65258E-05 5.88146E-02 1.26322E-13-2.14632E-13
 -1       914 2.02861E+01 1.34388E+00 1.75300E-04-1.92319E-01-5.62788E-14-2.69887E-13
 -1       915 2.41224E+01-2.28023E+00-6.27904E-04 2.74342E-02-7.88673E-14-2.58214E-14
 -1       916 2.03629E+01-2.27367E-01 8.55049E-05-5.46284E-01-1.50440E-13-5.58672E-13
 -1       917 2.21863E+01-2.83690E+00 9.59949E-03 2.78719E+00-6.16211E-14-1.87643E-14
 -1       918 1.33281E+01 1.34912E+00 2.94467E-02-2.17340E+00-1.73621E-13 5.16955E-13
 -1       919 1.92420E+01 5.28406E-01 1.03035E-04-7.71017E-01 5.27915E-13-3.77673E-13
 -1       920 1.42214E+01 1.95377E+00 1.13067E-02-2.85189E-01-1.81533E-13 8.16275E-13
 -1       921 1.87859E+01 1.17505E+00-7.29797E-05 5.01563E-01-2.67139E-13 9.13564E-13
 -1       922 2.46336E+01-1.97552E+00-6.46703E-03 4.90831E-01-5.55656E-14-2.37102E-13
 -1       923 1.60767E+01 1.82782E+00 4.17663E-03-9.88781E-02-2.27447E-13 7.37665E-13
 -1       924 2.02874E+01 1.33924E+00-3.72358E-04 1.97103E-01 1.30750E-13-3.12504E-13
 -1       925 2.02781E+01 1.40754E+00 1.58790E-05 6.96214E-02 7.31890E-14-3.23651E-13
 -1       926 2.03004E+01 1.23923E+00 4.58148E-04-2.79976E-01-9.93677E-14-2.52550E-13
 -1       927 1.87043E+01 1.07521E+00 5.23010E-05-4.65485E-02 1.33404E-13-1.08503E-13
 -1       928 2.01734E+01-4.83855E-02 7.32598E-06-1.35960E-01 6.37951E-14-3.47948E-14
 -1       929 1.60264E+01 1.63419E-01 2.35186E-02-3.40783E+00-5.13623E-14-9.46188E-14
 -1       930 2.03816E+01 3.98817E-01-2.43881E-05-7.70075E-03-7.00540E-14-1.36594E-13
 -1       931 2.03598E+01 2.06474E-01-1.03606E-05 5.36519E-02-9.02082E-14-1.83340E-13
 -1       932 2.03231E+01 8.04307E-02 2.42786E-07 9.04226E-02-3.95692E-14-1.62667E-13
 -1       933 2.02793E+01 3.73928E-03-3.61076E-06 1.09461E-01-3.43962E-14-1.46656E-13
 -1       934 2.02332E+01-3.66796E-02-2.09135E-06 1.16967E-01-1.93700E-14-1.20571E-13
 -1       935 2.01879E+01-5.08708E-02-1.00803E-06 1.18098E-01-1.76580E-14-1.29402E-13
 -1       936 2.01445E+01-4.62987E-02-8.78012E-07 1.16889E-01-3.92933E-14-1.22705E-13
 -1       937 2.01034E+01-2.84653E-02-1.33382E-06 1.16518E-01-5.76852E-14-5.76872E-14
 -1       938 2.00643E+01-1.52026E-03-2.20371E-06 1.19554E-01 9.80309E-15 2.39670E-14
 -1       939 2.00267E+01 3.11622E-02-3.21636E-06 1.28211E-01 3.77413E-15-1.73035E-14
 -1       940 1.99901E+01 6.63871E-02-4.35342E-06 1.44565E-01-7.33157E-14 1.06741E-13
 -1       941 1.99548E+01 1.00510E-01-5.59293E-06 1.70730E-01-1.28013E-13 1.07589E-13
 -1       942 1.99222E+01 1.28759E-01-6.72503E-06 2.08955E-01-1.55144E-13 1.31344E-13
 -1       943 1.98958E+01 1.44500E-01-7.54303E-06 2.61609E-01-1.03425E-13 1.13042E-13
 -1       944 1.98819E+01 1.38513E-01-8.16933E-06 3.30928E-01-4.37608E-14 1.44969E-13
 -1       945 1.98914E+01 9.84020E-02-1.01839E-05 4.18356E-01 9.67595E-14 2.05219E-13
 -1       946 1.99406E+01 8.50766E-03-1.78915E-05 5.23193E-01 1.56313E-13 1.64343E-13
 -1       947 2.00534E+01-1.49158E-01-2.05643E-05 6.40311E-01 1.65211E-13 1.03795E-13
 -1       948 2.02618E+01-3.92452E-01 5.80699E-05 7.55941E-01 9.42476E-14 2.11178E-13
 -1       949 2.06048E+01-7.31291E-01 1.82519E-04 8.40151E-01 1.66756E-13 3.27462E-13
 -1       950 2.11192E+01-1.14876E+00 6.13850E-04 8.40210E-01 6.20017E-15 4.09947E-13
 -1       951 2.18240E+01-1.58398E+00-3.07381E-03 6.79942E-01 4.80776E-14 3.09491E-13
 -1       952 2.27104E+01-1.90371E+00 2.86834E-03 2.90913E-01-6.96626E-14 1.95605E-13
 -1       953 2.22852E+01-1.80920E+00-1.85360E-03-5.70535E-01 1.17500E-13-2.19231E-13
 -1       954 2.15034E+01-1.40055E+00-1.76058E-03-8.46133E-01 1.24293E-13-3.42440E-13
 -1       955 2.09108E+01-9.43636E-01 3.41672E-04-9.18364E-01 1.27846E-13-4.33221E-13
 -1       956 2.05043E+01-5.42989E-01 6.89473E-04-8.78914E-01-1.20950E-13-4.37838E-13
 -1       957 2.01341E+01-4.32003E-02 9.72616E-06-1.33785E-01 6.82052E-14-6.96418E-14
 -1       958 2.00188E+01 5.32732E-02 5.38144E-06-1.36664E-01 2.89239E-14-3.77533E-14
 -1       959 1.99732E+01 1.08452E-01 2.42271E-06-1.46121E-01 2.50333E-14 1.87921E-14
 -1       960 1.99169E+01 1.76565E-01-1.31175E-05-1.60447E-01 9.00595E-15-6.37386E-14
 -1       961 1.98385E+01 2.64868E-01 3.59334E-06-1.79255E-01 3.16802E-15-1.81195E-13
 -1       962 1.97355E+01 3.68522E-01-2.24831E-06-1.97736E-01 3.96825E-14-1.92341E-13
 -1       963 1.95916E+01 4.94967E-01-5.55262E-06-2.11053E-01 2.84749E-14-2.56692E-13
 -1       964 1.93886E+01 6.47726E-01-1.03975E-05-2.09606E-01-6.52101E-14-1.30419E-13
 -1       965 1.91017E+01 8.28294E-01-3.40741E-05-1.78188E-01-8.71403E-14-1.18167E-13
 -1       966 1.86980E+01 1.03355E+00-1.08510E-04-9.36800E-02 3.50208E-14-1.07981E-13
 -1       967 1.81327E+01 1.25186E+00-3.45165E-04 7.57415E-02 1.42530E-13 4.57158E-14
 -1       968 1.72934E+01 1.46971E+00 1.18224E-03 3.95118E-01 6.27558E-14-5.49932E-15
 -1       969 1.61583E+01 1.59765E+00-3.93941E-03 9.09769E-01 3.32802E-14 1.19533E-13
 -1       970 1.79143E+01 1.22465E+00-1.35690E-03-4.46482E-01 1.90981E-13 1.85287E-13
 -1       971 2.02773E+01 1.40928E+00-6.86873E-06-6.52572E-02 7.92711E-15-3.00198E-13
 -1       972 1.88931E+01 8.31651E-01-1.12768E-03-4.85597E-01 4.55313E-13-2.87492E-13
 -1       973 2.04485E+01-1.99440E+00 1.26738E-04-3.24350E+00 1.29220E-14-5.49261E-13
 -1       974 2.03042E+01 6.33177E-01-1.27637E-04 1.90211E-01 1.72888E-13-2.41359E-13
 -1       975 2.03371E+01 2.12689E-01-5.08301E-05-5.69167E-02 9.17976E-14-2.03840E-13
 -1       976 2.28780E+01-2.63417E+00 4.27097E-03-1.64210E+00 1.08345E-13-3.77155E-13
 -1       977 2.02580E+01 6.95377E-03 7.83802E-06-1.25706E-01-1.42267E-15-1.60094E-13
 -1       978 2.03211E+01 1.05614E+00 7.67094E-05 2.95945E-01 1.60729E-13-3.24970E-13
 -1       979 2.03003E+01 8.46735E-02-1.71579E-05-1.02332E-01 3.07333E-14-1.63859E-13
 -1       980 2.00586E+01 9.59573E-03 4.90239E-06-1.32112E-01 9.37269E-15-3.94996E-14
 -1       981 2.00960E+01-2.28411E-02 9.05089E-06-1.31674E-01 5.24937E-14-1.07613E-13
 -1       982 2.03773E+01 6.76607E-01 2.21865E-04-1.00419E-01-9.29351E-14-1.96507E-13
 -1       983 2.02153E+01-3.37905E-02 1.22001E-05-1.34799E-01 4.98088E-14-8.96688E-14
 -1       984 2.03608E+01 4.07745E-01 5.23278E-05 1.80795E-02 5.18703E-14-2.15878E-13
 -1       985 1.86532E+01-8.13361E-01 6.32219E-03-3.18996E+00-2.09973E-14-5.60427E-13
 -1       986 2.29441E+01-2.42924E+00 1.13998E-02 1.17723E+00-3.45911E-14-4.68982E-14
 -1       987 2.32624E+01-2.09431E+00-8.92413E-04-1.89346E-01 9.84717E-14-3.33747E-13
 -1       988 1.66896E+01 6.11292E-01 5.16402E-03 2.55893E+00 2.08492E-13-1.04080E-14
 -1       989 1.55794E+01 1.30742E+00 8.92439E-03-1.73620E+00-2.09704E-13 2.56058E-13
 -1       990 1.93700E+01 1.89345E-01-1.15680E-04-1.16980E+00 3.77985E-13-4.13849E-13
 -1       991 2.03701E+01 9.73471E-01 1.47267E-04-7.72581E-02-2.37628E-14-2.18603E-13
 -1       992 1.98316E+01-1.69997E+00-2.53797E-03 3.41716E+00 1.10412E-13-2.37927E-13
 -1       993 2.03637E+01 9.10641E-01-7.17439E-04-1.30234E-01-7.58778E-14-2.15049E-13
 -1       994 2.03685E+01 8.50295E-01-2.48313E-04 1.36209E-01 7.94089E-14-2.81148E-13
 -1       995 1.69973E+01 1.32369E+00 1.09025E-03-9.41825E-01 1.14458E-14 6.42182E-14
 -1       996 2.03763E+01 9.35515E-01 1.52397E-04 7.70425E-02 3.63565E-14-2.81600E-13
 -1       997 1.99184E+01-1.62699E-01-1.31219E-04-1.11868E+00 3.50171E-14-3.53631E-13
 -1       998 2.15031E+01-2.04061E+00-1.88181E-03 2.13348E+00-1.78996E-14-1.35498E-14
 -1       999 2.03896E+01 1.63019E-01-2.70688E-05 4.39790E-02-7.01376E-14-1.93475E-13
 -1      1000 2.03496E+01 5.07458E-02-3.03004E-05 6.30439E-02-3.29992E-14-1.72823E-13
 -1      1001 2.03013E+01-1.46455E-02-2.17874E-05 7.23005E-02-6.44831E-15-1.66499E-13
 -1      1002 2.02500E+01-4.54526E-02-1.19898E-05 7.57536E-02-2.64631E-14-1.27794E-13
 -1      1003 2.01984E+01-5.10935E-02-7.18142E-06 7.64160E-02 2.38810E-15-9.79991E-14
 -1      1004 2.01480E+01-3.85380E-02-5.76827E-06 7.68168E-02 2.13354E-14-4.95852E-14
 -1      1005 2.00987E+01-1.29154E-02-7.24717E-06 7.91376E-02 1.41496E-15-3.81693E-14
 -1      1006 2.00499E+01 2.19223E-02-9.87241E-06 8.54080E-02 1.00305E-14 1.41211E-14
 -1      1007 2.00008E+01 6.28060E-02-1.29588E-05 9.77646E-02-6.62193E-14-5.76457E-14
 -1      1008 1.99505E+01 1.06621E-01-1.62366E-05 1.18696E-01-6.23083E-14-1.42530E-13
 -1      1009 1.98987E+01 1.49626E-01-1.84320E-05 1.51299E-01-8.33897E-14-1.00720E-13
 -1      1010 1.98464E+01 1.86663E-01-1.79854E-05 1.99509E-01-9.51368E-14-2.55284E-14
 -1      1011 1.97969E+01 2.10256E-01-1.27725E-05 2.68239E-01-1.53169E-14 3.39515E-14
 -1      1012 1.97570E+01 2.09588E-01-1.28002E-06 3.63283E-01 9.62150E-14 5.28853E-14
 -1      1013 1.97389E+01 1.69445E-01 1.40778E-05 4.90691E-01 7.29800E-14 8.13882E-14
 -1      1014 1.97628E+01 6.95643E-02 3.69584E-05 6.54933E-01 1.84225E-13 1.24236E-13
 -1      1015 1.98586E+01-1.14491E-01-9.12066E-06 8.56346E-01 1.17045E-13 4.10677E-14
 -1      1016 2.00725E+01-4.13421E-01-2.33427E-05 1.08647E+00 4.68315E-14-9.42457E-14
 -1      1017 2.04665E+01-8.47185E-01 4.21081E-04 1.30777E+00 1.83333E-13-1.99843E-13
 -1      1018 2.11295E+01-1.41813E+00 1.56638E-03 1.45022E+00 7.88714E-14-3.14158E-14
 -1      1019 2.03546E+01 6.16451E-01 2.00520E-04 1.10677E-01 1.01033E-13-2.39875E-13
 -1      1020 1.73664E+01 9.29690E-01 5.86779E-04 1.54041E+00-1.59250E-13 2.41020E-14
 -1      1021 1.87934E+01 6.09088E-01 1.20708E-03-1.00407E+00 3.33160E-13-3.42596E-13
 -1      1022 2.08377E+01-1.13576E+00 8.69157E-04-1.44345E+00-2.29496E-14-3.64138E-13
 -1      1023 2.03456E+01-6.22461E-01-1.63817E-03-1.24838E+00 8.67690E-14-4.28200E-13
 -1      1024 1.98520E+01 2.25811E-01-1.59639E-05-9.92200E-02 3.03851E-14 9.51939E-15
 -1      1025 1.99289E+01 1.49658E-01-1.56151E-05-9.82269E-02 5.91060E-14 9.11892E-14
 -1      1026 1.99917E+01 8.58437E-02-8.39772E-06-9.57869E-02 3.88856E-14 1.93411E-14
 -1      1027 1.97540E+01 3.15529E-01-3.31089E-05-9.48333E-02 6.08182E-14-4.18117E-15
 -1      1028 1.96256E+01 4.19934E-01-4.16304E-05-7.83618E-02 3.90484E-14 5.73528E-14
 -1      1029 1.94554E+01 5.39074E-01-4.35188E-05-3.91612E-02-4.22167E-14 2.91362E-14
 -1      1030 1.92290E+01 6.70477E-01-3.75063E-05 3.88137E-02-1.62956E-13-2.95309E-14
 -1      1031 1.89294E+01 8.06605E-01-4.25531E-05 1.78903E-01-1.78231E-14-2.90569E-14
 -1      1032 1.85389E+01 9.30656E-01-3.74918E-05 4.14584E-01 2.54841E-14 7.48310E-14
 -1      1033 1.79948E+01 1.02258E+00 1.22097E-04 8.18741E-01 7.93062E-14 4.93156E-14
 -1      1034 2.01451E+01-3.64038E-02 5.03070E-06-9.52233E-02 7.19437E-14 2.67122E-14
 -1      1035 2.02922E+01-9.94594E-03-6.44463E-07-9.19494E-02-3.51632E-14-1.50665E-13
 -1      1036 2.14632E+01-1.79997E+00 8.72484E-04-1.78882E+00 1.23409E-13-3.34687E-13
 -1      1037 2.03740E+01 9.83773E-01 6.45133E-07 2.28973E-03 4.12120E-15-3.07597E-13
 -1      1038 2.01933E+01-4.93545E-02 6.64878E-06-9.67205E-02 8.45464E-14 2.56137E-14
 -1      1039 2.04135E+01 3.38379E-01 3.92136E-05 1.16071E-02-1.14561E-13-2.33460E-13
 -1      1040 2.00459E+01 3.35120E-02-2.38693E-07-9.41004E-02 4.88565E-15 4.13804E-14
 -1      1041 2.00971E+01-8.44128E-03 1.84365E-06-9.39855E-02-7.05987E-15 2.80042E-14
 -1      1042 2.02428E+01-4.28355E-02 3.62078E-06-9.65815E-02 5.56686E-15-8.39469E-14
 -1      1043 1.74647E+01 3.83130E-01 3.06840E-03-2.34834E+00-9.57756E-14-2.71406E-13
 -1      1044 1.88170E+01-4.37711E-01 3.46511E-03 2.55388E+00 1.16566E-13-2.60526E-13
 -1      1045 2.04015E+01 3.57224E-01 1.10260E-05-8.79712E-03 4.32940E-14-2.56520E-13
 -1      1046 2.03389E+01 5.96397E-02 6.30193E-05-7.89948E-02-1.03841E-14-1.62145E-13
 -1      1047 1.89665E+01 1.68558E-01-1.67729E-03-1.55306E+00 1.66177E-13-5.42170E-13
 -1      1048 2.02081E+01-1.15181E+00 3.01783E-04-2.27384E+00 5.51449E-14-6.69639E-13
 -1      1049 2.04190E+01 6.65268E-01 2.40664E-04-1.80440E-02-6.21416E-14-2.52718E-13
 -1      1050 1.80519E+01 7.79020E-01-1.88414E-03-1.28744E+00 4.02640E-14-2.46492E-13
 -1      1051 2.04085E+01 5.98509E-01-2.00960E-05 4.32526E-02 5.15353E-14-2.60708E-13
 -1      1052 2.04112E+01 5.92284E-01 1.30228E-05-3.82564E-02-2.07361E-14-2.03875E-13
 -1      1053 2.03776E+01 1.77212E-01 1.43382E-04-5.34364E-02 3.10370E-14-1.93620E-13
 -1      1054 1.97393E+01-3.05448E-01 8.00723E-05-1.51600E+00 1.19725E-13-7.67422E-13
 -1      1055 1.86115E+01 2.37107E-01-2.93216E-04 1.68449E+00 6.45853E-14-7.09266E-14
 -1      1056 1.98855E+01 1.81087E-01-4.79376E-05-3.01427E-02 6.83182E-14-1.29444E-14
 -1      1057 2.03985E+01 1.12149E-01 2.19173E-04 2.03500E-02-9.94810E-15-1.99055E-13
 -1      1058 2.03518E+01 1.94271E-02 7.28574E-05 2.61370E-02-1.02641E-14-1.30513E-13
 -1      1059 2.02995E+01-3.10970E-02 7.71491E-05 2.86951E-02-7.80654E-16-1.00583E-13
 -1      1060 2.02445E+01-5.00973E-02 6.65795E-05 2.97443E-02-7.35623E-14-1.40437E-13
 -1      1061 2.01890E+01-4.59320E-02 5.85453E-05 3.05736E-02 5.70862E-15-1.62131E-13
 -1      1062 2.01339E+01-2.47997E-02 4.86300E-05 3.24166E-02 4.05619E-14-1.52336E-13
 -1      1063 2.00787E+01 8.92458E-03 4.62261E-05 3.65977E-02 2.57297E-14-1.48419E-13
 -1      1064 2.00222E+01 5.20017E-02 5.05185E-05 4.47660E-02-2.46038E-14-7.72396E-14
 -1      1065 1.99627E+01 1.01792E-01 5.91981E-05 5.91236E-02-8.29673E-14 4.88899E-15
 -1      1066 1.98985E+01 1.55662E-01 7.62623E-05 8.27647E-02-5.72523E-14 3.42363E-14
 -1      1067 1.98282E+01 2.10234E-01 1.05000E-04 1.20057E-01-1.27767E-14 8.41627E-14
 -1      1068 1.97515E+01 2.60510E-01 1.48875E-04 1.77069E-01 9.76994E-14 2.05675E-13
 -1      1069 1.96703E+01 2.98764E-01 2.10594E-04 2.61970E-01-6.50622E-15 2.16485E-13
 -1      1070 1.95899E+01 3.13137E-01 2.85877E-04 3.85271E-01 6.23629E-14 5.42964E-14
 -1      1071 1.95220E+01 2.85775E-01 3.09837E-04 5.59665E-01 8.82972E-14 2.17025E-14
 -1      1072 1.94897E+01 1.90087E-01 1.20634E-04 7.98598E-01-3.75147E-14-1.89400E-13
 -1      1073 1.95279E+01-3.21661E-03-3.58300E-04 1.10441E+00 1.93617E-14-1.91360E-13
 -1      1074 1.96919E+01-3.34631E-01 9.21994E-04 1.47750E+00 9.20649E-14-7.91393E-14
 -1      1075 2.02414E+01-1.03707E+00-7.13373E-03 1.91708E+00 1.55469E-13-8.82046E-14
 -1      1076 2.04224E+01 6.50386E-01 1.12248E-04 1.55207E-02 1.77545E-14-2.49977E-13
 -1      1077 1.96910E+01 3.39561E-01-1.08551E-04 2.13821E-02 2.27513E-14 6.82083E-14
 -1      1078 1.97981E+01 2.56505E-01-7.07733E-05-1.19429E-02 7.57662E-14 9.89363E-14
 -1      1079 1.99588E+01 1.14522E-01-3.64841E-05-3.97469E-02 5.64311E-15-3.82161E-14
 -1      1080 1.95583E+01 4.27517E-01-1.63335E-04 7.96149E-02 6.44376E-15-1.62063E-14
 -1      1081 1.93942E+01 5.14692E-01-2.35834E-04 1.76985E-01-7.70975E-14 4.18342E-14
 -1      1082 1.91940E+01 5.90363E-01-3.01265E-04 3.33391E-01-5.72315E-14-4.00083E-14
 -1      1083 1.89562E+01 6.36337E-01-2.05002E-04 5.75274E-01-5.89247E-14-7.12764E-14
 -1      1084 1.86694E+01 6.17224E-01-3.81824E-04 9.57699E-01 8.59870E-14 1.14562E-14
 -1      1085 2.00813E+01 9.97097E-03-2.46962E-05-4.78948E-02-6.70104E-15-5.70440E-15
 -1      1086 2.01916E+01-4.62091E-02-2.04792E-05-5.15737E-02 2.54776E-14-6.97346E-14
 -1      1087 2.01373E+01-2.54836E-02-2.15772E-05-5.00391E-02 4.60455E-14-2.88260E-14
 -1      1088 2.04270E+01 2.62635E-01-7.73673E-05 9.49963E-03-6.81313E-14-1.90781E-13
 -1      1089 2.04342E+01 4.35391E-01-1.50840E-04-2.74821E-03-9.50857E-14-2.37037E-13
 -1      1090 2.00224E+01 5.74524E-02-2.70518E-05-4.48468E-02 2.36393E-14-1.68507E-14
 -1      1091 2.04317E+01 4.06302E-01 1.11597E-04-1.96510E-03-1.67791E-15-2.32218E-13
 -1      1092 1.93983E+01-5.17317E-01 5.47935E-03-2.17959E+00-7.14979E-14-6.41105E-13
 -1      1093 2.03520E+01 2.87801E-02-7.81535E-05-4.50098E-02-2.45415E-14-1.63965E-13
 -1      1094 2.02465E+01-4.87264E-02-1.80815E-05-5.21041E-02-4.40361E-14-1.84937E-13
 -1      1095 2.04166E+01 2.06624E-01-3.92357E-05-2.24686E-02-1.35269E-14-1.49196E-13
 -1      1096 2.03008E+01-2.66601E-02-1.25961E-05-5.05460E-02-5.27626E-14-2.21683E-13
 -1      1097 2.03851E+01 1.02673E-01-3.94545E-04-3.50914E-02-9.58683E-15-1.41623E-13
 -1      1098 2.79611E+01 9.08594E+00 2.32519E+00-6.69816E+00-4.87388E-14 1.51323E-12
 -1      1099 2.05461E+01 6.22675E+00 2.09688E-01-3.90435E+00-2.58960E-14 1.81924E-13
 -1      1100 1.94340E+01 5.85281E+00 7.53702E-02-2.88853E+00-1.85268E-14-3.72275E-13
 -1      1101 1.90258E+01 5.72584E+00 6.03131E-02-2.23557E+00-1.12549E-14-6.34298E-13
 -1      1102 1.88399E+01 5.66924E+00 5.75354E-02-1.70207E+00-7.95718E-15-7.48523E-13
 -1      1103 1.87469E+01 5.64075E+00 5.55892E-02-1.23469E+00-4.59788E-15-8.02695E-13
 -1      1104 1.86983E+01 5.62565E+00 5.38359E-02-8.04709E-01-2.24083E-15-8.19953E-13
 -1      1105 1.86745E+01 5.61813E+00 5.25763E-02-3.93029E-01 2.34621E-16-8.17071E-13
 -1      1106 1.86677E+01 5.61597E+00 5.21743E-02 8.47310E-03 1.74351E-15-8.13521E-13
 -1      1107 1.86755E+01 5.61847E+00 5.26847E-02 4.10382E-01 4.55495E-15-8.04538E-13
 -1      1108 1.87005E+01 5.62637E+00 5.40712E-02 8.23390E-01 5.77966E-15-7.70217E-13
 -1      1109 1.87508E+01 5.64213E+00 5.62745E-02 1.25596E+00 9.33108E-15-7.04332E-13
 -1      1110 1.88455E+01 5.67120E+00 5.84761E-02 1.72787E+00 1.24015E-14-5.92037E-13
 -1      1111 1.90314E+01 5.72754E+00 6.04109E-02 2.26899E+00 1.47209E-14-3.99551E-13
 -1      1112 1.94303E+01 5.84987E+00 6.92006E-02 2.92910E+00 2.03032E-14-5.44200E-14
 -1      1113 2.04522E+01 6.18164E+00 1.53231E-01 3.87895E+00 2.24820E-14 6.10612E-13
 -1      1114 2.52155E+01 7.99377E+00 1.43031E+00 5.84644E+00 4.39093E-14 1.94644E-12
 -1      1115 2.88105E+01 3.61619E+00 1.27127E+00-4.21700E+00-1.97509E-13 2.35700E-12
 -1      1116 2.02253E+01-1.77712E-01-6.16286E-01-1.09954E-01-5.87239E-14 1.89618E-12
 -1      1117 1.88306E+01-9.63725E-02-2.36379E-01 6.24936E-02-2.61388E-14 1.24799E-12
 -1      1118 1.84962E+01-4.80818E-02-5.96320E-02 4.04933E-02-2.00465E-14 7.71376E-13
 -1      1119 1.84408E+01-2.46215E-02-1.52161E-02 2.67705E-02-1.36744E-14 4.26732E-13
 -1      1120 1.85222E+01-1.30760E-02-4.99167E-03 1.90312E-02-7.34157E-15 2.96076E-13
 -1      1121 1.86689E+01-6.64824E-03-1.50288E-03 1.40787E-02-8.10203E-15 1.88285E-13
 -1      1122 1.88414E+01-2.90265E-03 5.09186E-04 1.06413E-02-4.04104E-15 1.53835E-13
 -1      1123 1.90174E+01-7.04786E-04 1.78857E-03 8.09755E-03-1.18397E-14 5.07008E-14
 -1      1124 1.91844E+01 5.40193E-04 2.47747E-03 6.14079E-03-3.55113E-15-1.65540E-13
 -1      1125 1.93361E+01 1.17076E-03 2.70663E-03 4.60987E-03 2.15614E-15-2.93931E-13
 -1      1126 1.94699E+01 1.39407E-03 2.60513E-03 3.41136E-03 9.61518E-15-2.91910E-13
 -1      1127 1.95863E+01 1.34413E-03 2.27654E-03 2.48574E-03-1.55993E-14-4.30479E-13
 -1      1128 1.96871E+01 1.11160E-03 1.79630E-03 1.79294E-03-9.52755E-15-4.34551E-13
 -1      1129 1.97756E+01 7.61109E-04 1.21888E-03 1.30607E-03-2.91461E-14-4.65021E-13
 -1      1130 1.98557E+01 3.43204E-04 5.87379E-04 1.00833E-03-1.40577E-14-6.68848E-13
 -1      1131 1.99318E+01-9.56216E-05-5.61413E-05 8.90761E-04 5.58592E-15-7.62884E-13
 -1      1132 2.00083E+01-5.03387E-04-6.59058E-04 9.49272E-04-1.98190E-14-8.36675E-13
 -1      1133 2.00893E+01-8.12976E-04-1.14509E-03 1.17950E-03-7.38335E-16-8.80635E-13
 -1      1134 2.01782E+01-9.32935E-04-1.40018E-03 1.56811E-03 6.43547E-15-9.82760E-13
 -1      1135 2.02766E+01-7.40578E-04-1.25968E-03 2.07895E-03 9.25386E-15-9.13790E-13
 -1      1136 2.03834E+01-8.13536E-05-5.02346E-04 2.63294E-03-1.40532E-14-6.67073E-13
 -1      1137 2.04930E+01 1.21870E-03 1.13845E-03 3.08199E-03 1.89377E-14-6.20458E-13
 -1      1138 2.05938E+01 3.31735E-03 3.92933E-03 3.18123E-03-4.87550E-14-6.75500E-13
 -1      1139 2.06661E+01 6.28557E-03 8.03566E-03 2.57113E-03 8.99367E-15-8.17590E-13
 -1      1140 2.06815E+01 9.99423E-03 1.33466E-02 7.92782E-04 1.72835E-14-7.67420E-13
 -1      1141 2.06032E+01 1.39681E-02 1.92364E-02-2.62787E-03 4.70581E-14-5.02152E-13
 -1      1142 2.03905E+01 1.72559E-02 2.43397E-02-7.99009E-03-1.10760E-14-6.38431E-13
 -1      1143 2.00085E+01 1.84276E-02 2.65151E-02-1.51160E-02-1.53614E-14-8.65098E-13
 -1      1144 1.94426E+01 1.58454E-02 2.32468E-02-2.30165E-02 1.94094E-15-7.99014E-13
 -1      1145 1.87157E+01 8.32432E-03 1.26675E-02-2.97307E-02 8.44409E-15-7.48027E-13
 -1      1146 1.79014E+01-3.92711E-03-4.99450E-03-3.26268E-02 2.61832E-14-5.90982E-13
 -1      1147 1.71223E+01-1.85770E-02-2.63025E-02-2.93513E-02-3.61263E-14-1.01594E-12
 -1      1148 1.65264E+01-3.13745E-02-4.49750E-02-1.91740E-02 3.58932E-14-1.03452E-12
 -1      1149 1.62437E+01-3.77751E-02-5.43269E-02-3.92003E-03 4.27913E-14-6.70867E-13
 -1      1150 1.63393E+01-3.52720E-02-5.06828E-02 1.23974E-02-2.41951E-15-3.93270E-13
 -1      1151 1.67877E+01-2.48314E-02-3.54534E-02 2.52802E-02-3.78200E-14-7.44401E-13
 -1      1152 1.74830E+01-1.03212E-02-1.43173E-02 3.17467E-02 2.93174E-14-5.86024E-13
 -1      1153 1.82782E+01 3.59555E-03 5.85005E-03 3.13772E-02 8.07345E-14-5.99867E-14
 -1      1154 1.90333E+01 1.35587E-02 2.00902E-02 2.59226E-02-8.43412E-15 1.89619E-13
 -1      1155 1.96495E+01 1.83847E-02 2.67070E-02 1.80394E-02-3.08419E-14 1.21795E-13
 -1      1156 2.00805E+01 1.87004E-02 2.67309E-02 1.00880E-02-4.45924E-14-6.14109E-13
 -1      1157 2.03260E+01 1.60030E-02 2.24868E-02 3.53106E-03 3.79514E-15-8.75885E-13
 -1      1158 2.04150E+01 1.18284E-02 1.62938E-02-1.07853E-03 2.20608E-14-6.05816E-13
 -1      1159 2.03903E+01 7.30675E-03 9.76653E-03-3.79019E-03-4.63074E-15-4.17806E-13
 -1      1160 2.02967E+01 3.06957E-03 3.68794E-03-4.88609E-03 3.97004E-14 9.40905E-14
 -1      1161 2.01761E+01-5.98531E-04-1.70603E-03-4.58384E-03 5.42671E-15-5.41130E-14
 -1      1162 2.00657E+01-3.44916E-03-5.93584E-03-2.75280E-03 4.50202E-14 5.38361E-13
 -1      1163 1.99995E+01-5.47209E-03-6.23537E-03 1.22758E-03-4.63103E-14 2.53441E-13
 -1      1164 1.99925E+01 2.65806E-03 5.19507E-03 2.52841E-03 5.68158E-14 1.39020E-13
 -1      1165 2.77903E+01 5.25723E-01 3.77084E-01 1.96661E+00-3.56520E-14 3.03418E-12
 -1      1166 2.00828E+01-6.62369E-02-5.73605E-01 1.29484E-01 1.46272E-14 2.47455E-12
 -1      1167 1.89052E+01-4.06068E-02-1.93228E-01 1.94257E-02 2.10361E-14 1.91526E-12
 -1      1168 1.85251E+01-2.14248E-02-5.05619E-02 1.47298E-03 1.74964E-14 1.50045E-12
 -1      1169 1.84533E+01-1.24180E-02-1.34160E-02-4.05968E-03 5.52119E-15 1.22778E-12
 -1      1170 1.85283E+01-7.41233E-03-4.67680E-03-5.50308E-03-8.74409E-16 1.09316E-12
 -1      1171 1.86715E+01-4.55285E-03-2.06609E-03-5.63128E-03 1.09924E-14 9.18158E-13
 -1      1172 1.88466E+01-2.16630E-03-3.36920E-04-5.25431E-03 1.16390E-14 7.40307E-13
 -1      1173 1.90254E+01-1.09386E-03 7.83917E-04-4.83046E-03 5.94242E-15 6.35349E-13
 -1      1174 1.91905E+01-3.42578E-04 1.41701E-03-4.19759E-03 1.28149E-14 4.48478E-13
 -1      1175 1.93400E+01 7.94259E-05 1.71232E-03-3.52014E-03 1.40977E-15 3.21911E-13
 -1      1176 1.94715E+01 2.61951E-04 1.73397E-03-2.83509E-03-5.25633E-15 2.36549E-13
 -1      1177 1.95851E+01 2.61694E-04 1.54675E-03-2.16389E-03 6.11958E-16 1.87536E-13
 -1      1178 1.96831E+01 8.88712E-05 1.18535E-03-1.50694E-03 1.03295E-14-1.16154E-13
 -1      1179 1.97707E+01-2.12742E-04 6.61099E-04-8.72983E-04 1.56705E-14-3.62927E-13
 -1      1180 1.98505E+01-6.68051E-04-1.66576E-05-2.00714E-04-1.13603E-14-2.86837E-13
 -1      1181 1.99265E+01-1.32425E-03-8.99249E-04 4.69909E-04-1.47409E-14-1.59481E-13
 -1      1182 2.00081E+01-2.24799E-03-2.08300E-03 1.20939E-03 1.18651E-14-1.18621E-13
 -1      1183 2.01044E+01-3.55630E-03-3.71813E-03 2.06827E-03 1.15752E-14-2.45589E-13
 -1      1184 2.02277E+01-5.43730E-03-6.05110E-03 3.11772E-03 1.38621E-14-4.17642E-13
 -1      1185 2.03946E+01-8.37738E-03-9.56133E-03 4.49569E-03 3.17974E-14-6.17151E-13
 -1      1186 2.06365E+01-1.19692E-02-1.45901E-02 6.42268E-03-4.25858E-14-4.18492E-13
 -1      1187 2.09842E+01-1.80051E-02-2.26083E-02 7.98478E-03-5.83279E-15-2.52321E-13
 -1      1188 2.14785E+01-2.59589E-02-3.41172E-02 9.94738E-03-1.54516E-14-5.29309E-13
 -1      1189 2.21968E+01-3.63819E-02-5.07398E-02 1.11249E-02 2.65261E-14-3.91825E-13
 -1      1190 2.32381E+01-4.82731E-02-7.27469E-02 9.44859E-03-2.43763E-14-7.09641E-14
 -1      1191 2.47290E+01-5.72798E-02-9.60392E-02 4.86821E-04-3.59643E-14-2.23023E-13
 -1      1192 2.68004E+01-5.40038E-02-1.04919E-01-2.36504E-02 1.24172E-14-1.52434E-13
 -1      1193 2.95849E+01-3.29511E-03-5.03131E-02-7.50603E-02-3.37525E-14-9.80882E-14
 -1      1194 3.27485E+01 1.09737E-01 1.35317E-01-1.52708E-01-2.47320E-14 2.39669E-13
 -1      1195 3.51634E+01 2.76131E-01 4.54887E-01-1.90815E-01-4.22024E-14 7.27765E-13
 -1      1196 3.47970E+01 3.09497E-01 6.49697E-01-4.44754E-02 8.75341E-15 5.45980E-13
 -1      1197 3.00044E+01 1.10297E-01 2.83632E-01 3.48909E-01-4.18936E-14 7.41129E-13
 -1      1198 2.20918E+01-3.41542E-01-7.23646E-01 6.46261E-01-1.22957E-14 7.69107E-13
 -1      1199 1.65020E+01-4.21484E-01-1.51925E+00 4.37058E-01 3.31332E-14 1.80772E-13
 -1      1200 1.91471E+01-9.21039E-02-1.11403E+00-2.28371E-01 5.05082E-14-9.80327E-14
 -1      1201 2.68378E+01 1.16626E-01-1.40908E-01-5.62029E-01 7.28619E-14-5.71543E-13
 -1      1202 3.32988E+01 1.38440E-01 4.45070E-01-4.63123E-01-6.00561E-15-3.53495E-13
 -1      1203 3.53207E+01 7.68919E-02 4.37540E-01-1.73175E-01 1.73559E-14-3.28543E-13
 -1      1204 3.36726E+01 2.38680E-02 1.99253E-01 2.17758E-02-2.96499E-14-1.15519E-13
 -1      1205 3.06704E+01-5.21587E-03 1.96629E-02 9.08154E-02 1.89273E-14-3.03049E-13
 -1      1206 2.77226E+01-1.53765E-02-5.39939E-02 9.25465E-02 6.90984E-15-6.35852E-13
 -1      1207 2.52823E+01-1.70555E-02-6.48948E-02 7.38106E-02 5.31688E-14-1.01456E-12
 -1      1208 2.34693E+01-1.56758E-02-5.38498E-02 5.09604E-02 3.13478E-14-1.06892E-12
 -1      1209 2.22030E+01-1.29436E-02-3.91992E-02 3.51985E-02 3.00190E-14-1.02770E-12
 -1      1210 2.13018E+01-1.10955E-02-2.85156E-02 2.47229E-02-7.02249E-14-2.67199E-13
 -1      1211 2.06679E+01-1.08458E-02-2.31998E-02 1.83937E-02 7.66477E-14 1.77382E-13
 -1      1212 2.02428E+01-1.21465E-02-2.24997E-02 1.40293E-02 4.45978E-14 1.78157E-13
 -1      1213 2.00116E+01-1.11146E-02-1.86798E-02 7.10755E-03 3.71345E-14 5.65344E-13
 -1      1214 1.99809E+01 6.69362E-03 1.44636E-02-6.27141E-03 4.77770E-14 5.90031E-13
 -1      1215 2.00063E+01-1.89903E-02 1.43466E-02-6.82740E-03 7.42547E-13-1.15617E-13
 -1      1216 1.99877E+01 1.45914E-02-1.79205E-02-2.59058E-03 4.32842E-13-2.05083E-13
 -1      1217 1.99917E+01 2.31720E-01-1.49113E-02 1.00213E-02 1.43265E-13-1.19911E-14
 -1      1218 2.00002E+01 5.58277E-01-1.51901E-03 1.38025E-02 6.79561E-14-1.40035E-14
 -1      1219 2.00080E+01 8.91012E-01 1.05813E-02 1.23105E-02 2.06859E-13 6.41997E-14
 -1      1220 2.00128E+01 1.14813E+00 1.77072E-02 7.83599E-03 1.00346E-12 7.50113E-14
 -1      1221 2.00139E+01 1.28683E+00 1.93599E-02 2.79477E-03 1.00915E-12-1.74307E-14
 -1      1222 2.00121E+01 1.29678E+00 1.68466E-02-1.95891E-03 3.87186E-13-1.73883E-13
 -1      1223 2.00086E+01 1.19302E+00 1.17651E-02-5.30659E-03-1.06070E-14 1.04009E-13
 -1      1224 2.00044E+01 1.00976E+00 5.90583E-03-6.97968E-03 5.68498E-13 1.30527E-13
 -1      1225 2.00005E+01 7.86421E-01 6.58748E-04-7.16738E-03-8.33214E-14-1.51967E-13
 -1      1226 1.99976E+01 5.60153E-01-3.21547E-03-6.30712E-03-1.00585E-12-4.08249E-14
 -1      1227 1.99958E+01 3.54925E-01-5.65466E-03-5.01717E-03-6.66996E-13 5.37356E-14
 -1      1228 1.99947E+01 1.85255E-01-7.25147E-03-3.46745E-03-3.15674E-13 2.70894E-14
 -1      1229 1.99946E+01 6.16264E-02-8.51256E-03-2.04906E-03-5.47334E-13-6.97314E-14
 -1      1230 1.99936E+01 1.15047E-03-5.85610E-03 3.81187E-03-4.51546E-13-1.13651E-15
 -1      1231 2.00023E+01-7.57791E-03 5.04870E-03 2.59916E-03-2.43363E-13 9.39857E-14
 -1      1232-1.36695E+00-2.70610E+01-4.00221E+00-2.73643E+00 3.69704E-13 7.45862E-14
 -1      1233-2.55953E+00-2.04838E+01-3.77144E+00-5.80251E+00 2.51132E-13-1.85407E-14
 -1      1234-1.90397E+00-8.54902E+00-2.91141E+00-3.57845E+00 2.50910E-14 1.24123E-13
 -1      1235 5.38355E+00 3.18666E+00-1.49946E+00 4.55381E+00 8.51319E-13 8.28448E-13
 -1      1236 2.20211E+01 9.68891E+00 4.85954E-01 1.42368E+01 9.03499E-13 1.25167E-12
 -1      1237 4.64468E+01 9.28351E+00 2.96154E+00 1.90690E+01 1.77192E-13 3.69038E-13
 -1      1238 7.02868E+01 4.62357E+00 5.19164E+00 1.42883E+01-8.20177E-14-5.18918E-13
 -1      1239 8.06308E+01 1.95492E+00 6.16758E+00 4.23510E-01 7.22478E-14-1.33071E-12
 -1      1240 7.09858E+01 4.56333E+00 5.29225E+00-1.36207E+01 3.83638E-13-1.78857E-12
 -1      1241 4.80763E+01 9.04202E+00 3.12322E+00-1.92318E+01 9.36917E-13-1.98508E-12
 -1      1242 2.39927E+01 1.01497E+01 7.15606E-01-1.50837E+01 1.52434E-12-2.12630E-12
 -1      1243 6.81696E+00 4.78999E+00-1.29351E+00-5.92628E+00 1.60982E-12-1.62292E-12
 -1      1244-1.35155E+00-6.35956E+00-2.82988E+00 2.39963E+00 1.65734E-12-9.74554E-13
 -1      1245-2.84393E+00-1.82967E+01-3.65620E+00 5.59061E+00 9.82658E-13-4.32765E-13
 -1      1246-1.86881E+00-2.63638E+01-4.08531E+00 4.10957E+00-6.48148E-13-1.00406E-14
 -1      1247-9.63729E-01-2.65806E+01-3.87472E+00-9.22937E-01-1.93234E-12-2.10158E-13
 -1      1248-1.52111E+00-1.84818E+01-3.19758E+00-3.85015E+00-1.97842E-12-4.48974E-13
 -1      1249-5.64051E-01-5.73782E+00-2.08387E+00-1.58827E+00-1.42375E-12-7.52731E-13
 -1      1250 5.75304E+00 6.05008E+00-6.55450E-01 5.93253E+00-1.64246E-12-1.31428E-12
 -1      1251 1.96295E+01 1.19260E+01 9.49241E-01 1.47043E+01-1.37224E-12-1.52123E-12
 -1      1252 3.95189E+01 1.08038E+01 2.47649E+00 1.91093E+01-8.49543E-13-1.53610E-12
 -1      1253 5.92048E+01 5.36085E+00 3.62452E+00 1.50460E+01-3.48027E-13-1.05926E-12
 -1      1254 6.92159E+01 1.67702E+00 4.14707E+00 3.03117E+00 3.42296E-14-8.44935E-13
 -1      1255 6.48225E+01 3.33592E+00 3.90551E+00-1.05823E+01-6.19227E-14-1.97953E-13
 -1      1256 4.83041E+01 8.61729E+00 2.98741E+00-1.87374E+01-4.47531E-13 1.20082E-12
 -1      1257 2.74880E+01 1.22014E+01 1.55831E+00-1.75772E+01-1.20248E-12 1.72218E-12
 -1      1258 1.04361E+01 9.23012E+00-3.53581E-02-9.60818E+00-2.07723E-12 1.80056E-12
 -1      1259 8.75222E-01-1.14252E+00-1.60636E+00-5.95205E-01-1.87828E-12 1.21470E-12
 -1      1260-1.57759E+00-1.48273E+01-2.90736E+00 3.80361E+00-1.35691E-12 5.40068E-13
 -1      1261-1.03803E+00-2.52116E+01-3.74660E+00 2.08369E+00-2.95763E-13 6.25194E-15
 -1      1262 2.22647E+01 1.83808E+00-7.25832E-01-2.79074E+00-7.03049E-14 1.21891E-12
 -1      1263 2.03580E+01 4.69000E+00-4.86401E-02-3.30738E+00-2.04739E-13-8.60284E-14
 -1      1264 2.08651E+01 4.81040E+00-1.13371E-01-4.16151E+00-2.58404E-13 2.07653E-13
 -1      1265 1.95312E+01 4.99328E+00-1.95930E-02-2.65517E+00-1.93727E-13-4.90021E-13
 -1      1266 1.98288E+01 5.09006E+00 2.64395E-04-3.04614E+00-2.28206E-13-3.15373E-13
 -1      1267 2.05247E+01 3.95272E+00-2.58859E-02-3.07538E+00-3.57464E-13-7.67580E-14
 -1      1268 1.91841E+01 5.08416E+00-3.64370E-03-2.07091E+00-1.53991E-13-6.86638E-13
 -1      1269 1.93331E+01 5.13933E+00 1.05956E-02-2.36406E+00-1.78621E-13-5.98674E-13
 -1      1270 1.97538E+01 4.36598E+00-2.42510E-02-2.49012E+00-3.03722E-13-4.04780E-13
 -1      1271 1.90094E+01 5.13100E+00 3.27154E-03-1.56534E+00-1.09883E-13-7.77149E-13
 -1      1272 1.90867E+01 5.16082E+00 1.25594E-02-1.81530E+00-1.29693E-13-7.38361E-13
 -1      1273 1.93927E+01 4.55565E+00-1.95765E-02-1.93172E+00-2.34967E-13-5.71220E-13
 -1      1274 1.89167E+01 5.16084E+00 6.60538E-03-1.11750E+00-6.75415E-14-8.15068E-13
 -1      1275 1.89587E+01 5.17706E+00 1.27213E-02-1.33904E+00-8.22536E-14-7.95851E-13
 -1      1276 1.92065E+01 4.66149E+00-1.60657E-02-1.44540E+00-1.61319E-13-6.46164E-13
 -1      1277 1.88656E+01 5.18074E+00 8.21495E-03-6.94095E-01-3.26286E-14-8.25378E-13
 -1      1278 1.88884E+01 5.18954E+00 1.20366E-02-9.04375E-01-4.13732E-14-8.23237E-13
 -1      1279 1.91042E+01 4.72693E+00-1.39531E-02-1.00460E+00-9.00679E-14-6.82721E-13
 -1      1280 1.88418E+01 5.19271E+00 9.30122E-03-2.89286E-01 1.23776E-14-8.21700E-13
 -1      1281 1.88516E+01 5.19652E+00 1.10815E-02-4.91462E-01-3.85239E-15-8.20583E-13
 -1      1282 1.90487E+01 4.76598E+00-1.29045E-02-5.88985E-01-3.42575E-14-6.83474E-13
 -1      1283 1.88382E+01 5.19767E+00 1.02308E-02 1.08239E-01 4.78510E-14-8.15834E-13
 -1      1284 1.88378E+01 5.19753E+00 1.01593E-02-9.14896E-02 3.43261E-14-8.21036E-13
 -1      1285 1.90247E+01 4.78403E+00-1.24675E-02-1.89173E-01 4.00840E-14-6.90541E-13
 -1      1286 1.88534E+01 5.19615E+00 1.11684E-02 5.08797E-01 7.66713E-14-8.01765E-13
 -1      1287 1.88428E+01 5.19207E+00 9.23484E-03 3.06202E-01 7.04490E-14-8.13925E-13
 -1      1288 1.90255E+01 4.78339E+00-1.24879E-02 2.05827E-01 9.77801E-14-6.75841E-13
 -1      1289 1.88916E+01 5.18839E+00 1.21020E-02 9.23190E-01 1.06054E-13-7.67601E-13
 -1      1290 1.88680E+01 5.17942E+00 8.14341E-03 7.11955E-01 9.72685E-14-7.90375E-13
 -1      1291 1.90513E+01 4.76391E+00-1.29742E-02 6.06335E-01 1.45282E-13-6.65711E-13
 -1      1292 1.89631E+01 5.17529E+00 1.29062E-02 1.35653E+00 1.40498E-13-6.88095E-13
 -1      1293 1.89201E+01 5.15863E+00 6.45815E-03 1.13358E+00 1.26543E-13-7.34968E-13
 -1      1294 1.91084E+01 4.72340E+00-1.39973E-02 1.01976E+00 1.93210E-13-6.23390E-13
 -1      1295 1.90952E+01 5.15671E+00 1.28299E-02 1.84128E+00 1.95647E-13-5.63091E-13
 -1      1296 1.90160E+01 5.12645E+00 3.15298E-03 1.58844E+00 1.72439E-13-6.35506E-13
 -1      1297 1.92134E+01 4.65494E+00-1.61432E-02 1.46299E+00 2.55927E-13-5.33081E-13
 -1      1298 1.93432E+01 5.13333E+00 1.01678E-02 2.39842E+00 2.40401E-13-3.58109E-13
 -1      1299 1.91935E+01 5.07632E+00-4.36953E-03 2.10113E+00 2.15911E-13-4.83193E-13
 -1      1300 1.94054E+01 4.54241E+00-1.99820E-02 1.95875E+00 3.34480E-13-4.02577E-13
 -1      1301 1.98541E+01 5.09916E+00 6.03754E-03 3.08448E+00 2.64788E-13 2.10595E-14
 -1      1302 1.95425E+01 4.98427E+00-2.05390E-02 2.69714E+00 2.39649E-13-2.07168E-13
 -1      1303 1.97740E+01 4.34632E+00-2.45615E-02 2.52864E+00 3.88169E-13-1.66166E-13
 -1      1304 2.11012E+01 4.90667E+00 8.29076E-03 4.05435E+00 2.22766E-13 7.27904E-13
 -1      1305 2.03326E+01 4.73361E+00-4.79718E-02 3.41681E+00 2.17978E-13 2.98726E-13
 -1      1306 2.05630E+01 3.91579E+00-2.24182E-02 3.17893E+00 3.90216E-13 2.57461E-13
 -1      1307 2.72002E+01 3.20520E+00 9.29000E-01 4.58236E+00 1.02710E-13 2.03926E-12
 -1      1308 2.20178E+01 3.52199E+00-1.81996E-01 3.88530E+00 1.06748E-13 1.13348E-12
 -1      1309 2.21101E+01 2.56170E+00-3.25674E-02 3.45701E+00 3.59516E-13 9.03527E-13
 -1      1310 2.14242E+01 3.59604E-01-7.63504E-01 1.18410E+00 1.89876E-13 1.96965E-12
 -1      1311 2.19986E+01 1.31378E-01-4.00854E-01-1.28594E+00-2.06751E-13 1.29682E-12
 -1      1312 2.06756E+01 3.06717E-01-1.64823E-01-8.05975E-01-1.94712E-13 1.04526E-12
 -1      1313 2.00778E+01 1.53479E-01-7.35505E-02-4.02345E-01-1.67026E-13 9.30009E-13
 -1      1314 1.96077E+01 9.12001E-02-1.49513E-02-3.30186E-01-1.63321E-13 6.85292E-13
 -1      1315 2.09699E+01 3.69208E-01-1.04234E-01-1.27433E+00-3.55826E-13 5.08184E-13
 -1      1316 1.92502E+01 6.45234E-02 3.00892E-03-1.35528E-01-1.39704E-13 5.99614E-13
 -1      1317 1.90956E+01 4.12803E-02 1.31925E-02-1.17716E-01-1.30113E-13 4.06196E-13
 -1      1318 1.99188E+01 1.33866E-01-3.51973E-02-5.04361E-01-2.86701E-13 3.41701E-13
 -1      1319 1.89352E+01 3.15262E-02 1.32265E-02-2.81806E-02-8.55305E-14 3.23651E-13
 -1      1320 1.89155E+01 1.93864E-02 1.10514E-02-1.88075E-02-7.75079E-14 2.13343E-13
 -1      1321 1.94413E+01 5.54897E-02-8.53284E-03-1.70317E-01-2.16500E-13 1.95932E-13
 -1      1322 1.88593E+01 1.60212E-02 8.77648E-03 2.48531E-02-2.52610E-14 1.76283E-13
 -1      1323 1.89015E+01 9.10113E-03 6.44138E-03 2.94904E-02-1.95070E-14 1.34892E-13
 -1      1324 1.92322E+01 2.43957E-02-3.52199E-03-1.14717E-02-1.00786E-13 6.98192E-14
 -1      1325 1.89015E+01 7.88629E-03 4.68213E-03 5.07203E-02-3.38152E-14 1.17394E-13
 -1      1326 1.89717E+01 3.55247E-03 3.65359E-03 5.26284E-02-2.26965E-14 8.13143E-14
 -1      1327 1.91753E+01 1.02316E-02-2.22945E-03 6.73188E-02-6.28497E-14 3.71300E-14
 -1      1328 1.90013E+01 3.24620E-03 2.45764E-03 6.15508E-02-1.63232E-15 7.03118E-14
 -1      1329 1.90819E+01 4.14747E-04 2.22842E-03 6.18513E-02-1.63024E-14 3.88092E-14
 -1      1330 1.92015E+01 2.85346E-03-1.34076E-03 1.04384E-01-3.58499E-14-6.00214E-16
 -1      1331 1.91258E+01 5.42823E-04 1.35160E-03 6.37489E-02-3.89997E-14 2.91486E-14
 -1      1332 1.92070E+01-1.32992E-03 1.46277E-03 6.31216E-02-3.39122E-14-3.37816E-14
 -1      1333 1.92711E+01-1.16871E-03-5.88091E-04 1.18065E-01-6.10738E-14-3.44642E-14
 -1      1334 1.92562E+01-9.82498E-04 7.70878E-04 6.10741E-02-3.38722E-14-5.73543E-14
 -1      1335 1.93327E+01-2.20360E-03 1.00131E-03 5.99610E-02-4.79271E-14-1.24255E-13
 -1      1336 1.93604E+01-3.28545E-03-4.57473E-05 1.18399E-01-6.33280E-14-2.93392E-14
 -1      1337 1.93821E+01-1.74882E-03 4.38523E-04 5.58992E-02-4.31599E-14-1.25772E-13
 -1      1338 1.94512E+01-2.51019E-03 6.98081E-04 5.45962E-02-1.11351E-14-1.65623E-13
 -1      1339 1.94556E+01-4.22336E-03 2.84021E-04 1.11432E-01-7.22707E-14-2.75365E-14
 -1      1340 1.94981E+01-2.01032E-03 2.37759E-04 4.97813E-02-6.06229E-15-2.34043E-13
 -1      1341 1.95591E+01-2.44166E-03 4.91535E-04 4.84883E-02-2.56047E-14-2.57673E-13
 -1      1342 1.95489E+01-4.39807E-03 4.44239E-04 1.01034E-01-4.35409E-14-1.09637E-13
 -1      1343 1.96022E+01-1.93093E-03 1.15015E-04 4.37598E-02-5.04242E-14-2.68858E-13
 -1      1344 1.96554E+01-2.12519E-03 3.50348E-04 4.26119E-02-3.56408E-14-3.41648E-13
 -1      1345 1.96362E+01-4.06954E-03 4.81811E-04 8.97561E-02-6.32767E-14-1.98733E-13
 -1      1346 1.96946E+01-1.62077E-03 4.07500E-05 3.85301E-02 6.06354E-15-3.58615E-13
 -1      1347 1.97413E+01-1.64801E-03 2.54657E-04 3.76175E-02-8.56845E-16-3.22925E-13
 -1      1348 1.97162E+01-3.40881E-03 4.34102E-04 7.93029E-02-3.20696E-14-2.75345E-13
 -1      1349 1.97771E+01-1.15683E-03-4.38079E-06 3.45503E-02-4.86491E-14-3.62550E-13
 -1      1350 1.98189E+01-1.07338E-03 1.89624E-04 3.39312E-02-1.18131E-13-4.52766E-13
 -1      1351 1.97893E+01-2.53309E-03 3.28550E-04 7.08070E-02-6.75331E-14-3.13919E-13
 -1      1352 1.98524E+01-5.97384E-04-3.46538E-05 3.21037E-02-6.95842E-14-4.60578E-13
 -1      1353 1.98912E+01-4.53009E-04 1.42791E-04 3.18116E-02 3.84409E-15-4.90050E-13
 -1      1354 1.98570E+01-1.52890E-03 1.85623E-04 6.49940E-02-1.02884E-13-3.41420E-13
 -1      1355 1.99237E+01 5.79144E-06-6.14415E-05 3.13275E-02-3.04475E-14-5.85065E-13
 -1      1356 1.99617E+01 1.61303E-04 1.02755E-04 3.13724E-02-7.40861E-14-6.08284E-13
 -1      1357 1.99215E+01-4.71233E-04 2.22033E-05 6.22698E-02-9.51188E-14-3.62123E-13
 -1      1358 1.99946E+01 5.95278E-04-9.40532E-05 3.22083E-02-5.95096E-14-6.81962E-13
 -1      1359 2.00338E+01 7.05686E-04 5.85989E-05 3.25718E-02-5.65505E-14-7.11129E-13
 -1      1360 1.99856E+01 5.57275E-04-1.44993E-04 6.27410E-02-9.00227E-14-5.03208E-13
 -1      1361 2.00684E+01 1.09495E-03-1.39587E-04 3.45431E-02-1.89579E-14-7.16267E-13
 -1      1362 2.01105E+01 1.09159E-03 8.86200E-08 3.51665E-02 2.30242E-14-7.44930E-13
 -1      1363 2.00518E+01 1.44567E-03-2.95855E-04 6.61684E-02-4.63434E-14-5.52871E-13
 -1      1364 2.01478E+01 1.39625E-03-2.01710E-04 3.78651E-02 9.19795E-15-7.56936E-13
 -1      1365 2.01939E+01 1.19358E-03-8.10694E-05 3.86303E-02-3.40384E-14-7.79596E-13
 -1      1366 2.01224E+01 2.03234E-03-4.03092E-04 7.18532E-02-9.87730E-15-5.63382E-13
 -1      1367 2.02341E+01 1.34544E-03-2.78160E-04 4.13346E-02 6.68540E-14-7.48215E-13
 -1      1368 2.02843E+01 8.40681E-04-1.88563E-04 4.20383E-02 5.18906E-14-6.39001E-13
 -1      1369 2.01987E+01 2.08351E-03-4.28497E-04 7.84552E-02 9.21547E-15-5.22066E-13
 -1      1370 2.03267E+01 7.36389E-04-3.56893E-04 4.36084E-02 2.27424E-14-5.89602E-13
 -1      1371 2.03791E+01-1.82777E-04-3.17188E-04 4.39321E-02 4.83642E-14-5.74662E-13
 -1      1372 2.02803E+01 1.27922E-03-3.20065E-04 8.37596E-02 8.94779E-14-5.61651E-13
 -1      1373 2.04214E+01-6.82767E-04-4.11400E-04 4.27158E-02 1.68784E-14-4.96372E-13
 -1      1374 2.04717E+01-2.11587E-03-4.47412E-04 4.22008E-02-1.49954E-14-5.27910E-13
 -1      1375 2.03644E+01-7.80337E-04-1.17434E-05 8.44362E-02 4.01296E-14-4.70194E-13
 -1      1376 2.05094E+01-3.17514E-03-3.97004E-04 3.60057E-02-7.51406E-15-5.04408E-13
 -1      1377 2.05500E+01-5.16404E-03-5.40787E-04 3.40489E-02-3.08924E-14-5.34876E-13
 -1      1378 2.04444E+01-4.52598E-03 5.70988E-04 7.58865E-02-3.44449E-14-3.33003E-13
 -1      1379 2.05762E+01-6.93378E-03-2.52221E-04 2.02712E-02 1.01429E-14-5.17458E-13
 -1      1380 2.05953E+01-9.38861E-03-5.40651E-04 1.61704E-02 6.05026E-14-4.99800E-13
 -1      1381 2.05094E+01-1.02978E-02 1.49468E-03 5.23507E-02-1.30933E-14-2.51459E-13
 -1      1382 2.06002E+01-1.19352E-02 8.83194E-05-7.79180E-03 4.60517E-14-4.65103E-13
 -1      1383 2.05823E+01-1.45336E-02-3.84884E-04-1.47051E-02 4.14120E-14-4.05963E-13
 -1      1384 2.05432E+01-1.81192E-02 2.78442E-03 7.53380E-03 5.46737E-14-1.79891E-13
 -1      1385 2.05538E+01-1.77266E-02 6.62644E-04-5.06206E-02 7.46263E-14-4.69350E-13
 -1      1386 2.04806E+01-1.98124E-02-3.72028E-05-6.07201E-02 3.52199E-14-4.18386E-13
 -1      1387 2.05245E+01-2.73613E-02 4.36900E-03-6.39301E-02 8.02583E-14-2.10127E-13
 -1      1388 2.04063E+01-2.31963E-02 1.43137E-03-1.08226E-01-7.27773E-14-4.43287E-13
 -1      1389 2.02602E+01-2.37421E-02 4.66088E-04-1.21196E-01-1.11064E-13-5.63634E-13
 -1      1390 2.04291E+01-3.63663E-02 6.01009E-03-1.63941E-01-1.52964E-14-4.13387E-13
 -1      1391 2.01299E+01-2.64614E-02 2.22868E-03-1.76232E-01 1.73316E-14-6.08690E-13
 -1      1392 1.98999E+01-2.42031E-02 9.70176E-04-1.90618E-01 4.76667E-14-5.93539E-13
 -1      1393 2.02341E+01-4.22389E-02 7.24369E-03-2.87471E-01-6.65310E-14-4.35909E-13
 -1      1394 1.97102E+01-2.51061E-02 2.74548E-03-2.44228E-01-3.45084E-14-5.75279E-13
 -1      1395 1.93993E+01-1.89500E-02 1.20048E-03-2.57164E-01 1.84765E-14-5.78450E-13
 -1      1396 1.99251E+01-4.11451E-02 7.39437E-03-4.19125E-01-6.35039E-15-4.57266E-13
 -1      1397 1.91590E+01-1.69802E-02 2.61218E-03-2.95739E-01 3.20948E-14-5.52364E-13
 -1      1398 1.87906E+01-6.67661E-03 8.57640E-04-3.03205E-01 5.65055E-14-4.99517E-13
 -1      1399 1.95063E+01-2.94899E-02 5.73402E-03-5.31792E-01 1.04656E-14-3.82703E-13
 -1      1400 1.85241E+01-1.53511E-03 1.59809E-03-3.11312E-01 1.09780E-14-4.81136E-13
 -1      1401 1.81452E+01 1.16314E-02-1.91821E-04-3.09227E-01-5.09459E-14-5.05609E-13
 -1      1402 1.90091E+01-5.94874E-03 1.85159E-03-5.90116E-01-1.17807E-14-3.55687E-13
 -1      1403 1.78918E+01 1.88516E-02-1.63207E-04-2.75232E-01-5.74198E-14-6.47498E-13
 -1      1404 1.75659E+01 3.18764E-02-1.71127E-03-2.61301E-01-8.83234E-14-7.71999E-13
 -1      1405 1.84962E+01 2.64205E-02-3.87500E-03-5.60628E-01-1.46896E-13-4.35995E-13
 -1      1406 1.73728E+01 3.86811E-02-2.07791E-03-1.83968E-01 3.64483E-14-7.30018E-13
 -1      1407 1.71649E+01 4.76575E-02-3.07422E-03-1.59463E-01 1.01682E-13-6.97194E-13
 -1      1408 1.80537E+01 5.95406E-02-1.00267E-02-4.26844E-01 2.37007E-14-3.45979E-13
 -1      1409 1.70730E+01 5.11702E-02-3.34404E-03-5.16677E-02 1.25752E-13-5.75450E-13
 -1      1410 1.70286E+01 5.30025E-02-3.55888E-03-2.18153E-02 1.13114E-13-3.94784E-13
 -1      1411 1.77703E+01 8.27137E-02-1.44657E-02-2.02418E-01 1.38364E-13-4.26973E-13
 -1      1412 1.70585E+01 5.15966E-02-3.42365E-03 9.21854E-02-3.48133E-14-5.19802E-13
 -1      1413 1.71867E+01 4.56141E-02-2.80993E-03 1.19954E-01-6.28829E-14-5.28882E-13
 -1      1414 1.77086E+01 8.74286E-02-1.53805E-02 6.71965E-02 2.06658E-14-4.10946E-13
 -1      1415 1.73303E+01 3.99184E-02-2.39014E-03 2.13417E-01-5.84975E-14-4.36094E-13
 -1      1416 1.76007E+01 2.82390E-02-1.10345E-03 2.32524E-01-2.82062E-14-5.00053E-13
 -1      1417 1.78814E+01 7.18299E-02-1.23701E-02 3.19151E-01-6.33469E-14-4.38582E-13
 -1      1418 1.78245E+01 2.07293E-02-8.46355E-04 2.86509E-01 1.18193E-13-4.85769E-13
 -1      1419 1.81779E+01 7.11950E-03 8.22661E-04 2.93761E-01 1.07192E-13-2.97706E-13
 -1      1420 1.82463E+01 4.17285E-02-6.69796E-03 4.97283E-01 9.64654E-14-2.87710E-13
 -1      1421 1.84354E+01 6.47819E-04 4.88965E-04 3.03055E-01 1.93765E-13-2.07508E-13
 -1      1422 1.88045E+01-1.12856E-02 2.23727E-03 2.99245E-01 1.92254E-13 1.50401E-14
 -1      1423 1.87224E+01 7.46504E-03-4.91795E-04 5.72368E-01 2.02816E-13-2.41180E-13
 -1      1424 1.90510E+01-1.49041E-02 1.18509E-03 2.71419E-01 5.83058E-14 1.15827E-13
 -1      1425 1.93794E+01-2.30187E-02 2.78700E-03 2.60063E-01-1.68602E-14 3.27967E-14
 -1      1426 1.92182E+01-2.11561E-02 4.40490E-03 5.48024E-01 1.87926E-13-8.22671E-14
 -1      1427 1.95827E+01-2.34727E-02 1.21915E-03 2.09734E-01-9.33017E-14 1.38656E-13
 -1      1428 1.98354E+01-2.73443E-02 2.55278E-03 1.95111E-01-2.34823E-13-1.51407E-13
 -1      1429 1.96578E+01-3.86017E-02 7.11374E-03 4.51967E-01-4.06411E-14-3.14028E-15
 -1      1430 1.99797E+01-2.54121E-02 8.39723E-04 1.37494E-01-2.82468E-13-2.13848E-13
 -1      1431 2.01449E+01-2.58087E-02 1.87271E-03 1.23149E-01-1.52791E-13-4.88237E-13
 -1      1432 1.99947E+01-4.42853E-02 7.72390E-03 3.20756E-01-3.89924E-13-1.99816E-14
 -1      1433 2.02289E+01-2.26469E-02 3.50631E-04 6.98575E-02 5.65624E-14-5.87749E-13
 -1      1434 2.03125E+01-2.07927E-02 1.10024E-03 5.79751E-02 4.73625E-14-5.67212E-13
 -1      1435 2.02133E+01-4.09513E-02 6.86290E-03 1.86821E-01-1.29245E-13-1.08306E-13
 -1      1436 2.03444E+01-1.73871E-02-4.16852E-05 1.57125E-02 5.09141E-16-3.64154E-13
 -1      1437 2.03629E+01-1.44147E-02 4.60040E-04 7.20993E-03 7.85645E-14-3.27817E-13
 -1      1438 2.03213E+01-3.24229E-02 5.24806E-03 7.19970E-02 1.60621E-13-1.19962E-13
 -1      1439 2.03560E+01-1.13471E-02-2.74349E-04-2.14997E-02 1.68416E-13-3.26078E-13
 -1      1440 2.03302E+01-8.05171E-03 1.23517E-05-2.65509E-02 1.94295E-13-7.95761E-14
 -1      1441 2.03409E+01-2.19621E-02 3.42785E-03-1.29354E-02 1.91436E-13 3.45291E-14
 -1      1442 2.02990E+01-5.50620E-03-4.12407E-04-4.18156E-02 1.83723E-13-4.93893E-14
 -1      1443 2.02495E+01-2.34244E-03-3.17422E-04-4.37331E-02 1.07494E-13 1.11636E-13
 -1      1444 2.02994E+01-1.15891E-02 1.70785E-03-6.53545E-02 2.73774E-13 5.61333E-14
 -1      1445 2.02077E+01-2.50820E-04-6.00782E-04-4.68726E-02 7.04195E-14 1.51667E-13
 -1      1446 2.01534E+01 2.53954E-03-6.41486E-04-4.60431E-02 1.20648E-13 1.58153E-13
 -1      1447 2.02246E+01-2.17117E-03 1.93303E-04-8.71630E-02 2.06284E-13 1.17549E-13
 -1      1448 2.01126E+01 4.32833E-03-9.39913E-04-3.88152E-02 1.54330E-13 2.20414E-13
 -1      1449 2.00697E+01 6.45708E-03-8.05441E-04-3.55157E-02 1.19029E-13 3.61786E-13
 -1      1450 2.01411E+01 6.20914E-03-1.00899E-03-8.21151E-02 2.08042E-13 1.99556E-13
 -1      1451 2.00379E+01 8.40690E-03-9.02291E-04-2.02457E-02-5.84896E-14 4.27289E-13
 -1      1452 2.00183E+01 7.83016E-03 1.41319E-04-1.54130E-02-1.12789E-13 3.36707E-13
 -1      1453 2.00682E+01 1.35414E-02-1.50946E-03-5.55627E-02 1.53173E-13 2.81319E-13
 -1      1454 1.99983E+01 1.46727E-03 1.11389E-03 2.22045E-03-3.12491E-13 2.25310E-13
 -1      1455 2.00140E+01 1.12628E-02-4.21746E-04-1.38270E-02-2.94312E-13 2.29950E-13
 -1      1456 2.02565E+01 7.54784E-02-1.52098E-01 4.84067E-01 1.71561E-13 1.58712E-12
 -1      1457 2.15271E+01 2.16120E-01-2.29285E-01 7.21063E-01 1.53599E-13 1.85238E-12
 -1      1458 2.17259E+01 8.81778E-01-8.54554E-02 2.06520E+00 2.99157E-13 1.22916E-12
 -1      1459 1.93277E+01 3.23792E-02-2.13345E-02 1.86229E-01 1.26423E-13 1.22708E-12
 -1      1460 1.97486E+01 1.13610E-01-6.27035E-02 2.38234E-01 1.24623E-13 1.43672E-12
 -1      1461 2.03003E+01 1.87684E-01-5.51852E-02 7.86568E-01 2.60195E-13 9.64000E-13
 -1      1462 1.89454E+01 1.51044E-02 5.66690E-03 5.37357E-02 9.95922E-14 9.72396E-13
 -1      1463 1.90843E+01 5.16184E-02 9.76576E-04 8.00409E-02 9.72738E-14 1.11631E-12
 -1      1464 1.95549E+01 7.18363E-02-1.21511E-02 2.99394E-01 2.02822E-13 7.50355E-13
 -1      1465 1.88344E+01 7.12506E-03 6.97582E-03-8.76392E-03 4.83858E-14 8.14022E-13
 -1      1466 1.88493E+01 2.58567E-02 1.10895E-02 5.62969E-03 4.96452E-14 9.05734E-13
 -1      1467 1.92191E+01 3.10366E-02-2.45968E-03 8.39029E-02 1.32271E-13 5.99919E-13
 -1      1468 1.88599E+01 3.20390E-03 4.77519E-03-3.90318E-02 6.30084E-14 6.86045E-13
 -1      1469 1.88164E+01 1.38049E-02 8.52172E-03-3.09252E-02 4.37313E-14 7.59786E-13
 -1      1470 1.91021E+01 1.32646E-02-1.61864E-03-2.11061E-02 8.66941E-14 4.61076E-13
 -1      1471 1.89538E+01 9.88052E-04 3.27659E-03-5.26656E-02 4.17687E-14 5.72413E-13
 -1      1472 1.88835E+01 7.39194E-03 5.40591E-03-4.80423E-02 3.96764E-14 6.50605E-13
 -1      1473 1.91031E+01 4.47690E-03-1.66077E-03-7.26694E-02 7.17341E-14 3.73949E-13
 -1      1474 1.90843E+01-3.82921E-04 2.43388E-03-5.67620E-02 3.23583E-14 4.83555E-13
 -1      1475 1.90007E+01 3.50068E-03 3.48147E-03-5.43238E-02 3.18541E-14 5.47273E-13
 -1      1476 1.91679E+01 9.16764E-05-1.34846E-03-9.55068E-02 7.02320E-14 3.61348E-13
 -1      1477 1.92173E+01-8.61816E-04 2.02343E-03-5.50917E-02 4.06657E-14 3.99594E-13
 -1      1478 1.91373E+01 1.17431E-03 2.33405E-03-5.43314E-02 3.17325E-14 4.53096E-13
 -1      1479 1.92629E+01-2.74430E-03-1.02796E-03-1.01981E-01 5.37858E-14 3.00052E-13
 -1      1480 1.93465E+01-1.17488E-03 1.67542E-03-5.08082E-02 4.13214E-14 2.60399E-13
 -1      1481 1.92716E+01-2.29064E-04 1.64021E-03-5.08639E-02 4.60715E-14 3.38292E-13
 -1      1482 1.93662E+01-3.78047E-03-6.60592E-04-9.88772E-02 8.93938E-14 2.13955E-13
 -1      1483 1.94657E+01-1.24996E-03 1.38068E-03-4.52928E-02 3.15295E-14 1.68383E-13
 -1      1484 1.93984E+01-9.37429E-04 1.19422E-03-4.58095E-02 4.28516E-14 2.36732E-13
 -1      1485 1.94690E+01-4.16320E-03-4.15533E-04-9.10790E-02 7.90363E-14 1.32788E-13
 -1      1486 1.95725E+01-1.16110E-03 1.11897E-03-3.95966E-02 3.50957E-14 1.34749E-13
 -1      1487 1.95133E+01-1.22401E-03 8.78835E-04-4.03133E-02 1.06067E-15 1.51673E-13
 -1      1488 1.95658E+01-4.03858E-03-2.52573E-04-8.13542E-02 2.30750E-14 3.95551E-14
 -1      1489 1.96667E+01-9.55004E-04 8.84354E-04-3.44418E-02 4.14703E-14-7.98970E-15
 -1      1490 1.96154E+01-1.20820E-03 6.53025E-04-3.51697E-02 4.30325E-14 7.05319E-14
 -1      1491 1.96542E+01-3.57944E-03-1.60094E-04-7.15811E-02 6.68946E-14-1.03449E-14
 -1      1492 1.97504E+01-6.47782E-04 6.95264E-04-3.03695E-02 6.01399E-14-1.50300E-13
 -1      1493 1.97056E+01-9.55139E-04 5.00376E-04-3.09465E-02 8.00333E-14-8.12956E-15
 -1      1494 1.97343E+01-2.90116E-03-1.30065E-04-6.30870E-02 1.02848E-13-5.97792E-14
 -1      1495 1.98302E+01-2.42170E-04 4.79161E-04-2.77018E-02-2.64915E-14-2.29360E-13
 -1      1496 1.97882E+01-4.83666E-04 4.06144E-04-2.80339E-02 6.31480E-16-2.26904E-13
 -1      1497 1.98095E+01-2.00033E-03-1.69144E-04-5.67695E-02 6.78390E-14-8.47852E-14
 -1      1498 1.99031E+01 2.58712E-04 3.10128E-04-2.71557E-02-2.99960E-14-2.05664E-13
 -1      1499 1.98651E+01 1.68853E-04 3.44427E-04-2.70723E-02-2.41949E-14-2.19570E-13
 -1      1500 1.98809E+01-9.19948E-04-2.38539E-04-5.37818E-02-3.40875E-14-1.67034E-13
 -1      1501 1.99790E+01 8.91069E-04 1.44571E-04-2.90742E-02-1.93884E-14-1.94950E-13
 -1      1502 1.99398E+01 1.04843E-03 3.42252E-04-2.84375E-02-3.66599E-14-2.63068E-13
 -1      1503 1.99513E+01 3.47560E-04-3.88835E-04-5.50450E-02-1.08084E-14-2.03046E-13
 -1      1504 2.00651E+01 1.71919E-03-2.91217E-05-3.41417E-02 4.13860E-14-1.78232E-13
 -1      1505 2.00206E+01 2.24448E-03 3.85532E-04-3.27442E-02 7.81086E-15-1.60801E-13
 -1      1506 2.00282E+01 1.89591E-03-6.31544E-04-6.15873E-02-1.12842E-14-2.29797E-13
 -1      1507 2.01712E+01 2.83740E-03-2.32866E-04-4.33628E-02 6.88025E-14-2.57503E-13
 -1      1508 2.01161E+01 3.88832E-03 4.76944E-04-4.09000E-02 4.88581E-14-2.22298E-13
 -1      1509 2.01189E+01 3.87750E-03-1.00135E-03-7.49968E-02 6.42902E-14-2.12769E-13
 -1      1510 2.03101E+01 4.38118E-03-5.04480E-04-5.82345E-02 3.50829E-14-4.33542E-13
 -1      1511 2.02374E+01 6.19586E-03 6.21157E-04-5.42494E-02 7.06358E-14-3.24197E-13
 -1      1512 2.02332E+01 6.51529E-03-1.56144E-03-9.75848E-02 1.25019E-13-2.54487E-13
 -1      1513 2.04997E+01 6.48237E-03-9.41884E-04-8.10547E-02-7.33484E-15-4.19619E-13
 -1      1514 2.03995E+01 9.60239E-03 8.65443E-04-7.47971E-02 4.91491E-15-4.08639E-13
 -1      1515 2.03839E+01 1.00549E-02-2.45561E-03-1.32749E-01-8.22888E-15-2.52162E-13
 -1      1516 2.07808E+01 9.84662E-03-1.70172E-03-1.17086E-01-7.77865E-14-2.13385E-13
 -1      1517 2.06299E+01 1.44763E-02 1.08130E-03-1.06703E-01-1.07336E-13-3.94771E-13
 -1      1518 2.05954E+01 1.57040E-02-3.65466E-03-1.86994E-01-1.24455E-13-2.04655E-13
 -1      1519 2.11646E+01 1.45304E-02-2.76564E-03-1.68053E-01 7.26845E-14-3.01646E-13
 -1      1520 2.09564E+01 2.18280E-02 1.31821E-03-1.53381E-01 8.51628E-14-1.73964E-13
 -1      1521 2.08889E+01 2.31182E-02-5.83967E-03-2.68136E-01 2.91520E-14-2.26879E-13
 -1      1522 2.17112E+01 2.09600E-02-4.82731E-03-2.42150E-01-3.68737E-14-4.28363E-13
 -1      1523 2.14101E+01 3.18998E-02 1.25908E-03-2.20066E-01 1.38214E-15-4.47980E-13
 -1      1524 2.12897E+01 3.41309E-02-8.87098E-03-3.83326E-01 1.11995E-13-2.72197E-13
 -1      1525 2.24895E+01 2.94454E-02-8.35630E-03-3.47896E-01-8.70987E-14-2.68317E-13
 -1      1526 2.20545E+01 4.60611E-02 6.72840E-04-3.15178E-01-8.51307E-14-4.41272E-13
 -1      1527 2.18476E+01 4.92912E-02-1.35617E-02-5.47897E-01-7.16970E-14-4.11000E-13
 -1      1528 2.35859E+01 3.92872E-02-1.37945E-02-4.93589E-01-1.27572E-14-2.17718E-13
 -1      1529 2.29639E+01 6.41578E-02-1.09813E-03-4.46545E-01-2.80175E-14-2.22777E-13
 -1      1530 2.26180E+01 6.89386E-02-2.03514E-02-7.76738E-01-7.59184E-14-3.70475E-13
 -1      1531 2.50931E+01 4.68616E-02-2.00340E-02-6.80432E-01-4.98880E-14-2.51313E-13
 -1      1532 2.42255E+01 8.29332E-02-4.55352E-03-6.16939E-01-1.40166E-14-3.18790E-13
 -1      1533 2.36634E+01 9.00889E-02-2.89604E-02-1.07864E+00 2.22738E-15-3.89747E-13
 -1      1534 2.70691E+01 4.11580E-02-2.07987E-02-8.86936E-01-2.59810E-14-1.44676E-13
 -1      1535 2.59177E+01 9.20064E-02-8.04823E-03-8.10017E-01-4.60517E-14-1.75693E-13
 -1      1536 2.50373E+01 1.00226E-01-3.62659E-02-1.43613E+00-8.10324E-14-2.38941E-13
 -1      1537 2.95445E+01-2.52642E-03 5.46274E-03-1.02351E+00-1.39101E-13-1.07414E-14
 -1      1538 2.81002E+01 5.71439E-02-5.38580E-03-9.61060E-01-8.67342E-14-1.42664E-13
 -1      1539 2.67922E+01 7.05209E-02-2.98418E-02-1.76041E+00-1.12330E-13-1.80293E-13
 -1      1540 3.18268E+01-1.11407E-01 8.08682E-02-8.60717E-01-1.24227E-13 3.01675E-13
 -1      1541 3.05318E+01-7.43627E-02 2.01123E-02-8.95022E-01-1.70494E-13 9.90874E-14
 -1      1542 2.87637E+01-7.93779E-02 9.81302E-03-1.79179E+00-2.50376E-13-3.46667E-14
 -1      1543 3.29895E+01-2.88245E-01 1.80146E-01-9.66592E-02 3.78655E-14 4.43950E-13
 -1      1544 3.24921E+01-3.34917E-01 7.41490E-02-3.42189E-01-6.79179E-14 3.19512E-13
 -1      1545 3.05251E+01-3.99176E-01 9.34133E-02-1.07030E+00-1.31617E-13 9.93650E-15
 -1      1546 3.16041E+01-3.85298E-01 1.34388E-01 1.34804E+00-4.84458E-14 3.46057E-13
 -1      1547 3.28769E+01-5.85373E-01 1.07765E-01 8.56958E-01 6.26825E-14 4.24244E-13
 -1      1548 3.14345E+01-8.00193E-01 1.61616E-01 7.97502E-01 6.86812E-14 1.97432E-13
 -1      1549 2.77196E+01-1.31759E-01-1.81236E-01 2.51286E+00-2.26902E-15 4.86056E-13
 -1      1550 3.06078E+01-4.64063E-01-2.02281E-02 2.10535E+00-1.10158E-13 4.04177E-13
 -1      1551 3.07916E+01-7.38690E-01 8.40340E-02 3.16134E+00-1.57960E-13 2.30760E-13
 -1      1552 2.31051E+01 4.60366E-01-6.63786E-01 2.01062E+00 1.51573E-13 3.14027E-13
 -1      1553 2.63505E+01 2.57602E-01-3.18558E-01 2.14159E+00 1.26524E-13 5.13145E-13
 -1      1554 2.87981E+01 2.13748E-01-1.69059E-01 3.95385E+00 1.39999E-13 1.52142E-13
 -1      1555 2.22491E+01 6.40845E-01-7.31863E-01-6.69210E-01 1.71529E-13 6.10623E-15
 -1      1556 2.27404E+01 8.96606E-01-5.97434E-01 1.59135E-01 1.84741E-13 2.59293E-13
 -1      1557 2.70676E+01 1.55551E+00-3.77350E-01 1.35193E+00 2.86382E-13 8.56364E-14
 -1      1558 2.62239E+01 1.02250E-01-2.79775E-01-2.52344E+00 1.16018E-13-3.63487E-13
 -1      1559 2.34637E+01 5.69000E-01-4.82228E-01-1.99683E+00 1.18155E-13-1.54043E-13
 -1      1560 2.75869E+01 1.24098E+00-3.70843E-01-2.68805E+00 3.11418E-13-3.67206E-14
 -1      1561 3.07926E+01-2.82562E-01 1.73101E-01-2.18461E+00-5.22950E-14-3.69871E-13
 -1      1562 2.75071E+01-1.34159E-01-1.29327E-01-2.22369E+00 2.97679E-14-4.27769E-13
 -1      1563 2.96191E+01-2.31119E-01-1.83856E-01-3.99166E+00 8.53623E-14-3.93865E-13
 -1      1564 3.31852E+01-3.12838E-01 2.72736E-01-6.22454E-01-3.04166E-14-1.57332E-13
 -1      1565 3.13147E+01-4.52469E-01 1.21691E-01-9.81302E-01-4.76216E-14-1.97287E-13
 -1      1566 3.11070E+01-1.06605E+00-2.61975E-02-2.36500E+00-1.54418E-13-2.08847E-13
 -1      1567 3.25542E+01-1.48361E-01 1.41579E-01 5.67008E-01-1.15876E-13-8.53068E-14
 -1      1568 3.26931E+01-3.39268E-01 1.38128E-01 2.87668E-01-6.15549E-14-9.63535E-14
 -1      1569 3.10370E+01-8.30180E-01 4.11757E-02 1.07932E-02-9.50073E-14-3.01339E-14
 -1      1570 3.03846E+01-2.34043E-02 1.72578E-02 1.01030E+00 3.33336E-14-1.58207E-15
 -1      1571 3.15910E+01-1.38214E-01 5.59068E-02 8.96506E-01-6.27050E-14-1.11480E-13
 -1      1572 2.96838E+01-3.15249E-01 3.78302E-02 1.44573E+00-6.25056E-14-5.28397E-15
 -1      1573 2.79053E+01 3.02456E-02-3.60612E-02 9.98924E-01 1.74107E-13-3.34677E-13
 -1      1574 2.93459E+01-9.39200E-03-5.02533E-03 9.86141E-01 1.78304E-13-2.97262E-14
 -1      1575 2.77986E+01 4.14253E-03 1.71308E-02 1.85448E+00 1.83299E-13-1.59296E-13
 -1      1576 2.57048E+01 4.13247E-02-4.36014E-02 8.20567E-01 2.82372E-13-6.64288E-13
 -1      1577 2.69817E+01 4.29355E-02-2.51298E-02 8.45145E-01 1.92729E-13-4.74010E-13
 -1      1578 2.59188E+01 1.21703E-01 4.36587E-03 1.70394E+00 3.10564E-13-9.18814E-14
 -1      1579 2.38889E+01 3.67783E-02-3.25932E-02 6.10485E-01-5.12507E-14-6.82215E-13
 -1      1580 2.49213E+01 5.27893E-02-2.30673E-02 6.45317E-01-2.70287E-14-7.25690E-13
 -1      1581 2.42685E+01 1.34815E-01 1.13821E-03 1.35950E+00 1.45885E-13-4.49802E-13
 -1      1582 2.26012E+01 2.79060E-02-2.13274E-02 4.44110E-01 1.21604E-14-8.42278E-13
 -1      1583 2.33248E+01 4.67645E-02-1.43607E-02 4.72354E-01 6.96995E-14-6.43628E-13
 -1      1584 2.29591E+01 1.10111E-01-5.67064E-04 1.01560E+00-1.05055E-14-5.70772E-13
 -1      1585 2.16560E+01 2.05243E-02-1.33605E-02 3.18713E-01-1.01971E-13-4.48223E-13
 -1      1586 2.21771E+01 3.66458E-02-7.83797E-03 3.40364E-01-1.38096E-13-6.37023E-13
 -1      1587 2.19919E+01 8.14645E-02-4.97836E-04 7.42009E-01-1.78739E-13-2.89037E-13
 -1      1588 2.09744E+01 1.55496E-02-8.71070E-03 2.25835E-01-1.70187E-13 5.48919E-14
 -1      1589 2.13450E+01 2.81159E-02-3.88447E-03 2.42277E-01-2.21955E-13-2.39787E-13
 -1      1590 2.12737E+01 5.87823E-02-6.37764E-04 5.33951E-01-3.58757E-13 7.33591E-14
 -1      1591 2.04965E+01 1.33638E-02-6.59857E-03 1.53697E-01 2.19208E-14 2.28961E-13
 -1      1592 2.07528E+01 2.30660E-02-2.03721E-03 1.67382E-01-5.59184E-14 2.89499E-14
 -1      1593 2.07518E+01 4.42176E-02-1.28188E-03 3.75742E-01-1.60434E-13 1.54874E-13
 -1      1594 2.01879E+01 1.39407E-02-5.76280E-03 8.95794E-02-2.99136E-14 2.68725E-13
 -1      1595 2.03479E+01 2.23031E-02-1.61222E-03 1.03961E-01 2.12343E-14 2.60555E-13
 -1      1596 2.03861E+01 3.75184E-02-2.66755E-03 2.46403E-01-3.55566E-14 4.25286E-13
 -1      1597 2.00372E+01 1.56385E-02 3.52712E-04 2.76451E-02-1.01704E-13 2.49025E-13
 -1      1598 2.01024E+01 2.32382E-02-8.46921E-04 4.30171E-02-3.38098E-15 1.67173E-13
 -1      1599 2.01497E+01 3.64876E-02-3.84692E-03 1.26037E-01 3.70528E-14-5.34143E-14
 -1      1600 2.00022E+01 8.03206E-03 3.36194E-03-1.17401E-03 2.65449E-13 2.25399E-13
 -1      1601 2.00215E+01 1.32493E-01-3.68016E-03 6.98867E-02 2.37642E-14-3.46736E-13
 -1      1602 2.00250E+01 6.67228E-02 1.04303E-03 5.40457E-02 3.24567E-13-1.63474E-13
 -1      1603 2.00096E+01 3.60064E-01-2.18735E-03 1.18897E-01 5.14198E-14 8.51795E-14
 -1      1604 2.00169E+01 2.28400E-01-2.35302E-03 1.11207E-01 1.33432E-13-6.80119E-14
 -1      1605 2.00398E+01 2.20726E-01-3.19569E-03 1.76935E-01-4.90102E-14-1.55232E-13
 -1      1606 1.99963E+01 6.31866E-01-3.45361E-04 1.33458E-01 7.71171E-15-1.76540E-13
 -1      1607 2.00038E+01 4.75947E-01-1.20202E-03 1.33481E-01 2.47134E-13 9.21225E-15
 -1      1608 2.00131E+01 4.32955E-01-1.58876E-03 2.43357E-01 8.62164E-14 1.06400E-14
 -1      1609 1.99862E+01 8.83693E-01 8.12459E-04 1.14826E-01 4.71346E-13 4.03980E-13
 -1      1610 1.99917E+01 7.43999E-01 9.93471E-05 1.21162E-01-1.05999E-13 3.66374E-13
 -1      1611 1.99917E+01 6.61766E-01 2.20255E-03 2.44723E-01 5.43537E-14-2.15853E-14
 -1      1612 1.99811E+01 1.06100E+00 1.15559E-03 7.42141E-02 6.15966E-13 8.95573E-14
 -1      1613 1.99838E+01 9.67536E-01 6.57065E-04 8.37514E-02 4.83020E-13-1.69105E-14
 -1      1614 1.99763E+01 8.56952E-01 4.82524E-03 1.90665E-01 1.67599E-13 3.69301E-13
 -1      1615 1.99809E+01 1.14256E+00 1.00540E-03 2.34643E-02 4.37520E-13-3.06154E-13
 -1      1616 1.99810E+01 1.10613E+00 7.51876E-04 3.39300E-02 5.85557E-13-4.34700E-14
 -1      1617 1.99692E+01 9.84100E-01 5.85863E-03 1.03673E-01 1.39665E-13-2.84464E-14
 -1      1618 1.99843E+01 1.12138E+00 5.75541E-04-2.47945E-02 1.63730E-13-2.37928E-13
 -1      1619 1.99823E+01 1.14287E+00 4.82496E-04-1.58591E-02 4.63650E-13-3.78750E-13
 -1      1620 1.99699E+01 1.02687E+00 5.55024E-03 6.94582E-03 1.46436E-13-4.66201E-13
 -1      1621 1.99898E+01 1.01468E+00 1.02888E-04-6.20537E-02 2.63841E-13 1.75790E-13
 -1      1622 1.99866E+01 1.08240E+00 1.41484E-04-5.59360E-02 1.10478E-13 2.10015E-13
 -1      1623 1.99761E+01 9.85991E-01 4.24140E-03-7.82307E-02 2.82220E-13-1.71017E-13
 -1      1624 1.99955E+01 8.50830E-01-2.66431E-04-8.43703E-02 2.98829E-13 7.06474E-14
 -1      1625 1.99922E+01 9.47586E-01-1.30428E-04-8.14212E-02 2.09664E-13 1.96372E-13
 -1      1626 1.99851E+01 8.78515E-01 2.48864E-03-1.38929E-01 1.57213E-13 2.41258E-13
 -1      1627 2.00004E+01 6.60836E-01-4.57837E-04-9.18903E-02-3.75610E-13-4.36361E-13
 -1      1628 1.99976E+01 7.68899E-01-2.53757E-04-9.17323E-02 1.37859E-13-2.08847E-13
 -1      1629 1.99942E+01 7.29177E-01 7.76992E-04-1.70688E-01-1.06100E-15-1.47137E-13
 -1      1630 2.00038E+01 4.74704E-01-4.80433E-04-8.76492E-02-5.16885E-13 1.53910E-13
 -1      1631 2.00018E+01 5.77809E-01-2.25776E-04-8.94225E-02-3.31168E-13-3.18480E-13
 -1      1632 2.00017E+01 5.64851E-01-5.68573E-04-1.75985E-01-2.83505E-13-5.30306E-13
 -1      1633 2.00060E+01 3.05497E-01-4.53443E-04-7.52946E-02-2.01046E-13 4.81710E-14
 -1      1634 2.00045E+01 3.96755E-01-1.67866E-04-7.82888E-02-4.30018E-13 3.15174E-13
 -1      1635 2.00069E+01 4.05359E-01-1.43796E-03-1.61378E-01-5.85626E-14 3.31261E-13
 -1      1636 2.00071E+01 1.69261E-01-4.93238E-04-5.82199E-02-1.87359E-13-2.21370E-14
 -1      1637 2.00061E+01 2.40402E-01-1.71954E-04-6.17418E-02-1.66425E-13 1.69497E-13
 -1      1638 2.00101E+01 2.64181E-01-1.92779E-03-1.33570E-01 4.66686E-14 5.26481E-14
 -1      1639 2.00086E+01 7.48301E-02 1.78764E-04-3.85912E-02-4.19661E-13-1.73620E-13
 -1      1640 2.00065E+01 1.20345E-01-5.06151E-04-4.22147E-02-2.32844E-13-1.46215E-13
 -1      1641 2.00125E+01 1.51761E-01-1.98509E-03-9.79004E-02-1.28667E-13-1.73738E-13
 -1      1642 2.00130E+01 2.94361E-02 1.15615E-03-2.49286E-02-3.68826E-13 3.38678E-14
 -1      1643 2.00126E+01 4.96918E-02-4.06096E-04-3.22088E-02-2.59739E-13-1.16829E-13
 -1      1644 2.00215E+01 8.10610E-02-9.79789E-04-6.98336E-02-1.26480E-13-1.66353E-14
 -1      1645 2.00346E+01 3.72522E-02-3.39852E-04-4.98895E-02-8.71035E-14-5.94241E-14
 -1      1646-9.72426E-01-1.68008E+01-1.81177E+00-1.93438E+00 9.33698E-14 1.91375E-13
 -1      1647-8.02422E-01-1.79739E+01-1.85227E+00-4.22596E-01-1.96461E-13 2.10665E-13
 -1      1648-8.41329E-03-1.20327E+01-1.69013E+00-1.59820E+00 4.84057E-14-9.31338E-14
 -1      1649-2.14471E-01-1.62957E+01-1.98827E+00-1.48222E+00 2.14051E-13-7.17204E-14
 -1      1650 4.37024E+00-4.49743E+00-1.22255E+00 1.92397E+00 1.12133E-13 3.93574E-13
 -1      1651 2.10079E+00-1.01700E+01-1.84420E+00-4.41953E-01-7.00551E-14 1.08802E-13
 -1      1652 1.63214E+01 1.07034E+00-2.99929E-01 7.47145E+00 2.54907E-13 3.82583E-13
 -1      1653 1.01393E+01-3.20289E+00-1.15592E+00 3.68506E+00 1.86073E-13 1.84741E-13
 -1      1654 3.08757E+01 4.94877E+00 6.88521E-01 1.15246E+01 2.97762E-13 2.89990E-13
 -1      1655 2.10029E+01 3.19229E+00-4.40974E-01 8.40110E+00 3.83249E-13 4.73399E-13
 -1      1656 4.86391E+01 4.70381E+00 1.81157E+00 1.08701E+01 1.40721E-13-3.15081E-13
 -1      1657 3.71358E+01 5.38965E+00 6.40428E-01 1.09029E+01 3.01981E-13 7.54952E-14
 -1      1658 6.24037E+01 3.88489E+00 2.83719E+00 5.85410E+00 8.65419E-14-8.55871E-13
 -1      1659 5.41003E+01 5.36018E+00 2.00365E+00 1.01916E+01 1.60608E-13-4.03233E-13
 -1      1660 6.45952E+01 3.91492E+00 2.88779E+00-3.00599E+00 2.64455E-13-1.20925E-12
 -1      1661 6.44828E+01 3.96944E+00 2.89766E+00 3.53756E+00 5.24025E-14-8.72247E-13
 -1      1662 5.43396E+01 5.19047E+00 1.97923E+00-9.55861E+00 5.35405E-13-1.38778E-12
 -1      1663 6.22164E+01 3.84430E+00 2.76324E+00-5.15039E+00 3.80307E-13-1.18838E-12
 -1      1664 3.84597E+01 5.87888E+00 8.10972E-01-1.17815E+01 9.46465E-13-1.45794E-12
 -1      1665 4.97445E+01 4.93632E+00 1.95357E+00-1.14302E+01 6.57863E-13-1.39133E-12
 -1      1666 2.24282E+01 3.87755E+00-3.26258E-01-9.09730E+00 9.08162E-13-1.36779E-12
 -1      1667 3.23390E+01 5.25700E+00 7.91827E-01-1.20239E+01 9.48130E-13-1.37734E-12
 -1      1668 1.01502E+01-1.33911E+00-1.20382E+00-4.24279E+00 1.11910E-12-9.99423E-13
 -1      1669 1.66387E+01 2.71052E+00-2.68525E-01-8.15255E+00 9.84546E-13-1.34159E-12
 -1      1670 3.21748E+00-8.50023E+00-1.65873E+00-2.73986E-01 9.43912E-13-6.38600E-13
 -1      1671 5.88877E+00-2.99552E+00-1.03489E+00-2.83488E+00 1.12577E-12-8.28004E-13
 -1      1672 8.45369E-01-1.42253E+01-1.63174E+00 6.38560E-01 6.45040E-14-4.86555E-13
 -1      1673 1.36859E+00-9.92493E+00-1.36495E+00 1.78535E-01 5.53224E-13-7.08877E-13
 -1      1674-6.26083E-01-1.77231E+01-1.85115E+00 6.42933E-01-8.65863E-13-3.67317E-13
 -1      1675-7.44845E-01-1.54558E+01-1.67410E+00 1.85756E+00-1.41331E-13-4.83669E-13
 -1      1676 8.79647E-01-1.04212E+01-1.16683E+00-2.13632E+00-2.95097E-13-8.12461E-13
 -1      1677-6.92445E-01-1.67179E+01-1.77128E+00-3.87347E-01-1.23390E-12-2.54019E-13
 -1      1678-9.23283E-01-1.85905E+01-1.99331E+00 1.26067E+00-9.48991E-13-9.35918E-14
 -1      1679 6.09497E-01-1.05244E+01-1.34712E+00 1.32855E-01-1.20404E-12-2.48163E-13
 -1      1680 1.91927E-01-1.53425E+01-1.81295E+00 1.83456E-01-1.31395E-12-3.21007E-13
 -1      1681 4.76779E+00-2.25152E+00-7.27810E-01 3.49874E+00-1.05516E-12-7.43405E-13
 -1      1682 2.56621E+00-8.27224E+00-1.44261E+00 1.17417E+00-1.08269E-12-4.81448E-13
 -1      1683 1.41421E+01 3.82688E+00 1.80162E-02 8.70020E+00-1.00320E-12-9.80327E-13
 -1      1684 8.95148E+00-4.46398E-01-7.93753E-01 5.12778E+00-9.80105E-13-7.35745E-13
 -1      1685 2.66357E+01 6.96621E+00 6.93694E-01 1.26486E+01-8.19234E-13-1.01075E-12
 -1      1686 1.84500E+01 5.52451E+00-1.38163E-01 9.71567E+00-1.00520E-12-9.69225E-13
 -1      1687 4.14525E+01 6.14645E+00 1.27096E+00 1.22273E+01-5.63244E-13-7.20646E-13
 -1      1688 3.20230E+01 7.13401E+00 5.43347E-01 1.21836E+01-7.39520E-13-8.66862E-13
 -1      1689 5.36348E+01 4.45154E+00 1.78649E+00 7.52381E+00-2.48065E-13-7.78155E-13
 -1      1690 4.63027E+01 6.28866E+00 1.26443E+00 1.14047E+01-3.91825E-13-8.43325E-13
 -1      1691 5.76230E+01 3.61704E+00 1.86642E+00-1.07382E+00-3.03091E-14-5.79453E-13
 -1      1692 5.62159E+01 4.02559E+00 1.76252E+00 4.88216E+00-1.67200E-13-6.70575E-13
 -1      1693 5.12981E+01 5.27823E+00 1.52843E+00-9.16001E+00-3.01231E-13-4.91829E-14
 -1      1694 5.62881E+01 3.83053E+00 1.83620E+00-4.02786E+00-1.68643E-13-4.81726E-13
 -1      1695 3.84816E+01 7.44739E+00 9.77084E-01-1.32776E+01-6.60971E-13 7.65388E-13
 -1      1696 4.76498E+01 5.64261E+00 1.62491E+00-1.16263E+01-4.54609E-13 2.41474E-13
 -1      1697 2.38714E+01 7.18087E+00 2.37091E-01-1.16866E+01-1.23090E-12 1.06604E-12
 -1      1698 3.30849E+01 7.46589E+00 1.09098E+00-1.37548E+01-7.73492E-13 1.06937E-12
 -1      1699 1.23197E+01 2.12179E+00-5.42498E-01-6.83935E+00-1.28830E-12 1.20459E-12
 -1      1700 1.90733E+01 5.50929E+00 3.26132E-01-1.05943E+01-1.32028E-12 1.11955E-12
 -1      1701 4.02421E+00-5.44799E+00-1.27921E+00-2.10989E+00-1.26299E-12 7.38298E-13
 -1      1702 7.40289E+00 5.23928E-01-4.60558E-01-5.31062E+00-1.37224E-12 1.19305E-12
 -1      1703 6.98291E-01-1.36287E+01-1.73333E+00-1.64340E-01-6.27831E-13 5.30003E-13
 -1      1704 1.50841E+00-7.93943E+00-1.16745E+00-8.59674E-01-1.16196E-12 6.86257E-13
 -1      1705-6.26086E-01-1.82349E+01-1.93223E+00-8.54089E-01-2.31259E-13 8.65974E-14
 -1      1706-5.49660E-01-1.54322E+01-1.68949E+00 5.51477E-01-4.53415E-13 2.58848E-13
 -1      1707 2.46756E+01-3.26605E+00-2.37597E-01 5.80251E+00-1.97953E-13-7.92699E-14
 -1      1708 1.34744E+01-6.27934E+00-5.98307E-01 5.33450E+00-1.99618E-13 1.49658E-13
 -1      1709 2.00273E+01 2.33856E-02-1.60418E-03 2.64558E-02 1.65888E-13-5.26209E-14
 -1      1710 2.00646E+01 8.78616E-02-2.15200E-04 9.53941E-02-6.83146E-14-5.17950E-14
 -1      1711-5.13487E-01-1.18387E+01-1.35992E+00 8.96966E-01-1.72862E-13 5.32352E-14
 -1      1712 3.92786E+00-9.80094E+00-1.23440E+00 2.85345E+00 4.98490E-14-4.19595E-14
 -1      1713-1.61925E+00-1.22880E+01-1.34468E+00-1.05194E+00-2.44915E-13 3.73312E-13
 -1      1714 3.66244E+01 1.16420E+00 6.42032E-01 5.24557E+00 1.75582E-13-3.23963E-13
 -1      1715 4.72840E+01 4.86232E+00 1.50127E+00 3.46082E+00 2.15258E-13-5.79869E-13
 -1      1716 5.43970E+01 7.34233E+00 2.25278E+00 1.56503E+00 1.85518E-13-6.96221E-13
 -1      1717 5.40582E+01 7.50469E+00 2.22408E+00-1.10468E+00 4.08229E-13-8.86846E-13
 -1      1718 4.80252E+01 5.27934E+00 1.65837E+00-3.70302E+00 4.75758E-13-9.57900E-13
 -1      1719 3.77317E+01 1.95261E+00 8.06300E-01-5.81131E+00 6.31384E-13-9.85656E-13
 -1      1720 2.52839E+01-1.63780E+00-6.48325E-02-6.37144E+00 5.17475E-13-7.61724E-13
 -1      1721 1.38328E+01-5.47280E+00-7.62844E-01-5.24652E+00 5.65770E-13-5.57887E-13
 -1      1722 5.77000E+00-8.74769E+00-1.07952E+00-3.72775E+00 1.51879E-13-7.06761E-13
 -1      1723-3.40334E-01-1.16544E+01-1.29604E+00 2.51745E+00-5.82645E-13-2.73892E-13
 -1      1724 4.03601E+00-8.33383E+00-9.60137E-01 4.44894E+00-7.57727E-13-2.48308E-13
 -1      1725 1.19209E+01-4.05340E+00-3.96820E-01 6.71016E+00-5.65659E-13-4.72067E-13
 -1      1726 2.15906E+01-1.24393E-01 9.34983E-02 7.91794E+00-5.26024E-13-4.78173E-13
 -1      1727 3.18624E+01 3.45029E+00 6.44187E-01 7.66412E+00-5.55556E-13-5.33795E-13
 -1      1728 4.10570E+01 6.01595E+00 1.06187E+00 5.77559E+00-4.53027E-13-4.79172E-13
 -1      1729 4.79733E+01 7.53066E+00 1.50845E+00 3.03201E+00-2.38864E-13-6.25222E-13
 -1      1730 4.92252E+01 7.63604E+00 1.56293E+00-1.21380E+00-2.53242E-13-3.14831E-13
 -1      1731 4.48333E+01 6.99767E+00 1.36746E+00-5.38318E+00-5.37514E-13-2.35367E-13
 -1      1732 3.62903E+01 5.14832E+00 9.37766E-01-8.04114E+00-8.18345E-13 4.22440E-13
 -1      1733 2.56964E+01 1.58892E+00 2.95070E-01-8.17949E+00-9.39249E-13 6.47260E-13
 -1      1734 1.53465E+01-2.45100E+00-2.08155E-01-7.27106E+00-7.98916E-13 7.72826E-13
 -1      1735 6.14929E+00-6.97520E+00-8.27188E-01-5.08494E+00-7.09099E-13 7.59393E-13
 -1      1736 6.36388E-01-1.10056E+01-1.23600E+00-3.01566E+00-4.37650E-13 6.63081E-13
 -1      1737 2.28576E+01 1.98486E+00-2.35584E-02-2.72260E+00-2.52978E-13 9.86905E-13
 -1      1738-1.46626E+00-1.23876E+01-1.32922E+00 4.70753E-01-5.16330E-13-4.39815E-13
 -1      1739 1.98251E+01 3.71362E+00-3.54212E-02-2.15329E+00-3.25306E-13-3.50355E-13
 -1      1740 2.00574E+01 3.56265E+00-4.02234E-02-2.44549E+00-3.73913E-13-2.55268E-13
 -1      1741 2.03625E+01 3.18143E+00-4.57808E-02-2.58523E+00-3.78628E-13-1.22485E-13
 -1      1742 2.05823E+01 2.80967E+00-1.42518E-01-2.85351E+00-4.08486E-13 6.17076E-14
 -1      1743 2.04235E+01 2.69286E+00-4.14489E-03-2.22468E+00-3.93717E-13-1.67664E-13
 -1      1744 1.93558E+01 4.18902E+00-2.00870E-02-1.27081E+00-1.67794E-13-5.24691E-13
 -1      1745 1.94295E+01 4.14952E+00-1.69175E-02-1.49519E+00-2.10206E-13-5.02896E-13
 -1      1746 1.92595E+01 4.29489E+00-1.67531E-02-8.59807E-01-9.28910E-14-5.41771E-13
 -1      1747 1.93021E+01 4.27092E+00-1.42569E-02-1.07061E+00-1.29350E-13-5.38619E-13
 -1      1748 1.95280E+01 3.78333E+00-8.98106E-03-1.11985E+00-1.64933E-13-5.09270E-13
 -1      1749 1.92083E+01 4.35538E+00-1.47949E-02-4.66884E-01-1.33454E-14-5.46278E-13
 -1      1750 1.92301E+01 4.34251E+00-1.32998E-02-6.67214E-01-5.11016E-14-5.43962E-13
 -1      1751 1.94310E+01 3.90357E+00-9.14761E-03-7.33306E-01-7.51820E-14-5.16722E-13
 -1      1752 1.91890E+01 4.38100E+00-1.36702E-02-8.36587E-02 6.49084E-14-5.51561E-13
 -1      1753 1.91954E+01 4.37708E+00-1.32175E-02-2.79139E-01 3.57379E-14-5.56246E-13
 -1      1754 1.93809E+01 3.96807E+00-9.14425E-03-3.58361E-01 1.59273E-14-5.22001E-13
 -1      1755 1.91970E+01 4.37569E+00-1.31741E-02 2.98175E-01 1.33300E-13-5.50417E-13
 -1      1756 1.91895E+01 4.38016E+00-1.37562E-02 1.02529E-01 9.75205E-14-5.56728E-13
 -1      1757 1.93662E+01 3.98748E+00-9.13991E-03 1.05438E-02 9.03698E-14-5.42360E-13
 -1      1758 1.92341E+01 4.33845E+00-1.33330E-02 6.86988E-01 1.92011E-13-5.37527E-13
 -1      1759 1.92110E+01 4.35217E+00-1.49203E-02 4.86149E-01 1.66028E-13-5.46568E-13
 -1      1760 1.93836E+01 3.96473E+00-9.18569E-03 3.79656E-01 1.59125E-13-5.35627E-13
 -1      1761 1.93074E+01 4.26497E+00-1.44134E-02 1.08472E+00 2.44693E-13-4.86316E-13
 -1      1762 1.92642E+01 4.28948E+00-1.69771E-02 8.76715E-01 2.17276E-13-5.18611E-13
 -1      1763 1.94362E+01 3.89718E+00-9.19098E-03 7.51876E-01 2.23776E-13-5.06317E-13
 -1      1764 1.94386E+01 4.13767E+00-1.74076E-02 1.51481E+00 3.28580E-13-3.81709E-13
 -1      1765 1.93624E+01 4.18030E+00-2.05044E-02 1.28524E+00 2.78555E-13-4.33990E-13
 -1      1766 1.95356E+01 3.77318E+00-9.24309E-03 1.13570E+00 2.87779E-13-4.38035E-13
 -1      1767 1.96673E+01 3.92106E+00-2.51975E-02 1.97994E+00 4.02499E-13-2.54401E-13
 -1      1768 1.95347E+01 3.99788E+00-2.69009E-02 1.72259E+00 3.59202E-13-3.29195E-13
 -1      1769 1.97085E+01 3.56602E+00-8.70041E-03 1.53551E+00 3.63019E-13-3.20037E-13
 -1      1770 2.00753E+01 3.52270E+00-4.51866E-02 2.47238E+00 4.52102E-13-2.56774E-14
 -1      1771 1.98356E+01 3.68319E+00-3.97181E-02 2.18329E+00 4.20586E-13-1.68910E-13
 -1      1772 2.00044E+01 3.22286E+00-5.26968E-03 1.93489E+00 4.30751E-13-1.82096E-13
 -1      1773 2.09200E+01 2.68174E+00-5.76486E-02 2.85804E+00 4.26161E-13 4.16500E-13
 -1      1774 2.04129E+01 3.09687E+00-5.04227E-02 2.61629E+00 4.31589E-13 1.52940E-13
 -1      1775 2.05169E+01 2.60989E+00 3.18685E-03 2.24487E+00 4.57119E-13 7.46729E-14
 -1      1776 2.17298E+01 1.21297E+00-1.22089E-01 2.33007E+00 3.62023E-13 9.40789E-13
 -1      1777 2.12736E+01 2.26299E+00 1.19613E-04 2.74069E+00 3.98119E-13 5.96662E-13
 -1      1778 2.09365E+01 1.68500E+00-2.29615E-02 2.14049E+00 4.49713E-13 4.14176E-13
 -1      1779 2.09511E+01 7.78670E-01-6.24527E-02 1.52441E+00 3.62446E-13 8.26077E-13
 -1      1780 2.17958E+01 2.45817E+00 9.09225E-02-3.04839E+00-3.52111E-13 4.01637E-13
 -1      1781 2.01001E+01 2.97935E-01-8.91701E-03 6.57273E-01 2.81965E-13 6.44358E-13
 -1      1782 2.06523E+01 4.40404E-01-1.24655E-02 1.03430E+00 3.01814E-13 7.49417E-13
 -1      1783 2.07437E+01 8.45117E-01 2.25189E-03 1.41541E+00 3.71911E-13 5.14864E-13
 -1      1784-2.30849E-01-8.06540E+00-4.69199E-01 1.18371E+00-2.84855E-13-1.58984E-13
 -1      1785 2.81320E-01-7.51019E+00-3.66188E-01-5.78853E-01-3.04534E-13-4.71956E-13
 -1      1786 2.15063E+01 1.74228E+00 7.94457E-02-2.33738E+00-3.81938E-13 2.56378E-13
 -1      1787 2.05198E+01 5.00726E-01 3.23930E-02-9.21901E-01-3.26968E-13 1.93986E-13
 -1      1788 2.00880E+01 3.52114E-01 7.52685E-03-6.29912E-01-2.93567E-13 1.17129E-13
 -1      1789 1.98937E+01 2.57323E-01 2.73893E-02-3.91492E-01-2.57063E-13 1.18941E-13
 -1      1790 1.97026E+01 1.78000E-01 1.03725E-02-2.53695E-01-2.10750E-13 5.17355E-14
 -1      1791 2.01985E+01 4.83788E-01-5.87034E-03-7.22809E-01-3.12242E-13-6.28881E-15
 -1      1792 1.95806E+01 1.32737E-01 1.66451E-02-1.20163E-01-1.58289E-13 5.45510E-14
 -1      1793 1.95024E+01 9.31305E-02 6.97017E-03-4.93459E-02-1.02393E-13 7.05165E-15
 -1      1794 1.98724E+01 2.43892E-01-5.81284E-03-2.95961E-01-2.12421E-13-8.22085E-15
 -1      1795 1.94376E+01 6.84875E-02 8.69517E-03 2.42600E-02-7.86580E-14-2.20540E-14
 -1      1796 1.94231E+01 4.68401E-02 4.12657E-03 6.04952E-02-7.15465E-14-4.16752E-14
 -1      1797 1.96897E+01 1.25359E-01-4.64051E-03-5.90016E-02-1.36487E-13-5.93117E-14
 -1      1798 1.93972E+01 3.25558E-02 4.24843E-03 9.93401E-02-7.26714E-14-5.89290E-14
 -1      1799 1.94171E+01 2.01942E-02 2.45957E-03 1.16241E-01-5.32360E-14-8.48266E-14
 -1      1800 1.96034E+01 6.11580E-02-3.46984E-03 7.08250E-02-8.82306E-14-1.27388E-13
 -1      1801 1.94156E+01 1.16420E-02 1.87225E-03 1.34414E-01-5.36498E-14-7.74263E-14
 -1      1802 1.94530E+01 4.58257E-03 1.49185E-03 1.40076E-01-4.96969E-14-7.92571E-14
 -1      1803 1.95796E+01 2.44947E-02-2.35722E-03 1.37676E-01-6.29438E-14-1.22390E-13
 -1      1804 1.94660E+01-4.85061E-04 5.79787E-04 1.45896E-01-5.26446E-14-6.70874E-14
 -1      1805 1.95109E+01-4.29247E-03 9.02004E-04 1.45081E-01-4.34557E-14-7.18355E-14
 -1      1806 1.95939E+01 3.30580E-03-1.46915E-03 1.66778E-01-5.58120E-14-9.73266E-14
 -1      1807 1.95317E+01-7.10648E-03-1.30068E-04 1.43749E-01-6.70692E-14-7.44377E-14
 -1      1808 1.95782E+01-8.82673E-03 5.37622E-04 1.39457E-01-5.82904E-14-5.93321E-14
 -1      1809 1.96299E+01-8.46388E-03-8.38168E-04 1.73435E-01-7.24860E-14-1.44788E-13
 -1      1810 1.96026E+01-1.01313E-02-5.01861E-04 1.34363E-01-9.65986E-14-9.37016E-14
 -1      1811 1.96476E+01-1.04790E-02 3.25390E-04 1.28565E-01-8.92507E-14-1.49799E-13
 -1      1812 1.96767E+01-1.41883E-02-4.24018E-04 1.67418E-01-1.07978E-13-1.62119E-13
 -1      1813 1.96730E+01-1.07565E-02-6.65071E-04 1.21977E-01-7.96878E-14-1.77403E-13
 -1      1814 1.97150E+01-1.01935E-02 2.22910E-04 1.15991E-01-5.22065E-14-1.95192E-13
 -1      1815 1.97279E+01-1.59174E-02-1.73266E-04 1.55182E-01-1.18917E-13-1.86985E-13
 -1      1816 1.97402E+01-9.77071E-03-6.96520E-04 1.09439E-01-5.95515E-14-2.44083E-13
 -1      1817 1.97787E+01-8.60704E-03 2.01104E-04 1.04150E-01-7.44963E-14-2.90142E-13
 -1      1818 1.97795E+01-1.49747E-02-4.06105E-05 1.41071E-01-9.11528E-14-2.39876E-13
 -1      1819 1.98031E+01-7.71449E-03-6.45819E-04 9.86644E-02-6.79480E-14-3.19965E-13
 -1      1820 1.98387E+01-6.16786E-03 2.37372E-04 9.46578E-02-8.02050E-14-3.24486E-13
 -1      1821 1.98298E+01-1.22535E-02 8.33936E-06 1.28018E-01-9.76420E-14-3.06286E-13
 -1      1822 1.98624E+01-4.97886E-03-5.46757E-04 9.09078E-02-1.02797E-13-3.14972E-13
 -1      1823 1.98959E+01-3.21740E-03 3.11628E-04 8.85456E-02-1.05976E-13-2.87378E-13
 -1      1824 1.98785E+01-8.38924E-03-7.97149E-07 1.17976E-01-9.82797E-14-3.03790E-13
 -1      1825 1.99194E+01-1.87918E-03-4.23370E-04 8.69224E-02-1.28099E-13-3.01855E-13
 -1      1826 1.99520E+01-5.79910E-05 4.02867E-04 8.63788E-02-9.45549E-14-3.42071E-13
 -1      1827 1.99261E+01-3.87968E-03-4.84354E-05 1.12169E-01-1.46120E-13-3.10635E-13
 -1      1828 1.99759E+01 1.27884E-03-2.93758E-04 8.70200E-02-1.07591E-13-3.52232E-13
 -1      1829 2.00089E+01 2.98162E-03 4.85674E-04 8.82773E-02-1.08422E-13-3.64290E-13
 -1      1830 1.99738E+01 8.13020E-04-1.18595E-04 1.11216E-01-1.29092E-13-3.10504E-13
 -1      1831 2.00340E+01 4.13288E-03-1.72781E-04 9.10427E-02-1.05070E-13-4.10801E-13
 -1      1832 2.00686E+01 5.47859E-03 5.26744E-04 9.38475E-02-5.85074E-14-4.48075E-13
 -1      1833 2.00232E+01 5.16300E-03-1.96794E-04 1.15136E-01-1.46901E-13-3.18858E-13
 -1      1834 2.00957E+01 6.19560E-03-7.40102E-05 9.82450E-02 3.60607E-14-5.24026E-13
 -1      1835 2.01326E+01 6.84771E-03 4.81919E-04 1.02025E-01 2.84890E-14-4.90700E-13
 -1      1836 2.00757E+01 8.47898E-03-2.68145E-04 1.23244E-01-2.97438E-14-3.92785E-13
 -1      1837 2.01622E+01 6.78896E-03-1.10217E-05 1.07087E-01-2.93802E-14-3.99814E-13
 -1      1838 2.02016E+01 6.28239E-03 2.94869E-04 1.10832E-01 1.77316E-14-3.96637E-13
 -1      1839 2.01327E+01 9.80557E-03-3.15611E-04 1.33933E-01 1.89929E-14-4.18461E-13
 -1      1840 2.02339E+01 4.99661E-03 2.02430E-06 1.14958E-01 7.07234E-14-4.20475E-13
 -1      1841 2.02748E+01 2.72853E-03-1.00552E-04 1.17080E-01 9.51141E-14-4.19680E-13
 -1      1842 2.01950E+01 7.84740E-03-3.18379E-04 1.44365E-01 1.48997E-14-3.61394E-13
 -1      1843 2.03094E+01-3.33906E-04-4.93700E-05 1.17870E-01 1.22655E-13-3.95968E-13
 -1      1844 2.03493E+01-5.06559E-03-7.71184E-04 1.16084E-01 8.67309E-14-3.64625E-13
 -1      1845 2.02621E+01 9.58459E-04-2.50482E-04 1.50117E-01 1.44202E-13-3.19652E-13
 -1      1846 2.03848E+01-1.04850E-02-1.78940E-04 1.10231E-01-2.74195E-14-2.45798E-13
 -1      1847 2.04192E+01-1.83552E-02-1.76477E-03 1.01528E-01-8.52172E-15-2.06097E-13
 -1      1848 2.03321E+01-1.27292E-02-7.99152E-05 1.44877E-01 9.89305E-14-2.96836E-13
 -1      1849 2.04528E+01-2.65791E-02-3.97891E-04 8.48837E-02-8.26292E-15-1.76229E-13
 -1      1850 2.04749E+01-3.79706E-02-3.07614E-03 6.57096E-02 4.64964E-14-1.45351E-13
 -1      1851 2.04008E+01-3.49268E-02 2.30952E-04 1.20389E-01 3.53280E-14-1.27905E-13
 -1      1852 2.05024E+01-4.90134E-02-7.12695E-04 3.37008E-02 9.48319E-14-1.39434E-13
 -1      1853 2.05027E+01-6.35745E-02-4.59975E-03 5.22692E-04 5.96819E-14-1.26656E-13
 -1      1854 2.04610E+01-6.64295E-02 7.21589E-04 6.69679E-02 1.03144E-13-1.71928E-13
 -1      1855 2.05178E+01-7.65649E-02-1.12183E-03-5.08614E-02-9.17886E-15-2.10756E-13
 -1      1856 2.04855E+01-9.26145E-02-6.07881E-03-1.00434E-01 1.96648E-14-2.44962E-13
 -1      1857 2.05021E+01-1.05889E-01 1.42151E-03-2.49887E-02 1.35396E-14-2.65059E-13
 -1      1858 2.04800E+01-1.05265E-01-1.60764E-03-1.72883E-01-1.54195E-14-2.89958E-13
 -1      1859 2.04039E+01-1.19226E-01-7.07945E-03-2.38354E-01-9.91577E-14-3.80886E-13
 -1      1860 2.05096E+01-1.48225E-01 2.32323E-03-1.62012E-01-9.19280E-14-2.84811E-13
 -1      1861 2.03684E+01-1.27479E-01-2.11737E-03-3.28737E-01-1.05187E-13-3.25083E-13
 -1      1862 2.02403E+01-1.33765E-01-7.03543E-03-4.04604E-01-9.17990E-14-3.60619E-13
 -1      1863 2.04662E+01-1.83224E-01 3.33065E-03-3.42884E-01-9.41315E-14-2.44294E-13
 -1      1864 2.01661E+01-1.32088E-01-2.51513E-03-5.02303E-01-7.51005E-15-3.52348E-13
 -1      1865 1.99850E+01-1.24092E-01-5.42192E-03-5.76386E-01 8.84349E-14-2.60510E-13
 -1      1866 2.03540E+01-1.95537E-01 4.19255E-03-5.52848E-01-6.75458E-14-2.43900E-13
 -1      1867 1.98676E+01-1.07006E-01-2.55853E-03-6.61895E-01-1.99005E-14-2.36205E-13
 -1      1868 1.96433E+01-7.96709E-02-2.07523E-03-7.15578E-01-7.24251E-14-2.49097E-13
 -1      1869 2.01605E+01-1.67681E-01 4.46080E-03-7.58855E-01 1.30939E-14-1.02345E-13
 -1      1870 1.94878E+01-4.46717E-02-1.89083E-03-7.62496E-01-4.32072E-14-1.86988E-13
 -1      1871 1.92438E+01 1.69562E-03 2.49112E-03-7.74447E-01-8.40351E-14-2.71595E-13
 -1      1872 1.98865E+01-8.72514E-02 3.52669E-03-9.09758E-01-2.08252E-14-1.17355E-13
 -1      1873 1.90691E+01 5.07005E-02-1.28877E-04-7.56669E-01-1.25818E-13-1.54213E-13
 -1      1874 1.88410E+01 1.07240E-01 7.01606E-03-7.10500E-01-1.12538E-13-5.43654E-14
 -1      1875 1.95559E+01 4.31080E-02 9.66073E-04-9.46080E-01-6.32429E-14 5.25053E-14
 -1      1876 1.86803E+01 1.58303E-01 2.81679E-03-6.13939E-01-8.61659E-14-1.71161E-14
 -1      1877 1.85084E+01 2.08240E-01 9.91166E-03-5.07517E-01 1.10156E-13-3.25486E-14
 -1      1878 1.92203E+01 1.98182E-01-2.94951E-03-8.21133E-01-8.79507E-14 2.63905E-13
 -1      1879 1.84011E+01 2.44452E-01 6.42427E-03-3.41280E-01 1.26772E-13-2.37263E-13
 -1      1880 1.83197E+01 2.69554E-01 1.01458E-02-1.92289E-01 6.85493E-14-2.26104E-13
 -1      1881 1.89521E+01 3.32969E-01-6.94667E-03-5.27611E-01 2.09641E-14 4.94093E-14
 -1      1882 1.82960E+01 2.76971E-01 9.44033E-03 9.02449E-03-5.34486E-14-3.20194E-13
 -1      1883 1.83218E+01 2.67142E-01 7.89186E-03 1.66699E-01-1.39244E-13-4.13967E-13
 -1      1884 1.88209E+01 4.00195E-01-9.09116E-03-1.14337E-01-9.73254E-14-2.27944E-13
 -1      1885 1.83880E+01 2.42729E-01 1.04347E-02 3.54298E-01-1.05688E-14-4.78949E-13
 -1      1886 1.85145E+01 2.01867E-01 4.34476E-03 4.83242E-01 4.98004E-14-2.55827E-13
 -1      1887 1.88634E+01 3.73943E-01-8.22699E-03 3.23423E-01-8.34055E-14-3.39927E-13
 -1      1888 1.86500E+01 1.55201E-01 8.67929E-03 6.13832E-01 7.71093E-14-2.46500E-13
 -1      1889 1.88494E+01 9.88459E-02 9.20111E-04 6.87747E-01 1.18089E-13-1.68944E-13
 -1      1890 1.90653E+01 2.64133E-01-4.85440E-03 6.80242E-01 1.44770E-13-1.66876E-13
 -1      1891 1.90168E+01 4.65714E-02 4.69766E-03 7.39830E-01 1.95074E-13-1.30724E-13
 -1      1892 1.92497E+01-6.70367E-03-1.46334E-03 7.51839E-01 2.10653E-13-6.68714E-14
 -1      1893 1.93682E+01 1.10898E-01-6.75264E-04 8.82684E-01 1.72138E-13-8.78850E-14
 -1      1894 1.94111E+01-4.95554E-02-6.32929E-05 7.29750E-01 2.83927E-13-1.39519E-13
 -1      1895 1.96383E+01-8.66849E-02-2.62622E-03 6.90732E-01 2.45131E-13-8.29523E-15
 -1      1896 1.96971E+01-3.68177E-02 2.63713E-03 9.12659E-01 2.49182E-13-5.49870E-14
 -1      1897 1.97674E+01-1.12321E-01-4.10533E-03 6.16727E-01 1.53292E-13 1.37361E-13
 -1      1898 1.99589E+01-1.29121E-01-2.86244E-03 5.47041E-01-5.15625E-15 2.55485E-13
 -1      1899 1.99882E+01-1.43124E-01 4.31574E-03 8.01818E-01 2.84697E-13-5.20937E-15
 -1      1900 2.00446E+01-1.37328E-01-6.53605E-03 4.48961E-01-2.98859E-13 2.70627E-13
 -1      1901 2.01844E+01-1.36738E-01-2.54720E-03 3.69534E-01-3.67782E-13 2.57093E-13
 -1      1902 2.02044E+01-1.94973E-01 4.52304E-03 6.07475E-01-1.86387E-13 3.58406E-13
 -1      1903 2.02275E+01-1.31948E-01-7.22878E-03 2.71134E-01-3.42520E-13 2.05596E-13
 -1      1904 2.03123E+01-1.20145E-01-1.96975E-03 1.97809E-01-7.17525E-14 1.56107E-13
 -1      1905 2.03352E+01-1.98678E-01 3.84213E-03 3.87553E-01-3.46144E-13 3.94857E-13
 -1      1906 2.03203E+01-1.08014E-01-6.58639E-03 1.14485E-01 2.40110E-13 2.50157E-14
 -1      1907 2.03563E+01-9.10849E-02-1.29352E-03 5.63645E-02 2.62654E-13 1.36400E-13
 -1      1908 2.03886E+01-1.70118E-01 2.81314E-03 1.85322E-01-1.83618E-14 3.33927E-13
 -1      1909 2.03394E+01-7.62755E-02-5.18976E-03-4.67929E-03 2.79609E-13 2.39414E-13
 -1      1910 2.03380E+01-5.85239E-02-5.88821E-04-4.41748E-02 3.74762E-13 4.32152E-13
 -1      1911 2.03819E+01-1.25744E-01 1.77448E-03 2.53587E-02 3.29696E-13 2.46589E-13
 -1      1912 2.03057E+01-4.39110E-02-3.55831E-03-8.15740E-02 2.02566E-13 2.97255E-13
 -1      1913 2.02803E+01-2.75809E-02 1.09814E-04-1.02631E-01 2.25858E-13 2.16832E-13
 -1      1914 2.03345E+01-7.76494E-02 8.88068E-04-8.33088E-02 2.66902E-13 4.04477E-13
 -1      1915 2.02409E+01-1.44571E-02-2.06052E-03-1.18186E-01 2.32172E-13 1.00439E-13
 -1      1916 2.02042E+01-3.77504E-04 7.16241E-04-1.22695E-01 2.54817E-13 2.31241E-13
 -1      1917 2.02641E+01-3.25395E-02 1.95319E-04-1.41529E-01 1.58687E-13 1.52789E-13
 -1      1918 2.01640E+01 1.07597E-02-9.18258E-04-1.19687E-01 2.15813E-13 1.01432E-13
 -1      1919 2.01269E+01 2.23423E-02 1.12634E-03-1.10345E-01 1.60143E-13 1.48722E-13
 -1      1920 2.01858E+01 6.71909E-03-2.57808E-04-1.54966E-01 1.46182E-13 2.51927E-14
 -1      1921 2.00936E+01 2.89714E-02-1.89859E-04-9.31721E-02 1.53528E-13 3.82601E-14
 -1      1922 2.00639E+01 3.62822E-02 1.43616E-03-7.47084E-02 8.76238E-14 2.68868E-14
 -1      1923 2.00566E+01 5.15372E-02-3.00678E-04-8.89065E-02-3.79072E-14-2.33414E-13
 -1      1924 2.01142E+01 3.81549E-02-3.46710E-05-1.32700E-01 9.00014E-14 4.73661E-14
 -1      1925 1.96173E+01 1.42038E-01 7.88271E-03 2.59650E-01 2.28663E-13 5.16653E-13
 -1      1926 1.98895E+01 2.04092E-01 1.64361E-02 4.32641E-01 2.39322E-13 6.04020E-13
 -1      1927 2.01013E+01 3.50550E-01-1.52835E-03 6.55252E-01 2.94806E-13 4.16478E-13
 -1      1928 1.93749E+01 7.19492E-02 6.94859E-03 5.66342E-02 1.38981E-13 3.85081E-13
 -1      1929 1.94899E+01 1.01819E-01 1.41988E-02 1.45163E-01 1.80617E-13 4.69120E-13
 -1      1930 1.97085E+01 1.65206E-01-1.94708E-03 2.56473E-01 2.28384E-13 3.39502E-13
 -1      1931 1.92844E+01 3.62011E-02 4.41995E-03-4.89683E-02 1.07333E-13 2.86270E-13
 -1      1932 1.93146E+01 5.20257E-02 8.34323E-03-1.69942E-03 1.02170E-13 3.24468E-13
 -1      1933 1.95083E+01 8.07575E-02-2.83145E-03 4.43795E-02 1.62304E-13 2.02202E-13
 -1      1934 1.92828E+01 1.62978E-02 2.82283E-03-1.01807E-01 7.33389E-14 2.29421E-13
 -1      1935 1.92677E+01 2.52444E-02 4.40971E-03-7.68957E-02 8.27548E-14 2.60138E-13
 -1      1936 1.94294E+01 3.74370E-02-2.89640E-03-6.77599E-02 1.07085E-13 1.44491E-13
 -1      1937 1.93338E+01 4.23879E-03 1.94457E-03-1.24897E-01 8.17550E-14 2.30951E-13
 -1      1938 1.92931E+01 9.55259E-03 2.17186E-03-1.13018E-01 6.49824E-14 2.40347E-13
 -1      1939 1.94240E+01 1.39275E-02-2.23081E-03-1.24178E-01 7.59924E-14 1.00730E-13
 -1      1940 1.94070E+01-2.04898E-03 1.44003E-03-1.28887E-01 1.03674E-13 1.67123E-13
 -1      1941 1.93578E+01 5.93812E-04 9.62253E-04-1.25398E-01 7.84966E-14 2.08714E-13
 -1      1942 1.94611E+01-2.71149E-05-1.69561E-03-1.47390E-01 9.93770E-14 1.15819E-13
 -1      1943 1.94896E+01-5.45219E-03 1.08914E-03-1.23375E-01 9.37765E-14 9.91088E-14
 -1      1944 1.94377E+01-4.27276E-03 2.95190E-04-1.24339E-01 1.17090E-13 1.53005E-13
 -1      1945 1.95188E+01-7.07467E-03-1.17822E-03-1.50730E-01 1.35599E-13 4.92767E-14
 -1      1946 1.95728E+01-6.86748E-03 8.31961E-04-1.13009E-01 1.00220E-13 3.98221E-14
 -1      1947 1.95225E+01-6.60477E-03-5.75047E-05-1.16316E-01 8.77688E-14 8.52814E-14
 -1      1948 1.95854E+01-1.04328E-02-8.04637E-04-1.43667E-01 8.90565E-14 2.94267E-14
 -1      1949 1.96523E+01-6.91511E-03 6.53856E-04-1.00995E-01 3.21456E-14-3.50334E-14
 -1      1950 1.96055E+01-7.24582E-03-2.30769E-04-1.05230E-01 4.63004E-14 1.31422E-14
 -1      1951 1.96538E+01-1.13343E-02-5.48201E-04-1.31631E-01 8.75957E-14 5.66893E-15
 -1      1952 1.97262E+01-5.99165E-03 5.43371E-04-8.95680E-02 1.02282E-13-7.68174E-14
 -1      1953 1.96836E+01-6.71167E-03-2.85094E-04-9.37271E-02 7.16374E-14-2.82294E-14
 -1      1954 1.97202E+01-1.05535E-02-3.83370E-04-1.18287E-01 7.32997E-14-6.41129E-14
 -1      1955 1.97948E+01-4.30953E-03 5.17681E-04-8.03780E-02 1.02943E-13-4.35072E-15
 -1      1956 1.97559E+01-5.30400E-03-2.51242E-04-8.36889E-02 6.06476E-14-5.42306E-14
 -1      1957 1.97832E+01-8.56562E-03-2.91684E-04-1.06229E-01 6.49576E-14-2.82975E-14
 -1      1958 1.98629E+01-1.85434E-03 5.32951E-04-7.45108E-02 1.31494E-14-5.45553E-15
 -1      1959 1.98249E+01-3.12158E-03-1.56768E-04-7.64017E-02 1.11636E-13 5.07808E-14
 -1      1960 1.98447E+01-5.54892E-03-2.87152E-04-9.72637E-02 7.07839E-14 5.92514E-14
 -1      1961 1.99272E+01 1.19244E-03 6.24699E-04-7.38363E-02 8.20015E-15-1.29019E-13
 -1      1962 1.98917E+01-2.44746E-04 2.06831E-06-7.35672E-02-8.21419E-15-1.20332E-13
 -1      1963 1.99050E+01-1.50794E-03-2.73322E-04-9.34418E-02 6.30919E-14-3.33290E-14
 -1      1964 1.99953E+01 5.10391E-03 8.19803E-04-7.93663E-02 1.90614E-15-2.19327E-13
 -1      1965 1.99579E+01 3.37608E-03 2.06284E-04-7.63478E-02 2.30238E-14-1.65053E-13
 -1      1966 1.99656E+01 3.46996E-03-3.33097E-04-9.64375E-02 2.75499E-14-1.17918E-13
 -1      1967 2.00729E+01 1.02009E-02 1.13744E-03-9.28812E-02 3.28992E-14-2.20403E-13
 -1      1968 2.00303E+01 8.05877E-03 4.76036E-04-8.62238E-02-1.86958E-14-2.21680E-13
 -1      1969 2.00319E+01 9.82269E-03-4.41403E-04-1.08018E-01-1.75863E-14-1.82671E-13
 -1      1970 2.01673E+01 1.70181E-02 1.62562E-03-1.16882E-01 8.59508E-14-1.73561E-13
 -1      1971 2.01151E+01 1.42473E-02 8.26153E-04-1.05338E-01 5.47140E-14-2.04024E-13
 -1      1972 2.01095E+01 1.81485E-02-5.98298E-04-1.30774E-01 4.29056E-14-2.00511E-13
 -1      1973 2.02883E+01 2.63643E-02 2.35019E-03-1.54997E-01 7.34336E-14-1.10097E-13
 -1      1974 2.02206E+01 2.26431E-02 1.28312E-03-1.36745E-01 1.09398E-13-1.20805E-13
 -1      1975 2.02050E+01 2.93774E-02-8.10544E-04-1.68336E-01 6.54800E-14-3.90520E-14
 -1      1976 2.04487E+01 3.94110E-02 3.44314E-03-2.12548E-01-1.14923E-13-9.89047E-14
 -1      1977 2.03577E+01 3.43686E-02 1.91691E-03-1.84875E-01-2.43705E-14-1.37884E-13
 -1      1978 2.03274E+01 4.48493E-02-1.11336E-03-2.25904E-01-8.71612E-15-3.21590E-14
 -1      1979 2.06783E+01 5.90458E-02 4.98226E-03-3.02055E-01-3.86635E-14-1.38290E-13
 -1      1980 2.05456E+01 5.12767E-02 2.69469E-03-2.58404E-01-1.15452E-13-9.11378E-14
 -1      1981 2.04929E+01 6.73177E-02-1.50156E-03-3.13514E-01-1.07921E-13-5.62737E-14
 -1      1982 2.09797E+01 8.56037E-02 7.09888E-03-4.26537E-01 1.31219E-13-1.69857E-13
 -1      1983 2.08025E+01 7.53038E-02 3.73743E-03-3.65696E-01 4.50130E-14-1.40164E-13
 -1      1984 2.07138E+01 9.92922E-02-1.94786E-03-4.41375E-01 6.23013E-14-1.12103E-13
 -1      1985 2.13916E+01 1.22259E-01 9.71297E-03-6.03817E-01 6.92727E-14-2.73500E-13
 -1      1986 2.11446E+01 1.08076E-01 4.84447E-03-5.16086E-01 1.77380E-13-1.80083E-13
 -1      1987 2.10023E+01 1.43200E-01-2.51800E-03-6.19627E-01 1.90475E-13-1.86342E-13
 -1      1988 2.19517E+01 1.70278E-01 1.24973E-02-8.51318E-01-1.18067E-13-3.42431E-13
 -1      1989 2.16095E+01 1.52294E-01 5.93209E-03-7.27151E-01-6.35958E-14-3.93465E-13
 -1      1990 2.13848E+01 2.02266E-01-3.43473E-03-8.68682E-01 2.98138E-14-2.44531E-13
 -1      1991 2.27021E+01 2.26072E-01 1.43773E-02-1.18470E+00-4.37411E-15-4.20362E-13
 -1      1992 2.22357E+01 2.07077E-01 6.46207E-03-1.01484E+00-6.49003E-14-4.10397E-13
 -1      1993 2.18868E+01 2.75690E-01-4.97173E-03-1.20706E+00-5.04848E-14-3.39541E-13
 -1      1994 2.36824E+01 2.71932E-01 1.31083E-02-1.60430E+00-8.49971E-14-3.26418E-13
 -1      1995 2.30660E+01 2.62429E-01 5.61492E-03-1.38667E+00-1.62492E-14-3.76354E-13
 -1      1996 2.25353E+01 3.50535E-01-7.64409E-03-1.64448E+00-2.39106E-14-2.93428E-13
 -1      1997 2.49128E+01 2.58628E-01 5.39150E-03-2.06329E+00-1.02252E-13-2.56916E-13
 -1      1998 2.41418E+01 2.86335E-01 3.32783E-03-1.81831E+00-7.60494E-14-3.11855E-13
 -1      1999 2.33583E+01 3.82462E-01-1.20891E-02-2.15825E+00-7.70547E-14-2.38389E-13
 -1      2000 2.64521E+01 6.03756E-02-8.09236E-03-2.40031E+00-1.84992E-13-2.85074E-13
 -1      2001 2.55249E+01 1.89821E-01 7.35858E-04-2.21594E+00-9.67260E-14-3.19942E-13
 -1      2002 2.44180E+01 2.63372E-01-1.70781E-02-2.65304E+00-7.34240E-14-3.56062E-13
 -1      2003 2.80548E+01-4.70021E-01-2.05443E-02-2.19261E+00-2.22032E-13-1.65219E-13
 -1      2004 2.71996E+01-1.82514E-01 4.73607E-03-2.29384E+00-2.53467E-13-2.26655E-13
 -1      2005 2.57608E+01-2.21499E-01-1.85794E-02-2.83700E+00-2.71042E-13-3.35036E-13
 -1      2006 2.96272E+01-1.36330E+00-1.46291E-02-8.72343E-01 2.32002E-14-1.70919E-13
 -1      2007 2.90331E+01-9.58862E-01 1.94417E-02-1.57230E+00-1.42900E-13-1.76362E-13
 -1      2008 2.74570E+01-1.23924E+00-1.36340E-02-2.19797E+00-1.39382E-13-2.77128E-13
 -1      2009 3.08581E+01-1.99457E+00-1.60890E-02 1.81399E+00 6.46696E-14 1.45148E-13
 -1      2010 3.07485E+01-1.88555E+00 6.47582E-03 3.87319E-01 3.86566E-14-1.83152E-14
 -1      2011 2.95516E+01-2.47039E+00-2.26727E-02-1.76731E-01-5.31103E-14-1.30701E-13
 -1      2012 3.10440E+01-9.96194E-01-9.27524E-02 4.28226E+00-3.87607E-14-4.42632E-14
 -1      2013 3.15984E+01-1.73820E+00-8.17416E-02 3.03485E+00-5.90292E-14 1.01554E-13
 -1      2014 3.16467E+01-2.48943E+00-4.22782E-02 2.78754E+00-2.98025E-15-4.48738E-14
 -1      2015 3.03842E+01 1.92801E+00-2.51061E-01 3.93134E+00 2.38476E-13-8.79713E-14
 -1      2016 3.13894E+01 5.29607E-01-1.65416E-01 4.19018E+00 1.31117E-13-9.50628E-14
 -1      2017 3.30791E+01 1.11853E-01-9.94631E-02 4.40226E+00 1.94289E-13-1.42913E-13
 -1      2018 3.02125E+01 3.37108E+00-3.09046E-01-7.85640E-01 3.02369E-13-1.84158E-14
 -1      2019 3.05224E+01 3.19409E+00-2.14489E-01 1.53805E+00 1.98841E-13-2.68292E-14
 -1      2020 3.37479E+01 4.07741E+00-9.68385E-02 1.95814E+00 1.90847E-13-2.84009E-13
 -1      2021 3.10844E+01 9.43376E-01-2.23421E-01-4.45839E+00 3.30375E-13-1.52611E-13
 -1      2022 3.02895E+01 2.29116E+00-2.25697E-01-2.79126E+00 4.34985E-13 5.46264E-14
 -1      2023 3.37363E+01 3.71902E+00-6.19257E-02-2.73005E+00 3.88911E-13-1.68837E-13
 -1      2024 3.19522E+01-1.34605E+00 9.45063E-02-3.97283E+00-1.82861E-13-3.24683E-13
 -1      2025 3.07741E+01-6.05970E-01-1.68005E-01-4.08982E+00 4.85723E-14-3.11964E-13
 -1      2026 3.28189E+01-3.05162E-01-1.67499E-01-4.33676E+00 1.90181E-13-9.07330E-14
 -1      2027 3.11792E+01-1.71541E+00 1.85032E-01-9.08609E-01-1.27215E-13 3.32078E-14
 -1      2028 3.06432E+01-2.02737E+00-9.24168E-02-2.06926E+00-2.15883E-13-9.22283E-14
 -1      2029 3.12027E+01-2.94537E+00-2.56408E-01-2.20812E+00-2.86222E-13 8.16638E-14
 -1      2030 2.93647E+01-9.52995E-01 9.15123E-02 1.46569E+00-9.16888E-14 1.32699E-13
 -1      2031 2.97366E+01-1.48306E+00-1.99415E-02 5.05625E-01-1.05291E-13 2.19885E-14
 -1      2032 2.89036E+01-2.57856E+00-1.71849E-01 7.72381E-01-1.32040E-13 8.35122E-14
 -1      2033 2.74106E+01-2.33283E-01 5.83545E-03 2.38860E+00 4.44124E-14-1.42868E-13
 -1      2034 2.82929E+01-5.41088E-01 8.03238E-03 1.97262E+00-2.36616E-15 8.84570E-14
 -1      2035 2.69157E+01-1.14119E+00-7.24413E-02 2.47970E+00-2.32418E-14 4.77136E-15
 -1      2036 2.56692E+01 1.29566E-01-2.84429E-02 2.37802E+00 2.56074E-13 5.79328E-14
 -1      2037 2.66813E+01 3.18766E-02 1.28517E-02 2.33945E+00 1.15929E-13-3.01946E-14
 -1      2038 2.53515E+01-1.21216E-01-1.37770E-02 2.91146E+00 1.03845E-13-6.37216E-14
 -1      2039 2.42156E+01 2.38086E-01-3.15050E-02 1.99380E+00 4.39042E-13-1.67193E-13
 -1      2040 2.51473E+01 2.47025E-01 1.43455E-02 2.11795E+00 3.67503E-13 6.88928E-14
 -1      2041 2.41063E+01 3.16982E-01 1.11911E-02 2.65428E+00 3.41552E-13 1.32776E-13
 -1      2042 2.30008E+01 2.29175E-01-2.28292E-02 1.51991E+00-1.07776E-13-3.07511E-13
 -1      2043 2.37942E+01 2.74314E-01 1.58000E-02 1.69065E+00 2.04604E-13-2.10889E-13
 -1      2044 2.30702E+01 4.11508E-01 1.83111E-02 2.14621E+00 2.75538E-13-1.14964E-13
 -1      2045 2.21060E+01 1.85106E-01-1.39682E-02 1.12836E+00 1.00996E-14-1.30692E-13
 -1      2046 2.26911E+01 2.30962E-01 1.49348E-02 1.27454E+00-7.33493E-14-2.11631E-13
 -1      2047 2.22289E+01 3.61312E-01 1.46795E-02 1.63483E+00-1.09447E-13 8.01399E-15
 -1      2048 2.14187E+01 1.40412E-01-8.15414E-03 8.23083E-01-4.21141E-13 6.47753E-14
 -1      2049 2.18577E+01 1.77103E-01 1.30327E-02 9.39535E-01-2.40318E-13-2.50497E-14
 -1      2050 2.15779E+01 2.80339E-01 1.03334E-02 1.21679E+00-3.14909E-13 2.97225E-13
 -1      2051 2.09029E+01 1.07428E-01-4.30483E-03 5.91583E-01-2.88581E-13 1.11738E-15
 -1      2052 2.12244E+01 1.32816E-01 1.05533E-02 6.81435E-01-3.34526E-13 7.10532E-16
 -1      2053 2.10692E+01 2.09202E-01 6.35704E-03 8.89942E-01-2.60429E-13 1.77215E-13
 -1      2054 2.05270E+01 8.87465E-02-1.32377E-03 4.10150E-01-1.48559E-13-1.95519E-14
 -1      2055 2.07533E+01 1.03343E-01 7.81276E-03 4.82378E-01-1.81959E-13-6.98585E-14
 -1      2056 2.06804E+01 1.62444E-01 4.02876E-03 6.36059E-01-1.02551E-13-2.47790E-13
 -1      2057 2.02634E+01 8.56364E-02 6.66310E-04 2.55702E-01 2.20661E-14-5.87427E-14
 -1      2058 2.04119E+01 8.99083E-02 5.07722E-03 3.21151E-01-1.60657E-14 2.19869E-14
 -1      2059 2.03907E+01 1.36312E-01 2.04185E-03 4.29327E-01-3.79124E-14-3.72809E-13
 -1      2060 2.01160E+01 9.05751E-02 2.52401E-03 1.43675E-01 3.58268E-14-2.29749E-13
 -1      2061 2.02068E+01 9.30883E-02 3.36731E-03 2.07437E-01 1.09206E-13-1.95077E-13
 -1      2062 2.02062E+01 1.33429E-01-2.95084E-04 2.81940E-01 1.68545E-13-3.96552E-13
 -1      2063 2.01008E+01 1.33981E-01-1.03501E-03 1.76718E-01-1.06401E-13-4.70484E-14
 -1      2064 1.99517E+01 6.94666E-01-3.46894E-03 3.18700E-01 1.47691E-13 2.06677E-13
 -1      2065 1.99814E+01 5.94080E-01 9.53618E-04 3.37748E-01 7.57215E-14 1.08711E-14
 -1      2066 2.00142E+01 4.93459E-01-2.45906E-03 3.44353E-01-1.36817E-13 1.59486E-14
 -1      2067 2.00480E+01 3.88071E-01 2.36691E-03 3.24965E-01-1.42819E-13 2.15739E-13
 -1      2068 1.99987E+01 5.48330E-01 2.15755E-03 4.32354E-01-1.63122E-13 1.26252E-13
 -1      2069 2.00679E+01 3.03980E-01-1.21182E-03 2.89692E-01-3.41526E-14-9.10277E-14
 -1      2070 2.00938E+01 2.10856E-01 2.39348E-03 2.37413E-01-7.99801E-14-1.99575E-13
 -1      2071 2.01373E+01 2.11565E-01 2.01398E-03 2.92581E-01 7.66149E-14-1.72037E-13
 -1      2072 2.00745E+01 3.67264E-01-9.24649E-04 3.96163E-01-7.70579E-14 8.81206E-14
 -1      2073 1.99127E+01 8.45930E-01-3.67373E-03 2.29633E-01-1.01939E-13-3.69498E-14
 -1      2074 1.99297E+01 7.69171E-01-1.68256E-03 2.73675E-01 2.41053E-14 3.04643E-13
 -1      2075 1.99153E+01 7.21327E-01 3.42695E-03 3.70221E-01 2.93716E-14 9.62944E-14
 -1      2076 1.98985E+01 9.29784E-01-3.27033E-03 1.03901E-01 1.71860E-14-1.39024E-13
 -1      2077 1.99025E+01 8.87491E-01-3.60205E-03 1.60569E-01-1.18186E-13 2.20297E-13
 -1      2078 1.98659E+01 8.37321E-01 4.20292E-03 2.40451E-01-1.39103E-13 6.40040E-14
 -1      2079 1.99072E+01 9.35542E-01-2.42948E-03-2.56205E-02 1.09567E-13-4.02029E-13
 -1      2080 1.99000E+01 9.33256E-01-4.60593E-03 2.94333E-02 1.27431E-13-2.94378E-13
 -1      2081 1.98528E+01 8.82349E-01 4.09601E-03 7.79542E-02 4.69534E-14-1.52546E-13
 -1      2082 1.99311E+01 8.71688E-01-1.43924E-03-1.33724E-01 4.40208E-14-2.73967E-14
 -1      2083 1.99171E+01 9.05501E-01-4.52816E-03-9.02287E-02 1.33560E-13-2.81386E-13
 -1      2084 1.98706E+01 8.56067E-01 3.21152E-03-7.85848E-02 5.10280E-16-3.92931E-13
 -1      2085 1.99611E+01 7.57153E-01-5.21629E-04-2.06007E-01 3.52138E-14 7.99518E-14
 -1      2086 1.99450E+01 8.17662E-01-3.59777E-03-1.79040E-01 6.48965E-14 1.47118E-13
 -1      2087 1.99079E+01 7.72217E-01 1.94013E-03-2.01653E-01-5.03203E-14 1.63643E-14
 -1      2088 1.99896E+01 6.15088E-01 1.71788E-04-2.39116E-01-2.40364E-13-4.03902E-13
 -1      2089 1.99753E+01 6.90574E-01-2.19086E-03-2.29011E-01 3.57650E-14-2.40674E-13
 -1      2090 1.99518E+01 6.51640E-01 6.60653E-04-2.77503E-01-1.20830E-13-1.30260E-13
 -1      2091 2.00116E+01 4.69677E-01 6.57703E-04-2.38432E-01-1.70189E-13-2.10117E-13
 -1      2092 2.00012E+01 5.47612E-01-7.10621E-04-2.42021E-01-2.95788E-13-1.95651E-13
 -1      2093 1.99918E+01 5.17312E-01-3.30796E-04-3.05486E-01-1.41080E-13-3.84230E-13
 -1      2094 2.00263E+01 3.32288E-01 9.60802E-04-2.13251E-01 2.71907E-13 4.71831E-13
 -1      2095 2.00197E+01 4.06407E-01 4.91062E-04-2.26493E-01 1.75464E-13 3.08375E-13
 -1      2096 2.00221E+01 3.86140E-01-9.94992E-04-2.94510E-01 2.24797E-13 2.66579E-13
 -1      2097 2.00345E+01 2.15812E-01 1.12086E-03-1.73012E-01 2.24474E-13-5.48524E-14
 -1      2098 2.00310E+01 2.78771E-01 1.28793E-03-1.92000E-01 4.02781E-13 7.07221E-14
 -1      2099 2.00418E+01 2.69154E-01-1.21870E-03-2.56632E-01 5.28804E-13 2.10552E-13
 -1      2100 2.00386E+01 1.23158E-01 6.06838E-04-1.24948E-01-4.44377E-14-1.39951E-13
 -1      2101 2.00365E+01 1.72957E-01 1.35488E-03-1.47209E-01 1.89914E-14-1.53370E-13
 -1      2102 2.00530E+01 1.73163E-01-1.13212E-03-2.03551E-01 1.99603E-13-2.95407E-13
 -1      2103 8.45072E+00-6.93617E+00-3.53367E-01 5.07436E+00-3.41949E-14 1.40138E-13
 -1      2104 4.99240E+00-8.20226E+00-5.50831E-01 3.80723E+00-1.90958E-14-1.48187E-13
 -1      2105 2.61941E-01-6.79333E+00-2.50989E-01-6.06320E-01-2.71509E-13 2.76446E-13
 -1      2106 5.32300E-01-7.15178E+00-3.16955E-01-2.24244E+00-2.85716E-13 3.75089E-13
 -1      2107 2.77484E+00-7.45662E+00-3.62896E-01 2.98172E+00-8.40439E-14 5.50671E-14
 -1      2108 1.08613E+00-7.35968E+00-3.39001E-01 1.66207E+00-2.81025E-13 2.35922E-13
 -1      2109 1.83113E+01-5.96735E+00-2.72165E-01 5.95599E+00-3.59268E-13-2.77112E-13
 -1      2110 1.24444E+01-7.21346E+00-5.66931E-01 5.12180E+00-2.15827E-13-5.37070E-15
 -1      2111 1.30907E+01-6.69050E+00-1.70893E-01 6.03602E+00-2.37754E-13-8.84987E-14
 -1      2112 1.89365E+00-7.66666E+00-4.30159E-01-2.26648E+00-4.15307E-13-8.16736E-13
 -1      2113 3.99604E+00-6.70076E+00-2.44864E-01-3.79847E+00-1.85740E-13-8.88400E-13
 -1      2114 8.01052E+00-5.54667E+00-1.88622E-01 6.63064E+00-4.89275E-13-2.29684E-13
 -1      2115 4.84909E+00-7.27981E+00-4.38954E-01 5.37762E+00-4.21829E-13-1.76664E-13
 -1      2116 2.98542E+01-3.27483E+00 8.47075E-02 4.41512E+00-2.34368E-13-2.49245E-13
 -1      2117 2.46920E+01-5.34977E+00-2.29156E-01 4.55793E+00-3.55660E-13-2.54685E-13
 -1      2118 1.95190E+01 4.01563E+00-2.70270E-02-1.70303E+00-2.54032E-13-4.69418E-13
 -1      2119 1.96467E+01 3.94590E+00-2.46219E-02-1.95459E+00-3.02379E-13-4.11782E-13
 -1      2120 1.99718E+01 3.24687E+00-1.37547E-02-1.91885E+00-3.31615E-13-3.50235E-13
 -1      2121 1.96981E+01 3.58546E+00-7.07517E-03-1.52087E+00-2.52895E-13-4.58748E-13
 -1      2122 4.47971E+01 4.31562E+00 6.92851E-01 4.80881E-01 2.39586E-13-5.10036E-13
 -1      2123 4.02860E+01 2.50934E+00 2.01400E-01 5.81313E-01 2.29400E-13-4.29767E-13
 -1      2124 4.73524E+01 6.71782E+00 8.12688E-01-1.83986E-01 2.23266E-13-5.37237E-13
 -1      2125 4.57391E+01 5.88249E+00 6.20781E-01 3.72258E-01 2.02061E-13-5.02876E-13
 -1      2126 4.10251E+01 5.10129E+00 5.02836E-01-1.73999E+00 2.28373E-13-4.98768E-13
 -1      2127 4.48878E+01 6.19157E+00 5.31095E-01-1.14254E-01 4.09228E-13-5.77371E-13
 -1      2128 4.69487E+01 6.84969E+00 8.08381E-01 2.21373E-01 3.13971E-13-6.28844E-13
 -1      2129 4.01924E+01 2.34038E+00 1.62549E-01-3.78700E-01 3.49915E-13-4.84390E-13
 -1      2130 4.34051E+01 4.05295E+00 4.50334E-01 3.69339E-01 3.24629E-13-4.29767E-13
 -1      2131 3.41516E+01-1.06842E+00-6.66959E-02-2.43436E+00 3.36120E-13-4.82614E-13
 -1      2132 3.92991E+01 6.83285E-01 3.08151E-01-1.87502E+00 3.72119E-13-5.53224E-13
 -1      2133 3.79596E+01 7.90556E-01 2.89389E-01 2.13059E+00 2.28123E-13-2.69840E-13
 -1      2134 2.39824E+01-4.44895E+00-3.71214E-01-4.74710E+00 3.35731E-13-5.22915E-13
 -1      2135 2.99869E+01-2.61610E+00 4.81003E-02-4.90765E+00 3.31291E-13-5.80980E-13
 -1      2136 1.47773E+01-6.75313E+00-4.62036E-01-5.24710E+00 1.85185E-13-4.10477E-13
 -1      2137 1.99662E+01-5.07547E+00-1.19285E-01-5.99366E+00 2.90101E-13-4.73344E-13
 -1      2138 7.89489E+00-7.19652E+00-3.10405E-01-4.90172E+00-2.49856E-13-5.41039E-13
 -1      2139 1.12370E+01-6.60283E+00-2.66140E-01-5.58723E+00 7.32747E-14-4.77431E-13
 -1      2140 1.62369E+01-6.68820E+00-1.44209E-01-6.04699E+00-6.56142E-14-4.39215E-13
 -1      2141 2.21016E+00-7.07580E+00-3.24111E-01 4.26138E+00-3.60267E-13-2.04503E-13
 -1      2142 6.47652E-01-8.08845E+00-4.60546E-01 2.91759E+00-2.39031E-13-2.78444E-13
 -1      2143 1.65310E+01-3.79881E+00-3.68116E-02 7.82559E+00-3.13194E-13-3.75810E-13
 -1      2144 1.19034E+01-5.61623E+00-3.32287E-01 6.86422E+00-4.28768E-13-2.63692E-13
 -1      2145 2.58150E+01-1.27367E+00 1.12614E-01 6.94836E+00-3.32345E-13-2.47857E-13
 -1      2146 2.11401E+01-3.25942E+00-1.75069E-01 6.67828E+00-2.93876E-13-2.87159E-13
 -1      2147 3.28599E+01 1.61091E+00 1.39154E-01 4.87766E+00-3.75810E-13-2.96541E-13
 -1      2148 2.84757E+01-4.96586E-02-7.09866E-02 5.54631E+00-3.50775E-13-3.14193E-13
 -1      2149 2.83847E+01-2.40755E+00 1.20651E-01 4.47694E+00-6.76681E-14-9.29257E-14
 -1      2150 3.92377E+01 5.53358E+00 3.27265E-01 2.83559E+00-3.44003E-13-4.10394E-13
 -1      2151 3.52918E+01 4.09228E+00 3.75067E-02 3.35547E+00-4.39024E-13-3.93907E-13
 -1      2152 4.18877E+01 7.49623E+00 3.56631E-01 7.10520E-01-2.38587E-13-3.45474E-13
 -1      2153 3.98397E+01 6.91363E+00 1.60093E-01 1.86601E+00-2.89657E-13-4.30156E-13
 -1      2154 4.16335E+01 7.56121E+00 2.71140E-01-1.31614E+00-2.95097E-13-1.75970E-13
 -1      2155 4.27138E+01 7.66976E+00 3.55784E-01 1.70371E-01-2.30982E-13-3.35360E-13
 -1      2156 3.79320E+01 5.40214E+00 1.66143E-01-3.24524E+00-5.82256E-13-1.52711E-13
 -1      2157 4.05772E+01 6.42193E+00 3.07444E-01-1.97324E+00-4.38982E-13-2.37421E-13
 -1      2158 3.18695E+01 2.04875E+00-4.64073E-03-5.09333E+00-6.87894E-13 4.55191E-14
 -1      2159 3.63288E+01 3.63165E+00 2.85361E-01-4.55528E+00-6.68965E-13-3.09752E-13
 -1      2160 2.42562E+01-1.61677E+00-1.35639E-01-6.33864E+00-5.33573E-13 1.30007E-13
 -1      2161 2.92648E+01 5.98961E-01 2.15727E-01-6.68018E+00-6.56641E-13 7.84928E-14
 -1      2162 1.49583E+01-4.85510E+00-2.90500E-01-7.00938E+00-4.53082E-13 4.47337E-13
 -1      2163 2.00200E+01-2.95525E+00 1.95418E-02-7.71316E+00-3.76144E-13 5.95746E-13
 -1      2164 7.31712E+00-6.81301E+00-4.09159E-01-6.02645E+00-4.30544E-13 6.61304E-13
 -1      2165 1.12239E+01-4.84332E+00-1.05184E-01-7.26721E+00-6.04738E-13 5.42004E-13
 -1      2166 1.58094E+01-5.40677E+00-2.50492E-02-7.79738E+00-1.36113E-13 2.09194E-13
 -1      2167 1.41829E+00-8.10215E+00-4.58023E-01-3.66634E+00-2.20657E-13 6.94944E-13
 -1      2168 3.46920E+00-6.82060E+00-3.10075E-01-5.00140E+00-4.60187E-13 9.51628E-13
 -1      2169 3.78938E+01-2.31459E-01 2.72574E-01 1.63606E+00 1.66103E-13-3.15858E-13
 -1      2170 3.26122E+01-2.10920E+00-1.13538E-01 2.40060E+00-6.66689E-14-2.95541E-13
 -1      2171 3.25374E+01-4.08273E+00 4.81252E-02 7.55669E-01-2.47871E-13-6.05072E-15
 -1      2172 2.27723E+00-5.16328E+00-1.70840E-01-1.89211E+00-2.33369E-13-6.01130E-13
 -1      2173 2.35574E+01-6.00603E+00-4.20386E-02 4.81529E+00-3.76477E-13-2.06196E-13
 -1      2174 2.21648E+01-6.07599E+00 1.83542E-01 5.20132E+00-3.58935E-13-2.39541E-13
 -1      2175 2.73909E+01-6.69962E+00-3.99711E-01 3.20552E+00-3.65097E-13-2.75169E-13
 -1      2176 1.34524E+00-5.21499E+00-2.25558E-01 2.40373E+00-1.58262E-13-2.70561E-13
 -1      2177 2.07343E+01 1.10845E+00-2.07503E-02-1.61621E+00-3.72268E-13 1.62592E-13
 -1      2178 2.06253E+01 1.33015E+00-1.86203E-02-1.67815E+00-3.95265E-13-8.45851E-15
 -1      2179 5.89930E+00-5.91255E+00-2.30083E-01 4.57361E+00-1.37390E-13 3.79141E-14
 -1      2180 2.14625E+00-4.47645E+00-1.20566E-01 8.55610E-01-2.01832E-13 2.50744E-13
 -1      2181 2.00451E+01 9.69496E-02 8.38499E-04-1.16755E-01 2.85348E-15-2.00927E-13
 -1      2182 8.02340E+00-5.87652E+00-1.31638E-01-5.18051E+00-2.47358E-13-6.87506E-13
 -1      2183 2.29268E+00-4.87213E+00-1.84263E-01-3.58295E+00-2.77667E-13 5.69766E-13
 -1      2184 3.78475E+01 4.22316E-02 2.01371E-01-1.59116E+00 2.14925E-13-2.49134E-13
 -1      2185 7.47330E+00-5.71146E+00-1.64159E-01-6.77770E+00-3.27127E-13 8.11046E-13
 -1      2186 2.41680E+01-3.87113E+00 5.64607E-02-6.25169E+00-2.54463E-13 6.36158E-14
 -1      2187 3.12589E+01-1.97569E-01 1.84031E-01-3.56990E+00-3.45252E-13-4.60854E-13
 -1      2188 5.17417E+00-5.51802E+00-1.79622E-01 5.98009E+00-1.86018E-13-2.28872E-13
 -1      2189 3.52120E+01 4.07478E+00 2.70797E-01-1.14418E+00-5.30659E-13-3.35010E-13
 -1      2190 3.75178E+01 7.70815E+00 3.17665E-01-1.69150E-01-3.79863E-13-1.63952E-13
 -1      2191 3.76008E+01 8.81599E+00 3.33753E-01-9.48956E-02-3.75033E-13-8.54941E-14
 -1      2192 3.34517E+01 1.90082E+00 1.61218E-01 1.94735E+00-3.25080E-13-1.93789E-13
 -1      2193 2.11617E+01-4.77265E+00 5.01219E-02 7.03875E+00-1.85796E-13-1.86073E-13
 -1      2194 3.36621E+01-3.25258E+00 1.58483E-01-1.25062E+00 1.98008E-13-3.56382E-13
 -1      2195 1.23377E+01-5.46971E+00-4.52419E-02 7.79093E+00-2.71283E-13-1.34615E-13
 -1      2196 4.18861E+01 7.19529E+00 5.90110E-01-3.56452E-02 3.50830E-13-4.09395E-13
 -1      2197 3.99844E+01 4.86438E+00 3.57911E-01 2.19992E+00 2.08000E-13-3.56382E-13
 -1      2198 2.47547E+01-6.09049E+00-5.56177E-02-4.61281E+00 1.18183E-13-4.79172E-13
 -1      2199 3.63003E+01 6.61638E+00 2.52451E-01 2.29511E-01-2.86438E-13-2.01478E-13
 -1      2200 2.01464E+01 5.06450E-01 3.73911E-03 6.78351E-01 2.94322E-13 2.35290E-13
 -1      2201 2.04144E+01 6.99971E-01 2.07938E-02 9.69960E-01 3.28768E-13 2.74308E-13
 -1      2202 1.95615E+01 3.51646E+00-1.10844E-02-5.91665E-01-4.70052E-14-4.80520E-13
 -1      2203 1.95969E+01 3.47055E+00-1.04362E-02-7.76070E-01-9.67157E-14-4.87728E-13
 -1      2204 1.96434E+01 3.38239E+00-1.26714E-02-9.40435E-01-1.36751E-13-4.89922E-13
 -1      2205 1.97045E+01 3.30175E+00-1.24826E-02-1.12987E+00-1.82056E-13-4.75753E-13
 -1      2206 1.97882E+01 3.03384E+00 3.51002E-04-7.92401E-01-1.01242E-13-4.49184E-13
 -1      2207 1.95145E+01 3.59896E+00-9.62035E-03 9.94435E-02 1.07555E-13-5.13421E-13
 -1      2208 1.95138E+01 3.59979E+00-9.62760E-03-8.01041E-02 7.07071E-14-5.05109E-13
 -1      2209 1.95405E+01 3.55950E+00-9.72698E-03 4.45660E-01 1.79912E-13-5.14986E-13
 -1      2210 1.95231E+01 3.58209E+00-1.01436E-02 2.64750E-01 1.34759E-13-5.21876E-13
 -1      2211 1.96807E+01 3.22178E+00-8.91389E-04 1.69602E-01 1.16223E-13-4.86149E-13
 -1      2212 1.96021E+01 3.46291E+00-1.06160E-02 7.89762E-01 2.45053E-13-4.75897E-13
 -1      2213 1.95659E+01 3.50995E+00-1.12180E-02 6.08267E-01 2.10463E-13-4.99377E-13
 -1      2214 1.97173E+01 3.15819E+00-5.04561E-04 4.88203E-01 1.88670E-13-4.80248E-13
 -1      2215 1.97124E+01 3.28904E+00-1.29569E-02 1.14327E+00 3.25608E-13-3.89183E-13
 -1      2216 1.96500E+01 3.37242E+00-1.28896E-02 9.53921E-01 2.76268E-13-4.42820E-13
 -1      2217 1.97940E+01 3.02441E+00 2.48985E-04 8.03985E-01 2.57599E-13-4.27486E-13
 -1      2218 1.98911E+01 3.00341E+00-1.81730E-02 1.49050E+00 3.83359E-13-2.80483E-13
 -1      2219 1.97919E+01 3.14471E+00-1.51829E-02 1.30002E+00 3.42997E-13-3.33065E-13
 -1      2220 1.99229E+01 2.79915E+00 1.94308E-03 1.11043E+00 3.30445E-13-3.32465E-13
 -1      2221 2.01688E+01 2.54386E+00-2.83976E-02 1.79492E+00 4.33657E-13-1.43292E-13
 -1      2222 2.00179E+01 2.78323E+00-1.70910E-02 1.62043E+00 3.94094E-13-2.21894E-13
 -1      2223 2.01170E+01 2.44850E+00 5.85595E-03 1.37637E+00 3.62694E-13-2.26459E-13
 -1      2224 2.04009E+01 8.54609E-01 1.30463E-02-1.00049E+00-3.25500E-13-7.22293E-14
 -1      2225 2.01886E+01 6.26455E-01-4.80522E-03-6.91848E-01-2.84868E-13-8.47651E-14
 -1      2226 1.98693E+01 2.68315E-01 4.73295E-03 2.85759E-01 2.50831E-13 1.50874E-13
 -1      2227 2.00301E+01 3.68026E-01 2.01716E-02 4.42948E-01 2.79551E-13 2.17862E-13
 -1      2228 2.02096E+01 6.34669E-01-2.22701E-03 7.05251E-01 3.22583E-13 9.51184E-14
 -1      2229 2.05465E+01 1.95500E+00-1.37248E-02-1.89858E+00-3.73391E-13-1.45451E-13
 -1      2230 2.04095E+01 1.21477E+00-7.17753E-03-1.28761E+00-3.56280E-13-1.03315E-13
 -1      2231 2.03827E+01 1.37984E+00 7.65149E-03-1.23625E+00-3.36578E-13-1.66179E-13
 -1      2232 2.02884E+01 2.38458E+00-5.07124E-03-1.84320E+00-3.65535E-13-2.40176E-13
 -1      2233 2.01236E+01 4.69664E-01 1.62353E-02-4.75571E-01-2.35421E-13-7.70532E-14
 -1      2234 1.99822E+01 3.44773E-01 3.48833E-05-3.03865E-01-1.77031E-13-9.08158E-14
 -1      2235 2.02431E+01 7.46408E-01-1.88596E-03-6.94283E-01-2.70036E-13-1.51852E-13
 -1      2236 1.99191E+01 2.59826E-01 1.08912E-02-1.66179E-01-1.60152E-13-7.71430E-14
 -1      2237 1.98404E+01 1.88418E-01 7.26645E-04-6.88342E-02-1.40765E-13-1.17862E-13
 -1      2238 2.00796E+01 4.16816E-01-3.65178E-03-3.10481E-01-1.91355E-13-1.52908E-13
 -1      2239 1.97961E+01 1.39056E-01 6.39870E-03 1.34345E-02-1.01442E-13-1.18071E-13
 -1      2240 1.97613E+01 9.68974E-02 7.46783E-04 6.69770E-02-6.59159E-14-1.20632E-13
 -1      2241 1.99592E+01 2.27864E-01-3.62796E-03-7.11964E-02-1.30002E-13-1.30953E-13
 -1      2242 1.97356E+01 6.71940E-02 3.58325E-03 1.13049E-01-5.72893E-14-1.41574E-13
 -1      2243 1.97286E+01 4.19256E-02 6.59117E-04 1.40009E-01-5.84482E-14-1.54181E-13
 -1      2244 1.98838E+01 1.15906E-01-2.94380E-03 7.01315E-02-8.62073E-14-1.52655E-13
 -1      2245 1.97173E+01 2.39594E-02 1.86072E-03 1.62841E-01-6.88524E-14-1.56114E-13
 -1      2246 1.97271E+01 9.09014E-03 5.58051E-04 1.73606E-01-5.90410E-14-1.62765E-13
 -1      2247 1.98447E+01 4.84512E-02-2.14669E-03 1.47364E-01-7.66596E-14-1.73348E-13
 -1      2248 1.97257E+01-1.42139E-03 8.00328E-04 1.81901E-01-4.88355E-14-1.71119E-13
 -1      2249 1.97448E+01-9.58446E-03 4.68247E-04 1.83057E-01-6.59038E-14-1.78926E-13
 -1      2250 1.98316E+01 8.33450E-03-1.47013E-03 1.83574E-01-6.90830E-14-2.09696E-13
 -1      2251 1.97498E+01-1.51684E-02 1.52182E-04 1.82725E-01-1.06074E-13-1.78404E-13
 -1      2252 1.97735E+01-1.88818E-02 4.04772E-04 1.78609E-01-1.35194E-13-1.85999E-13
 -1      2253 1.98356E+01-1.41680E-02-9.63209E-04 1.94435E-01-8.84804E-14-2.00677E-13
 -1      2254 1.97823E+01-2.11365E-02-2.28753E-04 1.73705E-01-1.56544E-13-1.91548E-13
 -1      2255 1.98078E+01-2.18559E-02 3.73570E-04 1.67238E-01-1.40875E-13-2.14667E-13
 -1      2256 1.98501E+01-2.49743E-02-6.09061E-04 1.90685E-01-1.64152E-13-2.12307E-13
 -1      2257 1.98187E+01-2.18425E-02-4.33088E-04 1.60557E-01-1.25137E-13-1.86132E-13
 -1      2258 1.98444E+01-2.05440E-02 3.74250E-04 1.53724E-01-1.04999E-13-2.21565E-13
 -1      2259 1.98709E+01-2.78913E-02-3.76511E-04 1.79731E-01-1.31947E-13-2.01203E-13
 -1      2260 1.98564E+01-1.89939E-02-5.20596E-04 1.47192E-01-7.48136E-14-2.18435E-13
 -1      2261 1.98816E+01-1.63558E-02 4.02637E-04 1.41337E-01-7.84734E-14-1.91321E-13
 -1      2262 1.98951E+01-2.54723E-02-2.36183E-04 1.66693E-01-1.04102E-13-1.68047E-13
 -1      2263 1.98943E+01-1.37962E-02-5.31584E-04 1.36260E-01-9.85894E-14-1.96760E-13
 -1      2264 1.99189E+01-1.03187E-02 4.51766E-04 1.32264E-01-1.12355E-13-1.80951E-13
 -1      2265 1.99211E+01-1.94994E-02-1.64252E-04 1.55086E-01-9.87011E-14-1.50224E-13
 -1      2266 1.99323E+01-7.16212E-03-4.92843E-04 1.29490E-01-1.77250E-13-2.02004E-13
 -1      2267 1.99568E+01-3.26002E-03 5.11338E-04 1.27878E-01-1.42986E-13-2.29374E-13
 -1      2268 1.99483E+01-1.12945E-02-1.42428E-04 1.47260E-01-1.63746E-13-1.50629E-13
 -1      2269 1.99709E+01 1.17932E-04-4.21111E-04 1.27877E-01-1.11825E-13-2.38799E-13
 -1      2270 1.99958E+01 4.03061E-03 5.66157E-04 1.28850E-01-1.23458E-13-2.11727E-13
 -1      2271 1.99770E+01-1.95887E-03-1.57050E-04 1.44665E-01-1.30732E-13-1.16454E-13
 -1      2272 2.00112E+01 7.21709E-03-3.25217E-04 1.31734E-01-1.52220E-13-1.76114E-13
 -1      2273 2.00373E+01 1.06425E-02 5.94032E-04 1.35155E-01-1.34421E-13-1.80729E-13
 -1      2274 2.00076E+01 7.41187E-03-1.98150E-04 1.47962E-01-1.15041E-13-8.38690E-14
 -1      2275 2.00545E+01 1.31116E-02-2.07506E-04 1.40629E-01-7.35686E-14-1.92590E-13
 -1      2276 2.00824E+01 1.53831E-02 5.63588E-04 1.45933E-01-7.92945E-15-1.43796E-13
 -1      2277 2.00412E+01 1.55161E-02-2.58621E-04 1.57003E-01-9.77365E-14-1.77853E-14
 -1      2278 2.01023E+01 1.64219E-02-6.50234E-05 1.53184E-01-3.16002E-14-2.38029E-13
 -1      2279 2.01322E+01 1.66264E-02 4.32747E-04 1.59251E-01-2.43009E-14-2.60995E-13
 -1      2280 2.00790E+01 2.06370E-02-3.33401E-04 1.70670E-01-7.03836E-14-5.79367E-14
 -1      2281 2.01557E+01 1.52771E-02 1.08902E-04 1.66773E-01 7.95796E-15-3.12893E-13
 -1      2282 2.01877E+01 1.22070E-02 1.49108E-04 1.71747E-01 6.48320E-14-2.43447E-13
 -1      2283 2.01226E+01 2.04573E-02-4.18348E-04 1.86580E-01-3.34206E-14-1.75229E-13
 -1      2284 2.02156E+01 7.25246E-03 3.21784E-04 1.77132E-01 1.04790E-13-2.74493E-13
 -1      2285 2.02489E+01-5.69643E-04-3.45740E-04 1.78242E-01 1.50191E-13-3.09722E-13
 -1      2286 2.01735E+01 1.19560E-02-5.08193E-04 2.00702E-01 4.06987E-14-1.76099E-13
 -1      2287 2.02822E+01-1.05260E-02 5.76474E-04 1.77972E-01 1.53129E-13-2.96792E-13
 -1      2288 2.03150E+01-2.46808E-02-1.10497E-03 1.71418E-01 9.04009E-14-2.95857E-13
 -1      2289 2.02332E+01-8.50555E-03-5.92616E-04 2.06915E-01 1.33575E-13-2.90168E-13
 -1      2290 2.03542E+01-4.09619E-02 8.61422E-04 1.60758E-01 6.55918E-14-2.13807E-13
 -1      2291 2.03835E+01-6.27244E-02-2.15448E-03 1.41784E-01 8.94397E-14-1.34473E-13
 -1      2292 2.03027E+01-4.47315E-02-6.49211E-04 1.96683E-01 1.56663E-13-1.96063E-13
 -1      2293 2.04284E+01-8.60566E-02 1.13541E-03 1.14934E-01 5.80642E-14-1.76332E-13
 -1      2294 2.04497E+01-1.15636E-01-3.45638E-03 7.82964E-02 2.13245E-14-2.22691E-13
 -1      2295 2.03822E+01-9.96318E-02-6.32526E-04 1.59062E-01 3.59903E-14-2.39885E-13
 -1      2296 2.04987E+01-1.45272E-01 1.30816E-03 2.90527E-02-1.32188E-14-2.66800E-13
 -1      2297 2.05058E+01-1.80651E-01-4.85816E-03-2.98896E-02-2.00711E-14-2.89613E-13
 -1      2298 2.04699E+01-1.73299E-01-4.61866E-04 8.14839E-02-4.35883E-14-3.25464E-13
 -1      2299 2.05547E+01-2.13166E-01 1.22565E-03-1.06622E-01-2.93214E-14-3.22303E-13
 -1      2300 2.05403E+01-2.48693E-01-6.03646E-03-1.89959E-01-8.91243E-14-3.10272E-13
 -1      2301 2.05602E+01-2.60133E-01-1.82580E-05-4.81006E-02-7.71308E-14-3.19625E-13
 -1      2302 2.05809E+01-2.76765E-01 6.84152E-04-2.95492E-01-5.35731E-14-2.61691E-13
 -1      2303 2.05374E+01-3.02104E-01-6.47295E-03-3.99947E-01-5.82210E-14-2.08689E-13
 -1      2304 2.06420E+01-3.45459E-01 8.30550E-04-2.37023E-01-6.78730E-14-3.15170E-13
 -1      2305 2.05574E+01-3.14109E-01-4.94481E-04-5.27974E-01-6.02682E-14-2.65208E-14
 -1      2306 2.04792E+01-3.14770E-01-5.51995E-03-6.41790E-01 5.09091E-14-3.44259E-15
 -1      2307 2.06971E+01-4.03189E-01 2.13421E-03-4.81183E-01 4.59104E-14-7.85011E-15
 -1      2308 2.04633E+01-2.96530E-01-2.24456E-03-7.74357E-01 4.10470E-14 1.88705E-15
 -1      2309 2.03494E+01-2.57576E-01-2.66900E-03-8.75391E-01 8.27029E-15 2.03104E-15
 -1      2310 2.07005E+01-3.97695E-01 3.69587E-03-7.56592E-01 3.43431E-14 8.73707E-14
 -1      2311 2.02851E+01-1.97586E-01-4.14820E-03-9.81155E-01-2.66332E-14-2.58781E-14
 -1      2312 2.01430E+01-1.11219E-01 1.91275E-03-1.03870E+00-3.74156E-14 5.79575E-14
 -1      2313 2.06267E+01-2.93254E-01 4.91674E-03-1.01255E+00-1.99260E-14 1.19966E-13
 -1      2314 2.00294E+01-8.97637E-03-5.30881E-03-1.07729E+00-5.13893E-15 5.88128E-14
 -1      2315 1.98773E+01 1.15941E-01 7.01214E-03-1.05999E+00-1.71928E-14 1.85843E-13
 -1      2316 2.04622E+01-7.31492E-02 4.64027E-03-1.17306E+00 5.78313E-15 2.16240E-13
 -1      2317 1.97346E+01 2.42127E-01-4.47562E-03-9.95553E-01-1.03736E-13 1.66156E-13
 -1      2318 1.95997E+01 3.74835E-01 1.05249E-02-8.85234E-01-6.18195E-14 2.15461E-13
 -1      2319 2.02238E+01 2.38047E-01 1.96408E-03-1.15473E+00-3.92554E-14 2.08713E-13
 -1      2320 1.94704E+01 4.87613E-01-9.73863E-04-7.06883E-01-1.25859E-13 1.99902E-13
 -1      2321 1.93823E+01 5.82780E-01 1.05062E-02-5.12952E-01-9.80570E-14 8.85256E-14
 -1      2322 1.99689E+01 5.63694E-01-2.68046E-03-9.03259E-01-1.65824E-13 3.10936E-13
 -1      2323 1.93155E+01 6.39897E-01 4.45092E-03-2.50872E-01-9.25193E-14-5.76530E-14
 -1      2324 1.92957E+01 6.59429E-01 6.82733E-03-1.44736E-02-1.71473E-13-9.47138E-14
 -1      2325 1.97840E+01 7.94970E-01-6.86513E-03-4.35754E-01-2.47170E-13 1.11363E-13
 -1      2326 1.93191E+01 6.37134E-01 9.32528E-03 2.64984E-01-1.63742E-13-2.27930E-14
 -1      2327 1.93721E+01 5.72715E-01 1.35691E-03 4.84759E-01-5.44825E-14-4.74412E-14
 -1      2328 1.97427E+01 8.42477E-01-7.66690E-03 1.43187E-01-1.63088E-13 1.11977E-13
 -1      2329 1.94749E+01 4.80255E-01 1.11423E-02 7.07325E-01 8.77655E-14 4.24611E-14
 -1      2330 1.95861E+01 3.58133E-01-3.31004E-03 8.58399E-01 1.86217E-13 6.32989E-14
 -1      2331 1.98613E+01 6.85994E-01-4.80295E-03 6.78518E-01 1.14994E-13 2.59208E-13
 -1      2332 1.97257E+01 2.31790E-01 9.07674E-03 9.74931E-01 1.56315E-13 7.04203E-14
 -1      2333 1.98677E+01 9.70334E-02-5.43755E-03 1.03255E+00 1.86859E-13 1.14467E-13
 -1      2334 2.00885E+01 3.87882E-01-1.96826E-05 1.03510E+00 1.97300E-13 2.96635E-13
 -1      2335 1.99956E+01-2.09014E-02 4.40855E-03 1.03574E+00 2.37708E-13 8.74490E-14
 -1      2336 2.01386E+01-1.28703E-01-5.08037E-03 1.00670E+00 2.68097E-13-9.64170E-15
 -1      2337 2.03376E+01 5.48451E-02 3.76185E-03 1.15391E+00 2.12252E-13 2.37812E-13
 -1      2338 2.02232E+01-2.10076E-01-6.72469E-04 9.23453E-01 3.54042E-13-8.94196E-14
 -1      2339 2.03442E+01-2.71587E-01-3.38500E-03 8.35098E-01 2.70641E-13-6.90880E-14
 -1      2340 2.05338E+01-2.16411E-01 5.10051E-03 1.06040E+00 2.31634E-13 1.55089E-14
 -1      2341 2.03770E+01-3.08480E-01-4.43886E-03 7.06350E-01 1.03336E-13-7.23471E-14
 -1      2342 2.04635E+01-3.24556E-01-1.43194E-03 5.91559E-01-1.79638E-13 1.14895E-13
 -1      2343 2.06411E+01-3.76080E-01 4.40955E-03 8.30321E-01 2.53574E-13-1.44269E-13
 -1      2344 2.04532E+01-3.24300E-01-6.25203E-03 4.54541E-01-3.83067E-13 3.49301E-13
 -1      2345 2.05029E+01-3.07489E-01 1.17786E-04 3.40590E-01-2.33796E-13 3.83541E-13
 -1      2346 2.06610E+01-4.23437E-01 2.87449E-03 5.47767E-01-9.86466E-14 1.36756E-13
 -1      2347 2.04643E+01-2.83661E-01-6.39329E-03 2.20257E-01-1.97716E-13 4.50711E-13
 -1      2348 2.04815E+01-2.49039E-01 1.06680E-03 1.24420E-01 1.13950E-15 4.66613E-13
 -1      2349 2.06156E+01-3.87571E-01 1.37779E-03 2.77593E-01-2.02768E-13 4.60935E-13
 -1      2350 2.04289E+01-2.14492E-01-5.50195E-03 3.29722E-02 2.28795E-13 2.67014E-13
 -1      2351 2.04212E+01-1.74106E-01 1.52262E-03-3.68713E-02 3.35870E-13 2.72139E-13
 -1      2352 2.05316E+01-3.05130E-01 2.89272E-04 5.73359E-02-3.27201E-14 3.59680E-13
 -1      2353 2.03649E+01-1.37786E-01-4.17986E-03-9.65371E-02 7.23633E-14 1.47298E-13
 -1      2354 2.03408E+01-9.89187E-02 1.69671E-03-1.39097E-01-1.69924E-14 4.95360E-14
 -1      2355 2.04312E+01-2.06214E-01-3.50642E-04-9.85406E-02 7.52358E-14 1.12802E-13
 -1      2356 2.02867E+01-6.54768E-02-2.83876E-03-1.69298E-01 8.65277E-14-1.25347E-13
 -1      2357 2.02538E+01-3.13389E-02 1.72596E-03-1.86815E-01 8.00846E-14-1.60246E-13
 -1      2358 2.03289E+01-1.09489E-01-6.13153E-04-1.90378E-01-8.19738E-14-2.55412E-13
 -1      2359 2.02049E+01-2.46707E-03-1.64658E-03-1.91955E-01 2.51866E-14-1.47456E-13
 -1      2360 2.01693E+01 2.49266E-02 1.31556E-03-1.87892E-01 6.05378E-16-3.11852E-13
 -1      2361 2.02332E+01-2.39043E-02-5.79817E-04-2.25532E-01-6.34567E-15-4.80067E-13
 -1      2362 1.96220E+01 7.25849E-02 1.94231E-03-6.64345E-02 1.26532E-13 3.43094E-14
 -1      2363 1.96494E+01 1.04768E-01 6.96590E-03-1.99077E-02 1.44554E-13 8.49135E-14
 -1      2364 1.95992E+01 2.95099E-02 1.26147E-03-1.34775E-01 5.46203E-14 1.35807E-14
 -1      2365 1.95951E+01 4.90145E-02 3.73172E-03-1.11250E-01 7.41264E-14 8.83028E-15
 -1      2366 1.97665E+01 8.89260E-02-3.19592E-03-7.41279E-02 1.24136E-13-1.50845E-15
 -1      2367 1.96135E+01 5.80921E-03 8.96469E-04-1.62617E-01 1.32071E-13-6.47811E-15
 -1      2368 1.95923E+01 1.66722E-02 1.80736E-03-1.54455E-01 1.11857E-13 2.67261E-14
 -1      2369 1.97335E+01 3.48318E-02-2.30465E-03-1.47584E-01 1.00777E-13-4.73363E-14
 -1      2370 1.96481E+01-7.77302E-03 6.16733E-04-1.68931E-01 1.08018E-13 6.66354E-15
 -1      2371 1.96185E+01-1.87683E-03 6.97713E-04-1.68826E-01 1.28722E-13 1.45668E-14
 -1      2372 1.97325E+01 4.28157E-03-1.52561E-03-1.79133E-01 1.29666E-13-1.95635E-14
 -1      2373 1.96930E+01-1.45465E-02 4.36765E-04-1.62958E-01 8.66799E-14 3.57588E-14
 -1      2374 1.96601E+01-1.18312E-02 7.33850E-05-1.67227E-01 1.06947E-13 3.68192E-14
 -1      2375 1.97503E+01-1.27661E-02-9.74735E-04-1.86963E-01 9.51345E-14 5.37097E-15
 -1      2376 1.97421E+01-1.66910E-02 3.42846E-04-1.51012E-01 1.00098E-13 6.54474E-15
 -1      2377 1.97088E+01-1.61501E-02-2.77884E-04-1.57166E-01 1.07450E-13 2.32307E-14
 -1      2378 1.97788E+01-2.08630E-02-6.00866E-04-1.81326E-01 1.20268E-13 1.58626E-14
 -1      2379 1.97920E+01-1.55868E-02 3.22953E-04-1.37474E-01 6.68952E-14-3.13794E-14
 -1      2380 1.97597E+01-1.65834E-02-4.50437E-04-1.43778E-01 8.31716E-14-2.19090E-14
 -1      2381 1.98129E+01-2.28693E-02-3.66861E-04-1.69266E-01 1.15940E-13 4.56054E-14
 -1      2382 1.98414E+01-1.20480E-02 4.04426E-04-1.25493E-01 6.26176E-14 6.60309E-15
 -1      2383 1.98103E+01-1.42200E-02-5.01625E-04-1.30679E-01 4.64722E-14-7.21004E-15
 -1      2384 1.98495E+01-2.05713E-02-2.39528E-04-1.55737E-01 5.55305E-14 5.21630E-15
 -1      2385 1.98927E+01-6.22279E-03 5.30683E-04-1.17243E-01 2.77938E-14 2.99003E-14
 -1      2386 1.98611E+01-9.54430E-03-4.77109E-04-1.20337E-01 6.16716E-14 3.42622E-14
 -1      2387 1.98880E+01-1.48768E-02-2.30907E-04-1.44158E-01 5.59984E-14 4.08449E-14
 -1      2388 1.99424E+01 1.26422E-03 7.21273E-04-1.15693E-01 1.19216E-13-6.25995E-14
 -1      2389 1.99120E+01-2.93652E-03-4.01878E-04-1.15518E-01 1.07750E-13 3.09956E-14
 -1      2390 1.99277E+01-6.19625E-03-2.03352E-04-1.37831E-01 9.29144E-14-1.14342E-15
 -1      2391 1.99955E+01 1.09529E-02 1.03533E-03-1.22427E-01-1.01952E-15-5.18999E-14
 -1      2392 1.99629E+01 5.54227E-03-2.98038E-04-1.18167E-01 3.18108E-14-8.33772E-14
 -1      2393 1.99681E+01 5.02617E-03-2.61629E-04-1.39387E-01 8.88086E-14 1.29629E-15
 -1      2394 2.00551E+01 2.34773E-02 1.48090E-03-1.39933E-01-1.73915E-14-1.46418E-13
 -1      2395 2.00180E+01 1.64624E-02-1.77796E-04-1.30354E-01 2.99986E-14-8.50981E-14
 -1      2396 2.00117E+01 1.95132E-02-3.54257E-04-1.51143E-01 2.72228E-14 1.91530E-14
 -1      2397 2.01254E+01 3.99598E-02 2.10531E-03-1.71448E-01-4.79063E-14-8.37704E-14
 -1      2398 2.00808E+01 3.06757E-02-5.39284E-05-1.54885E-01-8.54670E-14-1.68334E-13
 -1      2399 2.00608E+01 3.83265E-02-4.66516E-04-1.76134E-01-3.71928E-14-3.17719E-14
 -1      2400 2.02119E+01 6.21261E-02 2.97250E-03-2.21425E-01 5.61237E-14 4.87804E-14
 -1      2401 2.01556E+01 4.95666E-02 5.98831E-05-1.95539E-01 2.24237E-14-2.76020E-14
 -1      2402 2.01177E+01 6.32149E-02-5.79481E-04-2.18290E-01-7.78793E-14-5.11597E-14
 -1      2403 2.03212E+01 9.25736E-02 4.28858E-03-2.96058E-01-6.70775E-14 1.39070E-14
 -1      2404 2.02478E+01 7.52371E-02 1.53817E-04-2.57594E-01 8.75627E-14 2.39312E-14
 -1      2405 2.01854E+01 9.68207E-02-6.67034E-04-2.82914E-01 4.61956E-14-2.77464E-15
 -1      2406 2.04682E+01 1.37144E-01 5.99128E-03-4.10620E-01-3.86403E-14-1.19448E-13
 -1      2407 2.03663E+01 1.11723E-01 1.55611E-04-3.51148E-01-6.14541E-14-7.44143E-14
 -1      2408 2.02687E+01 1.43998E-01-8.31703E-04-3.80266E-01 9.63509E-15 9.21843E-16
 -1      2409 2.06485E+01 1.96185E-01 8.04626E-03-5.66733E-01 9.15010E-14-1.74775E-13
 -1      2410 2.05185E+01 1.62484E-01 8.90999E-05-4.85747E-01-2.00887E-14-1.89494E-13
 -1      2411 2.03686E+01 2.10311E-01-4.94347E-04-5.19205E-01 2.40451E-14-1.90469E-13
 -1      2412 2.08779E+01 2.76796E-01 1.07623E-02-7.84328E-01 1.77927E-13-6.73639E-14
 -1      2413 2.07055E+01 2.31056E-01-1.98042E-04-6.70890E-01 1.84398E-13-6.60531E-14
 -1      2414 2.04824E+01 2.99296E-01 1.45236E-06-7.08736E-01 7.54533E-14-1.03776E-13
 -1      2415 2.11650E+01 3.82178E-01 1.38275E-02-1.08184E+00 2.04125E-14-1.49391E-13
 -1      2416 2.09388E+01 3.23068E-01-8.15932E-04-9.26403E-01 1.22693E-13-6.96879E-14
 -1      2417 2.06099E+01 4.18710E-01 9.18804E-04-9.67739E-01 1.57547E-13-2.37316E-14
 -1      2418 2.15173E+01 5.08112E-01 1.66945E-02-1.47659E+00-2.21611E-15-2.41289E-13
 -1      2419 2.12248E+01 4.39313E-01-1.91462E-03-1.27122E+00 2.06688E-14-1.80815E-13
 -1      2420 2.07442E+01 5.70729E-01 2.32560E-03-1.31427E+00 7.82352E-14-1.57564E-13
 -1      2421 2.19410E+01 6.28527E-01 1.81989E-02-1.97453E+00-9.24382E-14-1.23420E-13
 -1      2422 2.15705E+01 5.67687E-01-3.40221E-03-1.72035E+00-2.51635E-14-1.82679E-13
 -1      2423 2.08740E+01 7.43060E-01 3.97364E-03-1.76419E+00-3.09514E-14-1.44112E-13
 -1      2424 2.24543E+01 6.66484E-01 1.71441E-02-2.54687E+00-1.04903E-14-1.65738E-13
 -1      2425 2.19902E+01 6.63924E-01-3.89364E-03-2.27067E+00-3.92759E-14-1.21602E-13
 -1      2426 2.09911E+01 8.85778E-01 4.83501E-03-2.32194E+00-4.55879E-14-1.79301E-13
 -1      2427 2.31484E+01 4.28847E-01 1.49834E-02-3.11006E+00-8.15138E-14-2.80281E-13
 -1      2428 2.25443E+01 6.06176E-01 1.74889E-03-2.88485E+00 2.61102E-14-2.57296E-13
 -1      2429 2.11174E+01 8.63066E-01 1.51972E-03-2.98121E+00 4.32140E-14-1.66336E-13
 -1      2430 2.41380E+01-3.79801E-01 1.42012E-02-3.34692E+00-3.13256E-13-2.67405E-13
 -1      2431 2.33907E+01 1.31226E-01 2.14494E-02-3.38166E+00-2.69314E-13-2.96521E-13
 -1      2432 2.13802E+01 3.84679E-01-6.12084E-03-3.63334E+00-1.31113E-13-2.86556E-13
 -1      2433 2.58368E+01-2.03668E+00 2.19474E-02-2.81674E+00-1.69365E-13-2.22697E-13
 -1      2434 2.48382E+01-1.09063E+00 6.75489E-02-3.37544E+00-3.04982E-13-3.39611E-13
 -1      2435 2.21257E+01-9.58902E-01-2.54096E-02-4.05048E+00-2.69944E-13-3.35534E-13
 -1      2436 2.88222E+01-3.88633E+00 3.71099E-02-8.96459E-01-8.80684E-14-1.58776E-13
 -1      2437 2.74301E+01-3.12873E+00 1.05199E-01-2.22786E+00-5.46022E-14-1.84849E-13
 -1      2438 2.40867E+01-3.33753E+00-4.36558E-02-3.78985E+00-1.83992E-13-2.45852E-13
 -1      2439 3.55410E+01 2.55659E+00-9.74648E-02 3.72862E+00 2.62290E-13-2.34257E-13
 -1      2440 3.46790E+01-2.46539E-01-1.99742E-01 3.65913E+00 1.55459E-13-1.46938E-13
 -1      2441 3.68755E+01 3.91495E+00-4.13257E-02-2.79247E+00 3.49498E-13-3.74534E-13
 -1      2442 3.74325E+01 5.80702E+00 2.79429E-02-1.18711E+00 3.14748E-13-3.71314E-13
 -1      2443 2.91764E+01-4.48886E+00 1.86149E-01 1.24632E+00-3.37293E-13-5.45536E-14
 -1      2444 3.08027E+01-4.36776E+00 6.08336E-02-1.40684E-01-3.05145E-13-8.08242E-14
 -1      2445 2.54479E+01-2.50206E+00 1.49173E-01 3.26686E+00 1.41276E-14-5.10668E-14
 -1      2446 2.68823E+01-3.45675E+00 1.31278E-01 2.18845E+00-9.07191E-14-3.33344E-14
 -1      2447 2.32813E+01-5.34187E+00-1.72723E-01 4.56762E+00-1.51767E-13-2.92669E-13
 -1      2448 2.33047E+01-5.93610E-01 4.82630E-02 3.74899E+00 8.38218E-15-2.60302E-13
 -1      2449 2.43625E+01-1.29770E+00 9.16060E-02 3.33575E+00 5.34295E-14-1.64075E-13
 -1      2450 2.07021E+01-2.32783E+00-7.96729E-02 4.80121E+00 9.50906E-14-4.06550E-13
 -1      2451 2.22526E+01 3.89464E-01-6.52340E-03 3.42741E+00 2.27157E-13-2.70037E-13
 -1      2452 2.30020E+01 9.22868E-02 4.63862E-02 3.45159E+00-2.34882E-15-2.79761E-13
 -1      2453 1.99128E+01-1.08962E-01-2.30803E-02 4.23208E+00 1.04021E-13-5.30301E-13
 -1      2454 2.17022E+01 7.09348E-01-2.10501E-02 2.83928E+00 3.92196E-13-2.16600E-13
 -1      2455 2.22599E+01 6.55231E-01 2.15427E-02 3.05431E+00 3.66981E-13-1.43929E-13
 -1      2456 1.99069E+01 8.91504E-01 1.07022E-02 3.49004E+00 1.86101E-13-5.23484E-13
 -1      2457 2.13268E+01 7.01673E-01-1.88855E-02 2.20482E+00-4.03846E-14 5.09042E-14
 -1      2458 2.17757E+01 7.54479E-01 1.33465E-02 2.47473E+00 2.54893E-13 3.48163E-14
 -1      2459 2.00937E+01 1.12938E+00 2.14066E-02 2.77495E+00 1.02842E-13-1.61594E-13
 -1      2460 2.10418E+01 5.82835E-01-1.25081E-02 1.68304E+00-1.89436E-13 1.80247E-13
 -1      2461 2.13825E+01 6.58504E-01 1.07723E-02 1.91502E+00-1.39740E-13-1.73429E-15
 -1      2462 2.02404E+01 1.02422E+00 1.80102E-02 2.15906E+00-2.91115E-14 1.17174E-13
 -1      2463 2.07870E+01 4.52711E-01-7.62258E-03 1.26470E+00-1.58807E-13-4.28422E-14
 -1      2464 2.10576E+01 5.21703E-01 9.91878E-03 1.45261E+00-2.12341E-13 9.99535E-14
 -1      2465 2.03017E+01 8.26357E-01 1.25425E-02 1.66540E+00-1.47023E-13-5.95242E-14
 -1      2466 2.05635E+01 3.49047E-01-4.03405E-03 9.37500E-01-1.98772E-13-2.14667E-13
 -1      2467 2.07754E+01 4.00046E-01 8.71087E-03 1.08424E+00-2.59204E-13-1.48158E-13
 -1      2468 2.02970E+01 6.38299E-01 7.59901E-03 1.26883E+00-1.25844E-13-4.59061E-13
 -1      2469 2.03784E+01 2.81200E-01-1.01899E-03 6.77923E-01-1.28252E-13-1.52263E-13
 -1      2470 2.05351E+01 3.10630E-01 6.14117E-03 7.94601E-01-1.20172E-13-2.01237E-13
 -1      2471 2.02536E+01 4.97685E-01 4.99447E-03 9.50478E-01-2.71151E-13-2.40543E-13
 -1      2472 2.01975E+01 2.08644E-01 2.91278E-03 3.47825E-01 2.03502E-13-3.35597E-13
 -1      2473 1.97609E+01 8.39195E-01-3.38985E-03 2.26572E-01 2.00695E-14 1.35040E-13
 -1      2474 1.97842E+01 8.00500E-01-2.16200E-03 3.10031E-01 8.56111E-14-1.27653E-13
 -1      2475 1.97588E+01 8.49123E-01-1.62451E-03 2.88386E-02 1.03829E-13-2.63890E-13
 -1      2476 1.97527E+01 8.42923E-01-3.89185E-03 1.17904E-01 8.56795E-14 5.86945E-14
 -1      2477 1.96830E+01 8.41666E-01 4.47697E-03 1.83637E-01 1.82175E-13 2.18298E-13
 -1      2478 1.99390E+01 6.00574E-01-5.47711E-03 5.07917E-01-1.59727E-13 1.38675E-13
 -1      2479 2.00193E+01 5.17032E-01 4.62159E-03 5.22707E-01-1.27268E-13 1.56179E-13
 -1      2480 1.98231E+01 7.53876E-01-4.40066E-03 4.02646E-01-2.03977E-13-2.48226E-14
 -1      2481 1.98764E+01 6.87175E-01 7.01905E-04 4.58123E-01-1.91387E-13 2.80233E-13
 -1      2482 1.98837E+01 6.66288E-01 3.90129E-03 5.58086E-01-1.52993E-13 2.05299E-13
 -1      2483 1.97422E+01 7.95245E-01 4.36096E-03 4.00372E-01-2.62888E-14 1.41316E-13
 -1      2484 1.98025E+01 7.91201E-01-3.09739E-05-1.48740E-01-3.97087E-14-5.67729E-13
 -1      2485 1.97751E+01 8.14390E-01-4.78900E-03-7.20954E-02 1.68377E-14-5.98636E-13
 -1      2486 1.96954E+01 8.10967E-01 3.48619E-03-4.12176E-02 1.31132E-13-4.20404E-13
 -1      2487 1.98714E+01 6.84915E-01 1.07414E-03-2.78088E-01-2.87529E-14 8.60811E-14
 -1      2488 1.98338E+01 7.30457E-01-4.53433E-03-2.24882E-01-1.10987E-13-4.45495E-14
 -1      2489 1.97613E+01 7.18870E-01 1.93836E-03-2.29508E-01 7.47592E-14-2.65673E-13
 -1      2490 1.99446E+01 5.54112E-01 1.55973E-03-3.48312E-01-1.29688E-13-2.93341E-13
 -1      2491 1.99073E+01 6.12828E-01-3.42039E-03-3.21922E-01-1.05505E-13-6.81908E-14
 -1      2492 1.98537E+01 5.91150E-01 4.14890E-04-3.55512E-01-1.13229E-13-7.66311E-14
 -1      2493 2.00059E+01 4.22854E-01 1.61224E-03-3.63517E-01 8.72072E-14-2.16305E-13
 -1      2494 1.99762E+01 4.84572E-01-1.91228E-03-3.60878E-01 7.12961E-14-6.14116E-13
 -1      2495 1.99463E+01 4.54801E-01-6.97466E-04-4.13059E-01-4.77565E-14-3.74393E-13
 -1      2496 2.00502E+01 3.02195E-01 1.44675E-03-3.37171E-01 2.79164E-13 4.39514E-13
 -1      2497 2.00299E+01 3.61853E-01-4.78205E-04-3.52179E-01 1.42672E-13 1.31710E-13
 -1      2498 2.00220E+01 3.28588E-01-1.38194E-03-4.12094E-01 2.51354E-13 2.04293E-14
 -1      2499 2.00757E+01 2.02600E-01 1.07537E-03-2.84717E-01 3.91378E-13 1.37680E-14
 -1      2500 2.00643E+01 2.54523E-01 5.02214E-04-3.10101E-01 2.64669E-13 4.41955E-13
 -1      2501 2.00745E+01 2.23073E-01-1.49252E-03-3.69413E-01 7.53493E-14 3.47513E-13
 -1      2502 2.00877E+01 1.26638E-01 1.14998E-03-2.19959E-01 8.84777E-14-4.53264E-13
 -1      2503 2.00826E+01 1.68396E-01 1.25321E-03-2.49837E-01 2.79356E-13-3.26301E-13
 -1      2504 2.01055E+01 1.44389E-01-8.52238E-05-3.03535E-01 1.73406E-13-2.40690E-13
 -1      2505 4.37788E+00-2.68132E+00 1.07538E-01 2.53896E+00-2.56836E-13 3.25850E-13
 -1      2506 3.40780E+00-2.10199E+00 1.25745E-01-1.10114E-01-3.31647E-13 3.67151E-13
 -1      2507 7.56182E+00-4.08031E+00 6.40139E-02-4.78714E+00-2.93265E-13-7.67997E-13
 -1      2508 1.14760E+01-4.81976E+00 1.13380E-02-6.10331E+00-2.44249E-13-4.20414E-13
 -1      2509 1.97029E+01 1.43507E-01 3.26190E-03 6.02064E-02 1.63986E-13 9.88385E-14
 -1      2510 1.97815E+01 1.98287E-01 1.23833E-02 1.46510E-01 1.93008E-13 1.45440E-13
 -1      2511 1.98482E+01 1.81281E-01-3.87846E-03 6.54971E-02 1.88409E-13 4.44549E-14
 -1      2512 2.00708E+01 8.76633E-02-2.56402E-04-1.43858E-01 7.04789E-14-1.00823E-13
 -1      2513 1.67939E+01-5.77270E+00-1.20064E-02 6.41435E+00-2.47691E-13-2.97332E-13
 -1      2514 1.27629E+01-5.38204E+00 3.91109E-02 6.00788E+00-1.37279E-13-7.35245E-14
 -1      2515 2.29353E+01-4.96876E+00 4.63492E-02-6.01497E+00-1.16962E-13-2.35922E-15
 -1      2516 2.67231E+01-3.88996E+00-6.22548E-02-4.85549E+00-2.41501E-13-3.15331E-13
 -1      2517 3.52420E+00-2.87334E+00 8.01446E-02 3.67584E+00-3.83582E-14-1.38611E-13
 -1      2518 2.76225E+00-2.66309E+00 9.62219E-02 1.32428E+00-3.04826E-14-2.07612E-13
 -1      2519 2.36826E+01-4.84069E+00-6.69938E-02 6.12722E+00-5.31242E-14 4.35763E-14
 -1      2520 1.97199E+01-5.24368E+00 7.34000E-02 7.05140E+00-1.46633E-13-7.33580E-14
 -1      2521 3.60460E+00-2.55649E+00 1.18899E-01-3.20824E+00-3.42490E-13 4.26659E-13
 -1      2522 4.71252E+00-3.59255E+00 5.52729E-02-5.15521E+00-2.51799E-13 6.94222E-13
 -1      2523 9.64929E+00-4.55644E+00 4.09209E-02 5.73063E+00-1.00864E-13-1.07886E-13
 -1      2524 6.92180E+00-3.49609E+00 1.07660E-01 4.43009E+00-1.77858E-13 2.46470E-14
 -1      2525 1.32783E+01-3.87118E+00 1.08209E-01 5.90948E+00-9.02889E-14-1.36141E-13
 -1      2526 3.60772E+01 2.09114E+00-1.33367E-01-3.62990E+00 3.43114E-13-2.39475E-13
 -1      2527 1.51873E+01-4.90356E+00-1.47091E-02 7.98461E+00-1.20015E-13-2.24751E-13
 -1      2528 1.15968E+01-4.70188E+00 7.14203E-02 7.53998E+00-9.56457E-14-2.20560E-13
 -1      2529 3.23201E+00-2.70957E+00 9.06482E-02-9.39605E-01-9.11771E-14-3.82472E-13
 -1      2530 4.77329E+00-2.96677E+00 7.77132E-02-3.12587E+00-1.66755E-13-6.80733E-13
 -1      2531 1.95210E+01 3.58517E+00-1.00912E-02-2.45398E-01 4.59038E-14-4.91515E-13
 -1      2532 1.95370E+01 3.56448E+00-9.65481E-03-4.26175E-01-6.07641E-15-4.86818E-13
 -1      2533 1.97133E+01 3.16402E+00-5.49792E-04-4.73531E-01-2.27173E-14-4.38584E-13
 -1      2534 1.96792E+01 3.22393E+00-9.05866E-04-1.52097E-01 4.54575E-14-4.64689E-13
 -1      2535 2.37838E+01-6.37155E+00-6.31997E-02-4.41315E+00-2.66454E-14-3.78655E-13
 -1      2536 2.78420E+01-5.85996E+00-1.27835E-01-3.27325E+00 3.89688E-14-3.62349E-13
 -1      2537 3.43550E+01-1.92438E+00-1.14062E-01 3.06864E+00 8.92758E-14-2.53575E-13
 -1      2538 3.32724E+01 6.62892E+00-1.77837E-01-7.54473E-01-3.84137E-13-1.31561E-14
 -1      2539 3.29375E+01 5.01035E+00-1.07516E-01-6.92535E-01-2.18964E-13-6.48925E-14
 -1      2540 1.62719E+01-5.67123E+00 4.78234E-02-6.03371E+00-1.39777E-13-3.25642E-13
 -1      2541 2.00430E+01-6.11597E+00-1.65794E-02-5.86413E+00-7.75491E-14-4.26461E-13
 -1      2542 3.19373E+01 1.92820E+00-9.73610E-02-4.67705E-02-4.81171E-13-3.55382E-13
 -1      2543 3.28104E+01 3.96269E+00-1.74895E-01 5.34981E-01-4.54969E-13-2.11692E-13
 -1      2544 3.69259E+01 5.95807E+00-2.40856E-02 5.21768E-01 2.27374E-13-3.35967E-13
 -1      2545 3.67960E+01 4.44626E+00-4.12718E-02 2.49607E+00 2.35700E-13-3.07698E-13
 -1      2546 7.36129E+00-4.38506E+00 3.20285E-02-6.50614E+00-1.27509E-13 6.37823E-13
 -1      2547 1.13279E+01-4.61180E+00 4.64274E-02-7.79923E+00-8.02136E-14 4.59605E-13
 -1      2548 8.19436E+00-2.88577E+00 1.21069E-01-6.13824E+00-8.34888E-14 5.06623E-13
 -1      2549 3.08938E+01-4.95723E+00-6.60306E-02-8.82990E-01 8.30724E-14-3.18023E-13
 -1      2550 3.38789E+01-3.22227E+00-1.28604E-01 1.15896E+00 1.46144E-13-2.39642E-13
 -1      2551 3.24944E+01-2.90431E+00 1.04242E-02 2.51771E+00 1.24949E-13-2.15286E-13
 -1      2552 3.02383E+01-5.11410E+00 1.43038E-01-9.51856E-01-9.06220E-15-1.81327E-13
 -1      2553 2.91397E+01-2.55938E+00-1.20324E-01 3.02155E+00 8.32667E-15-3.01981E-14
 -1      2554 2.69359E+01-3.77845E+00 1.43409E-02 4.07886E+00 4.68653E-14-8.01303E-14
 -1      2555 3.26183E+01 2.35417E+00-1.46159E-01 1.36037E-01-2.27485E-13-2.91434E-14
 -1      2556 3.08496E+01-1.13109E-01-5.19906E-02 1.18221E+00-1.15699E-13-1.09357E-14
 -1      2557 3.39976E+01 8.30769E+00-1.19344E-01 5.40628E-02-3.49998E-13 2.78354E-14
 -1      2558 3.32579E+01 8.06287E+00-1.68274E-01-3.30188E-01-4.30767E-13-2.23155E-14
 -1      2559 3.33213E+01 6.49731E+00-1.40762E-01 6.28978E-01-2.88547E-13-5.68989E-14
 -1      2560 3.41190E+01 7.74983E+00-1.35216E-01 4.57804E-01-2.37255E-13-6.53644E-15
 -1      2561 3.12573E+01 7.78958E+00-6.90473E-02 4.90364E-01-2.55962E-13-2.91434E-16
 -1      2562 8.35916E+00-4.01076E+00 6.04164E-02 7.07763E+00-5.71765E-14-2.99483E-13
 -1      2563 5.57317E+00-3.63997E+00 7.82371E-02 5.53965E+00 1.25178E-14-1.60427E-13
 -1      2564 1.14939E+01-3.54513E+00 1.19448E-01 7.30728E+00 6.43374E-14-2.67564E-13
 -1      2565 2.91025E+01-2.21140E+00-4.26426E-02-2.90965E+00-2.89317E-13-3.01092E-13
 -1      2566 3.11918E+01-4.51577E-01-1.34145E-01-1.69564E+00-4.57162E-13-4.40759E-13
 -1      2567 1.49418E+01-5.20957E+00 5.59388E-02-7.67246E+00-1.09357E-13 2.09471E-13
 -1      2568 1.84114E+01-5.26143E+00-5.43577E-02-7.67304E+00-1.10689E-13 2.84241E-13
 -1      2569 2.04888E+01 8.74916E-01-7.31303E-03 1.22718E+00 3.75967E-13 3.00368E-13
 -1      2570 2.08393E+01 1.25691E+00-6.05011E-03 1.72787E+00 4.16729E-13 3.58000E-13
 -1      2571 2.06455E+01 1.71560E+00-1.57906E-02 1.92204E+00 4.38189E-13 2.16233E-13
 -1      2572 2.04478E+01 1.05798E+00-9.39574E-03 1.24196E+00 3.75155E-13 1.42301E-13
 -1      2573 2.55760E+01-4.62693E+00 4.58900E-02 4.53434E+00 9.03166E-14-5.16115E-14
 -1      2574 1.99147E+01 2.81411E+00 2.10107E-03-1.09904E+00-1.93519E-13-4.25650E-13
 -1      2575 1.97810E+01 3.15960E+00-1.54592E-02-1.28602E+00-2.18566E-13-4.59388E-13
 -1      2576 1.98767E+01 3.03907E+00-1.70470E-02-1.48295E+00-2.78858E-13-4.22637E-13
 -1      2577 2.01099E+01 5.81015E-02 1.38786E-03-1.60673E-01 1.21417E-13-5.95748E-14
 -1      2578 2.00959E+01 9.81965E-02 7.05827E-04-1.93670E-01 9.43087E-14-2.51322E-13
 -1      2579 2.01225E+01 8.28697E-02-1.12387E-03-2.37599E-01 1.17286E-13-3.27029E-13
 -1      2580 2.01395E+01 3.99572E-02-9.16627E-04-1.78337E-01 1.07526E-13-1.52197E-13
 -1      2581 2.04216E+01 2.11574E+00-1.27761E-02 1.87504E+00 4.30859E-13 2.89352E-14
 -1      2582 2.01136E+01 2.61975E+00-1.19216E-02-1.67898E+00-3.20149E-13-3.20055E-13
 -1      2583 3.42046E+01 6.61175E-01-4.68516E-02-3.82603E+00 3.96488E-13-1.27537E-13
 -1      2584 3.70038E+01 8.61424E-01-9.12238E-03-2.68451E+00 3.32318E-13-2.66231E-13
 -1      2585 2.04358E+01 1.80806E+00 1.25481E-02 1.56276E+00 3.89907E-13-1.10103E-14
 -1      2586 3.11577E+01 3.17182E+00-4.84216E-02-1.13745E+00-1.98286E-13-2.45637E-14
 -1      2587 2.95732E+01-4.47400E+00 5.19444E-02-6.19345E-01-5.58720E-14-1.47354E-13
 -1      2588 2.64407E+01-5.57104E+00-7.27320E-02-3.16611E+00-6.75571E-14-2.03934E-13
 -1      2589 1.44162E+01-4.45365E+00 1.19806E-01-7.66969E+00-7.34968E-14 2.67120E-13
 -1      2590 3.12983E+01-3.94869E+00-1.44301E-01 1.18990E+00-3.35842E-14-1.67477E-13
 -1      2591 3.31744E+01-1.99511E+00-3.27196E-01-3.57957E+00 5.51226E-14-1.31256E-13
 -1      2592 2.01713E+01 2.90779E-01 3.07723E-03 4.42817E-01 2.06604E-13-4.99073E-14
 -1      2593 2.02490E+01 2.10557E-01 7.92182E-04 4.28727E-01 1.82368E-13-3.11428E-13
 -1      2594 2.03689E+01 2.18915E-01 2.68771E-03 5.25917E-01-9.09862E-15-1.33470E-13
 -1      2595 2.01217E+01 3.66054E-01-2.28235E-03 4.84155E-01 7.04521E-14-1.07686E-13
 -1      2596 2.02412E+01 3.68685E-01 6.57021E-03 6.70744E-01-7.67893E-14 2.60267E-14
 -1      2597 2.00909E+01 4.37735E-01-2.28172E-04 5.81936E-01-7.65832E-15-1.36081E-14
 -1      2598 8.06845E+00-2.27227E+00 1.68073E-01-4.00365E+00-2.77042E-13-6.40210E-13
 -1      2599 5.95258E+00-2.84651E-01 1.56795E-01-8.08145E-02-4.01239E-13 3.60906E-13
 -1      2600 4.50717E+00-1.48012E+00 1.76975E-01-1.55301E+00-3.44731E-13 3.63709E-13
 -1      2601 6.09808E+00-7.64707E-01 1.51586E-01-2.88357E+00-3.13687E-13 4.00457E-13
 -1      2602 7.55750E+00-1.87148E+00 1.55406E-01 3.54057E+00-2.89130E-13 1.77525E-13
 -1      2603 1.54418E+01-4.47697E+00 1.23317E-01-5.94560E+00-2.20296E-13-4.08548E-13
 -1      2604 1.99936E+01 3.40338E-01-3.57955E-03 3.04918E-01 2.56557E-13 5.85886E-14
 -1      2605 2.19568E+01-5.17226E+00 7.27577E-02-6.34807E+00-7.76046E-14-4.23342E-14
 -1      2606 3.11158E+01 4.81369E+00-8.08945E-02 1.44338E+00-3.17413E-13-1.22152E-13
 -1      2607 2.11110E+01-5.82661E+00 6.11107E-02 5.32312E+00-1.90181E-13-2.55330E-13
 -1      2608 2.79863E+01-3.60105E+00 3.83778E-02-2.91347E+00-2.24001E-13-2.13024E-13
 -1      2609 3.05899E+01 2.33968E-01-8.13506E-03 1.36514E-01-4.34257E-13-2.61735E-13
 -1      2610 5.00831E+00-1.15619E+00 1.78569E-01 1.92590E-01 1.34233E-14-3.49554E-13
 -1      2611 6.41242E+00-1.94232E+00 1.52846E-01 4.65600E+00 1.06207E-13-1.49353E-13
 -1      2612 1.87121E+01-4.90866E+00 1.15139E-01 7.20671E+00 7.18869E-15-9.54896E-14
 -1      2613 3.52903E+01-1.83376E+00 2.21739E-02-2.01845E+00 1.40291E-13-1.24400E-13
 -1      2614 2.01612E+01 3.88330E-02 2.22213E-04-2.18574E-01 7.61090E-14-2.91164E-13
 -1      2615 2.97606E+01-1.59045E+00-5.87773E-03 9.93726E-01 1.82840E-14 6.70297E-14
 -1      2616 3.11379E+01 7.01947E+00-1.01117E-01-9.62469E-01-4.18970E-13-3.69704E-14
 -1      2617 2.37695E+01-5.79968E+00 1.15590E-01-4.46836E+00-1.53433E-13-3.66332E-13
 -1      2618 2.92266E+01-1.00368E+00-2.01168E-01-2.21690E-01-2.41057E-14 1.48645E-13
 -1      2619 2.83994E+01-2.65816E+00 4.61939E-02 1.10470E+00 1.19512E-13 1.24151E-13
 -1      2620 1.98468E+01 2.76542E+00-6.31940E-03 5.16373E-01 2.01526E-13-4.35129E-13
 -1      2621 1.98222E+01 2.81518E+00-5.70866E-03 3.65447E-01 1.59465E-13-4.60197E-13
 -1      2622 1.98054E+01 2.85279E+00-5.60921E-03 2.29839E-01 1.28173E-13-4.76518E-13
 -1      2623 1.97968E+01 2.86971E+00-5.43728E-03 7.51822E-02 9.36204E-14-4.59825E-13
 -1      2624 1.99519E+01 2.50170E+00 3.68348E-03 2.65197E-01 1.38741E-13-4.42812E-13
 -1      2625 2.00448E+01 2.32409E+00-1.07181E-02 1.04631E+00 3.24453E-13-2.92521E-13
 -1      2626 1.99808E+01 2.47307E+00-6.34093E-03 9.10618E-01 2.97065E-13-3.46050E-13
 -1      2627 2.02170E+01 1.90870E+00-1.19280E-02 1.22777E+00 3.36624E-13-2.05076E-13
 -1      2628 2.01250E+01 2.14641E+00-4.83107E-03 1.13445E+00 3.26715E-13-2.49811E-13
 -1      2629 2.01904E+01 1.88685E+00 6.45443E-03 9.26920E-01 2.92458E-13-2.55097E-13
 -1      2630 2.95924E+01 3.81892E+00-1.90115E-01-1.74749E+00-1.74832E-13 1.04222E-14
 -1      2631 2.98000E+01 1.68200E+00-4.82079E-02-1.37036E+00-5.54973E-14 8.10185E-14
 -1      2632 2.03213E+01 1.06006E+00 6.04012E-03-8.57462E-01-2.74953E-13-1.96889E-13
 -1      2633 2.02272E+01 8.15676E-01-5.44373E-03-6.13996E-01-2.36502E-13-2.02393E-13
 -1      2634 2.02121E+01 7.26883E-01-3.48282E-03 6.43248E-01 3.00144E-13-1.22515E-16
 -1      2635 2.03540E+01 9.51690E-01 9.17966E-03 9.06983E-01 3.11313E-13 1.32695E-14
 -1      2636 2.00777E+01 5.04621E-01-1.15670E-03 7.04539E-01-2.11648E-13-5.93513E-14
 -1      2637 1.98435E+01 8.13037E-03 2.64843E-04-1.81326E-01 8.42443E-14-4.59260E-14
 -1      2638 1.98420E+01 2.63439E-02 1.73759E-03-1.69998E-01 9.59893E-14-6.24193E-14
 -1      2639 2.03373E+01 1.50028E+00-1.89891E-03 1.26750E+00 3.50242E-13-4.16381E-14
 -1      2640 2.02164E+01 6.28339E-01 8.69643E-03-4.36958E-01-2.02656E-13-1.81057E-13
 -1      2641 2.01321E+01 4.76068E-01-3.28091E-03-2.78325E-01-1.65655E-13-1.70937E-13
 -1      2642 2.02629E+01 8.94552E-01 1.40819E-03-5.72945E-01-2.21290E-13-2.10542E-13
 -1      2643 2.01063E+01 3.63478E-01 6.67918E-03-1.58294E-01-1.40948E-13-1.53456E-13
 -1      2644 2.00472E+01 2.69001E-01-1.72136E-03-6.03152E-02-1.11231E-13-1.68341E-13
 -1      2645 2.01956E+01 5.29988E-01-1.50711E-03-2.61649E-01-1.57974E-13-1.74501E-13
 -1      2646 2.00212E+01 1.99105E-01 4.52656E-03 1.54123E-02-9.46704E-14-1.70911E-13
 -1      2647 1.99857E+01 1.40017E-01-7.95212E-04 7.25202E-02-8.74649E-14-1.79199E-13
 -1      2648 2.01270E+01 3.00427E-01-2.06915E-03-5.44904E-02-1.20291E-13-1.76634E-13
 -1      2649 1.99650E+01 9.63848E-02 2.88852E-03 1.16583E-01-8.12051E-14-1.74419E-13
 -1      2650 1.99474E+01 5.97493E-02-2.41643E-04 1.46839E-01-8.75736E-14-1.91061E-13
 -1      2651 2.00708E+01 1.55369E-01-1.90796E-03 7.39913E-02-9.11902E-14-2.15007E-13
 -1      2652 1.99327E+01 3.29967E-02 1.71600E-03 1.69361E-01-9.39582E-14-2.04629E-13
 -1      2653 1.99275E+01 1.11224E-02 7.72466E-05 1.82472E-01-8.51550E-14-2.16423E-13
 -1      2654 2.00303E+01 6.45517E-02-1.54060E-03 1.46816E-01-1.05562E-13-2.17506E-13
 -1      2655 1.99181E+01-4.40693E-03 9.02434E-04 1.91078E-01-5.82916E-14-2.11454E-13
 -1      2656 1.99211E+01-1.63467E-02 2.60724E-04 1.93750E-01-8.13569E-14-2.16859E-13
 -1      2657 2.00037E+01 9.66589E-03-1.16662E-03 1.82253E-01-8.01847E-14-2.52324E-13
 -1      2658 1.99157E+01-2.42548E-02 3.53420E-04 1.93996E-01-1.09590E-13-1.75184E-13
 -1      2659 1.99238E+01-2.94183E-02 3.70148E-04 1.90886E-01-1.31711E-13-1.66255E-13
 -1      2660 1.99881E+01-2.09363E-02-8.52689E-04 1.93985E-01-6.09092E-14-1.82469E-13
 -1      2661 1.99215E+01-3.20984E-02-5.06874E-06 1.86761E-01-1.41828E-13-1.45038E-13
 -1      2662 1.99325E+01-3.26206E-02 4.41348E-04 1.81110E-01-1.09596E-13-1.38693E-13
 -1      2663 1.99807E+01-3.49182E-02-6.11533E-04 1.91979E-01-1.10198E-13-1.18241E-13
 -1      2664 1.99324E+01-3.17146E-02-2.28736E-04 1.75451E-01-1.21632E-13-1.26396E-13
 -1      2665 1.99451E+01-2.90786E-02 4.94506E-04 1.69511E-01-1.22028E-13-1.56042E-13
 -1      2666 1.99791E+01-3.74791E-02-4.37064E-04 1.83393E-01-1.32113E-13-1.08274E-13
 -1      2667 1.99467E+01-2.57487E-02-3.58265E-04 1.64309E-01-8.67543E-14-1.90870E-13
 -1      2668 1.99604E+01-2.10216E-02 5.40272E-04 1.59620E-01-1.01385E-13-1.52449E-13
 -1      2669 1.99818E+01-3.22437E-02-3.18537E-04 1.73313E-01-1.29633E-13-1.41446E-13
 -1      2670 1.99633E+01-1.61333E-02-4.21703E-04 1.56249E-01-1.11675E-13-1.50453E-13
 -1      2671 1.99779E+01-1.01401E-02 5.82602E-04 1.53821E-01-1.43838E-13-1.29422E-13
 -1      2672 1.99876E+01-2.18320E-02-2.46011E-04 1.65293E-01-1.05298E-13-9.90337E-14
 -1      2673 1.99819E+01-4.40817E-03-4.36127E-04 1.53176E-01-1.39984E-13-6.78502E-14
 -1      2674 1.99974E+01 2.11944E-03 6.19583E-04 1.53588E-01-8.12752E-14-3.68441E-16
 -1      2675 1.99960E+01-8.27657E-03-2.12341E-04 1.61743E-01-8.50784E-14-1.00486E-13
 -1      2676 2.00028E+01 7.99857E-03-4.08657E-04 1.56162E-01-8.49891E-14 1.80356E-14
 -1      2677 2.00196E+01 1.42803E-02 6.43144E-04 1.59592E-01-7.31867E-14 3.64261E-14
 -1      2678 2.00069E+01 6.62186E-03-2.14117E-04 1.64161E-01-7.64710E-14 2.70984E-14
 -1      2679 2.00267E+01 1.94965E-02-3.36873E-04 1.65480E-01-1.13777E-13 6.26651E-15
 -1      2680 2.00452E+01 2.45603E-02 6.38144E-04 1.71664E-01-1.44727E-13 1.18045E-14
 -1      2681 2.00208E+01 2.09580E-02-2.52271E-04 1.73219E-01-1.13465E-13 6.35864E-14
 -1      2682 2.00549E+01 2.80584E-02-2.08961E-04 1.80495E-01-1.22009E-13 5.53771E-14
 -1      2683 2.00757E+01 3.06012E-02 5.81181E-04 1.88616E-01-7.56746E-14-1.88757E-14
 -1      2684 2.00388E+01 3.23868E-02-3.32499E-04 1.88718E-01-1.28269E-13 9.39389E-14
 -1      2685 2.00891E+01 3.09597E-02-4.22135E-06 1.99416E-01-7.59858E-14-6.59373E-14
 -1      2686 2.01128E+01 2.92319E-02 4.39594E-04 2.07938E-01-7.54923E-14-8.79008E-14
 -1      2687 2.00624E+01 3.78006E-02-4.65193E-04 2.09387E-01-1.42471E-13 4.05246E-14
 -1      2688 2.01317E+01 2.45857E-02 3.04939E-04 2.18916E-01-4.58800E-14-1.14675E-13
 -1      2689 2.01588E+01 1.63468E-02 1.71409E-04 2.25371E-01 4.52756E-14-1.61490E-13
 -1      2690 2.00944E+01 3.30687E-02-6.64057E-04 2.32544E-01-8.35626E-14-1.12866E-13
 -1      2691 2.01856E+01 4.41052E-03 7.47693E-04 2.33655E-01 9.95240E-14-2.39440E-13
 -1      2692 2.02166E+01-1.29601E-02-2.72455E-04 2.34435E-01 1.50805E-13-2.57549E-13
 -1      2693 2.01384E+01 1.29484E-02-9.41891E-04 2.53627E-01 4.38827E-14-1.94083E-13
 -1      2694 2.02541E+01-3.46629E-02 1.34349E-03 2.35794E-01 1.92064E-13-2.47279E-13
 -1      2695 2.02890E+01-6.37687E-02-9.41264E-04 2.26027E-01 1.82720E-13-2.27845E-13
 -1      2696 2.01992E+01-2.86346E-02-1.30125E-03 2.65633E-01 1.49102E-13-3.15264E-13
 -1      2697 2.03406E+01-9.73269E-02 2.08123E-03 2.14669E-01 1.27861E-13-2.39264E-13
 -1      2698 2.03788E+01-1.39889E-01-1.86802E-03 1.88346E-01 1.36885E-14-2.04453E-13
 -1      2699 2.02824E+01-9.76328E-02-1.71678E-03 2.58609E-01 1.44752E-13-2.57908E-13
 -1      2700 2.04473E+01-1.85898E-01 2.88502E-03 1.56979E-01-1.01896E-13-2.40193E-13
 -1      2701 2.04868E+01-2.41239E-01-3.03580E-03 1.07557E-01-1.30642E-13-2.80153E-13
 -1      2702 2.03940E+01-1.97829E-01-2.10631E-03 2.19419E-01-8.07924E-14-2.10616E-13
 -1      2703 2.05732E+01-2.97037E-01 3.56787E-03 4.80601E-02-1.05724E-13-2.63319E-13
 -1      2704 2.06100E+01-3.59869E-01-4.32101E-03-3.01033E-02-9.51996E-14-2.42077E-13
 -1      2705 2.05379E+01-3.27269E-01-2.29704E-03 1.32301E-01-1.11209E-13-2.00265E-13
 -1      2706 2.07109E+01-4.17262E-01 3.78865E-03-1.24875E-01-4.67507E-14-1.90533E-13
 -1      2707 2.07387E+01-4.75139E-01-5.40108E-03-2.33914E-01 2.35519E-14-1.00184E-13
 -1      2708 2.07129E+01-4.73110E-01-2.00985E-03-1.89199E-02-5.00305E-14-4.80257E-14
 -1      2709 2.08434E+01-5.18297E-01 3.06358E-03-3.66459E-01 6.46572E-14-2.26745E-14
 -1      2710 2.08528E+01-5.50067E-01-5.67357E-03-5.01030E-01 1.00360E-13 3.08423E-14
 -1      2711 2.09077E+01-6.05673E-01-8.80769E-04-2.45673E-01 9.75217E-14 5.75071E-14
 -1      2712 2.09409E+01-5.55487E-01 9.08987E-04-6.63216E-01 9.47939E-14-3.56384E-14
 -1      2713 2.09220E+01-5.33436E-01-4.27220E-03-8.05887E-01 4.85682E-14 5.55469E-15
 -1      2714 2.10954E+01-6.74945E-01 1.34245E-03-5.44994E-01 9.33518E-14 1.59794E-14
 -1      2715 2.09658E+01-4.74844E-01-2.56428E-03-9.72136E-01 1.25546E-14 3.23253E-14
 -1      2716 2.09115E+01-3.73686E-01-4.71835E-04-1.09054E+00 3.38276E-14 1.17883E-13
 -1      2717 2.12325E+01-6.16576E-01 4.41854E-03-8.85668E-01 4.92705E-14 2.64299E-15
 -1      2718 2.08851E+01-2.34062E-01-6.69949E-03-1.21436E+00 8.12356E-14 1.74109E-13
 -1      2719 2.07979E+01-4.75002E-02 5.15099E-03-1.26433E+00 4.13314E-14 2.58338E-13
 -1      2720 2.12682E+01-3.72020E-01 7.44196E-03-1.19585E+00 1.07396E-13 4.22267E-14
 -1      2721 2.06959E+01 1.62804E-01-9.91656E-03-1.28593E+00-3.26297E-14 2.41487E-13
 -1      2722 2.05927E+01 4.03727E-01 1.03083E-02-1.22566E+00-3.33518E-14 1.88834E-13
 -1      2723 2.11697E+01 6.97784E-02 7.59490E-03-1.36398E+00 8.24200E-15 2.41710E-13
 -1      2724 2.04473E+01 6.35030E-01-9.39129E-03-1.09697E+00-8.11066E-14 2.77056E-13
 -1      2725 2.03569E+01 8.56965E-01 1.18080E-02-9.09842E-01-1.46892E-13 2.74830E-13
 -1      2726 2.09562E+01 6.32260E-01 2.96336E-03-1.27092E+00-3.46785E-14 2.06774E-13
 -1      2727 2.02373E+01 1.02680E+00-3.80173E-03-6.30944E-01-2.86041E-13 3.31353E-13
 -1      2728 2.01912E+01 1.14096E+00 7.82307E-03-3.48056E-01-3.10682E-13 2.28877E-13
 -1      2729 2.07185E+01 1.14653E+00-3.63782E-03-8.55551E-01-2.05432E-13 4.35344E-13
 -1      2730 2.01648E+01 1.17602E+00 4.63436E-03 1.11412E-02-1.65537E-13 3.57123E-13
 -1      2731 2.01801E+01 1.13137E+00 7.27035E-05 3.13934E-01-6.34731E-14 4.01956E-13
 -1      2732 2.05850E+01 1.40884E+00-7.90529E-03-1.87409E-01-1.47543E-13 5.92538E-13
 -1      2733 2.02613E+01 1.01623E+00 1.08155E-02 6.41575E-01-7.16541E-14 3.85339E-13
 -1      2734 2.03312E+01 8.32854E-01-7.41825E-03 8.79235E-01 6.11537E-14 3.65522E-13
 -1      2735 2.06351E+01 1.30629E+00-6.14613E-03 5.33947E-01-1.24187E-13 7.59762E-13
 -1      2736 2.04736E+01 6.17586E-01 1.18361E-02 1.08064E+00 1.08402E-13 1.76051E-13
 -1      2737 2.05714E+01 3.72513E-01-1.04186E-02 1.19851E+00 1.79708E-13 2.71801E-13
 -1      2738 2.08370E+01 8.82659E-01-1.64312E-04 1.08252E+00-4.60725E-14 2.91029E-13
 -1      2739 2.06999E+01 1.42005E-01 7.98164E-03 1.24062E+00 2.61382E-13 1.19380E-13
 -1      2740 2.07939E+01-7.84666E-02-8.63107E-03 1.23486E+00 1.75300E-13-1.15798E-15
 -1      2741 2.10754E+01 3.13415E-01 6.13341E-03 1.32100E+00 1.38948E-13 8.91252E-14
 -1      2742 2.08565E+01-2.56347E-01 2.12160E-03 1.14752E+00 8.29391E-14-5.11433E-14
 -1      2743 2.09231E+01-3.99950E-01-4.70989E-03 1.05129E+00 1.55555E-13-7.34337E-14
 -1      2744 2.12331E+01-2.05188E-01 8.00888E-03 1.25540E+00 1.23485E-13-1.90962E-13
 -1      2745 2.09086E+01-4.96206E-01-2.76516E-03 8.93342E-01 2.09847E-13-1.77081E-13
 -1      2746 2.09389E+01-5.53021E-01-7.03520E-04 7.52842E-01 1.82332E-13-2.37494E-13
 -1      2747 2.12565E+01-5.48071E-01 5.96951E-03 9.87422E-01 7.30009E-14-2.59395E-13
 -1      2748 2.08661E+01-5.73955E-01-5.26561E-03 5.79756E-01 1.74699E-13-2.82849E-13
 -1      2749 2.08636E+01-5.62621E-01 2.17573E-03 4.34470E-01-4.22472E-14-1.73670E-14
 -1      2750 2.11576E+01-6.88359E-01 2.67552E-03 6.40046E-01 1.04851E-13-4.67820E-13
 -1      2751 2.07615E+01-5.31938E-01-5.69048E-03 2.82311E-01-1.71505E-13 1.96727E-13
 -1      2752 2.07356E+01-4.80320E-01 3.59859E-03 1.57226E-01-1.63175E-13 1.70204E-13
 -1      2753 2.09836E+01-6.67481E-01-3.79741E-05 3.06875E-01 6.82497E-14-1.74508E-13
 -1      2754 2.06285E+01-4.23338E-01-4.94744E-03 4.21612E-02-1.79011E-13 2.85827E-13
 -1      2755 2.05893E+01-3.55596E-01 3.87649E-03-5.13723E-02 3.09650E-14 1.06923E-13
 -1      2756 2.07836E+01-5.50164E-01-1.66036E-03 3.82258E-02-7.75587E-14 5.27796E-14
 -1      2757 2.04922E+01-2.91252E-01-3.78440E-03-1.26682E-01 1.21287E-13 6.63128E-14
 -1      2758 2.04477E+01-2.23143E-01 3.51100E-03-1.86647E-01-3.86494E-14 4.14527E-14
 -1      2759 2.05921E+01-3.93117E-01-2.25679E-03-1.49919E-01 2.57017E-14 7.37784E-14
 -1      2760 2.03665E+01-1.62599E-01-2.69811E-03-2.26501E-01-2.14479E-13 3.43197E-15
 -1      2761 2.03219E+01-1.01708E-01 2.81464E-03-2.56168E-01-2.69401E-13-1.72030E-13
 -1      2762 2.04271E+01-2.33773E-01-2.07251E-03-2.61189E-01-2.28713E-13-2.23600E-14
 -1      2763 2.02570E+01-4.87248E-02-1.68532E-03-2.66544E-01-1.83580E-13-3.38218E-13
 -1      2764 2.02153E+01 6.91624E-04 1.77282E-03-2.69769E-01-1.15343E-13-4.65333E-13
 -1      2765 2.02930E+01-8.95066E-02-1.14810E-03-3.07838E-01-4.43955E-13-3.21373E-13
 -1      2766 1.98547E+01 4.84046E-02 7.03192E-05-1.48196E-01 1.20915E-13-8.97760E-14
 -1      2767 1.98675E+01 7.94496E-02 3.27758E-03-1.20439E-01 1.17878E-13-5.78003E-14
 -1      2768 1.99512E+01 5.37357E-02-1.78284E-03-1.51273E-01 1.07335E-13-9.38164E-14
 -1      2769 1.98906E+01 1.17589E-01-3.93140E-04-7.40104E-02 1.35761E-13-2.79089E-14
 -1      2770 1.99272E+01 1.71395E-01 5.28448E-03-1.61096E-02 1.68323E-13 1.25182E-14
 -1      2771 1.99912E+01 1.34398E-01-2.41968E-03-7.63845E-02 1.68030E-13-6.49600E-14
 -1      2772 1.98479E+01-1.46136E-02 3.46792E-04-1.90624E-01 8.31145E-14 9.74400E-16
 -1      2773 1.98379E+01-4.72224E-03 8.36290E-04-1.89172E-01 9.55299E-14-1.57435E-15
 -1      2774 1.99313E+01 6.68373E-03-1.28065E-03-1.85402E-01 6.71371E-14-6.07068E-14
 -1      2775 1.98623E+01-2.54095E-02 3.97593E-04-1.86281E-01 1.07459E-13 1.12344E-14
 -1      2776 1.98474E+01-2.11796E-02 2.61094E-04-1.90205E-01 1.00586E-13 4.44032E-14
 -1      2777 1.99249E+01-1.94146E-02-8.92961E-04-1.95651E-01 7.94557E-14-4.59810E-14
 -1      2778 1.98827E+01-2.78874E-02 4.43681E-04-1.75476E-01 6.76771E-14 4.45759E-14
 -1      2779 1.98652E+01-2.76169E-02-1.00928E-04-1.81621E-01 1.14945E-13 5.04244E-14
 -1      2780 1.99277E+01-3.12260E-02-6.14452E-04-1.92262E-01 9.41407E-14 1.39000E-14
 -1      2781 1.99067E+01-2.43491E-02 5.31144E-04-1.63365E-01 5.04402E-14 2.56574E-14
 -1      2782 1.98878E+01-2.69621E-02-3.14824E-04-1.69463E-01 5.81695E-14 5.00203E-14
 -1      2783 1.99367E+01-3.30128E-02-4.26915E-04-1.82584E-01 5.64222E-14 5.05473E-15
 -1      2784 1.99344E+01-1.56740E-02 6.23716E-04-1.53427E-01 8.89041E-14 4.40510E-14
 -1      2785 1.99138E+01-2.08393E-02-4.38835E-04-1.57869E-01 6.12380E-14 3.91315E-14
 -1      2786 1.99500E+01-2.72349E-02-3.34950E-04-1.71733E-01 6.90418E-14-3.87921E-16
 -1      2787 1.99627E+01-3.29831E-03 7.44880E-04-1.49782E-01 1.16209E-13 2.70829E-14
 -1      2788 1.99420E+01-1.03342E-02-5.17894E-04-1.50795E-01 1.32283E-13 4.37974E-14
 -1      2789 1.99664E+01-1.54124E-02-2.35079E-04-1.64190E-01 1.24738E-13 2.23804E-15
 -1      2790 1.99934E+01 1.31386E-02 9.41149E-04-1.54580E-01 8.81923E-14 2.34359E-14
 -1      2791 1.99712E+01 3.93097E-03-5.70920E-04-1.51069E-01 1.18044E-13 2.51829E-14
 -1      2792 1.99844E+01 1.33095E-03-1.98659E-04-1.63380E-01 1.21253E-13-2.65391E-14
 -1      2793 2.00272E+01 3.43751E-02 1.21123E-03-1.70605E-01-4.77960E-14 8.94501E-14
 -1      2794 2.00025E+01 2.25269E-02-6.33730E-04-1.61150E-01 2.23917E-14 7.01739E-14
 -1      2795 2.00042E+01 2.34540E-02-1.75838E-04-1.71949E-01 4.00135E-14 4.25442E-14
 -1      2796 2.00650E+01 6.18957E-02 1.57814E-03-2.01095E-01-2.69594E-14 4.76938E-14
 -1      2797 2.00366E+01 4.65243E-02-7.38322E-04-1.83967E-01 9.22881E-15 8.03723E-14
 -1      2798 2.00255E+01 5.20674E-02-1.41244E-04-1.92862E-01-2.35598E-14 9.02682E-14
 -1      2799 2.01078E+01 9.80933E-02 2.06996E-03-2.50139E-01-6.50696E-15-7.94175E-14
 -1      2800 2.00742E+01 7.78140E-02-9.22515E-04-2.23086E-01-3.37361E-14-1.99557E-14
 -1      2801 2.00477E+01 8.92432E-02-6.01812E-05-2.29504E-01 2.22006E-14 7.48564E-14
 -1      2802 2.01563E+01 1.46565E-01 2.82095E-03-3.23075E-01 3.55445E-14-3.89072E-14
 -1      2803 2.01156E+01 1.19272E-01-1.24566E-03-2.83124E-01-3.31294E-15-7.22529E-14
 -1      2804 2.00696E+01 1.38247E-01 1.21834E-04-2.86029E-01 6.99634E-15-4.85942E-14
 -1      2805 2.02115E+01 2.15888E-01 3.70020E-03-4.33301E-01 7.32908E-14-8.89727E-14
 -1      2806 2.01607E+01 1.76875E-01-1.77804E-03-3.72627E-01 1.01842E-13-1.03083E-14
 -1      2807 2.00886E+01 2.05289E-01 3.15587E-04-3.70298E-01 3.77559E-14-7.47986E-14
 -1      2808 2.02650E+01 3.06021E-01 4.57262E-03-5.79964E-01 2.11416E-14-1.13230E-13
 -1      2809 2.02071E+01 2.55337E-01-2.56874E-03-4.99293E-01 4.94304E-14-7.10088E-14
 -1      2810 2.00988E+01 2.97024E-01 1.16783E-03-4.87768E-01 5.99069E-14-8.50901E-14
 -1      2811 2.03125E+01 4.27592E-01 5.75942E-03-7.79177E-01 7.11809E-14-8.72061E-14
 -1      2812 2.02460E+01 3.59573E-01-3.78184E-03-6.69148E-01-1.53084E-14-1.35718E-13
 -1      2813 2.00898E+01 4.17719E-01 2.32856E-03-6.43417E-01 3.06417E-14-7.48583E-14
 -1      2814 2.03405E+01 5.87082E-01 7.03013E-03-1.04471E+00 1.83828E-13-9.67365E-14
 -1      2815 2.02678E+01 4.98579E-01-5.53047E-03-8.97569E-01 2.08133E-13-7.29628E-14
 -1      2816 2.00460E+01 5.78255E-01 4.20658E-03-8.49255E-01 1.15584E-13-1.19856E-13
 -1      2817 2.03277E+01 7.85008E-01 8.28278E-03-1.39088E+00 8.49678E-14-1.23328E-13
 -1      2818 2.02538E+01 6.76905E-01-7.95375E-03-1.19917E+00 1.29587E-13-7.06756E-14
 -1      2819 1.99419E+01 7.84905E-01 7.04254E-03-1.11607E+00 1.66873E-13 7.85223E-15
 -1      2820 2.02469E+01 1.00336E+00 9.64807E-03-1.82956E+00-3.89454E-14-1.20836E-13
 -1      2821 2.01778E+01 8.87997E-01-1.10578E-02-1.58892E+00 3.79972E-14-1.06182E-13
 -1      2822 1.97413E+01 1.03394E+00 1.09857E-02-1.45516E+00 6.14374E-14-2.05597E-14
 -1      2823 2.00794E+01 1.17932E+00 1.23524E-02-2.36539E+00-1.07228E-14-1.58434E-13
 -1      2824 2.00107E+01 1.09624E+00-1.41640E-02-2.08003E+00-5.84160E-14-1.82757E-13
 -1      2825 1.93983E+01 1.29531E+00 1.60471E-02-1.87880E+00 1.54062E-14-1.42602E-13
 -1      2826 1.98277E+01 1.14871E+00 2.17264E-02-3.02430E+00 1.69940E-14-1.77384E-13
 -1      2827 1.97316E+01 1.20281E+00-1.33056E-02-2.69536E+00 8.95949E-14-1.47296E-13
 -1      2828 1.88507E+01 1.47694E+00 2.02168E-02-2.42304E+00-4.52787E-14-2.05624E-13
 -1      2829 1.96741E+01 5.82317E-01 4.49978E-02-3.71489E+00-8.33838E-14-2.87422E-13
 -1      2830 1.94275E+01 9.53297E-01-1.38842E-03-3.42664E+00-3.07445E-14-1.50570E-13
 -1      2831 1.81087E+01 1.35906E+00 2.79515E-02-3.11059E+00-3.29251E-15-2.16786E-13
 -1      2832 2.00317E+01-1.01165E+00 9.37597E-02-4.38552E+00-2.53783E-13-3.79162E-13
 -1      2833 1.93760E+01-4.65895E-02 4.26351E-02-4.21283E+00-1.73368E-13-3.18821E-13
 -1      2834 1.73197E+01 5.36756E-01 3.53822E-02-4.00429E+00-8.21669E-14-2.69451E-13
 -1      2835 2.00692E+01 4.15912E-01-1.60414E-03 2.88090E-01 2.33600E-13 9.39106E-15
 -1      2836 2.01705E+01 5.54204E-01 1.04815E-02 4.51109E-01 2.73503E-13 2.02390E-14
 -1      2837 2.02537E+01 8.22134E-01 8.55905E-04 6.17764E-01 2.75498E-13-5.38561E-14
 -1      2838 1.36201E+01-3.45897E+00 1.61345E-01-7.19048E+00-1.18128E-13 3.30860E-13
 -1      2839 1.64896E+01-4.34321E+00-9.23797E-03-7.41005E+00-1.71391E-13 8.39329E-14
 -1      2840 8.12142E+00-7.74282E-01 1.42245E-01-3.16560E+00-2.07293E-13-5.35988E-13
 -1      2841 1.07823E+01-1.93557E+00 1.07856E-01-5.01073E+00-3.14901E-13-5.22360E-13
 -1      2842 1.92805E+01-4.03205E+00 1.66685E-01 5.45244E+00-1.19987E-13-3.07490E-13
 -1      2843 1.83814E+01 1.32467E+00-2.43852E-02 3.00109E+00 4.38668E-14-1.93428E-13
 -1      2844 1.83745E+01 1.15873E+00 3.64466E-02 3.32016E+00-5.10811E-14-2.39712E-13
 -1      2845 1.90460E+01 1.33906E+00-2.58244E-02 2.34913E+00-3.59764E-14-2.30343E-14
 -1      2846 1.89887E+01 1.39689E+00 1.67682E-02 2.64344E+00 8.47972E-14-1.01058E-13
 -1      2847 1.75576E+01 1.67439E+00 3.66008E-02 2.53258E+00-7.83438E-14 4.07452E-14
 -1      2848 1.95034E+01 1.14453E+00-1.92550E-02 1.85316E+00-4.14980E-14 6.35418E-15
 -1      2849 1.94727E+01 1.26668E+00 8.54689E-03 2.09511E+00-1.27029E-14-1.01862E-14
 -1      2850 1.84891E+01 1.56410E+00 2.49662E-02 2.01391E+00-4.42395E-14 7.21801E-14
 -1      2851 1.97889E+01 9.11615E-01-1.38997E-02 1.45123E+00-5.23583E-14-3.45231E-13
 -1      2852 1.97909E+01 1.03678E+00 6.78947E-03 1.65291E+00 9.36447E-15-1.45055E-13
 -1      2853 1.91134E+01 1.30353E+00 1.70997E-02 1.61977E+00 7.90446E-14-1.11611E-13
 -1      2854 1.99493E+01 7.10973E-01-9.31352E-03 1.12365E+00-2.09654E-13-2.28419E-13
 -1      2855 1.99741E+01 8.12960E-01 6.08041E-03 1.28961E+00-1.99821E-13-3.86868E-13
 -1      2856 1.95180E+01 1.03290E+00 1.09837E-02 1.29554E+00 2.02807E-14-1.93623E-13
 -1      2857 2.00196E+01 5.70582E-01-5.65855E-03 8.52585E-01-3.55584E-13-1.85369E-13
 -1      2858 2.00607E+01 6.37141E-01 5.02951E-03 9.93015E-01-3.11225E-13-2.18400E-13
 -1      2859 1.97655E+01 8.09170E-01 5.79455E-03 1.02365E+00-3.33061E-13-8.07970E-14
 -1      2860 1.97114E+01 6.57057E-01 2.79271E-03-3.30129E-01 6.36889E-14-1.16486E-13
 -1      2861 1.96476E+01 7.04758E-01-5.12431E-03-2.47999E-01 1.45591E-13-5.06312E-13
 -1      2862 1.95483E+01 8.51763E-01-1.25906E-03 1.16980E-01 1.71519E-13 7.30222E-14
 -1      2863 1.95573E+01 8.46618E-01-3.14182E-03 2.38106E-01 2.19245E-13 7.02926E-14
 -1      2864 1.98469E+01 5.05927E-01 3.28831E-03-4.44455E-01-1.99914E-13-1.31616E-13
 -1      2865 1.97767E+01 5.64806E-01-4.32092E-03-3.98837E-01-1.18579E-13-6.32258E-15
 -1      2866 1.96867E+01 5.68586E-01 2.27660E-04-4.29769E-01-1.93477E-14-3.12506E-13
 -1      2867 1.95983E+01 7.83105E-01 1.19849E-03-1.35780E-01-7.89881E-15-6.55184E-13
 -1      2868 1.95618E+01 8.08928E-01-4.67258E-03-2.47524E-02 6.05333E-14-2.48761E-13
 -1      2869 1.94541E+01 8.47904E-01 4.42940E-03 2.19063E-02 1.09118E-14-1.68623E-13
 -1      2870 1.95382E+01 7.30830E-01 2.37786E-03-2.43746E-01 1.49524E-14-5.48414E-13
 -1      2871 1.99699E+01 3.60773E-01 2.98491E-03-4.80088E-01-2.13449E-14-2.57202E-13
 -1      2872 1.99096E+01 4.19830E-01-2.81722E-03-4.68807E-01-1.49300E-13-3.09757E-14
 -1      2873 1.98507E+01 4.00179E-01-1.42446E-03-5.22174E-01-1.06397E-13-4.49880E-14
 -1      2874 2.00645E+01 2.36358E-01 2.32372E-03-4.54740E-01 2.67984E-13 1.81922E-13
 -1      2875 2.00205E+01 2.90427E-01-1.18612E-03-4.69562E-01 2.23068E-13-1.02657E-13
 -1      2876 1.99945E+01 2.52671E-01-2.32783E-03-5.31563E-01 9.88557E-14 1.83333E-15
 -1      2877 2.01223E+01 1.45306E-01 2.06377E-03-3.90026E-01 8.95619E-14 2.43098E-13
 -1      2878 2.00965E+01 1.87684E-01 6.09554E-05-4.20878E-01 1.05980E-13 3.58681E-13
 -1      2879 2.00998E+01 1.40565E-01-2.23286E-03-4.80921E-01 1.20161E-13 5.00059E-14
 -1      2880 2.67200E+01-4.19407E+00 8.58951E-02-3.02712E+00-1.22704E-13-1.83284E-13
 -1      2881 2.82782E+01-3.15480E+00-1.49457E-01-1.57260E+00-2.33162E-13-1.98730E-13
 -1      2882 1.02648E+01-1.27367E+00 1.38158E-01 4.47640E+00-4.95992E-14 2.17687E-13
 -1      2883 7.95443E+00-2.90078E-01 1.83683E-01 2.57931E+00-2.27096E-13 2.66953E-13
 -1      2884 1.99608E+01 2.31637E-01-8.31008E-04 6.25546E-02 1.74682E-13 5.92186E-15
 -1      2885 2.00263E+01 3.15460E-01 7.84164E-03 1.60463E-01 1.96778E-13 1.60369E-14
 -1      2886 2.01461E+01 4.78497E-01-1.84278E-03 2.80492E-01 2.33428E-13-3.48232E-14
 -1      2887 2.00564E+01 2.66969E-01-2.73279E-03 6.01355E-02 1.78976E-13-1.44112E-14
 -1      2888 1.76837E+01 7.86604E-01 7.05917E-03 3.78692E+00 7.47800E-14-3.88065E-13
 -1      2889 1.78765E+01 1.39111E-01 8.56180E-02 4.14991E+00 1.79265E-13-3.33570E-13
 -1      2890 1.63206E+01 1.30303E+00 4.90022E-02 3.26812E+00-3.93990E-14-1.67279E-13
 -1      2891 1.77231E+01-8.58912E-01 9.59248E-02 4.76980E+00 1.80023E-13-3.69940E-13
 -1      2892 1.85084E+01-2.29565E+00 1.51860E-01 5.06776E+00 5.68434E-14-3.39132E-13
 -1      2893 1.54699E+01-2.91403E+00 5.45124E-02 5.74374E+00 4.12032E-14-1.73583E-13
 -1      2894 1.52583E+01-5.93635E-02 3.21149E-02 4.38763E+00 1.48111E-13-1.24886E-13
 -1      2895 1.42727E+01-2.95971E+00 1.67589E-01-5.62539E+00-3.09808E-13-4.45810E-13
 -1      2896 1.83064E+01-4.25501E+00-1.35982E-02-5.80413E+00-1.56264E-13-3.75505E-13
 -1      2897 8.61070E+00-1.45592E+00 1.26608E-01 5.52373E+00 1.25414E-13-9.93372E-14
 -1      2898 6.77941E+00-5.92805E-01 1.60306E-01 3.50531E+00 7.36702E-14-6.87783E-14
 -1      2899 3.42297E+01-2.63156E+00 2.91063E-03-2.46629E+00-1.41880E-13-3.90799E-14
 -1      2900 2.01534E+01 5.85628E-02 1.14105E-03-2.51487E-01 2.39039E-13-3.11685E-13
 -1      2901 2.01421E+01 7.98377E-02-2.85670E-04-2.83261E-01 1.83117E-13-5.33982E-13
 -1      2902 2.01791E+01 3.10125E-02-7.53821E-04-2.61885E-01 1.09044E-13-4.34826E-13
 -1      2903 2.03186E+01-4.79890E+00 1.51206E-01-6.49058E+00-3.45973E-14-6.66845E-14
 -1      2904 2.35745E+01-5.14322E+00-1.13880E-01-5.21934E+00-2.53270E-14-3.01772E-13
 -1      2905 1.99251E+01 2.59613E+00-7.91468E-03 7.94618E-01 2.80023E-13-3.83098E-13
 -1      2906 1.98814E+01 2.68837E+00-6.15826E-03 6.45518E-01 2.28625E-13-4.11037E-13
 -1      2907 2.00005E+01 2.38905E+00 4.43442E-03 5.16882E-01 2.00215E-13-3.97041E-13
 -1      2908 2.00816E+01 2.19097E+00 5.64526E-03 7.45810E-01 2.59843E-13-3.42399E-13
 -1      2909 6.39681E+00 7.83538E-02 1.77087E-01 1.37756E+00 9.18363E-14-1.02696E-13
 -1      2910 6.80296E+00 3.85184E-02 1.69731E-01-1.05405E+00-5.90777E-14-3.41005E-13
 -1      2911 1.98764E+01 2.69720E+00-6.04387E-03-6.35471E-01-6.88461E-14-4.06753E-13
 -1      2912 1.99190E+01 2.60746E+00-7.68883E-03-7.84869E-01-1.17291E-13-4.14907E-13
 -1      2913 2.64339E+01-4.45484E+00-1.52289E-01 3.20689E+00 1.35683E-13-3.67553E-14
 -1      2914 2.41751E+01-4.82036E+00 1.07445E-01 4.77395E+00 1.19182E-13 2.09971E-14
 -1      2915 2.07254E+01-4.86787E+00-6.19973E-02 6.39151E+00 1.32755E-13 3.54786E-14
 -1      2916 1.74376E+01-4.01890E+00 1.81259E-01 6.97735E+00 1.99465E-13-9.49796E-14
 -1      2917 8.23328E+00-1.48600E+00 1.63873E-01-5.21479E+00-2.96624E-13 4.38760E-13
 -1      2918 1.06966E+01-2.50815E+00 1.08615E-01-6.70931E+00-2.23210E-13 5.75900E-13
 -1      2919 2.30763E+01-4.91616E+00 1.15413E-01-4.45008E+00-1.61288E-13-2.91125E-13
 -1      2920 2.91641E+01 7.15941E+00-1.85354E-01-7.05977E-01-3.86413E-13 2.66523E-14
 -1      2921 2.92249E+01 5.93666E+00-1.55435E-01-1.46944E+00-3.56937E-13-1.33504E-14
 -1      2922 2.93277E+01 6.92803E+00-1.58014E-01 1.06121E+00-1.67311E-13 1.53905E-14
 -1      2923 2.91157E+01 7.46128E+00-1.80597E-01 1.92090E-01-2.90157E-13 1.15072E-13
 -1      2924 1.31916E+01-3.20679E+00 2.32964E-02 7.22508E+00 1.79801E-13-2.44471E-13
 -1      2925 1.07121E+01-2.25439E+00 1.96624E-01 6.43389E+00 1.46688E-13-2.18131E-13
 -1      2926 1.07840E+01-1.12332E+00 1.63624E-01 5.46705E+00 1.61926E-13-5.78149E-14
 -1      2927 2.92548E+01-1.30671E+00-2.73282E-02 2.45482E-02-3.96343E-13-2.69312E-13
 -1      2928 2.92738E+01 6.67160E-01-1.76795E-01 1.20937E+00-4.84585E-13-3.22492E-13
 -1      2929 2.80716E+01-2.29071E+00-1.51241E-02-2.69922E-01-2.08885E-13-4.18693E-13
 -1      2930 2.93094E+01 3.50884E+00-1.19850E-01 1.75464E+00-2.77278E-13-2.04170E-13
 -1      2931 2.95208E+01 5.55061E+00-1.90261E-01 1.54695E+00-1.56875E-13-1.14908E-14
 -1      2932 2.01810E+01 2.27406E+00 1.62393E-04-1.42538E+00-2.91602E-13-3.10073E-13
 -1      2933 3.24127E+01-3.53286E+00 1.54240E-01-1.11034E+00-2.43531E-13-5.07927E-15
 -1      2934 1.99156E+01 6.38791E-01 1.93656E-03 7.53343E-01-2.43390E-13-1.71362E-13
 -1      2935 2.16726E+01-3.80171E+00 1.08979E-01-4.64579E+00-1.49047E-13-3.39992E-13
 -1      2936 1.99732E+01 2.48769E+00-6.14360E-03-9.01546E-01-1.57645E-13-3.97612E-13
 -1      2937 2.00274E+01 2.35110E+00-1.16871E-02-1.04161E+00-2.14089E-13-3.82486E-13
 -1      2938 2.00744E+01 2.20458E+00 5.70357E-03-7.39100E-01-1.28139E-13-3.58969E-13
 -1      2939 9.35409E+00 3.48889E-01 1.76313E-01-2.03721E+00-9.39561E-14-3.53995E-13
 -1      2940 1.99352E+01 2.53931E+00 3.44821E-03 4.52924E-03 7.95988E-14-4.17522E-13
 -1      2941 1.97962E+01 2.87056E+00-5.48898E-03-6.19618E-02 6.46922E-14-4.43941E-13
 -1      2942 1.98036E+01 2.85592E+00-5.54294E-03-2.16703E-01 2.67714E-14-4.32735E-13
 -1      2943 2.86122E+01 1.43970E-01-5.89384E-02-1.16402E+00 3.15026E-14 1.74277E-13
 -1      2944 2.85259E+01 4.53254E+00-1.38199E-01-1.85009E+00-1.92624E-13 1.29147E-13
 -1      2945 2.76113E+01 3.29476E+00-3.21130E-02-2.02406E+00-6.72795E-14 2.44756E-13
 -1      2946 2.69711E+01 5.01669E+00-1.19022E-01-1.70258E+00-1.73014E-13 1.81660E-13
 -1      2947 2.02015E+01 1.35210E-02-6.31695E-04-3.07605E-01-3.54757E-14-3.62802E-13
 -1      2948 2.02902E+01 1.58769E+00-1.21745E-03 1.16626E+00 3.36690E-13-1.23629E-13
 -1      2949 2.02941E+01-2.25042E+00 1.14200E-01-4.81258E+00-2.35825E-13-3.65617E-13
 -1      2950 1.69737E+01-1.48984E+00 1.46353E-02-5.10037E+00-2.22822E-13-4.59160E-13
 -1      2951 1.32985E+01-2.37600E+00 1.44578E-01-6.50136E+00-3.17732E-13 4.07147E-13
 -1      2952 1.41569E+01-1.57095E+00 1.93087E-01-4.97996E+00-2.49176E-13-4.98768E-13
 -1      2953 1.94765E+01 8.83778E-01 5.01952E-03 3.24281E-01 2.66448E-13 1.51782E-13
 -1      2954 1.95967E+01 8.37806E-01-3.40284E-03 3.81984E-01 2.11967E-13 3.30455E-13
 -1      2955 1.96547E+01 7.93454E-01-3.23062E-03 4.82846E-01-2.48038E-16 5.40837E-13
 -1      2956 1.97033E+01 7.68496E-01-3.11679E-03 5.97076E-01-1.26162E-13 4.46103E-13
 -1      2957 1.98056E+01 6.89244E-01-1.80965E-03 6.58696E-01-1.19521E-13 6.38879E-14
 -1      2958 1.97405E+01 7.65748E-01 2.71134E-03 8.00385E-01-2.63250E-13 4.29775E-14
 -1      2959 1.95747E+01 8.45580E-01 3.83908E-03 5.87565E-01 1.44844E-13 4.61487E-13
 -1      2960 1.29046E+01-1.73476E+00 1.99218E-01 5.12984E+00 2.74641E-14-6.80289E-14
 -1      2961 1.29698E+01-5.48236E-01 1.52601E-01 4.38896E+00 8.28643E-14 1.62773E-13
 -1      2962 7.88145E+00 2.08921E-01 1.93566E-01 1.44259E+00-2.49453E-13 3.64014E-13
 -1      2963 8.24525E+00 7.38058E-01 1.44952E-01 8.15205E-02-1.85112E-13 4.73066E-13
 -1      2964 1.02153E+01 6.23439E-01 1.27514E-01 2.37793E+00 7.48360E-14 5.31603E-13
 -1      2965 2.79419E+01 5.59838E+00-1.28050E-01 1.42899E+00-1.66589E-13-8.26422E-15
 -1      2966 2.49744E+01-4.52023E+00 1.52183E-02-3.69591E+00 2.11428E-14-2.02817E-13
 -1      2967 2.01324E+01 1.11368E-01-2.25410E-04-3.21200E-01 1.31793E-13-2.75365E-13
 -1      2968 1.61453E+01-3.04867E+00 1.08797E-01 6.56671E+00 2.76487E-13-1.39853E-13
 -1      2969 8.02854E+00-5.24809E-01 1.84921E-01-3.95143E+00-2.91468E-13 4.26326E-13
 -1      2970 1.02707E+01-3.79669E-01 1.21964E-01-4.46833E+00-3.22818E-13 3.99319E-13
 -1      2971 8.27167E+00 4.42142E-01 1.34362E-01-2.44400E+00-3.17347E-13 3.18690E-13
 -1      2972 2.26272E+01-4.50120E+00 5.62827E-02 5.00575E+00 2.08472E-13 5.39898E-14
 -1      2973 2.70485E+01-3.46937E+00-3.83483E-04 1.68835E+00 1.73909E-13 1.92152E-13
 -1      2974 1.92026E+01-4.11286E+00 1.03955E-01-6.38875E+00-1.08719E-13-1.45061E-13
 -1      2975 2.77475E+01 4.16201E-01-5.64454E-02 1.48866E+00-2.91579E-13-1.34198E-13
 -1      2976 2.87179E+01 1.84486E+00-9.90528E-02 1.78704E+00-3.51191E-13-7.70217E-14
 -1      2977 2.74632E+01 2.90736E+00-1.00808E-01 2.09654E+00-2.15633E-13 1.52454E-13
 -1      2978 8.45647E+00 4.25363E-01 1.83267E-01 2.28298E+00 9.35953E-14-1.43774E-13
 -1      2979 2.02794E+01 1.36652E+00 2.01794E-03 9.19896E-01 2.97249E-13-1.55559E-13
 -1      2980 1.98191E+01 2.82039E+00-5.68972E-03-3.51876E-01 3.38356E-15-4.00072E-13
 -1      2981 1.98432E+01 2.77207E+00-6.16904E-03-5.05550E-01-4.76626E-14-3.95128E-13
 -1      2982 1.99960E+01 2.39668E+00 4.30589E-03-5.07810E-01-5.58788E-14-3.69279E-13
 -1      2983 1.99498E+01 2.50527E+00 3.65901E-03-2.55824E-01 1.42602E-14-3.91558E-13
 -1      2984 2.77093E+01 6.62861E+00-1.38373E-01-2.89132E-01-2.99455E-13-2.92578E-14
 -1      2985 2.03017E+01 1.73023E+00-9.30496E-03-1.32338E+00-3.10301E-13-2.44344E-13
 -1      2986 2.02876E+01 1.32799E+00-6.62189E-03-1.03920E+00-2.97715E-13-2.05838E-13
 -1      2987 2.01874E+01 4.06014E-02 1.84388E-03-3.42105E-01-9.32323E-14-3.50896E-13
 -1      2988 2.01433E+01 1.02687E-01-4.18996E-04-3.65406E-01-5.71180E-14-1.86984E-14
 -1      2989 2.01676E+01 5.82054E-02-1.73134E-03-4.15790E-01-1.13974E-13 6.96785E-14
 -1      2990 2.02176E+01-3.39913E-03-9.62462E-04-3.49103E-01-3.39555E-13-1.90901E-13
 -1      2991 2.02777E+01 1.41278E+00 2.19115E-03-9.43389E-01-2.63361E-13-2.34506E-13
 -1      2992 2.02408E+01 1.48187E+00-6.05117E-03 8.03088E-01 2.60265E-13-2.24496E-13
 -1      2993 2.02019E+01 1.66965E+00-5.22203E-04 7.46971E-01 2.47154E-13-2.65504E-13
 -1      2994 1.39782E+01-2.70671E-01 7.98952E-02-4.36645E+00-2.34479E-13-5.46355E-13
 -1      2995 1.77420E+01-3.14737E+00 1.16313E-01-6.18068E+00-1.24817E-13-4.34514E-14
 -1      2996 2.04617E+01-3.93275E+00-1.07058E-02-5.45526E+00-1.23550E-13-3.02675E-13
 -1      2997 1.99965E+01-2.24991E-02 2.25866E-04-1.91201E-01 8.39771E-14-6.97682E-14
 -1      2998 1.99989E+01-9.93927E-03 8.43154E-04-1.88678E-01 5.76757E-14-7.95913E-14
 -1      2999 1.31598E+01-1.36186E+00 1.03825E-01-5.67160E+00-3.57998E-13 2.15786E-13
 -1      3000 1.54658E+01-2.47201E+00 2.71903E-02-6.27770E+00-1.49832E-13 3.01009E-14
 -1      3001 1.74334E+01-2.33942E+00 7.82658E-02-5.53103E+00-1.40374E-13-3.49096E-14
 -1      3002 2.02864E+01 1.14827E+00 8.24977E-05-6.70143E-01-2.15261E-13-2.54142E-13
 -1      3003 2.02549E+01 9.10515E-01-5.19906E-03-4.79198E-01-1.76211E-13-2.38745E-13
 -1      3004 2.02701E+01 7.14585E-01 4.34742E-03-3.45619E-01-1.59893E-13-2.14337E-13
 -1      3005 2.02274E+01 5.52206E-01-3.55885E-03-2.14644E-01-1.38739E-13-2.19183E-13
 -1      3006 2.02863E+01 9.48903E-01 1.17531E-03-4.23951E-01-1.61548E-13-2.59274E-13
 -1      3007 2.02218E+01 4.24721E-01 4.10405E-03-1.19478E-01-1.24860E-13-1.87049E-13
 -1      3008 2.01826E+01 3.17459E-01-2.28928E-03-3.41979E-02-1.06968E-13-1.99535E-13
 -1      3009 2.02734E+01 5.81195E-01-3.45675E-04-1.88339E-01-1.21426E-13-2.17168E-13
 -1      3010 2.01685E+01 2.34485E-01 3.16266E-03 2.78277E-02-1.20745E-13-2.11968E-13
 -1      3011 2.01385E+01 1.64661E-01-1.27196E-03 7.94507E-02-1.19812E-13-2.46038E-13
 -1      3012 2.02387E+01 3.34976E-01-8.48050E-04-2.47748E-02-1.33570E-13-2.14717E-13
 -1      3013 2.01217E+01 1.11494E-01 2.20744E-03 1.16126E-01-9.81150E-14-2.14521E-13
 -1      3014 2.01009E+01 6.73789E-02-5.77529E-04 1.44340E-01-1.06358E-13-2.17868E-13
 -1      3015 2.01982E+01 1.72257E-01-1.02077E-03 7.92908E-02-1.13397E-13-2.14201E-13
 -1      3016 2.00845E+01 3.45637E-02 1.42498E-03 1.63232E-01-1.01887E-13-2.06320E-13
 -1      3017 2.00714E+01 8.20942E-03-1.25016E-04 1.75978E-01-7.22383E-14-1.98303E-13
 -1      3018 2.01592E+01 6.82868E-02-9.73741E-04 1.39252E-01-1.05007E-13-1.95457E-13
 -1      3019 2.00568E+01-1.05380E-02 8.25197E-04 1.83195E-01-4.79498E-14-1.95795E-13
 -1      3020 2.00495E+01-2.45331E-02 1.63640E-04 1.86382E-01-6.01934E-14-1.87077E-13
 -1      3021 2.01251E+01 5.32034E-03-8.44343E-04 1.68779E-01-6.58932E-14-1.64656E-13
 -1      3022 2.00370E+01-3.34899E-02 3.85869E-04 1.86622E-01-7.22652E-14-1.46862E-13
 -1      3023 2.00340E+01-3.88687E-02 3.46368E-04 1.84558E-01-6.66906E-14-1.45921E-13
 -1      3024 2.00966E+01-2.89068E-02-6.96129E-04 1.78822E-01-2.79414E-14-1.74169E-13
 -1      3025 2.00235E+01-4.10102E-02 7.43496E-05 1.81322E-01-1.02357E-13-8.56424E-14
 -1      3026 2.00236E+01-4.04073E-02 4.62540E-04 1.77103E-01-1.35705E-13-8.92825E-14
 -1      3027 2.00735E+01-4.29927E-02-5.56569E-04 1.77752E-01-6.60004E-14-9.17855E-14
 -1      3028 2.00150E+01-3.78418E-02-1.40895E-04 1.72946E-01-1.67192E-13-4.27282E-14
 -1      3029 2.00173E+01-3.31444E-02 5.38674E-04 1.68768E-01-1.13686E-13-3.51251E-14
 -1      3030 2.00550E+01-4.30345E-02-4.36118E-04 1.71782E-01-1.05883E-13-3.55668E-14
 -1      3031 2.00102E+01-2.74058E-02-2.85224E-04 1.65529E-01-7.98431E-14-5.23548E-14
 -1      3032 2.00142E+01-2.00167E-02 5.92345E-04 1.62920E-01-9.52488E-14-5.99725E-14
 -1      3033 2.00405E+01-3.34252E-02-3.39041E-04 1.65440E-01-8.42749E-14-3.08338E-15
 -1      3034 2.00085E+01-1.22906E-02-3.75745E-04 1.61901E-01-1.14089E-13-5.14218E-14
 -1      3035 2.00140E+01-3.34683E-03 6.34308E-04 1.61879E-01-4.83431E-14-3.04440E-14
 -1      3036 2.00293E+01-1.74431E-02-2.68162E-04 1.61978E-01-8.18394E-14-5.12481E-14
 -1      3037 2.00096E+01 5.33181E-03-4.20576E-04 1.63967E-01-2.98762E-14-7.05337E-14
 -1      3038 2.00166E+01 1.47563E-02 6.69575E-04 1.67122E-01-4.74893E-14-2.21565E-14
 -1      3039 2.00209E+01 2.25307E-03-2.27942E-04 1.63687E-01-5.66932E-14-2.35346E-14
 -1      3040 2.00137E+01 2.33128E-02-4.18142E-04 1.72854E-01-1.01159E-13 1.09608E-14
 -1      3041 2.00225E+01 3.20062E-02 6.97688E-04 1.79369E-01-1.34390E-13 1.83806E-15
 -1      3042 2.00154E+01 2.31662E-02-2.26764E-04 1.72086E-01-5.25535E-14-4.90886E-15
 -1      3043 2.00216E+01 3.91339E-02-3.56201E-04 1.88927E-01-1.37853E-13 2.74543E-14
 -1      3044 2.00327E+01 4.55426E-02 7.12234E-04 1.98523E-01-1.10056E-13 4.96617E-14
 -1      3045 2.00133E+01 4.25063E-02-2.78867E-04 1.88007E-01-1.10775E-13-2.16599E-14
 -1      3046 2.00351E+01 4.95123E-02-2.10795E-04 2.11661E-01-1.94675E-13-1.47867E-14
 -1      3047 2.00495E+01 5.15457E-02 6.99485E-04 2.23474E-01-2.04197E-13-7.53483E-14
 -1      3048 2.00160E+01 5.67316E-02-4.05938E-04 2.11527E-01-1.78410E-13-9.87122E-14
 -1      3049 2.00569E+01 5.00400E-02 5.42427E-05 2.39360E-01-8.24272E-14-3.22702E-14
 -1      3050 2.00761E+01 4.49223E-02 6.35977E-04 2.51748E-01-3.56169E-14-6.21151E-14
 -1      3051 2.00262E+01 6.11118E-02-6.37701E-04 2.41765E-01-1.37061E-13-6.82510E-14
 -1      3052 2.00915E+01 3.49488E-02 4.85802E-04 2.68712E-01-6.00653E-14-3.00539E-14
 -1      3053 2.01174E+01 1.91924E-02 4.84922E-04 2.78995E-01 2.53514E-14-9.91241E-14
 -1      3054 2.00483E+01 4.93932E-02-1.01011E-03 2.76496E-01-4.25542E-14-1.69481E-14
 -1      3055 2.01451E+01-2.82476E-03 1.13561E-03 2.94173E-01 9.30129E-14-1.61465E-13
 -1      3056 2.01799E+01-3.31902E-02 1.91896E-04 2.98353E-01 1.84247E-13-2.42476E-13
 -1      3057 2.00889E+01 1.37343E-02-1.55854E-03 3.11556E-01-1.02144E-14-2.74108E-14
 -1      3058 2.02256E+01-7.09778E-02 2.04633E-03 3.07232E-01 2.10258E-13-1.96207E-13
 -1      3059 2.02720E+01-1.19715E-01-3.18357E-04 2.99749E-01 7.77196E-14-2.04188E-13
 -1      3060 2.01572E+01-5.47957E-02-2.30209E-03 3.40025E-01 1.93234E-13-1.43598E-13
 -1      3061 2.03422E+01-1.76144E-01 3.22298E-03 2.95667E-01-5.27915E-14-1.22931E-13
 -1      3062 2.04023E+01-2.45362E-01-1.13543E-03 2.69345E-01-5.11362E-14-1.29467E-13
 -1      3063 2.02648E+01-1.64701E-01-3.21277E-03 3.51218E-01 7.61700E-14-1.40938E-13
 -1      3064 2.05039E+01-3.20566E-01 4.57536E-03 2.43121E-01-3.53658E-14-3.10729E-14
 -1      3065 2.05781E+01-4.08189E-01-2.32835E-03 1.89615E-01-7.72681E-14 5.96832E-14
 -1      3066 2.04246E+01-3.20824E-01-4.15933E-03 3.29630E-01-8.80500E-15-4.17227E-14
 -1      3067 2.07152E+01-4.96586E-01 5.82949E-03 1.29828E-01-8.80752E-14 5.25177E-14
 -1      3068 2.08005E+01-5.92691E-01-3.88028E-03 4.11169E-02 9.98263E-15 1.37560E-13
 -1      3069 2.06477E+01-5.18630E-01-4.84218E-03 2.54464E-01 5.44031E-15 1.44505E-13
 -1      3070 2.09706E+01-6.79168E-01 6.42568E-03-6.41584E-02 8.97742E-14 1.48082E-13
 -1      3071 2.10582E+01-7.61610E-01-5.48792E-03-1.92524E-01 1.23605E-13 1.80142E-13
 -1      3072 2.09379E+01-7.35931E-01-4.77874E-03 1.01117E-01 5.21369E-14 1.45506E-13
 -1      3073 2.12462E+01-8.17915E-01 5.46072E-03-3.50739E-01 8.53866E-14 1.68172E-13
 -1      3074 2.13204E+01-8.49602E-01-6.30666E-03-5.13724E-01 9.56572E-14 1.32308E-13
 -1      3075 2.12819E+01-9.22441E-01-3.22768E-03-1.53161E-01 8.89523E-14 1.67752E-13
 -1      3076 2.14925E+01-8.34595E-01 1.89307E-03-7.17214E-01 3.32124E-14 7.29542E-14
 -1      3077 2.15334E+01-7.68605E-01-4.84320E-03-8.92052E-01 1.76903E-14 1.32023E-13
 -1      3078 2.16375E+01-9.92777E-01 3.81223E-04-5.14005E-01 3.76728E-14 1.44761E-13
 -1      3079 2.16418E+01-6.39155E-01-3.75203E-03-1.10568E+00 2.56587E-14 9.35032E-14
 -1      3080 2.16325E+01-4.36082E-01 5.60773E-04-1.24657E+00 1.04769E-13 1.39914E-13
 -1      3081 2.19297E+01-8.41617E-01 5.41852E-03-9.44616E-01-1.06558E-15 1.88459E-13
 -1      3082 2.16305E+01-1.70821E-01-1.10272E-02-1.39734E+00 4.70084E-14 1.06146E-13
 -1      3083 2.15719E+01 1.65729E-01 8.14837E-03-1.43876E+00-2.20093E-16 8.54084E-14
 -1      3084 2.20673E+01-3.76029E-01 1.05852E-02-1.33891E+00 5.76535E-14 9.29189E-14
 -1      3085 2.14511E+01 5.31145E-01-1.72547E-02-1.43592E+00 1.02314E-14 1.70113E-13
 -1      3086 2.13649E+01 9.25669E-01 1.30665E-02-1.31869E+00 2.30055E-14 2.56550E-13
 -1      3087 2.19962E+01 3.92969E-01 1.01994E-02-1.52921E+00 6.56331E-14 8.55338E-14
 -1      3088 2.11933E+01 1.28019E+00-1.45509E-02-1.09507E+00-1.41918E-14 2.94057E-13
 -1      3089 2.11219E+01 1.58129E+00 1.21318E-02-8.10536E-01-1.83543E-13 3.94593E-13
 -1      3090 2.17542E+01 1.28313E+00 1.90469E-03-1.32230E+00 4.36057E-14 1.09376E-13
 -1      3091 2.10145E+01 1.77029E+00-3.80596E-03-3.98130E-01-2.32411E-13 5.26126E-13
 -1      3092 2.10008E+01 1.83305E+00 2.73480E-03-1.93641E-02-1.25126E-13 6.01110E-13
 -1      3093 2.15094E+01 1.97205E+00-2.74836E-03-6.72595E-01-5.67505E-14 3.11348E-13
 -1      3094 2.10422E+01 1.75762E+00 8.21644E-03 4.30999E-01-2.68053E-13 5.94718E-13
 -1      3095 2.10902E+01 1.55362E+00-1.02474E-02 7.72133E-01-2.43725E-13 5.08156E-13
 -1      3096 2.14522E+01 2.10780E+00-7.00049E-03 2.30933E-01-1.88206E-13 4.03796E-13
 -1      3097 2.12465E+01 1.25672E+00 1.37595E-02 1.09489E+00-1.78494E-13 4.34044E-13
 -1      3098 2.13302E+01 8.81863E-01-1.75615E-02 1.29285E+00-9.18403E-14 3.75212E-13
 -1      3099 2.16286E+01 1.64207E+00-2.38557E-03 1.03557E+00-2.91310E-13 2.48446E-13
 -1      3100 2.14905E+01 5.00477E-01 1.14733E-02 1.39312E+00-7.38349E-14 2.02603E-13
 -1      3101 2.15652E+01 1.19447E-01-1.44120E-02 1.41776E+00 1.68251E-14-1.12337E-13
 -1      3102 2.19012E+01 7.98986E-01 7.51401E-03 1.45598E+00-2.19725E-13 2.02879E-13
 -1      3103 2.16278E+01-2.04521E-01 4.15667E-03 1.32463E+00 1.37782E-13-2.29044E-13
 -1      3104 2.16609E+01-4.77375E-01-7.39261E-03 1.21772E+00 4.98004E-14-3.15473E-13
 -1      3105 2.20691E+01-6.87934E-02 1.12667E-02 1.42524E+00-4.52594E-14-1.68436E-13
 -1      3106 2.16018E+01-6.72284E-01-2.74475E-03 1.01725E+00 6.99205E-14-2.13525E-13
 -1      3107 2.15815E+01-8.00087E-01-5.94605E-04 8.46470E-01 1.17722E-13-2.77345E-13
 -1      3108 2.20319E+01-6.92331E-01 8.31274E-03 1.09520E+00 8.27335E-14-1.53993E-13
 -1      3109 2.14338E+01-8.63702E-01-5.98097E-03 6.26595E-01 1.65676E-13-2.71378E-13
 -1      3110 2.13709E+01-8.70823E-01 4.08836E-03 4.49515E-01 9.59549E-14-2.72475E-13
 -1      3111 2.18032E+01-9.85765E-01 2.56746E-03 6.53033E-01 1.27853E-13-8.11050E-14
 -1      3112 2.11863E+01-8.40458E-01-6.04194E-03 2.63441E-01 1.05122E-13-2.07302E-13
 -1      3113 2.11008E+01-7.73537E-01 6.18843E-03 1.13766E-01 1.17044E-13-8.51479E-14
 -1      3114 2.14683E+01-1.00307E+00-1.92010E-03 2.42236E-01 2.09029E-13-2.37622E-14
 -1      3115 2.09205E+01-6.92877E-01-4.70587E-03-1.94512E-02 2.42861E-14-1.26919E-13
 -1      3116 2.08307E+01-5.94089E-01 6.27037E-03-1.28759E-01 2.91945E-14-2.23187E-14
 -1      3117 2.11141E+01-8.51893E-01-4.42741E-03-7.06517E-02 1.21996E-13-8.42565E-14
 -1      3118 2.06778E+01-4.96992E-01-3.14879E-03-2.10427E-01-1.89661E-14-1.04105E-13
 -1      3119 2.05953E+01-3.94206E-01 5.34085E-03-2.79323E-01-5.66708E-14-3.22348E-13
 -1      3120 2.07978E+01-6.28116E-01-5.02647E-03-2.74239E-01-1.81843E-14-3.41659E-13
 -1      3121 2.04767E+01-3.00865E-01-1.95709E-03-3.18883E-01-1.66234E-13-3.69708E-13
 -1      3122 2.04061E+01-2.08824E-01 3.61312E-03-3.52877E-01-4.47511E-13-4.37440E-13
 -1      3123 2.05444E+01-3.95593E-01-4.24759E-03-3.83337E-01-1.81738E-13-6.63859E-13
 -1      3124 2.03298E+01-1.37984E-01-1.30536E-03-3.55536E-01-5.07798E-13-2.23941E-13
 -1      3125 2.02729E+01-6.13619E-02 2.38241E-03-3.62880E-01-3.84515E-13-1.72458E-13
 -1      3126 2.02468E+01-4.10870E-02-3.59462E-04-4.00074E-01-3.74815E-13-2.59254E-14
 -1      3127 2.03663E+01-1.95392E-01-2.03279E-03-4.14737E-01-3.82092E-13-3.94198E-13
 -1      3128 2.00352E+01 5.97302E-02-4.57434E-04-1.49619E-01 6.87266E-14-8.42015E-14
 -1      3129 2.00541E+01 9.98264E-02 2.59906E-03-1.21663E-01 1.05701E-13-7.24183E-14
 -1      3130 2.00729E+01 1.49948E-01-1.23404E-03-8.05237E-02 1.46270E-13-8.42364E-14
 -1      3131 2.01063E+01 2.17809E-01 3.76128E-03-2.44755E-02 1.67054E-13-6.58853E-14
 -1      3132 2.01436E+01 1.60875E-01-1.41008E-03-8.10993E-02 1.22568E-13-8.14745E-14
 -1      3133 1.99898E+01-3.52627E-02 3.86303E-04-1.88452E-01 6.08154E-14-1.49011E-14
 -1      3134 1.99875E+01-3.05126E-02 3.60377E-04-1.91139E-01 7.36303E-14-5.02410E-14
 -1      3135 2.00520E+01-2.69892E-02-7.60713E-04-1.87246E-01 6.11374E-14-1.20126E-13
 -1      3136 1.99887E+01-3.62122E-02 5.12617E-04-1.80138E-01 5.53919E-14 3.91157E-15
 -1      3137 1.99833E+01-3.70562E-02 2.62564E-05-1.84796E-01 9.07791E-14 6.63949E-15
 -1      3138 2.00367E+01-3.96985E-02-5.80722E-04-1.85464E-01 8.06488E-14-7.35504E-14
 -1      3139 1.99919E+01-2.77821E-02 6.02314E-04-1.71017E-01 8.40845E-14-8.98843E-14
 -1      3140 1.99840E+01-3.32264E-02-2.12067E-04-1.75407E-01 8.18905E-14-5.43421E-14
 -1      3141 2.00262E+01-3.87439E-02-4.36963E-04-1.78520E-01 1.05913E-13-6.46197E-14
 -1      3142 1.99978E+01-1.25318E-02 6.79004E-04-1.66020E-01 9.30292E-14-6.07116E-14
 -1      3143 1.99886E+01-2.12545E-02-3.93468E-04-1.67872E-01 9.31615E-14-8.71323E-14
 -1      3144 2.00198E+01-2.72959E-02-2.93064E-04-1.71727E-01 9.30617E-14-1.51188E-13
 -1      3145 2.00058E+01 9.07558E-03 7.81396E-04-1.67860E-01 7.14377E-14-2.02976E-14
 -1      3146 1.99953E+01-2.92575E-03-5.47102E-04-1.65837E-01 8.39015E-14-3.92532E-14
 -1      3147 2.00161E+01-7.70828E-03-1.78156E-04-1.69132E-01 4.25692E-14-7.91003E-14
 -1      3148 2.00148E+01 3.74146E-02 9.02762E-04-1.79352E-01-2.20282E-14 3.90394E-14
 -1      3149 2.00032E+01 2.18451E-02-7.04483E-04-1.72003E-01 4.73152E-14-1.20392E-14
 -1      3150 2.00135E+01 1.95791E-02-5.68630E-05-1.73631E-01 4.24922E-14-4.55243E-14
 -1      3151 2.00237E+01 7.38406E-02 1.04979E-03-2.03326E-01 3.70974E-15-2.53289E-14
 -1      3152 2.00112E+01 5.38798E-02-9.02242E-04-1.89120E-01-3.23129E-14-3.71593E-15
 -1      3153 2.00104E+01 5.51793E-02 9.69116E-05-1.87913E-01 6.95649E-15-8.68516E-14
 -1      3154 2.00304E+01 1.20813E-01 1.22449E-03-2.42898E-01 2.58466E-14-8.65956E-14
 -1      3155 2.00174E+01 9.50482E-02-1.17903E-03-2.20065E-01 2.32207E-14-2.92408E-14
 -1      3156 2.00044E+01 1.00865E-01 3.21705E-04-2.14563E-01 8.28247E-15-9.46226E-14
 -1      3157 2.00319E+01 1.82100E-01 1.48813E-03-3.01695E-01-1.34100E-14-4.70134E-14
 -1      3158 2.00190E+01 1.48352E-01-1.60142E-03-2.68110E-01 2.37797E-14-3.22235E-14
 -1      3159 1.99919E+01 1.59720E-01 6.79390E-04-2.56252E-01 1.18069E-14-7.20678E-14
 -1      3160 2.00210E+01 2.67501E-01 1.69019E-03-3.88956E-01-1.32330E-14 2.61660E-14
 -1      3161 2.00108E+01 2.20522E-01-2.20129E-03-3.38943E-01-8.69136E-15-1.39366E-14
 -1      3162 1.99664E+01 2.38129E-01 1.10970E-03-3.17708E-01-3.55797E-14 4.66862E-14
 -1      3163 1.99888E+01 3.76036E-01 1.66383E-03-5.01592E-01 2.06826E-14 2.70129E-14
 -1      3164 1.99853E+01 3.16363E-01-3.07887E-03-4.36953E-01 2.40700E-14-2.09935E-15
 -1      3165 1.99191E+01 3.42149E-01 2.17094E-03-4.00757E-01-1.69055E-14 1.23425E-13
 -1      3166 1.99200E+01 5.19640E-01 1.58786E-03-6.48808E-01 6.04912E-14-6.50923E-14
 -1      3167 1.99296E+01 4.41041E-01-4.30252E-03-5.63645E-01 2.14849E-14-2.48752E-14
 -1      3168 1.98373E+01 4.75646E-01 3.56760E-03-5.05970E-01 5.83740E-14 4.52611E-14
 -1      3169 1.97904E+01 7.06589E-01 1.22176E-03-8.36348E-01 9.08569E-14-2.85136E-14
 -1      3170 1.98237E+01 6.04925E-01-6.04675E-03-7.26761E-01 9.93543E-14-3.81295E-14
 -1      3171 1.96992E+01 6.49949E-01 5.71609E-03-6.37098E-01 6.40904E-14-3.03854E-14
 -1      3172 1.95642E+01 9.41660E-01 4.44214E-04-1.06942E+00 8.72900E-14 3.66214E-14
 -1      3173 1.96372E+01 8.15234E-01-8.49222E-03-9.31756E-01 8.84865E-14-4.46728E-14
 -1      3174 1.94735E+01 8.72964E-01 8.90379E-03-7.94955E-01 9.74444E-14-1.01290E-13
 -1      3175 1.91925E+01 1.21806E+00-6.58716E-04-1.35251E+00 1.00397E-13-8.62204E-14
 -1      3176 1.93267E+01 1.07221E+00-1.19221E-02-1.18371E+00 1.25440E-13 1.86719E-14
 -1      3177 1.91148E+01 1.14719E+00 1.34935E-02-9.78665E-01 9.11566E-14-4.03429E-14
 -1      3178 1.86161E+01 1.50144E+00-8.76553E-04-1.69167E+00 6.85736E-15-1.46619E-13
 -1      3179 1.88326E+01 1.35686E+00-1.69406E-02-1.48875E+00 7.40317E-14-6.13884E-14
 -1      3180 1.85606E+01 1.46101E+00 2.01105E-02-1.18712E+00 1.17520E-13-8.73572E-14
 -1      3181 1.77190E+01 1.70193E+00 4.55526E-03-2.13161E+00-6.59169E-14-2.45057E-13
 -1      3182 1.80562E+01 1.61916E+00-2.18074E-02-1.86926E+00-4.20686E-14-2.22911E-13
 -1      3183 1.76997E+01 1.77522E+00 2.93757E-02-1.43469E+00 3.63021E-14-1.00769E-13
 -1      3184 1.65435E+01 1.58993E+00 2.47249E-02-2.69628E+00-1.62254E-14-2.05157E-13
 -1      3185 1.69309E+01 1.69214E+00-2.62848E-02-2.36984E+00-1.18122E-14-2.03422E-13
 -1      3186 1.64281E+01 1.98410E+00 4.93511E-02-1.74292E+00-3.80048E-14-2.10319E-13
 -1      3187 1.51753E+01 7.77515E-01 9.48668E-02-3.53200E+00-5.09592E-14-4.04149E-13
 -1      3188 1.54714E+01 1.30564E+00-9.21781E-04-3.08236E+00 1.01859E-13-3.07893E-13
 -1      3189 1.46566E+01 1.81532E+00 7.84647E-02-2.24106E+00 8.41029E-14-2.49505E-13
 -1      3190 1.51961E+01 1.76074E+00-9.90350E-03 2.24316E+00-2.98301E-13 2.69534E-13
 -1      3191 1.45890E+01 1.48796E+00 4.93218E-02 2.58151E+00 1.15311E-14 3.36918E-13
 -1      3192 1.31977E+01 6.29712E-01 1.01167E-01 3.55645E+00 2.26746E-13 1.21750E-13
 -1      3193 1.79957E+01 1.58826E+00-1.98461E-02 1.49183E+00-9.91611E-16 3.37030E-13
 -1      3194 1.76107E+01 1.71764E+00-4.29303E-03 1.66559E+00 1.54564E-15 4.68794E-13
 -1      3195 1.68591E+01 1.79862E+00-2.68463E-02 1.79109E+00-5.33610E-14 4.78673E-13
 -1      3196 1.62955E+01 1.82902E+00 7.17397E-03 2.02994E+00-1.99376E-13 4.21363E-13
 -1      3197 1.49346E+01 2.03784E+00 7.05057E-02 1.38612E+00-2.71604E-13 6.75259E-13
 -1      3198 1.66608E+01 1.94931E+00 4.04826E-02 1.20750E+00-3.54669E-14 7.88039E-13
 -1      3199 1.92643E+01 1.04086E+00-9.30599E-03 1.03700E+00-4.98625E-14 2.60149E-13
 -1      3200 1.90990E+01 1.17214E+00-2.52082E-03 1.16693E+00 7.18636E-14 2.90029E-13
 -1      3201 1.95839E+01 8.39034E-01-6.54514E-03 8.62130E-01-2.36228E-13 2.53194E-13
 -1      3202 1.94850E+01 9.40869E-01-3.77395E-04 9.78317E-01-1.02832E-13 3.26574E-13
 -1      3203 1.91546E+01 1.10130E+00 1.00424E-02 8.65772E-01-1.19179E-13 8.09345E-13
 -1      3204 1.94937E+01 9.01408E-01 3.77325E-03 7.60627E-01-7.99683E-14 5.86482E-13
 -1      3205 1.98914E+01 2.99835E-01 4.90218E-03-6.11474E-01-2.20372E-14-1.17959E-13
 -1      3206 1.97869E+01 3.69592E-01-3.91951E-03-5.90667E-01 2.67996E-14-1.32973E-13
 -1      3207 1.96796E+01 4.88958E-01 5.30669E-03-5.50880E-01 7.45045E-14-2.95358E-13
 -1      3208 1.95664E+01 5.61826E-01-5.66822E-03-4.82235E-01 2.29674E-13-3.96989E-13
 -1      3209 1.96899E+01 3.66918E-01-2.36121E-03-6.56272E-01 1.72390E-13-3.14251E-13
 -1      3210 2.00108E+01 6.82616E-03-2.60598E-05-1.81409E-01 4.76155E-14-6.98578E-14
 -1      3211 2.00201E+01 3.05102E-02 1.53450E-03-1.69206E-01 6.71577E-14-6.46263E-14
 -1      3212 2.01039E+01 6.19674E-02-1.24208E-03-1.46767E-01 7.22763E-14-7.28179E-14
 -1      3213 2.00615E+01 1.47117E-01 3.56445E-03-5.82965E-01 1.71934E-13 1.71658E-13
 -1      3214 1.99819E+01 2.06608E-01-1.74748E-03-5.99271E-01-1.07564E-13 1.93195E-13
 -1      3215 1.99317E+01 1.68189E-01-3.84193E-03-6.76235E-01-1.36552E-14 1.44254E-14
 -1      3216 2.67137E+01 4.58264E+00-9.89740E-02 1.74167E+00-1.71446E-13 1.32880E-14
 -1      3217 2.64632E+01 5.67575E+00-1.31166E-01 1.09771E+00-2.25153E-13-5.68677E-14
 -1      3218 2.01706E+01 4.70640E-02 2.46782E-03-4.97928E-01 1.37219E-14 6.05774E-15
 -1      3219 2.01226E+01 8.84523E-02-5.84567E-05-5.38144E-01 1.56494E-13-9.69107E-14
 -1      3220 2.01155E+01 2.83709E-02-3.42093E-03-6.08431E-01 8.78859E-14 2.49623E-15
 -1      3221 2.75614E+01 9.34638E-01-1.74214E-01-1.76816E+00-1.85060E-14 2.34229E-13
 -1      3222 2.76733E+01-7.64562E-01 4.74728E-02-1.03806E+00 6.96596E-14 2.36630E-13
 -1      3223 1.87573E+01 1.30601E+00-1.40753E-02 1.25124E+00 1.65593E-13 1.12379E-13
 -1      3224 1.84974E+01 1.45395E+00-4.80880E-03 1.39965E+00 1.01381E-13 3.26922E-13
 -1      3225 1.86311E+01 1.36436E+00 1.68720E-02 9.71141E-01 4.83238E-14 4.02240E-13
 -1      3226 2.64260E+01 6.27388E+00-1.11795E-01 2.35257E-01-2.78957E-13-4.27783E-14
 -1      3227 2.64237E+01 5.96601E+00-1.24495E-01-7.88889E-01-3.49581E-13 1.51962E-14
 -1      3228 1.78386E+01-3.02834E+00 1.64696E-02 5.97515E+00 2.07098E-13-2.22947E-14
 -1      3229 1.47014E+01-1.91368E+00 1.36205E-01 6.09787E+00 1.91958E-13-1.91472E-13
 -1      3230 2.38332E+01-4.46877E+00-8.75501E-02 3.83032E+00 2.27998E-13 8.41115E-14
 -1      3231 2.13579E+01-3.90361E+00 6.65931E-02 5.00494E+00 2.38511E-13 4.49103E-14
 -1      3232 1.07589E+01 1.32552E+00 6.80889E-02-1.38151E+00 1.09857E-13-2.24848E-13
 -1      3233 1.22319E+01 6.70622E-01 1.17623E-01-3.37694E+00-4.45616E-14-4.80602E-13
 -1      3234 2.68836E+01-2.96480E+00-1.61490E-01 4.92946E-01 9.96152E-14 2.43802E-13
 -1      3235 2.58960E+01-3.77367E+00 8.45216E-02 2.07595E+00 1.54134E-13 1.77146E-13
 -1      3236 2.00473E+01 2.16136E+00-4.27078E-03 2.92543E-01 1.57520E-13-3.95831E-13
 -1      3237 2.00339E+01 2.20036E+00-3.32147E-03 1.70829E-01 1.11904E-13-4.11346E-13
 -1      3238 2.02914E+01 9.89220E-01-4.15622E-04 6.90500E-01 2.55180E-13-1.20802E-13
 -1      3239 2.02677E+01 1.30706E+00 2.94018E-03 7.71520E-01 2.55563E-13-1.79131E-13
 -1      3240 2.02714E+01 1.12736E+00-1.04863E-04 5.93665E-01 2.34488E-13-1.80692E-13
 -1      3241 2.02320E+01 7.76212E-01-3.87524E-03 4.85189E-01 2.33482E-13-8.96108E-14
 -1      3242 2.35602E+01-4.31266E+00 5.79212E-02-4.04739E+00-8.44463E-15-2.63651E-13
 -1      3243 2.57238E+01-4.11108E+00-9.51987E-02-2.29522E+00-2.66384E-14-2.90703E-13
 -1      3244 2.01410E+01 2.18100E+00-3.54761E-04-1.20948E+00-2.44428E-13-3.33783E-13
 -1      3245 1.28381E+01-1.24658E+00 4.95954E-02 5.74831E+00 2.09610E-13-1.47299E-13
 -1      3246 1.12179E+01-3.34189E-01 1.06422E-01 4.72886E+00 1.67880E-13-2.31065E-14
 -1      3247 1.50735E+01-1.21882E+00 1.14401E-01 5.33525E+00 1.51691E-13-1.59095E-13
 -1      3248 2.70131E+01-2.90941E+00 5.10475E-02-6.03118E-01-4.57794E-14-2.89213E-13
 -1      3249 2.72182E+01-1.69194E+00-1.07592E-01 5.64425E-01-1.83704E-13-2.54380E-13
 -1      3250 9.89577E+00 5.47711E-01 1.06806E-01 3.29690E+00 1.16150E-13-5.50393E-14
 -1      3251 9.44378E+00 1.19155E+00 8.69178E-02 1.26020E+00 1.33718E-13-6.60028E-14
 -1      3252 1.21726E+01 1.22663E+00 8.60621E-02 2.42236E+00 8.17367E-14 6.00062E-13
 -1      3253 2.02023E+01 1.89889E+00 4.86857E-03-1.00213E+00-2.11616E-13-3.23001E-13
 -1      3254 2.00269E+01 2.21916E+00-3.67125E-03 6.59111E-02 8.22716E-14-4.10283E-13
 -1      3255 2.00265E+01 2.22005E+00-3.63361E-03-5.81690E-02 5.75427E-14-3.95654E-13
 -1      3256 2.01410E+01 1.92372E+00 5.02525E-03 1.01465E-01 9.03127E-14-3.84419E-13
 -1      3257 2.60270E+01 5.09886E+00-1.17667E-01-1.25937E+00-2.53089E-13 1.21129E-13
 -1      3258 2.55355E+01 4.23369E+00-2.71775E-02-1.63096E+00-1.52073E-13 1.33551E-13
 -1      3259 2.49121E+01 5.06207E+00-5.89638E-02-7.88263E-01-2.37838E-13 9.02611E-14
 -1      3260 2.00740E+01 4.36483E-03-9.73792E-04-1.77353E-01 6.37148E-14-1.03942E-13
 -1      3261 2.01911E+01 3.18180E-01-1.39003E-03 3.51095E-02 1.83076E-13-1.08282E-13
 -1      3262 2.01251E+01 2.95008E-01-1.98583E-03 4.33149E-02 1.78163E-13-5.92293E-14
 -1      3263 2.01697E+01 3.95960E-01 4.30302E-03 1.34018E-01 1.88911E-13-6.41077E-14
 -1      3264 2.54380E+01 5.21465E+00-9.02509E-02 6.22575E-01-2.66107E-13 8.02830E-15
 -1      3265 2.56881E+01-3.34436E+00-2.61649E-03-1.24289E+00-8.08815E-14-1.76168E-13
 -1      3266 1.92848E+01 9.33141E-01-1.04358E-03 2.40746E-01 1.07222E-13-9.43928E-14
 -1      3267 1.93291E+01 9.24229E-01-3.52681E-03 3.99478E-01 2.36625E-13 2.87614E-13
 -1      3268 1.78402E+01 1.67292E+00 2.69573E-02 1.08719E+00 5.85440E-14 4.31679E-13
 -1      3269 1.94316E+01 5.97811E-01 2.36281E-04-5.16913E-01 2.00747E-13-3.63439E-13
 -1      3270 1.94657E+01 6.87555E-01 4.45361E-03-3.80094E-01 1.22516E-13-3.82173E-13
 -1      3271 1.93740E+01 7.48225E-01-6.27635E-03-2.63029E-01-6.04700E-15-4.19004E-13
 -1      3272 1.93122E+01 8.50614E-01 1.99613E-03-1.02616E-01-2.90311E-14-3.51953E-13
 -1      3273 1.92776E+01 8.83305E-01-4.87902E-03 4.89533E-02 1.46516E-13-2.36262E-13
 -1      3274 1.91440E+01 9.60341E-01 5.16030E-03 1.17794E-01 5.53151E-14-1.97161E-13
 -1      3275 1.92236E+01 8.14786E-01 3.29628E-03-2.49678E-01 1.54970E-13-3.44233E-13
 -1      3276 1.03322E+01 1.41551E+00 8.13678E-02 2.62533E-01-4.11997E-15 7.04589E-13
 -1      3277 9.11027E+00 1.04935E+00 1.85038E-01-1.02056E+00-1.89512E-13 4.51583E-13
 -1      3278 1.03817E+01 1.07969E+00 8.08216E-02-1.89494E+00-9.38763E-14 5.81202E-13
 -1      3279 2.65828E+01-1.81663E+00-3.43375E-02-4.41812E-01 8.69399E-14 2.05183E-13
 -1      3280 2.64802E+01 3.30905E+00-1.06976E-01 1.99026E+00-2.44388E-13 7.79828E-14
 -1      3281 2.52524E+01 3.67038E+00-5.95328E-02 1.75621E+00-3.28265E-13 8.87207E-14
 -1      3282 2.61095E+01 2.18095E+00-5.00926E-03 2.06593E+00-2.86028E-13 1.89446E-13
 -1      3283 2.67271E+01 1.91167E+00-6.65625E-02-1.99533E+00-4.84890E-14 3.03722E-13
 -1      3284 2.01766E+01 4.87383E-01-2.74154E-03 2.21229E-01 2.01415E-13-7.35063E-14
 -1      3285 2.02316E+01 6.35719E-01 3.83322E-03 3.60742E-01 2.22244E-13-8.06058E-14
 -1      3286 2.02611E+01 7.95012E-01 1.21920E-03 4.21618E-01 2.11403E-13-1.20530E-13
 -1      3287 2.02309E+01 5.26615E-01-6.10677E-04 1.99895E-01 1.86599E-13-9.64454E-14
 -1      3288 1.99636E+01-3.37298E+00 5.03177E-02 5.32845E+00 1.35815E-13 2.16407E-14
 -1      3289 1.82858E+01-2.36933E+00 2.02604E-02 5.12841E+00 8.85889E-14-6.83828E-14
 -1      3290 2.14296E+01-3.23256E+00 4.58482E-02 4.17441E+00 1.06683E-13 4.07920E-15
 -1      3291 2.61005E+01-1.50325E+00-2.25653E-02 7.98809E-01-2.20913E-13-5.58859E-14
 -1      3292 2.70683E+01-7.20809E-01-3.73947E-02 1.27998E+00-2.34292E-13-1.81286E-13
 -1      3293 2.62559E+01 2.92531E-01-1.11097E-01 1.77379E+00-1.10540E-13 1.22808E-13
 -1      3294 2.01602E+01 1.80193E+00-6.93570E-03 6.85772E-01 2.40395E-13-3.14426E-13
 -1      3295 2.01253E+01 1.93070E+00-2.71177E-03 5.90889E-01 2.17301E-13-3.46877E-13
 -1      3296 2.02549E+01 1.46339E+00 7.06807E-03 5.87762E-01 2.16998E-13-2.79697E-13
 -1      3297 2.45797E+01-3.71171E+00 2.43654E-02 2.47088E+00 8.72705E-14 1.01752E-13
 -1      3298 2.00917E+01 2.02462E+00-5.85695E-03 5.03546E-01 2.17595E-13-3.59428E-13
 -1      3299 2.00666E+01 2.10593E+00-3.24879E-03 3.91463E-01 1.80881E-13-3.77975E-13
 -1      3300 2.01640E+01 1.85015E+00 5.98377E-03 2.92060E-01 1.59046E-13-3.59090E-13
 -1      3301 2.02099E+01 1.69662E+00 7.67080E-03 4.62146E-01 2.11930E-13-3.27871E-13
 -1      3302 2.00647E+01 2.11210E+00-2.96125E-03-3.83587E-01-3.35636E-14-3.49551E-13
 -1      3303 2.00886E+01 2.03414E+00-5.25174E-03-4.98266E-01-6.77282E-14-3.39012E-13
 -1      3304 1.21529E+01 4.49616E-01 1.25813E-01 3.64077E+00 1.64223E-13-4.58522E-14
 -1      3305 1.08896E+01 1.56616E+00 1.31915E-01-1.96551E-01 1.29612E-13-1.25344E-13
 -1      3306 1.31274E+01 1.82091E+00 5.19477E-02-1.45019E+00 1.23529E-13-2.32023E-13
 -1      3307 1.40790E+01 1.95796E+00-2.83795E-02-1.22970E+00 8.17488E-14-2.26852E-13
 -1      3308 1.16980E+01 1.62362E+00-4.36915E-03 8.62713E-01 1.88813E-13-8.17263E-14
 -1      3309 1.18405E+01 3.57248E-01 7.30892E-02-3.76440E+00-2.32342E-13 3.33830E-13
 -1      3310 1.24470E+01-5.33996E-01 1.26796E-01-4.95134E+00-2.77584E-13 3.71703E-13
 -1      3311 1.44932E+01-7.31770E-01 2.51833E-02-4.80255E+00-1.26208E-13 1.95614E-13
 -1      3312 2.07698E+01-3.17504E+00 4.79864E-02-4.55153E+00-1.68580E-13-3.45345E-13
 -1      3313 2.22945E+01-4.07567E+00 2.94156E-02-4.48922E+00-1.36158E-13-3.98690E-13
 -1      3314 2.32286E+01-3.77209E+00-5.16585E-02-3.15450E+00-3.84120E-14-2.61704E-13
 -1      3315 2.01215E+01 1.94094E+00-2.51146E-03-5.83476E-01-1.04535E-13-3.17023E-13
 -1      3316 2.01557E+01 1.81226E+00-7.47741E-03-6.82600E-01-1.59965E-13-3.17174E-13
 -1      3317 2.01986E+01 1.70381E+00 4.70607E-03-4.52689E-01-9.91393E-14-2.87943E-13
 -1      3318 2.02301E+01-1.92081E-02 2.17548E-03-4.36294E-01-2.57447E-13-1.35017E-13
 -1      3319 2.01957E+01 1.53891E-02-9.30625E-05-4.67531E-01-1.34739E-13 8.03719E-15
 -1      3320 2.02194E+01-5.05703E-02-2.39057E-03-5.24623E-01 9.76696E-14-2.94951E-13
 -1      3321 2.02804E+01-9.63154E-02-8.14496E-04-4.50966E-01-2.62322E-13-2.98493E-13
 -1      3322 2.02184E+01 1.59685E+00-1.07898E-03-8.29323E-01-2.10642E-13-3.04831E-13
 -1      3323 2.02155E+01 1.60959E+00 1.73762E-03-7.18246E-01-1.80494E-13-3.14043E-13
 -1      3324 2.01021E+01-3.10382E-02 1.73696E-04-1.76942E-01 8.20153E-14-1.22159E-13
 -1      3325 2.01128E+01-1.78358E-02 7.06132E-04-1.74216E-01 4.57066E-14-1.17546E-13
 -1      3326 1.68926E+01-1.39354E+00 1.17747E-01-4.94381E+00-1.83513E-13-4.10852E-14
 -1      3327 1.83823E+01-2.32516E+00-2.98793E-02-4.97265E+00-9.88081E-14-2.19966E-13
 -1      3328 2.03161E+01 7.36561E-01 2.09986E-03-2.42255E-01-1.21510E-13-2.26373E-13
 -1      3329 2.02964E+01 5.75043E-01-3.11674E-03-1.41067E-01-1.14245E-13-2.28867E-13
 -1      3330 2.03015E+01 4.42423E-01 2.62107E-03-7.08120E-02-1.30398E-13-2.20768E-13
 -1      3331 2.02765E+01 3.30471E-01-2.13878E-03-3.50292E-03-1.25574E-13-2.13974E-13
 -1      3332 2.03326E+01 5.82328E-01 8.91759E-04-1.14033E-01-1.28718E-13-2.17973E-13
 -1      3333 2.02680E+01 2.41863E-01 2.10801E-03 4.21795E-02-9.77725E-14-2.01461E-13
 -1      3334 2.02436E+01 1.67660E-01-1.25716E-03 8.37957E-02-8.50435E-14-1.86535E-13
 -1      3335 2.03166E+01 3.33347E-01-6.62645E-05 4.47650E-03-1.13401E-13-2.10893E-13
 -1      3336 2.02284E+01 1.10135E-01 1.57005E-03 1.10802E-01-9.15852E-14-1.75228E-13
 -1      3337 2.02069E+01 6.30110E-02-6.10094E-04 1.33875E-01-8.06413E-14-1.51303E-13
 -1      3338 2.02846E+01 1.66717E-01-4.24307E-04 8.04673E-02-8.04443E-14-1.50896E-13
 -1      3339 2.01888E+01 2.76752E-02 1.06563E-03 1.47553E-01-7.53785E-14-1.40248E-13
 -1      3340 2.01711E+01-5.72459E-05-1.62099E-04 1.58152E-01-5.14769E-14-1.64601E-13
 -1      3341 2.02460E+01 5.96272E-02-5.69113E-04 1.24202E-01-6.91632E-14-1.36612E-13
 -1      3342 2.01524E+01-1.95961E-02 6.45976E-04 1.63104E-01-2.14242E-14-2.07356E-13
 -1      3343 2.01383E+01-3.35066E-02 1.37305E-04 1.66003E-01-1.14506E-14-1.52789E-13
 -1      3344 2.02063E+01-4.31441E-03-5.95381E-04 1.45513E-01-4.97632E-14-1.70568E-13
 -1      3345 2.01202E+01-4.18405E-02 3.16095E-04 1.65902E-01-2.06530E-14-1.69024E-13
 -1      3346 2.01092E+01-4.59623E-02 3.31354E-04 1.64716E-01-4.56250E-14-1.36512E-13
 -1      3347 2.01683E+01-3.72607E-02-5.57139E-04 1.52618E-01-5.81471E-17-2.01617E-13
 -1      3348 2.00924E+01-4.64080E-02 6.40844E-05 1.62372E-01-8.49538E-14-1.04334E-13
 -1      3349 2.00840E+01-4.36672E-02 4.54696E-04 1.59772E-01-7.78862E-14-7.69766E-14
 -1      3350 2.01333E+01-4.81183E-02-4.84269E-04 1.52010E-01-4.66674E-14-1.30964E-13
 -1      3351 2.00685E+01-3.86325E-02-1.26889E-04 1.57289E-01-1.27588E-13-7.87456E-14
 -1      3352 2.00623E+01-3.11722E-02 5.34668E-04 1.55219E-01-1.03143E-13-6.39844E-14
 -1      3353 2.01017E+01-4.34107E-02-3.97238E-04 1.48631E-01-8.21988E-14-1.44117E-13
 -1      3354 2.00481E+01-2.24521E-02-2.70871E-04 1.54166E-01-4.62928E-14-7.14524E-14
 -1      3355 2.00437E+01-1.19121E-02 5.92134E-04 1.54023E-01-2.41119E-14-4.74839E-14
 -1      3356 2.00732E+01-2.79426E-02-3.10374E-04 1.46200E-01-7.48570E-14-6.22261E-14
 -1      3357 2.00306E+01-9.45950E-04-3.76466E-04 1.55583E-01-4.16697E-14-2.99680E-14
 -1      3358 2.00278E+01 1.12834E-02 6.42880E-04 1.58346E-01-3.59381E-14-4.93049E-15
 -1      3359 2.00475E+01-5.39468E-03-2.36076E-04 1.47524E-01-2.05674E-15-6.85454E-14
 -1      3360 2.00157E+01 2.31694E-02-4.44955E-04 1.63420E-01-7.22859E-14 6.45805E-15
 -1      3361 2.00146E+01 3.56966E-02 6.98704E-04 1.69729E-01-8.15479E-14 2.52592E-14
 -1      3362 2.00242E+01 2.11237E-02-1.88655E-04 1.54758E-01-5.44732E-14-3.89931E-14
 -1      3363 2.00038E+01 4.70443E-02-4.68402E-04 1.78996E-01-1.20955E-13 3.36273E-14
 -1      3364 2.00048E+01 5.82190E-02 7.67867E-04 1.89160E-01-1.35599E-13-1.02903E-14
 -1      3365 2.00033E+01 4.85290E-02-1.87426E-04 1.69581E-01-9.91447E-14-2.67861E-14
 -1      3366 1.99960E+01 6.71865E-02-4.27398E-04 2.03088E-01-1.70671E-13-1.85987E-14
 -1      3367 2.00001E+01 7.48347E-02 8.54439E-04 2.17039E-01-1.84184E-13-3.15148E-14
 -1      3368 1.99854E+01 7.32007E-02-2.59876E-04 1.93288E-01-1.71414E-13 3.51050E-14
 -1      3369 1.99947E+01 7.89457E-02-2.88286E-04 2.35812E-01-1.41112E-13-1.76321E-14
 -1      3370 2.00036E+01 8.01160E-02 9.55734E-04 2.52972E-01-6.06334E-14 2.23651E-14
 -1      3371 1.99727E+01 9.03997E-02-4.44589E-04 2.26754E-01-1.26357E-13 1.03666E-13
 -1      3372 2.00045E+01 7.60446E-02-4.09714E-07 2.76330E-01-6.28955E-14 8.17270E-15
 -1      3373 2.00207E+01 6.68158E-02 1.05666E-03 2.95392E-01-3.93363E-14 9.75860E-15
 -1      3374 1.99689E+01 9.37020E-02-7.93097E-04 2.70241E-01-8.23645E-14 1.07557E-13
 -1      3375 2.00322E+01 5.02821E-02 5.05301E-04 3.22321E-01-1.89984E-14-5.34098E-14
 -1      3376 2.00596E+01 2.57384E-02 1.11999E-03 3.40908E-01 3.12850E-14-2.98782E-14
 -1      3377 1.99804E+01 7.45521E-02-1.36890E-03 3.22971E-01-3.36580E-14-3.31537E-14
 -1      3378 2.00880E+01-8.34398E-03 1.31390E-03 3.69134E-01 1.13083E-13-5.07828E-14
 -1      3379 2.01314E+01-5.37893E-02 1.07241E-03 3.83338E-01 1.99111E-13-1.18074E-13
 -1      3380 2.00174E+01 2.21510E-02-2.23978E-03 3.82347E-01 4.88542E-14 6.10646E-15
 -1      3381 2.01857E+01-1.10686E-01 2.51779E-03 4.08562E-01 1.89413E-13-9.58014E-14
 -1      3382 2.02508E+01-1.82340E-01 7.83770E-04 4.12373E-01 8.25559E-14-7.76811E-15
 -1      3383 2.00941E+01-7.59364E-02-3.45684E-03 4.42691E-01 1.59986E-13-2.36424E-14
 -1      3384 2.03421E+01-2.66058E-01 4.18866E-03 4.27159E-01 2.84918E-14-2.32302E-14
 -1      3385 2.04344E+01-3.66878E-01 5.40352E-05 4.11884E-01 4.07544E-14 2.96761E-14
 -1      3386 2.02292E+01-2.31884E-01-5.01450E-03 4.93323E-01 1.18556E-13 6.52702E-14
 -1      3387 2.05747E+01-4.77338E-01 6.27507E-03 4.04308E-01 2.14815E-14 1.01676E-13
 -1      3388 2.06974E+01-6.04025E-01-1.33497E-03 3.58371E-01 3.70745E-14 1.71579E-13
 -1      3389 2.04452E+01-4.53148E-01-6.74818E-03 5.15837E-01 4.15827E-14 5.99880E-14
 -1      3390 2.08963E+01-7.32343E-01 8.42890E-03 3.11436E-01 4.75419E-14 1.38621E-13
 -1      3391 2.10466E+01-8.69709E-01-3.61225E-03 2.21620E-01 1.09836E-13 1.39242E-13
 -1      3392 2.07635E+01-7.33739E-01-8.22727E-03 4.81360E-01 5.67319E-14 1.51029E-13
 -1      3393 2.13050E+01-9.92198E-01 9.85091E-03 1.14252E-01 6.64934E-14 1.39980E-13
 -1      3394 2.14694E+01-1.10573E+00-6.71481E-03-3.03702E-02 5.70725E-14 1.31418E-13
 -1      3395 2.11965E+01-1.04191E+00-8.81938E-03 3.50814E-01 7.50886E-14 1.31840E-13
 -1      3396 2.17688E+01-1.17574E+00 9.13960E-03-2.18981E-01 1.54111E-14 2.03519E-13
 -1      3397 2.19188E+01-1.20402E+00-9.26435E-03-4.17323E-01 4.25460E-14 1.79946E-13
 -1      3398 2.17341E+01-1.30430E+00-7.75509E-03 7.55423E-02 5.33647E-14 1.59369E-13
 -1      3399 2.22037E+01-1.15088E+00 3.77483E-03-6.81762E-01 6.71217E-14 1.57450E-13
 -1      3400 2.23027E+01-1.02148E+00-9.46214E-03-9.01527E-01 4.01842E-14 1.19268E-13
 -1      3401 2.23057E+01-1.37866E+00-6.06264E-03-3.73686E-01 7.40383E-15 2.03220E-13
 -1      3402 2.25014E+01-7.70529E-01-2.95192E-03-1.20484E+00-2.58608E-14 1.09860E-13
 -1      3403 2.25196E+01-4.11748E-01 1.81064E-03-1.37598E+00 4.04614E-14 5.24396E-14
 -1      3404 2.28157E+01-1.07088E+00 5.28009E-03-9.69347E-01 5.12572E-14 5.43116E-14
 -1      3405 2.25237E+01 3.04599E-02-2.40550E-02-1.56749E+00 2.96759E-14 2.77833E-14
 -1      3406 2.24887E+01 5.97350E-01 1.38059E-02-1.59837E+00 4.39397E-14 6.40482E-14
 -1      3407 2.30458E+01-2.20469E-01 1.79773E-02-1.52272E+00 1.47118E-14-3.16776E-14
 -1      3408 2.23082E+01 1.17710E+00-3.07428E-02-1.56006E+00-6.56723E-15-1.51242E-14
 -1      3409 2.22112E+01 1.76381E+00 1.17807E-02-1.35279E+00-2.32262E-14-3.26731E-14
 -1      3410 2.29933E+01 9.32278E-01 1.25297E-02-1.70493E+00-2.19933E-14-9.26941E-14
 -1      3411 2.20295E+01 2.22812E+00-1.85090E-02-9.70110E-01 1.23412E-13 1.34896E-15
 -1      3412 2.19705E+01 2.56499E+00 1.19664E-02-5.69446E-01 4.35421E-14 9.74906E-14
 -1      3413 2.26666E+01 2.22661E+00-4.60236E-03-1.27027E+00 7.98120E-14-7.95128E-14
 -1      3414 2.18834E+01 2.65204E+00-1.34212E-02 5.51838E-02-1.76360E-13 2.47803E-13
 -1      3415 2.19455E+01 2.52810E+00-1.10430E-02 5.01237E-01-2.65630E-13 1.74196E-13
 -1      3416 2.24426E+01 3.06715E+00 4.75972E-03-3.04751E-01 1.09752E-14-1.26389E-13
 -1      3417 2.20780E+01 2.20769E+00 9.86116E-03 1.00770E+00-3.26122E-13 1.33514E-13
 -1      3418 2.21702E+01 1.70826E+00-2.85402E-02 1.32424E+00-2.50329E-13 1.17814E-13
 -1      3419 2.25634E+01 2.72399E+00 1.38670E-03 8.28729E-01-3.10479E-13-4.42177E-14
 -1      3420 2.23916E+01 1.13870E+00 1.65953E-02 1.52116E+00-2.79209E-13 1.12250E-14
 -1      3421 2.24533E+01 5.22081E-01-3.09400E-02 1.59043E+00-2.76900E-13-6.69239E-14
 -1      3422 2.28793E+01 1.57284E+00 1.33085E-02 1.57876E+00-2.95339E-13-1.76621E-13
 -1      3423 2.25510E+01-1.53474E-03 7.63251E-03 1.49407E+00-1.27126E-13-1.87444E-13
 -1      3424 2.25684E+01-4.71730E-01-1.09161E-02 1.37380E+00-1.90253E-14-1.86677E-13
 -1      3425 2.30703E+01 2.94412E-01 2.18061E-02 1.64972E+00-2.74311E-13-5.88288E-14
 -1      3426 2.24532E+01-8.26985E-01-6.05667E-03 1.09356E+00 9.99092E-14-1.25668E-13
 -1      3427 2.23923E+01-1.06053E+00 7.09088E-04 8.78474E-01 1.42316E-13-2.69420E-14
 -1      3428 2.29979E+01-7.85983E-01 1.18583E-02 1.20039E+00 7.41227E-14-7.56999E-14
 -1      3429 2.21397E+01-1.19659E+00-9.66704E-03 5.82144E-01 1.09624E-13-8.49884E-15
 -1      3430 2.20091E+01-1.23248E+00 7.11259E-03 3.62728E-01 1.78871E-13-3.44382E-14
 -1      3431 2.25968E+01-1.33190E+00-1.22095E-03 5.85934E-01 1.54060E-13-1.20025E-13
 -1      3432 2.17122E+01-1.20886E+00-8.01752E-03 1.32194E-01 1.92068E-13-6.91927E-14
 -1      3433 2.15514E+01-1.12410E+00 9.76221E-03-4.32149E-02 1.80044E-13-6.49499E-14
 -1      3434 2.20443E+01-1.40622E+00-6.32269E-03 5.32709E-02 1.79870E-13-2.09620E-13
 -1      3435 2.12737E+01-1.01523E+00-5.10336E-03-1.90754E-01 1.05489E-13-1.06658E-13
 -1      3436 2.11158E+01-8.78268E-01 9.19176E-03-3.08405E-01 7.36003E-14-2.10791E-13
 -1      3437 2.14866E+01-1.20864E+00-9.00578E-03-3.09030E-01 1.25771E-13-3.49400E-13
 -1      3438 2.08923E+01-7.41949E-01-2.39026E-03-3.83966E-01-1.25095E-13-2.44559E-13
 -1      3439 2.07568E+01-5.98762E-01 7.17458E-03-4.50261E-01-1.47174E-13-4.33212E-13
 -1      3440 2.10092E+01-8.98020E-01-9.00664E-03-5.08281E-01-8.24799E-14-3.22734E-13
 -1      3441 2.05933E+01-4.65997E-01-6.04575E-04-4.76582E-01-1.64381E-13-5.54910E-13
 -1      3442 2.04843E+01-3.38701E-01 3.98293E-03-5.01736E-01-2.38736E-13-5.47603E-13
 -1      3443 2.06471E+01-5.78709E-01-7.34551E-03-5.86930E-01-2.10056E-13-2.95978E-13
 -1      3444 2.01980E+01 1.60517E-01-1.31004E-03-8.71352E-02 1.00903E-13-1.04235E-13
 -1      3445 2.02255E+01 2.35151E-01 2.50522E-03-3.96530E-02 1.30676E-13-1.11550E-13
 -1      3446 2.00612E+01-3.94489E-02 4.75579E-04-1.69401E-01 1.27375E-13-1.37069E-13
 -1      3447 2.00657E+01-4.28482E-02 2.89568E-05-1.72475E-01 9.85671E-14-1.05846E-13
 -1      3448 2.00465E+01-2.49259E-02 5.45462E-04-1.64508E-01 6.84104E-14-7.16595E-14
 -1      3449 2.00486E+01-3.35911E-02-2.03184E-04-1.66525E-01 1.23485E-13-7.14336E-14
 -1      3450 2.00840E+01-3.90158E-02-3.50499E-04-1.61247E-01 9.22558E-14-5.26566E-14
 -1      3451 2.00336E+01-1.19439E-03 5.96115E-04-1.63832E-01 1.55436E-14-4.60152E-14
 -1      3452 2.00345E+01-1.44467E-02-4.07186E-04-1.63223E-01 2.70383E-14-6.42702E-14
 -1      3453 2.00611E+01-2.06940E-02-2.09542E-04-1.58103E-01 5.87183E-14-5.86374E-15
 -1      3454 2.00210E+01 3.12414E-02 6.22261E-04-1.70091E-01 6.20854E-14-4.40087E-14
 -1      3455 2.00215E+01 1.35442E-02-6.00401E-04-1.65458E-01 4.77728E-14-5.62251E-14
 -1      3456 2.00393E+01 8.02541E-03-4.03252E-05-1.59090E-01 2.03104E-14-5.08557E-14
 -1      3457 2.00062E+01 7.30766E-02 6.23926E-04-1.85603E-01 4.05577E-14-1.60231E-13
 -1      3458 2.00073E+01 5.04488E-02-8.14589E-04-1.75697E-01 5.76063E-14-9.20847E-14
 -1      3459 2.00163E+01 4.67240E-02 1.72615E-04-1.66564E-01 6.13632E-14-2.60168E-14
 -1      3460 1.99859E+01 1.26212E-01 5.89979E-04-2.12424E-01-3.29601E-14-1.00089E-13
 -1      3461 1.99892E+01 9.75436E-02-1.07913E-03-1.96057E-01-6.03010E-15-9.65399E-14
 -1      3462 1.99892E+01 9.62952E-02 4.63727E-04-1.82360E-01 2.01032E-14-1.33359E-13
 -1      3463 1.99554E+01 1.93818E-01 5.30230E-04-2.52432E-01-2.31705E-14-8.05126E-14
 -1      3464 1.99629E+01 1.57295E-01-1.44720E-03-2.28425E-01 5.69432E-15-1.06580E-13
 -1      3465 1.99536E+01 1.58950E-01 8.86742E-04-2.07832E-01-4.29218E-14-8.69538E-14
 -1      3466 1.99035E+01 2.85333E-01 3.10574E-04-3.10394E-01-8.61394E-14-5.38657E-14
 -1      3467 1.99207E+01 2.35965E-01-1.91440E-03-2.75602E-01-5.10182E-14-1.13384E-13
 -1      3468 1.99016E+01 2.40209E-01 1.41302E-03-2.44907E-01-3.03289E-14-1.13525E-13
 -1      3469 1.98232E+01 3.98308E-01-2.31022E-04-3.81813E-01 3.69035E-15-8.42903E-14
 -1      3470 1.98538E+01 3.37453E-01-2.57796E-03-3.38737E-01-5.79911E-14-6.70745E-14
 -1      3471 1.98245E+01 3.44349E-01 2.44480E-03-2.92585E-01-6.43088E-14-2.40648E-13
 -1      3472 1.96957E+01 5.43813E-01-1.04536E-03-4.68957E-01 8.84401E-14-1.16641E-13
 -1      3473 1.97495E+01 4.65811E-01-3.42181E-03-4.15562E-01 9.98845E-14-7.35327E-14
 -1      3474 1.97107E+01 4.73828E-01 3.76627E-03-3.48071E-01 4.47118E-14-2.81210E-13
 -1      3475 1.94951E+01 7.29361E-01-2.39257E-03-5.69650E-01 3.25843E-14-9.60912E-14
 -1      3476 1.95858E+01 6.30524E-01-4.59090E-03-5.06320E-01 1.70137E-14-6.38040E-14
 -1      3477 1.95392E+01 6.37985E-01 5.72089E-03-4.08336E-01 2.05184E-14-2.32560E-13
 -1      3478 1.91844E+01 9.60481E-01-4.51340E-03-6.78656E-01 1.31950E-13-8.14078E-14
 -1      3479 1.93319E+01 8.38597E-01-6.20314E-03-6.07169E-01 1.08160E-13-6.79849E-14
 -1      3480 1.92817E+01 8.43084E-01 8.54107E-03-4.65812E-01 4.83131E-14-1.40712E-13
 -1      3481 1.87113E+01 1.23606E+00-7.59990E-03-7.87052E-01 8.39706E-14-1.35750E-13
 -1      3482 1.89436E+01 1.09298E+00-8.52428E-03-7.10788E-01 1.28739E-13-9.27839E-14
 -1      3483 1.88982E+01 1.09223E+00 1.25754E-02-5.08000E-01 1.13354E-13-3.84372E-14
 -1      3484 1.80042E+01 1.53896E+00-1.20084E-02-8.83827E-01 8.58441E-14-1.42248E-13
 -1      3485 1.83583E+01 1.38535E+00-1.22543E-02-8.06453E-01 6.06679E-14-1.54549E-13
 -1      3486 1.83327E+01 1.38057E+00 1.84848E-02-5.16853E-01 1.18707E-13-1.20946E-13
 -1      3487 1.68981E+01 1.83867E+00-1.46805E-02-9.64792E-01 1.69773E-14-6.19701E-14
 -1      3488 1.74612E+01 1.69546E+00-1.72474E-02-8.82530E-01 1.19336E-13-9.92614E-14
 -1      3489 1.74798E+01 1.69252E+00 2.73262E-02-4.69290E-01 6.22436E-14-1.27467E-13
 -1      3490 1.53936E+01 1.98694E+00-5.10699E-03-1.01242E+00 2.89621E-14-2.48641E-13
 -1      3491 1.61340E+01 1.91342E+00-2.79458E-02-9.45721E-01 2.78354E-14-1.10907E-13
 -1      3492 1.62530E+01 1.97569E+00 5.32647E-02-3.49573E-01 7.40009E-14-8.35807E-14
 -1      3493 2.02552E+01 1.39209E+00 2.67280E-03-5.54820E-01-1.58717E-13-2.91378E-13
 -1      3494 1.77728E+01 1.54132E+00-1.19107E-02 6.29115E-01 7.04421E-14 7.80382E-13
 -1      3495 1.72716E+01 1.67441E+00-1.65559E-02 6.41987E-01 1.09298E-13 8.29520E-13
 -1      3496 1.85636E+01 1.27212E+00-7.25437E-03 6.41322E-01 2.91152E-14 7.30884E-13
 -1      3497 1.82187E+01 1.40652E+00-1.10158E-02 6.73862E-01 6.56995E-14 6.32096E-13
 -1      3498 1.78759E+01 1.49962E+00 2.18914E-02 2.77422E-01 1.27628E-13 9.36976E-13
 -1      3499 1.97545E+01 2.50517E-01 7.43794E-03-7.82404E-01 2.48977E-13-2.41762E-13
 -1      3500 1.95869E+01 3.45599E-01-5.63801E-03-7.49707E-01 2.30057E-13-3.63769E-13
 -1      3501 1.93641E+01 9.34384E-01 4.38601E-04 5.20382E-01 1.70701E-13 6.60654E-13
 -1      3502 1.94048E+01 9.08960E-01-4.42703E-03 6.38957E-01-1.68003E-14 7.90078E-13
 -1      3503 1.92610E+01 9.95807E-01-1.51373E-03 6.91165E-01-7.55270E-14 9.55928E-13
 -1      3504 1.91792E+01 1.00536E+00 4.05211E-03 4.41597E-01 1.06468E-13 3.87289E-13
 -1      3505 2.00799E+01-4.27129E-02 3.69183E-04-1.75252E-01 7.16188E-14-1.15638E-13
 -1      3506 2.00868E+01-3.88954E-02 3.27284E-04-1.76802E-01 8.19219E-14-9.30641E-14
 -1      3507 2.01393E+01-3.48139E-02-6.06315E-04-1.66385E-01 7.22162E-14-1.01395E-13
 -1      3508 2.59407E+01-1.06577E+00-1.33242E-01-1.24582E+00 7.69697E-15 1.28000E-13
 -1      3509 2.57584E+01-2.29387E+00 2.61676E-02-5.84964E-02-2.30996E-14 7.98858E-14
 -1      3510 2.46346E+01 4.56906E+00-5.75640E-02 1.03941E+00-2.59855E-13-1.34731E-13
 -1      3511 2.45481E+01 4.95482E+00-8.19670E-02 9.52035E-02-2.87194E-13-2.15905E-13
 -1      3512 2.02221E+01-9.11096E-02 2.14927E-03-6.29598E-01 1.26275E-14-2.81586E-13
 -1      3513 2.01394E+01-3.77335E-02 3.92997E-05-6.82890E-01 1.15305E-14-1.39388E-14
 -1      3514 2.48092E+01-3.36774E+00 7.96085E-02-1.70025E+00 4.07677E-14-1.08505E-13
 -1      3515 2.53480E+01-2.78480E+00-6.80021E-02-3.69887E-01-1.17136E-13-6.15779E-14
 -1      3516 2.01619E+01 6.11573E-02-5.94629E-04-1.41944E-01 5.23887E-14-1.32340E-13
 -1      3517 2.01826E+01 1.06277E-01 1.91720E-03-1.17552E-01 8.50244E-14-1.04571E-13
 -1      3518 2.02478E+01 1.64515E-01-7.18500E-04-8.44143E-02 9.34880E-14-1.23408E-13
 -1      3519 2.01293E+01 5.79167E-04-1.28756E-04-1.68703E-01 3.04014E-14-1.05446E-13
 -1      3520 2.01446E+01 2.68925E-02 1.23040E-03-1.57801E-01 4.20463E-14-1.00805E-13
 -1      3521 2.01724E+01-3.06092E-03-6.93700E-04-1.58609E-01 3.56297E-14-1.21823E-13
 -1      3522 2.00327E+01 2.20271E+00-3.34510E-03-1.63038E-01 3.23470E-14-3.65344E-13
 -1      3523 2.00448E+01 2.16591E+00-4.28023E-03-2.84618E-01-4.78419E-15-3.49913E-13
 -1      3524 2.01607E+01 1.85330E+00 5.05041E-03-2.84867E-01-2.95852E-14-3.22149E-13
 -1      3525 2.56327E+01 2.59582E+00-1.29704E-01-2.00672E+00-9.95731E-14 1.79794E-13
 -1      3526 2.60181E+01 1.11896E+00 5.25221E-02-1.98529E+00-2.57364E-14 1.97221E-13
 -1      3527 2.02911E+01 1.13750E+00-9.32238E-04-4.57074E-01-1.44976E-13-2.72283E-13
 -1      3528 2.02929E+01 9.14018E-01-3.29649E-03-3.19845E-01-1.26234E-13-2.43588E-13
 -1      3529 2.03206E+01 9.12280E-01-1.84452E-04-2.66710E-01-1.19075E-13-2.10522E-13
 -1      3530 2.02625E+01 1.35165E+00 1.83713E-03-4.40708E-01-1.21541E-13-2.39070E-13
 -1      3531 2.47920E+01-3.30487E+00-4.71530E-02 1.37919E+00 1.80455E-15 9.54224E-14
 -1      3532 2.34591E+01-3.50213E+00 2.77064E-02 2.76741E+00 5.59817E-14-3.27930E-14
 -1      3533 1.36935E+01 2.41984E-01 3.00064E-02 3.97444E+00 1.60255E-13-2.72143E-14
 -1      3534 1.25948E+01 1.21409E+00 9.52044E-02 2.61831E+00 1.66729E-13-5.16948E-15
 -1      3535 2.00376E+01 4.16706E-02 6.04841E-03-7.44938E-01 9.18628E-14-6.03596E-14
 -1      3536 1.99036E+01 1.17778E-01-2.53087E-03-7.68162E-01 2.15495E-13-2.86300E-13
 -1      3537 1.98184E+01 8.09237E-02-6.34539E-03-8.74476E-01 2.83833E-13-2.70074E-13
 -1      3538 2.01121E+01-1.08888E-01-5.40411E-03-7.79962E-01 3.41029E-14-1.84295E-13
 -1      3539 2.02890E+01 9.28955E-01 1.25860E-03 4.64962E-01 2.11473E-13-1.75729E-13
 -1      3540 2.02787E+01 1.09989E+00-1.81383E-03 4.99544E-01 2.12856E-13-2.21332E-13
 -1      3541 2.02690E+01 7.68913E-01-2.33979E-03 3.33837E-01 1.86900E-13-1.63367E-13
 -1      3542 1.63977E+01-1.48288E+00 3.12516E-04 5.11228E+00 1.46414E-13-2.62394E-13
 -1      3543 1.49522E+01-6.74129E-01 4.41871E-02 4.76171E+00 1.64375E-13-1.61902E-13
 -1      3544 1.53757E+01 5.11944E-02 6.76026E-02 3.77420E+00 1.36998E-13-1.02803E-13
 -1      3545 1.83632E+01-1.78312E+00 6.52779E-02 4.58040E+00 1.02106E-13-3.59279E-14
 -1      3546 2.41883E+01 4.47258E+00-3.99263E-02-3.54222E-01-1.39555E-13-2.55055E-13
 -1      3547 2.00521E+01-2.48601E+00 2.48127E-02-4.17639E+00-8.77284E-14-3.36161E-13
 -1      3548 2.02362E+01 3.21008E-01-1.99336E-03 1.22787E-02 1.44309E-13-1.53995E-13
 -1      3549 2.02649E+01 4.29581E-01 2.59741E-03 8.66942E-02 1.57360E-13-1.70936E-13
 -1      3550 2.02828E+01 3.27127E-01-4.97577E-04 2.27228E-03 1.16124E-13-1.74969E-13
 -1      3551 2.02128E+01 1.61188E+00-1.86214E-03-1.96401E-01-2.81606E-14-3.01683E-13
 -1      3552 2.02226E+01 1.55457E+00-3.81997E-03-2.79873E-01-5.67336E-14-2.95230E-13
 -1      3553 2.47026E+01-1.89099E+00 4.83303E-03-4.47396E-01-6.32307E-14-2.34324E-14
 -1      3554 2.50403E+01-2.77722E+00-7.72969E-03 4.29562E-01-7.39771E-14 6.38361E-14
 -1      3555 2.40373E+01-2.74698E+00-6.48324E-03 9.07279E-01-8.28671E-14-1.07362E-14
 -1      3556 2.02093E+01 5.95291E-02-7.31341E-04-1.34416E-01 3.69511E-14-1.34206E-13
 -1      3557 2.04085E+01-2.55799E-01 4.37473E-04-4.78664E-01-1.88208E-13-6.08766E-13
 -1      3558 2.03361E+01-1.64071E-01 2.04993E-03-4.76839E-01-2.78018E-13-3.97826E-13
 -1      3559 2.03080E+01-1.47483E-01 7.34240E-04-5.18393E-01-1.20948E-13-4.49722E-13
 -1      3560 2.04294E+01-3.22988E-01-2.30110E-03-5.71197E-01-1.93542E-13-4.32694E-13
 -1      3561 2.01099E+01-4.49981E-02-4.94173E-04-1.65399E-01 8.62304E-14-1.35159E-13
 -1      3562 2.30736E+01-2.96047E+00 3.25897E-02 2.23294E+00-4.13189E-14-4.51984E-14
 -1      3563 2.24532E+01-3.36699E+00-3.82844E-03 3.33793E+00 3.65012E-14-2.02711E-14
 -1      3564 2.11154E+01-2.79473E+00-7.43244E-03 3.63444E+00-1.69205E-14 1.35569E-15
 -1      3565 1.42366E+01 2.16005E+00 8.79886E-02-3.39265E-01 8.82627E-14-2.05698E-13
 -1      3566 1.18383E+01 1.01879E+00 1.19757E-01-2.72542E+00-1.64146E-13 4.49314E-13
 -1      3567 1.34001E+01 7.02166E-01 1.54522E-03-3.08897E+00-2.03153E-13 3.73077E-13
 -1      3568 1.21135E+01 1.47872E+00 3.26984E-02-1.48833E+00-7.10699E-14 6.08950E-13
 -1      3569 1.94410E+01 3.63653E-01-3.38333E-03-8.38439E-01 3.91670E-13-2.95153E-13
 -1      3570 1.94213E+01 5.14728E-01 7.93488E-03-6.88042E-01 3.10801E-13-3.30544E-13
 -1      3571 1.92546E+01 6.12985E-01-7.55877E-03-5.86804E-01 3.80915E-13-4.05295E-13
 -1      3572 1.49203E+01 1.95048E+00-2.63463E-02 5.41423E-01-2.75247E-13 6.85670E-13
 -1      3573 1.39051E+01 1.93095E+00 5.59460E-03 5.62736E-01-2.06677E-13 8.84530E-13
 -1      3574 1.90510E+01 1.07629E+00-5.42806E-03 6.66691E-01-2.53196E-13 8.45538E-13
 -1      3575 1.88278E+01 1.18051E+00-7.40910E-03 7.02862E-01-1.49462E-13 7.28031E-13
 -1      3576 1.85480E+01 1.26879E+00 8.89333E-03 4.29911E-01-1.39768E-13 1.05140E-12
 -1      3577 1.90021E+01 1.09092E+00 1.26237E-03 5.34169E-01-1.72982E-13 8.58039E-13
 -1      3578 2.01403E+01 1.92522E+00 4.97734E-03-9.49264E-02 3.49361E-14-3.46833E-13
 -1      3579 2.53311E+01 3.15985E-02-6.47768E-03-1.62035E+00-6.92424E-14 1.56292E-13
 -1      3580 2.55776E+01 1.00217E+00-9.34941E-03 1.89018E+00-6.65318E-14-5.07441E-14
 -1      3581 2.02658E+01 1.23163E+00-2.06904E-03 4.62011E-01 1.93444E-13-2.76724E-13
 -1      3582 2.35922E+01-3.24827E+00 1.86683E-02-2.21108E+00 3.57492E-14-2.15508E-13
 -1      3583 2.45944E+01-2.49023E+00-1.72873E-02-2.08378E-01-7.26866E-14-2.13055E-13
 -1      3584 2.55489E+01-2.16778E+00 9.31765E-03 3.44253E-01-1.21197E-13-1.95143E-13
 -1      3585 2.51946E+01-1.33639E+00-9.74513E-03 1.00433E+00-1.63513E-13-1.35199E-13
 -1      3586 2.02753E+01-1.18930E-01 1.27024E-03-5.53615E-01 3.59862E-14-4.70338E-13
 -1      3587 1.89634E+01 1.07883E+00-1.99034E-03 4.05207E-01 3.82890E-14 3.97160E-13
 -1      3588 1.66166E+01 1.79412E+00-1.76078E-02 5.51389E-01-6.63762E-14 8.07716E-13
 -1      3589 1.58920E+01 1.89725E+00-1.19370E-02 5.44124E-01-1.83392E-13 7.81902E-13
 -1      3590 1.68221E+01 1.74762E+00 3.43801E-02 5.59223E-02 1.72312E-15 7.48828E-13
 -1      3591 2.47998E+01 3.01601E+00-4.77567E-02-1.74223E+00-4.72712E-14 2.24820E-14
 -1      3592 1.32233E+01 1.55763E+00 2.74853E-02 1.36723E+00 1.63104E-13-3.23665E-14
 -1      3593 2.02254E+01 1.54603E+00-4.84041E-03 2.86765E-01 1.65583E-13-3.37785E-13
 -1      3594 2.02140E+01 1.60708E+00-2.19803E-03 2.01241E-01 1.27779E-13-3.55850E-13
 -1      3595 2.02891E+01 1.38767E+00 5.31990E-03 1.33573E-01 1.01491E-13-3.20111E-13
 -1      3596 2.02050E+01 1.64090E+00-3.43830E-03 1.30376E-01 1.10456E-13-3.43331E-13
 -1      3597 2.02012E+01 1.66106E+00-2.65366E-03 3.97868E-02 7.08729E-14-3.66860E-13
 -1      3598 2.02337E+01 1.50780E+00-1.23630E-03-3.30599E-01-6.89093E-14-2.87169E-13
 -1      3599 2.02494E+01 1.41250E+00-3.63727E-03-3.97395E-01-1.14521E-13-2.51235E-13
 -1      3600 2.03053E+01 1.18268E+00 3.83263E-03-3.17260E-01-1.04430E-13-2.35702E-13
 -1      3601 2.02974E+01 1.30574E+00 4.91813E-03-2.36702E-01-7.90657E-14-2.65803E-13
 -1      3602 1.58684E+01-7.34094E-01 2.89936E-02-4.38364E+00-7.10959E-14 8.28226E-14
 -1      3603 1.28095E+01 1.85552E+00 8.93887E-02-4.68300E-01-1.03560E-13 8.12274E-13
 -1      3604 1.22811E+01 1.76450E+00 2.06260E-02 5.29690E-01-1.15396E-13 9.47520E-13
 -1      3605 1.89148E+01 1.03576E+00-3.25570E-03 1.43072E-01 1.35358E-13-2.75587E-14
 -1      3606 1.87333E+01 1.13867E+00 3.44266E-03 2.28462E-01-4.13539E-14 3.68602E-13
 -1      3607 1.89326E+01 9.88084E-01 2.50899E-03-6.25008E-02 1.59201E-13-1.62685E-13
 -1      3608 2.03059E+01-2.09276E-01-2.10779E-03-6.27121E-01-1.37062E-13-3.69839E-13
 -1      3609 2.01363E+01-4.65761E-02 3.26646E-04-1.50136E-01 5.95416E-14-7.69358E-14
 -1      3610 2.01507E+01-4.52378E-02 2.35980E-04-1.50894E-01 7.01968E-14-6.74292E-14
 -1      3611 1.50753E+01 2.19791E-01 1.07034E-01-3.76422E+00-9.10244E-14 1.15269E-13
 -1      3612 1.68501E+01-6.61648E-01-4.97400E-03-3.92925E+00 1.82671E-14-1.88474E-13
 -1      3613 2.03587E+01 4.21748E-01 1.48940E-03-2.76033E-02-1.02754E-13-1.79338E-13
 -1      3614 2.03424E+01 3.12155E-01-1.72399E-03 2.09894E-02-7.65238E-14-1.81572E-13
 -1      3615 2.03350E+01 2.24151E-01 1.28648E-03 5.06914E-02-6.84901E-14-1.81197E-13
 -1      3616 2.03141E+01 1.51138E-01-1.01696E-03 8.09019E-02-8.54897E-14-1.82193E-13
 -1      3617 2.03697E+01 3.02263E-01 2.78240E-04 2.40883E-02-8.23719E-14-1.54270E-13
 -1      3618 2.02981E+01 9.40994E-02 1.01389E-03 9.80460E-02-6.17046E-14-1.71380E-13
 -1      3619 2.02761E+01 4.81646E-02-4.83216E-04 1.14805E-01-4.34882E-14-1.44907E-13
 -1      3620 2.03398E+01 1.42846E-01-8.89235E-05 7.29384E-02-6.96694E-14-1.78524E-13
 -1      3621 2.02557E+01 1.38064E-02 7.15175E-04 1.23063E-01-4.41283E-14-1.45965E-13
 -1      3622 2.02347E+01-1.23030E-02-1.02275E-04 1.30761E-01-3.92117E-14-1.58087E-13
 -1      3623 2.02992E+01 4.13616E-02-3.21119E-04 1.00560E-01-3.61701E-14-1.59027E-13
 -1      3624 2.02125E+01-3.01832E-02 4.43617E-04 1.33347E-01-1.55532E-14-1.48645E-13
 -1      3625 2.01933E+01-4.19356E-02 1.56687E-04 1.35585E-01 1.78144E-15-1.65478E-13
 -1      3626 2.02543E+01-1.72202E-02-4.31763E-04 1.13582E-01-2.99928E-14-1.29811E-13
 -1      3627 2.01709E+01-4.79922E-02 2.13619E-04 1.35135E-01-1.66903E-14-1.48928E-13
 -1      3628 2.01539E+01-4.94772E-02 3.23522E-04 1.34701E-01-2.36363E-14-1.39042E-13
 -1      3629 2.02087E+01-4.44658E-02-4.47465E-04 1.17708E-01-2.68328E-14-1.10955E-13
 -1      3630 2.01320E+01-4.71362E-02 1.94244E-05 1.33264E-01-2.07634E-14-1.49711E-13
 -1      3631 2.01170E+01-4.13591E-02 4.28935E-04 1.32277E-01-7.00038E-14-1.13537E-13
 -1      3632 2.01646E+01-4.91705E-02-4.04608E-04 1.17520E-01-2.11657E-14-1.29011E-13
 -1      3633 2.00961E+01-3.31429E-02-1.46135E-04 1.31451E-01-1.10044E-13-9.10162E-14
 -1      3634 2.00828E+01-2.23354E-02 4.99495E-04 1.31516E-01-5.24569E-14-7.02333E-14
 -1      3635 2.01228E+01-3.78385E-02-3.27926E-04 1.16611E-01-6.34299E-14-7.40456E-14
 -1      3636 2.00626E+01-1.01601E-02-2.89554E-04 1.32580E-01-6.65571E-15-1.70893E-14
 -1      3637 2.00509E+01 3.93184E-03 5.58082E-04 1.34933E-01 5.19492E-15-1.20962E-14
 -1      3638 2.00830E+01-1.53115E-02-2.36572E-04 1.17846E-01-1.00340E-14-1.73181E-14
 -1      3639 2.00312E+01 1.84792E-02-4.14200E-04 1.38971E-01-1.84739E-14-4.63906E-14
 -1      3640 2.00209E+01 3.43140E-02 6.25195E-04 1.44589E-01-4.97507E-14-1.29041E-14
 -1      3641 2.00450E+01 1.46337E-02-1.48812E-04 1.23605E-01-6.05126E-15-8.32990E-15
 -1      3642 2.00016E+01 4.96948E-02-5.17715E-04 1.52600E-01-8.33224E-14 3.38935E-14
 -1      3643 1.99928E+01 6.56444E-02 7.20059E-04 1.62278E-01-9.24763E-14 4.97044E-14
 -1      3644 2.00081E+01 4.86948E-02-8.54952E-05 1.36024E-01-2.97249E-14 5.97382E-14
 -1      3645 1.99740E+01 8.00757E-02-5.89374E-04 1.75251E-01-1.16367E-13 5.17720E-14
 -1      3646 1.99674E+01 9.41167E-02 8.61411E-04 1.89630E-01-1.49215E-13 1.15451E-13
 -1      3647 1.99723E+01 8.34284E-02-7.40019E-05 1.57193E-01-1.11228E-13 1.02214E-13
 -1      3648 1.99499E+01 1.05262E-01-6.06171E-04 2.08576E-01-1.79786E-13 1.42029E-13
 -1      3649 1.99469E+01 1.14648E-01 1.06654E-03 2.28110E-01-1.41141E-13 1.48646E-13
 -1      3650 1.99383E+01 1.14590E-01-1.52704E-04 1.89289E-01-1.30080E-13 1.24170E-13
 -1      3651 1.99325E+01 1.19297E-01-5.27419E-04 2.54031E-01-1.03063E-13 1.60157E-13
 -1      3652 1.99357E+01 1.20231E-01 1.34705E-03 2.78868E-01-8.52676E-14 1.20488E-13
 -1      3653 1.99083E+01 1.36424E-01-3.75795E-04 2.34624E-01-1.25099E-13 1.14958E-13
 -1      3654 1.99277E+01 1.14014E-01-2.87712E-04 3.12606E-01-8.64287E-14 1.11987E-13
 -1      3655 1.99411E+01 1.01373E-01 1.69892E-03 3.42327E-01 3.50303E-15 7.92573E-14
 -1      3656 1.98871E+01 1.40925E-01-8.18109E-04 2.95517E-01-1.03662E-13 8.91408E-14
 -1      3657 1.99451E+01 7.85900E-02 2.10827E-04 3.84191E-01 7.01402E-14 1.22423E-13
 -1      3658 1.99747E+01 4.58345E-02 2.08477E-03 4.17345E-01 8.01619E-14 1.02505E-13
 -1      3659 1.98831E+01 1.17178E-01-1.57858E-03 3.73846E-01 4.51382E-14 1.78048E-13
 -1      3660 1.99993E+01-4.17287E-04 1.10481E-03 4.66414E-01 1.45385E-13 1.09725E-13
 -1      3661 2.00530E+01-6.09228E-02 2.41539E-03 4.99752E-01 1.66633E-13 7.69528E-14
 -1      3662 1.99094E+01 5.10154E-02-2.77589E-03 4.70058E-01 1.28370E-13 1.94228E-13
 -1      3663 2.01108E+01-1.38038E-01 2.58506E-03 5.52713E-01 1.34836E-13 5.75840E-14
 -1      3664 2.01984E+01-2.34044E-01 2.49270E-03 5.80052E-01 1.28866E-13 1.25072E-13
 -1      3665 1.99858E+01-7.45170E-02-4.52077E-03 5.81341E-01 1.39583E-13 1.18572E-13
 -1      3666 2.03063E+01-3.48231E-01 4.90096E-03 6.29072E-01 9.60642E-14 1.34905E-13
 -1      3667 2.04378E+01-4.85043E-01 1.93910E-03 6.39653E-01 7.80896E-14 2.04147E-13
 -1      3668 2.01400E+01-2.77595E-01-6.90056E-03 6.98522E-01 1.38892E-13 1.03250E-13
 -1      3669 2.06166E+01-6.37371E-01 8.12952E-03 6.68987E-01 7.61532E-14 2.29345E-13
 -1      3670 2.07987E+01-8.11886E-01 1.55262E-04 6.45975E-01 1.41872E-13 3.11252E-13
 -1      3671 2.04074E+01-5.72259E-01-9.78899E-03 8.00198E-01 1.30510E-13 3.01602E-13
 -1      3672 2.10676E+01-9.90152E-01 1.18693E-02 6.29502E-01 7.76006E-14 2.84626E-13
 -1      3673 2.13032E+01-1.18117E+00-1.85402E-03 5.50176E-01 1.51339E-14 3.49842E-13
 -1      3674 2.08273E+01-9.55618E-01-1.28064E-02 8.45636E-01 9.44207E-14 3.38519E-13
 -1      3675 2.16649E+01-1.35496E+00 1.38201E-02 4.59179E-01 1.78641E-14 2.70863E-13
 -1      3676 2.19376E+01-1.51661E+00-7.96666E-03 3.01102E-01 3.63748E-14 2.37020E-13
 -1      3677 2.14143E+01-1.38183E+00-1.79150E-02 7.67894E-01-1.28105E-14 4.07528E-13
 -1      3678 2.24118E+01-1.60241E+00 2.51640E-02 6.99722E-02-9.04569E-14 2.71109E-13
 -1      3679 2.26572E+01-1.63583E+00-6.67094E-03-1.85911E-01-3.33809E-14 2.54176E-13
 -1      3680 2.22278E+01-1.78855E+00-2.18533E-02 5.01063E-01-9.20466E-15 2.36971E-13
 -1      3681 2.33441E+01-1.75085E+00 4.49823E-03-3.41123E-01 1.11304E-14 1.16409E-13
 -1      3682 2.35759E+01-1.52118E+00-9.68326E-03-6.61393E-01 6.54262E-15 9.03808E-14
 -1      3683 2.41201E+01-1.18252E+00-1.85207E-02-1.12216E+00-5.19628E-14 2.79699E-14
 -1      3684 2.42175E+01-5.09948E-01 3.49744E-03-1.41688E+00-8.30724E-14-9.79425E-15
 -1      3685 2.38817E+01 8.49255E-01-6.04252E-02-1.84981E+00-5.82934E-14 3.76305E-14
 -1      3686 2.38035E+01 1.78190E+00 3.15061E-04-1.84809E+00 2.51448E-14 8.40586E-14
 -1      3687 2.35812E+01 2.89721E+00-3.93445E-02-1.49263E+00 6.32810E-14-8.21314E-14
 -1      3688 2.34497E+01 3.53900E+00-2.99090E-02-1.04077E+00 1.50511E-13-1.72198E-13
 -1      3689 2.33785E+01 3.86092E+00-2.84051E-02-3.89627E-01-1.06408E-14-1.28914E-13
 -1      3690 2.30381E+01 3.68365E+00-4.19643E-02 4.75256E-01-2.15855E-13-2.58914E-13
 -1      3691 2.31401E+01 3.31213E+00-3.54300E-02 9.95219E-01-3.40381E-13-2.72758E-13
 -1      3692 2.37608E+01 2.54323E+00-1.90141E-02 1.66708E+00-3.13591E-13-1.25366E-13
 -1      3693 2.38797E+01 1.63271E+00-6.10010E-02 1.82749E+00-3.01330E-13-1.58433E-13
 -1      3694 2.43236E+01 2.95714E-01-4.71927E-03 1.68787E+00-2.05273E-13-1.28211E-13
 -1      3695 2.43367E+01-5.47582E-01-2.92066E-02 1.48268E+00-1.30175E-13-1.02733E-13
 -1      3696 2.38582E+01-1.14949E+00-1.34427E-02 1.02164E+00-9.37054E-14-1.51382E-13
 -1      3697 2.37238E+01-1.55100E+00-5.67189E-04 7.09311E-01 8.37776E-14-1.06326E-13
 -1      3698 2.23229E+01-1.64929E+00-6.99296E-03-1.49355E-01 1.38989E-13-2.21254E-13
 -1      3699 2.20570E+01-1.53776E+00 1.78700E-02-3.59383E-01 1.72744E-13-2.89638E-13
 -1      3700 2.16452E+01-1.38766E+00-5.01753E-03-5.18255E-01 1.79741E-13-4.21408E-13
 -1      3701 2.13943E+01-1.19711E+00 1.29312E-02-6.34503E-01 1.42974E-13-3.95936E-13
 -1      3702 2.18425E+01-1.63880E+00-2.27933E-02-7.21963E-01 7.70312E-14-3.08858E-13
 -1      3703 2.10878E+01-1.00918E+00-8.91432E-04-6.85097E-01 9.06759E-14-3.91122E-13
 -1      3704 2.08843E+01-8.14750E-01 9.83906E-03-7.33404E-01 1.42609E-14-2.68156E-13
 -1      3705 2.11589E+01-1.18843E+00-1.67557E-02-8.89445E-01 1.37414E-13-3.37030E-13
 -1      3706 2.06715E+01-6.39265E-01 6.11588E-04-7.23678E-01-1.51011E-13-2.86572E-13
 -1      3707 2.05147E+01-4.71483E-01 3.49696E-03-7.28577E-01-1.53818E-13-1.92922E-13
 -1      3708 2.06772E+01-7.54745E-01-1.09519E-02-8.98615E-01-8.61561E-15-4.97383E-13
 -1      3709 2.03844E+01-2.92128E-01 3.72766E-03-6.54945E-01-1.40919E-13-2.19236E-13
 -1      3710 2.01044E+01-3.72961E-02 4.15058E-04-1.46796E-01 5.99716E-14-3.80930E-14
 -1      3711 2.01165E+01-4.37683E-02 6.39990E-06-1.48200E-01 6.07392E-14-5.86952E-14
 -1      3712 2.01522E+01-4.63599E-02-3.84094E-04-1.34937E-01 6.33739E-14-5.29447E-14
 -1      3713 2.00114E+01 6.16066E-02 3.78850E-04-1.54642E-01 5.79652E-14-4.61134E-14
 -1      3714 2.00232E+01 3.81659E-02-5.81930E-04-1.49089E-01 1.39912E-14-5.57968E-14
 -1      3715 1.99726E+01 1.16595E-01 2.42462E-04-1.69345E-01-2.26561E-14-3.84773E-14
 -1      3716 1.99875E+01 8.72336E-02-7.98010E-04-1.59690E-01 4.53723E-14-1.67299E-14
 -1      3717 1.99969E+01 8.11832E-02 4.05163E-04-1.41170E-01 3.32121E-14-6.61300E-15
 -1      3718 1.99226E+01 1.85053E-01 2.42302E-05-1.91477E-01-3.07028E-14-6.05576E-14
 -1      3719 1.99432E+01 1.48574E-01-1.06355E-03-1.77312E-01 4.45707E-15-7.27181E-14
 -1      3720 1.99470E+01 1.43273E-01 7.97607E-04-1.53082E-01-3.98837E-16-1.85698E-14
 -1      3721 1.98497E+01 2.74895E-01-3.89194E-04-2.22154E-01-2.94139E-15-1.58424E-13
 -1      3722 1.98823E+01 2.27138E-01-1.35707E-03-2.02513E-01-5.17606E-14-1.21849E-13
 -1      3723 1.98813E+01 2.21817E-01 1.30326E-03-1.69744E-01 7.90259E-15-1.59767E-13
 -1      3724 1.97495E+01 3.82082E-01-1.10377E-03-2.56471E-01-2.74242E-14-2.54768E-13
 -1      3725 1.97968E+01 3.25278E-01-1.74618E-03-2.34030E-01 1.06233E-14-2.13018E-13
 -1      3726 1.97926E+01 3.18885E-01 2.14698E-03-1.88539E-01 3.77778E-14-1.62465E-13
 -1      3727 1.96044E+01 5.15292E-01-2.16201E-03-2.91507E-01 5.36614E-14-2.57456E-13
 -1      3728 1.96765E+01 4.45079E-01-2.16232E-03-2.67265E-01-3.45177E-15-3.00280E-13
 -1      3729 1.96722E+01 4.34944E-01 3.17917E-03-2.04739E-01 1.68956E-14-2.37639E-13
 -1      3730 1.93927E+01 6.79380E-01-3.78898E-03-3.19548E-01-2.83537E-14-1.82856E-13
 -1      3731 1.95022E+01 5.93520E-01-2.68061E-03-2.97123E-01 1.28606E-14-2.21320E-13
 -1      3732 1.95029E+01 5.76080E-01 4.63106E-03-2.11161E-01-1.98350E-14-1.73944E-13
 -1      3733 1.90845E+01 8.77330E-01-6.25888E-03-3.27871E-01 2.59162E-15-8.98515E-14
 -1      3734 1.92493E+01 7.74912E-01-3.30479E-03-3.13396E-01-4.66698E-14-1.89834E-13
 -1      3735 1.92639E+01 7.44891E-01 6.62570E-03-1.95499E-01-7.19842E-14-1.21680E-13
 -1      3736 1.86383E+01 1.10733E+00-9.88732E-03-2.96909E-01 1.00657E-13-6.13308E-14
 -1      3737 1.88836E+01 9.90353E-01-4.11886E-03-2.99878E-01 6.51160E-14-8.71534E-14
 -1      3738 1.89269E+01 9.40742E-01 9.33385E-03-1.38721E-01-1.85941E-14-1.12925E-13
 -1      3739 1.79962E+01 1.35650E+00-1.56026E-02-1.99585E-01 9.53924E-14-1.35382E-14
 -1      3740 1.83577E+01 1.23333E+00-5.45660E-03-2.32771E-01 1.62744E-13 1.22312E-14
 -1      3741 1.84542E+01 1.15676E+00 1.31715E-02-1.29452E-02 7.98983E-14-1.16774E-14
 -1      3742 1.70224E+01 1.60438E+00-2.33976E-02 1.26727E-02 5.65888E-14-8.50291E-14
 -1      3743 1.75837E+01 1.49160E+00-6.63581E-03-7.25787E-02 5.76809E-14-3.85186E-14
 -1      3744 1.77756E+01 1.37824E+00 1.94587E-02 2.27961E-01 1.08796E-13 5.47366E-14
 -1      3745 1.56185E+01 1.79642E+00-3.72578E-02 3.35911E-01 2.72356E-14-1.53488E-14
 -1      3746 1.64584E+01 1.71382E+00-9.31246E-03 2.18663E-01 9.47632E-14 7.48923E-15
 -1      3747 1.68132E+01 1.56520E+00 2.97962E-02 6.44465E-01 5.54058E-14 5.12462E-14
 -1      3748 1.52769E+01 1.95220E+00 5.67214E-02-1.89299E-01-2.40597E-13 6.88802E-13
 -1      3749 1.19883E+01 1.70277E+00 1.26065E-01 1.35779E+00 1.08507E-15 7.89604E-13
 -1      3750 1.80653E+01 1.30130E+00-8.47284E-04-2.77487E-02 6.35100E-14 4.68615E-13
 -1      3751 1.75990E+01 1.38356E+00-1.92577E-02-1.39468E-01 1.67592E-13 4.51737E-13
 -1      3752 1.84554E+01 1.19378E+00-1.14294E-02 1.41258E-01 3.20986E-14 4.01484E-13
 -1      3753 2.02008E+01 1.66159E+00-2.72388E-03-3.47244E-02 4.32045E-14-3.36536E-13
 -1      3754 2.02042E+01 1.64340E+00-3.33820E-03-1.25238E-01 2.58783E-15-3.10880E-13
 -1      3755 2.02869E+01 1.39095E+00 4.99874E-03-1.29816E-01-2.64022E-14-2.79644E-13
 -1      3756 2.02835E+01 1.42301E+00 5.27360E-03 2.27905E-03 3.59680E-14-3.13211E-13
 -1      3757 1.91142E+01 7.80379E-01 5.91465E-03-4.44155E-01 3.90399E-13-3.96013E-13
 -1      3758 1.89969E+01 8.59724E-01-8.36926E-03-2.75724E-01 2.97832E-13-3.01479E-13
 -1      3759 1.88187E+01 9.58287E-01 7.05548E-03-2.66412E-01 2.33937E-13-2.16963E-13
 -1      3760 1.90651E+01 6.79899E-01 5.87814E-05-6.38091E-01 5.84066E-13-3.88556E-13
 -1      3761 2.44206E+01 3.63365E+00-4.63154E-02 1.32153E+00-3.37261E-13-1.55353E-13
 -1      3762 1.92660E+01-1.73706E+00 2.06228E-02-3.83510E+00-1.19128E-13-5.15300E-13
 -1      3763 2.11112E+01-2.75024E+00-5.44912E-02-3.48933E+00 4.71845E-16-3.51255E-13
 -1      3764 1.44896E+01 1.61136E+00 4.45038E-04 1.24363E+00 9.26464E-14-1.02453E-14
 -1      3765 2.02597E+01 5.21249E-01-2.20911E-03 1.50493E-01 1.76020E-13-1.83206E-13
 -1      3766 2.02802E+01 6.42000E-01 2.20570E-03 2.44065E-01 1.72463E-13-1.77933E-13
 -1      3767 2.02963E+01 7.68154E-01-9.85532E-04 2.78178E-01 1.84345E-13-2.24739E-13
 -1      3768 2.02989E+01 5.33655E-01 3.07620E-04 1.22461E-01 1.57706E-13-2.30012E-13
 -1      3769 2.02844E+01 1.53819E-01-1.10114E-03-8.64480E-02 8.76631E-14-1.55322E-13
 -1      3770 2.03065E+01 2.26307E-01 1.61316E-03-5.18857E-02 9.19933E-14-1.77356E-13
 -1      3771 2.26999E+01-2.90146E+00 6.30229E-02-2.54997E+00 2.54267E-14-2.98069E-13
 -1      3772 2.36093E+01-2.87852E+00-4.75889E-02-1.27399E+00 7.45020E-14-2.34614E-13
 -1      3773 2.17828E+01-2.37750E+00 1.93880E-02-2.49985E+00 5.19923E-14-3.80288E-13
 -1      3774 2.02083E+01-9.79176E-03-1.04614E-04-1.45743E-01 2.83414E-14-1.34614E-13
 -1      3775 2.02274E+01 1.60559E-02 8.69689E-04-1.37221E-01 1.82553E-15-1.41903E-13
 -1      3776 2.03178E+01 9.94706E-01 5.39112E-03 3.40433E-01 1.80310E-13-2.66300E-13
 -1      3777 2.02645E+01 1.30604E+00-4.64646E-03 4.10303E-01 1.92176E-13-3.30688E-13
 -1      3778 2.02469E+01 5.01530E-02-5.39995E-04-1.26995E-01 9.09498E-15-1.61642E-13
 -1      3779 2.02687E+01 9.68010E-02 1.24990E-03-1.07625E-01 5.01903E-14-1.44192E-13
 -1      3780 2.03166E+01 1.47763E-01-3.26254E-04-8.06738E-02 6.33978E-14-1.79535E-13
 -1      3781 2.02769E+01 4.48621E-02-4.55788E-04-1.14768E-01 8.31145E-15-1.64871E-13
 -1      3782 2.02504E+01 1.40666E+00-1.79397E-03 3.45678E-01 1.80991E-13-3.39988E-13
 -1      3783 2.00440E+01 1.80047E-02 4.42643E-04-1.46869E-01-9.74374E-15-8.29036E-14
 -1      3784 2.00546E+01-7.90106E-05-3.86989E-04-1.44736E-01 2.75932E-14-4.26107E-14
 -1      3785 2.00387E+01 3.14559E-02 1.15188E-04-1.34181E-01 1.67394E-14-4.71199E-14
 -1      3786 2.03088E+01 1.21485E+00 4.26750E-03 2.49992E-01 1.43651E-13-3.11825E-13
 -1      3787 2.00741E+01-1.50556E-02 4.56614E-04-1.44854E-01 6.38047E-14-3.52856E-14
 -1      3788 2.00849E+01-2.77464E-02-1.99445E-04-1.45145E-01 7.10975E-14-3.92956E-14
 -1      3789 2.00767E+01-6.82841E-03-9.35126E-05-1.31749E-01 3.83825E-14-5.73628E-14
 -1      3790 2.03595E+01 7.07547E-01 2.10376E-03-1.45119E-01-1.12046E-13-2.13474E-13
 -1      3791 2.03518E+01 5.49783E-01-2.97347E-03-7.35991E-02-1.22216E-13-2.00306E-13
 -1      3792 2.03793E+01 5.38639E-01 8.40014E-04-5.30161E-02-8.47298E-14-1.61500E-13
 -1      3793 1.36670E+01 1.62963E+00-1.24127E-02-1.16645E+00-1.81574E-13 7.23050E-13
 -1      3794 2.01714E+01-3.91878E-02 1.68930E-04-1.51387E-01 7.30567E-14-9.01993E-14
 -1      3795 2.01879E+01-2.74507E-02 5.19137E-04-1.49038E-01 6.35510E-14-9.19044E-14
 -1      3796 2.02345E+01-1.42062E-02-4.82605E-04-1.30693E-01 3.41710E-14-1.26022E-13
 -1      3797 2.03641E+01-3.48132E-01 1.20141E-03-7.92624E-01-1.70615E-13-1.88926E-13
 -1      3798 1.52501E+01 1.37198E+00 3.99420E-02 1.83615E+00 8.56971E-14 7.44457E-14
 -1      3799 2.01140E+01-3.34617E-02-2.59338E-04-1.32671E-01 6.06834E-14-1.04664E-13
 -1      3800 2.03146E+01 3.14270E-01-1.53160E-03-1.57235E-02 6.77976E-14-1.86392E-13
 -1      3801 2.03332E+01 4.22856E-01 1.73321E-03 3.97448E-02 8.06311E-14-2.06265E-13
 -1      3802 2.03473E+01 3.08704E-01-1.26699E-05-2.09745E-02 6.94657E-14-2.11354E-13
 -1      3803 1.72723E+01-3.87805E-01-2.63585E-02-3.33247E+00-1.70385E-14-2.46466E-13
 -1      3804 1.83588E+01-1.12282E+00 2.85212E-02-3.80297E+00-7.81276E-14-4.60394E-13
 -1      3805 1.95622E+01-1.35597E+00 2.76906E-02-3.19652E+00-3.66816E-14-7.29606E-13
 -1      3806 2.35688E+01-2.39883E+00 1.20811E-02 6.24840E-01-6.70564E-14-6.90030E-14
 -1      3807 2.33904E+01-2.80522E+00-2.01042E-03 1.46030E+00-5.43978E-14-4.54567E-14
 -1      3808 2.25249E+01-2.63309E+00-1.05311E-02 1.97801E+00-6.47197E-14-7.31857E-14
 -1      3809 2.38845E+01-2.04876E+00-1.17610E-02 1.24475E-01 4.90268E-14-2.97349E-13
 -1      3810 2.30750E+01-1.66727E+00-9.66600E-03 3.58853E-01 1.35079E-13-2.48556E-13
 -1      3811 2.28333E+01-1.73693E+00 1.36451E-02 6.50798E-02 6.29587E-14-2.42774E-13
 -1      3812 1.54529E+01 7.56834E-01-1.10306E-02 2.70183E+00 2.01472E-13 4.79139E-14
 -1      3813 1.64809E+01 1.14379E+00 3.05748E-02 1.68842E+00 9.74585E-14 1.12221E-13
 -1      3814 1.57557E+01 1.56034E+00-1.11492E-02-8.79014E-01-3.07091E-13 4.91291E-13
 -1      3815 1.48458E+01 1.58829E+00-8.01964E-03-1.07082E+00-2.20841E-13 5.56707E-13
 -1      3816 1.83326E+01 1.14714E+00 2.24885E-04-2.34624E-01 8.37908E-14 8.47202E-14
 -1      3817 2.27042E+01-1.96588E+00-2.14817E-02-3.95770E-01 1.16471E-13-1.87316E-13
 -1      3818 1.95354E+01 2.19480E-01 1.11267E-02-1.02107E+00 3.29416E-13-2.66163E-13
 -1      3819 1.92801E+01 3.54714E-01-7.97272E-03-9.69091E-01 4.31576E-13-3.84020E-13
 -1      3820 2.02356E+01-2.83734E-01-1.15731E-03-8.77482E-01 1.77315E-14-3.70519E-13
 -1      3821 2.03224E+01 1.18535E+00-1.89503E-03-7.45792E-02-3.96522E-15-2.64577E-13
 -1      3822 2.03236E+01 1.15180E+00-2.88579E-03-1.31385E-01-4.69394E-14-2.38764E-13
 -1      3823 2.10516E+01-2.23326E+00 3.44790E-02 3.08083E+00 2.37214E-14-5.60533E-14
 -1      3824 1.99389E+01-2.23062E+00-1.20181E-02 3.94192E+00 6.62699E-14-9.46812E-14
 -1      3825 1.46229E+01 7.08404E-01 1.03085E-02-2.87275E+00-1.53176E-13 2.24102E-13
 -1      3826 2.03727E+01 9.52034E-01 3.82988E-03-1.04405E-01-5.92953E-14-2.10902E-13
 -1      3827 2.03249E+01 1.12289E+00-1.19330E-03-1.64583E-01-6.38961E-14-2.46262E-13
 -1      3828 2.03308E+01 1.07178E+00-9.05793E-04-2.01613E-01-9.67836E-14-2.34740E-13
 -1      3829 2.39675E+01-2.44734E+00 3.72732E-02-4.74012E-01 3.58661E-14-2.73891E-13
 -1      3830 2.30821E+01-2.39239E+00-8.27087E-03-9.22947E-01 1.58589E-13-2.74137E-13
 -1      3831 2.01924E+01-4.18139E-02-4.61218E-04-1.35605E-01 5.74804E-14-3.98580E-14
 -1      3832 2.03403E+01 9.50481E-01-2.10245E-03 2.12316E-01 1.19672E-13-3.09658E-13
 -1      3833 2.03309E+01 1.09258E+00 2.92556E-04 1.72146E-01 1.04192E-13-2.83903E-13
 -1      3834 2.03150E+01 8.38017E-01-1.54915E-03 2.46238E-01 1.70506E-13-2.72144E-13
 -1      3835 1.71515E+01 1.46437E+00-5.33930E-03-3.59031E-01 1.17285E-13 3.89701E-13
 -1      3836 1.64768E+01 1.52706E+00-2.71020E-02-5.57252E-01-8.84681E-14 4.30383E-13
 -1      3837 1.75223E+01 1.29531E+00 2.18750E-02-6.81045E-01 1.65205E-13 4.91415E-14
 -1      3838 2.03262E+01 1.12831E+00-3.68941E-03 1.32493E-01 8.99469E-14-2.82691E-13
 -1      3839 2.03262E+01 1.16404E+00-1.89115E-03 7.67186E-02 4.56006E-14-3.01410E-13
 -1      3840 2.03785E+01 9.04079E-01 4.36148E-03 1.08134E-01 6.76986E-14-2.71438E-13
 -1      3841 2.03191E+01 9.74348E-01-2.28297E-03-2.40027E-01-1.05176E-13-2.28047E-13
 -1      3842 1.99776E+01-7.54744E-02 1.02176E-02-9.80913E-01 1.60006E-13-4.09481E-13
 -1      3843 1.97634E+01 3.00619E-02-4.18631E-03-1.00221E+00 1.57066E-13-2.59994E-13
 -1      3844 1.96359E+01-4.83849E-04-6.75778E-03-1.14982E+00 1.71096E-13-3.85452E-13
 -1      3845 1.82337E+01-1.34451E+00-3.36339E-03 4.00858E+00 1.55684E-13-1.63795E-13
 -1      3846 1.65004E+01-1.29067E-01-1.07876E-02 3.54928E+00 2.26382E-13-9.97275E-14
 -1      3847 1.46117E+01 1.40013E+00 7.74845E-02-1.94557E+00-2.00156E-13 4.00631E-13
 -1      3848 2.33039E+01-2.09710E+00-1.59359E-02 2.10411E-01-4.83142E-14 6.18828E-14
 -1      3849 2.28781E+01-2.12584E+00 3.19992E-02 7.19954E-01-8.44116E-15 2.00736E-14
 -1      3850 2.22047E+01-2.27600E+00-1.06098E-02 1.67602E+00-3.79796E-14-5.13509E-14
 -1      3851 2.18137E+01-2.44049E+00-2.75264E-03 2.46154E+00-5.57488E-14-7.47436E-14
 -1      3852 2.03760E+01 1.87225E-01 6.60892E-04 4.80326E-02-8.65785E-14-1.99682E-13
 -1      3853 2.03562E+01 1.20067E-01-6.78670E-04 6.73404E-02-5.76606E-14-1.82206E-13
 -1      3854 2.03377E+01 6.75813E-02 5.74690E-04 7.59637E-02-3.50978E-14-1.72744E-13
 -1      3855 2.03148E+01 2.62972E-02-2.75189E-04 8.65422E-02-3.12796E-14-1.68681E-13
 -1      3856 2.03681E+01 1.06518E-01-4.68994E-05 5.40240E-02-5.24657E-14-1.78016E-13
 -1      3857 2.02915E+01-4.07349E-03 4.15519E-04 9.01609E-02-1.98395E-14-1.63975E-13
 -1      3858 2.02679E+01-2.60303E-02 1.23700E-05 9.50220E-02-1.80029E-14-1.48352E-13
 -1      3859 2.03237E+01 1.73433E-02-3.25467E-04 6.79421E-02-1.80904E-14-1.72030E-13
 -1      3860 2.02426E+01-4.01941E-02 2.70385E-04 9.57528E-02-2.64786E-14-1.40279E-13
 -1      3861 2.02197E+01-4.81098E-02 1.99939E-04 9.73364E-02-2.24788E-14-1.34296E-13
 -1      3862 2.02738E+01-3.07719E-02-4.24963E-04 7.41755E-02-1.45676E-14-1.41104E-13
 -1      3863 2.01939E+01-5.05528E-02 1.21808E-04 9.67847E-02-1.14751E-14-1.27222E-13
 -1      3864 2.01722E+01-4.83380E-02 3.15346E-04 9.70418E-02-2.92684E-14-1.22429E-13
 -1      3865 2.02225E+01-4.89333E-02-4.28413E-04 7.61228E-02-2.15790E-14-1.05875E-13
 -1      3866 2.01467E+01-4.23773E-02-2.68721E-05 9.65273E-02-2.48662E-14-9.32964E-14
 -1      3867 2.01264E+01-3.29109E-02 3.86175E-04 9.70085E-02 2.37984E-15-4.84275E-14
 -1      3868 2.01718E+01-4.53566E-02-3.68831E-04 7.65622E-02 1.00879E-14-5.41546E-14
 -1      3869 2.01012E+01-2.10008E-02-1.76997E-04 9.76531E-02-1.56354E-14-3.62412E-14
 -1      3870 2.00821E+01-6.42918E-03 4.37725E-04 9.96259E-02 5.48261E-15-2.81836E-15
 -1      3871 2.01223E+01-2.61113E-02-2.69468E-04 7.78406E-02 2.18805E-14-4.49160E-14
 -1      3872 2.00570E+01 9.55238E-03-3.31565E-04 1.02457E-01 4.33519E-15-6.71427E-15
 -1      3873 2.00389E+01 2.75336E-02 4.94941E-04 1.07030E-01 1.24397E-14 5.03922E-16
 -1      3874 2.00737E+01 4.29120E-03-1.49819E-04 8.20526E-02 9.26241E-15-1.71763E-14
 -1      3875 2.00134E+01 4.59915E-02-4.92060E-04 1.13109E-01-1.62687E-15-4.99178E-14
 -1      3876 1.99960E+01 6.58341E-02 5.83082E-04 1.21344E-01-4.98415E-14-3.54307E-15
 -1      3877 2.00252E+01 4.23261E-02-2.84186E-05 9.12717E-02-3.62226E-14 1.29659E-14
 -1      3878 1.99697E+01 8.51475E-02-6.56854E-04 1.31883E-01-7.71206E-14-5.00003E-14
 -1      3879 1.99533E+01 1.05132E-01 7.30045E-04 1.44888E-01-9.89837E-14-4.95100E-14
 -1      3880 1.99759E+01 8.48331E-02 7.22167E-05 1.07799E-01-6.57648E-14-1.04971E-13
 -1      3881 1.99259E+01 1.23324E-01-8.17090E-04 1.61368E-01-1.04177E-13-1.18003E-14
 -1      3882 1.99113E+01 1.41206E-01 9.67945E-04 1.80361E-01-1.02272E-13-1.55588E-15
 -1      3883 1.99250E+01 1.28356E-01 1.21480E-04 1.34417E-01-6.00225E-14-1.41697E-13
 -1      3884 1.98835E+01 1.55576E-01-9.50965E-04 2.04626E-01-1.19845E-13 3.81350E-14
 -1      3885 1.98725E+01 1.68189E-01 1.33201E-03 2.30954E-01-9.56990E-14 3.48759E-14
 -1      3886 1.98730E+01 1.68405E-01 7.50449E-05 1.74630E-01-9.19863E-14-5.45888E-14
 -1      3887 1.98457E+01 1.74908E-01-1.01495E-03 2.65249E-01-7.88505E-14 6.55565E-14
 -1      3888 1.98416E+01 1.77732E-01 1.85611E-03 3.00292E-01-2.25423E-14 7.17601E-14
 -1      3889 1.98217E+01 1.98597E-01-1.32949E-04 2.32859E-01-7.79930E-14-2.32704E-14
 -1      3890 1.98194E+01 1.71433E-01-9.30052E-04 3.47169E-01 1.06794E-14 1.20976E-13
 -1      3891 1.98276E+01 1.58165E-01 2.55824E-03 3.92062E-01 7.43727E-14 1.28030E-13
 -1      3892 1.97759E+01 2.09689E-01-6.00630E-04 3.14466E-01 5.81757E-14 5.97570E-14
 -1      3893 1.98163E+01 1.31613E-01-5.63193E-04 4.53999E-01 9.35173E-14 1.42925E-13
 -1      3894 1.98450E+01 9.38608E-02 3.40592E-03 5.09020E-01 1.10219E-13 1.13601E-13
 -1      3895 1.97447E+01 1.88517E-01-1.47377E-03 4.25410E-01 8.31695E-14 3.93898E-14
 -1      3896 1.98551E+01 3.79272E-02 2.94755E-04 5.87467E-01 1.69841E-13 1.20126E-13
 -1      3897 1.99159E+01-3.45630E-02 4.33580E-03 6.50888E-01 1.84554E-13 1.18137E-13
 -1      3898 1.97438E+01 1.17076E-01-2.95814E-03 5.71089E-01 1.28314E-13 8.85612E-14
 -1      3899 1.99635E+01-1.30328E-01 1.99078E-03 7.44946E-01 1.45417E-13 8.65839E-14
 -1      3900 2.00713E+01-2.49330E-01 5.07872E-03 8.11129E-01 8.91766E-14 1.29604E-13
 -1      3901 1.97978E+01-2.73632E-02-5.29025E-03 7.53859E-01 1.41622E-13 1.08296E-13
 -1      3902 2.01812E+01-3.95628E-01 5.14684E-03 9.14432E-01 5.40964E-14 1.10318E-13
 -1      3903 2.03531E+01-5.72468E-01 4.80487E-03 9.70300E-01 1.19425E-13 8.51401E-14
 -1      3904 1.99432E+01-2.72794E-01-8.98997E-03 9.70478E-01 8.95933E-14-2.28474E-14
 -1      3905 2.05605E+01-7.72448E-01 1.06884E-02 1.06229E+00 1.74047E-13 1.43999E-14
 -1      3906 2.08098E+01-1.00641E+00 2.99491E-03 1.08344E+00 1.18755E-13 8.90213E-14
 -1      3907 2.02358E+01-6.46568E-01-1.34758E-02 1.19913E+00 1.02586E-13-1.59071E-13
 -1      3908 2.11639E+01-1.26128E+00 1.70531E-02 1.12939E+00 1.40579E-14 2.01526E-13
 -1      3909 2.15276E+01-1.49925E+00 1.08692E-02 1.05085E+00 5.48065E-14 2.02553E-13
 -1      3910 2.07491E+01-1.14781E+00-1.51936E-02 1.38722E+00 1.36402E-13-1.65142E-13
 -1      3911 2.03252E+01 5.17242E-01-2.35483E-03 8.47010E-02 1.10167E-13-2.30611E-13
 -1      3912 2.03324E+01 6.29395E-01 1.97541E-03 1.50836E-01 1.44459E-13-2.33892E-13
 -1      3913 2.03561E+01 5.14296E-01 5.28181E-04 6.29819E-02 7.52439E-14-2.19424E-13
 -1      3914 1.63961E+01 1.36369E+00 4.21840E-02-1.31565E+00-1.18168E-13 1.96941E-13
 -1      3915 1.70877E+01 7.86188E-01 1.90252E-02 2.01772E+00-7.42635E-15 1.36544E-14
 -1      3916 1.67020E+01 1.19055E+00-3.75345E-02 1.26117E+00-6.86838E-14 1.26453E-13
 -1      3917 1.90729E+01 3.83940E-01-5.76195E-03-1.09322E+00 4.23043E-13-4.20399E-13
 -1      3918 1.90504E+01 5.83351E-01 1.28940E-02-8.76820E-01 4.76404E-13-3.01580E-13
 -1      3919 1.88159E+01 7.08253E-01-1.12803E-02-7.47156E-01 3.66037E-13-1.99436E-13
 -1      3920 1.56812E+01 7.28133E-01-1.28507E-02-2.54904E+00-1.30508E-13 6.26669E-14
 -1      3921 2.12136E+01-1.27220E+00 9.66619E-03-1.14642E+00 6.72104E-14-3.47664E-13
 -1      3922 2.09045E+01-1.01802E+00 1.32122E-02-1.16567E+00 8.84393E-14-4.96679E-13
 -1      3923 2.06538E+01-7.88260E-01 5.24937E-03-1.08606E+00 7.52746E-14-5.55060E-13
 -1      3924 2.04599E+01-5.68045E-01 1.19864E-02-1.05376E+00 1.61417E-14-5.57144E-13
 -1      3925 2.05598E+01-8.79719E-01-7.18608E-03-1.34885E+00 2.30820E-14-4.05051E-13
 -1      3926 1.98430E+01 2.44193E-01-7.70591E-04-1.38117E-01 1.09869E-14-1.13639E-13
 -1      3927 1.98828E+01 2.00605E-01-8.00651E-04-1.30620E-01 6.12763E-15-3.48049E-14
 -1      3928 1.99217E+01 1.62864E-01-2.81000E-04-1.28813E-01 8.96480E-15 6.14684E-15
 -1      3929 1.99500E+01 1.28359E-01-6.55299E-04-1.22643E-01 5.00620E-14 5.09424E-14
 -1      3930 1.98932E+01 1.88772E-01 1.02823E-03-9.88617E-02 4.33397E-14 5.26365E-14
 -1      3931 1.99820E+01 9.73292E-02 2.11470E-05-1.20749E-01 5.66774E-14 2.03963E-14
 -1      3932 2.00047E+01 6.89493E-02-4.89500E-04-1.16454E-01 3.50411E-14 8.00204E-15
 -1      3933 1.99618E+01 1.18281E-01 5.86079E-04-9.69993E-02 4.81173E-14 5.48013E-14
 -1      3934 1.97410E+01 3.39619E-01-1.50038E-03-1.44490E-01 6.42206E-14-1.04811E-13
 -1      3935 1.97937E+01 2.89942E-01-9.27214E-04-1.38138E-01 4.90192E-14-9.29667E-14
 -1      3936 1.98074E+01 2.72350E-01 1.61727E-03-9.73806E-02 3.75365E-14-2.12757E-14
 -1      3937 1.96029E+01 4.53166E-01-2.53887E-03-1.41932E-01 4.12620E-14-1.33969E-13
 -1      3938 1.96772E+01 3.94539E-01-9.82027E-04-1.39634E-01 5.62795E-14-7.81968E-14
 -1      3939 1.96963E+01 3.70148E-01 2.31584E-03-8.73216E-02 5.80781E-14 3.50228E-14
 -1      3940 1.94134E+01 5.86345E-01-4.04686E-03-1.20231E-01-8.52875E-14-7.25002E-14
 -1      3941 1.95190E+01 5.18322E-01-9.55447E-04-1.27329E-01-5.88017E-15-1.48076E-13
 -1      3942 1.95497E+01 4.82917E-01 3.23060E-03-6.00483E-02-7.65826E-15 2.59387E-14
 -1      3943 1.91529E+01 7.38341E-01-6.21263E-03-6.36336E-02-1.36512E-13-6.49441E-14
 -1      3944 1.93029E+01 6.62006E-01-7.59655E-04-8.84679E-02-1.20411E-13-4.97516E-14
 -1      3945 1.93549E+01 6.09467E-01 4.38766E-03-2.30467E-03-1.06060E-13 4.71677E-15
 -1      3946 1.87959E+01 9.03305E-01-9.36121E-03 5.11822E-02 2.19168E-14-3.46110E-14
 -1      3947 1.90079E+01 8.22830E-01-2.98409E-04-3.83858E-03-5.02677E-14-9.33625E-14
 -1      3948 1.90963E+01 7.44869E-01 5.80122E-03 1.05532E-01-9.80560E-14-8.10560E-14
 -1      3949 1.83092E+01 1.06625E+00-1.43014E-02 2.57713E-01 6.22076E-14 3.05848E-15
 -1      3950 1.86079E+01 9.91066E-01 4.89799E-04 1.55002E-01 1.82085E-14-3.84519E-14
 -1      3951 1.87563E+01 8.76697E-01 7.41829E-03 2.91643E-01 2.13978E-15 9.10036E-14
 -1      3952 1.76014E+01 1.20402E+00-2.36348E-02 6.25230E-01 8.19094E-14-3.30172E-15
 -1      3953 1.80543E+01 1.14987E+00 1.99702E-03 4.36640E-01 1.33180E-13-2.23685E-14
 -1      3954 1.83026E+01 9.85107E-01 9.73842E-03 6.07806E-01 5.90262E-14 4.94531E-14
 -1      3955 1.73161E+01 1.22654E+00 8.42504E-03 9.47763E-01-5.31410E-14 1.67264E-14
 -1      3956 1.84419E+01 1.02415E+00 4.78516E-03-4.74397E-01 3.06124E-13-1.96642E-14
 -1      3957 2.01211E+01-2.92393E-02 3.17764E-04-1.13741E-01 3.17126E-14-8.19894E-14
 -1      3958 2.01401E+01-3.96469E-02-9.83377E-06-1.14160E-01 7.04037E-14-4.42318E-14
 -1      3959 2.06795E+01-1.86218E+00-9.05178E-04 2.75115E+00 4.75804E-14-1.31329E-13
 -1      3960 2.02543E+01-2.24475E-02-2.30846E-05-1.13763E-01-4.64459E-15-1.27265E-13
 -1      3961 2.02765E+01 2.29231E-04 5.55040E-04-1.07997E-01-1.49275E-14-1.60789E-13
 -1      3962 1.82200E+01-5.11562E-01 2.99898E-02 3.11408E+00 1.77785E-13-1.76134E-13
 -1      3963 2.26301E+01-2.14515E+00 3.18764E-02-1.05254E+00 1.44280E-13-3.20229E-13
 -1      3964 2.20439E+01-2.28270E+00-4.16293E-02-1.74514E+00 8.49056E-14-4.35142E-13
 -1      3965 2.19229E+01-1.84017E+00 2.59239E-04-1.20085E+00 3.24627E-14-2.96021E-13
 -1      3966 2.15302E+01-1.56579E+00 1.70005E-02-1.29187E+00 3.82127E-14-3.17695E-13
 -1      3967 2.10628E+01-1.86656E+00 2.66436E-02-2.48730E+00 1.31312E-13-3.74508E-13
 -1      3968 2.03228E+01 1.18732E+00-2.91927E-03 3.24723E-02 3.43869E-14-3.06243E-13
 -1      3969 2.03229E+01 1.18912E+00-2.57199E-03-2.78116E-02 2.42536E-15-3.07153E-13
 -1      3970 2.03767E+01 9.92277E-01 4.53199E-03-3.79370E-02-4.46201E-15-2.64398E-13
 -1      3971 2.03804E+01 9.72548E-01 4.63328E-03 4.00643E-02 9.97001E-15-3.00985E-13
 -1      3972 2.01644E+01-4.60442E-02 2.89902E-04-1.15626E-01 8.45302E-14-5.18633E-14
 -1      3973 2.01842E+01-4.82790E-02 1.67449E-04-1.15834E-01 7.98099E-14-1.88038E-14
 -1      3974 2.01678E+01-4.33895E-02-3.37168E-04-9.59840E-02 7.47679E-14 1.56785E-14
 -1      3975 2.03385E+01 8.29836E-01 4.54042E-04 1.99538E-01 1.40677E-13-2.77962E-13
 -1      3976 2.03591E+01 7.31305E-01-1.51051E-03 1.23045E-01 9.25583E-14-2.71583E-13
 -1      3977 2.03984E+01 3.71167E-01 5.95940E-04 9.57229E-04-8.99773E-14-1.89321E-13
 -1      3978 2.03860E+01 2.69741E-01-1.11051E-03 3.25009E-02-1.19344E-13-1.99157E-13
 -1      3979 2.04010E+01 2.49827E-01 2.60919E-04 2.86106E-02-9.79435E-14-2.14645E-13
 -1      3980 2.00324E+01 4.38038E-02 2.00895E-04-1.15409E-01 1.57418E-14-6.07699E-15
 -1      3981 2.00521E+01 2.11238E-02-3.29703E-04-1.13124E-01 1.70212E-14 5.94079E-15
 -1      3982 2.00193E+01 5.98585E-02 2.54923E-04-9.48786E-02 5.73981E-15 2.28024E-14
 -1      3983 2.00782E+01 1.02011E-03 2.86204E-04-1.13219E-01 6.70339E-15 8.87739E-15
 -1      3984 2.00967E+01-1.57838E-02-1.73797E-04-1.12655E-01 2.40012E-15-7.24898E-14
 -1      3985 2.01202E+01-2.27429E-02-1.88719E-04-9.45660E-02 1.72523E-14 2.34225E-14
 -1      3986 2.02088E+01-4.57075E-02 1.77036E-04-1.16682E-01 4.53658E-14-7.05106E-14
 -1      3987 2.02302E+01-3.72245E-02 3.54525E-04-1.15024E-01 1.54376E-14-8.25691E-14
 -1      3988 2.02655E+01-2.71213E-02-4.30590E-04-9.45380E-02-2.08064E-14-9.87810E-14
 -1      3989 2.02163E+01-4.67560E-02-4.17720E-04-9.67769E-02 5.14622E-14-3.21022E-14
 -1      3990 2.03415E+01 9.47004E-01-9.74294E-05-1.87059E-01-1.04649E-13-2.21829E-13
 -1      3991 1.64452E+01 7.88693E-01-2.85721E-02-2.09251E+00-1.01913E-13-4.61801E-14
 -1      3992 1.68712E+01 3.17311E-01 5.18108E-02-2.84419E+00-1.19418E-13-2.04944E-13
 -1      3993 1.79804E+01-2.07997E-01-6.08358E-03-2.77710E+00-7.00852E-14-3.13197E-13
 -1      3994 1.92219E+01-1.07238E+00-1.73512E-02 3.00533E+00 1.28866E-13-3.47906E-13
 -1      3995 1.77201E+01 4.18121E-02-1.43826E-02 2.59910E+00 1.15501E-13-1.88561E-13
 -1      3996 2.03692E+01 2.82440E-01-8.36766E-04-3.30026E-02 6.51967E-14-2.23197E-13
 -1      3997 2.03812E+01 3.84181E-01 1.02717E-04 6.28124E-03 4.75545E-14-2.34873E-13
 -1      3998 1.80522E+01 3.04266E-01 1.81664E-02 2.06427E+00-1.89878E-14-1.45186E-13
 -1      3999 2.01498E+01-1.24765E+00 1.55627E-02 2.45012E+00 9.26564E-14-1.36236E-13
 -1      4000 2.03136E+01 2.35584E-02-4.06578E-04-8.60371E-02-2.57667E-14-1.71695E-13
 -1      4001 2.02988E+01 3.17902E-02-2.95778E-04-1.02696E-01-1.35389E-14-1.64609E-13
 -1      4002 2.03210E+01 7.42174E-02 6.51558E-04-8.95546E-02 1.18990E-14-1.49210E-13
 -1      4003 2.12742E+01-1.70168E+00-7.36259E-03 1.75642E+00 5.62877E-14 4.02903E-14
 -1      4004 2.17636E+01-1.78505E+00 1.59380E-02 1.33922E+00 2.03925E-14 1.12410E-13
 -1      4005 2.22145E+01-2.03294E+00-5.95938E-04 1.18443E+00-5.84704E-14 6.85303E-15
 -1      4006 1.91972E+01 2.04785E-01 1.58594E-02-1.35242E+00 3.07992E-13-5.33792E-13
 -1      4007 1.88254E+01 3.75607E-01-1.69004E-02-1.26838E+00 2.99711E-13-5.01149E-13
 -1      4008 2.10721E+01-1.49351E+00-2.73003E-02-1.61516E+00 3.97690E-14-3.41331E-13
 -1      4009 2.01100E+01-3.95975E-01-7.52094E-03-1.18802E+00 7.15358E-14-2.68747E-13
 -1      4010 2.02168E+01-3.72311E-01-3.36000E-03-1.01173E+00 2.86222E-14-4.77307E-13
 -1      4011 1.71588E+01 8.87340E-01 2.74223E-03-1.63854E+00-7.77074E-14-5.98193E-14
 -1      4012 1.77260E+01 9.96233E-01 1.47675E-02 1.16086E+00-4.01534E-14 7.73201E-14
 -1      4013 2.02729E+01-1.57211E+00-1.86121E-02-2.74741E+00 3.46173E-14-6.46442E-13
 -1      4014 2.09027E+01-1.45558E+00 2.86446E-02-2.02407E+00 1.95057E-13-4.36047E-13
 -1      4015 2.05445E+01-1.14409E+00 3.97734E-03-1.83826E+00-1.47862E-14-4.54982E-13
 -1      4016 1.94485E+01-1.01741E+00-9.30047E-03-2.73039E+00 1.43449E-14-7.37160E-13
 -1      4017 2.03954E+01 8.17680E-01-1.92046E-03-1.06286E-02-2.29346E-14-2.90591E-13
 -1      4018 2.03924E+01 8.12306E-01-2.10943E-03-4.49148E-02-3.93291E-14-2.41365E-13
 -1      4019 1.79354E+01 1.01266E+00-8.07223E-03-8.61369E-01 1.50505E-13 6.45692E-14
 -1      4020 1.74693E+01 1.01424E+00-2.55735E-02-1.11966E+00-2.95966E-15-1.25600E-13
 -1      4021 2.03848E+01 7.22817E-01-1.36571E-03 8.54578E-02 6.01039E-14-2.60113E-13
 -1      4022 2.03919E+01 7.62474E-01-7.44357E-04 6.30976E-02 4.02288E-14-2.67513E-13
 -1      4023 2.03950E+01 6.41405E-01 1.62934E-03-7.04379E-02-4.59582E-14-2.09062E-13
 -1      4024 2.03951E+01 4.93180E-01-1.44246E-03-2.39413E-02-4.40173E-14-1.79994E-13
 -1      4025 1.83488E+01 9.02881E-01-1.79883E-03-7.57417E-01 2.34317E-13-6.79382E-14
 -1      4026 2.03391E+01 1.28667E-01-5.30801E-04-7.80019E-02 2.94589E-14-1.70583E-13
 -1      4027 2.03583E+01 1.97294E-01 6.34928E-04-5.35289E-02 5.51462E-14-1.88043E-13
 -1      4028 2.03882E+01 2.64561E-01-2.99150E-04-3.14331E-02 3.89880E-14-2.11470E-13
 -1      4029 2.03566E+01 1.16406E-01-3.24608E-04-6.67282E-02 1.49875E-14-1.78423E-13
 -1      4030 2.00712E+01 1.23788E-02 3.63908E-06-9.39687E-02 2.23591E-14 3.17874E-14
 -1      4031 2.03828E+01 6.15622E-01 1.09890E-03 7.88289E-02 6.86494E-14-2.51091E-13
 -1      4032 2.04170E+01 6.34916E-01 1.88188E-03-2.78874E-02-4.14114E-14-2.12109E-13
 -1      4033 2.03897E+01 7.76962E-01-1.12726E-03-6.02530E-02-2.14324E-14-2.00928E-13
 -1      4034 1.98663E+01-2.22524E-01 1.21341E-02-1.30256E+00 2.63126E-14-5.00588E-13
 -1      4035 1.95340E+01-6.52764E-02-7.24364E-03-1.34159E+00 2.09169E-13-6.32283E-13
 -1      4036 1.93403E+01-8.95797E-02-8.80672E-03-1.55023E+00 1.43967E-13-7.46907E-13
 -1      4037 2.00464E+01-4.80083E-01-4.02529E-03-1.39154E+00 1.45173E-13-4.91890E-13
 -1      4038 2.03678E+01 7.91282E-01-1.54956E-03-1.14990E-01-7.25120E-14-2.05349E-13
 -1      4039 2.03858E+01 7.48977E-01-1.05884E-03-8.12196E-02-4.84740E-14-2.01836E-13
 -1      4040 2.04122E+01 4.64807E-01 4.63823E-04-1.25636E-02-6.30820E-14-2.25283E-13
 -1      4041 1.86645E+01-7.70031E-02-8.45933E-03 2.08104E+00 1.03153E-13-1.11894E-13
 -1      4042 1.79574E+01 5.43241E-01-1.82350E-02 1.63600E+00-5.88906E-14-6.08665E-14
 -1      4043 1.98668E+01 2.01905E-01-9.87216E-04-6.43201E-02 5.95249E-14 2.53170E-14
 -1      4044 1.99066E+01 1.65685E-01-2.33548E-04-6.49264E-02 9.30691E-14 3.01973E-14
 -1      4045 2.03937E+01 1.39227E-01 5.38081E-04 3.14775E-02-3.34468E-14-1.88389E-13
 -1      4046 2.03733E+01 8.11366E-02 1.55138E-05 4.25877E-02-1.88564E-14-1.92797E-13
 -1      4047 2.03505E+01 3.58965E-02 1.98921E-04 4.35032E-02-2.44817E-14-1.66829E-13
 -1      4048 2.03268E+01 2.38391E-03 2.34759E-04 4.99442E-02-1.04836E-14-1.66374E-13
 -1      4049 2.03712E+01 6.37145E-02-8.57697E-04 2.27669E-02-2.34090E-15-1.74642E-13
 -1      4050 2.03004E+01-2.21889E-02 2.16127E-04 4.95732E-02 6.77247E-15-1.26692E-13
 -1      4051 2.02751E+01-3.79664E-02 3.51867E-04 5.29523E-02-5.37982E-15-9.40210E-14
 -1      4052 2.03221E+01-7.98768E-03-1.01860E-03 2.68306E-02-6.37829E-16-1.11517E-13
 -1      4053 2.02473E+01-4.73082E-02 1.65614E-04 5.19863E-02-3.16069E-14-1.27667E-13
 -1      4054 2.02218E+01-5.00847E-02 4.06469E-04 5.37361E-02-1.76916E-14-1.10313E-13
 -1      4055 2.02686E+01-4.24989E-02-1.00736E-03 2.87171E-02-3.09653E-14-1.30023E-13
 -1      4056 2.01937E+01-4.83177E-02 7.10346E-05 5.28889E-02 2.09346E-14-1.21068E-13
 -1      4057 2.01689E+01-4.16092E-02 4.23250E-04 5.42218E-02 2.50032E-14-9.65953E-14
 -1      4058 2.02139E+01-4.95720E-02-8.70166E-04 2.97177E-02-5.30032E-14-1.46748E-13
 -1      4059 2.01408E+01-3.17620E-02-5.65449E-05 5.41552E-02 1.85410E-14-1.18743E-13
 -1      4060 2.01167E+01-1.81245E-02 4.33360E-04 5.61425E-02 2.28003E-14-1.12891E-13
 -1      4061 2.01593E+01-3.65237E-02-6.50436E-04 3.10884E-02 3.99361E-14-1.38128E-13
 -1      4062 2.00884E+01-2.43658E-03-2.22153E-04 5.75270E-02 2.48766E-14-8.67291E-14
 -1      4063 2.00648E+01 1.62755E-02 4.56433E-04 6.11817E-02 2.34360E-14-6.48001E-14
 -1      4064 2.01050E+01-8.70527E-03-3.81554E-04 3.40864E-02 3.32784E-14-1.33253E-13
 -1      4065 2.00356E+01 3.61169E-02-4.23175E-04 6.48392E-02-1.42838E-14-3.22151E-14
 -1      4066 2.00121E+01 5.84481E-02 5.19723E-04 7.12421E-02-8.01781E-14-1.86854E-14
 -1      4067 2.00500E+01 3.00518E-02-9.36668E-05 4.02100E-02 3.57991E-15-1.30413E-13
 -1      4068 1.99810E+01 8.09887E-02-6.64482E-04 7.82600E-02-9.94915E-14-1.39657E-14
 -1      4069 1.99574E+01 1.05587E-01 6.57120E-04 8.86888E-02-7.64672E-14-2.50135E-14
 -1      4070 1.99929E+01 7.68091E-02 1.87204E-04 5.13661E-02-7.45915E-14-1.30665E-14
 -1      4071 1.99234E+01 1.29289E-01-9.50986E-04 1.00562E-01-5.49067E-14-5.30617E-14
 -1      4072 1.98997E+01 1.54578E-01 9.11037E-04 1.16631E-01-4.35313E-14-5.92011E-14
 -1      4073 1.99319E+01 1.28873E-01 4.19495E-04 7.01763E-02-7.36450E-14 2.95621E-14
 -1      4074 1.98619E+01 1.77460E-01-1.28075E-03 1.35450E-01-8.02652E-14 2.27572E-14
 -1      4075 1.98389E+01 2.01249E-01 1.33566E-03 1.59247E-01-7.16721E-14 4.16512E-14
 -1      4076 1.98652E+01 1.83169E-01 5.42791E-04 1.00346E-01-2.83929E-14 4.28472E-14
 -1      4077 1.97969E+01 2.20457E-01-1.63971E-03 1.87880E-01-2.34105E-14 1.39234E-13
 -1      4078 1.97765E+01 2.39463E-01 1.99861E-03 2.22067E-01 2.01680E-14 1.33666E-13
 -1      4079 1.97918E+01 2.35407E-01 4.64393E-04 1.47063E-01 4.53195E-14 1.47474E-13
 -1      4080 1.97310E+01 2.50765E-01-1.98827E-03 2.64324E-01 2.15050E-14 1.67314E-13
 -1      4081 1.97171E+01 2.60050E-01 2.97758E-03 3.12138E-01 1.07086E-13 1.57275E-13
 -1      4082 1.97121E+01 2.79057E-01 3.69512E-05 2.17412E-01 4.13251E-14 1.78071E-13
 -1      4083 1.96704E+01 2.57243E-01-2.23808E-03 3.72824E-01 1.15113E-13 4.25074E-14
 -1      4084 1.96694E+01 2.49529E-01 4.35119E-03 4.37852E-01 7.33032E-14 8.59313E-14
 -1      4085 1.96291E+01 3.04074E-01-9.72364E-04 3.20706E-01 3.22589E-14 1.33920E-13
 -1      4086 1.96272E+01 2.23776E-01-2.21514E-03 5.22577E-01 1.08455E-13 5.49683E-14
 -1      4087 1.96497E+01 1.88650E-01 6.11844E-03 6.08028E-01 1.59077E-13 5.65983E-14
 -1      4088 1.95504E+01 2.95250E-01-2.94922E-03 4.68521E-01 6.56925E-14 4.00087E-14
 -1      4089 1.96234E+01 1.28234E-01-1.47578E-03 7.22032E-01 9.12918E-14-2.09367E-14
 -1      4090 1.96832E+01 5.13728E-02 7.84608E-03 8.29711E-01 6.69245E-14-3.76072E-14
 -1      4091 1.94911E+01 2.29667E-01-6.66140E-03 6.73838E-01 2.27165E-14-8.85333E-14
 -1      4092 1.96937E+01-5.52941E-02 1.36558E-03 9.73296E-01 7.75373E-14-1.02566E-13
 -1      4093 1.98060E+01-1.93365E-01 8.30491E-03 1.10178E+00 3.45645E-14-1.58246E-13
 -1      4094 1.94829E+01 7.36895E-02-1.27991E-02 9.47961E-01-5.49007E-15-1.82966E-13
 -1      4095 1.98892E+01-3.67487E-01 5.46813E-03 1.27630E+00 5.41667E-14-8.95466E-14
 -1      4096 2.00761E+01-5.88941E-01 4.78297E-03 1.40821E+00 1.16783E-13-1.00372E-13
 -1      4097 1.95619E+01-1.95435E-01-2.08010E-02 1.28896E+00 5.25212E-14-1.42662E-13
 -1      4098 2.03900E+01-9.16103E-01 1.16244E-02 1.59601E+00 1.44796E-13-1.47989E-13
 -1      4099 2.06840E+01-1.24475E+00-5.98934E-03 1.69887E+00 1.39479E-13-1.15064E-13
 -1      4100 2.07915E+01-1.51238E+00-6.62955E-03 2.05217E+00 1.00115E-13 7.52219E-15
 -1      4101 1.99189E+01-6.70551E-01-1.30225E-02 1.68592E+00 1.17022E-13-6.42680E-14
 -1      4102 2.03856E+01 5.03389E-01-6.77881E-04 3.24227E-02 5.76768E-14-2.57571E-13
 -1      4103 2.03965E+01 8.11565E-01-1.54107E-03 1.21489E-02 1.01984E-14-2.85179E-13
 -1      4104 2.04236E+01 6.65589E-01 2.59764E-03-2.24358E-03-2.75312E-14-2.47210E-13
 -1      4105 2.03954E+01 7.86598E-01-2.56073E-03 4.35068E-02 2.85498E-14-2.75930E-13
 -1      4106 1.96185E+01-7.72547E-01 8.67578E-03 2.24832E+00 1.31783E-13-1.37004E-13
 -1      4107 2.02871E+01-7.15470E-01 7.85262E-03-1.51056E+00 6.07857E-14-4.25635E-13
 -1      4108 1.77576E+01 6.04570E-01 3.07150E-03-1.78231E+00-4.35400E-14-3.21853E-13
 -1      4109 1.96534E+01 3.75503E-01-2.63810E-03-2.77459E-02 7.82358E-15 9.26426E-14
 -1      4110 1.97214E+01 3.29366E-01 2.63952E-05-3.86371E-02 2.70804E-14 6.95562E-14
 -1      4111 1.97729E+01 2.83366E-01-1.67096E-03-5.28500E-02 5.66166E-14 5.16039E-14
 -1      4112 1.98242E+01 2.41969E-01-1.76539E-04-5.68568E-02 6.90658E-14 6.72942E-14
 -1      4113 1.98451E+01 2.19354E-01 9.03167E-04-2.18194E-02 6.51756E-14 6.78059E-14
 -1      4114 1.97491E+01 2.98820E-01 1.19228E-03 3.50805E-03 4.18954E-14 9.17222E-14
 -1      4115 1.99427E+01 1.31378E-01-4.95970E-04-6.87984E-02 2.94390E-14 5.67940E-14
 -1      4116 1.99748E+01 1.00259E-01-2.13771E-04-6.81015E-02 5.46563E-15 1.08456E-14
 -1      4117 1.99241E+01 1.48040E-01 5.40277E-04-3.54617E-02 5.60198E-14-5.51019E-14
 -1      4118 1.94996E+01 4.76873E-01-3.96751E-03 2.11890E-02 3.97997E-15 6.27728E-14
 -1      4119 1.95906E+01 4.27196E-01 4.40552E-04-2.07804E-03 3.37532E-14 6.72887E-14
 -1      4120 1.96303E+01 3.84392E-01 1.33515E-03 4.86090E-02 6.99602E-15 4.46445E-15
 -1      4121 1.93010E+01 5.83248E-01-5.75767E-03 1.09057E-01-1.07646E-13-7.92586E-15
 -1      4122 1.94231E+01 5.32933E-01 1.19055E-03 6.52183E-02-1.77508E-14 6.94345E-14
 -1      4123 1.94825E+01 4.71739E-01 1.19906E-03 1.25412E-01-3.38363E-14 1.26823E-14
 -1      4124 1.90468E+01 6.85407E-01-8.07397E-03 2.57433E-01-4.06098E-14-6.32607E-14
 -1      4125 1.92093E+01 6.40320E-01 2.45763E-03 1.81204E-01-1.00677E-13-3.52440E-14
 -1      4126 1.93000E+01 5.52457E-01 5.74519E-04 2.50893E-01-7.65867E-14-2.17210E-14
 -1      4127 1.87270E+01 7.65250E-01-1.09604E-02 4.95640E-01 3.92587E-15 9.53409E-15
 -1      4128 1.89401E+01 7.36928E-01 4.62814E-03 3.70763E-01-3.38879E-14-2.73214E-14
 -1      4129 1.90787E+01 6.11489E-01-8.42024E-04 4.48262E-01-6.64864E-14-6.31384E-14
 -1      4130 1.83102E+01 7.96586E-01-1.24215E-02 8.89340E-01 8.10513E-14 1.80481E-14
 -1      4131 1.86043E+01 7.97301E-01 8.52713E-03 6.75164E-01 9.58152E-14 1.46597E-14
 -1      4132 1.88101E+01 6.22481E-01-4.02976E-03 7.55852E-01 1.95020E-14-1.11638E-14
 -1      4133 2.00633E+01 2.18994E-02 5.58414E-05-7.11210E-02-7.44360E-15 4.31567E-14
 -1      4134 2.00891E+01 8.99650E-04-3.37236E-05-7.06649E-02 3.98886E-15 2.63698E-14
 -1      4135 2.04040E+01 4.76720E-01 5.28761E-05 1.89593E-02 4.99821E-14-2.61377E-13
 -1      4136 2.01684E+01-4.08936E-02 2.47643E-04-7.38358E-02 6.15387E-14 1.24212E-14
 -1      4137 2.01928E+01-4.71331E-02 2.47966E-04-7.34387E-02 4.59607E-14-7.38894E-15
 -1      4138 1.84761E+01 7.27114E-01 2.35772E-02-1.14778E+00 1.60267E-13-3.38199E-13
 -1      4139 2.01171E+01-1.65965E-02 1.92661E-04-7.22975E-02 1.26092E-14 1.74816E-14
 -1      4140 2.01413E+01-3.05792E-02 1.00798E-04-7.21199E-02 7.14084E-14 2.14999E-14
 -1      4141 2.01620E+01-3.70754E-02-8.35809E-04-5.13065E-02 4.23489E-14-4.12866E-14
 -1      4142 2.04207E+01 3.01458E-01 2.80880E-04 1.03777E-02-9.31350E-14-2.22001E-13
 -1      4143 2.04071E+01 2.11407E-01-6.80631E-04 2.74528E-02-7.71502E-14-2.08339E-13
 -1      4144 2.04094E+01 1.86378E-01-2.52073E-04 1.56792E-02-4.90611E-14-2.13596E-13
 -1      4145 2.04230E+01 5.13255E-01-3.34541E-04-1.80159E-02-5.38483E-14-2.30018E-13
 -1      4146 2.04226E+01 3.87379E-01-4.71743E-04 5.54395E-03-9.40500E-14-2.43541E-13
 -1      4147 2.04292E+01 3.49948E-01 1.80444E-04 4.49401E-03-7.05981E-14-1.92882E-13
 -1      4148 2.04257E+01 5.49315E-01-8.35412E-05-1.02247E-02-8.53538E-14-2.51377E-13
 -1      4149 1.85515E+01 4.59470E-01 5.30983E-03-1.43819E+00 1.32659E-13-4.25788E-13
 -1      4150 2.04186E+01 6.32818E-01 3.06354E-03 2.94250E-02 4.25732E-14-2.59974E-13
 -1      4151 2.00065E+01 7.14786E-02-1.64193E-04-7.02965E-02 2.97054E-14 5.21584E-15
 -1      4152 2.00340E+01 4.55397E-02-1.36989E-04-6.94745E-02 7.06897E-15 4.75775E-14
 -1      4153 1.99913E+01 8.58596E-02 1.61790E-04-4.26819E-02 1.35876E-14-3.05981E-14
 -1      4154 1.83061E+01 2.82039E-01 1.29842E-02-1.92253E+00-2.45689E-14-4.18105E-13
 -1      4155 1.82759E+01 6.69085E-01 1.13926E-02 1.26249E+00 2.29109E-14 1.49652E-15
 -1      4156 2.04179E+01 3.86906E-01 1.55902E-03-6.28594E-03 2.76597E-14-2.58242E-13
 -1      4157 2.04177E+01 4.97346E-01-1.57760E-03 1.78952E-02 3.83702E-14-2.67332E-13
 -1      4158 2.04261E+01 5.25736E-01-3.60306E-04 9.39672E-03 1.15235E-14-2.49026E-13
 -1      4159 1.91261E+01-1.79335E-01-1.36122E-02-1.87481E+00 2.53612E-14-5.64145E-13
 -1      4160 1.84426E+01-1.29803E-01-1.16902E-02-2.31104E+00-1.45712E-14-4.10372E-13
 -1      4161 1.90858E+01-6.46104E-01 2.27770E-02-2.66497E+00-2.74281E-14-5.85775E-13
 -1      4162 1.95758E+01-3.88792E-01 9.70293E-03-1.81125E+00-1.21611E-14-8.03050E-13
 -1      4163 2.03215E+01 8.93310E-03-8.60575E-05-6.95286E-02-3.57752E-14-1.82747E-13
 -1      4164 2.03466E+01 4.55015E-02 6.26193E-04-6.14017E-02-2.14118E-14-1.83992E-13
 -1      4165 2.02159E+01-4.90314E-02-1.05390E-03-5.25205E-02-1.13284E-14-1.37829E-13
 -1      4166 2.02198E+01-4.87746E-02 2.14073E-04-7.50202E-02 2.09918E-14-6.57705E-14
 -1      4167 2.02452E+01-4.47857E-02 4.09676E-04-7.34943E-02-1.56173E-14-1.26976E-13
 -1      4168 2.00514E+01 3.32059E-02-1.98888E-04-4.67256E-02-5.00810E-16 1.31942E-14
 -1      4169 2.03978E+01 1.95762E-01 9.68738E-04-3.92877E-02 1.60821E-14-1.83879E-13
 -1      4170 2.04090E+01 2.79675E-01-6.54918E-04-1.83580E-02 2.10913E-14-2.25840E-13
 -1      4171 2.04223E+01 3.03970E-01-3.11989E-04-1.10438E-02-1.19212E-14-1.85326E-13
 -1      4172 2.01077E+01-8.63654E-03-5.39388E-04-4.93565E-02 1.97913E-14-5.98057E-15
 -1      4173 1.86032E+01 4.38277E-01-8.04948E-03 1.30618E+00 6.47648E-14 5.61660E-15
 -1      4174 2.02715E+01-3.47788E-02 9.15435E-05-7.43551E-02-3.28195E-14-1.56636E-13
 -1      4175 2.02972E+01-1.69441E-02 5.82202E-04-7.03505E-02-4.43494E-14-1.74642E-13
 -1      4176 2.03226E+01-9.30181E-04-1.11906E-03-4.90960E-02-3.91347E-14-1.94492E-13
 -1      4177 2.02699E+01-3.94959E-02-1.16730E-03-5.22433E-02-5.01262E-14-2.20261E-13
 -1      4178 1.97946E+01-8.24069E-01 5.90811E-03-2.22187E+00-5.20941E-14-7.06815E-13
 -1      4179 1.93359E+01-3.74663E-01 1.08079E-02 1.96037E+00 1.06540E-13-1.03703E-13
 -1      4180 1.92289E+01-6.84263E-02 1.29407E-02 1.59299E+00 1.18670E-13-8.26286E-14
 -1      4181 2.04284E+01 5.40645E-01-1.01642E-03 2.85540E-03-4.66279E-14-2.40346E-13
 -1      4182 1.96529E+01 3.39472E-01-1.50495E-03 1.33789E-01 4.98405E-14 4.04470E-14
 -1      4183 1.97193E+01 3.03473E-01 1.05152E-03 1.01191E-01 9.96679E-14 9.81199E-14
 -1      4184 1.99226E+01-7.09121E-01-5.97535E-03-1.88762E+00 6.51028E-14-7.10253E-13
 -1      4185 2.03307E+01-3.85163E-03 4.93096E-04-1.13648E-02-2.49059E-14-1.43605E-13
 -1      4186 2.03044E+01-2.65973E-02 9.55002E-04-9.84100E-03-3.35808E-14-1.66785E-13
 -1      4187 2.02771E+01-3.99704E-02 5.98706E-04-1.12999E-02-4.01202E-14-1.64612E-13
 -1      4188 2.02492E+01-4.76896E-02 8.39721E-04-1.03222E-02-7.57106E-14-1.59240E-13
 -1      4189 2.02215E+01-4.81638E-02 5.61687E-04-1.07165E-02-5.01960E-14-1.15632E-13
 -1      4190 2.01933E+01-4.47377E-02 6.88220E-04-9.83563E-03-9.32589E-15-1.24466E-13
 -1      4191 2.01657E+01-3.57632E-02 4.29210E-04-9.54950E-03 2.61634E-14-1.19732E-13
 -1      4192 2.01377E+01-2.40475E-02 5.24242E-04-8.29674E-03 5.59240E-14-1.01347E-13
 -1      4193 2.01092E+01-7.65286E-03 2.17935E-04-7.39616E-03 2.70486E-14-1.04954E-13
 -1      4194 2.00812E+01 1.04907E-02 3.81540E-04-5.22092E-03 1.26999E-14-1.09719E-13
 -1      4195 2.00512E+01 3.26512E-02-4.34678E-05-3.44787E-03 1.76770E-14-1.17918E-13
 -1      4196 2.00225E+01 5.58466E-02 2.73821E-04 3.82363E-04 1.00143E-14-9.16375E-14
 -1      4197 1.99901E+01 8.23150E-02-3.42673E-04 3.67618E-03 5.44094E-15-7.31976E-14
 -1      4198 1.99600E+01 1.09517E-01 2.29051E-04 1.01941E-02-2.32535E-14-5.13562E-14
 -1      4199 1.99228E+01 1.39912E-01-6.70676E-04 1.63313E-02 1.49253E-15-2.00677E-14
 -1      4200 1.98905E+01 1.70171E-01 2.95405E-04 2.70492E-02-2.88941E-14 4.50400E-14
 -1      4201 1.98462E+01 2.03780E-01-1.00437E-03 3.81613E-02-6.39151E-15 9.56652E-14
 -1      4202 1.98111E+01 2.35843E-01 5.37414E-04 5.52492E-02 4.67079E-14 9.26385E-14
 -1      4203 1.97571E+01 2.71598E-01-1.30488E-03 7.46545E-02 5.15696E-14 9.10436E-14
 -1      4204 1.96133E+01 3.67873E-01 1.97597E-03 1.74003E-01-3.74138E-14 5.17408E-14
 -1      4205 1.95320E+01 4.00729E-01-1.48128E-03 2.26791E-01-1.00225E-13 1.27874E-13
 -1      4206 1.94938E+01 4.20293E-01 3.50601E-03 2.86254E-01-3.05396E-14 5.01445E-14
 -1      4207 1.93960E+01 4.44211E-01-1.01442E-03 3.68834E-01-4.84721E-15 9.62456E-15
 -1      4208 1.93653E+01 4.46448E-01 5.91836E-03 4.54478E-01-7.07545E-15 1.99378E-14
 -1      4209 1.92516E+01 4.52242E-01 3.59893E-04 5.79625E-01-1.86147E-14-5.33860E-14
 -1      4210 1.92411E+01 4.23872E-01 9.75847E-03 6.99023E-01-8.13582E-14-1.30953E-13
 -1      4211 1.91095E+01 3.96048E-01 3.44773E-03 8.92470E-01-1.16875E-14-1.12302E-13
 -1      4212 1.91340E+01 3.10482E-01 1.20474E-02 1.05311E+00 4.43751E-14-7.21816E-14
 -1      4213 1.91311E+01 1.23593E-01 1.05655E-02 1.38256E+00 8.32301E-14-1.04223E-13
 -1      4214 2.04355E+01 4.27301E-01 1.39680E-03-3.64713E-03-4.76965E-14-2.10297E-13
 -1      4215 2.03785E+01 7.02959E-02 1.94934E-04-1.05498E-02-6.96493E-15-1.50148E-13
 -1      4216 2.03562E+01 2.70619E-02 9.93664E-04-8.23313E-03-1.76390E-14-1.34544E-13
 -1      4217 2.04252E+01 2.37761E-01 9.05005E-04-7.18355E-03-3.94837E-14-1.58545E-13
 -1      4218 2.04087E+01 1.58802E-01-4.61857E-04-2.00942E-03-2.60496E-14-1.62390E-13
 -1      4219 2.04308E+01 3.33868E-01-6.98742E-04 2.10384E-03-3.44540E-14-1.83702E-13
 -1      4220 2.03630E+01 8.10395E-02-9.82080E-05-5.80582E-02-6.22340E-15-1.77906E-13
 -1      4221 2.03829E+01 1.38682E-01-2.78009E-04-4.48952E-02 1.22449E-14-1.86424E-13
 -1      4222 2.03991E+01 1.54224E-01-5.05098E-04-2.68846E-02-1.52818E-14-1.27075E-13
 -1      4223 2.03663E+01 6.44468E-02-9.21755E-04-4.04362E-02-1.01898E-14-1.44559E-13
 -1      4224 2.03961E+01 1.11640E-01 1.20577E-03-7.12867E-03-1.10158E-14-1.51956E-13
 -3
    1PSTEP                         3           1           1          
  100CL  101 1.000000000        4224                     0    1           1
 -4  TOSTRAIN    6    1
 -5  EXX         1    4    1    1
 -5  EYY         1    4    2    2
 -5  EZZ         1    4    3    3
 -5  EXY         1    4    1    2
 -5  EYZ         1    4    2    3
 -5  EZX         1    4    3    1
 -1         1 1.29478E-05-5.08993E-05 7.63589E-06-2.23062E-05-9.92299E-18-2.91570E-18
 -1         2 3.94792E-05-1.20893E-04 2.25377E-05-1.57874E-06-7.41789E-19-2.13373E-19
 -1         3 9.51520E-05-2.86546E-05-2.83990E-05-8.40606E-08 3.27970E-18 1.74985E-18
 -1         4 9.52117E-05-2.85971E-05-2.85133E-05 2.16680E-08 1.02097E-18 2.75096E-20
 -1         5 1.43335E-04-2.14769E-05-4.25240E-05 3.85297E-05-2.59245E-19 1.85147E-17
 -1         6 1.45397E-04 2.57542E-10-4.41830E-05-5.35244E-05-1.07870E-18 1.63626E-17
 -1         7 9.05993E-05-5.10806E-07-3.90646E-05-2.92534E-05-1.44313E-19 2.73380E-18
 -1         8 8.51193E-05 8.65187E-08-3.63366E-05-2.02744E-05-2.13982E-19-1.33320E-18
 -1         9 8.28134E-05 7.60012E-08-3.53501E-05-1.56432E-05-1.65661E-19-3.50906E-18
 -1        10 8.17723E-05 3.95974E-08-3.48819E-05-1.20814E-05-1.08414E-19-4.52169E-18
 -1        11 8.12561E-05 1.92362E-08-3.46544E-05-9.01705E-06-6.65847E-20-4.96739E-18
 -1        12 8.09889E-05 9.05983E-09-3.45406E-05-6.28657E-06-3.99214E-20-5.14742E-18
 -1        13 8.08486E-05 4.49639E-09-3.44834E-05-3.68686E-06-1.87911E-20-5.16602E-18
 -1        14 8.07900E-05 2.64987E-09-3.44601E-05-1.18412E-06 1.47215E-20-5.14863E-18
 -1        15 8.07921E-05 2.64085E-09-3.44608E-05 1.28926E-06 5.74454E-20-5.12405E-18
 -1        16 8.08550E-05 4.43435E-09-3.44857E-05 3.79711E-06 7.22774E-20-4.99546E-18
 -1        17 8.10005E-05 8.32393E-09-3.45444E-05 6.40883E-06 8.64222E-20-4.72107E-18
 -1        18 8.12736E-05 1.80982E-08-3.46594E-05 9.15858E-06 1.25099E-19-4.18641E-18
 -1        19 8.17978E-05 3.81438E-08-3.48902E-05 1.22613E-05 1.83641E-19-3.33036E-18
 -1        20 8.28336E-05 8.15134E-08-3.53624E-05 1.58740E-05 2.23603E-19-1.83438E-18
 -1        21 8.50845E-05 1.69523E-07-3.63751E-05 2.04852E-05 2.47651E-19 9.77954E-19
 -1        22 9.16366E-05-9.94201E-08-3.87362E-05 2.80005E-05 3.15520E-20 6.49589E-18
 -1        23 1.12964E-04-3.81227E-05-3.53937E-05-4.40284E-06-6.70241E-19 1.26505E-17
 -1        24 9.27950E-05-2.76942E-05-2.89964E-05 3.91138E-07-1.67779E-19 9.41444E-18
 -1        25 8.91092E-05-2.68490E-05-2.69264E-05 3.75768E-07-1.18988E-19 6.04625E-18
 -1        26 8.80055E-05-2.64853E-05-2.63888E-05 2.04023E-07-5.29900E-20 3.43651E-18
 -1        27 8.80318E-05-2.64636E-05-2.63808E-05 1.39728E-07-6.61381E-20 2.04414E-18
 -1        28 8.85655E-05-2.66001E-05-2.65503E-05 1.00670E-07-1.16926E-20 1.46950E-18
 -1        29 8.93211E-05-2.68130E-05-2.67831E-05 7.49331E-08 1.65402E-20 1.02504E-18
 -1        30 9.01482E-05-2.70535E-05-2.70339E-05 5.65743E-08-3.87771E-20 7.05350E-19
 -1        31 9.09629E-05-2.72935E-05-2.72797E-05 4.27686E-08 2.98946E-20-4.05562E-19
 -1        32 9.17202E-05-2.75181E-05-2.75080E-05 3.20926E-08-1.05635E-19-1.45658E-18
 -1        33 9.23988E-05-2.77202E-05-2.77127E-05 2.37613E-08 1.75064E-19-1.82419E-18
 -1        34 9.29936E-05-2.78979E-05-2.78924E-05 1.72958E-08-8.03026E-20-2.06262E-18
 -1        35 9.35099E-05-2.80525E-05-2.80485E-05 1.23815E-08 2.00051E-20-2.88174E-18
 -1        36 9.39601E-05-2.81876E-05-2.81848E-05 8.80630E-09 5.04291E-20-2.37307E-18
 -1        37 9.43610E-05-2.83081E-05-2.83064E-05 6.43348E-09-5.87416E-19-3.62403E-18
 -1        38 9.47324E-05-2.84198E-05-2.84190E-05 5.18629E-09 3.37672E-19-4.31199E-18
 -1        39 9.50951E-05-2.85289E-05-2.85291E-05 5.03372E-09-2.30879E-19-4.91926E-18
 -1        40 9.54697E-05-2.86415E-05-2.86426E-05 5.96801E-09-1.63814E-19-5.27721E-18
 -1        41 9.58739E-05-2.87627E-05-2.87648E-05 7.96472E-09 2.27653E-19-5.77843E-18
 -1        42 9.63195E-05-2.88960E-05-2.88990E-05 1.09156E-08-5.41183E-21-6.19179E-18
 -1        43 9.68077E-05-2.90417E-05-2.90452E-05 1.45239E-08-1.58039E-19-4.47078E-18
 -1        44 9.73229E-05-2.91949E-05-2.91981E-05 1.81557E-08 1.61793E-19-3.90564E-18
 -1        45 9.78245E-05-2.93433E-05-2.93452E-05 2.06556E-08-4.44490E-20-4.01788E-18
 -1        46 9.82386E-05-2.94650E-05-2.94634E-05 2.01684E-08-2.35427E-19-4.88273E-18
 -1        47 9.84507E-05-2.95258E-05-2.95181E-05 1.40693E-08 2.61602E-19-4.91593E-18
 -1        48 9.83055E-05-2.94796E-05-2.94631E-05-8.05752E-10 2.72015E-19-3.82172E-18
 -1        49 9.76186E-05-2.92719E-05-2.92447E-05-2.73617E-08 3.95525E-20-2.93463E-18
 -1        50 9.62088E-05-2.88492E-05-2.88120E-05-6.66620E-08-2.85714E-19-5.01981E-18
 -1        51 9.39554E-05-2.81761E-05-2.81340E-05-1.15682E-07-4.73251E-20-4.67916E-18
 -1        52 9.08749E-05-2.72575E-05-2.72213E-05-1.65281E-07 1.10634E-19-4.85325E-18
 -1        53 8.71945E-05-2.61611E-05-2.61449E-05-2.00129E-07 2.94641E-19-4.02037E-18
 -1        54 8.33817E-05-2.50256E-05-2.50421E-05-2.02539E-07 4.98583E-21-4.68883E-18
 -1        55 8.00859E-05-2.40442E-05-2.40972E-05-1.60586E-07-3.62337E-19-6.96121E-18
 -1        56 7.79777E-05-2.34163E-05-2.34961E-05-7.69186E-08 3.68531E-19-5.49840E-18
 -1        57 7.75286E-05-2.32824E-05-2.33678E-05 2.84071E-08 2.14332E-19-2.79972E-18
 -1        58 7.88348E-05-2.36713E-05-2.37385E-05 1.25366E-07-3.57374E-19-3.38778E-18
 -1        59 8.15786E-05-2.44880E-05-2.45214E-05 1.87818E-07-1.14874E-19-4.75756E-18
 -1        60 8.51489E-05-2.55509E-05-2.55481E-05 2.04718E-07 2.64622E-19-1.94877E-18
 -1        61 8.88554E-05-2.66546E-05-2.66249E-05 1.81994E-07 3.43139E-19 1.27852E-18
 -1        62 9.21265E-05-2.76292E-05-2.75870E-05 1.35784E-07 4.16113E-21 1.45775E-18
 -1        63 9.46188E-05-2.83729E-05-2.83309E-05 8.33159E-08-9.09861E-19-1.40979E-18
 -1        64 9.62245E-05-2.88535E-05-2.88194E-05 3.68971E-08 2.24517E-19-5.77290E-18
 -1        65 9.70148E-05-2.90919E-05-2.90686E-05 2.35392E-09-3.30614E-19-4.83470E-18
 -1        66 9.71623E-05-2.91390E-05-2.91259E-05-1.94953E-08 2.83674E-19-4.09481E-18
 -1        67 9.68762E-05-2.90567E-05-2.90523E-05-3.03602E-08 5.16968E-19-8.45931E-19
 -1        68 9.63627E-05-2.89059E-05-2.89092E-05-3.22598E-08-1.00424E-19 7.22914E-19
 -1        69 9.58082E-05-2.87418E-05-2.87529E-05-2.58519E-08 4.60123E-19 1.11919E-18
 -1        70 9.53766E-05-2.86125E-05-2.86297E-05-7.17554E-09-3.49943E-20 3.13049E-18
 -1        71 9.51933E-05-2.85530E-05-2.85628E-05 1.85332E-08-4.43090E-19 1.57964E-18
 -1        72 1.02168E-04-3.05842E-05-3.41468E-05-1.92855E-06 2.31134E-19 1.70334E-17
 -1        73 9.25511E-05-2.75102E-05-2.89045E-05-3.33125E-07 1.29722E-19 1.32309E-17
 -1        74 8.90965E-05-2.66985E-05-2.69694E-05-1.25835E-07 1.07516E-19 1.02203E-17
 -1        75 8.80349E-05-2.64360E-05-2.64324E-05-9.54643E-08 7.22914E-20 8.18782E-18
 -1        76 8.80651E-05-2.64432E-05-2.64070E-05-7.64304E-08-4.39977E-20 7.05786E-18
 -1        77 8.85972E-05-2.65937E-05-2.65668E-05-6.22244E-08 1.06058E-19 6.20342E-18
 -1        78 8.93516E-05-2.68143E-05-2.67951E-05-5.06224E-08 3.69113E-20 4.97214E-18
 -1        79 9.02112E-05-2.70683E-05-2.70540E-05-4.26487E-08 6.51894E-20 4.12254E-18
 -1        80 9.10185E-05-2.73088E-05-2.72964E-05-3.41736E-08 5.50472E-20 3.40346E-18
 -1        81 9.17643E-05-2.75315E-05-2.75207E-05-2.73807E-08 5.94179E-20 2.34421E-18
 -1        82 9.24295E-05-2.77304E-05-2.77211E-05-2.13489E-08-8.69126E-20 1.63233E-18
 -1        83 9.30092E-05-2.79040E-05-2.78960E-05-1.60228E-08 8.36650E-20 1.37803E-18
 -1        84 9.35092E-05-2.80539E-05-2.80473E-05-1.13101E-08 7.89628E-20 3.42033E-19
 -1        85 9.39433E-05-2.81843E-05-2.81787E-05-7.17764E-09 4.05377E-20-1.84216E-18
 -1        86 9.43474E-05-2.83057E-05-2.83016E-05-3.07285E-09-6.26243E-20-1.93980E-18
 -1        87 9.47103E-05-2.84150E-05-2.84121E-05 5.39220E-10-2.09587E-19-1.62065E-18
 -1        88 9.50825E-05-2.85274E-05-2.85257E-05 4.09109E-09-9.04159E-20-6.60998E-19
 -1        89 9.55031E-05-2.86545E-05-2.86543E-05 7.78367E-09 2.09567E-19-1.19970E-18
 -1        90 9.60231E-05-2.88119E-05-2.88137E-05 1.17895E-08 2.71738E-19-1.92558E-18
 -1        91 9.67113E-05-2.90201E-05-2.90249E-05 1.63615E-08 8.55298E-20-3.46593E-18
 -1        92 9.76623E-05-2.93084E-05-2.93172E-05 2.38127E-08-1.78183E-20-3.76372E-18
 -1        93 9.90964E-05-2.97394E-05-2.97597E-05 2.48231E-08-5.43114E-20-1.06791E-18
 -1        94 1.01086E-04-3.03395E-05-3.03744E-05 2.83167E-08-7.61436E-20-2.99316E-18
 -1        95 1.03973E-04-3.12061E-05-3.12693E-05 2.43879E-08-1.31561E-19-3.01920E-18
 -1        96 1.08168E-04-3.24597E-05-3.25717E-05 3.72186E-09-5.31248E-20-1.00860E-18
 -1        97 1.14211E-04-3.42566E-05-3.44455E-05-5.42615E-08-5.76181E-20-1.10255E-18
 -1        98 1.22720E-04-3.67754E-05-3.70615E-05-1.85703E-07-2.13873E-19-1.12512E-18
 -1        99 1.34171E-04-4.01639E-05-4.04972E-05-4.37004E-07 9.91153E-20-9.46083E-19
 -1       100 1.48750E-04-4.45172E-05-4.46182E-05-8.78262E-07-4.63076E-19 3.22137E-19
 -1       101 1.62133E-04-4.86371E-05-4.79325E-05-1.21200E-06-2.47995E-19 3.44036E-18
 -1       102 1.67533E-04-5.05710E-05-4.85882E-05-7.34891E-07 4.13200E-19 4.54221E-18
 -1       103 1.54561E-04-4.69320E-05-4.48108E-05 1.73591E-06-3.49878E-19 3.39247E-18
 -1       104 1.23747E-04-3.72095E-05-3.79034E-05 4.50151E-06-4.65041E-20 5.27426E-18
 -1       105 8.87914E-05-2.53039E-05-3.11977E-05 4.69637E-06 2.68430E-19 3.25779E-18
 -1       106 8.24563E-05-2.26405E-05-3.00557E-05-6.22060E-07 9.30413E-20-3.32196E-19
 -1       107 1.11530E-04-3.24256E-05-3.56107E-05-4.49445E-06 5.53920E-19-2.80093E-18
 -1       108 1.46358E-04-4.40417E-05-4.29186E-05-4.17033E-06 2.83227E-20-2.64063E-18
 -1       109 1.66392E-04-5.04524E-05-4.81018E-05-1.56794E-06 1.26631E-19-1.80757E-18
 -1       110 1.65237E-04-4.98979E-05-4.85098E-05 2.37112E-07-5.71866E-19-1.41173E-18
 -1       111 1.52978E-04-4.59822E-05-4.56521E-05 7.89210E-07 1.22356E-19 8.96796E-20
 -1       112 1.38448E-04-4.15123E-05-4.16936E-05 7.42169E-07 4.93790E-20-3.48840E-18
 -1       113 1.25717E-04-3.76685E-05-3.79671E-05 5.54332E-07 5.68695E-19-5.76766E-18
 -1       114 1.15515E-04-3.46203E-05-3.48638E-05 3.53734E-07 2.36706E-19-5.40811E-18
 -1       115 1.08439E-04-3.25149E-05-3.26801E-05 2.29797E-07-1.67942E-20-7.30434E-18
 -1       116 1.03373E-04-3.10061E-05-3.11112E-05 1.52296E-07-1.57715E-19-4.70170E-18
 -1       117 9.97838E-05-2.99355E-05-3.00046E-05 1.06561E-07-1.64611E-19 3.71579E-19
 -1       118 9.73040E-05-2.91932E-05-2.92491E-05 7.94166E-08 7.80508E-19 1.17772E-18
 -1       119 9.57589E-05-2.87266E-05-2.87841E-05 4.89789E-08 1.57889E-19 2.57854E-18
 -1       120 9.51385E-05-2.85149E-05-2.85611E-05-2.55229E-08-1.13223E-18 4.34654E-18
 -1       121 9.52576E-05-2.86273E-05-2.85623E-05-5.36036E-08 4.44117E-18-1.12775E-18
 -1       122 9.50751E-05-2.80297E-05-2.87815E-05 3.90241E-08 9.45888E-19-1.70053E-18
 -1       123 9.46778E-05-2.66998E-05-2.91551E-05 8.41050E-08 1.18429E-18 5.07768E-19
 -1       124 9.42050E-05-2.51156E-05-2.95997E-05 8.77408E-08-1.58404E-18 8.85435E-20
 -1       125 9.37840E-05-2.37028E-05-3.00027E-05 6.50117E-08 4.98869E-18-1.74148E-20
 -1       126 9.35065E-05-2.27668E-05-3.02755E-05 3.35682E-08 6.94859E-18 1.26186E-18
 -1       127 9.33997E-05-2.24100E-05-3.03845E-05 2.63788E-10 4.94526E-18-1.32949E-18
 -1       128 9.34666E-05-2.26371E-05-3.03250E-05-2.57883E-08-4.89114E-19 7.90825E-19
 -1       129 9.36702E-05-2.33244E-05-3.01302E-05-4.12464E-08 1.78756E-18 6.63088E-19
 -1       130 9.39583E-05-2.42956E-05-2.98496E-05-4.62075E-08 3.40247E-18 2.51308E-19
 -1       131 9.42780E-05-2.53715E-05-2.95351E-05-4.30856E-08-3.94641E-18-1.87206E-18
 -1       132 9.45810E-05-2.63910E-05-2.92344E-05-3.56353E-08-6.18141E-18 1.92152E-18
 -1       133 9.48485E-05-2.72877E-05-2.89686E-05-2.61261E-08-2.49658E-18 7.79743E-19
 -1       134 9.50560E-05-2.79835E-05-2.87630E-05-1.73669E-08-1.80987E-18-3.54401E-19
 -1       135 9.51922E-05-2.84287E-05-2.86286E-05-4.70928E-09-3.53748E-18-1.24459E-18
 -1       136 9.52331E-05-2.85896E-05-2.85623E-05 4.08532E-08-3.45843E-18 1.14038E-18
 -1       137 3.10549E-05-1.06455E-04 1.99581E-05-2.92868E-05 3.31275E-18 6.28657E-21
 -1       138 1.14495E-05-5.90950E-05 9.58133E-06-3.39742E-05-1.66442E-19-4.82174E-19
 -1       139 6.44725E-06-5.52285E-06-7.91201E-06-3.64281E-07 3.29962E-18 3.12640E-18
 -1       140 4.77440E-05 1.98625E-05-3.11338E-05 6.10940E-05 5.42948E-18 6.62464E-18
 -1       141 1.39138E-04-5.44746E-08-5.47941E-05 1.10623E-04 3.02221E-18 4.97886E-18
 -1       142 2.63223E-04-5.66934E-05-7.58335E-05 1.13994E-04 2.28170E-19-8.13152E-20
 -1       143 3.55940E-04-1.07933E-04-8.80353E-05 5.10205E-05-6.89247E-19-5.93029E-18
 -1       144 3.57962E-04-1.08915E-04-8.83098E-05-4.61681E-05 1.59105E-18-9.73177E-18
 -1       145 2.68594E-04-5.98755E-05-7.64200E-05-1.11672E-04 4.02754E-18-1.16920E-17
 -1       146 1.47939E-04-2.92364E-06-5.67323E-05-1.14299E-04 8.44365E-18-1.25920E-17
 -1       147 5.36855E-05 2.20402E-05-3.39662E-05-6.78753E-05 9.15346E-18-1.23095E-17
 -1       148 8.62883E-06 2.76220E-06-1.17025E-05-8.71057E-06 1.08289E-17-7.57247E-18
 -1       149 9.13270E-06-4.83005E-05 6.50422E-06 2.80423E-05 8.85954E-18-4.18244E-18
 -1       150 2.64644E-05-9.71197E-05 1.85277E-05 3.31223E-05 1.68496E-18-8.77738E-19
 -1       151 3.87471E-05-1.21335E-04 2.27122E-05 1.01252E-05-8.79964E-18 1.03417E-19
 -1       152 3.22370E-05-1.02028E-04 1.86930E-05-1.87004E-05-1.27527E-17-2.52012E-18
 -1       153 6.59684E-06 5.53588E-06-9.81577E-06 1.04370E-05-9.30677E-18-6.20028E-18
 -1       154 3.85725E-05 3.20399E-05-3.02543E-05 6.54977E-05-9.69514E-18-9.34997E-18
 -1       155 1.15164E-04 1.47529E-05-5.08096E-05 1.11031E-04-6.60707E-18-9.48507E-18
 -1       156 2.19079E-04-3.64899E-05-6.90467E-05 1.15362E-04-3.47231E-18-7.45347E-18
 -1       157 3.02499E-04-8.73198E-05-8.02946E-05 6.05426E-05-9.07477E-19-5.41296E-18
 -1       158 3.18358E-04-9.74940E-05-8.22401E-05-2.51529E-05 5.87867E-19-4.44089E-18
 -1       159 2.59872E-04-6.08105E-05-7.46750E-05-9.92466E-05-1.24869E-18 3.17637E-18
 -1       160 1.57727E-04-3.76792E-06-5.91139E-05-1.21284E-04-4.29827E-18 9.67185E-18
 -1       161 6.57292E-05 3.07237E-05-3.92204E-05-8.86567E-05-1.09873E-17 1.01868E-17
 -1       162 1.31210E-05 2.04989E-05-1.73061E-05-2.99676E-05-1.25014E-17 1.06802E-17
 -1       163 7.53627E-06-3.07805E-05 2.47519E-06 1.58472E-05-1.11580E-17 4.37598E-18
 -1       164 2.69164E-05-8.98943E-05 1.63100E-05 2.32802E-05-3.93235E-18 1.43403E-18
 -1       165 9.48612E-05-1.23452E-05-3.55668E-05-2.23508E-05-2.44834E-18 5.47580E-19
 -1       166 8.92452E-05-8.45536E-06-3.47859E-05-1.73937E-05-2.21493E-18-1.91208E-18
 -1       167 8.65487E-05-6.50571E-06-3.44159E-05-1.35862E-05-1.76071E-18-3.22209E-18
 -1       168 8.51919E-05-5.51420E-06-3.42317E-05-1.03742E-05-1.27638E-18-3.92139E-18
 -1       169 8.44523E-05-4.94602E-06-3.41431E-05-7.54900E-06-8.01737E-19-4.18899E-18
 -1       170 8.40266E-05-4.60058E-06-3.41013E-05-4.90472E-06-4.04083E-19-4.28311E-18
 -1       171 8.38092E-05-4.41617E-06-3.40837E-05-2.39578E-06 5.13584E-20-4.29776E-18
 -1       172 8.37451E-05-4.36044E-06-3.40791E-05 5.11304E-08 4.32589E-19-4.26839E-18
 -1       173 8.38191E-05-4.42463E-06-3.40844E-05 2.50016E-06 8.02556E-19-4.20236E-18
 -1       174 8.40483E-05-4.61972E-06-3.41028E-05 5.01576E-06 1.10394E-18-4.09489E-18
 -1       175 8.44796E-05-4.97269E-06-3.41441E-05 7.62563E-06 1.41751E-18-3.67387E-18
 -1       176 8.52533E-05-5.57486E-06-3.42328E-05 1.05153E-05 1.95542E-18-3.02259E-18
 -1       177 8.66466E-05-6.60854E-06-3.44182E-05 1.37864E-05 2.39014E-18-2.03340E-18
 -1       178 8.93884E-05-8.59945E-06-3.47908E-05 1.76258E-05 2.62251E-18-1.52585E-19
 -1       179 9.57728E-05-1.36122E-05-3.54232E-05 2.18961E-05 2.43202E-18 3.22791E-18
 -1       180 1.05596E-04-2.60992E-05-3.52602E-05 1.86647E-05 1.78702E-18 7.68974E-18
 -1       181 1.03390E-04-2.72992E-05-3.26080E-05-1.21288E-05-2.14143E-18 3.67713E-18
 -1       182 9.70995E-05-2.82871E-05-2.95264E-05-4.73273E-06-1.96857E-18 2.49029E-18
 -1       183 9.34983E-05-2.76339E-05-2.81797E-05-1.77008E-06-1.56835E-18 1.58769E-18
 -1       184 9.19630E-05-2.74030E-05-2.76332E-05-4.22212E-07-9.83415E-19 7.08503E-19
 -1       185 9.13870E-05-2.73278E-05-2.74357E-05 2.42315E-07-3.09386E-19 2.33816E-19
 -1       186 9.13461E-05-2.73668E-05-2.74111E-05 5.69172E-07-3.64023E-19 9.86793E-20
 -1       187 9.15920E-05-2.74699E-05-2.74769E-05 7.09756E-07-1.96620E-19-1.41555E-19
 -1       188 9.19803E-05-2.76031E-05-2.75884E-05 7.43598E-07-4.19534E-19-2.46917E-19
 -1       189 9.24251E-05-2.77454E-05-2.77192E-05 7.17147E-07-4.12959E-19-1.74341E-19
 -1       190 9.28764E-05-2.78843E-05-2.78537E-05 6.59573E-07-3.44297E-19-1.14970E-19
 -1       191 9.33070E-05-2.80135E-05-2.79832E-05 5.89959E-07-3.22194E-19-1.08788E-18
 -1       192 9.37046E-05-2.81305E-05-2.81036E-05 5.21032E-07-3.36652E-19-1.34888E-18
 -1       193 9.40675E-05-2.82355E-05-2.82141E-05 4.61301E-07-1.38916E-19-1.76227E-18
 -1       194 9.44004E-05-2.83305E-05-2.83159E-05 4.16359E-07-6.91561E-19-2.13207E-18
 -1       195 9.47128E-05-2.84188E-05-2.84118E-05 3.89641E-07-4.88111E-19-1.85589E-18
 -1       196 9.50165E-05-2.85043E-05-2.85052E-05 3.82751E-07-5.71403E-19-2.73047E-18
 -1       197 9.53243E-05-2.85914E-05-2.85997E-05 3.95379E-07-5.15836E-19-3.30916E-18
 -1       198 9.56483E-05-2.86845E-05-2.86986E-05 4.24814E-07-2.42417E-20-3.53091E-18
 -1       199 9.59972E-05-2.87871E-05-2.88042E-05 4.65017E-07-2.50079E-19-3.31607E-18
 -1       200 9.63740E-05-2.89015E-05-2.89169E-05 5.05308E-07 5.84706E-19-3.25655E-18
 -1       201 9.67717E-05-2.90277E-05-2.90337E-05 5.28814E-07 4.61234E-19-3.19816E-18
 -1       202 9.71691E-05-2.91616E-05-2.91475E-05 5.11093E-07-1.68832E-19-2.34033E-18
 -1       203 9.75259E-05-2.92932E-05-2.92450E-05 4.19716E-07-1.43109E-19-1.85844E-18
 -1       204 9.77777E-05-2.94047E-05-2.93064E-05 2.16155E-07 2.88978E-19-1.26925E-18
 -1       205 9.78351E-05-2.94683E-05-2.93049E-05-1.38142E-07 2.27726E-19-8.71893E-19
 -1       206 9.75872E-05-2.94454E-05-2.92094E-05-6.69531E-07 5.66206E-19-1.91670E-18
 -1       207 9.69163E-05-2.92890E-05-2.89892E-05-1.37302E-06-7.93294E-19-2.69095E-18
 -1       208 9.57253E-05-2.89514E-05-2.86226E-05-2.18905E-06 4.75778E-20-2.84801E-18
 -1       209 9.39800E-05-2.84002E-05-2.81088E-05-2.98546E-06 1.60564E-19-2.37113E-18
 -1       210 9.17569E-05-2.76412E-05-2.74783E-05-3.56066E-06-1.35558E-20-2.11883E-18
 -1       211 8.92801E-05-2.67425E-05-2.67983E-05-3.68497E-06-6.69371E-19-2.60917E-18
 -1       212 8.69169E-05-2.58438E-05-2.61673E-05-3.18401E-06-7.40212E-19-2.49119E-18
 -1       213 8.51100E-05-2.51343E-05-2.56945E-05-2.03767E-06 1.06220E-18-2.51335E-18
 -1       214 8.42488E-05-2.47917E-05-2.54711E-05-4.36860E-07 9.16304E-19-1.91550E-18
 -1       215 8.45287E-05-2.49085E-05-2.55415E-05 1.25659E-06-5.68516E-19-3.49510E-18
 -1       216 8.58731E-05-2.54487E-05-2.58880E-05 2.64353E-06-1.45665E-19-1.93163E-18
 -1       217 8.79638E-05-2.62647E-05-2.64374E-05 3.44206E-06 1.01813E-18-1.54843E-18
 -1       218 9.03608E-05-2.71625E-05-2.70836E-05 3.57599E-06 1.62314E-18-1.06172E-18
 -1       219 9.26453E-05-2.79726E-05-2.77190E-05 3.15963E-06 5.50415E-19-1.44590E-19
 -1       220 9.45200E-05-2.85919E-05-2.82595E-05 2.41108E-06-1.44757E-18 2.72419E-19
 -1       221 9.58419E-05-2.89877E-05-2.86578E-05 1.55626E-06-2.34066E-18-1.78593E-19
 -1       222 9.66022E-05-2.91781E-05-2.89020E-05 7.66863E-07 8.21648E-19-1.49764E-18
 -1       223 9.68810E-05-2.92075E-05-2.90081E-05 1.41542E-07 6.76032E-19 6.49661E-20
 -1       224 9.68028E-05-2.91272E-05-2.90075E-05-2.82860E-07 1.83684E-18 6.24328E-19
 -1       225 9.65021E-05-2.89845E-05-2.89382E-05-5.08352E-07 1.59810E-18 2.74725E-19
 -1       226 9.61042E-05-2.88190E-05-2.88374E-05-5.54776E-07 1.37705E-18 1.47455E-18
 -1       227 9.57142E-05-2.86613E-05-2.87369E-05-4.48234E-07 1.33152E-18 1.13093E-18
 -1       228 9.54028E-05-2.85391E-05-2.86553E-05-2.28618E-07-2.40478E-19 2.11434E-18
 -1       229 9.94921E-05-2.85519E-05-3.05846E-05 7.21282E-06 1.84718E-18 6.62330E-18
 -1       230 9.44072E-05-2.77880E-05-2.85217E-05 2.74524E-06 1.40950E-18 5.11366E-18
 -1       231 9.20866E-05-2.73980E-05-2.76786E-05 9.31228E-07 1.12715E-18 4.00247E-18
 -1       232 9.11376E-05-2.72353E-05-2.73597E-05 6.89722E-08 5.38409E-19 3.17165E-18
 -1       233 9.09261E-05-2.72283E-05-2.72855E-05-3.59356E-07 5.65297E-19 2.46662E-18
 -1       234 9.11103E-05-2.73140E-05-2.73345E-05-5.61175E-07 3.84640E-19 2.19046E-18
 -1       235 9.15191E-05-2.74556E-05-2.74523E-05-6.36702E-07 3.61834E-19 1.99133E-18
 -1       236 9.19937E-05-2.76074E-05-2.75922E-05-6.35442E-07 4.87113E-19 1.60025E-18
 -1       237 9.24871E-05-2.77604E-05-2.77390E-05-5.95286E-07 4.80813E-19 9.97716E-19
 -1       238 9.29620E-05-2.79045E-05-2.78813E-05-5.36779E-07 4.17771E-19 4.85418E-19
 -1       239 9.34008E-05-2.80356E-05-2.80134E-05-4.73547E-07 1.75831E-19 1.32017E-19
 -1       240 9.37987E-05-2.81527E-05-2.81339E-05-4.15025E-07 4.82761E-19-5.06100E-19
 -1       241 9.41601E-05-2.82579E-05-2.82437E-05-3.68049E-07 8.70580E-19-1.58204E-19
 -1       242 9.45123E-05-2.83588E-05-2.83513E-05-3.37421E-07-1.86948E-19-8.64835E-19
 -1       243 9.48399E-05-2.84515E-05-2.84517E-05-3.31453E-07-8.99463E-20-9.58479E-19
 -1       244 9.51841E-05-2.85477E-05-2.85577E-05-3.54411E-07-2.28862E-19-1.65292E-18
 -1       245 9.55753E-05-2.86560E-05-2.86786E-05-4.14542E-07 1.89714E-19-1.29199E-18
 -1       246 9.60538E-05-2.87874E-05-2.88268E-05-5.23603E-07 7.04900E-19-1.38272E-18
 -1       247 9.66729E-05-2.89563E-05-2.90190E-05-6.98949E-07 4.64340E-19-1.74909E-18
 -1       248 9.75040E-05-2.91819E-05-2.92775E-05-9.65394E-07-5.25223E-19-1.24839E-18
 -1       249 9.87128E-05-2.95078E-05-2.96550E-05-1.38625E-06-6.78126E-19-1.29527E-18
 -1       250 1.00328E-04-2.99415E-05-3.01605E-05-1.98030E-06 9.87829E-19-1.18713E-18
 -1       251 1.02580E-04-3.05438E-05-3.08672E-05-2.83587E-06 5.44285E-22-2.44789E-18
 -1       252 1.05708E-04-3.13816E-05-3.18513E-05-4.04794E-06-8.48347E-19-2.29839E-18
 -1       253 1.10005E-04-3.25445E-05-3.32016E-05-5.70535E-06 5.76810E-20-2.39500E-18
 -1       254 1.15768E-04-3.41535E-05-3.49959E-05-7.81741E-06-2.64112E-19-2.15756E-18
 -1       255 1.23178E-04-3.63562E-05-3.72408E-05-1.01312E-05-4.86448E-19-1.13891E-18
 -1       256 1.32515E-04-3.95642E-05-3.98510E-05-1.17161E-05-1.23331E-18-8.29378E-19
 -1       257 1.41772E-04-4.35780E-05-4.20091E-05-1.01694E-05-1.50392E-18 2.62329E-19
 -1       258 1.48890E-04-4.79695E-05-4.30420E-05-2.26921E-06 1.47834E-19 2.89983E-19
 -1       259 1.49722E-04-4.97221E-05-4.27565E-05 1.30556E-05-1.99053E-20 1.56595E-18
 -1       260 1.42154E-04-4.48456E-05-4.21393E-05 2.58660E-05-4.77753E-19 8.54127E-19
 -1       261 1.29577E-04-3.33622E-05-4.23787E-05 2.14756E-05 1.54096E-18 7.72871E-19
 -1       262 1.26164E-04-2.89349E-05-4.28895E-05-5.76811E-06 2.20282E-18 8.28451E-19
 -1       263 1.37164E-04-3.86829E-05-4.28693E-05-2.58053E-05 1.38882E-18-2.04034E-18
 -1       264 1.48358E-04-4.80579E-05-4.29632E-05-2.29466E-05-7.47520E-19-2.23871E-18
 -1       265 1.51485E-04-4.99186E-05-4.32999E-05-6.66878E-06-5.36397E-19-5.41261E-19
 -1       266 1.46005E-04-4.61581E-05-4.26929E-05 6.22364E-06-7.77259E-19 6.72902E-19
 -1       267 1.36875E-04-4.15789E-05-4.08565E-05 1.13985E-05 5.53748E-20-8.27736E-19
 -1       268 1.27328E-04-3.78545E-05-3.83900E-05 1.15242E-05 1.92922E-18-2.48948E-19
 -1       269 1.18887E-04-3.51005E-05-3.59386E-05 9.62647E-06 2.60742E-18-2.01089E-18
 -1       270 1.11762E-04-3.30132E-05-3.37581E-05 7.27117E-06-9.09945E-19-3.30551E-18
 -1       271 1.06582E-04-3.15771E-05-3.21418E-05 5.34677E-06 3.49274E-19-2.76942E-18
 -1       272 1.02686E-04-3.05144E-05-3.09229E-05 3.86482E-06-1.95604E-18-6.99120E-19
 -1       273 9.98198E-05-2.97299E-05-3.00307E-05 2.75503E-06-1.91968E-18 8.38479E-19
 -1       274 9.77666E-05-2.91537E-05-2.93997E-05 1.89173E-06-5.51875E-19 1.68011E-18
 -1       275 9.63761E-05-2.87362E-05-2.89848E-05 1.13663E-06-1.05971E-19 1.34287E-18
 -1       276 9.55445E-05-2.84901E-05-2.87316E-05 4.06673E-07-4.66659E-19-7.37238E-19
 -1       277 9.53049E-05-2.79973E-05-2.88426E-05 7.86602E-07-5.60379E-19-1.09332E-18
 -1       278 9.49223E-05-2.70728E-05-2.90787E-05 1.37958E-06 9.75023E-20 4.68233E-19
 -1       279 9.44578E-05-2.59624E-05-2.93562E-05 1.59091E-06 7.65493E-19-1.11837E-18
 -1       280 9.40369E-05-2.49051E-05-2.96299E-05 1.40189E-06 7.10204E-19 3.49661E-18
 -1       281 9.37430E-05-2.41199E-05-2.98419E-05 9.38502E-07 6.12650E-19 4.10100E-19
 -1       282 9.36047E-05-2.37052E-05-2.99611E-05 3.38976E-07 9.40676E-19-2.07784E-18
 -1       283 9.36297E-05-2.37114E-05-2.99692E-05-2.45318E-07 1.54439E-18-3.05538E-18
 -1       284 9.37873E-05-2.40852E-05-2.98759E-05-7.07334E-07 1.12997E-18 1.18991E-18
 -1       285 9.40298E-05-2.47201E-05-2.97066E-05-9.94031E-07 8.93138E-19 5.16631E-19
 -1       286 9.43077E-05-2.54910E-05-2.94939E-05-1.10207E-06-1.57428E-18-2.62865E-18
 -1       287 9.45750E-05-2.62702E-05-2.92733E-05-1.06454E-06-7.03507E-19-1.10617E-18
 -1       288 9.48151E-05-2.69992E-05-2.90628E-05-9.25015E-07 4.01448E-19 1.62778E-18
 -1       289 9.50098E-05-2.76084E-05-2.88847E-05-7.24059E-07 9.44847E-21 1.72869E-19
 -1       290 9.51586E-05-2.80715E-05-2.87498E-05-4.82158E-07-1.09171E-18-8.97801E-19
 -1       291 9.52929E-05-2.83324E-05-2.86951E-05-3.86366E-07-9.09384E-19-1.21492E-18
 -1       292 1.07218E-05-4.93208E-05 1.34181E-05 4.74749E-07-2.00906E-18 2.03510E-18
 -1       293 2.31101E-05-5.11958E-05 8.45909E-06 1.18231E-05 2.55169E-19-1.19495E-18
 -1       294 4.77697E-05-4.56039E-05-3.83084E-06 2.57438E-05-4.27752E-19 1.98449E-18
 -1       295 1.02514E-04-5.28978E-05-2.23323E-05 3.72450E-05-1.99921E-18-9.48042E-19
 -1       296 1.44770E-04-4.71873E-05-4.16016E-05 3.73705E-05-2.76344E-19-1.60936E-18
 -1       297 1.93268E-04-4.83291E-05-5.98901E-05 2.46262E-05 1.51179E-18-2.97309E-18
 -1       298 2.32386E-04-4.70414E-05-7.44970E-05 1.73708E-05 1.42513E-18-3.99270E-18
 -1       299 2.46369E-04-4.60747E-05-7.97924E-05 7.82895E-07 1.24471E-18-4.97576E-18
 -1       300 2.29326E-04-4.51028E-05-7.43097E-05-1.34524E-05 2.93179E-18-4.99178E-18
 -1       301 1.98154E-04-4.75102E-05-6.17140E-05-3.07489E-05 3.64094E-18-5.89789E-18
 -1       302 1.48460E-04-4.49406E-05-4.38263E-05-3.97772E-05 3.01480E-18-4.92380E-18
 -1       303 9.67123E-05-4.30791E-05-2.44394E-05-3.78877E-05 3.42307E-18-4.24914E-18
 -1       304 5.47160E-05-4.49506E-05-6.87516E-06-2.77807E-05 2.87631E-18-3.27050E-18
 -1       305 2.98695E-05-4.56192E-05 4.44477E-06-2.18406E-05-1.07128E-18-4.95451E-18
 -1       306 1.38453E-05-4.85907E-05 1.19004E-05-5.51781E-06-2.93910E-18-4.76393E-18
 -1       307 1.23099E-05-5.36128E-05 1.40932E-05 1.01420E-05-2.84301E-18-1.10877E-18
 -1       308 2.23419E-05-4.70132E-05 7.55137E-06 2.17911E-05-4.24088E-18-9.19984E-19
 -1       309 4.38272E-05-3.73494E-05-4.76323E-06 3.48003E-05-4.31817E-18-2.57652E-18
 -1       310 8.30704E-05-3.41946E-05-2.15022E-05 4.72155E-05-2.78547E-18-3.03439E-18
 -1       311 1.22113E-04-2.95254E-05-3.90622E-05 5.10495E-05-3.39364E-18-3.20327E-18
 -1       312 1.64386E-04-3.17279E-05-5.53272E-05 4.03001E-05-3.31674E-18-2.38948E-18
 -1       313 2.00779E-04-3.34232E-05-6.88100E-05 2.96175E-05-1.93081E-18-3.68565E-18
 -1       314 2.21477E-04-3.80054E-05-7.49339E-05 6.31083E-06-9.94840E-19-3.17614E-18
 -1       315 2.10782E-04-3.48739E-05-7.21408E-05-2.04546E-05-2.34670E-18-1.72826E-18
 -1       316 1.83508E-04-3.15813E-05-6.24084E-05-4.41535E-05-4.38542E-18-3.25261E-19
 -1       317 1.39791E-04-2.74860E-05-4.67827E-05-5.28734E-05-5.64823E-18 3.82202E-18
 -1       318 9.88658E-05-3.26419E-05-2.84978E-05-4.88007E-05-4.60998E-18 4.57123E-18
 -1       319 5.46753E-05-3.43698E-05-1.02526E-05-3.92195E-05-5.37718E-18 4.53089E-18
 -1       320 2.75906E-05-4.43911E-05 4.39588E-06-2.53532E-05-3.34239E-18 4.80644E-18
 -1       321 1.40544E-05-5.25953E-05 1.30434E-05-1.31204E-05-1.68221E-18 2.49599E-18
 -1       322 9.16463E-05-1.43948E-05-3.31709E-05-1.30649E-05-2.34568E-18-1.73641E-18
 -1       323 9.57029E-05-1.91091E-05-3.28889E-05-1.46323E-05-2.60076E-18-3.79848E-19
 -1       324 8.80083E-05-1.03755E-05-3.33247E-05-8.15495E-06-1.28221E-18-3.05885E-18
 -1       325 8.71959E-05-9.45534E-06-3.33655E-05-5.71865E-06-7.85040E-19-3.20284E-18
 -1       326 8.67376E-05-8.92563E-06-3.33929E-05-3.36755E-06-1.90582E-19-3.19006E-18
 -1       327 8.65333E-05-8.68595E-06-3.34066E-05-1.07284E-06 3.88379E-19-3.27203E-18
 -1       328 8.65420E-05-8.69558E-06-3.34063E-05 1.20356E-06 7.71784E-19-3.36260E-18
 -1       329 8.67650E-05-8.95642E-06-3.33917E-05 3.50059E-06 1.22659E-18-3.26135E-18
 -1       330 8.72356E-05-9.50031E-06-3.33638E-05 5.81590E-06 1.58793E-18-3.00504E-18
 -1       331 8.80725E-05-1.04515E-05-3.33215E-05 8.25580E-06 2.07243E-18-2.34816E-18
 -1       332 8.94842E-05-1.20337E-05-3.32597E-05 1.07654E-05 2.52333E-18-1.65396E-18
 -1       333 9.19004E-05-1.47218E-05-3.31577E-05 1.31710E-05 2.88531E-18-6.34699E-19
 -1       334 9.57998E-05-1.94560E-05-3.28266E-05 1.43779E-05 2.85489E-18 1.58782E-18
 -1       335 9.87846E-05-2.44424E-05-3.19491E-05 1.19000E-05 2.61300E-18 3.53127E-18
 -1       336 9.63834E-05-2.68104E-05-2.97875E-05 5.74325E-06 2.05163E-18 2.73191E-18
 -1       337 1.04695E-05-2.32040E-05 5.19925E-06 1.22522E-06-8.50275E-19-1.55907E-18
 -1       338 9.64287E-05-2.60233E-05-3.01300E-05-6.34964E-06-2.19138E-18-5.88415E-21
 -1       339 9.49153E-05-2.70283E-05-2.90693E-05-2.83613E-06-1.63265E-18-8.30696E-20
 -1       340 9.39373E-05-2.74234E-05-2.84913E-05-9.22738E-07-9.55442E-19-1.04973E-19
 -1       341 9.34191E-05-2.76359E-05-2.81861E-05 1.38949E-07-6.51294E-19-6.79734E-19
 -1       342 9.32289E-05-2.77887E-05-2.80430E-05 7.06500E-07-4.05244E-19-7.89922E-19
 -1       343 9.32492E-05-2.79178E-05-2.79982E-05 9.79045E-07-3.47964E-19-7.40709E-19
 -1       344 9.33939E-05-2.80323E-05-2.80120E-05 1.07440E-06-2.98629E-19-7.33231E-19
 -1       345 9.36046E-05-2.81334E-05-2.80594E-05 1.06639E-06-5.05452E-19-8.63155E-19
 -1       346 9.38438E-05-2.82212E-05-2.81245E-05 1.00321E-06-8.25282E-19-1.01847E-18
 -1       347 9.40891E-05-2.82962E-05-2.81975E-05 9.17148E-07-6.57623E-19-1.24359E-18
 -1       348 9.43290E-05-2.83598E-05-2.82730E-05 8.30036E-07-5.74205E-19-1.79829E-18
 -1       349 9.45596E-05-2.84140E-05-2.83485E-05 7.56573E-07-5.25861E-19-1.88442E-18
 -1       350 9.47822E-05-2.84619E-05-2.84232E-05 7.06360E-07-7.72660E-19-1.70098E-18
 -1       351 9.50017E-05-2.85068E-05-2.84979E-05 6.85020E-07-8.05757E-19-1.98660E-18
 -1       352 9.52254E-05-2.85531E-05-2.85738E-05 6.94592E-07-8.92360E-19-1.77573E-18
 -1       353 9.54615E-05-2.86060E-05-2.86522E-05 7.33218E-07-7.77395E-19-2.22869E-18
 -1       354 9.57180E-05-2.86713E-05-2.87340E-05 7.94140E-07 2.90525E-19-2.55387E-18
 -1       355 9.60014E-05-2.87559E-05-2.88193E-05 8.64044E-07-5.92356E-20-2.26769E-18
 -1       356 9.63148E-05-2.88675E-05-2.89061E-05 9.20911E-07 6.30236E-19-1.91973E-18
 -1       357 9.66557E-05-2.90132E-05-2.89902E-05 9.31796E-07 1.09443E-18-2.02415E-18
 -1       358 9.70124E-05-2.91981E-05-2.90646E-05 8.51414E-07 1.35985E-19-1.33192E-18
 -1       359 9.73606E-05-2.94217E-05-2.91191E-05 6.23067E-07 4.79777E-19-5.68121E-19
 -1       360 9.76585E-05-2.96719E-05-2.91409E-05 1.84306E-07 4.05240E-19-1.08022E-18
 -1       361 9.78428E-05-2.99176E-05-2.91160E-05-5.19670E-07-2.02301E-19-1.85923E-18
 -1       362 9.78272E-05-3.01004E-05-2.90320E-05-1.51222E-06-7.14673E-19-1.63564E-18
 -1       363 9.75077E-05-3.01317E-05-2.88821E-05-2.75129E-06-8.19597E-19-1.36247E-18
 -1       364 9.67832E-05-2.99024E-05-2.86688E-05-4.09293E-06 3.98743E-19-9.50039E-19
 -1       365 9.55947E-05-2.93169E-05-2.84079E-05-5.27119E-06-2.43640E-19-8.26572E-19
 -1       366 9.39841E-05-2.83517E-05-2.81273E-05-5.92388E-06-3.16771E-19-3.89463E-19
 -1       367 9.21472E-05-2.71204E-05-2.78632E-05-5.68972E-06-5.65027E-19 1.29253E-18
 -1       368 9.04408E-05-2.58974E-05-2.76520E-05-4.36979E-06-2.01605E-19 1.35490E-18
 -1       369 8.92960E-05-2.50490E-05-2.75224E-05-2.08539E-06 1.91667E-19-7.04137E-19
 -1       370 8.90448E-05-2.48704E-05-2.74907E-05 6.85692E-07-1.23502E-18-1.78481E-18
 -1       371 8.97578E-05-2.54253E-05-2.75601E-05 3.26641E-06 1.89328E-19-1.79359E-18
 -1       372 9.12075E-05-2.65111E-05-2.77197E-05 5.05709E-06 9.61105E-19-8.94425E-19
 -1       373 9.29834E-05-2.77715E-05-2.79452E-05 5.76346E-06 1.40514E-18-2.81006E-20
 -1       374 9.46745E-05-2.88724E-05-2.82025E-05 5.45044E-06 2.16525E-18-7.55074E-19
 -1       375 9.60030E-05-2.96211E-05-2.84543E-05 4.42802E-06 8.46264E-19 1.13362E-18
 -1       376 9.68590E-05-2.99824E-05-2.86680E-05 3.07974E-06-2.58673E-18 2.63944E-18
 -1       377 9.72632E-05-3.00255E-05-2.88229E-05 1.73043E-06-1.70135E-18 2.45374E-18
 -1       378 9.73062E-05-2.98579E-05-2.89122E-05 5.89449E-07 1.57196E-18 1.67758E-18
 -1       379 9.70988E-05-2.95791E-05-2.89413E-05-2.45699E-07 2.46821E-18 2.51179E-18
 -1       380 9.67437E-05-2.92607E-05-2.89238E-05-7.57071E-07 9.41068E-19 1.67297E-18
 -1       381 9.63236E-05-2.89457E-05-2.88771E-05-9.69770E-07 1.00959E-18 1.09704E-18
 -1       382 9.59018E-05-2.86588E-05-2.88181E-05-9.27511E-07 6.26716E-19-3.36735E-19
 -1       383 9.55674E-05-2.84591E-05-2.87589E-05-7.03958E-07 4.02794E-19-4.37130E-19
 -1       384 9.43633E-05-2.73390E-05-2.86865E-05 2.47078E-06 1.60999E-18 2.32756E-18
 -1       385 9.31567E-05-2.74585E-05-2.81345E-05 7.45396E-07 1.19561E-18 1.62337E-18
 -1       386 9.26028E-05-2.75358E-05-2.78759E-05-1.76761E-07 7.89239E-19 9.84716E-19
 -1       387 9.24620E-05-2.76284E-05-2.77817E-05-6.53652E-07 5.46141E-19 6.00547E-19
 -1       388 9.25764E-05-2.77438E-05-2.77838E-05-8.81079E-07 4.69884E-19 7.33571E-19
 -1       389 9.28204E-05-2.78604E-05-2.78397E-05-9.44266E-07 7.44413E-19 4.01288E-19
 -1       390 9.31261E-05-2.79751E-05-2.79221E-05-9.23116E-07 7.33689E-19 2.19020E-19
 -1       391 9.34510E-05-2.80822E-05-2.80157E-05-8.57586E-07 5.71663E-19 1.43676E-19
 -1       392 9.37714E-05-2.81789E-05-2.81117E-05-7.74578E-07 3.57898E-19-3.20551E-19
 -1       393 9.40764E-05-2.82644E-05-2.82057E-05-6.92743E-07 5.02005E-19-3.06406E-19
 -1       394 9.43645E-05-2.83401E-05-2.82965E-05-6.25559E-07 4.49882E-19 4.55929E-20
 -1       395 9.46541E-05-2.84112E-05-2.83900E-05-5.82664E-07 3.58144E-19 4.92185E-19
 -1       396 9.49293E-05-2.84742E-05-2.84805E-05-5.78603E-07 2.87251E-19-7.42394E-19
 -1       397 9.52207E-05-2.85368E-05-2.85781E-05-6.21058E-07 1.04031E-19-8.90564E-19
 -1       398 9.55497E-05-2.86035E-05-2.86900E-05-7.23806E-07-1.43975E-19-1.45220E-18
 -1       399 9.59443E-05-2.86792E-05-2.88258E-05-9.05558E-07 3.90318E-19-6.97395E-19
 -1       400 9.64399E-05-2.87697E-05-2.89983E-05-1.19306E-06 5.49137E-19 8.19533E-20
 -1       401 9.70827E-05-2.88818E-05-2.92241E-05-1.62384E-06-7.18364E-19-2.94767E-19
 -1       402 9.79778E-05-2.90288E-05-2.95425E-05-2.29149E-06-3.70053E-19-5.81053E-19
 -1       403 9.91202E-05-2.92071E-05-2.99527E-05-3.21520E-06 9.42445E-19-8.13998E-19
 -1       404 1.00636E-04-2.94344E-05-3.05017E-05-4.51839E-06 1.05083E-18-1.03615E-18
 -1       405 1.02637E-04-2.97340E-05-3.12279E-05-6.32250E-06-4.65043E-19-1.87196E-18
 -1       406 1.05255E-04-3.01617E-05-3.21653E-05-8.73399E-06-8.71733E-20-2.23424E-18
 -1       407 1.08645E-04-3.08600E-05-3.33235E-05-1.17567E-05-5.14204E-19-1.50019E-18
 -1       408 1.13035E-04-3.21723E-05-3.46531E-05-1.50750E-05-3.45083E-19-1.72354E-18
 -1       409 1.19161E-04-3.50807E-05-3.60420E-05-1.77369E-05-1.12259E-18-2.31161E-18
 -1       410 1.27231E-04-4.06302E-05-3.71091E-05-1.70144E-05-1.71850E-18-1.87015E-18
 -1       411 1.38364E-04-4.97014E-05-3.79500E-05-9.16530E-06-2.39075E-19-1.41852E-18
 -1       412 1.51448E-04-5.86066E-05-3.99093E-05 8.49395E-06-3.88032E-19-4.97104E-19
 -1       413 1.57114E-04-5.55257E-05-4.40542E-05 2.65117E-05 2.69648E-19-6.36201E-19
 -1       414 1.55476E-04-3.59101E-05-5.19346E-05 2.61686E-05 1.65267E-18-1.51058E-18
 -1       415 1.53163E-04-2.33900E-05-5.61445E-05-3.35743E-06 1.45478E-18-1.34623E-18
 -1       416 1.56136E-04-3.86187E-05-5.09552E-05-2.81385E-05 2.90585E-18-4.97314E-19
 -1       417 1.60346E-04-5.75945E-05-4.43235E-05-2.50303E-05-1.08423E-18-5.65421E-19
 -1       418 1.50051E-04-5.80746E-05-3.94733E-05-3.98514E-06-1.58586E-18 9.59635E-19
 -1       419 1.36013E-04-4.81319E-05-3.76962E-05 1.20109E-05-3.66110E-19 7.15637E-19
 -1       420 1.24858E-04-3.93225E-05-3.66865E-05 1.80811E-05-1.80881E-19-5.73210E-19
 -1       421 1.17017E-04-3.42206E-05-3.54959E-05 1.78747E-05 1.67284E-18 7.72391E-19
 -1       422 1.11352E-04-3.16857E-05-3.41338E-05 1.50863E-05 2.98253E-18-1.81608E-19
 -1       423 1.06891E-04-3.04066E-05-3.27577E-05 1.16298E-05-5.55520E-19-5.91370E-19
 -1       424 1.03607E-04-2.97472E-05-3.16308E-05 8.72863E-06-1.03092E-18 1.47898E-18
 -1       425 1.01031E-04-2.93048E-05-3.07194E-05 6.42311E-06-2.46361E-18 1.60861E-18
 -1       426 9.90304E-05-2.89518E-05-3.00175E-05 4.65100E-06-1.05211E-18-5.90575E-19
 -1       427 9.74991E-05-2.86393E-05-2.95002E-05 3.24354E-06-7.69941E-19-1.82919E-18
 -1       428 9.63483E-05-2.83425E-05-2.91374E-05 2.07361E-06 8.27383E-19-2.70854E-18
 -1       429 9.57544E-05-2.81296E-05-2.89770E-05 1.41729E-06 5.35543E-19-1.84202E-18
 -1       430 9.40647E-05-2.54472E-05-2.94084E-05 2.58696E-06 5.05300E-20 1.09002E-18
 -1       431 9.48185E-05-2.65057E-05-2.92740E-05 2.68564E-06-1.29423E-18 9.03778E-19
 -1       432 9.53838E-05-2.73797E-05-2.91391E-05 2.21099E-06 5.73336E-19-6.36269E-19
 -1       433 9.35293E-05-2.46625E-05-2.95179E-05 1.95833E-06-5.86890E-19-7.36382E-19
 -1       434 9.32609E-05-2.42288E-05-2.95897E-05 9.99954E-07-8.27729E-19 7.65134E-19
 -1       435 9.32752E-05-2.41970E-05-2.96096E-05-2.99292E-08 2.99316E-19-2.24354E-18
 -1       436 9.35103E-05-2.45132E-05-2.95742E-05-9.21764E-07-5.94743E-19-1.55665E-18
 -1       437 9.38755E-05-2.50732E-05-2.94895E-05-1.54587E-06-2.93481E-19 6.63767E-19
 -1       438 9.42789E-05-2.57550E-05-2.93688E-05-1.86091E-06-7.39319E-19-3.40775E-18
 -1       439 9.46438E-05-2.64382E-05-2.92311E-05-1.89906E-06-6.04056E-19-3.84848E-19
 -1       440 9.49444E-05-2.70699E-05-2.90881E-05-1.73167E-06 2.62440E-18 3.64035E-18
 -1       441 9.51674E-05-2.75980E-05-2.89564E-05-1.43701E-06 3.14925E-18-8.09050E-19
 -1       442 9.53241E-05-2.80132E-05-2.88450E-05-1.07982E-06 4.53578E-19-1.84114E-18
 -1       443 5.13100E-05-4.27513E-05-4.13533E-06 3.57976E-05-5.93347E-19 5.61159E-21
 -1       444 1.25285E-05-1.89944E-05 3.01749E-06-1.07758E-05-1.94803E-18 1.90985E-18
 -1       445 2.31792E-05-2.69907E-05 1.60567E-06 2.13610E-05-1.15207E-18 1.33270E-18
 -1       446 9.18114E-05-5.57006E-05-1.59577E-05 3.85108E-05-2.33675E-18-1.99605E-18
 -1       447 2.69740E-05-2.98464E-05 1.06498E-06-2.41464E-05-1.69523E-18-5.77009E-18
 -1       448 4.72567E-05-3.74237E-05-4.35454E-06 4.56855E-05-1.47151E-18-1.28844E-18
 -1       449 1.47962E-04-6.81872E-05-3.46463E-05 1.62186E-05-2.25877E-18-1.24990E-18
 -1       450 8.93422E-05-1.18580E-05-3.32807E-05-1.06867E-05-1.89490E-18-2.60959E-18
 -1       451 1.84171E-04-4.32848E-05-5.98937E-05-1.43631E-05 1.73081E-18-2.61924E-18
 -1       452 1.87449E-04-2.81258E-05-6.71202E-05-7.72964E-06 1.71312E-18-3.05260E-18
 -1       453 1.83301E-04-2.60084E-05-6.65729E-05 7.29456E-06 1.73832E-18-2.64687E-18
 -1       454 1.77397E-04-4.28141E-05-5.76780E-05 1.95055E-05 1.37495E-18-1.21772E-18
 -1       455 1.77199E-04-5.99353E-05-5.01480E-05 7.25788E-06 1.02048E-18-1.62101E-18
 -1       456 1.46334E-04-6.66258E-05-3.44506E-05-2.09073E-05 9.71759E-19-2.92851E-18
 -1       457 1.06436E-04-6.10436E-05-1.97716E-05-3.58752E-05 1.52042E-19-2.62310E-18
 -1       458 6.77082E-05-4.70219E-05-8.99455E-06-3.94219E-05-1.36510E-18-2.22394E-18
 -1       459 1.89472E-05-2.70358E-05 3.22327E-06 2.81834E-05-7.47877E-19-1.30740E-18
 -1       460 8.57758E-05-4.90408E-05-1.57598E-05 4.95760E-05-1.42630E-18-1.47976E-18
 -1       461 1.27168E-04-5.55904E-05-3.06149E-05 3.59849E-05-5.79529E-19-3.71689E-19
 -1       462 1.47622E-04-4.86971E-05-4.25097E-05 1.96211E-05-9.59953E-19-6.49992E-19
 -1       463 1.60829E-04-2.87759E-05-5.65579E-05 4.05030E-06-1.99572E-18-1.38871E-18
 -1       464 1.60793E-04-1.33760E-05-6.32125E-05-1.11821E-06-2.26105E-18-7.95311E-19
 -1       465 1.66998E-04-1.27312E-05-6.58849E-05-1.48577E-07-2.01340E-18-5.93744E-19
 -1       466 1.62242E-04-2.29263E-05-5.96733E-05-1.56608E-06-2.91432E-18-1.26473E-18
 -1       467 1.56337E-04-4.02519E-05-4.97141E-05-1.26466E-05-3.23449E-18-3.50534E-18
 -1       468 1.37939E-04-5.14423E-05-3.69829E-05-3.05960E-05-1.87957E-18-2.22780E-18
 -1       469 1.01038E-04-5.28893E-05-2.07227E-05-4.65055E-05-3.82647E-19 2.08606E-18
 -1       470 6.42254E-05-4.28907E-05-9.18053E-06-4.91680E-05-1.54901E-18 2.53745E-18
 -1       471 2.50070E-05-3.06646E-05 2.07976E-06-3.38458E-05-1.77824E-18 5.71726E-18
 -1       472 1.72282E-04-6.41208E-05-4.61382E-05-5.59841E-06-1.38556E-19-7.11508E-19
 -1       473 1.34941E-04-6.89489E-05-2.81953E-05 2.39889E-05-2.13267E-18-1.48207E-18
 -1       474 9.58159E-05-2.51472E-05-3.02724E-05 6.01978E-06 2.04694E-18 6.48216E-19
 -1       475 8.95464E-05-1.34015E-05-3.26524E-05-3.92521E-06-3.93651E-19-2.71431E-18
 -1       476 9.02512E-05-1.43632E-05-3.25436E-05-5.88293E-06-9.15323E-19-2.79162E-18
 -1       477 8.90503E-05-1.27217E-05-3.27300E-05 5.42866E-08 5.06297E-19-2.94567E-18
 -1       478 8.91854E-05-1.29054E-05-3.27095E-05 2.04575E-06 9.31191E-19-3.08032E-18
 -1       479 8.95787E-05-1.34425E-05-3.26490E-05 3.99856E-06 1.38834E-18-2.83299E-18
 -1       480 9.03017E-05-1.44298E-05-3.25376E-05 5.95280E-06 1.90288E-18-2.41593E-18
 -1       481 9.14473E-05-1.60082E-05-3.23541E-05 7.78168E-06 2.18753E-18-1.73990E-18
 -1       482 9.32320E-05-1.84782E-05-3.20575E-05 9.29726E-06 2.35402E-18-1.09143E-18
 -1       483 9.54859E-05-2.44409E-05-3.04393E-05-5.83463E-06-1.93434E-18-9.28667E-19
 -1       484 9.51086E-05-2.65760E-05-2.93532E-05 2.87585E-06 1.88028E-18 3.86028E-19
 -1       485 9.45864E-05-2.06843E-05-3.16900E-05-9.59103E-06-2.17669E-18-1.31479E-18
 -1       486 9.52717E-05-2.62267E-05-2.95835E-05-2.89656E-06-1.35679E-18-9.77598E-19
 -1       487 9.49158E-05-2.71585E-05-2.90349E-05-1.02957E-06-1.00038E-18-8.47419E-19
 -1       488 9.46407E-05-2.76884E-05-2.86922E-05 9.72256E-08-5.59008E-19-8.40201E-19
 -1       489 9.44863E-05-2.80127E-05-2.84881E-05 7.38292E-07-4.63628E-19-1.03127E-18
 -1       490 9.44343E-05-2.82214E-05-2.83769E-05 1.06535E-06-4.77002E-19-1.20863E-18
 -1       491 9.44549E-05-2.83586E-05-2.83271E-05 1.19461E-06-3.60675E-19-1.23169E-18
 -1       492 9.45216E-05-2.84480E-05-2.83175E-05 1.20530E-06-8.14456E-19-1.27198E-18
 -1       493 9.46146E-05-2.85038E-05-2.83335E-05 1.15197E-06-1.02879E-18-1.29836E-18
 -1       494 9.47212E-05-2.85355E-05-2.83656E-05 1.07231E-06-7.12320E-19-1.02710E-18
 -1       495 9.48339E-05-2.85500E-05-2.84076E-05 9.92354E-07-4.75424E-19-1.04567E-18
 -1       496 9.49499E-05-2.85530E-05-2.84560E-05 9.29818E-07-7.04657E-19-8.47339E-19
 -1       497 9.50697E-05-2.85497E-05-2.85087E-05 8.96221E-07-1.17594E-18-8.23718E-19
 -1       498 9.51964E-05-2.85457E-05-2.85646E-05 8.98041E-07-6.23506E-19-5.65634E-19
 -1       499 9.53355E-05-2.85477E-05-2.86233E-05 9.36986E-07-7.21450E-19-1.87808E-19
 -1       500 9.54944E-05-2.85643E-05-2.86842E-05 1.00942E-06-5.38967E-19 4.00444E-20
 -1       501 9.56826E-05-2.86068E-05-2.87467E-05 1.10496E-06-3.10610E-19-7.80565E-19
 -1       502 9.59111E-05-2.86902E-05-2.88089E-05 1.20430E-06-9.30344E-20-1.02549E-18
 -1       503 9.61920E-05-2.88328E-05-2.88683E-05 1.27655E-06 6.49114E-19-1.61294E-18
 -1       504 9.65376E-05-2.90552E-05-2.89214E-05 1.27663E-06 1.04451E-18-1.65086E-18
 -1       505 9.69564E-05-2.93763E-05-2.89637E-05 1.14387E-06 7.61410E-19-1.13475E-18
 -1       506 9.74485E-05-2.98053E-05-2.89913E-05 8.03781E-07-1.15073E-19-1.51693E-18
 -1       507 9.79951E-05-3.03286E-05-2.90020E-05 1.76294E-07-4.92748E-19-2.05221E-18
 -1       508 9.85452E-05-3.08912E-05-2.89973E-05-8.05507E-07-5.40559E-19-2.16892E-18
 -1       509 9.90012E-05-3.13774E-05-2.89847E-05-2.16172E-06-2.02630E-20-1.20438E-18
 -1       510 9.92124E-05-3.16029E-05-2.89784E-05-3.81632E-06 4.67705E-19 5.38008E-19
 -1       511 9.89953E-05-3.13413E-05-2.89964E-05-5.54344E-06 4.10621E-20 5.96555E-19
 -1       512 9.81991E-05-3.04043E-05-2.90548E-05-6.94043E-06-7.99592E-20 1.01457E-18
 -1       513 9.68167E-05-2.87774E-05-2.91575E-05-7.47812E-06 7.00279E-20 1.46789E-18
 -1       514 9.50941E-05-2.67502E-05-2.92863E-05-6.67539E-06-5.48805E-19 1.45416E-18
 -1       515 9.35401E-05-2.49259E-05-2.94014E-05-4.37080E-06-1.43436E-18 1.71388E-18
 -1       516 9.27404E-05-2.39963E-05-2.94565E-05-9.52510E-07-1.46996E-18 2.89482E-19
 -1       517 9.30266E-05-2.43519E-05-2.94266E-05 2.69719E-06-3.82747E-19 1.13812E-18
 -1       518 9.42686E-05-2.58400E-05-2.93220E-05 5.58955E-06 1.17326E-18 1.64575E-18
 -1       519 9.59610E-05-2.78650E-05-2.91809E-05 7.07762E-06 1.45360E-18 1.99136E-18
 -1       520 9.75220E-05-2.97393E-05-2.90486E-05 7.08140E-06 1.20760E-18 7.58296E-19
 -1       521 9.85700E-05-3.10114E-05-2.89548E-05 5.96942E-06 1.95057E-18-3.17908E-19
 -1       522 9.90010E-05-3.15610E-05-2.89056E-05 4.28405E-06 1.00264E-18-9.24934E-19
 -1       523 9.89146E-05-3.15119E-05-2.88901E-05 2.50815E-06-1.71083E-18 2.40733E-18
 -1       524 9.84910E-05-3.10841E-05-2.88916E-05 9.58964E-07-1.20985E-18 3.15856E-18
 -1       525 9.79008E-05-3.04835E-05-2.88954E-05-2.12144E-07 1.49075E-18 1.28956E-18
 -1       526 9.72668E-05-2.98533E-05-2.88930E-05-9.72106E-07-8.49434E-19-2.77136E-19
 -1       527 9.66594E-05-2.92694E-05-2.88821E-05-1.35358E-06-1.13876E-19-2.35032E-18
 -1       528 9.61143E-05-2.87637E-05-2.88643E-05-1.40944E-06-2.26763E-19-3.06698E-18
 -1       529 9.41398E-05-2.76828E-05-2.84780E-05-1.23629E-07 1.02178E-18 1.35846E-19
 -1       530 9.39629E-05-2.79407E-05-2.82941E-05-7.58078E-07 4.40722E-19-2.34002E-19
 -1       531 9.39423E-05-2.81066E-05-2.82150E-05-1.05006E-06 8.14839E-19-3.48102E-19
 -1       532 9.40159E-05-2.82293E-05-2.81944E-05-1.15593E-06 6.79106E-19-4.75712E-20
 -1       533 9.41440E-05-2.83207E-05-2.82103E-05-1.15194E-06 6.45620E-19 2.63086E-19
 -1       534 9.43000E-05-2.83885E-05-2.82483E-05-1.08969E-06 8.13984E-19 1.45023E-19
 -1       535 9.44677E-05-2.84375E-05-2.82991E-05-1.00515E-06 4.75000E-19 1.67663E-19
 -1       536 9.46387E-05-2.84713E-05-2.83578E-05-9.23896E-07 2.66322E-19 1.44702E-19
 -1       537 9.48185E-05-2.84930E-05-2.84254E-05-8.63622E-07 4.19601E-19 2.31650E-19
 -1       538 9.49921E-05-2.85023E-05-2.84957E-05-8.46581E-07 8.26473E-19 1.51473E-19
 -1       539 9.51736E-05-2.85012E-05-2.85737E-05-8.84283E-07 2.26118E-19 6.54952E-20
 -1       540 9.53705E-05-2.84887E-05-2.86631E-05-9.93662E-07 4.86134E-20 2.59958E-20
 -1       541 9.55920E-05-2.84618E-05-2.87691E-05-1.19569E-06-7.02688E-19-3.09718E-19
 -1       542 9.58479E-05-2.84141E-05-2.88986E-05-1.51829E-06-4.48562E-20-1.32594E-19
 -1       543 9.61477E-05-2.83354E-05-2.90601E-05-1.99895E-06 3.12778E-19 3.09643E-19
 -1       544 9.65145E-05-2.81992E-05-2.92744E-05-2.73195E-06 1.59243E-19-6.48460E-19
 -1       545 9.69116E-05-2.79919E-05-2.95319E-05-3.72268E-06 7.34785E-21-1.28485E-18
 -1       546 9.73420E-05-2.76767E-05-2.98495E-05-5.08844E-06 1.07211E-18-5.22645E-20
 -1       547 9.77733E-05-2.72197E-05-3.02279E-05-6.93952E-06 6.44988E-19-5.23539E-19
 -1       548 9.81605E-05-2.66147E-05-3.06510E-05-9.38844E-06 3.39408E-19-9.92450E-19
 -1       549 9.84775E-05-2.59556E-05-3.10684E-05-1.25151E-05-5.72880E-19-8.90115E-19
 -1       550 9.88367E-05-2.55976E-05-3.13765E-05-1.62865E-05 2.96565E-19-8.46947E-19
 -1       551 9.98419E-05-2.66036E-05-3.13703E-05-2.06163E-05 1.36146E-20-1.19216E-18
 -1       552 1.03016E-04-3.09483E-05-3.08409E-05-2.42652E-05-1.49202E-18-1.88916E-18
 -1       553 1.11739E-04-4.16699E-05-2.98901E-05-2.54889E-05-1.83801E-18-2.05812E-18
 -1       554 1.29996E-04-5.91454E-05-3.02145E-05-2.03575E-05-6.36201E-19-1.29893E-18
 -1       555 1.09655E-04-4.87713E-05-2.58244E-05 3.02008E-05-9.68529E-20-1.87205E-18
 -1       556 9.73017E-05-3.27557E-05-2.75382E-05 2.83980E-05 1.05630E-18-2.95646E-18
 -1       557 9.34586E-05-2.52973E-05-2.91854E-05 2.39685E-05 3.90939E-19-3.41227E-18
 -1       558 9.33554E-05-2.32197E-05-3.00464E-05 1.94042E-05 1.77342E-18-2.36124E-18
 -1       559 9.42997E-05-2.35494E-05-3.03120E-05 1.51382E-05-4.08520E-20 4.36180E-19
 -1       560 9.51371E-05-2.45847E-05-3.02269E-05 1.17393E-05-6.25545E-19 5.88115E-19
 -1       561 9.56037E-05-2.55911E-05-2.99970E-05 8.98944E-06-7.80423E-19-2.10220E-18
 -1       562 9.57475E-05-2.63467E-05-2.97364E-05 6.80037E-06-1.42065E-18-2.30495E-18
 -1       563 9.56650E-05-2.68088E-05-2.95039E-05 5.02256E-06-1.47725E-18-7.79820E-19
 -1       564 9.25718E-05-2.41901E-05-2.93087E-05 1.85129E-06 1.28591E-18 7.07499E-19
 -1       565 9.24646E-05-2.41267E-05-2.92897E-05 4.18562E-07 1.23207E-18 2.10862E-19
 -1       566 9.42474E-05-2.57789E-05-2.93440E-05 3.78304E-06-8.31770E-19 5.00753E-20
 -1       567 9.31837E-05-2.47534E-05-2.93285E-05 3.07560E-06-1.52987E-18 2.36869E-18
 -1       568 9.27808E-05-2.44996E-05-2.92653E-05-9.05590E-07 5.24288E-19-4.28096E-18
 -1       569 9.33619E-05-2.51633E-05-2.92295E-05-1.89807E-06-2.55871E-19 8.38604E-19
 -1       570 9.40316E-05-2.59495E-05-2.91790E-05-2.46277E-06-1.16686E-18-8.50037E-19
 -1       571 9.46370E-05-2.67013E-05-2.91157E-05-2.61825E-06 9.07806E-19-2.74731E-18
 -1       572 9.51161E-05-2.73510E-05-2.90418E-05-2.46030E-06 1.28520E-18 2.16955E-18
 -1       573 9.54353E-05-2.78486E-05-2.89646E-05-2.10631E-06 8.49196E-19 1.05600E-18
 -1       574 9.56206E-05-2.82013E-05-2.88942E-05-1.65195E-06 8.60671E-19-3.23163E-18
 -1       575 2.62846E-05-1.17588E-05-5.51620E-06 9.36688E-06-2.54585E-18 1.83531E-18
 -1       576 5.64766E-05-3.17516E-05-1.00981E-05-3.56774E-05-2.26576E-18-3.50433E-18
 -1       577 9.45169E-05-2.72914E-05-2.88023E-05 9.83964E-07 1.25417E-18 3.32586E-19
 -1       578 8.45473E-05-4.64465E-05-1.59596E-05 3.90520E-05-6.94620E-19-1.35393E-18
 -1       579 1.29574E-04-6.05476E-05-2.95061E-05-2.90058E-05-6.33978E-19-1.89047E-18
 -1       580 2.30784E-05-1.16027E-05-4.22599E-06 1.61541E-05 5.37601E-19-7.10025E-19
 -1       581 1.14986E-04-5.77672E-05-2.43534E-05 3.90130E-05 3.97047E-20 4.57715E-19
 -1       582 2.94188E-05-1.69289E-05-4.73707E-06-2.86138E-05-1.61182E-18 3.29453E-18
 -1       583 5.25356E-05-2.77669E-05-9.97150E-06 3.36252E-05-6.12828E-19-4.90644E-19
 -1       584 7.50843E-05-4.12992E-05-1.41214E-05 4.85584E-05 4.41992E-19-1.45428E-18
 -1       585 2.73357E-05-1.32287E-05-5.38084E-06-1.35977E-05-6.33316E-19-3.45441E-18
 -1       586 8.91651E-05-1.28799E-05-3.27117E-05-1.93749E-06 1.20702E-19-2.77037E-18
 -1       587 1.38949E-04-6.81700E-05-3.02423E-05-1.89483E-05-3.61207E-19-1.38863E-18
 -1       588 1.39577E-04-1.78356E-05-5.27901E-05-1.00683E-05-1.97396E-18-1.87777E-19
 -1       589 1.02364E-04-5.42676E-05-2.03107E-05-3.61475E-05-9.64241E-19-2.21867E-18
 -1       590 1.42401E-04-3.23014E-05-4.77138E-05 9.34790E-06-2.77822E-18-1.58348E-18
 -1       591 5.74442E-05-3.34781E-05-9.80129E-06-4.66978E-05-1.88994E-20 2.97113E-18
 -1       592 1.59480E-04-6.70031E-05-3.97473E-05 6.36167E-06 4.75344E-19-1.28278E-18
 -1       593 1.39564E-04-5.80605E-05-3.50641E-05 1.64051E-05 7.58505E-19-2.22081E-19
 -1       594 1.45929E-04-4.10280E-05-4.53292E-05-3.36821E-06-6.46313E-19 5.03985E-19
 -1       595 1.35314E-04-4.88446E-06-5.65522E-05-1.47032E-06-2.44401E-18 4.85959E-19
 -1       596 1.38503E-04-1.07619E-05-5.53712E-05 7.64301E-06-9.35760E-19 1.79995E-20
 -1       597 4.40770E-05-2.50355E-05-7.56827E-06 4.09094E-05 7.02031E-19-1.50978E-18
 -1       598 1.45176E-04-5.26854E-05-3.99090E-05-7.61788E-06-2.20959E-18-1.56653E-18
 -1       599 9.16437E-05-4.98509E-05-1.76667E-05-4.75580E-05-5.22196E-19 1.09176E-18
 -1       600 9.61551E-05-2.31888E-05-3.12748E-05 9.58491E-06 2.54849E-18 1.02413E-18
 -1       601 9.13340E-05-1.58283E-05-3.23810E-05-7.76986E-06-1.49839E-18-2.50963E-18
 -1       602 9.57870E-05-2.84750E-05-2.88474E-05-1.29086E-06 1.06351E-18-1.22243E-18
 -1       603 1.66580E-04-5.36171E-05-4.88931E-05-1.91430E-05 1.90339E-18-1.06266E-18
 -1       604 9.58826E-05-2.74951E-05-2.93012E-05 3.28915E-06 9.91340E-19-3.86148E-19
 -1       605 3.15437E-05-8.51563E-06-9.20551E-06-8.61355E-06-2.15234E-18 1.88073E-18
 -1       606 1.37620E-04-5.00951E-05-3.77087E-05-9.24872E-07 5.87682E-19 1.50309E-18
 -1       607 9.15616E-05-1.68500E-05-3.20248E-05 2.44105E-06 1.07150E-18-2.59834E-18
 -1       608 9.13023E-05-1.64465E-05-3.20864E-05 8.39843E-07 6.46440E-19-2.76213E-18
 -1       609 9.28969E-05-1.89993E-05-3.16761E-05 5.26470E-06 1.73053E-18-1.87381E-18
 -1       610 9.39853E-05-2.09281E-05-3.13181E-05 6.14335E-06 1.84734E-18-1.35977E-18
 -1       611 1.33109E-04-2.93794E-05-4.48402E-05-1.21546E-05-1.50798E-19 9.50477E-19
 -1       612 9.50325E-05-2.36536E-05-3.05899E-05-4.74060E-06-1.55245E-18-1.42670E-18
 -1       613 9.52720E-05-2.40946E-05-3.04943E-05 5.14905E-06 1.85652E-18-5.07976E-19
 -1       614 9.49267E-05-2.83664E-05-2.85258E-05-1.08074E-06 4.30483E-19-5.62269E-19
 -1       615 9.54156E-05-2.57041E-05-2.98743E-05-2.43635E-06-1.09967E-18-1.18266E-18
 -1       616 9.54752E-05-2.69400E-05-2.93714E-05-8.61735E-07-8.35324E-19-1.09837E-18
 -1       617 9.54203E-05-2.76968E-05-2.90241E-05 1.45210E-07-5.78090E-19-1.17951E-18
 -1       618 9.53446E-05-2.81636E-05-2.87918E-05 7.41828E-07-5.90715E-19-1.37358E-18
 -1       619 9.52807E-05-2.84474E-05-2.86429E-05 1.05664E-06-6.68329E-19-1.44614E-18
 -1       620 9.52364E-05-2.86115E-05-2.85536E-05 1.18772E-06-2.91337E-19-1.45819E-18
 -1       621 9.52104E-05-2.86951E-05-2.85066E-05 1.20705E-06-5.89574E-19-9.05887E-19
 -1       622 9.51987E-05-2.87240E-05-2.84893E-05 1.16657E-06-6.98857E-19-7.20464E-19
 -1       623 9.51979E-05-2.87155E-05-2.84926E-05 1.10336E-06-9.97552E-19-6.99753E-19
 -1       624 9.52057E-05-2.86819E-05-2.85102E-05 1.04359E-06-5.92847E-19-8.32926E-19
 -1       625 9.52212E-05-2.86330E-05-2.85379E-05 1.00531E-06-6.85368E-19-6.73390E-19
 -1       626 9.52457E-05-2.85768E-05-2.85724E-05 1.00042E-06-3.35266E-19-1.45680E-19
 -1       627 9.52825E-05-2.85223E-05-2.86115E-05 1.03560E-06-5.23873E-19 4.93064E-19
 -1       628 9.53378E-05-2.84800E-05-2.86533E-05 1.11248E-06-9.76039E-19 3.10095E-19
 -1       629 9.54219E-05-2.84644E-05-2.86960E-05 1.22686E-06-7.01881E-19 6.53476E-19
 -1       630 9.55500E-05-2.84957E-05-2.87375E-05 1.36702E-06-7.87057E-19-2.21739E-19
 -1       631 9.57437E-05-2.86005E-05-2.87757E-05 1.51121E-06-2.76938E-19-7.65322E-19
 -1       632 9.60315E-05-2.88123E-05-2.88083E-05 1.62438E-06 6.73641E-19-1.56972E-18
 -1       633 9.64479E-05-2.91692E-05-2.88339E-05 1.65460E-06 1.33173E-18-1.75869E-18
 -1       634 9.70294E-05-2.97060E-05-2.88532E-05 1.53036E-06 1.46663E-19-1.30245E-18
 -1       635 9.78043E-05-3.04405E-05-2.88708E-05 1.16069E-06-6.97658E-19-1.38210E-18
 -1       636 9.87740E-05-3.13482E-05-2.88976E-05 4.42360E-07-7.67164E-19-7.97780E-19
 -1       637 9.98840E-05-3.23286E-05-2.89534E-05-7.19200E-07 2.73817E-19 2.02419E-19
 -1       638 1.00989E-04-3.31686E-05-2.90671E-05-2.36574E-06 6.10999E-19 4.71870E-19
 -1       639 1.01831E-04-3.35311E-05-2.92727E-05-4.41032E-06 5.74788E-19-1.48677E-19
 -1       640 1.02075E-04-3.30149E-05-2.95966E-05-6.54467E-06 2.49102E-19 1.41177E-19
 -1       641 1.01428E-04-3.13216E-05-3.00428E-05-8.18393E-06 7.24220E-19 1.03170E-18
 -1       642 9.98693E-05-2.85355E-05-3.05698E-05-8.54867E-06-2.14187E-19 1.07199E-18
 -1       643 9.78416E-05-2.53343E-05-3.10741E-05-6.98192E-06-2.92526E-19 1.98443E-18
 -1       644 9.62305E-05-2.29293E-05-3.14145E-05-3.44505E-06-2.03171E-18 3.25904E-18
 -1       645 9.58833E-05-2.24289E-05-3.14792E-05 1.15874E-06-5.39307E-19 4.60458E-18
 -1       646 9.69749E-05-2.40590E-05-3.12491E-05 5.34121E-06-6.96103E-19 3.43880E-18
 -1       647 9.89286E-05-2.70704E-05-3.07951E-05 7.86012E-06 2.18151E-19 1.41088E-18
 -1       648 1.00793E-04-3.01933E-05-3.02541E-05 8.30920E-06 1.32704E-18-8.49626E-19
 -1       649 1.01889E-04-3.24599E-05-2.97539E-05 7.11814E-06 1.90684E-19-1.23637E-18
 -1       650 1.02026E-04-3.35105E-05-2.93646E-05 5.06827E-06 8.92578E-19-2.30799E-18
 -1       651 1.01402E-04-3.34989E-05-2.91029E-05 2.87054E-06 6.24235E-19-2.72048E-18
 -1       652 1.00357E-04-3.28060E-05-2.89515E-05 9.68862E-07-3.44126E-19-3.04342E-19
 -1       653 9.91900E-05-3.18066E-05-2.88796E-05-4.49478E-07-1.19135E-19 1.13936E-18
 -1       654 9.80945E-05-3.07636E-05-2.88568E-05-1.36409E-06-5.51020E-20-3.49339E-20
 -1       655 9.71570E-05-2.98168E-05-2.88605E-05-1.83540E-06-3.01774E-18-1.00126E-18
 -1       656 9.63979E-05-2.90208E-05-2.88759E-05-1.94517E-06-1.88203E-18-1.97456E-18
 -1       657 9.49828E-05-2.81232E-05-2.86539E-05-7.73766E-07 8.69028E-19-5.61945E-19
 -1       658 9.50949E-05-2.77041E-05-2.88813E-05-1.35870E-07 1.08673E-18-1.73372E-19
 -1       659 9.49124E-05-2.85143E-05-2.84565E-05-1.20262E-06 3.81373E-19-2.54875E-19
 -1       660 9.49287E-05-2.85974E-05-2.84278E-05-1.21282E-06 6.07215E-19-5.33409E-20
 -1       661 9.49650E-05-2.86353E-05-2.84271E-05-1.16444E-06 4.97726E-19 2.36725E-19
 -1       662 9.50139E-05-2.86404E-05-2.84459E-05-1.09562E-06 2.99633E-19 6.31392E-20
 -1       663 9.50731E-05-2.86183E-05-2.84807E-05-1.03249E-06 5.36365E-19-3.07460E-21
 -1       664 9.51336E-05-2.85750E-05-2.85252E-05-1.00367E-06 8.42331E-19-7.60937E-21
 -1       665 9.51964E-05-2.85103E-05-2.85797E-05-1.02401E-06 6.55318E-19 8.51130E-21
 -1       666 9.52591E-05-2.84208E-05-2.86448E-05-1.11127E-06-3.18622E-19 6.26061E-19
 -1       667 9.53175E-05-2.82986E-05-2.87222E-05-1.28466E-06 1.78304E-19 5.82090E-19
 -1       668 9.53640E-05-2.81302E-05-2.88140E-05-1.56706E-06 1.68318E-19-1.58761E-19
 -1       669 9.53842E-05-2.78953E-05-2.89232E-05-1.98686E-06-1.15799E-20-5.42742E-19
 -1       670 9.53465E-05-2.75418E-05-2.90582E-05-2.61602E-06 4.81091E-19-5.13081E-19
 -1       671 9.52060E-05-2.70560E-05-2.92057E-05-3.44342E-06 1.74402E-19-2.62011E-19
 -1       672 9.48907E-05-2.63670E-05-2.93652E-05-4.54907E-06 2.94559E-19-6.85544E-19
 -1       673 9.42879E-05-2.54046E-05-2.95186E-05-5.99778E-06 1.06531E-18-5.11364E-19
 -1       674 9.32427E-05-2.41067E-05-2.96261E-05-7.85846E-06 7.55191E-19 2.97561E-19
 -1       675 9.15684E-05-2.24691E-05-2.96098E-05-1.02016E-05 2.44503E-19-4.57214E-19
 -1       676 8.91082E-05-2.06546E-05-2.93316E-05-1.31154E-05-3.31066E-19-1.23329E-18
 -1       677 8.57249E-05-1.92146E-05-2.84871E-05-1.69407E-05 8.65355E-20-1.33916E-18
 -1       678 8.23536E-05-1.97093E-05-2.67796E-05-2.17096E-05 1.00387E-20-1.21863E-18
 -1       679 8.09469E-05-2.49287E-05-2.37997E-05-2.80313E-05-1.34576E-18-2.57794E-18
 -1       680 9.53357E-05-2.59373E-05-2.97382E-05 2.60472E-06 1.57197E-18-2.33915E-19
 -1       681 8.02987E-05-3.89621E-05-1.73597E-05-4.36001E-05-1.04548E-18 6.14443E-19
 -1       682 5.22758E-05-1.79037E-05-1.41833E-05-2.59758E-05-1.48289E-18-3.43525E-18
 -1       683 7.81048E-05-1.64190E-05-2.63873E-05 1.76851E-05-1.27045E-18-3.18291E-19
 -1       684 8.35067E-05-1.78978E-05-2.81066E-05 1.38428E-05-9.20064E-20 7.42988E-19
 -1       685 8.75182E-05-2.00782E-05-2.88985E-05 1.11432E-05 1.02138E-21 3.86433E-19
 -1       686 9.03828E-05-2.21444E-05-2.92423E-05 8.94878E-06 8.06361E-19-1.33956E-18
 -1       687 9.22992E-05-2.37983E-05-2.93560E-05 7.12036E-06-8.86670E-19-1.10209E-18
 -1       688 9.34942E-05-2.49650E-05-2.93684E-05 5.57891E-06-2.47825E-18-1.14418E-18
 -1       689 9.24076E-05-2.48922E-05-2.89357E-05-2.20126E-06 8.27768E-19-2.57210E-18
 -1       690 9.12656E-05-2.35730E-05-2.90114E-05 1.06029E-06 1.25420E-18-4.96079E-19
 -1       691 9.34608E-05-2.59461E-05-2.89354E-05-3.06394E-06-7.75738E-19-9.26754E-19
 -1       692 9.15748E-05-2.40143E-05-2.89550E-05-7.67227E-07-8.46208E-19-3.32650E-18
 -1       693 9.44570E-05-2.69358E-05-2.89379E-05-3.35358E-06-6.86043E-19-1.57706E-19
 -1       694 9.52548E-05-2.77446E-05-2.89330E-05-3.19457E-06 1.85825E-18 6.13568E-20
 -1       695 9.57693E-05-2.82937E-05-2.89177E-05-2.74276E-06-1.24593E-19 1.61363E-18
 -1       696 1.35754E-04-5.72259E-05-3.37104E-05-1.04333E-05-4.63850E-19-1.92001E-18
 -1       697 4.98270E-05-1.45346E-05-1.46272E-05 2.19113E-05 7.27257E-19 2.50648E-18
 -1       698 9.52333E-05-2.70386E-05-2.92243E-05 9.23543E-07 1.20620E-18-1.69317E-19
 -1       699 7.27497E-05-1.76792E-05-2.34189E-05 2.28397E-05 1.14154E-18-9.34350E-19
 -1       700 7.35313E-05-2.68555E-05-1.95394E-05 3.16274E-05 8.07050E-19-1.00093E-18
 -1       701 8.62093E-05-3.81284E-05-2.02231E-05-3.48850E-05-1.36960E-18-2.67395E-18
 -1       702 4.27355E-05-1.40925E-05-1.17300E-05 2.74080E-05 6.61374E-19-8.93090E-20
 -1       703 9.59783E-05-2.85742E-05-2.88863E-05-1.84867E-06 1.24191E-18-3.09515E-18
 -1       704 1.12987E-04-5.49196E-05-2.47463E-05-3.40699E-05-3.85135E-20-2.00949E-18
 -1       705 9.20847E-05-1.76768E-05-3.18950E-05 3.94816E-06 1.46331E-18-2.32644E-18
 -1       706 3.71289E-05-6.74589E-06-1.24325E-05 6.04309E-07 4.80322E-19-7.07749E-19
 -1       707 9.20432E-05-1.76195E-05-3.19016E-05-3.89751E-06-4.97691E-19-2.27849E-18
 -1       708 1.27611E-04-5.86694E-05-2.95541E-05 2.18044E-05 1.29370E-18 4.49219E-19
 -1       709 9.95135E-05-4.76658E-05-2.19848E-05 3.88446E-05 1.60417E-18 2.53878E-19
 -1       710 5.28162E-05-2.17281E-05-1.28178E-05-3.59755E-05-2.68681E-18 3.16759E-18
 -1       711 1.22733E-04-9.61080E-06-4.90473E-05-7.89891E-06-2.21388E-18 1.52135E-20
 -1       712 1.21900E-04-6.84060E-06-4.98537E-05 4.64131E-06-1.35250E-18-9.23266E-20
 -1       713 6.22824E-05-2.75053E-05-1.44555E-05 4.03984E-05 1.45062E-18-1.40213E-18
 -1       714 1.36536E-04-4.41888E-05-3.98522E-05 6.41521E-06-2.28432E-18-2.52907E-18
 -1       715 1.27387E-04-1.91407E-05-4.68938E-05 1.23189E-05-8.10108E-19-8.05211E-20
 -1       716 9.28543E-05-1.89067E-05-3.16985E-05-5.28825E-06-1.09286E-18-2.22639E-18
 -1       717 9.12953E-05-1.64371E-05-3.20874E-05-7.83949E-07 2.98030E-19-2.54978E-18
 -1       718 1.20723E-04-1.93772E-05-4.37031E-05-1.28015E-05-4.95355E-19 1.82069E-18
 -1       719 9.17150E-05-2.37743E-05-2.91183E-05 2.92733E-06 1.73033E-18 3.24932E-18
 -1       720 9.22992E-05-2.41618E-05-2.92009E-05 4.35347E-06-5.44928E-19 2.25112E-18
 -1       721 4.54828E-05-8.76110E-06-1.52142E-05 8.12053E-06 1.44968E-19 3.97129E-18
 -1       722 4.64267E-05-1.16334E-05-1.44552E-05-2.04832E-05-1.58189E-18 2.48472E-18
 -1       723 1.26357E-04-3.12135E-05-4.10036E-05 1.27384E-05-1.49458E-18 1.50171E-18
 -1       724 9.15379E-05-1.68175E-05-3.20285E-05-2.37985E-06-1.21275E-19-2.27748E-18
 -1       725 9.40846E-05-2.09025E-05-3.13706E-05-6.99198E-06-1.63352E-18-1.62115E-18
 -1       726 9.61434E-05-2.87340E-05-2.88889E-05-2.38909E-06-1.88826E-18-3.43143E-19
 -1       727 9.46323E-05-2.27209E-05-3.08192E-05 3.90510E-06 1.43629E-18-1.39781E-18
 -1       728 9.55553E-05-4.19313E-05-2.28719E-05-3.35993E-05-7.98980E-19-1.16051E-18
 -1       729 9.55663E-05-2.87378E-05-2.86408E-05-1.14859E-06 3.35303E-19-6.70106E-19
 -1       730 7.55414E-05-2.92881E-05-1.95847E-05-3.40086E-05-1.22609E-18 7.70668E-20
 -1       731 9.49272E-05-2.34173E-05-3.06465E-05-3.52188E-06-1.11505E-18-1.76130E-18
 -1       732 9.55743E-05-2.55014E-05-3.00312E-05-1.79989E-06-8.61517E-19-1.49445E-18
 -1       733 9.58690E-05-2.68745E-05-2.95692E-05-5.74268E-07-7.33103E-19-1.31387E-18
 -1       734 9.59605E-05-2.77566E-05-2.92303E-05 2.34947E-07-8.00461E-19-1.37905E-18
 -1       735 9.59469E-05-2.83085E-05-2.89879E-05 7.23544E-07-6.33906E-19-1.28316E-18
 -1       736 9.58825E-05-2.86363E-05-2.88198E-05 9.84730E-07-5.41505E-19-1.01366E-18
 -1       737 9.57964E-05-2.88112E-05-2.87080E-05 1.09491E-06-2.15142E-19-1.26553E-18
 -1       738 9.57036E-05-2.88813E-05-2.86381E-05 1.11344E-06-2.02950E-19-7.72040E-19
 -1       739 9.56116E-05-2.88796E-05-2.85994E-05 1.08487E-06-5.49500E-19-4.31546E-19
 -1       740 9.55241E-05-2.88293E-05-2.85835E-05 1.04186E-06-7.75185E-19 6.24984E-20
 -1       741 9.54429E-05-2.87469E-05-2.85840E-05 1.00802E-06-4.06807E-19-2.65080E-19
 -1       742 9.53693E-05-2.86452E-05-2.85960E-05 1.00018E-06-4.30498E-19-9.88100E-20
 -1       743 9.53055E-05-2.85355E-05-2.86157E-05 1.02996E-06-1.90604E-19-1.59082E-19
 -1       744 9.52564E-05-2.84303E-05-2.86397E-05 1.10461E-06-6.27298E-19 4.07645E-20
 -1       745 9.52306E-05-2.83452E-05-2.86651E-05 1.22713E-06-7.30084E-19-2.82259E-19
 -1       746 9.52435E-05-2.83023E-05-2.86891E-05 1.39539E-06-1.42890E-18-7.55923E-19
 -1       747 9.53195E-05-2.83322E-05-2.87088E-05 1.60041E-06-2.19646E-19-1.27098E-19
 -1       748 9.54949E-05-2.84763E-05-2.87222E-05 1.82331E-06-3.29648E-19 1.02464E-19
 -1       749 9.58195E-05-2.87866E-05-2.87284E-05 2.03098E-06 6.40540E-19-5.72425E-19
 -1       750 9.63567E-05-2.93222E-05-2.87292E-05 2.17031E-06 1.30065E-18-1.16708E-18
 -1       751 9.71777E-05-3.01379E-05-2.87315E-05 2.16144E-06-1.64497E-19-5.14439E-19
 -1       752 9.83459E-05-3.12619E-05-2.87505E-05 1.89176E-06 1.77154E-20 6.28857E-19
 -1       753 9.98860E-05-3.26554E-05-2.88135E-05 1.21683E-06-6.64035E-21 1.03765E-18
 -1       754 1.01734E-04-3.41568E-05-2.89623E-05-2.16322E-08 6.96233E-19 1.19347E-18
 -1       755 1.03668E-04-3.54127E-05-2.92534E-05-1.93918E-06 3.45012E-19 1.18011E-18
 -1       756 1.05256E-04-3.58532E-05-2.97459E-05-4.47492E-06 1.70490E-19 1.01830E-18
 -1       757 1.05916E-04-3.48161E-05-3.04709E-05-7.22024E-06 7.33593E-20 1.10011E-18
 -1       758 1.05176E-04-3.18746E-05-3.14128E-05-9.25767E-06 3.10093E-19 1.82494E-19
 -1       759 1.02993E-04-2.72864E-05-3.24520E-05-9.40210E-06 4.77867E-19 8.50231E-19
 -1       760 1.00375E-04-2.26305E-05-3.33231E-05-6.67535E-06 1.14700E-19 1.00071E-18
 -1       761 9.88357E-05-2.00794E-05-3.37517E-05-1.46276E-06-7.59864E-19 2.94454E-18
 -1       762 9.94458E-05-2.10875E-05-3.35860E-05 4.26165E-06-2.05257E-18 1.99703E-18
 -1       763 1.01757E-04-2.50357E-05-3.28879E-05 8.29946E-06-1.40774E-18 1.86465E-18
 -1       764 1.04363E-04-2.99701E-05-3.18823E-05 9.40658E-06-1.12012E-18-3.26140E-19
 -1       765 1.05845E-04-3.38105E-05-3.08710E-05 8.06949E-06 2.53289E-19-1.55719E-18
 -1       766 1.05830E-04-3.57517E-05-3.00346E-05 5.44592E-06 6.16467E-19-2.35455E-19
 -1       767 1.04609E-04-3.59231E-05-2.94382E-05 2.67232E-06 1.20614E-18-4.02210E-19
 -1       768 1.02777E-04-3.49504E-05-2.90694E-05 3.89086E-07 1.12539E-18-1.12304E-19
 -1       769 1.00848E-04-3.34676E-05-2.88780E-05-1.20084E-06 4.10619E-19-1.16678E-18
 -1       770 9.91327E-05-3.19187E-05-2.88065E-05-2.14349E-06-4.58982E-19-3.23994E-18
 -1       771 9.77491E-05-3.05301E-05-2.88082E-05-2.56107E-06-1.76881E-18-4.18486E-18
 -1       772 9.68325E-05-2.95272E-05-2.88448E-05-2.55906E-06-2.62215E-18-9.48528E-19
 -1       773 9.56937E-05-2.82728E-05-2.88946E-05-7.64174E-07 5.33654E-19-4.45434E-19
 -1       774 9.57338E-05-2.77391E-05-2.91406E-05-2.10687E-07 9.98408E-19-5.79122E-19
 -1       775 9.55051E-05-2.88092E-05-2.85840E-05-1.16378E-06 4.33008E-19-5.99006E-19
 -1       776 9.54505E-05-2.88153E-05-2.85580E-05-1.12996E-06 5.19314E-19-2.75972E-19
 -1       777 9.53990E-05-2.87703E-05-2.85552E-05-1.08043E-06 7.60012E-19-8.24764E-19
 -1       778 9.53526E-05-2.86886E-05-2.85703E-05-1.04767E-06 3.66433E-19-7.58807E-19
 -1       779 9.53045E-05-2.85732E-05-2.85992E-05-1.04995E-06 2.43592E-19-3.36255E-19
 -1       780 9.52473E-05-2.84216E-05-2.86396E-05-1.10476E-06 1.46118E-19-3.00176E-19
 -1       781 9.51698E-05-2.82254E-05-2.86904E-05-1.22813E-06 4.90012E-20-6.45676E-19
 -1       782 9.50547E-05-2.79696E-05-2.87507E-05-1.43609E-06 8.93329E-20-7.55705E-19
 -1       783 9.48761E-05-2.76307E-05-2.88194E-05-1.74564E-06-1.07019E-19-1.65387E-19
 -1       784 9.45737E-05-2.71464E-05-2.88972E-05-2.19965E-06-3.62337E-19 6.39396E-19
 -1       785 9.41093E-05-2.65109E-05-2.89705E-05-2.77440E-06 2.38272E-19 6.48187E-19
 -1       786 9.33792E-05-2.56421E-05-2.90298E-05-3.50401E-06 3.10842E-19-5.98649E-20
 -1       787 9.22445E-05-2.44597E-05-2.90502E-05-4.39868E-06 5.02230E-19-2.42581E-19
 -1       788 9.05126E-05-2.28783E-05-2.89858E-05-5.45816E-06 6.37010E-19-4.29842E-19
 -1       789 8.79273E-05-2.08312E-05-2.87554E-05-6.67182E-06 5.94328E-19-5.60799E-19
 -1       790 8.41723E-05-1.83209E-05-2.82229E-05-8.04265E-06 6.22790E-19-4.27486E-19
 -1       791 7.85441E-05-1.53720E-05-2.70640E-05-9.74775E-06-3.04491E-19-8.86215E-19
 -1       792 7.12088E-05-1.28201E-05-2.49777E-05-1.19246E-05-8.82794E-21-1.33857E-18
 -1       793 6.16242E-05-1.16567E-05-2.11865E-05-1.60105E-05 8.88236E-19-2.13004E-18
 -1       794 6.23779E-05-9.99508E-06-2.23087E-05 9.37867E-06-1.12474E-18 5.22683E-18
 -1       795 7.96925E-05-1.61261E-05-2.72391E-05 7.07067E-06 1.38195E-19 4.19157E-18
 -1       796 7.24653E-05-1.30083E-05-2.54596E-05 7.88865E-06-1.13724E-18 4.76608E-18
 -1       797 8.83480E-05-2.12996E-05-2.87366E-05 5.64237E-06-2.00246E-19 3.82677E-18
 -1       798 9.06855E-05-2.29494E-05-2.90298E-05 5.06369E-06-6.74453E-19 4.97546E-18
 -1       799 9.40324E-05-2.70709E-05-2.86981E-05-4.26147E-06 8.09144E-19-1.27104E-18
 -1       800 9.24516E-05-2.56449E-05-2.86316E-05-3.79658E-06 1.41028E-18-2.46904E-18
 -1       801 9.56319E-05-2.85734E-05-2.87394E-05-1.03654E-06 3.68554E-19-5.25961E-19
 -1       802 9.53300E-05-2.82077E-05-2.87668E-05-4.05906E-06 9.15030E-21 1.80549E-18
 -1       803 1.14505E-04-1.37035E-05-4.34778E-05 9.20434E-06-1.50052E-18 2.94509E-19
 -1       804 9.61688E-05-2.89247E-05-2.88188E-05-3.44989E-06 9.30798E-19-1.60848E-18
 -1       805 1.27909E-04-3.84480E-05-3.85197E-05-1.07608E-05 2.44832E-19 1.58449E-18
 -1       806 8.47678E-05-1.89558E-05-2.82046E-05 6.38036E-06 6.36756E-19 2.41646E-18
 -1       807 1.12451E-04-8.85617E-06-4.47084E-05-1.83413E-06-2.01671E-18 3.94135E-20
 -1       808 8.12102E-05-3.30051E-05-2.04552E-05 3.50115E-05 8.01846E-19-1.12375E-18
 -1       809 1.14161E-04-5.12543E-05-2.69339E-05 2.41856E-05 1.07190E-18 7.30533E-20
 -1       810 1.28742E-04-5.30366E-05-3.25099E-05 5.46104E-06 1.70201E-19 1.09836E-18
 -1       811 9.32102E-05-1.97722E-05-3.14744E-05 1.23225E-06 8.02100E-19-2.31307E-18
 -1       812 9.52156E-05-2.44770E-05-3.03165E-05 3.42687E-06 1.40066E-18-8.56472E-19
 -1       813 1.22646E-04-5.42445E-05-2.93439E-05-1.66705E-05-7.65965E-20-1.25468E-18
 -1       814 6.41812E-05-2.13340E-05-1.80704E-05 3.10175E-05 1.23632E-18-4.16158E-19
 -1       815 1.29226E-04-4.91351E-05-3.44136E-05 1.19030E-06-9.28973E-19-5.62827E-19
 -1       816 4.96209E-05-9.32687E-06-1.70226E-05 1.36962E-05 1.04491E-18-1.85527E-19
 -1       817 9.31005E-05-1.95738E-05-3.15125E-05 1.98467E-08 4.06350E-19-2.40919E-18
 -1       818 1.10600E-04-1.41548E-05-4.14943E-05-7.79396E-06-2.63692E-19-3.44584E-19
 -1       819 9.56943E-05-2.69037E-05-2.94816E-05 6.82220E-07 1.15878E-18-6.68931E-19
 -1       820 8.97333E-05-2.26080E-05-2.87689E-05 1.96771E-06 7.05569E-19 6.98168E-20
 -1       821 9.09056E-05-2.41784E-05-2.85970E-05-2.52885E-06 9.91010E-19-2.38687E-18
 -1       822 8.98465E-05-2.30360E-05-2.86319E-05-4.94680E-07 9.49035E-19-2.15075E-18
 -1       823 4.99943E-05-7.98382E-06-1.77149E-05-4.07754E-06-1.93389E-19 4.39687E-18
 -1       824 1.15687E-04-2.32663E-05-3.97476E-05 1.24960E-05-1.91672E-18 7.09291E-20
 -1       825 9.55188E-05-2.58933E-05-2.98394E-05 1.82371E-06 1.17317E-18-6.69380E-19
 -1       826 9.96906E-05-4.17255E-05-2.47325E-05 2.79666E-05 7.97237E-20 3.96137E-20
 -1       827 1.23611E-04-3.98922E-05-3.60103E-05 9.51595E-06-6.09483E-19-3.73621E-19
 -1       828 9.40429E-05-2.13581E-05-3.11497E-05 3.31834E-06 1.28064E-18-2.00112E-18
 -1       829 9.35374E-05-2.03686E-05-3.13582E-05 2.37167E-06 1.22532E-18-2.14949E-18
 -1       830 9.34984E-05-2.03220E-05-3.13634E-05-2.32374E-06-3.27331E-19-1.96923E-18
 -1       831 5.82729E-05-8.75215E-06-2.10855E-05-2.59732E-06 9.50804E-19-1.10721E-18
 -1       832 6.53829E-05-1.92048E-05-1.96007E-05-2.56253E-05-8.39059E-19 1.86513E-18
 -1       833 1.10736E-04-4.80225E-05-2.68326E-05-2.24686E-05-5.71370E-19-2.18460E-18
 -1       834 9.39895E-05-2.12892E-05-3.11603E-05-3.26829E-06-8.45772E-19-1.63531E-18
 -1       835 9.65636E-05-2.92959E-05-2.88309E-05-3.03640E-06-7.46145E-19-2.01009E-18
 -1       836 9.60222E-05-2.89117E-05-2.87616E-05-1.02128E-06 3.53359E-19-7.78478E-19
 -1       837 8.75913E-05-3.27193E-05-2.34230E-05-2.77038E-05-6.99722E-19-1.83420E-18
 -1       838 9.58023E-05-2.55943E-05-3.00908E-05-1.17252E-06-7.15120E-19-1.38127E-18
 -1       839 9.61975E-05-2.69762E-05-2.96663E-05-2.78444E-07-8.35251E-19-1.32265E-18
 -1       840 9.63595E-05-2.78949E-05-2.93420E-05 3.10994E-07-4.75522E-19-1.14680E-18
 -1       841 9.63729E-05-2.84714E-05-2.91007E-05 6.68189E-07-5.34540E-19-9.52034E-19
 -1       842 9.62985E-05-2.88047E-05-2.89260E-05 8.57869E-07-3.84023E-19-8.45887E-19
 -1       843 9.61755E-05-2.89670E-05-2.88037E-05 9.36405E-07-1.20929E-19-1.15434E-18
 -1       844 9.60279E-05-2.90100E-05-2.87220E-05 9.49247E-07-2.89642E-20-1.22335E-18
 -1       845 9.58702E-05-2.89707E-05-2.86712E-05 9.31425E-07-3.38057E-19-9.01723E-19
 -1       846 9.57102E-05-2.88751E-05-2.86436E-05 9.09322E-07-7.93928E-19-6.75619E-19
 -1       847 9.55522E-05-2.87423E-05-2.86328E-05 9.02764E-07-7.82883E-20-4.02270E-19
 -1       848 9.53987E-05-2.85872E-05-2.86335E-05 9.26820E-07-7.13106E-20-3.64869E-19
 -1       849 9.52527E-05-2.84234E-05-2.86411E-05 9.93185E-07-5.45278E-19-1.35719E-19
 -1       850 9.51202E-05-2.82665E-05-2.86516E-05 1.11102E-06-7.76947E-19 3.52808E-21
 -1       851 9.50133E-05-2.81375E-05-2.86611E-05 1.28718E-06-1.18165E-18 4.96786E-19
 -1       852 9.49530E-05-2.80660E-05-2.86658E-05 1.52555E-06-6.07678E-19 7.48935E-19
 -1       853 9.49741E-05-2.80945E-05-2.86627E-05 1.82529E-06-4.43435E-19 4.44715E-19
 -1       854 9.51296E-05-2.82803E-05-2.86497E-05 2.17722E-06 9.75916E-20-1.41681E-19
 -1       855 9.54942E-05-2.86972E-05-2.86273E-05 2.55773E-06 6.86396E-19-1.35196E-19
 -1       856 9.61661E-05-2.94305E-05-2.86010E-05 2.91916E-06 1.01490E-18 8.20157E-20
 -1       857 9.72615E-05-3.05641E-05-2.85847E-05 3.17535E-06 4.57861E-19 4.94010E-19
 -1       858 9.88953E-05-3.21484E-05-2.86058E-05 3.18242E-06 1.88207E-19 7.75897E-19
 -1       859 1.01132E-04-3.41382E-05-2.87118E-05 2.72718E-06 6.80538E-19 9.73378E-19
 -1       860 1.03930E-04-3.63214E-05-2.89755E-05 1.53375E-06 2.82633E-19 9.32836E-19
 -1       861 1.06961E-04-3.81330E-05-2.94982E-05-7.00111E-07 5.63820E-20 1.34993E-18
 -1       862 1.09568E-04-3.86661E-05-3.03903E-05-4.04772E-06 4.42634E-19 7.64421E-19
 -1       863 1.10681E-04-3.66805E-05-3.17027E-05-7.93984E-06 1.07241E-19 3.62320E-19
 -1       864 1.09324E-04-3.16588E-05-3.33051E-05-1.05655E-05-1.21639E-19-4.93774E-19
 -1       865 1.06109E-04-2.46206E-05-3.49408E-05-1.01875E-05-8.24633E-20-4.05945E-19
 -1       866 1.03202E-04-1.87641E-05-3.62017E-05-5.53291E-06 1.29221E-18-1.13597E-18
 -1       867 1.02069E-04-1.69905E-05-3.65058E-05 2.05959E-06-1.32042E-18-1.84033E-19
 -1       868 1.04514E-04-2.13624E-05-3.56560E-05 8.39957E-06-2.02403E-18-5.49840E-19
 -1       869 1.08019E-04-2.85009E-05-3.40982E-05 1.07304E-05-2.23231E-18-9.26810E-19
 -1       870 1.10546E-04-3.48982E-05-3.24109E-05 9.20120E-06-6.03504E-19-8.16719E-19
 -1       871 1.10538E-04-3.83519E-05-3.09353E-05 5.53220E-06 1.22429E-18-3.75734E-19
 -1       872 1.08516E-04-3.88420E-05-2.98636E-05 1.79056E-06 9.23673E-19-7.51200E-19
 -1       873 1.05614E-04-3.74899E-05-2.91974E-05-1.01831E-06 1.07601E-18-1.68542E-18
 -1       874 1.02679E-04-3.53663E-05-2.88494E-05-2.71445E-06 3.86990E-19-2.34406E-18
 -1       875 1.00181E-04-3.31865E-05-2.87125E-05-3.51142E-06-1.38676E-18-1.71113E-18
 -1       876 9.82571E-05-3.12755E-05-2.87055E-05-3.70641E-06-1.26445E-18-2.06912E-18
 -1       877 9.61956E-05-2.78613E-05-2.92862E-05-3.08781E-07 6.19539E-19-8.66727E-19
 -1       878 9.57667E-05-2.89246E-05-2.86466E-05-1.01188E-06 5.57519E-19-7.78043E-19
 -1       879 9.56325E-05-2.88293E-05-2.86300E-05-9.84844E-07 5.23058E-19-5.47203E-20
 -1       880 9.54922E-05-2.86848E-05-2.86317E-05-9.74756E-07 1.81114E-19-1.51221E-19
 -1       881 9.53382E-05-2.84937E-05-2.86477E-05-9.98275E-07 1.74566E-19-3.51633E-19
 -1       882 9.51580E-05-2.82511E-05-2.86744E-05-1.06827E-06 4.86855E-19-5.87349E-19
 -1       883 9.49319E-05-2.79447E-05-2.87088E-05-1.19454E-06-2.24566E-19-6.09840E-19
 -1       884 9.46314E-05-2.75543E-05-2.87474E-05-1.38414E-06-3.11427E-19-4.32938E-19
 -1       885 9.41885E-05-2.70199E-05-2.87865E-05-1.65376E-06-2.72410E-19-1.19122E-18
 -1       886 9.35800E-05-2.63478E-05-2.88138E-05-1.97349E-06-2.69279E-19-1.78337E-18
 -1       887 9.27022E-05-2.54629E-05-2.88169E-05-2.33891E-06 5.82954E-19-1.68873E-18
 -1       888 9.14303E-05-2.42978E-05-2.87711E-05-2.71596E-06-1.01140E-19-1.16271E-18
 -1       889 8.95938E-05-2.27786E-05-2.86353E-05-3.04413E-06 6.30694E-19-2.68132E-19
 -1       890 8.69630E-05-2.08359E-05-2.83408E-05-3.22840E-06 9.26065E-19-5.74757E-19
 -1       891 8.32334E-05-1.84266E-05-2.77763E-05-3.14629E-06 3.54042E-19-8.72291E-19
 -1       892 7.76968E-05-1.54363E-05-2.66813E-05-2.58267E-06 5.22769E-19-5.23916E-19
 -1       893 7.00207E-05-1.20723E-05-2.47965E-05-1.65885E-06 2.90137E-19-9.61792E-19
 -1       894 8.04290E-05-1.71897E-05-2.71020E-05 1.19521E-06 9.62573E-19 5.71544E-18
 -1       895 8.50014E-05-1.96446E-05-2.80074E-05 2.17362E-06 3.69344E-19 5.88683E-18
 -1       896 9.32561E-05-2.70377E-05-2.83793E-05-5.49530E-06 1.79143E-18-1.41350E-18
 -1       897 8.99865E-05-2.26225E-05-2.88688E-05 3.50884E-06-2.49793E-19 5.70672E-18
 -1       898 9.58997E-05-2.89593E-05-2.86887E-05-1.03438E-06 4.76105E-19-7.16792E-19
 -1       899 1.22857E-04-4.36012E-05-3.40830E-05-5.89512E-06-5.23450E-19 1.96257E-19
 -1       900 1.07070E-04-1.32557E-05-4.04230E-05 3.55312E-06-1.68705E-18-2.45559E-18
 -1       901 9.66469E-05-2.97537E-05-2.86708E-05-4.38696E-06-6.78260E-19-9.69561E-19
 -1       902 1.21427E-04-4.92164E-05-3.09309E-05-5.17302E-06-1.17153E-19-6.44039E-19
 -1       903 9.61980E-05-2.84192E-05-2.90480E-05-7.15633E-07 4.51140E-19-7.98192E-19
 -1       904 9.61277E-05-2.87513E-05-2.88756E-05-9.34572E-07 6.46854E-20-7.50262E-19
 -1       905 9.31994E-05-1.97562E-05-3.14769E-05-1.19267E-06 2.00886E-20-2.01678E-18
 -1       906 1.16548E-04-2.75114E-05-3.82725E-05-1.28996E-05-3.06057E-19 1.05319E-18
 -1       907 9.51078E-05-2.37407E-05-3.05827E-05-2.16097E-06-7.09083E-19-1.40578E-18
 -1       908 1.18145E-04-4.90906E-05-2.95975E-05 1.07233E-05-1.37332E-19-6.41297E-20
 -1       909 6.56373E-05-1.52985E-05-2.14260E-05 1.81647E-05 1.01816E-18 1.93560E-19
 -1       910 9.52757E-05-2.86895E-05-2.85345E-05-5.25532E-06 1.36518E-18-2.02703E-18
 -1       911 9.53713E-05-2.46998E-05-3.02883E-05 2.32720E-06 1.18165E-18-1.33961E-18
 -1       912 7.97136E-05-2.78216E-05-2.21611E-05 2.82821E-05 1.07229E-18-1.16120E-18
 -1       913 9.60591E-05-2.69626E-05-2.96130E-05 3.64090E-07 7.81995E-19-1.32867E-18
 -1       914 9.46805E-05-2.25810E-05-3.08992E-05-1.19055E-06-3.48393E-19-1.67073E-18
 -1       915 1.18127E-04-4.53179E-05-3.12061E-05 1.69831E-07-4.88225E-19-1.59846E-19
 -1       916 9.72909E-05-3.01727E-05-2.87647E-05-3.38176E-06-9.31296E-19-3.45845E-18
 -1       917 1.09688E-04-4.52175E-05-2.75963E-05 1.72540E-05-3.81464E-19-1.16156E-19
 -1       918 6.14980E-05-1.26579E-05-2.08273E-05-1.34544E-05-1.07481E-18 3.20017E-18
 -1       919 9.08735E-05-2.49725E-05-2.82429E-05-4.77296E-06 3.26804E-18-2.33798E-18
 -1       920 6.49137E-05-1.10288E-05-2.30535E-05-1.76545E-06-1.12378E-18 5.05315E-18
 -1       921 8.77782E-05-2.12414E-05-2.85160E-05 3.10491E-06-1.65372E-18 5.65540E-18
 -1       922 1.20134E-04-4.45888E-05-3.23995E-05 3.03848E-06-3.43980E-19-1.46777E-18
 -1       923 7.39385E-05-1.42688E-05-2.55580E-05-6.12102E-07-1.40801E-18 4.56650E-18
 -1       924 9.46938E-05-2.26041E-05-3.08969E-05 1.22016E-06 8.09406E-19-1.93455E-18
 -1       925 9.45514E-05-2.22661E-05-3.09793E-05 4.30990E-07 4.53075E-19-2.00355E-18
 -1       926 9.48978E-05-2.31002E-05-3.07688E-05-1.73318E-06-6.15133E-19-1.56341E-18
 -1       927 8.75320E-05-2.16004E-05-2.82562E-05-2.88158E-07 8.25832E-19-6.71688E-19
 -1       928 9.61330E-05-2.90496E-05-2.87500E-05-8.41659E-07 3.94922E-19-2.15396E-19
 -1       929 7.60491E-05-2.21503E-05-2.30163E-05-2.10961E-05-3.17964E-19-5.85737E-19
 -1       930 9.64855E-05-2.72174E-05-2.96864E-05-4.76713E-08-4.33667E-19-8.45583E-19
 -1       931 9.66566E-05-2.81023E-05-2.93805E-05 3.32131E-07-5.58432E-19-1.13496E-18
 -1       932 9.66619E-05-2.86500E-05-2.91479E-05 5.59759E-07-2.44952E-19-1.00699E-18
 -1       933 9.65626E-05-2.89526E-05-2.89757E-05 6.77615E-07-2.12929E-19-9.07873E-19
 -1       934 9.64011E-05-2.90793E-05-2.88522E-05 7.24084E-07-1.19910E-19-7.46390E-19
 -1       935 9.62054E-05-2.90820E-05-2.87671E-05 7.31081E-07-1.09311E-19-8.01063E-19
 -1       936 9.59923E-05-2.89983E-05-2.87117E-05 7.23598E-07-2.43244E-19-7.59605E-19
 -1       937 9.57713E-05-2.88547E-05-2.86785E-05 7.21299E-07-3.57099E-19-3.57111E-19
 -1       938 9.55466E-05-2.86706E-05-2.86612E-05 7.40095E-07 6.06858E-20 1.48367E-19
 -1       939 9.53206E-05-2.84612E-05-2.86541E-05 7.93686E-07 2.33637E-20-1.07117E-19
 -1       940 9.50961E-05-2.82411E-05-2.86521E-05 8.94928E-07-4.53859E-19 6.60779E-19
 -1       941 9.48793E-05-2.80282E-05-2.86505E-05 1.05690E-06-7.92461E-19 6.66030E-19
 -1       942 9.46839E-05-2.78472E-05-2.86443E-05 1.29353E-06-9.60415E-19 8.13080E-19
 -1       943 9.45355E-05-2.77345E-05-2.86290E-05 1.61949E-06-6.40247E-19 6.99786E-19
 -1       944 9.44780E-05-2.77432E-05-2.86007E-05 2.04860E-06-2.70900E-19 8.97425E-19
 -1       945 9.45802E-05-2.79476E-05-2.85569E-05 2.58983E-06 5.98987E-19 1.27040E-18
 -1       946 9.49432E-05-2.84461E-05-2.84988E-05 3.23881E-06 9.67650E-19 1.01736E-18
 -1       947 9.57054E-05-2.93579E-05-2.84347E-05 3.96383E-06 1.02274E-18 6.42539E-19
 -1       948 9.70454E-05-3.08143E-05-2.83845E-05 4.67964E-06 5.83437E-19 1.30729E-18
 -1       949 9.91623E-05-3.29180E-05-2.83898E-05 5.20094E-06 1.03230E-18 2.02715E-18
 -1       950 1.02208E-04-3.56415E-05-2.85263E-05 5.20130E-06 3.83824E-20 2.53776E-18
 -1       951 1.06191E-04-3.87156E-05-2.89290E-05 4.20916E-06 2.97623E-19 1.91589E-18
 -1       952 1.10860E-04-4.15129E-05-2.97102E-05 1.80089E-06-4.31251E-19 1.21089E-18
 -1       953 1.08707E-04-4.04486E-05-2.92603E-05-3.53188E-06 7.27376E-19-1.35714E-18
 -1       954 1.04400E-04-3.73859E-05-2.87267E-05-5.23797E-06 7.69434E-19-2.11986E-18
 -1       955 1.00923E-04-3.43665E-05-2.85228E-05-5.68511E-06 7.91426E-19-2.68185E-18
 -1       956 9.84141E-05-3.18785E-05-2.85128E-05-5.44089E-06-7.48736E-19-2.71043E-18
 -1       957 9.59385E-05-2.89688E-05-2.87013E-05-8.28195E-07 4.22222E-19-4.31116E-19
 -1       958 9.52516E-05-2.83446E-05-2.86744E-05-8.46013E-07 1.79053E-19-2.33711E-19
 -1       959 9.49556E-05-2.80167E-05-2.86881E-05-9.04557E-07 1.54968E-19 1.16332E-19
 -1       960 9.45900E-05-2.76119E-05-2.87050E-05-9.93246E-07 5.57512E-20-3.94572E-19
 -1       961 9.40908E-05-2.70795E-05-2.87191E-05-1.10967E-06 1.96116E-20-1.12168E-18
 -1       962 9.34522E-05-2.64387E-05-2.87201E-05-1.22408E-06 2.45653E-19-1.19068E-18
 -1       963 9.25864E-05-2.56311E-05-2.86952E-05-1.30652E-06 1.76273E-19-1.58905E-18
 -1       964 9.14013E-05-2.46136E-05-2.86233E-05-1.29756E-06-4.03681E-19-8.07357E-19
 -1       965 8.97774E-05-2.33439E-05-2.84716E-05-1.10307E-06-5.39440E-19-7.31510E-19
 -1       966 8.75618E-05-2.17896E-05-2.81885E-05-5.79924E-07 2.16796E-19-6.68451E-19
 -1       967 8.45584E-05-1.99422E-05-2.76939E-05 4.68876E-07 8.82325E-19 2.83003E-19
 -1       968 8.02482E-05-1.77079E-05-2.67988E-05 2.44597E-06 3.88487E-19-3.40428E-20
 -1       969 7.46678E-05-1.54699E-05-2.53845E-05 5.63190E-06 2.06021E-19 7.39961E-19
 -1       970 8.35584E-05-1.97582E-05-2.73478E-05-2.76394E-06 1.18226E-18 1.14702E-18
 -1       971 9.45454E-05-2.22567E-05-3.09809E-05-4.03973E-07 4.90727E-20-1.85837E-18
 -1       972 8.87809E-05-2.30283E-05-2.81836E-05-3.00608E-06 2.81860E-18-1.77971E-18
 -1       973 1.00223E-04-3.87094E-05-2.63624E-05-2.00788E-05 7.99867E-20-3.40019E-18
 -1       974 9.57821E-05-2.59906E-05-2.99111E-05 1.17750E-06 1.07026E-18-1.49413E-18
 -1       975 9.65398E-05-2.80402E-05-2.93572E-05-3.52342E-07 5.68271E-19-1.26187E-18
 -1       976 1.12700E-04-4.52327E-05-2.88994E-05-1.01654E-05 6.70711E-19-2.33477E-18
 -1       977 9.64566E-05-2.89069E-05-2.89498E-05-7.78178E-07-8.80698E-21-9.91056E-19
 -1       978 9.52582E-05-2.40010E-05-3.05385E-05 1.83204E-06 9.94989E-19-2.01172E-18
 -1       979 9.65470E-05-2.85972E-05-2.91214E-05-6.33486E-07 1.90254E-19-1.01436E-18
 -1       980 9.55033E-05-2.86094E-05-2.86688E-05-8.17835E-07 5.80214E-20-2.44521E-19
 -1       981 9.57280E-05-2.88174E-05-2.86760E-05-8.15127E-07 3.24961E-19-6.66175E-19
 -1       982 9.60676E-05-2.58887E-05-3.00759E-05-6.21641E-07-5.75313E-19-1.21647E-18
 -1       983 9.63115E-05-2.90399E-05-2.88306E-05-8.34469E-07 3.08340E-19-5.55092E-19
 -1       984 9.63737E-05-2.71453E-05-2.96691E-05 1.11921E-07 3.21102E-19-1.33639E-18
 -1       985 8.99776E-05-3.05296E-05-2.54554E-05-1.97474E-05-1.29987E-19-3.46931E-18
 -1       986 1.12712E-04-4.43614E-05-2.92526E-05 7.28761E-06-2.14138E-19-2.90322E-19
 -1       987 1.13767E-04-4.32036E-05-3.02444E-05-1.17214E-06 6.09588E-19-2.06606E-18
 -1       988 7.85935E-05-2.09387E-05-2.46909E-05 1.58410E-05 1.29067E-18-6.44279E-20
 -1       989 7.23073E-05-1.60433E-05-2.40816E-05-1.07479E-05-1.29817E-18 1.58512E-18
 -1       990 9.19676E-05-2.67696E-05-2.79424E-05-7.24161E-06 2.33991E-18-2.56192E-18
 -1       991 9.56098E-05-2.44648E-05-3.04902E-05-4.78265E-07-1.47103E-19-1.35326E-18
 -1       992 9.68684E-05-3.64223E-05-2.59145E-05 2.11539E-05 6.83502E-19-1.47288E-18
 -1       993 9.56702E-05-2.47536E-05-3.03953E-05-8.06210E-07-4.69720E-19-1.33126E-18
 -1       994 9.57783E-05-2.50484E-05-3.03137E-05 8.43200E-07 4.91579E-19-1.74044E-18
 -1       995 7.90468E-05-1.79801E-05-2.61676E-05-5.83034E-06 7.08534E-20 3.97541E-19
 -1       996 9.56935E-05-2.46544E-05-3.04448E-05 4.76929E-07 2.25064E-19-1.74323E-18
 -1       997 9.50822E-05-2.92294E-05-2.82231E-05-6.92515E-06 2.16772E-19-2.18915E-18
 -1       998 1.05314E-04-4.04333E-05-2.78126E-05 1.32072E-05-1.10808E-19-8.38811E-20
 -1       999 9.68605E-05-2.83517E-05-2.93610E-05 2.72251E-07-4.34185E-19-1.19770E-18
 -1      1000 9.68303E-05-2.88291E-05-2.91435E-05 3.90272E-07-2.04280E-19-1.06986E-18
 -1      1001 9.66938E-05-2.90716E-05-2.89810E-05 4.47575E-07-3.99181E-20-1.03071E-18
 -1      1002 9.64933E-05-2.91449E-05-2.88636E-05 4.68951E-07-1.63819E-19-7.91107E-19
 -1      1003 9.62560E-05-2.90982E-05-2.87819E-05 4.73051E-07 1.47835E-20-6.06661E-19
 -1      1004 9.59977E-05-2.89663E-05-2.87278E-05 4.75532E-07 1.32076E-19-3.06956E-19
 -1      1005 9.57264E-05-2.87739E-05-2.86940E-05 4.89899E-07 8.75935E-21-2.36286E-19
 -1      1006 9.54445E-05-2.85384E-05-2.86741E-05 5.28716E-07 6.20939E-20 8.74162E-20
 -1      1007 9.51523E-05-2.82735E-05-2.86624E-05 6.05209E-07-4.09929E-19-3.56854E-19
 -1      1008 9.48501E-05-2.79930E-05-2.86531E-05 7.34787E-07-3.85718E-19-8.82330E-19
 -1      1009 9.45420E-05-2.77142E-05-2.86406E-05 9.36613E-07-5.16222E-19-6.23502E-19
 -1      1010 9.42402E-05-2.74631E-05-2.86188E-05 1.23506E-06-5.88942E-19-1.58033E-19
 -1      1011 9.39707E-05-2.72801E-05-2.85818E-05 1.66053E-06-9.48188E-20 2.10176E-19
 -1      1012 9.37815E-05-2.72262E-05-2.85237E-05 2.24890E-06 5.95617E-19 3.27385E-19
 -1      1013 9.37525E-05-2.73915E-05-2.84404E-05 3.03761E-06 4.51781E-19 5.03832E-19
 -1      1014 9.40093E-05-2.79014E-05-2.83318E-05 4.05434E-06 1.14044E-18 7.69077E-19
 -1      1015 9.47283E-05-2.89146E-05-2.82059E-05 5.30119E-06 7.24564E-19 2.54229E-19
 -1      1016 9.61740E-05-3.06436E-05-2.80845E-05 6.72579E-06 2.89909E-19-5.83426E-19
 -1      1017 9.86693E-05-3.32727E-05-2.80256E-05 8.09573E-06 1.13492E-18-1.23712E-18
 -1      1018 1.02640E-04-3.69402E-05-2.81516E-05 8.97757E-06 4.88252E-19-1.94480E-19
 -1      1019 9.60455E-05-2.61427E-05-2.99576E-05 6.85143E-07 6.25440E-19-1.48494E-18
 -1      1020 8.13683E-05-2.03829E-05-2.61345E-05 9.53589E-06-9.85831E-19 1.49204E-19
 -1      1021 8.86207E-05-2.39491E-05-2.77121E-05-6.21567E-06 2.06242E-18-2.12083E-18
 -1      1022 1.00848E-04-3.51777E-05-2.81414E-05-8.93563E-06-1.42069E-19-2.25419E-18
 -1      1023 9.77752E-05-3.20268E-05-2.81836E-05-7.72809E-06 5.37142E-19-2.65076E-18
 -1      1024 9.42110E-05-2.72847E-05-2.86827E-05-6.14219E-07 1.88098E-19 5.89294E-20
 -1      1025 9.46858E-05-2.77572E-05-2.86837E-05-6.08071E-07 3.65894E-19 5.64504E-19
 -1      1026 9.50760E-05-2.81508E-05-2.86823E-05-5.92967E-07 2.40721E-19 1.19731E-19
 -1      1027 9.36159E-05-2.67174E-05-2.86709E-05-5.87063E-07 3.76493E-19-2.58833E-20
 -1      1028 9.28556E-05-2.60369E-05-2.86367E-05-4.85097E-07 2.41728E-19 3.55041E-19
 -1      1029 9.18749E-05-2.52264E-05-2.85638E-05-2.42427E-07-2.61342E-19 1.80367E-19
 -1      1030 9.06091E-05-2.42773E-05-2.84281E-05 2.40276E-07-1.00878E-18-1.82810E-19
 -1      1031 8.89879E-05-2.32010E-05-2.81945E-05 1.10749E-06-1.10333E-19-1.79876E-19
 -1      1032 8.69511E-05-2.20524E-05-2.78138E-05 2.56647E-06 1.57759E-19 4.63240E-19
 -1      1033 8.42286E-05-2.08376E-05-2.71671E-05 5.06840E-06 4.90944E-19 3.05287E-19
 -1      1034 9.59810E-05-2.89521E-05-2.87267E-05-5.89478E-07 4.45366E-19 1.65361E-19
 -1      1035 9.66437E-05-2.90362E-05-2.89746E-05-5.69210E-07-2.17677E-19-9.32686E-19
 -1      1036 1.04776E-04-3.92342E-05-2.80861E-05-1.10737E-05 7.63954E-19-2.07187E-18
 -1      1037 9.56138E-05-2.44211E-05-3.05111E-05 1.41745E-08 2.55123E-20-1.90417E-18
 -1      1038 9.62292E-05-2.90826E-05-2.87771E-05-5.98746E-07 5.23383E-19 1.58561E-19
 -1      1039 9.67235E-05-2.75508E-05-2.96453E-05 7.18536E-08-7.09190E-19-1.44523E-18
 -1      1040 9.54088E-05-2.84774E-05-2.86849E-05-5.82526E-07 3.02444E-20 2.56164E-19
 -1      1041 9.57123E-05-2.87503E-05-2.86980E-05-5.81815E-07-4.37040E-20 1.73359E-19
 -1      1042 9.64555E-05-2.91223E-05-2.88571E-05-5.97886E-07 3.44615E-20-5.19672E-19
 -1      1043 8.26133E-05-2.31295E-05-2.54822E-05-1.45373E-05-5.92896E-19-1.68013E-18
 -1      1044 9.02249E-05-2.89707E-05-2.62396E-05 1.58097E-05 7.21598E-19-1.61278E-18
 -1      1045 9.66397E-05-2.74439E-05-2.96553E-05-5.44583E-08 2.68010E-19-1.58798E-18
 -1      1046 9.67668E-05-2.87717E-05-2.91405E-05-4.89016E-07-6.42824E-20-1.00375E-18
 -1      1047 9.00781E-05-2.62899E-05-2.73437E-05-9.61416E-06 1.02871E-18-3.35629E-18
 -1      1048 9.78739E-05-3.43539E-05-2.72218E-05-1.40761E-05 3.41374E-19-4.14539E-18
 -1      1049 9.62828E-05-2.60025E-05-3.01193E-05-1.11701E-07-3.84686E-19-1.56444E-18
 -1      1050 8.48512E-05-2.20761E-05-2.69103E-05-7.96990E-06 2.49253E-19-1.52590E-18
 -1      1051 9.63283E-05-2.63049E-05-3.00101E-05 2.67754E-07 3.19028E-19-1.61391E-18
 -1      1052 9.63502E-05-2.63385E-05-3.00050E-05-2.36825E-07-1.28366E-19-1.26209E-18
 -1      1053 9.67827E-05-2.82672E-05-2.93633E-05-3.30796E-07 1.92134E-19-1.19860E-18
 -1      1054 9.44329E-05-2.96536E-05-2.77623E-05-9.38475E-06 7.41157E-19-4.75071E-18
 -1      1055 8.82880E-05-2.54584E-05-2.69280E-05 1.04278E-05 3.99814E-19-4.39072E-19
 -1      1056 9.44344E-05-2.75455E-05-2.86668E-05-1.86598E-07 4.22922E-19-8.01321E-20
 -1      1057 9.69752E-05-2.86070E-05-2.92999E-05 1.25976E-07-6.15835E-20-1.23225E-18
 -1      1058 9.68856E-05-2.89816E-05-2.91014E-05 1.61801E-07-6.35397E-20-8.07940E-19
 -1      1059 9.67087E-05-2.91475E-05-2.89545E-05 1.77636E-07-4.83260E-21-6.22658E-19
 -1      1060 9.64736E-05-2.91593E-05-2.88488E-05 1.84131E-07-4.55386E-19-8.69374E-19
 -1      1061 9.62035E-05-2.90602E-05-2.87755E-05 1.89265E-07 3.53391E-20-1.00367E-18
 -1      1062 9.59109E-05-2.88808E-05-2.87270E-05 2.00674E-07 2.51098E-19-9.43035E-19
 -1      1063 9.55999E-05-2.86414E-05-2.86963E-05 2.26557E-07 1.59279E-19-9.18784E-19
 -1      1064 9.52694E-05-2.83556E-05-2.86772E-05 2.77123E-07-1.52309E-19-4.78150E-19
 -1      1065 9.49150E-05-2.80335E-05-2.86633E-05 3.66003E-07-5.13607E-19 3.02653E-20
 -1      1066 9.45323E-05-2.76853E-05-2.86485E-05 5.12353E-07-3.54419E-19 2.11939E-19
 -1      1067 9.41195E-05-2.73250E-05-2.86258E-05 7.43208E-07-7.90937E-20 5.21007E-19
 -1      1068 9.36825E-05-2.69761E-05-2.85879E-05 1.09614E-06 6.04806E-19 1.27323E-18
 -1      1069 9.32408E-05-2.66780E-05-2.85262E-05 1.62172E-06-4.02766E-20 1.34015E-18
 -1      1070 9.28375E-05-2.64949E-05-2.84316E-05 2.38501E-06 3.86056E-19 3.36120E-19
 -1      1071 9.25534E-05-2.65282E-05-2.82954E-05 3.46460E-06 5.46602E-19 1.34349E-19
 -1      1072 9.25366E-05-2.69375E-05-2.81135E-05 4.94370E-06-2.32234E-19-1.17248E-18
 -1      1073 9.29951E-05-2.79118E-05-2.78941E-05 6.83682E-06 1.19856E-19-1.18461E-18
 -1      1074 9.42475E-05-2.97260E-05-2.76488E-05 9.14644E-06 5.69925E-19-4.89912E-19
 -1      1075 9.78794E-05-3.38446E-05-2.74687E-05 1.18677E-05 9.62427E-19-5.46030E-19
 -1      1076 9.63202E-05-2.60779E-05-3.01034E-05 9.60803E-08 1.09909E-19-1.54748E-18
 -1      1077 9.32815E-05-2.65128E-05-2.86155E-05 1.32366E-07 1.40841E-19 4.22242E-19
 -1      1078 9.39102E-05-2.70614E-05-2.86497E-05-7.39325E-08 4.69029E-19 6.12463E-19
 -1      1079 9.48782E-05-2.79671E-05-2.86763E-05-2.46052E-07 3.49336E-20-2.36576E-19
 -1      1080 9.25241E-05-2.59044E-05-2.85519E-05 4.92854E-07 3.98896E-20-1.00325E-19
 -1      1081 9.16182E-05-2.52547E-05-2.84424E-05 1.09562E-06-4.77270E-19 2.58973E-19
 -1      1082 9.05571E-05-2.46083E-05-2.82648E-05 2.06385E-06-3.54290E-19-2.47670E-19
 -1      1083 8.93588E-05-2.40498E-05-2.79903E-05 3.56122E-06-3.64771E-19-4.41235E-19
 -1      1084 8.80206E-05-2.37308E-05-2.75541E-05 5.92862E-06 5.32299E-19 7.09212E-20
 -1      1085 9.56109E-05-2.86400E-05-2.87019E-05-2.96492E-07-4.14826E-20-3.53130E-20
 -1      1086 9.62166E-05-2.90652E-05-2.87793E-05-3.19266E-07 1.57718E-19-4.31690E-19
 -1      1087 9.59282E-05-2.88888E-05-2.87312E-05-3.09766E-07 2.85043E-19-1.78446E-19
 -1      1088 9.68965E-05-2.79307E-05-2.95570E-05 5.88072E-08-4.21765E-19-1.18103E-18
 -1      1089 9.66838E-05-2.71182E-05-2.98144E-05-1.70127E-08-5.88626E-19-1.46737E-18
 -1      1090 9.52629E-05-2.83299E-05-2.86857E-05-2.77623E-07 1.46339E-19-1.04314E-19
 -1      1091 9.67134E-05-2.72536E-05-2.97681E-05-1.21649E-08-1.03870E-20-1.43754E-18
 -1      1092 9.31039E-05-3.01830E-05-2.69467E-05-1.34927E-05-4.42609E-19-3.96875E-18
 -1      1093 9.68735E-05-2.89372E-05-2.91158E-05-2.78632E-07-1.51923E-19-1.01502E-18
 -1      1094 9.64817E-05-2.91556E-05-2.88541E-05-3.22549E-07-2.72604E-19-1.14485E-18
 -1      1095 9.69266E-05-2.81825E-05-2.94619E-05-1.39091E-07-8.37381E-20-9.23594E-19
 -1      1096 9.67085E-05-2.91280E-05-2.89631E-05-3.12904E-07-3.26625E-19-1.37232E-18
 -1      1097 9.69256E-05-2.86320E-05-2.92701E-05-2.17233E-07-5.93470E-20-8.76716E-19
 -1      1098 1.16847E-04 2.57542E-10-4.18520E-05-4.14648E-05-3.01544E-19 9.36776E-18
 -1      1099 8.86436E-05 7.19074E-11-3.72484E-05-2.41698E-05-1.60089E-19 1.12618E-18
 -1      1100 8.40738E-05 4.14486E-11-3.57650E-05-1.78813E-05-1.14773E-19-2.30454E-18
 -1      1101 8.23332E-05 3.20263E-11-3.50723E-05-1.38393E-05-6.96155E-20-3.92662E-18
 -1      1102 8.15328E-05 2.73316E-11-3.47391E-05-1.05366E-05-4.92735E-20-4.63372E-18
 -1      1103 8.11333E-05 2.46138E-11-3.45748E-05-7.64334E-06-2.84484E-20-4.96906E-18
 -1      1104 8.09261E-05 2.29586E-11-3.44922E-05-4.98153E-06-1.38702E-20-5.07590E-18
 -1      1105 8.08253E-05 2.20639E-11-3.44534E-05-2.43304E-06 1.45418E-21-5.05805E-18
 -1      1106 8.07966E-05 2.17935E-11-3.44425E-05 5.24525E-08 1.07947E-20-5.03608E-18
 -1      1107 8.08295E-05 2.21079E-11-3.44549E-05 2.54046E-06 2.81986E-20-4.98048E-18
 -1      1108 8.09349E-05 2.30576E-11-3.44951E-05 5.09717E-06 3.57805E-20-4.76801E-18
 -1      1109 8.11489E-05 2.47732E-11-3.45791E-05 7.77499E-06 5.77571E-20-4.36014E-18
 -1      1110 8.15553E-05 2.76445E-11-3.47454E-05 1.06963E-05 7.67888E-20-3.66500E-18
 -1      1111 8.23570E-05 3.25003E-11-3.50822E-05 1.40461E-05 9.11090E-20-2.47340E-18
 -1      1112 8.40696E-05 4.19203E-11-3.57851E-05 1.81325E-05 1.25573E-19-3.36868E-19
 -1      1113 8.83416E-05 6.67326E-11-3.73187E-05 2.40125E-05 1.39125E-19 3.77999E-18
 -1      1114 1.06611E-04 1.63902E-10-4.06308E-05 3.61923E-05 2.71686E-19 1.20493E-17
 -1      1115 1.30211E-04-2.57541E-05-4.02702E-05-2.61053E-05-1.22259E-18 1.45914E-17
 -1      1116 9.74451E-05-2.88591E-05-3.15741E-05-6.80668E-07-3.63509E-19 1.17382E-17
 -1      1117 9.01449E-05-2.70221E-05-2.78888E-05 3.86865E-07-1.61810E-19 7.72566E-18
 -1      1118 8.82312E-05-2.65670E-05-2.66385E-05 2.50673E-07-1.24090E-19 4.77520E-18
 -1      1119 8.78703E-05-2.64395E-05-2.63813E-05 1.65722E-07-8.46504E-20 2.64163E-18
 -1      1120 8.82270E-05-2.65155E-05-2.64654E-05 1.17812E-07-4.54470E-20 1.83285E-18
 -1      1121 8.89110E-05-2.66993E-05-2.66675E-05 8.71538E-08-5.01553E-20 1.16557E-18
 -1      1122 8.97242E-05-2.69308E-05-2.69097E-05 6.58747E-08-2.50156E-20 9.52303E-19
 -1      1123 9.05574E-05-2.71736E-05-2.71582E-05 5.01277E-08-7.32935E-20 3.13865E-19
 -1      1124 9.13500E-05-2.74073E-05-2.73953E-05 3.80144E-08-2.19832E-20-1.02478E-18
 -1      1125 9.20709E-05-2.76212E-05-2.76117E-05 2.85373E-08 1.33477E-20-1.81957E-18
 -1      1126 9.27082E-05-2.78112E-05-2.78038E-05 2.11179E-08 5.95226E-20-1.80706E-18
 -1      1127 9.32627E-05-2.79772E-05-2.79714E-05 1.53879E-08-9.65667E-20-2.66487E-18
 -1      1128 9.37438E-05-2.81217E-05-2.81174E-05 1.10992E-08-5.89799E-20-2.69008E-18
 -1      1129 9.41666E-05-2.82489E-05-2.82461E-05 8.08522E-09-1.80428E-19-2.87870E-18
 -1      1130 9.45496E-05-2.83645E-05-2.83630E-05 6.24204E-09-8.70235E-20-4.14049E-18
 -1      1131 9.49134E-05-2.84743E-05-2.84741E-05 5.51424E-09 3.45795E-20-4.72262E-18
 -1      1132 9.52791E-05-2.85847E-05-2.85856E-05 5.87644E-09-1.22689E-19-5.17942E-18
 -1      1133 9.56661E-05-2.87012E-05-2.87033E-05 7.30166E-09-4.57074E-21-5.45155E-18
 -1      1134 9.60900E-05-2.88285E-05-2.88313E-05 9.70734E-09 3.98386E-20-6.08375E-18
 -1      1135 9.65582E-05-2.89683E-05-2.89715E-05 1.28697E-08 5.72857E-20-5.65679E-18
 -1      1136 9.70645E-05-2.91188E-05-2.91214E-05 1.62992E-08-8.69962E-20-4.12950E-18
 -1      1137 9.75822E-05-2.92715E-05-2.92720E-05 1.90790E-08 1.17233E-19-3.84093E-18
 -1      1138 9.80551E-05-2.94095E-05-2.94057E-05 1.96933E-08-3.01817E-19-4.18166E-18
 -1      1139 9.83897E-05-2.95046E-05-2.94938E-05 1.59165E-08 5.56750E-20-5.06127E-18
 -1      1140 9.84501E-05-2.95165E-05-2.94958E-05 4.90770E-09 1.06994E-19-4.75070E-18
 -1      1141 9.80629E-05-2.93941E-05-2.93614E-05-1.62678E-08 2.91311E-19-3.10856E-18
 -1      1142 9.70381E-05-2.90819E-05-2.90380E-05-4.94625E-08-6.85667E-20-3.95219E-18
 -1      1143 9.52144E-05-2.85337E-05-2.84837E-05-9.35751E-08-9.50943E-20-5.35538E-18
 -1      1144 9.25280E-05-2.77329E-05-2.76871E-05-1.42483E-07 1.20123E-20-4.94628E-18
 -1      1145 8.90925E-05-2.67152E-05-2.66883E-05-1.84047E-07 5.22745E-20-4.63062E-18
 -1      1146 8.52575E-05-2.55850E-05-2.55916E-05-2.01976E-07 1.62086E-19-3.65849E-18
 -1      1147 8.15987E-05-2.45113E-05-2.45591E-05-1.81699E-07-2.23640E-19-6.28914E-18
 -1      1148 7.88063E-05-2.36943E-05-2.37785E-05-1.18696E-07 2.22197E-19-6.40415E-18
 -1      1149 7.74827E-05-2.33076E-05-2.34101E-05-2.42669E-08 2.64900E-19-4.15299E-18
 -1      1150 7.79288E-05-2.34374E-05-2.35328E-05 7.67460E-08-1.49753E-20-2.43454E-18
 -1      1151 8.00274E-05-2.40500E-05-2.41157E-05 1.56497E-07-2.34125E-19-4.60820E-18
 -1      1152 8.32874E-05-2.50043E-05-2.50291E-05 1.96527E-07 1.81489E-19-3.62768E-18
 -1      1153 8.70256E-05-2.61030E-05-2.60890E-05 1.94240E-07 4.99785E-19-3.71397E-19
 -1      1154 9.05869E-05-2.71546E-05-2.71142E-05 1.60473E-07-5.22133E-20 1.17383E-18
 -1      1155 9.35044E-05-2.80213E-05-2.79697E-05 1.11673E-07-1.90925E-19 7.53965E-19
 -1      1156 9.55565E-05-2.86356E-05-2.85858E-05 6.24496E-08-2.76047E-19-3.80163E-18
 -1      1157 9.67355E-05-2.89931E-05-2.89529E-05 2.18590E-08 2.34936E-20-5.42214E-18
 -1      1158 9.71743E-05-2.91313E-05-2.91036E-05-6.67664E-09 1.36566E-19-3.75029E-18
 -1      1159 9.70722E-05-2.91081E-05-2.90929E-05-2.34631E-08-2.86659E-20-2.58641E-18
 -1      1160 9.66413E-05-2.89860E-05-2.89821E-05-3.02472E-08 2.45765E-19 5.82454E-19
 -1      1161 9.60800E-05-2.88234E-05-2.88303E-05-2.83762E-08 3.35940E-20-3.34992E-19
 -1      1162 9.55643E-05-2.86732E-05-2.86886E-05-1.70411E-08 2.78697E-19 3.33272E-18
 -1      1163 9.52522E-05-2.85878E-05-2.85925E-05 7.59932E-09-2.86683E-19 1.56892E-18
 -1      1164 9.51912E-05-2.85555E-05-2.85398E-05 1.56521E-08 3.51716E-19 8.60597E-19
 -1      1165 1.31045E-04-3.77356E-05-3.86558E-05 1.21743E-05-2.20599E-19 1.87821E-17
 -1      1166 9.65463E-05-2.81857E-05-3.13265E-05 8.01569E-07 9.05531E-20 1.53188E-17
 -1      1167 9.03588E-05-2.69248E-05-2.78696E-05 1.20254E-07 1.30238E-19 1.18564E-17
 -1      1168 8.83176E-05-2.64942E-05-2.66746E-05 9.11847E-09 1.08314E-19 9.28846E-18
 -1      1169 8.79099E-05-2.64019E-05-2.64080E-05-2.51314E-08 3.41774E-20 7.60059E-18
 -1      1170 8.82472E-05-2.64976E-05-2.64807E-05-3.40667E-08-5.41390E-21 6.76718E-18
 -1      1171 8.89215E-05-2.66924E-05-2.66770E-05-3.48603E-08 6.80480E-20 5.68380E-18
 -1      1172 8.97493E-05-2.69335E-05-2.69222E-05-3.25267E-08 7.20512E-20 4.58281E-18
 -1      1173 9.05977E-05-2.71855E-05-2.71739E-05-2.99028E-08 3.67866E-20 3.93313E-18
 -1      1174 9.13820E-05-2.74187E-05-2.74078E-05-2.59851E-08 7.93304E-20 2.77629E-18
 -1      1175 9.20929E-05-2.76307E-05-2.76206E-05-2.17913E-08 8.72709E-21 1.99277E-18
 -1      1176 9.27185E-05-2.78176E-05-2.78085E-05-1.75506E-08-3.25390E-20 1.46434E-18
 -1      1177 9.32600E-05-2.79797E-05-2.79718E-05-1.33955E-08 3.78844E-21 1.16093E-18
 -1      1178 9.37270E-05-2.81199E-05-2.81131E-05-9.32870E-09 6.39447E-20-7.19052E-19
 -1      1179 9.41456E-05-2.82458E-05-2.82404E-05-5.40418E-09 9.70076E-20-2.24669E-18
 -1      1180 9.45270E-05-2.83610E-05-2.83569E-05-1.24252E-09-7.03258E-20-1.77566E-18
 -1      1181 9.48912E-05-2.84714E-05-2.84688E-05 2.90896E-09-9.12535E-20-9.87264E-19
 -1      1182 9.52827E-05-2.85907E-05-2.85896E-05 7.48673E-09 7.34511E-20-7.34323E-19
 -1      1183 9.57456E-05-2.87322E-05-2.87332E-05 1.28036E-08 7.16564E-20-1.52031E-18
 -1      1184 9.63388E-05-2.89140E-05-2.89178E-05 1.93002E-08 8.58130E-20-2.58540E-18
 -1      1185 9.71426E-05-2.91613E-05-2.91687E-05 2.78304E-08 1.96842E-19-3.82046E-18
 -1      1186 9.83070E-05-2.95169E-05-2.95331E-05 3.97595E-08-2.63627E-19-2.59067E-18
 -1      1187 9.99829E-05-3.00309E-05-3.00594E-05 4.94296E-08-3.61097E-20-1.56198E-18
 -1      1188 1.02364E-04-3.07584E-05-3.08089E-05 6.15790E-08-9.56568E-20-3.27667E-18
 -1      1189 1.05823E-04-3.18104E-05-3.18993E-05 6.88683E-08 1.64205E-19-2.42560E-18
 -1      1190 1.10830E-04-3.33232E-05-3.34747E-05 5.84913E-08-1.50894E-19-4.39319E-19
 -1      1191 1.17976E-04-3.54627E-05-3.57026E-05 3.01365E-09-2.22631E-19-1.38066E-18
 -1      1192 1.27848E-04-3.83935E-05-3.87087E-05-1.46407E-07 7.68616E-20-9.43595E-19
 -1      1193 1.40957E-04-4.22080E-05-4.24991E-05-4.64659E-07-2.08943E-19-6.07005E-19
 -1      1194 1.55595E-04-4.64543E-05-4.62959E-05-9.45336E-07-1.53108E-19 1.48379E-18
 -1      1195 1.66401E-04-4.95684E-05-4.84618E-05-1.18124E-06-2.61296E-19 4.50521E-18
 -1      1196 1.64330E-04-4.91644E-05-4.70584E-05-2.75324E-07 5.42101E-20 3.37966E-18
 -1      1197 1.42316E-04-4.27435E-05-4.16704E-05 2.15992E-06-2.59324E-19 4.58753E-18
 -1      1198 1.06721E-04-3.21524E-05-3.45178E-05 4.00066E-06-7.60212E-20 4.76117E-18
 -1      1199 8.13535E-05-2.34110E-05-3.02067E-05 2.70560E-06 2.05247E-19 1.11935E-18
 -1      1200 9.28995E-05-2.62001E-05-3.25263E-05-1.41372E-06 3.12714E-19-6.06476E-19
 -1      1201 1.27834E-04-3.75830E-05-3.91773E-05-3.47923E-06 4.51032E-19-3.53975E-18
 -1      1202 1.57732E-04-4.75462E-05-4.56480E-05-2.86695E-06-3.72033E-20-2.18831E-18
 -1      1203 1.67459E-04-5.07170E-05-4.84844E-05-1.07203E-06 1.07414E-19-2.03394E-18
 -1      1204 1.60027E-04-4.82747E-05-4.71890E-05 1.34803E-07-1.83561E-19-7.15161E-19
 -1      1205 1.46029E-04-4.38678E-05-4.37138E-05 5.62191E-07 1.17168E-19-1.87597E-18
 -1      1206 1.32112E-04-3.95998E-05-3.98389E-05 5.72907E-07 4.27801E-20-3.93606E-18
 -1      1207 1.20509E-04-3.61061E-05-3.64023E-05 4.56923E-07 3.29138E-19-6.28059E-18
 -1      1208 1.11858E-04-3.35253E-05-3.37616E-05 3.15469E-07 1.94066E-19-6.61713E-18
 -1      1209 1.05803E-04-3.17242E-05-3.18868E-05 2.17895E-07 1.85834E-19-6.36191E-18
 -1      1210 1.01494E-04-3.04432E-05-3.05510E-05 1.53046E-07-4.34728E-19-1.65407E-18
 -1      1211 9.84672E-05-2.95441E-05-2.96206E-05 1.13866E-07 4.74487E-19 1.09809E-18
 -1      1212 9.64440E-05-2.89440E-05-2.90081E-05 8.68480E-08 2.76079E-19 1.10288E-18
 -1      1213 9.53361E-05-2.86143E-05-2.86611E-05 4.39991E-08 2.29881E-19 3.49975E-18
 -1      1214 9.51169E-05-2.85329E-05-2.84848E-05-3.88230E-08 2.95766E-19 3.65257E-18
 -1      1215 9.52749E-05-2.86914E-05-2.84850E-05-4.22648E-08 4.59673E-18-7.15722E-19
 -1      1216 9.51842E-05-2.84587E-05-2.86600E-05-1.60369E-08 2.67949E-18-1.26956E-18
 -1      1217 9.48887E-05-2.74348E-05-2.89616E-05 6.20367E-08 8.86890E-19-7.42320E-20
 -1      1218 9.44438E-05-2.59111E-05-2.93765E-05 8.54441E-08 4.20697E-19-8.66881E-20
 -1      1219 9.39882E-05-2.43551E-05-2.98053E-05 7.62076E-08 1.28057E-18 3.97427E-19
 -1      1220 9.36334E-05-2.31477E-05-3.01455E-05 4.85085E-08 6.21191E-18 4.64355E-19
 -1      1221 9.34381E-05-2.24911E-05-3.03374E-05 1.73009E-08 6.24711E-18-1.07905E-19
 -1      1222 9.34193E-05-2.24377E-05-3.03611E-05-1.21266E-08 2.39686E-18-1.07642E-18
 -1      1223 9.35578E-05-2.29194E-05-3.02320E-05-3.28503E-08-6.56583E-20 6.43867E-19
 -1      1224 9.38080E-05-2.37777E-05-2.99921E-05-4.32075E-08 3.51926E-18 8.08025E-19
 -1      1225 9.41161E-05-2.48282E-05-2.96925E-05-4.43695E-08-5.15790E-19-9.40747E-19
 -1      1226 9.44312E-05-2.58961E-05-2.93836E-05-3.90441E-08-6.22667E-18-2.52726E-19
 -1      1227 9.47190E-05-2.68672E-05-2.90994E-05-3.10587E-08-4.12902E-18 3.32648E-19
 -1      1228 9.49588E-05-2.76714E-05-2.88631E-05-2.14652E-08-1.95418E-18 1.67696E-19
 -1      1229 9.51364E-05-2.82581E-05-2.86922E-05-1.26846E-08-3.38826E-18-4.31670E-19
 -1      1230 9.52143E-05-2.85484E-05-2.85918E-05 2.35973E-08-2.79529E-18-7.03517E-21
 -1      1231 9.52525E-05-2.86180E-05-2.85398E-05 1.60900E-08-1.50653E-18 5.81817E-19
 -1      1232 3.78667E-05-1.21192E-04 2.15531E-05-1.69398E-05 2.28868E-18 4.61474E-19
 -1      1233 2.24622E-05-8.84978E-05 1.49598E-05-3.59203E-05 1.55600E-18-1.14985E-19
 -1      1234 7.30553E-06-3.38305E-05 1.06897E-06-2.21523E-05 1.55854E-19 7.69106E-19
 -1      1235 2.32257E-05 9.62585E-06-1.93834E-05 2.81902E-05 5.26854E-18 5.12794E-18
 -1      1236 9.03266E-05 1.39848E-05-4.29859E-05 8.81324E-05 5.59211E-18 7.74866E-18
 -1      1237 2.03682E-04-2.63762E-05-6.55121E-05 1.18046E-04 1.09775E-18 2.28529E-18
 -1      1238 3.20677E-04-8.58093E-05-8.22927E-05 8.84513E-05-5.07584E-19-3.21195E-18
 -1      1239 3.72352E-04-1.14688E-04-8.86101E-05 2.62173E-06 4.46969E-19-8.23782E-18
 -1      1240 3.23948E-04-8.72385E-05-8.27262E-05-8.43184E-05 2.37550E-18-1.10707E-17
 -1      1241 2.11556E-04-3.00849E-05-6.67251E-05-1.19054E-04 5.79963E-18-1.22888E-17
 -1      1242 9.87291E-05 1.30344E-05-4.53673E-05-9.33754E-05 9.43595E-18-1.31595E-17
 -1      1243 2.74668E-05 1.49188E-05-2.27409E-05-3.66865E-05 9.96619E-18-1.00475E-17
 -1      1244 6.69181E-06-2.43101E-05-2.45975E-06 1.48548E-05 1.02627E-17-6.03342E-18
 -1      1245 1.78187E-05-7.78412E-05 1.27904E-05 3.46085E-05 6.08593E-18-2.67917E-18
 -1      1246 3.45996E-05-1.17036E-04 2.08784E-05 2.54402E-05-4.01282E-18-6.23628E-20
 -1      1247 3.89185E-05-1.19662E-04 2.08980E-05-5.71342E-06-1.19618E-17-1.30107E-18
 -1      1248 2.37271E-05-8.12675E-05 1.33490E-05-2.38343E-05-1.22481E-17-2.77912E-18
 -1      1249 8.48789E-06-2.35402E-05-9.20515E-07-9.83217E-06-8.81422E-18-4.65868E-18
 -1      1250 1.96888E-05 2.15276E-05-1.99828E-05 3.67252E-05-1.01644E-17-8.13406E-18
 -1      1251 7.50808E-05 2.73923E-05-4.05592E-05 9.10267E-05-8.49405E-18-9.41562E-18
 -1      1252 1.69213E-04-8.54658E-06-6.00968E-05 1.18296E-04-5.25838E-18-9.50879E-18
 -1      1253 2.69091E-04-6.42282E-05-7.49770E-05 9.31420E-05-2.15443E-18-6.55773E-18
 -1      1254 3.21280E-04-9.68185E-05-8.15277E-05 1.87644E-05 2.11838E-19-5.23043E-18
 -1      1255 2.98334E-04-8.22976E-05-7.87715E-05-6.55092E-05-3.83600E-19-1.22566E-18
 -1      1256 2.13441E-04-3.22389E-05-6.70905E-05-1.15994E-04-2.77107E-18 7.43356E-18
 -1      1257 1.11238E-04 1.66074E-05-4.92786E-05-1.08811E-04-7.44203E-18 1.06591E-17
 -1      1258 3.65602E-05 2.90948E-05-2.82629E-05-5.94792E-05-1.28580E-17 1.11470E-17
 -1      1259 8.09470E-06-4.39610E-06-7.26747E-06-3.68460E-06-1.16315E-17 7.52081E-18
 -1      1260 1.78230E-05-6.41993E-05 9.59103E-06 2.35462E-05-8.39748E-18 3.34324E-18
 -1      1261 3.64258E-05-1.13220E-04 1.96585E-05 1.28990E-05-1.83171E-18 3.86723E-20
 -1      1262 1.04434E-04-2.20171E-05-3.78889E-05-1.72760E-05-4.35375E-19 7.54579E-18
 -1      1263 9.03124E-05-6.68003E-06-3.60145E-05-2.04743E-05-1.26743E-18-5.32519E-19
 -1      1264 9.26477E-05-6.73870E-06-3.72192E-05-2.57617E-05-1.59962E-18 1.28548E-18
 -1      1265 8.59005E-05-4.09622E-06-3.51283E-05-1.64368E-05-1.19927E-18-3.03349E-18
 -1      1266 8.71508E-05-4.08881E-06-3.55971E-05-1.88570E-05-1.41264E-18-1.95225E-18
 -1      1267 9.21269E-05-1.04615E-05-3.50910E-05-1.90381E-05-2.21290E-18-4.75133E-19
 -1      1268 8.40950E-05-3.19037E-06-3.46863E-05-1.28199E-05-9.53269E-19-4.25062E-18
 -1      1269 8.47054E-05-3.16089E-06-3.49102E-05-1.46346E-05-1.10570E-18-3.70609E-18
 -1      1270 8.78632E-05-7.39466E-06-3.45723E-05-1.54150E-05-1.88019E-18-2.50579E-18
 -1      1271 8.31865E-05-2.72767E-06-3.44708E-05-9.69018E-06-6.80234E-19-4.81094E-18
 -1      1272 8.34984E-05-2.70929E-06-3.45795E-05-1.12375E-05-8.02842E-19-4.57081E-18
 -1      1273 8.58659E-05-5.98226E-06-3.43051E-05-1.19582E-05-1.45455E-18-3.53615E-18
 -1      1274 8.26973E-05-2.45783E-06-3.43650E-05-6.91788E-06-4.18113E-19-5.04567E-18
 -1      1275 8.28657E-05-2.44942E-06-3.44191E-05-8.28927E-06-5.09179E-19-4.92669E-18
 -1      1276 8.48231E-05-5.21730E-06-3.41736E-05-8.94773E-06-9.98639E-19-4.00006E-18
 -1      1277 8.24234E-05-2.29241E-06-3.43128E-05-4.29678E-06-2.01983E-19-5.10946E-18
 -1      1278 8.25139E-05-2.28849E-06-3.43397E-05-5.59852E-06-2.56115E-19-5.09621E-18
 -1      1279 8.42394E-05-4.76253E-06-3.41109E-05-6.21897E-06-5.57564E-19-4.22635E-18
 -1      1280 8.22916E-05-2.20300E-06-3.42908E-05-1.79082E-06 7.66230E-20-5.08672E-18
 -1      1281 8.23303E-05-2.20143E-06-3.43017E-05-3.04238E-06-2.38460E-20-5.07982E-18
 -1      1282 8.39181E-05-4.49888E-06-3.40824E-05-3.64610E-06-2.12071E-19-4.23102E-18
 -1      1283 8.22657E-05-2.17550E-06-3.42882E-05 6.70048E-07 2.96222E-19-5.05039E-18
 -1      1284 8.22643E-05-2.17554E-06-3.42878E-05-5.66364E-07 2.12494E-19-5.08261E-18
 -1      1285 8.37773E-05-4.37925E-06-3.40718E-05-1.17107E-06 2.48139E-19-4.27482E-18
 -1      1286 8.23388E-05-2.20574E-06-3.43032E-05 3.14970E-06 4.74631E-19-4.96332E-18
 -1      1287 8.22973E-05-2.20737E-06-3.42916E-05 1.89554E-06 4.36113E-19-5.03859E-18
 -1      1288 8.37822E-05-4.38347E-06-3.40722E-05 1.27417E-06 6.05306E-19-4.18376E-18
 -1      1289 8.25309E-05-2.29871E-06-3.43424E-05 5.71499E-06 6.56530E-19-4.75183E-18
 -1      1290 8.24370E-05-2.30209E-06-3.43147E-05 4.40734E-06 6.02140E-19-4.89281E-18
 -1      1291 8.39335E-05-4.51236E-06-3.40835E-05 3.75350E-06 8.99364E-19-4.12104E-18
 -1      1292 8.28888E-05-2.46434E-06-3.44220E-05 8.39754E-06 8.69737E-19-4.25962E-18
 -1      1293 8.27170E-05-2.47304E-06-3.43674E-05 7.01739E-06 7.83360E-19-4.54981E-18
 -1      1294 8.42647E-05-4.78535E-06-3.41121E-05 6.31283E-06 1.19607E-18-3.85911E-18
 -1      1295 8.35446E-05-2.74147E-06-3.45845E-05 1.13984E-05 1.21112E-18-3.48581E-18
 -1      1296 8.32245E-05-2.75858E-06-3.44742E-05 9.83319E-06 1.06749E-18-3.93407E-18
 -1      1297 8.48656E-05-5.25831E-06-3.41745E-05 9.05659E-06 1.58431E-18-3.30004E-18
 -1      1298 8.47628E-05-3.20332E-06-3.49181E-05 1.48474E-05 1.48824E-18-2.21690E-18
 -1      1299 8.41519E-05-3.24009E-06-3.46919E-05 1.30070E-05 1.33659E-18-2.99119E-18
 -1      1300 8.59462E-05-6.06299E-06-3.43064E-05 1.21256E-05 2.07059E-18-2.49221E-18
 -1      1301 8.72502E-05-4.08994E-06-3.56188E-05 1.90944E-05 1.63911E-18 1.30311E-19
 -1      1302 8.59684E-05-4.15387E-06-3.51360E-05 1.66966E-05 1.48355E-18-1.28246E-18
 -1      1303 8.79881E-05-7.51677E-06-3.45746E-05 1.56535E-05 2.40291E-18-1.02864E-18
 -1      1304 9.34607E-05-6.79135E-06-3.71147E-05 2.50983E-05 1.37876E-18 4.50611E-18
 -1      1305 9.01280E-05-6.43701E-06-3.60373E-05 2.11517E-05 1.34943E-18 1.84923E-18
 -1      1306 9.23570E-05-1.06971E-05-3.50764E-05 1.96791E-05 2.41558E-18 1.59364E-18
 -1      1307 1.23619E-04-2.49218E-05-3.90125E-05 2.83670E-05 6.35804E-19 1.26233E-17
 -1      1308 1.00075E-04-1.44226E-05-3.73520E-05 2.40518E-05 6.60580E-19 7.01703E-18
 -1      1309 1.01673E-04-1.93407E-05-3.54005E-05 2.14005E-05 2.22559E-18 5.59338E-18
 -1      1310 1.02597E-04-2.78029E-05-3.47555E-05 7.33017E-06 1.17539E-18 1.21926E-17
 -1      1311 1.05140E-04-3.02283E-05-3.35231E-05-7.96059E-06-1.27987E-18 8.02818E-18
 -1      1312 9.82528E-05-2.78406E-05-3.07597E-05-4.98937E-06-1.20527E-18 6.47059E-18
 -1      1313 9.54944E-05-2.78467E-05-2.92521E-05-2.49071E-06-1.03396E-18 5.75719E-18
 -1      1314 9.32613E-05-2.75554E-05-2.82125E-05-2.04401E-06-1.01107E-18 4.24226E-18
 -1      1315 9.94779E-05-2.80499E-05-3.09807E-05-7.88873E-06-2.20276E-18 3.14599E-18
 -1      1316 9.15712E-05-2.71973E-05-2.75781E-05-8.38983E-07-8.64834E-19 3.71191E-18
 -1      1317 9.08538E-05-2.71018E-05-2.72756E-05-7.28721E-07-8.05462E-19 2.51455E-18
 -1      1318 9.47104E-05-2.77677E-05-2.88143E-05-3.12223E-06-1.77480E-18 2.11529E-18
 -1      1319 9.01036E-05-2.69190E-05-2.70323E-05-1.74451E-07-5.29478E-19 2.00355E-18
 -1      1320 9.00305E-05-2.69457E-05-2.69972E-05-1.16427E-07-4.79798E-19 1.32066E-18
 -1      1321 9.25107E-05-2.74969E-05-2.78932E-05-1.05435E-06-1.34024E-18 1.21294E-18
 -1      1322 8.97710E-05-2.68782E-05-2.69230E-05 1.53852E-07-1.56377E-19 1.09126E-18
 -1      1323 8.99850E-05-2.69680E-05-2.69845E-05 1.82559E-07-1.20757E-19 8.35042E-19
 -1      1324 9.15521E-05-2.73534E-05-2.75262E-05-7.10151E-08-6.23899E-19 4.32212E-19
 -1      1325 8.99892E-05-2.69713E-05-2.69911E-05 3.13983E-07-2.09331E-19 7.26715E-19
 -1      1326 9.03312E-05-2.70908E-05-2.70901E-05 3.25795E-07-1.40501E-19 5.03369E-19
 -1      1327 9.12994E-05-2.73413E-05-2.74185E-05 4.16735E-07-3.89068E-19 2.29857E-19
 -1      1328 9.04743E-05-2.71328E-05-2.71377E-05 3.81029E-07-1.01046E-20 4.35269E-19
 -1      1329 9.08624E-05-2.72610E-05-2.72498E-05 3.82889E-07-1.00920E-19 2.40240E-19
 -1      1330 9.14336E-05-2.74152E-05-2.74412E-05 6.46189E-07-2.21927E-19-3.71735E-21
 -1      1331 9.10726E-05-2.73219E-05-2.73169E-05 3.94636E-07-2.41427E-19 1.80451E-19
 -1      1332 9.14615E-05-2.74469E-05-2.74297E-05 3.90753E-07-2.09933E-19-2.09124E-19
 -1      1333 9.17694E-05-2.75348E-05-2.75312E-05 7.30881E-07-3.78076E-19-2.13347E-19
 -1      1334 9.16967E-05-2.75147E-05-2.75038E-05 3.78078E-07-2.09685E-19-3.55052E-19
 -1      1335 9.20620E-05-2.76300E-05-2.76102E-05 3.71187E-07-2.96691E-19-7.69202E-19
 -1      1336 9.21970E-05-2.76733E-05-2.76532E-05 7.32945E-07-3.92030E-19-1.81622E-19
 -1      1337 9.22977E-05-2.76977E-05-2.76842E-05 3.46043E-07-2.67180E-19-7.78589E-19
 -1      1338 9.26275E-05-2.78004E-05-2.77806E-05 3.37976E-07-6.89314E-20-1.02528E-18
 -1      1339 9.26514E-05-2.78143E-05-2.77863E-05 6.89820E-07-4.47390E-19-1.70464E-19
 -1      1340 9.28506E-05-2.78643E-05-2.78504E-05 3.08170E-07-3.75284E-20-1.44883E-18
 -1      1341 9.31413E-05-2.79539E-05-2.79357E-05 3.00166E-07-1.58505E-19-1.59512E-18
 -1      1342 9.30956E-05-2.79486E-05-2.79186E-05 6.25449E-07-2.69539E-19-6.78705E-19
 -1      1343 9.33462E-05-2.80124E-05-2.79998E-05 2.70894E-07-3.12150E-19-1.66436E-18
 -1      1344 9.35999E-05-2.80898E-05-2.80745E-05 2.63788E-07-2.20633E-19-2.11496E-18
 -1      1345 9.35109E-05-2.80718E-05-2.80436E-05 5.55633E-07-3.91713E-19-1.23025E-18
 -1      1346 9.37860E-05-2.81429E-05-2.81326E-05 2.38520E-07 3.75361E-20-2.22000E-18
 -1      1347 9.40082E-05-2.82101E-05-2.81983E-05 2.32870E-07-5.30440E-21-1.99906E-18
 -1      1348 9.38910E-05-2.81829E-05-2.81591E-05 4.90923E-07-1.98525E-19-1.70452E-18
 -1      1349 9.41783E-05-2.82585E-05-2.82514E-05 2.13883E-07-3.01161E-19-2.24436E-18
 -1      1350 9.43770E-05-2.83181E-05-2.83103E-05 2.10050E-07-7.31287E-19-2.80284E-18
 -1      1351 9.42378E-05-2.82829E-05-2.82652E-05 4.38329E-07-4.18062E-19-1.94331E-18
 -1      1352 9.45361E-05-2.83634E-05-2.83599E-05 1.98737E-07-4.30759E-19-2.85120E-18
 -1      1353 9.47206E-05-2.84184E-05-2.84147E-05 1.96929E-07 2.37967E-20-3.03364E-18
 -1      1354 9.45589E-05-2.83746E-05-2.83640E-05 4.02344E-07-6.36902E-19-2.11355E-18
 -1      1355 9.48750E-05-2.84624E-05-2.84628E-05 1.93932E-07-1.88485E-19-3.62183E-18
 -1      1356 9.50555E-05-2.85161E-05-2.85165E-05 1.94210E-07-4.58628E-19-3.76557E-18
 -1      1357 9.48650E-05-2.84616E-05-2.84585E-05 3.85480E-07-5.88830E-19-2.24172E-18
 -1      1358 9.52119E-05-2.85608E-05-2.85651E-05 1.99385E-07-3.68393E-19-4.22167E-18
 -1      1359 9.53980E-05-2.86164E-05-2.86205E-05 2.01635E-07-3.50075E-19-4.40223E-18
 -1      1360 9.51688E-05-2.85480E-05-2.85523E-05 3.88396E-07-5.57284E-19-3.11510E-18
 -1      1361 9.55625E-05-2.86638E-05-2.86714E-05 2.13838E-07-1.17359E-19-4.43404E-18
 -1      1362 9.57627E-05-2.87241E-05-2.87308E-05 2.17697E-07 1.42530E-19-4.61147E-18
 -1      1363 9.54832E-05-2.86381E-05-2.86489E-05 4.09614E-07-2.86887E-19-3.42253E-18
 -1      1364 9.59401E-05-2.87756E-05-2.87855E-05 2.34403E-07 5.69398E-20-4.68579E-18
 -1      1365 9.61598E-05-2.88426E-05-2.88505E-05 2.39140E-07-2.10714E-19-4.82607E-18
 -1      1366 9.58188E-05-2.87361E-05-2.87512E-05 4.44805E-07-6.11450E-20-3.48760E-18
 -1      1367 9.63514E-05-2.88991E-05-2.89091E-05 2.55881E-07 4.13858E-19-4.63181E-18
 -1      1368 9.65908E-05-2.89732E-05-2.89796E-05 2.60237E-07 3.21227E-19-3.95572E-18
 -1      1369 9.61820E-05-2.88448E-05-2.88603E-05 4.85675E-07 5.70482E-20-3.23184E-18
 -1      1370 9.67931E-05-2.90341E-05-2.90408E-05 2.69957E-07 1.40787E-19-3.64991E-18
 -1      1371 9.70439E-05-2.91134E-05-2.91142E-05 2.71960E-07 2.99397E-19-3.55743E-18
 -1      1372 9.65716E-05-2.89654E-05-2.89753E-05 5.18512E-07 5.53911E-19-3.47688E-18
 -1      1373 9.72461E-05-2.91760E-05-2.91743E-05 2.64431E-07 1.04485E-19-3.07278E-18
 -1      1374 9.74880E-05-2.92547E-05-2.92444E-05 2.61243E-07-9.28283E-20-3.26801E-18
 -1      1375 9.69743E-05-2.90956E-05-2.90909E-05 5.22700E-07 2.48421E-19-2.91073E-18
 -1      1376 9.76690E-05-2.93137E-05-2.92965E-05 2.22892E-07-4.65157E-20-3.12253E-18
 -1      1377 9.78654E-05-2.93810E-05-2.93524E-05 2.10779E-07-1.91239E-19-3.31114E-18
 -1      1378 9.73598E-05-2.92286E-05-2.91971E-05 4.69774E-07-2.13230E-19-2.06144E-18
 -1      1379 9.79920E-05-2.94272E-05-2.93858E-05 1.25489E-07 6.27896E-20-3.20331E-18
 -1      1380 9.80872E-05-2.94658E-05-2.94111E-05 1.00103E-07 3.74539E-19-3.09400E-18
 -1      1381 9.76763E-05-2.93503E-05-2.92773E-05 3.24076E-07-8.10538E-20-1.55665E-18
 -1      1382 9.81130E-05-2.94858E-05-2.94114E-05-4.82349E-08 2.85083E-19-2.87921E-18
 -1      1383 9.80321E-05-2.94719E-05-2.93843E-05-9.10319E-08 2.56360E-19-2.51311E-18
 -1      1384 9.78465E-05-2.94376E-05-2.93082E-05 4.66378E-08 3.38454E-19-1.11361E-18
 -1      1385 9.78998E-05-2.94480E-05-2.93342E-05-3.13365E-07 4.61970E-19-2.90550E-18
 -1      1386 9.75550E-05-2.93523E-05-2.92299E-05-3.75886E-07 2.18023E-19-2.59001E-18
 -1      1387 9.77686E-05-2.94573E-05-2.92608E-05-3.95758E-07 4.96838E-19-1.30079E-18
 -1      1388 9.72040E-05-2.92644E-05-2.91119E-05-6.69970E-07-4.50529E-19-2.74416E-18
 -1      1389 9.65105E-05-2.90569E-05-2.89070E-05-7.50258E-07-6.87544E-19-3.48916E-18
 -1      1390 9.73250E-05-2.93662E-05-2.91039E-05-1.01487E-06-9.46989E-20-2.55906E-18
 -1      1391 9.58912E-05-2.88862E-05-2.87086E-05-1.09096E-06 1.07290E-19-3.76807E-18
 -1      1392 9.47947E-05-2.85451E-05-2.83893E-05-1.18001E-06 2.95078E-19-3.67430E-18
 -1      1393 9.64028E-05-2.91173E-05-2.88110E-05-1.77958E-06-4.11860E-19-2.69848E-18
 -1      1394 9.38902E-05-2.82809E-05-2.81085E-05-1.51189E-06-2.13629E-19-3.56124E-18
 -1      1395 9.24028E-05-2.78052E-05-2.76805E-05-1.59197E-06 1.14376E-19-3.58087E-18
 -1      1396 9.49297E-05-2.86709E-05-2.83705E-05-2.59458E-06-3.93109E-20-2.83069E-18
 -1      1397 9.12537E-05-2.74545E-05-2.73333E-05-1.83076E-06 1.98683E-19-3.41937E-18
 -1      1398 8.94876E-05-2.68768E-05-2.68302E-05-1.87698E-06 3.49796E-19-3.09225E-18
 -1      1399 9.29210E-05-2.80148E-05-2.77967E-05-3.29205E-06 6.47881E-20-2.36911E-18
 -1      1400 8.82100E-05-2.64726E-05-2.64532E-05-1.92717E-06 6.79599E-20-2.97845E-18
 -1      1401 8.63892E-05-2.58660E-05-2.59392E-05-1.91426E-06-3.15378E-19-3.12996E-18
 -1      1402 9.05256E-05-2.71869E-05-2.71386E-05-3.65310E-06-7.29278E-20-2.20187E-18
 -1      1403 8.51724E-05-2.54697E-05-2.55874E-05-1.70382E-06-3.55456E-19-4.00835E-18
 -1      1404 8.36042E-05-2.49400E-05-2.51479E-05-1.61758E-06-5.46763E-19-4.77904E-18
 -1      1405 8.80451E-05-2.62919E-05-2.64794E-05-3.47056E-06-9.09354E-19-2.69902E-18
 -1      1406 8.26752E-05-2.46311E-05-2.48834E-05-1.13885E-06 2.25632E-19-4.51916E-18
 -1      1407 8.16741E-05-2.42900E-05-2.46041E-05-9.87154E-07 6.29451E-19-4.31596E-18
 -1      1408 8.58993E-05-2.54931E-05-2.59238E-05-2.64237E-06 1.46715E-19-2.14178E-18
 -1      1409 8.12318E-05-2.41416E-05-2.44790E-05-3.19848E-07 7.78470E-19-3.56232E-18
 -1      1410 8.10180E-05-2.40691E-05-2.44193E-05-1.35047E-07 7.00228E-19-2.44390E-18
 -1      1411 8.45230E-05-2.49716E-05-2.55732E-05-1.25307E-06 8.56536E-19-2.64316E-18
 -1      1412 8.11620E-05-2.41187E-05-2.44593E-05 5.70671E-07-2.15507E-19-3.21782E-18
 -1      1413 8.17804E-05-2.43312E-05-2.46310E-05 7.42574E-07-3.89278E-19-3.27405E-18
 -1      1414 8.42238E-05-2.48597E-05-2.54962E-05 4.15978E-07 1.27928E-19-2.54395E-18
 -1      1415 8.24717E-05-2.45641E-05-2.48260E-05 1.32115E-06-3.62126E-19-2.69963E-18
 -1      1416 8.37739E-05-2.50078E-05-2.51894E-05 1.43944E-06-1.74615E-19-3.09557E-18
 -1      1417 8.50644E-05-2.51851E-05-2.57063E-05 1.97570E-06-3.92143E-19-2.71503E-18
 -1      1418 8.48500E-05-2.53636E-05-2.54972E-05 1.77363E-06 7.31673E-19-3.00713E-18
 -1      1419 8.65501E-05-2.59357E-05-2.59747E-05 1.81852E-06 6.63573E-19-1.84295E-18
 -1      1420 8.68371E-05-2.58579E-05-2.61576E-05 3.07842E-06 5.97175E-19-1.78106E-18
 -1      1421 8.77858E-05-2.63338E-05-2.63348E-05 1.87605E-06 1.19950E-18-1.28460E-18
 -1      1422 8.95584E-05-2.69206E-05-2.68369E-05 1.85247E-06 1.19015E-18 9.30942E-20
 -1      1423 8.91444E-05-2.67100E-05-2.67593E-05 3.54323E-06 1.25553E-18-1.49302E-18
 -1      1424 9.07386E-05-2.72884E-05-2.71888E-05 1.68021E-06 3.60940E-19 7.17027E-19
 -1      1425 9.23116E-05-2.77984E-05-2.76387E-05 1.60992E-06-1.04374E-19 2.03010E-19
 -1      1426 9.15394E-05-2.75617E-05-2.74034E-05 3.39253E-06 1.16335E-18-5.09275E-19
 -1      1427 9.32826E-05-2.80888E-05-2.79359E-05 1.29835E-06-5.77584E-19 8.58349E-19
 -1      1428 9.44897E-05-2.84701E-05-2.82851E-05 1.20783E-06-1.45367E-18-9.37282E-19
 -1      1429 9.36536E-05-2.82766E-05-2.79936E-05 2.79789E-06-2.51589E-19-1.94421E-20
 -1      1430 9.51767E-05-2.86647E-05-2.85022E-05 8.51154E-07-1.74861E-18-1.32382E-18
 -1      1431 9.59623E-05-2.89040E-05-2.87326E-05 7.62349E-07-9.45850E-19-3.02242E-18
 -1      1432 9.52652E-05-2.87858E-05-2.84639E-05 1.98563E-06-2.41382E-18-1.23697E-19
 -1      1433 9.63597E-05-2.90067E-05-2.88643E-05 4.32451E-07 3.50151E-19-3.63844E-18
 -1      1434 9.67542E-05-2.91184E-05-2.89829E-05 3.58893E-07 2.93196E-19-3.51131E-18
 -1      1435 9.63023E-05-2.90809E-05-2.87849E-05 1.15651E-06-8.00089E-19-6.70469E-19
 -1      1436 9.69028E-05-2.91461E-05-2.90387E-05 9.72679E-08 3.15156E-21-2.25429E-18
 -1      1437 9.69863E-05-2.91592E-05-2.90671E-05 4.46329E-08 4.86351E-19-2.02934E-18
 -1      1438 9.68071E-05-2.91924E-05-2.89592E-05 4.45696E-07 9.94321E-19-7.42623E-19
 -1      1439 9.69500E-05-2.91336E-05-2.90651E-05-1.33093E-07 1.04258E-18-2.01858E-18
 -1      1440 9.68220E-05-2.90815E-05-2.90316E-05-1.64363E-07 1.20278E-18-4.92614E-19
 -1      1441 9.68877E-05-2.91679E-05-2.90107E-05-8.00762E-08 1.18508E-18 2.13752E-19
 -1      1442 9.66704E-05-2.90242E-05-2.89927E-05-2.58858E-07 1.13733E-18-3.05742E-19
 -1      1443 9.64300E-05-2.89386E-05-2.89260E-05-2.70729E-07 6.65437E-19 6.91083E-19
 -1      1444 9.66780E-05-2.90568E-05-2.89745E-05-4.04576E-07 1.69479E-18 3.47489E-19
 -1      1445 9.62285E-05-2.88685E-05-2.88707E-05-2.90163E-07 4.35930E-19 9.38890E-19
 -1      1446 9.59658E-05-2.87775E-05-2.87972E-05-2.85029E-07 7.46869E-19 9.79036E-19
 -1      1447 9.63105E-05-2.89029E-05-2.88883E-05-5.39581E-07 1.27700E-18 7.27683E-19
 -1      1448 9.57693E-05-2.87103E-05-2.87429E-05-2.40285E-07 9.55375E-19 1.36447E-18
 -1      1449 9.55620E-05-2.86391E-05-2.86841E-05-2.19859E-07 7.36847E-19 2.23963E-18
 -1      1450 9.59025E-05-2.87420E-05-2.87867E-05-5.08331E-07 1.28788E-18 1.23535E-18
 -1      1451 9.54081E-05-2.85843E-05-2.86419E-05-1.25330E-07-3.62078E-19 2.64512E-18
 -1      1452 9.53138E-05-2.85605E-05-2.86081E-05-9.54136E-08-6.98216E-19 2.08438E-18
 -1      1453 9.55454E-05-2.86021E-05-2.86953E-05-3.43960E-07 9.48215E-19 1.74150E-18
 -1      1454 9.52263E-05-2.85636E-05-2.85658E-05 1.37456E-08-1.93447E-18 1.39478E-18
 -1      1455 9.52895E-05-2.85373E-05-2.86096E-05-8.55956E-08-1.82193E-18 1.42350E-18
 -1      1456 9.65688E-05-2.83611E-05-2.97699E-05 2.99660E-06 1.06205E-18 9.82505E-18
 -1      1457 1.02529E-04-2.93962E-05-3.21535E-05 4.46372E-06 9.50900E-19 1.14671E-17
 -1      1458 1.02319E-04-2.67160E-05-3.27036E-05 1.27845E-05 1.85188E-18 7.60911E-18
 -1      1459 9.20208E-05-2.74263E-05-2.77588E-05 1.15285E-06 7.82606E-19 7.59619E-18
 -1      1460 9.39684E-05-2.75818E-05-2.86732E-05 1.47478E-06 7.71475E-19 8.89401E-18
 -1      1461 9.64790E-05-2.80279E-05-2.95314E-05 4.86923E-06 1.61074E-18 5.96761E-18
 -1      1462 9.01864E-05-2.70010E-05-2.70594E-05 3.32650E-07 6.16521E-19 6.01960E-18
 -1      1463 9.08024E-05-2.70188E-05-2.73323E-05 4.95491E-07 6.02181E-19 6.91047E-18
 -1      1464 9.30331E-05-2.75761E-05-2.80960E-05 1.85339E-06 1.25559E-18 4.64505E-18
 -1      1465 8.96673E-05-2.68823E-05-2.68832E-05-5.42528E-08 2.99532E-19 5.03921E-18
 -1      1466 8.97057E-05-2.68203E-05-2.69117E-05 3.48504E-08 3.07326E-19 5.60695E-18
 -1      1467 9.14787E-05-2.73045E-05-2.75119E-05 5.19399E-07 8.18816E-19 3.71378E-18
 -1      1468 8.97976E-05-2.69343E-05-2.69245E-05-2.41625E-07 3.90050E-19 4.24696E-18
 -1      1469 8.95702E-05-2.68271E-05-2.68598E-05-1.91442E-07 2.70717E-19 4.70344E-18
 -1      1470 9.09459E-05-2.72233E-05-2.73154E-05-1.30657E-07 5.36671E-19 2.85427E-18
 -1      1471 9.02500E-05-2.70768E-05-2.70626E-05-3.26025E-07 2.58568E-19 3.54350E-18
 -1      1472 8.99030E-05-2.69489E-05-2.69612E-05-2.97404E-07 2.45616E-19 4.02754E-18
 -1      1473 9.09630E-05-2.72664E-05-2.73044E-05-4.49858E-07 4.44069E-19 2.31492E-18
 -1      1474 9.08749E-05-2.72686E-05-2.72512E-05-3.51384E-07 2.00313E-19 2.99343E-18
 -1      1475 9.04694E-05-2.71321E-05-2.71322E-05-3.36290E-07 1.97192E-19 3.38786E-18
 -1      1476 9.12776E-05-2.73804E-05-2.73893E-05-5.91233E-07 4.34769E-19 2.23691E-18
 -1      1477 9.15093E-05-2.74603E-05-2.74424E-05-3.41044E-07 2.51740E-19 2.47368E-18
 -1      1478 9.11250E-05-2.73367E-05-2.73296E-05-3.36337E-07 1.96440E-19 2.80488E-18
 -1      1479 9.17337E-05-2.75301E-05-2.75195E-05-6.31310E-07 3.32960E-19 1.85746E-18
 -1      1480 9.21255E-05-2.76458E-05-2.76282E-05-3.14527E-07 2.55799E-19 1.61198E-18
 -1      1481 9.17676E-05-2.75343E-05-2.75227E-05-3.14872E-07 2.85205E-19 2.09419E-18
 -1      1482 9.22263E-05-2.76831E-05-2.76637E-05-6.12097E-07 5.53391E-19 1.32449E-18
 -1      1483 9.26937E-05-2.78161E-05-2.77998E-05-2.80384E-07 1.95183E-19 1.04237E-18
 -1      1484 9.23728E-05-2.77181E-05-2.77049E-05-2.83583E-07 2.65272E-19 1.46547E-18
 -1      1485 9.27160E-05-2.78321E-05-2.78089E-05-5.63822E-07 4.89272E-19 8.22021E-19
 -1      1486 9.32022E-05-2.79678E-05-2.79537E-05-2.45122E-07 2.17259E-19 8.34159E-19
 -1      1487 9.29212E-05-2.78833E-05-2.78703E-05-2.49559E-07 6.56616E-21 9.38929E-19
 -1      1488 9.31765E-05-2.79700E-05-2.79465E-05-5.03621E-07 1.42845E-19 2.44866E-19
 -1      1489 9.36512E-05-2.81011E-05-2.80898E-05-2.13211E-07 2.56720E-19-4.94588E-20
 -1      1490 9.34076E-05-2.80287E-05-2.80172E-05-2.17717E-07 2.66391E-19 4.36624E-19
 -1      1491 9.35969E-05-2.80943E-05-2.80731E-05-4.43121E-07 4.14109E-19-6.40397E-20
 -1      1492 9.40496E-05-2.82190E-05-2.82107E-05-1.88002E-07 3.72295E-19-9.30428E-19
 -1      1493 9.38367E-05-2.81561E-05-2.81471E-05-1.91574E-07 4.95445E-19-5.03257E-20
 -1      1494 9.39773E-05-2.82055E-05-2.81884E-05-3.90539E-07 6.36675E-19-3.70062E-19
 -1      1495 9.44291E-05-2.83307E-05-2.83262E-05-1.71487E-07-1.63995E-19-1.41985E-18
 -1      1496 9.42295E-05-2.82717E-05-2.82662E-05-1.73543E-07 3.90915E-21-1.40464E-18
 -1      1497 9.43340E-05-2.83085E-05-2.82972E-05-3.51430E-07 4.19956E-19-5.24861E-19
 -1      1498 9.47760E-05-2.84322E-05-2.84319E-05-1.68106E-07-1.85690E-19-1.27316E-18
 -1      1499 9.45951E-05-2.83784E-05-2.83774E-05-1.67590E-07-1.49778E-19-1.35924E-18
 -1      1500 9.46727E-05-2.84054E-05-2.84011E-05-3.32935E-07-2.11018E-19-1.03402E-18
 -1      1501 9.51365E-05-2.85374E-05-2.85420E-05-1.79983E-07-1.20023E-19-1.20683E-18
 -1      1502 9.49493E-05-2.84809E-05-2.84853E-05-1.76042E-07-2.26942E-19-1.62852E-18
 -1      1503 9.50065E-05-2.84997E-05-2.85043E-05-3.40755E-07-6.69092E-20-1.25695E-18
 -1      1504 9.55457E-05-2.86562E-05-2.86670E-05-2.11354E-07 2.56200E-19-1.10334E-18
 -1      1505 9.53327E-05-2.85908E-05-2.86023E-05-2.02702E-07 4.83533E-20-9.95432E-19
 -1      1506 9.53707E-05-2.86018E-05-2.86175E-05-3.81255E-07-6.98554E-20-1.42255E-18
 -1      1507 9.60494E-05-2.88021E-05-2.88211E-05-2.68436E-07 4.25919E-19-1.59407E-18
 -1      1508 9.57849E-05-2.87195E-05-2.87406E-05-2.53191E-07 3.02454E-19-1.37613E-18
 -1      1509 9.58003E-05-2.87214E-05-2.87516E-05-4.64266E-07 3.97985E-19-1.31714E-18
 -1      1510 9.67094E-05-2.89929E-05-2.90231E-05-3.60499E-07 2.17180E-19-2.68383E-18
 -1      1511 9.63588E-05-2.88819E-05-2.89165E-05-3.35829E-07 4.37269E-19-2.00694E-18
 -1      1512 9.63414E-05-2.88713E-05-2.89213E-05-6.04096E-07 7.73926E-19-1.57540E-18
 -1      1513 9.76095E-05-2.92530E-05-2.92990E-05-5.01767E-07-4.54064E-20-2.59764E-18
 -1      1514 9.71256E-05-2.90977E-05-2.91517E-05-4.63029E-07 3.04245E-20-2.52967E-18
 -1      1515 9.70555E-05-2.90685E-05-2.91460E-05-8.21777E-07-5.09394E-20-1.56100E-18
 -1      1516 9.89448E-05-2.96376E-05-2.97091E-05-7.24819E-07-4.81535E-19-1.32096E-18
 -1      1517 9.82152E-05-2.94038E-05-2.94868E-05-6.60541E-07-6.64468E-19-2.44382E-18
 -1      1518 9.80559E-05-2.93419E-05-2.94618E-05-1.15758E-06-7.70439E-19-1.26691E-18
 -1      1519 1.00767E-04-3.01619E-05-3.02690E-05-1.04033E-06 4.49953E-19-1.86733E-18
 -1      1520 9.97591E-05-2.98356E-05-2.99626E-05-9.49501E-07 5.27195E-19-1.07692E-18
 -1      1521 9.94461E-05-2.97228E-05-2.99021E-05-1.65989E-06 1.80461E-19-1.40449E-18
 -1      1522 1.03364E-04-3.09093E-05-3.10689E-05-1.49902E-06-2.28269E-19-2.65177E-18
 -1      1523 1.01905E-04-3.04357E-05-3.06254E-05-1.36231E-06 8.55305E-21-2.77321E-18
 -1      1524 1.01344E-04-3.02387E-05-3.05049E-05-2.37297E-06 6.93303E-19-1.68503E-18
 -1      1525 1.07063E-04-3.19757E-05-3.22097E-05-2.15364E-06-5.39183E-19-1.66102E-18
 -1      1526 1.04955E-04-3.12881E-05-3.15691E-05-1.95110E-06-5.26993E-19-2.73169E-18
 -1      1527 1.03985E-04-3.09568E-05-3.13458E-05-3.39174E-06-4.43845E-19-2.54429E-18
 -1      1528 1.12277E-04-3.34873E-05-3.38159E-05-3.05555E-06-7.89693E-20-1.34774E-18
 -1      1529 1.09262E-04-3.24984E-05-3.29024E-05-2.76432E-06-1.73437E-19-1.37913E-18
 -1      1530 1.07635E-04-3.19541E-05-3.25068E-05-4.80838E-06-4.69984E-19-2.29341E-18
 -1      1531 1.19452E-04-3.55955E-05-3.60096E-05-4.21220E-06-3.08830E-19-1.55573E-18
 -1      1532 1.15247E-04-3.42064E-05-3.47480E-05-3.81915E-06-8.67746E-20-1.97340E-18
 -1      1533 1.12596E-04-3.33345E-05-3.40715E-05-6.67727E-06 1.37908E-20-2.41271E-18
 -1      1534 1.28871E-04-3.84444E-05-3.88280E-05-5.49056E-06-1.60840E-19-8.95579E-19
 -1      1535 1.23298E-04-3.65756E-05-3.71950E-05-5.01439E-06-2.85086E-19-1.08759E-18
 -1      1536 1.19134E-04-3.52386E-05-3.60835E-05-8.89033E-06-5.01642E-19-1.47914E-18
 -1      1537 1.40684E-04-4.22263E-05-4.21769E-05-6.33599E-06-8.61098E-19-6.65980E-20
 -1      1538 1.33737E-04-3.98634E-05-4.02505E-05-5.94942E-06-5.36925E-19-8.83191E-19
 -1      1539 1.27524E-04-3.78962E-05-3.85175E-05-1.08978E-05-6.95375E-19-1.11610E-18
 -1      1540 1.51600E-04-4.61129E-05-4.49226E-05-5.32825E-06-7.69040E-19 1.86750E-18
 -1      1541 1.45467E-04-4.39997E-05-4.34149E-05-5.54061E-06-1.05543E-18 6.13464E-19
 -1      1542 1.37069E-04-4.14830E-05-4.09308E-05-1.10920E-05-1.54994E-18-2.14591E-19
 -1      1543 1.57247E-04-4.87578E-05-4.58583E-05-5.98366E-07 2.34416E-19 2.74836E-18
 -1      1544 1.55097E-04-4.81181E-05-4.55858E-05-2.11831E-06-4.20472E-19 1.97793E-18
 -1      1545 1.45795E-04-4.56416E-05-4.25922E-05-6.62566E-06-8.14819E-19 6.15158E-20
 -1      1546 1.50854E-04-4.71754E-05-4.39583E-05 8.34502E-06-2.99898E-19 2.14215E-18
 -1      1547 1.57239E-04-4.99084E-05-4.56175E-05 5.30498E-06 3.88073E-19 2.62644E-18
 -1      1548 1.50600E-04-4.89478E-05-4.29937E-05 4.93691E-06 4.25316E-19 1.22222E-18
 -1      1549 1.32445E-04-3.99679E-05-4.02742E-05 1.55558E-05-1.41349E-20 3.00908E-18
 -1      1550 1.46443E-04-4.59064E-05-4.31588E-05 1.30331E-05-6.81941E-19 2.50256E-18
 -1      1551 1.47562E-04-4.76256E-05-4.25325E-05 1.95702E-05-9.77847E-19 1.42852E-18
 -1      1552 1.10315E-04-2.98668E-05-3.68259E-05 1.24467E-05 9.38407E-19 1.94394E-18
 -1      1553 1.25566E-04-3.59618E-05-3.95285E-05 1.32574E-05 7.83082E-19 3.17637E-18
 -1      1554 1.37070E-04-3.98808E-05-4.22505E-05 2.44762E-05 8.66832E-19 9.41795E-19
 -1      1555 1.06078E-04-2.76872E-05-3.61849E-05-4.14273E-06 1.06154E-18 3.74812E-20
 -1      1556 1.07860E-04-2.73632E-05-3.66120E-05 9.85122E-07 1.14392E-18 1.60523E-18
 -1      1557 1.27210E-04-3.07218E-05-4.26871E-05 8.36911E-06 1.77284E-18 5.30203E-19
 -1      1558 1.25129E-04-3.65761E-05-3.89411E-05-1.56213E-05 7.18284E-19-2.24972E-18
 -1      1559 1.11608E-04-3.01211E-05-3.66287E-05-1.23613E-05 7.31731E-19-9.53971E-19
 -1      1560 1.30123E-04-3.29706E-05-4.29485E-05-1.66403E-05 1.92785E-18-2.27375E-19
 -1      1561 1.46788E-04-4.55823E-05-4.27615E-05-1.35238E-05-3.23712E-19-2.28974E-18
 -1      1562 1.31362E-04-3.97499E-05-3.97200E-05-1.37657E-05 1.84203E-19-2.64825E-18
 -1      1563 1.41636E-04-4.31510E-05-4.28584E-05-2.47103E-05 5.28231E-19-2.43818E-18
 -1      1564 1.58082E-04-4.92868E-05-4.56618E-05-3.85328E-06-1.88280E-19-9.73876E-19
 -1      1565 1.49590E-04-4.70638E-05-4.35095E-05-6.07473E-06-2.94900E-19-1.22121E-18
 -1      1566 1.49689E-04-4.94776E-05-4.30404E-05-1.46405E-05-9.56009E-19-1.29278E-18
 -1      1567 1.55030E-04-4.74147E-05-4.56199E-05 3.51005E-06-7.17357E-19-5.28099E-19
 -1      1568 1.55969E-04-4.85173E-05-4.55620E-05 1.78080E-06-3.81112E-19-5.96523E-19
 -1      1569 1.48922E-04-4.83507E-05-4.29565E-05 6.68147E-08-5.88159E-19-1.86519E-19
 -1      1570 1.44698E-04-4.35427E-05-4.32910E-05 6.25423E-06 2.06352E-19-9.68794E-21
 -1      1571 1.50551E-04-4.58681E-05-4.46664E-05 5.54980E-06-3.88179E-19-6.90120E-19
 -1      1572 1.41748E-04-4.39606E-05-4.17749E-05 8.94975E-06-3.86962E-19-3.27431E-20
 -1      1573 1.32891E-04-3.96692E-05-4.00797E-05 6.18382E-06 1.07780E-18-2.07190E-18
 -1      1574 1.39763E-04-4.19603E-05-4.19332E-05 6.10468E-06 1.10379E-18-1.84018E-19
 -1      1575 1.32344E-04-3.97171E-05-3.96367E-05 1.14801E-05 1.13471E-18-9.86238E-19
 -1      1576 1.22407E-04-3.64620E-05-3.69878E-05 5.07970E-06 1.74801E-18-4.11208E-18
 -1      1577 1.28459E-04-3.83049E-05-3.87263E-05 5.23185E-06 1.19309E-18-2.93428E-18
 -1      1578 1.23243E-04-3.64535E-05-3.71799E-05 1.05482E-05 1.92255E-18-5.68783E-19
 -1      1579 1.13751E-04-3.39054E-05-3.43348E-05 3.77919E-06-3.17267E-19-4.22325E-18
 -1      1580 1.18630E-04-3.53175E-05-3.57871E-05 3.99482E-06-1.67322E-19-4.49229E-18
 -1      1581 1.15370E-04-3.40289E-05-3.48564E-05 8.41595E-06 9.03109E-19-2.78449E-18
 -1      1582 1.07616E-04-3.21241E-05-3.24289E-05 2.74926E-06 7.52834E-20-5.21410E-18
 -1      1583 1.11024E-04-3.30779E-05-3.34563E-05 2.92410E-06 4.31477E-19-3.98434E-18
 -1      1584 1.09173E-04-3.22736E-05-3.29587E-05 6.28708E-06-6.50495E-20-3.53335E-18
 -1      1585 1.03113E-04-3.08203E-05-3.10300E-05 1.97299E-06-6.31245E-19-2.77469E-18
 -1      1586 1.05564E-04-3.14959E-05-3.17713E-05 2.10702E-06-8.54885E-19-3.94347E-18
 -1      1587 1.04608E-04-3.10284E-05-3.15358E-05 4.59339E-06-1.10648E-18-1.78928E-18
 -1      1588 9.98684E-05-2.98770E-05-3.00272E-05 1.39803E-06-1.05354E-18 3.39819E-19
 -1      1589 1.01608E-04-3.03535E-05-3.05516E-05 1.49981E-06-1.37401E-18-1.48440E-18
 -1      1590 1.01220E-04-3.01101E-05-3.04780E-05 3.30541E-06-2.22088E-18 4.54128E-19
 -1      1591 9.75926E-05-2.92076E-05-2.93312E-05 9.51459E-07 1.35701E-19 1.41738E-18
 -1      1592 9.87926E-05-2.95341E-05-2.96895E-05 1.03617E-06-3.46159E-19 1.79214E-19
 -1      1593 9.87566E-05-2.94330E-05-2.97146E-05 2.32602E-06-9.93166E-19 9.58743E-19
 -1      1594 9.61210E-05-2.87652E-05-2.88872E-05 5.54539E-07-1.85181E-19 1.66354E-18
 -1      1595 9.68653E-05-2.89599E-05-2.91080E-05 6.43566E-07 1.31451E-19 1.61295E-18
 -1      1596 9.70269E-05-2.89405E-05-2.91893E-05 1.52535E-06-2.20106E-19 2.63272E-18
 -1      1597 9.53923E-05-2.85506E-05-2.86452E-05 1.71136E-07-6.29597E-19 1.54158E-18
 -1      1598 9.56937E-05-2.86059E-05-2.87549E-05 2.66296E-07-2.09293E-20 1.03489E-18
 -1      1599 9.59045E-05-2.86061E-05-2.88558E-05 7.80230E-07 2.29374E-19-3.30660E-19
 -1      1600 9.52324E-05-2.85411E-05-2.85701E-05-7.26769E-09 1.64326E-18 1.39532E-18
 -1      1601 9.51566E-05-2.79660E-05-2.88090E-05 4.32632E-07 1.47111E-19-2.14646E-18
 -1      1602 9.52604E-05-2.82909E-05-2.86975E-05 3.34569E-07 2.00922E-18-1.01199E-18
 -1      1603 9.47726E-05-2.68674E-05-2.91099E-05 7.36026E-07 3.18312E-19 5.27301E-19
 -1      1604 9.49958E-05-2.75046E-05-2.89331E-05 6.88424E-07 8.26013E-19-4.21026E-19
 -1      1605 9.51170E-05-2.75727E-05-2.89589E-05 1.09531E-06-3.03397E-19-9.60960E-19
 -1      1606 9.43184E-05-2.55568E-05-2.94705E-05 8.26166E-07 4.77250E-20-1.09286E-18
 -1      1607 9.45778E-05-2.63087E-05-2.92624E-05 8.26314E-07 1.52988E-18 5.70280E-20
 -1      1608 9.46844E-05-2.65262E-05-2.92163E-05 1.50650E-06 5.33720E-19 6.58655E-20
 -1      1609 9.39086E-05-2.43448E-05-2.98102E-05 7.10827E-07 2.91786E-18 2.50083E-18
 -1      1610 9.41356E-05-2.50169E-05-2.96220E-05 7.50052E-07-6.56179E-19 2.26803E-18
 -1      1611 9.42503E-05-2.54115E-05-2.94945E-05 1.51495E-06 3.36477E-19-1.33623E-19
 -1      1612 9.36309E-05-2.34938E-05-3.00547E-05 4.59421E-07 3.81313E-18 5.54401E-19
 -1      1613 9.37777E-05-2.39419E-05-2.99273E-05 5.18461E-07 2.99012E-18-1.04685E-19
 -1      1614 9.38939E-05-2.44637E-05-2.97387E-05 1.18031E-06 1.03752E-18 2.28615E-18
 -1      1615 9.35133E-05-2.31047E-05-3.01715E-05 1.45255E-07 2.70845E-18-1.89524E-18
 -1      1616 9.35662E-05-2.32780E-05-3.01208E-05 2.10043E-07 3.62488E-18-2.69098E-19
 -1      1617 9.36774E-05-2.38497E-05-2.99054E-05 6.41788E-07 8.64592E-19-1.76097E-19
 -1      1618 9.35606E-05-2.32099E-05-3.01482E-05-1.53490E-07 1.01356E-18-1.47288E-18
 -1      1619 9.35205E-05-2.31046E-05-3.01765E-05-9.81752E-08 2.87022E-18-2.34465E-18
 -1      1620 9.36199E-05-2.36465E-05-2.99690E-05 4.29980E-08 9.06506E-19-2.88600E-18
 -1      1621 9.37396E-05-2.37251E-05-3.00058E-05-3.84142E-07 1.63330E-18 1.08822E-18
 -1      1622 9.36280E-05-2.33983E-05-3.00979E-05-3.46271E-07 6.83908E-19 1.30009E-18
 -1      1623 9.37097E-05-2.38482E-05-2.99257E-05-4.84285E-07 1.74708E-18-1.05868E-18
 -1      1624 9.40018E-05-2.45131E-05-2.97818E-05-5.22293E-07 1.84989E-18 4.37340E-19
 -1      1625 9.38474E-05-2.40478E-05-2.99146E-05-5.04036E-07 1.29791E-18 1.21564E-18
 -1      1626 9.39084E-05-2.43703E-05-2.97933E-05-8.60036E-07 9.73223E-19 1.49350E-18
 -1      1627 9.42968E-05-2.54246E-05-2.95183E-05-5.68845E-07-2.32520E-18-2.70128E-18
 -1      1628 9.41284E-05-2.49062E-05-2.96676E-05-5.67867E-07 8.53412E-19-1.29286E-18
 -1      1629 9.41676E-05-2.50920E-05-2.96011E-05-1.05664E-06-6.57030E-21-9.10846E-19
 -1      1630 9.45789E-05-2.63157E-05-2.92574E-05-5.42590E-07-3.19976E-18 9.52775E-19
 -1      1631 9.44214E-05-2.58222E-05-2.94005E-05-5.53568E-07-2.05008E-18-1.97154E-18
 -1      1632 9.44402E-05-2.58833E-05-2.93835E-05-1.08943E-06-1.75503E-18-3.28285E-18
 -1      1633 9.48307E-05-2.71245E-05-2.90185E-05-4.66109E-07-1.24457E-18 2.98201E-19
 -1      1634 9.46930E-05-2.66883E-05-2.91455E-05-4.84645E-07-2.66202E-18 1.95108E-18
 -1      1635 9.46938E-05-2.66489E-05-2.91672E-05-9.99006E-07-3.62530E-19 2.05066E-18
 -1      1636 9.50308E-05-2.77749E-05-2.88257E-05-3.60409E-07-1.15984E-18-1.37038E-19
 -1      1637 9.49242E-05-2.74352E-05-2.89245E-05-3.82211E-07-1.03025E-18 1.04927E-18
 -1      1638 9.49116E-05-2.73251E-05-2.89725E-05-8.26860E-07 2.88901E-19 3.25915E-19
 -1      1639 9.51721E-05-2.82277E-05-2.86898E-05-2.38898E-07-2.59790E-18-1.07479E-18
 -1      1640 9.50981E-05-2.80070E-05-2.87551E-05-2.61329E-07-1.44141E-18-9.05139E-19
 -1      1641 9.50837E-05-2.78638E-05-2.88156E-05-6.06050E-07-7.96508E-19-1.07552E-18
 -1      1642 9.52561E-05-2.84514E-05-2.86265E-05-1.54320E-07-2.28321E-18 2.09658E-19
 -1      1643 9.52278E-05-2.83522E-05-2.86624E-05-1.99388E-07-1.60791E-18-7.23227E-19
 -1      1644 9.52259E-05-2.82147E-05-2.87226E-05-4.32303E-07-7.82970E-19-1.02980E-19
 -1      1645 9.53501E-05-2.84430E-05-2.86757E-05-3.08840E-07-5.39212E-19-3.67863E-19
 -1      1646 2.19588E-05-7.60265E-05 1.67629E-05-1.19747E-05 5.78524E-19 1.18415E-18
 -1      1647 2.45021E-05-8.17977E-05 1.80030E-05-2.61607E-06-1.21610E-18 1.30358E-18
 -1      1648 1.95641E-05-5.48723E-05 9.15341E-06-9.89361E-06 3.00697E-19-5.76724E-19
 -1      1649 2.50986E-05-7.44516E-05 1.41179E-05-9.17563E-06 1.32561E-18-4.43845E-19
 -1      1650 2.89821E-05-2.59130E-05-5.63998E-06 1.19103E-05 6.95414E-19 2.43734E-18
 -1      1651 2.71669E-05-4.87952E-05 2.74557E-06-2.73590E-06-4.32834E-19 6.73603E-19
 -1      1652 7.66205E-05-1.77910E-05-2.62736E-05 4.62519E-05 1.57887E-18 2.36830E-18
 -1      1653 5.45093E-05-2.80853E-05-1.54135E-05 2.28123E-05 1.15281E-18 1.14349E-18
 -1      1654 1.38974E-04-2.15261E-05-4.78991E-05 7.13426E-05 1.84145E-18 1.79232E-18
 -1      1655 9.60833E-05-1.41728E-05-3.66644E-05 5.20068E-05 2.37339E-18 2.92735E-18
 -1      1656 2.22307E-04-4.96733E-05-6.75776E-05 6.72910E-05 8.71385E-19-1.94987E-18
 -1      1657 1.68223E-04-2.83010E-05-5.77009E-05 6.74939E-05 1.86898E-18 4.67562E-19
 -1      1658 2.87558E-04-7.47019E-05-8.11876E-05 3.62396E-05 5.35748E-19-5.29819E-18
 -1      1659 2.47101E-04-5.46238E-05-7.54023E-05 6.30910E-05 9.94205E-19-2.49536E-18
 -1      1660 2.97878E-04-7.77617E-05-8.41201E-05-1.86085E-05 1.63647E-18-7.48608E-18
 -1      1661 2.97251E-04-7.73556E-05-8.39905E-05 2.18992E-05 3.24414E-19-5.39984E-18
 -1      1662 2.48518E-04-5.57390E-05-7.56180E-05-5.91724E-05 3.31465E-18-8.58891E-18
 -1      1663 2.86829E-04-7.45218E-05-8.12141E-05-3.18834E-05 2.35433E-18-7.35648E-18
 -1      1664 1.73584E-04-2.81062E-05-5.94790E-05-7.29334E-05 5.85893E-18-9.02768E-18
 -1      1665 2.27036E-04-5.03481E-05-6.88127E-05-7.07582E-05 4.07211E-18-8.61263E-18
 -1      1666 1.01727E-04-1.31096E-05-3.91332E-05-5.63166E-05 5.62260E-18-8.46864E-18
 -1      1667 1.45354E-04-2.22964E-05-4.99379E-05-7.44339E-05 5.86994E-18-8.52454E-18
 -1      1668 5.19672E-05-1.91573E-05-1.83198E-05-2.62649E-05 6.92704E-18-6.18927E-18
 -1      1669 7.57435E-05-1.04788E-05-2.89205E-05-5.04682E-05 6.09694E-18-8.30770E-18
 -1      1670 2.98341E-05-4.27040E-05-3.51948E-07-1.69610E-06 5.84283E-18-3.95353E-18
 -1      1671 3.37995E-05-2.11985E-05-9.06125E-06-1.75492E-05 6.96939E-18-5.12540E-18
 -1      1672 2.66784E-05-6.66159E-05 1.13439E-05 3.95299E-06 4.00647E-19-3.01205E-18
 -1      1673 2.26455E-05-4.72668E-05 5.72360E-06 1.10522E-06 3.42540E-18-4.38805E-18
 -1      1674 2.49819E-05-8.08568E-05 1.73981E-05 3.98006E-06-5.36024E-18-2.27386E-18
 -1      1675 2.09243E-05-7.01432E-05 1.51718E-05 1.14992E-05-8.75832E-19-2.99426E-18
 -1      1676 2.07432E-05-4.92146E-05 8.07451E-06-1.32249E-05-1.82663E-18-5.02968E-18
 -1      1677 2.31158E-05-7.60894E-05 1.64373E-05-2.39786E-06-7.63812E-18-1.57294E-18
 -1      1678 2.50088E-05-8.43595E-05 1.83849E-05 7.80417E-06-5.87460E-18-5.79159E-19
 -1      1679 1.98617E-05-4.90626E-05 7.74932E-06 8.22438E-07-7.45220E-18-1.53631E-18
 -1      1680 2.54218E-05-7.07440E-05 1.30106E-05 1.13568E-06-8.13575E-18-1.98709E-18
 -1      1681 2.69600E-05-1.64929E-05-7.06044E-06 2.16589E-05-6.53401E-18-4.60193E-18
 -1      1682 2.60984E-05-4.09968E-05 1.28188E-06 7.26870E-06-6.70427E-18-2.98071E-18
 -1      1683 6.18507E-05-2.00552E-06-2.55842E-05 5.38584E-05-6.20960E-18-6.06814E-18
 -1      1684 4.43977E-05-1.37796E-05-1.59299E-05 3.17434E-05-6.06730E-18-4.55450E-18
 -1      1685 1.15894E-04-5.86959E-06-4.46995E-05 7.83007E-05-5.07034E-18-6.25788E-18
 -1      1686 8.01626E-05 1.47379E-07-3.49073E-05 6.01446E-05-6.22230E-18-5.99953E-18
 -1      1687 1.86797E-04-3.17648E-05-6.19464E-05 7.56930E-05-3.48702E-18-4.46132E-18
 -1      1688 1.41523E-04-1.25518E-05-5.33512E-05 7.54225E-05-4.57694E-18-5.36934E-18
 -1      1689 2.46492E-04-5.79754E-05-7.44734E-05 4.65760E-05-1.53578E-18-4.81708E-18
 -1      1690 2.09699E-04-3.80070E-05-6.91094E-05 7.06004E-05-2.42564E-18-5.22196E-18
 -1      1691 2.66562E-04-6.77609E-05-7.85980E-05-6.64745E-06-1.87618E-19-3.58718E-18
 -1      1692 2.59426E-04-6.36569E-05-7.76664E-05 3.02229E-05-1.03529E-18-4.15131E-18
 -1      1693 2.34553E-04-5.03320E-05-7.35451E-05-5.67048E-05-1.86464E-18-3.04085E-19
 -1      1694 2.59943E-04-6.47941E-05-7.71400E-05-2.49343E-05-1.04397E-18-2.98219E-18
 -1      1695 1.71211E-04-2.09058E-05-6.09601E-05-8.21945E-05-4.09117E-18 4.73746E-18
 -1      1696 2.16521E-04-4.35229E-05-6.83943E-05-7.19724E-05-2.81458E-18 1.49417E-18
 -1      1697 1.03076E-04-2.46078E-07-4.32314E-05-7.23453E-05-7.61906E-18 6.60093E-18
 -1      1698 1.45323E-04-1.32708E-05-5.27345E-05-8.51488E-05-4.78743E-18 6.61872E-18
 -1      1699 5.64090E-05-6.72075E-06-2.32140E-05-4.23389E-05-7.97143E-18 7.45813E-18
 -1      1700 8.24888E-05-1.47875E-06-3.35650E-05-6.55840E-05-8.17387E-18 6.93042E-18
 -1      1701 2.87732E-05-2.98642E-05-4.05751E-06-1.30612E-05-7.81896E-18 4.56974E-18
 -1      1702 3.51613E-05-7.42272E-06-1.35172E-05-3.28753E-05-8.49405E-18 7.38697E-18
 -1      1703 2.52710E-05-6.34200E-05 1.02181E-05-1.01734E-06-3.88534E-18 3.28093E-18
 -1      1704 2.01927E-05-3.82939E-05 3.62787E-06-5.32179E-06-7.19300E-18 4.24829E-18
 -1      1705 2.58288E-05-8.31782E-05 1.77432E-05-5.28722E-06-1.43170E-18 5.36172E-19
 -1      1706 2.18421E-05-7.02878E-05 1.47860E-05 3.41390E-06-2.80707E-18 1.60237E-18
 -1      1707 1.22508E-04-5.04640E-05-3.17164E-05 3.59203E-05-1.22481E-18-4.90432E-19
 -1      1708 7.39889E-05-4.82960E-05-1.31277E-05 3.30231E-05-1.23667E-18 9.27501E-19
 -1      1709 9.53369E-05-2.84968E-05-2.86515E-05 1.63774E-07 1.02692E-18-3.25747E-19
 -1      1710 9.54206E-05-2.82450E-05-2.87903E-05 5.90535E-07-4.22901E-19-3.20638E-19
 -1      1711 1.64101E-05-5.36987E-05 1.11702E-05 5.55265E-06-1.07023E-18 3.29496E-19
 -1      1712 3.44689E-05-5.05189E-05 2.51203E-06 1.76642E-05 3.10014E-19-2.59721E-19
 -1      1713 1.17645E-05-5.42799E-05 1.34642E-05-6.51201E-06-1.51608E-18 2.31071E-18
 -1      1714 1.71821E-04-4.76939E-05-5.09264E-05 3.24726E-05 1.08674E-18-2.00493E-18
 -1      1715 2.16071E-04-4.65393E-05-6.73458E-05 2.14241E-05 1.33259E-18-3.58973E-18
 -1      1716 2.45326E-04-4.59648E-05-7.74715E-05 9.68830E-06 1.14773E-18-4.30970E-18
 -1      1717 2.43522E-04-4.46666E-05-7.73561E-05-6.83849E-06 2.52712E-18-5.48962E-18
 -1      1718 2.18780E-04-4.58368E-05-6.82524E-05-2.29235E-05 2.94524E-18-5.92923E-18
 -1      1719 1.75734E-04-4.57562E-05-5.28524E-05-3.59748E-05 3.90821E-18-6.10372E-18
 -1      1720 1.22832E-04-4.38263E-05-3.40889E-05-3.94423E-05 3.20263E-18-4.71459E-18
 -1      1721 7.47786E-05-4.47323E-05-1.55755E-05-3.24785E-05 3.50163E-18-3.45378E-18
 -1      1722 4.15151E-05-4.83564E-05-8.86735E-07-2.30766E-05 9.39360E-19-4.37477E-18
 -1      1723 1.68800E-05-5.31594E-05 1.09637E-05 1.55842E-05-3.60709E-18-1.69555E-18
 -1      1724 3.24962E-05-4.40790E-05 1.56767E-06 2.75410E-05-4.69002E-18-1.53718E-18
 -1      1725 6.31234E-05-3.57648E-05-1.31288E-05 4.15391E-05-3.50163E-18-2.92269E-18
 -1      1726 1.02856E-04-3.15696E-05-3.02207E-05 4.90158E-05-3.25642E-18-2.95953E-18
 -1      1727 1.45877E-04-3.00080E-05-4.73792E-05 4.74446E-05-3.43938E-18-3.30512E-18
 -1      1728 1.85398E-04-3.15224E-05-6.21905E-05 3.57537E-05-2.80431E-18-2.96716E-18
 -1      1729 2.15531E-04-3.48279E-05-7.21082E-05 1.87696E-05-1.47892E-18-3.87094E-18
 -1      1730 2.21264E-04-3.61924E-05-7.37878E-05-7.51397E-06-1.56828E-18-1.94923E-18
 -1      1731 2.01542E-04-3.26788E-05-6.75324E-05-3.33244E-05-3.32757E-18-1.45690E-18
 -1      1732 1.64116E-04-2.86671E-05-5.47324E-05-4.97785E-05-5.06610E-18 2.61564E-18
 -1      1733 1.19672E-04-2.95643E-05-3.75739E-05-5.06350E-05-5.81488E-18 4.00731E-18
 -1      1734 7.68775E-05-3.32977E-05-1.94134E-05-4.50113E-05-4.94328E-18 4.78531E-18
 -1      1735 4.04286E-05-4.08182E-05-2.75913E-06-3.14782E-05-4.39017E-18 4.70114E-18
 -1      1736 2.05185E-05-5.15512E-05 8.92748E-06-1.86684E-05-2.70881E-18 4.10493E-18
 -1      1737 1.06044E-04-2.31684E-05-3.56014E-05-1.68542E-05-1.56606E-18 6.10923E-18
 -1      1738 1.26132E-05-5.49949E-05 1.34616E-05 2.91418E-06-3.19628E-18-2.72321E-18
 -1      1739 8.91506E-05-1.05871E-05-3.37954E-05-1.33299E-05-2.01381E-18-2.16883E-18
 -1      1740 9.04793E-05-1.16309E-05-3.39344E-05-1.51387E-05-2.31470E-18-1.58025E-18
 -1      1741 9.24848E-05-1.38742E-05-3.38522E-05-1.60038E-05-2.34388E-18-7.58227E-19
 -1      1742 9.42008E-05-1.58204E-05-3.40958E-05-1.76646E-05-2.52874E-18 3.82065E-19
 -1      1743 9.34136E-05-1.63473E-05-3.30431E-05-1.37718E-05-2.43729E-18-1.03791E-18
 -1      1744 8.62148E-05-7.67470E-06-3.37311E-05-7.86691E-06-1.03873E-18-3.24809E-18
 -1      1745 8.66175E-05-7.97257E-06-3.37648E-05-9.25592E-06-1.30127E-18-3.11316E-18
 -1      1746 8.56005E-05-7.03783E-06-3.37290E-05-5.32262E-06-5.75037E-19-3.35380E-18
 -1      1747 8.58340E-05-7.21640E-06-3.37437E-05-6.62757E-06-8.00739E-19-3.33433E-18
 -1      1748 8.75986E-05-9.86848E-06-3.33447E-05-6.93240E-06-1.02101E-18-3.15260E-18
 -1      1749 8.52671E-05-6.67937E-06-3.37328E-05-2.89024E-06-8.26151E-20-3.38173E-18
 -1      1750 8.53873E-05-6.77398E-06-3.37385E-05-4.13037E-06-3.16343E-19-3.36741E-18
 -1      1751 8.69652E-05-9.15710E-06-3.33787E-05-4.53952E-06-4.65413E-19-3.19876E-18
 -1      1752 8.51370E-05-6.53136E-06-3.37365E-05-5.17887E-07 4.01814E-19-3.41444E-18
 -1      1753 8.51724E-05-6.55985E-06-3.37379E-05-1.72800E-06 2.21234E-19-3.44343E-18
 -1      1754 8.66345E-05-8.77840E-06-3.33993E-05-2.21842E-06 9.85974E-20-3.23144E-18
 -1      1755 8.51822E-05-6.56888E-06-3.37380E-05 1.84584E-06 8.25188E-19-3.40734E-18
 -1      1756 8.51407E-05-6.53596E-06-3.37364E-05 6.34701E-07 6.03699E-19-3.44641E-18
 -1      1757 8.65369E-05-8.66501E-06-3.34060E-05 6.52713E-08 5.59432E-19-3.35747E-18
 -1      1758 8.54124E-05-6.79899E-06-3.37386E-05 4.25279E-06 1.18864E-18-3.32754E-18
 -1      1759 8.52849E-05-6.69836E-06-3.37327E-05 3.00949E-06 1.02779E-18-3.38353E-18
 -1      1760 8.66522E-05-8.79808E-06-3.33985E-05 2.35025E-06 9.85061E-19-3.31578E-18
 -1      1761 8.58677E-05-7.25201E-06-3.37434E-05 6.71493E-06 1.51477E-18-3.01053E-18
 -1      1762 8.56306E-05-7.06990E-06-3.37289E-05 5.42728E-06 1.34504E-18-3.21047E-18
 -1      1763 8.69993E-05-9.19493E-06-3.33772E-05 4.65447E-06 1.38528E-18-3.13435E-18
 -1      1764 8.66788E-05-8.04139E-06-3.37633E-05 9.37739E-06 2.03406E-18-2.36300E-18
 -1      1765 8.62591E-05-7.72502E-06-3.37300E-05 7.95623E-06 1.72439E-18-2.68662E-18
 -1      1766 8.76496E-05-9.92726E-06-3.33423E-05 7.03051E-06 1.78149E-18-2.71164E-18
 -1      1767 8.80882E-05-9.38839E-06-3.38176E-05 1.22568E-05 2.49166E-18-1.57485E-18
 -1      1768 8.73497E-05-8.83082E-06-3.37461E-05 1.06636E-05 2.22363E-18-2.03787E-18
 -1      1769 8.87683E-05-1.11616E-05-3.32908E-05 9.50551E-06 2.24726E-18-1.98118E-18
 -1      1770 9.06289E-05-1.18397E-05-3.39266E-05 1.53052E-05 2.79872E-18-1.58977E-19
 -1      1771 8.92501E-05-1.07408E-05-3.37874E-05 1.35156E-05 2.60363E-18-1.04561E-18
 -1      1772 9.06625E-05-1.32232E-05-3.32069E-05 1.19779E-05 2.66655E-18-1.12728E-18
 -1      1773 9.58702E-05-1.70331E-05-3.39913E-05 1.76926E-05 2.63814E-18 2.57837E-18
 -1      1774 9.28523E-05-1.43423E-05-3.38255E-05 1.61961E-05 2.67172E-18 9.46718E-19
 -1      1775 9.39664E-05-1.68863E-05-3.30231E-05 1.38968E-05 2.82977E-18 4.62295E-19
 -1      1776 1.01917E-04-2.50922E-05-3.33568E-05 1.44242E-05 2.24104E-18 5.82409E-18
 -1      1777 9.80697E-05-1.96148E-05-3.36231E-05 1.69662E-05 2.46455E-18 3.69349E-18
 -1      1778 9.73231E-05-2.18526E-05-3.24257E-05 1.32506E-05 2.78393E-18 2.56392E-18
 -1      1779 9.87439E-05-2.61329E-05-3.13399E-05 9.43680E-06 2.24368E-18 5.11382E-18
 -1      1780 1.00148E-04-1.95613E-05-3.42156E-05-1.88710E-05-2.17971E-18 2.48625E-18
 -1      1781 9.53020E-05-2.72830E-05-2.91826E-05 4.06883E-06 1.74551E-18 3.98888E-18
 -1      1782 9.77330E-05-2.73883E-05-3.01918E-05 6.40278E-06 1.86834E-18 4.63925E-18
 -1      1783 9.75690E-05-2.56127E-05-3.08305E-05 8.76206E-06 2.30234E-18 3.18727E-18
 -1      1784 1.10930E-05-3.74066E-05 9.61751E-06 7.32772E-06-1.76331E-18-9.83829E-19
 -1      1785 1.25916E-05-3.56416E-05 8.58321E-06-3.58338E-06-1.88507E-18-2.92099E-18
 -1      1786 9.98086E-05-2.25403E-05-3.28340E-05-1.44695E-05-2.36439E-18 1.58718E-18
 -1      1787 9.69515E-05-2.69758E-05-2.98750E-05-5.70700E-06-2.02406E-18 1.20087E-18
 -1      1788 9.51433E-05-2.70311E-05-2.91643E-05-3.89946E-06-1.81732E-18 7.25073E-19
 -1      1789 9.43251E-05-2.72333E-05-2.86567E-05-2.42352E-06-1.59135E-18 7.36323E-19
 -1      1790 9.35529E-05-2.73138E-05-2.83515E-05-1.57049E-06-1.30466E-18 3.20274E-19
 -1      1791 9.55004E-05-2.65428E-05-2.95740E-05-4.47453E-06-1.93292E-18-3.89255E-20
 -1      1792 9.30274E-05-2.73639E-05-2.80826E-05-7.43867E-07-9.79875E-19 3.37695E-19
 -1      1793 9.27255E-05-2.74270E-05-2.79604E-05-3.05474E-07-6.33859E-19 4.36520E-20
 -1      1794 9.42901E-05-2.72194E-05-2.87652E-05-1.83214E-06-1.31498E-18-5.08948E-20
 -1      1795 9.24497E-05-2.74543E-05-2.78244E-05 1.50181E-07-4.86928E-19-1.36520E-19
 -1      1796 9.24181E-05-2.75301E-05-2.77945E-05 3.74494E-07-4.42906E-19-2.57988E-19
 -1      1797 9.35881E-05-2.75246E-05-2.83294E-05-3.65248E-07-8.44915E-19-3.67169E-19
 -1      1798 9.23150E-05-2.75613E-05-2.77365E-05 6.14962E-07-4.49870E-19-3.64798E-19
 -1      1799 9.24299E-05-2.76460E-05-2.77558E-05 7.19584E-07-3.29556E-19-5.25117E-19
 -1      1800 9.32672E-05-2.77087E-05-2.81088E-05 4.38441E-07-5.46190E-19-7.88593E-19
 -1      1801 9.24361E-05-2.76839E-05-2.77443E-05 8.32088E-07-3.32117E-19-4.79306E-19
 -1      1802 9.26247E-05-2.77703E-05-2.77895E-05 8.67140E-07-3.07647E-19-4.90639E-19
 -1      1803 9.32045E-05-2.78508E-05-2.80171E-05 8.52280E-07-3.89652E-19-7.57652E-19
 -1      1804 9.26952E-05-2.78117E-05-2.78051E-05 9.03169E-07-3.25895E-19-4.15303E-19
 -1      1805 9.29138E-05-2.78944E-05-2.78623E-05 8.98121E-07-2.69011E-19-4.44696E-19
 -1      1806 9.33017E-05-2.79735E-05-2.80030E-05 1.03243E-06-3.45503E-19-6.02498E-19
 -1      1807 9.30184E-05-2.79361E-05-2.78929E-05 8.89872E-07-4.15190E-19-4.60805E-19
 -1      1808 9.32414E-05-2.80117E-05-2.79537E-05 8.63304E-07-3.60845E-19-3.67294E-19
 -1      1809 9.34888E-05-2.80818E-05-2.80346E-05 1.07364E-06-4.48723E-19-8.96309E-19
 -1      1810 9.33609E-05-2.80513E-05-2.79916E-05 8.31772E-07-5.97992E-19-5.80057E-19
 -1      1811 9.35745E-05-2.81184E-05-2.80515E-05 7.95878E-07-5.52505E-19-9.27330E-19
 -1      1812 9.37196E-05-2.81766E-05-2.80914E-05 1.03640E-06-6.68436E-19-1.00359E-18
 -1      1813 9.36975E-05-2.81546E-05-2.80921E-05 7.55095E-07-4.93305E-19-1.09821E-18
 -1      1814 9.38952E-05-2.82131E-05-2.81487E-05 7.18038E-07-3.23183E-19-1.20833E-18
 -1      1815 9.39652E-05-2.82582E-05-2.81607E-05 9.60653E-07-7.36155E-19-1.15752E-18
 -1      1816 9.40157E-05-2.82458E-05-2.81896E-05 6.77481E-07-3.68652E-19-1.51099E-18
 -1      1817 9.41965E-05-2.82966E-05-2.82421E-05 6.44740E-07-4.61168E-19-1.79612E-18
 -1      1818 9.42095E-05-2.83277E-05-2.82352E-05 8.73297E-07-5.64279E-19-1.48494E-18
 -1      1819 9.43125E-05-2.83260E-05-2.82822E-05 6.10780E-07-4.20630E-19-1.98074E-18
 -1      1820 9.44786E-05-2.83707E-05-2.83311E-05 5.85977E-07-4.96507E-19-2.00872E-18
 -1      1821 9.44452E-05-2.83867E-05-2.83108E-05 7.92493E-07-6.04450E-19-1.89606E-18
 -1      1822 9.45908E-05-2.83978E-05-2.83703E-05 5.62763E-07-6.36362E-19-1.94982E-18
 -1      1823 9.47467E-05-2.84385E-05-2.84167E-05 5.48139E-07-6.56045E-19-1.77901E-18
 -1      1824 9.46715E-05-2.84378E-05-2.83859E-05 7.30325E-07-6.08398E-19-1.88061E-18
 -1      1825 9.48574E-05-2.84646E-05-2.84556E-05 5.38091E-07-7.92991E-19-1.86863E-18
 -1      1826 9.50091E-05-2.85037E-05-2.85009E-05 5.34726E-07-5.85340E-19-2.11758E-18
 -1      1827 9.48918E-05-2.84843E-05-2.84605E-05 6.94377E-07-9.04551E-19-1.92298E-18
 -1      1828 9.51218E-05-2.85305E-05-2.85402E-05 5.38695E-07-6.66038E-19-2.18048E-18
 -1      1829 9.52756E-05-2.85707E-05-2.85861E-05 5.46478E-07-6.71184E-19-2.25513E-18
 -1      1830 9.51124E-05-2.85300E-05-2.85357E-05 6.88478E-07-7.99142E-19-1.92217E-18
 -1      1831 9.53944E-05-2.86001E-05-2.86267E-05 5.63598E-07-6.50436E-19-2.54305E-18
 -1      1832 9.55562E-05-2.86441E-05-2.86748E-05 5.80961E-07-3.62189E-19-2.77380E-18
 -1      1833 9.53413E-05-2.85796E-05-2.86128E-05 7.12748E-07-9.09390E-19-1.97388E-18
 -1      1834 9.56849E-05-2.86785E-05-2.87173E-05 6.08183E-07 2.23233E-19-3.24397E-18
 -1      1835 9.58591E-05-2.87290E-05-2.87684E-05 6.31582E-07 1.76361E-19-3.03767E-18
 -1      1836 9.55868E-05-2.86388E-05-2.86929E-05 7.62940E-07-1.84128E-19-2.43153E-18
 -1      1837 9.60009E-05-2.87708E-05-2.88129E-05 6.62921E-07-1.81877E-19-2.47504E-18
 -1      1838 9.61888E-05-2.88300E-05-2.88670E-05 6.86101E-07 1.09767E-19-2.45537E-18
 -1      1839 9.58566E-05-2.87139E-05-2.87765E-05 8.29107E-07 1.17575E-19-2.59048E-18
 -1      1840 9.63449E-05-2.88818E-05-2.89127E-05 7.11644E-07 4.37812E-19-2.60294E-18
 -1      1841 9.65431E-05-2.89509E-05-2.89684E-05 7.24780E-07 5.88801E-19-2.59802E-18
 -1      1842 9.61557E-05-2.88121E-05-2.88627E-05 8.93687E-07 9.22363E-20-2.23720E-18
 -1      1843 9.67120E-05-2.90150E-05-2.90132E-05 7.29668E-07 7.59291E-19-2.45123E-18
 -1      1844 9.69100E-05-2.90935E-05-2.90669E-05 7.18618E-07 5.36905E-19-2.25720E-18
 -1      1845 9.64850E-05-2.89409E-05-2.89484E-05 9.29297E-07 8.92681E-19-1.97880E-18
 -1      1846 9.70856E-05-2.91708E-05-2.91070E-05 6.82382E-07-1.69740E-19-1.52161E-18
 -1      1847 9.72630E-05-2.92552E-05-2.91525E-05 6.28508E-07-5.27534E-20-1.27584E-18
 -1      1848 9.68376E-05-2.91063E-05-2.90280E-05 8.96857E-07 6.12427E-19-1.83756E-18
 -1      1849 9.74329E-05-2.93443E-05-2.91822E-05 5.25471E-07-5.11524E-20-1.09094E-18
 -1      1850 9.75580E-05-2.94262E-05-2.92102E-05 4.06774E-07 2.87835E-19-8.99792E-19
 -1      1851 9.71960E-05-2.93106E-05-2.90929E-05 7.45265E-07 2.18697E-19-7.91792E-19
 -1      1852 9.77013E-05-2.95215E-05-2.92225E-05 2.08624E-07 5.87056E-19-8.63161E-19
 -1      1853 9.77294E-05-2.95858E-05-2.92207E-05 3.23571E-09 3.69460E-19-7.84059E-19
 -1      1854 9.75272E-05-2.95473E-05-2.91317E-05 4.14563E-07 6.38511E-19-1.06432E-18
 -1      1855 9.78149E-05-2.96742E-05-2.92071E-05-3.14856E-07-5.68207E-20-1.30468E-18
 -1      1856 9.76909E-05-2.96973E-05-2.91616E-05-6.21736E-07 1.21733E-19-1.51643E-18
 -1      1857 9.77782E-05-2.97950E-05-2.91307E-05-1.54692E-07 8.38149E-20-1.64084E-18
 -1      1858 9.76765E-05-2.97561E-05-2.91144E-05-1.07023E-06-9.54566E-20-1.79498E-18
 -1      1859 9.73418E-05-2.97060E-05-2.90118E-05-1.47553E-06-6.13833E-19-2.35786E-18
 -1      1860 9.78732E-05-3.00086E-05-2.90766E-05-1.00293E-06-5.69079E-19-1.76312E-18
 -1      1861 9.71776E-05-2.97017E-05-2.89257E-05-2.03504E-06-6.51155E-19-2.01242E-18
 -1      1862 9.65838E-05-2.95417E-05-2.87572E-05-2.50469E-06-5.68281E-19-2.23240E-18
 -1      1863 9.77150E-05-3.01146E-05-2.89598E-05-2.12261E-06-5.82719E-19-1.51229E-18
 -1      1864 9.62215E-05-2.94342E-05-2.86320E-05-3.10949E-06-4.64892E-20-2.18120E-18
 -1      1865 9.53515E-05-2.91331E-05-2.83985E-05-3.56811E-06 5.47451E-19-1.61268E-18
 -1      1866 9.71973E-05-3.00143E-05-2.87779E-05-3.42240E-06-4.18141E-19-1.50986E-18
 -1      1867 9.47641E-05-2.88882E-05-2.82416E-05-4.09745E-06-1.23195E-19-1.46222E-18
 -1      1868 9.36561E-05-2.84382E-05-2.79579E-05-4.42977E-06-4.48343E-19-1.54203E-18
 -1      1869 9.62357E-05-2.96056E-05-2.85400E-05-4.69768E-06 8.10571E-20-6.33564E-19
 -1      1870 9.28654E-05-2.80497E-05-2.77848E-05-4.72021E-06-2.67472E-19-1.15755E-18
 -1      1871 9.16312E-05-2.74866E-05-2.74817E-05-4.79419E-06-5.20217E-19-1.68130E-18
 -1      1872 9.48174E-05-2.88299E-05-2.82679E-05-5.63183E-06-1.28918E-19-7.26481E-19
 -1      1873 9.07331E-05-2.70000E-05-2.73146E-05-4.68414E-06-7.78874E-19-9.54652E-19
 -1      1874 8.95559E-05-2.64151E-05-2.70355E-05-4.39833E-06-6.96666E-19-3.36547E-19
 -1      1875 9.30605E-05-2.77331E-05-2.79940E-05-5.85669E-06-3.91503E-19 3.25031E-19
 -1      1876 8.87235E-05-2.59363E-05-2.68988E-05-3.80057E-06-5.33409E-19-1.05960E-19
 -1      1877 8.78238E-05-2.54632E-05-2.66909E-05-3.14177E-06 6.81918E-19-2.01491E-19
 -1      1878 9.12466E-05-2.65097E-05-2.77548E-05-5.08320E-06-5.44457E-19 1.63370E-18
 -1      1879 8.72660E-05-2.51324E-05-2.66059E-05-2.11269E-06 7.84769E-19-1.46877E-18
 -1      1880 8.68371E-05-2.49019E-05-2.65078E-05-1.19036E-06 4.24357E-19-1.39969E-18
 -1      1881 8.97824E-05-2.54790E-05-2.75832E-05-3.26617E-06 1.29781E-19 3.05866E-19
 -1      1882 8.67145E-05-2.48317E-05-2.64878E-05 5.58659E-08-3.30859E-19-1.98215E-18
 -1      1883 8.68538E-05-2.49132E-05-2.65180E-05 1.03195E-06-8.61978E-19-2.56265E-18
 -1      1884 8.90646E-05-2.49683E-05-2.75020E-05-7.07798E-07-6.02489E-19-1.41108E-18
 -1      1885 8.72003E-05-2.51276E-05-2.65657E-05 2.19327E-06-6.54234E-20-2.96492E-18
 -1      1886 8.78696E-05-2.54942E-05-2.67169E-05 2.99150E-06 3.08287E-19-1.58368E-18
 -1      1887 8.93033E-05-2.51553E-05-2.75211E-05 2.00214E-06-5.16320E-19-2.10431E-18
 -1      1888 8.85754E-05-2.59162E-05-2.68233E-05 3.79991E-06 4.77343E-19-1.52595E-18
 -1      1889 8.96166E-05-2.64584E-05-2.70646E-05 4.25748E-06 7.31026E-19-1.04584E-18
 -1      1890 9.04165E-05-2.59714E-05-2.76365E-05 4.21102E-06 8.96187E-19-1.03304E-18
 -1      1891 9.04830E-05-2.69518E-05-2.72110E-05 4.57990E-06 1.20760E-18-8.09247E-19
 -1      1892 9.16771E-05-2.75294E-05-2.74970E-05 4.65424E-06 1.30405E-18-4.13968E-19
 -1      1893 9.20722E-05-2.71398E-05-2.78305E-05 5.46423E-06 1.06561E-18-5.44054E-19
 -1      1894 9.25047E-05-2.79660E-05-2.76597E-05 4.51750E-06 1.75764E-18-8.63686E-19
 -1      1895 9.36431E-05-2.84637E-05-2.79433E-05 4.27596E-06 1.51748E-18-5.13514E-20
 -1      1896 9.38446E-05-2.83178E-05-2.80736E-05 5.64979E-06 1.54256E-18-3.40398E-19
 -1      1897 9.42967E-05-2.87681E-05-2.80982E-05 3.81783E-06 9.48952E-19 8.50332E-19
 -1      1898 9.52311E-05-2.91235E-05-2.83419E-05 3.38645E-06-3.19226E-20 1.58157E-18
 -1      1899 9.53802E-05-2.92423E-05-2.83295E-05 4.96363E-06 1.76241E-18-3.22476E-20
 -1      1900 9.56561E-05-2.92798E-05-2.84701E-05 2.77928E-06-1.85008E-18 1.67531E-18
 -1      1901 9.63152E-05-2.94824E-05-2.86517E-05 2.28759E-06-2.27675E-18 1.59153E-18
 -1      1902 9.64833E-05-2.97983E-05-2.85633E-05 3.76056E-06-1.15382E-18 2.21870E-18
 -1      1903 9.65201E-05-2.95144E-05-2.87423E-05 1.67845E-06-2.12036E-18 1.27274E-18
 -1      1904 9.68995E-05-2.95868E-05-2.88552E-05 1.22453E-06-4.44178E-19 9.66376E-19
 -1      1905 9.71124E-05-3.00018E-05-2.87481E-05 2.39914E-06-2.14280E-18 2.44435E-18
 -1      1906 9.69272E-05-2.95340E-05-2.89061E-05 7.08715E-07 1.48640E-18 1.54859E-19
 -1      1907 9.70667E-05-2.95123E-05-2.89565E-05 3.48923E-07 1.62595E-18 8.44383E-19
 -1      1908 9.73277E-05-2.99407E-05-2.88702E-05 1.14723E-06-1.13668E-19 2.06717E-18
 -1      1909 9.69705E-05-2.94120E-05-2.89720E-05-2.89670E-08 1.73092E-18 1.48209E-18
 -1      1910 9.69321E-05-2.93321E-05-2.89735E-05-2.73463E-07 2.31996E-18 2.67523E-18
 -1      1911 9.72338E-05-2.97183E-05-2.89289E-05 1.56982E-07 2.04098E-18 1.52650E-18
 -1      1912 9.67618E-05-2.92122E-05-2.89624E-05-5.04982E-07 1.25398E-18 1.84015E-18
 -1      1913 9.66123E-05-2.91034E-05-2.89320E-05-6.35332E-07 1.39817E-18 1.34229E-18
 -1      1914 9.69404E-05-2.94202E-05-2.89341E-05-5.15721E-07 1.65225E-18 2.50391E-18
 -1      1915 9.64088E-05-2.89815E-05-2.89047E-05-7.31627E-07 1.43725E-18 6.21765E-19
 -1      1916 9.62102E-05-2.88660E-05-2.88593E-05-7.59538E-07 1.57744E-18 1.43149E-18
 -1      1917 9.65420E-05-2.91040E-05-2.89013E-05-8.76134E-07 9.82348E-19 9.45838E-19
 -1      1918 9.60048E-05-2.87531E-05-2.88254E-05-7.40920E-07 1.33598E-18 6.27910E-19
 -1      1919 9.58087E-05-2.86479E-05-2.87792E-05-6.83085E-07 9.91360E-19 9.20657E-19
 -1      1920 9.61135E-05-2.88045E-05-2.88477E-05-9.59312E-07 9.04935E-19 1.55955E-19
 -1      1921 9.56428E-05-2.85669E-05-2.87475E-05-5.76780E-07 9.50413E-19 2.36849E-19
 -1      1922 9.54886E-05-2.84920E-05-2.87077E-05-4.62480E-07 5.42433E-19 1.66442E-19
 -1      1923 9.54344E-05-2.84064E-05-2.87273E-05-5.50374E-07-2.34663E-19-1.44495E-18
 -1      1924 9.57275E-05-2.85529E-05-2.87893E-05-8.21477E-07 5.57151E-19 2.93219E-19
 -1      1925 9.32015E-05-2.73596E-05-2.81901E-05 1.60736E-06 1.41553E-18 3.19832E-18
 -1      1926 9.43968E-05-2.74652E-05-2.86268E-05 2.67826E-06 1.48151E-18 3.73915E-18
 -1      1927 9.52220E-05-2.70447E-05-2.92242E-05 4.05632E-06 1.82499E-18 2.57820E-18
 -1      1928 9.21485E-05-2.73457E-05-2.77481E-05 3.50593E-07 8.60354E-19 2.38383E-18
 -1      1929 9.26435E-05-2.73782E-05-2.79206E-05 8.98627E-07 1.11811E-18 2.90408E-18
 -1      1930 9.36169E-05-2.73656E-05-2.84003E-05 1.58769E-06 1.41380E-18 2.10167E-18
 -1      1931 9.17723E-05-2.73830E-05-2.75798E-05-3.03137E-07 6.64448E-19 1.77215E-18
 -1      1932 9.18880E-05-2.73564E-05-2.76269E-05-1.05202E-08 6.32484E-19 2.00861E-18
 -1      1933 9.27853E-05-2.74804E-05-2.79978E-05 2.74730E-07 1.00474E-18 1.25173E-18
 -1      1934 9.17954E-05-2.74732E-05-2.75567E-05-6.30237E-07 4.54005E-19 1.42022E-18
 -1      1935 9.17086E-05-2.74114E-05-2.75404E-05-4.76021E-07 5.12294E-19 1.61038E-18
 -1      1936 9.24718E-05-2.75739E-05-2.78236E-05-4.19466E-07 6.62907E-19 8.94465E-19
 -1      1937 9.20570E-05-2.76023E-05-2.76165E-05-7.73169E-07 5.06103E-19 1.42970E-18
 -1      1938 9.18549E-05-2.75191E-05-2.75648E-05-6.99633E-07 4.02272E-19 1.48786E-18
 -1      1939 9.24786E-05-2.76791E-05-2.77791E-05-7.68721E-07 4.70429E-19 6.23570E-19
 -1      1940 9.24152E-05-2.77361E-05-2.77145E-05-7.97869E-07 6.41793E-19 1.03457E-18
 -1      1941 9.21779E-05-2.76526E-05-2.76503E-05-7.76271E-07 4.85932E-19 1.29204E-18
 -1      1942 9.26745E-05-2.77993E-05-2.78097E-05-9.12415E-07 6.15191E-19 7.16977E-19
 -1      1943 9.28136E-05-2.78697E-05-2.78292E-05-7.63753E-07 5.80521E-19 6.13530E-19
 -1      1944 9.25662E-05-2.77889E-05-2.77607E-05-7.69718E-07 7.24844E-19 9.47176E-19
 -1      1945 9.29587E-05-2.79161E-05-2.78796E-05-9.33093E-07 8.39422E-19 3.05046E-19
 -1      1946 9.32125E-05-2.79950E-05-2.79474E-05-6.99578E-07 6.20409E-19 2.46518E-19
 -1      1947 9.29738E-05-2.79206E-05-2.78801E-05-7.20049E-07 5.43330E-19 5.27932E-19
 -1      1948 9.32801E-05-2.80277E-05-2.79681E-05-8.89367E-07 5.51303E-19 1.82166E-19
 -1      1949 9.35911E-05-2.81085E-05-2.80617E-05-6.25208E-07 1.98997E-19-2.16873E-19
 -1      1950 9.33702E-05-2.80420E-05-2.79986E-05-6.51422E-07 2.86621E-19 8.13565E-20
 -1      1951 9.36065E-05-2.81300E-05-2.80633E-05-8.14857E-07 5.42259E-19 3.50931E-20
 -1      1952 9.39418E-05-2.82095E-05-2.81691E-05-5.54469E-07 6.33175E-19-4.75536E-19
 -1      1953 9.37412E-05-2.81509E-05-2.81111E-05-5.80215E-07 4.43470E-19-1.74754E-19
 -1      1954 9.39213E-05-2.82214E-05-2.81584E-05-7.32251E-07 4.53759E-19-3.96889E-19
 -1      1955 9.42662E-05-2.82995E-05-2.82696E-05-4.97578E-07 6.37267E-19-2.69331E-20
 -1      1956 9.40835E-05-2.82476E-05-2.82163E-05-5.18074E-07 3.75438E-19-3.35713E-19
 -1      1957 9.42185E-05-2.83021E-05-2.82509E-05-6.57609E-07 4.02118E-19-1.75175E-19
 -1      1958 9.45870E-05-2.83851E-05-2.83703E-05-4.61257E-07 8.14008E-20-3.37723E-20
 -1      1959 9.44092E-05-2.83360E-05-2.83176E-05-4.72963E-07 6.91082E-19 3.14357E-19
 -1      1960 9.45070E-05-2.83756E-05-2.83430E-05-6.02109E-07 4.38186E-19 3.66794E-19
 -1      1961 9.48886E-05-2.84626E-05-2.84661E-05-4.57082E-07 5.07628E-20-7.98691E-19
 -1      1962 9.47226E-05-2.84178E-05-2.84163E-05-4.55416E-07-5.08497E-20-7.44914E-19
 -1      1963 9.47884E-05-2.84425E-05-2.84349E-05-5.78449E-07 3.90569E-19-2.06322E-19
 -1      1964 9.52072E-05-2.85416E-05-2.85681E-05-4.91315E-07 1.17997E-20-1.35774E-18
 -1      1965 9.50326E-05-2.84955E-05-2.85151E-05-4.72629E-07 1.42528E-19-1.02176E-18
 -1      1966 9.50696E-05-2.85052E-05-2.85288E-05-5.96994E-07 1.70547E-19-7.29968E-19
 -1      1967 9.55690E-05-2.86286E-05-2.86847E-05-5.74979E-07 2.03662E-19-1.36440E-18
 -1      1968 9.53701E-05-2.85770E-05-2.86239E-05-5.33767E-07-1.15736E-19-1.37231E-18
 -1      1969 9.53768E-05-2.85696E-05-2.86332E-05-6.68685E-07-1.08867E-19-1.13082E-18
 -1      1970 9.60082E-05-2.87317E-05-2.88270E-05-7.23555E-07 5.32076E-19-1.07443E-18
 -1      1971 9.57646E-05-2.86692E-05-2.87523E-05-6.52094E-07 3.38706E-19-1.26301E-18
 -1      1972 9.57343E-05-2.86405E-05-2.87566E-05-8.09550E-07 2.65606E-19-1.24126E-18
 -1      1973 9.65700E-05-2.88611E-05-2.90098E-05-9.59506E-07 4.54588E-19-6.81554E-19
 -1      1974 9.62544E-05-2.87806E-05-2.89128E-05-8.46515E-07 6.77228E-19-7.47840E-19
 -1      1975 9.61736E-05-2.87233E-05-2.89101E-05-1.04208E-06 4.05353E-19-2.41751E-19
 -1      1976 9.73138E-05-2.90297E-05-2.92524E-05-1.31577E-06-7.11429E-19-6.12267E-19
 -1      1977 9.68894E-05-2.89214E-05-2.91223E-05-1.14447E-06-1.50865E-19-8.53565E-19
 -1      1978 9.67347E-05-2.88240E-05-2.91085E-05-1.39845E-06-5.39586E-20-1.99080E-19
 -1      1979 9.83767E-05-2.92664E-05-2.96011E-05-1.86986E-06-2.39345E-19-8.56084E-19
 -1      1980 9.77592E-05-2.91106E-05-2.94113E-05-1.59964E-06-7.14704E-19-5.64187E-19
 -1      1981 9.74912E-05-2.89529E-05-2.93789E-05-1.94080E-06-6.68087E-19-3.48361E-19
 -1      1982 9.97708E-05-2.95735E-05-3.00595E-05-2.64047E-06 8.12303E-19-1.05149E-18
 -1      1983 9.89465E-05-2.93646E-05-2.98076E-05-2.26383E-06 2.78654E-19-8.67679E-19
 -1      1984 9.84983E-05-2.91156E-05-2.97423E-05-2.73232E-06 3.85671E-19-6.93973E-19
 -1      1985 1.01676E-04-2.99912E-05-3.06879E-05-3.73792E-06 4.28834E-19-1.69309E-18
 -1      1986 1.00527E-04-2.96988E-05-3.03379E-05-3.19482E-06 1.09807E-18-1.11480E-18
 -1      1987 9.98098E-05-2.93177E-05-3.02198E-05-3.83578E-06 1.17913E-18-1.15354E-18
 -1      1988 1.04271E-04-3.05665E-05-3.15433E-05-5.27006E-06-7.30887E-19-2.11981E-18
 -1      1989 1.02676E-04-3.01539E-05-3.10600E-05-4.50141E-06-3.93692E-19-2.43574E-18
 -1      1990 1.01548E-04-2.95816E-05-3.08550E-05-5.37756E-06 1.84564E-19-1.51376E-18
 -1      1991 1.07762E-04-3.13755E-05-3.26860E-05-7.33387E-06-2.70852E-20-2.60224E-18
 -1      1992 1.05579E-04-3.07884E-05-3.20303E-05-6.28236E-06-4.01765E-19-2.54055E-18
 -1      1993 1.03836E-04-2.99469E-05-3.16843E-05-7.47230E-06-3.12515E-19-2.10192E-18
 -1      1994 1.12366E-04-3.25558E-05-3.41580E-05-9.93137E-06-5.26180E-19-2.02067E-18
 -1      1995 1.09455E-04-3.17098E-05-3.32996E-05-8.58416E-06-1.00585E-19-2.32981E-18
 -1      1996 1.06821E-04-3.05131E-05-3.27304E-05-1.01801E-05-1.48019E-19-1.81646E-18
 -1      1997 1.18255E-04-3.43659E-05-3.59335E-05-1.27728E-05-6.32985E-19-1.59044E-18
 -1      1998 1.14547E-04-3.31295E-05-3.48815E-05-1.12562E-05-4.70778E-19-1.93053E-18
 -1      1999 1.10701E-04-3.15305E-05-3.39730E-05-1.33606E-05-4.77005E-19-1.47574E-18
 -1      2000 1.25887E-04-3.74896E-05-3.79134E-05-1.48591E-05-1.14520E-18-1.76474E-18
 -1      2001 1.21275E-04-3.55612E-05-3.67318E-05-1.37177E-05-5.98780E-19-1.98063E-18
 -1      2002 1.15924E-04-3.36043E-05-3.53404E-05-1.64236E-05-4.54529E-19-2.20420E-18
 -1      2003 1.34295E-04-4.22871E-05-3.95046E-05-1.35733E-05-1.37448E-18-1.02275E-18
 -1      2004 1.29776E-04-3.97324E-05-3.85732E-05-1.41999E-05-1.56909E-18-1.40308E-18
 -1      2005 1.23013E-04-3.78293E-05-3.65731E-05-1.75624E-05-1.67787E-18-2.07401E-18
 -1      2006 1.43051E-04-4.87956E-05-4.04467E-05-5.40022E-06 1.43599E-19-1.05808E-18
 -1      2007 1.39595E-04-4.60696E-05-4.00135E-05-9.73327E-06-8.84673E-19-1.09175E-18
 -1      2008 1.32538E-04-4.51060E-05-3.75189E-05-1.36065E-05-8.62835E-19-1.71556E-18
 -1      2009 1.49816E-04-5.35580E-05-4.13102E-05 1.12294E-05 4.00327E-19 8.98543E-19
 -1      2010 1.49106E-04-5.29145E-05-4.12020E-05 2.39769E-06 2.39287E-19-1.13397E-19
 -1      2011 1.44283E-04-5.39479E-05-3.87954E-05-1.09405E-06-3.28808E-19-8.09075E-19
 -1      2012 1.49384E-04-4.89598E-05-4.33671E-05 2.65092E-05-2.39922E-19-2.73909E-19
 -1      2013 1.53069E-04-5.33010E-05-4.30467E-05 1.87872E-05-3.65389E-19 6.28697E-19
 -1      2014 1.54316E-04-5.70037E-05-4.18546E-05 1.72562E-05-1.84230E-20-2.77721E-19
 -1      2015 1.42291E-04-3.38663E-05-4.73558E-05 2.43369E-05 1.47680E-18-5.44642E-19
 -1      2016 1.48953E-04-4.20837E-05-4.63862E-05 2.59392E-05 8.11881E-19-5.88344E-19
 -1      2017 1.57502E-04-4.65811E-05-4.78893E-05 2.72521E-05 1.20258E-18-8.84514E-19
 -1      2018 1.39495E-04-2.66665E-05-4.94482E-05-4.86349E-06 1.87152E-18-1.14032E-19
 -1      2019 1.41088E-04-2.80870E-05-4.91877E-05 9.52124E-06 1.23159E-18-1.66045E-19
 -1      2020 1.55018E-04-2.86567E-05-5.44972E-05 1.21218E-05 1.18161E-18-1.75823E-18
 -1      2021 1.46992E-04-3.95948E-05-4.68179E-05-2.75995E-05 2.04516E-18-9.44720E-19
 -1      2022 1.41285E-04-3.20380E-05-4.76186E-05-1.72792E-05 2.69229E-18 3.38204E-19
 -1      2023 1.55425E-04-3.03967E-05-5.38025E-05-1.69003E-05 2.40684E-18-1.04524E-18
 -1      2024 1.53941E-04-5.21908E-05-4.32730E-05-2.45937E-05-1.13201E-18-2.00996E-18
 -1      2025 1.47649E-04-4.66086E-05-4.38973E-05-2.53179E-05 3.00485E-19-1.93122E-18
 -1      2026 1.56956E-04-4.80981E-05-4.72459E-05-2.68466E-05 1.17695E-18-5.61689E-19
 -1      2027 1.50658E-04-5.29746E-05-4.12100E-05-5.62472E-06-7.87514E-19 2.05564E-19
 -1      2028 1.48948E-04-5.32980E-05-4.13198E-05-1.28097E-05-1.33651E-18-5.70900E-19
 -1      2029 1.53158E-04-5.82346E-05-4.15886E-05-1.36693E-05-1.77186E-18 5.05540E-19
 -1      2030 1.41063E-04-4.66184E-05-4.01524E-05 9.07332E-06-5.67565E-19 8.21463E-19
 -1      2031 1.43750E-04-4.95145E-05-4.04572E-05 3.13006E-06-6.51739E-19 1.36134E-19
 -1      2032 1.41565E-04-5.33243E-05-3.84256E-05 4.78141E-06-8.17387E-19 5.16995E-19
 -1      2033 1.30852E-04-4.02772E-05-3.87970E-05 1.47866E-05 2.74928E-19-8.84408E-19
 -1      2034 1.35490E-04-4.30065E-05-3.96072E-05 1.22115E-05-1.46643E-20 5.47607E-19
 -1      2035 1.29904E-04-4.37818E-05-3.71657E-05 1.53505E-05-1.43837E-19 2.95303E-20
 -1      2036 1.22090E-04-3.60127E-05-3.69909E-05 1.47211E-05 1.58522E-18 3.58613E-19
 -1      2037 1.26990E-04-3.79827E-05-3.81004E-05 1.44823E-05 7.17662E-19-1.86983E-19
 -1      2038 1.20914E-04-3.67740E-05-3.61089E-05 1.80233E-05 6.42845E-19-3.94479E-19
 -1      2039 1.15017E-04-3.34149E-05-3.50838E-05 1.23426E-05 2.71788E-18-1.03499E-18
 -1      2040 1.19375E-04-3.47688E-05-3.62092E-05 1.31111E-05 2.27502E-18 4.26481E-19
 -1      2041 1.14323E-04-3.29441E-05-3.48371E-05 1.64313E-05 2.11436E-18 8.21940E-19
 -1      2042 1.09233E-04-3.17343E-05-3.32944E-05 9.40898E-06-6.67181E-19-1.90364E-18
 -1      2043 1.12891E-04-3.27081E-05-3.43084E-05 1.04659E-05 1.26660E-18-1.30552E-18
 -1      2044 1.09244E-04-3.10241E-05-3.34581E-05 1.32861E-05 1.70573E-18-7.11690E-19
 -1      2045 1.05022E-04-3.06785E-05-3.19109E-05 6.98510E-06 6.25117E-20-8.09052E-19
 -1      2046 1.07702E-04-3.13374E-05-3.26747E-05 7.88998E-06-4.54082E-19-1.31010E-18
 -1      2047 1.05315E-04-3.00560E-05-3.22018E-05 1.01204E-05-6.77534E-19 4.96126E-20
 -1      2048 1.01805E-04-2.99179E-05-3.08376E-05 5.09527E-06-2.60707E-18 4.00989E-19
 -1      2049 1.03813E-04-3.04005E-05-3.14162E-05 5.81617E-06-1.48769E-18-1.55069E-19
 -1      2050 1.02337E-04-2.95054E-05-3.11769E-05 7.53253E-06-1.94943E-18 1.83997E-18
 -1      2051 9.93901E-05-2.93435E-05-3.00352E-05 3.66218E-06-1.78645E-18 6.91688E-21
 -1      2052 1.00864E-04-2.97032E-05-3.04600E-05 4.21841E-06-2.07087E-18 4.39833E-21
 -1      2053 1.00021E-04-2.91117E-05-3.03674E-05 5.50916E-06-1.61218E-18 1.09704E-18
 -1      2054 9.76225E-05-2.88997E-05-2.94573E-05 2.53902E-06-9.19653E-19-1.21035E-19
 -1      2055 9.86666E-05-2.91667E-05-2.97580E-05 2.98615E-06-1.12642E-18-4.32458E-19
 -1      2056 9.82400E-05-2.87756E-05-2.97562E-05 3.93751E-06-6.34838E-19-1.53394E-18
 -1      2057 9.63689E-05-2.85408E-05-2.90668E-05 1.58292E-06 1.36599E-19-3.63642E-19
 -1      2058 9.70637E-05-2.87389E-05-2.92641E-05 1.98808E-06-9.94503E-20 1.36110E-19
 -1      2059 9.69010E-05-2.84834E-05-2.93146E-05 2.65774E-06-2.34704E-19-2.30786E-18
 -1      2060 9.56575E-05-2.83095E-05-2.88545E-05 8.89417E-07 2.21784E-19-1.42226E-18
 -1      2061 9.60849E-05-2.84283E-05-2.89837E-05 1.28413E-06 6.76033E-19-1.20761E-18
 -1      2062 9.60299E-05-2.82302E-05-2.90581E-05 1.74534E-06 1.04337E-18-2.45485E-18
 -1      2063 9.55284E-05-2.80760E-05-2.89118E-05 1.09397E-06-6.58672E-19-2.91252E-19
 -1      2064 9.40205E-05-2.51895E-05-2.95113E-05 1.97290E-06 9.14279E-19 1.27943E-18
 -1      2065 9.42994E-05-2.57172E-05-2.93890E-05 2.09082E-06 4.68753E-19 6.72969E-20
 -1      2066 9.46044E-05-2.62384E-05-2.93084E-05 2.13171E-06-8.46960E-19 9.87298E-20
 -1      2067 9.49090E-05-2.67955E-05-2.91832E-05 2.01169E-06-8.84116E-19 1.33553E-18
 -1      2068 9.44453E-05-2.59615E-05-2.93426E-05 2.67648E-06-1.00981E-18 7.81562E-19
 -1      2069 9.51289E-05-2.72192E-05-2.91085E-05 1.79333E-06-2.11421E-19-5.63505E-19
 -1      2070 9.53800E-05-2.77047E-05-2.89952E-05 1.46970E-06-4.95114E-19-1.23547E-18
 -1      2071 9.55870E-05-2.77631E-05-2.90603E-05 1.81122E-06 4.74282E-19-1.06499E-18
 -1      2072 9.50697E-05-2.69277E-05-2.92070E-05 2.45244E-06-4.77026E-19 5.45508E-19
 -1      2073 9.36192E-05-2.44132E-05-2.96727E-05 1.42154E-06-6.31051E-19-2.28737E-19
 -1      2074 9.38070E-05-2.48059E-05-2.95779E-05 1.69418E-06 1.49222E-19 1.88588E-18
 -1      2075 9.37995E-05-2.50205E-05-2.94646E-05 2.29184E-06 1.81824E-19 5.96106E-19
 -1      2076 9.34313E-05-2.39943E-05-2.97703E-05 6.43194E-07 1.06390E-19-8.60625E-19
 -1      2077 9.35112E-05-2.42009E-05-2.97172E-05 9.93998E-07-7.31627E-19 1.36374E-18
 -1      2078 9.33973E-05-2.43986E-05-2.95560E-05 1.48850E-06-8.61115E-19 3.96215E-19
 -1      2079 9.34633E-05-2.39805E-05-2.97869E-05-1.58603E-07 6.78274E-19-2.48875E-18
 -1      2080 9.34354E-05-2.39779E-05-2.97838E-05 1.82206E-07 7.88859E-19-1.82234E-18
 -1      2081 9.32708E-05-2.41653E-05-2.96021E-05 4.82573E-07 2.90663E-19-9.44329E-19
 -1      2082 9.36666E-05-2.43200E-05-2.97251E-05-8.27815E-07 2.72511E-19-1.69600E-19
 -1      2083 9.35561E-05-2.41346E-05-2.97681E-05-5.58559E-07 8.26799E-19-1.74191E-18
 -1      2084 9.33945E-05-2.43147E-05-2.95943E-05-4.86477E-07 3.15921E-21-2.43243E-18
 -1      2085 9.39720E-05-2.49096E-05-2.96000E-05-1.27528E-06 2.17991E-19 4.94939E-19
 -1      2086 9.38134E-05-2.45941E-05-2.96781E-05-1.10834E-06 4.01740E-19 9.10734E-19
 -1      2087 9.36934E-05-2.47653E-05-2.95337E-05-1.24833E-06-3.11507E-19 1.01302E-19
 -1      2088 9.43098E-05-2.56279E-05-2.94345E-05-1.48024E-06-1.48797E-18-2.50034E-18
 -1      2089 9.41371E-05-2.52446E-05-2.95331E-05-1.41769E-06 2.21403E-19-1.48989E-18
 -1      2090 9.40766E-05-2.54004E-05-2.94303E-05-1.71787E-06-7.47992E-19-8.06368E-19
 -1      2091 9.46214E-05-2.63524E-05-2.92558E-05-1.47601E-06-1.05355E-18-1.30072E-18
 -1      2092 9.44623E-05-2.59644E-05-2.93588E-05-1.49823E-06-1.83107E-18-1.21117E-18
 -1      2093 9.44607E-05-2.60959E-05-2.93004E-05-1.89110E-06-8.73354E-19-2.37857E-18
 -1      2094 9.48871E-05-2.70280E-05-2.90791E-05-1.32012E-06 1.68323E-18 2.92086E-18
 -1      2095 9.47507E-05-2.66650E-05-2.91778E-05-1.40210E-06 1.08621E-18 1.90899E-18
 -1      2096 9.47929E-05-2.67628E-05-2.91593E-05-1.82316E-06 1.39160E-18 1.65025E-18
 -1      2097 9.50925E-05-2.75947E-05-2.89237E-05-1.07103E-06 1.38960E-18-3.39563E-19
 -1      2098 9.49858E-05-2.72901E-05-2.90079E-05-1.18857E-06 2.49341E-18 4.37804E-19
 -1      2099 9.50546E-05-2.73478E-05-2.90215E-05-1.58868E-06 3.27355E-18 1.30342E-18
 -1      2100 9.52453E-05-2.80410E-05-2.87997E-05-7.73489E-07-2.75091E-19-8.66364E-19
 -1      2101 9.51629E-05-2.78019E-05-2.88642E-05-9.11296E-07 1.17565E-19-9.49432E-19
 -1      2102 9.52448E-05-2.78210E-05-2.88999E-05-1.26008E-06 1.23564E-18-1.82871E-18
 -1      2103 5.06551E-05-4.45970E-05-3.84633E-06 3.14127E-05-2.10911E-19 8.67468E-19
 -1      2104 3.62778E-05-4.54035E-05 1.96251E-06 2.35686E-05-1.17738E-19-9.17125E-19
 -1      2105 1.13107E-05-3.23648E-05 8.13537E-06-3.75341E-06-1.68080E-18 1.71143E-18
 -1      2106 1.32044E-05-3.43637E-05 7.94709E-06-1.38818E-05-1.76903E-18 2.32214E-18
 -1      2107 2.43842E-05-3.89533E-05 4.96018E-06 1.84583E-05-5.20078E-19 3.40507E-19
 -1      2108 1.61701E-05-3.61134E-05 7.34794E-06 1.02890E-05-1.73981E-18 1.46028E-18
 -1      2109 9.61104E-05-5.41862E-05-1.89303E-05 3.68704E-05-2.22473E-18-1.71524E-18
 -1      2110 7.03738E-05-5.13176E-05-1.01724E-05 3.17064E-05-1.33619E-18-3.32460E-20
 -1      2111 7.21389E-05-5.03165E-05-9.95699E-06 3.73658E-05-1.47130E-18-5.47713E-19
 -1      2112 2.05843E-05-3.85986E-05 6.19878E-06-1.40306E-05-2.57074E-18-5.05636E-18
 -1      2113 2.89511E-05-3.72672E-05 2.69786E-06-2.35143E-05-1.14942E-18-5.49936E-18
 -1      2114 4.63386E-05-3.75868E-05-4.41799E-06 4.10468E-05-3.02814E-18-1.42190E-18
 -1      2115 3.41177E-05-4.09660E-05 1.38221E-06 3.32900E-05-2.61056E-18-1.09394E-18
 -1      2116 1.46720E-04-5.83642E-05-3.75671E-05 2.73317E-05-1.45012E-18-1.54287E-18
 -1      2117 1.25551E-04-6.04221E-05-2.87230E-05 2.82157E-05-2.20059E-18-1.57675E-18
 -1      2118 8.72496E-05-8.72364E-06-3.37496E-05-1.05426E-05-1.57258E-18-2.90592E-18
 -1      2119 8.79541E-05-9.24159E-06-3.38210E-05-1.20998E-05-1.87187E-18-2.54909E-18
 -1      2120 9.04852E-05-1.30502E-05-3.32351E-05-1.18786E-05-2.05286E-18-2.16811E-18
 -1      2121 8.86885E-05-1.10564E-05-3.32959E-05-9.41489E-06-1.56554E-18-2.83988E-18
 -1      2122 2.06165E-04-4.44351E-05-6.68618E-05 2.97688E-06 1.48315E-18-3.15859E-18
 -1      2123 1.87966E-04-4.58899E-05-6.01771E-05 3.59861E-06 1.41984E-18-2.65968E-18
 -1      2124 2.14730E-04-3.68177E-05-7.33733E-05-1.13896E-06 1.38109E-18-3.32556E-18
 -1      2125 2.08515E-04-3.82165E-05-7.07891E-05 2.30446E-06 1.25107E-18-3.11285E-18
 -1      2126 1.87352E-04-3.50337E-05-6.35003E-05-1.07714E-05 1.41412E-18-3.08786E-18
 -1      2127 2.04148E-04-3.54005E-05-7.04415E-05-7.07288E-07 2.53305E-18-3.57321E-18
 -1      2128 2.12625E-04-3.56068E-05-7.30054E-05 1.37040E-06 1.94309E-18-3.89286E-18
 -1      2129 1.87817E-04-4.65053E-05-5.99871E-05-2.34433E-06 2.16565E-18-2.99850E-18
 -1      2130 2.00258E-04-4.33508E-05-6.56527E-05 2.28639E-06 2.00916E-18-2.66011E-18
 -1      2131 1.64248E-04-5.37804E-05-4.75792E-05-1.50698E-05 2.08074E-18-2.98749E-18
 -1      2132 1.85722E-04-5.33281E-05-5.56503E-05-1.16073E-05 2.30361E-18-3.42455E-18
 -1      2133 1.79217E-04-5.08769E-05-5.39793E-05 1.31894E-05 1.41190E-18-1.67035E-18
 -1      2134 1.21088E-04-5.49158E-05-2.96726E-05-2.93868E-05 2.07820E-18-3.23736E-18
 -1      2135 1.46463E-04-5.53647E-05-3.88721E-05-3.03807E-05 2.05109E-18-3.59565E-18
 -1      2136 8.06753E-05-5.26081E-05-1.36632E-05-3.24820E-05 1.14604E-18-2.54110E-18
 -1      2137 1.02498E-04-5.25217E-05-2.18405E-05-3.71036E-05 1.79571E-18-2.92989E-18
 -1      2138 4.83189E-05-4.51041E-05-2.47580E-06-3.03440E-05-1.54626E-18-3.34896E-18
 -1      2139 6.33225E-05-4.71148E-05-7.88764E-06-3.45876E-05 4.54010E-19-2.95540E-18
 -1      2140 8.70792E-05-5.48381E-05-1.43277E-05-3.74337E-05-4.06576E-19-2.71900E-18
 -1      2141 2.10959E-05-3.63886E-05 5.40753E-06 2.63800E-05-2.23024E-18-1.26610E-18
 -1      2142 1.52969E-05-3.87837E-05 8.43663E-06 1.80612E-05-1.47955E-18-1.72371E-18
 -1      2143 8.41983E-05-4.16526E-05-1.83641E-05 4.84441E-05-1.93843E-18-2.32659E-18
 -1      2144 6.51807E-05-4.32741E-05-1.05640E-05 4.24928E-05-2.65460E-18-1.63223E-18
 -1      2145 1.24587E-04-4.31046E-05-3.45228E-05 4.30137E-05-2.05744E-18-1.53440E-18
 -1      2146 1.05573E-04-4.54710E-05-2.63774E-05 4.13417E-05-1.81985E-18-1.77708E-18
 -1      2147 1.53976E-04-3.94705E-05-4.85814E-05 3.01950E-05-2.32680E-18-1.83552E-18
 -1      2148 1.35771E-04-4.08146E-05-4.09466E-05 3.43343E-05-2.17137E-18-1.94521E-18
 -1      2149 1.38432E-04-5.21864E-05-3.65357E-05 2.77144E-05-4.19070E-19-5.74500E-19
 -1      2150 1.78474E-04-3.01710E-05-6.24006E-05 1.75536E-05-2.12923E-18-2.54110E-18
 -1      2151 1.62157E-04-3.09834E-05-5.60844E-05 2.07719E-05-2.71781E-18-2.43861E-18
 -1      2152 1.88247E-04-2.46527E-05-6.88502E-05 4.39846E-06-1.47680E-18-2.13855E-18
 -1      2153 1.79607E-04-2.42204E-05-6.60281E-05 1.15515E-05-1.79232E-18-2.66307E-18
 -1      2154 1.87066E-04-2.38580E-05-6.89870E-05-8.14752E-06-1.82705E-18-1.08928E-18
 -1      2155 1.91934E-04-2.50054E-05-7.02824E-05 1.05468E-06-1.42979E-18-2.07605E-18
 -1      2156 1.72674E-04-2.87015E-05-6.11148E-05-2.00896E-05-3.60413E-18-9.44865E-19
 -1      2157 1.83612E-04-2.78261E-05-6.56776E-05-1.22153E-05-2.71792E-18-1.46960E-18
 -1      2158 1.48839E-04-3.57652E-05-4.84767E-05-3.15301E-05-4.25835E-18 2.82062E-19
 -1      2159 1.67398E-04-3.50123E-05-5.57274E-05-2.81993E-05-4.14125E-18-1.91768E-18
 -1      2160 1.18009E-04-4.21568E-05-3.29879E-05-3.92392E-05-3.30300E-18 8.05528E-19
 -1      2161 1.38193E-04-3.92629E-05-4.16353E-05-4.13535E-05-4.06491E-18 4.87044E-19
 -1      2162 7.85810E-05-4.40736E-05-1.58165E-05-4.33914E-05-2.80410E-18 2.76937E-18
 -1      2163 9.95273E-05-4.27006E-05-2.42852E-05-4.77481E-05-2.32765E-18 3.68819E-18
 -1      2164 4.51608E-05-4.23114E-05-2.66853E-06-3.73066E-05-2.66519E-18 4.09382E-18
 -1      2165 6.05162E-05-3.89473E-05-9.61592E-06-4.49875E-05-3.74389E-18 3.35531E-18
 -1      2166 8.30427E-05-4.82956E-05-1.49802E-05-4.82695E-05-8.42374E-19 1.29501E-18
 -1      2167 1.89826E-05-3.99535E-05 7.36730E-06-2.26964E-05-1.36584E-18 4.30208E-18
 -1      2168 2.67067E-05-3.69921E-05 3.31116E-06-3.09610E-05-2.84815E-18 5.89111E-18
 -1      2169 1.80388E-04-5.56255E-05-5.25053E-05 1.01280E-05 1.02830E-18-1.95580E-18
 -1      2170 1.58471E-04-5.64704E-05-4.41163E-05 1.48609E-05-4.12293E-19-1.82959E-18
 -1      2171 1.60704E-04-6.59923E-05-4.04203E-05 4.67795E-06-1.53461E-18-3.68459E-20
 -1      2172 1.84641E-05-2.75962E-05 3.30941E-06-1.17131E-05-1.44461E-18-3.72144E-18
 -1      2173 1.20818E-04-6.21935E-05-2.52736E-05 2.98089E-05-2.33061E-18-1.27627E-18
 -1      2174 1.13964E-04-6.08595E-05-2.21100E-05 3.21986E-05-2.22219E-18-1.48286E-18
 -1      2175 1.40575E-04-7.04618E-05-3.14624E-05 1.98437E-05-2.26010E-18-1.70317E-18
 -1      2176 1.41781E-05-2.64328E-05 4.45412E-06 1.48802E-05-9.79594E-19-1.67543E-18
 -1      2177 9.71811E-05-2.43125E-05-3.13028E-05-1.00051E-05-2.30451E-18 1.00653E-18
 -1      2178 9.63419E-05-2.31040E-05-3.14536E-05-1.03886E-05-2.44687E-18-5.23308E-20
 -1      2179 3.68671E-05-3.62539E-05-1.07671E-06 2.83128E-05-8.50421E-19 2.34416E-19
 -1      2180 1.67874E-05-2.42102E-05 2.75472E-06 5.29664E-06-1.24943E-18 1.55261E-18
 -1      2181 9.53133E-05-2.81754E-05-2.87704E-05-7.22767E-07 1.76643E-20-1.24384E-18
 -1      2182 4.67897E-05-3.92574E-05-3.69381E-06-3.20698E-05-1.53101E-18-4.25571E-18
 -1      2183 1.81409E-05-2.62126E-05 2.80749E-06-2.21802E-05-1.71884E-18 3.52705E-18
 -1      2184 1.79878E-04-5.41544E-05-5.31692E-05-9.85006E-06 1.33027E-18-1.54245E-18
 -1      2185 4.39809E-05-3.76390E-05-3.29863E-06-4.19572E-05-2.02526E-18 5.02058E-18
 -1      2186 1.20535E-04-5.30402E-05-2.87266E-05-3.87010E-05-1.57569E-18 3.93870E-19
 -1      2187 1.48871E-04-4.58593E-05-4.34970E-05-2.20994E-05-2.13738E-18-2.85281E-18
 -1      2188 3.27784E-05-3.34113E-05-3.64128E-07 3.70196E-05-1.15196E-18-1.41687E-18
 -1      2189 1.61468E-04-3.12860E-05-5.48345E-05-7.08303E-06-3.28501E-18-2.07354E-18
 -1      2190 1.67191E-04-1.73451E-05-6.30957E-05-1.04712E-06-2.35136E-18-1.01496E-18
 -1      2191 1.65980E-04-1.22113E-05-6.47204E-05-5.87449E-07-2.32214E-18-5.29396E-19
 -1      2192 1.56348E-04-3.89670E-05-4.97360E-05 1.20550E-05-2.01250E-18-1.20025E-18
 -1      2193 1.07516E-04-5.30295E-05-2.31742E-05 4.35732E-05-1.14942E-18-1.15239E-18
 -1      2194 1.64716E-04-6.38036E-05-4.26875E-05-7.74194E-06 1.22566E-18-2.20567E-18
 -1      2195 6.66292E-05-4.36068E-05-1.00268E-05 4.82296E-05-1.67967E-18-8.33375E-19
 -1      2196 1.88336E-04-2.64170E-05-6.73062E-05-2.20660E-07 2.17222E-18-2.53438E-18
 -1      2197 1.82942E-04-3.44682E-05-6.23654E-05 1.36185E-05 1.28749E-18-2.20610E-18
 -1      2198 1.26660E-04-6.42867E-05-2.69280E-05-2.85555E-05 7.31836E-19-2.96610E-18
 -1      2199 1.63046E-04-2.07117E-05-6.01075E-05 1.42078E-06-1.77263E-18-1.24726E-18
 -1      2200 9.52066E-05-2.63743E-05-2.94863E-05 4.19931E-06 1.82200E-18 1.45656E-18
 -1      2201 9.61817E-05-2.58599E-05-3.00643E-05 6.00451E-06 2.03522E-18 1.69810E-18
 -1      2202 8.81424E-05-1.11841E-05-3.30213E-05-3.66269E-06-2.90984E-19-2.97464E-18
 -1      2203 8.83755E-05-1.14542E-05-3.30032E-05-4.80424E-06-5.98716E-19-3.01926E-18
 -1      2204 8.87261E-05-1.19372E-05-3.29543E-05-5.82174E-06-8.46554E-19-3.03284E-18
 -1      2205 8.91322E-05-1.24089E-05-3.29256E-05-6.99445E-06-1.12701E-18-2.94514E-18
 -1      2206 8.98949E-05-1.38225E-05-3.26012E-05-4.90534E-06-6.26734E-19-2.78066E-18
 -1      2207 8.77984E-05-1.07261E-05-3.30650E-05 6.15602E-07 6.65820E-19-3.17833E-18
 -1      2208 8.77939E-05-1.07212E-05-3.30652E-05-4.95883E-07 4.37711E-19-3.12687E-18
 -1      2209 8.79787E-05-1.09511E-05-3.30463E-05 2.75885E-06 1.11374E-18-3.18801E-18
 -1      2210 8.78644E-05-1.08181E-05-3.30557E-05 1.63893E-06 8.34225E-19-3.23066E-18
 -1      2211 8.91162E-05-1.27722E-05-3.27220E-05 1.04991E-06 7.19474E-19-3.00949E-18
 -1      2212 8.84113E-05-1.14978E-05-3.30005E-05 4.88900E-06 1.51699E-18-2.94602E-18
 -1      2213 8.81727E-05-1.12212E-05-3.30189E-05 3.76546E-06 1.30286E-18-3.09138E-18
 -1      2214 8.93809E-05-1.31279E-05-3.26817E-05 3.02221E-06 1.16796E-18-2.97296E-18
 -1      2215 8.91886E-05-1.24800E-05-3.29210E-05 7.07740E-06 2.01567E-18-2.40921E-18
 -1      2216 8.87719E-05-1.19938E-05-3.29505E-05 5.90523E-06 1.71023E-18-2.74126E-18
 -1      2217 8.99364E-05-1.38756E-05-3.25966E-05 4.97705E-06 1.59466E-18-2.64634E-18
 -1      2218 9.04549E-05-1.40880E-05-3.27930E-05 9.22693E-06 2.37317E-18-1.73634E-18
 -1      2219 8.97763E-05-1.32776E-05-3.28389E-05 8.04777E-06 2.12331E-18-2.06182E-18
 -1      2220 9.08694E-05-1.51348E-05-3.24508E-05 6.87411E-06 2.04561E-18-2.05812E-18
 -1      2221 9.24484E-05-1.66584E-05-3.25819E-05 1.11114E-05 2.68454E-18-8.87029E-19
 -1      2222 9.13719E-05-1.53192E-05-3.26545E-05 1.00313E-05 2.43963E-18-1.37363E-18
 -1      2223 9.22891E-05-1.70874E-05-3.22086E-05 8.52040E-06 2.24525E-18-1.40189E-18
 -1      2224 9.59074E-05-2.50931E-05-3.03028E-05-6.19350E-06-2.01500E-18-4.47134E-19
 -1      2225 9.52481E-05-2.58509E-05-2.97587E-05-4.28287E-06-1.76346E-18-5.24738E-19
 -1      2226 9.42257E-05-2.71138E-05-2.87455E-05 1.76898E-06 1.55276E-18 9.33985E-19
 -1      2227 9.48267E-05-2.68907E-05-2.90441E-05 2.74206E-06 1.73054E-18 1.34867E-18
 -1      2228 9.53326E-05-2.58454E-05-2.97881E-05 4.36584E-06 1.99695E-18 5.88824E-19
 -1      2229 9.50672E-05-2.00230E-05-3.22104E-05-1.17531E-05-2.31145E-18-9.00396E-19
 -1      2230 9.54628E-05-2.33615E-05-3.09259E-05-7.97091E-06-2.20553E-18-6.39574E-19
 -1      2231 9.50784E-05-2.25584E-05-3.10529E-05-7.65300E-06-2.08358E-18-1.02872E-18
 -1      2232 9.32122E-05-1.76211E-05-3.24141E-05-1.14103E-05-2.26284E-18-1.48681E-18
 -1      2233 9.51328E-05-2.65348E-05-2.93417E-05-2.94401E-06-1.45737E-18-4.76994E-19
 -1      2234 9.46609E-05-2.69043E-05-2.90384E-05-1.88107E-06-1.09591E-18-5.62192E-19
 -1      2235 9.53321E-05-2.53617E-05-2.99940E-05-4.29794E-06-1.67165E-18-9.40039E-19
 -1      2236 9.44659E-05-2.72341E-05-2.87751E-05-1.02873E-06-9.91421E-19-4.77554E-19
 -1      2237 9.42078E-05-2.74472E-05-2.86091E-05-4.26117E-07-8.71404E-19-7.29624E-19
 -1      2238 9.50269E-05-2.66951E-05-2.92980E-05-1.92202E-06-1.18457E-18-9.46572E-19
 -1      2239 9.40595E-05-2.76272E-05-2.84484E-05 8.31662E-08-6.27976E-19-7.30917E-19
 -1      2240 9.39618E-05-2.77700E-05-2.83652E-05 4.14620E-07-4.08051E-19-7.46769E-19
 -1      2241 9.47233E-05-2.74228E-05-2.88559E-05-4.40740E-07-8.04776E-19-8.10662E-19
 -1      2242 9.38779E-05-2.78789E-05-2.82726E-05 6.99827E-07-3.54648E-19-8.76413E-19
 -1      2243 9.38851E-05-2.79851E-05-2.82405E-05 8.66724E-07-3.61822E-19-9.54456E-19
 -1      2244 9.45233E-05-2.78493E-05-2.85850E-05 4.34148E-07-5.33664E-19-9.45004E-19
 -1      2245 9.38550E-05-2.80561E-05-2.81929E-05 1.00806E-06-4.26229E-19-9.66421E-19
 -1      2246 9.39248E-05-2.81391E-05-2.81919E-05 1.07470E-06-3.65492E-19-1.00759E-18
 -1      2247 9.44326E-05-2.81158E-05-2.84291E-05 9.12253E-07-4.74559E-19-1.07311E-18
 -1      2248 9.39326E-05-2.81874E-05-2.81737E-05 1.12605E-06-3.02315E-19-1.05931E-18
 -1      2249 9.40360E-05-2.82532E-05-2.81910E-05 1.13321E-06-4.07976E-19-1.10764E-18
 -1      2250 9.44263E-05-2.82891E-05-2.83497E-05 1.13641E-06-4.27657E-19-1.29812E-18
 -1      2251 9.40679E-05-2.82864E-05-2.81916E-05 1.13116E-06-6.56651E-19-1.10441E-18
 -1      2252 9.41860E-05-2.83384E-05-2.82190E-05 1.10568E-06-8.36915E-19-1.15142E-18
 -1      2253 9.44766E-05-2.84026E-05-2.83208E-05 1.20365E-06-5.47736E-19-1.24229E-18
 -1      2254 9.42319E-05-2.83607E-05-2.82313E-05 1.07532E-06-9.69080E-19-1.18578E-18
 -1      2255 9.43535E-05-2.84014E-05-2.82638E-05 1.03528E-06-8.72086E-19-1.32889E-18
 -1      2256 9.45610E-05-2.84754E-05-2.83246E-05 1.18043E-06-1.01618E-18-1.31428E-18
 -1      2257 9.44065E-05-2.84158E-05-2.82833E-05 9.93923E-07-7.74659E-19-1.15225E-18
 -1      2258 9.45257E-05-2.84474E-05-2.83179E-05 9.51626E-07-6.49996E-19-1.37159E-18
 -1      2259 9.46637E-05-2.85193E-05-2.83489E-05 1.11262E-06-8.16813E-19-1.24554E-18
 -1      2260 9.45822E-05-2.84560E-05-2.83416E-05 9.11189E-07-4.63132E-19-1.35222E-18
 -1      2261 9.46970E-05-2.84807E-05-2.83770E-05 8.74941E-07-4.85788E-19-1.18437E-18
 -1      2262 9.47751E-05-2.85425E-05-2.83862E-05 1.03191E-06-6.44440E-19-1.04029E-18
 -1      2263 9.47553E-05-2.84854E-05-2.84033E-05 8.43516E-07-6.10316E-19-1.21804E-18
 -1      2264 9.48662E-05-2.85054E-05-2.84387E-05 8.18780E-07-6.95533E-19-1.12018E-18
 -1      2265 9.48903E-05-2.85513E-05-2.84316E-05 9.60056E-07-6.11007E-19-9.29956E-19
 -1      2266 9.49265E-05-2.85081E-05-2.84668E-05 8.01607E-07-1.09726E-18-1.25050E-18
 -1      2267 9.50361E-05-2.85259E-05-2.85026E-05 7.91624E-07-8.85149E-19-1.41993E-18
 -1      2268 9.50084E-05-2.85512E-05-2.84822E-05 9.11610E-07-1.01367E-18-9.32462E-19
 -1      2269 9.50999E-05-2.85287E-05-2.85320E-05 7.91617E-07-6.92249E-19-1.47828E-18
 -1      2270 9.52116E-05-2.85471E-05-2.85685E-05 7.97645E-07-7.64264E-19-1.31069E-18
 -1      2271 9.51315E-05-2.85476E-05-2.85365E-05 8.95542E-07-8.09295E-19-7.20904E-19
 -1      2272 9.52816E-05-2.85526E-05-2.85993E-05 8.15497E-07-9.42316E-19-1.09023E-18
 -1      2273 9.53995E-05-2.85748E-05-2.86371E-05 8.36671E-07-8.32127E-19-1.11880E-18
 -1      2274 9.52639E-05-2.85467E-05-2.85938E-05 9.15955E-07-7.12156E-19-5.19189E-19
 -1      2275 9.54793E-05-2.85866E-05-2.86690E-05 8.70559E-07-4.55425E-19-1.19222E-18
 -1      2276 9.56075E-05-2.86167E-05-2.87084E-05 9.03395E-07-4.90873E-20-8.90165E-19
 -1      2277 9.54124E-05-2.85560E-05-2.86537E-05 9.71926E-07-6.05036E-19-1.10099E-19
 -1      2278 9.57017E-05-2.86392E-05-2.87413E-05 9.48280E-07-1.95620E-19-1.47351E-18
 -1      2279 9.58435E-05-2.86818E-05-2.87820E-05 9.85838E-07-1.50435E-19-1.61568E-18
 -1      2280 9.55854E-05-2.85856E-05-2.87154E-05 1.05653E-06-4.35708E-19-3.58656E-19
 -1      2281 9.59574E-05-2.87212E-05-2.88151E-05 1.03240E-06 4.92635E-20-1.93695E-18
 -1      2282 9.61143E-05-2.87817E-05-2.88563E-05 1.06320E-06 4.01341E-19-1.50705E-18
 -1      2283 9.57933E-05-2.86486E-05-2.87778E-05 1.15502E-06-2.06890E-19-1.08475E-18
 -1      2284 9.62540E-05-2.88454E-05-2.88883E-05 1.09653E-06 6.48701E-19-1.69924E-18
 -1      2285 9.64248E-05-2.89293E-05-2.89279E-05 1.10340E-06 9.29752E-19-1.91733E-18
 -1      2286 9.60479E-05-2.87616E-05-2.88388E-05 1.24244E-06 2.51945E-19-1.09014E-18
 -1      2287 9.65960E-05-2.90255E-05-2.89568E-05 1.10173E-06 9.47944E-19-1.83729E-18
 -1      2288 9.67749E-05-2.91374E-05-2.89914E-05 1.06116E-06 5.59625E-19-1.83150E-18
 -1      2289 9.63614E-05-2.89442E-05-2.88952E-05 1.28091E-06 8.26891E-19-1.79628E-18
 -1      2290 9.69820E-05-2.92737E-05-2.90148E-05 9.95169E-07 4.06044E-19-1.32357E-18
 -1      2291 9.71569E-05-2.94149E-05-2.90399E-05 8.77712E-07 5.53674E-19-8.32454E-19
 -1      2292 9.67444E-05-2.92159E-05-2.89431E-05 1.21756E-06 9.69818E-19-1.21373E-18
 -1      2293 9.73996E-05-2.95949E-05-2.90551E-05 7.11496E-07 3.59445E-19-1.09158E-18
 -1      2294 9.75495E-05-2.97595E-05-2.90651E-05 4.84692E-07 1.32009E-19-1.37856E-18
 -1      2295 9.72015E-05-2.95910E-05-2.89782E-05 9.84668E-07 2.22797E-19-1.48501E-18
 -1      2296 9.78186E-05-2.99775E-05-2.90701E-05 1.79850E-07-8.18313E-20-1.65162E-18
 -1      2297 9.79117E-05-3.01473E-05-2.90591E-05-1.85031E-07-1.24251E-19-1.79284E-18
 -1      2298 9.77239E-05-3.00673E-05-2.89973E-05 5.04424E-07-2.69833E-19-2.01478E-18
 -1      2299 9.81821E-05-3.03806E-05-2.90534E-05-6.60041E-07-1.81513E-19-1.99521E-18
 -1      2300 9.81746E-05-3.05189E-05-2.90167E-05-1.17594E-06-5.51722E-19-1.92073E-18
 -1      2301 9.82772E-05-3.06104E-05-2.90001E-05-2.97766E-07-4.77476E-19-1.97863E-18
 -1      2302 9.83986E-05-3.07202E-05-2.90026E-05-1.82924E-06-3.31643E-19-1.61999E-18
 -1      2303 9.82382E-05-3.07686E-05-2.89385E-05-2.47586E-06-3.60416E-19-1.29188E-18
 -1      2304 9.87876E-05-3.11348E-05-2.89911E-05-1.46729E-06-4.20166E-19-1.95105E-18
 -1      2305 9.83419E-05-3.08628E-05-2.89214E-05-3.26841E-06-3.73087E-19-1.64176E-19
 -1      2306 9.79775E-05-3.07470E-05-2.88326E-05-3.97299E-06 3.15152E-19-2.13109E-20
 -1      2307 9.91305E-05-3.14903E-05-2.89811E-05-2.97875E-06 2.84207E-19-4.85955E-20
 -1      2308 9.78713E-05-3.06422E-05-2.88204E-05-4.79364E-06 2.54102E-19 1.16814E-20
 -1      2309 9.72738E-05-3.02933E-05-2.87154E-05-5.41909E-06 5.11959E-20 1.25731E-20
 -1      2310 9.91367E-05-3.14712E-05-2.89864E-05-4.68366E-06 2.12601E-19 5.40866E-19
 -1      2311 9.68841E-05-2.99137E-05-2.87163E-05-6.07382E-06-1.64872E-19-1.60199E-19
 -1      2312 9.60753E-05-2.93081E-05-2.86077E-05-6.43006E-06-2.31620E-19 3.58785E-19
 -1      2313 9.86341E-05-3.08701E-05-2.90243E-05-6.26815E-06-1.23351E-19 7.42650E-19
 -1      2314 9.53986E-05-2.86486E-05-2.86259E-05-6.66892E-06-3.18123E-20 3.64079E-19
 -1      2315 9.44781E-05-2.78540E-05-2.85284E-05-6.56186E-06-1.06432E-19 1.15046E-18
 -1      2316 9.75369E-05-2.95867E-05-2.91051E-05-7.26182E-06 3.58002E-20 1.33863E-18
 -1      2317 9.36349E-05-2.70329E-05-2.85595E-05-6.16295E-06-6.42174E-19 1.02858E-18
 -1      2318 9.27814E-05-2.62297E-05-2.84849E-05-5.48002E-06-3.82695E-19 1.33381E-18
 -1      2319 9.59610E-05-2.77604E-05-2.92219E-05-7.14835E-06-2.43009E-19 1.29203E-18
 -1      2320 9.20210E-05-2.54915E-05-2.85161E-05-4.37594E-06-7.79131E-19 1.23749E-18
 -1      2321 9.14493E-05-2.49289E-05-2.84716E-05-3.17541E-06-6.07022E-19 5.48016E-19
 -1      2322 9.42887E-05-2.58390E-05-2.93451E-05-5.59160E-06-1.02653E-18 1.92484E-18
 -1      2323 9.10579E-05-2.45527E-05-2.84865E-05-1.55302E-06-5.72740E-19-3.56900E-19
 -1      2324 9.09325E-05-2.44349E-05-2.84748E-05-8.95984E-08-1.06150E-18-5.86324E-19
 -1      2325 9.30835E-05-2.44674E-05-2.94312E-05-2.69753E-06-1.53010E-18 6.89390E-19
 -1      2326 9.10723E-05-2.45781E-05-2.84645E-05 1.64038E-06-1.01364E-18-1.41099E-19
 -1      2327 9.14282E-05-2.49492E-05-2.84862E-05 3.00089E-06-3.37270E-19-2.93683E-19
 -1      2328 9.28204E-05-2.41811E-05-2.94439E-05 8.86393E-07-1.00959E-18 6.93190E-19
 -1      2329 9.20356E-05-2.55503E-05-2.84543E-05 4.37868E-06 5.43305E-19 2.62854E-19
 -1      2330 9.27601E-05-2.62700E-05-2.85075E-05 5.31390E-06 1.15277E-18 3.91850E-19
 -1      2331 9.36044E-05-2.50997E-05-2.93761E-05 4.20035E-06 7.11866E-19 1.60462E-18
 -1      2332 9.35880E-05-2.70888E-05-2.84675E-05 6.03529E-06 9.67665E-19 4.35935E-19
 -1      2333 9.44772E-05-2.79126E-05-2.85469E-05 6.39200E-06 1.15675E-18 7.08602E-19
 -1      2334 9.51054E-05-2.68508E-05-2.92521E-05 6.40775E-06 1.22138E-18 1.83631E-18
 -1      2335 9.52408E-05-2.86710E-05-2.85143E-05 6.41175E-06 1.47152E-18 5.41350E-19
 -1      2336 9.60894E-05-2.93751E-05-2.86098E-05 6.23195E-06 1.65965E-18-5.96852E-20
 -1      2337 9.67619E-05-2.87979E-05-2.91141E-05 7.14327E-06 1.31394E-18 1.47217E-18
 -1      2338 9.66019E-05-2.98897E-05-2.85934E-05 5.71661E-06 2.19169E-18-5.53549E-19
 -1      2339 9.72698E-05-3.03515E-05-2.86912E-05 5.16965E-06 1.67540E-18-4.27687E-19
 -1      2340 9.80817E-05-3.03718E-05-2.90005E-05 6.56435E-06 1.43393E-18 9.60075E-20
 -1      2341 9.74803E-05-3.05726E-05-2.86904E-05 4.37264E-06 6.39702E-19-4.47863E-19
 -1      2342 9.79112E-05-3.07771E-05-2.87768E-05 3.66203E-06-1.11204E-18 7.11257E-19
 -1      2343 9.88219E-05-3.12844E-05-2.89290E-05 5.14008E-06 1.56974E-18-8.93094E-19
 -1      2344 9.78682E-05-3.07542E-05-2.87853E-05 2.81383E-06-2.37137E-18 2.16234E-18
 -1      2345 9.80718E-05-3.07542E-05-2.88500E-05 2.10841E-06-1.44731E-18 2.37430E-18
 -1      2346 9.89863E-05-3.15361E-05-2.88970E-05 3.39094E-06-6.10669E-19 8.46583E-19
 -1      2347 9.78635E-05-3.05764E-05-2.88599E-05 1.36350E-06-1.22396E-18 2.79012E-18
 -1      2348 9.78851E-05-3.04467E-05-2.88984E-05 7.70219E-07 7.05337E-21 2.88855E-18
 -1      2349 9.87211E-05-3.12984E-05-2.88906E-05 1.71843E-06-1.25523E-18 2.85341E-18
 -1      2350 9.75949E-05-3.01977E-05-2.89040E-05 2.04113E-07 1.41635E-18 1.65294E-18
 -1      2351 9.74905E-05-3.00044E-05-2.89172E-05-2.28251E-07 2.07919E-18 1.68467E-18
 -1      2352 9.82052E-05-3.07843E-05-2.88936E-05 3.54937E-07-2.02554E-19 2.22659E-18
 -1      2353 9.71786E-05-2.97429E-05-2.89158E-05-5.97611E-07 4.47964E-19 9.11847E-19
 -1      2354 9.69998E-05-2.95317E-05-2.89089E-05-8.61079E-07-1.05191E-19 3.06651E-19
 -1      2355 9.75865E-05-3.01689E-05-2.88945E-05-6.10013E-07 4.65745E-19 6.98301E-19
 -1      2356 9.67007E-05-2.92887E-05-2.89009E-05-1.04803E-06 5.35648E-19-7.75958E-19
 -1      2357 9.64891E-05-2.90857E-05-2.88810E-05-1.15647E-06 4.95762E-19-9.91998E-19
 -1      2358 9.69617E-05-2.95618E-05-2.88878E-05-1.17853E-06-5.07457E-19-1.58112E-18
 -1      2359 9.62195E-05-2.88735E-05-2.88684E-05-1.18830E-06 1.55917E-19-9.12820E-19
 -1      2360 9.60066E-05-2.86964E-05-2.88426E-05-1.16314E-06 3.74749E-21-1.93051E-18
 -1      2361 9.63836E-05-2.90176E-05-2.88732E-05-1.39615E-06-3.92828E-20-2.97184E-18
 -1      2362 9.33318E-05-2.76886E-05-2.81259E-05-4.11261E-07 7.83293E-19 2.12391E-19
 -1      2363 9.34090E-05-2.75817E-05-2.81871E-05-1.23238E-07 8.94861E-19 5.25653E-19
 -1      2364 9.32854E-05-2.78601E-05-2.80350E-05-8.34323E-07 3.38125E-19 8.40710E-20
 -1      2365 9.32348E-05-2.77650E-05-2.80453E-05-6.88689E-07 4.58878E-19 5.46634E-20
 -1      2366 9.40037E-05-2.78098E-05-2.83801E-05-4.58887E-07 7.68459E-19-9.33846E-21
 -1      2367 9.33882E-05-2.79930E-05-2.80234E-05-1.00668E-06 8.17582E-19-4.01025E-20
 -1      2368 9.32705E-05-2.79123E-05-2.80043E-05-9.56152E-07 6.92445E-19 1.65447E-19
 -1      2369 9.39223E-05-2.80215E-05-2.82514E-05-9.13616E-07 6.23860E-19-2.93034E-19
 -1      2370 9.35728E-05-2.81067E-05-2.80547E-05-1.04576E-06 6.68682E-19 4.12504E-20
 -1      2371 9.34232E-05-2.80364E-05-2.80204E-05-1.04512E-06 7.96850E-19 9.01753E-20
 -1      2372 9.39602E-05-2.81667E-05-2.82026E-05-1.10892E-06 8.02694E-19-1.21107E-19
 -1      2373 9.37965E-05-2.82028E-05-2.81100E-05-1.00878E-06 5.36590E-19 2.21364E-19
 -1      2374 9.36362E-05-2.81423E-05-2.80686E-05-1.03521E-06 6.62055E-19 2.27928E-19
 -1      2375 9.40686E-05-2.82741E-05-2.82011E-05-1.15739E-06 5.88928E-19 3.32489E-20
 -1      2376 9.40334E-05-2.82830E-05-2.81775E-05-9.34836E-07 6.19655E-19 4.05150E-20
 -1      2377 9.38747E-05-2.82319E-05-2.81336E-05-9.72933E-07 6.65164E-19 1.43809E-19
 -1      2378 9.42156E-05-2.83540E-05-2.82285E-05-1.12249E-06 7.44516E-19 9.81970E-20
 -1      2379 9.42695E-05-2.83490E-05-2.82505E-05-8.51031E-07 4.14113E-19-1.94253E-19
 -1      2380 9.41179E-05-2.83064E-05-2.82065E-05-8.90054E-07 5.14872E-19-1.35627E-19
 -1      2381 9.43803E-05-2.84125E-05-2.82732E-05-1.04784E-06 7.17723E-19 2.82319E-19
 -1      2382 9.44996E-05-2.84028E-05-2.83257E-05-7.76864E-07 3.87633E-19 4.08763E-20
 -1      2383 9.43559E-05-2.83675E-05-2.82825E-05-8.08967E-07 2.87685E-19-4.46336E-20
 -1      2384 9.45510E-05-2.84540E-05-2.83281E-05-9.64085E-07 3.43761E-19 3.22914E-20
 -1      2385 9.47354E-05-2.84486E-05-2.84068E-05-7.25792E-07 1.72057E-19 1.85097E-19
 -1      2386 9.45912E-05-2.84178E-05-2.83617E-05-7.44943E-07 3.81776E-19 2.12099E-19
 -1      2387 9.47266E-05-2.84820E-05-2.83913E-05-8.92407E-07 3.46657E-19 2.52849E-19
 -1      2388 9.49611E-05-2.84842E-05-2.84876E-05-7.16194E-07 7.38001E-19-3.87521E-19
 -1      2389 9.48236E-05-2.84591E-05-2.84434E-05-7.15112E-07 6.67027E-19 1.91877E-19
 -1      2390 9.49029E-05-2.84973E-05-2.84602E-05-8.53236E-07 5.75185E-19-7.07834E-21
 -1      2391 9.51994E-05-2.85143E-05-2.85757E-05-7.57884E-07-6.31144E-21-3.21285E-19
 -1      2392 9.50540E-05-2.84916E-05-2.85278E-05-7.31513E-07 1.96924E-19-5.16145E-19
 -1      2393 9.50793E-05-2.85015E-05-2.85342E-05-8.62873E-07 5.49768E-19 8.02458E-21
 -1      2394 9.54646E-05-2.85404E-05-2.86766E-05-8.66255E-07-1.07661E-19-9.06399E-19
 -1      2395 9.53005E-05-2.85185E-05-2.86215E-05-8.06954E-07 1.85706E-19-5.26798E-19
 -1      2396 9.52666E-05-2.84948E-05-2.86177E-05-9.35646E-07 1.68522E-19 1.18566E-19
 -1      2397 9.57752E-05-2.85633E-05-2.87977E-05-1.06134E-06-2.96563E-19-5.18579E-19
 -1      2398 9.55789E-05-2.85406E-05-2.87309E-05-9.58813E-07-5.29081E-19-1.04207E-18
 -1      2399 9.54733E-05-2.84751E-05-2.87152E-05-1.09036E-06-2.30241E-19-1.96683E-19
 -1      2400 9.61540E-05-2.85825E-05-2.89487E-05-1.37072E-06 3.47432E-19 3.01974E-19
 -1      2401 9.59079E-05-2.85577E-05-2.88642E-05-1.21048E-06 1.38814E-19-1.70870E-19
 -1      2402 9.57092E-05-2.84377E-05-2.88327E-05-1.35132E-06-4.82110E-19-3.16703E-19
 -1      2403 9.66292E-05-2.85956E-05-2.91421E-05-1.83274E-06-4.15243E-19 8.60909E-20
 -1      2404 9.63102E-05-2.85673E-05-2.90321E-05-1.59463E-06 5.42055E-19 1.48146E-19
 -1      2405 9.59835E-05-2.83743E-05-2.89778E-05-1.75137E-06 2.85973E-19-1.71765E-20
 -1      2406 9.72632E-05-2.85958E-05-2.94077E-05-2.54193E-06-2.39202E-19-7.39441E-19
 -1      2407 9.68227E-05-2.85630E-05-2.92536E-05-2.17377E-06-3.80431E-19-4.60661E-19
 -1      2408 9.63130E-05-2.82684E-05-2.91649E-05-2.35403E-06 5.96455E-20 5.70672E-21
 -1      2409 9.80344E-05-2.85751E-05-2.97398E-05-3.50835E-06 5.66437E-19-1.08194E-18
 -1      2410 9.74747E-05-2.85385E-05-2.95438E-05-3.00701E-06-1.24358E-19-1.17306E-18
 -1      2411 9.66936E-05-2.80958E-05-2.94008E-05-3.21413E-06 1.48851E-19-1.17909E-18
 -1      2412 9.90076E-05-2.85228E-05-3.01697E-05-4.85537E-06 1.10145E-18-4.17014E-19
 -1      2413 9.82680E-05-2.84788E-05-2.99104E-05-4.15313E-06 1.14151E-18-4.08899E-19
 -1      2414 9.71077E-05-2.78354E-05-2.96881E-05-4.38742E-06 4.67091E-19-6.42425E-19
 -1      2415 1.00220E-04-2.84356E-05-3.07158E-05-6.69712E-06 1.26370E-19-9.24798E-19
 -1      2416 9.92482E-05-2.83730E-05-3.03780E-05-5.73487E-06 7.59530E-19-4.31401E-19
 -1      2417 9.75430E-05-2.74502E-05-3.00365E-05-5.99077E-06 9.75291E-19-1.46910E-19
 -1      2418 1.01713E-04-2.83432E-05-3.13853E-05-9.14080E-06-1.37246E-20-1.49369E-18
 -1      2419 1.00446E-04-2.82265E-05-3.09579E-05-7.86944E-06 1.27958E-19-1.11933E-18
 -1      2420 9.79633E-05-2.69201E-05-3.04388E-05-8.13597E-06 4.84313E-19-9.75394E-19
 -1      2421 1.03557E-04-2.83773E-05-3.21555E-05-1.22233E-05-5.72237E-19-7.64029E-19
 -1      2422 1.01910E-04-2.81068E-05-3.16421E-05-1.06498E-05-1.55771E-19-1.13087E-18
 -1      2423 9.83330E-05-2.62874E-05-3.08627E-05-1.09212E-05-1.91601E-19-8.92121E-19
 -1      2424 1.05949E-04-2.89283E-05-3.29481E-05-1.57663E-05-6.49370E-20-1.02600E-18
 -1      2425 1.03772E-04-2.82474E-05-3.23816E-05-1.40565E-05-2.43135E-19-7.52773E-19
 -1      2426 9.86855E-05-2.57763E-05-3.12297E-05-1.43739E-05-2.82211E-19-1.10996E-18
 -1      2427 1.09596E-04-3.10484E-05-3.36104E-05-1.92528E-05-5.04610E-19-1.73507E-18
 -1      2428 1.06485E-04-2.93221E-05-3.30638E-05-1.78586E-05 1.61636E-19-1.59279E-18
 -1      2429 9.93238E-05-2.60600E-05-3.13934E-05-1.84551E-05 2.67516E-19-1.02970E-18
 -1      2430 1.15465E-04-3.63117E-05-3.38726E-05-2.07190E-05-1.93920E-18-1.65535E-18
 -1      2431 1.11166E-04-3.28210E-05-3.35006E-05-2.09341E-05-1.66718E-18-1.83561E-18
 -1      2432 1.01270E-04-2.87026E-05-3.11219E-05-2.24921E-05-8.11649E-19-1.77392E-18
 -1      2433 1.25910E-04-4.66395E-05-3.38956E-05-1.74370E-05-1.04842E-18-1.37862E-18
 -1      2434 1.19739E-04-4.07731E-05-3.36034E-05-2.08956E-05-1.88800E-18-2.10236E-18
 -1      2435 1.06767E-04-3.61380E-05-3.03593E-05-2.50744E-05-1.67112E-18-2.07714E-18
 -1      2436 1.42748E-04-5.97340E-05-3.54460E-05-5.54951E-06-5.45013E-19-9.82902E-19
 -1      2437 1.34939E-04-5.42349E-05-3.42154E-05-1.37915E-05-3.37966E-19-1.14432E-18
 -1      2438 1.19529E-04-5.02401E-05-2.98495E-05-2.34610E-05-1.13884E-18-1.52201E-18
 -1      2439 1.65730E-04-3.84594E-05-5.48893E-05 2.30819E-05 1.62355E-18-1.45012E-18
 -1      2440 1.65776E-04-5.04301E-05-5.01404E-05 2.26517E-05 9.62018E-19-9.09290E-19
 -1      2441 1.70064E-04-3.39777E-05-5.84689E-05-1.72867E-05 2.16290E-18-2.31854E-18
 -1      2442 1.69914E-04-2.58625E-05-6.16377E-05-7.34877E-06 1.94733E-18-2.29885E-18
 -1      2443 1.45082E-04-6.33221E-05-3.43816E-05 7.71530E-06-2.08794E-18-3.37649E-19
 -1      2444 1.52833E-04-6.48897E-05-3.74746E-05-8.70901E-07-1.88931E-18-5.00173E-19
 -1      2445 1.24542E-04-4.84819E-05-3.20695E-05 2.02234E-05 8.75091E-20-3.16089E-19
 -1      2446 1.32762E-04-5.50515E-05-3.28399E-05 1.35476E-05-5.61477E-19-2.06253E-19
 -1      2447 1.18741E-04-5.84497E-05-2.64502E-05 2.82757E-05-9.39571E-19-1.81180E-18
 -1      2448 1.11754E-04-3.61881E-05-3.22146E-05 2.32080E-05 5.19072E-20-1.61139E-18
 -1      2449 1.17735E-04-4.11140E-05-3.25135E-05 2.06499E-05 3.30766E-19-1.01570E-18
 -1      2450 1.02021E-04-4.05455E-05-2.66283E-05 2.97218E-05 5.88688E-19-2.51664E-18
 -1      2451 1.05418E-04-2.99255E-05-3.23768E-05 2.12173E-05 1.40623E-18-1.67165E-18
 -1      2452 1.09335E-04-3.24868E-05-3.27709E-05 2.13670E-05-1.45319E-20-1.73186E-18
 -1      2453 9.50114E-05-2.89327E-05-2.84011E-05 2.61986E-05 6.43930E-19-3.28284E-18
 -1      2454 1.02361E-04-2.75952E-05-3.21167E-05 1.75765E-05 2.42788E-18-1.34086E-18
 -1      2455 1.05033E-04-2.87105E-05-3.26333E-05 1.89076E-05 2.27179E-18-8.90993E-19
 -1      2456 9.35060E-05-2.42085E-05-2.96611E-05 2.16050E-05 1.15206E-18-3.24062E-18
 -1      2457 1.00581E-04-2.70986E-05-3.15592E-05 1.36489E-05-2.50000E-19 3.15116E-19
 -1      2458 1.02597E-04-2.75345E-05-3.21225E-05 1.53197E-05 1.57791E-18 2.15532E-19
 -1      2459 9.40404E-05-2.33579E-05-3.02168E-05 1.71783E-05 6.36640E-19-1.00034E-18
 -1      2460 9.93844E-05-2.72665E-05-3.09519E-05 1.04188E-05-1.17270E-18 1.11582E-18
 -1      2461 1.00865E-04-2.74260E-05-3.14358E-05 1.18549E-05-8.65062E-19-1.07368E-20
 -1      2462 9.48941E-05-2.40634E-05-3.02923E-05 1.33656E-05-1.80216E-19 7.25363E-19
 -1      2463 9.83497E-05-2.75290E-05-3.03787E-05 7.82909E-06-9.83091E-19-2.65215E-19
 -1      2464 9.95150E-05-2.76122E-05-3.07804E-05 8.99233E-06-1.31449E-18 6.18758E-19
 -1      2465 9.54765E-05-2.50854E-05-3.01233E-05 1.03096E-05-9.10145E-19-3.68482E-19
 -1      2466 9.74287E-05-2.77086E-05-2.98943E-05 5.80357E-06-1.23049E-18-1.32889E-18
 -1      2467 9.83465E-05-2.77866E-05-3.02091E-05 6.71198E-06-1.60460E-18-9.17168E-19
 -1      2468 9.57297E-05-2.59671E-05-2.98714E-05 7.85466E-06-7.79035E-19-2.84181E-18
 -1      2469 9.66396E-05-2.77714E-05-2.95185E-05 4.19666E-06-7.93941E-19-9.42578E-19
 -1      2470 9.73335E-05-2.78654E-05-2.97503E-05 4.91896E-06-7.43920E-19-1.24575E-18
 -1      2471 9.57276E-05-2.65709E-05-2.96209E-05 5.88391E-06-1.67856E-18-1.48907E-18
 -1      2472 9.58763E-05-2.78642E-05-2.91378E-05 2.15320E-06 1.25978E-18-2.07750E-18
 -1      2473 9.29057E-05-2.42289E-05-2.94449E-05 1.40259E-06 1.24240E-19 8.35960E-19
 -1      2474 9.30701E-05-2.44482E-05-2.94170E-05 1.91924E-06 5.29973E-19-7.90235E-19
 -1      2475 9.28787E-05-2.41811E-05-2.94476E-05 1.78524E-07 6.42750E-19-1.63360E-18
 -1      2476 9.28620E-05-2.41987E-05-2.94409E-05 7.29880E-07 5.30396E-19 3.63346E-19
 -1      2477 9.25200E-05-2.41171E-05-2.92997E-05 1.13680E-06 1.12775E-18 1.35137E-18
 -1      2478 9.40973E-05-2.56165E-05-2.93683E-05 3.14425E-06-9.88784E-19 8.58465E-19
 -1      2479 9.45847E-05-2.61435E-05-2.93156E-05 3.23580E-06-7.87850E-19 9.66823E-19
 -1      2480 9.33249E-05-2.47225E-05-2.94166E-05 2.49257E-06-1.26272E-18-1.53664E-19
 -1      2481 9.36669E-05-2.51236E-05-2.93732E-05 2.83600E-06-1.18477E-18 1.73477E-18
 -1      2482 9.37269E-05-2.52381E-05-2.93385E-05 3.45482E-06-9.47102E-19 1.27090E-18
 -1      2483 9.28681E-05-2.44225E-05-2.93184E-05 2.47849E-06-1.62740E-19 8.74815E-19
 -1      2484 9.31675E-05-2.45216E-05-2.94197E-05-9.20774E-07-2.45816E-19-3.51451E-18
 -1      2485 9.30106E-05-2.43653E-05-2.94364E-05-4.46305E-07 1.04233E-19-3.70584E-18
 -1      2486 9.26241E-05-2.42795E-05-2.92782E-05-2.55157E-07 8.11772E-19-2.60250E-18
 -1      2487 9.36459E-05-2.51278E-05-2.93611E-05-1.72150E-06-1.77993E-19 5.32883E-19
 -1      2488 9.34098E-05-2.48492E-05-2.93992E-05-1.39213E-06-6.87060E-19-2.75782E-19
 -1      2489 9.30716E-05-2.48100E-05-2.92481E-05-1.42076E-06 4.62795E-19-1.64464E-18
 -1      2490 9.41805E-05-2.58559E-05-2.92765E-05-2.15621E-06-8.02830E-19-1.81592E-18
 -1      2491 9.39262E-05-2.55159E-05-2.93308E-05-1.99285E-06-6.53125E-19-4.22133E-19
 -1      2492 9.36961E-05-2.55479E-05-2.92049E-05-2.20079E-06-7.00941E-19-4.74383E-19
 -1      2493 9.46600E-05-2.65686E-05-2.91763E-05-2.25035E-06 5.39855E-19-1.33903E-18
 -1      2494 9.44355E-05-2.62273E-05-2.92389E-05-2.23401E-06 4.41356E-19-3.80167E-18
 -1      2495 9.43338E-05-2.63280E-05-2.91478E-05-2.55703E-06-2.95635E-19-2.31767E-18
 -1      2496 9.50432E-05-2.72061E-05-2.90679E-05-2.08725E-06 1.72816E-18 2.72080E-18
 -1      2497 9.48644E-05-2.68904E-05-2.91334E-05-2.18015E-06 8.83209E-19 8.15344E-19
 -1      2498 9.48755E-05-2.70362E-05-2.90789E-05-2.55106E-06 1.55600E-18 1.26467E-19
 -1      2499 9.53074E-05-2.77163E-05-2.89638E-05-1.76253E-06 2.42281E-18 8.52304E-20
 -1      2500 9.51802E-05-2.74520E-05-2.90246E-05-1.91967E-06 1.63843E-18 2.73591E-18
 -1      2501 9.52761E-05-2.76134E-05-2.90036E-05-2.28684E-06 4.66448E-19 2.15127E-18
 -1      2502 9.54734E-05-2.80954E-05-2.88722E-05-1.36165E-06 5.47719E-19-2.80592E-18
 -1      2503 9.53892E-05-2.78894E-05-2.89241E-05-1.54661E-06 1.72934E-18-2.01996E-18
 -1      2504 9.55345E-05-2.80345E-05-2.89289E-05-1.87903E-06 1.07347E-18-1.48999E-18
 -1      2505 2.45239E-05-1.91760E-05-1.91157E-06 1.57174E-05-1.59009E-18 2.01763E-18
 -1      2506 1.90508E-05-1.50574E-05-1.26666E-06-6.81658E-07-2.05306E-18 2.27259E-18
 -1      2507 4.17462E-05-3.03241E-05-4.66875E-06-2.96347E-05-1.81519E-18-4.75397E-18
 -1      2508 6.15170E-05-3.93618E-05-9.45498E-06-3.77824E-05-1.51195E-18-2.60230E-18
 -1      2509 9.36139E-05-2.74684E-05-2.83365E-05 3.72706E-07 1.01515E-18 6.11855E-19
 -1      2510 9.38966E-05-2.73327E-05-2.84836E-05 9.06966E-07 1.19481E-18 9.00343E-19
 -1      2511 9.42619E-05-2.74858E-05-2.86320E-05 4.05458E-07 1.16634E-18 2.75198E-19
 -1      2512 9.54506E-05-2.82548E-05-2.87991E-05-8.90551E-07 4.36298E-19-6.24144E-19
 -1      2513 8.82349E-05-5.14632E-05-1.58018E-05 3.97079E-05-1.53355E-18-1.84060E-18
 -1      2514 6.84087E-05-4.39174E-05-1.03579E-05 3.71916E-05-8.50209E-19-4.55068E-19
 -1      2515 1.16248E-04-5.64917E-05-2.54458E-05-3.72355E-05-7.24213E-19-1.48231E-20
 -1      2516 1.32899E-04-5.66106E-05-3.29153E-05-3.00578E-05-1.49522E-18-1.95199E-18
 -1      2517 2.07722E-05-1.88317E-05-5.48152E-07 2.27552E-05-2.37275E-19-8.57621E-19
 -1      2518 1.68205E-05-1.67649E-05 3.16543E-07 8.19791E-06-1.88730E-19-1.28495E-18
 -1      2519 1.19785E-04-5.67874E-05-2.72360E-05 3.79304E-05-3.28649E-19 2.69568E-19
 -1      2520 1.01290E-04-5.32460E-05-2.03308E-05 4.36515E-05-9.07172E-19-4.54063E-19
 -1      2521 2.06470E-05-1.74931E-05-9.31113E-07-1.98606E-05-2.12023E-18 2.64190E-18
 -1      2522 2.74939E-05-2.39185E-05-1.33676E-06-3.19132E-05-1.55854E-18 4.29742E-18
 -1      2523 5.23998E-05-3.55405E-05-7.08064E-06 3.54753E-05-6.24475E-19-6.67885E-19
 -1      2524 3.78015E-05-2.66901E-05-4.38120E-06 2.74244E-05-1.10135E-18 1.52889E-19
 -1      2525 6.86058E-05-3.75578E-05-1.29235E-05 3.65825E-05-5.59042E-19-8.43010E-19
 -1      2526 1.68999E-04-4.13905E-05-5.51612E-05-2.24708E-05 2.12457E-18-1.48188E-18
 -1      2527 7.93467E-05-4.50255E-05-1.47612E-05 4.94285E-05-7.42848E-19-1.39125E-18
 -1      2528 6.18379E-05-3.90588E-05-9.50983E-06 4.66761E-05-5.92076E-19-1.36531E-18
 -1      2529 1.91319E-05-1.76494E-05-3.14694E-07-5.81660E-06-5.64442E-19-2.36746E-18
 -1      2530 2.68572E-05-2.10575E-05-2.21069E-06-1.93506E-05-1.03232E-18-4.21441E-18
 -1      2531 8.78501E-05-1.08005E-05-3.30569E-05-1.51913E-06 2.84166E-19-3.04271E-18
 -1      2532 8.79549E-05-1.09225E-05-3.30481E-05-2.63823E-06-3.76154E-20-3.01364E-18
 -1      2533 8.93537E-05-1.30944E-05-3.26845E-05-2.93138E-06-1.40631E-19-2.71504E-18
 -1      2534 8.91062E-05-1.27598E-05-3.27231E-05-9.41555E-07 2.81404E-19-2.87665E-18
 -1      2535 1.22449E-04-6.42273E-05-2.51756E-05-2.73195E-05-1.66018E-19-2.34395E-18
 -1      2536 1.41135E-04-6.74963E-05-3.20117E-05-2.02630E-05 2.40769E-19-2.24294E-18
 -1      2537 1.66507E-04-5.80794E-05-4.68727E-05 1.89963E-05 5.52689E-19-1.56998E-18
 -1      2538 1.49224E-04-1.57117E-05-5.78487E-05-4.67055E-06-2.37783E-18-8.13152E-20
 -1      2539 1.49841E-04-2.30412E-05-5.47232E-05-4.28712E-06-1.35568E-18-4.01705E-19
 -1      2540 8.55189E-05-5.03198E-05-1.49162E-05-3.73516E-05-8.64821E-19-2.01604E-18
 -1      2541 1.04203E-04-5.77328E-05-1.99746E-05-3.63018E-05-4.80268E-19-2.63998E-18
 -1      2542 1.49467E-04-3.63037E-05-4.88429E-05-2.89532E-07-2.97870E-18-2.19974E-18
 -1      2543 1.50829E-04-2.77521E-05-5.33658E-05 3.31179E-06-2.81638E-18-1.30994E-18
 -1      2544 1.67361E-04-2.43452E-05-6.13776E-05 3.22999E-06 1.40735E-18-2.07978E-18
 -1      2545 1.68926E-04-3.13340E-05-5.91140E-05 1.54519E-05 1.45944E-18-1.90498E-18
 -1      2546 4.12724E-05-3.14431E-05-4.09925E-06-4.02761E-05-7.89646E-19 3.94887E-18
 -1      2547 6.04644E-05-3.82100E-05-9.37337E-06-4.82810E-05-4.96361E-19 2.84540E-18
 -1      2548 4.29703E-05-2.56209E-05-7.00719E-06-3.79987E-05-5.16690E-19 3.13656E-18
 -1      2549 1.54289E-04-6.76455E-05-3.73666E-05-5.46613E-06 5.14678E-19-1.96872E-18
 -1      2550 1.66115E-04-6.35589E-05-4.44076E-05 7.17452E-06 9.04631E-19-1.48337E-18
 -1      2551 1.58869E-04-6.02655E-05-4.22219E-05 1.55858E-05 7.73473E-19-1.33281E-18
 -1      2552 1.51093E-04-6.77547E-05-3.52105E-05-5.89244E-06-5.62218E-20-1.12232E-18
 -1      2553 1.42589E-04-5.36438E-05-3.85449E-05 1.87048E-05 5.15631E-20-1.86983E-19
 -1      2554 1.33644E-04-5.64930E-05-3.30138E-05 2.52501E-05 2.90321E-19-4.95938E-19
 -1      2555 1.52171E-04-3.51785E-05-5.06567E-05 8.42135E-07-1.40830E-18-1.80418E-19
 -1      2556 1.47139E-04-4.45351E-05-4.41568E-05 7.31845E-06-7.16166E-19-6.81862E-20
 -1      2557 1.50195E-04-8.83700E-06-6.10044E-05 3.34675E-07-2.16713E-18 1.72292E-19
 -1      2558 1.47093E-04-8.87620E-06-5.98309E-05-2.04402E-06-2.66646E-18-1.38278E-19
 -1      2559 1.49592E-04-1.64612E-05-5.75540E-05 3.89367E-06-1.78639E-18-3.52154E-19
 -1      2560 1.51593E-04-1.16442E-05-6.04564E-05 2.83402E-06-1.46918E-18-4.05517E-20
 -1      2561 1.37815E-04-7.46146E-06-5.61101E-05 3.03559E-06-1.58395E-18-1.85288E-21
 -1      2562 4.54489E-05-3.11268E-05-5.92431E-06 4.38139E-05-3.53213E-19-1.85394E-18
 -1      2563 3.16271E-05-2.54066E-05-2.38916E-06 3.42931E-05 7.77153E-20-9.92723E-19
 -1      2564 5.96269E-05-3.34721E-05-1.07867E-05 4.52356E-05 3.98529E-19-1.65627E-18
 -1      2565 1.41803E-04-5.20445E-05-3.86189E-05-1.80121E-05-1.79105E-18-1.86390E-18
 -1      2566 1.49369E-04-4.65185E-05-4.45534E-05-1.04968E-05-2.83007E-18-2.72808E-18
 -1      2567 7.85140E-05-4.62329E-05-1.36369E-05-4.74962E-05-6.77203E-19 1.29675E-18
 -1      2568 9.52674E-05-5.12788E-05-1.90446E-05-4.74997E-05-6.85461E-19 1.75958E-18
 -1      2569 9.63261E-05-2.50929E-05-3.05544E-05 7.59685E-06 2.32741E-18 1.85942E-18
 -1      2570 9.74480E-05-2.37765E-05-3.15949E-05 1.06963E-05 2.57974E-18 2.21620E-18
 -1      2571 9.58835E-05-2.13015E-05-3.20196E-05 1.18983E-05 2.71260E-18 1.33858E-18
 -1      2572 9.58727E-05-2.41598E-05-3.07673E-05 7.68834E-06 2.32240E-18 8.80911E-19
 -1      2573 1.28335E-04-5.86357E-05-2.97088E-05 2.80697E-05 5.59042E-19-3.19331E-19
 -1      2574 9.08090E-05-1.50521E-05-3.24598E-05-6.80360E-06-1.19798E-18-2.63497E-18
 -1      2575 8.97036E-05-1.31908E-05-3.28459E-05-7.96107E-06-1.35302E-18-2.84382E-18
 -1      2576 9.03339E-05-1.38992E-05-3.28180E-05-9.18018E-06-1.72626E-18-2.61633E-18
 -1      2577 9.56764E-05-2.84537E-05-2.88048E-05-9.94639E-07 7.51627E-19-3.68796E-19
 -1      2578 9.55536E-05-2.82419E-05-2.88454E-05-1.19891E-06 5.83816E-19-1.55580E-18
 -1      2579 9.57045E-05-2.83502E-05-2.88701E-05-1.47085E-06 7.26056E-19-2.02447E-18
 -1      2580 9.58468E-05-2.85792E-05-2.88322E-05-1.10399E-06 6.65639E-19-9.42172E-19
 -1      2581 9.42413E-05-1.90804E-05-3.22570E-05 1.16074E-05 2.66722E-18 1.79147E-19
 -1      2582 9.20536E-05-1.62417E-05-3.25330E-05-1.03937E-05-1.98188E-18-1.98129E-18
 -1      2583 1.62001E-04-4.56483E-05-5.00313E-05-2.36849E-05 2.45428E-18-7.89435E-19
 -1      2584 1.74991E-04-4.87475E-05-5.41366E-05-1.66184E-05 2.05744E-18-1.64833E-18
 -1      2585 9.47124E-05-2.06021E-05-3.17172E-05 9.67426E-06 2.41371E-18-6.81597E-20
 -1      2586 1.43908E-04-2.93379E-05-4.92727E-05-7.04133E-06-1.22777E-18-1.52466E-19
 -1      2587 1.47142E-04-6.36263E-05-3.56086E-05-3.83404E-06-3.45854E-19-9.12254E-19
 -1      2588 1.33971E-04-6.41973E-05-3.01601E-05-1.95997E-05-4.18223E-19-1.26240E-18
 -1      2589 7.48395E-05-4.19735E-05-1.36616E-05-4.74790E-05-4.54645E-19 1.65362E-18
 -1      2590 1.54886E-04-6.33089E-05-3.97580E-05 7.36603E-06-2.07841E-19-1.03672E-18
 -1      2591 1.61291E-04-5.64251E-05-4.60999E-05-2.21593E-05 3.41248E-19-8.12622E-19
 -1      2592 9.56341E-05-2.74359E-05-2.92169E-05 2.74125E-06 1.27898E-18-3.08949E-19
 -1      2593 9.61219E-05-2.79256E-05-2.92242E-05 2.65403E-06 1.12894E-18-1.92789E-18
 -1      2594 9.66781E-05-2.80598E-05-2.93983E-05 3.25568E-06-5.63277E-20-8.26242E-19
 -1      2595 9.52979E-05-2.69989E-05-2.92791E-05 2.99715E-06 4.36131E-19-6.66627E-19
 -1      2596 9.58506E-05-2.71697E-05-2.94114E-05 4.15223E-06-4.75361E-19 1.61117E-19
 -1      2597 9.50458E-05-2.66165E-05-2.93277E-05 3.60246E-06-4.74086E-20-8.42407E-20
 -1      2598 4.14272E-05-2.25868E-05-7.47991E-06-2.47845E-05-1.71514E-18-3.96348E-18
 -1      2599 2.85283E-05-1.00832E-05-7.35040E-06-5.00280E-07-2.48388E-18 2.23384E-18
 -1      2600 2.33243E-05-1.37398E-05-3.48161E-06-9.61389E-06-2.13407E-18 2.25184E-18
 -1      2601 2.99144E-05-1.25696E-05-6.89727E-06-1.78507E-05-1.94182E-18 2.47842E-18
 -1      2602 3.84396E-05-1.99303E-05-7.38285E-06 2.19178E-05-1.78978E-18 1.09903E-18
 -1      2603 7.97519E-05-4.35548E-05-1.50768E-05-3.68061E-05-1.36372E-18-2.52913E-18
 -1      2604 9.47268E-05-2.69366E-05-2.90656E-05 1.88759E-06 1.58822E-18 3.62692E-19
 -1      2605 1.11841E-04-5.61006E-05-2.36314E-05-3.92976E-05-4.80479E-19-2.62157E-19
 -1      2606 1.41410E-04-2.14133E-05-5.17131E-05 8.93521E-06-1.96533E-18-7.56083E-19
 -1      2607 1.08765E-04-5.79917E-05-2.15439E-05 3.29526E-05-1.17738E-18-1.58064E-18
 -1      2608 1.38358E-04-5.71832E-05-3.46534E-05-1.80358E-05-1.38670E-18-1.31883E-18
 -1      2609 1.45344E-04-4.25741E-05-4.40729E-05 8.45088E-07-2.68827E-18-1.62016E-18
 -1      2610 2.52457E-05-1.29155E-05-4.65271E-06 1.19222E-06 8.30754E-20-2.16396E-18
 -1      2611 3.30917E-05-1.86281E-05-5.65802E-06 2.88228E-05 6.57509E-19-9.23901E-19
 -1      2612 9.59531E-05-5.02706E-05-1.91709E-05 4.46129E-05 4.44692E-20-5.91097E-19
 -1      2613 1.70637E-04-5.91786E-05-4.76895E-05-1.24952E-05 8.68526E-19-7.69953E-19
 -1      2614 9.59501E-05-2.86172E-05-2.88562E-05-1.35308E-06 4.71151E-19-1.80245E-18
 -1      2615 1.43997E-04-5.00803E-05-4.02710E-05 6.15163E-06 1.13238E-19 4.14834E-19
 -1      2616 1.38393E-04-1.09123E-05-5.49921E-05-5.95814E-06-2.59340E-18-2.28911E-19
 -1      2617 1.21308E-04-6.17390E-05-2.51207E-05-2.76613E-05-9.49947E-19-2.26772E-18
 -1      2618 1.40896E-04-4.62444E-05-4.12765E-05-1.37237E-06-1.49131E-19 9.20090E-19
 -1      2619 1.38967E-04-5.32944E-05-3.65532E-05 6.83860E-06 7.39804E-19 7.68471E-19
 -1      2620 9.05670E-05-1.51749E-05-3.23333E-05 3.19659E-06 1.24754E-18-2.69366E-18
 -1      2621 9.03779E-05-1.49037E-05-3.23663E-05 2.26229E-06 9.87166E-19-2.84884E-18
 -1      2622 9.02439E-05-1.47007E-05-3.23955E-05 1.42281E-06 7.93452E-19-2.94987E-18
 -1      2623 9.01788E-05-1.46081E-05-3.24067E-05 4.65414E-07 5.79555E-19-2.84654E-18
 -1      2624 9.14299E-05-1.65951E-05-3.20590E-05 1.64170E-06 8.58870E-19-2.74121E-18
 -1      2625 9.21466E-05-1.75530E-05-3.20066E-05 6.47713E-06 2.00852E-18-1.81085E-18
 -1      2626 9.16228E-05-1.67584E-05-3.21072E-05 5.63716E-06 1.83897E-18-2.14221E-18
 -1      2627 9.35616E-05-1.97753E-05-3.16649E-05 7.60051E-06 2.08386E-18-1.26952E-18
 -1      2628 9.27737E-05-1.85220E-05-3.18393E-05 7.02280E-06 2.02252E-18-1.54645E-18
 -1      2629 9.34399E-05-1.98676E-05-3.15082E-05 5.73807E-06 1.81045E-18-1.57917E-18
 -1      2630 1.35732E-04-2.38180E-05-4.86358E-05-1.08178E-05-1.08261E-18 6.43745E-20
 -1      2631 1.39571E-04-3.44930E-05-4.52038E-05-8.48316E-06-3.43472E-19 5.01444E-19
 -1      2632 9.52450E-05-2.39911E-05-3.05160E-05-5.30810E-06-1.70209E-18-1.21884E-18
 -1      2633 9.51623E-05-2.50040E-05-3.00871E-05-3.80093E-06-1.46406E-18-1.25291E-18
 -1      2634 9.52144E-05-2.54080E-05-2.99293E-05 3.98201E-06 1.85804E-18-7.58938E-22
 -1      2635 9.55514E-05-2.45585E-05-3.03931E-05 5.61466E-06 1.92719E-18 8.21407E-20
 -1      2636 9.48890E-05-2.62779E-05-2.94089E-05 4.36143E-06-1.31020E-18-3.67413E-19
 -1      2637 9.44807E-05-2.83095E-05-2.83582E-05-1.12250E-06 5.21512E-19-2.84304E-19
 -1      2638 9.44458E-05-2.82228E-05-2.83751E-05-1.05237E-06 5.94219E-19-3.86405E-19
 -1      2639 9.47039E-05-2.19064E-05-3.12057E-05 7.84642E-06 2.16817E-18-2.57756E-19
 -1      2640 9.53585E-05-2.59009E-05-2.97368E-05-2.70498E-06-1.25454E-18-1.12083E-18
 -1      2641 9.51919E-05-2.64885E-05-2.94559E-05-1.72297E-06-1.02548E-18-1.05818E-18
 -1      2642 9.52101E-05-2.46892E-05-3.02182E-05-3.54680E-06-1.36989E-18-1.30336E-18
 -1      2643 9.52153E-05-2.70019E-05-2.92107E-05-9.79917E-07-8.72538E-19-9.49962E-19
 -1      2644 9.50811E-05-2.73555E-05-2.90314E-05-3.73380E-07-6.88575E-19-1.04211E-18
 -1      2645 9.54147E-05-2.63250E-05-2.96152E-05-1.61973E-06-9.77937E-19-1.08024E-18
 -1      2646 9.50484E-05-2.76601E-05-2.88647E-05 9.54094E-08-5.86055E-19-1.05802E-18
 -1      2647 9.49713E-05-2.78832E-05-2.87549E-05 4.48935E-07-5.41449E-19-1.10933E-18
 -1      2648 9.54166E-05-2.73193E-05-2.91919E-05-3.37321E-07-7.44660E-19-1.09345E-18
 -1      2649 9.49295E-05-2.80665E-05-2.86453E-05 7.21704E-07-5.02699E-19-1.07973E-18
 -1      2650 9.49026E-05-2.82114E-05-2.85828E-05 9.09004E-07-5.42122E-19-1.18276E-18
 -1      2651 9.53561E-05-2.79300E-05-2.89037E-05 4.58041E-07-5.64511E-19-1.33100E-18
 -1      2652 9.48678E-05-2.83206E-05-2.85142E-05 1.04843E-06-5.81646E-19-1.26675E-18
 -1      2653 9.48769E-05-2.84150E-05-2.84834E-05 1.12959E-06-5.27150E-19-1.33976E-18
 -1      2654 9.52923E-05-2.83051E-05-2.87142E-05 9.08858E-07-6.53480E-19-1.34647E-18
 -1      2655 9.48529E-05-2.84767E-05-2.84438E-05 1.18287E-06-3.60853E-19-1.30900E-18
 -1      2656 9.48851E-05-2.85369E-05-2.84341E-05 1.19941E-06-5.03638E-19-1.34246E-18
 -1      2657 9.52435E-05-2.85290E-05-2.85960E-05 1.12823E-06-4.96382E-19-1.56201E-18
 -1      2658 9.48709E-05-2.85670E-05-2.84147E-05 1.20093E-06-6.78415E-19-1.08447E-18
 -1      2659 9.49165E-05-2.86031E-05-2.84187E-05 1.18167E-06-8.15351E-19-1.02920E-18
 -1      2660 9.52125E-05-2.86529E-05-2.85286E-05 1.20086E-06-3.77057E-19-1.12957E-18
 -1      2661 9.49100E-05-2.86121E-05-2.84134E-05 1.15614E-06-8.77981E-19-8.97856E-19
 -1      2662 9.49625E-05-2.86309E-05-2.84263E-05 1.12116E-06-6.78451E-19-8.58576E-19
 -1      2663 9.51968E-05-2.87092E-05-2.84969E-05 1.18844E-06-6.82180E-19-7.31969E-19
 -1      2664 9.49619E-05-2.86256E-05-2.84306E-05 1.08612E-06-7.52959E-19-7.82451E-19
 -1      2665 9.50176E-05-2.86322E-05-2.84491E-05 1.04935E-06-7.55410E-19-9.65977E-19
 -1      2666 9.51929E-05-2.87195E-05-2.84902E-05 1.13529E-06-8.17842E-19-6.70269E-19
 -1      2667 9.50215E-05-2.86173E-05-2.84602E-05 1.01715E-06-5.37051E-19-1.18158E-18
 -1      2668 9.50790E-05-2.86158E-05-2.84823E-05 9.88126E-07-6.27621E-19-9.43735E-19
 -1      2669 9.51979E-05-2.86985E-05-2.85009E-05 1.07289E-06-8.02492E-19-8.75617E-19
 -1      2670 9.50869E-05-2.85952E-05-2.84979E-05 9.67259E-07-6.91321E-19-9.31376E-19
 -1      2671 9.51464E-05-2.85889E-05-2.85226E-05 9.52223E-07-8.90423E-19-8.01184E-19
 -1      2672 9.52105E-05-2.86573E-05-2.85237E-05 1.02324E-06-6.51847E-19-6.13066E-19
 -1      2673 9.51589E-05-2.85660E-05-2.85414E-05 9.48233E-07-8.66565E-19-4.20025E-19
 -1      2674 9.52220E-05-2.85586E-05-2.85678E-05 9.50780E-07-5.03132E-19-2.28078E-21
 -1      2675 9.52311E-05-2.86048E-05-2.85549E-05 1.00127E-06-5.26676E-19-6.22053E-19
 -1      2676 9.52406E-05-2.85368E-05-2.85888E-05 9.66718E-07-5.26123E-19 1.11649E-19
 -1      2677 9.53100E-05-2.85323E-05-2.86167E-05 9.87950E-07-4.53061E-19 2.25495E-19
 -1      2678 9.52619E-05-2.85495E-05-2.85918E-05 1.01623E-06-4.73392E-19 1.67752E-19
 -1      2679 9.53380E-05-2.85163E-05-2.86391E-05 1.02440E-06-7.04331E-19 3.87926E-20
 -1      2680 9.54175E-05-2.85200E-05-2.86681E-05 1.06268E-06-8.95929E-19 7.30753E-20
 -1      2681 9.53077E-05-2.85010E-05-2.86323E-05 1.07231E-06-7.02405E-19 3.93630E-19
 -1      2682 9.54597E-05-2.85159E-05-2.86909E-05 1.11735E-06-7.55293E-19 3.42811E-19
 -1      2683 9.55540E-05-2.85347E-05-2.87205E-05 1.16762E-06-4.68462E-19-1.16849E-19
 -1      2684 9.53769E-05-2.84721E-05-2.86747E-05 1.16825E-06-7.94045E-19 5.81526E-19
 -1      2685 9.56181E-05-2.85513E-05-2.87430E-05 1.23448E-06-4.70388E-19-4.08183E-19
 -1      2686 9.57328E-05-2.85940E-05-2.87722E-05 1.28724E-06-4.67333E-19-5.44148E-19
 -1      2687 9.54820E-05-2.84799E-05-2.87168E-05 1.29620E-06-8.81963E-19 2.50866E-19
 -1      2688 9.58295E-05-2.86429E-05-2.87932E-05 1.35519E-06-2.84019E-19-7.09894E-19
 -1      2689 9.59708E-05-2.87207E-05-2.88209E-05 1.39516E-06 2.80277E-19-9.99700E-19
 -1      2690 9.56415E-05-2.85479E-05-2.87567E-05 1.43956E-06-5.17292E-19-6.98693E-19
 -1      2691 9.61143E-05-2.88166E-05-2.88392E-05 1.44644E-06 6.16101E-19-1.48225E-18
 -1      2692 9.62883E-05-2.89422E-05-2.88636E-05 1.45126E-06 9.33557E-19-1.59435E-18
 -1      2693 9.58801E-05-2.87062E-05-2.87922E-05 1.57007E-06 2.71655E-19-1.20147E-18
 -1      2694 9.64957E-05-2.91014E-05-2.88785E-05 1.45968E-06 1.18897E-18-1.53078E-18
 -1      2695 9.67069E-05-2.92866E-05-2.88977E-05 1.39921E-06 1.13112E-18-1.41047E-18
 -1      2696 9.62294E-05-2.89905E-05-2.88213E-05 1.64439E-06 9.23015E-19-1.95164E-18
 -1      2697 9.69962E-05-2.95245E-05-2.89091E-05 1.32890E-06 7.91522E-19-1.48116E-18
 -1      2698 9.72443E-05-2.97760E-05-2.89216E-05 1.16595E-06 8.47388E-20-1.26566E-18
 -1      2699 9.67250E-05-2.94374E-05-2.88436E-05 1.60091E-06 8.96083E-19-1.59658E-18
 -1      2700 9.76296E-05-3.00998E-05-2.89311E-05 9.71774E-07-6.30785E-19-1.48691E-18
 -1      2701 9.79050E-05-3.04112E-05-2.89367E-05 6.65830E-07-8.08738E-19-1.73428E-18
 -1      2702 9.73999E-05-3.00733E-05-2.88617E-05 1.35831E-06-5.00144E-19-1.30381E-18
 -1      2703 9.83867E-05-3.08098E-05-2.89489E-05 2.97515E-07-6.54480E-19-1.63007E-18
 -1      2704 9.86633E-05-3.11504E-05-2.89494E-05-1.86354E-07-5.89330E-19-1.49857E-18
 -1      2705 9.82701E-05-3.08949E-05-2.88832E-05 8.19005E-07-6.88439E-19-1.23973E-18
 -1      2706 9.92142E-05-3.15794E-05-2.89729E-05-7.73035E-07-2.89409E-19-1.17949E-18
 -1      2707 9.94421E-05-3.18815E-05-2.89736E-05-1.44804E-06 1.45798E-19-6.20185E-19
 -1      2708 9.93115E-05-3.18399E-05-2.89235E-05-1.17123E-07-3.09712E-19-2.97301E-19
 -1      2709 9.99902E-05-3.22487E-05-2.90212E-05-2.26856E-06 4.00259E-19-1.40366E-19
 -1      2710 1.00093E-04-3.24010E-05-2.90309E-05-3.10162E-06 6.21275E-19 1.90929E-19
 -1      2711 1.00427E-04-3.27510E-05-2.90071E-05-1.52083E-06 6.03705E-19 3.55997E-19
 -1      2712 1.00511E-04-3.25621E-05-2.91178E-05-4.10562E-06 5.86820E-19-2.20619E-19
 -1      2713 1.00397E-04-3.24227E-05-2.91469E-05-4.98883E-06 3.00660E-19 3.43861E-20
 -1      2714 1.01416E-04-3.33522E-05-2.91657E-05-3.37377E-06 5.77893E-19 9.89200E-20
 -1      2715 1.00519E-04-3.22086E-05-2.92850E-05-6.01799E-06 7.77178E-20 2.00110E-19
 -1      2716 1.00113E-04-3.16524E-05-2.93420E-05-6.75098E-06 2.09410E-19 7.29751E-19
 -1      2717 1.01981E-04-3.32745E-05-2.94302E-05-5.48270E-06 3.05008E-19 1.63618E-20
 -1      2718 9.97967E-05-3.09408E-05-2.95333E-05-7.51746E-06 5.02887E-19 1.07782E-18
 -1      2719 9.90982E-05-2.99449E-05-2.96189E-05-7.82681E-06 2.55861E-19 1.59924E-18
 -1      2720 1.01798E-04-3.21653E-05-2.98163E-05-7.40291E-06 6.64834E-19 2.61404E-19
 -1      2721 9.83334E-05-2.87761E-05-2.98453E-05-7.96051E-06-2.01993E-19 1.49492E-18
 -1      2722 9.74688E-05-2.75103E-05-2.99458E-05-7.58742E-06-2.06464E-19 1.16897E-18
 -1      2723 1.00697E-04-2.99210E-05-3.03059E-05-8.44367E-06 5.10213E-20 1.49630E-18
 -1      2724 9.64741E-05-2.61730E-05-3.01623E-05-6.79078E-06-5.02089E-19 1.71511E-18
 -1      2725 9.56967E-05-2.50174E-05-3.02493E-05-5.63235E-06-9.09335E-19 1.70133E-18
 -1      2726 9.88839E-05-2.69309E-05-3.08265E-05-7.86763E-06-2.14674E-19 1.28003E-18
 -1      2727 9.49066E-05-2.40154E-05-3.03954E-05-3.90584E-06-1.77073E-18 2.05123E-18
 -1      2728 9.45075E-05-2.34226E-05-3.04373E-05-2.15463E-06-1.92327E-18 1.41686E-18
 -1      2729 9.70268E-05-2.41330E-05-3.12531E-05-5.29627E-06-1.27172E-18 2.69499E-18
 -1      2730 9.43363E-05-2.32134E-05-3.04649E-05 6.89694E-08-1.02475E-18 2.21076E-18
 -1      2731 9.44796E-05-2.34414E-05-3.04447E-05 1.94340E-06-3.92928E-19 2.48830E-18
 -1      2732 9.60226E-05-2.26871E-05-3.14575E-05-1.16015E-06-9.13364E-19 3.66809E-18
 -1      2733 9.50153E-05-2.41210E-05-3.03450E-05 3.97165E-06-4.43571E-19 2.38543E-18
 -1      2734 9.56359E-05-2.50680E-05-3.02696E-05 5.44289E-06 3.78570E-19 2.26276E-18
 -1      2735 9.64052E-05-2.32496E-05-3.13741E-05 3.30538E-06-7.68778E-19 4.70329E-18
 -1      2736 9.65941E-05-2.63240E-05-3.00739E-05 6.68967E-06 6.71059E-19 1.08984E-18
 -1      2737 9.74418E-05-2.75990E-05-2.99695E-05 7.41936E-06 1.11248E-18 1.68258E-18
 -1      2738 9.79630E-05-2.55637E-05-3.10288E-05 6.70133E-06-2.85211E-19 1.80161E-18
 -1      2739 9.83567E-05-2.89065E-05-2.97361E-05 7.68003E-06 1.61808E-18 7.39020E-19
 -1      2740 9.91430E-05-3.00669E-05-2.96346E-05 7.64436E-06 1.08519E-18-7.16876E-21
 -1      2741 9.99026E-05-2.86240E-05-3.05262E-05 8.17762E-06 8.60157E-19 5.51727E-19
 -1      2742 9.96801E-05-3.10188E-05-2.94188E-05 7.10368E-06 5.13433E-19-3.16603E-19
 -1      2743 1.00212E-04-3.17880E-05-2.93413E-05 6.50801E-06 9.62957E-19-4.54590E-19
 -1      2744 1.01392E-04-3.13216E-05-3.00018E-05 7.77150E-06 7.64430E-19-1.18214E-18
 -1      2745 1.00277E-04-3.22283E-05-2.91737E-05 5.53021E-06 1.29906E-18-1.09621E-18
 -1      2746 1.00500E-04-3.25451E-05-2.91260E-05 4.66045E-06 1.12872E-18-1.47020E-18
 -1      2747 1.01996E-04-3.29848E-05-2.95550E-05 6.11261E-06 4.51910E-19-1.60578E-18
 -1      2748 1.00190E-04-3.25343E-05-2.90139E-05 3.58896E-06 1.08147E-18-1.75097E-18
 -1      2749 1.00151E-04-3.24874E-05-2.89910E-05 2.68958E-06-2.61531E-19-1.07511E-19
 -1      2750 1.01730E-04-3.35069E-05-2.92291E-05 3.96219E-06 6.49078E-19-2.89603E-18
 -1      2751 9.96323E-05-3.21842E-05-2.89265E-05 1.74764E-06-1.06170E-18 1.21783E-18
 -1      2752 9.94218E-05-3.19146E-05-2.89189E-05 9.73301E-07-1.01013E-18 1.05364E-18
 -1      2753 1.00876E-04-3.31550E-05-2.90232E-05 1.89970E-06 4.22498E-19-1.08029E-18
 -1      2754 9.88430E-05-3.14782E-05-2.88881E-05 2.60998E-07-1.10816E-18 1.76940E-18
 -1      2755 9.85470E-05-3.11122E-05-2.88869E-05-3.18019E-07 1.91688E-19 6.61905E-19
 -1      2756 9.97576E-05-3.23083E-05-2.89128E-05 2.36636E-07-4.80125E-19 3.26731E-19
 -1      2757 9.80032E-05-3.06560E-05-2.88765E-05-7.84219E-07 7.50826E-19 4.10508E-19
 -1      2758 9.76839E-05-3.02787E-05-2.88756E-05-1.15543E-06-2.39258E-19 2.56612E-19
 -1      2759 9.86226E-05-3.12861E-05-2.88665E-05-9.28073E-07 1.59106E-19 4.56723E-19
 -1      2760 9.72197E-05-2.98655E-05-2.88756E-05-1.40215E-06-1.32773E-18 2.12455E-20
 -1      2761 9.69123E-05-2.95196E-05-2.88726E-05-1.58580E-06-1.66772E-18-1.06494E-18
 -1      2762 9.76089E-05-3.02919E-05-2.88575E-05-1.61688E-06-1.41584E-18-1.38419E-19
 -1      2763 9.65341E-05-2.91683E-05-2.88771E-05-1.65003E-06-1.13645E-18-2.09373E-18
 -1      2764 9.62600E-05-2.88783E-05-2.88716E-05-1.67000E-06-7.14025E-19-2.88064E-18
 -1      2765 9.67630E-05-2.94146E-05-2.88677E-05-1.90566E-06-2.74829E-18-1.98945E-18
 -1      2766 9.44772E-05-2.81335E-05-2.84327E-05-9.17403E-07 7.48522E-19-5.55756E-19
 -1      2767 9.44889E-05-2.80085E-05-2.84800E-05-7.45572E-07 7.29723E-19-3.57811E-19
 -1      2768 9.49315E-05-2.82433E-05-2.85870E-05-9.36449E-07 6.64455E-19-5.80768E-19
 -1      2769 9.45496E-05-2.78546E-05-2.85850E-05-4.58159E-07 8.40428E-19-1.72770E-19
 -1      2770 9.46392E-05-2.76589E-05-2.86872E-05-9.97260E-08 1.04200E-18 7.74938E-20
 -1      2771 9.50075E-05-2.79154E-05-2.87623E-05-4.72856E-07 1.04019E-18-4.02133E-19
 -1      2772 9.45342E-05-2.84242E-05-2.83316E-05-1.18006E-06 5.14519E-19 6.03206E-21
 -1      2773 9.44716E-05-2.83635E-05-2.83291E-05-1.17106E-06 5.91375E-19-9.74595E-21
 -1      2774 9.49033E-05-2.84397E-05-2.84890E-05-1.14773E-06 4.15611E-19-3.75804E-19
 -1      2775 9.46180E-05-2.84962E-05-2.83365E-05-1.15317E-06 6.65224E-19 6.95463E-20
 -1      2776 9.45411E-05-2.84546E-05-2.83219E-05-1.17746E-06 6.22677E-19 2.74877E-19
 -1      2777 9.49094E-05-2.85553E-05-2.84406E-05-1.21117E-06 4.91869E-19-2.84644E-19
 -1      2778 9.47185E-05-2.85372E-05-2.83619E-05-1.08628E-06 4.18953E-19 2.75946E-19
 -1      2779 9.46356E-05-2.85102E-05-2.83398E-05-1.12432E-06 7.11565E-19 3.12151E-19
 -1      2780 9.49393E-05-2.86159E-05-2.84264E-05-1.19019E-06 5.82776E-19 8.60479E-20
 -1      2781 9.48279E-05-2.85549E-05-2.84008E-05-1.01131E-06 3.12249E-19 1.58832E-19
 -1      2782 9.47428E-05-2.85391E-05-2.83741E-05-1.04906E-06 3.60097E-19 3.09650E-19
 -1      2783 9.49842E-05-2.86375E-05-2.84358E-05-1.13028E-06 3.49280E-19 3.12911E-20
 -1      2784 9.49471E-05-2.85532E-05-2.84523E-05-9.49786E-07 5.50359E-19 2.72696E-19
 -1      2785 9.48580E-05-2.85469E-05-2.84206E-05-9.77287E-07 3.79092E-19 2.42243E-19
 -1      2786 9.50395E-05-2.86292E-05-2.84627E-05-1.06311E-06 4.27402E-19-2.40141E-21
 -1      2787 9.50640E-05-2.85349E-05-2.85099E-05-9.27224E-07 7.19391E-19 1.67656E-19
 -1      2788 9.49775E-05-2.85371E-05-2.84763E-05-9.33496E-07 8.18896E-19 2.71127E-19
 -1      2789 9.51003E-05-2.85964E-05-2.85025E-05-1.01642E-06 7.72186E-19 1.38546E-20
 -1      2790 9.51865E-05-2.85008E-05-2.85763E-05-9.56926E-07 5.45952E-19 1.45079E-19
 -1      2791 9.50961E-05-2.85107E-05-2.85386E-05-9.35192E-07 7.30746E-19 1.55894E-19
 -1      2792 9.51622E-05-2.85425E-05-2.85520E-05-1.01140E-06 7.50611E-19-1.64290E-19
 -1      2793 9.53167E-05-2.84483E-05-2.86536E-05-1.05612E-06-2.95880E-19 5.53738E-19
 -1      2794 9.52187E-05-2.84668E-05-2.86102E-05-9.97595E-07 1.38615E-19 4.34410E-19
 -1      2795 9.52249E-05-2.84655E-05-2.86118E-05-1.06445E-06 2.47703E-19 2.63369E-19
 -1      2796 9.54571E-05-2.83718E-05-2.87452E-05-1.24487E-06-1.66892E-19 2.95247E-19
 -1      2797 9.53471E-05-2.84012E-05-2.86937E-05-1.13884E-06 5.71307E-20 4.97543E-19
 -1      2798 9.52854E-05-2.83597E-05-2.86829E-05-1.19390E-06-1.45846E-19 5.58803E-19
 -1      2799 9.56085E-05-2.82613E-05-2.88558E-05-1.54848E-06-4.02813E-20-4.91632E-19
 -1      2800 9.54818E-05-2.83056E-05-2.87930E-05-1.38101E-06-2.08842E-19-1.23535E-19
 -1      2801 9.53381E-05-2.82146E-05-2.87674E-05-1.42074E-06 1.37432E-19 4.63396E-19
 -1      2802 9.57688E-05-2.81008E-05-2.89906E-05-1.99999E-06 2.20037E-19-2.40854E-19
 -1      2803 9.56200E-05-2.81669E-05-2.89129E-05-1.75267E-06-2.05087E-20-4.47280E-19
 -1      2804 9.53720E-05-2.80127E-05-2.88678E-05-1.77065E-06 4.33107E-20-3.00822E-19
 -1      2805 9.59315E-05-2.78508E-05-2.91644E-05-2.68234E-06 4.53705E-19-5.50783E-19
 -1      2806 9.57532E-05-2.79562E-05-2.90622E-05-2.30674E-06 6.30449E-19-6.38130E-20
 -1      2807 9.53662E-05-2.77209E-05-2.89897E-05-2.29232E-06 2.33727E-19-4.63039E-19
 -1      2808 9.60562E-05-2.74993E-05-2.93654E-05-3.59026E-06 1.30877E-19-7.00948E-19
 -1      2809 9.58633E-05-2.76478E-05-2.92443E-05-3.09086E-06 3.05999E-19-4.39578E-19
 -1      2810 9.52825E-05-2.72998E-05-2.91313E-05-3.01951E-06 3.70853E-19-5.26748E-19
 -1      2811 9.61073E-05-2.69900E-05-2.96013E-05-4.82348E-06 4.40642E-19-5.39848E-19
 -1      2812 9.59015E-05-2.72053E-05-2.94546E-05-4.14234E-06-9.47659E-20-8.40159E-19
 -1      2813 9.50658E-05-2.67139E-05-2.92854E-05-3.98306E-06 1.89687E-19-4.63409E-19
 -1      2814 9.60106E-05-2.62722E-05-2.98630E-05-6.46724E-06 1.13798E-18-5.98845E-19
 -1      2815 9.58089E-05-2.65719E-05-2.96926E-05-5.55638E-06 1.28844E-18-4.51675E-19
 -1      2816 9.46250E-05-2.58895E-05-2.94432E-05-5.25730E-06 7.15520E-19-7.41967E-19
 -1      2817 9.56651E-05-2.53132E-05-3.01215E-05-8.61023E-06 5.25989E-19-7.63459E-19
 -1      2818 9.54910E-05-2.56993E-05-2.99389E-05-7.42344E-06 8.02206E-19-4.37515E-19
 -1      2819 9.38303E-05-2.47609E-05-2.95763E-05-6.90902E-06 1.03302E-18 4.86093E-20
 -1      2820 9.49668E-05-2.41601E-05-3.03116E-05-1.13258E-05-2.41090E-19-7.48032E-19
 -1      2821 9.48320E-05-2.45811E-05-3.01466E-05-9.83617E-06 2.35221E-19-6.57319E-19
 -1      2822 9.25136E-05-2.32941E-05-2.96267E-05-9.00811E-06 3.80327E-19-1.27275E-19
 -1      2823 9.39137E-05-2.30867E-05-3.03108E-05-1.46429E-05-6.63796E-20-9.80780E-19
 -1      2824 9.37434E-05-2.33463E-05-3.02203E-05-1.28764E-05-3.61624E-19-1.13135E-18
 -1      2825 9.04994E-05-2.15666E-05-2.94859E-05-1.16307E-05 9.53714E-20-8.82775E-19
 -1      2826 9.27455E-05-2.28862E-05-2.98628E-05-1.87219E-05 1.05201E-19-1.09809E-18
 -1      2827 9.22606E-05-2.24413E-05-2.99696E-05-1.66855E-05 5.54635E-19-9.11838E-19
 -1      2828 8.76263E-05-1.99254E-05-2.89432E-05-1.49998E-05-2.80297E-19-1.27291E-18
 -1      2829 9.27903E-05-2.53973E-05-2.87235E-05-2.29970E-05-5.16187E-19-1.77927E-18
 -1      2830 9.11520E-05-2.32121E-05-2.91220E-05-2.12125E-05-1.90324E-19-9.32100E-19
 -1      2831 8.42507E-05-1.94378E-05-2.76781E-05-1.92560E-05-2.03817E-20-1.34200E-18
 -1      2832 9.67005E-05-3.35681E-05-2.67251E-05-2.71485E-05-1.57098E-18-2.34718E-18
 -1      2833 9.22724E-05-2.79628E-05-2.74105E-05-2.60794E-05-1.07324E-18-1.97364E-18
 -1      2834 8.16576E-05-2.22371E-05-2.53408E-05-2.47885E-05-5.08643E-19-1.66805E-18
 -1      2835 9.49756E-05-2.66874E-05-2.92720E-05 1.78341E-06 1.44609E-18 5.81349E-20
 -1      2836 9.52432E-05-2.61909E-05-2.95568E-05 2.79258E-06 1.69312E-18 1.25288E-19
 -1      2837 9.52705E-05-2.50202E-05-3.01043E-05 3.82425E-06 1.70546E-18-3.33395E-19
 -1      2838 6.95684E-05-3.61590E-05-1.37476E-05-4.45125E-05-7.31413E-19 2.04834E-18
 -1      2839 8.47398E-05-4.42254E-05-1.73960E-05-4.58717E-05-1.06123E-18 5.19655E-19
 -1      2840 3.95763E-05-1.54923E-05-9.81855E-06-1.95966E-05-1.28315E-18-3.31804E-18
 -1      2841 5.39554E-05-2.47744E-05-1.21246E-05-3.10188E-05-1.94955E-18-3.23355E-18
 -1      2842 9.73337E-05-4.69819E-05-2.09897E-05 3.37532E-05-7.42848E-19-1.90371E-18
 -1      2843 8.56731E-05-1.99164E-05-2.82677E-05 1.85782E-05 2.71560E-19-1.19741E-18
 -1      2844 8.57902E-05-2.07836E-05-2.77310E-05 2.05534E-05-3.16225E-19-1.48392E-18
 -1      2845 8.88191E-05-2.07952E-05-2.92445E-05 1.45423E-05-2.22711E-19-1.42593E-19
 -1      2846 8.84030E-05-2.04989E-05-2.90425E-05 1.63641E-05 5.24937E-19-6.25595E-19
 -1      2847 8.11633E-05-1.71613E-05-2.73000E-05 1.56778E-05-4.84983E-19 2.52229E-19
 -1      2848 9.12656E-05-2.23843E-05-2.95887E-05 1.14719E-05-2.56894E-19 3.93349E-20
 -1      2849 9.09054E-05-2.17986E-05-2.95870E-05 1.29697E-05-7.86417E-20-6.30573E-20
 -1      2850 8.57734E-05-1.90006E-05-2.85286E-05 1.24670E-05-2.73864E-19 4.46828E-19
 -1      2851 9.29504E-05-2.39090E-05-2.96383E-05 8.98379E-06-3.24123E-19-2.13714E-18
 -1      2852 9.27517E-05-2.33454E-05-2.97215E-05 1.02323E-05 5.79655E-20-8.97961E-19
 -1      2853 8.91295E-05-2.11220E-05-2.90856E-05 1.00271E-05 4.89324E-19-6.90924E-19
 -1      2854 9.39941E-05-2.51001E-05-2.95590E-05 6.95591E-06-1.29786E-18-1.41402E-18
 -1      2855 9.39447E-05-2.46719E-05-2.96669E-05 7.98331E-06-1.23699E-18-2.39490E-18
 -1      2856 9.14517E-05-2.29800E-05-2.93062E-05 8.02000E-06 1.25547E-19-1.19862E-18
 -1      2857 9.45246E-05-2.58744E-05-2.94416E-05 5.27791E-06-2.20123E-18-1.14752E-18
 -1      2858 9.46100E-05-2.56314E-05-2.95445E-05 6.14724E-06-1.92663E-18-1.35200E-18
 -1      2859 9.29570E-05-2.43915E-05-2.93647E-05 6.33688E-06-2.06180E-18-5.00172E-19
 -1      2860 9.29209E-05-2.50342E-05-2.90844E-05-2.04366E-06 3.94265E-19-7.21104E-19
 -1      2861 9.25607E-05-2.47047E-05-2.90993E-05-1.53523E-06 9.01278E-19-3.13431E-18
 -1      2862 9.18720E-05-2.38683E-05-2.91489E-05 7.24164E-07 1.06179E-18 4.52041E-19
 -1      2863 9.19249E-05-2.39030E-05-2.91634E-05 1.47399E-06 1.35723E-18 4.35145E-19
 -1      2864 9.37815E-05-2.59482E-05-2.90598E-05-2.75139E-06-1.23756E-18-8.14765E-19
 -1      2865 9.33740E-05-2.55567E-05-2.90798E-05-2.46899E-06-7.34058E-19-3.91395E-20
 -1      2866 9.29337E-05-2.54167E-05-2.89351E-05-2.66047E-06-1.19771E-19-1.93456E-18
 -1      2867 9.22048E-05-2.42702E-05-2.91106E-05-8.40545E-07-4.88979E-20-4.05590E-18
 -1      2868 9.20023E-05-2.40867E-05-2.91232E-05-1.53229E-07 3.74730E-19-1.53995E-18
 -1      2869 9.14209E-05-2.37603E-05-2.89818E-05 1.35611E-07 6.75492E-20-1.04386E-18
 -1      2870 9.19914E-05-2.44349E-05-2.89444E-05-1.50890E-06 9.25622E-20-3.39494E-18
 -1      2871 9.45751E-05-2.68147E-05-2.90296E-05-2.97197E-06-1.32135E-19-1.59220E-18
 -1      2872 9.42118E-05-2.64391E-05-2.90554E-05-2.90214E-06-9.24235E-19-1.91754E-19
 -1      2873 9.39575E-05-2.64505E-05-2.89366E-05-3.23251E-06-6.58645E-19-2.78497E-19
 -1      2874 9.52040E-05-2.75413E-05-2.89901E-05-2.81506E-06 1.65895E-18 1.12619E-18
 -1      2875 9.49225E-05-2.72160E-05-2.90213E-05-2.90681E-06 1.38089E-18-6.35498E-19
 -1      2876 9.48542E-05-2.73570E-05-2.89356E-05-3.29063E-06 6.11964E-19 1.13492E-20
 -1      2877 9.56100E-05-2.80572E-05-2.89439E-05-2.41445E-06 5.54431E-19 1.50489E-18
 -1      2878 9.54294E-05-2.78156E-05-2.89771E-05-2.60544E-06 6.56069E-19 2.22041E-18
 -1      2879 9.55156E-05-2.80414E-05-2.89254E-05-2.97713E-06 7.43851E-19 3.09560E-19
 -1      2880 1.33107E-04-5.82660E-05-3.17709E-05-1.87393E-05-7.59603E-19-1.13481E-18
 -1      2881 1.39379E-04-5.52068E-05-3.66023E-05-9.73516E-06-1.44337E-18-1.23032E-18
 -1      2882 5.05021E-05-2.09265E-05-1.21866E-05 2.77111E-05-3.07049E-19 1.34721E-18
 -1      2883 3.80302E-05-1.30072E-05-1.00744E-05 1.59672E-05-1.40586E-18 1.65277E-18
 -1      2884 9.47216E-05-2.74112E-05-2.88503E-05 3.87243E-07 1.08136E-18 3.66600E-20
 -1      2885 9.49016E-05-2.71180E-05-2.90224E-05 9.93340E-07 1.21815E-18 9.92761E-20
 -1      2886 9.52527E-05-2.64989E-05-2.94724E-05 1.73638E-06 1.44503E-18-2.15572E-19
 -1      2887 9.51293E-05-2.73768E-05-2.90464E-05 3.72267E-07 1.10795E-18-8.92118E-20
 -1      2888 8.30745E-05-2.15268E-05-2.63526E-05 2.34429E-05 4.62923E-19-2.40230E-18
 -1      2889 8.48051E-05-2.49977E-05-2.53289E-05 2.56899E-05 1.10972E-18-2.06496E-18
 -1      2890 7.57857E-05-1.71803E-05-2.49433E-05 2.02312E-05-2.43886E-19-1.03555E-18
 -1      2891 8.54858E-05-2.95458E-05-2.36349E-05 2.95273E-05 1.11443E-18-2.29006E-18
 -1      2892 9.11980E-05-3.75893E-05-2.24380E-05 3.13719E-05 3.51942E-19-2.09942E-18
 -1      2893 7.77514E-05-3.60541E-05-1.76774E-05 3.55565E-05 2.55063E-19-1.07467E-18
 -1      2894 7.26975E-05-2.21261E-05-2.15598E-05 2.71615E-05 9.16860E-19-7.73076E-19
 -1      2895 7.19538E-05-3.47228E-05-1.53633E-05-3.48238E-05-1.91811E-18-2.75985E-18
 -1      2896 9.32712E-05-4.63945E-05-2.01381E-05-3.59303E-05-9.67523E-19-2.32458E-18
 -1      2897 4.29023E-05-1.94148E-05-9.61821E-06 3.41945E-05 7.76306E-19-6.15158E-19
 -1      2898 3.29008E-05-1.27368E-05-8.07465E-06 2.16995E-05 4.55915E-19-4.25634E-19
 -1      2899 1.66754E-04-6.14350E-05-4.51263E-05-1.52675E-05-8.78267E-19-2.42040E-19
 -1      2900 9.58833E-05-2.85133E-05-2.88688E-05-1.55683E-06 1.47977E-18-1.92948E-18
 -1      2901 9.58010E-05-2.83938E-05-2.88898E-05-1.75352E-06 1.13358E-18-3.30560E-18
 -1      2902 9.60477E-05-2.86785E-05-2.88752E-05-1.62119E-06 6.75034E-19-2.69178E-18
 -1      2903 1.03395E-04-5.20945E-05-2.14510E-05-4.01798E-05-2.14299E-19-4.12816E-19
 -1      2904 1.19770E-04-5.80067E-05-2.68726E-05-3.23102E-05-1.56913E-19-1.86813E-18
 -1      2905 9.11840E-05-1.60906E-05-3.22109E-05 4.91907E-06 1.73348E-18-2.37156E-18
 -1      2906 9.08416E-05-1.55914E-05-3.22718E-05 3.99607E-06 1.41530E-18-2.54451E-18
 -1      2907 9.18211E-05-1.72020E-05-3.19639E-05 3.19975E-06 1.23942E-18-2.45787E-18
 -1      2908 9.24885E-05-1.82628E-05-3.17910E-05 4.61692E-06 1.60855E-18-2.11961E-18
 -1      2909 3.00961E-05-9.01817E-06-8.40697E-06 8.52777E-06 5.68518E-19-6.35698E-19
 -1      2910 3.20976E-05-9.77757E-06-8.96530E-06-6.52508E-06-3.65706E-19-2.11059E-18
 -1      2911 9.08052E-05-1.55425E-05-3.22769E-05-3.93387E-06-4.26190E-19-2.51799E-18
 -1      2912 9.11385E-05-1.60283E-05-3.22173E-05-4.85871E-06-7.26090E-19-2.56848E-18
 -1      2913 1.32457E-04-5.87586E-05-3.21238E-05 1.98522E-05 8.40045E-19-2.27481E-19
 -1      2914 1.21852E-04-5.76435E-05-2.71380E-05 2.95530E-05 7.37766E-19 1.30020E-19
 -1      2915 1.05735E-04-5.26995E-05-2.29488E-05 3.95665E-05 8.21834E-19 2.19646E-19
 -1      2916 8.85185E-05-4.43074E-05-1.83064E-05 4.31931E-05 1.23487E-18-5.87894E-19
 -1      2917 4.10949E-05-1.90721E-05-8.85863E-06-3.22820E-05-1.83616E-18 2.71622E-18
 -1      2918 5.43640E-05-2.73796E-05-1.11805E-05-4.15339E-05-1.38162E-18 3.56516E-18
 -1      2919 1.16745E-04-5.65413E-05-2.53934E-05-2.75481E-05-9.98440E-19-1.80214E-18
 -1      2920 1.28914E-04-7.30583E-06-5.27734E-05-4.37033E-06-2.39181E-18 1.64960E-19
 -1      2921 1.30907E-04-1.32580E-05-5.09710E-05-9.09656E-06-2.20949E-18-8.26387E-20
 -1      2922 1.29984E-04-8.68040E-06-5.25464E-05 6.56937E-06-1.03529E-18 9.54500E-20
 -1      2923 1.28245E-04-5.80592E-06-5.31128E-05 1.18913E-06-1.79592E-18 7.12355E-19
 -1      2924 6.73649E-05-3.41488E-05-1.41531E-05 4.47267E-05 1.11311E-18-1.51333E-18
 -1      2925 5.39495E-05-2.63190E-05-1.11461E-05 3.98289E-05 9.08019E-19-1.35038E-18
 -1      2926 5.27232E-05-2.09886E-05-1.30217E-05 3.38436E-05 1.00230E-18-3.58083E-19
 -1      2927 1.41214E-04-4.79760E-05-4.00560E-05 1.51965E-07-2.45364E-18-1.66707E-18
 -1      2928 1.38698E-04-3.83902E-05-4.36147E-05 7.48655E-06-2.99977E-18-1.99635E-18
 -1      2929 1.36968E-04-5.09888E-05-3.69019E-05-1.67095E-06-1.29312E-18-2.59197E-18
 -1      2930 1.34727E-04-2.49906E-05-4.74539E-05 1.08621E-05-1.71651E-18-1.26398E-18
 -1      2931 1.32918E-04-1.54693E-05-5.10080E-05 9.57634E-06-9.71335E-19-7.09390E-20
 -1      2932 9.28511E-05-1.80014E-05-3.20779E-05-8.82380E-06-1.80515E-18-1.91950E-18
 -1      2933 1.59173E-04-6.33473E-05-4.05224E-05-6.87354E-06-1.50753E-18-3.13402E-20
 -1      2934 9.39208E-05-2.54117E-05-2.93542E-05 4.66355E-06-1.50670E-18-1.06081E-18
 -1      2935 1.08478E-04-4.92199E-05-2.50108E-05-2.87597E-05-9.22737E-19-2.10472E-18
 -1      2936 9.15653E-05-1.66782E-05-3.21162E-05-5.58100E-06-9.75896E-19-2.46140E-18
 -1      2937 9.20264E-05-1.73981E-05-3.20249E-05-6.44809E-06-1.32531E-18-2.36777E-18
 -1      2938 9.24350E-05-1.81879E-05-3.18000E-05-4.57538E-06-7.93243E-19-2.22219E-18
 -1      2939 4.37930E-05-1.19535E-05-1.30218E-05-1.26113E-05-5.81647E-19-2.19149E-18
 -1      2940 9.12972E-05-1.63919E-05-3.20901E-05 2.80381E-08 4.92755E-19-2.58466E-18
 -1      2941 9.01745E-05-1.46031E-05-3.24072E-05-3.83573E-07 4.00476E-19-2.74821E-18
 -1      2942 9.02309E-05-1.46833E-05-3.23971E-05-1.34150E-06 1.65728E-19-2.67883E-18
 -1      2943 1.36127E-04-4.01049E-05-4.13610E-05-7.20582E-06 1.94818E-19 1.07880E-18
 -1      2944 1.29560E-04-1.89703E-05-4.78844E-05-1.14529E-05-1.19241E-18 7.99546E-19
 -1      2945 1.26822E-04-2.37095E-05-4.43045E-05-1.25299E-05-4.16740E-19 1.51524E-18
 -1      2946 1.21437E-04-1.44711E-05-4.62636E-05-1.05398E-05-1.07086E-18 1.12457E-18
 -1      2947 9.61794E-05-2.87941E-05-2.88817E-05-1.90422E-06-2.19611E-19-2.24592E-18
 -1      2948 9.43535E-05-2.14238E-05-3.12599E-05 7.21970E-06 2.08427E-18-7.65327E-19
 -1      2949 9.96905E-05-3.98711E-05-2.52329E-05-2.97922E-05-1.45986E-18-2.26338E-18
 -1      2950 8.29348E-05-3.13636E-05-2.20502E-05-3.15737E-05-1.37929E-18-2.84238E-18
 -1      2951 6.65141E-05-3.05187E-05-1.49151E-05-4.02465E-05-1.96692E-18 2.52045E-18
 -1      2952 6.93823E-05-2.79807E-05-1.70605E-05-3.08283E-05-1.54266E-18-3.08765E-18
 -1      2953 9.14755E-05-2.36223E-05-2.90622E-05 2.00746E-06 1.64944E-18 9.39604E-19
 -1      2954 9.21255E-05-2.40008E-05-2.92083E-05 2.36466E-06 1.31218E-18 2.04567E-18
 -1      2955 9.24649E-05-2.42952E-05-2.92270E-05 2.98905E-06-1.53530E-21 3.34804E-18
 -1      2956 9.27319E-05-2.44836E-05-2.92603E-05 3.69618E-06-7.81004E-19 2.76159E-18
 -1      2957 9.33303E-05-2.50090E-05-2.92870E-05 4.07764E-06-7.39892E-19 3.95497E-19
 -1      2958 9.29046E-05-2.45582E-05-2.92817E-05 4.95477E-06-1.62964E-18 2.66052E-19
 -1      2959 9.19992E-05-2.39427E-05-2.91535E-05 3.63731E-06 8.96656E-19 2.85682E-18
 -1      2960 6.36440E-05-2.69804E-05-1.50082E-05 3.17562E-05 1.70254E-19-4.20975E-19
 -1      2961 6.23260E-05-2.13569E-05-1.70184E-05 2.71697E-05 5.12878E-19 1.00755E-18
 -1      2962 3.69557E-05-1.05409E-05-1.06359E-05 8.93034E-06-1.54425E-18 2.25311E-18
 -1      2963 3.80017E-05-8.47144E-06-1.21431E-05 5.04651E-07-1.14594E-18 2.92862E-18
 -1      2964 4.75713E-05-1.18066E-05-1.48767E-05 1.47205E-05 4.63248E-19 3.29093E-18
 -1      2965 1.25242E-04-1.30750E-05-4.85244E-05 8.84614E-06-1.03126E-18-5.11396E-20
 -1      2966 1.25362E-04-5.72244E-05-2.91478E-05-2.28794E-05 1.30814E-19-1.25557E-18
 -1      2967 9.57100E-05-2.82300E-05-2.89208E-05-1.98838E-06 8.15863E-19-1.70464E-18
 -1      2968 8.10822E-05-3.77376E-05-1.81914E-05 4.06510E-05 1.71175E-18-8.65668E-19
 -1      2969 3.87167E-05-1.42326E-05-9.83905E-06-2.44613E-05-1.80429E-18 2.63914E-18
 -1      2970 4.92764E-05-1.66546E-05-1.35493E-05-2.76611E-05-1.99839E-18 2.47217E-18
 -1      2971 3.85653E-05-9.90318E-06-1.18085E-05-1.51295E-05-1.96459E-18 1.97285E-18
 -1      2972 1.14098E-04-5.38392E-05-2.56262E-05 3.09880E-05 1.29061E-18 3.34260E-19
 -1      2973 1.33759E-04-5.51609E-05-3.36863E-05 1.04517E-05 1.07658E-18 1.18950E-18
 -1      2974 9.71682E-05-4.71659E-05-2.10618E-05-3.95494E-05-6.73074E-19-8.97961E-19
 -1      2975 1.31617E-04-3.75767E-05-4.05026E-05 9.21551E-06-1.80503E-18-8.30754E-19
 -1      2976 1.34258E-04-3.20990E-05-4.41328E-05 1.10626E-05-2.17407E-18-4.76932E-19
 -1      2977 1.26768E-04-2.52446E-05-4.38666E-05 1.29786E-05-1.33503E-18 9.43701E-19
 -1      2978 3.93994E-05-1.03169E-05-1.18156E-05 1.41327E-05 5.79397E-19-8.90232E-19
 -1      2979 9.46133E-05-2.24662E-05-3.09131E-05 5.69460E-06 1.84011E-18-9.62981E-19
 -1      2980 9.03558E-05-1.48745E-05-3.23693E-05-2.17828E-06 2.09458E-20-2.47664E-18
 -1      2981 9.05400E-05-1.51382E-05-3.23369E-05-3.12960E-06-2.95054E-19-2.44603E-18
 -1      2982 9.17891E-05-1.71591E-05-3.19691E-05-3.14359E-06-3.45916E-19-2.28601E-18
 -1      2983 9.14150E-05-1.65751E-05-3.20613E-05-1.58367E-06 8.82778E-20-2.42393E-18
 -1      2984 1.22677E-04-7.82218E-06-4.97130E-05-1.78986E-06-1.85363E-18-1.81113E-19
 -1      2985 9.42164E-05-2.07500E-05-3.15185E-05-8.19236E-06-1.92092E-18-1.51260E-18
 -1      2986 9.47200E-05-2.26491E-05-3.09110E-05-6.43312E-06-1.84300E-18-1.27423E-18
 -1      2987 9.60697E-05-2.86484E-05-2.88883E-05-2.11779E-06-5.77152E-19-2.17221E-18
 -1      2988 9.57745E-05-2.82866E-05-2.89249E-05-2.26204E-06-3.53588E-19-1.15752E-19
 -1      2989 9.59557E-05-2.85313E-05-2.89023E-05-2.57394E-06-7.05553E-19 4.31343E-19
 -1      2990 9.62804E-05-2.88971E-05-2.88820E-05-2.16111E-06-2.10201E-18-1.18177E-18
 -1      2991 9.45392E-05-2.22438E-05-3.09760E-05-5.84002E-06-1.63033E-18-1.45171E-18
 -1      2992 9.42764E-05-2.18502E-05-3.10612E-05 4.97150E-06 1.61116E-18-1.38974E-18
 -1      2993 9.38150E-05-2.09084E-05-3.12475E-05 4.62411E-06 1.53000E-18-1.64360E-18
 -1      2994 6.68353E-05-2.13719E-05-1.92017E-05-2.70304E-05-1.45150E-18-3.38231E-18
 -1      2995 8.88158E-05-4.04993E-05-2.02956E-05-3.82613E-05-7.72759E-19-2.68959E-19
 -1      2996 1.03070E-04-4.79430E-05-2.36637E-05-3.37706E-05-7.64818E-19-1.87366E-18
 -1      2997 9.52532E-05-2.86739E-05-2.85332E-05-1.18362E-06 5.19858E-19-4.31899E-19
 -1      2998 9.52459E-05-2.86184E-05-2.85517E-05-1.16801E-06 3.57040E-19-4.92708E-19
 -1      2999 6.44628E-05-2.54331E-05-1.63598E-05-3.51099E-05-2.21624E-18 1.33598E-18
 -1      3000 7.71391E-05-3.39043E-05-1.84330E-05-3.88619E-05-9.27501E-19 1.86400E-19
 -1      3001 8.62466E-05-3.61568E-05-2.11902E-05-3.42397E-05-8.69003E-19-2.16126E-19
 -1      3002 9.49612E-05-2.35127E-05-3.06205E-05-4.14850E-06-1.33257E-18-1.57326E-18
 -1      3003 9.51588E-05-2.45924E-05-3.02611E-05-2.96647E-06-1.09083E-18-1.47795E-18
 -1      3004 9.54970E-05-2.55606E-05-2.99574E-05-2.13954E-06-9.89817E-19-1.32685E-18
 -1      3005 9.55370E-05-2.62616E-05-2.97021E-05-1.32875E-06-8.58858E-19-1.35685E-18
 -1      3006 9.52441E-05-2.44635E-05-3.03304E-05-2.62446E-06-1.00006E-18-1.60503E-18
 -1      3007 9.56816E-05-2.68716E-05-2.94755E-05-7.39627E-07-7.72943E-19-1.15792E-18
 -1      3008 9.56574E-05-2.73173E-05-2.92967E-05-2.11701E-07-6.62182E-19-1.23522E-18
 -1      3009 9.57103E-05-2.61940E-05-2.97940E-05-1.16591E-06-7.51683E-19-1.34437E-18
 -1      3010 9.57008E-05-2.77000E-05-2.91320E-05 1.72267E-07-7.47468E-19-1.31218E-18
 -1      3011 9.56640E-05-2.79833E-05-2.90105E-05 4.91838E-07-7.41691E-19-1.52309E-18
 -1      3012 9.58976E-05-2.73162E-05-2.93951E-05-1.53368E-07-8.26865E-19-1.32920E-18
 -1      3013 9.56550E-05-2.82175E-05-2.88940E-05 7.18873E-07-6.07378E-19-1.32799E-18
 -1      3014 9.56231E-05-2.83939E-05-2.88146E-05 8.93531E-07-6.58409E-19-1.34871E-18
 -1      3015 9.59371E-05-2.80328E-05-2.91055E-05 4.90848E-07-7.01979E-19-1.32600E-18
 -1      3016 9.55893E-05-2.85297E-05-2.87348E-05 1.01048E-06-6.30726E-19-1.27722E-18
 -1      3017 9.55667E-05-2.86342E-05-2.86858E-05 1.08938E-06-4.47189E-19-1.22759E-18
 -1      3018 9.59002E-05-2.84723E-05-2.89011E-05 8.62034E-07-6.50043E-19-1.20997E-18
 -1      3019 9.55224E-05-2.87039E-05-2.86336E-05 1.13406E-06-2.96832E-19-1.21207E-18
 -1      3020 9.55088E-05-2.87593E-05-2.86064E-05 1.15379E-06-3.72626E-19-1.15809E-18
 -1      3021 9.58275E-05-2.87236E-05-2.87618E-05 1.04482E-06-4.07910E-19-1.01930E-18
 -1      3022 9.54616E-05-2.87843E-05-2.85746E-05 1.15528E-06-4.47356E-19-9.09148E-19
 -1      3023 9.54551E-05-2.88056E-05-2.85629E-05 1.14250E-06-4.12846E-19-9.03319E-19
 -1      3024 9.57404E-05-2.88461E-05-2.86715E-05 1.10699E-06-1.72971E-19-1.07819E-18
 -1      3025 9.54086E-05-2.88004E-05-2.85461E-05 1.12247E-06-6.33636E-19-5.30167E-19
 -1      3026 9.54077E-05-2.87983E-05-2.85452E-05 1.09635E-06-8.40082E-19-5.52701E-19
 -1      3027 9.56501E-05-2.88803E-05-2.86176E-05 1.10037E-06-4.08574E-19-5.68196E-19
 -1      3028 9.53636E-05-2.87728E-05-2.85394E-05 1.07062E-06-1.03500E-18-2.64508E-19
 -1      3029 9.53670E-05-2.87547E-05-2.85462E-05 1.04475E-06-7.03768E-19-2.17441E-19
 -1      3030 9.55621E-05-2.88543E-05-2.85906E-05 1.06341E-06-6.55467E-19-2.20175E-19
 -1      3031 9.53263E-05-2.87161E-05-2.85482E-05 1.02470E-06-4.94267E-19-3.24101E-19
 -1      3032 9.53336E-05-2.86879E-05-2.85603E-05 1.00855E-06-5.89635E-19-3.71258E-19
 -1      3033 9.54792E-05-2.87880E-05-2.85831E-05 1.02415E-06-5.21702E-19-1.90875E-20
 -1      3034 9.52968E-05-2.86416E-05-2.85679E-05 1.00225E-06-7.06268E-19-3.18326E-19
 -1      3035 9.53087E-05-2.86083E-05-2.85837E-05 1.00211E-06-2.99267E-19-1.88463E-19
 -1      3036 9.54028E-05-2.86959E-05-2.85896E-05 1.00272E-06-5.06625E-19-3.17250E-19
 -1      3037 9.52770E-05-2.85592E-05-2.85948E-05 1.01503E-06-1.84948E-19-4.36637E-19
 -1      3038 9.52951E-05-2.85258E-05-2.86130E-05 1.03456E-06-2.93981E-19-1.37159E-19
 -1      3039 9.53348E-05-2.85903E-05-2.86056E-05 1.01330E-06-3.50958E-19-1.45690E-19
 -1      3040 9.52707E-05-2.84794E-05-2.86263E-05 1.07005E-06-6.26221E-19 6.78526E-20
 -1      3041 9.52983E-05-2.84521E-05-2.86459E-05 1.11038E-06-8.31935E-19 1.13785E-20
 -1      3042 9.52786E-05-2.84828E-05-2.86276E-05 1.06530E-06-3.25331E-19-3.03882E-20
 -1      3043 9.52857E-05-2.84155E-05-2.86599E-05 1.16955E-06-8.53378E-19 1.69955E-19
 -1      3044 9.53279E-05-2.84023E-05-2.86799E-05 1.22895E-06-6.81301E-19 3.07430E-19
 -1      3045 9.52409E-05-2.83876E-05-2.86524E-05 1.16385E-06-6.85750E-19-1.34085E-19
 -1      3046 9.53346E-05-2.83854E-05-2.86933E-05 1.31028E-06-1.20513E-18-9.15366E-20
 -1      3047 9.53992E-05-2.83977E-05-2.87124E-05 1.38341E-06-1.26407E-18-4.66442E-19
 -1      3048 9.52336E-05-2.83235E-05-2.86772E-05 1.30945E-06-1.10444E-18-6.11076E-19
 -1      3049 9.54376E-05-2.84145E-05-2.87240E-05 1.48175E-06-5.10264E-19-1.99768E-19
 -1      3050 9.55353E-05-2.84671E-05-2.87413E-05 1.55844E-06-2.20486E-19-3.84522E-19
 -1      3051 9.52763E-05-2.83169E-05-2.86991E-05 1.49664E-06-8.48471E-19-4.22506E-19
 -1      3052 9.56234E-05-2.85365E-05-2.87498E-05 1.66346E-06-3.71833E-19-1.86048E-19
 -1      3053 9.57688E-05-2.86484E-05-2.87642E-05 1.72711E-06 1.56937E-19-6.13625E-19
 -1      3054 9.53988E-05-2.84037E-05-2.87158E-05 1.71164E-06-2.63431E-19-1.04917E-19
 -1      3055 9.59315E-05-2.87938E-05-2.87693E-05 1.82107E-06 5.75794E-19-9.99544E-19
 -1      3056 9.61420E-05-2.89868E-05-2.87801E-05 1.84695E-06 1.14058E-18-1.50104E-18
 -1      3057 9.56441E-05-2.86308E-05-2.87255E-05 1.92868E-06-6.32321E-20-1.69686E-19
 -1      3058 9.64108E-05-2.92346E-05-2.87826E-05 1.90191E-06 1.30160E-18-1.21462E-18
 -1      3059 9.67046E-05-2.95295E-05-2.87904E-05 1.85559E-06 4.81122E-19-1.26402E-18
 -1      3060 9.60683E-05-2.90537E-05-2.87287E-05 2.10492E-06 1.19621E-18-8.88939E-19
 -1      3061 9.71149E-05-2.99037E-05-2.87934E-05 1.83032E-06-3.26804E-19-7.61000E-19
 -1      3062 9.75059E-05-3.03129E-05-2.88010E-05 1.66737E-06-3.16557E-19-8.01465E-19
 -1      3063 9.67389E-05-2.97294E-05-2.87297E-05 2.17421E-06 4.71529E-19-8.72476E-19
 -1      3064 9.80889E-05-3.08243E-05-2.88115E-05 1.50504E-06-2.18932E-19-1.92356E-19
 -1      3065 9.85774E-05-3.13377E-05-2.88253E-05 1.17381E-06-4.78326E-19 3.69468E-19
 -1      3066 9.77241E-05-3.06997E-05-2.87394E-05 2.04057E-06-5.45075E-20-2.58283E-19
 -1      3067 9.93447E-05-3.19661E-05-2.88559E-05 8.03695E-07-5.45228E-19 3.25110E-19
 -1      3068 9.99022E-05-3.25318E-05-2.88868E-05 2.54533E-07 6.17970E-20 8.51562E-19
 -1      3069 9.90703E-05-3.19595E-05-2.87789E-05 1.57525E-06 3.36780E-20 8.94557E-19
 -1      3070 1.00821E-04-3.32013E-05-2.89571E-05-3.97171E-07 5.55745E-19 9.16700E-19
 -1      3071 1.01373E-04-3.37020E-05-2.90213E-05-1.19181E-06 7.65173E-19 1.11517E-18
 -1      3072 1.00762E-04-3.34089E-05-2.88827E-05 6.25961E-07 3.22752E-19 9.00753E-19
 -1      3073 1.02333E-04-3.42543E-05-2.91572E-05-2.17124E-06 5.28584E-19 1.04106E-18
 -1      3074 1.02748E-04-3.44944E-05-2.92740E-05-3.18019E-06 5.92164E-19 8.19050E-19
 -1      3075 1.02665E-04-3.47907E-05-2.91003E-05-9.48137E-07 5.50658E-19 1.03847E-18
 -1      3076 1.03535E-04-3.46805E-05-2.95022E-05-4.43989E-06 2.05601E-19 4.51621E-19
 -1      3077 1.03645E-04-3.44152E-05-2.96871E-05-5.52223E-06 1.09511E-19 8.17285E-19
 -1      3078 1.04453E-04-3.56387E-05-2.94906E-05-3.18193E-06 2.33213E-19 8.96139E-19
 -1      3079 1.03975E-04-3.39551E-05-3.00216E-05-6.84470E-06 1.58839E-19 5.78830E-19
 -1      3080 1.03634E-04-3.29809E-05-3.02779E-05-7.71685E-06 6.48571E-19 8.66133E-19
 -1      3081 1.05622E-04-3.53436E-05-3.01001E-05-5.84762E-06-6.59573E-21 1.16665E-18
 -1      3082 1.03262E-04-3.16984E-05-3.07092E-05-8.65019E-06 2.91005E-19 6.57092E-19
 -1      3083 1.02475E-04-3.00394E-05-3.10149E-05-8.90662E-06-1.36195E-21 5.28717E-19
 -1      3084 1.05604E-04-3.33305E-05-3.09371E-05-8.28848E-06 3.56904E-19 5.75212E-19
 -1      3085 1.01414E-04-2.80906E-05-3.14854E-05-8.88902E-06 6.33380E-20 1.05308E-18
 -1      3086 1.00396E-04-2.61320E-05-3.17814E-05-8.16329E-06 1.42416E-19 1.58816E-18
 -1      3087 1.04168E-04-2.95664E-05-3.19359E-05-9.46654E-06 4.06299E-19 5.29493E-19
 -1      3088 9.91126E-05-2.41593E-05-3.21743E-05-6.77898E-06-8.78534E-20 1.82035E-18
 -1      3089 9.83040E-05-2.26615E-05-3.23753E-05-5.01761E-06-1.13622E-18 2.44272E-18
 -1      3090 1.01756E-04-2.49700E-05-3.29014E-05-8.18567E-06 2.69940E-19 6.77087E-19
 -1      3091 9.75457E-05-2.15854E-05-3.25679E-05-2.46462E-06-1.43874E-18 3.25697E-18
 -1      3092 9.73813E-05-2.12762E-05-3.26068E-05-1.19873E-07-7.74589E-19 3.72116E-18
 -1      3093 9.96124E-05-2.13330E-05-3.35580E-05-4.16368E-06-3.51312E-19 1.92739E-18
 -1      3094 9.76782E-05-2.17024E-05-3.25320E-05 2.66809E-06-1.65937E-18 3.68159E-18
 -1      3095 9.82246E-05-2.27160E-05-3.23971E-05 4.77987E-06-1.50878E-18 3.14572E-18
 -1      3096 9.91521E-05-2.05989E-05-3.36905E-05 1.42958E-06-1.16508E-18 2.49969E-18
 -1      3097 9.93588E-05-2.43874E-05-3.20819E-05 6.77792E-06-1.10497E-18 2.68694E-18
 -1      3098 1.00338E-04-2.62473E-05-3.18151E-05 8.00337E-06-5.68536E-19 2.32274E-18
 -1      3099 1.00651E-04-2.30751E-05-3.32551E-05 6.41066E-06-1.80335E-18 1.53800E-18
 -1      3100 1.01604E-04-2.83338E-05-3.13610E-05 8.62406E-06-4.57072E-19 1.25420E-18
 -1      3101 1.02541E-04-3.02181E-05-3.10467E-05 8.77662E-06 1.04157E-19-6.95417E-19
 -1      3102 1.03139E-04-2.74934E-05-3.23930E-05 9.01318E-06-1.36020E-18 1.25592E-18
 -1      3103 1.03276E-04-3.18768E-05-3.05850E-05 8.20008E-06 8.52936E-19-1.41789E-18
 -1      3104 1.03840E-04-3.32068E-05-3.02973E-05 7.53827E-06 3.08287E-19-1.95293E-18
 -1      3105 1.05173E-04-3.18710E-05-3.13754E-05 8.82294E-06-2.80174E-19-1.04270E-18
 -1      3106 1.03830E-04-3.40571E-05-2.99124E-05 6.29729E-06 4.32841E-19-1.32182E-18
 -1      3107 1.03913E-04-3.46399E-05-2.96906E-05 5.24005E-06 7.28756E-19-1.71689E-18
 -1      3108 1.05891E-04-3.47829E-05-3.04455E-05 6.77984E-06 5.12160E-19-9.53289E-19
 -1      3109 1.03308E-04-3.47240E-05-2.94143E-05 3.87892E-06 1.02562E-18-1.67996E-18
 -1      3110 1.03004E-04-3.46825E-05-2.92664E-05 2.78271E-06 5.94007E-19-1.68675E-18
 -1      3111 1.05229E-04-3.58452E-05-2.97269E-05 4.04258E-06 7.91470E-19-5.02079E-19
 -1      3112 1.02096E-04-3.42597E-05-2.90942E-05 1.63082E-06 6.50754E-19-1.28330E-18
 -1      3113 1.01576E-04-3.38363E-05-2.90094E-05 7.04269E-07 7.24560E-19-5.27105E-19
 -1      3114 1.03665E-04-3.54427E-05-2.92451E-05 1.49956E-06 1.29399E-18-1.47099E-19
 -1      3115 1.00618E-04-3.31792E-05-2.89191E-05-1.20412E-07 1.50343E-19-7.85686E-19
 -1      3116 1.00033E-04-3.25961E-05-2.88795E-05-7.97081E-07 1.80728E-19-1.38163E-19
 -1      3117 1.01767E-04-3.42133E-05-2.89671E-05-4.37368E-07 7.55211E-19-5.21588E-19
 -1      3118 9.91800E-05-3.19018E-05-2.88447E-05-1.30264E-06-1.17409E-19-6.44459E-19
 -1      3119 9.86284E-05-3.13067E-05-2.88333E-05-1.72914E-06-3.50818E-19-1.99548E-18
 -1      3120 9.99417E-05-3.26950E-05-2.88378E-05-1.69767E-06-1.12569E-19-2.11503E-18
 -1      3121 9.79406E-05-3.06823E-05-2.88319E-05-1.97404E-06-1.02907E-18-2.28867E-18
 -1      3122 9.74651E-05-3.01511E-05-2.88361E-05-2.18448E-06-2.77031E-18-2.70796E-18
 -1      3123 9.84017E-05-3.12269E-05-2.88043E-05-2.37304E-06-1.12504E-18-4.10960E-18
 -1      3124 9.70077E-05-2.96978E-05-2.88517E-05-2.20094E-06-3.14351E-18-1.38630E-18
 -1      3125 9.66220E-05-2.92569E-05-2.88623E-05-2.24640E-06-2.38033E-18-1.06759E-18
 -1      3126 9.64724E-05-2.91191E-05-2.88670E-05-2.47665E-06-2.32028E-18-1.60491E-19
 -1      3127 9.72646E-05-3.00223E-05-2.88253E-05-2.56742E-06-2.36533E-18-2.44027E-18
 -1      3128 9.53211E-05-2.83367E-05-2.87092E-05-9.26214E-07 4.25450E-19-5.21247E-19
 -1      3129 9.53494E-05-2.81771E-05-2.87790E-05-7.53149E-07 6.54342E-19-4.48304E-19
 -1      3130 9.53729E-05-2.79598E-05-2.88957E-05-4.98480E-07 9.05483E-19-5.21463E-19
 -1      3131 9.54277E-05-2.76915E-05-2.90165E-05-1.51515E-07 1.03414E-18-4.07861E-19
 -1      3132 9.56941E-05-2.80085E-05-2.90131E-05-5.02043E-07 7.58752E-19-5.04366E-19
 -1      3133 9.52391E-05-2.87253E-05-2.85046E-05-1.16661E-06 3.76476E-19-9.22449E-20
 -1      3134 9.52217E-05-2.86994E-05-2.85083E-05-1.18324E-06 4.55807E-19-3.11016E-19
 -1      3135 9.55256E-05-2.87732E-05-2.86109E-05-1.15914E-06 3.78470E-19-7.43637E-19
 -1      3136 9.52353E-05-2.87285E-05-2.85011E-05-1.11514E-06 3.42903E-19 2.42144E-20
 -1      3137 9.52113E-05-2.87240E-05-2.84944E-05-1.14398E-06 5.61966E-19 4.11015E-20
 -1      3138 9.54702E-05-2.88120E-05-2.85698E-05-1.14811E-06 4.99255E-19-4.55312E-19
 -1      3139 9.52383E-05-2.86930E-05-2.85173E-05-1.05868E-06 5.20523E-19-5.56427E-19
 -1      3140 9.52097E-05-2.87065E-05-2.85021E-05-1.08585E-06 5.06941E-19-3.36404E-19
 -1      3141 9.54189E-05-2.87928E-05-2.85556E-05-1.10513E-06 6.55654E-19-4.00027E-19
 -1      3142 9.52447E-05-2.86290E-05-2.85472E-05-1.02774E-06 5.75895E-19-3.75834E-19
 -1      3143 9.52149E-05-2.86558E-05-2.85267E-05-1.03921E-06 5.76714E-19-5.39390E-19
 -1      3144 9.53718E-05-2.87293E-05-2.85621E-05-1.06307E-06 5.76096E-19-9.35928E-19
 -1      3145 9.52516E-05-2.85376E-05-2.85890E-05-1.03914E-06 4.42234E-19-1.25652E-19
 -1      3146 9.52209E-05-2.85779E-05-2.85632E-05-1.02661E-06 5.19390E-19-2.42996E-19
 -1      3147 9.53258E-05-2.86308E-05-2.85842E-05-1.04701E-06 2.63524E-19-4.89669E-19
 -1      3148 9.52539E-05-2.84157E-05-2.86417E-05-1.11028E-06-1.36365E-19 2.41672E-19
 -1      3149 9.52234E-05-2.84710E-05-2.86106E-05-1.06478E-06 2.92904E-19-7.45284E-20
 -1      3150 9.52744E-05-2.84974E-05-2.86189E-05-1.07486E-06 2.63047E-19-2.81817E-19
 -1      3151 9.52437E-05-2.82551E-05-2.87057E-05-1.25868E-06 2.29650E-20-1.56798E-19
 -1      3152 9.52156E-05-2.83295E-05-2.86686E-05-1.17074E-06-2.00032E-19-2.30033E-20
 -1      3153 9.52085E-05-2.83236E-05-2.86646E-05-1.16327E-06 4.30640E-20-5.37653E-19
 -1      3154 9.52083E-05-2.80413E-05-2.87816E-05-1.50365E-06 1.60003E-19-5.36068E-19
 -1      3155 9.51867E-05-2.81419E-05-2.87376E-05-1.36231E-06 1.43747E-19-1.81014E-19
 -1      3156 9.51143E-05-2.80978E-05-2.87202E-05-1.32825E-06 5.12724E-20-5.85759E-19
 -1      3157 9.51276E-05-2.77519E-05-2.88700E-05-1.86763E-06-8.30144E-20-2.91035E-19
 -1      3158 9.51192E-05-2.78899E-05-2.88182E-05-1.65973E-06 1.47208E-19-1.99479E-19
 -1      3159 9.49703E-05-2.78002E-05-2.87848E-05-1.58632E-06 7.30906E-20-4.46134E-19
 -1      3160 9.49537E-05-2.73301E-05-2.89756E-05-2.40782E-06-8.19186E-20 1.61980E-19
 -1      3161 9.49777E-05-2.75336E-05-2.89124E-05-2.09822E-06-5.38037E-20-8.62744E-20
 -1      3162 9.47362E-05-2.73910E-05-2.88583E-05-1.96677E-06-2.20255E-19 2.89010E-19
 -1      3163 9.46451E-05-2.67671E-05-2.90847E-05-3.10510E-06 1.28035E-19 1.67222E-19
 -1      3164 9.47206E-05-2.70396E-05-2.90171E-05-2.70494E-06 1.49004E-19-1.29961E-20
 -1      3165 9.43610E-05-2.68297E-05-2.89343E-05-2.48088E-06-1.04653E-19 7.64058E-19
 -1      3166 9.41128E-05-2.59850E-05-2.91920E-05-4.01643E-06 3.74470E-19-4.02953E-19
 -1      3167 9.42790E-05-2.63645E-05-2.91214E-05-3.48923E-06 1.33002E-19-1.53990E-19
 -1      3168 9.37789E-05-2.60792E-05-2.90015E-05-3.13219E-06 3.61363E-19 2.80188E-19
 -1      3169 9.32288E-05-2.49090E-05-2.92756E-05-5.17739E-06 5.62446E-19-1.76513E-19
 -1      3170 9.35429E-05-2.54303E-05-2.92125E-05-4.49900E-06 6.15050E-19-2.36040E-19
 -1      3171 9.28693E-05-2.50550E-05-2.90431E-05-3.94394E-06 3.96750E-19-1.88100E-19
 -1      3172 9.18171E-05-2.34654E-05-2.92920E-05-6.62022E-06 5.40368E-19 2.26705E-19
 -1      3173 9.23581E-05-2.41590E-05-2.92582E-05-5.76801E-06 5.47774E-19-2.76546E-19
 -1      3174 9.14710E-05-2.36750E-05-2.90239E-05-4.92115E-06 6.03227E-19-6.27032E-19
 -1      3175 8.96536E-05-2.16166E-05-2.91610E-05-8.37268E-06 6.21507E-19-5.33748E-19
 -1      3176 9.05170E-05-2.24867E-05-2.91980E-05-7.32775E-06 7.76536E-19 1.15587E-19
 -1      3177 8.93647E-05-2.18633E-05-2.88814E-05-6.05840E-06 5.64305E-19-2.49742E-19
 -1      3178 8.65047E-05-1.94435E-05-2.87436E-05-1.04723E-05 4.24526E-20-9.07641E-19
 -1      3179 8.77648E-05-2.04182E-05-2.89227E-05-9.21604E-06 4.58290E-19-3.80025E-19
 -1      3180 8.62681E-05-1.95867E-05-2.85066E-05-7.34883E-06 7.27508E-19-5.40783E-19
 -1      3181 8.19385E-05-1.72150E-05-2.77226E-05-1.31957E-05-4.08058E-19-1.51702E-18
 -1      3182 8.37002E-05-1.80532E-05-2.82116E-05-1.15716E-05-2.60426E-19-1.37993E-18
 -1      3183 8.17061E-05-1.68737E-05-2.76814E-05-8.88140E-06 2.24732E-19-6.23807E-19
 -1      3184 7.64720E-05-1.60978E-05-2.57872E-05-1.66913E-05-1.00434E-19-1.27002E-18
 -1      3185 7.82436E-05-1.60917E-05-2.67295E-05-1.46704E-05-7.31195E-20-1.25928E-18
 -1      3186 7.53239E-05-1.40910E-05-2.60681E-05-1.07895E-05-2.35267E-19-1.30197E-18
 -1      3187 7.10172E-05-1.81121E-05-2.23380E-05-2.18648E-05-3.15467E-19-2.50195E-18
 -1      3188 7.18095E-05-1.58834E-05-2.39716E-05-1.90813E-05 6.30563E-19-1.90604E-18
 -1      3189 6.70881E-05-1.24058E-05-2.31577E-05-1.38732E-05 5.20634E-19-1.54454E-18
 -1      3190 6.98614E-05-1.33101E-05-2.42713E-05 1.38862E-05-1.84664E-18 1.66855E-18
 -1      3191 6.72753E-05-1.38263E-05-2.27322E-05 1.59808E-05 7.13774E-20 2.08563E-18
 -1      3192 6.18020E-05-1.59997E-05-1.92717E-05 2.20161E-05 1.40365E-18 7.53648E-19
 -1      3193 8.34530E-05-1.81166E-05-2.80715E-05 9.23513E-06-6.13933E-21 2.08638E-18
 -1      3194 8.14129E-05-1.69728E-05-2.76324E-05 1.03108E-05 9.56552E-21 2.90206E-18
 -1      3195 7.77502E-05-1.54812E-05-2.67817E-05 1.10877E-05-3.30326E-19 2.96321E-18
 -1      3196 7.49747E-05-1.45800E-05-2.58581E-05 1.25663E-05-1.23424E-18 2.60843E-18
 -1      3197 6.81054E-05-1.17319E-05-2.39106E-05 8.58076E-06-1.68137E-18 4.18019E-18
 -1      3198 7.64945E-05-1.45765E-05-2.63931E-05 7.47502E-06-2.19558E-19 4.87833E-18
 -1      3199 9.02610E-05-2.25506E-05-2.90517E-05 6.41951E-06-3.08672E-19 1.61045E-18
 -1      3200 8.92766E-05-2.16990E-05-2.89707E-05 7.22386E-06 4.44871E-19 1.79541E-18
 -1      3201 9.20673E-05-2.39722E-05-2.92068E-05 5.33699E-06-1.46236E-18 1.56739E-18
 -1      3202 9.14423E-05-2.33549E-05-2.91817E-05 6.05625E-06-6.36579E-19 2.02165E-18
 -1      3203 8.96249E-05-2.21338E-05-2.88892E-05 5.35954E-06-7.37776E-19 5.01023E-18
 -1      3204 9.15340E-05-2.35611E-05-2.91179E-05 4.70864E-06-4.95042E-19 3.63060E-18
 -1      3205 9.42856E-05-2.69955E-05-2.88213E-05-3.78532E-06-1.36421E-19-7.30224E-19
 -1      3206 9.37011E-05-2.65015E-05-2.88137E-05-3.65651E-06 1.65903E-19-8.23169E-19
 -1      3207 9.30061E-05-2.57929E-05-2.87869E-05-3.41021E-06 4.61219E-19-1.82841E-18
 -1      3208 9.23789E-05-2.52686E-05-2.87816E-05-2.98527E-06 1.42179E-18-2.45755E-18
 -1      3209 9.32406E-05-2.63778E-05-2.86638E-05-4.06264E-06 1.06718E-18-1.94537E-18
 -1      3210 9.52800E-05-2.85544E-05-2.85968E-05-1.12301E-06 2.94763E-19-4.32453E-19
 -1      3211 9.52880E-05-2.84570E-05-2.86364E-05-1.04746E-06 4.15738E-19-4.00068E-19
 -1      3212 9.56460E-05-2.84230E-05-2.88143E-05-9.08559E-07 4.47425E-19-4.50778E-19
 -1      3213 9.53157E-05-2.79638E-05-2.88525E-05-3.60883E-06 1.06436E-18 1.06264E-18
 -1      3214 9.48591E-05-2.75592E-05-2.88490E-05-3.70977E-06-6.65873E-19 1.19597E-18
 -1      3215 9.46783E-05-2.76675E-05-2.87325E-05-4.18622E-06-8.45326E-20 8.92995E-20
 -1      3216 1.20803E-04-1.61990E-05-4.51804E-05 1.07818E-05-1.06133E-18 8.22945E-20
 -1      3217 1.18094E-04-1.05898E-05-4.65374E-05 6.79536E-06-1.39379E-18-3.52048E-19
 -1      3218 9.59796E-05-2.85945E-05-2.88706E-05-3.08241E-06 8.49451E-20 3.75002E-20
 -1      3219 9.56954E-05-2.83252E-05-2.88731E-05-3.33136E-06 9.68775E-19-5.99923E-19
 -1      3220 9.57527E-05-2.85965E-05-2.87933E-05-3.76648E-06 5.44055E-19 1.54528E-20
 -1      3221 1.30158E-04-3.46739E-05-4.15382E-05-1.09458E-05-1.14667E-19 1.45001E-18
 -1      3222 1.32802E-04-4.32419E-05-3.82150E-05-6.42610E-06 4.31246E-19 1.46484E-18
 -1      3223 8.74749E-05-2.05569E-05-2.87289E-05 7.74575E-06 1.02510E-18 6.95676E-19
 -1      3224 8.60127E-05-1.94944E-05-2.85248E-05 8.66451E-06 6.27597E-19 2.02380E-18
 -1      3225 8.67465E-05-2.01431E-05-2.84847E-05 6.01182E-06 2.99148E-19 2.49006E-18
 -1      3226 1.17035E-04-7.71616E-06-4.72465E-05 1.45636E-06-1.72689E-18-2.64810E-19
 -1      3227 1.17482E-04-9.16073E-06-4.68639E-05-4.88360E-06-2.16406E-18 9.40736E-20
 -1      3228 8.92486E-05-3.99280E-05-2.10791E-05 3.69890E-05 1.28206E-18-1.38119E-19
 -1      3229 7.25461E-05-3.03094E-05-1.76196E-05 3.77487E-05 1.18828E-18-1.18532E-18
 -1      3230 1.20001E-04-5.52023E-05-2.80804E-05 2.37115E-05 1.41145E-18 5.20684E-19
 -1      3231 1.07186E-04-4.91950E-05-2.46175E-05 3.09830E-05 1.47648E-18 2.78039E-19
 -1      3232 4.92418E-05-9.15508E-06-1.69391E-05-8.55221E-06 6.80101E-19-1.39210E-18
 -1      3233 5.71212E-05-1.44488E-05-1.78721E-05-2.09049E-05-2.75815E-19-2.97520E-18
 -1      3234 1.32483E-04-5.22925E-05-3.49387E-05 3.05157E-06 6.16716E-19 1.50920E-18
 -1      3235 1.28584E-04-5.50849E-05-3.12008E-05 1.28511E-05 9.54169E-19 1.09662E-18
 -1      3236 9.23818E-05-1.83407E-05-3.17470E-05 1.81098E-06 9.75125E-19-2.45038E-18
 -1      3237 9.22611E-05-1.81373E-05-3.17791E-05 1.05751E-06 6.92739E-19-2.54643E-18
 -1      3238 9.52130E-05-2.42765E-05-3.04028E-05 4.27452E-06 1.57969E-18-7.47823E-19
 -1      3239 9.46416E-05-2.27340E-05-3.08071E-05 4.77608E-06 1.58206E-18-1.10891E-18
 -1      3240 9.49201E-05-2.35906E-05-3.05702E-05 3.67507E-06 1.45159E-18-1.11857E-18
 -1      3241 9.52397E-05-2.52011E-05-3.00302E-05 3.00355E-06 1.44536E-18-5.54734E-19
 -1      3242 1.18270E-04-5.42767E-05-2.72207E-05-2.50553E-05-5.23175E-20-1.63210E-18
 -1      3243 1.28503E-04-5.61890E-05-3.13287E-05-1.42085E-05-1.64893E-19-1.79958E-18
 -1      3244 9.27941E-05-1.83866E-05-3.18902E-05-7.48726E-06-1.51312E-18-2.06628E-18
 -1      3245 6.28438E-05-2.43471E-05-1.63231E-05 3.55848E-05 1.29755E-18-9.11831E-19
 -1      3246 5.37438E-05-1.77689E-05-1.50413E-05 2.92739E-05 1.03931E-18-1.42937E-19
 -1      3247 7.33564E-05-2.75009E-05-1.92477E-05 3.30277E-05 9.39042E-19-9.84835E-19
 -1      3248 1.32717E-04-5.25174E-05-3.41908E-05-3.73359E-06-2.83399E-19-1.79031E-18
 -1      3249 1.32181E-04-4.67863E-05-3.69784E-05 3.49406E-06-1.13719E-18-1.57474E-18
 -1      3250 4.61877E-05-1.16812E-05-1.44107E-05 2.04094E-05 7.19025E-19-3.40825E-19
 -1      3251 4.31440E-05-7.94123E-06-1.47794E-05 7.80124E-06 8.27776E-19-4.08482E-19
 -1      3252 5.60894E-05-1.16712E-05-1.87319E-05 1.49956E-05 5.06010E-19 3.71472E-18
 -1      3253 9.34818E-05-1.98251E-05-3.15499E-05-6.20363E-06-1.31001E-18-1.99953E-18
 -1      3254 9.22013E-05-1.80372E-05-3.17976E-05 4.08021E-07 5.09300E-19-2.53984E-18
 -1      3255 9.21980E-05-1.80325E-05-3.17981E-05-3.60094E-07 3.56217E-19-2.44929E-18
 -1      3256 9.31544E-05-1.96195E-05-3.14972E-05 6.28119E-07 5.59079E-19-2.37974E-18
 -1      3257 1.16822E-04-1.27330E-05-4.50258E-05-7.79612E-06-1.56669E-18 7.49836E-19
 -1      3258 1.15588E-04-1.62800E-05-4.26568E-05-1.00964E-05-9.41477E-19 8.26724E-19
 -1      3259 1.11482E-04-1.13994E-05-4.31011E-05-4.87972E-06-1.47241E-18 5.58751E-19
 -1      3260 9.55857E-05-2.86550E-05-2.86880E-05-1.09790E-06 3.94425E-19-6.43452E-19
 -1      3261 9.56957E-05-2.73274E-05-2.93056E-05 2.17345E-07 1.13333E-18-6.70319E-19
 -1      3262 9.54152E-05-2.73425E-05-2.91810E-05 2.68140E-07 1.10291E-18-3.66658E-19
 -1      3263 9.54746E-05-2.69345E-05-2.93591E-05 8.29634E-07 1.16945E-18-3.96858E-19
 -1      3264 1.13813E-04-1.13794E-05-4.42193E-05 3.85404E-06-1.64732E-18 4.97102E-20
 -1      3265 1.27106E-04-5.26190E-05-3.19321E-05-7.69406E-06-5.00702E-19-1.09055E-18
 -1      3266 9.05010E-05-2.31047E-05-2.88878E-05 1.49033E-06 6.63758E-19-5.84336E-19
 -1      3267 9.07283E-05-2.32069E-05-2.89502E-05 2.47296E-06 1.46482E-18 1.78047E-18
 -1      3268 8.25248E-05-1.75582E-05-2.77475E-05 6.73021E-06 3.62417E-19 2.67230E-18
 -1      3269 9.16769E-05-2.49130E-05-2.86123E-05-3.19994E-06 1.24272E-18-2.24986E-18
 -1      3270 9.17054E-05-2.45405E-05-2.87692E-05-2.35297E-06 7.58431E-19-2.36583E-18
 -1      3271 9.11971E-05-2.41052E-05-2.87759E-05-1.62827E-06-3.74340E-20-2.59383E-18
 -1      3272 9.07447E-05-2.35411E-05-2.87945E-05-6.35244E-07-1.79716E-19-2.17876E-18
 -1      3273 9.05430E-05-2.33262E-05-2.88245E-05 3.03044E-07 9.07002E-19-1.46257E-18
 -1      3274 8.97826E-05-2.27829E-05-2.86959E-05 7.29201E-07 3.42426E-19-1.22052E-18
 -1      3275 9.03725E-05-2.35871E-05-2.86106E-05-1.54563E-06 9.59337E-19-2.13097E-18
 -1      3276 4.70624E-05-8.13596E-06-1.63949E-05 1.62521E-06-2.54904E-20 4.36180E-18
 -1      3277 4.16188E-05-8.28213E-06-1.36326E-05-6.31777E-06-1.17321E-18 2.79531E-18
 -1      3278 4.77790E-05-9.80515E-06-1.59886E-05-1.17306E-05-5.81141E-19 3.59777E-18
 -1      3279 1.29229E-04-4.65770E-05-3.55437E-05-2.73503E-06 5.38242E-19 1.27018E-18
 -1      3280 1.21522E-04-2.19187E-05-4.30655E-05 1.23206E-05-1.51280E-18 4.82782E-19
 -1      3281 1.15091E-04-1.85117E-05-4.16017E-05 1.08718E-05-2.03214E-18 5.49274E-19
 -1      3282 1.21223E-04-2.69067E-05-4.04388E-05 1.27891E-05-1.77072E-18 1.17278E-18
 -1      3283 1.24636E-04-2.89833E-05-4.12295E-05-1.23520E-05-3.00167E-19 1.88020E-18
 -1      3284 9.53865E-05-2.64989E-05-2.95330E-05 1.36951E-06 1.24685E-18-4.55038E-19
 -1      3285 9.54275E-05-2.58806E-05-2.97923E-05 2.23317E-06 1.37580E-18-4.98988E-19
 -1      3286 9.53440E-05-2.51604E-05-3.00744E-05 2.61002E-06 1.30868E-18-7.46140E-19
 -1      3287 9.55861E-05-2.63927E-05-2.96565E-05 1.23744E-06 1.15514E-18-5.97043E-19
 -1      3288 9.98114E-05-4.46531E-05-2.34613E-05 3.29856E-05 8.40733E-19 1.33997E-19
 -1      3289 9.04313E-05-3.74341E-05-2.26414E-05 3.17473E-05 5.48388E-19-4.23305E-19
 -1      3290 1.06598E-04-4.60724E-05-2.57775E-05 2.58416E-05 6.60421E-19 2.52518E-20
 -1      3291 1.26468E-04-4.44125E-05-3.52463E-05 4.94501E-06-1.36756E-18-3.45973E-19
 -1      3292 1.29980E-04-4.20480E-05-3.78174E-05 7.92369E-06-1.45039E-18-1.12219E-18
 -1      3293 1.24769E-04-3.59567E-05-3.84553E-05 1.09806E-05-6.84297E-19 7.60239E-19
 -1      3294 9.34364E-05-2.02097E-05-3.14074E-05 4.24525E-06 1.48816E-18-1.94645E-18
 -1      3295 9.30807E-05-1.95528E-05-3.15215E-05 3.65788E-06 1.34520E-18-2.14733E-18
 -1      3296 9.43511E-05-2.19771E-05-3.09924E-05 3.63853E-06 1.34332E-18-1.73146E-18
 -1      3297 1.22314E-04-5.28235E-05-2.96954E-05 1.52959E-05 5.40222E-19 6.29875E-19
 -1      3298 9.27910E-05-1.90531E-05-3.16227E-05 3.11719E-06 1.34702E-18-2.22503E-18
 -1      3299 9.25512E-05-1.86336E-05-3.16905E-05 2.42334E-06 1.11974E-18-2.33984E-18
 -1      3300 9.33675E-05-2.00041E-05-3.14203E-05 1.80799E-06 9.84573E-19-2.22294E-18
 -1      3301 9.38028E-05-2.08031E-05-3.12584E-05 2.86091E-06 1.31195E-18-2.02968E-18
 -1      3302 9.25332E-05-1.86020E-05-3.16953E-05-2.37459E-06-2.07775E-19-2.16389E-18
 -1      3303 9.27616E-05-1.90041E-05-3.16289E-05-3.08450E-06-4.19269E-19-2.09864E-18
 -1      3304 5.70487E-05-1.53999E-05-1.74044E-05 2.25381E-05 1.01660E-18-2.83862E-19
 -1      3305 4.94296E-05-8.28718E-06-1.71658E-05-1.21674E-06 8.02385E-19-7.75988E-19
 -1      3306 5.98359E-05-1.01566E-05-2.11073E-05-8.97736E-06 7.64704E-19-1.43636E-18
 -1      3307 6.42865E-05-1.07487E-05-2.30451E-05-7.61244E-06 5.06062E-19-1.40433E-18
 -1      3308 5.33917E-05-8.97370E-06-1.90517E-05 5.34060E-06 1.16885E-18-5.05890E-19
 -1      3309 5.57686E-05-1.53182E-05-1.70773E-05-2.33034E-05-1.43829E-18 2.06639E-18
 -1      3310 5.98530E-05-2.05054E-05-1.64148E-05-3.06512E-05-1.71842E-18 2.30107E-18
 -1      3311 7.00245E-05-2.42251E-05-1.95392E-05-2.97301E-05-7.81289E-19 1.21094E-18
 -1      3312 1.03371E-04-4.48589E-05-2.49068E-05-2.81761E-05-1.04358E-18-2.13783E-18
 -1      3313 1.11945E-04-5.12993E-05-2.58869E-05-2.77904E-05-8.42957E-19-2.46809E-18
 -1      3314 1.16075E-04-5.10722E-05-2.80410E-05-1.95279E-05-2.37791E-19-1.62007E-18
 -1      3315 9.30477E-05-1.94989E-05-3.15298E-05-3.61199E-06-6.47120E-19-1.96253E-18
 -1      3316 9.34014E-05-2.01534E-05-3.14184E-05-4.22562E-06-9.90263E-19-1.96346E-18
 -1      3317 9.37431E-05-2.07485E-05-3.12668E-05-2.80236E-06-6.13719E-19-1.78250E-18
 -1      3318 9.63583E-05-2.89948E-05-2.88624E-05-2.70087E-06-1.59372E-18-8.35817E-19
 -1      3319 9.61481E-05-2.87776E-05-2.88734E-05-2.89424E-06-8.34097E-19 4.97539E-20
 -1      3320 9.63584E-05-2.91222E-05-2.88240E-05-3.24767E-06 6.04621E-19-1.82589E-18
 -1      3321 9.67119E-05-2.94294E-05-2.88382E-05-2.79170E-06-1.62390E-18-1.84781E-18
 -1      3322 9.39985E-05-2.12779E-05-3.11698E-05-5.13390E-06-1.30398E-18-1.88705E-18
 -1      3323 9.39622E-05-2.12170E-05-3.11703E-05-4.44629E-06-1.11735E-18-1.94408E-18
 -1      3324 9.57686E-05-2.88654E-05-2.86722E-05-1.09535E-06 5.07714E-19-7.56223E-19
 -1      3325 9.57996E-05-2.88185E-05-2.87037E-05-1.07848E-06 2.82946E-19-7.27666E-19
 -1      3326 8.22634E-05-3.09364E-05-2.15808E-05-3.06045E-05-1.13600E-18-2.54322E-19
 -1      3327 9.08993E-05-3.72900E-05-2.30811E-05-3.07831E-05-6.11624E-19-1.36168E-18
 -1      3328 9.56883E-05-2.55186E-05-3.00653E-05-1.49968E-06-7.52207E-19-1.40136E-18
 -1      3329 9.58327E-05-2.62522E-05-2.98312E-05-8.73274E-07-7.07231E-19-1.41680E-18
 -1      3330 9.60378E-05-2.68990E-05-2.96216E-05-4.38360E-07-8.07226E-19-1.36666E-18
 -1      3331 9.60856E-05-2.73897E-05-2.94487E-05-2.16847E-08-7.77360E-19-1.32460E-18
 -1      3332 9.59886E-05-2.62748E-05-2.98742E-05-7.05920E-07-7.96828E-19-1.34935E-18
 -1      3333 9.61658E-05-2.78056E-05-2.92898E-05 2.61111E-07-6.05258E-19-1.24714E-18
 -1      3334 9.61602E-05-2.81192E-05-2.91649E-05 5.18735E-07-5.26460E-19-1.15474E-18
 -1      3335 9.62698E-05-2.74363E-05-2.95003E-05 2.77116E-08-7.02009E-19-1.30553E-18
 -1      3336 9.61660E-05-2.83755E-05-2.90475E-05 6.85916E-07-5.66956E-19-1.08475E-18
 -1      3337 9.61342E-05-2.85661E-05-2.89599E-05 8.28753E-07-4.99208E-19-9.36635E-19
 -1      3338 9.63558E-05-2.81835E-05-2.92182E-05 4.98131E-07-4.97989E-19-9.34121E-19
 -1      3339 9.60962E-05-2.87109E-05-2.88756E-05 9.13421E-07-4.66629E-19-8.68203E-19
 -1      3340 9.60531E-05-2.88159E-05-2.88165E-05 9.79034E-07-3.18667E-19-1.01896E-18
 -1      3341 9.63253E-05-2.86382E-05-2.90108E-05 7.68870E-07-4.28153E-19-8.45695E-19
 -1      3342 9.59908E-05-2.88834E-05-2.87581E-05 1.00969E-06-1.32626E-19-1.28363E-18
 -1      3343 9.59441E-05-2.89287E-05-2.87204E-05 1.02764E-06-7.08848E-20-9.45839E-19
 -1      3344 9.62275E-05-2.88858E-05-2.88628E-05 9.00794E-07-3.08058E-19-1.05590E-18
 -1      3345 9.58698E-05-2.89428E-05-2.86819E-05 1.02701E-06-1.27852E-19-1.04634E-18
 -1      3346 9.58234E-05-2.89468E-05-2.86602E-05 1.01967E-06-2.82440E-19-8.45073E-19
 -1      3347 9.60935E-05-2.89885E-05-2.87613E-05 9.44780E-07-3.59927E-22-1.24811E-18
 -1      3348 9.57441E-05-2.89245E-05-2.86368E-05 1.00516E-06-5.25904E-19-6.45876E-19
 -1      3349 9.57000E-05-2.89001E-05-2.86269E-05 9.89067E-07-4.82153E-19-4.76522E-19
 -1      3350 9.59423E-05-2.89903E-05-2.86954E-05 9.41012E-07-2.88894E-19-8.10728E-19
 -1      3351 9.56197E-05-2.88531E-05-2.86147E-05 9.73696E-07-7.89833E-19-4.87473E-19
 -1      3352 9.55787E-05-2.88097E-05-2.86134E-05 9.60879E-07-6.38503E-19-3.96094E-19
 -1      3353 9.57849E-05-2.89228E-05-2.86566E-05 9.20095E-07-5.08850E-19-8.92152E-19
 -1      3354 9.54995E-05-2.87466E-05-2.86093E-05 9.54364E-07-2.86574E-19-4.42324E-19
 -1      3355 9.54623E-05-2.86914E-05-2.86140E-05 9.53474E-07-1.49264E-19-2.93948E-19
 -1      3356 9.56272E-05-2.88087E-05-2.86376E-05 9.05046E-07-4.63400E-19-3.85209E-19
 -1      3357 9.53855E-05-2.86190E-05-2.86155E-05 9.63131E-07-2.57955E-19-1.85516E-19
 -1      3358 9.53533E-05-2.85583E-05-2.86242E-05 9.80240E-07-2.22474E-19-3.05221E-20
 -1      3359 9.54725E-05-2.86647E-05-2.86327E-05 9.13245E-07-1.27321E-20-4.24328E-19
 -1      3360 9.52804E-05-2.84829E-05-2.86291E-05 1.01165E-06-4.47484E-19 3.99784E-20
 -1      3361 9.52556E-05-2.84233E-05-2.86399E-05 1.05070E-06-5.04820E-19 1.56367E-19
 -1      3362 9.53235E-05-2.85052E-05-2.86371E-05 9.58024E-07-3.37215E-19-2.41386E-19
 -1      3363 9.51895E-05-2.83521E-05-2.86463E-05 1.10807E-06-7.48769E-19 2.08169E-19
 -1      3364 9.51766E-05-2.83021E-05-2.86578E-05 1.17099E-06-8.39421E-19-6.37020E-20
 -1      3365 9.51846E-05-2.83447E-05-2.86463E-05 1.04979E-06-6.13753E-19-1.65819E-19
 -1      3366 9.51235E-05-2.82451E-05-2.86637E-05 1.25721E-06-1.05653E-18-1.15135E-19
 -1      3367 9.51303E-05-2.82164E-05-2.86744E-05 1.34357E-06-1.14019E-18-1.95092E-19
 -1      3368 9.50646E-05-2.82017E-05-2.86565E-05 1.19655E-06-1.06113E-18 2.17317E-19
 -1      3369 9.51007E-05-2.81876E-05-2.86781E-05 1.45979E-06-8.73553E-19-1.09151E-19
 -1      3370 9.51394E-05-2.81964E-05-2.86865E-05 1.56602E-06-3.75349E-19 1.38451E-19
 -1      3371 9.49796E-05-2.81013E-05-2.86637E-05 1.40372E-06-7.82212E-19 6.41742E-19
 -1      3372 9.51509E-05-2.82157E-05-2.86865E-05 1.71061E-06-3.89353E-19 5.05928E-20
 -1      3373 9.52399E-05-2.82844E-05-2.86915E-05 1.82862E-06-2.43511E-19 6.04104E-20
 -1      3374 9.49572E-05-2.80796E-05-2.86646E-05 1.67292E-06-5.09875E-19 6.65829E-19
 -1      3375 9.53188E-05-2.83787E-05-2.86868E-05 1.99532E-06-1.17609E-19-3.30632E-19
 -1      3376 9.54834E-05-2.85356E-05-2.86880E-05 2.11038E-06 1.93669E-19-1.84960E-19
 -1      3377 9.50404E-05-2.81865E-05-2.86565E-05 1.99934E-06-2.08359E-19-2.05237E-19
 -1      3378 9.56673E-05-2.87388E-05-2.86790E-05 2.28512E-06 7.00036E-19-3.14370E-19
 -1      3379 9.59392E-05-2.90168E-05-2.86772E-05 2.37304E-06 1.23259E-18-7.30935E-19
 -1      3380 9.52926E-05-2.84876E-05-2.86386E-05 2.36691E-06 3.02431E-19 3.78021E-20
 -1      3381 9.62769E-05-2.93674E-05-2.86666E-05 2.52919E-06 1.17256E-18-5.93056E-19
 -1      3382 9.66919E-05-2.97992E-05-2.86656E-05 2.55279E-06 5.11060E-19-4.80885E-20
 -1      3383 9.57995E-05-2.90625E-05-2.86138E-05 2.74047E-06 9.90392E-19-1.46358E-19
 -1      3384 9.72410E-05-3.03330E-05-2.86601E-05 2.64432E-06 1.76377E-19-1.43806E-19
 -1      3385 9.78308E-05-3.09392E-05-2.86677E-05 2.54976E-06 2.52289E-19 1.83709E-19
 -1      3386 9.66681E-05-2.99959E-05-2.85915E-05 3.05390E-06 7.33918E-19 4.04054E-19
 -1      3387 9.86478E-05-3.16745E-05-2.86807E-05 2.50286E-06 1.32981E-19 6.29420E-19
 -1      3388 9.94240E-05-3.24422E-05-2.87112E-05 2.21849E-06 2.29508E-19 1.06215E-18
 -1      3389 9.80150E-05-3.13556E-05-2.85922E-05 3.19328E-06 2.57417E-19 3.71354E-19
 -1      3390 1.00540E-04-3.33512E-05-2.87655E-05 1.92793E-06 2.94308E-19 8.58132E-19
 -1      3391 1.01469E-04-3.42028E-05-2.88413E-05 1.37193E-06 6.79934E-19 8.61971E-19
 -1      3392 9.99339E-05-3.31444E-05-2.86532E-05 2.97985E-06 3.51197E-19 9.34942E-19
 -1      3393 1.02856E-04-3.51745E-05-2.89714E-05 7.07274E-07 4.11627E-19 8.66541E-19
 -1      3394 1.03824E-04-3.59263E-05-2.91229E-05-1.88006E-07 3.53306E-19 8.13538E-19
 -1      3395 1.02437E-04-3.52296E-05-2.88342E-05 2.17171E-06 4.64834E-19 8.16150E-19
 -1      3396 1.05328E-04-3.67101E-05-2.93752E-05-1.35560E-06 9.54017E-20 1.25988E-18
 -1      3397 1.06109E-04-3.70328E-05-2.96367E-05-2.58343E-06 2.63380E-19 1.11395E-18
 -1      3398 1.05370E-04-3.72485E-05-2.92223E-05 4.67643E-07 3.30353E-19 9.86571E-19
 -1      3399 1.07371E-04-3.72053E-05-3.00574E-05-4.22043E-06 4.15515E-19 9.74693E-19
 -1      3400 1.07676E-04-3.67117E-05-3.04468E-05-5.58088E-06 2.48759E-19 7.38322E-19
 -1      3401 1.08196E-04-3.84217E-05-2.99247E-05-2.31330E-06 4.58345E-20 1.25803E-18
 -1      3402 1.08254E-04-3.58098E-05-3.10581E-05-7.45852E-06-1.60091E-19 6.80081E-19
 -1      3403 1.07822E-04-3.41341E-05-3.15740E-05-8.51799E-06 2.50475E-19 3.24629E-19
 -1      3404 1.10168E-04-3.77008E-05-3.10389E-05-6.00072E-06 3.17304E-19 3.36213E-19
 -1      3405 1.07247E-04-3.19973E-05-3.23348E-05-9.70350E-06 1.83704E-19 1.71987E-19
 -1      3406 1.06216E-04-2.93019E-05-3.29143E-05-9.89469E-06 2.72007E-19 3.96481E-19
 -1      3407 1.10031E-04-3.39981E-05-3.25220E-05-9.42635E-06 9.10693E-20-1.96096E-19
 -1      3408 1.04592E-04-2.62197E-05-3.36968E-05-9.65749E-06-4.06526E-20-9.36319E-20
 -1      3409 1.03231E-04-2.33480E-05-3.41939E-05-8.37441E-06-1.43790E-19-2.02262E-19
 -1      3410 1.08142E-04-2.84261E-05-3.41197E-05-1.05543E-05-1.36144E-19-5.73821E-19
 -1      3411 1.01746E-04-2.08341E-05-3.47418E-05-6.00544E-06 7.63977E-19 8.34749E-21
 -1      3412 1.00940E-04-1.91893E-05-3.49937E-05-3.52514E-06 2.69552E-19 6.03521E-19
 -1      3413 1.04762E-04-2.17714E-05-3.55836E-05-7.86359E-06 4.94078E-19-4.92229E-19
 -1      3414 1.00437E-04-1.86141E-05-3.51146E-05 3.41614E-07-1.09175E-18 1.53402E-18
 -1      3415 1.00907E-04-1.92963E-05-3.50149E-05 3.10289E-06-1.64438E-18 1.07837E-18
 -1      3416 1.02481E-04-1.74622E-05-3.64198E-05-1.88656E-06 6.79545E-20-7.82407E-19
 -1      3417 1.01965E-04-2.10412E-05-3.46468E-05 6.23814E-06-2.01885E-18 8.26521E-19
 -1      3418 1.03173E-04-2.34964E-05-3.42481E-05 8.19768E-06-1.54966E-18 7.29326E-19
 -1      3419 1.03551E-04-1.92640E-05-3.61182E-05 5.13023E-06-1.92202E-18-2.73725E-19
 -1      3420 1.04976E-04-2.65893E-05-3.35357E-05 9.41671E-06-1.72844E-18 6.94865E-20
 -1      3421 1.06219E-04-2.95458E-05-3.29692E-05 9.84551E-06-1.71415E-18-4.14287E-19
 -1      3422 1.06683E-04-2.52140E-05-3.48682E-05 9.77329E-06-1.82829E-18-1.09336E-18
 -1      3423 1.07377E-04-3.22339E-05-3.21772E-05 9.24899E-06-7.86971E-19-1.16036E-18
 -1      3424 1.08158E-04-3.44713E-05-3.16186E-05 8.50448E-06-1.17773E-19-1.15562E-18
 -1      3425 1.09407E-04-3.15868E-05-3.32744E-05 1.02126E-05-1.69812E-18-3.64178E-19
 -1      3426 1.08110E-04-3.60054E-05-3.09234E-05 6.76967E-06 6.18485E-19-7.77945E-19
 -1      3427 1.08144E-04-3.70402E-05-3.04706E-05 5.43817E-06 8.81005E-19-1.66779E-19
 -1      3428 1.10619E-04-3.66138E-05-3.16748E-05 7.43099E-06 4.58852E-19-4.68608E-19
 -1      3429 1.07150E-04-3.73123E-05-2.99648E-05 3.60375E-06 6.78623E-19-5.26120E-20
 -1      3430 1.06556E-04-3.73207E-05-2.96470E-05 2.24546E-06 1.10730E-18-2.13191E-19
 -1      3431 1.09508E-04-3.86218E-05-3.03842E-05 3.62721E-06 9.53706E-19-7.43013E-19
 -1      3432 1.05130E-04-3.67624E-05-2.93286E-05 8.18346E-07 1.18899E-18-4.28336E-19
 -1      3433 1.04217E-04-3.61545E-05-2.91353E-05-2.67521E-07 1.11456E-18-4.02072E-19
 -1      3434 1.06991E-04-3.81791E-05-2.95131E-05 3.29772E-07 1.11348E-18-1.29765E-18
 -1      3435 1.02761E-04-3.52181E-05-2.89650E-05-1.18086E-06 6.53025E-19-6.60264E-19
 -1      3436 1.01793E-04-3.43608E-05-2.88670E-05-1.90917E-06 4.55620E-19-1.30490E-18
 -1      3437 1.04057E-04-3.64377E-05-2.90114E-05-1.91304E-06 7.78583E-19-2.16295E-18
 -1      3438 1.00551E-04-3.33759E-05-2.87976E-05-2.37693E-06-7.74395E-19-1.51393E-18
 -1      3439 9.96869E-05-3.25140E-05-2.87630E-05-2.78733E-06-9.11075E-19-2.68179E-18
 -1      3440 1.01339E-04-3.42765E-05-2.87731E-05-3.14650E-06-5.10590E-19-1.99788E-18
 -1      3441 9.87298E-05-3.16371E-05-2.87561E-05-2.95027E-06-1.01759E-18-3.43516E-18
 -1      3442 9.80224E-05-3.08818E-05-2.87605E-05-3.10598E-06-1.47789E-18-3.38992E-18
 -1      3443 9.91566E-05-3.22411E-05-2.87041E-05-3.63337E-06-1.30035E-18-1.83224E-18
 -1      3444 9.59535E-05-2.80880E-05-2.90898E-05-5.39408E-07 6.24637E-19-6.45262E-19
 -1      3445 9.59724E-05-2.77774E-05-2.92176E-05-2.45471E-07 8.08946E-19-6.90550E-19
 -1      3446 9.55854E-05-2.88474E-05-2.86003E-05-1.04868E-06 7.88511E-19-8.48524E-19
 -1      3447 9.56121E-05-2.88693E-05-2.86039E-05-1.06770E-06 6.10177E-19-6.55239E-19
 -1      3448 9.54942E-05-2.87573E-05-2.85996E-05-1.01838E-06 4.23493E-19-4.43606E-19
 -1      3449 9.55178E-05-2.88005E-05-2.85938E-05-1.03087E-06 7.64432E-19-4.42208E-19
 -1      3450 9.56945E-05-2.88768E-05-2.86374E-05-9.98195E-07 5.71107E-19-3.25970E-19
 -1      3451 9.53991E-05-2.86260E-05-2.86149E-05-1.01420E-06 9.62223E-20-2.84856E-19
 -1      3452 9.54237E-05-2.86890E-05-2.86021E-05-1.01043E-06 1.67380E-19-3.97863E-19
 -1      3453 9.55590E-05-2.87570E-05-2.86302E-05-9.78731E-07 3.63494E-19-3.62994E-20
 -1      3454 9.52925E-05-2.84535E-05-2.86431E-05-1.05294E-06 3.84338E-19-2.72435E-19
 -1      3455 9.53219E-05-2.85367E-05-2.86243E-05-1.02426E-06 2.95736E-19-3.48060E-19
 -1      3456 9.54137E-05-2.85893E-05-2.86392E-05-9.84841E-07 1.25731E-19-3.14821E-19
 -1      3457 9.51623E-05-2.82332E-05-2.86817E-05-1.14897E-06 2.51071E-19-9.91906E-19
 -1      3458 9.52021E-05-2.83405E-05-2.86578E-05-1.08765E-06 3.56610E-19-5.70048E-19
 -1      3459 9.52488E-05-2.83725E-05-2.86607E-05-1.03111E-06 3.79868E-19-1.61056E-19
 -1      3460 9.49900E-05-2.79512E-05-2.87288E-05-1.31500E-06-2.04039E-19-6.19599E-19
 -1      3461 9.50488E-05-2.80900E-05-2.87005E-05-1.21368E-06-3.73291E-20-5.97628E-19
 -1      3462 9.50485E-05-2.80981E-05-2.86914E-05-1.12889E-06 1.24448E-19-8.25557E-19
 -1      3463 9.47479E-05-2.75855E-05-2.87820E-05-1.56267E-06-1.43437E-19-4.98412E-19
 -1      3464 9.48387E-05-2.77673E-05-2.87500E-05-1.41406E-06 3.52505E-20-6.59782E-19
 -1      3465 9.47890E-05-2.77496E-05-2.87280E-05-1.28658E-06-2.65707E-19-5.38286E-19
 -1      3466 9.43707E-05-2.70753E-05-2.88398E-05-1.92149E-06-5.33244E-19-3.33454E-19
 -1      3467 9.45259E-05-2.73317E-05-2.88043E-05-1.70611E-06-3.15827E-19-7.01903E-19
 -1      3468 9.44245E-05-2.72891E-05-2.87673E-05-1.51609E-06-1.87750E-19-7.02776E-19
 -1      3469 9.38277E-05-2.64219E-05-2.88890E-05-2.36360E-06 2.28448E-20-5.21797E-19
 -1      3470 9.40635E-05-2.67520E-05-2.88569E-05-2.09694E-06-3.58992E-19-4.15223E-19
 -1      3471 9.39071E-05-2.66845E-05-2.88010E-05-1.81124E-06-3.98102E-19-1.48973E-18
 -1      3472 9.30138E-05-2.55457E-05-2.89186E-05-2.90307E-06 5.47486E-19-7.22065E-19
 -1      3473 9.33849E-05-2.59906E-05-2.88954E-05-2.57253E-06 6.18332E-19-4.55202E-19
 -1      3474 9.31784E-05-2.59072E-05-2.88172E-05-2.15472E-06 2.76787E-19-1.74082E-18
 -1      3475 9.17954E-05-2.43736E-05-2.89035E-05-3.52640E-06 2.01713E-19-5.94850E-19
 -1      3476 9.23716E-05-2.49707E-05-2.89023E-05-3.13436E-06 1.05323E-19-3.94978E-19
 -1      3477 9.21243E-05-2.48833E-05-2.87973E-05-2.52780E-06 1.27019E-19-1.43966E-18
 -1      3478 8.99886E-05-2.28261E-05-2.87999E-05-4.20120E-06 8.16831E-19-5.03953E-19
 -1      3479 9.08674E-05-2.36148E-05-2.88445E-05-3.75867E-06 6.69560E-19-4.20858E-19
 -1      3480 9.06011E-05-2.35428E-05-2.87090E-05-2.88360E-06 2.99082E-19-8.71074E-19
 -1      3481 8.73465E-05-2.08336E-05-2.85324E-05-4.87223E-06 5.19819E-19-8.40360E-19
 -1      3482 8.86583E-05-2.18454E-05-2.86643E-05-4.40011E-06 7.96955E-19-5.74377E-19
 -1      3483 8.84133E-05-2.18143E-05-2.84979E-05-3.14476E-06 7.01713E-19-2.37944E-19
 -1      3484 8.35531E-05-1.83748E-05-2.79760E-05-5.47131E-06 5.31416E-19-8.80580E-19
 -1      3485 8.54590E-05-1.96118E-05-2.82636E-05-4.99233E-06 3.75562E-19-9.56731E-19
 -1      3486 8.53000E-05-1.96419E-05-2.80738E-05-3.19957E-06 7.34853E-19-7.48711E-19
 -1      3487 7.78613E-05-1.53636E-05-2.68367E-05-5.97252E-06 1.05102E-19-3.83626E-19
 -1      3488 8.07511E-05-1.68463E-05-2.74488E-05-5.46328E-06 7.38753E-19-6.14469E-19
 -1      3489 8.07804E-05-1.69506E-05-2.72590E-05-2.90513E-06 3.85316E-19-7.89074E-19
 -1      3490 7.04716E-05-1.25219E-05-2.48536E-05-6.26734E-06 1.79293E-19-1.53921E-18
 -1      3491 7.41352E-05-1.38972E-05-2.59152E-05-5.85447E-06 1.72312E-19-6.86573E-19
 -1      3492 7.44966E-05-1.38866E-05-2.57873E-05-2.16402E-06 4.58109E-19-5.17413E-19
 -1      3493 9.44607E-05-2.23108E-05-3.09119E-05-3.43460E-06-9.82536E-19-1.80377E-18
 -1      3494 8.24474E-05-1.80330E-05-2.76483E-05 3.89452E-06 4.36071E-19 4.83094E-18
 -1      3495 7.98772E-05-1.66766E-05-2.71445E-05 3.97420E-06 6.76614E-19 5.13512E-18
 -1      3496 8.65911E-05-2.04513E-05-2.83713E-05 3.97009E-06 1.80237E-19 4.52452E-18
 -1      3497 8.47623E-05-1.93133E-05-2.80885E-05 4.17152E-06 4.06714E-19 3.91297E-18
 -1      3498 8.29498E-05-1.84272E-05-2.75751E-05 1.71738E-06 7.90082E-19 5.80032E-18
 -1      3499 9.37005E-05-2.70384E-05-2.85432E-05-4.84346E-06 1.54129E-18-1.49662E-18
 -1      3500 9.27854E-05-2.63276E-05-2.85019E-05-4.64105E-06 1.42416E-18-2.25190E-18
 -1      3501 9.08748E-05-2.32142E-05-2.89958E-05 3.22141E-06 1.05672E-18 4.08976E-18
 -1      3502 9.11117E-05-2.33865E-05-2.90408E-05 3.95545E-06-1.04002E-19 4.89096E-18
 -1      3503 9.02985E-05-2.27716E-05-2.89455E-05 4.27864E-06-4.67547E-19 5.91765E-18
 -1      3504 8.98876E-05-2.26172E-05-2.88158E-05 2.73369E-06 6.59088E-19 2.39751E-18
 -1      3505 9.56790E-05-2.88895E-05-2.86228E-05-1.08490E-06 4.43354E-19-7.15854E-19
 -1      3506 9.57067E-05-2.88812E-05-2.86384E-05-1.09449E-06 5.07136E-19-5.76111E-19
 -1      3507 9.59522E-05-2.89354E-05-2.87236E-05-1.03000E-06 4.47053E-19-6.27681E-19
 -1      3508 1.25240E-04-4.19429E-05-3.61701E-05-7.71221E-06 4.76721E-20 7.92386E-19
 -1      3509 1.25899E-04-4.77583E-05-3.33961E-05-3.62120E-07-1.42990E-19 4.94548E-19
 -1      3510 1.10863E-04-1.33527E-05-4.19937E-05 6.43444E-06-1.60862E-18-8.34036E-19
 -1      3511 1.09934E-04-1.13572E-05-4.25373E-05 5.89355E-07-1.77792E-18-1.33654E-18
 -1      3512 9.64226E-05-2.93256E-05-2.87483E-05-3.89751E-06 7.81706E-20-1.74315E-18
 -1      3513 9.59555E-05-2.89502E-05-2.87164E-05-4.22742E-06 7.13792E-20-8.62876E-20
 -1      3514 1.22836E-04-5.15923E-05-3.02516E-05-1.05253E-05 2.52369E-19-6.71697E-19
 -1      3515 1.24780E-04-4.93752E-05-3.25569E-05-2.28978E-06-7.25131E-19-3.81193E-19
 -1      3516 9.59228E-05-2.85107E-05-2.88930E-05-8.78702E-07 3.24311E-19-8.19248E-19
 -1      3517 9.59530E-05-2.83289E-05-2.89750E-05-7.27704E-07 5.26341E-19-6.47343E-19
 -1      3518 9.61840E-05-2.81410E-05-2.91638E-05-5.22565E-07 5.78735E-19-7.63952E-19
 -1      3519 9.58533E-05-2.87532E-05-2.87576E-05-1.04435E-06 1.88199E-19-6.52762E-19
 -1      3520 9.58863E-05-2.86516E-05-2.88105E-05-9.76864E-07 2.60286E-19-6.24029E-19
 -1      3521 9.60644E-05-2.88313E-05-2.88166E-05-9.81866E-07 2.20565E-19-7.54140E-19
 -1      3522 9.22519E-05-1.81243E-05-3.17808E-05-1.00928E-06 2.00244E-19-2.26165E-18
 -1      3523 9.23635E-05-1.83155E-05-3.17500E-05-1.76192E-06-2.96165E-20-2.16613E-18
 -1      3524 9.33484E-05-1.99830E-05-3.14245E-05-1.76346E-06-1.83146E-19-1.99425E-18
 -1      3525 1.18538E-04-2.40719E-05-4.09441E-05-1.24226E-05-6.16375E-19 1.11295E-18
 -1      3526 1.22222E-04-3.19153E-05-3.85171E-05-1.22899E-05-1.59322E-19 1.22087E-18
 -1      3527 9.50007E-05-2.35693E-05-3.06167E-05-2.82950E-06-8.97473E-19-1.68556E-18
 -1      3528 9.53317E-05-2.46326E-05-3.03113E-05-1.97999E-06-7.81452E-19-1.50793E-18
 -1      3529 9.54616E-05-2.46849E-05-3.03335E-05-1.65106E-06-7.37132E-19-1.30323E-18
 -1      3530 9.45548E-05-2.25127E-05-3.08687E-05-2.72819E-06-7.52399E-19-1.47996E-18
 -1      3531 1.22846E-04-5.10872E-05-3.09204E-05 8.53783E-06 1.11537E-20 5.90710E-19
 -1      3532 1.16674E-04-5.02294E-05-2.83780E-05 1.71316E-05 3.46559E-19-2.02995E-19
 -1      3533 6.48188E-05-1.84528E-05-1.97650E-05 2.46037E-05 9.92061E-19-1.68454E-19
 -1      3534 5.81047E-05-1.23472E-05-1.92736E-05 1.62086E-05 1.03212E-18-3.19755E-20
 -1      3535 9.53492E-05-2.84354E-05-2.86559E-05-4.61152E-06 5.68674E-19-3.73655E-19
 -1      3536 9.46143E-05-2.78692E-05-2.86140E-05-4.75529E-06 1.33402E-18-1.77233E-18
 -1      3537 9.42669E-05-2.79176E-05-2.84579E-05-5.41342E-06 1.75706E-18-1.67188E-18
 -1      3538 9.59354E-05-2.92424E-05-2.86018E-05-4.82834E-06 2.11113E-19-1.14087E-18
 -1      3539 9.52853E-05-2.45625E-05-3.03053E-05 2.87834E-06 1.30912E-18-1.08784E-18
 -1      3540 9.49966E-05-2.37294E-05-3.05495E-05 3.09242E-06 1.31768E-18-1.37015E-18
 -1      3541 9.54241E-05-2.52909E-05-3.00654E-05 2.06661E-06 1.15700E-18-1.01132E-18
 -1      3542 8.02024E-05-3.04871E-05-2.13054E-05 3.16475E-05 9.06365E-19-1.62432E-18
 -1      3543 7.21008E-05-2.46335E-05-2.01868E-05 2.94773E-05 1.01756E-18-1.00225E-18
 -1      3544 7.30481E-05-2.18181E-05-2.17165E-05 2.33641E-05 8.48092E-19-6.36400E-19
 -1      3545 8.98977E-05-3.48174E-05-2.33749E-05 2.83549E-05 6.32045E-19-2.22406E-19
 -1      3546 1.08850E-04-1.31997E-05-4.11342E-05-2.19280E-06-8.63974E-19-1.57891E-18
 -1      3547 9.90022E-05-4.05195E-05-2.49763E-05-2.58539E-05-5.43054E-19-2.08101E-18
 -1      3548 9.59070E-05-2.73774E-05-2.93769E-05 7.60110E-08 8.93341E-19-9.53302E-19
 -1      3549 9.58823E-05-2.69080E-05-2.95512E-05 5.36678E-07 9.74133E-19-1.05818E-18
 -1      3550 9.61180E-05-2.74169E-05-2.94451E-05 1.40665E-08 7.18862E-19-1.08314E-18
 -1      3551 9.39515E-05-2.11972E-05-3.11870E-05-1.21582E-06-1.74328E-19-1.86756E-18
 -1      3552 9.40828E-05-2.14813E-05-3.11285E-05-1.73255E-06-3.51207E-19-1.82762E-18
 -1      3553 1.20326E-04-4.43010E-05-3.25650E-05-2.76959E-06-3.91422E-19-1.45060E-19
 -1      3554 1.23218E-04-4.89856E-05-3.18412E-05 2.65919E-06-4.57953E-19 3.95174E-19
 -1      3555 1.18397E-04-4.74105E-05-3.04456E-05 5.61649E-06-5.12986E-19-6.64524E-20
 -1      3556 9.61510E-05-2.85860E-05-2.89590E-05-8.32099E-07 2.28745E-19-8.30798E-19
 -1      3557 9.75481E-05-3.03737E-05-2.87875E-05-2.96316E-06-1.16509E-18-3.76855E-18
 -1      3558 9.70702E-05-2.98358E-05-2.88075E-05-2.95186E-06-1.72106E-18-2.46273E-18
 -1      3559 9.69142E-05-2.97147E-05-2.87972E-05-3.20910E-06-7.48725E-19-2.78399E-18
 -1      3560 9.77474E-05-3.07195E-05-2.87343E-05-3.53598E-06-1.19812E-18-2.67858E-18
 -1      3561 9.58262E-05-2.89419E-05-2.86664E-05-1.02390E-06 5.33807E-19-8.36698E-19
 -1      3562 1.14057E-04-4.71063E-05-2.85778E-05 1.38230E-05-2.55777E-19-2.79804E-19
 -1      3563 1.11735E-04-4.81038E-05-2.72842E-05 2.06634E-05 2.25959E-19-1.25487E-19
 -1      3564 1.04553E-04-4.34625E-05-2.62078E-05 2.24989E-05-1.04741E-19 8.39423E-21
 -1      3565 6.45817E-05-1.01777E-05-2.30047E-05-2.10021E-06 5.46402E-19-1.27339E-18
 -1      3566 5.47466E-05-1.22316E-05-1.77971E-05-1.68717E-05-1.01615E-18 2.78144E-18
 -1      3567 6.28049E-05-1.58016E-05-2.01388E-05-1.91222E-05-1.25761E-18 2.30949E-18
 -1      3568 5.55242E-05-1.03102E-05-1.92618E-05-9.21348E-06-4.39954E-19 3.76956E-18
 -1      3569 9.20618E-05-2.60364E-05-2.83085E-05-5.19034E-06 2.42462E-18-1.82714E-18
 -1      3570 9.17355E-05-2.53049E-05-2.84422E-05-4.25931E-06 1.92401E-18-2.04622E-18
 -1      3571 9.08235E-05-2.45768E-05-2.84182E-05-3.63260E-06 2.35805E-18-2.50897E-18
 -1      3572 6.83004E-05-1.19891E-05-2.42266E-05 3.35167E-06-1.70392E-18 4.24463E-18
 -1      3573 6.34485E-05-1.06775E-05-2.25964E-05 3.48360E-06-1.27943E-18 5.47568E-18
 -1      3574 8.91893E-05-2.20828E-05-2.87791E-05 4.12714E-06-1.56741E-18 5.23428E-18
 -1      3575 8.79804E-05-2.12648E-05-2.86186E-05 4.35105E-06-9.25242E-19 4.50686E-18
 -1      3576 8.64984E-05-2.04680E-05-2.82673E-05 2.66135E-06-8.65232E-19 6.50869E-18
 -1      3577 8.89262E-05-2.19529E-05-2.86984E-05 3.30676E-06-1.07084E-18 5.31167E-18
 -1      3578 9.31486E-05-1.96112E-05-3.14984E-05-5.87639E-07 2.16271E-19-2.14706E-18
 -1      3579 1.20589E-04-3.60276E-05-3.62633E-05-1.00307E-05-4.28638E-19 9.67523E-19
 -1      3580 1.20380E-04-3.17538E-05-3.80156E-05 1.17011E-05-4.11843E-19-3.14170E-19
 -1      3581 9.47471E-05-2.30832E-05-3.07204E-05 2.86007E-06 1.19751E-18-1.71305E-18
 -1      3582 1.16958E-04-4.91978E-05-2.89739E-05-1.36876E-05 2.21287E-19-1.33410E-18
 -1      3583 1.20699E-04-4.69684E-05-3.16598E-05-1.28996E-06-4.49961E-19-1.31891E-18
 -1      3584 1.24745E-04-4.68345E-05-3.33572E-05 2.13109E-06-7.50269E-19-1.20803E-18
 -1      3585 1.21898E-04-4.23422E-05-3.41296E-05 6.21728E-06-1.01224E-18-8.36948E-19
 -1      3586 9.67170E-05-2.95328E-05-2.87887E-05-3.42714E-06 2.22772E-19-2.91161E-18
 -1      3587 8.87633E-05-2.19504E-05-2.86412E-05 2.50842E-06 2.37027E-19 2.45861E-18
 -1      3588 7.65889E-05-1.51694E-05-2.63849E-05 3.41336E-06-4.10900E-19 5.00014E-18
 -1      3589 7.29831E-05-1.36513E-05-2.54701E-05 3.36839E-06-1.13529E-18 4.84034E-18
 -1      3590 7.75594E-05-1.57586E-05-2.63644E-05 3.46186E-07 1.06690E-20 4.63560E-18
 -1      3591 1.13854E-04-2.09981E-05-3.99643E-05-1.07852E-05-2.92650E-19 1.39152E-19
 -1      3592 6.07036E-05-1.15124E-05-2.09847E-05 8.46379E-06 1.00969E-18-2.00429E-19
 -1      3593 9.41096E-05-2.15244E-05-3.11250E-05 1.77521E-06 1.02504E-18-2.09105E-18
 -1      3594 9.39646E-05-2.12213E-05-3.11835E-05 1.24578E-06 7.91014E-19-2.20288E-18
 -1      3595 9.46248E-05-2.23841E-05-3.09415E-05 8.26880E-07 6.28279E-19-1.98164E-18
 -1      3596 9.38753E-05-2.10456E-05-3.12249E-05 8.07091E-07 6.83776E-19-2.12538E-18
 -1      3597 9.38268E-05-2.09452E-05-3.12444E-05 2.46299E-07 4.38737E-19-2.27104E-18
 -1      3598 9.41985E-05-2.17235E-05-3.10651E-05-2.04657E-06-4.26581E-19-1.77771E-18
 -1      3599 9.44133E-05-2.21964E-05-3.09630E-05-2.46006E-06-7.08940E-19-1.55526E-18
 -1      3600 9.49968E-05-2.33812E-05-3.06789E-05-1.96399E-06-6.46470E-19-1.45911E-18
 -1      3601 9.47817E-05-2.27855E-05-3.08381E-05-1.46530E-06-4.89455E-19-1.64545E-18
 -1      3602 7.65710E-05-2.62062E-05-2.14823E-05-2.71368E-05-4.40113E-19 5.12746E-19
 -1      3603 5.82190E-05-9.59114E-06-2.05243E-05-2.89900E-06-6.41091E-19 5.02833E-18
 -1      3604 5.59312E-05-9.17149E-06-1.99669E-05 3.27904E-06-7.14380E-19 5.86570E-18
 -1      3605 8.85956E-05-2.20843E-05-2.85163E-05 8.85684E-07 8.37928E-19-1.70602E-19
 -1      3606 8.75748E-05-2.13446E-05-2.83722E-05 1.41429E-06-2.56000E-19 2.28182E-18
 -1      3607 8.87402E-05-2.23450E-05-2.84462E-05-3.86910E-07 9.85530E-19-1.00710E-18
 -1      3608 9.69966E-05-3.00019E-05-2.87195E-05-3.88218E-06-8.48479E-19-2.28948E-18
 -1      3609 9.59531E-05-2.89884E-05-2.86980E-05-9.29414E-07 3.68591E-19-4.76269E-19
 -1      3610 9.60201E-05-2.90025E-05-2.87210E-05-9.34108E-07 4.34552E-19-4.17419E-19
 -1      3611 7.13203E-05-2.06425E-05-2.13405E-05-2.33023E-05-5.63489E-19 7.13625E-19
 -1      3612 8.11911E-05-2.72152E-05-2.31501E-05-2.43239E-05 1.13071E-19-1.16675E-18
 -1      3613 9.63416E-05-2.70777E-05-2.96793E-05-1.70877E-07-6.36099E-19-1.11019E-18
 -1      3614 9.64253E-05-2.75717E-05-2.95148E-05 1.29934E-07-4.73719E-19-1.12402E-18
 -1      3615 9.65112E-05-2.79844E-05-2.93641E-05 3.13804E-07-4.23986E-19-1.12169E-18
 -1      3616 9.65192E-05-2.82989E-05-2.92408E-05 5.00822E-07-5.29222E-19-1.12786E-18
 -1      3617 9.65666E-05-2.76607E-05-2.95301E-05 1.49118E-07-5.09921E-19-9.55006E-19
 -1      3618 9.65215E-05-2.85506E-05-2.91268E-05 6.06951E-07-3.81981E-19-1.06092E-18
 -1      3619 9.64849E-05-2.87359E-05-2.90370E-05 7.10696E-07-2.69213E-19-8.97044E-19
 -1      3620 9.66524E-05-2.83766E-05-2.92614E-05 4.51524E-07-4.31287E-19-1.10515E-18
 -1      3621 9.64349E-05-2.88720E-05-2.89530E-05 7.61817E-07-2.73175E-19-9.03590E-19
 -1      3622 9.63735E-05-2.89652E-05-2.88896E-05 8.09474E-07-2.42739E-19-9.78637E-19
 -1      3623 9.66044E-05-2.88015E-05-2.90595E-05 6.22517E-07-2.23910E-19-9.84456E-19
 -1      3624 9.62923E-05-2.90193E-05-2.88297E-05 8.25479E-07-9.62819E-20-9.20181E-19
 -1      3625 9.62184E-05-2.90475E-05-2.87870E-05 8.39334E-07 1.10280E-20-1.02439E-18
 -1      3626 9.64741E-05-2.90161E-05-2.89121E-05 7.03126E-07-1.85670E-19-8.03591E-19
 -1      3627 9.61202E-05-2.90444E-05-2.87460E-05 8.36548E-07-1.03321E-19-9.21934E-19
 -1      3628 9.60410E-05-2.90273E-05-2.87190E-05 8.33863E-07-1.46320E-19-8.60737E-19
 -1      3629 9.62962E-05-2.90807E-05-2.88082E-05 7.28671E-07-1.66108E-19-6.86866E-19
 -1      3630 9.59342E-05-2.89845E-05-2.86926E-05 8.24970E-07-1.28535E-19-9.26781E-19
 -1      3631 9.58538E-05-2.89362E-05-2.86775E-05 8.18859E-07-4.33357E-19-7.02849E-19
 -1      3632 9.60929E-05-2.90402E-05-2.87383E-05 7.27503E-07-1.31026E-19-7.98640E-19
 -1      3633 9.57430E-05-2.88663E-05-2.86620E-05 8.13744E-07-6.81222E-19-5.63434E-19
 -1      3634 9.56636E-05-2.87968E-05-2.86554E-05 8.14150E-07-3.24733E-19-4.34778E-19
 -1      3635 9.58772E-05-2.89265E-05-2.86943E-05 7.21879E-07-3.92661E-19-4.58377E-19
 -1      3636 9.55511E-05-2.87088E-05-2.86477E-05 8.20731E-07-4.12020E-20-1.05791E-19
 -1      3637 9.54739E-05-2.86262E-05-2.86471E-05 8.35297E-07 3.21591E-20-7.48814E-20
 -1      3638 9.56556E-05-2.87626E-05-2.86693E-05 7.29523E-07-6.21154E-20-1.07207E-19
 -1      3639 9.53608E-05-2.85274E-05-2.86444E-05 8.60295E-07-1.14362E-19-2.87180E-19
 -1      3640 9.52875E-05-2.84387E-05-2.86473E-05 8.95074E-07-3.07981E-19-7.98824E-20
 -1      3641 9.54316E-05-2.85658E-05-2.86573E-05 7.65173E-07-3.74602E-20-5.15660E-20
 -1      3642 9.51752E-05-2.83363E-05-2.86471E-05 9.44670E-07-5.15806E-19 2.09817E-19
 -1      3643 9.51088E-05-2.82495E-05-2.86514E-05 1.00458E-06-5.72472E-19 3.07694E-19
 -1      3644 9.52073E-05-2.83510E-05-2.86530E-05 8.42056E-07-1.84011E-19 3.69808E-19
 -1      3645 9.50007E-05-2.81521E-05-2.86515E-05 1.08489E-06-7.20365E-19 3.20493E-19
 -1      3646 9.49472E-05-2.80779E-05-2.86552E-05 1.17390E-06-9.23714E-19 7.14695E-19
 -1      3647 9.49871E-05-2.81345E-05-2.86514E-05 9.73098E-07-6.88557E-19 6.32754E-19
 -1      3648 9.48500E-05-2.79977E-05-2.86531E-05 1.29118E-06-1.11296E-18 8.79228E-19
 -1      3649 9.48202E-05-2.79512E-05-2.86543E-05 1.41211E-06-8.73730E-19 9.20191E-19
 -1      3650 9.47807E-05-2.79374E-05-2.86477E-05 1.17179E-06-8.05260E-19 7.68673E-19
 -1      3651 9.47469E-05-2.79061E-05-2.86479E-05 1.57258E-06-6.38012E-19 9.91446E-19
 -1      3652 9.47584E-05-2.79090E-05-2.86450E-05 1.72633E-06-5.27847E-19 7.45880E-19
 -1      3653 9.46071E-05-2.77903E-05-2.86371E-05 1.45244E-06-7.74423E-19 7.11647E-19
 -1      3654 9.47311E-05-2.79247E-05-2.86323E-05 1.93518E-06-5.35035E-19 6.93251E-19
 -1      3655 9.48106E-05-2.80070E-05-2.86241E-05 2.11917E-06 2.16855E-20 4.90641E-19
 -1      3656 9.45005E-05-2.77379E-05-2.86154E-05 1.82939E-06-6.41719E-19 5.51824E-19
 -1      3657 9.48639E-05-2.81190E-05-2.86042E-05 2.37832E-06 4.34201E-19 7.57855E-19
 -1      3658 9.50491E-05-2.83200E-05-2.85908E-05 2.58356E-06 4.96240E-19 6.34554E-19
 -1      3659 9.45161E-05-2.78441E-05-2.85793E-05 2.31429E-06 2.79427E-19 1.10220E-18
 -1      3660 9.52337E-05-2.85740E-05-2.85645E-05 2.88733E-06 9.00005E-19 6.79252E-19
 -1      3661 9.55741E-05-2.89407E-05-2.85486E-05 3.09370E-06 1.03154E-18 4.76375E-19
 -1      3662 9.47377E-05-2.81951E-05-2.85281E-05 2.90989E-06 7.94670E-19 1.20236E-18
 -1      3663 9.59591E-05-2.93907E-05-2.85202E-05 3.42156E-06 8.34697E-19 3.56472E-19
 -1      3664 9.65134E-05-2.99728E-05-2.85086E-05 3.59080E-06 7.97744E-19 7.74257E-19
 -1      3665 9.52836E-05-2.88996E-05-2.84663E-05 3.59878E-06 8.64088E-19 7.34015E-19
 -1      3666 9.71870E-05-3.06742E-05-2.84882E-05 3.89425E-06 5.94683E-19 8.35128E-19
 -1      3667 9.80128E-05-3.15093E-05-2.84947E-05 3.95976E-06 4.83412E-19 1.26377E-18
 -1      3668 9.63110E-05-3.00834E-05-2.84077E-05 4.32418E-06 8.59810E-19 6.39169E-19
 -1      3669 9.90731E-05-3.24990E-05-2.85030E-05 4.14135E-06 4.71424E-19 1.41976E-18
 -1      3670 1.00201E-04-3.35788E-05-2.85518E-05 3.99889E-06 8.78256E-19 1.92680E-18
 -1      3671 9.80095E-05-3.18645E-05-2.83825E-05 4.95360E-06 8.07917E-19 1.86706E-18
 -1      3672 1.01720E-04-3.48286E-05-2.86256E-05 3.89692E-06 4.80384E-19 1.76197E-18
 -1      3673 1.03134E-04-3.60551E-05-2.87546E-05 3.40585E-06 9.36869E-20 2.16569E-18
 -1      3674 1.00561E-04-3.42855E-05-2.84491E-05 5.23489E-06 5.84509E-19 2.09559E-18
 -1      3675 1.05082E-04-3.74218E-05-2.89483E-05 2.84254E-06 1.10588E-19 1.67677E-18
 -1      3676 1.06643E-04-3.85500E-05-2.92107E-05 1.86397E-06 2.25178E-19 1.46727E-18
 -1      3677 1.03972E-04-3.71463E-05-2.87031E-05 4.75363E-06-7.93018E-20 2.52279E-18
 -1      3678 1.08976E-04-3.96834E-05-2.96079E-05 4.33162E-07-5.59973E-19 1.67829E-18
 -1      3679 1.10238E-04-4.01476E-05-3.00623E-05-1.15088E-06-2.06650E-19 1.57348E-18
 -1      3680 1.08433E-04-4.02397E-05-2.93031E-05 3.10182E-06-5.69845E-20 1.46697E-18
 -1      3681 1.13657E-04-4.16925E-05-3.08260E-05-2.11172E-06 6.88992E-20 7.20631E-19
 -1      3682 1.14453E-04-4.09098E-05-3.15529E-05-4.09434E-06 4.04996E-20 5.59500E-19
 -1      3683 1.16573E-04-4.00619E-05-3.28562E-05-6.94669E-06-3.21687E-19 1.73146E-19
 -1      3684 1.16045E-04-3.70297E-05-3.38513E-05-8.77116E-06-5.14268E-19-6.06224E-20
 -1      3685 1.12596E-04-2.99863E-05-3.56177E-05-1.14512E-05-3.60872E-19 2.32947E-19
 -1      3686 1.10804E-04-2.55202E-05-3.65491E-05-1.14405E-05 1.55669E-19 5.20366E-19
 -1      3687 1.08209E-04-1.98350E-05-3.80137E-05-9.24011E-06 3.91726E-19-5.08428E-19
 -1      3688 1.06652E-04-1.66045E-05-3.86977E-05-6.44286E-06 9.31723E-19-1.06599E-18
 -1      3689 1.05851E-04-1.49719E-05-3.90487E-05-2.41198E-06-6.58303E-20-7.98051E-19
 -1      3690 1.04503E-04-1.53104E-05-3.83737E-05 2.94206E-06-1.33623E-18-1.60280E-18
 -1      3691 1.05510E-04-1.72347E-05-3.79577E-05 6.16088E-06-2.10710E-18-1.68849E-18
 -1      3692 1.09540E-04-2.18061E-05-3.76677E-05 1.03200E-05-1.94128E-18-7.76067E-19
 -1      3693 1.11467E-04-2.62519E-05-3.67368E-05 1.13130E-05-1.86538E-18-9.80791E-19
 -1      3694 1.15411E-04-3.33331E-05-3.51929E-05 1.04487E-05-1.27072E-18-7.93700E-19
 -1      3695 1.16713E-04-3.73325E-05-3.41235E-05 9.17850E-06-8.05853E-19-6.35955E-19
 -1      3696 1.15272E-04-3.95377E-05-3.25050E-05 6.32442E-06-5.80092E-19-9.37123E-19
 -1      3697 1.15187E-04-4.12761E-05-3.16781E-05 4.39097E-06 5.18622E-19-6.58204E-19
 -1      3698 1.08665E-04-3.97336E-05-2.95670E-05-9.24581E-07 8.60410E-19-1.36967E-18
 -1      3699 1.07204E-04-3.88582E-05-2.92281E-05-2.22475E-06 1.06937E-18-1.79299E-18
 -1      3700 1.05062E-04-3.75225E-05-2.89632E-05-3.20824E-06 1.11268E-18-2.60871E-18
 -1      3701 1.03569E-04-3.62823E-05-2.87916E-05-3.92788E-06 8.85082E-19-2.45103E-18
 -1      3702 1.06385E-04-3.89748E-05-2.89709E-05-4.46930E-06 4.76862E-19-1.91198E-18
 -1      3703 1.01861E-04-3.49298E-05-2.86880E-05-4.24108E-06 5.61328E-19-2.42123E-18
 -1      3704 1.00599E-04-3.37286E-05-2.86240E-05-4.54012E-06 8.82829E-20-1.66001E-18
 -1      3705 1.02478E-04-3.58622E-05-2.86090E-05-5.50609E-06 8.50658E-19-2.08637E-18
 -1      3706 9.93483E-05-3.25758E-05-2.86146E-05-4.47991E-06-9.34832E-19-1.77402E-18
 -1      3707 9.83575E-05-3.15568E-05-2.86165E-05-4.51024E-06-9.52206E-19-1.19428E-18
 -1      3708 9.95569E-05-3.31173E-05-2.85129E-05-5.56285E-06-5.33354E-20-3.07904E-18
 -1      3709 9.74807E-05-3.05170E-05-2.86855E-05-4.05442E-06-8.72357E-19-1.35717E-18
 -1      3710 9.57879E-05-2.88988E-05-2.86653E-05-9.08736E-07 3.71253E-19-2.35814E-19
 -1      3711 9.58554E-05-2.89463E-05-2.86753E-05-9.17428E-07 3.76005E-19-3.63351E-19
 -1      3712 9.60298E-05-2.90091E-05-2.87245E-05-8.35327E-07 3.92315E-19-3.27753E-19
 -1      3713 9.52038E-05-2.82949E-05-2.86739E-05-9.57309E-07 3.58832E-19-2.85464E-19
 -1      3714 9.52948E-05-2.84220E-05-2.86619E-05-9.22934E-07 8.66125E-20-3.45409E-19
 -1      3715 9.49409E-05-2.79775E-05-2.86977E-05-1.04833E-06-1.40252E-19-2.38193E-19
 -1      3716 9.50552E-05-2.81371E-05-2.86820E-05-9.88555E-07 2.80876E-19-1.03566E-19
 -1      3717 9.51067E-05-2.81810E-05-2.86810E-05-8.73907E-07 2.05599E-19-4.09376E-20
 -1      3718 9.46053E-05-2.75797E-05-2.87252E-05-1.18533E-06-1.90065E-19-3.74880E-19
 -1      3719 9.47571E-05-2.77813E-05-2.87077E-05-1.09765E-06 2.75913E-20-4.50160E-19
 -1      3720 9.47798E-05-2.78146E-05-2.86965E-05-9.47650E-07-2.46895E-21-1.14956E-19
 -1      3721 9.41303E-05-2.70472E-05-2.87513E-05-1.37524E-06-1.82085E-20-9.80719E-19
 -1      3722 9.43552E-05-2.73198E-05-2.87343E-05-1.25365E-06-3.20423E-19-7.54304E-19
 -1      3723 9.43540E-05-2.73474E-05-2.87125E-05-1.05080E-06 4.89209E-20-9.89034E-19
 -1      3724 9.35012E-05-2.63926E-05-2.87647E-05-1.58767E-06-1.69769E-19-1.57714E-18
 -1      3725 9.38085E-05-2.67298E-05-2.87542E-05-1.44876E-06 6.57633E-20-1.31868E-18
 -1      3726 9.37921E-05-2.67598E-05-2.87205E-05-1.16715E-06 2.33863E-19-1.00574E-18
 -1      3727 9.26214E-05-2.55495E-05-2.87528E-05-1.80457E-06 3.32190E-19-1.59377E-18
 -1      3728 9.30651E-05-2.59868E-05-2.87555E-05-1.65450E-06-2.13680E-20-1.85888E-18
 -1      3729 9.30514E-05-2.60366E-05-2.87094E-05-1.26743E-06 1.04592E-19-1.47110E-18
 -1      3730 9.13812E-05-2.44634E-05-2.86925E-05-1.97816E-06-1.75522E-19-1.13197E-18
 -1      3731 9.20237E-05-2.50302E-05-2.87210E-05-1.83933E-06 7.96132E-20-1.37008E-18
 -1      3732 9.20416E-05-2.51247E-05-2.86623E-05-1.30719E-06-1.22788E-19-1.07680E-18
 -1      3733 8.96342E-05-2.30769E-05-2.85467E-05-2.02968E-06 1.60423E-20-5.56223E-19
 -1      3734 9.05610E-05-2.38042E-05-2.86217E-05-1.94007E-06-2.88908E-19-1.17516E-18
 -1      3735 9.06591E-05-2.39822E-05-2.85524E-05-1.21023E-06-4.45616E-19-7.53255E-19
 -1      3736 8.71859E-05-2.13390E-05-2.82551E-05-1.83801E-06 6.23114E-19-3.79668E-19
 -1      3737 8.85131E-05-2.22547E-05-2.84110E-05-1.85638E-06 4.03099E-19-5.39520E-19
 -1      3738 8.87707E-05-2.25720E-05-2.83379E-05-8.58752E-07-1.15107E-19-6.99061E-19
 -1      3739 8.37808E-05-1.92271E-05-2.77211E-05-1.23552E-06 5.90524E-19-8.38070E-20
 -1      3740 8.56634E-05-2.03445E-05-2.80131E-05-1.44096E-06 1.00746E-18 7.57168E-20
 -1      3741 8.62058E-05-2.08736E-05-2.79529E-05-8.01371E-08 4.94609E-19-7.22890E-20
 -1      3742 7.88007E-05-1.66445E-05-2.67212E-05 7.84501E-08 3.50311E-19-5.26370E-19
 -1      3743 8.16105E-05-1.80072E-05-2.72820E-05-4.49297E-07 3.57072E-19-2.38446E-19
 -1      3744 8.26491E-05-1.88585E-05-2.72700E-05 1.41119E-06 6.73498E-19 3.38846E-19
 -1      3745 7.18607E-05-1.37045E-05-2.50559E-05 2.07945E-06 1.68599E-19-9.50265E-20
 -1      3746 7.59382E-05-1.53376E-05-2.60046E-05 1.35363E-06 5.86626E-19 4.63453E-20
 -1      3747 7.77844E-05-1.66081E-05-2.61130E-05 3.98955E-06 3.42989E-19 3.17236E-19
 -1      3748 6.98775E-05-1.26091E-05-2.43430E-05-1.17185E-06-1.48941E-18 4.26402E-18
 -1      3749 5.44745E-05-9.19779E-06-1.89584E-05 8.40537E-06 6.70347E-21 4.88786E-18
 -1      3750 8.41675E-05-1.96097E-05-2.76706E-05-1.71778E-07 3.93159E-19 2.90095E-18
 -1      3751 8.18557E-05-1.85255E-05-2.72096E-05-8.63371E-07 1.03748E-18 2.79647E-18
 -1      3752 8.61939E-05-2.06639E-05-2.81247E-05 8.74454E-07 1.98703E-19 2.48537E-18
 -1      3753 9.38246E-05-2.09421E-05-3.12450E-05-2.14960E-07 2.67457E-19-2.08332E-18
 -1      3754 9.38675E-05-2.10327E-05-3.12268E-05-7.75281E-07 1.60197E-20-1.92450E-18
 -1      3755 9.46103E-05-2.23649E-05-3.09446E-05-8.03624E-07-1.63442E-19-1.73113E-18
 -1      3756 9.45475E-05-2.22077E-05-3.09841E-05 1.41084E-08 2.22659E-19-1.93893E-18
 -1      3757 8.98967E-05-2.35983E-05-2.83926E-05-2.74953E-06 2.41676E-18-2.45151E-18
 -1      3758 8.92453E-05-2.30326E-05-2.84065E-05-1.70686E-06 1.84372E-18-1.86630E-18
 -1      3759 8.82336E-05-2.23306E-05-2.82192E-05-1.64921E-06 1.44818E-18-1.34311E-18
 -1      3760 8.98150E-05-2.39984E-05-2.82069E-05-3.95009E-06 3.61565E-18-2.40535E-18
 -1      3761 1.11164E-04-1.75173E-05-4.02981E-05 8.18092E-06-2.08780E-18-9.61713E-19
 -1      3762 9.41948E-05-3.58240E-05-2.49431E-05-2.37411E-05-7.37461E-19-3.18996E-18
 -1      3763 1.04536E-04-4.31773E-05-2.64894E-05-2.16006E-05 2.91168E-21-2.17444E-18
 -1      3764 6.66956E-05-1.30270E-05-2.29993E-05 7.69864E-06 5.73534E-19-6.34348E-20
 -1      3765 9.57334E-05-2.64572E-05-2.96976E-05 9.31626E-07 1.08965E-18-1.13413E-18
 -1      3766 9.56522E-05-2.59177E-05-2.98784E-05 1.51088E-06 1.06763E-18-1.10149E-18
 -1      3767 9.55530E-05-2.53354E-05-3.00967E-05 1.72206E-06 1.14118E-18-1.39124E-18
 -1      3768 9.58986E-05-2.64576E-05-2.97593E-05 7.58094E-07 9.76278E-19-1.42388E-18
 -1      3769 9.63744E-05-2.82437E-05-2.92028E-05-5.35155E-07 5.42676E-19-9.61517E-19
 -1      3770 9.63721E-05-2.79340E-05-2.93249E-05-3.21197E-07 5.69482E-19-1.09792E-18
 -1      3771 1.12149E-04-4.63349E-05-2.79833E-05-1.57855E-05 1.57401E-19-1.84520E-18
 -1      3772 1.16605E-04-4.73668E-05-2.98420E-05-7.88663E-06 4.61203E-19-1.45237E-18
 -1      3773 1.07097E-04-4.24675E-05-2.76296E-05-1.54753E-05 3.21859E-19-2.35417E-18
 -1      3774 9.62443E-05-2.89155E-05-2.88556E-05-9.02219E-07 1.75447E-19-8.33325E-19
 -1      3775 9.62969E-05-2.88211E-05-2.89151E-05-8.49465E-07 1.13009E-20-8.78444E-19
 -1      3776 9.53225E-05-2.42964E-05-3.04207E-05 2.10744E-06 1.11621E-18-1.64852E-18
 -1      3777 9.46383E-05-2.27234E-05-3.08371E-05 2.53997E-06 1.18966E-18-2.04712E-18
 -1      3778 9.63428E-05-2.86845E-05-2.89983E-05-7.86157E-07 5.63023E-20-1.00064E-18
 -1      3779 9.63774E-05-2.84961E-05-2.90876E-05-6.66249E-07 3.10702E-19-8.92616E-19
 -1      3780 9.65349E-05-2.83196E-05-2.92363E-05-4.99409E-07 3.92463E-19-1.11140E-18
 -1      3781 9.64930E-05-2.87527E-05-2.90332E-05-7.10471E-07 5.14519E-20-1.02063E-18
 -1      3782 9.44236E-05-2.22282E-05-3.09472E-05 2.13991E-06 1.12042E-18-2.10469E-18
 -1      3783 9.54212E-05-2.85491E-05-2.86579E-05-9.09189E-07-6.03184E-20-5.13213E-19
 -1      3784 9.54989E-05-2.86493E-05-2.86512E-05-8.95983E-07 1.70815E-19-2.63781E-19
 -1      3785 9.53775E-05-2.84772E-05-2.86712E-05-8.30642E-07 1.03625E-19-2.91695E-19
 -1      3786 9.49668E-05-2.32336E-05-3.07277E-05 1.54757E-06 8.89271E-19-1.93035E-18
 -1      3787 9.56116E-05-2.87496E-05-2.86536E-05-8.96714E-07 3.94982E-19-2.18435E-19
 -1      3788 9.56825E-05-2.88246E-05-2.86541E-05-8.98517E-07 4.40127E-19-2.43258E-19
 -1      3789 9.56134E-05-2.87134E-05-2.86717E-05-8.15591E-07 2.37606E-19-3.55103E-19
 -1      3790 9.59364E-05-2.57188E-05-3.00858E-05-8.98354E-07-6.93619E-19-1.32150E-18
 -1      3791 9.61320E-05-2.64517E-05-2.98735E-05-4.55614E-07-7.56577E-19-1.23999E-18
 -1      3792 9.62738E-05-2.65496E-05-2.98788E-05-3.28195E-07-5.24518E-19-9.99763E-19
 -1      3793 6.27705E-05-1.17464E-05-2.19114E-05-7.22086E-06-1.12404E-18 4.47601E-18
 -1      3794 9.61098E-05-2.90031E-05-2.87594E-05-9.37161E-07 4.52256E-19-5.58377E-19
 -1      3795 9.61712E-05-2.89713E-05-2.87981E-05-9.22617E-07 3.93411E-19-5.68932E-19
 -1      3796 9.63756E-05-2.89733E-05-2.88884E-05-8.09052E-07 2.11535E-19-7.80136E-19
 -1      3797 9.74675E-05-3.07510E-05-2.85885E-05-4.90672E-06-1.05619E-18-1.16954E-18
 -1      3798 7.06025E-05-1.53097E-05-2.35556E-05 1.13666E-05 5.30499E-19 4.60855E-19
 -1      3799 9.58291E-05-2.88932E-05-2.86877E-05-8.21294E-07 3.75659E-19-6.47921E-19
 -1      3800 9.62895E-05-2.75222E-05-2.94771E-05-9.73362E-08 4.19700E-19-1.15386E-18
 -1      3801 9.62183E-05-2.70363E-05-2.96433E-05 2.46039E-07 4.99145E-19-1.27688E-18
 -1      3802 9.64507E-05-2.75975E-05-2.95086E-05-1.29842E-07 4.30026E-19-1.30838E-18
 -1      3803 8.28408E-05-2.64838E-05-2.42462E-05-2.06296E-05-1.05479E-19-1.52576E-18
 -1      3804 8.89860E-05-3.16143E-05-2.44870E-05-2.35422E-05-4.83662E-19-2.85006E-18
 -1      3805 9.50510E-05-3.44426E-05-2.58771E-05-1.97880E-05-2.27076E-19-4.51661E-18
 -1      3806 1.15642E-04-4.51099E-05-3.01852E-05 3.86806E-06-4.15114E-19-4.27156E-19
 -1      3807 1.15393E-04-4.67701E-05-2.94169E-05 9.03994E-06-3.36748E-19-2.81402E-19
 -1      3808 1.11038E-04-4.47019E-05-2.84670E-05 1.22448E-05-4.00647E-19-4.53052E-19
 -1      3809 1.16679E-04-4.38599E-05-3.12499E-05 7.70560E-07 3.03502E-19-1.84073E-18
 -1      3810 1.12276E-04-4.08898E-05-3.06284E-05 2.22147E-06 8.36200E-19-1.53868E-18
 -1      3811 1.11192E-04-4.09096E-05-3.00727E-05 4.02875E-07 3.89744E-19-1.50289E-18
 -1      3812 7.25197E-05-1.84558E-05-2.32093E-05 1.67256E-05 1.24720E-18 2.96607E-19
 -1      3813 7.68029E-05-1.81412E-05-2.50326E-05 1.04521E-05 6.03312E-19 6.94699E-19
 -1      3814 7.28141E-05-1.50621E-05-2.47903E-05-5.44152E-06-1.90105E-18 3.04133E-18
 -1      3815 6.84365E-05-1.36335E-05-2.35154E-05-6.62888E-06-1.36711E-18 3.44631E-18
 -1      3816 8.56592E-05-2.07272E-05-2.78272E-05-1.45244E-06 5.18703E-19 5.24459E-19
 -1      3817 1.10954E-04-4.17652E-05-2.97285E-05-2.45001E-06 7.21008E-19-1.15957E-18
 -1      3818 9.26965E-05-2.68785E-05-2.81683E-05-6.32091E-06 2.03924E-18-1.64767E-18
 -1      3819 9.13145E-05-2.58424E-05-2.80876E-05-5.99913E-06 2.67166E-18-2.37727E-18
 -1      3820 9.67669E-05-3.02574E-05-2.85082E-05-5.43203E-06 1.09765E-19-2.29369E-18
 -1      3821 9.50825E-05-2.33847E-05-3.07343E-05-4.61681E-07-2.45466E-20-1.63786E-18
 -1      3822 9.51379E-05-2.35449E-05-3.06929E-05-8.13333E-07-2.90578E-19-1.47806E-18
 -1      3823 1.03387E-04-4.07575E-05-2.67192E-05 1.90718E-05 1.46846E-19-3.46992E-19
 -1      3824 9.81509E-05-3.90890E-05-2.53548E-05 2.44024E-05 4.10248E-19-5.86120E-19
 -1      3825 6.86059E-05-1.75312E-05-2.18527E-05-1.77837E-05-9.48267E-19 1.38732E-18
 -1      3826 9.56475E-05-2.45759E-05-3.04457E-05-6.46315E-07-3.67066E-19-1.30559E-18
 -1      3827 9.51830E-05-2.36868E-05-3.06454E-05-1.01885E-06-3.95547E-19-1.52448E-18
 -1      3828 9.52834E-05-2.39390E-05-3.05794E-05-1.24808E-06-5.99136E-19-1.45315E-18
 -1      3829 1.17574E-04-4.59465E-05-3.05656E-05-2.93436E-06 2.22032E-19-1.69552E-18
 -1      3830 1.13344E-04-4.43550E-05-2.95962E-05-5.71348E-06 9.81743E-19-1.69703E-18
 -1      3831 9.62148E-05-2.90448E-05-2.87888E-05-8.39456E-07 3.55831E-19-2.46740E-19
 -1      3832 9.55037E-05-2.45285E-05-3.04254E-05 1.31433E-06 7.40829E-19-1.91693E-18
 -1      3833 9.52527E-05-2.38419E-05-3.06036E-05 1.06566E-06 6.44998E-19-1.75749E-18
 -1      3834 9.55432E-05-2.50287E-05-3.02260E-05 1.52433E-06 1.05551E-18-1.68470E-18
 -1      3835 7.95893E-05-1.75213E-05-2.66195E-05-2.22257E-06 7.26050E-19 2.41244E-18
 -1      3836 7.63183E-05-1.62279E-05-2.58489E-05-3.44965E-06-5.47658E-19 2.66428E-18
 -1      3837 8.15581E-05-1.88950E-05-2.67782E-05-4.21599E-06 1.02269E-18 3.04209E-19
 -1      3838 9.51847E-05-2.36592E-05-3.06668E-05 8.20197E-07 5.56814E-19-1.74999E-18
 -1      3839 9.51313E-05-2.34917E-05-3.07094E-05 4.74925E-07 2.82290E-19-1.86587E-18
 -1      3840 9.57428E-05-2.48133E-05-3.03830E-05 6.69402E-07 4.19087E-19-1.68033E-18
 -1      3841 9.53691E-05-2.43843E-05-3.04301E-05-1.48588E-06-6.51091E-19-1.41172E-18
 -1      3842 9.52245E-05-2.89134E-05-2.83829E-05-6.07232E-06 9.90512E-19-2.53488E-18
 -1      3843 9.40743E-05-2.80843E-05-2.82963E-05-6.20417E-06 9.72316E-19-1.60949E-18
 -1      3844 9.35148E-05-2.80440E-05-2.80828E-05-7.11796E-06 1.05917E-18-2.38613E-18
 -1      3845 8.87527E-05-3.24458E-05-2.41434E-05 2.48150E-05 9.63768E-19-1.01396E-18
 -1      3846 7.87734E-05-2.41713E-05-2.34391E-05 2.19717E-05 1.40141E-18-6.17368E-19
 -1      3847 6.74688E-05-1.43173E-05-2.25051E-05-1.20440E-05-1.23907E-18 2.48011E-18
 -1      3848 1.13990E-04-4.32548E-05-3.03714E-05 1.30255E-06-2.99093E-19 3.83084E-19
 -1      3849 1.11934E-04-4.28517E-05-2.94937E-05 4.45686E-06-5.22580E-20 1.24266E-19
 -1      3850 1.09003E-04-4.25439E-05-2.85200E-05 1.03754E-05-2.35112E-19-3.17889E-19
 -1      3851 1.07365E-04-4.27799E-05-2.76892E-05 1.52381E-05-3.45112E-19-4.62695E-19
 -1      3852 9.67604E-05-2.82180E-05-2.93730E-05 2.97345E-07-5.35962E-19-1.23613E-18
 -1      3853 9.67637E-05-2.85076E-05-2.92550E-05 4.16869E-07-3.56946E-19-1.12794E-18
 -1      3854 9.67488E-05-2.87328E-05-2.91476E-05 4.70251E-07-2.17272E-19-1.06937E-18
 -1      3855 9.66998E-05-2.88955E-05-2.90600E-05 5.35737E-07-1.93636E-19-1.04422E-18
 -1      3856 9.68391E-05-2.85901E-05-2.92497E-05 3.34434E-07-3.24788E-19-1.10200E-18
 -1      3857 9.66314E-05-2.90078E-05-2.89801E-05 5.58139E-07-1.22816E-19-1.01509E-18
 -1      3858 9.65510E-05-2.90781E-05-2.89169E-05 5.88232E-07-1.11447E-19-9.18371E-19
 -1      3859 9.67550E-05-2.89507E-05-2.90601E-05 4.20594E-07-1.11988E-19-1.06495E-18
 -1      3860 9.64504E-05-2.91098E-05-2.88593E-05 5.92756E-07-1.63915E-19-8.68395E-19
 -1      3861 9.63526E-05-2.91146E-05-2.88156E-05 6.02559E-07-1.39154E-19-8.31354E-19
 -1      3862 9.65864E-05-2.91085E-05-2.89206E-05 4.59182E-07-9.01803E-20-8.73503E-19
 -1      3863 9.62335E-05-2.90893E-05-2.87757E-05 5.99143E-07-7.10366E-20-7.87562E-19
 -1      3864 9.61268E-05-2.90481E-05-2.87469E-05 6.00735E-07-1.81186E-19-7.57893E-19
 -1      3865 9.63682E-05-2.91217E-05-2.88214E-05 4.71236E-07-1.33584E-19-6.55420E-19
 -1      3866 9.59973E-05-2.89828E-05-2.87206E-05 5.97550E-07-1.53933E-19-5.77549E-19
 -1      3867 9.58865E-05-2.89093E-05-2.87032E-05 6.00529E-07 1.47324E-20-2.99789E-19
 -1      3868 9.61215E-05-2.90323E-05-2.87538E-05 4.73957E-07 6.24488E-20-3.35243E-19
 -1      3869 9.57505E-05-2.88158E-05-2.86869E-05 6.04519E-07-9.67905E-20-2.24350E-19
 -1      3870 9.56378E-05-2.87200E-05-2.86775E-05 6.16732E-07 3.39399E-20-1.74470E-20
 -1      3871 9.58582E-05-2.88701E-05-2.87101E-05 4.81870E-07 1.35451E-19-2.78051E-19
 -1      3872 9.54966E-05-2.86070E-05-2.86681E-05 6.34259E-07 2.68369E-20-4.15645E-20
 -1      3873 9.53832E-05-2.84966E-05-2.86640E-05 6.62569E-07 7.70073E-20 3.11952E-21
 -1      3874 9.55832E-05-2.86561E-05-2.86836E-05 5.07945E-07 5.73388E-20-1.06330E-19
 -1      3875 9.52369E-05-2.83708E-05-2.86586E-05 7.00200E-07-1.00711E-20-3.09015E-19
 -1      3876 9.51243E-05-2.82531E-05-2.86570E-05 7.51178E-07-3.08543E-19-2.19333E-20
 -1      3877 9.52977E-05-2.84058E-05-2.86680E-05 5.65015E-07-2.24235E-19 8.02649E-20
 -1      3878 9.49730E-05-2.81217E-05-2.86529E-05 8.16421E-07-4.77413E-19-3.09526E-19
 -1      3879 9.48644E-05-2.80051E-05-2.86514E-05 8.96923E-07-6.12756E-19-3.06490E-19
 -1      3880 9.50018E-05-2.81331E-05-2.86578E-05 6.67330E-07-4.07115E-19-6.49819E-19
 -1      3881 9.47105E-05-2.78772E-05-2.86457E-05 9.98944E-07-6.44908E-19-7.30495E-20
 -1      3882 9.46128E-05-2.77737E-05-2.86419E-05 1.11652E-06-6.33112E-19-9.63164E-21
 -1      3883 9.46975E-05-2.78533E-05-2.86471E-05 8.32104E-07-3.71568E-19-8.77170E-19
 -1      3884 9.44623E-05-2.76628E-05-2.86317E-05 1.26673E-06-7.41895E-19 2.36074E-19
 -1      3885 9.43886E-05-2.75902E-05-2.86231E-05 1.42971E-06-5.92422E-19 2.15899E-19
 -1      3886 9.43925E-05-2.75882E-05-2.86302E-05 1.08104E-06-5.69439E-19-3.37931E-19
 -1      3887 9.42548E-05-2.75166E-05-2.86057E-05 1.64202E-06-4.88122E-19 4.05826E-19
 -1      3888 9.42272E-05-2.75014E-05-2.85902E-05 1.85895E-06-1.39548E-19 4.44229E-19
 -1      3889 9.41054E-05-2.73708E-05-2.86010E-05 1.44151E-06-4.82814E-19-1.44055E-19
 -1      3890 9.41343E-05-2.74957E-05-2.85627E-05 2.14914E-06 6.61106E-20 7.48897E-19
 -1      3891 9.41876E-05-2.75756E-05-2.85389E-05 2.42705E-06 4.60403E-19 7.92564E-19
 -1      3892 9.38721E-05-2.72519E-05-2.85536E-05 1.94669E-06 3.60135E-19 3.69924E-19
 -1      3893 9.41760E-05-2.76814E-05-2.84997E-05 2.81047E-06 5.78916E-19 8.84771E-19
 -1      3894 9.43612E-05-2.79080E-05-2.84679E-05 3.15108E-06 6.82306E-19 7.03241E-19
 -1      3895 9.37550E-05-2.73068E-05-2.84830E-05 2.63349E-06 5.14859E-19 2.43841E-19
 -1      3896 9.44936E-05-2.81843E-05-2.84172E-05 3.63670E-06 1.05140E-18 7.43637E-19
 -1      3897 9.48807E-05-2.86220E-05-2.83812E-05 4.02931E-06 1.14248E-18 7.31324E-19
 -1      3898 9.38549E-05-2.76437E-05-2.83867E-05 3.53531E-06 7.94325E-19 5.48236E-19
 -1      3899 9.52478E-05-2.91428E-05-2.83237E-05 4.61157E-06 9.00203E-19 5.35996E-19
 -1      3900 9.59265E-05-2.98678E-05-2.82929E-05 5.02127E-06 5.52046E-19 8.02312E-19
 -1      3901 9.43220E-05-2.84054E-05-2.82687E-05 4.66675E-06 8.76706E-19 6.70405E-19
 -1      3902 9.66589E-05-3.07216E-05-2.82406E-05 5.66077E-06 3.34881E-19 6.82923E-19
 -1      3903 9.77306E-05-3.18088E-05-2.82352E-05 6.00662E-06 7.39294E-19 5.27058E-19
 -1      3904 9.53699E-05-2.97764E-05-2.81433E-05 6.00772E-06 5.54626E-19-1.41435E-19
 -1      3905 9.89954E-05-3.30657E-05-2.82178E-05 6.57608E-06 1.07744E-18 8.91432E-20
 -1      3906 1.00528E-04-3.45250E-05-2.82764E-05 6.70701E-06 7.35152E-19 5.51082E-19
 -1      3907 9.73040E-05-3.19680E-05-2.80488E-05 7.42319E-06 6.35056E-19-9.84728E-19
 -1      3908 1.02558E-04-3.62645E-05-2.83510E-05 6.99146E-06 8.70256E-20 1.24754E-18
 -1      3909 1.04639E-04-3.79086E-05-2.85602E-05 6.50526E-06 3.39276E-19 1.25390E-18
 -1      3910 1.00467E-04-3.50856E-05-2.80742E-05 8.58752E-06 8.44393E-19-1.02231E-18
 -1      3911 9.60511E-05-2.65696E-05-2.97861E-05 5.24340E-07 6.81987E-19-1.42759E-18
 -1      3912 9.59190E-05-2.60520E-05-2.99360E-05 9.33745E-07 8.94269E-19-1.44790E-18
 -1      3913 9.61982E-05-2.66318E-05-2.98123E-05 3.89888E-07 4.65796E-19-1.35834E-18
 -1      3914 7.60683E-05-1.69895E-05-2.51703E-05-8.14451E-06-7.31517E-19 1.21916E-18
 -1      3915 8.02196E-05-2.06944E-05-2.54435E-05 1.24907E-05-4.59772E-20 8.45279E-20
 -1      3916 7.78861E-05-1.81371E-05-2.57395E-05 7.80723E-06-4.25191E-19 7.82807E-19
 -1      3917 9.02828E-05-2.54104E-05-2.78229E-05-6.76755E-06 2.61884E-18-2.60247E-18
 -1      3918 8.98646E-05-2.44555E-05-2.79869E-05-5.42793E-06 2.94917E-18-1.86692E-18
 -1      3919 8.86036E-05-2.34910E-05-2.79453E-05-4.62525E-06 2.26595E-18-1.23461E-18
 -1      3920 7.36507E-05-1.89161E-05-2.35031E-05-1.57798E-05-8.07914E-19 3.87941E-19
 -1      3921 1.02821E-04-3.63771E-05-2.84417E-05-7.09687E-06 4.16065E-19-2.15221E-18
 -1      3922 1.00981E-04-3.47302E-05-2.83464E-05-7.21603E-06 5.47483E-19-3.07468E-18
 -1      3923 9.94698E-05-3.32665E-05-2.83543E-05-6.72323E-06 4.65987E-19-3.43609E-18
 -1      3924 9.82226E-05-3.19506E-05-2.83599E-05-6.52331E-06 9.99251E-20-3.44899E-18
 -1      3925 9.91706E-05-3.35500E-05-2.81486E-05-8.35003E-06 1.42890E-19-2.50746E-18
 -1      3926 9.41429E-05-2.71833E-05-2.86997E-05-8.55011E-07 6.80142E-20-7.03477E-19
 -1      3927 9.43946E-05-2.74476E-05-2.86944E-05-8.08597E-07 3.79331E-20-2.15459E-19
 -1      3928 9.46331E-05-2.76837E-05-2.86936E-05-7.97416E-07 5.54964E-20 3.80518E-20
 -1      3929 9.48177E-05-2.78879E-05-2.86865E-05-7.59217E-07 3.09908E-19 3.15357E-19
 -1      3930 9.44583E-05-2.75214E-05-2.86836E-05-6.12001E-07 2.68293E-19 3.25845E-19
 -1      3931 9.50135E-05-2.80823E-05-2.86847E-05-7.47492E-07 3.50860E-19 1.26263E-19
 -1      3932 9.51627E-05-2.82491E-05-2.86790E-05-7.20906E-07 2.16921E-19 4.95365E-20
 -1      3933 9.48862E-05-2.79544E-05-2.86830E-05-6.00472E-07 2.97869E-19 3.39246E-19
 -1      3934 9.35219E-05-2.65821E-05-2.86938E-05-8.94464E-07 3.97556E-19-6.48828E-19
 -1      3935 9.38428E-05-2.68947E-05-2.86953E-05-8.55140E-07 3.03452E-19-5.75508E-19
 -1      3936 9.39294E-05-2.70016E-05-2.86776E-05-6.02832E-07 2.32369E-19-1.31707E-19
 -1      3937 9.27034E-05-2.58426E-05-2.86636E-05-8.78627E-07 2.55431E-19-8.29330E-19
 -1      3938 9.31388E-05-2.62301E-05-2.86786E-05-8.64401E-07 3.48397E-19-4.84076E-19
 -1      3939 9.32596E-05-2.63782E-05-2.86553E-05-5.40562E-07 3.59531E-19 2.16808E-19
 -1      3940 9.16131E-05-2.49356E-05-2.85904E-05-7.44288E-07-5.27970E-19-4.48811E-19
 -1      3941 9.22087E-05-2.54148E-05-2.86293E-05-7.88226E-07-3.64009E-20-9.16660E-19
 -1      3942 9.23993E-05-2.56331E-05-2.86026E-05-3.71728E-07-4.74081E-20 1.60573E-19
 -1      3943 9.01585E-05-2.38365E-05-2.84457E-05-3.93922E-07-8.45077E-19-4.02034E-19
 -1      3944 9.09739E-05-2.44221E-05-2.85249E-05-5.47658E-07-7.45403E-19-3.07986E-19
 -1      3945 9.12892E-05-2.47539E-05-2.84996E-05-1.42670E-08-6.56560E-19 2.91993E-20
 -1      3946 8.82271E-05-2.25364E-05-2.81862E-05 3.16842E-07 1.35676E-19-2.14258E-19
 -1      3947 8.93386E-05-2.32354E-05-2.83310E-05-2.37627E-08-3.11181E-19-5.77958E-19
 -1      3948 8.98623E-05-2.37417E-05-2.83169E-05 6.53295E-07-6.07014E-19-5.01775E-19
 -1      3949 8.56838E-05-2.10582E-05-2.77473E-05 1.59537E-06 3.85095E-19 1.89333E-20
 -1      3950 8.71924E-05-2.18640E-05-2.79962E-05 9.59534E-07 1.12721E-19-2.38035E-19
 -1      3951 8.80526E-05-2.26305E-05-2.80118E-05 1.80541E-06 1.32471E-20 5.63356E-19
 -1      3952 8.21297E-05-1.93776E-05-2.69774E-05 3.87047E-06 5.07058E-19-2.04392E-20
 -1      3953 8.43272E-05-2.03191E-05-2.74250E-05 2.70301E-06 8.24448E-19-1.38469E-19
 -1      3954 8.57340E-05-2.14695E-05-2.75075E-05 3.76261E-06 3.65400E-19 3.06141E-19
 -1      3955 8.06936E-05-1.89087E-05-2.64494E-05 5.86711E-06-3.28967E-19 1.03546E-19
 -1      3956 8.63488E-05-2.14755E-05-2.77859E-05-2.93674E-06 1.89505E-18-1.21732E-19
 -1      3957 9.58562E-05-2.88841E-05-2.87012E-05-7.04110E-07 1.96316E-19-5.07554E-19
 -1      3958 9.59621E-05-2.89604E-05-2.87150E-05-7.06702E-07 4.35832E-19-2.73816E-19
 -1      3959 1.01135E-04-3.84083E-05-2.68861E-05 1.70309E-05 2.94549E-19-8.12985E-19
 -1      3960 9.64812E-05-2.90416E-05-2.89028E-05-7.04249E-07-2.87523E-20-7.87829E-19
 -1      3961 9.65537E-05-2.89662E-05-2.89641E-05-6.68554E-07-9.24082E-20-9.95362E-19
 -1      3962 8.74498E-05-2.85074E-05-2.51549E-05 1.92776E-05 1.10057E-18-1.09035E-18
 -1      3963 1.10782E-04-4.25893E-05-2.91125E-05-6.51573E-06 8.93153E-19-1.98237E-18
 -1      3964 1.08291E-04-4.23018E-05-2.84285E-05-1.08032E-05 5.25602E-19-2.69373E-18
 -1      3965 1.07023E-04-4.00815E-05-2.86884E-05-7.43384E-06 2.00960E-19-1.83251E-18
 -1      3966 1.04738E-04-3.82379E-05-2.84397E-05-7.99726E-06 2.36555E-19-1.96668E-18
 -1      3967 1.02928E-04-3.90162E-05-2.72964E-05-1.53976E-05 8.12882E-19-2.31838E-18
 -1      3968 9.50833E-05-2.33745E-05-3.07427E-05 2.01019E-07 2.12871E-19-1.89579E-18
 -1      3969 9.50806E-05-2.33665E-05-3.07437E-05-1.72167E-07 1.50144E-20-1.90142E-18
 -1      3970 9.56079E-05-2.43909E-05-3.05055E-05-2.34848E-07-2.76218E-20-1.63675E-18
 -1      3971 9.56533E-05-2.44902E-05-3.04821E-05 2.48017E-07 6.17194E-20-1.86324E-18
 -1      3972 9.60865E-05-2.90260E-05-2.87392E-05-7.15780E-07 5.23282E-19-3.21058E-19
 -1      3973 9.61841E-05-2.90648E-05-2.87648E-05-7.17066E-07 4.94061E-19-1.16404E-19
 -1      3974 9.60998E-05-2.90173E-05-2.87508E-05-5.94187E-07 4.62849E-19 9.70577E-20
 -1      3975 9.56637E-05-2.51040E-05-3.02383E-05 1.23523E-06 8.70856E-19-1.72071E-18
 -1      3976 9.59053E-05-2.55998E-05-3.01363E-05 7.61709E-07 5.72980E-19-1.68123E-18
 -1      3977 9.66043E-05-2.73740E-05-2.96680E-05 5.92570E-09-5.57002E-19-1.17199E-18
 -1      3978 9.66925E-05-2.78368E-05-2.95135E-05 2.01196E-07-7.38798E-19-1.23287E-18
 -1      3979 9.67905E-05-2.79551E-05-2.95000E-05 1.77113E-07-6.06317E-19-1.32876E-18
 -1      3980 9.53296E-05-2.84094E-05-2.86794E-05-7.14437E-07 9.74490E-20-3.76194E-20
 -1      3981 9.54564E-05-2.85448E-05-2.86776E-05-7.00289E-07 1.05370E-19 3.67763E-20
 -1      3982 9.52441E-05-2.83143E-05-2.86833E-05-5.87344E-07 3.55321E-20 1.41158E-19
 -1      3983 9.56084E-05-2.86786E-05-2.86832E-05-7.00881E-07 4.14972E-20 5.49553E-20
 -1      3984 9.57214E-05-2.87845E-05-2.86879E-05-6.97387E-07 1.48578E-20-4.48747E-19
 -1      3985 9.58432E-05-2.88512E-05-2.87115E-05-5.85408E-07 1.06800E-19 1.44997E-19
 -1      3986 9.62974E-05-2.90876E-05-2.88036E-05-7.22315E-07 2.80836E-19-4.36494E-19
 -1      3987 9.63870E-05-2.90781E-05-2.88454E-05-7.12051E-07 9.55659E-20-5.11142E-19
 -1      3988 9.65420E-05-2.90793E-05-2.89141E-05-5.85235E-07-1.28801E-19-6.11502E-19
 -1      3989 9.63356E-05-2.91025E-05-2.88157E-05-5.99095E-07 3.18576E-19-1.98728E-19
 -1      3990 9.55116E-05-2.45496E-05-3.04126E-05-1.15798E-06-6.47826E-19-1.37323E-18
 -1      3991 7.72247E-05-1.96967E-05-2.47559E-05-1.29536E-05-6.30891E-19-2.85874E-19
 -1      3992 7.98118E-05-2.26648E-05-2.43083E-05-1.76069E-05-7.39258E-19-1.26871E-18
 -1      3993 8.59266E-05-2.66680E-05-2.54181E-05-1.71916E-05-4.33861E-19-1.93884E-18
 -1      3994 9.30894E-05-3.25416E-05-2.60105E-05 1.86044E-05 7.97740E-19-2.15370E-18
 -1      3995 8.43423E-05-2.50948E-05-2.54427E-05 1.60896E-05 7.15007E-19-1.16728E-18
 -1      3996 9.65938E-05-2.77527E-05-2.95063E-05-2.04302E-07 4.03598E-19-1.38169E-18
 -1      3997 9.65044E-05-2.72867E-05-2.96643E-05 3.88839E-08 2.94385E-19-1.45398E-18
 -1      3998 8.55024E-05-2.43660E-05-2.61371E-05 1.27788E-05-1.17545E-19-8.98775E-19
 -1      3999 9.77114E-05-3.47488E-05-2.69289E-05 1.51674E-05 5.73584E-19-8.43364E-19
 -1      4000 9.66986E-05-2.89067E-05-2.90551E-05-5.32610E-07-1.59508E-19-1.06287E-18
 -1      4001 9.66159E-05-2.88465E-05-2.90451E-05-6.35739E-07-8.38124E-20-1.01901E-18
 -1      4002 9.66597E-05-2.86775E-05-2.91329E-05-5.54385E-07 7.36606E-20-9.23683E-19
 -1      4003 1.03747E-04-3.84845E-05-2.79959E-05 1.08731E-05 3.48445E-19 2.49413E-19
 -1      4004 1.06164E-04-3.96139E-05-2.84650E-05 8.29040E-06 1.26244E-19 6.95874E-19
 -1      4005 1.08688E-04-4.14148E-05-2.88336E-05 7.33219E-06-3.61959E-19 4.24211E-20
 -1      4006 9.11002E-05-2.64721E-05-2.76416E-05-8.37215E-06 1.90662E-18-3.30442E-18
 -1      4007 8.91323E-05-2.50807E-05-2.75105E-05-7.85186E-06 1.85535E-18-3.10235E-18
 -1      4008 1.02516E-04-3.71760E-05-2.80994E-05-9.99858E-06 2.46190E-19-2.11300E-18
 -1      4009 9.63383E-05-3.06034E-05-2.81987E-05-7.35438E-06 4.42841E-19-1.66367E-18
 -1      4010 9.68073E-05-3.06493E-05-2.83653E-05-6.26311E-06 1.77185E-19-2.95476E-18
 -1      4011 8.04371E-05-2.02911E-05-2.57672E-05-1.01434E-05-4.81045E-19-3.70306E-19
 -1      4012 8.29652E-05-2.06000E-05-2.66757E-05 7.18629E-06-2.48564E-19 4.78645E-19
 -1      4013 9.88101E-05-3.64209E-05-2.68040E-05-1.70078E-05 2.14296E-19-4.00178E-18
 -1      4014 1.01575E-04-3.68333E-05-2.76452E-05-1.25299E-05 1.20749E-18-2.69934E-18
 -1      4015 9.94597E-05-3.48030E-05-2.76959E-05-1.13797E-05-9.15333E-20-2.81655E-18
 -1      4016 9.40786E-05-3.26151E-05-2.63744E-05-1.69024E-05 8.87991E-20-4.56337E-18
 -1      4017 9.59556E-05-2.52398E-05-3.03135E-05-6.57963E-08-1.41976E-19-1.79890E-18
 -1      4018 9.59490E-05-2.52608E-05-3.03024E-05-2.78044E-07-2.43466E-19-1.49416E-18
 -1      4019 8.39714E-05-2.07883E-05-2.71071E-05-5.33229E-06 9.31698E-19 3.99715E-19
 -1      4020 8.17748E-05-2.00899E-05-2.65269E-05-6.93124E-06-1.83187E-20-7.77520E-19
 -1      4021 9.60400E-05-2.56773E-05-3.01603E-05 5.29024E-07 3.72072E-19-1.61023E-18
 -1      4022 9.60161E-05-2.54994E-05-3.02241E-05 3.90604E-07 2.49035E-19-1.65604E-18
 -1      4023 9.62005E-05-2.60838E-05-3.00443E-05-4.36044E-07-2.84503E-19-1.29419E-18
 -1      4024 9.64172E-05-2.67854E-05-2.98473E-05-1.48208E-07-2.72488E-19-1.11425E-18
 -1      4025 8.60880E-05-2.19106E-05-2.75110E-05-4.68877E-06 1.45054E-18-4.20569E-19
 -1      4026 9.66700E-05-2.84425E-05-2.92423E-05-4.82869E-07 1.82365E-19-1.05599E-18
 -1      4027 9.66616E-05-2.81447E-05-2.93621E-05-3.31370E-07 3.41382E-19-1.16407E-18
 -1      4028 9.67093E-05-2.78658E-05-2.95054E-05-1.94586E-07 2.41354E-19-1.30910E-18
 -1      4029 9.67706E-05-2.85262E-05-2.92488E-05-4.13079E-07 9.27800E-20-1.10452E-18
 -1      4030 9.55596E-05-2.86142E-05-2.86909E-05-5.81711E-07 1.38414E-19 1.96779E-19
 -1      4031 9.61800E-05-2.61883E-05-2.99925E-05 4.87989E-07 4.24972E-19-1.55437E-18
 -1      4032 9.63139E-05-2.61464E-05-3.00651E-05-1.72636E-07-2.56356E-19-1.31306E-18
 -1      4033 9.59856E-05-2.54267E-05-3.02435E-05-3.72995E-07-1.32677E-19-1.24384E-18
 -1      4034 9.49020E-05-2.94574E-05-2.80048E-05-8.06345E-06 1.62887E-19-3.09888E-18
 -1      4035 9.31226E-05-2.82062E-05-2.78469E-05-8.30508E-06 1.29486E-18-3.91413E-18
 -1      4036 9.22370E-05-2.80429E-05-2.75429E-05-9.59669E-06 8.91228E-19-4.62371E-18
 -1      4037 9.61505E-05-3.09180E-05-2.79710E-05-8.61430E-06 8.98689E-19-3.04503E-18
 -1      4038 9.58613E-05-2.53266E-05-3.02346E-05-7.11844E-07-4.48884E-19-1.27121E-18
 -1      4039 9.60067E-05-2.55545E-05-3.01976E-05-5.02788E-07-3.00077E-19-1.24946E-18
 -1      4040 9.65361E-05-2.69475E-05-2.98220E-05-7.77744E-08-3.90507E-19-1.39461E-18
 -1      4041 8.90005E-05-2.70181E-05-2.65938E-05 1.28826E-05 6.38569E-19-6.92684E-19
 -1      4042 8.47613E-05-2.30405E-05-2.65163E-05 1.01276E-05-3.64560E-19-3.76797E-19
 -1      4043 9.43168E-05-2.74183E-05-2.86743E-05-3.98172E-07 3.68487E-19 1.56724E-19
 -1      4044 9.45571E-05-2.76487E-05-2.86758E-05-4.01925E-07 5.76142E-19 1.86936E-19
 -1      4045 9.69132E-05-2.84716E-05-2.93302E-05 1.94861E-07-2.07052E-19-1.16621E-18
 -1      4046 9.68996E-05-2.87183E-05-2.92205E-05 2.63638E-07-1.16730E-19-1.19350E-18
 -1      4047 9.68558E-05-2.89015E-05-2.91225E-05 2.69305E-07-1.51553E-19-1.03275E-18
 -1      4048 9.67904E-05-2.90272E-05-2.90405E-05 3.09178E-07-6.48983E-20-1.02994E-18
 -1      4049 9.69157E-05-2.87970E-05-2.91968E-05 1.40938E-07-1.44912E-20-1.08112E-18
 -1      4050 9.67001E-05-2.91066E-05-2.89679E-05 3.06882E-07 4.19248E-20-7.84283E-19
 -1      4051 9.66017E-05-2.91457E-05-2.89085E-05 3.27800E-07-3.33037E-20-5.82035E-19
 -1      4052 9.67850E-05-2.90682E-05-2.90251E-05 1.66094E-07-3.94849E-21-6.90342E-19
 -1      4053 9.64830E-05-2.91502E-05-2.88563E-05 3.21820E-07-1.95662E-19-7.90322E-19
 -1      4054 9.63655E-05-2.91274E-05-2.88149E-05 3.32652E-07-1.09519E-19-6.82890E-19
 -1      4055 9.65795E-05-2.91561E-05-2.88993E-05 1.77772E-07-1.91690E-19-8.04907E-19
 -1      4056 9.62296E-05-2.90784E-05-2.87788E-05 3.27407E-07 1.29595E-19-7.49468E-19
 -1      4057 9.61012E-05-2.90115E-05-2.87513E-05 3.35659E-07 1.54782E-19-5.97971E-19
 -1      4058 9.63286E-05-2.91118E-05-2.88103E-05 1.83966E-07-3.28115E-19-9.08442E-19
 -1      4059 9.59542E-05-2.89238E-05-2.87275E-05 3.35247E-07 1.14778E-19-7.35079E-19
 -1      4060 9.58192E-05-2.88251E-05-2.87102E-05 3.47549E-07 1.41145E-19-6.98847E-19
 -1      4061 9.60497E-05-2.89720E-05-2.87499E-05 1.92452E-07 2.47223E-19-8.55081E-19
 -1      4062 9.56630E-05-2.87090E-05-2.86953E-05 3.56119E-07 1.53998E-19-5.36894E-19
 -1      4063 9.55228E-05-2.85872E-05-2.86851E-05 3.78744E-07 1.45080E-19-4.01144E-19
 -1      4064 9.57509E-05-2.87623E-05-2.87108E-05 2.11011E-07 2.06009E-19-8.24901E-19
 -1      4065 9.53565E-05-2.84497E-05-2.86759E-05 4.01386E-07-8.84235E-20-1.99427E-19
 -1      4066 9.52114E-05-2.83111E-05-2.86697E-05 4.41023E-07-4.96340E-19-1.15671E-19
 -1      4067 9.54334E-05-2.84996E-05-2.86863E-05 2.48919E-07 2.21613E-20-8.07320E-19
 -1      4068 9.50329E-05-2.81577E-05-2.86631E-05 4.84467E-07-6.15900E-19-8.64546E-20
 -1      4069 9.48833E-05-2.80087E-05-2.86582E-05 5.49026E-07-4.73369E-19-1.54846E-19
 -1      4070 9.50944E-05-2.81958E-05-2.86701E-05 3.17980E-07-4.61757E-19-8.08879E-20
 -1      4071 9.46898E-05-2.78449E-05-2.86512E-05 6.22527E-07-3.39898E-19-3.28477E-19
 -1      4072 9.45382E-05-2.76933E-05-2.86446E-05 7.22003E-07-2.69480E-19-3.66483E-19
 -1      4073 9.47290E-05-2.78610E-05-2.86562E-05 4.34425E-07-4.55898E-19 1.83003E-19
 -1      4074 9.43287E-05-2.75272E-05-2.86337E-05 8.38497E-07-4.96880E-19 1.40878E-19
 -1      4075 9.41814E-05-2.73848E-05-2.86224E-05 9.85813E-07-4.43684E-19 2.57841E-19
 -1      4076 9.43336E-05-2.75074E-05-2.86379E-05 6.21192E-07-1.75766E-19 2.65244E-19
 -1      4077 9.39583E-05-2.72291E-05-2.86040E-05 1.16307E-06-1.44922E-19 8.61927E-19
 -1      4078 9.38291E-05-2.71148E-05-2.85848E-05 1.37470E-06 1.24849E-19 8.27457E-19
 -1      4079 9.39096E-05-2.71536E-05-2.86080E-05 9.10390E-07 2.80549E-19 9.12936E-19
 -1      4080 9.36017E-05-2.69902E-05-2.85548E-05 1.63629E-06 1.33126E-19 1.03575E-18
 -1      4081 9.35150E-05-2.69332E-05-2.85246E-05 1.93229E-06 6.62911E-19 9.73609E-19
 -1      4082 9.34683E-05-2.68313E-05-2.85586E-05 1.34588E-06 2.55822E-19 1.10234E-18
 -1      4083 9.33041E-05-2.68724E-05-2.84787E-05 2.30796E-06 7.12605E-19 2.63141E-19
 -1      4084 9.33012E-05-2.69172E-05-2.84349E-05 2.71051E-06 4.53782E-19 5.31956E-19
 -1      4085 9.30388E-05-2.65922E-05-2.84806E-05 1.98532E-06 1.99698E-19 8.29027E-19
 -1      4086 9.31465E-05-2.69702E-05-2.83691E-05 3.23500E-06 6.71389E-19 3.40280E-19
 -1      4087 9.32916E-05-2.71813E-05-2.83113E-05 3.76398E-06 9.84763E-19 3.50371E-19
 -1      4088 9.26794E-05-2.65189E-05-2.83649E-05 2.90037E-06 4.06668E-19 2.47673E-19
 -1      4089 9.32638E-05-2.74207E-05-2.82237E-05 4.46972E-06 5.65140E-19-1.29608E-19
 -1      4090 9.36450E-05-2.78854E-05-2.81549E-05 5.13631E-06 4.14294E-19-2.32806E-19
 -1      4091 9.24962E-05-2.67413E-05-2.82042E-05 4.17138E-06 1.40626E-19-5.48063E-19
 -1      4092 9.38566E-05-2.83991E-05-2.80484E-05 6.02517E-06 4.79992E-19-6.34934E-19
 -1      4093 9.45784E-05-2.92269E-05-2.79784E-05 6.82054E-06 2.13969E-19-9.79617E-19
 -1      4094 9.26886E-05-2.74635E-05-2.79989E-05 5.86833E-06-3.39880E-20-1.13265E-18
 -1      4095 9.52279E-05-3.01710E-05-2.78622E-05 7.90091E-06 3.35318E-19-5.54338E-19
 -1      4096 9.64350E-05-3.14914E-05-2.78160E-05 8.71748E-06 7.22946E-19-6.21348E-19
 -1      4097 9.34608E-05-2.88465E-05-2.77654E-05 7.97925E-06 3.25129E-19-8.83147E-19
 -1      4098 9.83875E-05-3.35076E-05-2.77646E-05 9.88006E-06 8.96354E-19-9.16117E-19
 -1      4099 1.00282E-04-3.54673E-05-2.77988E-05 1.05168E-05 8.63438E-19-7.12303E-19
 -1      4100 1.01177E-04-3.68945E-05-2.75732E-05 1.27039E-05 6.19754E-19 4.65670E-20
 -1      4101 9.58284E-05-3.16301E-05-2.75596E-05 1.04366E-05 7.24422E-19-3.97854E-19
 -1      4102 9.63562E-05-2.67243E-05-2.98447E-05 2.00712E-07 3.57047E-19-1.59449E-18
 -1      4103 9.59689E-05-2.52710E-05-3.03045E-05 7.52075E-08 6.31327E-20-1.76539E-18
 -1      4104 9.63007E-05-2.60108E-05-3.01150E-05-1.38888E-08-1.70431E-19-1.53035E-18
 -1      4105 9.60009E-05-2.53869E-05-3.02722E-05 2.69328E-07 1.76737E-19-1.70814E-18
 -1      4106 9.45126E-05-3.17176E-05-2.68815E-05 1.39182E-05 8.15802E-19-8.48128E-19
 -1      4107 9.76163E-05-3.23998E-05-2.79221E-05-9.35110E-06 3.76291E-19-2.63488E-18
 -1      4108 8.36921E-05-2.24935E-05-2.62171E-05-1.10334E-05-2.69535E-19-1.99242E-18
 -1      4109 9.30551E-05-2.62844E-05-2.86253E-05-1.71761E-07 4.84318E-20 5.73502E-19
 -1      4110 9.34410E-05-2.66051E-05-2.86439E-05-2.39182E-07 1.67641E-19 4.30586E-19
 -1      4111 9.37541E-05-2.68952E-05-2.86597E-05-3.27167E-07 3.50484E-19 3.19453E-19
 -1      4112 9.40558E-05-2.71679E-05-2.86669E-05-3.51971E-07 4.27550E-19 4.16583E-19
 -1      4113 9.41858E-05-2.73069E-05-2.86592E-05-1.35072E-07 4.03468E-19 4.19750E-19
 -1      4114 9.36147E-05-2.67917E-05-2.86342E-05 2.17165E-08 2.59353E-19 5.67804E-19
 -1      4115 9.47781E-05-2.78632E-05-2.86796E-05-4.25895E-07 1.82241E-19 3.51582E-19
 -1      4116 9.49753E-05-2.80577E-05-2.86797E-05-4.21581E-07 3.38348E-20 6.71395E-20
 -1      4117 9.46645E-05-2.77588E-05-2.86719E-05-2.19525E-07 3.46789E-19-3.41107E-19
 -1      4118 9.21796E-05-2.55801E-05-2.85567E-05 1.31170E-07 2.46377E-20 3.88594E-19
 -1      4119 9.26777E-05-2.59529E-05-2.85948E-05-1.28640E-08 2.08949E-19 4.16549E-19
 -1      4120 9.29265E-05-2.62147E-05-2.85860E-05 3.00913E-07 4.33088E-20 2.76371E-20
 -1      4121 9.10847E-05-2.47873E-05-2.84335E-05 6.75117E-07-6.66376E-19-4.90649E-20
 -1      4122 9.17277E-05-2.52112E-05-2.85029E-05 4.03732E-07-1.09886E-19 4.29833E-19
 -1      4123 9.20983E-05-2.55875E-05-2.85004E-05 7.76362E-07-2.09463E-19 7.85098E-20
 -1      4124 8.97313E-05-2.39343E-05-2.82273E-05 1.59363E-06-2.51394E-19-3.91613E-19
 -1      4125 9.05545E-05-2.43962E-05-2.83449E-05 1.12174E-06-6.23236E-19-2.18177E-19
 -1      4126 9.11145E-05-2.49414E-05-2.83579E-05 1.55315E-06-4.74108E-19-1.34464E-19
 -1      4127 8.80985E-05-2.30931E-05-2.78982E-05 3.06825E-06 2.43032E-20 5.90214E-20
 -1      4128 8.91314E-05-2.35547E-05-2.80879E-05 2.29520E-06-2.09782E-19-1.69131E-19
 -1      4129 8.99784E-05-2.43422E-05-2.81328E-05 2.77496E-06-4.11582E-19-3.90856E-19
 -1      4130 8.60712E-05-2.23464E-05-2.73546E-05 5.50544E-06 5.01746E-19 1.11727E-19
 -1      4131 8.74407E-05-2.27931E-05-2.76760E-05 4.17959E-06 5.93141E-19 9.07529E-20
 -1      4132 8.86886E-05-2.39017E-05-2.77801E-05 4.67909E-06 1.20725E-19-6.91109E-20
 -1      4133 9.55082E-05-2.85577E-05-2.86929E-05-4.40273E-07-4.60795E-20 2.67161E-19
 -1      4134 9.56614E-05-2.86945E-05-2.87002E-05-4.37450E-07 2.46929E-20 1.63242E-19
 -1      4135 9.64807E-05-2.68785E-05-2.98293E-05 1.17367E-07 3.09413E-19-1.61805E-18
 -1      4136 9.60978E-05-2.90070E-05-2.87523E-05-4.57079E-07 3.80954E-19 7.68933E-20
 -1      4137 9.62232E-05-2.90717E-05-2.87784E-05-4.54621E-07 2.84519E-19-4.57410E-20
 -1      4138 8.69088E-05-2.29656E-05-2.73208E-05-7.10531E-06 9.92126E-19-2.09361E-18
 -1      4139 9.58191E-05-2.88180E-05-2.87141E-05-4.47556E-07 7.80568E-20 1.08220E-19
 -1      4140 9.59547E-05-2.89191E-05-2.87292E-05-4.46457E-07 4.42052E-19 1.33095E-19
 -1      4141 9.60636E-05-2.89782E-05-2.87539E-05-3.17612E-07 2.62160E-19-2.55584E-19
 -1      4142 9.68105E-05-2.77374E-05-2.96018E-05 6.42430E-08-5.76550E-19-1.37429E-18
 -1      4143 9.68758E-05-2.81454E-05-2.94583E-05 1.69946E-07-4.77596E-19-1.28972E-18
 -1      4144 9.69219E-05-2.82685E-05-2.94238E-05 9.70615E-08-3.03711E-19-1.32226E-18
 -1      4145 9.65198E-05-2.67312E-05-2.99106E-05-1.11527E-07-3.33347E-19-1.42392E-18
 -1      4146 9.66976E-05-2.73298E-05-2.97307E-05 3.43197E-08-5.82215E-19-1.50764E-18
 -1      4147 9.67816E-05-2.75184E-05-2.96836E-05 2.78200E-08-4.37036E-19-1.19403E-18
 -1      4148 9.64807E-05-2.65637E-05-2.99647E-05-6.32960E-08-5.28381E-19-1.55614E-18
 -1      4149 8.76766E-05-2.43218E-05-2.71333E-05-8.90307E-06 8.21215E-19-2.63583E-18
 -1      4150 9.63228E-05-2.61603E-05-3.00588E-05 1.82155E-07 2.63548E-19-1.60936E-18
 -1      4151 9.51669E-05-2.82400E-05-2.86835E-05-4.35169E-07 1.83891E-19 3.22886E-20
 -1      4152 9.53349E-05-2.84029E-05-2.86856E-05-4.30081E-07 4.37602E-20 2.94528E-19
 -1      4153 9.50738E-05-2.81504E-05-2.86809E-05-2.64221E-07 8.41135E-20-1.89417E-19
 -1      4154 8.67504E-05-2.48271E-05-2.64926E-05-1.19014E-05-1.52095E-19-2.58827E-18
 -1      4155 8.60558E-05-2.29385E-05-2.70100E-05 7.81541E-06 1.41832E-19 9.25863E-21
 -1      4156 9.66729E-05-2.73282E-05-2.97137E-05-3.89130E-08 1.71227E-19-1.59864E-18
 -1      4157 9.65188E-05-2.67975E-05-2.98861E-05 1.10780E-07 2.37530E-19-1.65492E-18
 -1      4158 9.65167E-05-2.66761E-05-2.99329E-05 5.81702E-08 7.13357E-20-1.54159E-18
 -1      4159 9.13523E-05-2.81575E-05-2.71316E-05-1.16059E-05 1.56992E-19-3.49233E-18
 -1      4160 8.80240E-05-2.69480E-05-2.62168E-05-1.43065E-05-9.02024E-20-2.54040E-18
 -1      4161 9.17752E-05-3.03746E-05-2.62339E-05-1.64975E-05-1.69799E-19-3.62623E-18
 -1      4162 9.37597E-05-2.98307E-05-2.73638E-05-1.12125E-05-7.52817E-20-4.97126E-18
 -1      4163 9.67566E-05-2.89881E-05-2.90439E-05-4.30415E-07-2.21465E-19-1.13129E-18
 -1      4164 9.68226E-05-2.88508E-05-2.91286E-05-3.80106E-07-1.32549E-19-1.13900E-18
 -1      4165 9.63376E-05-2.91118E-05-2.88148E-05-3.25127E-07-7.01283E-20-8.53226E-19
 -1      4166 9.63543E-05-2.91181E-05-2.88148E-05-4.64410E-07 1.29949E-19-4.07151E-19
 -1      4167 9.64690E-05-2.91355E-05-2.88558E-05-4.54965E-07-9.66783E-20-7.86040E-19
 -1      4168 9.54357E-05-2.84865E-05-2.86932E-05-2.89254E-07-3.10025E-21 8.16783E-20
 -1      4169 9.68513E-05-2.82089E-05-2.94147E-05-2.43210E-07 9.95561E-20-1.13830E-18
 -1      4170 9.67869E-05-2.78229E-05-2.95583E-05-1.13645E-07 1.30565E-19-1.39806E-18
 -1      4171 9.68155E-05-2.77269E-05-2.96105E-05-6.83662E-08-7.37981E-20-1.14726E-18
 -1      4172 9.57642E-05-2.87657E-05-2.87156E-05-3.05540E-07 1.22517E-19-3.70225E-20
 -1      4173 8.79721E-05-2.44775E-05-2.72404E-05 8.08588E-06 4.00923E-19 3.47747E-20
 -1      4174 9.65805E-05-2.91250E-05-2.89092E-05-4.60293E-07-2.03168E-19-9.69653E-19
 -1      4175 9.66768E-05-2.90776E-05-2.89691E-05-4.35503E-07-2.74544E-19-1.08112E-18
 -1      4176 9.67771E-05-2.90351E-05-2.90362E-05-3.03927E-07-2.42262E-19-1.20400E-18
 -1      4177 9.65816E-05-2.91435E-05-2.89062E-05-3.23411E-07-3.10305E-19-1.36352E-18
 -1      4178 9.54288E-05-3.22106E-05-2.70726E-05-1.37545E-05-3.22488E-19-4.37553E-18
 -1      4179 9.25954E-05-2.94222E-05-2.70360E-05 1.21356E-05 6.59529E-19-6.41975E-19
 -1      4180 9.16455E-05-2.78142E-05-2.73105E-05 9.86138E-06 7.34626E-19-5.11514E-19
 -1      4181 9.65073E-05-2.66075E-05-2.99606E-05 1.76763E-08-2.88649E-19-1.48786E-18
 -1      4182 9.31024E-05-2.64569E-05-2.85677E-05 8.28219E-07 3.08536E-19 2.50386E-19
 -1      4183 9.34662E-05-2.67268E-05-2.85989E-05 6.26420E-07 6.16992E-19 6.07409E-19
 -1      4184 9.58911E-05-3.18291E-05-2.74763E-05-1.16852E-05 4.03017E-19-4.39680E-18
 -1      4185 9.68176E-05-2.90629E-05-2.90360E-05-7.03537E-08-1.54180E-19-8.88984E-19
 -1      4186 9.67241E-05-2.91343E-05-2.89637E-05-6.09205E-08-2.07881E-19-1.03248E-18
 -1      4187 9.66138E-05-2.91585E-05-2.89073E-05-6.99517E-08-2.48363E-19-1.01902E-18
 -1      4188 9.64919E-05-2.91558E-05-2.88554E-05-6.38993E-08-4.68684E-19-9.85773E-19
 -1      4189 9.63607E-05-2.91179E-05-2.88163E-05-6.63405E-08-3.10737E-19-7.15817E-19
 -1      4190 9.62216E-05-2.90616E-05-2.87804E-05-6.08872E-08-5.77317E-20-7.70505E-19
 -1      4191 9.60777E-05-2.89791E-05-2.87550E-05-5.91160E-08 1.61964E-19-7.41196E-19
 -1      4192 9.59275E-05-2.88834E-05-2.87313E-05-5.13608E-08 3.46196E-19-6.27388E-19
 -1      4193 9.57687E-05-2.87642E-05-2.87154E-05-4.57857E-08 1.67444E-19-6.49717E-19
 -1      4194 9.56091E-05-2.86380E-05-2.87005E-05-3.23200E-08 7.86186E-20-6.79215E-19
 -1      4195 9.54351E-05-2.84890E-05-2.86914E-05-2.13439E-08 1.09429E-19-7.29968E-19
 -1      4196 9.52652E-05-2.83381E-05-2.86821E-05 2.36701E-09 6.19932E-20-5.67280E-19
 -1      4197 9.50737E-05-2.81648E-05-2.86765E-05 2.27573E-08 3.36820E-20-4.53128E-19
 -1      4198 9.48910E-05-2.79931E-05-2.86697E-05 6.31065E-08-1.43950E-19-3.17919E-19
 -1      4199 9.46714E-05-2.77939E-05-2.86642E-05 1.01098E-07 9.23950E-21-1.24228E-19
 -1      4200 9.44732E-05-2.76051E-05-2.86567E-05 1.67447E-07-1.78868E-19 2.78819E-19
 -1      4201 9.42160E-05-2.73799E-05-2.86476E-05 2.36237E-07-3.95664E-20 5.92213E-19
 -1      4202 9.40010E-05-2.71793E-05-2.86360E-05 3.42019E-07 2.89144E-19 5.73477E-19
 -1      4203 9.36955E-05-2.69293E-05-2.86187E-05 4.62147E-07 3.19241E-19 5.63603E-19
 -1      4204 9.28684E-05-2.62701E-05-2.85352E-05 1.07716E-06-2.31609E-19 3.20300E-19
 -1      4205 9.24394E-05-2.59926E-05-2.84824E-05 1.40394E-06-6.20443E-19 7.91601E-19
 -1      4206 9.22222E-05-2.58519E-05-2.84320E-05 1.77205E-06-1.89055E-19 3.10418E-19
 -1      4207 9.17289E-05-2.55919E-05-2.83480E-05 2.28326E-06-3.00063E-20 5.95803E-20
 -1      4208 9.15697E-05-2.55473E-05-2.82744E-05 2.81344E-06-4.38005E-20 1.23424E-19
 -1      4209 9.10276E-05-2.53492E-05-2.81466E-05 3.58816E-06-1.15234E-19-3.30485E-19
 -1      4210 9.10047E-05-2.54828E-05-2.80463E-05 4.32729E-06-5.03646E-19-8.10663E-19
 -1      4211 9.04271E-05-2.54183E-05-2.78487E-05 5.52481E-06-7.23522E-20-6.95202E-19
 -1      4212 9.06536E-05-2.58730E-05-2.77205E-05 6.51928E-06 2.74702E-19-4.46835E-19
 -1      4213 9.09088E-05-2.67567E-05-2.74564E-05 8.55873E-06 5.15233E-19-6.45190E-19
 -1      4214 9.66993E-05-2.71608E-05-2.97973E-05-2.25775E-08-2.95264E-19-1.30184E-18
 -1      4215 9.69399E-05-2.87777E-05-2.92117E-05-6.53081E-08-4.31163E-20-9.29489E-19
 -1      4216 9.68943E-05-2.89529E-05-2.91142E-05-5.09670E-08-1.09194E-19-8.32894E-19
 -1      4217 9.69217E-05-2.80479E-05-2.95141E-05-4.44696E-08-2.44423E-19-9.81470E-19
 -1      4218 9.69583E-05-2.83985E-05-2.93844E-05-1.24393E-08-1.61260E-19-1.00527E-18
 -1      4219 9.68136E-05-2.75960E-05-2.96671E-05 1.30238E-08-2.13287E-19-1.13720E-18
 -1      4220 9.68510E-05-2.87040E-05-2.92062E-05-3.59408E-07-3.85258E-20-1.10132E-18
 -1      4221 9.68637E-05-2.84576E-05-2.93179E-05-2.77922E-07 7.58017E-20-1.15405E-18
 -1      4222 9.69188E-05-2.84064E-05-2.93642E-05-1.66428E-07-9.46019E-20-7.86655E-19
 -1      4223 9.68918E-05-2.87866E-05-2.91912E-05-2.50319E-07-6.30796E-20-8.94892E-19
 -1      4224 9.69630E-05-2.86074E-05-2.92910E-05-4.41299E-08-6.81933E-20-9.40682E-19
 -3
    1PSTEP                         4           1           1          
  100CL  101 1.000000000        4224                     0    1           1
 -4  ERROR       1    1
 -5  STR(%)      1    1    0    0
 -1         1 2.96455E+01
 -1         2 2.47554E+01
 -1         3 6.52840E-02
 -1         4 2.33876E-02
 -1         5 1.40406E+01
 -1         6 1.31447E+01
 -1         7 1.31447E+01
 -1         8 3.66301E+00
 -1         9 1.82279E+00
 -1        10 1.29111E+00
 -1        11 1.04551E+00
 -1        12 8.98990E-01
 -1        13 8.08672E-01
 -1        14 7.54023E-01
 -1        15 7.55969E-01
 -1        16 8.12970E-01
 -1        17 9.00515E-01
 -1        18 1.05211E+00
 -1        19 1.30712E+00
 -1        20 1.83472E+00
 -1        21 3.50479E+00
 -1        22 8.64207E+00
 -1        23 1.31447E+01
 -1        24 4.31936E+00
 -1        25 3.34307E+00
 -1        26 2.11380E+00
 -1        27 1.36540E+00
 -1        28 1.01682E+00
 -1        29 7.78778E-01
 -1        30 6.00176E-01
 -1        31 4.61481E-01
 -1        32 3.54182E-01
 -1        33 2.76946E-01
 -1        34 2.15392E-01
 -1        35 1.67359E-01
 -1        36 1.30688E-01
 -1        37 1.03270E-01
 -1        38 8.89341E-02
 -1        39 8.97545E-02
 -1        40 9.74442E-02
 -1        41 1.06837E-01
 -1        42 1.14979E-01
 -1        43 1.30026E-01
 -1        44 1.69852E-01
 -1        45 2.07925E-01
 -1        46 2.33470E-01
 -1        47 2.56279E-01
 -1        48 3.20020E-01
 -1        49 3.80344E-01
 -1        50 5.81183E-01
 -1        51 7.77894E-01
 -1        52 1.11341E+00
 -1        53 1.60894E+00
 -1        54 2.08779E+00
 -1        55 2.37358E+00
 -1        56 2.37358E+00
 -1        57 2.40161E+00
 -1        58 2.40161E+00
 -1        59 2.24662E+00
 -1        60 1.84246E+00
 -1        61 1.32049E+00
 -1        62 8.86349E-01
 -1        63 6.44985E-01
 -1        64 4.34341E-01
 -1        65 2.71932E-01
 -1        66 1.99487E-01
 -1        67 1.72569E-01
 -1        68 1.37155E-01
 -1        69 1.32091E-01
 -1        70 1.18167E-01
 -1        71 9.65145E-02
 -1        72 1.40406E+01
 -1        73 3.39592E+00
 -1        74 2.41470E+00
 -1        75 1.66779E+00
 -1        76 1.14707E+00
 -1        77 9.08090E-01
 -1        78 7.34626E-01
 -1        79 5.96597E-01
 -1        80 4.68667E-01
 -1        81 3.72384E-01
 -1        82 3.00230E-01
 -1        83 2.42164E-01
 -1        84 1.95818E-01
 -1        85 1.60670E-01
 -1        86 1.40105E-01
 -1        87 1.25105E-01
 -1        88 1.39522E-01
 -1        89 1.66864E-01
 -1        90 2.09084E-01
 -1        91 2.69181E-01
 -1        92 3.73909E-01
 -1        93 5.08776E-01
 -1        94 7.11555E-01
 -1        95 9.80767E-01
 -1        96 1.31469E+00
 -1        97 1.68193E+00
 -1        98 1.99735E+00
 -1        99 2.26348E+00
 -1       100 3.31154E+00
 -1       101 3.96258E+00
 -1       102 4.21274E+00
 -1       103 4.28306E+00
 -1       104 8.47011E+00
 -1       105 1.19070E+01
 -1       106 1.24395E+01
 -1       107 1.24395E+01
 -1       108 6.20698E+00
 -1       109 3.87626E+00
 -1       110 4.62613E+00
 -1       111 4.62613E+00
 -1       112 4.11282E+00
 -1       113 3.30751E+00
 -1       114 2.60102E+00
 -1       115 1.80272E+00
 -1       116 1.24289E+00
 -1       117 8.95082E-01
 -1       118 6.57809E-01
 -1       119 4.43025E-01
 -1       120 2.56835E-01
 -1       121 1.08202E-01
 -1       122 1.08202E-01
 -1       123 6.99463E-02
 -1       124 4.99309E-02
 -1       125 8.00355E-02
 -1       126 8.68191E-02
 -1       127 8.68191E-02
 -1       128 7.60552E-02
 -1       129 5.35071E-02
 -1       130 2.69367E-02
 -1       131 1.69765E-02
 -1       132 2.71057E-02
 -1       133 3.25839E-02
 -1       134 3.40749E-02
 -1       135 4.83630E-02
 -1       136 5.14334E-02
 -1       137 2.49191E+01
 -1       138 2.60213E+01
 -1       139 3.30145E+01
 -1       140 3.28893E+01
 -1       141 1.39981E+01
 -1       142 1.29252E+01
 -1       143 1.29252E+01
 -1       144 1.33133E+01
 -1       145 1.33133E+01
 -1       146 1.32283E+01
 -1       147 2.70639E+01
 -1       148 2.84800E+01
 -1       149 2.83360E+01
 -1       150 2.64093E+01
 -1       151 2.58480E+01
 -1       152 2.40608E+01
 -1       153 2.96455E+01
 -1       154 2.58129E+01
 -1       155 1.21796E+01
 -1       156 1.22526E+01
 -1       157 1.22526E+01
 -1       158 1.20899E+01
 -1       159 1.20899E+01
 -1       160 1.18111E+01
 -1       161 1.83691E+01
 -1       162 4.68866E+01
 -1       163 4.68866E+01
 -1       164 2.38551E+01
 -1       165 6.07729E+00
 -1       166 2.29717E+00
 -1       167 1.50769E+00
 -1       168 1.15705E+00
 -1       169 9.72905E-01
 -1       170 8.63976E-01
 -1       171 7.96042E-01
 -1       172 7.55969E-01
 -1       173 7.99449E-01
 -1       174 8.67075E-01
 -1       175 9.80668E-01
 -1       176 1.17197E+00
 -1       177 1.52689E+00
 -1       178 2.26009E+00
 -1       179 3.93074E+00
 -1       180 1.40406E+01
 -1       181 4.31936E+00
 -1       182 3.34307E+00
 -1       183 2.11380E+00
 -1       184 1.44948E+00
 -1       185 1.02827E+00
 -1       186 7.78778E-01
 -1       187 6.00176E-01
 -1       188 4.72897E-01
 -1       189 3.74096E-01
 -1       190 2.94905E-01
 -1       191 2.38828E-01
 -1       192 1.91179E-01
 -1       193 1.51610E-01
 -1       194 1.19243E-01
 -1       195 9.29087E-02
 -1       196 8.55865E-02
 -1       197 8.97545E-02
 -1       198 9.74442E-02
 -1       199 1.06837E-01
 -1       200 1.14979E-01
 -1       201 1.33724E-01
 -1       202 1.69852E-01
 -1       203 2.07925E-01
 -1       204 2.33470E-01
 -1       205 2.56279E-01
 -1       206 3.20020E-01
 -1       207 3.80344E-01
 -1       208 6.16372E-01
 -1       209 8.92644E-01
 -1       210 1.21142E+00
 -1       211 1.60894E+00
 -1       212 2.08779E+00
 -1       213 2.37358E+00
 -1       214 2.36426E+00
 -1       215 2.40161E+00
 -1       216 2.24662E+00
 -1       217 1.84246E+00
 -1       218 1.39508E+00
 -1       219 1.03094E+00
 -1       220 7.58233E-01
 -1       221 5.00589E-01
 -1       222 2.86642E-01
 -1       223 1.99487E-01
 -1       224 1.72569E-01
 -1       225 1.37155E-01
 -1       226 1.32091E-01
 -1       227 1.18167E-01
 -1       228 9.65145E-02
 -1       229 3.39592E+00
 -1       230 2.41470E+00
 -1       231 1.66779E+00
 -1       232 1.14707E+00
 -1       233 9.08090E-01
 -1       234 7.34626E-01
 -1       235 5.96597E-01
 -1       236 4.68667E-01
 -1       237 3.72384E-01
 -1       238 3.00230E-01
 -1       239 2.42164E-01
 -1       240 1.95818E-01
 -1       241 1.61114E-01
 -1       242 1.40105E-01
 -1       243 1.22497E-01
 -1       244 1.25105E-01
 -1       245 1.39522E-01
 -1       246 1.71355E-01
 -1       247 2.31611E-01
 -1       248 3.33166E-01
 -1       249 4.43680E-01
 -1       250 6.11637E-01
 -1       251 8.31646E-01
 -1       252 1.10072E+00
 -1       253 1.38939E+00
 -1       254 1.68470E+00
 -1       255 2.12160E+00
 -1       256 2.79957E+00
 -1       257 3.31154E+00
 -1       258 3.96258E+00
 -1       259 4.21274E+00
 -1       260 4.69649E+00
 -1       261 8.47011E+00
 -1       262 1.19070E+01
 -1       263 1.24395E+01
 -1       264 6.20698E+00
 -1       265 3.44765E+00
 -1       266 4.05407E+00
 -1       267 4.62613E+00
 -1       268 4.11282E+00
 -1       269 3.30751E+00
 -1       270 2.61268E+00
 -1       271 1.89894E+00
 -1       272 1.34926E+00
 -1       273 9.20808E-01
 -1       274 6.57809E-01
 -1       275 4.43025E-01
 -1       276 2.59644E-01
 -1       277 1.30758E-01
 -1       278 1.30758E-01
 -1       279 9.42258E-02
 -1       280 1.45554E-01
 -1       281 1.66635E-01
 -1       282 1.66635E-01
 -1       283 1.62305E-01
 -1       284 1.33439E-01
 -1       285 8.74295E-02
 -1       286 3.89242E-02
 -1       287 4.85082E-02
 -1       288 5.79462E-02
 -1       289 6.08670E-02
 -1       290 6.08670E-02
 -1       291 6.60636E-02
 -1       292 3.16861E+01
 -1       293 2.52821E+01
 -1       294 3.30145E+01
 -1       295 3.30145E+01
 -1       296 1.39981E+01
 -1       297 1.24410E+01
 -1       298 1.29252E+01
 -1       299 1.23244E+01
 -1       300 1.33133E+01
 -1       301 1.21475E+01
 -1       302 1.32283E+01
 -1       303 2.84800E+01
 -1       304 3.00231E+01
 -1       305 3.00231E+01
 -1       306 3.00012E+01
 -1       307 3.00012E+01
 -1       308 2.40608E+01
 -1       309 2.96455E+01
 -1       310 2.86853E+01
 -1       311 1.21796E+01
 -1       312 1.21721E+01
 -1       313 1.22526E+01
 -1       314 1.14459E+01
 -1       315 1.20899E+01
 -1       316 1.18111E+01
 -1       317 1.05850E+01
 -1       318 2.05086E+01
 -1       319 4.68866E+01
 -1       320 2.93631E+01
 -1       321 3.16861E+01
 -1       322 1.04558E+00
 -1       323 2.47925E+00
 -1       324 7.91318E-01
 -1       325 6.93800E-01
 -1       326 6.31516E-01
 -1       327 5.87534E-01
 -1       328 5.90767E-01
 -1       329 6.34327E-01
 -1       330 7.00929E-01
 -1       331 7.95985E-01
 -1       332 9.31279E-01
 -1       333 1.15909E+00
 -1       334 1.32811E+00
 -1       335 2.20135E+00
 -1       336 1.91493E+00
 -1       337 3.39583E+01
 -1       338 1.73089E+00
 -1       339 1.26944E+00
 -1       340 9.09438E-01
 -1       341 6.58700E-01
 -1       342 5.41969E-01
 -1       343 4.45759E-01
 -1       344 3.61270E-01
 -1       345 2.94905E-01
 -1       346 2.39949E-01
 -1       347 1.92725E-01
 -1       348 1.53324E-01
 -1       349 1.22426E-01
 -1       350 9.53654E-02
 -1       351 7.51701E-02
 -1       352 7.64302E-02
 -1       353 8.13097E-02
 -1       354 8.75526E-02
 -1       355 9.31993E-02
 -1       356 1.09554E-01
 -1       357 1.28341E-01
 -1       358 1.45937E-01
 -1       359 1.49370E-01
 -1       360 1.27040E-01
 -1       361 1.30236E-01
 -1       362 2.85155E-01
 -1       363 4.78044E-01
 -1       364 6.94265E-01
 -1       365 9.70597E-01
 -1       366 1.21887E+00
 -1       367 1.48477E+00
 -1       368 1.67958E+00
 -1       369 1.71859E+00
 -1       370 1.67444E+00
 -1       371 1.71349E+00
 -1       372 1.59055E+00
 -1       373 1.33192E+00
 -1       374 1.10326E+00
 -1       375 8.35300E-01
 -1       376 6.02002E-01
 -1       377 4.03687E-01
 -1       378 2.42636E-01
 -1       379 1.56879E-01
 -1       380 1.26219E-01
 -1       381 1.14659E-01
 -1       382 1.00679E-01
 -1       383 9.30626E-02
 -1       384 1.13182E+00
 -1       385 8.93215E-01
 -1       386 7.06023E-01
 -1       387 5.47390E-01
 -1       388 4.39280E-01
 -1       389 3.72051E-01
 -1       390 3.09635E-01
 -1       391 2.54314E-01
 -1       392 2.09834E-01
 -1       393 1.74437E-01
 -1       394 1.45656E-01
 -1       395 1.26885E-01
 -1       396 1.07113E-01
 -1       397 1.04394E-01
 -1       398 1.10740E-01
 -1       399 1.42518E-01
 -1       400 2.03593E-01
 -1       401 3.18440E-01
 -1       402 4.83223E-01
 -1       403 7.17936E-01
 -1       404 1.04933E+00
 -1       405 1.50112E+00
 -1       406 2.08146E+00
 -1       407 2.75603E+00
 -1       408 3.42630E+00
 -1       409 3.83248E+00
 -1       410 4.53639E+00
 -1       411 5.65673E+00
 -1       412 5.97080E+00
 -1       413 4.41207E+00
 -1       414 7.22093E+00
 -1       415 9.13800E+00
 -1       416 7.67796E+00
 -1       417 9.25371E+00
 -1       418 9.54961E+00
 -1       419 7.59433E+00
 -1       420 5.75925E+00
 -1       421 5.27865E+00
 -1       422 4.55153E+00
 -1       423 3.60174E+00
 -1       424 2.59881E+00
 -1       425 1.81342E+00
 -1       426 1.20576E+00
 -1       427 7.63615E-01
 -1       428 4.28009E-01
 -1       429 2.59644E-01
 -1       430 2.15297E-01
 -1       431 2.71084E-01
 -1       432 2.71084E-01
 -1       433 2.54273E-01
 -1       434 2.54273E-01
 -1       435 2.39030E-01
 -1       436 2.23055E-01
 -1       437 1.65571E-01
 -1       438 9.54119E-02
 -1       439 7.25527E-02
 -1       440 8.12473E-02
 -1       441 8.12473E-02
 -1       442 9.30626E-02
 -1       443 2.39069E+01
 -1       444 3.79991E+01
 -1       445 3.79991E+01
 -1       446 2.10747E+01
 -1       447 3.39583E+01
 -1       448 2.33790E+01
 -1       449 1.16269E+01
 -1       450 9.17999E-01
 -1       451 9.14109E+00
 -1       452 1.08338E+01
 -1       453 1.13411E+01
 -1       454 9.85672E+00
 -1       455 7.11629E+00
 -1       456 1.18144E+01
 -1       457 1.98963E+01
 -1       458 3.00231E+01
 -1       459 3.32863E+01
 -1       460 1.90336E+01
 -1       461 1.07757E+01
 -1       462 6.19680E+00
 -1       463 9.15572E+00
 -1       464 1.12235E+01
 -1       465 1.06400E+01
 -1       466 1.00742E+01
 -1       467 7.91638E+00
 -1       468 8.93777E+00
 -1       469 1.60171E+01
 -1       470 2.93631E+01
 -1       471 2.44505E+01
 -1       472 6.60880E+00
 -1       473 1.22148E+01
 -1       474 1.04950E+00
 -1       475 4.85902E-01
 -1       476 5.09579E-01
 -1       477 4.31564E-01
 -1       478 4.57327E-01
 -1       479 4.86860E-01
 -1       480 5.10877E-01
 -1       481 5.10877E-01
 -1       482 6.07487E-01
 -1       483 8.03109E-01
 -1       484 8.93215E-01
 -1       485 8.74563E-01
 -1       486 7.03912E-01
 -1       487 5.90635E-01
 -1       488 4.78394E-01
 -1       489 3.79669E-01
 -1       490 3.26366E-01
 -1       491 2.76767E-01
 -1       492 2.29760E-01
 -1       493 1.88270E-01
 -1       494 1.53442E-01
 -1       495 1.22426E-01
 -1       496 9.53654E-02
 -1       497 7.16831E-02
 -1       498 5.77215E-02
 -1       499 6.10206E-02
 -1       500 6.55363E-02
 -1       501 7.56368E-02
 -1       502 9.61009E-02
 -1       503 1.12026E-01
 -1       504 1.22763E-01
 -1       505 1.26901E-01
 -1       506 1.56514E-01
 -1       507 2.02917E-01
 -1       508 2.53747E-01
 -1       509 4.11983E-01
 -1       510 5.86563E-01
 -1       511 7.98904E-01
 -1       512 1.02502E+00
 -1       513 1.17015E+00
 -1       514 1.28465E+00
 -1       515 1.31519E+00
 -1       516 1.24940E+00
 -1       517 1.29012E+00
 -1       518 1.31262E+00
 -1       519 1.22493E+00
 -1       520 1.11725E+00
 -1       521 9.28347E-01
 -1       522 7.00631E-01
 -1       523 5.36372E-01
 -1       524 3.77096E-01
 -1       525 2.45749E-01
 -1       526 1.90454E-01
 -1       527 1.49230E-01
 -1       528 1.14659E-01
 -1       529 5.47390E-01
 -1       530 4.39280E-01
 -1       531 3.72051E-01
 -1       532 3.09635E-01
 -1       533 2.54314E-01
 -1       534 2.09834E-01
 -1       535 1.71028E-01
 -1       536 1.37715E-01
 -1       537 1.12586E-01
 -1       538 8.70097E-02
 -1       539 7.64404E-02
 -1       540 8.95204E-02
 -1       541 1.11545E-01
 -1       542 1.76934E-01
 -1       543 2.71500E-01
 -1       544 4.02663E-01
 -1       545 5.84937E-01
 -1       546 8.40428E-01
 -1       547 1.19529E+00
 -1       548 1.68114E+00
 -1       549 2.33362E+00
 -1       550 3.21492E+00
 -1       551 4.31217E+00
 -1       552 5.63714E+00
 -1       553 7.25486E+00
 -1       554 9.43741E+00
 -1       555 9.54961E+00
 -1       556 7.59433E+00
 -1       557 5.75925E+00
 -1       558 4.55153E+00
 -1       559 3.60174E+00
 -1       560 2.59881E+00
 -1       561 1.81342E+00
 -1       562 1.20576E+00
 -1       563 7.63615E-01
 -1       564 3.59772E-01
 -1       565 3.45525E-01
 -1       566 4.39842E-01
 -1       567 4.39842E-01
 -1       568 3.29578E-01
 -1       569 2.68277E-01
 -1       570 1.69586E-01
 -1       571 1.39686E-01
 -1       572 1.18273E-01
 -1       573 1.31105E-01
 -1       574 7.98000E-02
 -1       575 3.79991E+01
 -1       576 2.18083E+01
 -1       577 7.06023E-01
 -1       578 1.58291E+01
 -1       579 9.40787E+00
 -1       580 3.32863E+01
 -1       581 1.05234E+01
 -1       582 2.35000E+01
 -1       583 2.39069E+01
 -1       584 1.40665E+01
 -1       585 3.39583E+01
 -1       586 4.57221E-01
 -1       587 9.54204E+00
 -1       588 6.76635E+00
 -1       589 1.37402E+01
 -1       590 5.80249E+00
 -1       591 2.14361E+01
 -1       592 6.34403E+00
 -1       593 6.51906E+00
 -1       594 4.38887E+00
 -1       595 8.67677E+00
 -1       596 8.02572E+00
 -1       597 2.33790E+01
 -1       598 4.78390E+00
 -1       599 1.13886E+01
 -1       600 1.32847E+00
 -1       601 7.20135E-01
 -1       602 9.30626E-02
 -1       603 3.66594E+00
 -1       604 4.04522E-01
 -1       605 1.89011E+01
 -1       606 4.10581E+00
 -1       607 3.58329E-01
 -1       608 3.42938E-01
 -1       609 3.61712E-01
 -1       610 3.37591E-01
 -1       611 3.56692E+00
 -1       612 4.05134E-01
 -1       613 5.44062E-01
 -1       614 2.72469E-01
 -1       615 3.98492E-01
 -1       616 3.85310E-01
 -1       617 3.44349E-01
 -1       618 2.94406E-01
 -1       619 2.44101E-01
 -1       620 2.12139E-01
 -1       621 1.78308E-01
 -1       622 1.46137E-01
 -1       623 1.18029E-01
 -1       624 9.24932E-02
 -1       625 6.94152E-02
 -1       626 4.83985E-02
 -1       627 3.95533E-02
 -1       628 4.35027E-02
 -1       629 6.24157E-02
 -1       630 8.54637E-02
 -1       631 1.06905E-01
 -1       632 1.26859E-01
 -1       633 1.50171E-01
 -1       634 1.70616E-01
 -1       635 2.34581E-01
 -1       636 3.24022E-01
 -1       637 4.15760E-01
 -1       638 5.86563E-01
 -1       639 7.65355E-01
 -1       640 9.43998E-01
 -1       641 1.07262E+00
 -1       642 1.18368E+00
 -1       643 1.33392E+00
 -1       644 1.33532E+00
 -1       645 1.22913E+00
 -1       646 1.36147E+00
 -1       647 1.26488E+00
 -1       648 1.13817E+00
 -1       649 1.01083E+00
 -1       650 8.83563E-01
 -1       651 7.00631E-01
 -1       652 5.36372E-01
 -1       653 3.77096E-01
 -1       654 2.78906E-01
 -1       655 1.90454E-01
 -1       656 1.49230E-01
 -1       657 3.26307E-01
 -1       658 4.00100E-01
 -1       659 2.35484E-01
 -1       660 1.98695E-01
 -1       661 1.64514E-01
 -1       662 1.33972E-01
 -1       663 1.08632E-01
 -1       664 8.25709E-02
 -1       665 6.12165E-02
 -1       666 6.12553E-02
 -1       667 7.86279E-02
 -1       668 1.28480E-01
 -1       669 1.96200E-01
 -1       670 2.84815E-01
 -1       671 4.02663E-01
 -1       672 6.02099E-01
 -1       673 9.04492E-01
 -1       674 1.33866E+00
 -1       675 1.96298E+00
 -1       676 2.95526E+00
 -1       677 4.25384E+00
 -1       678 6.37765E+00
 -1       679 9.47007E+00
 -1       680 5.16866E-01
 -1       681 9.53856E+00
 -1       682 1.67369E+01
 -1       683 5.50413E+00
 -1       684 3.69691E+00
 -1       685 2.42948E+00
 -1       686 1.63157E+00
 -1       687 1.07233E+00
 -1       688 6.79087E-01
 -1       689 4.05591E-01
 -1       690 5.01974E-01
 -1       691 2.77648E-01
 -1       692 4.56428E-01
 -1       693 2.39730E-01
 -1       694 1.85392E-01
 -1       695 1.79457E-01
 -1       696 6.02844E+00
 -1       697 1.62006E+01
 -1       698 4.65743E-01
 -1       699 7.74349E+00
 -1       700 1.01508E+01
 -1       701 1.17678E+01
 -1       702 1.62044E+01
 -1       703 1.31105E-01
 -1       704 8.28775E+00
 -1       705 3.61712E-01
 -1       706 1.36834E+01
 -1       707 3.62205E-01
 -1       708 6.57311E+00
 -1       709 1.05257E+01
 -1       710 1.50736E+01
 -1       711 5.02358E+00
 -1       712 5.67835E+00
 -1       713 1.05257E+01
 -1       714 2.69648E+00
 -1       715 3.92312E+00
 -1       716 4.16968E-01
 -1       717 3.42475E-01
 -1       718 4.64538E+00
 -1       719 5.27631E-01
 -1       720 5.89596E-01
 -1       721 1.20645E+01
 -1       722 1.22590E+01
 -1       723 3.52746E+00
 -1       724 3.57716E-01
 -1       725 4.27231E-01
 -1       726 1.48899E-01
 -1       727 2.40409E-01
 -1       728 5.52021E+00
 -1       729 1.86638E-01
 -1       730 8.15223E+00
 -1       731 2.66041E-01
 -1       732 2.35084E-01
 -1       733 2.56318E-01
 -1       734 2.49019E-01
 -1       735 2.26626E-01
 -1       736 1.97331E-01
 -1       737 1.70395E-01
 -1       738 1.47660E-01
 -1       739 1.23120E-01
 -1       740 9.84349E-02
 -1       741 7.43522E-02
 -1       742 5.09799E-02
 -1       743 2.90454E-02
 -1       744 2.65541E-02
 -1       745 4.67190E-02
 -1       746 7.30785E-02
 -1       747 1.00740E-01
 -1       748 1.28142E-01
 -1       749 1.59866E-01
 -1       750 2.01544E-01
 -1       751 2.49602E-01
 -1       752 3.25407E-01
 -1       753 4.68201E-01
 -1       754 6.20664E-01
 -1       755 7.65355E-01
 -1       756 9.43998E-01
 -1       757 1.22048E+00
 -1       758 1.18224E+00
 -1       759 1.46843E+00
 -1       760 1.67461E+00
 -1       761 1.60177E+00
 -1       762 1.60497E+00
 -1       763 1.66887E+00
 -1       764 1.28997E+00
 -1       765 1.26890E+00
 -1       766 1.08747E+00
 -1       767 8.83563E-01
 -1       768 6.86504E-01
 -1       769 5.32215E-01
 -1       770 3.81567E-01
 -1       771 2.78906E-01
 -1       772 1.73848E-01
 -1       773 2.52901E-01
 -1       774 2.90234E-01
 -1       775 1.59534E-01
 -1       776 1.31613E-01
 -1       777 1.03950E-01
 -1       778 7.70076E-02
 -1       779 5.24787E-02
 -1       780 3.28708E-02
 -1       781 4.66504E-02
 -1       782 8.96128E-02
 -1       783 1.51840E-01
 -1       784 2.37473E-01
 -1       785 3.58521E-01
 -1       786 5.31231E-01
 -1       787 7.79638E-01
 -1       788 1.14042E+00
 -1       789 1.67459E+00
 -1       790 2.56116E+00
 -1       791 3.85764E+00
 -1       792 5.80845E+00
 -1       793 1.21425E+01
 -1       794 7.94780E+00
 -1       795 2.99915E+00
 -1       796 4.69029E+00
 -1       797 1.26723E+00
 -1       798 8.40897E-01
 -1       799 3.92968E-01
 -1       800 4.24624E-01
 -1       801 2.15278E-01
 -1       802 3.09483E-01
 -1       803 3.86024E+00
 -1       804 2.68582E-01
 -1       805 2.50939E+00
 -1       806 1.90613E+00
 -1       807 3.95689E+00
 -1       808 7.10071E+00
 -1       809 4.90465E+00
 -1       810 3.87992E+00
 -1       811 2.88268E-01
 -1       812 2.82584E-01
 -1       813 3.86866E+00
 -1       814 8.32269E+00
 -1       815 3.15032E+00
 -1       816 1.01279E+01
 -1       817 2.81828E-01
 -1       818 3.58539E+00
 -1       819 3.06755E-01
 -1       820 6.27731E-01
 -1       821 5.85616E-01
 -1       822 6.27731E-01
 -1       823 1.02084E+01
 -1       824 3.16782E+00
 -1       825 2.70948E-01
 -1       826 4.98755E+00
 -1       827 3.16782E+00
 -1       828 2.81684E-01
 -1       829 2.88268E-01
 -1       830 2.89039E-01
 -1       831 1.01279E+01
 -1       832 8.53954E+00
 -1       833 4.93853E+00
 -1       834 2.81386E-01
 -1       835 2.19394E-01
 -1       836 1.49608E-01
 -1       837 6.75597E+00
 -1       838 1.42510E-01
 -1       839 1.74947E-01
 -1       840 1.82461E-01
 -1       841 1.74511E-01
 -1       842 1.57713E-01
 -1       843 1.36456E-01
 -1       844 1.20250E-01
 -1       845 1.01662E-01
 -1       846 8.19412E-02
 -1       847 6.18556E-02
 -1       848 4.71003E-02
 -1       849 4.47463E-02
 -1       850 4.85765E-02
 -1       851 7.04498E-02
 -1       852 9.41320E-02
 -1       853 1.23193E-01
 -1       854 1.64415E-01
 -1       855 2.11316E-01
 -1       856 2.76202E-01
 -1       857 3.67340E-01
 -1       858 4.68201E-01
 -1       859 6.35398E-01
 -1       860 8.43923E-01
 -1       861 1.16864E+00
 -1       862 1.53790E+00
 -1       863 2.51183E+00
 -1       864 2.70769E+00
 -1       865 2.76332E+00
 -1       866 2.18636E+00
 -1       867 3.14861E+00
 -1       868 3.04736E+00
 -1       869 3.16782E+00
 -1       870 2.84699E+00
 -1       871 1.84982E+00
 -1       872 1.22290E+00
 -1       873 9.82347E-01
 -1       874 7.15337E-01
 -1       875 5.32215E-01
 -1       876 3.81567E-01
 -1       877 2.11082E-01
 -1       878 1.09438E-01
 -1       879 8.77230E-02
 -1       880 6.57835E-02
 -1       881 4.96448E-02
 -1       882 5.46616E-02
 -1       883 7.45475E-02
 -1       884 1.27089E-01
 -1       885 1.88751E-01
 -1       886 2.74625E-01
 -1       887 3.91165E-01
 -1       888 5.50644E-01
 -1       889 7.71696E-01
 -1       890 1.08571E+00
 -1       891 1.63347E+00
 -1       892 2.36649E+00
 -1       893 4.77946E+00
 -1       894 2.00689E+00
 -1       895 1.28851E+00
 -1       896 6.12092E-01
 -1       897 6.60002E-01
 -1       898 1.30776E-01
 -1       899 2.70769E+00
 -1       900 3.14861E+00
 -1       901 6.30693E-01
 -1       902 3.48750E+00
 -1       903 1.96446E-01
 -1       904 1.73211E-01
 -1       905 2.89039E-01
 -1       906 2.76332E+00
 -1       907 1.49396E-01
 -1       908 2.36574E+00
 -1       909 6.97779E+00
 -1       910 6.30693E-01
 -1       911 1.60549E-01
 -1       912 4.71587E+00
 -1       913 2.06694E-01
 -1       914 2.17531E-01
 -1       915 2.51183E+00
 -1       916 2.89085E-01
 -1       917 3.29721E+00
 -1       918 6.31427E+00
 -1       919 6.12092E-01
 -1       920 6.35293E+00
 -1       921 8.25345E-01
 -1       922 2.84699E+00
 -1       923 3.31096E+00
 -1       924 2.27517E-01
 -1       925 2.19257E-01
 -1       926 2.00063E-01
 -1       927 1.37793E+00
 -1       928 1.05149E-01
 -1       929 5.41842E+00
 -1       930 1.23460E-01
 -1       931 1.35810E-01
 -1       932 1.34475E-01
 -1       933 1.24653E-01
 -1       934 1.09914E-01
 -1       935 9.59422E-02
 -1       936 8.18112E-02
 -1       937 6.63730E-02
 -1       938 6.03148E-02
 -1       939 5.95371E-02
 -1       940 6.02656E-02
 -1       941 7.04498E-02
 -1       942 9.45351E-02
 -1       943 1.26087E-01
 -1       944 1.62977E-01
 -1       945 2.15396E-01
 -1       946 2.98544E-01
 -1       947 3.98450E-01
 -1       948 5.21804E-01
 -1       949 7.04527E-01
 -1       950 8.85149E-01
 -1       951 1.16864E+00
 -1       952 1.76081E+00
 -1       953 1.64559E+00
 -1       954 9.82347E-01
 -1       955 7.49659E-01
 -1       956 8.22280E-01
 -1       957 8.94142E-02
 -1       958 6.40738E-02
 -1       959 7.15800E-02
 -1       960 9.86515E-02
 -1       961 1.38193E-01
 -1       962 1.91987E-01
 -1       963 2.58702E-01
 -1       964 3.78212E-01
 -1       965 5.52866E-01
 -1       966 8.05249E-01
 -1       967 1.22720E+00
 -1       968 1.71431E+00
 -1       969 3.83372E+00
 -1       970 1.53323E+00
 -1       971 2.17531E-01
 -1       972 1.37793E+00
 -1       973 3.97887E+00
 -1       974 1.60291E-01
 -1       975 1.55497E-01
 -1       976 3.01982E+00
 -1       977 1.37655E-01
 -1       978 2.27517E-01
 -1       979 1.51399E-01
 -1       980 6.25981E-02
 -1       981 7.22530E-02
 -1       982 1.20434E-01
 -1       983 1.19957E-01
 -1       984 1.46412E-01
 -1       985 3.71108E+00
 -1       986 2.02397E+00
 -1       987 2.18717E+00
 -1       988 4.27003E+00
 -1       989 4.08207E+00
 -1       990 9.13214E-01
 -1       991 1.55453E-01
 -1       992 4.27003E+00
 -1       993 1.39756E-01
 -1       994 1.54229E-01
 -1       995 2.42798E+00
 -1       996 1.62286E-01
 -1       997 8.22280E-01
 -1       998 3.03536E+00
 -1       999 1.01811E-01
 -1      1000 1.02737E-01
 -1      1001 9.66956E-02
 -1      1002 8.63188E-02
 -1      1003 7.43320E-02
 -1      1004 7.07167E-02
 -1      1005 6.92471E-02
 -1      1006 6.96268E-02
 -1      1007 7.23764E-02
 -1      1008 8.04488E-02
 -1      1009 9.45351E-02
 -1      1010 1.26087E-01
 -1      1011 1.63814E-01
 -1      1012 2.22418E-01
 -1      1013 2.96520E-01
 -1      1014 4.06113E-01
 -1      1015 5.81380E-01
 -1      1016 7.95148E-01
 -1      1017 1.09089E+00
 -1      1018 1.47251E+00
 -1      1019 1.07382E-01
 -1      1020 2.67320E+00
 -1      1021 1.53323E+00
 -1      1022 1.35127E+00
 -1      1023 1.21814E+00
 -1      1024 1.18943E-01
 -1      1025 8.98628E-02
 -1      1026 7.17453E-02
 -1      1027 1.61137E-01
 -1      1028 2.20744E-01
 -1      1029 3.03048E-01
 -1      1030 4.13641E-01
 -1      1031 5.56339E-01
 -1      1032 8.83180E-01
 -1      1033 1.59789E+00
 -1      1034 7.02812E-02
 -1      1035 1.07784E-01
 -1      1036 1.77969E+00
 -1      1037 1.62286E-01
 -1      1038 8.25949E-02
 -1      1039 9.01252E-02
 -1      1040 6.84460E-02
 -1      1041 6.74713E-02
 -1      1042 9.53153E-02
 -1      1043 3.27950E+00
 -1      1044 3.94507E+00
 -1      1045 1.05293E-01
 -1      1046 1.16531E-01
 -1      1047 2.00645E+00
 -1      1048 2.16864E+00
 -1      1049 9.89168E-02
 -1      1050 2.00645E+00
 -1      1051 9.25824E-02
 -1      1052 9.89168E-02
 -1      1053 1.16764E-01
 -1      1054 1.35127E+00
 -1      1055 2.00225E+00
 -1      1056 1.10904E-01
 -1      1057 8.46130E-02
 -1      1058 9.06872E-02
 -1      1059 8.94934E-02
 -1      1060 8.45114E-02
 -1      1061 7.76649E-02
 -1      1062 7.25565E-02
 -1      1063 7.02705E-02
 -1      1064 7.68130E-02
 -1      1065 9.63655E-02
 -1      1066 1.28929E-01
 -1      1067 1.75582E-01
 -1      1068 2.41183E-01
 -1      1069 3.39599E-01
 -1      1070 5.06962E-01
 -1      1071 7.49025E-01
 -1      1072 1.10835E+00
 -1      1073 1.30512E+00
 -1      1074 1.49781E+00
 -1      1075 2.62000E+00
 -1      1076 9.86675E-02
 -1      1077 2.27841E-01
 -1      1078 1.55674E-01
 -1      1079 8.56406E-02
 -1      1080 3.39599E-01
 -1      1081 5.06962E-01
 -1      1082 7.49025E-01
 -1      1083 1.10835E+00
 -1      1084 1.30512E+00
 -1      1085 7.25565E-02
 -1      1086 8.45114E-02
 -1      1087 7.76649E-02
 -1      1088 6.63483E-02
 -1      1089 5.31187E-02
 -1      1090 7.28407E-02
 -1      1091 6.29656E-02
 -1      1092 2.66873E+00
 -1      1093 9.06872E-02
 -1      1094 8.94934E-02
 -1      1095 7.28407E-02
 -1      1096 9.06872E-02
 -1      1097 8.46130E-02
 -1      1098 1.31447E+01
 -1      1099 8.40388E+00
 -1      1100 2.74290E+00
 -1      1101 1.55695E+00
 -1      1102 1.16831E+00
 -1      1103 9.72252E-01
 -1      1104 8.53831E-01
 -1      1105 7.81347E-01
 -1      1106 7.54996E-01
 -1      1107 7.84470E-01
 -1      1108 8.56743E-01
 -1      1109 9.76313E-01
 -1      1110 1.17962E+00
 -1      1111 1.57092E+00
 -1      1112 2.66976E+00
 -1      1113 6.07343E+00
 -1      1114 1.13413E+01
 -1      1115 1.31447E+01
 -1      1116 8.73205E+00
 -1      1117 3.83121E+00
 -1      1118 2.72844E+00
 -1      1119 1.73960E+00
 -1      1120 1.19111E+00
 -1      1121 8.97801E-01
 -1      1122 6.89477E-01
 -1      1123 5.30828E-01
 -1      1124 4.07831E-01
 -1      1125 3.15564E-01
 -1      1126 2.46169E-01
 -1      1127 1.91376E-01
 -1      1128 1.49024E-01
 -1      1129 1.16979E-01
 -1      1130 9.61021E-02
 -1      1131 8.93443E-02
 -1      1132 9.35993E-02
 -1      1133 1.02141E-01
 -1      1134 1.10908E-01
 -1      1135 1.22503E-01
 -1      1136 1.49939E-01
 -1      1137 1.88888E-01
 -1      1138 2.20697E-01
 -1      1139 2.44874E-01
 -1      1140 2.88149E-01
 -1      1141 3.50182E-01
 -1      1142 4.80764E-01
 -1      1143 6.79539E-01
 -1      1144 9.45650E-01
 -1      1145 1.36117E+00
 -1      1146 1.84836E+00
 -1      1147 2.23068E+00
 -1      1148 2.37358E+00
 -1      1149 2.38760E+00
 -1      1150 2.40161E+00
 -1      1151 2.32412E+00
 -1      1152 2.04454E+00
 -1      1153 1.58148E+00
 -1      1154 1.10342E+00
 -1      1155 7.65667E-01
 -1      1156 5.39663E-01
 -1      1157 3.53137E-01
 -1      1158 2.35710E-01
 -1      1159 1.86028E-01
 -1      1160 1.54862E-01
 -1      1161 1.34623E-01
 -1      1162 1.25129E-01
 -1      1163 1.07341E-01
 -1      1164 5.99511E-02
 -1      1165 1.40406E+01
 -1      1166 8.71826E+00
 -1      1167 2.90531E+00
 -1      1168 2.04124E+00
 -1      1169 1.40743E+00
 -1      1170 1.02758E+00
 -1      1171 8.21358E-01
 -1      1172 6.65612E-01
 -1      1173 5.32632E-01
 -1      1174 4.20526E-01
 -1      1175 3.36307E-01
 -1      1176 2.71197E-01
 -1      1177 2.18991E-01
 -1      1178 1.78244E-01
 -1      1179 1.50387E-01
 -1      1180 1.32605E-01
 -1      1181 1.32313E-01
 -1      1182 1.53193E-01
 -1      1183 1.87974E-01
 -1      1184 2.39133E-01
 -1      1185 3.21545E-01
 -1      1186 4.41343E-01
 -1      1187 6.10166E-01
 -1      1188 8.46161E-01
 -1      1189 1.14773E+00
 -1      1190 1.49831E+00
 -1      1191 1.83964E+00
 -1      1192 2.13041E+00
 -1      1193 2.78751E+00
 -1      1194 3.63706E+00
 -1      1195 4.08766E+00
 -1      1196 4.24790E+00
 -1      1197 6.37658E+00
 -1      1198 1.01886E+01
 -1      1199 1.21732E+01
 -1      1200 1.24395E+01
 -1      1201 9.32322E+00
 -1      1202 5.04162E+00
 -1      1203 4.25120E+00
 -1      1204 4.62613E+00
 -1      1205 4.36948E+00
 -1      1206 3.71016E+00
 -1      1207 2.95426E+00
 -1      1208 2.20187E+00
 -1      1209 1.52280E+00
 -1      1210 1.06899E+00
 -1      1211 7.76446E-01
 -1      1212 5.50417E-01
 -1      1213 3.49930E-01
 -1      1214 1.61059E-01
 -1      1215 8.67430E-02
 -1      1216 1.08202E-01
 -1      1217 8.90741E-02
 -1      1218 5.99386E-02
 -1      1219 6.49832E-02
 -1      1220 8.34273E-02
 -1      1221 8.68191E-02
 -1      1222 8.14372E-02
 -1      1223 6.47812E-02
 -1      1224 4.02219E-02
 -1      1225 2.19566E-02
 -1      1226 2.20411E-02
 -1      1227 2.98448E-02
 -1      1228 3.33294E-02
 -1      1229 4.12189E-02
 -1      1230 4.98982E-02
 -1      1231 3.74105E-02
 -1      1232 2.48372E+01
 -1      1233 2.54702E+01
 -1      1234 2.95179E+01
 -1      1235 3.29519E+01
 -1      1236 2.34437E+01
 -1      1237 1.34616E+01
 -1      1238 1.29252E+01
 -1      1239 1.31193E+01
 -1      1240 1.33133E+01
 -1      1241 1.32708E+01
 -1      1242 2.01461E+01
 -1      1243 2.77720E+01
 -1      1244 2.84080E+01
 -1      1245 2.73727E+01
 -1      1246 2.61286E+01
 -1      1247 2.49544E+01
 -1      1248 2.68531E+01
 -1      1249 2.96455E+01
 -1      1250 2.77292E+01
 -1      1251 1.89963E+01
 -1      1252 1.22161E+01
 -1      1253 1.22526E+01
 -1      1254 1.21713E+01
 -1      1255 1.20899E+01
 -1      1256 1.19505E+01
 -1      1257 1.50901E+01
 -1      1258 3.26278E+01
 -1      1259 4.68866E+01
 -1      1260 3.53708E+01
 -1      1261 2.43052E+01
 -1      1262 1.31447E+01
 -1      1263 4.87015E+00
 -1      1264 9.61102E+00
 -1      1265 2.05998E+00
 -1      1266 2.98009E+00
 -1      1267 4.18723E+00
 -1      1268 1.39940E+00
 -1      1269 1.66524E+00
 -1      1270 1.90243E+00
 -1      1271 1.10128E+00
 -1      1272 1.22408E+00
 -1      1273 1.33237E+00
 -1      1274 9.35948E-01
 -1      1275 1.00921E+00
 -1      1276 1.06498E+00
 -1      1277 8.36324E-01
 -1      1278 8.81483E-01
 -1      1279 9.18441E-01
 -1      1280 7.75033E-01
 -1      1281 8.02357E-01
 -1      1282 8.30009E-01
 -1      1283 7.55969E-01
 -1      1284 7.54996E-01
 -1      1285 7.76006E-01
 -1      1286 8.06210E-01
 -1      1287 7.77709E-01
 -1      1288 7.77709E-01
 -1      1289 8.83795E-01
 -1      1290 8.40023E-01
 -1      1291 8.33262E-01
 -1      1292 1.01639E+00
 -1      1293 9.40592E-01
 -1      1294 9.23871E-01
 -1      1295 1.23955E+00
 -1      1296 1.11204E+00
 -1      1297 1.07632E+00
 -1      1298 1.68080E+00
 -1      1299 1.41701E+00
 -1      1300 1.34943E+00
 -1      1301 2.88244E+00
 -1      1302 2.04741E+00
 -1      1303 1.89349E+00
 -1      1304 6.28640E+00
 -1      1305 3.71776E+00
 -1      1306 3.09541E+00
 -1      1307 1.40406E+01
 -1      1308 1.13413E+01
 -1      1309 8.98567E+00
 -1      1310 1.40406E+01
 -1      1311 8.73205E+00
 -1      1312 4.31936E+00
 -1      1313 3.83121E+00
 -1      1314 3.34307E+00
 -1      1315 3.83121E+00
 -1      1316 2.72844E+00
 -1      1317 2.11380E+00
 -1      1318 2.72844E+00
 -1      1319 1.78164E+00
 -1      1320 1.40744E+00
 -1      1321 1.78164E+00
 -1      1322 1.19684E+00
 -1      1323 1.02255E+00
 -1      1324 1.23888E+00
 -1      1325 8.97801E-01
 -1      1326 7.78778E-01
 -1      1327 9.03526E-01
 -1      1328 6.89477E-01
 -1      1329 6.00176E-01
 -1      1330 6.89477E-01
 -1      1331 5.36536E-01
 -1      1332 4.67189E-01
 -1      1333 5.36536E-01
 -1      1334 4.17789E-01
 -1      1335 3.64139E-01
 -1      1336 4.23497E-01
 -1      1337 3.24543E-01
 -1      1338 2.85926E-01
 -1      1339 3.34501E-01
 -1      1340 2.57887E-01
 -1      1341 2.27110E-01
 -1      1342 2.66866E-01
 -1      1343 2.03286E-01
 -1      1344 1.79269E-01
 -1      1345 2.15004E-01
 -1      1346 1.59485E-01
 -1      1347 1.41149E-01
 -1      1348 1.71395E-01
 -1      1349 1.24966E-01
 -1      1350 1.11257E-01
 -1      1351 1.35427E-01
 -1      1352 9.80894E-02
 -1      1353 9.09214E-02
 -1      1354 1.06076E-01
 -1      1355 8.72603E-02
 -1      1356 8.76705E-02
 -1      1357 8.92476E-02
 -1      1358 8.97545E-02
 -1      1359 9.35993E-02
 -1      1360 8.76705E-02
 -1      1361 9.74442E-02
 -1      1362 1.02141E-01
 -1      1363 9.35993E-02
 -1      1364 1.06837E-01
 -1      1365 1.10908E-01
 -1      1366 1.02141E-01
 -1      1367 1.14979E-01
 -1      1368 1.22503E-01
 -1      1369 1.10908E-01
 -1      1370 1.31875E-01
 -1      1371 1.51788E-01
 -1      1372 1.24352E-01
 -1      1373 1.69852E-01
 -1      1374 1.88888E-01
 -1      1375 1.51788E-01
 -1      1376 2.07925E-01
 -1      1377 2.20697E-01
 -1      1378 1.88888E-01
 -1      1379 2.33470E-01
 -1      1380 2.44874E-01
 -1      1381 2.20697E-01
 -1      1382 2.56279E-01
 -1      1383 2.88149E-01
 -1      1384 2.44874E-01
 -1      1385 3.20020E-01
 -1      1386 3.50182E-01
 -1      1387 2.88149E-01
 -1      1388 3.80344E-01
 -1      1389 4.80764E-01
 -1      1390 3.50182E-01
 -1      1391 5.98778E-01
 -1      1392 6.97133E-01
 -1      1393 4.98358E-01
 -1      1394 8.35269E-01
 -1      1395 1.00303E+00
 -1      1396 7.54508E-01
 -1      1397 1.16241E+00
 -1      1398 1.41018E+00
 -1      1399 1.05203E+00
 -1      1400 1.60894E+00
 -1      1401 1.84836E+00
 -1      1402 1.41018E+00
 -1      1403 2.08779E+00
 -1      1404 2.23068E+00
 -1      1405 1.84836E+00
 -1      1406 2.37358E+00
 -1      1407 2.37358E+00
 -1      1408 2.23068E+00
 -1      1409 2.36892E+00
 -1      1410 2.38294E+00
 -1      1411 2.36892E+00
 -1      1412 2.40161E+00
 -1      1413 2.40161E+00
 -1      1414 2.38294E+00
 -1      1415 2.32412E+00
 -1      1416 2.24662E+00
 -1      1417 2.32412E+00
 -1      1418 2.04454E+00
 -1      1419 1.84246E+00
 -1      1420 2.04454E+00
 -1      1421 1.61877E+00
 -1      1422 1.35779E+00
 -1      1423 1.61877E+00
 -1      1424 1.17571E+00
 -1      1425 9.58644E-01
 -1      1426 1.21301E+00
 -1      1427 8.22291E-01
 -1      1428 7.01609E-01
 -1      1429 8.94586E-01
 -1      1430 5.72787E-01
 -1      1431 4.67465E-01
 -1      1432 6.29411E-01
 -1      1433 3.60491E-01
 -1      1434 2.79287E-01
 -1      1435 3.93615E-01
 -1      1436 2.35710E-01
 -1      1437 1.99487E-01
 -1      1438 2.43064E-01
 -1      1439 1.86028E-01
 -1      1440 1.72569E-01
 -1      1441 1.86028E-01
 -1      1442 1.54862E-01
 -1      1443 1.37155E-01
 -1      1444 1.54862E-01
 -1      1445 1.34623E-01
 -1      1446 1.32091E-01
 -1      1447 1.34623E-01
 -1      1448 1.25129E-01
 -1      1449 1.18167E-01
 -1      1450 1.25129E-01
 -1      1451 1.07341E-01
 -1      1452 9.65145E-02
 -1      1453 1.07341E-01
 -1      1454 7.39739E-02
 -1      1455 7.39739E-02
 -1      1456 3.39592E+00
 -1      1457 8.71826E+00
 -1      1458 8.71826E+00
 -1      1459 2.41470E+00
 -1      1460 2.90531E+00
 -1      1461 2.90531E+00
 -1      1462 1.66779E+00
 -1      1463 2.04124E+00
 -1      1464 2.04124E+00
 -1      1465 1.14707E+00
 -1      1466 1.40743E+00
 -1      1467 1.40743E+00
 -1      1468 9.08090E-01
 -1      1469 1.02758E+00
 -1      1470 1.02758E+00
 -1      1471 7.34626E-01
 -1      1472 8.21358E-01
 -1      1473 8.21358E-01
 -1      1474 5.96597E-01
 -1      1475 6.65612E-01
 -1      1476 6.65612E-01
 -1      1477 4.68667E-01
 -1      1478 5.32632E-01
 -1      1479 5.32632E-01
 -1      1480 3.72384E-01
 -1      1481 4.20526E-01
 -1      1482 4.20526E-01
 -1      1483 3.00230E-01
 -1      1484 3.36307E-01
 -1      1485 3.36307E-01
 -1      1486 2.42164E-01
 -1      1487 2.71197E-01
 -1      1488 2.71197E-01
 -1      1489 1.95818E-01
 -1      1490 2.18991E-01
 -1      1491 2.18991E-01
 -1      1492 1.60892E-01
 -1      1493 1.78466E-01
 -1      1494 1.78466E-01
 -1      1495 1.40105E-01
 -1      1496 1.50387E-01
 -1      1497 1.50610E-01
 -1      1498 1.23801E-01
 -1      1499 1.31301E-01
 -1      1500 1.31301E-01
 -1      1501 1.32313E-01
 -1      1502 1.25105E-01
 -1      1503 1.23801E-01
 -1      1504 1.53193E-01
 -1      1505 1.39522E-01
 -1      1506 1.32313E-01
 -1      1507 1.90220E-01
 -1      1508 1.69110E-01
 -1      1509 1.55439E-01
 -1      1510 2.50396E-01
 -1      1511 2.20348E-01
 -1      1512 2.01483E-01
 -1      1513 3.53538E-01
 -1      1514 3.01174E-01
 -1      1515 2.82389E-01
 -1      1516 4.76228E-01
 -1      1517 4.08794E-01
 -1      1518 3.88423E-01
 -1      1519 6.61596E-01
 -1      1520 5.60207E-01
 -1      1521 5.27658E-01
 -1      1522 9.06206E-01
 -1      1523 7.71600E-01
 -1      1524 7.21641E-01
 -1      1525 1.20771E+00
 -1      1526 1.04074E+00
 -1      1527 9.66183E-01
 -1      1528 1.53566E+00
 -1      1529 1.35204E+00
 -1      1530 1.24505E+00
 -1      1531 1.84102E+00
 -1      1532 1.68332E+00
 -1      1533 1.53704E+00
 -1      1534 2.19254E+00
 -1      1535 2.05947E+00
 -1      1536 1.90315E+00
 -1      1537 3.05556E+00
 -1      1538 2.53153E+00
 -1      1539 2.46059E+00
 -1      1540 3.63706E+00
 -1      1541 3.31154E+00
 -1      1542 3.05556E+00
 -1      1543 4.08766E+00
 -1      1544 3.96258E+00
 -1      1545 3.63706E+00
 -1      1546 4.24790E+00
 -1      1547 4.21274E+00
 -1      1548 4.08766E+00
 -1      1549 6.58330E+00
 -1      1550 4.48977E+00
 -1      1551 4.45462E+00
 -1      1552 1.01886E+01
 -1      1553 8.47011E+00
 -1      1554 6.58330E+00
 -1      1555 1.21732E+01
 -1      1556 1.19070E+01
 -1      1557 1.01886E+01
 -1      1558 1.24395E+01
 -1      1559 1.24395E+01
 -1      1560 1.21732E+01
 -1      1561 6.20698E+00
 -1      1562 9.32322E+00
 -1      1563 9.32322E+00
 -1      1564 3.66195E+00
 -1      1565 4.82732E+00
 -1      1566 4.82732E+00
 -1      1567 4.34010E+00
 -1      1568 3.96516E+00
 -1      1569 3.75086E+00
 -1      1570 4.62613E+00
 -1      1571 4.62613E+00
 -1      1572 4.34010E+00
 -1      1573 4.11282E+00
 -1      1574 4.36948E+00
 -1      1575 4.36948E+00
 -1      1576 3.30751E+00
 -1      1577 3.71016E+00
 -1      1578 3.71016E+00
 -1      1579 2.60685E+00
 -1      1580 2.96010E+00
 -1      1581 2.96010E+00
 -1      1582 1.85083E+00
 -1      1583 2.24998E+00
 -1      1584 2.25581E+00
 -1      1585 1.29608E+00
 -1      1586 1.57599E+00
 -1      1587 1.62410E+00
 -1      1588 9.07945E-01
 -1      1589 1.08185E+00
 -1      1590 1.13504E+00
 -1      1591 6.57809E-01
 -1      1592 7.76446E-01
 -1      1593 7.89309E-01
 -1      1594 4.43025E-01
 -1      1595 5.50417E-01
 -1      1596 5.50417E-01
 -1      1597 2.58239E-01
 -1      1598 3.51334E-01
 -1      1599 3.51334E-01
 -1      1600 1.82518E-01
 -1      1601 1.19480E-01
 -1      1602 1.19480E-01
 -1      1603 1.00352E-01
 -1      1604 1.19480E-01
 -1      1605 1.30758E-01
 -1      1606 7.20783E-02
 -1      1607 8.20860E-02
 -1      1608 1.12492E-01
 -1      1609 1.12795E-01
 -1      1610 9.77424E-02
 -1      1611 1.19890E-01
 -1      1612 1.26727E-01
 -1      1613 1.23335E-01
 -1      1614 1.56094E-01
 -1      1615 1.26727E-01
 -1      1616 1.26727E-01
 -1      1617 1.66635E-01
 -1      1618 1.19180E-01
 -1      1619 1.24562E-01
 -1      1620 1.64470E-01
 -1      1621 9.34733E-02
 -1      1622 1.04747E-01
 -1      1623 1.47872E-01
 -1      1624 5.71831E-02
 -1      1625 7.04683E-02
 -1      1626 1.10434E-01
 -1      1627 2.79504E-02
 -1      1628 3.29304E-02
 -1      1629 6.31768E-02
 -1      1630 3.78070E-02
 -1      1631 3.27424E-02
 -1      1632 4.37162E-02
 -1      1633 4.52650E-02
 -1      1634 4.25260E-02
 -1      1635 5.32272E-02
 -1      1636 4.74709E-02
 -1      1637 4.67254E-02
 -1      1638 5.94066E-02
 -1      1639 5.46150E-02
 -1      1640 4.74709E-02
 -1      1641 6.08670E-02
 -1      1642 5.87485E-02
 -1      1643 5.72133E-02
 -1      1644 6.34653E-02
 -1      1645 8.12891E-02
 -1      1646 2.83026E+01
 -1      1647 2.82208E+01
 -1      1648 2.56517E+01
 -1      1649 2.51006E+01
 -1      1650 3.30145E+01
 -1      1651 2.95179E+01
 -1      1652 3.29519E+01
 -1      1653 3.30145E+01
 -1      1654 1.39981E+01
 -1      1655 2.34437E+01
 -1      1656 1.26831E+01
 -1      1657 1.32195E+01
 -1      1658 1.29252E+01
 -1      1659 1.29252E+01
 -1      1660 1.28189E+01
 -1      1661 1.26248E+01
 -1      1662 1.33133E+01
 -1      1663 1.33133E+01
 -1      1664 1.26879E+01
 -1      1665 1.27304E+01
 -1      1666 2.01461E+01
 -1      1667 1.32283E+01
 -1      1668 2.84800E+01
 -1      1669 2.77720E+01
 -1      1670 2.91796E+01
 -1      1671 2.92516E+01
 -1      1672 2.82162E+01
 -1      1673 2.91796E+01
 -1      1674 2.79246E+01
 -1      1675 2.82052E+01
 -1      1676 3.00121E+01
 -1      1677 2.70310E+01
 -1      1678 2.79246E+01
 -1      1679 2.68531E+01
 -1      1680 2.40608E+01
 -1      1681 2.96455E+01
 -1      1682 2.96455E+01
 -1      1683 2.72491E+01
 -1      1684 2.91654E+01
 -1      1685 1.21796E+01
 -1      1686 1.89963E+01
 -1      1687 1.22124E+01
 -1      1688 1.21759E+01
 -1      1689 1.22526E+01
 -1      1690 1.22526E+01
 -1      1691 1.17679E+01
 -1      1692 1.18493E+01
 -1      1693 1.20899E+01
 -1      1694 1.20899E+01
 -1      1695 1.18111E+01
 -1      1696 1.19505E+01
 -1      1697 1.44770E+01
 -1      1698 1.11981E+01
 -1      1699 3.36976E+01
 -1      1700 1.94389E+01
 -1      1701 4.68866E+01
 -1      1702 4.68866E+01
 -1      1703 2.66091E+01
 -1      1704 3.81249E+01
 -1      1705 2.82208E+01
 -1      1706 2.77706E+01
 -1      1707 2.35063E+01
 -1      1708 3.30145E+01
 -1      1709 1.83923E-01
 -1      1710 1.95201E-01
 -1      1711 2.84841E+01
 -1      1712 2.91483E+01
 -1      1713 3.16861E+01
 -1      1714 1.32195E+01
 -1      1715 1.26831E+01
 -1      1716 1.26248E+01
 -1      1717 1.28189E+01
 -1      1718 1.27304E+01
 -1      1719 1.26879E+01
 -1      1720 2.08542E+01
 -1      1721 2.92516E+01
 -1      1722 3.00231E+01
 -1      1723 2.70310E+01
 -1      1724 2.68531E+01
 -1      1725 2.91654E+01
 -1      1726 2.04324E+01
 -1      1727 1.21759E+01
 -1      1728 1.22124E+01
 -1      1729 1.18493E+01
 -1      1730 1.17679E+01
 -1      1731 1.19505E+01
 -1      1732 1.11981E+01
 -1      1733 1.55468E+01
 -1      1734 3.36976E+01
 -1      1735 3.81249E+01
 -1      1736 3.05246E+01
 -1      1737 9.61102E+00
 -1      1738 3.00012E+01
 -1      1739 1.27664E+00
 -1      1740 1.67138E+00
 -1      1741 2.38821E+00
 -1      1742 4.27827E+00
 -1      1743 1.76242E+00
 -1      1744 8.82112E-01
 -1      1745 9.74184E-01
 -1      1746 7.78888E-01
 -1      1747 8.33353E-01
 -1      1748 7.42559E-01
 -1      1749 7.13779E-01
 -1      1750 7.47746E-01
 -1      1751 6.62658E-01
 -1      1752 6.71752E-01
 -1      1753 6.91788E-01
 -1      1754 6.09525E-01
 -1      1755 6.95108E-01
 -1      1756 6.73368E-01
 -1      1757 5.89151E-01
 -1      1758 7.50701E-01
 -1      1759 7.16888E-01
 -1      1760 6.12547E-01
 -1      1761 8.40798E-01
 -1      1762 7.84002E-01
 -1      1763 6.67628E-01
 -1      1764 9.83976E-01
 -1      1765 8.88326E-01
 -1      1766 7.48457E-01
 -1      1767 1.22908E+00
 -1      1768 1.05162E+00
 -1      1769 8.63632E-01
 -1      1770 1.70959E+00
 -1      1771 1.34299E+00
 -1      1772 1.04519E+00
 -1      1773 2.62942E+00
 -1      1774 1.79410E+00
 -1      1775 1.24360E+00
 -1      1776 8.12097E+00
 -1      1777 3.06604E+00
 -1      1778 1.76473E+00
 -1      1779 2.79863E+00
 -1      1780 5.19832E+00
 -1      1781 2.16481E+00
 -1      1782 2.65543E+00
 -1      1783 2.05814E+00
 -1      1784 3.19797E+01
 -1      1785 3.19797E+01
 -1      1786 3.39930E+00
 -1      1787 2.53698E+00
 -1      1788 1.92234E+00
 -1      1789 1.69162E+00
 -1      1790 1.35946E+00
 -1      1791 1.50017E+00
 -1      1792 1.17946E+00
 -1      1793 9.68856E-01
 -1      1794 1.08944E+00
 -1      1795 8.43487E-01
 -1      1796 7.18739E-01
 -1      1797 7.84069E-01
 -1      1798 6.60374E-01
 -1      1799 5.71073E-01
 -1      1800 6.00335E-01
 -1      1801 5.22968E-01
 -1      1802 4.59328E-01
 -1      1803 4.93864E-01
 -1      1804 4.17084E-01
 -1      1805 3.67683E-01
 -1      1806 4.03515E-01
 -1      1807 3.34501E-01
 -1      1808 2.94905E-01
 -1      1809 3.28088E-01
 -1      1810 2.67427E-01
 -1      1811 2.39388E-01
 -1      1812 2.67427E-01
 -1      1813 2.15776E-01
 -1      1814 1.91952E-01
 -1      1815 2.16337E-01
 -1      1816 1.72252E-01
 -1      1817 1.52467E-01
 -1      1818 1.73024E-01
 -1      1819 1.37018E-01
 -1      1820 1.20835E-01
 -1      1821 1.37875E-01
 -1      1822 1.07304E-01
 -1      1823 9.41371E-02
 -1      1824 1.08896E-01
 -1      1825 8.40394E-02
 -1      1826 8.03783E-02
 -1      1827 8.52678E-02
 -1      1828 8.10083E-02
 -1      1829 8.30924E-02
 -1      1830 7.58002E-02
 -1      1831 8.55321E-02
 -1      1832 8.93769E-02
 -1      1833 7.88700E-02
 -1      1834 9.24984E-02
 -1      1835 9.71948E-02
 -1      1836 8.44311E-02
 -1      1837 1.00018E-01
 -1      1838 1.04089E-01
 -1      1839 9.03760E-02
 -1      1840 1.12267E-01
 -1      1841 1.21639E-01
 -1      1842 1.01377E-01
 -1      1843 1.31033E-01
 -1      1844 1.49097E-01
 -1      1845 1.18948E-01
 -1      1846 1.57894E-01
 -1      1847 1.76931E-01
 -1      1848 1.37139E-01
 -1      1849 1.78648E-01
 -1      1850 1.91420E-01
 -1      1851 1.47654E-01
 -1      1852 1.80255E-01
 -1      1853 1.91659E-01
 -1      1854 1.38205E-01
 -1      1855 1.93257E-01
 -1      1856 2.25128E-01
 -1      1857 1.28638E-01
 -1      1858 3.02587E-01
 -1      1859 3.32749E-01
 -1      1860 2.07695E-01
 -1      1861 4.29194E-01
 -1      1862 5.47208E-01
 -1      1863 3.81599E-01
 -1      1864 6.55319E-01
 -1      1865 7.93454E-01
 -1      1866 5.86154E-01
 -1      1867 9.31621E-01
 -1      1868 1.09101E+00
 -1      1869 8.32431E-01
 -1      1870 1.21514E+00
 -1      1871 1.41391E+00
 -1      1872 1.09473E+00
 -1      1873 1.54686E+00
 -1      1874 1.78628E+00
 -1      1875 1.35182E+00
 -1      1876 1.88368E+00
 -1      1877 2.02658E+00
 -1      1878 1.58217E+00
 -1      1879 2.04609E+00
 -1      1880 2.04143E+00
 -1      1881 1.69908E+00
 -1      1882 2.01935E+00
 -1      1883 2.03803E+00
 -1      1884 1.69652E+00
 -1      1885 2.05755E+00
 -1      1886 1.98005E+00
 -1      1887 1.69397E+00
 -1      1888 1.91859E+00
 -1      1889 1.71651E+00
 -1      1890 1.65202E+00
 -1      1891 1.58719E+00
 -1      1892 1.36350E+00
 -1      1893 1.46123E+00
 -1      1894 1.24917E+00
 -1      1895 1.06710E+00
 -1      1896 1.21759E+00
 -1      1897 9.33120E-01
 -1      1898 7.96767E-01
 -1      1899 9.69278E-01
 -1      1900 6.80117E-01
 -1      1901 5.51296E-01
 -1      1902 7.18651E-01
 -1      1903 4.52138E-01
 -1      1904 3.45164E-01
 -1      1905 5.02845E-01
 -1      1906 2.64639E-01
 -1      1907 2.21061E-01
 -1      1908 3.23161E-01
 -1      1909 1.78183E-01
 -1      1910 1.64724E-01
 -1      1911 1.99757E-01
 -1      1912 1.49394E-01
 -1      1913 1.31687E-01
 -1      1914 1.41549E-01
 -1      1915 1.25907E-01
 -1      1916 1.23375E-01
 -1      1917 1.20439E-01
 -1      1918 1.16385E-01
 -1      1919 1.09423E-01
 -1      1920 1.07669E-01
 -1      1921 1.05615E-01
 -1      1922 9.47886E-02
 -1      1923 7.95631E-02
 -1      1924 9.68709E-02
 -1      1925 1.39981E+00
 -1      1926 1.77326E+00
 -1      1927 1.52338E+00
 -1      1928 1.02014E+00
 -1      1929 1.28050E+00
 -1      1930 1.01252E+00
 -1      1931 8.07057E-01
 -1      1932 9.26545E-01
 -1      1933 7.99619E-01
 -1      1934 6.41008E-01
 -1      1935 7.27740E-01
 -1      1936 6.26707E-01
 -1      1937 5.17939E-01
 -1      1938 5.86953E-01
 -1      1939 4.93335E-01
 -1      1940 4.20359E-01
 -1      1941 4.84324E-01
 -1      1942 4.05665E-01
 -1      1943 3.41010E-01
 -1      1944 3.89151E-01
 -1      1945 3.40843E-01
 -1      1946 2.77272E-01
 -1      1947 3.13349E-01
 -1      1948 2.81975E-01
 -1      1949 2.25999E-01
 -1      1950 2.55032E-01
 -1      1951 2.32074E-01
 -1      1952 1.85128E-01
 -1      1953 2.08300E-01
 -1      1954 1.92135E-01
 -1      1955 1.53385E-01
 -1      1956 1.70737E-01
 -1      1957 1.60046E-01
 -1      1958 1.33495E-01
 -1      1959 1.44000E-01
 -1      1960 1.36271E-01
 -1      1961 1.14805E-01
 -1      1962 1.23609E-01
 -1      1963 1.16999E-01
 -1      1964 1.14750E-01
 -1      1965 1.13446E-01
 -1      1966 1.05754E-01
 -1      1967 1.25131E-01
 -1      1968 1.17922E-01
 -1      1969 1.07567E-01
 -1      1970 1.56936E-01
 -1      1971 1.41020E-01
 -1      1972 1.26629E-01
 -1      1973 2.17602E-01
 -1      1974 1.87474E-01
 -1      1975 1.73055E-01
 -1      1976 3.25803E-01
 -1      1977 2.75025E-01
 -1      1978 2.61017E-01
 -1      1979 4.63451E-01
 -1      1980 4.08195E-01
 -1      1981 4.00831E-01
 -1      1982 6.64787E-01
 -1      1983 5.80808E-01
 -1      1984 6.00580E-01
 -1      1985 9.40487E-01
 -1      1986 8.30483E-01
 -1      1987 8.83633E-01
 -1      1988 1.30092E+00
 -1      1989 1.16638E+00
 -1      1990 1.27522E+00
 -1      1991 1.73543E+00
 -1      1992 1.59109E+00
 -1      1993 1.79129E+00
 -1      1994 2.22037E+00
 -1      1995 2.07271E+00
 -1      1996 2.41875E+00
 -1      1997 2.77395E+00
 -1      1998 2.55550E+00
 -1      1999 3.09117E+00
 -1      2000 3.31603E+00
 -1      2001 2.97704E+00
 -1      2002 3.62939E+00
 -1      2003 3.92396E+00
 -1      2004 3.66798E+00
 -1      2005 4.18443E+00
 -1      2006 4.80966E+00
 -1      2007 4.48413E+00
 -1      2008 5.09656E+00
 -1      2009 5.09177E+00
 -1      2010 4.96669E+00
 -1      2011 5.81377E+00
 -1      2012 4.55428E+00
 -1      2013 4.31241E+00
 -1      2014 5.19144E+00
 -1      2015 7.84552E+00
 -1      2016 5.95871E+00
 -1      2017 5.81650E+00
 -1      2018 1.05225E+01
 -1      2019 8.80406E+00
 -1      2020 8.17946E+00
 -1      2021 1.00587E+01
 -1      2022 9.79248E+00
 -1      2023 8.40798E+00
 -1      2024 7.73035E+00
 -1      2025 1.08466E+01
 -1      2026 8.46584E+00
 -1      2027 6.49863E+00
 -1      2028 7.87830E+00
 -1      2029 9.40166E+00
 -1      2030 5.82420E+00
 -1      2031 5.52099E+00
 -1      2032 8.57197E+00
 -1      2033 5.19269E+00
 -1      2034 4.90666E+00
 -1      2035 6.67679E+00
 -1      2036 4.69574E+00
 -1      2037 4.95239E+00
 -1      2038 5.51895E+00
 -1      2039 3.92952E+00
 -1      2040 4.33217E+00
 -1      2041 4.91509E+00
 -1      2042 3.10721E+00
 -1      2043 3.45463E+00
 -1      2044 4.07664E+00
 -1      2045 2.24887E+00
 -1      2046 2.60574E+00
 -1      2047 3.10027E+00
 -1      2048 1.58134E+00
 -1      2049 1.85618E+00
 -1      2050 2.20611E+00
 -1      2051 1.06328E+00
 -1      2052 1.27751E+00
 -1      2053 1.50959E+00
 -1      2054 7.10712E-01
 -1      2055 8.42212E-01
 -1      2056 9.84688E-01
 -1      2057 4.35517E-01
 -1      2058 5.42909E-01
 -1      2059 5.95812E-01
 -1      2060 2.59644E-01
 -1      2061 3.51334E-01
 -1      2062 3.43827E-01
 -1      2063 1.95201E-01
 -1      2064 1.80425E-01
 -1      2065 1.54761E-01
 -1      2066 1.82655E-01
 -1      2067 2.00921E-01
 -1      2068 2.43190E-01
 -1      2069 2.00921E-01
 -1      2070 2.00921E-01
 -1      2071 2.65364E-01
 -1      2072 2.71084E-01
 -1      2073 2.10454E-01
 -1      2074 1.99913E-01
 -1      2075 2.34785E-01
 -1      2076 2.10454E-01
 -1      2077 2.10454E-01
 -1      2078 2.54273E-01
 -1      2079 2.00668E-01
 -1      2080 2.02832E-01
 -1      2081 2.46651E-01
 -1      2082 1.78247E-01
 -1      2083 1.92680E-01
 -1      2084 2.31043E-01
 -1      2085 1.26500E-01
 -1      2086 1.49505E-01
 -1      2087 1.94313E-01
 -1      2088 6.71681E-02
 -1      2089 9.14207E-02
 -1      2090 1.30491E-01
 -1      2091 6.05305E-02
 -1      2092 5.57384E-02
 -1      2093 8.39823E-02
 -1      2094 6.95968E-02
 -1      2095 6.48778E-02
 -1      2096 7.69000E-02
 -1      2097 7.10572E-02
 -1      2098 6.95968E-02
 -1      2099 8.12473E-02
 -1      2100 7.69648E-02
 -1      2101 7.69648E-02
 -1      2102 8.71550E-02
 -1      2103 2.84607E+01
 -1      2104 2.45945E+01
 -1      2105 3.48426E+01
 -1      2106 3.48426E+01
 -1      2107 3.16406E+01
 -1      2108 3.48426E+01
 -1      2109 2.70446E+01
 -1      2110 2.70446E+01
 -1      2111 2.24908E+01
 -1      2112 3.19797E+01
 -1      2113 3.19907E+01
 -1      2114 2.65123E+01
 -1      2115 2.37199E+01
 -1      2116 1.28125E+01
 -1      2117 2.23207E+01
 -1      2118 1.03752E+00
 -1      2119 1.21284E+00
 -1      2120 9.81790E-01
 -1      2121 8.54659E-01
 -1      2122 1.10331E+01
 -1      2123 1.07910E+01
 -1      2124 1.15791E+01
 -1      2125 1.18795E+01
 -1      2126 9.98742E+00
 -1      2127 1.23272E+01
 -1      2128 1.18327E+01
 -1      2129 1.10021E+01
 -1      2130 1.15850E+01
 -1      2131 1.01723E+01
 -1      2132 9.63188E+00
 -1      2133 8.48650E+00
 -1      2134 2.01472E+01
 -1      2135 1.25214E+01
 -1      2136 2.49597E+01
 -1      2137 2.41882E+01
 -1      2138 3.00231E+01
 -1      2139 3.00231E+01
 -1      2140 2.49597E+01
 -1      2141 2.86735E+01
 -1      2142 3.16437E+01
 -1      2143 2.38594E+01
 -1      2144 2.43395E+01
 -1      2145 1.14777E+01
 -1      2146 1.97305E+01
 -1      2147 9.18445E+00
 -1      2148 9.18820E+00
 -1      2149 8.48627E+00
 -1      2150 1.07042E+01
 -1      2151 1.06639E+01
 -1      2152 1.13347E+01
 -1      2153 1.17381E+01
 -1      2154 1.13649E+01
 -1      2155 1.10429E+01
 -1      2156 1.09427E+01
 -1      2157 1.10820E+01
 -1      2158 9.25067E+00
 -1      2159 9.86376E+00
 -1      2160 1.47232E+01
 -1      2161 9.76137E+00
 -1      2162 3.14518E+01
 -1      2163 1.82629E+01
 -1      2164 2.93631E+01
 -1      2165 3.81249E+01
 -1      2166 2.26901E+01
 -1      2167 2.80683E+01
 -1      2168 2.69068E+01
 -1      2169 9.52488E+00
 -1      2170 1.03034E+01
 -1      2171 9.11785E+00
 -1      2172 3.39583E+01
 -1      2173 2.26147E+01
 -1      2174 1.66448E+01
 -1      2175 1.19209E+01
 -1      2176 3.36223E+01
 -1      2177 2.91116E+00
 -1      2178 2.10507E+00
 -1      2179 3.09530E+01
 -1      2180 3.79991E+01
 -1      2181 7.95631E-02
 -1      2182 3.19907E+01
 -1      2183 3.12248E+01
 -1      2184 7.87495E+00
 -1      2185 2.69068E+01
 -1      2186 1.24774E+01
 -1      2187 8.42707E+00
 -1      2188 2.83327E+01
 -1      2189 8.99527E+00
 -1      2190 1.03571E+01
 -1      2191 1.09318E+01
 -1      2192 7.67626E+00
 -1      2193 1.49047E+01
 -1      2194 9.46536E+00
 -1      2195 2.12063E+01
 -1      2196 1.10874E+01
 -1      2197 1.05989E+01
 -1      2198 1.58554E+01
 -1      2199 1.01896E+01
 -1      2200 1.09066E+00
 -1      2201 1.48221E+00
 -1      2202 5.58709E-01
 -1      2203 5.89851E-01
 -1      2204 6.01690E-01
 -1      2205 6.50449E-01
 -1      2206 4.97741E-01
 -1      2207 5.11165E-01
 -1      2208 5.09549E-01
 -1      2209 5.45827E-01
 -1      2210 5.24047E-01
 -1      2211 4.44446E-01
 -1      2212 5.93894E-01
 -1      2213 5.60594E-01
 -1      2214 4.72094E-01
 -1      2215 6.53431E-01
 -1      2216 6.05903E-01
 -1      2217 4.98868E-01
 -1      2218 7.21078E-01
 -1      2219 6.53431E-01
 -1      2220 5.10877E-01
 -1      2221 8.83290E-01
 -1      2222 7.69383E-01
 -1      2223 5.59182E-01
 -1      2224 1.26700E+00
 -1      2225 1.03628E+00
 -1      2226 8.93215E-01
 -1      2227 1.01252E+00
 -1      2228 9.71356E-01
 -1      2229 1.67691E+00
 -1      2230 1.30273E+00
 -1      2231 8.38836E-01
 -1      2232 9.60072E-01
 -1      2233 9.86677E-01
 -1      2234 8.06675E-01
 -1      2235 7.53510E-01
 -1      2236 7.50037E-01
 -1      2237 6.24668E-01
 -1      2238 6.47274E-01
 -1      2239 5.68547E-01
 -1      2240 5.10181E-01
 -1      2241 5.34514E-01
 -1      2242 4.60819E-01
 -1      2243 4.12714E-01
 -1      2244 4.29031E-01
 -1      2245 3.86063E-01
 -1      2246 3.43818E-01
 -1      2247 3.53017E-01
 -1      2248 3.19019E-01
 -1      2249 2.85836E-01
 -1      2250 3.01566E-01
 -1      2251 2.62332E-01
 -1      2252 2.34854E-01
 -1      2253 2.53263E-01
 -1      2254 2.14109E-01
 -1      2255 1.90497E-01
 -1      2256 2.09015E-01
 -1      2257 1.73083E-01
 -1      2258 1.53383E-01
 -1      2259 1.70856E-01
 -1      2260 1.37875E-01
 -1      2261 1.22426E-01
 -1      2262 1.37934E-01
 -1      2263 1.08896E-01
 -1      2264 9.53654E-02
 -1      2265 1.08896E-01
 -1      2266 8.35243E-02
 -1      2267 7.34266E-02
 -1      2268 8.35243E-02
 -1      2269 6.64458E-02
 -1      2270 6.70759E-02
 -1      2271 6.47023E-02
 -1      2272 6.87254E-02
 -1      2273 7.11652E-02
 -1      2274 5.93711E-02
 -1      2275 7.34230E-02
 -1      2276 7.65445E-02
 -1      2277 6.32785E-02
 -1      2278 8.15947E-02
 -1      2279 8.44180E-02
 -1      2280 7.05865E-02
 -1      2281 9.46501E-02
 -1      2282 1.02828E-01
 -1      2283 8.58688E-02
 -1      2284 1.10790E-01
 -1      2285 1.20184E-01
 -1      2286 1.04063E-01
 -1      2287 1.25552E-01
 -1      2288 1.34350E-01
 -1      2289 1.17394E-01
 -1      2290 1.36419E-01
 -1      2291 1.38136E-01
 -1      2292 1.24832E-01
 -1      2293 1.52942E-01
 -1      2294 1.41777E-01
 -1      2295 1.41707E-01
 -1      2296 1.64979E-01
 -1      2297 1.66577E-01
 -1      2298 1.79715E-01
 -1      2299 1.91992E-01
 -1      2300 2.69451E-01
 -1      2301 2.28332E-01
 -1      2302 3.48569E-01
 -1      2303 4.45014E-01
 -1      2304 3.32865E-01
 -1      2305 5.32303E-01
 -1      2306 6.40414E-01
 -1      2307 4.99273E-01
 -1      2308 7.46585E-01
 -1      2309 8.84751E-01
 -1      2310 6.92734E-01
 -1      2311 9.97806E-01
 -1      2312 1.12194E+00
 -1      2313 9.11960E-01
 -1      2314 1.19451E+00
 -1      2315 1.32746E+00
 -1      2316 1.09758E+00
 -1      2317 1.38471E+00
 -1      2318 1.48211E+00
 -1      2319 1.22740E+00
 -1      2320 1.49738E+00
 -1      2321 1.51689E+00
 -1      2322 1.29992E+00
 -1      2323 1.48400E+00
 -1      2324 1.46192E+00
 -1      2325 1.28229E+00
 -1      2326 1.48228E+00
 -1      2327 1.50180E+00
 -1      2328 1.26976E+00
 -1      2329 1.51305E+00
 -1      2330 1.45159E+00
 -1      2331 1.30137E+00
 -1      2332 1.40774E+00
 -1      2333 1.27842E+00
 -1      2334 1.26878E+00
 -1      2335 1.22458E+00
 -1      2336 1.11025E+00
 -1      2337 1.17109E+00
 -1      2338 1.01580E+00
 -1      2339 8.81823E-01
 -1      2340 1.02280E+00
 -1      2341 7.67965E-01
 -1      2342 6.51316E-01
 -1      2343 8.14489E-01
 -1      2344 5.69187E-01
 -1      2345 4.70030E-01
 -1      2346 6.18501E-01
 -1      2347 3.90392E-01
 -1      2348 3.09866E-01
 -1      2349 4.56734E-01
 -1      2350 2.44193E-01
 -1      2351 2.01314E-01
 -1      2352 3.11423E-01
 -1      2353 1.73666E-01
 -1      2354 1.58337E-01
 -1      2355 2.18102E-01
 -1      2356 1.37725E-01
 -1      2357 1.31944E-01
 -1      2358 1.69842E-01
 -1      2359 1.14659E-01
 -1      2360 1.07669E-01
 -1      2361 1.31944E-01
 -1      2362 5.47390E-01
 -1      2363 6.26707E-01
 -1      2364 4.39280E-01
 -1      2365 4.93335E-01
 -1      2366 4.93335E-01
 -1      2367 3.72051E-01
 -1      2368 4.05665E-01
 -1      2369 4.05665E-01
 -1      2370 3.09635E-01
 -1      2371 3.40843E-01
 -1      2372 3.40843E-01
 -1      2373 2.54314E-01
 -1      2374 2.81975E-01
 -1      2375 2.81975E-01
 -1      2376 2.09834E-01
 -1      2377 2.32074E-01
 -1      2378 2.32074E-01
 -1      2379 1.72733E-01
 -1      2380 1.90431E-01
 -1      2381 1.90431E-01
 -1      2382 1.41686E-01
 -1      2383 1.56076E-01
 -1      2384 1.54372E-01
 -1      2385 1.19735E-01
 -1      2386 1.29121E-01
 -1      2387 1.25150E-01
 -1      2388 9.70615E-02
 -1      2389 1.06947E-01
 -1      2390 9.97976E-02
 -1      2391 9.04173E-02
 -1      2392 9.17769E-02
 -1      2393 8.17250E-02
 -1      2394 1.00130E-01
 -1      2395 9.69573E-02
 -1      2396 8.29804E-02
 -1      2397 1.27031E-01
 -1      2398 1.11142E-01
 -1      2399 1.00533E-01
 -1      2400 1.90264E-01
 -1      2401 1.59726E-01
 -1      2402 1.44240E-01
 -1      2403 2.94970E-01
 -1      2404 2.37546E-01
 -1      2405 2.24217E-01
 -1      2406 4.42943E-01
 -1      2407 3.60552E-01
 -1      2408 3.37082E-01
 -1      2409 6.51437E-01
 -1      2410 5.34080E-01
 -1      2411 4.93800E-01
 -1      2412 9.44879E-01
 -1      2413 7.79182E-01
 -1      2414 7.12683E-01
 -1      2415 1.34820E+00
 -1      2416 1.12231E+00
 -1      2417 1.01786E+00
 -1      2418 1.88130E+00
 -1      2419 1.59113E+00
 -1      2420 1.43822E+00
 -1      2421 2.54483E+00
 -1      2422 2.20754E+00
 -1      2423 2.00738E+00
 -1      2424 3.32061E+00
 -1      2425 2.98547E+00
 -1      2426 2.77427E+00
 -1      2427 4.07233E+00
 -1      2428 3.86924E+00
 -1      2429 3.76354E+00
 -1      2430 5.08676E+00
 -1      2431 4.73481E+00
 -1      2432 4.97466E+00
 -1      2433 6.45580E+00
 -1      2434 5.89562E+00
 -1      2435 6.44600E+00
 -1      2436 7.70411E+00
 -1      2437 7.54707E+00
 -1      2438 8.34614E+00
 -1      2439 8.53882E+00
 -1      2440 7.13439E+00
 -1      2441 9.25586E+00
 -1      2442 9.98588E+00
 -1      2443 1.08822E+01
 -1      2444 1.07343E+01
 -1      2445 8.57197E+00
 -1      2446 9.54961E+00
 -1      2447 1.08822E+01
 -1      2448 6.67679E+00
 -1      2449 7.59433E+00
 -1      2450 8.57197E+00
 -1      2451 5.51895E+00
 -1      2452 5.75925E+00
 -1      2453 6.67679E+00
 -1      2454 4.55153E+00
 -1      2455 4.91509E+00
 -1      2456 5.15539E+00
 -1      2457 3.60174E+00
 -1      2458 4.07664E+00
 -1      2459 4.07664E+00
 -1      2460 2.59881E+00
 -1      2461 3.10027E+00
 -1      2462 3.10027E+00
 -1      2463 1.81342E+00
 -1      2464 2.20611E+00
 -1      2465 2.20611E+00
 -1      2466 1.20576E+00
 -1      2467 1.50959E+00
 -1      2468 1.50959E+00
 -1      2469 7.63615E-01
 -1      2470 9.84688E-01
 -1      2471 9.84688E-01
 -1      2472 3.49547E-01
 -1      2473 3.07022E-01
 -1      2474 3.07022E-01
 -1      2475 2.92278E-01
 -1      2476 2.99899E-01
 -1      2477 3.52648E-01
 -1      2478 3.27569E-01
 -1      2479 3.55463E-01
 -1      2480 3.47057E-01
 -1      2481 3.27569E-01
 -1      2482 4.39842E-01
 -1      2483 3.99807E-01
 -1      2484 2.76316E-01
 -1      2485 2.84304E-01
 -1      2486 3.37552E-01
 -1      2487 2.16924E-01
 -1      2488 2.45666E-01
 -1      2489 2.98927E-01
 -1      2490 1.32499E-01
 -1      2491 1.67578E-01
 -1      2492 2.18931E-01
 -1      2493 1.06119E-01
 -1      2494 1.17549E-01
 -1      2495 1.54636E-01
 -1      2496 9.97603E-02
 -1      2497 9.54129E-02
 -1      2498 1.28980E-01
 -1      2499 1.06176E-01
 -1      2500 1.06176E-01
 -1      2501 1.24689E-01
 -1      2502 8.64313E-02
 -1      2503 8.05237E-02
 -1      2504 1.05453E-01
 -1      2505 3.79991E+01
 -1      2506 3.79991E+01
 -1      2507 2.78833E+01
 -1      2508 2.59157E+01
 -1      2509 7.06023E-01
 -1      2510 7.99619E-01
 -1      2511 6.26707E-01
 -1      2512 9.30626E-02
 -1      2513 1.84519E+01
 -1      2514 1.98680E+01
 -1      2515 1.27125E+01
 -1      2516 9.17282E+00
 -1      2517 3.32863E+01
 -1      2518 3.36223E+01
 -1      2519 1.06496E+01
 -1      2520 1.47785E+01
 -1      2521 3.07496E+01
 -1      2522 2.39752E+01
 -1      2523 2.39069E+01
 -1      2524 3.09530E+01
 -1      2525 1.98680E+01
 -1      2526 8.40953E+00
 -1      2527 1.65500E+01
 -1      2528 1.87228E+01
 -1      2529 3.39583E+01
 -1      2530 3.39583E+01
 -1      2531 5.22378E-01
 -1      2532 5.44369E-01
 -1      2533 4.71561E-01
 -1      2534 4.44392E-01
 -1      2535 1.47192E+01
 -1      2536 1.06782E+01
 -1      2537 5.76418E+00
 -1      2538 8.99495E+00
 -1      2539 7.96104E+00
 -1      2540 2.18817E+01
 -1      2541 1.68183E+01
 -1      2542 6.85944E+00
 -1      2543 7.93833E+00
 -1      2544 1.02395E+01
 -1      2545 9.28100E+00
 -1      2546 2.29433E+01
 -1      2547 2.53996E+01
 -1      2548 2.24680E+01
 -1      2549 9.07924E+00
 -1      2550 6.73016E+00
 -1      2551 5.37805E+00
 -1      2552 7.94304E+00
 -1      2553 6.35793E+00
 -1      2554 8.64740E+00
 -1      2555 6.77229E+00
 -1      2556 5.29283E+00
 -1      2557 9.65837E+00
 -1      2558 9.95016E+00
 -1      2559 9.04994E+00
 -1      2560 9.33284E+00
 -1      2561 8.35125E+00
 -1      2562 2.33790E+01
 -1      2563 2.83327E+01
 -1      2564 1.87228E+01
 -1      2565 6.86083E+00
 -1      2566 6.35014E+00
 -1      2567 2.03758E+01
 -1      2568 1.37028E+01
 -1      2569 1.62170E+00
 -1      2570 1.76491E+00
 -1      2571 1.32829E+00
 -1      2572 1.18899E+00
 -1      2573 8.52122E+00
 -1      2574 6.14857E-01
 -1      2575 7.55727E-01
 -1      2576 8.19067E-01
 -1      2577 9.30626E-02
 -1      2578 9.30626E-02
 -1      2579 8.64313E-02
 -1      2580 9.68709E-02
 -1      2581 1.24378E+00
 -1      2582 8.96281E-01
 -1      2583 5.67195E+00
 -1      2584 6.40352E+00
 -1      2585 9.67981E-01
 -1      2586 5.57761E+00
 -1      2587 7.75642E+00
 -1      2588 9.48973E+00
 -1      2589 1.64123E+01
 -1      2590 6.15742E+00
 -1      2591 6.45983E+00
 -1      2592 3.37803E-01
 -1      2593 4.16266E-01
 -1      2594 5.84068E-01
 -1      2595 3.37803E-01
 -1      2596 5.84068E-01
 -1      2597 4.22182E-01
 -1      2598 2.78833E+01
 -1      2599 2.84501E+01
 -1      2600 2.84501E+01
 -1      2601 2.12005E+01
 -1      2602 3.09530E+01
 -1      2603 1.77742E+01
 -1      2604 7.99619E-01
 -1      2605 1.03982E+01
 -1      2606 6.91411E+00
 -1      2607 1.40220E+01
 -1      2608 7.09588E+00
 -1      2609 5.29319E+00
 -1      2610 3.36223E+01
 -1      2611 2.83327E+01
 -1      2612 1.22949E+01
 -1      2613 5.13737E+00
 -1      2614 1.03861E-01
 -1      2615 5.45396E+00
 -1      2616 7.72156E+00
 -1      2617 1.16411E+01
 -1      2618 4.24734E+00
 -1      2619 5.31244E+00
 -1      2620 4.22595E-01
 -1      2621 4.07828E-01
 -1      2622 4.00132E-01
 -1      2623 3.87251E-01
 -1      2624 3.50633E-01
 -1      2625 4.36294E-01
 -1      2626 4.36294E-01
 -1      2627 4.72539E-01
 -1      2628 4.24234E-01
 -1      2629 3.49651E-01
 -1      2630 5.16664E+00
 -1      2631 3.97789E+00
 -1      2632 6.04121E-01
 -1      2633 5.54523E-01
 -1      2634 7.18638E-01
 -1      2635 7.96779E-01
 -1      2636 6.01728E-01
 -1      2637 2.91052E-01
 -1      2638 3.22260E-01
 -1      2639 8.28492E-01
 -1      2640 5.51202E-01
 -1      2641 4.94564E-01
 -1      2642 4.01813E-01
 -1      2643 4.87973E-01
 -1      2644 4.31852E-01
 -1      2645 3.91901E-01
 -1      2646 4.11371E-01
 -1      2647 3.62009E-01
 -1      2648 3.64830E-01
 -1      2649 3.37037E-01
 -1      2650 3.10386E-01
 -1      2651 3.19377E-01
 -1      2652 2.85233E-01
 -1      2653 2.60434E-01
 -1      2654 2.69253E-01
 -1      2655 2.44453E-01
 -1      2656 2.20950E-01
 -1      2657 2.28120E-01
 -1      2658 2.04034E-01
 -1      2659 1.83289E-01
 -1      2660 1.95224E-01
 -1      2661 1.67203E-01
 -1      2662 1.49789E-01
 -1      2663 1.62222E-01
 -1      2664 1.35736E-01
 -1      2665 1.20227E-01
 -1      2666 1.32083E-01
 -1      2667 1.07459E-01
 -1      2668 9.39293E-02
 -1      2669 1.05261E-01
 -1      2670 8.23903E-02
 -1      2671 7.05491E-02
 -1      2672 8.09542E-02
 -1      2673 6.00408E-02
 -1      2674 5.30600E-02
 -1      2675 5.89068E-02
 -1      2676 4.86374E-02
 -1      2677 5.02869E-02
 -1      2678 4.39759E-02
 -1      2679 5.22616E-02
 -1      2680 5.45195E-02
 -1      2681 4.15280E-02
 -1      2682 6.39760E-02
 -1      2683 6.90262E-02
 -1      2684 5.29592E-02
 -1      2685 8.05502E-02
 -1      2686 9.07823E-02
 -1      2687 7.39397E-02
 -1      2688 1.01503E-01
 -1      2689 1.09465E-01
 -1      2690 9.61844E-02
 -1      2691 1.19442E-01
 -1      2692 1.24811E-01
 -1      2693 1.16882E-01
 -1      2694 1.36467E-01
 -1      2695 1.38536E-01
 -1      2696 1.38515E-01
 -1      2697 1.48759E-01
 -1      2698 1.63565E-01
 -1      2699 1.60394E-01
 -1      2700 1.95547E-01
 -1      2701 2.18749E-01
 -1      2702 2.02599E-01
 -1      2703 2.63470E-01
 -1      2704 2.88885E-01
 -1      2705 2.79302E-01
 -1      2706 3.34754E-01
 -1      2707 4.13872E-01
 -1      2708 3.69891E-01
 -1      2709 4.99273E-01
 -1      2710 5.86563E-01
 -1      2711 5.01161E-01
 -1      2712 6.75959E-01
 -1      2713 7.82130E-01
 -1      2714 6.75959E-01
 -1      2715 8.71451E-01
 -1      2716 9.84507E-01
 -1      2717 8.54676E-01
 -1      2718 1.04882E+00
 -1      2719 1.12138E+00
 -1      2720 1.00831E+00
 -1      2721 1.17691E+00
 -1      2722 1.23417E+00
 -1      2723 1.12815E+00
 -1      2724 1.30928E+00
 -1      2725 1.32455E+00
 -1      2726 1.25880E+00
 -1      2727 1.32525E+00
 -1      2728 1.29236E+00
 -1      2729 1.33462E+00
 -1      2730 1.23926E+00
 -1      2731 1.25962E+00
 -1      2732 1.28222E+00
 -1      2733 1.32580E+00
 -1      2734 1.33705E+00
 -1      2735 1.29530E+00
 -1      2736 1.28875E+00
 -1      2737 1.24491E+00
 -1      2738 1.31318E+00
 -1      2739 1.18155E+00
 -1      2740 1.12771E+00
 -1      2741 1.20152E+00
 -1      2742 1.06404E+00
 -1      2743 9.69586E-01
 -1      2744 1.07450E+00
 -1      2745 9.05955E-01
 -1      2746 7.92097E-01
 -1      2747 9.47195E-01
 -1      2748 7.00631E-01
 -1      2749 6.18501E-01
 -1      2750 7.92097E-01
 -1      2751 5.36372E-01
 -1      2752 4.56734E-01
 -1      2753 6.18501E-01
 -1      2754 3.77096E-01
 -1      2755 3.11423E-01
 -1      2756 4.56734E-01
 -1      2757 2.62328E-01
 -1      2758 2.34680E-01
 -1      2759 3.28001E-01
 -1      2760 1.90454E-01
 -1      2761 1.69842E-01
 -1      2762 2.34680E-01
 -1      2763 1.49230E-01
 -1      2764 1.31944E-01
 -1      2765 1.69842E-01
 -1      2766 3.49179E-01
 -1      2767 3.82793E-01
 -1      2768 2.99388E-01
 -1      2769 4.19690E-01
 -1      2770 4.73745E-01
 -1      2771 3.63203E-01
 -1      2772 2.44899E-01
 -1      2773 2.72560E-01
 -1      2774 2.53976E-01
 -1      2775 2.04264E-01
 -1      2776 2.26505E-01
 -1      2777 2.17090E-01
 -1      2778 1.67771E-01
 -1      2779 1.87174E-01
 -1      2780 1.81604E-01
 -1      2781 1.35844E-01
 -1      2782 1.52500E-01
 -1      2783 1.49243E-01
 -1      2784 1.10609E-01
 -1      2785 1.23174E-01
 -1      2786 1.21302E-01
 -1      2787 8.47903E-02
 -1      2788 9.75782E-02
 -1      2789 9.56015E-02
 -1      2790 6.88285E-02
 -1      2791 7.41131E-02
 -1      2792 7.18937E-02
 -1      2793 7.53878E-02
 -1      2794 6.88478E-02
 -1      2795 6.12359E-02
 -1      2796 9.50865E-02
 -1      2797 8.40741E-02
 -1      2798 6.99416E-02
 -1      2799 1.52707E-01
 -1      2800 1.20012E-01
 -1      2801 1.03554E-01
 -1      2802 2.33850E-01
 -1      2803 1.86567E-01
 -1      2804 1.62340E-01
 -1      2805 3.43739E-01
 -1      2806 2.78157E-01
 -1      2807 2.40508E-01
 -1      2808 4.93800E-01
 -1      2809 4.02663E-01
 -1      2810 3.43739E-01
 -1      2811 7.21263E-01
 -1      2812 5.93518E-01
 -1      2813 5.02381E-01
 -1      2814 1.04989E+00
 -1      2815 8.72460E-01
 -1      2816 7.53295E-01
 -1      2817 1.50990E+00
 -1      2818 1.26698E+00
 -1      2819 1.12158E+00
 -1      2820 2.14830E+00
 -1      2821 1.82206E+00
 -1      2822 1.65082E+00
 -1      2823 3.08509E+00
 -1      2824 2.64444E+00
 -1      2825 2.45912E+00
 -1      2826 4.28301E+00
 -1      2827 3.73438E+00
 -1      2828 3.60455E+00
 -1      2829 6.00740E+00
 -1      2830 5.34491E+00
 -1      2831 5.31575E+00
 -1      2832 8.36247E+00
 -1      2833 7.55361E+00
 -1      2834 7.92386E+00
 -1      2835 6.11444E-01
 -1      2836 7.05040E-01
 -1      2837 5.30464E-01
 -1      2838 1.54873E+01
 -1      2839 1.04636E+01
 -1      2840 2.53476E+01
 -1      2841 1.92726E+01
 -1      2842 1.26893E+01
 -1      2843 5.02783E+00
 -1      2844 5.63169E+00
 -1      2845 3.64933E+00
 -1      2846 4.12422E+00
 -1      2847 4.60052E+00
 -1      2848 2.51414E+00
 -1      2849 3.01561E+00
 -1      2850 3.06319E+00
 -1      2851 1.72249E+00
 -1      2852 2.11519E+00
 -1      2853 2.03052E+00
 -1      2854 1.13904E+00
 -1      2855 1.44287E+00
 -1      2856 1.35195E+00
 -1      2857 7.21351E-01
 -1      2858 9.42424E-01
 -1      2859 8.75707E-01
 -1      2860 3.36934E-01
 -1      2861 3.67585E-01
 -1      2862 4.23749E-01
 -1      2863 4.30873E-01
 -1      2864 2.23617E-01
 -1      2865 2.72962E-01
 -1      2866 3.41620E-01
 -1      2867 3.93003E-01
 -1      2868 4.00976E-01
 -1      2869 4.79201E-01
 -1      2870 4.31009E-01
 -1      2871 1.89708E-01
 -1      2872 2.04658E-01
 -1      2873 2.58689E-01
 -1      2874 1.51833E-01
 -1      2875 1.62539E-01
 -1      2876 2.12561E-01
 -1      2877 1.55281E-01
 -1      2878 1.48865E-01
 -1      2879 1.82425E-01
 -1      2880 7.71815E+00
 -1      2881 5.40617E+00
 -1      2882 2.00538E+01
 -1      2883 2.70999E+01
 -1      2884 5.06567E-01
 -1      2885 5.85883E-01
 -1      2886 4.91305E-01
 -1      2887 4.32921E-01
 -1      2888 6.75137E+00
 -1      2889 7.66891E+00
 -1      2890 6.62381E+00
 -1      2891 8.87258E+00
 -1      2892 9.85023E+00
 -1      2893 1.29899E+01
 -1      2894 8.94717E+00
 -1      2895 1.67880E+01
 -1      2896 1.27540E+01
 -1      2897 1.97917E+01
 -1      2898 2.47454E+01
 -1      2899 7.93126E+00
 -1      2900 1.12084E-01
 -1      2901 1.05453E-01
 -1      2902 1.22882E-01
 -1      2903 9.83816E+00
 -1      2904 8.84781E+00
 -1      2905 4.36294E-01
 -1      2906 4.24286E-01
 -1      2907 3.60020E-01
 -1      2908 3.61712E-01
 -1      2909 2.34848E+01
 -1      2910 2.38209E+01
 -1      2911 4.24053E-01
 -1      2912 4.35892E-01
 -1      2913 6.54609E+00
 -1      2914 8.54825E+00
 -1      2915 1.05245E+01
 -1      2916 1.22961E+01
 -1      2917 1.92868E+01
 -1      2918 1.82548E+01
 -1      2919 1.15888E+01
 -1      2920 6.85018E+00
 -1      2921 5.89497E+00
 -1      2922 6.85204E+00
 -1      2923 7.17756E+00
 -1      2924 1.22961E+01
 -1      2925 1.69524E+01
 -1      2926 1.33650E+01
 -1      2927 3.74019E+00
 -1      2928 4.24949E+00
 -1      2929 4.36246E+00
 -1      2930 4.86281E+00
 -1      2931 5.97442E+00
 -1      2932 7.97349E-01
 -1      2933 1.04403E+01
 -1      2934 5.59464E-01
 -1      2935 1.06026E+01
 -1      2936 4.63274E-01
 -1      2937 5.68551E-01
 -1      2938 3.89586E-01
 -1      2939 1.52101E+01
 -1      2940 3.42706E-01
 -1      2941 3.87019E-01
 -1      2942 3.99848E-01
 -1      2943 3.83637E+00
 -1      2944 5.70587E+00
 -1      2945 4.10615E+00
 -1      2946 4.83448E+00
 -1      2947 1.40168E-01
 -1      2948 5.75774E-01
 -1      2949 9.51132E+00
 -1      2950 1.06189E+01
 -1      2951 1.23061E+01
 -1      2952 1.42523E+01
 -1      2953 5.14802E-01
 -1      2954 4.43701E-01
 -1      2955 4.83736E-01
 -1      2956 5.14719E-01
 -1      2957 5.14719E-01
 -1      2958 6.34341E-01
 -1      2959 5.58613E-01
 -1      2960 1.70289E+01
 -1      2961 1.31757E+01
 -1      2962 2.50318E+01
 -1      2963 1.54828E+01
 -1      2964 1.41326E+01
 -1      2965 4.80073E+00
 -1      2966 7.15809E+00
 -1      2967 1.31105E-01
 -1      2968 1.05257E+01
 -1      2969 1.78795E+01
 -1      2970 1.36663E+01
 -1      2971 1.55800E+01
 -1      2972 8.54939E+00
 -1      2973 5.33946E+00
 -1      2974 8.91316E+00
 -1      2975 3.11197E+00
 -1      2976 4.66498E+00
 -1      2977 3.72529E+00
 -1      2978 1.49439E+01
 -1      2979 4.40826E-01
 -1      2980 4.07469E-01
 -1      2981 4.21809E-01
 -1      2982 3.59960E-01
 -1      2983 3.50095E-01
 -1      2984 5.35097E+00
 -1      2985 6.50897E-01
 -1      2986 6.15170E-01
 -1      2987 1.40002E-01
 -1      2988 1.40002E-01
 -1      2989 1.64178E-01
 -1      2990 1.49065E-01
 -1      2991 4.16182E-01
 -1      2992 2.89000E-01
 -1      2993 3.01060E-01
 -1      2994 1.31035E+01
 -1      2995 7.52939E+00
 -1      2996 6.90398E+00
 -1      2997 1.92667E-01
 -1      2998 2.11061E-01
 -1      2999 1.16129E+01
 -1      3000 8.84540E+00
 -1      3001 6.83622E+00
 -1      3002 3.35587E-01
 -1      3003 3.32266E-01
 -1      3004 3.16788E-01
 -1      3005 3.10197E-01
 -1      3006 2.50562E-01
 -1      3007 3.20814E-01
 -1      3008 3.00333E-01
 -1      3009 2.45701E-01
 -1      3010 2.96684E-01
 -1      3011 2.71712E-01
 -1      3012 2.52668E-01
 -1      3013 2.60516E-01
 -1      3014 2.35363E-01
 -1      3015 2.37822E-01
 -1      3016 2.20716E-01
 -1      3017 2.04735E-01
 -1      3018 2.11979E-01
 -1      3019 1.91267E-01
 -1      3020 1.74352E-01
 -1      3021 1.83863E-01
 -1      3022 1.62984E-01
 -1      3023 1.46898E-01
 -1      3024 1.59028E-01
 -1      3025 1.34628E-01
 -1      3026 1.20575E-01
 -1      3027 1.35390E-01
 -1      3028 1.08232E-01
 -1      3029 9.54640E-02
 -1      3030 1.10777E-01
 -1      3031 8.34227E-02
 -1      3032 7.18837E-02
 -1      3033 8.63935E-02
 -1      3034 6.01975E-02
 -1      3035 4.96892E-02
 -1      3036 6.26660E-02
 -1      3037 3.87219E-02
 -1      3038 3.42993E-02
 -1      3039 4.00126E-02
 -1      3040 3.30537E-02
 -1      3041 3.50284E-02
 -1      3042 2.77997E-02
 -1      3043 4.51108E-02
 -1      3044 5.45673E-02
 -1      3045 3.66365E-02
 -1      3046 6.77471E-02
 -1      3047 7.92711E-02
 -1      3048 5.98987E-02
 -1      3049 9.31019E-02
 -1      3050 1.03823E-01
 -1      3051 8.69093E-02
 -1      3052 1.17524E-01
 -1      3053 1.27501E-01
 -1      3054 1.14441E-01
 -1      3055 1.43362E-01
 -1      3056 1.55018E-01
 -1      3057 1.44004E-01
 -1      3058 1.75857E-01
 -1      3059 1.86080E-01
 -1      3060 1.80705E-01
 -1      3061 2.10109E-01
 -1      3062 2.42092E-01
 -1      3063 2.25573E-01
 -1      3064 2.79994E-01
 -1      3065 3.24714E-01
 -1      3066 2.87504E-01
 -1      3067 3.96112E-01
 -1      3068 4.41981E-01
 -1      3069 3.96804E-01
 -1      3070 5.18212E-01
 -1      3071 6.03613E-01
 -1      3072 5.44432E-01
 -1      3073 6.75959E-01
 -1      3074 7.65355E-01
 -1      3075 6.93009E-01
 -1      3076 8.54676E-01
 -1      3077 9.43998E-01
 -1      3078 8.54676E-01
 -1      3079 1.08224E+00
 -1      3080 1.14655E+00
 -1      3081 1.08224E+00
 -1      3082 1.12743E+00
 -1      3083 1.18296E+00
 -1      3084 1.20136E+00
 -1      3085 1.32606E+00
 -1      3086 1.40118E+00
 -1      3087 1.32534E+00
 -1      3088 1.50426E+00
 -1      3089 1.50496E+00
 -1      3090 1.57152E+00
 -1      3091 1.46854E+00
 -1      3092 1.41545E+00
 -1      3093 1.63819E+00
 -1      3094 1.41705E+00
 -1      3095 1.48322E+00
 -1      3096 1.60337E+00
 -1      3097 1.51517E+00
 -1      3098 1.46687E+00
 -1      3099 1.63692E+00
 -1      3100 1.27743E+00
 -1      3101 1.21407E+00
 -1      3102 1.47942E+00
 -1      3103 1.20353E+00
 -1      3104 1.13986E+00
 -1      3105 1.27944E+00
 -1      3106 1.04915E+00
 -1      3107 9.85515E-01
 -1      3108 1.17819E+00
 -1      3109 8.83563E-01
 -1      3110 7.92097E-01
 -1      3111 9.85515E-01
 -1      3112 6.93567E-01
 -1      3113 6.11438E-01
 -1      3114 7.85033E-01
 -1      3115 5.34294E-01
 -1      3116 4.54656E-01
 -1      3117 6.09359E-01
 -1      3118 3.79332E-01
 -1      3119 3.30237E-01
 -1      3120 4.56891E-01
 -1      3121 2.78906E-01
 -1      3122 2.34680E-01
 -1      3123 3.30237E-01
 -1      3124 1.82151E-01
 -1      3125 1.61539E-01
 -1      3126 1.61374E-01
 -1      3127 2.26377E-01
 -1      3128 2.62685E-01
 -1      3129 2.89604E-01
 -1      3130 3.08270E-01
 -1      3131 3.45167E-01
 -1      3132 2.71568E-01
 -1      3133 1.62024E-01
 -1      3134 1.79114E-01
 -1      3135 1.73086E-01
 -1      3136 1.32792E-01
 -1      3137 1.48063E-01
 -1      3138 1.45573E-01
 -1      3139 1.06291E-01
 -1      3140 1.18961E-01
 -1      3141 1.17781E-01
 -1      3142 7.97892E-02
 -1      3143 9.28199E-02
 -1      3144 9.04786E-02
 -1      3145 5.68476E-02
 -1      3146 6.75248E-02
 -1      3147 6.47431E-02
 -1      3148 4.70631E-02
 -1      3149 4.70437E-02
 -1      3150 4.26747E-02
 -1      3151 6.26391E-02
 -1      3152 5.39529E-02
 -1      3153 3.97606E-02
 -1      3154 1.09046E-01
 -1      3155 8.41203E-02
 -1      3156 6.81316E-02
 -1      3157 1.74020E-01
 -1      3158 1.40160E-01
 -1      3159 1.20727E-01
 -1      3160 2.61144E-01
 -1      3161 2.16837E-01
 -1      3162 1.94657E-01
 -1      3163 3.80592E-01
 -1      3164 3.21668E-01
 -1      3165 2.97997E-01
 -1      3166 5.66665E-01
 -1      3167 4.66947E-01
 -1      3168 4.44876E-01
 -1      3169 8.42065E-01
 -1      3170 6.90868E-01
 -1      3171 6.55434E-01
 -1      3172 1.23954E+00
 -1      3173 1.02246E+00
 -1      3174 9.60028E-01
 -1      3175 1.81878E+00
 -1      3176 1.50663E+00
 -1      3177 1.40750E+00
 -1      3178 2.75821E+00
 -1      3179 2.26207E+00
 -1      3180 2.11787E+00
 -1      3181 4.05574E+00
 -1      3182 3.40645E+00
 -1      3183 3.20940E+00
 -1      3184 6.09305E+00
 -1      3185 5.03115E+00
 -1      3186 4.83304E+00
 -1      3187 1.08063E+01
 -1      3188 9.26005E+00
 -1      3189 8.97545E+00
 -1      3190 6.72597E+00
 -1      3191 7.84565E+00
 -1      3192 1.19721E+01
 -1      3193 2.71431E+00
 -1      3194 3.34803E+00
 -1      3195 4.19360E+00
 -1      3196 5.09721E+00
 -1      3197 6.31905E+00
 -1      3198 3.84472E+00
 -1      3199 1.16978E+00
 -1      3200 1.44940E+00
 -1      3201 7.59992E-01
 -1      3202 9.56612E-01
 -1      3203 1.05406E+00
 -1      3204 7.15246E-01
 -1      3205 3.16349E-01
 -1      3206 3.35308E-01
 -1      3207 3.51136E-01
 -1      3208 4.15107E-01
 -1      3209 4.08796E-01
 -1      3210 2.25381E-01
 -1      3211 2.43873E-01
 -1      3212 2.34089E-01
 -1      3213 2.47437E-01
 -1      3214 2.74606E-01
 -1      3215 3.51225E-01
 -1      3216 3.89168E+00
 -1      3217 4.76929E+00
 -1      3218 2.24020E-01
 -1      3219 2.26987E-01
 -1      3220 2.89033E-01
 -1      3221 3.03816E+00
 -1      3222 3.30760E+00
 -1      3223 1.76885E+00
 -1      3224 2.16780E+00
 -1      3225 1.58668E+00
 -1      3226 4.81762E+00
 -1      3227 4.49024E+00
 -1      3228 8.81318E+00
 -1      3229 8.81318E+00
 -1      3230 5.73888E+00
 -1      3231 7.71515E+00
 -1      3232 1.29129E+01
 -1      3233 1.44397E+01
 -1      3234 3.99287E+00
 -1      3235 5.22652E+00
 -1      3236 3.23299E-01
 -1      3237 3.15603E-01
 -1      3238 4.13323E-01
 -1      3239 3.10087E-01
 -1      3240 2.61496E-01
 -1      3241 3.99725E-01
 -1      3242 6.07820E+00
 -1      3243 4.94855E+00
 -1      3244 5.73683E-01
 -1      3245 9.42417E+00
 -1      3246 1.22636E+01
 -1      3247 7.71170E+00
 -1      3248 4.58938E+00
 -1      3249 2.92340E+00
 -1      3250 1.31662E+01
 -1      3251 1.19056E+01
 -1      3252 1.20742E+01
 -1      3253 4.22100E-01
 -1      3254 3.12383E-01
 -1      3255 3.12151E-01
 -1      3256 2.85048E-01
 -1      3257 4.30449E+00
 -1      3258 4.11539E+00
 -1      3259 3.77114E+00
 -1      3260 2.00958E-01
 -1      3261 2.98495E-01
 -1      3262 3.53427E-01
 -1      3263 3.86249E-01
 -1      3264 3.90856E+00
 -1      3265 3.50949E+00
 -1      3266 5.64853E-01
 -1      3267 5.77681E-01
 -1      3268 2.45264E+00
 -1      3269 5.05120E-01
 -1      3270 4.95603E-01
 -1      3271 5.21022E-01
 -1      3272 5.42080E-01
 -1      3273 5.64853E-01
 -1      3274 6.27731E-01
 -1      3275 6.06674E-01
 -1      3276 1.11365E+01
 -1      3277 1.45547E+01
 -1      3278 1.12337E+01
 -1      3279 3.19466E+00
 -1      3280 3.54547E+00
 -1      3281 3.51403E+00
 -1      3282 3.34764E+00
 -1      3283 3.57739E+00
 -1      3284 3.68346E-01
 -1      3285 3.93907E-01
 -1      3286 2.76766E-01
 -1      3287 2.88852E-01
 -1      3288 7.75660E+00
 -1      3289 6.04413E+00
 -1      3290 4.94610E+00
 -1      3291 3.15907E+00
 -1      3292 2.93215E+00
 -1      3293 3.34764E+00
 -1      3294 3.21698E-01
 -1      3295 3.21698E-01
 -1      3296 2.61047E-01
 -1      3297 4.39229E+00
 -1      3298 3.24990E-01
 -1      3299 3.23299E-01
 -1      3300 2.88268E-01
 -1      3301 2.84976E-01
 -1      3302 3.23377E-01
 -1      3303 3.25622E-01
 -1      3304 9.22530E+00
 -1      3305 1.19056E+01
 -1      3306 1.11352E+01
 -1      3307 7.96818E+00
 -1      3308 1.01279E+01
 -1      3309 1.03992E+01
 -1      3310 1.18066E+01
 -1      3311 8.34589E+00
 -1      3312 5.22937E+00
 -1      3313 6.61314E+00
 -1      3314 4.40359E+00
 -1      3315 3.21795E-01
 -1      3316 3.49177E-01
 -1      3317 2.85212E-01
 -1      3318 1.84147E-01
 -1      3319 1.99426E-01
 -1      3320 2.43988E-01
 -1      3321 1.96621E-01
 -1      3322 4.11051E-01
 -1      3323 3.41504E-01
 -1      3324 1.54571E-01
 -1      3325 1.68123E-01
 -1      3326 7.45410E+00
 -1      3327 6.13809E+00
 -1      3328 1.88797E-01
 -1      3329 1.99414E-01
 -1      3330 2.15632E-01
 -1      3331 2.11983E-01
 -1      3332 1.58729E-01
 -1      3333 2.15740E-01
 -1      3334 2.04543E-01
 -1      3335 1.78704E-01
 -1      3336 2.00569E-01
 -1      3337 1.85921E-01
 -1      3338 1.78486E-01
 -1      3339 1.77522E-01
 -1      3340 1.64054E-01
 -1      3341 1.66112E-01
 -1      3342 1.53426E-01
 -1      3343 1.42058E-01
 -1      3344 1.47084E-01
 -1      3345 1.33955E-01
 -1      3346 1.21685E-01
 -1      3347 1.28353E-01
 -1      3348 1.12391E-01
 -1      3349 1.00049E-01
 -1      3350 1.10956E-01
 -1      3351 9.01880E-02
 -1      3352 7.81467E-02
 -1      3353 9.18017E-02
 -1      3354 6.81039E-02
 -1      3355 5.64177E-02
 -1      3356 7.18984E-02
 -1      3357 4.90401E-02
 -1      3358 3.80729E-02
 -1      3359 5.44779E-02
 -1      3360 3.68959E-02
 -1      3361 3.56502E-02
 -1      3362 4.59233E-02
 -1      3363 3.75653E-02
 -1      3364 4.76478E-02
 -1      3365 4.66614E-02
 -1      3366 5.85844E-02
 -1      3367 7.17641E-02
 -1      3368 5.95132E-02
 -1      3369 8.36052E-02
 -1      3370 9.74361E-02
 -1      3371 8.22909E-02
 -1      3372 1.11967E-01
 -1      3373 1.25668E-01
 -1      3374 1.08663E-01
 -1      3375 1.46279E-01
 -1      3376 1.62141E-01
 -1      3377 1.43804E-01
 -1      3378 1.85591E-01
 -1      3379 2.06430E-01
 -1      3380 1.87866E-01
 -1      3381 2.38873E-01
 -1      3382 2.62902E-01
 -1      3383 2.43759E-01
 -1      3384 3.08471E-01
 -1      3385 3.46373E-01
 -1      3386 3.21771E-01
 -1      3387 3.96804E-01
 -1      3388 4.68201E-01
 -1      3389 4.17770E-01
 -1      3390 5.51799E-01
 -1      3391 6.28031E-01
 -1      3392 5.51799E-01
 -1      3393 7.32294E-01
 -1      3394 8.04639E-01
 -1      3395 7.39661E-01
 -1      3396 9.66995E-01
 -1      3397 1.05632E+00
 -1      3398 1.00628E+00
 -1      3399 1.24095E+00
 -1      3400 1.37919E+00
 -1      3401 1.35327E+00
 -1      3402 1.86616E+00
 -1      3403 1.84704E+00
 -1      3404 2.02487E+00
 -1      3405 1.94496E+00
 -1      3406 2.08806E+00
 -1      3407 2.60976E+00
 -1      3408 2.11588E+00
 -1      3409 2.21896E+00
 -1      3410 2.73550E+00
 -1      3411 1.93048E+00
 -1      3412 1.89407E+00
 -1      3413 2.47484E+00
 -1      3414 2.37519E+00
 -1      3415 2.37679E+00
 -1      3416 2.66749E+00
 -1      3417 2.32616E+00
 -1      3418 2.35811E+00
 -1      3419 3.09799E+00
 -1      3420 2.41834E+00
 -1      3421 2.22889E+00
 -1      3422 3.10759E+00
 -1      3423 2.06848E+00
 -1      3424 2.05795E+00
 -1      3425 3.00740E+00
 -1      3426 1.55936E+00
 -1      3427 1.46864E+00
 -1      3428 2.34840E+00
 -1      3429 1.15518E+00
 -1      3430 1.05323E+00
 -1      3431 1.53636E+00
 -1      3432 9.32955E-01
 -1      3433 8.34425E-01
 -1      3434 1.10262E+00
 -1      3435 7.00920E-01
 -1      3436 6.23776E-01
 -1      3437 8.48842E-01
 -1      3438 5.32215E-01
 -1      3439 4.56891E-01
 -1      3440 6.23776E-01
 -1      3441 3.81567E-01
 -1      3442 3.30237E-01
 -1      3443 4.56891E-01
 -1      3444 2.31992E-01
 -1      3445 2.50658E-01
 -1      3446 1.06694E-01
 -1      3447 1.20525E-01
 -1      3448 8.23653E-02
 -1      3449 9.58363E-02
 -1      3450 9.85805E-02
 -1      3451 5.91311E-02
 -1      3452 7.13955E-02
 -1      3453 7.67533E-02
 -1      3454 4.12578E-02
 -1      3455 5.10617E-02
 -1      3456 5.77141E-02
 -1      3457 5.06560E-02
 -1      3458 4.37662E-02
 -1      3459 5.21532E-02
 -1      3460 8.20801E-02
 -1      3461 6.05990E-02
 -1      3462 6.46046E-02
 -1      3463 1.39465E-01
 -1      3464 1.08351E-01
 -1      3465 1.00818E-01
 -1      3466 2.13112E-01
 -1      3467 1.70295E-01
 -1      3468 1.57920E-01
 -1      3469 3.16573E-01
 -1      3470 2.56049E-01
 -1      3471 2.31688E-01
 -1      3472 4.61198E-01
 -1      3473 3.74843E-01
 -1      3474 3.32895E-01
 -1      3475 6.65141E-01
 -1      3476 5.40938E-01
 -1      3477 4.70904E-01
 -1      3478 9.56057E-01
 -1      3479 7.75667E-01
 -1      3480 6.61170E-01
 -1      3481 1.38015E+00
 -1      3482 1.11306E+00
 -1      3483 9.28701E-01
 -1      3484 2.09731E+00
 -1      3485 1.65403E+00
 -1      3486 1.35959E+00
 -1      3487 3.11206E+00
 -1      3488 2.46382E+00
 -1      3489 1.99998E+00
 -1      3490 5.29395E+00
 -1      3491 4.31855E+00
 -1      3492 3.57297E+00
 -1      3493 2.73713E-01
 -1      3494 1.95651E+00
 -1      3495 2.50302E+00
 -1      3496 1.27787E+00
 -1      3497 1.59732E+00
 -1      3498 1.64770E+00
 -1      3499 5.02530E-01
 -1      3500 5.18358E-01
 -1      3501 5.93817E-01
 -1      3502 6.24799E-01
 -1      3503 7.50450E-01
 -1      3504 6.43867E-01
 -1      3505 1.31195E-01
 -1      3506 1.45155E-01
 -1      3507 1.40192E-01
 -1      3508 2.60854E+00
 -1      3509 3.29380E+00
 -1      3510 3.50442E+00
 -1      3511 3.55275E+00
 -1      3512 4.49637E-01
 -1      3513 4.70088E-01
 -1      3514 3.67808E+00
 -1      3515 3.31891E+00
 -1      3516 2.05862E-01
 -1      3517 2.24674E-01
 -1      3518 2.03764E-01
 -1      3519 1.79924E-01
 -1      3520 1.94244E-01
 -1      3521 1.61409E-01
 -1      3522 3.15757E-01
 -1      3523 3.23377E-01
 -1      3524 2.89039E-01
 -1      3525 3.70435E+00
 -1      3526 2.63636E+00
 -1      3527 2.07718E-01
 -1      3528 1.92240E-01
 -1      3529 1.45953E-01
 -1      3530 2.15391E-01
 -1      3531 3.12283E+00
 -1      3532 3.63519E+00
 -1      3533 7.65024E+00
 -1      3534 8.55285E+00
 -1      3535 4.70088E-01
 -1      3536 5.11830E-01
 -1      3537 6.21392E-01
 -1      3538 6.30693E-01
 -1      3539 2.21567E-01
 -1      3540 2.00479E-01
 -1      3541 2.15749E-01
 -1      3542 5.90829E+00
 -1      3543 6.51928E+00
 -1      3544 5.84683E+00
 -1      3545 4.85171E+00
 -1      3546 3.36700E+00
 -1      3547 5.84725E+00
 -1      3548 2.48464E-01
 -1      3549 2.56724E-01
 -1      3550 2.08888E-01
 -1      3551 2.53285E-01
 -1      3552 2.53285E-01
 -1      3553 2.60976E+00
 -1      3554 3.19588E+00
 -1      3555 2.43878E+00
 -1      3556 1.84828E-01
 -1      3557 2.83996E-01
 -1      3558 2.31467E-01
 -1      3559 2.54240E-01
 -1      3560 3.35326E-01
 -1      3561 1.20107E-01
 -1      3562 2.83147E+00
 -1      3563 4.10093E+00
 -1      3564 4.14238E+00
 -1      3565 7.45368E+00
 -1      3566 9.28661E+00
 -1      3567 7.42691E+00
 -1      3568 8.26134E+00
 -1      3569 6.12092E-01
 -1      3570 5.18358E-01
 -1      3571 5.98854E-01
 -1      3572 5.52161E+00
 -1      3573 7.15036E+00
 -1      3574 8.33121E-01
 -1      3575 1.04629E+00
 -1      3576 1.05693E+00
 -1      3577 7.42674E-01
 -1      3578 2.85434E-01
 -1      3579 2.73550E+00
 -1      3580 3.16782E+00
 -1      3581 2.21117E-01
 -1      3582 4.21301E+00
 -1      3583 3.16724E+00
 -1      3584 2.99866E+00
 -1      3585 3.00740E+00
 -1      3586 2.78834E-01
 -1      3587 7.26538E-01
 -1      3588 3.15506E+00
 -1      3589 4.00063E+00
 -1      3590 2.65893E+00
 -1      3591 3.17436E+00
 -1      3592 8.55285E+00
 -1      3593 2.57893E-01
 -1      3594 2.57893E-01
 -1      3595 2.23387E-01
 -1      3596 2.53762E-01
 -1      3597 2.50542E-01
 -1      3598 2.44551E-01
 -1      3599 2.40725E-01
 -1      3600 1.74729E-01
 -1      3601 2.08797E-01
 -1      3602 7.64776E+00
 -1      3603 8.28067E+00
 -1      3604 9.07811E+00
 -1      3605 1.00283E+00
 -1      3606 1.10164E+00
 -1      3607 1.00283E+00
 -1      3608 4.59889E-01
 -1      3609 1.07294E-01
 -1      3610 1.17963E-01
 -1      3611 6.97898E+00
 -1      3612 6.08720E+00
 -1      3613 1.49204E-01
 -1      3614 1.52960E-01
 -1      3615 1.59136E-01
 -1      3616 1.55161E-01
 -1      3617 1.29635E-01
 -1      3618 1.54493E-01
 -1      3619 1.46094E-01
 -1      3620 1.35143E-01
 -1      3621 1.41183E-01
 -1      3622 1.30555E-01
 -1      3623 1.29564E-01
 -1      3624 1.23185E-01
 -1      3625 1.15082E-01
 -1      3626 1.17284E-01
 -1      3627 1.08096E-01
 -1      3628 9.88022E-02
 -1      3629 1.02928E-01
 -1      3630 9.17367E-02
 -1      3631 8.18762E-02
 -1      3632 8.88767E-02
 -1      3633 7.41571E-02
 -1      3634 6.41143E-02
 -1      3635 7.40921E-02
 -1      3636 6.10852E-02
 -1      3637 5.37075E-02
 -1      3638 6.33439E-02
 -1      3639 5.33187E-02
 -1      3640 5.21417E-02
 -1      3641 5.99260E-02
 -1      3642 5.25060E-02
 -1      3643 5.44211E-02
 -1      3644 5.99014E-02
 -1      3645 5.95132E-02
 -1      3646 7.04498E-02
 -1      3647 6.53577E-02
 -1      3648 8.24924E-02
 -1      3649 9.43335E-02
 -1      3650 8.24924E-02
 -1      3651 1.10109E-01
 -1      3652 1.24640E-01
 -1      3653 1.10311E-01
 -1      3654 1.43085E-01
 -1      3655 1.63696E-01
 -1      3656 1.44532E-01
 -1      3657 1.89905E-01
 -1      3658 2.13356E-01
 -1      3659 1.89186E-01
 -1      3660 2.54930E-01
 -1      3661 2.87373E-01
 -1      3662 2.56970E-01
 -1      3663 3.37326E-01
 -1      3664 3.82895E-01
 -1      3665 3.48497E-01
 -1      3666 4.44572E-01
 -1      3667 4.95002E-01
 -1      3668 4.60127E-01
 -1      3669 5.86364E-01
 -1      3670 6.69963E-01
 -1      3671 6.13165E-01
 -1      3672 7.60274E-01
 -1      3673 8.64536E-01
 -1      3674 7.94838E-01
 -1      3675 1.00628E+00
 -1      3676 1.16864E+00
 -1      3677 1.02689E+00
 -1      3678 1.46473E+00
 -1      3679 1.64936E+00
 -1      3680 1.46473E+00
 -1      3681 2.02487E+00
 -1      3682 2.51183E+00
 -1      3683 2.60976E+00
 -1      3684 2.70769E+00
 -1      3685 2.73550E+00
 -1      3686 2.76332E+00
 -1      3687 3.17436E+00
 -1      3688 2.88588E+00
 -1      3689 3.36700E+00
 -1      3690 3.14861E+00
 -1      3691 3.09799E+00
 -1      3692 3.10759E+00
 -1      3693 3.16782E+00
 -1      3694 3.16782E+00
 -1      3695 3.00740E+00
 -1      3696 2.84699E+00
 -1      3697 2.34840E+00
 -1      3698 1.43424E+00
 -1      3699 1.31397E+00
 -1      3700 9.82347E-01
 -1      3701 8.48842E-01
 -1      3702 1.31397E+00
 -1      3703 7.32498E-01
 -1      3704 6.40937E-01
 -1      3705 8.66003E-01
 -1      3706 6.77247E-01
 -1      3707 6.01924E-01
 -1      3708 7.85969E-01
 -1      3709 5.06130E-01
 -1      3710 8.85686E-02
 -1      3711 9.94260E-02
 -1      3712 9.72817E-02
 -1      3713 5.93677E-02
 -1      3714 5.68593E-02
 -1      3715 7.30638E-02
 -1      3716 6.31208E-02
 -1      3717 6.78269E-02
 -1      3718 1.12870E-01
 -1      3719 8.65995E-02
 -1      3720 8.51157E-02
 -1      3721 1.63472E-01
 -1      3722 1.32641E-01
 -1      3723 1.18422E-01
 -1      3724 2.33306E-01
 -1      3725 1.90369E-01
 -1      3726 1.65090E-01
 -1      3727 3.24933E-01
 -1      3728 2.66663E-01
 -1      3729 2.25344E-01
 -1      3730 4.64428E-01
 -1      3731 3.84688E-01
 -1      3732 3.18457E-01
 -1      3733 6.62281E-01
 -1      3734 5.51755E-01
 -1      3735 4.65539E-01
 -1      3736 9.45477E-01
 -1      3737 7.88472E-01
 -1      3738 6.79057E-01
 -1      3739 1.43033E+00
 -1      3740 1.15645E+00
 -1      3741 1.01623E+00
 -1      3742 2.04040E+00
 -1      3743 1.67389E+00
 -1      3744 1.47075E+00
 -1      3745 4.30659E+00
 -1      3746 3.10010E+00
 -1      3747 2.77401E+00
 -1      3748 4.83195E+00
 -1      3749 1.00062E+01
 -1      3750 1.41087E+00
 -1      3751 1.77006E+00
 -1      3752 1.33322E+00
 -1      3753 2.49680E-01
 -1      3754 2.53285E-01
 -1      3755 2.17531E-01
 -1      3756 2.18394E-01
 -1      3757 9.81773E-01
 -1      3758 1.00283E+00
 -1      3759 1.37793E+00
 -1      3760 9.95011E-01
 -1      3761 3.15821E+00
 -1      3762 5.36742E+00
 -1      3763 4.45870E+00
 -1      3764 5.87862E+00
 -1      3765 2.33523E-01
 -1      3766 2.15620E-01
 -1      3767 1.60420E-01
 -1      3768 1.83492E-01
 -1      3769 1.75971E-01
 -1      3770 1.83289E-01
 -1      3771 3.97917E+00
 -1      3772 3.25366E+00
 -1      3773 3.49934E+00
 -1      3774 1.43631E-01
 -1      3775 1.55433E-01
 -1      3776 1.94033E-01
 -1      3777 2.54601E-01
 -1      3778 1.62305E-01
 -1      3779 1.73923E-01
 -1      3780 1.53448E-01
 -1      3781 1.44527E-01
 -1      3782 2.57893E-01
 -1      3783 5.61214E-02
 -1      3784 6.41908E-02
 -1      3785 6.33360E-02
 -1      3786 2.27517E-01
 -1      3787 6.90182E-02
 -1      3788 7.99880E-02
 -1      3789 6.74255E-02
 -1      3790 1.31472E-01
 -1      3791 1.47691E-01
 -1      3792 1.21947E-01
 -1      3793 6.33360E+00
 -1      3794 1.25367E-01
 -1      3795 1.34782E-01
 -1      3796 1.28806E-01
 -1      3797 7.26486E-01
 -1      3798 5.40575E+00
 -1      3799 8.08336E-02
 -1      3800 1.78747E-01
 -1      3801 1.76553E-01
 -1      3802 1.50954E-01
 -1      3803 4.56475E+00
 -1      3804 5.23352E+00
 -1      3805 3.84497E+00
 -1      3806 2.26790E+00
 -1      3807 2.19485E+00
 -1      3808 2.66059E+00
 -1      3809 2.51708E+00
 -1      3810 2.01850E+00
 -1      3811 1.70504E+00
 -1      3812 5.62391E+00
 -1      3813 4.05187E+00
 -1      3814 3.69651E+00
 -1      3815 5.21750E+00
 -1      3816 1.45558E+00
 -1      3817 1.91638E+00
 -1      3818 7.62653E-01
 -1      3819 7.62653E-01
 -1      3820 7.26486E-01
 -1      3821 1.86492E-01
 -1      3822 1.86492E-01
 -1      3823 3.78362E+00
 -1      3824 4.62879E+00
 -1      3825 5.86635E+00
 -1      3826 1.47605E-01
 -1      3827 1.78644E-01
 -1      3828 1.69910E-01
 -1      3829 2.83734E+00
 -1      3830 2.60350E+00
 -1      3831 1.12553E-01
 -1      3832 1.90873E-01
 -1      3833 1.90873E-01
 -1      3834 1.93904E-01
 -1      3835 2.21743E+00
 -1      3836 2.86947E+00
 -1      3837 1.98061E+00
 -1      3838 1.94901E-01
 -1      3839 1.90771E-01
 -1      3840 1.58257E-01
 -1      3841 1.71287E-01
 -1      3842 7.26486E-01
 -1      3843 7.17186E-01
 -1      3844 8.67747E-01
 -1      3845 4.49295E+00
 -1      3846 4.49295E+00
 -1      3847 5.19817E+00
 -1      3848 2.13632E+00
 -1      3849 1.89239E+00
 -1      3850 2.52967E+00
 -1      3851 3.16628E+00
 -1      3852 1.18811E-01
 -1      3853 1.18143E-01
 -1      3854 1.18606E-01
 -1      3855 1.13695E-01
 -1      3856 1.02274E-01
 -1      3857 1.10674E-01
 -1      3858 1.03305E-01
 -1      3859 9.97163E-02
 -1      3860 9.81165E-02
 -1      3861 9.11305E-02
 -1      3862 9.15072E-02
 -1      3863 8.51371E-02
 -1      3864 7.80716E-02
 -1      3865 8.03254E-02
 -1      3866 7.62640E-02
 -1      3867 6.85449E-02
 -1      3868 7.25244E-02
 -1      3869 6.78101E-02
 -1      3870 6.47809E-02
 -1      3871 6.99819E-02
 -1      3872 6.49708E-02
 -1      3873 6.45820E-02
 -1      3874 6.94369E-02
 -1      3875 6.59568E-02
 -1      3876 6.63210E-02
 -1      3877 7.10016E-02
 -1      3878 7.03572E-02
 -1      3879 7.54493E-02
 -1      3880 7.64126E-02
 -1      3881 8.24924E-02
 -1      3882 9.45351E-02
 -1      3883 8.74919E-02
 -1      3884 1.10311E-01
 -1      3885 1.26087E-01
 -1      3886 1.10311E-01
 -1      3887 1.44950E-01
 -1      3888 1.63395E-01
 -1      3889 1.44950E-01
 -1      3890 1.92697E-01
 -1      3891 2.18907E-01
 -1      3892 1.93116E-01
 -1      3893 2.55958E-01
 -1      3894 2.97532E-01
 -1      3895 2.59469E-01
 -1      3896 3.52328E-01
 -1      3897 4.02282E-01
 -1      3898 3.51317E-01
 -1      3899 4.89915E-01
 -1      3900 5.51592E-01
 -1      3901 4.93747E-01
 -1      3902 6.58476E-01
 -1      3903 7.49838E-01
 -1      3904 6.88264E-01
 -1      3905 8.97707E-01
 -1      3906 9.88018E-01
 -1      3907 9.43017E-01
 -1      3908 1.17883E+00
 -1      3909 1.32057E+00
 -1      3910 1.28170E+00
 -1      3911 1.57038E-01
 -1      3912 1.33836E-01
 -1      3913 1.26897E-01
 -1      3914 3.25502E+00
 -1      3915 3.47161E+00
 -1      3916 3.25346E+00
 -1      3917 1.22322E+00
 -1      3918 1.07266E+00
 -1      3919 1.45558E+00
 -1      3920 4.75024E+00
 -1      3921 1.16681E+00
 -1      3922 1.05046E+00
 -1      3923 9.83899E-01
 -1      3924 1.02021E+00
 -1      3925 1.28470E+00
 -1      3926 1.28568E-01
 -1      3927 1.08797E-01
 -1      3928 9.42571E-02
 -1      3929 8.07214E-02
 -1      3930 1.04403E-01
 -1      3931 7.16626E-02
 -1      3932 6.79096E-02
 -1      3933 8.08041E-02
 -1      3934 1.76562E-01
 -1      3935 1.49665E-01
 -1      3936 1.40040E-01
 -1      3937 2.39723E-01
 -1      3938 2.06366E-01
 -1      3939 1.90941E-01
 -1      3940 3.40630E-01
 -1      3941 2.80875E-01
 -1      3942 2.61896E-01
 -1      3943 4.83253E-01
 -1      3944 3.95927E-01
 -1      3945 3.58344E-01
 -1      3946 6.80794E-01
 -1      3947 5.54602E-01
 -1      3948 4.84990E-01
 -1      3949 1.05519E+00
 -1      3950 8.44215E-01
 -1      3951 7.19760E-01
 -1      3952 1.65610E+00
 -1      3953 1.41255E+00
 -1      3954 1.24054E+00
 -1      3955 2.19375E+00
 -1      3956 1.45558E+00
 -1      3957 7.12671E-02
 -1      3958 7.98477E-02
 -1      3959 3.65269E+00
 -1      3960 1.13871E-01
 -1      3961 1.22719E-01
 -1      3962 4.27003E+00
 -1      3963 2.33271E+00
 -1      3964 2.39976E+00
 -1      3965 1.71264E+00
 -1      3966 1.38102E+00
 -1      3967 2.87928E+00
 -1      3968 1.90771E-01
 -1      3969 1.89908E-01
 -1      3970 1.58869E-01
 -1      3971 1.62286E-01
 -1      3972 8.60045E-02
 -1      3973 9.38721E-02
 -1      3974 7.64381E-02
 -1      3975 1.67449E-01
 -1      3976 1.30806E-01
 -1      3977 1.06793E-01
 -1      3978 1.12968E-01
 -1      3979 9.59683E-02
 -1      3980 6.62599E-02
 -1      3981 6.55220E-02
 -1      3982 7.00956E-02
 -1      3983 6.50347E-02
 -1      3984 6.98621E-02
 -1      3985 6.88763E-02
 -1      3986 1.00232E-01
 -1      3987 1.07636E-01
 -1      3988 1.01550E-01
 -1      3989 8.89551E-02
 -1      3990 1.60249E-01
 -1      3991 3.68078E+00
 -1      3992 4.34896E+00
 -1      3993 3.49529E+00
 -1      3994 4.10755E+00
 -1      3995 4.10755E+00
 -1      3996 1.30395E-01
 -1      3997 1.25853E-01
 -1      3998 3.30913E+00
 -1      3999 3.49021E+00
 -1      4000 1.12157E-01
 -1      4001 1.27093E-01
 -1      4002 1.33965E-01
 -1      4003 2.25393E+00
 -1      4004 2.10200E+00
 -1      4005 2.39809E+00
 -1      4006 1.45983E+00
 -1      4007 1.76984E+00
 -1      4008 1.56548E+00
 -1      4009 1.02021E+00
 -1      4010 8.22280E-01
 -1      4011 2.85374E+00
 -1      4012 2.13555E+00
 -1      4013 3.07375E+00
 -1      4014 1.97417E+00
 -1      4015 1.75995E+00
 -1      4016 2.93986E+00
 -1      4017 1.30601E-01
 -1      4018 1.27185E-01
 -1      4019 1.76984E+00
 -1      4020 2.21722E+00
 -1      4021 1.23406E-01
 -1      4022 1.27434E-01
 -1      4023 1.09675E-01
 -1      4024 1.11188E-01
 -1      4025 1.53323E+00
 -1      4026 1.34082E-01
 -1      4027 1.36130E-01
 -1      4028 1.11029E-01
 -1      4029 1.16648E-01
 -1      4030 6.79586E-02
 -1      4031 9.99821E-02
 -1      4032 9.89168E-02
 -1      4033 1.27185E-01
 -1      4034 1.08677E+00
 -1      4035 1.13224E+00
 -1      4036 1.67886E+00
 -1      4037 1.28470E+00
 -1      4038 1.30095E-01
 -1      4039 1.19336E-01
 -1      4040 9.45210E-02
 -1      4041 2.97366E+00
 -1      4042 2.33772E+00
 -1      4043 1.14923E-01
 -1      4044 1.00383E-01
 -1      4045 9.32122E-02
 -1      4046 9.36750E-02
 -1      4047 9.67121E-02
 -1      4048 9.36914E-02
 -1      4049 8.76501E-02
 -1      4050 9.30945E-02
 -1      4051 8.79061E-02
 -1      4052 9.00903E-02
 -1      4053 8.54151E-02
 -1      4054 7.94217E-02
 -1      4055 8.70024E-02
 -1      4056 7.59985E-02
 -1      4057 7.41908E-02
 -1      4058 8.10882E-02
 -1      4059 7.16366E-02
 -1      4060 7.09018E-02
 -1      4061 7.51107E-02
 -1      4062 6.97588E-02
 -1      4063 6.99487E-02
 -1      4064 7.14135E-02
 -1      4065 7.32199E-02
 -1      4066 7.45947E-02
 -1      4067 7.35418E-02
 -1      4068 8.43710E-02
 -1      4069 8.84071E-02
 -1      4070 8.65893E-02
 -1      4071 1.04689E-01
 -1      4072 1.11732E-01
 -1      4073 1.12647E-01
 -1      4074 1.35059E-01
 -1      4075 1.50835E-01
 -1      4076 1.52256E-01
 -1      4077 1.83635E-01
 -1      4078 2.02499E-01
 -1      4079 2.08383E-01
 -1      4080 2.51707E-01
 -1      4081 2.81009E-01
 -1      4082 2.90391E-01
 -1      4083 3.64690E-01
 -1      4084 4.01741E-01
 -1      4085 4.23281E-01
 -1      4086 5.22772E-01
 -1      4087 5.77569E-01
 -1      4088 6.27993E-01
 -1      4089 7.57230E-01
 -1      4090 8.44863E-01
 -1      4091 9.28686E-01
 -1      4092 9.43249E-01
 -1      4093 1.05013E+00
 -1      4094 1.20673E+00
 -1      4095 1.14648E+00
 -1      4096 1.29435E+00
 -1      4097 1.40147E+00
 -1      4098 1.85544E+00
 -1      4099 2.04625E+00
 -1      4100 2.82768E+00
 -1      4101 2.05891E+00
 -1      4102 1.19497E-01
 -1      4103 1.30477E-01
 -1      4104 9.87921E-02
 -1      4105 1.30477E-01
 -1      4106 3.28253E+00
 -1      4107 1.35127E+00
 -1      4108 2.64298E+00
 -1      4109 2.24293E-01
 -1      4110 1.94489E-01
 -1      4111 1.58405E-01
 -1      4112 1.37308E-01
 -1      4113 1.33289E-01
 -1      4114 1.91757E-01
 -1      4115 8.77517E-02
 -1      4116 7.86929E-02
 -1      4117 9.82721E-02
 -1      4118 3.21324E-01
 -1      4119 2.80172E-01
 -1      4120 2.83720E-01
 -1      4121 4.60301E-01
 -1      4122 4.05005E-01
 -1      4123 4.23281E-01
 -1      4124 6.52682E-01
 -1      4125 5.81333E-01
 -1      4126 6.27993E-01
 -1      4127 9.95763E-01
 -1      4128 8.32343E-01
 -1      4129 9.28686E-01
 -1      4130 1.45150E+00
 -1      4131 1.09415E+00
 -1      4132 1.20673E+00
 -1      4133 7.05012E-02
 -1      4134 7.00139E-02
 -1      4135 9.89377E-02
 -1      4136 7.73963E-02
 -1      4137 8.35532E-02
 -1      4138 1.76984E+00
 -1      4139 7.25681E-02
 -1      4140 7.39731E-02
 -1      4141 8.10882E-02
 -1      4142 7.82367E-02
 -1      4143 8.40799E-02
 -1      4144 7.54806E-02
 -1      4145 7.60178E-02
 -1      4146 7.16220E-02
 -1      4147 5.97335E-02
 -1      4148 7.60178E-02
 -1      4149 2.00645E+00
 -1      4150 9.56249E-02
 -1      4151 7.22930E-02
 -1      4152 7.06433E-02
 -1      4153 7.92406E-02
 -1      4154 2.64298E+00
 -1      4155 1.80007E+00
 -1      4156 8.41293E-02
 -1      4157 7.77740E-02
 -1      4158 8.08165E-02
 -1      4159 2.33759E+00
 -1      4160 2.97412E+00
 -1      4161 3.18991E+00
 -1      4162 2.01000E+00
 -1      4163 9.92356E-02
 -1      4164 1.03609E-01
 -1      4165 8.70024E-02
 -1      4166 8.60441E-02
 -1      4167 9.24043E-02
 -1      4168 7.26986E-02
 -1      4169 9.48024E-02
 -1      4170 8.90669E-02
 -1      4171 6.79031E-02
 -1      4172 7.51107E-02
 -1      4173 1.65368E+00
 -1      4174 9.30012E-02
 -1      4175 9.92356E-02
 -1      4176 9.06872E-02
 -1      4177 9.00903E-02
 -1      4178 2.41869E+00
 -1      4179 2.72144E+00
 -1      4180 1.75003E+00
 -1      4181 7.58931E-02
 -1      4182 2.90391E-01
 -1      4183 2.34512E-01
 -1      4184 1.75995E+00
 -1      4185 9.06872E-02
 -1      4186 9.00903E-02
 -1      4187 8.94934E-02
 -1      4188 8.70024E-02
 -1      4189 8.45114E-02
 -1      4190 8.10882E-02
 -1      4191 7.76649E-02
 -1      4192 7.51107E-02
 -1      4193 7.25565E-02
 -1      4194 7.14135E-02
 -1      4195 7.15556E-02
 -1      4196 7.48269E-02
 -1      4197 8.12268E-02
 -1      4198 9.10030E-02
 -1      4199 1.03635E-01
 -1      4200 1.19916E-01
 -1      4201 1.42301E-01
 -1      4202 1.65628E-01
 -1      4203 2.01712E-01
 -1      4204 3.39599E-01
 -1      4205 4.23281E-01
 -1      4206 5.06962E-01
 -1      4207 6.27993E-01
 -1      4208 7.49025E-01
 -1      4209 9.28686E-01
 -1      4210 1.10835E+00
 -1      4211 1.20673E+00
 -1      4212 1.30512E+00
 -1      4213 1.65368E+00
 -1      4214 5.80421E-02
 -1      4215 8.76501E-02
 -1      4216 9.06872E-02
 -1      4217 6.95945E-02
 -1      4218 7.87269E-02
 -1      4219 6.46569E-02
 -1      4220 1.00572E-01
 -1      4221 1.00689E-01
 -1      4222 7.87269E-02
 -1      4223 8.76501E-02
 -1      4224 8.46130E-02
 -3
 9999
