    1C
    1UUSER                                                              
    1UDATE              27.october.2022                                 
    1UTIME              00:36:39                                        
    1UHOST                                                              
    1UPGM               CalculiX                                        
    1UVERSION           Version 2.17                             
    1UCOMPILETIME       Thu Jul 23 21:43:50 CEST 2020                    
    1UDIR                                                               
    1UDBN                                                               
    1UMAT    1SOLIDMATERIAL                                             
    2C                          4329                                     1
 -1         1 1.25101E+02 3.09091E+01 0.00000E+00
 -1         2 1.26208E+02 2.71310E+01 0.00000E+00
 -1         3 1.50000E+02 0.00000E+00 0.00000E+00
 -1         4 1.50000E+02 5.00000E+01 0.00000E+00
 -1         5 0.00000E+00 0.00000E+00 0.00000E+00
 -1         6 0.00000E+00 5.00000E+01 0.00000E+00
 -1         7 0.00000E+00 4.70500E+01 0.00000E+00
 -1         8 0.00000E+00 4.41000E+01 0.00000E+00
 -1         9 0.00000E+00 4.11500E+01 0.00000E+00
 -1        10 0.00000E+00 3.82000E+01 0.00000E+00
 -1        11 0.00000E+00 3.52500E+01 0.00000E+00
 -1        12 0.00000E+00 3.23500E+01 0.00000E+00
 -1        13 0.00000E+00 2.94000E+01 0.00000E+00
 -1        14 0.00000E+00 2.64500E+01 0.00000E+00
 -1        15 0.00000E+00 2.35000E+01 0.00000E+00
 -1        16 0.00000E+00 2.05500E+01 0.00000E+00
 -1        17 0.00000E+00 1.76000E+01 0.00000E+00
 -1        18 0.00000E+00 1.47000E+01 0.00000E+00
 -1        19 0.00000E+00 1.17500E+01 0.00000E+00
 -1        20 0.00000E+00 8.80000E+00 0.00000E+00
 -1        21 0.00000E+00 5.85000E+00 0.00000E+00
 -1        22 0.00000E+00 2.90000E+00 0.00000E+00
 -1        23 3.15000E+00 5.00000E+01 0.00000E+00
 -1        24 6.15000E+00 5.00000E+01 0.00000E+00
 -1        25 9.15000E+00 5.00000E+01 0.00000E+00
 -1        26 1.21500E+01 5.00000E+01 0.00000E+00
 -1        27 1.51500E+01 5.00000E+01 0.00000E+00
 -1        28 1.81500E+01 5.00000E+01 0.00000E+00
 -1        29 2.11500E+01 5.00000E+01 0.00000E+00
 -1        30 2.41500E+01 5.00000E+01 0.00000E+00
 -1        31 2.71500E+01 5.00000E+01 0.00000E+00
 -1        32 3.01500E+01 5.00000E+01 0.00000E+00
 -1        33 3.31500E+01 5.00000E+01 0.00000E+00
 -1        34 3.61500E+01 5.00000E+01 0.00000E+00
 -1        35 3.91500E+01 5.00000E+01 0.00000E+00
 -1        36 4.21500E+01 5.00000E+01 0.00000E+00
 -1        37 4.51500E+01 5.00000E+01 0.00000E+00
 -1        38 4.81500E+01 5.00000E+01 0.00000E+00
 -1        39 5.11500E+01 5.00000E+01 0.00000E+00
 -1        40 5.41500E+01 5.00000E+01 0.00000E+00
 -1        41 5.71500E+01 5.00000E+01 0.00000E+00
 -1        42 6.01500E+01 5.00000E+01 0.00000E+00
 -1        43 6.31500E+01 5.00000E+01 0.00000E+00
 -1        44 6.61500E+01 5.00000E+01 0.00000E+00
 -1        45 6.91500E+01 5.00000E+01 0.00000E+00
 -1        46 7.21500E+01 5.00000E+01 0.00000E+00
 -1        47 7.51500E+01 5.00000E+01 0.00000E+00
 -1        48 7.81500E+01 5.00000E+01 0.00000E+00
 -1        49 8.11500E+01 5.00000E+01 0.00000E+00
 -1        50 8.41500E+01 5.00000E+01 0.00000E+00
 -1        51 8.71500E+01 5.00000E+01 0.00000E+00
 -1        52 9.01500E+01 5.00000E+01 0.00000E+00
 -1        53 9.31500E+01 5.00000E+01 0.00000E+00
 -1        54 9.61500E+01 5.00000E+01 0.00000E+00
 -1        55 9.91500E+01 5.00000E+01 0.00000E+00
 -1        56 1.02150E+02 5.00000E+01 0.00000E+00
 -1        57 1.05150E+02 5.00000E+01 0.00000E+00
 -1        58 1.08150E+02 5.00000E+01 0.00000E+00
 -1        59 1.11150E+02 5.00000E+01 0.00000E+00
 -1        60 1.14150E+02 5.00000E+01 0.00000E+00
 -1        61 1.17150E+02 5.00000E+01 0.00000E+00
 -1        62 1.20150E+02 5.00000E+01 0.00000E+00
 -1        63 1.23150E+02 5.00000E+01 0.00000E+00
 -1        64 1.26150E+02 5.00000E+01 0.00000E+00
 -1        65 1.29150E+02 5.00000E+01 0.00000E+00
 -1        66 1.32150E+02 5.00000E+01 0.00000E+00
 -1        67 1.35150E+02 5.00000E+01 0.00000E+00
 -1        68 1.38150E+02 5.00000E+01 0.00000E+00
 -1        69 1.41150E+02 5.00000E+01 0.00000E+00
 -1        70 1.44150E+02 5.00000E+01 0.00000E+00
 -1        71 1.47150E+02 5.00000E+01 0.00000E+00
 -1        72 3.15000E+00 0.00000E+00 0.00000E+00
 -1        73 6.15000E+00 0.00000E+00 0.00000E+00
 -1        74 9.15000E+00 0.00000E+00 0.00000E+00
 -1        75 1.21500E+01 0.00000E+00 0.00000E+00
 -1        76 1.51500E+01 0.00000E+00 0.00000E+00
 -1        77 1.81500E+01 0.00000E+00 0.00000E+00
 -1        78 2.11500E+01 0.00000E+00 0.00000E+00
 -1        79 2.41500E+01 0.00000E+00 0.00000E+00
 -1        80 2.71500E+01 0.00000E+00 0.00000E+00
 -1        81 3.01500E+01 0.00000E+00 0.00000E+00
 -1        82 3.31500E+01 0.00000E+00 0.00000E+00
 -1        83 3.61500E+01 0.00000E+00 0.00000E+00
 -1        84 3.91500E+01 0.00000E+00 0.00000E+00
 -1        85 4.21500E+01 0.00000E+00 0.00000E+00
 -1        86 4.51500E+01 0.00000E+00 0.00000E+00
 -1        87 4.81500E+01 0.00000E+00 0.00000E+00
 -1        88 5.11500E+01 0.00000E+00 0.00000E+00
 -1        89 5.41500E+01 0.00000E+00 0.00000E+00
 -1        90 5.71500E+01 0.00000E+00 0.00000E+00
 -1        91 6.01500E+01 0.00000E+00 0.00000E+00
 -1        92 6.31500E+01 0.00000E+00 0.00000E+00
 -1        93 6.61500E+01 0.00000E+00 0.00000E+00
 -1        94 6.91500E+01 0.00000E+00 0.00000E+00
 -1        95 7.21500E+01 0.00000E+00 0.00000E+00
 -1        96 7.51500E+01 0.00000E+00 0.00000E+00
 -1        97 7.81500E+01 0.00000E+00 0.00000E+00
 -1        98 8.11500E+01 0.00000E+00 0.00000E+00
 -1        99 8.41500E+01 0.00000E+00 0.00000E+00
 -1       100 8.71500E+01 0.00000E+00 0.00000E+00
 -1       101 9.01500E+01 0.00000E+00 0.00000E+00
 -1       102 9.31500E+01 0.00000E+00 0.00000E+00
 -1       103 9.61500E+01 0.00000E+00 0.00000E+00
 -1       104 9.91500E+01 0.00000E+00 0.00000E+00
 -1       105 1.02150E+02 0.00000E+00 0.00000E+00
 -1       106 1.05150E+02 0.00000E+00 0.00000E+00
 -1       107 1.08150E+02 0.00000E+00 0.00000E+00
 -1       108 1.11150E+02 0.00000E+00 0.00000E+00
 -1       109 1.14150E+02 0.00000E+00 0.00000E+00
 -1       110 1.17150E+02 0.00000E+00 0.00000E+00
 -1       111 1.20150E+02 0.00000E+00 0.00000E+00
 -1       112 1.23150E+02 0.00000E+00 0.00000E+00
 -1       113 1.26150E+02 0.00000E+00 0.00000E+00
 -1       114 1.29150E+02 0.00000E+00 0.00000E+00
 -1       115 1.32150E+02 0.00000E+00 0.00000E+00
 -1       116 1.35150E+02 0.00000E+00 0.00000E+00
 -1       117 1.38150E+02 0.00000E+00 0.00000E+00
 -1       118 1.41150E+02 0.00000E+00 0.00000E+00
 -1       119 1.44150E+02 0.00000E+00 0.00000E+00
 -1       120 1.47150E+02 0.00000E+00 0.00000E+00
 -1       121 1.50000E+02 2.95000E+00 0.00000E+00
 -1       122 1.50000E+02 5.90000E+00 0.00000E+00
 -1       123 1.50000E+02 8.85000E+00 0.00000E+00
 -1       124 1.50000E+02 1.18000E+01 0.00000E+00
 -1       125 1.50000E+02 1.47500E+01 0.00000E+00
 -1       126 1.50000E+02 1.76500E+01 0.00000E+00
 -1       127 1.50000E+02 2.06000E+01 0.00000E+00
 -1       128 1.50000E+02 2.35500E+01 0.00000E+00
 -1       129 1.50000E+02 2.65000E+01 0.00000E+00
 -1       130 1.50000E+02 2.94500E+01 0.00000E+00
 -1       131 1.50000E+02 3.24000E+01 0.00000E+00
 -1       132 1.50000E+02 3.53000E+01 0.00000E+00
 -1       133 1.50000E+02 3.82500E+01 0.00000E+00
 -1       134 1.50000E+02 4.12000E+01 0.00000E+00
 -1       135 1.50000E+02 4.41500E+01 0.00000E+00
 -1       136 1.50000E+02 4.71000E+01 0.00000E+00
 -1       137 1.26025E+02 2.55403E+01 0.00000E+00
 -1       138 1.25466E+02 2.39948E+01 0.00000E+00
 -1       139 1.24675E+02 2.27587E+01 0.00000E+00
 -1       140 1.23502E+02 2.16029E+01 0.00000E+00
 -1       141 1.22243E+02 2.08229E+01 0.00000E+00
 -1       142 1.20835E+02 2.03226E+01 0.00000E+00
 -1       143 1.19236E+02 2.01311E+01 0.00000E+00
 -1       144 1.17818E+02 2.02704E+01 0.00000E+00
 -1       145 1.16301E+02 2.07634E+01 0.00000E+00
 -1       146 1.15051E+02 2.14993E+01 0.00000E+00
 -1       147 1.13942E+02 2.25198E+01 0.00000E+00
 -1       148 1.13036E+02 2.38296E+01 0.00000E+00
 -1       149 1.12452E+02 2.53001E+01 0.00000E+00
 -1       150 1.12217E+02 2.67850E+01 0.00000E+00
 -1       151 1.12321E+02 2.83793E+01 0.00000E+00
 -1       152 1.12768E+02 2.98739E+01 0.00000E+00
 -1       153 1.13468E+02 3.11377E+01 0.00000E+00
 -1       154 1.14566E+02 3.23705E+01 0.00000E+00
 -1       155 1.15856E+02 3.32763E+01 0.00000E+00
 -1       156 1.17215E+02 3.38413E+01 0.00000E+00
 -1       157 1.18693E+02 3.41121E+01 0.00000E+00
 -1       158 1.20218E+02 3.40579E+01 0.00000E+00
 -1       159 1.21738E+02 3.36579E+01 0.00000E+00
 -1       160 1.23052E+02 3.29812E+01 0.00000E+00
 -1       161 1.24152E+02 3.20871E+01 0.00000E+00
 -1       162 1.25699E+02 2.97532E+01 0.00000E+00
 -1       163 1.26079E+02 2.84682E+01 0.00000E+00
 -1       164 2.59800E+00 4.55750E+01 0.00000E+00
 -1       165 2.59800E+00 4.26250E+01 0.00000E+00
 -1       166 2.59800E+00 3.96750E+01 0.00000E+00
 -1       167 2.59800E+00 3.67250E+01 0.00000E+00
 -1       168 2.59800E+00 3.38250E+01 0.00000E+00
 -1       169 2.59800E+00 3.08750E+01 0.00000E+00
 -1       170 2.59800E+00 2.79250E+01 0.00000E+00
 -1       171 2.59800E+00 2.49750E+01 0.00000E+00
 -1       172 2.59800E+00 2.20250E+01 0.00000E+00
 -1       173 2.59800E+00 1.90750E+01 0.00000E+00
 -1       174 2.59800E+00 1.61750E+01 0.00000E+00
 -1       175 2.59800E+00 1.32250E+01 0.00000E+00
 -1       176 2.59800E+00 1.02750E+01 0.00000E+00
 -1       177 2.59800E+00 7.32500E+00 0.00000E+00
 -1       178 2.59800E+00 4.37500E+00 0.00000E+00
 -1       179 2.87400E+00 2.18750E+00 0.00000E+00
 -1       180 4.65000E+00 4.74020E+01 0.00000E+00
 -1       181 7.65000E+00 4.74020E+01 0.00000E+00
 -1       182 1.06500E+01 4.74020E+01 0.00000E+00
 -1       183 1.36500E+01 4.74020E+01 0.00000E+00
 -1       184 1.66500E+01 4.74020E+01 0.00000E+00
 -1       185 1.96500E+01 4.74020E+01 0.00000E+00
 -1       186 2.26500E+01 4.74020E+01 0.00000E+00
 -1       187 2.56500E+01 4.74020E+01 0.00000E+00
 -1       188 2.86500E+01 4.74020E+01 0.00000E+00
 -1       189 3.16500E+01 4.74020E+01 0.00000E+00
 -1       190 3.46500E+01 4.74020E+01 0.00000E+00
 -1       191 3.76500E+01 4.74020E+01 0.00000E+00
 -1       192 4.06500E+01 4.74020E+01 0.00000E+00
 -1       193 4.36500E+01 4.74020E+01 0.00000E+00
 -1       194 4.66500E+01 4.74020E+01 0.00000E+00
 -1       195 4.96500E+01 4.74020E+01 0.00000E+00
 -1       196 5.26500E+01 4.74020E+01 0.00000E+00
 -1       197 5.56500E+01 4.74020E+01 0.00000E+00
 -1       198 5.86500E+01 4.74020E+01 0.00000E+00
 -1       199 6.16500E+01 4.74020E+01 0.00000E+00
 -1       200 6.46500E+01 4.74020E+01 0.00000E+00
 -1       201 6.76500E+01 4.74020E+01 0.00000E+00
 -1       202 7.06500E+01 4.74020E+01 0.00000E+00
 -1       203 7.36500E+01 4.74020E+01 0.00000E+00
 -1       204 7.66500E+01 4.74020E+01 0.00000E+00
 -1       205 7.96500E+01 4.74020E+01 0.00000E+00
 -1       206 8.26500E+01 4.74020E+01 0.00000E+00
 -1       207 8.56500E+01 4.74020E+01 0.00000E+00
 -1       208 8.86500E+01 4.74020E+01 0.00000E+00
 -1       209 9.16500E+01 4.74020E+01 0.00000E+00
 -1       210 9.46500E+01 4.74020E+01 0.00000E+00
 -1       211 9.76500E+01 4.74020E+01 0.00000E+00
 -1       212 1.00650E+02 4.74020E+01 0.00000E+00
 -1       213 1.03650E+02 4.74020E+01 0.00000E+00
 -1       214 1.06650E+02 4.74020E+01 0.00000E+00
 -1       215 1.09650E+02 4.74020E+01 0.00000E+00
 -1       216 1.12650E+02 4.74020E+01 0.00000E+00
 -1       217 1.15650E+02 4.74020E+01 0.00000E+00
 -1       218 1.18650E+02 4.74020E+01 0.00000E+00
 -1       219 1.21650E+02 4.74020E+01 0.00000E+00
 -1       220 1.24650E+02 4.74020E+01 0.00000E+00
 -1       221 1.27650E+02 4.74020E+01 0.00000E+00
 -1       222 1.30650E+02 4.74020E+01 0.00000E+00
 -1       223 1.33650E+02 4.74020E+01 0.00000E+00
 -1       224 1.36650E+02 4.74020E+01 0.00000E+00
 -1       225 1.39650E+02 4.74020E+01 0.00000E+00
 -1       226 1.42650E+02 4.74020E+01 0.00000E+00
 -1       227 1.45650E+02 4.74020E+01 0.00000E+00
 -1       228 5.87400E+00 2.18750E+00 0.00000E+00
 -1       229 8.87400E+00 2.18750E+00 0.00000E+00
 -1       230 1.18740E+01 2.18750E+00 0.00000E+00
 -1       231 1.48740E+01 2.18750E+00 0.00000E+00
 -1       232 1.78740E+01 2.18750E+00 0.00000E+00
 -1       233 2.08740E+01 2.18750E+00 0.00000E+00
 -1       234 2.38740E+01 2.18750E+00 0.00000E+00
 -1       235 2.68740E+01 2.18750E+00 0.00000E+00
 -1       236 2.98740E+01 2.18750E+00 0.00000E+00
 -1       237 3.28740E+01 2.18750E+00 0.00000E+00
 -1       238 3.58740E+01 2.18750E+00 0.00000E+00
 -1       239 3.88740E+01 2.18750E+00 0.00000E+00
 -1       240 4.18740E+01 2.18750E+00 0.00000E+00
 -1       241 4.48740E+01 2.18750E+00 0.00000E+00
 -1       242 4.78740E+01 2.18750E+00 0.00000E+00
 -1       243 5.08740E+01 2.18750E+00 0.00000E+00
 -1       244 5.38740E+01 2.18750E+00 0.00000E+00
 -1       245 5.68740E+01 2.18750E+00 0.00000E+00
 -1       246 5.98740E+01 2.18750E+00 0.00000E+00
 -1       247 6.28740E+01 2.18750E+00 0.00000E+00
 -1       248 6.58740E+01 2.18750E+00 0.00000E+00
 -1       249 6.88740E+01 2.18750E+00 0.00000E+00
 -1       250 7.18740E+01 2.18750E+00 0.00000E+00
 -1       251 7.48740E+01 2.18750E+00 0.00000E+00
 -1       252 7.78740E+01 2.18750E+00 0.00000E+00
 -1       253 8.08740E+01 2.18750E+00 0.00000E+00
 -1       254 8.38740E+01 2.18750E+00 0.00000E+00
 -1       255 8.68740E+01 2.18750E+00 0.00000E+00
 -1       256 8.98740E+01 2.18750E+00 0.00000E+00
 -1       257 9.28740E+01 2.18750E+00 0.00000E+00
 -1       258 9.58740E+01 2.18750E+00 0.00000E+00
 -1       259 9.88740E+01 2.18750E+00 0.00000E+00
 -1       260 1.01874E+02 2.18750E+00 0.00000E+00
 -1       261 1.04874E+02 2.18750E+00 0.00000E+00
 -1       262 1.07874E+02 2.18750E+00 0.00000E+00
 -1       263 1.10874E+02 2.18750E+00 0.00000E+00
 -1       264 1.13874E+02 2.18750E+00 0.00000E+00
 -1       265 1.16874E+02 2.18750E+00 0.00000E+00
 -1       266 1.19874E+02 2.18750E+00 0.00000E+00
 -1       267 1.22874E+02 2.18750E+00 0.00000E+00
 -1       268 1.25874E+02 2.18750E+00 0.00000E+00
 -1       269 1.28874E+02 2.18750E+00 0.00000E+00
 -1       270 1.31874E+02 2.18750E+00 0.00000E+00
 -1       271 1.34874E+02 2.18750E+00 0.00000E+00
 -1       272 1.37874E+02 2.18750E+00 0.00000E+00
 -1       273 1.40874E+02 2.18750E+00 0.00000E+00
 -1       274 1.43874E+02 2.18750E+00 0.00000E+00
 -1       275 1.46874E+02 2.18750E+00 0.00000E+00
 -1       276 1.47402E+02 4.42500E+00 0.00000E+00
 -1       277 1.47402E+02 7.37500E+00 0.00000E+00
 -1       278 1.47402E+02 1.03250E+01 0.00000E+00
 -1       279 1.47402E+02 1.32750E+01 0.00000E+00
 -1       280 1.47402E+02 1.61750E+01 0.00000E+00
 -1       281 1.47402E+02 1.91250E+01 0.00000E+00
 -1       282 1.47402E+02 2.20750E+01 0.00000E+00
 -1       283 1.47402E+02 2.50250E+01 0.00000E+00
 -1       284 1.47402E+02 2.79750E+01 0.00000E+00
 -1       285 1.47402E+02 3.09250E+01 0.00000E+00
 -1       286 1.47402E+02 3.38250E+01 0.00000E+00
 -1       287 1.47402E+02 3.67750E+01 0.00000E+00
 -1       288 1.47402E+02 3.97250E+01 0.00000E+00
 -1       289 1.47402E+02 4.26750E+01 0.00000E+00
 -1       290 1.46526E+02 4.50385E+01 0.00000E+00
 -1       291 1.27594E+02 2.61656E+01 0.00000E+00
 -1       292 1.27201E+02 2.42414E+01 0.00000E+00
 -1       293 1.26092E+02 2.27229E+01 0.00000E+00
 -1       294 1.25234E+02 2.10191E+01 0.00000E+00
 -1       295 1.23511E+02 2.01821E+01 0.00000E+00
 -1       296 1.21973E+02 1.93514E+01 0.00000E+00
 -1       297 1.20220E+02 1.86903E+01 0.00000E+00
 -1       298 1.18409E+02 1.89941E+01 0.00000E+00
 -1       299 1.16659E+02 1.92841E+01 0.00000E+00
 -1       300 1.15061E+02 2.00866E+01 0.00000E+00
 -1       301 1.13675E+02 2.11173E+01 0.00000E+00
 -1       302 1.12216E+02 2.22944E+01 0.00000E+00
 -1       303 1.11383E+02 2.40248E+01 0.00000E+00
 -1       304 1.11054E+02 2.58399E+01 0.00000E+00
 -1       305 1.10808E+02 2.76771E+01 0.00000E+00
 -1       306 1.11222E+02 2.95224E+01 0.00000E+00
 -1       307 1.12058E+02 3.10934E+01 0.00000E+00
 -1       308 1.12987E+02 3.26718E+01 0.00000E+00
 -1       309 1.14322E+02 3.40899E+01 0.00000E+00
 -1       310 1.16038E+02 3.47557E+01 0.00000E+00
 -1       311 1.17736E+02 3.51693E+01 0.00000E+00
 -1       312 1.19499E+02 3.52966E+01 0.00000E+00
 -1       313 1.21308E+02 3.51114E+01 0.00000E+00
 -1       314 1.22950E+02 3.43975E+01 0.00000E+00
 -1       315 1.24367E+02 3.34748E+01 0.00000E+00
 -1       316 1.25654E+02 3.23262E+01 0.00000E+00
 -1       317 1.26423E+02 3.08601E+01 0.00000E+00
 -1       318 1.27074E+02 2.94618E+01 0.00000E+00
 -1       319 1.27374E+02 2.79182E+01 0.00000E+00
 -1       320 5.19600E+00 4.11500E+01 0.00000E+00
 -1       321 5.19600E+00 4.41000E+01 0.00000E+00
 -1       322 5.19600E+00 3.52750E+01 0.00000E+00
 -1       323 5.19600E+00 3.23250E+01 0.00000E+00
 -1       324 5.19600E+00 2.93750E+01 0.00000E+00
 -1       325 5.19600E+00 2.64250E+01 0.00000E+00
 -1       326 5.19600E+00 2.34750E+01 0.00000E+00
 -1       327 5.19600E+00 2.05250E+01 0.00000E+00
 -1       328 5.19600E+00 1.76250E+01 0.00000E+00
 -1       329 5.19600E+00 1.46750E+01 0.00000E+00
 -1       330 5.19600E+00 1.17250E+01 0.00000E+00
 -1       331 5.19600E+00 8.77500E+00 0.00000E+00
 -1       332 5.19600E+00 5.82500E+00 0.00000E+00
 -1       333 5.53500E+00 4.00625E+00 0.00000E+00
 -1       334 8.53500E+00 4.00625E+00 0.00000E+00
 -1       335 9.15000E+00 4.48040E+01 0.00000E+00
 -1       336 1.21500E+01 4.48040E+01 0.00000E+00
 -1       337 1.51500E+01 4.48040E+01 0.00000E+00
 -1       338 1.81500E+01 4.48040E+01 0.00000E+00
 -1       339 2.11500E+01 4.48040E+01 0.00000E+00
 -1       340 2.41500E+01 4.48040E+01 0.00000E+00
 -1       341 2.71500E+01 4.48040E+01 0.00000E+00
 -1       342 3.01500E+01 4.48040E+01 0.00000E+00
 -1       343 3.31500E+01 4.48040E+01 0.00000E+00
 -1       344 3.61500E+01 4.48040E+01 0.00000E+00
 -1       345 3.91500E+01 4.48040E+01 0.00000E+00
 -1       346 4.21500E+01 4.48040E+01 0.00000E+00
 -1       347 4.51500E+01 4.48040E+01 0.00000E+00
 -1       348 4.81500E+01 4.48040E+01 0.00000E+00
 -1       349 5.11500E+01 4.48040E+01 0.00000E+00
 -1       350 5.41500E+01 4.48040E+01 0.00000E+00
 -1       351 5.71500E+01 4.48040E+01 0.00000E+00
 -1       352 6.01500E+01 4.48040E+01 0.00000E+00
 -1       353 6.31500E+01 4.48040E+01 0.00000E+00
 -1       354 6.61500E+01 4.48040E+01 0.00000E+00
 -1       355 6.91500E+01 4.48040E+01 0.00000E+00
 -1       356 7.21500E+01 4.48040E+01 0.00000E+00
 -1       357 7.51500E+01 4.48040E+01 0.00000E+00
 -1       358 7.81500E+01 4.48040E+01 0.00000E+00
 -1       359 8.11500E+01 4.48040E+01 0.00000E+00
 -1       360 8.41500E+01 4.48040E+01 0.00000E+00
 -1       361 8.71500E+01 4.48040E+01 0.00000E+00
 -1       362 9.01500E+01 4.48040E+01 0.00000E+00
 -1       363 9.31500E+01 4.48040E+01 0.00000E+00
 -1       364 9.61500E+01 4.48040E+01 0.00000E+00
 -1       365 9.91500E+01 4.48040E+01 0.00000E+00
 -1       366 1.02150E+02 4.48040E+01 0.00000E+00
 -1       367 1.05150E+02 4.48040E+01 0.00000E+00
 -1       368 1.08150E+02 4.48040E+01 0.00000E+00
 -1       369 1.11150E+02 4.48040E+01 0.00000E+00
 -1       370 1.14150E+02 4.48040E+01 0.00000E+00
 -1       371 1.17150E+02 4.48040E+01 0.00000E+00
 -1       372 1.20150E+02 4.48040E+01 0.00000E+00
 -1       373 1.23150E+02 4.48040E+01 0.00000E+00
 -1       374 1.26150E+02 4.48040E+01 0.00000E+00
 -1       375 1.29150E+02 4.48040E+01 0.00000E+00
 -1       376 1.32150E+02 4.48040E+01 0.00000E+00
 -1       377 1.35150E+02 4.48040E+01 0.00000E+00
 -1       378 1.38150E+02 4.48040E+01 0.00000E+00
 -1       379 1.41150E+02 4.48040E+01 0.00000E+00
 -1       380 1.43838E+02 4.49212E+01 0.00000E+00
 -1       381 1.15350E+01 4.00625E+00 0.00000E+00
 -1       382 1.45350E+01 4.00625E+00 0.00000E+00
 -1       383 1.75350E+01 4.00625E+00 0.00000E+00
 -1       384 2.05350E+01 4.00625E+00 0.00000E+00
 -1       385 2.35350E+01 4.00625E+00 0.00000E+00
 -1       386 2.65350E+01 4.00625E+00 0.00000E+00
 -1       387 2.95350E+01 4.00625E+00 0.00000E+00
 -1       388 3.25350E+01 4.00625E+00 0.00000E+00
 -1       389 3.55350E+01 4.00625E+00 0.00000E+00
 -1       390 3.85350E+01 4.00625E+00 0.00000E+00
 -1       391 4.15350E+01 4.00625E+00 0.00000E+00
 -1       392 4.45350E+01 4.00625E+00 0.00000E+00
 -1       393 4.75350E+01 4.00625E+00 0.00000E+00
 -1       394 5.05350E+01 4.00625E+00 0.00000E+00
 -1       395 5.35350E+01 4.00625E+00 0.00000E+00
 -1       396 5.65350E+01 4.00625E+00 0.00000E+00
 -1       397 5.95350E+01 4.00625E+00 0.00000E+00
 -1       398 6.25350E+01 4.00625E+00 0.00000E+00
 -1       399 6.55350E+01 4.00625E+00 0.00000E+00
 -1       400 6.85350E+01 4.00625E+00 0.00000E+00
 -1       401 7.15350E+01 4.00625E+00 0.00000E+00
 -1       402 7.45350E+01 4.00625E+00 0.00000E+00
 -1       403 7.75350E+01 4.00625E+00 0.00000E+00
 -1       404 8.05350E+01 4.00625E+00 0.00000E+00
 -1       405 8.35350E+01 4.00625E+00 0.00000E+00
 -1       406 8.65350E+01 4.00625E+00 0.00000E+00
 -1       407 8.95350E+01 4.00625E+00 0.00000E+00
 -1       408 9.25350E+01 4.00625E+00 0.00000E+00
 -1       409 9.55350E+01 4.00625E+00 0.00000E+00
 -1       410 9.85350E+01 4.00625E+00 0.00000E+00
 -1       411 1.01535E+02 4.00625E+00 0.00000E+00
 -1       412 1.04535E+02 4.00625E+00 0.00000E+00
 -1       413 1.07535E+02 4.00625E+00 0.00000E+00
 -1       414 1.10535E+02 4.00625E+00 0.00000E+00
 -1       415 1.13535E+02 4.00625E+00 0.00000E+00
 -1       416 1.16535E+02 4.00625E+00 0.00000E+00
 -1       417 1.19535E+02 4.00625E+00 0.00000E+00
 -1       418 1.22535E+02 4.00625E+00 0.00000E+00
 -1       419 1.25535E+02 4.00625E+00 0.00000E+00
 -1       420 1.28535E+02 4.00625E+00 0.00000E+00
 -1       421 1.31535E+02 4.00625E+00 0.00000E+00
 -1       422 1.34535E+02 4.00625E+00 0.00000E+00
 -1       423 1.37535E+02 4.00625E+00 0.00000E+00
 -1       424 1.40535E+02 4.00625E+00 0.00000E+00
 -1       425 1.43535E+02 4.00625E+00 0.00000E+00
 -1       426 1.45469E+02 4.21562E+00 0.00000E+00
 -1       427 1.44804E+02 1.18000E+01 0.00000E+00
 -1       428 1.44804E+02 8.85000E+00 0.00000E+00
 -1       429 1.45136E+02 6.53281E+00 0.00000E+00
 -1       430 1.44804E+02 1.47000E+01 0.00000E+00
 -1       431 1.44804E+02 1.76500E+01 0.00000E+00
 -1       432 1.44804E+02 2.06000E+01 0.00000E+00
 -1       433 1.44804E+02 2.35500E+01 0.00000E+00
 -1       434 1.44804E+02 2.65000E+01 0.00000E+00
 -1       435 1.44804E+02 2.94500E+01 0.00000E+00
 -1       436 1.44804E+02 3.23500E+01 0.00000E+00
 -1       437 1.44804E+02 3.53000E+01 0.00000E+00
 -1       438 1.44804E+02 3.82500E+01 0.00000E+00
 -1       439 1.44804E+02 4.12000E+01 0.00000E+00
 -1       440 1.27761E+02 2.26680E+01 0.00000E+00
 -1       441 1.28876E+02 2.72168E+01 0.00000E+00
 -1       442 1.28855E+02 2.49059E+01 0.00000E+00
 -1       443 1.26903E+02 2.09642E+01 0.00000E+00
 -1       444 1.24975E+02 1.93593E+01 0.00000E+00
 -1       445 5.19600E+00 3.82125E+01 0.00000E+00
 -1       446 1.21613E+02 1.76513E+01 0.00000E+00
 -1       447 1.19044E+02 1.72334E+01 0.00000E+00
 -1       448 1.17295E+02 1.75234E+01 0.00000E+00
 -1       449 1.15278E+02 1.85270E+01 0.00000E+00
 -1       450 1.13594E+02 1.95621E+01 0.00000E+00
 -1       451 1.11974E+02 2.05012E+01 0.00000E+00
 -1       452 1.10556E+02 2.25612E+01 0.00000E+00
 -1       453 1.09614E+02 2.46412E+01 0.00000E+00
 -1       454 1.09367E+02 2.64785E+01 0.00000E+00
 -1       455 1.09750E+02 2.88837E+01 0.00000E+00
 -1       456 1.10274E+02 3.10346E+01 0.00000E+00
 -1       457 1.11203E+02 3.26130E+01 0.00000E+00
 -1       458 1.12650E+02 3.43269E+01 0.00000E+00
 -1       459 1.14681E+02 3.57094E+01 0.00000E+00
 -1       460 1.16561E+02 3.63032E+01 0.00000E+00
 -1       461 1.18518E+02 3.66093E+01 0.00000E+00
 -1       462 1.20561E+02 3.67435E+01 0.00000E+00
 -1       463 1.22646E+02 3.59432E+01 0.00000E+00
 -1       464 1.24412E+02 3.50925E+01 0.00000E+00
 -1       465 1.25945E+02 3.39475E+01 0.00000E+00
 -1       466 1.27207E+02 3.22063E+01 0.00000E+00
 -1       467 1.27869E+02 3.06823E+01 0.00000E+00
 -1       468 1.28437E+02 2.89258E+01 0.00000E+00
 -1       469 1.23437E+02 1.85287E+01 0.00000E+00
 -1       470 1.26644E+02 1.93044E+01 0.00000E+00
 -1       471 1.29414E+02 2.33325E+01 0.00000E+00
 -1       472 1.10314E+02 2.07681E+01 0.00000E+00
 -1       473 1.20437E+02 1.61944E+01 0.00000E+00
 -1       474 1.13009E+02 3.59463E+01 0.00000E+00
 -1       475 1.00350E+01 6.60425E+00 0.00000E+00
 -1       476 7.79400E+00 3.08500E+01 0.00000E+00
 -1       477 7.79400E+00 3.38000E+01 0.00000E+00
 -1       478 7.79400E+00 2.49500E+01 0.00000E+00
 -1       479 7.79400E+00 2.20000E+01 0.00000E+00
 -1       480 7.79400E+00 1.91000E+01 0.00000E+00
 -1       481 7.79400E+00 1.61500E+01 0.00000E+00
 -1       482 7.79400E+00 1.32000E+01 0.00000E+00
 -1       483 7.79400E+00 1.02500E+01 0.00000E+00
 -1       484 1.30350E+01 6.60425E+00 0.00000E+00
 -1       485 1.06500E+01 4.22060E+01 0.00000E+00
 -1       486 1.23232E+02 1.66198E+01 0.00000E+00
 -1       487 1.36500E+01 4.22060E+01 0.00000E+00
 -1       488 1.66500E+01 4.22060E+01 0.00000E+00
 -1       489 1.96500E+01 4.22060E+01 0.00000E+00
 -1       490 2.26500E+01 4.22060E+01 0.00000E+00
 -1       491 2.56500E+01 4.22060E+01 0.00000E+00
 -1       492 2.86500E+01 4.22060E+01 0.00000E+00
 -1       493 3.16500E+01 4.22060E+01 0.00000E+00
 -1       494 3.46500E+01 4.22060E+01 0.00000E+00
 -1       495 3.76500E+01 4.22060E+01 0.00000E+00
 -1       496 4.06500E+01 4.22060E+01 0.00000E+00
 -1       497 4.36500E+01 4.22060E+01 0.00000E+00
 -1       498 4.66500E+01 4.22060E+01 0.00000E+00
 -1       499 4.96500E+01 4.22060E+01 0.00000E+00
 -1       500 5.26500E+01 4.22060E+01 0.00000E+00
 -1       501 5.56500E+01 4.22060E+01 0.00000E+00
 -1       502 5.86500E+01 4.22060E+01 0.00000E+00
 -1       503 6.16500E+01 4.22060E+01 0.00000E+00
 -1       504 6.46500E+01 4.22060E+01 0.00000E+00
 -1       505 6.76500E+01 4.22060E+01 0.00000E+00
 -1       506 7.06500E+01 4.22060E+01 0.00000E+00
 -1       507 7.36500E+01 4.22060E+01 0.00000E+00
 -1       508 7.66500E+01 4.22060E+01 0.00000E+00
 -1       509 7.96500E+01 4.22060E+01 0.00000E+00
 -1       510 8.26500E+01 4.22060E+01 0.00000E+00
 -1       511 8.56500E+01 4.22060E+01 0.00000E+00
 -1       512 8.86500E+01 4.22060E+01 0.00000E+00
 -1       513 9.16500E+01 4.22060E+01 0.00000E+00
 -1       514 9.46500E+01 4.22060E+01 0.00000E+00
 -1       515 9.76500E+01 4.22060E+01 0.00000E+00
 -1       516 1.00650E+02 4.22060E+01 0.00000E+00
 -1       517 1.03650E+02 4.22060E+01 0.00000E+00
 -1       518 1.06650E+02 4.22060E+01 0.00000E+00
 -1       519 1.09650E+02 4.22060E+01 0.00000E+00
 -1       520 1.12650E+02 4.22060E+01 0.00000E+00
 -1       521 1.15650E+02 4.22060E+01 0.00000E+00
 -1       522 1.18650E+02 4.22060E+01 0.00000E+00
 -1       523 1.21650E+02 4.22060E+01 0.00000E+00
 -1       524 1.24650E+02 4.22060E+01 0.00000E+00
 -1       525 1.27650E+02 4.22060E+01 0.00000E+00
 -1       526 1.30650E+02 4.22060E+01 0.00000E+00
 -1       527 1.33650E+02 4.22060E+01 0.00000E+00
 -1       528 1.36650E+02 4.22060E+01 0.00000E+00
 -1       529 1.39650E+02 4.22060E+01 0.00000E+00
 -1       530 1.90350E+01 6.60425E+00 0.00000E+00
 -1       531 2.20350E+01 6.60425E+00 0.00000E+00
 -1       532 2.50350E+01 6.60425E+00 0.00000E+00
 -1       533 2.80350E+01 6.60425E+00 0.00000E+00
 -1       534 3.10350E+01 6.60425E+00 0.00000E+00
 -1       535 3.40350E+01 6.60425E+00 0.00000E+00
 -1       536 3.70350E+01 6.60425E+00 0.00000E+00
 -1       537 4.00350E+01 6.60425E+00 0.00000E+00
 -1       538 4.30350E+01 6.60425E+00 0.00000E+00
 -1       539 4.60350E+01 6.60425E+00 0.00000E+00
 -1       540 4.90350E+01 6.60425E+00 0.00000E+00
 -1       541 5.20350E+01 6.60425E+00 0.00000E+00
 -1       542 5.50350E+01 6.60425E+00 0.00000E+00
 -1       543 5.80350E+01 6.60425E+00 0.00000E+00
 -1       544 6.10350E+01 6.60425E+00 0.00000E+00
 -1       545 6.40350E+01 6.60425E+00 0.00000E+00
 -1       546 6.70350E+01 6.60425E+00 0.00000E+00
 -1       547 7.00350E+01 6.60425E+00 0.00000E+00
 -1       548 7.30350E+01 6.60425E+00 0.00000E+00
 -1       549 7.60350E+01 6.60425E+00 0.00000E+00
 -1       550 7.90350E+01 6.60425E+00 0.00000E+00
 -1       551 8.20350E+01 6.60425E+00 0.00000E+00
 -1       552 8.50350E+01 6.60425E+00 0.00000E+00
 -1       553 8.80350E+01 6.60425E+00 0.00000E+00
 -1       554 9.10350E+01 6.60425E+00 0.00000E+00
 -1       555 9.40350E+01 6.60425E+00 0.00000E+00
 -1       556 9.70350E+01 6.60425E+00 0.00000E+00
 -1       557 1.00035E+02 6.60425E+00 0.00000E+00
 -1       558 1.03035E+02 6.60425E+00 0.00000E+00
 -1       559 1.06035E+02 6.60425E+00 0.00000E+00
 -1       560 1.09035E+02 6.60425E+00 0.00000E+00
 -1       561 1.12035E+02 6.60425E+00 0.00000E+00
 -1       562 1.15035E+02 6.60425E+00 0.00000E+00
 -1       563 1.18035E+02 6.60425E+00 0.00000E+00
 -1       564 1.21035E+02 6.60425E+00 0.00000E+00
 -1       565 1.24035E+02 6.60425E+00 0.00000E+00
 -1       566 1.27035E+02 6.60425E+00 0.00000E+00
 -1       567 1.30035E+02 6.60425E+00 0.00000E+00
 -1       568 1.33035E+02 6.60425E+00 0.00000E+00
 -1       569 1.36035E+02 6.60425E+00 0.00000E+00
 -1       570 1.39035E+02 6.60425E+00 0.00000E+00
 -1       571 1.42035E+02 6.60425E+00 0.00000E+00
 -1       572 1.42206E+02 1.61750E+01 0.00000E+00
 -1       573 1.42206E+02 1.91250E+01 0.00000E+00
 -1       574 1.42206E+02 1.03250E+01 0.00000E+00
 -1       575 1.42206E+02 1.32500E+01 0.00000E+00
 -1       576 1.42206E+02 2.20750E+01 0.00000E+00
 -1       577 1.42206E+02 2.50250E+01 0.00000E+00
 -1       578 1.42206E+02 2.79750E+01 0.00000E+00
 -1       579 1.42206E+02 3.08750E+01 0.00000E+00
 -1       580 1.42206E+02 3.38250E+01 0.00000E+00
 -1       581 1.42206E+02 3.67750E+01 0.00000E+00
 -1       582 1.42206E+02 3.97250E+01 0.00000E+00
 -1       583 1.30604E+02 2.60450E+01 0.00000E+00
 -1       584 1.29935E+02 2.83999E+01 0.00000E+00
 -1       585 1.60350E+01 6.60425E+00 0.00000E+00
 -1       586 1.28789E+02 2.10826E+01 0.00000E+00
 -1       587 7.92300E+00 4.16780E+01 0.00000E+00
 -1       588 1.29747E+02 3.03196E+01 0.00000E+00
 -1       589 1.07865E+02 2.79509E+01 0.00000E+00
 -1       590 1.08752E+02 2.29971E+01 0.00000E+00
 -1       591 7.79400E+00 2.79000E+01 0.00000E+00
 -1       592 1.13582E+02 1.76547E+01 0.00000E+00
 -1       593 1.17917E+02 1.58517E+01 0.00000E+00
 -1       594 1.08388E+02 3.01017E+01 0.00000E+00
 -1       595 1.15597E+02 1.66398E+01 0.00000E+00
 -1       596 1.11962E+02 1.85939E+01 0.00000E+00
 -1       597 1.07874E+02 2.53432E+01 0.00000E+00
 -1       598 1.09260E+02 3.26938E+01 0.00000E+00
 -1       599 1.10744E+02 3.44683E+01 0.00000E+00
 -1       600 1.15180E+02 3.74020E+01 0.00000E+00
 -1       601 1.17287E+02 3.80680E+01 0.00000E+00
 -1       602 1.19427E+02 3.83878E+01 0.00000E+00
 -1       603 1.22218E+02 3.79445E+01 0.00000E+00
 -1       604 1.24164E+02 3.68366E+01 0.00000E+00
 -1       605 1.26068E+02 3.57115E+01 0.00000E+00
 -1       606 1.27983E+02 3.40973E+01 0.00000E+00
 -1       607 1.29085E+02 3.18437E+01 0.00000E+00
 -1       608 1.24770E+02 1.74505E+01 0.00000E+00
 -1       609 7.61550E+00 6.21462E+00 0.00000E+00
 -1       610 7.79400E+00 3.67375E+01 0.00000E+00
 -1       611 1.31163E+02 2.44716E+01 0.00000E+00
 -1       612 1.28530E+02 1.94228E+01 0.00000E+00
 -1       613 1.11103E+02 3.60877E+01 0.00000E+00
 -1       614 1.10302E+02 1.88608E+01 0.00000E+00
 -1       615 1.08510E+02 2.12039E+01 0.00000E+00
 -1       616 1.22057E+02 1.51629E+01 0.00000E+00
 -1       617 1.19310E+02 1.48126E+01 0.00000E+00
 -1       618 1.26439E+02 1.73955E+01 0.00000E+00
 -1       619 1.13507E+02 3.76390E+01 0.00000E+00
 -1       620 1.41678E+02 4.22645E+01 0.00000E+00
 -1       621 1.03920E+01 2.05500E+01 0.00000E+00
 -1       622 1.03920E+01 2.35000E+01 0.00000E+00
 -1       623 1.03920E+01 1.46750E+01 0.00000E+00
 -1       624 1.03920E+01 1.17250E+01 0.00000E+00
 -1       625 1.15350E+01 9.20225E+00 0.00000E+00
 -1       626 1.30934E+02 3.17409E+01 0.00000E+00
 -1       627 1.45350E+01 9.20225E+00 0.00000E+00
 -1       628 1.30021E+02 3.36974E+01 0.00000E+00
 -1       629 1.25958E+02 3.76987E+01 0.00000E+00
 -1       630 1.51500E+01 3.96080E+01 0.00000E+00
 -1       631 1.81500E+01 3.96080E+01 0.00000E+00
 -1       632 2.11500E+01 3.96080E+01 0.00000E+00
 -1       633 2.41500E+01 3.96080E+01 0.00000E+00
 -1       634 2.71500E+01 3.96080E+01 0.00000E+00
 -1       635 3.01500E+01 3.96080E+01 0.00000E+00
 -1       636 3.31500E+01 3.96080E+01 0.00000E+00
 -1       637 3.61500E+01 3.96080E+01 0.00000E+00
 -1       638 3.91500E+01 3.96080E+01 0.00000E+00
 -1       639 4.21500E+01 3.96080E+01 0.00000E+00
 -1       640 4.51500E+01 3.96080E+01 0.00000E+00
 -1       641 4.81500E+01 3.96080E+01 0.00000E+00
 -1       642 5.11500E+01 3.96080E+01 0.00000E+00
 -1       643 5.41500E+01 3.96080E+01 0.00000E+00
 -1       644 5.71500E+01 3.96080E+01 0.00000E+00
 -1       645 6.01500E+01 3.96080E+01 0.00000E+00
 -1       646 6.31500E+01 3.96080E+01 0.00000E+00
 -1       647 6.61500E+01 3.96080E+01 0.00000E+00
 -1       648 6.91500E+01 3.96080E+01 0.00000E+00
 -1       649 7.21500E+01 3.96080E+01 0.00000E+00
 -1       650 7.51500E+01 3.96080E+01 0.00000E+00
 -1       651 7.81500E+01 3.96080E+01 0.00000E+00
 -1       652 8.11500E+01 3.96080E+01 0.00000E+00
 -1       653 8.41500E+01 3.96080E+01 0.00000E+00
 -1       654 8.71500E+01 3.96080E+01 0.00000E+00
 -1       655 9.01500E+01 3.96080E+01 0.00000E+00
 -1       656 9.31500E+01 3.96080E+01 0.00000E+00
 -1       657 9.61500E+01 3.96080E+01 0.00000E+00
 -1       658 9.91500E+01 3.96080E+01 0.00000E+00
 -1       659 1.02150E+02 3.96080E+01 0.00000E+00
 -1       660 1.05150E+02 3.96080E+01 0.00000E+00
 -1       661 1.08150E+02 3.96080E+01 0.00000E+00
 -1       662 1.11150E+02 3.96080E+01 0.00000E+00
 -1       663 1.17150E+02 3.98206E+01 0.00000E+00
 -1       664 1.20150E+02 3.99882E+01 0.00000E+00
 -1       665 1.32150E+02 3.96080E+01 0.00000E+00
 -1       666 1.35150E+02 3.96080E+01 0.00000E+00
 -1       667 1.38150E+02 3.96080E+01 0.00000E+00
 -1       668 2.35350E+01 9.20225E+00 0.00000E+00
 -1       669 1.40178E+02 3.96665E+01 0.00000E+00
 -1       670 2.05350E+01 9.20225E+00 0.00000E+00
 -1       671 2.95350E+01 9.20225E+00 0.00000E+00
 -1       672 3.25350E+01 9.20225E+00 0.00000E+00
 -1       673 3.55350E+01 9.20225E+00 0.00000E+00
 -1       674 3.85350E+01 9.20225E+00 0.00000E+00
 -1       675 4.15350E+01 9.20225E+00 0.00000E+00
 -1       676 4.45350E+01 9.20225E+00 0.00000E+00
 -1       677 4.75350E+01 9.20225E+00 0.00000E+00
 -1       678 5.05350E+01 9.20225E+00 0.00000E+00
 -1       679 5.35350E+01 9.20225E+00 0.00000E+00
 -1       680 5.65350E+01 9.20225E+00 0.00000E+00
 -1       681 5.95350E+01 9.20225E+00 0.00000E+00
 -1       682 6.25350E+01 9.20225E+00 0.00000E+00
 -1       683 6.55350E+01 9.20225E+00 0.00000E+00
 -1       684 6.85350E+01 9.20225E+00 0.00000E+00
 -1       685 7.15350E+01 9.20225E+00 0.00000E+00
 -1       686 7.45350E+01 9.20225E+00 0.00000E+00
 -1       687 7.75350E+01 9.20225E+00 0.00000E+00
 -1       688 8.05350E+01 9.20225E+00 0.00000E+00
 -1       689 8.35350E+01 9.20225E+00 0.00000E+00
 -1       690 8.65350E+01 9.20225E+00 0.00000E+00
 -1       691 8.95350E+01 9.20225E+00 0.00000E+00
 -1       692 9.25350E+01 9.20225E+00 0.00000E+00
 -1       693 9.55350E+01 9.20225E+00 0.00000E+00
 -1       694 9.85350E+01 9.20225E+00 0.00000E+00
 -1       695 1.01535E+02 9.20225E+00 0.00000E+00
 -1       696 1.04535E+02 9.20225E+00 0.00000E+00
 -1       697 1.07535E+02 9.20225E+00 0.00000E+00
 -1       698 1.10535E+02 9.20225E+00 0.00000E+00
 -1       699 1.13535E+02 9.20225E+00 0.00000E+00
 -1       700 1.16535E+02 9.20225E+00 0.00000E+00
 -1       701 1.19535E+02 9.20225E+00 0.00000E+00
 -1       702 1.22535E+02 9.20225E+00 0.00000E+00
 -1       703 1.25535E+02 9.20225E+00 0.00000E+00
 -1       704 1.28535E+02 9.20225E+00 0.00000E+00
 -1       705 1.31535E+02 9.20225E+00 0.00000E+00
 -1       706 1.34535E+02 9.20225E+00 0.00000E+00
 -1       707 1.37535E+02 9.20225E+00 0.00000E+00
 -1       708 1.39870E+02 9.76363E+00 0.00000E+00
 -1       709 1.31780E+02 2.76519E+01 0.00000E+00
 -1       710 1.39608E+02 2.35500E+01 0.00000E+00
 -1       711 1.39608E+02 1.76500E+01 0.00000E+00
 -1       712 1.39608E+02 2.65000E+01 0.00000E+00
 -1       713 1.39608E+02 2.06000E+01 0.00000E+00
 -1       714 1.39608E+02 2.94000E+01 0.00000E+00
 -1       715 1.39608E+02 3.23500E+01 0.00000E+00
 -1       716 1.39608E+02 3.53000E+01 0.00000E+00
 -1       717 1.28362E+02 3.64901E+01 0.00000E+00
 -1       718 1.07220E+01 3.94717E+01 0.00000E+00
 -1       719 1.16205E+02 1.46218E+01 0.00000E+00
 -1       720 1.75350E+01 9.20225E+00 0.00000E+00
 -1       721 2.65350E+01 9.20225E+00 0.00000E+00
 -1       722 1.03920E+01 1.76125E+01 0.00000E+00
 -1       723 1.05987E+02 2.66409E+01 0.00000E+00
 -1       724 1.03920E+01 3.23250E+01 0.00000E+00
 -1       725 1.06542E+02 2.94119E+01 0.00000E+00
 -1       726 1.11828E+02 1.64955E+01 0.00000E+00
 -1       727 1.15043E+02 3.91546E+01 0.00000E+00
 -1       728 1.07040E+02 3.19979E+01 0.00000E+00
 -1       729 1.06392E+02 2.34515E+01 0.00000E+00
 -1       730 1.08558E+02 3.47886E+01 0.00000E+00
 -1       731 1.13843E+02 1.54806E+01 0.00000E+00
 -1       732 1.31099E+02 2.16523E+01 0.00000E+00
 -1       733 1.31593E+02 2.95716E+01 0.00000E+00
 -1       734 1.24896E+02 1.53786E+01 0.00000E+00
 -1       735 1.03920E+01 3.52625E+01 0.00000E+00
 -1       736 1.03920E+01 2.64500E+01 0.00000E+00
 -1       737 1.30400E+02 3.60901E+01 0.00000E+00
 -1       738 1.17598E+02 1.35828E+01 0.00000E+00
 -1       739 1.08917E+02 3.64081E+01 0.00000E+00
 -1       740 1.13676E+02 3.98819E+01 0.00000E+00
 -1       741 1.28902E+02 3.91646E+01 0.00000E+00
 -1       742 1.32340E+02 2.60785E+01 0.00000E+00
 -1       743 1.39870E+02 1.26886E+01 0.00000E+00
 -1       744 1.10168E+02 1.67624E+01 0.00000E+00
 -1       745 1.28325E+02 1.75139E+01 0.00000E+00
 -1       746 1.08498E+02 1.92966E+01 0.00000E+00
 -1       747 1.38879E+02 3.74540E+01 0.00000E+00
 -1       748 1.06151E+02 2.16584E+01 0.00000E+00
 -1       749 1.39739E+02 1.51693E+01 0.00000E+00
 -1       750 1.20929E+02 1.37812E+01 0.00000E+00
 -1       751 1.03920E+01 2.93875E+01 0.00000E+00
 -1       752 1.23720E+02 1.39217E+01 0.00000E+00
 -1       753 1.30841E+02 1.99925E+01 0.00000E+00
 -1       754 1.24051E+02 3.89014E+01 0.00000E+00
 -1       755 1.29900E+01 1.32000E+01 0.00000E+00
 -1       756 1.11913E+02 1.41570E+01 0.00000E+00
 -1       757 1.96500E+01 3.70100E+01 0.00000E+00
 -1       758 2.26500E+01 3.70100E+01 0.00000E+00
 -1       759 2.56500E+01 3.70100E+01 0.00000E+00
 -1       760 2.86500E+01 3.70100E+01 0.00000E+00
 -1       761 3.16500E+01 3.70100E+01 0.00000E+00
 -1       762 3.46500E+01 3.70100E+01 0.00000E+00
 -1       763 3.76500E+01 3.70100E+01 0.00000E+00
 -1       764 4.06500E+01 3.70100E+01 0.00000E+00
 -1       765 4.36500E+01 3.70100E+01 0.00000E+00
 -1       766 4.66500E+01 3.70100E+01 0.00000E+00
 -1       767 4.96500E+01 3.70100E+01 0.00000E+00
 -1       768 5.26500E+01 3.70100E+01 0.00000E+00
 -1       769 5.56500E+01 3.70100E+01 0.00000E+00
 -1       770 5.86500E+01 3.70100E+01 0.00000E+00
 -1       771 6.16500E+01 3.70100E+01 0.00000E+00
 -1       772 6.46500E+01 3.70100E+01 0.00000E+00
 -1       773 6.76500E+01 3.70100E+01 0.00000E+00
 -1       774 7.06500E+01 3.70100E+01 0.00000E+00
 -1       775 7.36500E+01 3.70100E+01 0.00000E+00
 -1       776 7.66500E+01 3.70100E+01 0.00000E+00
 -1       777 7.96500E+01 3.70100E+01 0.00000E+00
 -1       778 8.26500E+01 3.70100E+01 0.00000E+00
 -1       779 8.56500E+01 3.70100E+01 0.00000E+00
 -1       780 8.86500E+01 3.70100E+01 0.00000E+00
 -1       781 9.16500E+01 3.70100E+01 0.00000E+00
 -1       782 9.46500E+01 3.70100E+01 0.00000E+00
 -1       783 9.76500E+01 3.70100E+01 0.00000E+00
 -1       784 1.00650E+02 3.70100E+01 0.00000E+00
 -1       785 1.03650E+02 3.70100E+01 0.00000E+00
 -1       786 1.35879E+02 3.74540E+01 0.00000E+00
 -1       787 2.20350E+01 1.18003E+01 0.00000E+00
 -1       788 3.40350E+01 1.18003E+01 0.00000E+00
 -1       789 3.10350E+01 1.18003E+01 0.00000E+00
 -1       790 4.00350E+01 1.18003E+01 0.00000E+00
 -1       791 4.30350E+01 1.18003E+01 0.00000E+00
 -1       792 4.60350E+01 1.18003E+01 0.00000E+00
 -1       793 4.90350E+01 1.18003E+01 0.00000E+00
 -1       794 5.20350E+01 1.18003E+01 0.00000E+00
 -1       795 5.50350E+01 1.18003E+01 0.00000E+00
 -1       796 5.80350E+01 1.18003E+01 0.00000E+00
 -1       797 6.10350E+01 1.18003E+01 0.00000E+00
 -1       798 6.40350E+01 1.18003E+01 0.00000E+00
 -1       799 6.70350E+01 1.18003E+01 0.00000E+00
 -1       800 7.00350E+01 1.18003E+01 0.00000E+00
 -1       801 7.30350E+01 1.18003E+01 0.00000E+00
 -1       802 7.60350E+01 1.18003E+01 0.00000E+00
 -1       803 7.90350E+01 1.18003E+01 0.00000E+00
 -1       804 8.20350E+01 1.18003E+01 0.00000E+00
 -1       805 8.50350E+01 1.18003E+01 0.00000E+00
 -1       806 8.80350E+01 1.18003E+01 0.00000E+00
 -1       807 9.10350E+01 1.18003E+01 0.00000E+00
 -1       808 9.40350E+01 1.18003E+01 0.00000E+00
 -1       809 9.70350E+01 1.18003E+01 0.00000E+00
 -1       810 1.00035E+02 1.18003E+01 0.00000E+00
 -1       811 1.03035E+02 1.18003E+01 0.00000E+00
 -1       812 1.06035E+02 1.18003E+01 0.00000E+00
 -1       813 1.09035E+02 1.18003E+01 0.00000E+00
 -1       814 1.18035E+02 1.18003E+01 0.00000E+00
 -1       815 1.30035E+02 1.18003E+01 0.00000E+00
 -1       816 1.33035E+02 1.18003E+01 0.00000E+00
 -1       817 1.36035E+02 1.18003E+01 0.00000E+00
 -1       818 1.37953E+02 1.22444E+01 0.00000E+00
 -1       819 1.37010E+02 2.79500E+01 0.00000E+00
 -1       820 1.37010E+02 2.50000E+01 0.00000E+00
 -1       821 1.37010E+02 3.09000E+01 0.00000E+00
 -1       822 1.37010E+02 3.38500E+01 0.00000E+00
 -1       823 3.70350E+01 1.18003E+01 0.00000E+00
 -1       824 1.29900E+01 2.20250E+01 0.00000E+00
 -1       825 1.66500E+01 3.70100E+01 0.00000E+00
 -1       826 1.12183E+02 3.77275E+01 0.00000E+00
 -1       827 1.33248E+02 3.12590E+01 0.00000E+00
 -1       828 1.33205E+02 2.30149E+01 0.00000E+00
 -1       829 1.04254E+02 2.84291E+01 0.00000E+00
 -1       830 1.04777E+02 3.10927E+01 0.00000E+00
 -1       831 1.37625E+01 1.12011E+01 0.00000E+00
 -1       832 1.05998E+02 3.43728E+01 0.00000E+00
 -1       833 1.33250E+02 2.87643E+01 0.00000E+00
 -1       834 1.32053E+02 3.34544E+01 0.00000E+00
 -1       835 1.27580E+02 1.49233E+01 0.00000E+00
 -1       836 1.35210E+01 3.61362E+01 0.00000E+00
 -1       837 1.03989E+02 2.47664E+01 0.00000E+00
 -1       838 1.29900E+01 2.49750E+01 0.00000E+00
 -1       839 1.33810E+02 2.71909E+01 0.00000E+00
 -1       840 1.15776E+02 1.25931E+01 0.00000E+00
 -1       841 1.29900E+01 1.61375E+01 0.00000E+00
 -1       842 1.33601E+02 3.65312E+01 0.00000E+00
 -1       843 1.06650E+02 3.70100E+01 0.00000E+00
 -1       844 1.26405E+02 1.34664E+01 0.00000E+00
 -1       845 1.30636E+02 1.80837E+01 0.00000E+00
 -1       846 2.50350E+01 1.18003E+01 0.00000E+00
 -1       847 1.29900E+01 1.90812E+01 0.00000E+00
 -1       848 2.80350E+01 1.18003E+01 0.00000E+00
 -1       849 1.15035E+02 1.15876E+01 0.00000E+00
 -1       850 1.08363E+02 1.71982E+01 0.00000E+00
 -1       851 1.37010E+02 1.91250E+01 0.00000E+00
 -1       852 1.37010E+02 2.20625E+01 0.00000E+00
 -1       853 1.10253E+02 1.44239E+01 0.00000E+00
 -1       854 1.03748E+02 2.29733E+01 0.00000E+00
 -1       855 1.06138E+02 1.97511E+01 0.00000E+00
 -1       856 1.90350E+01 1.18003E+01 0.00000E+00
 -1       857 1.63988E+01 1.15007E+01 0.00000E+00
 -1       858 1.37141E+02 1.66443E+01 0.00000E+00
 -1       859 1.33279E+02 2.05928E+01 0.00000E+00
 -1       860 1.36445E+02 3.56520E+01 0.00000E+00
 -1       861 1.29900E+01 3.08563E+01 0.00000E+00
 -1       862 1.32555E+01 3.34963E+01 0.00000E+00
 -1       863 1.03152E+02 3.35644E+01 0.00000E+00
 -1       864 1.34829E+02 3.39852E+01 0.00000E+00
 -1       865 4.75350E+01 1.43982E+01 0.00000E+00
 -1       866 3.25350E+01 1.43982E+01 0.00000E+00
 -1       867 2.11500E+01 3.44120E+01 0.00000E+00
 -1       868 2.41500E+01 3.44120E+01 0.00000E+00
 -1       869 2.71500E+01 3.44120E+01 0.00000E+00
 -1       870 3.01500E+01 3.44120E+01 0.00000E+00
 -1       871 3.31500E+01 3.44120E+01 0.00000E+00
 -1       872 3.61500E+01 3.44120E+01 0.00000E+00
 -1       873 3.91500E+01 3.44120E+01 0.00000E+00
 -1       874 4.21500E+01 3.44120E+01 0.00000E+00
 -1       875 4.51500E+01 3.44120E+01 0.00000E+00
 -1       876 4.81500E+01 3.44120E+01 0.00000E+00
 -1       877 5.11500E+01 3.44120E+01 0.00000E+00
 -1       878 5.41500E+01 3.44120E+01 0.00000E+00
 -1       879 5.71500E+01 3.44120E+01 0.00000E+00
 -1       880 6.01500E+01 3.44120E+01 0.00000E+00
 -1       881 6.31500E+01 3.44120E+01 0.00000E+00
 -1       882 6.61500E+01 3.44120E+01 0.00000E+00
 -1       883 6.91500E+01 3.44120E+01 0.00000E+00
 -1       884 7.21500E+01 3.44120E+01 0.00000E+00
 -1       885 7.51500E+01 3.44120E+01 0.00000E+00
 -1       886 7.81500E+01 3.44120E+01 0.00000E+00
 -1       887 8.11500E+01 3.44120E+01 0.00000E+00
 -1       888 8.41500E+01 3.44120E+01 0.00000E+00
 -1       889 8.71500E+01 3.44120E+01 0.00000E+00
 -1       890 9.01500E+01 3.44120E+01 0.00000E+00
 -1       891 9.31500E+01 3.44120E+01 0.00000E+00
 -1       892 9.61500E+01 3.44120E+01 0.00000E+00
 -1       893 9.91500E+01 3.44120E+01 0.00000E+00
 -1       894 4.45350E+01 1.43982E+01 0.00000E+00
 -1       895 4.15350E+01 1.43982E+01 0.00000E+00
 -1       896 5.05350E+01 1.43982E+01 0.00000E+00
 -1       897 5.35350E+01 1.43982E+01 0.00000E+00
 -1       898 5.65350E+01 1.43982E+01 0.00000E+00
 -1       899 5.95350E+01 1.43982E+01 0.00000E+00
 -1       900 6.25350E+01 1.43982E+01 0.00000E+00
 -1       901 6.55350E+01 1.43982E+01 0.00000E+00
 -1       902 6.85350E+01 1.43982E+01 0.00000E+00
 -1       903 7.15350E+01 1.43982E+01 0.00000E+00
 -1       904 7.45350E+01 1.43982E+01 0.00000E+00
 -1       905 7.75350E+01 1.43982E+01 0.00000E+00
 -1       906 8.05350E+01 1.43982E+01 0.00000E+00
 -1       907 8.35350E+01 1.43982E+01 0.00000E+00
 -1       908 8.65350E+01 1.43982E+01 0.00000E+00
 -1       909 8.95350E+01 1.43982E+01 0.00000E+00
 -1       910 9.25350E+01 1.43982E+01 0.00000E+00
 -1       911 9.55350E+01 1.43982E+01 0.00000E+00
 -1       912 9.85350E+01 1.43982E+01 0.00000E+00
 -1       913 1.01535E+02 1.43982E+01 0.00000E+00
 -1       914 1.04535E+02 1.43982E+01 0.00000E+00
 -1       915 1.31535E+02 1.43982E+01 0.00000E+00
 -1       916 1.81500E+01 3.44120E+01 0.00000E+00
 -1       917 1.34674E+02 2.41273E+01 0.00000E+00
 -1       918 1.02077E+02 2.67454E+01 0.00000E+00
 -1       919 1.29900E+01 2.79188E+01 0.00000E+00
 -1       920 1.34535E+02 1.43982E+01 0.00000E+00
 -1       921 1.33073E+02 1.86839E+01 0.00000E+00
 -1       922 1.02668E+02 3.01241E+01 0.00000E+00
 -1       923 1.37547E+02 1.44444E+01 0.00000E+00
 -1       924 1.34749E+02 2.17052E+01 0.00000E+00
 -1       925 1.56263E+01 1.34996E+01 0.00000E+00
 -1       926 3.85350E+01 1.43982E+01 0.00000E+00
 -1       927 2.95350E+01 1.43982E+01 0.00000E+00
 -1       928 1.55880E+01 2.05531E+01 0.00000E+00
 -1       929 1.34481E+02 1.77474E+01 0.00000E+00
 -1       930 1.07535E+02 1.43982E+01 0.00000E+00
 -1       931 1.34543E+02 1.97963E+01 0.00000E+00
 -1       932 1.01438E+02 2.42145E+01 0.00000E+00
 -1       933 1.06004E+02 1.76527E+01 0.00000E+00
 -1       934 3.55350E+01 1.43982E+01 0.00000E+00
 -1       935 1.03735E+02 2.10659E+01 0.00000E+00
 -1       936 1.55880E+01 2.93875E+01 0.00000E+00
 -1       937 2.05350E+01 1.43982E+01 0.00000E+00
 -1       938 1.55880E+01 2.35031E+01 0.00000E+00
 -1       939 2.35350E+01 1.43982E+01 0.00000E+00
 -1       940 1.58535E+01 3.20275E+01 0.00000E+00
 -1       941 1.51501E+01 3.44120E+01 0.00000E+00
 -1       942 2.56500E+01 3.18140E+01 0.00000E+00
 -1       943 2.86500E+01 3.18140E+01 0.00000E+00
 -1       944 3.16500E+01 3.18140E+01 0.00000E+00
 -1       945 3.46500E+01 3.18140E+01 0.00000E+00
 -1       946 3.76500E+01 3.18140E+01 0.00000E+00
 -1       947 4.06500E+01 3.18140E+01 0.00000E+00
 -1       948 4.36500E+01 3.18140E+01 0.00000E+00
 -1       949 4.66500E+01 3.18140E+01 0.00000E+00
 -1       950 4.96500E+01 3.18140E+01 0.00000E+00
 -1       951 5.26500E+01 3.18140E+01 0.00000E+00
 -1       952 5.56500E+01 3.18140E+01 0.00000E+00
 -1       953 5.86500E+01 3.18140E+01 0.00000E+00
 -1       954 6.16500E+01 3.18140E+01 0.00000E+00
 -1       955 6.46500E+01 3.18140E+01 0.00000E+00
 -1       956 6.76500E+01 3.18140E+01 0.00000E+00
 -1       957 7.06500E+01 3.18140E+01 0.00000E+00
 -1       958 7.36500E+01 3.18140E+01 0.00000E+00
 -1       959 7.66500E+01 3.18140E+01 0.00000E+00
 -1       960 7.96500E+01 3.18140E+01 0.00000E+00
 -1       961 8.26500E+01 3.18140E+01 0.00000E+00
 -1       962 8.56500E+01 3.18140E+01 0.00000E+00
 -1       963 8.86500E+01 3.18140E+01 0.00000E+00
 -1       964 9.16500E+01 3.18140E+01 0.00000E+00
 -1       965 9.46500E+01 3.18140E+01 0.00000E+00
 -1       966 9.76500E+01 3.18140E+01 0.00000E+00
 -1       967 2.65350E+01 1.43982E+01 0.00000E+00
 -1       968 1.55880E+01 1.76094E+01 0.00000E+00
 -1       969 1.55880E+01 2.64453E+01 0.00000E+00
 -1       970 4.30350E+01 1.69963E+01 0.00000E+00
 -1       971 5.50350E+01 1.69963E+01 0.00000E+00
 -1       972 5.80350E+01 1.69963E+01 0.00000E+00
 -1       973 6.10350E+01 1.69963E+01 0.00000E+00
 -1       974 6.40350E+01 1.69963E+01 0.00000E+00
 -1       975 6.70350E+01 1.69963E+01 0.00000E+00
 -1       976 7.00350E+01 1.69963E+01 0.00000E+00
 -1       977 7.30350E+01 1.69963E+01 0.00000E+00
 -1       978 7.60350E+01 1.69963E+01 0.00000E+00
 -1       979 7.90350E+01 1.69963E+01 0.00000E+00
 -1       980 8.20350E+01 1.69963E+01 0.00000E+00
 -1       981 8.50350E+01 1.69963E+01 0.00000E+00
 -1       982 8.80350E+01 1.69963E+01 0.00000E+00
 -1       983 9.10350E+01 1.69963E+01 0.00000E+00
 -1       984 9.40350E+01 1.69963E+01 0.00000E+00
 -1       985 9.70350E+01 1.69963E+01 0.00000E+00
 -1       986 1.00035E+02 1.69963E+01 0.00000E+00
 -1       987 1.03020E+02 1.73245E+01 0.00000E+00
 -1       988 9.96070E+01 2.60224E+01 0.00000E+00
 -1       989 4.90350E+01 1.69963E+01 0.00000E+00
 -1       990 1.01426E+02 2.23072E+01 0.00000E+00
 -1       991 1.96500E+01 3.18140E+01 0.00000E+00
 -1       992 5.20350E+01 1.69963E+01 0.00000E+00
 -1       993 1.80806E+01 1.39489E+01 0.00000E+00
 -1       994 4.60350E+01 1.69963E+01 0.00000E+00
 -1       995 1.00353E+02 2.87884E+01 0.00000E+00
 -1       996 2.26500E+01 3.18140E+01 0.00000E+00
 -1       997 4.00350E+01 1.69963E+01 0.00000E+00
 -1       998 3.10350E+01 1.69963E+01 0.00000E+00
 -1       999 9.89007E+01 3.06201E+01 0.00000E+00
 -1      1000 1.81860E+01 2.79164E+01 0.00000E+00
 -1      1001 9.92144E+01 2.32751E+01 0.00000E+00
 -1      1002 1.03378E+02 1.91952E+01 0.00000E+00
 -1      1003 1.81860E+01 1.90812E+01 0.00000E+00
 -1      1004 1.81860E+01 2.20313E+01 0.00000E+00
 -1      1005 3.40350E+01 1.69963E+01 0.00000E+00
 -1      1006 2.20350E+01 1.69963E+01 0.00000E+00
 -1      1007 1.89180E+01 2.98652E+01 0.00000E+00
 -1      1008 1.90351E+01 1.69963E+01 0.00000E+00
 -1      1009 2.50350E+01 1.69963E+01 0.00000E+00
 -1      1010 3.01500E+01 2.92160E+01 0.00000E+00
 -1      1011 3.31500E+01 2.92160E+01 0.00000E+00
 -1      1012 3.61500E+01 2.92160E+01 0.00000E+00
 -1      1013 3.91500E+01 2.92160E+01 0.00000E+00
 -1      1014 4.21500E+01 2.92160E+01 0.00000E+00
 -1      1015 4.51500E+01 2.92160E+01 0.00000E+00
 -1      1016 4.81500E+01 2.92160E+01 0.00000E+00
 -1      1017 5.11500E+01 2.92160E+01 0.00000E+00
 -1      1018 5.41500E+01 2.92160E+01 0.00000E+00
 -1      1019 5.71500E+01 2.92160E+01 0.00000E+00
 -1      1020 6.01500E+01 2.92160E+01 0.00000E+00
 -1      1021 6.31500E+01 2.92160E+01 0.00000E+00
 -1      1022 6.61500E+01 2.92160E+01 0.00000E+00
 -1      1023 6.91500E+01 2.92160E+01 0.00000E+00
 -1      1024 7.21500E+01 2.92160E+01 0.00000E+00
 -1      1025 7.51500E+01 2.92160E+01 0.00000E+00
 -1      1026 7.81500E+01 2.92160E+01 0.00000E+00
 -1      1027 8.11500E+01 2.92160E+01 0.00000E+00
 -1      1028 8.41500E+01 2.92160E+01 0.00000E+00
 -1      1029 8.71500E+01 2.92160E+01 0.00000E+00
 -1      1030 9.01500E+01 2.92160E+01 0.00000E+00
 -1      1031 9.31500E+01 2.92160E+01 0.00000E+00
 -1      1032 9.61500E+01 2.92160E+01 0.00000E+00
 -1      1033 2.80350E+01 1.69963E+01 0.00000E+00
 -1      1034 1.81860E+01 2.49734E+01 0.00000E+00
 -1      1035 5.95350E+01 1.95942E+01 0.00000E+00
 -1      1036 5.65350E+01 1.95942E+01 0.00000E+00
 -1      1037 6.55350E+01 1.95942E+01 0.00000E+00
 -1      1038 6.85350E+01 1.95942E+01 0.00000E+00
 -1      1039 7.15350E+01 1.95942E+01 0.00000E+00
 -1      1040 7.45350E+01 1.95942E+01 0.00000E+00
 -1      1041 7.75350E+01 1.95942E+01 0.00000E+00
 -1      1042 8.05350E+01 1.95942E+01 0.00000E+00
 -1      1043 8.35350E+01 1.95942E+01 0.00000E+00
 -1      1044 8.65350E+01 1.95942E+01 0.00000E+00
 -1      1045 8.95350E+01 1.95942E+01 0.00000E+00
 -1      1046 9.25350E+01 1.95942E+01 0.00000E+00
 -1      1047 9.55350E+01 1.95942E+01 0.00000E+00
 -1      1048 9.85350E+01 1.95942E+01 0.00000E+00
 -1      1049 5.05350E+01 1.95942E+01 0.00000E+00
 -1      1050 9.68834E+01 2.50099E+01 0.00000E+00
 -1      1051 1.01068E+02 2.04365E+01 0.00000E+00
 -1      1052 3.70350E+01 1.69963E+01 0.00000E+00
 -1      1053 5.35350E+01 1.95942E+01 0.00000E+00
 -1      1054 6.25350E+01 1.95942E+01 0.00000E+00
 -1      1055 2.41500E+01 2.92160E+01 0.00000E+00
 -1      1056 2.15340E+01 2.95406E+01 0.00000E+00
 -1      1057 9.76769E+01 2.80265E+01 0.00000E+00
 -1      1058 2.71500E+01 2.92160E+01 0.00000E+00
 -1      1059 2.11859E+01 1.90812E+01 0.00000E+00
 -1      1060 2.95350E+01 1.95942E+01 0.00000E+00
 -1      1061 4.45350E+01 1.95942E+01 0.00000E+00
 -1      1062 4.75350E+01 1.95942E+01 0.00000E+00
 -1      1063 3.25350E+01 1.95942E+01 0.00000E+00
 -1      1064 2.41859E+01 1.90812E+01 0.00000E+00
 -1      1065 2.07840E+01 2.64449E+01 0.00000E+00
 -1      1066 2.11590E+01 2.79928E+01 0.00000E+00
 -1      1067 9.62092E+01 2.23021E+01 0.00000E+00
 -1      1068 4.15350E+01 1.95942E+01 0.00000E+00
 -1      1069 2.68605E+01 1.93377E+01 0.00000E+00
 -1      1070 3.46500E+01 2.66180E+01 0.00000E+00
 -1      1071 3.76500E+01 2.66180E+01 0.00000E+00
 -1      1072 4.06500E+01 2.66180E+01 0.00000E+00
 -1      1073 4.36500E+01 2.66180E+01 0.00000E+00
 -1      1074 4.66500E+01 2.66180E+01 0.00000E+00
 -1      1075 4.96500E+01 2.66180E+01 0.00000E+00
 -1      1076 5.26500E+01 2.66180E+01 0.00000E+00
 -1      1077 5.56500E+01 2.66180E+01 0.00000E+00
 -1      1078 5.86500E+01 2.66180E+01 0.00000E+00
 -1      1079 6.16500E+01 2.66180E+01 0.00000E+00
 -1      1080 6.46500E+01 2.66180E+01 0.00000E+00
 -1      1081 6.76500E+01 2.66180E+01 0.00000E+00
 -1      1082 7.06500E+01 2.66180E+01 0.00000E+00
 -1      1083 7.36500E+01 2.66180E+01 0.00000E+00
 -1      1084 7.66500E+01 2.66180E+01 0.00000E+00
 -1      1085 7.96500E+01 2.66180E+01 0.00000E+00
 -1      1086 8.26500E+01 2.66180E+01 0.00000E+00
 -1      1087 8.56500E+01 2.66180E+01 0.00000E+00
 -1      1088 8.86500E+01 2.66180E+01 0.00000E+00
 -1      1089 9.16500E+01 2.66180E+01 0.00000E+00
 -1      1090 9.46634E+01 2.73223E+01 0.00000E+00
 -1      1091 5.80350E+01 2.21922E+01 0.00000E+00
 -1      1092 7.00350E+01 2.21922E+01 0.00000E+00
 -1      1093 6.70350E+01 2.21922E+01 0.00000E+00
 -1      1094 7.60350E+01 2.21922E+01 0.00000E+00
 -1      1095 7.90350E+01 2.21922E+01 0.00000E+00
 -1      1096 8.20350E+01 2.21922E+01 0.00000E+00
 -1      1097 8.50350E+01 2.21922E+01 0.00000E+00
 -1      1098 8.80350E+01 2.21922E+01 0.00000E+00
 -1      1099 9.10350E+01 2.21922E+01 0.00000E+00
 -1      1100 9.36221E+01 2.22472E+01 0.00000E+00
 -1      1101 2.07840E+01 2.35027E+01 0.00000E+00
 -1      1102 2.56500E+01 2.66180E+01 0.00000E+00
 -1      1103 2.86500E+01 2.66180E+01 0.00000E+00
 -1      1104 7.30350E+01 2.21922E+01 0.00000E+00
 -1      1105 3.16500E+01 2.66180E+01 0.00000E+00
 -1      1106 2.38222E+01 2.14202E+01 0.00000E+00
 -1      1107 5.50350E+01 2.21922E+01 0.00000E+00
 -1      1108 4.60350E+01 2.21922E+01 0.00000E+00
 -1      1109 3.85350E+01 1.95942E+01 0.00000E+00
 -1      1110 4.90350E+01 2.21922E+01 0.00000E+00
 -1      1111 6.10350E+01 2.21922E+01 0.00000E+00
 -1      1112 6.40350E+01 2.21922E+01 0.00000E+00
 -1      1113 2.38222E+01 2.43624E+01 0.00000E+00
 -1      1114 3.55350E+01 1.95942E+01 0.00000E+00
 -1      1115 3.10350E+01 2.21922E+01 0.00000E+00
 -1      1116 4.30350E+01 2.21922E+01 0.00000E+00
 -1      1117 9.39296E+01 2.44600E+01 0.00000E+00
 -1      1118 2.83605E+01 2.19357E+01 0.00000E+00
 -1      1119 5.20350E+01 2.21922E+01 0.00000E+00
 -1      1120 3.61500E+01 2.40200E+01 0.00000E+00
 -1      1121 3.91500E+01 2.40200E+01 0.00000E+00
 -1      1122 2.67546E+01 2.38546E+01 0.00000E+00
 -1      1123 3.40350E+01 2.21922E+01 0.00000E+00
 -1      1124 0.00000E+00 4.85250E+01 0.00000E+00
 -1      1125 0.00000E+00 4.55750E+01 0.00000E+00
 -1      1126 0.00000E+00 4.26250E+01 0.00000E+00
 -1      1127 0.00000E+00 3.96750E+01 0.00000E+00
 -1      1128 0.00000E+00 3.67250E+01 0.00000E+00
 -1      1129 0.00000E+00 3.38000E+01 0.00000E+00
 -1      1130 0.00000E+00 3.08750E+01 0.00000E+00
 -1      1131 0.00000E+00 2.79250E+01 0.00000E+00
 -1      1132 0.00000E+00 2.49750E+01 0.00000E+00
 -1      1133 0.00000E+00 2.20250E+01 0.00000E+00
 -1      1134 0.00000E+00 1.90750E+01 0.00000E+00
 -1      1135 0.00000E+00 1.61500E+01 0.00000E+00
 -1      1136 0.00000E+00 1.32250E+01 0.00000E+00
 -1      1137 0.00000E+00 1.02750E+01 0.00000E+00
 -1      1138 0.00000E+00 7.32500E+00 0.00000E+00
 -1      1139 0.00000E+00 4.37500E+00 0.00000E+00
 -1      1140 0.00000E+00 1.45000E+00 0.00000E+00
 -1      1141 1.57500E+00 5.00000E+01 0.00000E+00
 -1      1142 4.65000E+00 5.00000E+01 0.00000E+00
 -1      1143 7.65000E+00 5.00000E+01 0.00000E+00
 -1      1144 1.06500E+01 5.00000E+01 0.00000E+00
 -1      1145 1.36500E+01 5.00000E+01 0.00000E+00
 -1      1146 1.66500E+01 5.00000E+01 0.00000E+00
 -1      1147 1.96500E+01 5.00000E+01 0.00000E+00
 -1      1148 2.26500E+01 5.00000E+01 0.00000E+00
 -1      1149 2.56500E+01 5.00000E+01 0.00000E+00
 -1      1150 2.86500E+01 5.00000E+01 0.00000E+00
 -1      1151 3.16500E+01 5.00000E+01 0.00000E+00
 -1      1152 3.46500E+01 5.00000E+01 0.00000E+00
 -1      1153 3.76500E+01 5.00000E+01 0.00000E+00
 -1      1154 4.06500E+01 5.00000E+01 0.00000E+00
 -1      1155 4.36500E+01 5.00000E+01 0.00000E+00
 -1      1156 4.66500E+01 5.00000E+01 0.00000E+00
 -1      1157 4.96500E+01 5.00000E+01 0.00000E+00
 -1      1158 5.26500E+01 5.00000E+01 0.00000E+00
 -1      1159 5.56500E+01 5.00000E+01 0.00000E+00
 -1      1160 5.86500E+01 5.00000E+01 0.00000E+00
 -1      1161 6.16500E+01 5.00000E+01 0.00000E+00
 -1      1162 6.46500E+01 5.00000E+01 0.00000E+00
 -1      1163 6.76500E+01 5.00000E+01 0.00000E+00
 -1      1164 7.06500E+01 5.00000E+01 0.00000E+00
 -1      1165 7.36500E+01 5.00000E+01 0.00000E+00
 -1      1166 7.66500E+01 5.00000E+01 0.00000E+00
 -1      1167 7.96500E+01 5.00000E+01 0.00000E+00
 -1      1168 8.26500E+01 5.00000E+01 0.00000E+00
 -1      1169 8.56500E+01 5.00000E+01 0.00000E+00
 -1      1170 8.86500E+01 5.00000E+01 0.00000E+00
 -1      1171 9.16500E+01 5.00000E+01 0.00000E+00
 -1      1172 9.46500E+01 5.00000E+01 0.00000E+00
 -1      1173 9.76500E+01 5.00000E+01 0.00000E+00
 -1      1174 1.00650E+02 5.00000E+01 0.00000E+00
 -1      1175 1.03650E+02 5.00000E+01 0.00000E+00
 -1      1176 1.06650E+02 5.00000E+01 0.00000E+00
 -1      1177 1.09650E+02 5.00000E+01 0.00000E+00
 -1      1178 1.12650E+02 5.00000E+01 0.00000E+00
 -1      1179 1.15650E+02 5.00000E+01 0.00000E+00
 -1      1180 1.18650E+02 5.00000E+01 0.00000E+00
 -1      1181 1.21650E+02 5.00000E+01 0.00000E+00
 -1      1182 1.24650E+02 5.00000E+01 0.00000E+00
 -1      1183 1.27650E+02 5.00000E+01 0.00000E+00
 -1      1184 1.30650E+02 5.00000E+01 0.00000E+00
 -1      1185 1.33650E+02 5.00000E+01 0.00000E+00
 -1      1186 1.36650E+02 5.00000E+01 0.00000E+00
 -1      1187 1.39650E+02 5.00000E+01 0.00000E+00
 -1      1188 1.42650E+02 5.00000E+01 0.00000E+00
 -1      1189 1.45650E+02 5.00000E+01 0.00000E+00
 -1      1190 1.48575E+02 5.00000E+01 0.00000E+00
 -1      1191 1.57500E+00 0.00000E+00 0.00000E+00
 -1      1192 4.65000E+00 0.00000E+00 0.00000E+00
 -1      1193 7.65000E+00 0.00000E+00 0.00000E+00
 -1      1194 1.06500E+01 0.00000E+00 0.00000E+00
 -1      1195 1.36500E+01 0.00000E+00 0.00000E+00
 -1      1196 1.66500E+01 0.00000E+00 0.00000E+00
 -1      1197 1.96500E+01 0.00000E+00 0.00000E+00
 -1      1198 2.26500E+01 0.00000E+00 0.00000E+00
 -1      1199 2.56500E+01 0.00000E+00 0.00000E+00
 -1      1200 2.86500E+01 0.00000E+00 0.00000E+00
 -1      1201 3.16500E+01 0.00000E+00 0.00000E+00
 -1      1202 3.46500E+01 0.00000E+00 0.00000E+00
 -1      1203 3.76500E+01 0.00000E+00 0.00000E+00
 -1      1204 4.06500E+01 0.00000E+00 0.00000E+00
 -1      1205 4.36500E+01 0.00000E+00 0.00000E+00
 -1      1206 4.66500E+01 0.00000E+00 0.00000E+00
 -1      1207 4.96500E+01 0.00000E+00 0.00000E+00
 -1      1208 5.26500E+01 0.00000E+00 0.00000E+00
 -1      1209 5.56500E+01 0.00000E+00 0.00000E+00
 -1      1210 5.86500E+01 0.00000E+00 0.00000E+00
 -1      1211 6.16500E+01 0.00000E+00 0.00000E+00
 -1      1212 6.46500E+01 0.00000E+00 0.00000E+00
 -1      1213 6.76500E+01 0.00000E+00 0.00000E+00
 -1      1214 7.06500E+01 0.00000E+00 0.00000E+00
 -1      1215 7.36500E+01 0.00000E+00 0.00000E+00
 -1      1216 7.66500E+01 0.00000E+00 0.00000E+00
 -1      1217 7.96500E+01 0.00000E+00 0.00000E+00
 -1      1218 8.26500E+01 0.00000E+00 0.00000E+00
 -1      1219 8.56500E+01 0.00000E+00 0.00000E+00
 -1      1220 8.86500E+01 0.00000E+00 0.00000E+00
 -1      1221 9.16500E+01 0.00000E+00 0.00000E+00
 -1      1222 9.46500E+01 0.00000E+00 0.00000E+00
 -1      1223 9.76500E+01 0.00000E+00 0.00000E+00
 -1      1224 1.00650E+02 0.00000E+00 0.00000E+00
 -1      1225 1.03650E+02 0.00000E+00 0.00000E+00
 -1      1226 1.06650E+02 0.00000E+00 0.00000E+00
 -1      1227 1.09650E+02 0.00000E+00 0.00000E+00
 -1      1228 1.12650E+02 0.00000E+00 0.00000E+00
 -1      1229 1.15650E+02 0.00000E+00 0.00000E+00
 -1      1230 1.18650E+02 0.00000E+00 0.00000E+00
 -1      1231 1.21650E+02 0.00000E+00 0.00000E+00
 -1      1232 1.24650E+02 0.00000E+00 0.00000E+00
 -1      1233 1.27650E+02 0.00000E+00 0.00000E+00
 -1      1234 1.30650E+02 0.00000E+00 0.00000E+00
 -1      1235 1.33650E+02 0.00000E+00 0.00000E+00
 -1      1236 1.36650E+02 0.00000E+00 0.00000E+00
 -1      1237 1.39650E+02 0.00000E+00 0.00000E+00
 -1      1238 1.42650E+02 0.00000E+00 0.00000E+00
 -1      1239 1.45650E+02 0.00000E+00 0.00000E+00
 -1      1240 1.48575E+02 0.00000E+00 0.00000E+00
 -1      1241 1.50000E+02 1.47500E+00 0.00000E+00
 -1      1242 1.50000E+02 4.42500E+00 0.00000E+00
 -1      1243 1.50000E+02 7.37500E+00 0.00000E+00
 -1      1244 1.50000E+02 1.03250E+01 0.00000E+00
 -1      1245 1.50000E+02 1.32750E+01 0.00000E+00
 -1      1246 1.50000E+02 1.62000E+01 0.00000E+00
 -1      1247 1.50000E+02 1.91250E+01 0.00000E+00
 -1      1248 1.50000E+02 2.20750E+01 0.00000E+00
 -1      1249 1.50000E+02 2.50250E+01 0.00000E+00
 -1      1250 1.50000E+02 2.79750E+01 0.00000E+00
 -1      1251 1.50000E+02 3.09250E+01 0.00000E+00
 -1      1252 1.50000E+02 3.38500E+01 0.00000E+00
 -1      1253 1.50000E+02 3.67750E+01 0.00000E+00
 -1      1254 1.50000E+02 3.97250E+01 0.00000E+00
 -1      1255 1.50000E+02 4.26750E+01 0.00000E+00
 -1      1256 1.50000E+02 4.56250E+01 0.00000E+00
 -1      1257 1.50000E+02 4.85500E+01 0.00000E+00
 -1      1258 1.26162E+02 2.63304E+01 0.00000E+00
 -1      1259 1.25791E+02 2.47511E+01 0.00000E+00
 -1      1260 1.25103E+02 2.33560E+01 0.00000E+00
 -1      1261 1.24123E+02 2.21462E+01 0.00000E+00
 -1      1262 1.22893E+02 2.11795E+01 0.00000E+00
 -1      1263 1.21552E+02 2.05351E+01 0.00000E+00
 -1      1264 1.20041E+02 2.01807E+01 0.00000E+00
 -1      1265 1.18524E+02 2.01646E+01 0.00000E+00
 -1      1266 1.17046E+02 2.04735E+01 0.00000E+00
 -1      1267 1.15657E+02 2.10989E+01 0.00000E+00
 -1      1268 1.14469E+02 2.19796E+01 0.00000E+00
 -1      1269 1.13451E+02 2.31489E+01 0.00000E+00
 -1      1270 1.12702E+02 2.45483E+01 0.00000E+00
 -1      1271 1.12294E+02 2.60362E+01 0.00000E+00
 -1      1272 1.12223E+02 2.75851E+01 0.00000E+00
 -1      1273 1.12503E+02 2.91391E+01 0.00000E+00
 -1      1274 1.13086E+02 3.05239E+01 0.00000E+00
 -1      1275 1.13981E+02 3.17865E+01 0.00000E+00
 -1      1276 1.15186E+02 3.28598E+01 0.00000E+00
 -1      1277 1.16521E+02 3.35946E+01 0.00000E+00
 -1      1278 1.17947E+02 3.40165E+01 0.00000E+00
 -1      1279 1.19457E+02 3.41266E+01 0.00000E+00
 -1      1280 1.20989E+02 3.39007E+01 0.00000E+00
 -1      1281 1.22413E+02 3.33543E+01 0.00000E+00
 -1      1282 1.23625E+02 3.25621E+01 0.00000E+00
 -1      1283 1.24658E+02 3.15238E+01 0.00000E+00
 -1      1284 1.25427E+02 3.03451E+01 0.00000E+00
 -1      1285 1.25920E+02 2.91198E+01 0.00000E+00
 -1      1286 1.26176E+02 2.78027E+01 0.00000E+00
 -1      1287 1.57500E+00 4.85250E+01 0.00000E+00
 -1      1288 1.29900E+00 4.48375E+01 0.00000E+00
 -1      1289 1.29900E+00 4.63125E+01 0.00000E+00
 -1      1290 1.29900E+00 4.18875E+01 0.00000E+00
 -1      1291 1.29900E+00 4.33625E+01 0.00000E+00
 -1      1292 2.59800E+00 4.41000E+01 0.00000E+00
 -1      1293 1.29900E+00 3.89375E+01 0.00000E+00
 -1      1294 1.29900E+00 4.04125E+01 0.00000E+00
 -1      1295 2.59800E+00 4.11500E+01 0.00000E+00
 -1      1296 1.29900E+00 3.59875E+01 0.00000E+00
 -1      1297 1.29900E+00 3.74625E+01 0.00000E+00
 -1      1298 2.59800E+00 3.82000E+01 0.00000E+00
 -1      1299 1.29900E+00 3.30875E+01 0.00000E+00
 -1      1300 1.29900E+00 3.45375E+01 0.00000E+00
 -1      1301 2.59800E+00 3.52750E+01 0.00000E+00
 -1      1302 1.29900E+00 3.01375E+01 0.00000E+00
 -1      1303 1.29900E+00 3.16125E+01 0.00000E+00
 -1      1304 2.59800E+00 3.23500E+01 0.00000E+00
 -1      1305 1.29900E+00 2.71875E+01 0.00000E+00
 -1      1306 1.29900E+00 2.86625E+01 0.00000E+00
 -1      1307 2.59800E+00 2.94000E+01 0.00000E+00
 -1      1308 1.29900E+00 2.42375E+01 0.00000E+00
 -1      1309 1.29900E+00 2.57125E+01 0.00000E+00
 -1      1310 2.59800E+00 2.64500E+01 0.00000E+00
 -1      1311 1.29900E+00 2.12875E+01 0.00000E+00
 -1      1312 1.29900E+00 2.27625E+01 0.00000E+00
 -1      1313 2.59800E+00 2.35000E+01 0.00000E+00
 -1      1314 1.29900E+00 1.83375E+01 0.00000E+00
 -1      1315 1.29900E+00 1.98125E+01 0.00000E+00
 -1      1316 2.59800E+00 2.05500E+01 0.00000E+00
 -1      1317 1.29900E+00 1.54375E+01 0.00000E+00
 -1      1318 1.29900E+00 1.68875E+01 0.00000E+00
 -1      1319 2.59800E+00 1.76250E+01 0.00000E+00
 -1      1320 1.29900E+00 1.24875E+01 0.00000E+00
 -1      1321 1.29900E+00 1.39625E+01 0.00000E+00
 -1      1322 2.59800E+00 1.47000E+01 0.00000E+00
 -1      1323 1.29900E+00 9.53750E+00 0.00000E+00
 -1      1324 1.29900E+00 1.10125E+01 0.00000E+00
 -1      1325 2.59800E+00 1.17500E+01 0.00000E+00
 -1      1326 1.29900E+00 6.58750E+00 0.00000E+00
 -1      1327 1.29900E+00 8.06250E+00 0.00000E+00
 -1      1328 2.59800E+00 8.80000E+00 0.00000E+00
 -1      1329 1.29900E+00 3.63750E+00 0.00000E+00
 -1      1330 1.29900E+00 5.11250E+00 0.00000E+00
 -1      1331 2.59800E+00 5.85000E+00 0.00000E+00
 -1      1332 1.43700E+00 1.09375E+00 0.00000E+00
 -1      1333 1.43700E+00 2.54375E+00 0.00000E+00
 -1      1334 2.73600E+00 3.28125E+00 0.00000E+00
 -1      1335 3.01200E+00 1.09375E+00 0.00000E+00
 -1      1336 3.90000E+00 4.87010E+01 0.00000E+00
 -1      1337 5.40000E+00 4.87010E+01 0.00000E+00
 -1      1338 6.90000E+00 4.87010E+01 0.00000E+00
 -1      1339 8.40000E+00 4.87010E+01 0.00000E+00
 -1      1340 6.15000E+00 4.74020E+01 0.00000E+00
 -1      1341 9.90000E+00 4.87010E+01 0.00000E+00
 -1      1342 1.14000E+01 4.87010E+01 0.00000E+00
 -1      1343 9.15000E+00 4.74020E+01 0.00000E+00
 -1      1344 1.29000E+01 4.87010E+01 0.00000E+00
 -1      1345 1.44000E+01 4.87010E+01 0.00000E+00
 -1      1346 1.21500E+01 4.74020E+01 0.00000E+00
 -1      1347 1.59000E+01 4.87010E+01 0.00000E+00
 -1      1348 1.74000E+01 4.87010E+01 0.00000E+00
 -1      1349 1.51500E+01 4.74020E+01 0.00000E+00
 -1      1350 1.89000E+01 4.87010E+01 0.00000E+00
 -1      1351 2.04000E+01 4.87010E+01 0.00000E+00
 -1      1352 1.81500E+01 4.74020E+01 0.00000E+00
 -1      1353 2.19000E+01 4.87010E+01 0.00000E+00
 -1      1354 2.34000E+01 4.87010E+01 0.00000E+00
 -1      1355 2.11500E+01 4.74020E+01 0.00000E+00
 -1      1356 2.49000E+01 4.87010E+01 0.00000E+00
 -1      1357 2.64000E+01 4.87010E+01 0.00000E+00
 -1      1358 2.41500E+01 4.74020E+01 0.00000E+00
 -1      1359 2.79000E+01 4.87010E+01 0.00000E+00
 -1      1360 2.94000E+01 4.87010E+01 0.00000E+00
 -1      1361 2.71500E+01 4.74020E+01 0.00000E+00
 -1      1362 3.09000E+01 4.87010E+01 0.00000E+00
 -1      1363 3.24000E+01 4.87010E+01 0.00000E+00
 -1      1364 3.01500E+01 4.74020E+01 0.00000E+00
 -1      1365 3.39000E+01 4.87010E+01 0.00000E+00
 -1      1366 3.54000E+01 4.87010E+01 0.00000E+00
 -1      1367 3.31500E+01 4.74020E+01 0.00000E+00
 -1      1368 3.69000E+01 4.87010E+01 0.00000E+00
 -1      1369 3.84000E+01 4.87010E+01 0.00000E+00
 -1      1370 3.61500E+01 4.74020E+01 0.00000E+00
 -1      1371 3.99000E+01 4.87010E+01 0.00000E+00
 -1      1372 4.14000E+01 4.87010E+01 0.00000E+00
 -1      1373 3.91500E+01 4.74020E+01 0.00000E+00
 -1      1374 4.29000E+01 4.87010E+01 0.00000E+00
 -1      1375 4.44000E+01 4.87010E+01 0.00000E+00
 -1      1376 4.21500E+01 4.74020E+01 0.00000E+00
 -1      1377 4.59000E+01 4.87010E+01 0.00000E+00
 -1      1378 4.74000E+01 4.87010E+01 0.00000E+00
 -1      1379 4.51500E+01 4.74020E+01 0.00000E+00
 -1      1380 4.89000E+01 4.87010E+01 0.00000E+00
 -1      1381 5.04000E+01 4.87010E+01 0.00000E+00
 -1      1382 4.81500E+01 4.74020E+01 0.00000E+00
 -1      1383 5.19000E+01 4.87010E+01 0.00000E+00
 -1      1384 5.34000E+01 4.87010E+01 0.00000E+00
 -1      1385 5.11500E+01 4.74020E+01 0.00000E+00
 -1      1386 5.49000E+01 4.87010E+01 0.00000E+00
 -1      1387 5.64000E+01 4.87010E+01 0.00000E+00
 -1      1388 5.41500E+01 4.74020E+01 0.00000E+00
 -1      1389 5.79000E+01 4.87010E+01 0.00000E+00
 -1      1390 5.94000E+01 4.87010E+01 0.00000E+00
 -1      1391 5.71500E+01 4.74020E+01 0.00000E+00
 -1      1392 6.09000E+01 4.87010E+01 0.00000E+00
 -1      1393 6.24000E+01 4.87010E+01 0.00000E+00
 -1      1394 6.01500E+01 4.74020E+01 0.00000E+00
 -1      1395 6.39000E+01 4.87010E+01 0.00000E+00
 -1      1396 6.54000E+01 4.87010E+01 0.00000E+00
 -1      1397 6.31500E+01 4.74020E+01 0.00000E+00
 -1      1398 6.69000E+01 4.87010E+01 0.00000E+00
 -1      1399 6.84000E+01 4.87010E+01 0.00000E+00
 -1      1400 6.61500E+01 4.74020E+01 0.00000E+00
 -1      1401 6.99000E+01 4.87010E+01 0.00000E+00
 -1      1402 7.14000E+01 4.87010E+01 0.00000E+00
 -1      1403 6.91500E+01 4.74020E+01 0.00000E+00
 -1      1404 7.29000E+01 4.87010E+01 0.00000E+00
 -1      1405 7.44000E+01 4.87010E+01 0.00000E+00
 -1      1406 7.21500E+01 4.74020E+01 0.00000E+00
 -1      1407 7.59000E+01 4.87010E+01 0.00000E+00
 -1      1408 7.74000E+01 4.87010E+01 0.00000E+00
 -1      1409 7.51500E+01 4.74020E+01 0.00000E+00
 -1      1410 7.89000E+01 4.87010E+01 0.00000E+00
 -1      1411 8.04000E+01 4.87010E+01 0.00000E+00
 -1      1412 7.81500E+01 4.74020E+01 0.00000E+00
 -1      1413 8.19000E+01 4.87010E+01 0.00000E+00
 -1      1414 8.34000E+01 4.87010E+01 0.00000E+00
 -1      1415 8.11500E+01 4.74020E+01 0.00000E+00
 -1      1416 8.49000E+01 4.87010E+01 0.00000E+00
 -1      1417 8.64000E+01 4.87010E+01 0.00000E+00
 -1      1418 8.41500E+01 4.74020E+01 0.00000E+00
 -1      1419 8.79000E+01 4.87010E+01 0.00000E+00
 -1      1420 8.94000E+01 4.87010E+01 0.00000E+00
 -1      1421 8.71500E+01 4.74020E+01 0.00000E+00
 -1      1422 9.09000E+01 4.87010E+01 0.00000E+00
 -1      1423 9.24000E+01 4.87010E+01 0.00000E+00
 -1      1424 9.01500E+01 4.74020E+01 0.00000E+00
 -1      1425 9.39000E+01 4.87010E+01 0.00000E+00
 -1      1426 9.54000E+01 4.87010E+01 0.00000E+00
 -1      1427 9.31500E+01 4.74020E+01 0.00000E+00
 -1      1428 9.69000E+01 4.87010E+01 0.00000E+00
 -1      1429 9.84000E+01 4.87010E+01 0.00000E+00
 -1      1430 9.61500E+01 4.74020E+01 0.00000E+00
 -1      1431 9.99000E+01 4.87010E+01 0.00000E+00
 -1      1432 1.01400E+02 4.87010E+01 0.00000E+00
 -1      1433 9.91500E+01 4.74020E+01 0.00000E+00
 -1      1434 1.02900E+02 4.87010E+01 0.00000E+00
 -1      1435 1.04400E+02 4.87010E+01 0.00000E+00
 -1      1436 1.02150E+02 4.74020E+01 0.00000E+00
 -1      1437 1.05900E+02 4.87010E+01 0.00000E+00
 -1      1438 1.07400E+02 4.87010E+01 0.00000E+00
 -1      1439 1.05150E+02 4.74020E+01 0.00000E+00
 -1      1440 1.08900E+02 4.87010E+01 0.00000E+00
 -1      1441 1.10400E+02 4.87010E+01 0.00000E+00
 -1      1442 1.08150E+02 4.74020E+01 0.00000E+00
 -1      1443 1.11900E+02 4.87010E+01 0.00000E+00
 -1      1444 1.13400E+02 4.87010E+01 0.00000E+00
 -1      1445 1.11150E+02 4.74020E+01 0.00000E+00
 -1      1446 1.14900E+02 4.87010E+01 0.00000E+00
 -1      1447 1.16400E+02 4.87010E+01 0.00000E+00
 -1      1448 1.14150E+02 4.74020E+01 0.00000E+00
 -1      1449 1.17900E+02 4.87010E+01 0.00000E+00
 -1      1450 1.19400E+02 4.87010E+01 0.00000E+00
 -1      1451 1.17150E+02 4.74020E+01 0.00000E+00
 -1      1452 1.20900E+02 4.87010E+01 0.00000E+00
 -1      1453 1.22400E+02 4.87010E+01 0.00000E+00
 -1      1454 1.20150E+02 4.74020E+01 0.00000E+00
 -1      1455 1.23900E+02 4.87010E+01 0.00000E+00
 -1      1456 1.25400E+02 4.87010E+01 0.00000E+00
 -1      1457 1.23150E+02 4.74020E+01 0.00000E+00
 -1      1458 1.26900E+02 4.87010E+01 0.00000E+00
 -1      1459 1.28400E+02 4.87010E+01 0.00000E+00
 -1      1460 1.26150E+02 4.74020E+01 0.00000E+00
 -1      1461 1.29900E+02 4.87010E+01 0.00000E+00
 -1      1462 1.31400E+02 4.87010E+01 0.00000E+00
 -1      1463 1.29150E+02 4.74020E+01 0.00000E+00
 -1      1464 1.32900E+02 4.87010E+01 0.00000E+00
 -1      1465 1.34400E+02 4.87010E+01 0.00000E+00
 -1      1466 1.32150E+02 4.74020E+01 0.00000E+00
 -1      1467 1.35900E+02 4.87010E+01 0.00000E+00
 -1      1468 1.37400E+02 4.87010E+01 0.00000E+00
 -1      1469 1.35150E+02 4.74020E+01 0.00000E+00
 -1      1470 1.38900E+02 4.87010E+01 0.00000E+00
 -1      1471 1.40400E+02 4.87010E+01 0.00000E+00
 -1      1472 1.38150E+02 4.74020E+01 0.00000E+00
 -1      1473 1.41900E+02 4.87010E+01 0.00000E+00
 -1      1474 1.43400E+02 4.87010E+01 0.00000E+00
 -1      1475 1.41150E+02 4.74020E+01 0.00000E+00
 -1      1476 1.44900E+02 4.87010E+01 0.00000E+00
 -1      1477 1.46400E+02 4.87010E+01 0.00000E+00
 -1      1478 1.44150E+02 4.74020E+01 0.00000E+00
 -1      1479 1.48575E+02 4.85500E+01 0.00000E+00
 -1      1480 1.47825E+02 4.72510E+01 0.00000E+00
 -1      1481 6.01200E+00 1.09375E+00 0.00000E+00
 -1      1482 4.51200E+00 1.09375E+00 0.00000E+00
 -1      1483 4.37400E+00 2.18750E+00 0.00000E+00
 -1      1484 9.01200E+00 1.09375E+00 0.00000E+00
 -1      1485 7.51200E+00 1.09375E+00 0.00000E+00
 -1      1486 7.37400E+00 2.18750E+00 0.00000E+00
 -1      1487 1.20120E+01 1.09375E+00 0.00000E+00
 -1      1488 1.05120E+01 1.09375E+00 0.00000E+00
 -1      1489 1.03740E+01 2.18750E+00 0.00000E+00
 -1      1490 1.50120E+01 1.09375E+00 0.00000E+00
 -1      1491 1.35120E+01 1.09375E+00 0.00000E+00
 -1      1492 1.33740E+01 2.18750E+00 0.00000E+00
 -1      1493 1.80120E+01 1.09375E+00 0.00000E+00
 -1      1494 1.65120E+01 1.09375E+00 0.00000E+00
 -1      1495 1.63740E+01 2.18750E+00 0.00000E+00
 -1      1496 2.10120E+01 1.09375E+00 0.00000E+00
 -1      1497 1.95120E+01 1.09375E+00 0.00000E+00
 -1      1498 1.93740E+01 2.18750E+00 0.00000E+00
 -1      1499 2.40120E+01 1.09375E+00 0.00000E+00
 -1      1500 2.25120E+01 1.09375E+00 0.00000E+00
 -1      1501 2.23740E+01 2.18750E+00 0.00000E+00
 -1      1502 2.70120E+01 1.09375E+00 0.00000E+00
 -1      1503 2.55120E+01 1.09375E+00 0.00000E+00
 -1      1504 2.53740E+01 2.18750E+00 0.00000E+00
 -1      1505 3.00120E+01 1.09375E+00 0.00000E+00
 -1      1506 2.85120E+01 1.09375E+00 0.00000E+00
 -1      1507 2.83740E+01 2.18750E+00 0.00000E+00
 -1      1508 3.30120E+01 1.09375E+00 0.00000E+00
 -1      1509 3.15120E+01 1.09375E+00 0.00000E+00
 -1      1510 3.13740E+01 2.18750E+00 0.00000E+00
 -1      1511 3.60120E+01 1.09375E+00 0.00000E+00
 -1      1512 3.45120E+01 1.09375E+00 0.00000E+00
 -1      1513 3.43740E+01 2.18750E+00 0.00000E+00
 -1      1514 3.90120E+01 1.09375E+00 0.00000E+00
 -1      1515 3.75120E+01 1.09375E+00 0.00000E+00
 -1      1516 3.73740E+01 2.18750E+00 0.00000E+00
 -1      1517 4.20120E+01 1.09375E+00 0.00000E+00
 -1      1518 4.05120E+01 1.09375E+00 0.00000E+00
 -1      1519 4.03740E+01 2.18750E+00 0.00000E+00
 -1      1520 4.50120E+01 1.09375E+00 0.00000E+00
 -1      1521 4.35120E+01 1.09375E+00 0.00000E+00
 -1      1522 4.33740E+01 2.18750E+00 0.00000E+00
 -1      1523 4.80120E+01 1.09375E+00 0.00000E+00
 -1      1524 4.65120E+01 1.09375E+00 0.00000E+00
 -1      1525 4.63740E+01 2.18750E+00 0.00000E+00
 -1      1526 5.10120E+01 1.09375E+00 0.00000E+00
 -1      1527 4.95120E+01 1.09375E+00 0.00000E+00
 -1      1528 4.93740E+01 2.18750E+00 0.00000E+00
 -1      1529 5.40120E+01 1.09375E+00 0.00000E+00
 -1      1530 5.25120E+01 1.09375E+00 0.00000E+00
 -1      1531 5.23740E+01 2.18750E+00 0.00000E+00
 -1      1532 5.70120E+01 1.09375E+00 0.00000E+00
 -1      1533 5.55120E+01 1.09375E+00 0.00000E+00
 -1      1534 5.53740E+01 2.18750E+00 0.00000E+00
 -1      1535 6.00120E+01 1.09375E+00 0.00000E+00
 -1      1536 5.85120E+01 1.09375E+00 0.00000E+00
 -1      1537 5.83740E+01 2.18750E+00 0.00000E+00
 -1      1538 6.30120E+01 1.09375E+00 0.00000E+00
 -1      1539 6.15120E+01 1.09375E+00 0.00000E+00
 -1      1540 6.13740E+01 2.18750E+00 0.00000E+00
 -1      1541 6.60120E+01 1.09375E+00 0.00000E+00
 -1      1542 6.45120E+01 1.09375E+00 0.00000E+00
 -1      1543 6.43740E+01 2.18750E+00 0.00000E+00
 -1      1544 6.90120E+01 1.09375E+00 0.00000E+00
 -1      1545 6.75120E+01 1.09375E+00 0.00000E+00
 -1      1546 6.73740E+01 2.18750E+00 0.00000E+00
 -1      1547 7.20120E+01 1.09375E+00 0.00000E+00
 -1      1548 7.05120E+01 1.09375E+00 0.00000E+00
 -1      1549 7.03740E+01 2.18750E+00 0.00000E+00
 -1      1550 7.50120E+01 1.09375E+00 0.00000E+00
 -1      1551 7.35120E+01 1.09375E+00 0.00000E+00
 -1      1552 7.33740E+01 2.18750E+00 0.00000E+00
 -1      1553 7.80120E+01 1.09375E+00 0.00000E+00
 -1      1554 7.65120E+01 1.09375E+00 0.00000E+00
 -1      1555 7.63740E+01 2.18750E+00 0.00000E+00
 -1      1556 8.10120E+01 1.09375E+00 0.00000E+00
 -1      1557 7.95120E+01 1.09375E+00 0.00000E+00
 -1      1558 7.93740E+01 2.18750E+00 0.00000E+00
 -1      1559 8.40120E+01 1.09375E+00 0.00000E+00
 -1      1560 8.25120E+01 1.09375E+00 0.00000E+00
 -1      1561 8.23740E+01 2.18750E+00 0.00000E+00
 -1      1562 8.70120E+01 1.09375E+00 0.00000E+00
 -1      1563 8.55120E+01 1.09375E+00 0.00000E+00
 -1      1564 8.53740E+01 2.18750E+00 0.00000E+00
 -1      1565 9.00120E+01 1.09375E+00 0.00000E+00
 -1      1566 8.85120E+01 1.09375E+00 0.00000E+00
 -1      1567 8.83740E+01 2.18750E+00 0.00000E+00
 -1      1568 9.30120E+01 1.09375E+00 0.00000E+00
 -1      1569 9.15120E+01 1.09375E+00 0.00000E+00
 -1      1570 9.13740E+01 2.18750E+00 0.00000E+00
 -1      1571 9.60120E+01 1.09375E+00 0.00000E+00
 -1      1572 9.45120E+01 1.09375E+00 0.00000E+00
 -1      1573 9.43740E+01 2.18750E+00 0.00000E+00
 -1      1574 9.90120E+01 1.09375E+00 0.00000E+00
 -1      1575 9.75120E+01 1.09375E+00 0.00000E+00
 -1      1576 9.73740E+01 2.18750E+00 0.00000E+00
 -1      1577 1.02012E+02 1.09375E+00 0.00000E+00
 -1      1578 1.00512E+02 1.09375E+00 0.00000E+00
 -1      1579 1.00374E+02 2.18750E+00 0.00000E+00
 -1      1580 1.05012E+02 1.09375E+00 0.00000E+00
 -1      1581 1.03512E+02 1.09375E+00 0.00000E+00
 -1      1582 1.03374E+02 2.18750E+00 0.00000E+00
 -1      1583 1.08012E+02 1.09375E+00 0.00000E+00
 -1      1584 1.06512E+02 1.09375E+00 0.00000E+00
 -1      1585 1.06374E+02 2.18750E+00 0.00000E+00
 -1      1586 1.11012E+02 1.09375E+00 0.00000E+00
 -1      1587 1.09512E+02 1.09375E+00 0.00000E+00
 -1      1588 1.09374E+02 2.18750E+00 0.00000E+00
 -1      1589 1.14012E+02 1.09375E+00 0.00000E+00
 -1      1590 1.12512E+02 1.09375E+00 0.00000E+00
 -1      1591 1.12374E+02 2.18750E+00 0.00000E+00
 -1      1592 1.17012E+02 1.09375E+00 0.00000E+00
 -1      1593 1.15512E+02 1.09375E+00 0.00000E+00
 -1      1594 1.15374E+02 2.18750E+00 0.00000E+00
 -1      1595 1.20012E+02 1.09375E+00 0.00000E+00
 -1      1596 1.18512E+02 1.09375E+00 0.00000E+00
 -1      1597 1.18374E+02 2.18750E+00 0.00000E+00
 -1      1598 1.23012E+02 1.09375E+00 0.00000E+00
 -1      1599 1.21512E+02 1.09375E+00 0.00000E+00
 -1      1600 1.21374E+02 2.18750E+00 0.00000E+00
 -1      1601 1.26012E+02 1.09375E+00 0.00000E+00
 -1      1602 1.24512E+02 1.09375E+00 0.00000E+00
 -1      1603 1.24374E+02 2.18750E+00 0.00000E+00
 -1      1604 1.29012E+02 1.09375E+00 0.00000E+00
 -1      1605 1.27512E+02 1.09375E+00 0.00000E+00
 -1      1606 1.27374E+02 2.18750E+00 0.00000E+00
 -1      1607 1.32012E+02 1.09375E+00 0.00000E+00
 -1      1608 1.30512E+02 1.09375E+00 0.00000E+00
 -1      1609 1.30374E+02 2.18750E+00 0.00000E+00
 -1      1610 1.35012E+02 1.09375E+00 0.00000E+00
 -1      1611 1.33512E+02 1.09375E+00 0.00000E+00
 -1      1612 1.33374E+02 2.18750E+00 0.00000E+00
 -1      1613 1.38012E+02 1.09375E+00 0.00000E+00
 -1      1614 1.36512E+02 1.09375E+00 0.00000E+00
 -1      1615 1.36374E+02 2.18750E+00 0.00000E+00
 -1      1616 1.41012E+02 1.09375E+00 0.00000E+00
 -1      1617 1.39512E+02 1.09375E+00 0.00000E+00
 -1      1618 1.39374E+02 2.18750E+00 0.00000E+00
 -1      1619 1.44012E+02 1.09375E+00 0.00000E+00
 -1      1620 1.42512E+02 1.09375E+00 0.00000E+00
 -1      1621 1.42374E+02 2.18750E+00 0.00000E+00
 -1      1622 1.47012E+02 1.09375E+00 0.00000E+00
 -1      1623 1.45512E+02 1.09375E+00 0.00000E+00
 -1      1624 1.45374E+02 2.18750E+00 0.00000E+00
 -1      1625 1.48575E+02 1.47500E+00 0.00000E+00
 -1      1626 1.48701E+02 5.16250E+00 0.00000E+00
 -1      1627 1.48701E+02 3.68750E+00 0.00000E+00
 -1      1628 1.48701E+02 8.11250E+00 0.00000E+00
 -1      1629 1.48701E+02 6.63750E+00 0.00000E+00
 -1      1630 1.47402E+02 5.90000E+00 0.00000E+00
 -1      1631 1.48701E+02 1.10625E+01 0.00000E+00
 -1      1632 1.48701E+02 9.58750E+00 0.00000E+00
 -1      1633 1.47402E+02 8.85000E+00 0.00000E+00
 -1      1634 1.48701E+02 1.40125E+01 0.00000E+00
 -1      1635 1.48701E+02 1.25375E+01 0.00000E+00
 -1      1636 1.47402E+02 1.18000E+01 0.00000E+00
 -1      1637 1.48701E+02 1.69125E+01 0.00000E+00
 -1      1638 1.48701E+02 1.54625E+01 0.00000E+00
 -1      1639 1.47402E+02 1.47250E+01 0.00000E+00
 -1      1640 1.48701E+02 1.98625E+01 0.00000E+00
 -1      1641 1.48701E+02 1.83875E+01 0.00000E+00
 -1      1642 1.47402E+02 1.76500E+01 0.00000E+00
 -1      1643 1.48701E+02 2.28125E+01 0.00000E+00
 -1      1644 1.48701E+02 2.13375E+01 0.00000E+00
 -1      1645 1.47402E+02 2.06000E+01 0.00000E+00
 -1      1646 1.48701E+02 2.57625E+01 0.00000E+00
 -1      1647 1.48701E+02 2.42875E+01 0.00000E+00
 -1      1648 1.47402E+02 2.35500E+01 0.00000E+00
 -1      1649 1.48701E+02 2.87125E+01 0.00000E+00
 -1      1650 1.48701E+02 2.72375E+01 0.00000E+00
 -1      1651 1.47402E+02 2.65000E+01 0.00000E+00
 -1      1652 1.48701E+02 3.16625E+01 0.00000E+00
 -1      1653 1.48701E+02 3.01875E+01 0.00000E+00
 -1      1654 1.47402E+02 2.94500E+01 0.00000E+00
 -1      1655 1.48701E+02 3.45625E+01 0.00000E+00
 -1      1656 1.48701E+02 3.31125E+01 0.00000E+00
 -1      1657 1.47402E+02 3.23750E+01 0.00000E+00
 -1      1658 1.48701E+02 3.75125E+01 0.00000E+00
 -1      1659 1.48701E+02 3.60375E+01 0.00000E+00
 -1      1660 1.47402E+02 3.53000E+01 0.00000E+00
 -1      1661 1.48701E+02 4.04625E+01 0.00000E+00
 -1      1662 1.48701E+02 3.89875E+01 0.00000E+00
 -1      1663 1.47402E+02 3.82500E+01 0.00000E+00
 -1      1664 1.48701E+02 4.34125E+01 0.00000E+00
 -1      1665 1.48701E+02 4.19375E+01 0.00000E+00
 -1      1666 1.47402E+02 4.12000E+01 0.00000E+00
 -1      1667 1.48263E+02 4.60692E+01 0.00000E+00
 -1      1668 1.48263E+02 4.45942E+01 0.00000E+00
 -1      1669 1.46964E+02 4.38568E+01 0.00000E+00
 -1      1670 1.46088E+02 4.62202E+01 0.00000E+00
 -1      1671 1.26810E+02 2.58529E+01 0.00000E+00
 -1      1672 1.26901E+02 2.66483E+01 0.00000E+00
 -1      1673 1.26334E+02 2.41181E+01 0.00000E+00
 -1      1674 1.26613E+02 2.48908E+01 0.00000E+00
 -1      1675 1.25383E+02 2.27408E+01 0.00000E+00
 -1      1676 1.25779E+02 2.33589E+01 0.00000E+00
 -1      1677 1.24368E+02 2.13110E+01 0.00000E+00
 -1      1678 1.24954E+02 2.18889E+01 0.00000E+00
 -1      1679 1.22877E+02 2.05025E+01 0.00000E+00
 -1      1680 1.23507E+02 2.08925E+01 0.00000E+00
 -1      1681 1.21404E+02 1.98370E+01 0.00000E+00
 -1      1682 1.22108E+02 2.00872E+01 0.00000E+00
 -1      1683 1.19728E+02 1.94107E+01 0.00000E+00
 -1      1684 1.20527E+02 1.95065E+01 0.00000E+00
 -1      1685 1.18114E+02 1.96323E+01 0.00000E+00
 -1      1686 1.18823E+02 1.95626E+01 0.00000E+00
 -1      1687 1.16480E+02 2.00238E+01 0.00000E+00
 -1      1688 1.17239E+02 1.97773E+01 0.00000E+00
 -1      1689 1.15056E+02 2.07930E+01 0.00000E+00
 -1      1690 1.15681E+02 2.04250E+01 0.00000E+00
 -1      1691 1.13809E+02 2.18186E+01 0.00000E+00
 -1      1692 1.14363E+02 2.13083E+01 0.00000E+00
 -1      1693 1.12626E+02 2.30620E+01 0.00000E+00
 -1      1694 1.13079E+02 2.24071E+01 0.00000E+00
 -1      1695 1.11918E+02 2.46625E+01 0.00000E+00
 -1      1696 1.12210E+02 2.39272E+01 0.00000E+00
 -1      1697 1.11636E+02 2.63124E+01 0.00000E+00
 -1      1698 1.11753E+02 2.55700E+01 0.00000E+00
 -1      1699 1.11564E+02 2.80282E+01 0.00000E+00
 -1      1700 1.11512E+02 2.72311E+01 0.00000E+00
 -1      1701 1.11995E+02 2.96982E+01 0.00000E+00
 -1      1702 1.11771E+02 2.89509E+01 0.00000E+00
 -1      1703 1.12763E+02 3.11155E+01 0.00000E+00
 -1      1704 1.12413E+02 3.04836E+01 0.00000E+00
 -1      1705 1.13777E+02 3.25212E+01 0.00000E+00
 -1      1706 1.13228E+02 3.19048E+01 0.00000E+00
 -1      1707 1.15089E+02 3.36831E+01 0.00000E+00
 -1      1708 1.14444E+02 3.32302E+01 0.00000E+00
 -1      1709 1.16627E+02 3.42985E+01 0.00000E+00
 -1      1710 1.15947E+02 3.40160E+01 0.00000E+00
 -1      1711 1.18215E+02 3.46407E+01 0.00000E+00
 -1      1712 1.17476E+02 3.45053E+01 0.00000E+00
 -1      1713 1.19858E+02 3.46772E+01 0.00000E+00
 -1      1714 1.19096E+02 3.47043E+01 0.00000E+00
 -1      1715 1.21523E+02 3.43847E+01 0.00000E+00
 -1      1716 1.20763E+02 3.45846E+01 0.00000E+00
 -1      1717 1.23001E+02 3.36893E+01 0.00000E+00
 -1      1718 1.22344E+02 3.40277E+01 0.00000E+00
 -1      1719 1.24259E+02 3.27809E+01 0.00000E+00
 -1      1720 1.23709E+02 3.32280E+01 0.00000E+00
 -1      1721 1.25378E+02 3.16176E+01 0.00000E+00
 -1      1722 1.24903E+02 3.22066E+01 0.00000E+00
 -1      1723 1.26061E+02 3.03066E+01 0.00000E+00
 -1      1724 1.25762E+02 3.08846E+01 0.00000E+00
 -1      1725 1.26577E+02 2.89650E+01 0.00000E+00
 -1      1726 1.26386E+02 2.96075E+01 0.00000E+00
 -1      1727 1.26791E+02 2.75246E+01 0.00000E+00
 -1      1728 1.26727E+02 2.81932E+01 0.00000E+00
 -1      1729 1.24372E+02 2.06006E+01 0.00000E+00
 -1      1730 1.25663E+02 2.18710E+01 0.00000E+00
 -1      1731 1.48437E+02 2.56875E+00 0.00000E+00
 -1      1732 1.47138E+02 3.30625E+00 0.00000E+00
 -1      1733 1.27398E+02 2.52035E+01 0.00000E+00
 -1      1734 1.26646E+02 2.34822E+01 0.00000E+00
 -1      1735 1.27484E+02 2.70419E+01 0.00000E+00
 -1      1736 1.22742E+02 1.97668E+01 0.00000E+00
 -1      1737 1.21096E+02 1.90209E+01 0.00000E+00
 -1      1738 1.19314E+02 1.88422E+01 0.00000E+00
 -1      1739 1.17534E+02 1.91391E+01 0.00000E+00
 -1      1740 1.15860E+02 1.96854E+01 0.00000E+00
 -1      1741 1.14368E+02 2.06020E+01 0.00000E+00
 -1      1742 1.12946E+02 2.17058E+01 0.00000E+00
 -1      1743 1.11800E+02 2.31596E+01 0.00000E+00
 -1      1744 1.11219E+02 2.49323E+01 0.00000E+00
 -1      1745 1.10931E+02 2.67585E+01 0.00000E+00
 -1      1746 1.11015E+02 2.85998E+01 0.00000E+00
 -1      1747 1.11640E+02 3.03079E+01 0.00000E+00
 -1      1748 1.12522E+02 3.18826E+01 0.00000E+00
 -1      1749 1.13654E+02 3.33809E+01 0.00000E+00
 -1      1750 1.15180E+02 3.44228E+01 0.00000E+00
 -1      1751 1.16887E+02 3.49625E+01 0.00000E+00
 -1      1752 1.18617E+02 3.52329E+01 0.00000E+00
 -1      1753 1.20403E+02 3.52040E+01 0.00000E+00
 -1      1754 1.22129E+02 3.47544E+01 0.00000E+00
 -1      1755 1.23659E+02 3.39361E+01 0.00000E+00
 -1      1756 1.25010E+02 3.29005E+01 0.00000E+00
 -1      1757 1.26039E+02 3.15931E+01 0.00000E+00
 -1      1758 1.26749E+02 3.01609E+01 0.00000E+00
 -1      1759 1.27224E+02 2.86900E+01 0.00000E+00
 -1      1760 2.87400E+00 4.77875E+01 0.00000E+00
 -1      1761 3.89700E+00 4.04125E+01 0.00000E+00
 -1      1762 3.89700E+00 4.18875E+01 0.00000E+00
 -1      1763 3.89700E+00 4.33625E+01 0.00000E+00
 -1      1764 3.89700E+00 4.48375E+01 0.00000E+00
 -1      1765 5.19600E+00 4.26250E+01 0.00000E+00
 -1      1766 3.89700E+00 3.45500E+01 0.00000E+00
 -1      1767 3.89700E+00 3.60000E+01 0.00000E+00
 -1      1768 3.89700E+00 3.16000E+01 0.00000E+00
 -1      1769 3.89700E+00 3.30750E+01 0.00000E+00
 -1      1770 5.19600E+00 3.38000E+01 0.00000E+00
 -1      1771 3.89700E+00 2.86500E+01 0.00000E+00
 -1      1772 3.89700E+00 3.01250E+01 0.00000E+00
 -1      1773 5.19600E+00 3.08500E+01 0.00000E+00
 -1      1774 3.89700E+00 2.57000E+01 0.00000E+00
 -1      1775 3.89700E+00 2.71750E+01 0.00000E+00
 -1      1776 5.19600E+00 2.79000E+01 0.00000E+00
 -1      1777 3.89700E+00 2.27500E+01 0.00000E+00
 -1      1778 3.89700E+00 2.42250E+01 0.00000E+00
 -1      1779 5.19600E+00 2.49500E+01 0.00000E+00
 -1      1780 3.89700E+00 1.98000E+01 0.00000E+00
 -1      1781 3.89700E+00 2.12750E+01 0.00000E+00
 -1      1782 5.19600E+00 2.20000E+01 0.00000E+00
 -1      1783 3.89700E+00 1.69000E+01 0.00000E+00
 -1      1784 3.89700E+00 1.83500E+01 0.00000E+00
 -1      1785 5.19600E+00 1.90750E+01 0.00000E+00
 -1      1786 3.89700E+00 1.39500E+01 0.00000E+00
 -1      1787 3.89700E+00 1.54250E+01 0.00000E+00
 -1      1788 5.19600E+00 1.61500E+01 0.00000E+00
 -1      1789 3.89700E+00 1.10000E+01 0.00000E+00
 -1      1790 3.89700E+00 1.24750E+01 0.00000E+00
 -1      1791 5.19600E+00 1.32000E+01 0.00000E+00
 -1      1792 3.89700E+00 8.05000E+00 0.00000E+00
 -1      1793 3.89700E+00 9.52500E+00 0.00000E+00
 -1      1794 5.19600E+00 1.02500E+01 0.00000E+00
 -1      1795 3.89700E+00 5.10000E+00 0.00000E+00
 -1      1796 3.89700E+00 6.57500E+00 0.00000E+00
 -1      1797 5.19600E+00 7.30000E+00 0.00000E+00
 -1      1798 4.20450E+00 3.09687E+00 0.00000E+00
 -1      1799 4.06650E+00 4.19063E+00 0.00000E+00
 -1      1800 5.36550E+00 4.91563E+00 0.00000E+00
 -1      1801 5.70450E+00 3.09687E+00 0.00000E+00
 -1      1802 3.62400E+00 4.64885E+01 0.00000E+00
 -1      1803 8.70450E+00 3.09687E+00 0.00000E+00
 -1      1804 7.20450E+00 3.09687E+00 0.00000E+00
 -1      1805 7.03500E+00 4.00625E+00 0.00000E+00
 -1      1806 4.92300E+00 4.57510E+01 0.00000E+00
 -1      1807 8.40000E+00 4.61030E+01 0.00000E+00
 -1      1808 9.90000E+00 4.61030E+01 0.00000E+00
 -1      1809 1.14000E+01 4.61030E+01 0.00000E+00
 -1      1810 1.29000E+01 4.61030E+01 0.00000E+00
 -1      1811 1.06500E+01 4.48040E+01 0.00000E+00
 -1      1812 1.44000E+01 4.61030E+01 0.00000E+00
 -1      1813 1.59000E+01 4.61030E+01 0.00000E+00
 -1      1814 1.36500E+01 4.48040E+01 0.00000E+00
 -1      1815 1.74000E+01 4.61030E+01 0.00000E+00
 -1      1816 1.89000E+01 4.61030E+01 0.00000E+00
 -1      1817 1.66500E+01 4.48040E+01 0.00000E+00
 -1      1818 2.04000E+01 4.61030E+01 0.00000E+00
 -1      1819 2.19000E+01 4.61030E+01 0.00000E+00
 -1      1820 1.96500E+01 4.48040E+01 0.00000E+00
 -1      1821 2.34000E+01 4.61030E+01 0.00000E+00
 -1      1822 2.49000E+01 4.61030E+01 0.00000E+00
 -1      1823 2.26500E+01 4.48040E+01 0.00000E+00
 -1      1824 2.64000E+01 4.61030E+01 0.00000E+00
 -1      1825 2.79000E+01 4.61030E+01 0.00000E+00
 -1      1826 2.56500E+01 4.48040E+01 0.00000E+00
 -1      1827 2.94000E+01 4.61030E+01 0.00000E+00
 -1      1828 3.09000E+01 4.61030E+01 0.00000E+00
 -1      1829 2.86500E+01 4.48040E+01 0.00000E+00
 -1      1830 3.24000E+01 4.61030E+01 0.00000E+00
 -1      1831 3.39000E+01 4.61030E+01 0.00000E+00
 -1      1832 3.16500E+01 4.48040E+01 0.00000E+00
 -1      1833 3.54000E+01 4.61030E+01 0.00000E+00
 -1      1834 3.69000E+01 4.61030E+01 0.00000E+00
 -1      1835 3.46500E+01 4.48040E+01 0.00000E+00
 -1      1836 3.84000E+01 4.61030E+01 0.00000E+00
 -1      1837 3.99000E+01 4.61030E+01 0.00000E+00
 -1      1838 3.76500E+01 4.48040E+01 0.00000E+00
 -1      1839 4.14000E+01 4.61030E+01 0.00000E+00
 -1      1840 4.29000E+01 4.61030E+01 0.00000E+00
 -1      1841 4.06500E+01 4.48040E+01 0.00000E+00
 -1      1842 4.44000E+01 4.61030E+01 0.00000E+00
 -1      1843 4.59000E+01 4.61030E+01 0.00000E+00
 -1      1844 4.36500E+01 4.48040E+01 0.00000E+00
 -1      1845 4.74000E+01 4.61030E+01 0.00000E+00
 -1      1846 4.89000E+01 4.61030E+01 0.00000E+00
 -1      1847 4.66500E+01 4.48040E+01 0.00000E+00
 -1      1848 5.04000E+01 4.61030E+01 0.00000E+00
 -1      1849 5.19000E+01 4.61030E+01 0.00000E+00
 -1      1850 4.96500E+01 4.48040E+01 0.00000E+00
 -1      1851 5.34000E+01 4.61030E+01 0.00000E+00
 -1      1852 5.49000E+01 4.61030E+01 0.00000E+00
 -1      1853 5.26500E+01 4.48040E+01 0.00000E+00
 -1      1854 5.64000E+01 4.61030E+01 0.00000E+00
 -1      1855 5.79000E+01 4.61030E+01 0.00000E+00
 -1      1856 5.56500E+01 4.48040E+01 0.00000E+00
 -1      1857 5.94000E+01 4.61030E+01 0.00000E+00
 -1      1858 6.09000E+01 4.61030E+01 0.00000E+00
 -1      1859 5.86500E+01 4.48040E+01 0.00000E+00
 -1      1860 6.24000E+01 4.61030E+01 0.00000E+00
 -1      1861 6.39000E+01 4.61030E+01 0.00000E+00
 -1      1862 6.16500E+01 4.48040E+01 0.00000E+00
 -1      1863 6.54000E+01 4.61030E+01 0.00000E+00
 -1      1864 6.69000E+01 4.61030E+01 0.00000E+00
 -1      1865 6.46500E+01 4.48040E+01 0.00000E+00
 -1      1866 6.84000E+01 4.61030E+01 0.00000E+00
 -1      1867 6.99000E+01 4.61030E+01 0.00000E+00
 -1      1868 6.76500E+01 4.48040E+01 0.00000E+00
 -1      1869 7.14000E+01 4.61030E+01 0.00000E+00
 -1      1870 7.29000E+01 4.61030E+01 0.00000E+00
 -1      1871 7.06500E+01 4.48040E+01 0.00000E+00
 -1      1872 7.44000E+01 4.61030E+01 0.00000E+00
 -1      1873 7.59000E+01 4.61030E+01 0.00000E+00
 -1      1874 7.36500E+01 4.48040E+01 0.00000E+00
 -1      1875 7.74000E+01 4.61030E+01 0.00000E+00
 -1      1876 7.89000E+01 4.61030E+01 0.00000E+00
 -1      1877 7.66500E+01 4.48040E+01 0.00000E+00
 -1      1878 8.04000E+01 4.61030E+01 0.00000E+00
 -1      1879 8.19000E+01 4.61030E+01 0.00000E+00
 -1      1880 7.96500E+01 4.48040E+01 0.00000E+00
 -1      1881 8.34000E+01 4.61030E+01 0.00000E+00
 -1      1882 8.49000E+01 4.61030E+01 0.00000E+00
 -1      1883 8.26500E+01 4.48040E+01 0.00000E+00
 -1      1884 8.64000E+01 4.61030E+01 0.00000E+00
 -1      1885 8.79000E+01 4.61030E+01 0.00000E+00
 -1      1886 8.56500E+01 4.48040E+01 0.00000E+00
 -1      1887 8.94000E+01 4.61030E+01 0.00000E+00
 -1      1888 9.09000E+01 4.61030E+01 0.00000E+00
 -1      1889 8.86500E+01 4.48040E+01 0.00000E+00
 -1      1890 9.24000E+01 4.61030E+01 0.00000E+00
 -1      1891 9.39000E+01 4.61030E+01 0.00000E+00
 -1      1892 9.16500E+01 4.48040E+01 0.00000E+00
 -1      1893 9.54000E+01 4.61030E+01 0.00000E+00
 -1      1894 9.69000E+01 4.61030E+01 0.00000E+00
 -1      1895 9.46500E+01 4.48040E+01 0.00000E+00
 -1      1896 9.84000E+01 4.61030E+01 0.00000E+00
 -1      1897 9.99000E+01 4.61030E+01 0.00000E+00
 -1      1898 9.76500E+01 4.48040E+01 0.00000E+00
 -1      1899 1.01400E+02 4.61030E+01 0.00000E+00
 -1      1900 1.02900E+02 4.61030E+01 0.00000E+00
 -1      1901 1.00650E+02 4.48040E+01 0.00000E+00
 -1      1902 1.04400E+02 4.61030E+01 0.00000E+00
 -1      1903 1.05900E+02 4.61030E+01 0.00000E+00
 -1      1904 1.03650E+02 4.48040E+01 0.00000E+00
 -1      1905 1.07400E+02 4.61030E+01 0.00000E+00
 -1      1906 1.08900E+02 4.61030E+01 0.00000E+00
 -1      1907 1.06650E+02 4.48040E+01 0.00000E+00
 -1      1908 1.10400E+02 4.61030E+01 0.00000E+00
 -1      1909 1.11900E+02 4.61030E+01 0.00000E+00
 -1      1910 1.09650E+02 4.48040E+01 0.00000E+00
 -1      1911 1.13400E+02 4.61030E+01 0.00000E+00
 -1      1912 1.14900E+02 4.61030E+01 0.00000E+00
 -1      1913 1.12650E+02 4.48040E+01 0.00000E+00
 -1      1914 1.16400E+02 4.61030E+01 0.00000E+00
 -1      1915 1.17900E+02 4.61030E+01 0.00000E+00
 -1      1916 1.15650E+02 4.48040E+01 0.00000E+00
 -1      1917 1.19400E+02 4.61030E+01 0.00000E+00
 -1      1918 1.20900E+02 4.61030E+01 0.00000E+00
 -1      1919 1.18650E+02 4.48040E+01 0.00000E+00
 -1      1920 1.22400E+02 4.61030E+01 0.00000E+00
 -1      1921 1.23900E+02 4.61030E+01 0.00000E+00
 -1      1922 1.21650E+02 4.48040E+01 0.00000E+00
 -1      1923 1.25400E+02 4.61030E+01 0.00000E+00
 -1      1924 1.26900E+02 4.61030E+01 0.00000E+00
 -1      1925 1.24650E+02 4.48040E+01 0.00000E+00
 -1      1926 1.28400E+02 4.61030E+01 0.00000E+00
 -1      1927 1.29900E+02 4.61030E+01 0.00000E+00
 -1      1928 1.27650E+02 4.48040E+01 0.00000E+00
 -1      1929 1.31400E+02 4.61030E+01 0.00000E+00
 -1      1930 1.32900E+02 4.61030E+01 0.00000E+00
 -1      1931 1.30650E+02 4.48040E+01 0.00000E+00
 -1      1932 1.34400E+02 4.61030E+01 0.00000E+00
 -1      1933 1.35900E+02 4.61030E+01 0.00000E+00
 -1      1934 1.33650E+02 4.48040E+01 0.00000E+00
 -1      1935 1.37400E+02 4.61030E+01 0.00000E+00
 -1      1936 1.38900E+02 4.61030E+01 0.00000E+00
 -1      1937 1.36650E+02 4.48040E+01 0.00000E+00
 -1      1938 1.40400E+02 4.61030E+01 0.00000E+00
 -1      1939 1.41900E+02 4.61030E+01 0.00000E+00
 -1      1940 1.39650E+02 4.48040E+01 0.00000E+00
 -1      1941 1.43244E+02 4.61616E+01 0.00000E+00
 -1      1942 1.44744E+02 4.61616E+01 0.00000E+00
 -1      1943 1.45182E+02 4.49799E+01 0.00000E+00
 -1      1944 1.42494E+02 4.48626E+01 0.00000E+00
 -1      1945 1.17045E+01 3.09687E+00 0.00000E+00
 -1      1946 1.02045E+01 3.09687E+00 0.00000E+00
 -1      1947 1.00350E+01 4.00625E+00 0.00000E+00
 -1      1948 1.47045E+01 3.09687E+00 0.00000E+00
 -1      1949 1.32045E+01 3.09687E+00 0.00000E+00
 -1      1950 1.30350E+01 4.00625E+00 0.00000E+00
 -1      1951 1.77045E+01 3.09687E+00 0.00000E+00
 -1      1952 1.62045E+01 3.09687E+00 0.00000E+00
 -1      1953 1.60350E+01 4.00625E+00 0.00000E+00
 -1      1954 2.07045E+01 3.09687E+00 0.00000E+00
 -1      1955 1.92045E+01 3.09687E+00 0.00000E+00
 -1      1956 1.90350E+01 4.00625E+00 0.00000E+00
 -1      1957 2.37045E+01 3.09687E+00 0.00000E+00
 -1      1958 2.22045E+01 3.09687E+00 0.00000E+00
 -1      1959 2.20350E+01 4.00625E+00 0.00000E+00
 -1      1960 2.67045E+01 3.09687E+00 0.00000E+00
 -1      1961 2.52045E+01 3.09687E+00 0.00000E+00
 -1      1962 2.50350E+01 4.00625E+00 0.00000E+00
 -1      1963 2.97045E+01 3.09687E+00 0.00000E+00
 -1      1964 2.82045E+01 3.09687E+00 0.00000E+00
 -1      1965 2.80350E+01 4.00625E+00 0.00000E+00
 -1      1966 3.27045E+01 3.09687E+00 0.00000E+00
 -1      1967 3.12045E+01 3.09687E+00 0.00000E+00
 -1      1968 3.10350E+01 4.00625E+00 0.00000E+00
 -1      1969 3.57045E+01 3.09687E+00 0.00000E+00
 -1      1970 3.42045E+01 3.09687E+00 0.00000E+00
 -1      1971 3.40350E+01 4.00625E+00 0.00000E+00
 -1      1972 3.87045E+01 3.09687E+00 0.00000E+00
 -1      1973 3.72045E+01 3.09687E+00 0.00000E+00
 -1      1974 3.70350E+01 4.00625E+00 0.00000E+00
 -1      1975 4.17045E+01 3.09687E+00 0.00000E+00
 -1      1976 4.02045E+01 3.09687E+00 0.00000E+00
 -1      1977 4.00350E+01 4.00625E+00 0.00000E+00
 -1      1978 4.47045E+01 3.09687E+00 0.00000E+00
 -1      1979 4.32045E+01 3.09687E+00 0.00000E+00
 -1      1980 4.30350E+01 4.00625E+00 0.00000E+00
 -1      1981 4.77045E+01 3.09687E+00 0.00000E+00
 -1      1982 4.62045E+01 3.09687E+00 0.00000E+00
 -1      1983 4.60350E+01 4.00625E+00 0.00000E+00
 -1      1984 5.07045E+01 3.09687E+00 0.00000E+00
 -1      1985 4.92045E+01 3.09687E+00 0.00000E+00
 -1      1986 4.90350E+01 4.00625E+00 0.00000E+00
 -1      1987 5.37045E+01 3.09687E+00 0.00000E+00
 -1      1988 5.22045E+01 3.09687E+00 0.00000E+00
 -1      1989 5.20350E+01 4.00625E+00 0.00000E+00
 -1      1990 5.67045E+01 3.09687E+00 0.00000E+00
 -1      1991 5.52045E+01 3.09687E+00 0.00000E+00
 -1      1992 5.50350E+01 4.00625E+00 0.00000E+00
 -1      1993 5.97045E+01 3.09687E+00 0.00000E+00
 -1      1994 5.82045E+01 3.09687E+00 0.00000E+00
 -1      1995 5.80350E+01 4.00625E+00 0.00000E+00
 -1      1996 6.27045E+01 3.09687E+00 0.00000E+00
 -1      1997 6.12045E+01 3.09687E+00 0.00000E+00
 -1      1998 6.10350E+01 4.00625E+00 0.00000E+00
 -1      1999 6.57045E+01 3.09687E+00 0.00000E+00
 -1      2000 6.42045E+01 3.09687E+00 0.00000E+00
 -1      2001 6.40350E+01 4.00625E+00 0.00000E+00
 -1      2002 6.87045E+01 3.09687E+00 0.00000E+00
 -1      2003 6.72045E+01 3.09687E+00 0.00000E+00
 -1      2004 6.70350E+01 4.00625E+00 0.00000E+00
 -1      2005 7.17045E+01 3.09687E+00 0.00000E+00
 -1      2006 7.02045E+01 3.09687E+00 0.00000E+00
 -1      2007 7.00350E+01 4.00625E+00 0.00000E+00
 -1      2008 7.47045E+01 3.09687E+00 0.00000E+00
 -1      2009 7.32045E+01 3.09687E+00 0.00000E+00
 -1      2010 7.30350E+01 4.00625E+00 0.00000E+00
 -1      2011 7.77045E+01 3.09687E+00 0.00000E+00
 -1      2012 7.62045E+01 3.09687E+00 0.00000E+00
 -1      2013 7.60350E+01 4.00625E+00 0.00000E+00
 -1      2014 8.07045E+01 3.09687E+00 0.00000E+00
 -1      2015 7.92045E+01 3.09687E+00 0.00000E+00
 -1      2016 7.90350E+01 4.00625E+00 0.00000E+00
 -1      2017 8.37045E+01 3.09687E+00 0.00000E+00
 -1      2018 8.22045E+01 3.09687E+00 0.00000E+00
 -1      2019 8.20350E+01 4.00625E+00 0.00000E+00
 -1      2020 8.67045E+01 3.09687E+00 0.00000E+00
 -1      2021 8.52045E+01 3.09687E+00 0.00000E+00
 -1      2022 8.50350E+01 4.00625E+00 0.00000E+00
 -1      2023 8.97045E+01 3.09687E+00 0.00000E+00
 -1      2024 8.82045E+01 3.09687E+00 0.00000E+00
 -1      2025 8.80350E+01 4.00625E+00 0.00000E+00
 -1      2026 9.27045E+01 3.09687E+00 0.00000E+00
 -1      2027 9.12045E+01 3.09687E+00 0.00000E+00
 -1      2028 9.10350E+01 4.00625E+00 0.00000E+00
 -1      2029 9.57045E+01 3.09687E+00 0.00000E+00
 -1      2030 9.42045E+01 3.09687E+00 0.00000E+00
 -1      2031 9.40350E+01 4.00625E+00 0.00000E+00
 -1      2032 9.87045E+01 3.09687E+00 0.00000E+00
 -1      2033 9.72045E+01 3.09687E+00 0.00000E+00
 -1      2034 9.70350E+01 4.00625E+00 0.00000E+00
 -1      2035 1.01704E+02 3.09687E+00 0.00000E+00
 -1      2036 1.00204E+02 3.09687E+00 0.00000E+00
 -1      2037 1.00035E+02 4.00625E+00 0.00000E+00
 -1      2038 1.04704E+02 3.09687E+00 0.00000E+00
 -1      2039 1.03204E+02 3.09687E+00 0.00000E+00
 -1      2040 1.03035E+02 4.00625E+00 0.00000E+00
 -1      2041 1.07704E+02 3.09687E+00 0.00000E+00
 -1      2042 1.06204E+02 3.09687E+00 0.00000E+00
 -1      2043 1.06035E+02 4.00625E+00 0.00000E+00
 -1      2044 1.10704E+02 3.09687E+00 0.00000E+00
 -1      2045 1.09204E+02 3.09687E+00 0.00000E+00
 -1      2046 1.09035E+02 4.00625E+00 0.00000E+00
 -1      2047 1.13704E+02 3.09687E+00 0.00000E+00
 -1      2048 1.12204E+02 3.09687E+00 0.00000E+00
 -1      2049 1.12035E+02 4.00625E+00 0.00000E+00
 -1      2050 1.16704E+02 3.09687E+00 0.00000E+00
 -1      2051 1.15204E+02 3.09687E+00 0.00000E+00
 -1      2052 1.15035E+02 4.00625E+00 0.00000E+00
 -1      2053 1.19704E+02 3.09687E+00 0.00000E+00
 -1      2054 1.18204E+02 3.09687E+00 0.00000E+00
 -1      2055 1.18035E+02 4.00625E+00 0.00000E+00
 -1      2056 1.22704E+02 3.09687E+00 0.00000E+00
 -1      2057 1.21204E+02 3.09687E+00 0.00000E+00
 -1      2058 1.21035E+02 4.00625E+00 0.00000E+00
 -1      2059 1.25704E+02 3.09687E+00 0.00000E+00
 -1      2060 1.24204E+02 3.09687E+00 0.00000E+00
 -1      2061 1.24035E+02 4.00625E+00 0.00000E+00
 -1      2062 1.28704E+02 3.09687E+00 0.00000E+00
 -1      2063 1.27204E+02 3.09687E+00 0.00000E+00
 -1      2064 1.27035E+02 4.00625E+00 0.00000E+00
 -1      2065 1.31704E+02 3.09687E+00 0.00000E+00
 -1      2066 1.30204E+02 3.09687E+00 0.00000E+00
 -1      2067 1.30035E+02 4.00625E+00 0.00000E+00
 -1      2068 1.34704E+02 3.09687E+00 0.00000E+00
 -1      2069 1.33204E+02 3.09687E+00 0.00000E+00
 -1      2070 1.33035E+02 4.00625E+00 0.00000E+00
 -1      2071 1.37704E+02 3.09687E+00 0.00000E+00
 -1      2072 1.36204E+02 3.09687E+00 0.00000E+00
 -1      2073 1.36035E+02 4.00625E+00 0.00000E+00
 -1      2074 1.40704E+02 3.09687E+00 0.00000E+00
 -1      2075 1.39204E+02 3.09687E+00 0.00000E+00
 -1      2076 1.39035E+02 4.00625E+00 0.00000E+00
 -1      2077 1.43704E+02 3.09687E+00 0.00000E+00
 -1      2078 1.42204E+02 3.09687E+00 0.00000E+00
 -1      2079 1.42035E+02 4.00625E+00 0.00000E+00
 -1      2080 1.46171E+02 3.20156E+00 0.00000E+00
 -1      2081 1.44671E+02 3.20156E+00 0.00000E+00
 -1      2082 1.44502E+02 4.11094E+00 0.00000E+00
 -1      2083 1.46435E+02 4.32031E+00 0.00000E+00
 -1      2084 1.46103E+02 1.25375E+01 0.00000E+00
 -1      2085 1.46103E+02 1.10625E+01 0.00000E+00
 -1      2086 1.46103E+02 9.58750E+00 0.00000E+00
 -1      2087 1.46103E+02 8.11250E+00 0.00000E+00
 -1      2088 1.44804E+02 1.03250E+01 0.00000E+00
 -1      2089 1.46269E+02 6.95391E+00 0.00000E+00
 -1      2090 1.46269E+02 5.47891E+00 0.00000E+00
 -1      2091 1.45302E+02 5.37422E+00 0.00000E+00
 -1      2092 1.44970E+02 7.69141E+00 0.00000E+00
 -1      2093 1.46103E+02 1.54375E+01 0.00000E+00
 -1      2094 1.46103E+02 1.39875E+01 0.00000E+00
 -1      2095 1.44804E+02 1.32500E+01 0.00000E+00
 -1      2096 1.46103E+02 1.83875E+01 0.00000E+00
 -1      2097 1.46103E+02 1.69125E+01 0.00000E+00
 -1      2098 1.44804E+02 1.61750E+01 0.00000E+00
 -1      2099 1.46103E+02 2.13375E+01 0.00000E+00
 -1      2100 1.46103E+02 1.98625E+01 0.00000E+00
 -1      2101 1.44804E+02 1.91250E+01 0.00000E+00
 -1      2102 1.46103E+02 2.42875E+01 0.00000E+00
 -1      2103 1.46103E+02 2.28125E+01 0.00000E+00
 -1      2104 1.44804E+02 2.20750E+01 0.00000E+00
 -1      2105 1.46103E+02 2.72375E+01 0.00000E+00
 -1      2106 1.46103E+02 2.57625E+01 0.00000E+00
 -1      2107 1.44804E+02 2.50250E+01 0.00000E+00
 -1      2108 1.46103E+02 3.01875E+01 0.00000E+00
 -1      2109 1.46103E+02 2.87125E+01 0.00000E+00
 -1      2110 1.44804E+02 2.79750E+01 0.00000E+00
 -1      2111 1.46103E+02 3.30875E+01 0.00000E+00
 -1      2112 1.46103E+02 3.16375E+01 0.00000E+00
 -1      2113 1.44804E+02 3.09000E+01 0.00000E+00
 -1      2114 1.46103E+02 3.60375E+01 0.00000E+00
 -1      2115 1.46103E+02 3.45625E+01 0.00000E+00
 -1      2116 1.44804E+02 3.38250E+01 0.00000E+00
 -1      2117 1.46103E+02 3.89875E+01 0.00000E+00
 -1      2118 1.46103E+02 3.75125E+01 0.00000E+00
 -1      2119 1.44804E+02 3.67750E+01 0.00000E+00
 -1      2120 1.46103E+02 4.19375E+01 0.00000E+00
 -1      2121 1.46103E+02 4.04625E+01 0.00000E+00
 -1      2122 1.44804E+02 3.97250E+01 0.00000E+00
 -1      2123 1.26926E+02 2.26955E+01 0.00000E+00
 -1      2124 1.27481E+02 2.34547E+01 0.00000E+00
 -1      2125 1.28235E+02 2.66912E+01 0.00000E+00
 -1      2126 1.28125E+02 2.75675E+01 0.00000E+00
 -1      2127 1.28028E+02 2.45736E+01 0.00000E+00
 -1      2128 1.28224E+02 2.55357E+01 0.00000E+00
 -1      2129 1.26068E+02 2.09916E+01 0.00000E+00
 -1      2130 1.26497E+02 2.18436E+01 0.00000E+00
 -1      2131 1.27332E+02 2.18161E+01 0.00000E+00
 -1      2132 1.24243E+02 1.97707E+01 0.00000E+00
 -1      2133 1.25105E+02 2.01892E+01 0.00000E+00
 -1      2134 3.89700E+00 3.74688E+01 0.00000E+00
 -1      2135 3.89700E+00 3.89437E+01 0.00000E+00
 -1      2136 5.19600E+00 3.96813E+01 0.00000E+00
 -1      2137 5.19600E+00 3.67438E+01 0.00000E+00
 -1      2138 1.20916E+02 1.81708E+01 0.00000E+00
 -1      2139 1.21793E+02 1.85014E+01 0.00000E+00
 -1      2140 1.18727E+02 1.81138E+01 0.00000E+00
 -1      2141 1.19632E+02 1.79618E+01 0.00000E+00
 -1      2142 1.16977E+02 1.84038E+01 0.00000E+00
 -1      2143 1.17852E+02 1.82588E+01 0.00000E+00
 -1      2144 1.18170E+02 1.73784E+01 0.00000E+00
 -1      2145 1.15170E+02 1.93068E+01 0.00000E+00
 -1      2146 1.15969E+02 1.89056E+01 0.00000E+00
 -1      2147 1.13635E+02 2.03397E+01 0.00000E+00
 -1      2148 1.14328E+02 1.98243E+01 0.00000E+00
 -1      2149 1.12095E+02 2.13978E+01 0.00000E+00
 -1      2150 1.12825E+02 2.08093E+01 0.00000E+00
 -1      2151 1.10970E+02 2.32930E+01 0.00000E+00
 -1      2152 1.11386E+02 2.24278E+01 0.00000E+00
 -1      2153 1.10334E+02 2.52405E+01 0.00000E+00
 -1      2154 1.10498E+02 2.43330E+01 0.00000E+00
 -1      2155 1.10088E+02 2.70778E+01 0.00000E+00
 -1      2156 1.10211E+02 2.61592E+01 0.00000E+00
 -1      2157 1.09491E+02 2.55599E+01 0.00000E+00
 -1      2158 1.10486E+02 2.92031E+01 0.00000E+00
 -1      2159 1.10279E+02 2.82804E+01 0.00000E+00
 -1      2160 1.11166E+02 3.10640E+01 0.00000E+00
 -1      2161 1.10748E+02 3.02785E+01 0.00000E+00
 -1      2162 1.12095E+02 3.26424E+01 0.00000E+00
 -1      2163 1.11630E+02 3.18532E+01 0.00000E+00
 -1      2164 1.10738E+02 3.18238E+01 0.00000E+00
 -1      2165 1.13486E+02 3.42084E+01 0.00000E+00
 -1      2166 1.12818E+02 3.34994E+01 0.00000E+00
 -1      2167 1.15360E+02 3.52325E+01 0.00000E+00
 -1      2168 1.14502E+02 3.48996E+01 0.00000E+00
 -1      2169 1.17148E+02 3.57363E+01 0.00000E+00
 -1      2170 1.16299E+02 3.55295E+01 0.00000E+00
 -1      2171 1.19008E+02 3.59530E+01 0.00000E+00
 -1      2172 1.18127E+02 3.58893E+01 0.00000E+00
 -1      2173 1.20934E+02 3.59275E+01 0.00000E+00
 -1      2174 1.20030E+02 3.60201E+01 0.00000E+00
 -1      2175 1.22798E+02 3.51703E+01 0.00000E+00
 -1      2176 1.21977E+02 3.55273E+01 0.00000E+00
 -1      2177 1.24389E+02 3.42837E+01 0.00000E+00
 -1      2178 1.23681E+02 3.47450E+01 0.00000E+00
 -1      2179 1.25799E+02 3.31368E+01 0.00000E+00
 -1      2180 1.25156E+02 3.37112E+01 0.00000E+00
 -1      2181 1.26815E+02 3.15332E+01 0.00000E+00
 -1      2182 1.26430E+02 3.22663E+01 0.00000E+00
 -1      2183 1.27471E+02 3.00720E+01 0.00000E+00
 -1      2184 1.27146E+02 3.07712E+01 0.00000E+00
 -1      2185 1.27905E+02 2.84220E+01 0.00000E+00
 -1      2186 1.27755E+02 2.91938E+01 0.00000E+00
 -1      2187 1.22705E+02 1.89401E+01 0.00000E+00
 -1      2188 1.23474E+02 1.93554E+01 0.00000E+00
 -1      2189 1.24206E+02 1.89440E+01 0.00000E+00
 -1      2190 1.25939E+02 2.01618E+01 0.00000E+00
 -1      2191 1.26774E+02 2.01343E+01 0.00000E+00
 -1      2192 1.25810E+02 1.93319E+01 0.00000E+00
 -1      2193 6.42300E+00 4.57510E+01 0.00000E+00
 -1      2194 1.22525E+02 1.80900E+01 0.00000E+00
 -1      2195 7.17300E+00 4.44520E+01 0.00000E+00
 -1      2196 1.28308E+02 2.37869E+01 0.00000E+00
 -1      2197 1.29134E+02 2.41192E+01 0.00000E+00
 -1      2198 1.28587E+02 2.30003E+01 0.00000E+00
 -1      2199 1.28866E+02 2.60613E+01 0.00000E+00
 -1      2200 1.45665E+02 4.31193E+01 0.00000E+00
 -1      2201 1.28657E+02 2.80713E+01 0.00000E+00
 -1      2202 1.28153E+02 2.98040E+01 0.00000E+00
 -1      2203 1.27538E+02 3.14443E+01 0.00000E+00
 -1      2204 1.26576E+02 3.30769E+01 0.00000E+00
 -1      2205 1.25178E+02 3.45200E+01 0.00000E+00
 -1      2206 1.23529E+02 3.55178E+01 0.00000E+00
 -1      2207 1.21603E+02 3.63433E+01 0.00000E+00
 -1      2208 1.19539E+02 3.66764E+01 0.00000E+00
 -1      2209 1.17539E+02 3.64563E+01 0.00000E+00
 -1      2210 1.15621E+02 3.60063E+01 0.00000E+00
 -1      2211 1.11926E+02 3.34699E+01 0.00000E+00
 -1      2212 1.09559E+02 2.76811E+01 0.00000E+00
 -1      2213 1.10085E+02 2.36012E+01 0.00000E+00
 -1      2214 1.11265E+02 2.15312E+01 0.00000E+00
 -1      2215 1.11144E+02 2.06347E+01 0.00000E+00
 -1      2216 1.10435E+02 2.16647E+01 0.00000E+00
 -1      2217 1.12784E+02 2.00317E+01 0.00000E+00
 -1      2218 1.16287E+02 1.80252E+01 0.00000E+00
 -1      2219 1.20329E+02 1.74423E+01 0.00000E+00
 -1      2220 1.21025E+02 1.69228E+01 0.00000E+00
 -1      2221 1.19741E+02 1.67139E+01 0.00000E+00
 -1      2222 1.14436E+02 1.90445E+01 0.00000E+00
 -1      2223 1.10012E+02 2.99591E+01 0.00000E+00
 -1      2224 1.13665E+02 3.50181E+01 0.00000E+00
 -1      2225 1.12829E+02 3.51366E+01 0.00000E+00
 -1      2226 1.13845E+02 3.58278E+01 0.00000E+00
 -1      2227 1.07850E+01 5.30525E+00 0.00000E+00
 -1      2228 9.28500E+00 5.30525E+00 0.00000E+00
 -1      2229 6.49500E+00 3.01125E+01 0.00000E+00
 -1      2230 6.49500E+00 3.15875E+01 0.00000E+00
 -1      2231 6.49500E+00 3.30625E+01 0.00000E+00
 -1      2232 6.49500E+00 3.45375E+01 0.00000E+00
 -1      2233 7.79400E+00 3.23250E+01 0.00000E+00
 -1      2234 6.49500E+00 2.42125E+01 0.00000E+00
 -1      2235 6.49500E+00 2.56875E+01 0.00000E+00
 -1      2236 6.49500E+00 2.12625E+01 0.00000E+00
 -1      2237 6.49500E+00 2.27375E+01 0.00000E+00
 -1      2238 7.79400E+00 2.34750E+01 0.00000E+00
 -1      2239 6.49500E+00 1.83625E+01 0.00000E+00
 -1      2240 6.49500E+00 1.98125E+01 0.00000E+00
 -1      2241 7.79400E+00 2.05500E+01 0.00000E+00
 -1      2242 6.49500E+00 1.54125E+01 0.00000E+00
 -1      2243 6.49500E+00 1.68875E+01 0.00000E+00
 -1      2244 7.79400E+00 1.76250E+01 0.00000E+00
 -1      2245 6.49500E+00 1.24625E+01 0.00000E+00
 -1      2246 6.49500E+00 1.39375E+01 0.00000E+00
 -1      2247 7.79400E+00 1.46750E+01 0.00000E+00
 -1      2248 6.49500E+00 9.51250E+00 0.00000E+00
 -1      2249 6.49500E+00 1.09875E+01 0.00000E+00
 -1      2250 7.79400E+00 1.17250E+01 0.00000E+00
 -1      2251 1.37850E+01 5.30525E+00 0.00000E+00
 -1      2252 1.22850E+01 5.30525E+00 0.00000E+00
 -1      2253 1.15350E+01 6.60425E+00 0.00000E+00
 -1      2254 9.90000E+00 4.35050E+01 0.00000E+00
 -1      2255 1.14000E+01 4.35050E+01 0.00000E+00
 -1      2256 1.22423E+02 1.71355E+01 0.00000E+00
 -1      2257 1.23335E+02 1.75742E+01 0.00000E+00
 -1      2258 1.29000E+01 4.35050E+01 0.00000E+00
 -1      2259 1.44000E+01 4.35050E+01 0.00000E+00
 -1      2260 1.21500E+01 4.22060E+01 0.00000E+00
 -1      2261 1.59000E+01 4.35050E+01 0.00000E+00
 -1      2262 1.74000E+01 4.35050E+01 0.00000E+00
 -1      2263 1.51500E+01 4.22060E+01 0.00000E+00
 -1      2264 1.89000E+01 4.35050E+01 0.00000E+00
 -1      2265 2.04000E+01 4.35050E+01 0.00000E+00
 -1      2266 1.81500E+01 4.22060E+01 0.00000E+00
 -1      2267 2.19000E+01 4.35050E+01 0.00000E+00
 -1      2268 2.34000E+01 4.35050E+01 0.00000E+00
 -1      2269 2.11500E+01 4.22060E+01 0.00000E+00
 -1      2270 2.49000E+01 4.35050E+01 0.00000E+00
 -1      2271 2.64000E+01 4.35050E+01 0.00000E+00
 -1      2272 2.41500E+01 4.22060E+01 0.00000E+00
 -1      2273 2.79000E+01 4.35050E+01 0.00000E+00
 -1      2274 2.94000E+01 4.35050E+01 0.00000E+00
 -1      2275 2.71500E+01 4.22060E+01 0.00000E+00
 -1      2276 3.09000E+01 4.35050E+01 0.00000E+00
 -1      2277 3.24000E+01 4.35050E+01 0.00000E+00
 -1      2278 3.01500E+01 4.22060E+01 0.00000E+00
 -1      2279 3.39000E+01 4.35050E+01 0.00000E+00
 -1      2280 3.54000E+01 4.35050E+01 0.00000E+00
 -1      2281 3.31500E+01 4.22060E+01 0.00000E+00
 -1      2282 3.69000E+01 4.35050E+01 0.00000E+00
 -1      2283 3.84000E+01 4.35050E+01 0.00000E+00
 -1      2284 3.61500E+01 4.22060E+01 0.00000E+00
 -1      2285 3.99000E+01 4.35050E+01 0.00000E+00
 -1      2286 4.14000E+01 4.35050E+01 0.00000E+00
 -1      2287 3.91500E+01 4.22060E+01 0.00000E+00
 -1      2288 4.29000E+01 4.35050E+01 0.00000E+00
 -1      2289 4.44000E+01 4.35050E+01 0.00000E+00
 -1      2290 4.21500E+01 4.22060E+01 0.00000E+00
 -1      2291 4.59000E+01 4.35050E+01 0.00000E+00
 -1      2292 4.74000E+01 4.35050E+01 0.00000E+00
 -1      2293 4.51500E+01 4.22060E+01 0.00000E+00
 -1      2294 4.89000E+01 4.35050E+01 0.00000E+00
 -1      2295 5.04000E+01 4.35050E+01 0.00000E+00
 -1      2296 4.81500E+01 4.22060E+01 0.00000E+00
 -1      2297 5.19000E+01 4.35050E+01 0.00000E+00
 -1      2298 5.34000E+01 4.35050E+01 0.00000E+00
 -1      2299 5.11500E+01 4.22060E+01 0.00000E+00
 -1      2300 5.49000E+01 4.35050E+01 0.00000E+00
 -1      2301 5.64000E+01 4.35050E+01 0.00000E+00
 -1      2302 5.41500E+01 4.22060E+01 0.00000E+00
 -1      2303 5.79000E+01 4.35050E+01 0.00000E+00
 -1      2304 5.94000E+01 4.35050E+01 0.00000E+00
 -1      2305 5.71500E+01 4.22060E+01 0.00000E+00
 -1      2306 6.09000E+01 4.35050E+01 0.00000E+00
 -1      2307 6.24000E+01 4.35050E+01 0.00000E+00
 -1      2308 6.01500E+01 4.22060E+01 0.00000E+00
 -1      2309 6.39000E+01 4.35050E+01 0.00000E+00
 -1      2310 6.54000E+01 4.35050E+01 0.00000E+00
 -1      2311 6.31500E+01 4.22060E+01 0.00000E+00
 -1      2312 6.69000E+01 4.35050E+01 0.00000E+00
 -1      2313 6.84000E+01 4.35050E+01 0.00000E+00
 -1      2314 6.61500E+01 4.22060E+01 0.00000E+00
 -1      2315 6.99000E+01 4.35050E+01 0.00000E+00
 -1      2316 7.14000E+01 4.35050E+01 0.00000E+00
 -1      2317 6.91500E+01 4.22060E+01 0.00000E+00
 -1      2318 7.29000E+01 4.35050E+01 0.00000E+00
 -1      2319 7.44000E+01 4.35050E+01 0.00000E+00
 -1      2320 7.21500E+01 4.22060E+01 0.00000E+00
 -1      2321 7.59000E+01 4.35050E+01 0.00000E+00
 -1      2322 7.74000E+01 4.35050E+01 0.00000E+00
 -1      2323 7.51500E+01 4.22060E+01 0.00000E+00
 -1      2324 7.89000E+01 4.35050E+01 0.00000E+00
 -1      2325 8.04000E+01 4.35050E+01 0.00000E+00
 -1      2326 7.81500E+01 4.22060E+01 0.00000E+00
 -1      2327 8.19000E+01 4.35050E+01 0.00000E+00
 -1      2328 8.34000E+01 4.35050E+01 0.00000E+00
 -1      2329 8.11500E+01 4.22060E+01 0.00000E+00
 -1      2330 8.49000E+01 4.35050E+01 0.00000E+00
 -1      2331 8.64000E+01 4.35050E+01 0.00000E+00
 -1      2332 8.41500E+01 4.22060E+01 0.00000E+00
 -1      2333 8.79000E+01 4.35050E+01 0.00000E+00
 -1      2334 8.94000E+01 4.35050E+01 0.00000E+00
 -1      2335 8.71500E+01 4.22060E+01 0.00000E+00
 -1      2336 9.09000E+01 4.35050E+01 0.00000E+00
 -1      2337 9.24000E+01 4.35050E+01 0.00000E+00
 -1      2338 9.01500E+01 4.22060E+01 0.00000E+00
 -1      2339 9.39000E+01 4.35050E+01 0.00000E+00
 -1      2340 9.54000E+01 4.35050E+01 0.00000E+00
 -1      2341 9.31500E+01 4.22060E+01 0.00000E+00
 -1      2342 9.69000E+01 4.35050E+01 0.00000E+00
 -1      2343 9.84000E+01 4.35050E+01 0.00000E+00
 -1      2344 9.61500E+01 4.22060E+01 0.00000E+00
 -1      2345 9.99000E+01 4.35050E+01 0.00000E+00
 -1      2346 1.01400E+02 4.35050E+01 0.00000E+00
 -1      2347 9.91500E+01 4.22060E+01 0.00000E+00
 -1      2348 1.02900E+02 4.35050E+01 0.00000E+00
 -1      2349 1.04400E+02 4.35050E+01 0.00000E+00
 -1      2350 1.02150E+02 4.22060E+01 0.00000E+00
 -1      2351 1.05900E+02 4.35050E+01 0.00000E+00
 -1      2352 1.07400E+02 4.35050E+01 0.00000E+00
 -1      2353 1.05150E+02 4.22060E+01 0.00000E+00
 -1      2354 1.08900E+02 4.35050E+01 0.00000E+00
 -1      2355 1.10400E+02 4.35050E+01 0.00000E+00
 -1      2356 1.08150E+02 4.22060E+01 0.00000E+00
 -1      2357 1.11900E+02 4.35050E+01 0.00000E+00
 -1      2358 1.13400E+02 4.35050E+01 0.00000E+00
 -1      2359 1.11150E+02 4.22060E+01 0.00000E+00
 -1      2360 1.14900E+02 4.35050E+01 0.00000E+00
 -1      2361 1.16400E+02 4.35050E+01 0.00000E+00
 -1      2362 1.14150E+02 4.22060E+01 0.00000E+00
 -1      2363 1.17900E+02 4.35050E+01 0.00000E+00
 -1      2364 1.19400E+02 4.35050E+01 0.00000E+00
 -1      2365 1.17150E+02 4.22060E+01 0.00000E+00
 -1      2366 1.20900E+02 4.35050E+01 0.00000E+00
 -1      2367 1.22400E+02 4.35050E+01 0.00000E+00
 -1      2368 1.20150E+02 4.22060E+01 0.00000E+00
 -1      2369 1.23900E+02 4.35050E+01 0.00000E+00
 -1      2370 1.25400E+02 4.35050E+01 0.00000E+00
 -1      2371 1.23150E+02 4.22060E+01 0.00000E+00
 -1      2372 1.26900E+02 4.35050E+01 0.00000E+00
 -1      2373 1.28400E+02 4.35050E+01 0.00000E+00
 -1      2374 1.26150E+02 4.22060E+01 0.00000E+00
 -1      2375 1.29900E+02 4.35050E+01 0.00000E+00
 -1      2376 1.31400E+02 4.35050E+01 0.00000E+00
 -1      2377 1.29150E+02 4.22060E+01 0.00000E+00
 -1      2378 1.32900E+02 4.35050E+01 0.00000E+00
 -1      2379 1.34400E+02 4.35050E+01 0.00000E+00
 -1      2380 1.32150E+02 4.22060E+01 0.00000E+00
 -1      2381 1.35900E+02 4.35050E+01 0.00000E+00
 -1      2382 1.37400E+02 4.35050E+01 0.00000E+00
 -1      2383 1.35150E+02 4.22060E+01 0.00000E+00
 -1      2384 1.38900E+02 4.35050E+01 0.00000E+00
 -1      2385 1.40400E+02 4.35050E+01 0.00000E+00
 -1      2386 1.38150E+02 4.22060E+01 0.00000E+00
 -1      2387 1.97850E+01 5.30525E+00 0.00000E+00
 -1      2388 1.82850E+01 5.30525E+00 0.00000E+00
 -1      2389 2.27850E+01 5.30525E+00 0.00000E+00
 -1      2390 2.12850E+01 5.30525E+00 0.00000E+00
 -1      2391 2.05350E+01 6.60425E+00 0.00000E+00
 -1      2392 2.57850E+01 5.30525E+00 0.00000E+00
 -1      2393 2.42850E+01 5.30525E+00 0.00000E+00
 -1      2394 2.35350E+01 6.60425E+00 0.00000E+00
 -1      2395 2.87850E+01 5.30525E+00 0.00000E+00
 -1      2396 2.72850E+01 5.30525E+00 0.00000E+00
 -1      2397 2.65350E+01 6.60425E+00 0.00000E+00
 -1      2398 3.17850E+01 5.30525E+00 0.00000E+00
 -1      2399 3.02850E+01 5.30525E+00 0.00000E+00
 -1      2400 2.95350E+01 6.60425E+00 0.00000E+00
 -1      2401 3.47850E+01 5.30525E+00 0.00000E+00
 -1      2402 3.32850E+01 5.30525E+00 0.00000E+00
 -1      2403 3.25350E+01 6.60425E+00 0.00000E+00
 -1      2404 3.77850E+01 5.30525E+00 0.00000E+00
 -1      2405 3.62850E+01 5.30525E+00 0.00000E+00
 -1      2406 3.55350E+01 6.60425E+00 0.00000E+00
 -1      2407 4.07850E+01 5.30525E+00 0.00000E+00
 -1      2408 3.92850E+01 5.30525E+00 0.00000E+00
 -1      2409 3.85350E+01 6.60425E+00 0.00000E+00
 -1      2410 4.37850E+01 5.30525E+00 0.00000E+00
 -1      2411 4.22850E+01 5.30525E+00 0.00000E+00
 -1      2412 4.15350E+01 6.60425E+00 0.00000E+00
 -1      2413 4.67850E+01 5.30525E+00 0.00000E+00
 -1      2414 4.52850E+01 5.30525E+00 0.00000E+00
 -1      2415 4.45350E+01 6.60425E+00 0.00000E+00
 -1      2416 4.97850E+01 5.30525E+00 0.00000E+00
 -1      2417 4.82850E+01 5.30525E+00 0.00000E+00
 -1      2418 4.75350E+01 6.60425E+00 0.00000E+00
 -1      2419 5.27850E+01 5.30525E+00 0.00000E+00
 -1      2420 5.12850E+01 5.30525E+00 0.00000E+00
 -1      2421 5.05350E+01 6.60425E+00 0.00000E+00
 -1      2422 5.57850E+01 5.30525E+00 0.00000E+00
 -1      2423 5.42850E+01 5.30525E+00 0.00000E+00
 -1      2424 5.35350E+01 6.60425E+00 0.00000E+00
 -1      2425 5.87850E+01 5.30525E+00 0.00000E+00
 -1      2426 5.72850E+01 5.30525E+00 0.00000E+00
 -1      2427 5.65350E+01 6.60425E+00 0.00000E+00
 -1      2428 6.17850E+01 5.30525E+00 0.00000E+00
 -1      2429 6.02850E+01 5.30525E+00 0.00000E+00
 -1      2430 5.95350E+01 6.60425E+00 0.00000E+00
 -1      2431 6.47850E+01 5.30525E+00 0.00000E+00
 -1      2432 6.32850E+01 5.30525E+00 0.00000E+00
 -1      2433 6.25350E+01 6.60425E+00 0.00000E+00
 -1      2434 6.77850E+01 5.30525E+00 0.00000E+00
 -1      2435 6.62850E+01 5.30525E+00 0.00000E+00
 -1      2436 6.55350E+01 6.60425E+00 0.00000E+00
 -1      2437 7.07850E+01 5.30525E+00 0.00000E+00
 -1      2438 6.92850E+01 5.30525E+00 0.00000E+00
 -1      2439 6.85350E+01 6.60425E+00 0.00000E+00
 -1      2440 7.37850E+01 5.30525E+00 0.00000E+00
 -1      2441 7.22850E+01 5.30525E+00 0.00000E+00
 -1      2442 7.15350E+01 6.60425E+00 0.00000E+00
 -1      2443 7.67850E+01 5.30525E+00 0.00000E+00
 -1      2444 7.52850E+01 5.30525E+00 0.00000E+00
 -1      2445 7.45350E+01 6.60425E+00 0.00000E+00
 -1      2446 7.97850E+01 5.30525E+00 0.00000E+00
 -1      2447 7.82850E+01 5.30525E+00 0.00000E+00
 -1      2448 7.75350E+01 6.60425E+00 0.00000E+00
 -1      2449 8.27850E+01 5.30525E+00 0.00000E+00
 -1      2450 8.12850E+01 5.30525E+00 0.00000E+00
 -1      2451 8.05350E+01 6.60425E+00 0.00000E+00
 -1      2452 8.57850E+01 5.30525E+00 0.00000E+00
 -1      2453 8.42850E+01 5.30525E+00 0.00000E+00
 -1      2454 8.35350E+01 6.60425E+00 0.00000E+00
 -1      2455 8.87850E+01 5.30525E+00 0.00000E+00
 -1      2456 8.72850E+01 5.30525E+00 0.00000E+00
 -1      2457 8.65350E+01 6.60425E+00 0.00000E+00
 -1      2458 9.17850E+01 5.30525E+00 0.00000E+00
 -1      2459 9.02850E+01 5.30525E+00 0.00000E+00
 -1      2460 8.95350E+01 6.60425E+00 0.00000E+00
 -1      2461 9.47850E+01 5.30525E+00 0.00000E+00
 -1      2462 9.32850E+01 5.30525E+00 0.00000E+00
 -1      2463 9.25350E+01 6.60425E+00 0.00000E+00
 -1      2464 9.77850E+01 5.30525E+00 0.00000E+00
 -1      2465 9.62850E+01 5.30525E+00 0.00000E+00
 -1      2466 9.55350E+01 6.60425E+00 0.00000E+00
 -1      2467 1.00785E+02 5.30525E+00 0.00000E+00
 -1      2468 9.92850E+01 5.30525E+00 0.00000E+00
 -1      2469 9.85350E+01 6.60425E+00 0.00000E+00
 -1      2470 1.03785E+02 5.30525E+00 0.00000E+00
 -1      2471 1.02285E+02 5.30525E+00 0.00000E+00
 -1      2472 1.01535E+02 6.60425E+00 0.00000E+00
 -1      2473 1.06785E+02 5.30525E+00 0.00000E+00
 -1      2474 1.05285E+02 5.30525E+00 0.00000E+00
 -1      2475 1.04535E+02 6.60425E+00 0.00000E+00
 -1      2476 1.09785E+02 5.30525E+00 0.00000E+00
 -1      2477 1.08285E+02 5.30525E+00 0.00000E+00
 -1      2478 1.07535E+02 6.60425E+00 0.00000E+00
 -1      2479 1.12785E+02 5.30525E+00 0.00000E+00
 -1      2480 1.11285E+02 5.30525E+00 0.00000E+00
 -1      2481 1.10535E+02 6.60425E+00 0.00000E+00
 -1      2482 1.15785E+02 5.30525E+00 0.00000E+00
 -1      2483 1.14285E+02 5.30525E+00 0.00000E+00
 -1      2484 1.13535E+02 6.60425E+00 0.00000E+00
 -1      2485 1.18785E+02 5.30525E+00 0.00000E+00
 -1      2486 1.17285E+02 5.30525E+00 0.00000E+00
 -1      2487 1.16535E+02 6.60425E+00 0.00000E+00
 -1      2488 1.21785E+02 5.30525E+00 0.00000E+00
 -1      2489 1.20285E+02 5.30525E+00 0.00000E+00
 -1      2490 1.19535E+02 6.60425E+00 0.00000E+00
 -1      2491 1.24785E+02 5.30525E+00 0.00000E+00
 -1      2492 1.23285E+02 5.30525E+00 0.00000E+00
 -1      2493 1.22535E+02 6.60425E+00 0.00000E+00
 -1      2494 1.27785E+02 5.30525E+00 0.00000E+00
 -1      2495 1.26285E+02 5.30525E+00 0.00000E+00
 -1      2496 1.25535E+02 6.60425E+00 0.00000E+00
 -1      2497 1.30785E+02 5.30525E+00 0.00000E+00
 -1      2498 1.29285E+02 5.30525E+00 0.00000E+00
 -1      2499 1.28535E+02 6.60425E+00 0.00000E+00
 -1      2500 1.33785E+02 5.30525E+00 0.00000E+00
 -1      2501 1.32285E+02 5.30525E+00 0.00000E+00
 -1      2502 1.31535E+02 6.60425E+00 0.00000E+00
 -1      2503 1.36785E+02 5.30525E+00 0.00000E+00
 -1      2504 1.35285E+02 5.30525E+00 0.00000E+00
 -1      2505 1.34535E+02 6.60425E+00 0.00000E+00
 -1      2506 1.39785E+02 5.30525E+00 0.00000E+00
 -1      2507 1.38285E+02 5.30525E+00 0.00000E+00
 -1      2508 1.37535E+02 6.60425E+00 0.00000E+00
 -1      2509 1.42785E+02 5.30525E+00 0.00000E+00
 -1      2510 1.41285E+02 5.30525E+00 0.00000E+00
 -1      2511 1.40535E+02 6.60425E+00 0.00000E+00
 -1      2512 1.44336E+02 5.26953E+00 0.00000E+00
 -1      2513 1.43505E+02 1.69125E+01 0.00000E+00
 -1      2514 1.43505E+02 1.54375E+01 0.00000E+00
 -1      2515 1.43505E+02 1.98625E+01 0.00000E+00
 -1      2516 1.43505E+02 1.83875E+01 0.00000E+00
 -1      2517 1.42206E+02 1.76500E+01 0.00000E+00
 -1      2518 1.43505E+02 1.10625E+01 0.00000E+00
 -1      2519 1.43505E+02 9.58750E+00 0.00000E+00
 -1      2520 1.43505E+02 1.39750E+01 0.00000E+00
 -1      2521 1.43505E+02 1.25250E+01 0.00000E+00
 -1      2522 1.42206E+02 1.17875E+01 0.00000E+00
 -1      2523 1.42206E+02 1.47125E+01 0.00000E+00
 -1      2524 1.43505E+02 2.28125E+01 0.00000E+00
 -1      2525 1.43505E+02 2.13375E+01 0.00000E+00
 -1      2526 1.42206E+02 2.06000E+01 0.00000E+00
 -1      2527 1.43505E+02 2.57625E+01 0.00000E+00
 -1      2528 1.43505E+02 2.42875E+01 0.00000E+00
 -1      2529 1.42206E+02 2.35500E+01 0.00000E+00
 -1      2530 1.43505E+02 2.87125E+01 0.00000E+00
 -1      2531 1.43505E+02 2.72375E+01 0.00000E+00
 -1      2532 1.42206E+02 2.65000E+01 0.00000E+00
 -1      2533 1.43505E+02 3.16125E+01 0.00000E+00
 -1      2534 1.43505E+02 3.01625E+01 0.00000E+00
 -1      2535 1.42206E+02 2.94250E+01 0.00000E+00
 -1      2536 1.43505E+02 3.45625E+01 0.00000E+00
 -1      2537 1.43505E+02 3.30875E+01 0.00000E+00
 -1      2538 1.42206E+02 3.23500E+01 0.00000E+00
 -1      2539 1.43505E+02 3.75125E+01 0.00000E+00
 -1      2540 1.43505E+02 3.60375E+01 0.00000E+00
 -1      2541 1.42206E+02 3.53000E+01 0.00000E+00
 -1      2542 1.43505E+02 4.04625E+01 0.00000E+00
 -1      2543 1.43505E+02 3.89875E+01 0.00000E+00
 -1      2544 1.42206E+02 3.82500E+01 0.00000E+00
 -1      2545 1.29729E+02 2.54754E+01 0.00000E+00
 -1      2546 1.29740E+02 2.66309E+01 0.00000E+00
 -1      2547 1.29406E+02 2.78084E+01 0.00000E+00
 -1      2548 1.29186E+02 2.86629E+01 0.00000E+00
 -1      2549 1.67850E+01 5.30525E+00 0.00000E+00
 -1      2550 1.52850E+01 5.30525E+00 0.00000E+00
 -1      2551 1.75350E+01 6.60425E+00 0.00000E+00
 -1      2552 1.44321E+02 4.30606E+01 0.00000E+00
 -1      2553 1.27846E+02 2.10234E+01 0.00000E+00
 -1      2554 1.28275E+02 2.18753E+01 0.00000E+00
 -1      2555 6.55950E+00 4.28890E+01 0.00000E+00
 -1      2556 8.53650E+00 4.32410E+01 0.00000E+00
 -1      2557 9.28650E+00 4.19420E+01 0.00000E+00
 -1      2558 6.55950E+00 4.14140E+01 0.00000E+00
 -1      2559 1.29092E+02 2.96227E+01 0.00000E+00
 -1      2560 1.28808E+02 3.05009E+01 0.00000E+00
 -1      2561 1.08808E+02 2.84173E+01 0.00000E+00
 -1      2562 1.08616E+02 2.72147E+01 0.00000E+00
 -1      2563 1.09183E+02 2.38192E+01 0.00000E+00
 -1      2564 1.09654E+02 2.27791E+01 0.00000E+00
 -1      2565 6.49500E+00 2.71625E+01 0.00000E+00
 -1      2566 6.49500E+00 2.86375E+01 0.00000E+00
 -1      2567 7.79400E+00 2.93750E+01 0.00000E+00
 -1      2568 7.79400E+00 2.64250E+01 0.00000E+00
 -1      2569 1.13588E+02 1.86084E+01 0.00000E+00
 -1      2570 1.14430E+02 1.80909E+01 0.00000E+00
 -1      2571 1.17606E+02 1.66875E+01 0.00000E+00
 -1      2572 1.18480E+02 1.65425E+01 0.00000E+00
 -1      2573 1.09331E+02 3.05681E+01 0.00000E+00
 -1      2574 1.09069E+02 2.94927E+01 0.00000E+00
 -1      2575 1.08127E+02 2.90263E+01 0.00000E+00
 -1      2576 1.15438E+02 1.75834E+01 0.00000E+00
 -1      2577 1.16446E+02 1.70816E+01 0.00000E+00
 -1      2578 1.11968E+02 1.95476E+01 0.00000E+00
 -1      2579 1.12778E+02 1.90780E+01 0.00000E+00
 -1      2580 1.12772E+02 1.81243E+01 0.00000E+00
 -1      2581 1.08621E+02 2.59109E+01 0.00000E+00
 -1      2582 1.08744E+02 2.49922E+01 0.00000E+00
 -1      2583 1.10231E+02 3.26534E+01 0.00000E+00
 -1      2584 1.09767E+02 3.18642E+01 0.00000E+00
 -1      2585 1.11697E+02 3.43976E+01 0.00000E+00
 -1      2586 1.10973E+02 3.35406E+01 0.00000E+00
 -1      2587 1.15870E+02 3.68526E+01 0.00000E+00
 -1      2588 1.14930E+02 3.65557E+01 0.00000E+00
 -1      2589 1.17902E+02 3.73387E+01 0.00000E+00
 -1      2590 1.16924E+02 3.71856E+01 0.00000E+00
 -1      2591 1.19994E+02 3.75657E+01 0.00000E+00
 -1      2592 1.18972E+02 3.74986E+01 0.00000E+00
 -1      2593 1.22432E+02 3.69439E+01 0.00000E+00
 -1      2594 1.21389E+02 3.73440E+01 0.00000E+00
 -1      2595 1.24288E+02 3.59645E+01 0.00000E+00
 -1      2596 1.23405E+02 3.63899E+01 0.00000E+00
 -1      2597 1.26006E+02 3.48295E+01 0.00000E+00
 -1      2598 1.25240E+02 3.54020E+01 0.00000E+00
 -1      2599 1.27595E+02 3.31518E+01 0.00000E+00
 -1      2600 1.26964E+02 3.40224E+01 0.00000E+00
 -1      2601 1.28477E+02 3.12630E+01 0.00000E+00
 -1      2602 1.28146E+02 3.20250E+01 0.00000E+00
 -1      2603 1.29416E+02 3.10816E+01 0.00000E+00
 -1      2604 1.24104E+02 1.79896E+01 0.00000E+00
 -1      2605 1.24873E+02 1.84049E+01 0.00000E+00
 -1      2606 1.24001E+02 1.70351E+01 0.00000E+00
 -1      2607 8.07525E+00 5.11044E+00 0.00000E+00
 -1      2608 6.57525E+00 5.11044E+00 0.00000E+00
 -1      2609 6.40575E+00 6.01981E+00 0.00000E+00
 -1      2610 8.82525E+00 6.40944E+00 0.00000E+00
 -1      2611 1.14590E+02 1.71473E+01 0.00000E+00
 -1      2612 7.79400E+00 3.52687E+01 0.00000E+00
 -1      2613 6.49500E+00 3.60062E+01 0.00000E+00
 -1      2614 6.49500E+00 3.74750E+01 0.00000E+00
 -1      2615 1.45350E+01 6.60425E+00 0.00000E+00
 -1      2616 6.40575E+00 7.49481E+00 0.00000E+00
 -1      2617 1.28534E+02 3.29705E+01 0.00000E+00
 -1      2618 1.29841E+02 2.93598E+01 0.00000E+00
 -1      2619 1.27026E+02 3.49044E+01 0.00000E+00
 -1      2620 1.29102E+02 2.22076E+01 0.00000E+00
 -1      2621 1.25116E+02 3.62741E+01 0.00000E+00
 -1      2622 1.43586E+02 6.56853E+00 0.00000E+00
 -1      2623 1.30269E+02 2.72225E+01 0.00000E+00
 -1      2624 1.43419E+02 7.72713E+00 0.00000E+00
 -1      2625 1.23191E+02 3.73906E+01 0.00000E+00
 -1      2626 1.42120E+02 8.46463E+00 0.00000E+00
 -1      2627 1.30009E+02 2.46888E+01 0.00000E+00
 -1      2628 1.30884E+02 2.52583E+01 0.00000E+00
 -1      2629 1.30289E+02 2.39021E+01 0.00000E+00
 -1      2630 1.20822E+02 3.81662E+01 0.00000E+00
 -1      2631 7.70475E+00 8.23231E+00 0.00000E+00
 -1      2632 6.55950E+00 3.99453E+01 0.00000E+00
 -1      2633 1.18357E+02 3.82279E+01 0.00000E+00
 -1      2634 1.27717E+02 2.01935E+01 0.00000E+00
 -1      2635 1.28660E+02 2.02527E+01 0.00000E+00
 -1      2636 1.27587E+02 1.93636E+01 0.00000E+00
 -1      2637 1.16757E+02 1.62457E+01 0.00000E+00
 -1      2638 1.07869E+02 2.66470E+01 0.00000E+00
 -1      2639 1.16233E+02 3.77350E+01 0.00000E+00
 -1      2640 1.11876E+02 3.52073E+01 0.00000E+00
 -1      2641 1.10923E+02 3.52780E+01 0.00000E+00
 -1      2642 1.12056E+02 3.60170E+01 0.00000E+00
 -1      2643 1.10002E+02 3.35810E+01 0.00000E+00
 -1      2644 1.11138E+02 1.96810E+01 0.00000E+00
 -1      2645 1.11132E+02 1.87274E+01 0.00000E+00
 -1      2646 1.10308E+02 1.98144E+01 0.00000E+00
 -1      2647 1.08824E+02 3.13977E+01 0.00000E+00
 -1      2648 1.08313E+02 2.41701E+01 0.00000E+00
 -1      2649 1.08631E+02 2.21005E+01 0.00000E+00
 -1      2650 1.09533E+02 2.18826E+01 0.00000E+00
 -1      2651 1.09412E+02 2.09860E+01 0.00000E+00
 -1      2652 1.21835E+02 1.64071E+01 0.00000E+00
 -1      2653 1.22644E+02 1.58913E+01 0.00000E+00
 -1      2654 1.21247E+02 1.56786E+01 0.00000E+00
 -1      2655 1.19177E+02 1.60230E+01 0.00000E+00
 -1      2656 1.19874E+02 1.55035E+01 0.00000E+00
 -1      2657 1.18613E+02 1.53322E+01 0.00000E+00
 -1      2658 1.25605E+02 1.74230E+01 0.00000E+00
 -1      2659 1.25707E+02 1.83774E+01 0.00000E+00
 -1      2660 1.26542E+02 1.83500E+01 0.00000E+00
 -1      2661 1.14094E+02 3.66742E+01 0.00000E+00
 -1      2662 1.13258E+02 3.67927E+01 0.00000E+00
 -1      2663 1.14344E+02 3.75205E+01 0.00000E+00
 -1      2664 1.42758E+02 4.35929E+01 0.00000E+00
 -1      2665 1.43241E+02 4.17323E+01 0.00000E+00
 -1      2666 1.41942E+02 4.09948E+01 0.00000E+00
 -1      2667 1.41414E+02 4.35342E+01 0.00000E+00
 -1      2668 1.40664E+02 4.22352E+01 0.00000E+00
 -1      2669 9.09300E+00 1.98250E+01 0.00000E+00
 -1      2670 9.09300E+00 2.12750E+01 0.00000E+00
 -1      2671 9.09300E+00 2.27500E+01 0.00000E+00
 -1      2672 9.09300E+00 2.42250E+01 0.00000E+00
 -1      2673 1.03920E+01 2.20250E+01 0.00000E+00
 -1      2674 9.09300E+00 1.39375E+01 0.00000E+00
 -1      2675 9.09300E+00 1.54125E+01 0.00000E+00
 -1      2676 9.09300E+00 1.09875E+01 0.00000E+00
 -1      2677 9.09300E+00 1.24625E+01 0.00000E+00
 -1      2678 1.03920E+01 1.32000E+01 0.00000E+00
 -1      2679 1.22850E+01 7.90325E+00 0.00000E+00
 -1      2680 1.07850E+01 7.90325E+00 0.00000E+00
 -1      2681 7.85850E+00 3.92077E+01 0.00000E+00
 -1      2682 1.30341E+02 3.10303E+01 0.00000E+00
 -1      2683 1.30010E+02 3.17923E+01 0.00000E+00
 -1      2684 1.52850E+01 7.90325E+00 0.00000E+00
 -1      2685 1.37850E+01 7.90325E+00 0.00000E+00
 -1      2686 1.30350E+01 9.20225E+00 0.00000E+00
 -1      2687 1.29553E+02 3.27705E+01 0.00000E+00
 -1      2688 1.29002E+02 3.38973E+01 0.00000E+00
 -1      2689 1.26013E+02 3.67051E+01 0.00000E+00
 -1      2690 1.25061E+02 3.72676E+01 0.00000E+00
 -1      2691 1.44000E+01 4.09070E+01 0.00000E+00
 -1      2692 1.59000E+01 4.09070E+01 0.00000E+00
 -1      2693 1.74000E+01 4.09070E+01 0.00000E+00
 -1      2694 1.89000E+01 4.09070E+01 0.00000E+00
 -1      2695 1.66500E+01 3.96080E+01 0.00000E+00
 -1      2696 2.04000E+01 4.09070E+01 0.00000E+00
 -1      2697 2.19000E+01 4.09070E+01 0.00000E+00
 -1      2698 1.96500E+01 3.96080E+01 0.00000E+00
 -1      2699 2.34000E+01 4.09070E+01 0.00000E+00
 -1      2700 2.49000E+01 4.09070E+01 0.00000E+00
 -1      2701 2.26500E+01 3.96080E+01 0.00000E+00
 -1      2702 2.64000E+01 4.09070E+01 0.00000E+00
 -1      2703 2.79000E+01 4.09070E+01 0.00000E+00
 -1      2704 2.56500E+01 3.96080E+01 0.00000E+00
 -1      2705 2.94000E+01 4.09070E+01 0.00000E+00
 -1      2706 3.09000E+01 4.09070E+01 0.00000E+00
 -1      2707 2.86500E+01 3.96080E+01 0.00000E+00
 -1      2708 3.24000E+01 4.09070E+01 0.00000E+00
 -1      2709 3.39000E+01 4.09070E+01 0.00000E+00
 -1      2710 3.16500E+01 3.96080E+01 0.00000E+00
 -1      2711 3.54000E+01 4.09070E+01 0.00000E+00
 -1      2712 3.69000E+01 4.09070E+01 0.00000E+00
 -1      2713 3.46500E+01 3.96080E+01 0.00000E+00
 -1      2714 3.84000E+01 4.09070E+01 0.00000E+00
 -1      2715 3.99000E+01 4.09070E+01 0.00000E+00
 -1      2716 3.76500E+01 3.96080E+01 0.00000E+00
 -1      2717 4.14000E+01 4.09070E+01 0.00000E+00
 -1      2718 4.29000E+01 4.09070E+01 0.00000E+00
 -1      2719 4.06500E+01 3.96080E+01 0.00000E+00
 -1      2720 4.44000E+01 4.09070E+01 0.00000E+00
 -1      2721 4.59000E+01 4.09070E+01 0.00000E+00
 -1      2722 4.36500E+01 3.96080E+01 0.00000E+00
 -1      2723 4.74000E+01 4.09070E+01 0.00000E+00
 -1      2724 4.89000E+01 4.09070E+01 0.00000E+00
 -1      2725 4.66500E+01 3.96080E+01 0.00000E+00
 -1      2726 5.04000E+01 4.09070E+01 0.00000E+00
 -1      2727 5.19000E+01 4.09070E+01 0.00000E+00
 -1      2728 4.96500E+01 3.96080E+01 0.00000E+00
 -1      2729 5.34000E+01 4.09070E+01 0.00000E+00
 -1      2730 5.49000E+01 4.09070E+01 0.00000E+00
 -1      2731 5.26500E+01 3.96080E+01 0.00000E+00
 -1      2732 5.64000E+01 4.09070E+01 0.00000E+00
 -1      2733 5.79000E+01 4.09070E+01 0.00000E+00
 -1      2734 5.56500E+01 3.96080E+01 0.00000E+00
 -1      2735 5.94000E+01 4.09070E+01 0.00000E+00
 -1      2736 6.09000E+01 4.09070E+01 0.00000E+00
 -1      2737 5.86500E+01 3.96080E+01 0.00000E+00
 -1      2738 6.24000E+01 4.09070E+01 0.00000E+00
 -1      2739 6.39000E+01 4.09070E+01 0.00000E+00
 -1      2740 6.16500E+01 3.96080E+01 0.00000E+00
 -1      2741 6.54000E+01 4.09070E+01 0.00000E+00
 -1      2742 6.69000E+01 4.09070E+01 0.00000E+00
 -1      2743 6.46500E+01 3.96080E+01 0.00000E+00
 -1      2744 6.84000E+01 4.09070E+01 0.00000E+00
 -1      2745 6.99000E+01 4.09070E+01 0.00000E+00
 -1      2746 6.76500E+01 3.96080E+01 0.00000E+00
 -1      2747 7.14000E+01 4.09070E+01 0.00000E+00
 -1      2748 7.29000E+01 4.09070E+01 0.00000E+00
 -1      2749 7.06500E+01 3.96080E+01 0.00000E+00
 -1      2750 7.44000E+01 4.09070E+01 0.00000E+00
 -1      2751 7.59000E+01 4.09070E+01 0.00000E+00
 -1      2752 7.36500E+01 3.96080E+01 0.00000E+00
 -1      2753 7.74000E+01 4.09070E+01 0.00000E+00
 -1      2754 7.89000E+01 4.09070E+01 0.00000E+00
 -1      2755 7.66500E+01 3.96080E+01 0.00000E+00
 -1      2756 8.04000E+01 4.09070E+01 0.00000E+00
 -1      2757 8.19000E+01 4.09070E+01 0.00000E+00
 -1      2758 7.96500E+01 3.96080E+01 0.00000E+00
 -1      2759 8.34000E+01 4.09070E+01 0.00000E+00
 -1      2760 8.49000E+01 4.09070E+01 0.00000E+00
 -1      2761 8.26500E+01 3.96080E+01 0.00000E+00
 -1      2762 8.64000E+01 4.09070E+01 0.00000E+00
 -1      2763 8.79000E+01 4.09070E+01 0.00000E+00
 -1      2764 8.56500E+01 3.96080E+01 0.00000E+00
 -1      2765 8.94000E+01 4.09070E+01 0.00000E+00
 -1      2766 9.09000E+01 4.09070E+01 0.00000E+00
 -1      2767 8.86500E+01 3.96080E+01 0.00000E+00
 -1      2768 9.24000E+01 4.09070E+01 0.00000E+00
 -1      2769 9.39000E+01 4.09070E+01 0.00000E+00
 -1      2770 9.16500E+01 3.96080E+01 0.00000E+00
 -1      2771 9.54000E+01 4.09070E+01 0.00000E+00
 -1      2772 9.69000E+01 4.09070E+01 0.00000E+00
 -1      2773 9.46500E+01 3.96080E+01 0.00000E+00
 -1      2774 9.84000E+01 4.09070E+01 0.00000E+00
 -1      2775 9.99000E+01 4.09070E+01 0.00000E+00
 -1      2776 9.76500E+01 3.96080E+01 0.00000E+00
 -1      2777 1.01400E+02 4.09070E+01 0.00000E+00
 -1      2778 1.02900E+02 4.09070E+01 0.00000E+00
 -1      2779 1.00650E+02 3.96080E+01 0.00000E+00
 -1      2780 1.04400E+02 4.09070E+01 0.00000E+00
 -1      2781 1.05900E+02 4.09070E+01 0.00000E+00
 -1      2782 1.03650E+02 3.96080E+01 0.00000E+00
 -1      2783 1.07400E+02 4.09070E+01 0.00000E+00
 -1      2784 1.08900E+02 4.09070E+01 0.00000E+00
 -1      2785 1.06650E+02 3.96080E+01 0.00000E+00
 -1      2786 1.10400E+02 4.09070E+01 0.00000E+00
 -1      2787 1.11900E+02 4.09070E+01 0.00000E+00
 -1      2788 1.09650E+02 3.96080E+01 0.00000E+00
 -1      2789 1.16400E+02 4.10133E+01 0.00000E+00
 -1      2790 1.17900E+02 4.10133E+01 0.00000E+00
 -1      2791 1.19400E+02 4.10971E+01 0.00000E+00
 -1      2792 1.20900E+02 4.10971E+01 0.00000E+00
 -1      2793 1.21934E+02 4.00753E+01 0.00000E+00
 -1      2794 1.23434E+02 4.00753E+01 0.00000E+00
 -1      2795 1.25304E+02 3.99524E+01 0.00000E+00
 -1      2796 1.26804E+02 3.99524E+01 0.00000E+00
 -1      2797 1.31400E+02 4.09070E+01 0.00000E+00
 -1      2798 1.32900E+02 4.09070E+01 0.00000E+00
 -1      2799 1.34400E+02 4.09070E+01 0.00000E+00
 -1      2800 1.35900E+02 4.09070E+01 0.00000E+00
 -1      2801 1.33650E+02 3.96080E+01 0.00000E+00
 -1      2802 1.37400E+02 4.09070E+01 0.00000E+00
 -1      2803 1.38900E+02 4.09070E+01 0.00000E+00
 -1      2804 1.36650E+02 3.96080E+01 0.00000E+00
 -1      2805 2.42850E+01 7.90325E+00 0.00000E+00
 -1      2806 2.27850E+01 7.90325E+00 0.00000E+00
 -1      2807 1.39914E+02 4.09362E+01 0.00000E+00
 -1      2808 1.40928E+02 4.09655E+01 0.00000E+00
 -1      2809 1.39164E+02 3.96372E+01 0.00000E+00
 -1      2810 2.12850E+01 7.90325E+00 0.00000E+00
 -1      2811 1.97850E+01 7.90325E+00 0.00000E+00
 -1      2812 2.20350E+01 9.20225E+00 0.00000E+00
 -1      2813 3.02850E+01 7.90325E+00 0.00000E+00
 -1      2814 2.87850E+01 7.90325E+00 0.00000E+00
 -1      2815 3.32850E+01 7.90325E+00 0.00000E+00
 -1      2816 3.17850E+01 7.90325E+00 0.00000E+00
 -1      2817 3.10350E+01 9.20225E+00 0.00000E+00
 -1      2818 3.62850E+01 7.90325E+00 0.00000E+00
 -1      2819 3.47850E+01 7.90325E+00 0.00000E+00
 -1      2820 3.40350E+01 9.20225E+00 0.00000E+00
 -1      2821 3.92850E+01 7.90325E+00 0.00000E+00
 -1      2822 3.77850E+01 7.90325E+00 0.00000E+00
 -1      2823 3.70350E+01 9.20225E+00 0.00000E+00
 -1      2824 4.22850E+01 7.90325E+00 0.00000E+00
 -1      2825 4.07850E+01 7.90325E+00 0.00000E+00
 -1      2826 4.00350E+01 9.20225E+00 0.00000E+00
 -1      2827 4.52850E+01 7.90325E+00 0.00000E+00
 -1      2828 4.37850E+01 7.90325E+00 0.00000E+00
 -1      2829 4.30350E+01 9.20225E+00 0.00000E+00
 -1      2830 4.82850E+01 7.90325E+00 0.00000E+00
 -1      2831 4.67850E+01 7.90325E+00 0.00000E+00
 -1      2832 4.60350E+01 9.20225E+00 0.00000E+00
 -1      2833 5.12850E+01 7.90325E+00 0.00000E+00
 -1      2834 4.97850E+01 7.90325E+00 0.00000E+00
 -1      2835 4.90350E+01 9.20225E+00 0.00000E+00
 -1      2836 5.42850E+01 7.90325E+00 0.00000E+00
 -1      2837 5.27850E+01 7.90325E+00 0.00000E+00
 -1      2838 5.20350E+01 9.20225E+00 0.00000E+00
 -1      2839 5.72850E+01 7.90325E+00 0.00000E+00
 -1      2840 5.57850E+01 7.90325E+00 0.00000E+00
 -1      2841 5.50350E+01 9.20225E+00 0.00000E+00
 -1      2842 6.02850E+01 7.90325E+00 0.00000E+00
 -1      2843 5.87850E+01 7.90325E+00 0.00000E+00
 -1      2844 5.80350E+01 9.20225E+00 0.00000E+00
 -1      2845 6.32850E+01 7.90325E+00 0.00000E+00
 -1      2846 6.17850E+01 7.90325E+00 0.00000E+00
 -1      2847 6.10350E+01 9.20225E+00 0.00000E+00
 -1      2848 6.62850E+01 7.90325E+00 0.00000E+00
 -1      2849 6.47850E+01 7.90325E+00 0.00000E+00
 -1      2850 6.40350E+01 9.20225E+00 0.00000E+00
 -1      2851 6.92850E+01 7.90325E+00 0.00000E+00
 -1      2852 6.77850E+01 7.90325E+00 0.00000E+00
 -1      2853 6.70350E+01 9.20225E+00 0.00000E+00
 -1      2854 7.22850E+01 7.90325E+00 0.00000E+00
 -1      2855 7.07850E+01 7.90325E+00 0.00000E+00
 -1      2856 7.00350E+01 9.20225E+00 0.00000E+00
 -1      2857 7.52850E+01 7.90325E+00 0.00000E+00
 -1      2858 7.37850E+01 7.90325E+00 0.00000E+00
 -1      2859 7.30350E+01 9.20225E+00 0.00000E+00
 -1      2860 7.82850E+01 7.90325E+00 0.00000E+00
 -1      2861 7.67850E+01 7.90325E+00 0.00000E+00
 -1      2862 7.60350E+01 9.20225E+00 0.00000E+00
 -1      2863 8.12850E+01 7.90325E+00 0.00000E+00
 -1      2864 7.97850E+01 7.90325E+00 0.00000E+00
 -1      2865 7.90350E+01 9.20225E+00 0.00000E+00
 -1      2866 8.42850E+01 7.90325E+00 0.00000E+00
 -1      2867 8.27850E+01 7.90325E+00 0.00000E+00
 -1      2868 8.20350E+01 9.20225E+00 0.00000E+00
 -1      2869 8.72850E+01 7.90325E+00 0.00000E+00
 -1      2870 8.57850E+01 7.90325E+00 0.00000E+00
 -1      2871 8.50350E+01 9.20225E+00 0.00000E+00
 -1      2872 9.02850E+01 7.90325E+00 0.00000E+00
 -1      2873 8.87850E+01 7.90325E+00 0.00000E+00
 -1      2874 8.80350E+01 9.20225E+00 0.00000E+00
 -1      2875 9.32850E+01 7.90325E+00 0.00000E+00
 -1      2876 9.17850E+01 7.90325E+00 0.00000E+00
 -1      2877 9.10350E+01 9.20225E+00 0.00000E+00
 -1      2878 9.62850E+01 7.90325E+00 0.00000E+00
 -1      2879 9.47850E+01 7.90325E+00 0.00000E+00
 -1      2880 9.40350E+01 9.20225E+00 0.00000E+00
 -1      2881 9.92850E+01 7.90325E+00 0.00000E+00
 -1      2882 9.77850E+01 7.90325E+00 0.00000E+00
 -1      2883 9.70350E+01 9.20225E+00 0.00000E+00
 -1      2884 1.02285E+02 7.90325E+00 0.00000E+00
 -1      2885 1.00785E+02 7.90325E+00 0.00000E+00
 -1      2886 1.00035E+02 9.20225E+00 0.00000E+00
 -1      2887 1.05285E+02 7.90325E+00 0.00000E+00
 -1      2888 1.03785E+02 7.90325E+00 0.00000E+00
 -1      2889 1.03035E+02 9.20225E+00 0.00000E+00
 -1      2890 1.08285E+02 7.90325E+00 0.00000E+00
 -1      2891 1.06785E+02 7.90325E+00 0.00000E+00
 -1      2892 1.06035E+02 9.20225E+00 0.00000E+00
 -1      2893 1.11285E+02 7.90325E+00 0.00000E+00
 -1      2894 1.09785E+02 7.90325E+00 0.00000E+00
 -1      2895 1.09035E+02 9.20225E+00 0.00000E+00
 -1      2896 1.14285E+02 7.90325E+00 0.00000E+00
 -1      2897 1.12785E+02 7.90325E+00 0.00000E+00
 -1      2898 1.12035E+02 9.20225E+00 0.00000E+00
 -1      2899 1.17285E+02 7.90325E+00 0.00000E+00
 -1      2900 1.15785E+02 7.90325E+00 0.00000E+00
 -1      2901 1.15035E+02 9.20225E+00 0.00000E+00
 -1      2902 1.20285E+02 7.90325E+00 0.00000E+00
 -1      2903 1.18785E+02 7.90325E+00 0.00000E+00
 -1      2904 1.18035E+02 9.20225E+00 0.00000E+00
 -1      2905 1.23285E+02 7.90325E+00 0.00000E+00
 -1      2906 1.21785E+02 7.90325E+00 0.00000E+00
 -1      2907 1.21035E+02 9.20225E+00 0.00000E+00
 -1      2908 1.26285E+02 7.90325E+00 0.00000E+00
 -1      2909 1.24785E+02 7.90325E+00 0.00000E+00
 -1      2910 1.24035E+02 9.20225E+00 0.00000E+00
 -1      2911 1.29285E+02 7.90325E+00 0.00000E+00
 -1      2912 1.27785E+02 7.90325E+00 0.00000E+00
 -1      2913 1.27035E+02 9.20225E+00 0.00000E+00
 -1      2914 1.32285E+02 7.90325E+00 0.00000E+00
 -1      2915 1.30785E+02 7.90325E+00 0.00000E+00
 -1      2916 1.30035E+02 9.20225E+00 0.00000E+00
 -1      2917 1.35285E+02 7.90325E+00 0.00000E+00
 -1      2918 1.33785E+02 7.90325E+00 0.00000E+00
 -1      2919 1.33035E+02 9.20225E+00 0.00000E+00
 -1      2920 1.38285E+02 7.90325E+00 0.00000E+00
 -1      2921 1.36785E+02 7.90325E+00 0.00000E+00
 -1      2922 1.36035E+02 9.20225E+00 0.00000E+00
 -1      2923 1.40953E+02 8.18394E+00 0.00000E+00
 -1      2924 1.39453E+02 8.18394E+00 0.00000E+00
 -1      2925 1.38703E+02 9.48294E+00 0.00000E+00
 -1      2926 1.41038E+02 1.00443E+01 0.00000E+00
 -1      2927 1.31192E+02 2.68485E+01 0.00000E+00
 -1      2928 1.30858E+02 2.80259E+01 0.00000E+00
 -1      2929 1.40907E+02 2.42875E+01 0.00000E+00
 -1      2930 1.40907E+02 2.28125E+01 0.00000E+00
 -1      2931 1.40907E+02 1.83875E+01 0.00000E+00
 -1      2932 1.40907E+02 1.69125E+01 0.00000E+00
 -1      2933 1.40907E+02 2.72375E+01 0.00000E+00
 -1      2934 1.40907E+02 2.57625E+01 0.00000E+00
 -1      2935 1.39608E+02 2.50250E+01 0.00000E+00
 -1      2936 1.40907E+02 2.13375E+01 0.00000E+00
 -1      2937 1.40907E+02 1.98625E+01 0.00000E+00
 -1      2938 1.39608E+02 1.91250E+01 0.00000E+00
 -1      2939 1.39608E+02 2.20750E+01 0.00000E+00
 -1      2940 1.40907E+02 3.01375E+01 0.00000E+00
 -1      2941 1.40907E+02 2.86875E+01 0.00000E+00
 -1      2942 1.39608E+02 2.79500E+01 0.00000E+00
 -1      2943 1.40907E+02 3.30875E+01 0.00000E+00
 -1      2944 1.40907E+02 3.16125E+01 0.00000E+00
 -1      2945 1.39608E+02 3.08750E+01 0.00000E+00
 -1      2946 1.40907E+02 3.60375E+01 0.00000E+00
 -1      2947 1.40907E+02 3.45625E+01 0.00000E+00
 -1      2948 1.39608E+02 3.38250E+01 0.00000E+00
 -1      2949 1.28173E+02 3.52937E+01 0.00000E+00
 -1      2950 1.27215E+02 3.61008E+01 0.00000E+00
 -1      2951 9.32250E+00 4.05749E+01 0.00000E+00
 -1      2952 1.06860E+01 4.08389E+01 0.00000E+00
 -1      2953 1.21860E+01 4.08389E+01 0.00000E+00
 -1      2954 9.25800E+00 3.81046E+01 0.00000E+00
 -1      2955 1.15901E+02 1.56308E+01 0.00000E+00
 -1      2956 1.17061E+02 1.52367E+01 0.00000E+00
 -1      2957 1.82850E+01 7.90325E+00 0.00000E+00
 -1      2958 1.67850E+01 7.90325E+00 0.00000E+00
 -1      2959 1.60350E+01 9.20225E+00 0.00000E+00
 -1      2960 1.90350E+01 9.20225E+00 0.00000E+00
 -1      2961 2.72850E+01 7.90325E+00 0.00000E+00
 -1      2962 2.57850E+01 7.90325E+00 0.00000E+00
 -1      2963 2.50350E+01 9.20225E+00 0.00000E+00
 -1      2964 2.80350E+01 9.20225E+00 0.00000E+00
 -1      2965 9.09300E+00 1.68813E+01 0.00000E+00
 -1      2966 9.09300E+00 1.83563E+01 0.00000E+00
 -1      2967 1.03920E+01 1.90812E+01 0.00000E+00
 -1      2968 1.03920E+01 1.61437E+01 0.00000E+00
 -1      2969 1.06926E+02 2.72959E+01 0.00000E+00
 -1      2970 1.06930E+02 2.59921E+01 0.00000E+00
 -1      2971 1.18288E+02 3.91042E+01 0.00000E+00
 -1      2972 1.17219E+02 3.89443E+01 0.00000E+00
 -1      2973 9.09300E+00 3.15875E+01 0.00000E+00
 -1      2974 9.09300E+00 3.30625E+01 0.00000E+00
 -1      2975 1.07465E+02 2.97568E+01 0.00000E+00
 -1      2976 1.07203E+02 2.86814E+01 0.00000E+00
 -1      2977 1.11895E+02 1.75447E+01 0.00000E+00
 -1      2978 1.12705E+02 1.70751E+01 0.00000E+00
 -1      2979 1.16165E+02 3.86113E+01 0.00000E+00
 -1      2980 1.15111E+02 3.82783E+01 0.00000E+00
 -1      2981 1.16096E+02 3.94876E+01 0.00000E+00
 -1      2982 1.08150E+02 3.23458E+01 0.00000E+00
 -1      2983 1.07714E+02 3.10498E+01 0.00000E+00
 -1      2984 1.07133E+02 2.43974E+01 0.00000E+00
 -1      2985 1.07572E+02 2.32243E+01 0.00000E+00
 -1      2986 1.09651E+02 3.46285E+01 0.00000E+00
 -1      2987 1.08909E+02 3.37412E+01 0.00000E+00
 -1      2988 1.13712E+02 1.65677E+01 0.00000E+00
 -1      2989 1.14720E+02 1.60602E+01 0.00000E+00
 -1      2990 1.12835E+02 1.59881E+01 0.00000E+00
 -1      2991 1.41192E+02 3.96958E+01 0.00000E+00
 -1      2992 8.91450E+00 8.42712E+00 0.00000E+00
 -1      2993 1.29944E+02 2.13674E+01 0.00000E+00
 -1      2994 1.30257E+02 2.24924E+01 0.00000E+00
 -1      2995 1.30764E+02 2.89858E+01 0.00000E+00
 -1      2996 1.30670E+02 2.99456E+01 0.00000E+00
 -1      2997 1.31687E+02 2.86118E+01 0.00000E+00
 -1      2998 1.24064E+02 1.59992E+01 0.00000E+00
 -1      2999 1.24833E+02 1.64145E+01 0.00000E+00
 -1      3000 9.09300E+00 3.45313E+01 0.00000E+00
 -1      3001 9.09300E+00 3.60000E+01 0.00000E+00
 -1      3002 1.03920E+01 3.37938E+01 0.00000E+00
 -1      3003 1.03920E+01 2.49750E+01 0.00000E+00
 -1      3004 9.09300E+00 2.57000E+01 0.00000E+00
 -1      3005 9.09300E+00 2.71750E+01 0.00000E+00
 -1      3006 1.30210E+02 3.48937E+01 0.00000E+00
 -1      3007 1.29192E+02 3.50937E+01 0.00000E+00
 -1      3008 1.29381E+02 3.62901E+01 0.00000E+00
 -1      3009 1.16902E+02 1.41023E+01 0.00000E+00
 -1      3010 1.17757E+02 1.47172E+01 0.00000E+00
 -1      3011 1.18454E+02 1.41977E+01 0.00000E+00
 -1      3012 1.31264E+02 3.06562E+01 0.00000E+00
 -1      3013 1.30478E+02 3.27191E+01 0.00000E+00
 -1      3014 1.09830E+02 3.54382E+01 0.00000E+00
 -1      3015 1.08737E+02 3.55984E+01 0.00000E+00
 -1      3016 1.10010E+02 3.62479E+01 0.00000E+00
 -1      3017 1.12413E+02 3.97449E+01 0.00000E+00
 -1      3018 1.13163E+02 4.10439E+01 0.00000E+00
 -1      3019 1.15346E+02 4.06803E+01 0.00000E+00
 -1      3020 1.14663E+02 4.10439E+01 0.00000E+00
 -1      3021 1.27430E+02 3.84316E+01 0.00000E+00
 -1      3022 1.28276E+02 4.06853E+01 0.00000E+00
 -1      3023 1.29776E+02 4.06853E+01 0.00000E+00
 -1      3024 9.66450E+00 9.72612E+00 0.00000E+00
 -1      3025 1.31472E+02 2.60618E+01 0.00000E+00
 -1      3026 1.32060E+02 2.68652E+01 0.00000E+00
 -1      3027 1.31752E+02 2.52751E+01 0.00000E+00
 -1      3028 1.41038E+02 1.15068E+01 0.00000E+00
 -1      3029 1.39870E+02 1.12261E+01 0.00000E+00
 -1      3030 1.41038E+02 1.29693E+01 0.00000E+00
 -1      3031 1.11065E+02 1.76782E+01 0.00000E+00
 -1      3032 1.10998E+02 1.66290E+01 0.00000E+00
 -1      3033 1.10235E+02 1.78116E+01 0.00000E+00
 -1      3034 1.27160E+02 3.70944E+01 0.00000E+00
 -1      3035 1.41192E+02 3.82207E+01 0.00000E+00
 -1      3036 1.31131E+02 2.30620E+01 0.00000E+00
 -1      3037 1.29360E+01 3.95399E+01 0.00000E+00
 -1      3038 1.21184E+02 3.89664E+01 0.00000E+00
 -1      3039 1.19788E+02 3.91880E+01 0.00000E+00
 -1      3040 1.30526E+02 3.93863E+01 0.00000E+00
 -1      3041 1.27485E+02 1.84092E+01 0.00000E+00
 -1      3042 1.28428E+02 1.84684E+01 0.00000E+00
 -1      3043 1.27382E+02 1.74547E+01 0.00000E+00
 -1      3044 1.18650E+02 3.99044E+01 0.00000E+00
 -1      3045 1.09406E+02 2.00324E+01 0.00000E+00
 -1      3046 1.09400E+02 1.90787E+01 0.00000E+00
 -1      3047 1.08504E+02 2.02503E+01 0.00000E+00
 -1      3048 1.39529E+02 3.85602E+01 0.00000E+00
 -1      3049 1.40542E+02 3.71145E+01 0.00000E+00
 -1      3050 1.39243E+02 3.63770E+01 0.00000E+00
 -1      3051 1.38514E+02 3.85310E+01 0.00000E+00
 -1      3052 1.07451E+02 2.23277E+01 0.00000E+00
 -1      3053 1.07330E+02 2.14312E+01 0.00000E+00
 -1      3054 1.06271E+02 2.25550E+01 0.00000E+00
 -1      3055 1.06791E+02 3.07049E+01 0.00000E+00
 -1      3056 1.40973E+02 1.56722E+01 0.00000E+00
 -1      3057 1.40973E+02 1.42097E+01 0.00000E+00
 -1      3058 1.39805E+02 1.39290E+01 0.00000E+00
 -1      3059 1.39674E+02 1.64097E+01 0.00000E+00
 -1      3060 1.20683E+02 1.49878E+01 0.00000E+00
 -1      3061 1.21493E+02 1.44720E+01 0.00000E+00
 -1      3062 1.20119E+02 1.42969E+01 0.00000E+00
 -1      3063 1.15024E+02 1.50512E+01 0.00000E+00
 -1      3064 9.09300E+00 2.86437E+01 0.00000E+00
 -1      3065 9.09300E+00 3.01187E+01 0.00000E+00
 -1      3066 1.03920E+01 3.08563E+01 0.00000E+00
 -1      3067 1.03920E+01 2.79188E+01 0.00000E+00
 -1      3068 1.22889E+02 1.45423E+01 0.00000E+00
 -1      3069 1.23476E+02 1.52708E+01 0.00000E+00
 -1      3070 1.24308E+02 1.46502E+01 0.00000E+00
 -1      3071 1.25667E+02 1.63871E+01 0.00000E+00
 -1      3072 1.14275E+02 3.83968E+01 0.00000E+00
 -1      3073 1.06264E+02 2.80264E+01 0.00000E+00
 -1      3074 1.07799E+02 3.33933E+01 0.00000E+00
 -1      3075 1.09635E+01 1.04636E+01 0.00000E+00
 -1      3076 1.29686E+02 1.97077E+01 0.00000E+00
 -1      3077 1.29815E+02 2.05376E+01 0.00000E+00
 -1      3078 1.30970E+02 2.08224E+01 0.00000E+00
 -1      3079 1.24107E+02 3.78690E+01 0.00000E+00
 -1      3080 1.23134E+02 3.84230E+01 0.00000E+00
 -1      3081 1.25004E+02 3.83000E+01 0.00000E+00
 -1      3082 1.16910E+01 1.24625E+01 0.00000E+00
 -1      3083 1.16910E+01 1.39375E+01 0.00000E+00
 -1      3084 1.11870E+02 1.53263E+01 0.00000E+00
 -1      3085 1.12878E+02 1.48188E+01 0.00000E+00
 -1      3086 1.06190E+02 2.50462E+01 0.00000E+00
 -1      3087 1.14359E+02 3.95182E+01 0.00000E+00
 -1      3088 1.89000E+01 3.83090E+01 0.00000E+00
 -1      3089 2.04000E+01 3.83090E+01 0.00000E+00
 -1      3090 2.19000E+01 3.83090E+01 0.00000E+00
 -1      3091 2.34000E+01 3.83090E+01 0.00000E+00
 -1      3092 2.11500E+01 3.70100E+01 0.00000E+00
 -1      3093 2.49000E+01 3.83090E+01 0.00000E+00
 -1      3094 2.64000E+01 3.83090E+01 0.00000E+00
 -1      3095 2.41500E+01 3.70100E+01 0.00000E+00
 -1      3096 2.79000E+01 3.83090E+01 0.00000E+00
 -1      3097 2.94000E+01 3.83090E+01 0.00000E+00
 -1      3098 2.71500E+01 3.70100E+01 0.00000E+00
 -1      3099 3.09000E+01 3.83090E+01 0.00000E+00
 -1      3100 3.24000E+01 3.83090E+01 0.00000E+00
 -1      3101 3.01500E+01 3.70100E+01 0.00000E+00
 -1      3102 3.39000E+01 3.83090E+01 0.00000E+00
 -1      3103 3.54000E+01 3.83090E+01 0.00000E+00
 -1      3104 3.31500E+01 3.70100E+01 0.00000E+00
 -1      3105 3.69000E+01 3.83090E+01 0.00000E+00
 -1      3106 3.84000E+01 3.83090E+01 0.00000E+00
 -1      3107 3.61500E+01 3.70100E+01 0.00000E+00
 -1      3108 3.99000E+01 3.83090E+01 0.00000E+00
 -1      3109 4.14000E+01 3.83090E+01 0.00000E+00
 -1      3110 3.91500E+01 3.70100E+01 0.00000E+00
 -1      3111 4.29000E+01 3.83090E+01 0.00000E+00
 -1      3112 4.44000E+01 3.83090E+01 0.00000E+00
 -1      3113 4.21500E+01 3.70100E+01 0.00000E+00
 -1      3114 4.59000E+01 3.83090E+01 0.00000E+00
 -1      3115 4.74000E+01 3.83090E+01 0.00000E+00
 -1      3116 4.51500E+01 3.70100E+01 0.00000E+00
 -1      3117 4.89000E+01 3.83090E+01 0.00000E+00
 -1      3118 5.04000E+01 3.83090E+01 0.00000E+00
 -1      3119 4.81500E+01 3.70100E+01 0.00000E+00
 -1      3120 5.19000E+01 3.83090E+01 0.00000E+00
 -1      3121 5.34000E+01 3.83090E+01 0.00000E+00
 -1      3122 5.11500E+01 3.70100E+01 0.00000E+00
 -1      3123 5.49000E+01 3.83090E+01 0.00000E+00
 -1      3124 5.64000E+01 3.83090E+01 0.00000E+00
 -1      3125 5.41500E+01 3.70100E+01 0.00000E+00
 -1      3126 5.79000E+01 3.83090E+01 0.00000E+00
 -1      3127 5.94000E+01 3.83090E+01 0.00000E+00
 -1      3128 5.71500E+01 3.70100E+01 0.00000E+00
 -1      3129 6.09000E+01 3.83090E+01 0.00000E+00
 -1      3130 6.24000E+01 3.83090E+01 0.00000E+00
 -1      3131 6.01500E+01 3.70100E+01 0.00000E+00
 -1      3132 6.39000E+01 3.83090E+01 0.00000E+00
 -1      3133 6.54000E+01 3.83090E+01 0.00000E+00
 -1      3134 6.31500E+01 3.70100E+01 0.00000E+00
 -1      3135 6.69000E+01 3.83090E+01 0.00000E+00
 -1      3136 6.84000E+01 3.83090E+01 0.00000E+00
 -1      3137 6.61500E+01 3.70100E+01 0.00000E+00
 -1      3138 6.99000E+01 3.83090E+01 0.00000E+00
 -1      3139 7.14000E+01 3.83090E+01 0.00000E+00
 -1      3140 6.91500E+01 3.70100E+01 0.00000E+00
 -1      3141 7.29000E+01 3.83090E+01 0.00000E+00
 -1      3142 7.44000E+01 3.83090E+01 0.00000E+00
 -1      3143 7.21500E+01 3.70100E+01 0.00000E+00
 -1      3144 7.59000E+01 3.83090E+01 0.00000E+00
 -1      3145 7.74000E+01 3.83090E+01 0.00000E+00
 -1      3146 7.51500E+01 3.70100E+01 0.00000E+00
 -1      3147 7.89000E+01 3.83090E+01 0.00000E+00
 -1      3148 8.04000E+01 3.83090E+01 0.00000E+00
 -1      3149 7.81500E+01 3.70100E+01 0.00000E+00
 -1      3150 8.19000E+01 3.83090E+01 0.00000E+00
 -1      3151 8.34000E+01 3.83090E+01 0.00000E+00
 -1      3152 8.11500E+01 3.70100E+01 0.00000E+00
 -1      3153 8.49000E+01 3.83090E+01 0.00000E+00
 -1      3154 8.64000E+01 3.83090E+01 0.00000E+00
 -1      3155 8.41500E+01 3.70100E+01 0.00000E+00
 -1      3156 8.79000E+01 3.83090E+01 0.00000E+00
 -1      3157 8.94000E+01 3.83090E+01 0.00000E+00
 -1      3158 8.71500E+01 3.70100E+01 0.00000E+00
 -1      3159 9.09000E+01 3.83090E+01 0.00000E+00
 -1      3160 9.24000E+01 3.83090E+01 0.00000E+00
 -1      3161 9.01500E+01 3.70100E+01 0.00000E+00
 -1      3162 9.39000E+01 3.83090E+01 0.00000E+00
 -1      3163 9.54000E+01 3.83090E+01 0.00000E+00
 -1      3164 9.31500E+01 3.70100E+01 0.00000E+00
 -1      3165 9.69000E+01 3.83090E+01 0.00000E+00
 -1      3166 9.84000E+01 3.83090E+01 0.00000E+00
 -1      3167 9.61500E+01 3.70100E+01 0.00000E+00
 -1      3168 9.99000E+01 3.83090E+01 0.00000E+00
 -1      3169 1.01400E+02 3.83090E+01 0.00000E+00
 -1      3170 9.91500E+01 3.70100E+01 0.00000E+00
 -1      3171 1.02900E+02 3.83090E+01 0.00000E+00
 -1      3172 1.04400E+02 3.83090E+01 0.00000E+00
 -1      3173 1.02150E+02 3.70100E+01 0.00000E+00
 -1      3174 1.08533E+02 3.80080E+01 0.00000E+00
 -1      3175 1.10033E+02 3.80080E+01 0.00000E+00
 -1      3176 1.28632E+02 3.78273E+01 0.00000E+00
 -1      3177 1.35514E+02 3.85310E+01 0.00000E+00
 -1      3178 1.37014E+02 3.85310E+01 0.00000E+00
 -1      3179 1.37379E+02 3.74540E+01 0.00000E+00
 -1      3180 2.27850E+01 1.05013E+01 0.00000E+00
 -1      3181 2.12850E+01 1.05013E+01 0.00000E+00
 -1      3182 3.47850E+01 1.05013E+01 0.00000E+00
 -1      3183 3.32850E+01 1.05013E+01 0.00000E+00
 -1      3184 3.17850E+01 1.05013E+01 0.00000E+00
 -1      3185 3.02850E+01 1.05013E+01 0.00000E+00
 -1      3186 3.25350E+01 1.18003E+01 0.00000E+00
 -1      3187 4.07850E+01 1.05013E+01 0.00000E+00
 -1      3188 3.92850E+01 1.05013E+01 0.00000E+00
 -1      3189 4.37850E+01 1.05013E+01 0.00000E+00
 -1      3190 4.22850E+01 1.05013E+01 0.00000E+00
 -1      3191 4.15350E+01 1.18003E+01 0.00000E+00
 -1      3192 4.67850E+01 1.05013E+01 0.00000E+00
 -1      3193 4.52850E+01 1.05013E+01 0.00000E+00
 -1      3194 4.45350E+01 1.18003E+01 0.00000E+00
 -1      3195 4.97850E+01 1.05013E+01 0.00000E+00
 -1      3196 4.82850E+01 1.05013E+01 0.00000E+00
 -1      3197 4.75350E+01 1.18003E+01 0.00000E+00
 -1      3198 5.27850E+01 1.05013E+01 0.00000E+00
 -1      3199 5.12850E+01 1.05013E+01 0.00000E+00
 -1      3200 5.05350E+01 1.18003E+01 0.00000E+00
 -1      3201 5.57850E+01 1.05013E+01 0.00000E+00
 -1      3202 5.42850E+01 1.05013E+01 0.00000E+00
 -1      3203 5.35350E+01 1.18003E+01 0.00000E+00
 -1      3204 5.87850E+01 1.05013E+01 0.00000E+00
 -1      3205 5.72850E+01 1.05013E+01 0.00000E+00
 -1      3206 5.65350E+01 1.18003E+01 0.00000E+00
 -1      3207 6.17850E+01 1.05013E+01 0.00000E+00
 -1      3208 6.02850E+01 1.05013E+01 0.00000E+00
 -1      3209 5.95350E+01 1.18003E+01 0.00000E+00
 -1      3210 6.47850E+01 1.05013E+01 0.00000E+00
 -1      3211 6.32850E+01 1.05013E+01 0.00000E+00
 -1      3212 6.25350E+01 1.18003E+01 0.00000E+00
 -1      3213 6.77850E+01 1.05013E+01 0.00000E+00
 -1      3214 6.62850E+01 1.05013E+01 0.00000E+00
 -1      3215 6.55350E+01 1.18003E+01 0.00000E+00
 -1      3216 7.07850E+01 1.05013E+01 0.00000E+00
 -1      3217 6.92850E+01 1.05013E+01 0.00000E+00
 -1      3218 6.85350E+01 1.18003E+01 0.00000E+00
 -1      3219 7.37850E+01 1.05013E+01 0.00000E+00
 -1      3220 7.22850E+01 1.05013E+01 0.00000E+00
 -1      3221 7.15350E+01 1.18003E+01 0.00000E+00
 -1      3222 7.67850E+01 1.05013E+01 0.00000E+00
 -1      3223 7.52850E+01 1.05013E+01 0.00000E+00
 -1      3224 7.45350E+01 1.18003E+01 0.00000E+00
 -1      3225 7.97850E+01 1.05013E+01 0.00000E+00
 -1      3226 7.82850E+01 1.05013E+01 0.00000E+00
 -1      3227 7.75350E+01 1.18003E+01 0.00000E+00
 -1      3228 8.27850E+01 1.05013E+01 0.00000E+00
 -1      3229 8.12850E+01 1.05013E+01 0.00000E+00
 -1      3230 8.05350E+01 1.18003E+01 0.00000E+00
 -1      3231 8.57850E+01 1.05013E+01 0.00000E+00
 -1      3232 8.42850E+01 1.05013E+01 0.00000E+00
 -1      3233 8.35350E+01 1.18003E+01 0.00000E+00
 -1      3234 8.87850E+01 1.05013E+01 0.00000E+00
 -1      3235 8.72850E+01 1.05013E+01 0.00000E+00
 -1      3236 8.65350E+01 1.18003E+01 0.00000E+00
 -1      3237 9.17850E+01 1.05013E+01 0.00000E+00
 -1      3238 9.02850E+01 1.05013E+01 0.00000E+00
 -1      3239 8.95350E+01 1.18003E+01 0.00000E+00
 -1      3240 9.47850E+01 1.05013E+01 0.00000E+00
 -1      3241 9.32850E+01 1.05013E+01 0.00000E+00
 -1      3242 9.25350E+01 1.18003E+01 0.00000E+00
 -1      3243 9.77850E+01 1.05013E+01 0.00000E+00
 -1      3244 9.62850E+01 1.05013E+01 0.00000E+00
 -1      3245 9.55350E+01 1.18003E+01 0.00000E+00
 -1      3246 1.00785E+02 1.05013E+01 0.00000E+00
 -1      3247 9.92850E+01 1.05013E+01 0.00000E+00
 -1      3248 9.85350E+01 1.18003E+01 0.00000E+00
 -1      3249 1.03785E+02 1.05013E+01 0.00000E+00
 -1      3250 1.02285E+02 1.05013E+01 0.00000E+00
 -1      3251 1.01535E+02 1.18003E+01 0.00000E+00
 -1      3252 1.06785E+02 1.05013E+01 0.00000E+00
 -1      3253 1.05285E+02 1.05013E+01 0.00000E+00
 -1      3254 1.04535E+02 1.18003E+01 0.00000E+00
 -1      3255 1.09785E+02 1.05013E+01 0.00000E+00
 -1      3256 1.08285E+02 1.05013E+01 0.00000E+00
 -1      3257 1.07535E+02 1.18003E+01 0.00000E+00
 -1      3258 1.12724E+02 1.16796E+01 0.00000E+00
 -1      3259 1.11224E+02 1.16796E+01 0.00000E+00
 -1      3260 1.18785E+02 1.05013E+01 0.00000E+00
 -1      3261 1.17285E+02 1.05013E+01 0.00000E+00
 -1      3262 1.21732E+02 1.14917E+01 0.00000E+00
 -1      3263 1.20232E+02 1.14917E+01 0.00000E+00
 -1      3264 1.24628E+02 1.15620E+01 0.00000E+00
 -1      3265 1.23128E+02 1.15620E+01 0.00000E+00
 -1      3266 1.30785E+02 1.05013E+01 0.00000E+00
 -1      3267 1.29285E+02 1.05013E+01 0.00000E+00
 -1      3268 1.33785E+02 1.05013E+01 0.00000E+00
 -1      3269 1.32285E+02 1.05013E+01 0.00000E+00
 -1      3270 1.31535E+02 1.18003E+01 0.00000E+00
 -1      3271 1.36785E+02 1.05013E+01 0.00000E+00
 -1      3272 1.35285E+02 1.05013E+01 0.00000E+00
 -1      3273 1.34535E+02 1.18003E+01 0.00000E+00
 -1      3274 1.38912E+02 1.10040E+01 0.00000E+00
 -1      3275 1.37744E+02 1.07233E+01 0.00000E+00
 -1      3276 1.36994E+02 1.20223E+01 0.00000E+00
 -1      3277 1.38912E+02 1.24665E+01 0.00000E+00
 -1      3278 1.38309E+02 2.86750E+01 0.00000E+00
 -1      3279 1.38309E+02 2.72250E+01 0.00000E+00
 -1      3280 1.38309E+02 2.57500E+01 0.00000E+00
 -1      3281 1.38309E+02 2.42750E+01 0.00000E+00
 -1      3282 1.37010E+02 2.64750E+01 0.00000E+00
 -1      3283 1.05570E+01 3.73671E+01 0.00000E+00
 -1      3284 1.38309E+02 3.16250E+01 0.00000E+00
 -1      3285 1.38309E+02 3.01500E+01 0.00000E+00
 -1      3286 1.37010E+02 2.94250E+01 0.00000E+00
 -1      3287 1.38309E+02 3.45750E+01 0.00000E+00
 -1      3288 1.38309E+02 3.31000E+01 0.00000E+00
 -1      3289 1.37010E+02 3.23750E+01 0.00000E+00
 -1      3290 3.77850E+01 1.05013E+01 0.00000E+00
 -1      3291 3.62850E+01 1.05013E+01 0.00000E+00
 -1      3292 3.55350E+01 1.18003E+01 0.00000E+00
 -1      3293 3.85350E+01 1.18003E+01 0.00000E+00
 -1      3294 1.16910E+01 2.12875E+01 0.00000E+00
 -1      3295 1.16910E+01 2.27625E+01 0.00000E+00
 -1      3296 1.59000E+01 3.83090E+01 0.00000E+00
 -1      3297 1.74000E+01 3.83090E+01 0.00000E+00
 -1      3298 1.81500E+01 3.70100E+01 0.00000E+00
 -1      3299 1.12596E+02 3.68369E+01 0.00000E+00
 -1      3300 1.11643E+02 3.69076E+01 0.00000E+00
 -1      3301 1.32420E+02 3.04153E+01 0.00000E+00
 -1      3302 1.32091E+02 3.15000E+01 0.00000E+00
 -1      3303 1.32152E+02 2.23336E+01 0.00000E+00
 -1      3304 1.32184E+02 2.37433E+01 0.00000E+00
 -1      3305 1.05398E+02 2.89205E+01 0.00000E+00
 -1      3306 1.05120E+02 2.75350E+01 0.00000E+00
 -1      3307 1.05909E+02 3.15453E+01 0.00000E+00
 -1      3308 1.05660E+02 3.02523E+01 0.00000E+00
 -1      3309 1.26488E+01 1.02017E+01 0.00000E+00
 -1      3310 1.20772E+01 1.14631E+01 0.00000E+00
 -1      3311 1.33763E+01 1.22006E+01 0.00000E+00
 -1      3312 1.41488E+01 1.02017E+01 0.00000E+00
 -1      3313 1.07278E+02 3.45807E+01 0.00000E+00
 -1      3314 1.06519E+02 3.31854E+01 0.00000E+00
 -1      3315 1.32515E+02 2.82081E+01 0.00000E+00
 -1      3316 1.32422E+02 2.91679E+01 0.00000E+00
 -1      3317 1.13592E+02 3.87604E+01 0.00000E+00
 -1      3318 1.31494E+02 3.25977E+01 0.00000E+00
 -1      3319 1.31037E+02 3.35759E+01 0.00000E+00
 -1      3320 1.26238E+02 1.51510E+01 0.00000E+00
 -1      3321 1.27010E+02 1.61594E+01 0.00000E+00
 -1      3322 1.21215E+01 3.78040E+01 0.00000E+00
 -1      3323 1.43355E+01 3.78721E+01 0.00000E+00
 -1      3324 1.50855E+01 3.65731E+01 0.00000E+00
 -1      3325 1.19565E+01 3.56994E+01 0.00000E+00
 -1      3326 1.12845E+02 3.76832E+01 0.00000E+00
 -1      3327 1.04988E+02 2.57037E+01 0.00000E+00
 -1      3328 1.05191E+02 2.41090E+01 0.00000E+00
 -1      3329 1.29651E+02 3.76273E+01 0.00000E+00
 -1      3330 1.12329E+02 3.86235E+01 0.00000E+00
 -1      3331 1.16910E+01 2.42375E+01 0.00000E+00
 -1      3332 1.16910E+01 2.57125E+01 0.00000E+00
 -1      3333 1.29900E+01 2.35000E+01 0.00000E+00
 -1      3334 1.31226E+02 3.47723E+01 0.00000E+00
 -1      3335 1.33075E+02 2.66347E+01 0.00000E+00
 -1      3336 1.32795E+02 2.74214E+01 0.00000E+00
 -1      3337 1.33530E+02 2.79776E+01 0.00000E+00
 -1      3338 1.15990E+02 1.36075E+01 0.00000E+00
 -1      3339 1.16687E+02 1.30879E+01 0.00000E+00
 -1      3340 1.05388E+02 3.27328E+01 0.00000E+00
 -1      3341 1.11126E+02 3.78479E+01 0.00000E+00
 -1      3342 1.31275E+02 3.78491E+01 0.00000E+00
 -1      3343 1.29900E+01 1.46687E+01 0.00000E+00
 -1      3344 1.16910E+01 1.54063E+01 0.00000E+00
 -1      3345 1.16910E+01 1.68750E+01 0.00000E+00
 -1      3346 1.32001E+02 3.63107E+01 0.00000E+00
 -1      3347 1.32876E+02 3.80696E+01 0.00000E+00
 -1      3348 1.34376E+02 3.80696E+01 0.00000E+00
 -1      3349 1.32827E+02 3.49928E+01 0.00000E+00
 -1      3350 1.05900E+02 3.83090E+01 0.00000E+00
 -1      3351 1.07400E+02 3.83090E+01 0.00000E+00
 -1      3352 1.34740E+02 3.69926E+01 0.00000E+00
 -1      3353 1.25650E+02 1.44225E+01 0.00000E+00
 -1      3354 1.26993E+02 1.41949E+01 0.00000E+00
 -1      3355 1.25063E+02 1.36941E+01 0.00000E+00
 -1      3356 1.24350E+02 4.05537E+01 0.00000E+00
 -1      3357 1.29480E+02 1.77988E+01 0.00000E+00
 -1      3358 1.29583E+02 1.87532E+01 0.00000E+00
 -1      3359 1.30738E+02 1.90381E+01 0.00000E+00
 -1      3360 2.57850E+01 1.05013E+01 0.00000E+00
 -1      3361 2.42850E+01 1.05013E+01 0.00000E+00
 -1      3362 2.35350E+01 1.18003E+01 0.00000E+00
 -1      3363 1.16910E+01 1.83469E+01 0.00000E+00
 -1      3364 1.16910E+01 1.98156E+01 0.00000E+00
 -1      3365 1.29900E+01 2.05531E+01 0.00000E+00
 -1      3366 1.29900E+01 1.76094E+01 0.00000E+00
 -1      3367 1.32772E+02 2.45467E+01 0.00000E+00
 -1      3368 1.07783E+02 3.67090E+01 0.00000E+00
 -1      3369 2.95350E+01 1.18003E+01 0.00000E+00
 -1      3370 2.87850E+01 1.05013E+01 0.00000E+00
 -1      3371 2.72850E+01 1.05013E+01 0.00000E+00
 -1      3372 1.15785E+02 1.03949E+01 0.00000E+00
 -1      3373 1.14285E+02 1.03949E+01 0.00000E+00
 -1      3374 1.19482E+02 1.27907E+01 0.00000E+00
 -1      3375 1.28220E+02 1.26333E+01 0.00000E+00
 -1      3376 1.27470E+02 1.13343E+01 0.00000E+00
 -1      3377 1.25970E+02 1.13343E+01 0.00000E+00
 -1      3378 1.18672E+02 1.33064E+01 0.00000E+00
 -1      3379 1.09333E+02 1.80295E+01 0.00000E+00
 -1      3380 1.09266E+02 1.69803E+01 0.00000E+00
 -1      3381 1.08431E+02 1.82474E+01 0.00000E+00
 -1      3382 1.38309E+02 1.98625E+01 0.00000E+00
 -1      3383 1.38309E+02 1.83875E+01 0.00000E+00
 -1      3384 1.22325E+02 1.38514E+01 0.00000E+00
 -1      3385 1.33249E+02 3.00116E+01 0.00000E+00
 -1      3386 1.38309E+02 2.28062E+01 0.00000E+00
 -1      3387 1.38309E+02 2.13312E+01 0.00000E+00
 -1      3388 1.37010E+02 2.05938E+01 0.00000E+00
 -1      3389 1.37010E+02 2.35313E+01 0.00000E+00
 -1      3390 1.10211E+02 1.55931E+01 0.00000E+00
 -1      3391 1.11040E+02 1.54597E+01 0.00000E+00
 -1      3392 1.11083E+02 1.42904E+01 0.00000E+00
 -1      3393 1.05070E+02 2.32124E+01 0.00000E+00
 -1      3394 1.04949E+02 2.23159E+01 0.00000E+00
 -1      3395 1.03869E+02 2.38698E+01 0.00000E+00
 -1      3396 1.06144E+02 2.07048E+01 0.00000E+00
 -1      3397 1.07324E+02 2.04775E+01 0.00000E+00
 -1      3398 1.07318E+02 1.95239E+01 0.00000E+00
 -1      3399 1.05150E+02 3.70100E+01 0.00000E+00
 -1      3400 1.27953E+02 1.62186E+01 0.00000E+00
 -1      3401 1.97850E+01 1.05013E+01 0.00000E+00
 -1      3402 1.82850E+01 1.05013E+01 0.00000E+00
 -1      3403 2.05350E+01 1.18003E+01 0.00000E+00
 -1      3404 1.69669E+01 1.03515E+01 0.00000E+00
 -1      3405 1.54669E+01 1.03515E+01 0.00000E+00
 -1      3406 1.50806E+01 1.13509E+01 0.00000E+00
 -1      3407 1.77169E+01 1.16505E+01 0.00000E+00
 -1      3408 1.32650E+02 3.23567E+01 0.00000E+00
 -1      3409 1.14809E+02 1.40369E+01 0.00000E+00
 -1      3410 1.16535E+02 1.16939E+01 0.00000E+00
 -1      3411 1.38375E+02 1.71472E+01 0.00000E+00
 -1      3412 1.38440E+02 1.59068E+01 0.00000E+00
 -1      3413 1.37076E+02 1.78847E+01 0.00000E+00
 -1      3414 1.04516E+02 2.97609E+01 0.00000E+00
 -1      3415 1.32189E+02 2.11226E+01 0.00000E+00
 -1      3416 1.33242E+02 2.18038E+01 0.00000E+00
 -1      3417 1.04122E+02 2.65977E+01 0.00000E+00
 -1      3418 1.37662E+02 3.65530E+01 0.00000E+00
 -1      3419 1.38026E+02 3.54760E+01 0.00000E+00
 -1      3420 1.36727E+02 3.47510E+01 0.00000E+00
 -1      3421 1.36162E+02 3.65530E+01 0.00000E+00
 -1      3422 1.07604E+02 3.58993E+01 0.00000E+00
 -1      3423 1.16910E+01 3.01219E+01 0.00000E+00
 -1      3424 1.16910E+01 3.15906E+01 0.00000E+00
 -1      3425 1.06324E+02 3.56914E+01 0.00000E+00
 -1      3426 1.18237E+01 3.29106E+01 0.00000E+00
 -1      3427 1.18237E+01 3.43794E+01 0.00000E+00
 -1      3428 1.33883E+01 3.48162E+01 0.00000E+00
 -1      3429 1.31228E+01 3.21763E+01 0.00000E+00
 -1      3430 1.32060E+02 2.02927E+01 0.00000E+00
 -1      3431 1.13844E+02 1.33751E+01 0.00000E+00
 -1      3432 1.04575E+02 3.39686E+01 0.00000E+00
 -1      3433 1.03965E+02 3.23285E+01 0.00000E+00
 -1      3434 1.33441E+02 3.37198E+01 0.00000E+00
 -1      3435 1.34215E+02 3.52582E+01 0.00000E+00
 -1      3436 4.82850E+01 1.30992E+01 0.00000E+00
 -1      3437 4.67850E+01 1.30992E+01 0.00000E+00
 -1      3438 3.32850E+01 1.30992E+01 0.00000E+00
 -1      3439 3.17850E+01 1.30992E+01 0.00000E+00
 -1      3440 2.04000E+01 3.57110E+01 0.00000E+00
 -1      3441 2.19000E+01 3.57110E+01 0.00000E+00
 -1      3442 2.34000E+01 3.57110E+01 0.00000E+00
 -1      3443 2.49000E+01 3.57110E+01 0.00000E+00
 -1      3444 2.26500E+01 3.44120E+01 0.00000E+00
 -1      3445 2.64000E+01 3.57110E+01 0.00000E+00
 -1      3446 2.79000E+01 3.57110E+01 0.00000E+00
 -1      3447 2.56500E+01 3.44120E+01 0.00000E+00
 -1      3448 2.94000E+01 3.57110E+01 0.00000E+00
 -1      3449 3.09000E+01 3.57110E+01 0.00000E+00
 -1      3450 2.86500E+01 3.44120E+01 0.00000E+00
 -1      3451 3.24000E+01 3.57110E+01 0.00000E+00
 -1      3452 3.39000E+01 3.57110E+01 0.00000E+00
 -1      3453 3.16500E+01 3.44120E+01 0.00000E+00
 -1      3454 3.54000E+01 3.57110E+01 0.00000E+00
 -1      3455 3.69000E+01 3.57110E+01 0.00000E+00
 -1      3456 3.46500E+01 3.44120E+01 0.00000E+00
 -1      3457 3.84000E+01 3.57110E+01 0.00000E+00
 -1      3458 3.99000E+01 3.57110E+01 0.00000E+00
 -1      3459 3.76500E+01 3.44120E+01 0.00000E+00
 -1      3460 4.14000E+01 3.57110E+01 0.00000E+00
 -1      3461 4.29000E+01 3.57110E+01 0.00000E+00
 -1      3462 4.06500E+01 3.44120E+01 0.00000E+00
 -1      3463 4.44000E+01 3.57110E+01 0.00000E+00
 -1      3464 4.59000E+01 3.57110E+01 0.00000E+00
 -1      3465 4.36500E+01 3.44120E+01 0.00000E+00
 -1      3466 4.74000E+01 3.57110E+01 0.00000E+00
 -1      3467 4.89000E+01 3.57110E+01 0.00000E+00
 -1      3468 4.66500E+01 3.44120E+01 0.00000E+00
 -1      3469 5.04000E+01 3.57110E+01 0.00000E+00
 -1      3470 5.19000E+01 3.57110E+01 0.00000E+00
 -1      3471 4.96500E+01 3.44120E+01 0.00000E+00
 -1      3472 5.34000E+01 3.57110E+01 0.00000E+00
 -1      3473 5.49000E+01 3.57110E+01 0.00000E+00
 -1      3474 5.26500E+01 3.44120E+01 0.00000E+00
 -1      3475 5.64000E+01 3.57110E+01 0.00000E+00
 -1      3476 5.79000E+01 3.57110E+01 0.00000E+00
 -1      3477 5.56500E+01 3.44120E+01 0.00000E+00
 -1      3478 5.94000E+01 3.57110E+01 0.00000E+00
 -1      3479 6.09000E+01 3.57110E+01 0.00000E+00
 -1      3480 5.86500E+01 3.44120E+01 0.00000E+00
 -1      3481 6.24000E+01 3.57110E+01 0.00000E+00
 -1      3482 6.39000E+01 3.57110E+01 0.00000E+00
 -1      3483 6.16500E+01 3.44120E+01 0.00000E+00
 -1      3484 6.54000E+01 3.57110E+01 0.00000E+00
 -1      3485 6.69000E+01 3.57110E+01 0.00000E+00
 -1      3486 6.46500E+01 3.44120E+01 0.00000E+00
 -1      3487 6.84000E+01 3.57110E+01 0.00000E+00
 -1      3488 6.99000E+01 3.57110E+01 0.00000E+00
 -1      3489 6.76500E+01 3.44120E+01 0.00000E+00
 -1      3490 7.14000E+01 3.57110E+01 0.00000E+00
 -1      3491 7.29000E+01 3.57110E+01 0.00000E+00
 -1      3492 7.06500E+01 3.44120E+01 0.00000E+00
 -1      3493 7.44000E+01 3.57110E+01 0.00000E+00
 -1      3494 7.59000E+01 3.57110E+01 0.00000E+00
 -1      3495 7.36500E+01 3.44120E+01 0.00000E+00
 -1      3496 7.74000E+01 3.57110E+01 0.00000E+00
 -1      3497 7.89000E+01 3.57110E+01 0.00000E+00
 -1      3498 7.66500E+01 3.44120E+01 0.00000E+00
 -1      3499 8.04000E+01 3.57110E+01 0.00000E+00
 -1      3500 8.19000E+01 3.57110E+01 0.00000E+00
 -1      3501 7.96500E+01 3.44120E+01 0.00000E+00
 -1      3502 8.34000E+01 3.57110E+01 0.00000E+00
 -1      3503 8.49000E+01 3.57110E+01 0.00000E+00
 -1      3504 8.26500E+01 3.44120E+01 0.00000E+00
 -1      3505 8.64000E+01 3.57110E+01 0.00000E+00
 -1      3506 8.79000E+01 3.57110E+01 0.00000E+00
 -1      3507 8.56500E+01 3.44120E+01 0.00000E+00
 -1      3508 8.94000E+01 3.57110E+01 0.00000E+00
 -1      3509 9.09000E+01 3.57110E+01 0.00000E+00
 -1      3510 8.86500E+01 3.44120E+01 0.00000E+00
 -1      3511 9.24000E+01 3.57110E+01 0.00000E+00
 -1      3512 9.39000E+01 3.57110E+01 0.00000E+00
 -1      3513 9.16500E+01 3.44120E+01 0.00000E+00
 -1      3514 9.54000E+01 3.57110E+01 0.00000E+00
 -1      3515 9.69000E+01 3.57110E+01 0.00000E+00
 -1      3516 9.46500E+01 3.44120E+01 0.00000E+00
 -1      3517 9.84000E+01 3.57110E+01 0.00000E+00
 -1      3518 9.99000E+01 3.57110E+01 0.00000E+00
 -1      3519 9.76500E+01 3.44120E+01 0.00000E+00
 -1      3520 1.01901E+02 3.52872E+01 0.00000E+00
 -1      3521 1.03401E+02 3.52872E+01 0.00000E+00
 -1      3522 1.35354E+02 3.57196E+01 0.00000E+00
 -1      3523 4.52850E+01 1.30992E+01 0.00000E+00
 -1      3524 4.37850E+01 1.30992E+01 0.00000E+00
 -1      3525 4.60350E+01 1.43982E+01 0.00000E+00
 -1      3526 4.22850E+01 1.30992E+01 0.00000E+00
 -1      3527 4.07850E+01 1.30992E+01 0.00000E+00
 -1      3528 4.30350E+01 1.43982E+01 0.00000E+00
 -1      3529 5.12850E+01 1.30992E+01 0.00000E+00
 -1      3530 4.97850E+01 1.30992E+01 0.00000E+00
 -1      3531 4.90350E+01 1.43982E+01 0.00000E+00
 -1      3532 5.42850E+01 1.30992E+01 0.00000E+00
 -1      3533 5.27850E+01 1.30992E+01 0.00000E+00
 -1      3534 5.20350E+01 1.43982E+01 0.00000E+00
 -1      3535 5.72850E+01 1.30992E+01 0.00000E+00
 -1      3536 5.57850E+01 1.30992E+01 0.00000E+00
 -1      3537 5.50350E+01 1.43982E+01 0.00000E+00
 -1      3538 6.02850E+01 1.30992E+01 0.00000E+00
 -1      3539 5.87850E+01 1.30992E+01 0.00000E+00
 -1      3540 5.80350E+01 1.43982E+01 0.00000E+00
 -1      3541 6.32850E+01 1.30992E+01 0.00000E+00
 -1      3542 6.17850E+01 1.30992E+01 0.00000E+00
 -1      3543 6.10350E+01 1.43982E+01 0.00000E+00
 -1      3544 6.62850E+01 1.30992E+01 0.00000E+00
 -1      3545 6.47850E+01 1.30992E+01 0.00000E+00
 -1      3546 6.40350E+01 1.43982E+01 0.00000E+00
 -1      3547 6.92850E+01 1.30992E+01 0.00000E+00
 -1      3548 6.77850E+01 1.30992E+01 0.00000E+00
 -1      3549 6.70350E+01 1.43982E+01 0.00000E+00
 -1      3550 7.22850E+01 1.30992E+01 0.00000E+00
 -1      3551 7.07850E+01 1.30992E+01 0.00000E+00
 -1      3552 7.00350E+01 1.43982E+01 0.00000E+00
 -1      3553 7.52850E+01 1.30992E+01 0.00000E+00
 -1      3554 7.37850E+01 1.30992E+01 0.00000E+00
 -1      3555 7.30350E+01 1.43982E+01 0.00000E+00
 -1      3556 7.82850E+01 1.30992E+01 0.00000E+00
 -1      3557 7.67850E+01 1.30992E+01 0.00000E+00
 -1      3558 7.60350E+01 1.43982E+01 0.00000E+00
 -1      3559 8.12850E+01 1.30992E+01 0.00000E+00
 -1      3560 7.97850E+01 1.30992E+01 0.00000E+00
 -1      3561 7.90350E+01 1.43982E+01 0.00000E+00
 -1      3562 8.42850E+01 1.30992E+01 0.00000E+00
 -1      3563 8.27850E+01 1.30992E+01 0.00000E+00
 -1      3564 8.20350E+01 1.43982E+01 0.00000E+00
 -1      3565 8.72850E+01 1.30992E+01 0.00000E+00
 -1      3566 8.57850E+01 1.30992E+01 0.00000E+00
 -1      3567 8.50350E+01 1.43982E+01 0.00000E+00
 -1      3568 9.02850E+01 1.30992E+01 0.00000E+00
 -1      3569 8.87850E+01 1.30992E+01 0.00000E+00
 -1      3570 8.80350E+01 1.43982E+01 0.00000E+00
 -1      3571 9.32850E+01 1.30992E+01 0.00000E+00
 -1      3572 9.17850E+01 1.30992E+01 0.00000E+00
 -1      3573 9.10350E+01 1.43982E+01 0.00000E+00
 -1      3574 9.62850E+01 1.30992E+01 0.00000E+00
 -1      3575 9.47850E+01 1.30992E+01 0.00000E+00
 -1      3576 9.40350E+01 1.43982E+01 0.00000E+00
 -1      3577 9.92850E+01 1.30992E+01 0.00000E+00
 -1      3578 9.77850E+01 1.30992E+01 0.00000E+00
 -1      3579 9.70350E+01 1.43982E+01 0.00000E+00
 -1      3580 1.02285E+02 1.30992E+01 0.00000E+00
 -1      3581 1.00785E+02 1.30992E+01 0.00000E+00
 -1      3582 1.00035E+02 1.43982E+01 0.00000E+00
 -1      3583 1.05285E+02 1.30992E+01 0.00000E+00
 -1      3584 1.03785E+02 1.30992E+01 0.00000E+00
 -1      3585 1.03035E+02 1.43982E+01 0.00000E+00
 -1      3586 1.10474E+02 1.29786E+01 0.00000E+00
 -1      3587 1.32285E+02 1.30992E+01 0.00000E+00
 -1      3588 1.30785E+02 1.30992E+01 0.00000E+00
 -1      3589 1.35129E+02 3.25545E+01 0.00000E+00
 -1      3590 1.35129E+02 3.10795E+01 0.00000E+00
 -1      3591 1.35410E+02 2.75705E+01 0.00000E+00
 -1      3592 1.35410E+02 2.60955E+01 0.00000E+00
 -1      3593 1.74000E+01 3.57110E+01 0.00000E+00
 -1      3594 1.89000E+01 3.57110E+01 0.00000E+00
 -1      3595 1.96500E+01 3.44120E+01 0.00000E+00
 -1      3596 1.11666E+02 3.86677E+01 0.00000E+00
 -1      3597 1.33939E+02 2.35711E+01 0.00000E+00
 -1      3598 1.33507E+02 2.51029E+01 0.00000E+00
 -1      3599 1.34242E+02 2.56591E+01 0.00000E+00
 -1      3600 1.29558E+02 1.46608E+01 0.00000E+00
 -1      3601 1.29930E+02 1.59561E+01 0.00000E+00
 -1      3602 1.04824E+02 3.56914E+01 0.00000E+00
 -1      3603 1.35130E+02 2.98321E+01 0.00000E+00
 -1      3604 1.03165E+02 2.75872E+01 0.00000E+00
 -1      3605 1.03033E+02 2.57559E+01 0.00000E+00
 -1      3606 1.16910E+01 2.71844E+01 0.00000E+00
 -1      3607 1.16910E+01 2.86531E+01 0.00000E+00
 -1      3608 1.29900E+01 2.93875E+01 0.00000E+00
 -1      3609 1.35285E+02 1.30992E+01 0.00000E+00
 -1      3610 1.33785E+02 1.30992E+01 0.00000E+00
 -1      3611 1.33035E+02 1.43982E+01 0.00000E+00
 -1      3612 1.31957E+02 1.93382E+01 0.00000E+00
 -1      3613 1.33176E+02 1.96384E+01 0.00000E+00
 -1      3614 1.31855E+02 1.83838E+01 0.00000E+00
 -1      3615 1.03723E+02 3.06084E+01 0.00000E+00
 -1      3616 1.03461E+02 2.92766E+01 0.00000E+00
 -1      3617 1.38643E+02 1.48068E+01 0.00000E+00
 -1      3618 1.38709E+02 1.35665E+01 0.00000E+00
 -1      3619 1.37750E+02 1.33444E+01 0.00000E+00
 -1      3620 1.37344E+02 1.55443E+01 0.00000E+00
 -1      3621 1.34014E+02 2.11490E+01 0.00000E+00
 -1      3622 1.33977E+02 2.23600E+01 0.00000E+00
 -1      3623 1.34712E+02 2.29162E+01 0.00000E+00
 -1      3624 1.46944E+01 1.23503E+01 0.00000E+00
 -1      3625 1.43081E+01 1.33498E+01 0.00000E+00
 -1      3626 1.60125E+01 1.25001E+01 0.00000E+00
 -1      3627 1.31085E+02 1.62410E+01 0.00000E+00
 -1      3628 1.02910E+02 3.18442E+01 0.00000E+00
 -1      3629 1.43081E+01 1.48185E+01 0.00000E+00
 -1      3630 4.00350E+01 1.43982E+01 0.00000E+00
 -1      3631 3.92850E+01 1.30992E+01 0.00000E+00
 -1      3632 3.77850E+01 1.30992E+01 0.00000E+00
 -1      3633 3.10350E+01 1.43982E+01 0.00000E+00
 -1      3634 3.02850E+01 1.30992E+01 0.00000E+00
 -1      3635 2.87850E+01 1.30992E+01 0.00000E+00
 -1      3636 1.29900E+01 2.64469E+01 0.00000E+00
 -1      3637 1.01151E+02 3.39882E+01 0.00000E+00
 -1      3638 2.65350E+01 1.18003E+01 0.00000E+00
 -1      3639 1.42890E+01 1.98172E+01 0.00000E+00
 -1      3640 1.42890E+01 2.12891E+01 0.00000E+00
 -1      3641 1.28808E+02 1.33618E+01 0.00000E+00
 -1      3642 1.35746E+02 1.84362E+01 0.00000E+00
 -1      3643 1.35811E+02 1.71959E+01 0.00000E+00
 -1      3644 1.08285E+02 1.30992E+01 0.00000E+00
 -1      3645 1.06785E+02 1.30992E+01 0.00000E+00
 -1      3646 1.33808E+02 1.92401E+01 0.00000E+00
 -1      3647 1.33911E+02 2.01946E+01 0.00000E+00
 -1      3648 1.34646E+02 2.07507E+01 0.00000E+00
 -1      3649 1.13474E+02 1.28723E+01 0.00000E+00
 -1      3650 1.01757E+02 2.54799E+01 0.00000E+00
 -1      3651 1.02714E+02 2.44905E+01 0.00000E+00
 -1      3652 1.35842E+02 2.45636E+01 0.00000E+00
 -1      3653 1.07251E+02 1.84747E+01 0.00000E+00
 -1      3654 1.07184E+02 1.74255E+01 0.00000E+00
 -1      3655 1.06071E+02 1.87019E+01 0.00000E+00
 -1      3656 1.35842E+02 2.30949E+01 0.00000E+00
 -1      3657 1.02593E+02 2.35939E+01 0.00000E+00
 -1      3658 3.62850E+01 1.30992E+01 0.00000E+00
 -1      3659 3.47850E+01 1.30992E+01 0.00000E+00
 -1      3660 3.40350E+01 1.43982E+01 0.00000E+00
 -1      3661 3.70350E+01 1.43982E+01 0.00000E+00
 -1      3662 1.04943E+02 2.13622E+01 0.00000E+00
 -1      3663 1.04937E+02 2.04085E+01 0.00000E+00
 -1      3664 1.03742E+02 2.20196E+01 0.00000E+00
 -1      3665 1.17817E+02 1.26915E+01 0.00000E+00
 -1      3666 1.02372E+02 2.84347E+01 0.00000E+00
 -1      3667 1.42890E+01 2.86531E+01 0.00000E+00
 -1      3668 1.42890E+01 3.01219E+01 0.00000E+00
 -1      3669 1.36791E+02 1.31223E+01 0.00000E+00
 -1      3670 2.12850E+01 1.30992E+01 0.00000E+00
 -1      3671 1.97850E+01 1.30992E+01 0.00000E+00
 -1      3672 1.55880E+01 2.20281E+01 0.00000E+00
 -1      3673 1.42890E+01 2.27641E+01 0.00000E+00
 -1      3674 1.42890E+01 2.42391E+01 0.00000E+00
 -1      3675 1.35777E+02 1.94606E+01 0.00000E+00
 -1      3676 1.34512E+02 1.87718E+01 0.00000E+00
 -1      3677 1.06035E+02 1.43982E+01 0.00000E+00
 -1      3678 1.36041E+02 1.44213E+01 0.00000E+00
 -1      3679 2.27850E+01 1.30992E+01 0.00000E+00
 -1      3680 2.20350E+01 1.43982E+01 0.00000E+00
 -1      3681 2.42850E+01 1.30992E+01 0.00000E+00
 -1      3682 1.16905E+02 1.21967E+01 0.00000E+00
 -1      3683 1.35777E+02 2.09294E+01 0.00000E+00
 -1      3684 1.35130E+02 2.83571E+01 0.00000E+00
 -1      3685 1.44218E+01 3.14419E+01 0.00000E+00
 -1      3686 1.45545E+01 3.27619E+01 0.00000E+00
 -1      3687 1.57207E+01 3.07075E+01 0.00000E+00
 -1      3688 1.34038E+02 3.26221E+01 0.00000E+00
 -1      3689 1.59000E+01 3.57110E+01 0.00000E+00
 -1      3690 1.66500E+01 3.44120E+01 0.00000E+00
 -1      3691 1.33777E+02 1.82157E+01 0.00000E+00
 -1      3692 1.09601E+02 1.42813E+01 0.00000E+00
 -1      3693 1.08851E+02 1.55803E+01 0.00000E+00
 -1      3694 2.49000E+01 3.31130E+01 0.00000E+00
 -1      3695 2.64000E+01 3.31130E+01 0.00000E+00
 -1      3696 2.79000E+01 3.31130E+01 0.00000E+00
 -1      3697 2.94000E+01 3.31130E+01 0.00000E+00
 -1      3698 2.71500E+01 3.18140E+01 0.00000E+00
 -1      3699 3.09000E+01 3.31130E+01 0.00000E+00
 -1      3700 3.24000E+01 3.31130E+01 0.00000E+00
 -1      3701 3.01500E+01 3.18140E+01 0.00000E+00
 -1      3702 3.39000E+01 3.31130E+01 0.00000E+00
 -1      3703 3.54000E+01 3.31130E+01 0.00000E+00
 -1      3704 3.31500E+01 3.18140E+01 0.00000E+00
 -1      3705 3.69000E+01 3.31130E+01 0.00000E+00
 -1      3706 3.84000E+01 3.31130E+01 0.00000E+00
 -1      3707 3.61500E+01 3.18140E+01 0.00000E+00
 -1      3708 3.99000E+01 3.31130E+01 0.00000E+00
 -1      3709 4.14000E+01 3.31130E+01 0.00000E+00
 -1      3710 3.91500E+01 3.18140E+01 0.00000E+00
 -1      3711 4.29000E+01 3.31130E+01 0.00000E+00
 -1      3712 4.44000E+01 3.31130E+01 0.00000E+00
 -1      3713 4.21500E+01 3.18140E+01 0.00000E+00
 -1      3714 4.59000E+01 3.31130E+01 0.00000E+00
 -1      3715 4.74000E+01 3.31130E+01 0.00000E+00
 -1      3716 4.51500E+01 3.18140E+01 0.00000E+00
 -1      3717 4.89000E+01 3.31130E+01 0.00000E+00
 -1      3718 5.04000E+01 3.31130E+01 0.00000E+00
 -1      3719 4.81500E+01 3.18140E+01 0.00000E+00
 -1      3720 5.19000E+01 3.31130E+01 0.00000E+00
 -1      3721 5.34000E+01 3.31130E+01 0.00000E+00
 -1      3722 5.11500E+01 3.18140E+01 0.00000E+00
 -1      3723 5.49000E+01 3.31130E+01 0.00000E+00
 -1      3724 5.64000E+01 3.31130E+01 0.00000E+00
 -1      3725 5.41500E+01 3.18140E+01 0.00000E+00
 -1      3726 5.79000E+01 3.31130E+01 0.00000E+00
 -1      3727 5.94000E+01 3.31130E+01 0.00000E+00
 -1      3728 5.71500E+01 3.18140E+01 0.00000E+00
 -1      3729 6.09000E+01 3.31130E+01 0.00000E+00
 -1      3730 6.24000E+01 3.31130E+01 0.00000E+00
 -1      3731 6.01500E+01 3.18140E+01 0.00000E+00
 -1      3732 6.39000E+01 3.31130E+01 0.00000E+00
 -1      3733 6.54000E+01 3.31130E+01 0.00000E+00
 -1      3734 6.31500E+01 3.18140E+01 0.00000E+00
 -1      3735 6.69000E+01 3.31130E+01 0.00000E+00
 -1      3736 6.84000E+01 3.31130E+01 0.00000E+00
 -1      3737 6.61500E+01 3.18140E+01 0.00000E+00
 -1      3738 6.99000E+01 3.31130E+01 0.00000E+00
 -1      3739 7.14000E+01 3.31130E+01 0.00000E+00
 -1      3740 6.91500E+01 3.18140E+01 0.00000E+00
 -1      3741 7.29000E+01 3.31130E+01 0.00000E+00
 -1      3742 7.44000E+01 3.31130E+01 0.00000E+00
 -1      3743 7.21500E+01 3.18140E+01 0.00000E+00
 -1      3744 7.59000E+01 3.31130E+01 0.00000E+00
 -1      3745 7.74000E+01 3.31130E+01 0.00000E+00
 -1      3746 7.51500E+01 3.18140E+01 0.00000E+00
 -1      3747 7.89000E+01 3.31130E+01 0.00000E+00
 -1      3748 8.04000E+01 3.31130E+01 0.00000E+00
 -1      3749 7.81500E+01 3.18140E+01 0.00000E+00
 -1      3750 8.19000E+01 3.31130E+01 0.00000E+00
 -1      3751 8.34000E+01 3.31130E+01 0.00000E+00
 -1      3752 8.11500E+01 3.18140E+01 0.00000E+00
 -1      3753 8.49000E+01 3.31130E+01 0.00000E+00
 -1      3754 8.64000E+01 3.31130E+01 0.00000E+00
 -1      3755 8.41500E+01 3.18140E+01 0.00000E+00
 -1      3756 8.79000E+01 3.31130E+01 0.00000E+00
 -1      3757 8.94000E+01 3.31130E+01 0.00000E+00
 -1      3758 8.71500E+01 3.18140E+01 0.00000E+00
 -1      3759 9.09000E+01 3.31130E+01 0.00000E+00
 -1      3760 9.24000E+01 3.31130E+01 0.00000E+00
 -1      3761 9.01500E+01 3.18140E+01 0.00000E+00
 -1      3762 9.39000E+01 3.31130E+01 0.00000E+00
 -1      3763 9.54000E+01 3.31130E+01 0.00000E+00
 -1      3764 9.31500E+01 3.18140E+01 0.00000E+00
 -1      3765 9.69000E+01 3.31130E+01 0.00000E+00
 -1      3766 9.84000E+01 3.31130E+01 0.00000E+00
 -1      3767 9.61500E+01 3.18140E+01 0.00000E+00
 -1      3768 2.72850E+01 1.30992E+01 0.00000E+00
 -1      3769 2.57850E+01 1.30992E+01 0.00000E+00
 -1      3770 2.80350E+01 1.43982E+01 0.00000E+00
 -1      3771 1.42890E+01 1.83453E+01 0.00000E+00
 -1      3772 1.55880E+01 1.90812E+01 0.00000E+00
 -1      3773 1.42890E+01 1.68734E+01 0.00000E+00
 -1      3774 1.00909E+02 3.22680E+01 0.00000E+00
 -1      3775 1.06770E+02 1.60255E+01 0.00000E+00
 -1      3776 1.05270E+02 1.60255E+01 0.00000E+00
 -1      3777 1.42890E+01 2.57102E+01 0.00000E+00
 -1      3778 1.42890E+01 2.71820E+01 0.00000E+00
 -1      3779 1.55880E+01 2.79164E+01 0.00000E+00
 -1      3780 1.55880E+01 2.49742E+01 0.00000E+00
 -1      3781 4.37850E+01 1.56973E+01 0.00000E+00
 -1      3782 4.22850E+01 1.56973E+01 0.00000E+00
 -1      3783 5.57850E+01 1.56973E+01 0.00000E+00
 -1      3784 5.42850E+01 1.56973E+01 0.00000E+00
 -1      3785 5.87850E+01 1.56973E+01 0.00000E+00
 -1      3786 5.72850E+01 1.56973E+01 0.00000E+00
 -1      3787 5.65350E+01 1.69963E+01 0.00000E+00
 -1      3788 6.17850E+01 1.56973E+01 0.00000E+00
 -1      3789 6.02850E+01 1.56973E+01 0.00000E+00
 -1      3790 5.95350E+01 1.69963E+01 0.00000E+00
 -1      3791 6.47850E+01 1.56973E+01 0.00000E+00
 -1      3792 6.32850E+01 1.56973E+01 0.00000E+00
 -1      3793 6.25350E+01 1.69963E+01 0.00000E+00
 -1      3794 6.77850E+01 1.56973E+01 0.00000E+00
 -1      3795 6.62850E+01 1.56973E+01 0.00000E+00
 -1      3796 6.55350E+01 1.69963E+01 0.00000E+00
 -1      3797 7.07850E+01 1.56973E+01 0.00000E+00
 -1      3798 6.92850E+01 1.56973E+01 0.00000E+00
 -1      3799 6.85350E+01 1.69963E+01 0.00000E+00
 -1      3800 7.37850E+01 1.56973E+01 0.00000E+00
 -1      3801 7.22850E+01 1.56973E+01 0.00000E+00
 -1      3802 7.15350E+01 1.69963E+01 0.00000E+00
 -1      3803 7.67850E+01 1.56973E+01 0.00000E+00
 -1      3804 7.52850E+01 1.56973E+01 0.00000E+00
 -1      3805 7.45350E+01 1.69963E+01 0.00000E+00
 -1      3806 7.97850E+01 1.56973E+01 0.00000E+00
 -1      3807 7.82850E+01 1.56973E+01 0.00000E+00
 -1      3808 7.75350E+01 1.69963E+01 0.00000E+00
 -1      3809 8.27850E+01 1.56973E+01 0.00000E+00
 -1      3810 8.12850E+01 1.56973E+01 0.00000E+00
 -1      3811 8.05350E+01 1.69963E+01 0.00000E+00
 -1      3812 8.57850E+01 1.56973E+01 0.00000E+00
 -1      3813 8.42850E+01 1.56973E+01 0.00000E+00
 -1      3814 8.35350E+01 1.69963E+01 0.00000E+00
 -1      3815 8.87850E+01 1.56973E+01 0.00000E+00
 -1      3816 8.72850E+01 1.56973E+01 0.00000E+00
 -1      3817 8.65350E+01 1.69963E+01 0.00000E+00
 -1      3818 9.17850E+01 1.56973E+01 0.00000E+00
 -1      3819 9.02850E+01 1.56973E+01 0.00000E+00
 -1      3820 8.95350E+01 1.69963E+01 0.00000E+00
 -1      3821 9.47850E+01 1.56973E+01 0.00000E+00
 -1      3822 9.32850E+01 1.56973E+01 0.00000E+00
 -1      3823 9.25350E+01 1.69963E+01 0.00000E+00
 -1      3824 9.77850E+01 1.56973E+01 0.00000E+00
 -1      3825 9.62850E+01 1.56973E+01 0.00000E+00
 -1      3826 9.55350E+01 1.69963E+01 0.00000E+00
 -1      3827 1.00785E+02 1.56973E+01 0.00000E+00
 -1      3828 9.92850E+01 1.56973E+01 0.00000E+00
 -1      3829 9.85350E+01 1.69963E+01 0.00000E+00
 -1      3830 1.03777E+02 1.58614E+01 0.00000E+00
 -1      3831 1.02277E+02 1.58614E+01 0.00000E+00
 -1      3832 1.01527E+02 1.71604E+01 0.00000E+00
 -1      3833 1.04512E+02 1.74886E+01 0.00000E+00
 -1      3834 1.35838E+02 1.55213E+01 0.00000E+00
 -1      3835 1.35920E+02 3.39176E+01 0.00000E+00
 -1      3836 1.00842E+02 2.63839E+01 0.00000E+00
 -1      3837 1.00523E+02 2.51184E+01 0.00000E+00
 -1      3838 1.07949E+02 1.57982E+01 0.00000E+00
 -1      3839 1.34508E+02 1.60728E+01 0.00000E+00
 -1      3840 4.97850E+01 1.56973E+01 0.00000E+00
 -1      3841 4.82850E+01 1.56973E+01 0.00000E+00
 -1      3842 1.01432E+02 2.32609E+01 0.00000E+00
 -1      3843 1.02587E+02 2.26402E+01 0.00000E+00
 -1      3844 1.02581E+02 2.16866E+01 0.00000E+00
 -1      3845 1.89000E+01 3.31130E+01 0.00000E+00
 -1      3846 2.04000E+01 3.31130E+01 0.00000E+00
 -1      3847 1.35637E+02 3.48186E+01 0.00000E+00
 -1      3848 5.27850E+01 1.56973E+01 0.00000E+00
 -1      3849 5.12850E+01 1.56973E+01 0.00000E+00
 -1      3850 5.35350E+01 1.69963E+01 0.00000E+00
 -1      3851 1.85578E+01 1.28746E+01 0.00000E+00
 -1      3852 1.72397E+01 1.27248E+01 0.00000E+00
 -1      3853 1.68534E+01 1.37242E+01 0.00000E+00
 -1      3854 1.93078E+01 1.41736E+01 0.00000E+00
 -1      3855 1.32304E+02 1.65411E+01 0.00000E+00
 -1      3856 1.56071E+01 1.55545E+01 0.00000E+00
 -1      3857 4.67850E+01 1.56973E+01 0.00000E+00
 -1      3858 4.52850E+01 1.56973E+01 0.00000E+00
 -1      3859 4.45350E+01 1.69963E+01 0.00000E+00
 -1      3860 4.75350E+01 1.69963E+01 0.00000E+00
 -1      3861 1.01511E+02 2.94562E+01 0.00000E+00
 -1      3862 1.01215E+02 2.77669E+01 0.00000E+00
 -1      3863 1.15405E+02 1.20904E+01 0.00000E+00
 -1      3864 2.19000E+01 3.31130E+01 0.00000E+00
 -1      3865 2.34000E+01 3.31130E+01 0.00000E+00
 -1      3866 2.11500E+01 3.18140E+01 0.00000E+00
 -1      3867 1.43355E+01 3.52741E+01 0.00000E+00
 -1      3868 1.42028E+01 3.39541E+01 0.00000E+00
 -1      3869 1.55018E+01 3.32197E+01 0.00000E+00
 -1      3870 4.07850E+01 1.56973E+01 0.00000E+00
 -1      3871 3.92850E+01 1.56973E+01 0.00000E+00
 -1      3872 4.15350E+01 1.69963E+01 0.00000E+00
 -1      3873 3.17850E+01 1.56973E+01 0.00000E+00
 -1      3874 3.02850E+01 1.56973E+01 0.00000E+00
 -1      3875 2.50350E+01 1.43982E+01 0.00000E+00
 -1      3876 9.99800E+01 2.74054E+01 0.00000E+00
 -1      3877 9.90254E+01 3.25160E+01 0.00000E+00
 -1      3878 1.00785E+02 3.03721E+01 0.00000E+00
 -1      3879 1.68870E+01 2.71809E+01 0.00000E+00
 -1      3880 1.68870E+01 2.86520E+01 0.00000E+00
 -1      3881 1.68343E+01 1.57791E+01 0.00000E+00
 -1      3882 1.09644E+02 1.31121E+01 0.00000E+00
 -1      3883 9.96268E+01 2.97042E+01 0.00000E+00
 -1      3884 1.35879E+02 2.18838E+01 0.00000E+00
 -1      3885 1.00326E+02 2.37448E+01 0.00000E+00
 -1      3886 1.00320E+02 2.27911E+01 0.00000E+00
 -1      3887 5.05350E+01 1.69963E+01 0.00000E+00
 -1      3888 1.70018E+01 3.32197E+01 0.00000E+00
 -1      3889 1.77518E+01 3.19207E+01 0.00000E+00
 -1      3890 1.04758E+02 1.94732E+01 0.00000E+00
 -1      3891 1.04691E+02 1.84240E+01 0.00000E+00
 -1      3892 1.03199E+02 1.82599E+01 0.00000E+00
 -1      3893 1.03556E+02 2.01306E+01 0.00000E+00
 -1      3894 1.68870E+01 1.83453E+01 0.00000E+00
 -1      3895 1.68870E+01 1.98172E+01 0.00000E+00
 -1      3896 1.68870E+01 2.12922E+01 0.00000E+00
 -1      3897 1.68870E+01 2.27672E+01 0.00000E+00
 -1      3898 1.81860E+01 2.05562E+01 0.00000E+00
 -1      3899 3.47850E+01 1.56973E+01 0.00000E+00
 -1      3900 3.32850E+01 1.56973E+01 0.00000E+00
 -1      3901 3.25350E+01 1.69963E+01 0.00000E+00
 -1      3902 2.27850E+01 1.56973E+01 0.00000E+00
 -1      3903 2.12850E+01 1.56973E+01 0.00000E+00
 -1      3904 1.33804E+02 1.65411E+01 0.00000E+00
 -1      3905 1.72530E+01 2.96264E+01 0.00000E+00
 -1      3906 1.73857E+01 3.09464E+01 0.00000E+00
 -1      3907 1.92840E+01 3.08396E+01 0.00000E+00
 -1      3908 1.85520E+01 2.88908E+01 0.00000E+00
 -1      3909 2.41500E+01 3.18140E+01 0.00000E+00
 -1      3910 9.94107E+01 2.46487E+01 0.00000E+00
 -1      3911 2.05350E+01 1.69963E+01 0.00000E+00
 -1      3912 1.97850E+01 1.56973E+01 0.00000E+00
 -1      3913 1.85579E+01 1.54726E+01 0.00000E+00
 -1      3914 2.57850E+01 1.56973E+01 0.00000E+00
 -1      3915 2.42850E+01 1.56973E+01 0.00000E+00
 -1      3916 2.35350E+01 1.69963E+01 0.00000E+00
 -1      3917 2.94000E+01 3.05150E+01 0.00000E+00
 -1      3918 3.09000E+01 3.05150E+01 0.00000E+00
 -1      3919 3.24000E+01 3.05150E+01 0.00000E+00
 -1      3920 3.39000E+01 3.05150E+01 0.00000E+00
 -1      3921 3.16500E+01 2.92160E+01 0.00000E+00
 -1      3922 3.54000E+01 3.05150E+01 0.00000E+00
 -1      3923 3.69000E+01 3.05150E+01 0.00000E+00
 -1      3924 3.46500E+01 2.92160E+01 0.00000E+00
 -1      3925 3.84000E+01 3.05150E+01 0.00000E+00
 -1      3926 3.99000E+01 3.05150E+01 0.00000E+00
 -1      3927 3.76500E+01 2.92160E+01 0.00000E+00
 -1      3928 4.14000E+01 3.05150E+01 0.00000E+00
 -1      3929 4.29000E+01 3.05150E+01 0.00000E+00
 -1      3930 4.06500E+01 2.92160E+01 0.00000E+00
 -1      3931 4.44000E+01 3.05150E+01 0.00000E+00
 -1      3932 4.59000E+01 3.05150E+01 0.00000E+00
 -1      3933 4.36500E+01 2.92160E+01 0.00000E+00
 -1      3934 4.74000E+01 3.05150E+01 0.00000E+00
 -1      3935 4.89000E+01 3.05150E+01 0.00000E+00
 -1      3936 4.66500E+01 2.92160E+01 0.00000E+00
 -1      3937 5.04000E+01 3.05150E+01 0.00000E+00
 -1      3938 5.19000E+01 3.05150E+01 0.00000E+00
 -1      3939 4.96500E+01 2.92160E+01 0.00000E+00
 -1      3940 5.34000E+01 3.05150E+01 0.00000E+00
 -1      3941 5.49000E+01 3.05150E+01 0.00000E+00
 -1      3942 5.26500E+01 2.92160E+01 0.00000E+00
 -1      3943 5.64000E+01 3.05150E+01 0.00000E+00
 -1      3944 5.79000E+01 3.05150E+01 0.00000E+00
 -1      3945 5.56500E+01 2.92160E+01 0.00000E+00
 -1      3946 5.94000E+01 3.05150E+01 0.00000E+00
 -1      3947 6.09000E+01 3.05150E+01 0.00000E+00
 -1      3948 5.86500E+01 2.92160E+01 0.00000E+00
 -1      3949 6.24000E+01 3.05150E+01 0.00000E+00
 -1      3950 6.39000E+01 3.05150E+01 0.00000E+00
 -1      3951 6.16500E+01 2.92160E+01 0.00000E+00
 -1      3952 6.54000E+01 3.05150E+01 0.00000E+00
 -1      3953 6.69000E+01 3.05150E+01 0.00000E+00
 -1      3954 6.46500E+01 2.92160E+01 0.00000E+00
 -1      3955 6.84000E+01 3.05150E+01 0.00000E+00
 -1      3956 6.99000E+01 3.05150E+01 0.00000E+00
 -1      3957 6.76500E+01 2.92160E+01 0.00000E+00
 -1      3958 7.14000E+01 3.05150E+01 0.00000E+00
 -1      3959 7.29000E+01 3.05150E+01 0.00000E+00
 -1      3960 7.06500E+01 2.92160E+01 0.00000E+00
 -1      3961 7.44000E+01 3.05150E+01 0.00000E+00
 -1      3962 7.59000E+01 3.05150E+01 0.00000E+00
 -1      3963 7.36500E+01 2.92160E+01 0.00000E+00
 -1      3964 7.74000E+01 3.05150E+01 0.00000E+00
 -1      3965 7.89000E+01 3.05150E+01 0.00000E+00
 -1      3966 7.66500E+01 2.92160E+01 0.00000E+00
 -1      3967 8.04000E+01 3.05150E+01 0.00000E+00
 -1      3968 8.19000E+01 3.05150E+01 0.00000E+00
 -1      3969 7.96500E+01 2.92160E+01 0.00000E+00
 -1      3970 8.34000E+01 3.05150E+01 0.00000E+00
 -1      3971 8.49000E+01 3.05150E+01 0.00000E+00
 -1      3972 8.26500E+01 2.92160E+01 0.00000E+00
 -1      3973 8.64000E+01 3.05150E+01 0.00000E+00
 -1      3974 8.79000E+01 3.05150E+01 0.00000E+00
 -1      3975 8.56500E+01 2.92160E+01 0.00000E+00
 -1      3976 8.94000E+01 3.05150E+01 0.00000E+00
 -1      3977 9.09000E+01 3.05150E+01 0.00000E+00
 -1      3978 8.86500E+01 2.92160E+01 0.00000E+00
 -1      3979 9.24000E+01 3.05150E+01 0.00000E+00
 -1      3980 9.39000E+01 3.05150E+01 0.00000E+00
 -1      3981 9.16500E+01 2.92160E+01 0.00000E+00
 -1      3982 9.54000E+01 3.05150E+01 0.00000E+00
 -1      3983 9.69000E+01 3.05150E+01 0.00000E+00
 -1      3984 9.46500E+01 2.92160E+01 0.00000E+00
 -1      3985 2.87850E+01 1.56973E+01 0.00000E+00
 -1      3986 2.72850E+01 1.56973E+01 0.00000E+00
 -1      3987 2.65350E+01 1.69963E+01 0.00000E+00
 -1      3988 2.95350E+01 1.69963E+01 0.00000E+00
 -1      3989 1.68870E+01 2.42383E+01 0.00000E+00
 -1      3990 1.68870E+01 2.57094E+01 0.00000E+00
 -1      3991 1.81860E+01 2.35023E+01 0.00000E+00
 -1      3992 6.02850E+01 1.82952E+01 0.00000E+00
 -1      3993 5.87850E+01 1.82952E+01 0.00000E+00
 -1      3994 5.72850E+01 1.82952E+01 0.00000E+00
 -1      3995 5.57850E+01 1.82952E+01 0.00000E+00
 -1      3996 5.80350E+01 1.95942E+01 0.00000E+00
 -1      3997 6.62850E+01 1.82952E+01 0.00000E+00
 -1      3998 6.47850E+01 1.82952E+01 0.00000E+00
 -1      3999 6.92850E+01 1.82952E+01 0.00000E+00
 -1      4000 6.77850E+01 1.82952E+01 0.00000E+00
 -1      4001 6.70350E+01 1.95942E+01 0.00000E+00
 -1      4002 7.22850E+01 1.82952E+01 0.00000E+00
 -1      4003 7.07850E+01 1.82952E+01 0.00000E+00
 -1      4004 7.00350E+01 1.95942E+01 0.00000E+00
 -1      4005 7.52850E+01 1.82952E+01 0.00000E+00
 -1      4006 7.37850E+01 1.82952E+01 0.00000E+00
 -1      4007 7.30350E+01 1.95942E+01 0.00000E+00
 -1      4008 7.82850E+01 1.82952E+01 0.00000E+00
 -1      4009 7.67850E+01 1.82952E+01 0.00000E+00
 -1      4010 7.60350E+01 1.95942E+01 0.00000E+00
 -1      4011 8.12850E+01 1.82952E+01 0.00000E+00
 -1      4012 7.97850E+01 1.82952E+01 0.00000E+00
 -1      4013 7.90350E+01 1.95942E+01 0.00000E+00
 -1      4014 8.42850E+01 1.82952E+01 0.00000E+00
 -1      4015 8.27850E+01 1.82952E+01 0.00000E+00
 -1      4016 8.20350E+01 1.95942E+01 0.00000E+00
 -1      4017 8.72850E+01 1.82952E+01 0.00000E+00
 -1      4018 8.57850E+01 1.82952E+01 0.00000E+00
 -1      4019 8.50350E+01 1.95942E+01 0.00000E+00
 -1      4020 9.02850E+01 1.82952E+01 0.00000E+00
 -1      4021 8.87850E+01 1.82952E+01 0.00000E+00
 -1      4022 8.80350E+01 1.95942E+01 0.00000E+00
 -1      4023 9.32850E+01 1.82952E+01 0.00000E+00
 -1      4024 9.17850E+01 1.82952E+01 0.00000E+00
 -1      4025 9.10350E+01 1.95942E+01 0.00000E+00
 -1      4026 9.62850E+01 1.82952E+01 0.00000E+00
 -1      4027 9.47850E+01 1.82952E+01 0.00000E+00
 -1      4028 9.40350E+01 1.95942E+01 0.00000E+00
 -1      4029 9.92850E+01 1.82952E+01 0.00000E+00
 -1      4030 9.77850E+01 1.82952E+01 0.00000E+00
 -1      4031 9.70350E+01 1.95942E+01 0.00000E+00
 -1      4032 5.12850E+01 1.82952E+01 0.00000E+00
 -1      4033 4.97850E+01 1.82952E+01 0.00000E+00
 -1      4034 9.82452E+01 2.55161E+01 0.00000E+00
 -1      4035 9.80489E+01 2.41425E+01 0.00000E+00
 -1      4036 1.01247E+02 2.13718E+01 0.00000E+00
 -1      4037 1.02402E+02 2.07512E+01 0.00000E+00
 -1      4038 1.02223E+02 1.98158E+01 0.00000E+00
 -1      4039 3.77850E+01 1.56973E+01 0.00000E+00
 -1      4040 3.62850E+01 1.56973E+01 0.00000E+00
 -1      4041 3.55350E+01 1.69963E+01 0.00000E+00
 -1      4042 3.85350E+01 1.69963E+01 0.00000E+00
 -1      4043 5.42850E+01 1.82952E+01 0.00000E+00
 -1      4044 5.27850E+01 1.82952E+01 0.00000E+00
 -1      4045 5.20350E+01 1.95942E+01 0.00000E+00
 -1      4046 5.50350E+01 1.95942E+01 0.00000E+00
 -1      4047 6.32850E+01 1.82952E+01 0.00000E+00
 -1      4048 6.17850E+01 1.82952E+01 0.00000E+00
 -1      4049 6.10350E+01 1.95942E+01 0.00000E+00
 -1      4050 6.40350E+01 1.95942E+01 0.00000E+00
 -1      4051 2.34000E+01 3.05150E+01 0.00000E+00
 -1      4052 2.49000E+01 3.05150E+01 0.00000E+00
 -1      4053 1.73115E+01 1.73028E+01 0.00000E+00
 -1      4054 1.86105E+01 1.80388E+01 0.00000E+00
 -1      4055 1.81860E+01 2.64449E+01 0.00000E+00
 -1      4056 2.05920E+01 3.06773E+01 0.00000E+00
 -1      4057 2.20920E+01 3.06773E+01 0.00000E+00
 -1      4058 2.28420E+01 2.93783E+01 0.00000E+00
 -1      4059 2.02260E+01 2.97029E+01 0.00000E+00
 -1      4060 9.90149E+01 2.84074E+01 0.00000E+00
 -1      4061 9.86419E+01 2.70244E+01 0.00000E+00
 -1      4062 9.88747E+01 2.14347E+01 0.00000E+00
 -1      4063 9.99805E+01 2.09507E+01 0.00000E+00
 -1      4064 2.64000E+01 3.05150E+01 0.00000E+00
 -1      4065 2.79000E+01 3.05150E+01 0.00000E+00
 -1      4066 2.56500E+01 2.92160E+01 0.00000E+00
 -1      4067 2.16105E+01 1.80387E+01 0.00000E+00
 -1      4068 2.01105E+01 1.80387E+01 0.00000E+00
 -1      4069 1.96860E+01 1.90812E+01 0.00000E+00
 -1      4070 2.86500E+01 2.92160E+01 0.00000E+00
 -1      4071 9.82754E+01 3.12170E+01 0.00000E+00
 -1      4072 3.02850E+01 1.82952E+01 0.00000E+00
 -1      4073 2.87850E+01 1.82952E+01 0.00000E+00
 -1      4074 4.52850E+01 1.82952E+01 0.00000E+00
 -1      4075 4.37850E+01 1.82952E+01 0.00000E+00
 -1      4076 9.82888E+01 2.93233E+01 0.00000E+00
 -1      4077 4.90350E+01 1.95942E+01 0.00000E+00
 -1      4078 4.82850E+01 1.82952E+01 0.00000E+00
 -1      4079 4.67850E+01 1.82952E+01 0.00000E+00
 -1      4080 1.96860E+01 2.05562E+01 0.00000E+00
 -1      4081 3.32850E+01 1.82952E+01 0.00000E+00
 -1      4082 3.17850E+01 1.82952E+01 0.00000E+00
 -1      4083 3.10350E+01 1.95942E+01 0.00000E+00
 -1      4084 2.46105E+01 1.80387E+01 0.00000E+00
 -1      4085 2.31105E+01 1.80387E+01 0.00000E+00
 -1      4086 2.26859E+01 1.90812E+01 0.00000E+00
 -1      4087 9.75254E+01 2.99180E+01 0.00000E+00
 -1      4088 1.94850E+01 2.57092E+01 0.00000E+00
 -1      4089 1.94850E+01 2.71807E+01 0.00000E+00
 -1      4090 1.96725E+01 2.79546E+01 0.00000E+00
 -1      4091 2.00385E+01 2.89290E+01 0.00000E+00
 -1      4092 2.13465E+01 2.87667E+01 0.00000E+00
 -1      4093 2.09715E+01 2.72188E+01 0.00000E+00
 -1      4094 9.77118E+01 2.27886E+01 0.00000E+00
 -1      4095 9.73721E+01 2.09482E+01 0.00000E+00
 -1      4096 9.58721E+01 2.09482E+01 0.00000E+00
 -1      4097 9.65463E+01 2.36560E+01 0.00000E+00
 -1      4098 9.72801E+01 2.65182E+01 0.00000E+00
 -1      4099 9.69134E+01 2.86213E+01 0.00000E+00
 -1      4100 4.22850E+01 1.82952E+01 0.00000E+00
 -1      4101 4.07850E+01 1.82952E+01 0.00000E+00
 -1      4102 4.30350E+01 1.95942E+01 0.00000E+00
 -1      4103 4.60350E+01 1.95942E+01 0.00000E+00
 -1      4104 2.74477E+01 1.81670E+01 0.00000E+00
 -1      4105 2.59477E+01 1.81670E+01 0.00000E+00
 -1      4106 2.55232E+01 1.92095E+01 0.00000E+00
 -1      4107 2.81977E+01 1.94660E+01 0.00000E+00
 -1      4108 3.39000E+01 2.79170E+01 0.00000E+00
 -1      4109 3.54000E+01 2.79170E+01 0.00000E+00
 -1      4110 3.69000E+01 2.79170E+01 0.00000E+00
 -1      4111 3.84000E+01 2.79170E+01 0.00000E+00
 -1      4112 3.61500E+01 2.66180E+01 0.00000E+00
 -1      4113 3.99000E+01 2.79170E+01 0.00000E+00
 -1      4114 4.14000E+01 2.79170E+01 0.00000E+00
 -1      4115 3.91500E+01 2.66180E+01 0.00000E+00
 -1      4116 4.29000E+01 2.79170E+01 0.00000E+00
 -1      4117 4.44000E+01 2.79170E+01 0.00000E+00
 -1      4118 4.21500E+01 2.66180E+01 0.00000E+00
 -1      4119 4.59000E+01 2.79170E+01 0.00000E+00
 -1      4120 4.74000E+01 2.79170E+01 0.00000E+00
 -1      4121 4.51500E+01 2.66180E+01 0.00000E+00
 -1      4122 4.89000E+01 2.79170E+01 0.00000E+00
 -1      4123 5.04000E+01 2.79170E+01 0.00000E+00
 -1      4124 4.81500E+01 2.66180E+01 0.00000E+00
 -1      4125 5.19000E+01 2.79170E+01 0.00000E+00
 -1      4126 5.34000E+01 2.79170E+01 0.00000E+00
 -1      4127 5.11500E+01 2.66180E+01 0.00000E+00
 -1      4128 5.49000E+01 2.79170E+01 0.00000E+00
 -1      4129 5.64000E+01 2.79170E+01 0.00000E+00
 -1      4130 5.41500E+01 2.66180E+01 0.00000E+00
 -1      4131 5.79000E+01 2.79170E+01 0.00000E+00
 -1      4132 5.94000E+01 2.79170E+01 0.00000E+00
 -1      4133 5.71500E+01 2.66180E+01 0.00000E+00
 -1      4134 6.09000E+01 2.79170E+01 0.00000E+00
 -1      4135 6.24000E+01 2.79170E+01 0.00000E+00
 -1      4136 6.01500E+01 2.66180E+01 0.00000E+00
 -1      4137 6.39000E+01 2.79170E+01 0.00000E+00
 -1      4138 6.54000E+01 2.79170E+01 0.00000E+00
 -1      4139 6.31500E+01 2.66180E+01 0.00000E+00
 -1      4140 6.69000E+01 2.79170E+01 0.00000E+00
 -1      4141 6.84000E+01 2.79170E+01 0.00000E+00
 -1      4142 6.61500E+01 2.66180E+01 0.00000E+00
 -1      4143 6.99000E+01 2.79170E+01 0.00000E+00
 -1      4144 7.14000E+01 2.79170E+01 0.00000E+00
 -1      4145 6.91500E+01 2.66180E+01 0.00000E+00
 -1      4146 7.29000E+01 2.79170E+01 0.00000E+00
 -1      4147 7.44000E+01 2.79170E+01 0.00000E+00
 -1      4148 7.21500E+01 2.66180E+01 0.00000E+00
 -1      4149 7.59000E+01 2.79170E+01 0.00000E+00
 -1      4150 7.74000E+01 2.79170E+01 0.00000E+00
 -1      4151 7.51500E+01 2.66180E+01 0.00000E+00
 -1      4152 7.89000E+01 2.79170E+01 0.00000E+00
 -1      4153 8.04000E+01 2.79170E+01 0.00000E+00
 -1      4154 7.81500E+01 2.66180E+01 0.00000E+00
 -1      4155 8.19000E+01 2.79170E+01 0.00000E+00
 -1      4156 8.34000E+01 2.79170E+01 0.00000E+00
 -1      4157 8.11500E+01 2.66180E+01 0.00000E+00
 -1      4158 8.49000E+01 2.79170E+01 0.00000E+00
 -1      4159 8.64000E+01 2.79170E+01 0.00000E+00
 -1      4160 8.41500E+01 2.66180E+01 0.00000E+00
 -1      4161 8.79000E+01 2.79170E+01 0.00000E+00
 -1      4162 8.94000E+01 2.79170E+01 0.00000E+00
 -1      4163 8.71500E+01 2.66180E+01 0.00000E+00
 -1      4164 9.09000E+01 2.79170E+01 0.00000E+00
 -1      4165 9.24000E+01 2.79170E+01 0.00000E+00
 -1      4166 9.01500E+01 2.66180E+01 0.00000E+00
 -1      4167 9.39067E+01 2.82691E+01 0.00000E+00
 -1      4168 9.54067E+01 2.82691E+01 0.00000E+00
 -1      4169 9.61702E+01 2.76744E+01 0.00000E+00
 -1      4170 9.31567E+01 2.69701E+01 0.00000E+00
 -1      4171 5.87850E+01 2.08932E+01 0.00000E+00
 -1      4172 5.72850E+01 2.08932E+01 0.00000E+00
 -1      4173 7.07850E+01 2.08932E+01 0.00000E+00
 -1      4174 6.92850E+01 2.08932E+01 0.00000E+00
 -1      4175 6.77850E+01 2.08932E+01 0.00000E+00
 -1      4176 6.62850E+01 2.08932E+01 0.00000E+00
 -1      4177 6.85350E+01 2.21922E+01 0.00000E+00
 -1      4178 7.67850E+01 2.08932E+01 0.00000E+00
 -1      4179 7.52850E+01 2.08932E+01 0.00000E+00
 -1      4180 7.97850E+01 2.08932E+01 0.00000E+00
 -1      4181 7.82850E+01 2.08932E+01 0.00000E+00
 -1      4182 7.75350E+01 2.21922E+01 0.00000E+00
 -1      4183 8.27850E+01 2.08932E+01 0.00000E+00
 -1      4184 8.12850E+01 2.08932E+01 0.00000E+00
 -1      4185 8.05350E+01 2.21922E+01 0.00000E+00
 -1      4186 8.57850E+01 2.08932E+01 0.00000E+00
 -1      4187 8.42850E+01 2.08932E+01 0.00000E+00
 -1      4188 8.35350E+01 2.21922E+01 0.00000E+00
 -1      4189 8.87850E+01 2.08932E+01 0.00000E+00
 -1      4190 8.72850E+01 2.08932E+01 0.00000E+00
 -1      4191 8.65350E+01 2.21922E+01 0.00000E+00
 -1      4192 9.17850E+01 2.08932E+01 0.00000E+00
 -1      4193 9.02850E+01 2.08932E+01 0.00000E+00
 -1      4194 8.95350E+01 2.21922E+01 0.00000E+00
 -1      4195 9.45785E+01 2.09207E+01 0.00000E+00
 -1      4196 9.30785E+01 2.09207E+01 0.00000E+00
 -1      4197 9.23285E+01 2.22197E+01 0.00000E+00
 -1      4198 9.49156E+01 2.22746E+01 0.00000E+00
 -1      4199 1.01706E+02 1.80957E+01 0.00000E+00
 -1      4200 1.00956E+02 1.93947E+01 0.00000E+00
 -1      4201 1.94850E+01 2.27670E+01 0.00000E+00
 -1      4202 1.94850E+01 2.42381E+01 0.00000E+00
 -1      4203 2.07840E+01 2.49738E+01 0.00000E+00
 -1      4204 9.57734E+01 2.61661E+01 0.00000E+00
 -1      4205 2.49000E+01 2.79170E+01 0.00000E+00
 -1      4206 2.64000E+01 2.79170E+01 0.00000E+00
 -1      4207 2.09850E+01 2.12920E+01 0.00000E+00
 -1      4208 2.79000E+01 2.79170E+01 0.00000E+00
 -1      4209 2.94000E+01 2.79170E+01 0.00000E+00
 -1      4210 2.71500E+01 2.66180E+01 0.00000E+00
 -1      4211 7.37850E+01 2.08932E+01 0.00000E+00
 -1      4212 7.22850E+01 2.08932E+01 0.00000E+00
 -1      4213 7.15350E+01 2.21922E+01 0.00000E+00
 -1      4214 7.45350E+01 2.21922E+01 0.00000E+00
 -1      4215 3.09000E+01 2.79170E+01 0.00000E+00
 -1      4216 3.24000E+01 2.79170E+01 0.00000E+00
 -1      4217 3.31500E+01 2.66180E+01 0.00000E+00
 -1      4218 3.01500E+01 2.66180E+01 0.00000E+00
 -1      4219 2.40041E+01 2.02507E+01 0.00000E+00
 -1      4220 2.25041E+01 2.02507E+01 0.00000E+00
 -1      4221 2.23031E+01 2.24615E+01 0.00000E+00
 -1      4222 2.53413E+01 2.03790E+01 0.00000E+00
 -1      4223 5.65350E+01 2.21922E+01 0.00000E+00
 -1      4224 5.57850E+01 2.08932E+01 0.00000E+00
 -1      4225 5.42850E+01 2.08932E+01 0.00000E+00
 -1      4226 4.67850E+01 2.08932E+01 0.00000E+00
 -1      4227 4.52850E+01 2.08932E+01 0.00000E+00
 -1      4228 4.00350E+01 1.95942E+01 0.00000E+00
 -1      4229 3.92850E+01 1.82952E+01 0.00000E+00
 -1      4230 3.77850E+01 1.82952E+01 0.00000E+00
 -1      4231 4.97850E+01 2.08932E+01 0.00000E+00
 -1      4232 4.82850E+01 2.08932E+01 0.00000E+00
 -1      4233 4.75350E+01 2.21922E+01 0.00000E+00
 -1      4234 6.17850E+01 2.08932E+01 0.00000E+00
 -1      4235 6.02850E+01 2.08932E+01 0.00000E+00
 -1      4236 5.95350E+01 2.21922E+01 0.00000E+00
 -1      4237 6.55350E+01 2.21922E+01 0.00000E+00
 -1      4238 6.47850E+01 2.08932E+01 0.00000E+00
 -1      4239 6.32850E+01 2.08932E+01 0.00000E+00
 -1      4240 2.23031E+01 2.39326E+01 0.00000E+00
 -1      4241 2.23031E+01 2.54037E+01 0.00000E+00
 -1      4242 2.38222E+01 2.28913E+01 0.00000E+00
 -1      4243 3.62850E+01 1.82952E+01 0.00000E+00
 -1      4244 3.47850E+01 1.82952E+01 0.00000E+00
 -1      4245 3.70350E+01 1.95942E+01 0.00000E+00
 -1      4246 2.47361E+01 2.54902E+01 0.00000E+00
 -1      4247 2.32170E+01 2.65315E+01 0.00000E+00
 -1      4248 3.40350E+01 1.95942E+01 0.00000E+00
 -1      4249 3.17850E+01 2.08932E+01 0.00000E+00
 -1      4250 3.02850E+01 2.08932E+01 0.00000E+00
 -1      4251 4.45350E+01 2.21922E+01 0.00000E+00
 -1      4252 4.37850E+01 2.08932E+01 0.00000E+00
 -1      4253 4.22850E+01 2.08932E+01 0.00000E+00
 -1      4254 9.42965E+01 2.58911E+01 0.00000E+00
 -1      4255 9.54065E+01 2.47350E+01 0.00000E+00
 -1      4256 9.50694E+01 2.33811E+01 0.00000E+00
 -1      4257 9.27898E+01 2.55390E+01 0.00000E+00
 -1      4258 9.98016E+01 2.00154E+01 0.00000E+00
 -1      4259 2.89477E+01 2.07650E+01 0.00000E+00
 -1      4260 2.76105E+01 2.06367E+01 0.00000E+00
 -1      4261 2.96977E+01 2.20640E+01 0.00000E+00
 -1      4262 5.27850E+01 2.08932E+01 0.00000E+00
 -1      4263 5.12850E+01 2.08932E+01 0.00000E+00
 -1      4264 5.35350E+01 2.21922E+01 0.00000E+00
 -1      4265 5.05350E+01 2.21922E+01 0.00000E+00
 -1      4266 6.88425E+01 2.44051E+01 0.00000E+00
 -1      4267 6.73425E+01 2.44051E+01 0.00000E+00
 -1      4268 3.54000E+01 2.53190E+01 0.00000E+00
 -1      4269 3.69000E+01 2.53190E+01 0.00000E+00
 -1      4270 3.84000E+01 2.53190E+01 0.00000E+00
 -1      4271 3.99000E+01 2.53190E+01 0.00000E+00
 -1      4272 3.76500E+01 2.40200E+01 0.00000E+00
 -1      4273 4.18425E+01 2.44051E+01 0.00000E+00
 -1      4274 4.33425E+01 2.44051E+01 0.00000E+00
 -1      4275 4.48425E+01 2.44051E+01 0.00000E+00
 -1      4276 4.63425E+01 2.44051E+01 0.00000E+00
 -1      4277 4.78425E+01 2.44051E+01 0.00000E+00
 -1      4278 4.93425E+01 2.44051E+01 0.00000E+00
 -1      4279 5.08425E+01 2.44051E+01 0.00000E+00
 -1      4280 5.23425E+01 2.44051E+01 0.00000E+00
 -1      4281 5.38425E+01 2.44051E+01 0.00000E+00
 -1      4282 5.53425E+01 2.44051E+01 0.00000E+00
 -1      4283 5.68425E+01 2.44051E+01 0.00000E+00
 -1      4284 5.83425E+01 2.44051E+01 0.00000E+00
 -1      4285 5.98425E+01 2.44051E+01 0.00000E+00
 -1      4286 6.13425E+01 2.44051E+01 0.00000E+00
 -1      4287 6.28425E+01 2.44051E+01 0.00000E+00
 -1      4288 6.43425E+01 2.44051E+01 0.00000E+00
 -1      4289 6.58425E+01 2.44051E+01 0.00000E+00
 -1      4290 7.03425E+01 2.44051E+01 0.00000E+00
 -1      4291 7.18425E+01 2.44051E+01 0.00000E+00
 -1      4292 7.33425E+01 2.44051E+01 0.00000E+00
 -1      4293 7.48425E+01 2.44051E+01 0.00000E+00
 -1      4294 7.63425E+01 2.44051E+01 0.00000E+00
 -1      4295 7.78425E+01 2.44051E+01 0.00000E+00
 -1      4296 7.93425E+01 2.44051E+01 0.00000E+00
 -1      4297 8.08425E+01 2.44051E+01 0.00000E+00
 -1      4298 8.23425E+01 2.44051E+01 0.00000E+00
 -1      4299 8.38425E+01 2.44051E+01 0.00000E+00
 -1      4300 8.53425E+01 2.44051E+01 0.00000E+00
 -1      4301 8.68425E+01 2.44051E+01 0.00000E+00
 -1      4302 8.83425E+01 2.44051E+01 0.00000E+00
 -1      4303 8.98425E+01 2.44051E+01 0.00000E+00
 -1      4304 9.13425E+01 2.44051E+01 0.00000E+00
 -1      4305 2.24670E+01 2.78305E+01 0.00000E+00
 -1      4306 2.52884E+01 2.41085E+01 0.00000E+00
 -1      4307 2.62023E+01 2.52363E+01 0.00000E+00
 -1      4308 3.47850E+01 2.08932E+01 0.00000E+00
 -1      4309 3.32850E+01 2.08932E+01 0.00000E+00
 -1      4310 3.25350E+01 2.21922E+01 0.00000E+00
 -1      4311 2.77023E+01 2.52363E+01 0.00000E+00
 -1      4312 2.26545E+01 2.86044E+01 0.00000E+00
 -1      4313 4.03425E+01 2.18071E+01 0.00000E+00
 -1      4314 3.88425E+01 2.18071E+01 0.00000E+00
 -1      4315 4.10925E+01 2.31061E+01 0.00000E+00
 -1      4316 2.52884E+01 2.26374E+01 0.00000E+00
 -1      4317 9.24823E+01 2.33261E+01 0.00000E+00
 -1      4318 2.98425E+01 2.44051E+01 0.00000E+00
 -1      4319 3.13425E+01 2.44051E+01 0.00000E+00
 -1      4320 3.28425E+01 2.44051E+01 0.00000E+00
 -1      4321 3.43425E+01 2.44051E+01 0.00000E+00
 -1      4322 6.25350E+01 2.21922E+01 0.00000E+00
 -1      4323 3.73425E+01 2.18071E+01 0.00000E+00
 -1      4324 3.58425E+01 2.18071E+01 0.00000E+00
 -1      4325 3.50925E+01 2.31061E+01 0.00000E+00
 -1      4326 2.60913E+01 2.16780E+01 0.00000E+00
 -1      4327 2.88948E+01 2.30234E+01 0.00000E+00
 -1      4328 9.37758E+01 2.33536E+01 0.00000E+00
 -1      4329 2.75575E+01 2.28952E+01 0.00000E+00
 -3
    3C                          2083                                     1
 -1       164    8    0    1
 -2         6         7        23      1124      1287      1141
 -1       165    8    0    1
 -2         7         8       164      1125      1288      1289
 -1       166    8    0    1
 -2         8         9       165      1126      1290      1291
 -1       167    8    0    1
 -2         8       165       164      1291      1292      1288
 -1       168    8    0    1
 -2         9        10       166      1127      1293      1294
 -1       169    8    0    1
 -2         9       166       165      1294      1295      1290
 -1       170    8    0    1
 -2        10        11       167      1128      1296      1297
 -1       171    8    0    1
 -2        10       167       166      1297      1298      1293
 -1       172    8    0    1
 -2        11        12       168      1129      1299      1300
 -1       173    8    0    1
 -2        11       168       167      1300      1301      1296
 -1       174    8    0    1
 -2        12        13       169      1130      1302      1303
 -1       175    8    0    1
 -2        12       169       168      1303      1304      1299
 -1       176    8    0    1
 -2        13        14       170      1131      1305      1306
 -1       177    8    0    1
 -2        13       170       169      1306      1307      1302
 -1       178    8    0    1
 -2        14        15       171      1132      1308      1309
 -1       179    8    0    1
 -2        14       171       170      1309      1310      1305
 -1       180    8    0    1
 -2        15        16       172      1133      1311      1312
 -1       181    8    0    1
 -2        15       172       171      1312      1313      1308
 -1       182    8    0    1
 -2        16        17       173      1134      1314      1315
 -1       183    8    0    1
 -2        16       173       172      1315      1316      1311
 -1       184    8    0    1
 -2        17        18       174      1135      1317      1318
 -1       185    8    0    1
 -2        17       174       173      1318      1319      1314
 -1       186    8    0    1
 -2        18        19       175      1136      1320      1321
 -1       187    8    0    1
 -2        18       175       174      1321      1322      1317
 -1       188    8    0    1
 -2        19        20       176      1137      1323      1324
 -1       189    8    0    1
 -2        19       176       175      1324      1325      1320
 -1       190    8    0    1
 -2        20        21       177      1138      1326      1327
 -1       191    8    0    1
 -2        20       177       176      1327      1328      1323
 -1       192    8    0    1
 -2        21        22       178      1139      1329      1330
 -1       193    8    0    1
 -2        21       178       177      1330      1331      1326
 -1       194    8    0    1
 -2        22         5       179      1140      1332      1333
 -1       195    8    0    1
 -2       178        22       179      1329      1333      1334
 -1       196    8    0    1
 -2         5        72       179      1191      1335      1332
 -1       197    8    0    1
 -2        24        23       180      1142      1336      1337
 -1       198    8    0    1
 -2        25        24       181      1143      1338      1339
 -1       199    8    0    1
 -2        24       180       181      1337      1340      1338
 -1       200    8    0    1
 -2        26        25       182      1144      1341      1342
 -1       201    8    0    1
 -2        25       181       182      1339      1343      1341
 -1       202    8    0    1
 -2        27        26       183      1145      1344      1345
 -1       203    8    0    1
 -2        26       182       183      1342      1346      1344
 -1       204    8    0    1
 -2        28        27       184      1146      1347      1348
 -1       205    8    0    1
 -2        27       183       184      1345      1349      1347
 -1       206    8    0    1
 -2        29        28       185      1147      1350      1351
 -1       207    8    0    1
 -2        28       184       185      1348      1352      1350
 -1       208    8    0    1
 -2        30        29       186      1148      1353      1354
 -1       209    8    0    1
 -2        29       185       186      1351      1355      1353
 -1       210    8    0    1
 -2        31        30       187      1149      1356      1357
 -1       211    8    0    1
 -2        30       186       187      1354      1358      1356
 -1       212    8    0    1
 -2        32        31       188      1150      1359      1360
 -1       213    8    0    1
 -2        31       187       188      1357      1361      1359
 -1       214    8    0    1
 -2        33        32       189      1151      1362      1363
 -1       215    8    0    1
 -2        32       188       189      1360      1364      1362
 -1       216    8    0    1
 -2        34        33       190      1152      1365      1366
 -1       217    8    0    1
 -2        33       189       190      1363      1367      1365
 -1       218    8    0    1
 -2        35        34       191      1153      1368      1369
 -1       219    8    0    1
 -2        34       190       191      1366      1370      1368
 -1       220    8    0    1
 -2        36        35       192      1154      1371      1372
 -1       221    8    0    1
 -2        35       191       192      1369      1373      1371
 -1       222    8    0    1
 -2        37        36       193      1155      1374      1375
 -1       223    8    0    1
 -2        36       192       193      1372      1376      1374
 -1       224    8    0    1
 -2        38        37       194      1156      1377      1378
 -1       225    8    0    1
 -2        37       193       194      1375      1379      1377
 -1       226    8    0    1
 -2        39        38       195      1157      1380      1381
 -1       227    8    0    1
 -2        38       194       195      1378      1382      1380
 -1       228    8    0    1
 -2        40        39       196      1158      1383      1384
 -1       229    8    0    1
 -2        39       195       196      1381      1385      1383
 -1       230    8    0    1
 -2        41        40       197      1159      1386      1387
 -1       231    8    0    1
 -2        40       196       197      1384      1388      1386
 -1       232    8    0    1
 -2        42        41       198      1160      1389      1390
 -1       233    8    0    1
 -2        41       197       198      1387      1391      1389
 -1       234    8    0    1
 -2        43        42       199      1161      1392      1393
 -1       235    8    0    1
 -2        42       198       199      1390      1394      1392
 -1       236    8    0    1
 -2        44        43       200      1162      1395      1396
 -1       237    8    0    1
 -2        43       199       200      1393      1397      1395
 -1       238    8    0    1
 -2        45        44       201      1163      1398      1399
 -1       239    8    0    1
 -2        44       200       201      1396      1400      1398
 -1       240    8    0    1
 -2        46        45       202      1164      1401      1402
 -1       241    8    0    1
 -2        45       201       202      1399      1403      1401
 -1       242    8    0    1
 -2        47        46       203      1165      1404      1405
 -1       243    8    0    1
 -2        46       202       203      1402      1406      1404
 -1       244    8    0    1
 -2        48        47       204      1166      1407      1408
 -1       245    8    0    1
 -2        47       203       204      1405      1409      1407
 -1       246    8    0    1
 -2        49        48       205      1167      1410      1411
 -1       247    8    0    1
 -2        48       204       205      1408      1412      1410
 -1       248    8    0    1
 -2        50        49       206      1168      1413      1414
 -1       249    8    0    1
 -2        49       205       206      1411      1415      1413
 -1       250    8    0    1
 -2        51        50       207      1169      1416      1417
 -1       251    8    0    1
 -2        50       206       207      1414      1418      1416
 -1       252    8    0    1
 -2        52        51       208      1170      1419      1420
 -1       253    8    0    1
 -2        51       207       208      1417      1421      1419
 -1       254    8    0    1
 -2        53        52       209      1171      1422      1423
 -1       255    8    0    1
 -2        52       208       209      1420      1424      1422
 -1       256    8    0    1
 -2        54        53       210      1172      1425      1426
 -1       257    8    0    1
 -2        53       209       210      1423      1427      1425
 -1       258    8    0    1
 -2        55        54       211      1173      1428      1429
 -1       259    8    0    1
 -2        54       210       211      1426      1430      1428
 -1       260    8    0    1
 -2        56        55       212      1174      1431      1432
 -1       261    8    0    1
 -2        55       211       212      1429      1433      1431
 -1       262    8    0    1
 -2        57        56       213      1175      1434      1435
 -1       263    8    0    1
 -2        56       212       213      1432      1436      1434
 -1       264    8    0    1
 -2        58        57       214      1176      1437      1438
 -1       265    8    0    1
 -2        57       213       214      1435      1439      1437
 -1       266    8    0    1
 -2        59        58       215      1177      1440      1441
 -1       267    8    0    1
 -2        58       214       215      1438      1442      1440
 -1       268    8    0    1
 -2        60        59       216      1178      1443      1444
 -1       269    8    0    1
 -2        59       215       216      1441      1445      1443
 -1       270    8    0    1
 -2        61        60       217      1179      1446      1447
 -1       271    8    0    1
 -2        60       216       217      1444      1448      1446
 -1       272    8    0    1
 -2        62        61       218      1180      1449      1450
 -1       273    8    0    1
 -2        61       217       218      1447      1451      1449
 -1       274    8    0    1
 -2        63        62       219      1181      1452      1453
 -1       275    8    0    1
 -2        62       218       219      1450      1454      1452
 -1       276    8    0    1
 -2        64        63       220      1182      1455      1456
 -1       277    8    0    1
 -2        63       219       220      1453      1457      1455
 -1       278    8    0    1
 -2        65        64       221      1183      1458      1459
 -1       279    8    0    1
 -2        64       220       221      1456      1460      1458
 -1       280    8    0    1
 -2        66        65       222      1184      1461      1462
 -1       281    8    0    1
 -2        65       221       222      1459      1463      1461
 -1       282    8    0    1
 -2        67        66       223      1185      1464      1465
 -1       283    8    0    1
 -2        66       222       223      1462      1466      1464
 -1       284    8    0    1
 -2        68        67       224      1186      1467      1468
 -1       285    8    0    1
 -2        67       223       224      1465      1469      1467
 -1       286    8    0    1
 -2        69        68       225      1187      1470      1471
 -1       287    8    0    1
 -2        68       224       225      1468      1472      1470
 -1       288    8    0    1
 -2        70        69       226      1188      1473      1474
 -1       289    8    0    1
 -2        69       225       226      1471      1475      1473
 -1       290    8    0    1
 -2        71        70       227      1189      1476      1477
 -1       291    8    0    1
 -2        70       226       227      1474      1478      1476
 -1       292    8    0    1
 -2         4        71       136      1190      1479      1257
 -1       293    8    0    1
 -2       136        71       227      1479      1477      1480
 -1       294    8    0    1
 -2        72        73       228      1192      1481      1482
 -1       295    8    0    1
 -2        72       228       179      1482      1483      1335
 -1       296    8    0    1
 -2        73        74       229      1193      1484      1485
 -1       297    8    0    1
 -2        73       229       228      1485      1486      1481
 -1       298    8    0    1
 -2        74        75       230      1194      1487      1488
 -1       299    8    0    1
 -2        74       230       229      1488      1489      1484
 -1       300    8    0    1
 -2        75        76       231      1195      1490      1491
 -1       301    8    0    1
 -2        75       231       230      1491      1492      1487
 -1       302    8    0    1
 -2        76        77       232      1196      1493      1494
 -1       303    8    0    1
 -2        76       232       231      1494      1495      1490
 -1       304    8    0    1
 -2        77        78       233      1197      1496      1497
 -1       305    8    0    1
 -2        77       233       232      1497      1498      1493
 -1       306    8    0    1
 -2        78        79       234      1198      1499      1500
 -1       307    8    0    1
 -2        78       234       233      1500      1501      1496
 -1       308    8    0    1
 -2        79        80       235      1199      1502      1503
 -1       309    8    0    1
 -2        79       235       234      1503      1504      1499
 -1       310    8    0    1
 -2        80        81       236      1200      1505      1506
 -1       311    8    0    1
 -2        80       236       235      1506      1507      1502
 -1       312    8    0    1
 -2        81        82       237      1201      1508      1509
 -1       313    8    0    1
 -2        81       237       236      1509      1510      1505
 -1       314    8    0    1
 -2        82        83       238      1202      1511      1512
 -1       315    8    0    1
 -2        82       238       237      1512      1513      1508
 -1       316    8    0    1
 -2        83        84       239      1203      1514      1515
 -1       317    8    0    1
 -2        83       239       238      1515      1516      1511
 -1       318    8    0    1
 -2        84        85       240      1204      1517      1518
 -1       319    8    0    1
 -2        84       240       239      1518      1519      1514
 -1       320    8    0    1
 -2        85        86       241      1205      1520      1521
 -1       321    8    0    1
 -2        85       241       240      1521      1522      1517
 -1       322    8    0    1
 -2        86        87       242      1206      1523      1524
 -1       323    8    0    1
 -2        86       242       241      1524      1525      1520
 -1       324    8    0    1
 -2        87        88       243      1207      1526      1527
 -1       325    8    0    1
 -2        87       243       242      1527      1528      1523
 -1       326    8    0    1
 -2        88        89       244      1208      1529      1530
 -1       327    8    0    1
 -2        88       244       243      1530      1531      1526
 -1       328    8    0    1
 -2        89        90       245      1209      1532      1533
 -1       329    8    0    1
 -2        89       245       244      1533      1534      1529
 -1       330    8    0    1
 -2        90        91       246      1210      1535      1536
 -1       331    8    0    1
 -2        90       246       245      1536      1537      1532
 -1       332    8    0    1
 -2        91        92       247      1211      1538      1539
 -1       333    8    0    1
 -2        91       247       246      1539      1540      1535
 -1       334    8    0    1
 -2        92        93       248      1212      1541      1542
 -1       335    8    0    1
 -2        92       248       247      1542      1543      1538
 -1       336    8    0    1
 -2        93        94       249      1213      1544      1545
 -1       337    8    0    1
 -2        93       249       248      1545      1546      1541
 -1       338    8    0    1
 -2        94        95       250      1214      1547      1548
 -1       339    8    0    1
 -2        94       250       249      1548      1549      1544
 -1       340    8    0    1
 -2        95        96       251      1215      1550      1551
 -1       341    8    0    1
 -2        95       251       250      1551      1552      1547
 -1       342    8    0    1
 -2        96        97       252      1216      1553      1554
 -1       343    8    0    1
 -2        96       252       251      1554      1555      1550
 -1       344    8    0    1
 -2        97        98       253      1217      1556      1557
 -1       345    8    0    1
 -2        97       253       252      1557      1558      1553
 -1       346    8    0    1
 -2        98        99       254      1218      1559      1560
 -1       347    8    0    1
 -2        98       254       253      1560      1561      1556
 -1       348    8    0    1
 -2        99       100       255      1219      1562      1563
 -1       349    8    0    1
 -2        99       255       254      1563      1564      1559
 -1       350    8    0    1
 -2       100       101       256      1220      1565      1566
 -1       351    8    0    1
 -2       100       256       255      1566      1567      1562
 -1       352    8    0    1
 -2       101       102       257      1221      1568      1569
 -1       353    8    0    1
 -2       101       257       256      1569      1570      1565
 -1       354    8    0    1
 -2       102       103       258      1222      1571      1572
 -1       355    8    0    1
 -2       102       258       257      1572      1573      1568
 -1       356    8    0    1
 -2       103       104       259      1223      1574      1575
 -1       357    8    0    1
 -2       103       259       258      1575      1576      1571
 -1       358    8    0    1
 -2       104       105       260      1224      1577      1578
 -1       359    8    0    1
 -2       104       260       259      1578      1579      1574
 -1       360    8    0    1
 -2       105       106       261      1225      1580      1581
 -1       361    8    0    1
 -2       105       261       260      1581      1582      1577
 -1       362    8    0    1
 -2       106       107       262      1226      1583      1584
 -1       363    8    0    1
 -2       106       262       261      1584      1585      1580
 -1       364    8    0    1
 -2       107       108       263      1227      1586      1587
 -1       365    8    0    1
 -2       107       263       262      1587      1588      1583
 -1       366    8    0    1
 -2       108       109       264      1228      1589      1590
 -1       367    8    0    1
 -2       108       264       263      1590      1591      1586
 -1       368    8    0    1
 -2       109       110       265      1229      1592      1593
 -1       369    8    0    1
 -2       109       265       264      1593      1594      1589
 -1       370    8    0    1
 -2       110       111       266      1230      1595      1596
 -1       371    8    0    1
 -2       110       266       265      1596      1597      1592
 -1       372    8    0    1
 -2       111       112       267      1231      1598      1599
 -1       373    8    0    1
 -2       111       267       266      1599      1600      1595
 -1       374    8    0    1
 -2       112       113       268      1232      1601      1602
 -1       375    8    0    1
 -2       112       268       267      1602      1603      1598
 -1       376    8    0    1
 -2       113       114       269      1233      1604      1605
 -1       377    8    0    1
 -2       113       269       268      1605      1606      1601
 -1       378    8    0    1
 -2       114       115       270      1234      1607      1608
 -1       379    8    0    1
 -2       114       270       269      1608      1609      1604
 -1       380    8    0    1
 -2       115       116       271      1235      1610      1611
 -1       381    8    0    1
 -2       115       271       270      1611      1612      1607
 -1       382    8    0    1
 -2       116       117       272      1236      1613      1614
 -1       383    8    0    1
 -2       116       272       271      1614      1615      1610
 -1       384    8    0    1
 -2       117       118       273      1237      1616      1617
 -1       385    8    0    1
 -2       117       273       272      1617      1618      1613
 -1       386    8    0    1
 -2       118       119       274      1238      1619      1620
 -1       387    8    0    1
 -2       118       274       273      1620      1621      1616
 -1       388    8    0    1
 -2       119       120       275      1239      1622      1623
 -1       389    8    0    1
 -2       119       275       274      1623      1624      1619
 -1       390    8    0    1
 -2       120         3       121      1240      1241      1625
 -1       391    8    0    1
 -2       121       122       276      1242      1626      1627
 -1       392    8    0    1
 -2       122       123       277      1243      1628      1629
 -1       393    8    0    1
 -2       122       277       276      1629      1630      1626
 -1       394    8    0    1
 -2       123       124       278      1244      1631      1632
 -1       395    8    0    1
 -2       123       278       277      1632      1633      1628
 -1       396    8    0    1
 -2       124       125       279      1245      1634      1635
 -1       397    8    0    1
 -2       124       279       278      1635      1636      1631
 -1       398    8    0    1
 -2       125       126       280      1246      1637      1638
 -1       399    8    0    1
 -2       125       280       279      1638      1639      1634
 -1       400    8    0    1
 -2       126       127       281      1247      1640      1641
 -1       401    8    0    1
 -2       126       281       280      1641      1642      1637
 -1       402    8    0    1
 -2       127       128       282      1248      1643      1644
 -1       403    8    0    1
 -2       127       282       281      1644      1645      1640
 -1       404    8    0    1
 -2       128       129       283      1249      1646      1647
 -1       405    8    0    1
 -2       128       283       282      1647      1648      1643
 -1       406    8    0    1
 -2       129       130       284      1250      1649      1650
 -1       407    8    0    1
 -2       129       284       283      1650      1651      1646
 -1       408    8    0    1
 -2       130       131       285      1251      1652      1653
 -1       409    8    0    1
 -2       130       285       284      1653      1654      1649
 -1       410    8    0    1
 -2       131       132       286      1252      1655      1656
 -1       411    8    0    1
 -2       131       286       285      1656      1657      1652
 -1       412    8    0    1
 -2       132       133       287      1253      1658      1659
 -1       413    8    0    1
 -2       132       287       286      1659      1660      1655
 -1       414    8    0    1
 -2       133       134       288      1254      1661      1662
 -1       415    8    0    1
 -2       133       288       287      1662      1663      1658
 -1       416    8    0    1
 -2       134       135       289      1255      1664      1665
 -1       417    8    0    1
 -2       134       289       288      1665      1666      1661
 -1       418    8    0    1
 -2       135       136       290      1256      1667      1668
 -1       419    8    0    1
 -2       289       135       290      1664      1668      1669
 -1       420    8    0    1
 -2       136       227       290      1480      1670      1667
 -1       421    8    0    1
 -2         2       137       291      1258      1671      1672
 -1       422    8    0    1
 -2       137       138       292      1259      1673      1674
 -1       423    8    0    1
 -2       138       139       293      1260      1675      1676
 -1       424    8    0    1
 -2       139       140       294      1261      1677      1678
 -1       425    8    0    1
 -2       140       141       295      1262      1679      1680
 -1       426    8    0    1
 -2       141       142       296      1263      1681      1682
 -1       427    8    0    1
 -2       142       143       297      1264      1683      1684
 -1       428    8    0    1
 -2       143       144       298      1265      1685      1686
 -1       429    8    0    1
 -2       144       145       299      1266      1687      1688
 -1       430    8    0    1
 -2       145       146       300      1267      1689      1690
 -1       431    8    0    1
 -2       146       147       301      1268      1691      1692
 -1       432    8    0    1
 -2       147       148       302      1269      1693      1694
 -1       433    8    0    1
 -2       148       149       303      1270      1695      1696
 -1       434    8    0    1
 -2       149       150       304      1271      1697      1698
 -1       435    8    0    1
 -2       150       151       305      1272      1699      1700
 -1       436    8    0    1
 -2       151       152       306      1273      1701      1702
 -1       437    8    0    1
 -2       152       153       307      1274      1703      1704
 -1       438    8    0    1
 -2       153       154       308      1275      1705      1706
 -1       439    8    0    1
 -2       154       155       309      1276      1707      1708
 -1       440    8    0    1
 -2       155       156       310      1277      1709      1710
 -1       441    8    0    1
 -2       156       157       311      1278      1711      1712
 -1       442    8    0    1
 -2       157       158       312      1279      1713      1714
 -1       443    8    0    1
 -2       158       159       313      1280      1715      1716
 -1       444    8    0    1
 -2       159       160       314      1281      1717      1718
 -1       445    8    0    1
 -2       160       161       315      1282      1719      1720
 -1       446    8    0    1
 -2       161         1       316      1283      1721      1722
 -1       447    8    0    1
 -2         1       162       317      1284      1723      1724
 -1       448    8    0    1
 -2       162       163       318      1285      1725      1726
 -1       449    8    0    1
 -2       163         2       319      1286      1727      1728
 -1       450    8    0    1
 -2       294       140       295      1677      1680      1729
 -1       451    8    0    1
 -2       293       139       294      1675      1678      1730
 -1       452    8    0    1
 -2       120       121       275      1625      1731      1622
 -1       453    8    0    1
 -2       121       276       275      1627      1732      1731
 -1       454    8    0    1
 -2       291       137       292      1671      1674      1733
 -1       455    8    0    1
 -2       292       138       293      1673      1676      1734
 -1       456    8    0    1
 -2         2       291       319      1672      1735      1727
 -1       457    8    0    1
 -2       141       296       295      1682      1736      1679
 -1       458    8    0    1
 -2       142       297       296      1684      1737      1681
 -1       459    8    0    1
 -2       143       298       297      1686      1738      1683
 -1       460    8    0    1
 -2       144       299       298      1688      1739      1685
 -1       461    8    0    1
 -2       145       300       299      1690      1740      1687
 -1       462    8    0    1
 -2       146       301       300      1692      1741      1689
 -1       463    8    0    1
 -2       147       302       301      1694      1742      1691
 -1       464    8    0    1
 -2       148       303       302      1696      1743      1693
 -1       465    8    0    1
 -2       149       304       303      1698      1744      1695
 -1       466    8    0    1
 -2       150       305       304      1700      1745      1697
 -1       467    8    0    1
 -2       151       306       305      1702      1746      1699
 -1       468    8    0    1
 -2       152       307       306      1704      1747      1701
 -1       469    8    0    1
 -2       153       308       307      1706      1748      1703
 -1       470    8    0    1
 -2       154       309       308      1708      1749      1705
 -1       471    8    0    1
 -2       155       310       309      1710      1750      1707
 -1       472    8    0    1
 -2       156       311       310      1712      1751      1709
 -1       473    8    0    1
 -2       157       312       311      1714      1752      1711
 -1       474    8    0    1
 -2       158       313       312      1716      1753      1713
 -1       475    8    0    1
 -2       159       314       313      1718      1754      1715
 -1       476    8    0    1
 -2       160       315       314      1720      1755      1717
 -1       477    8    0    1
 -2       161       316       315      1722      1756      1719
 -1       478    8    0    1
 -2         1       317       316      1724      1757      1721
 -1       479    8    0    1
 -2       162       318       317      1726      1758      1723
 -1       480    8    0    1
 -2       163       319       318      1728      1759      1725
 -1       481    8    0    1
 -2        23         7       164      1287      1289      1760
 -1       482    8    0    1
 -2       165       166       320      1295      1761      1762
 -1       483    8    0    1
 -2       164       165       321      1292      1763      1764
 -1       484    8    0    1
 -2       165       320       321      1762      1765      1763
 -1       485    8    0    1
 -2       167       168       322      1301      1766      1767
 -1       486    8    0    1
 -2       168       169       323      1304      1768      1769
 -1       487    8    0    1
 -2       168       323       322      1769      1770      1766
 -1       488    8    0    1
 -2       169       170       324      1307      1771      1772
 -1       489    8    0    1
 -2       169       324       323      1772      1773      1768
 -1       490    8    0    1
 -2       170       171       325      1310      1774      1775
 -1       491    8    0    1
 -2       170       325       324      1775      1776      1771
 -1       492    8    0    1
 -2       171       172       326      1313      1777      1778
 -1       493    8    0    1
 -2       171       326       325      1778      1779      1774
 -1       494    8    0    1
 -2       172       173       327      1316      1780      1781
 -1       495    8    0    1
 -2       172       327       326      1781      1782      1777
 -1       496    8    0    1
 -2       173       174       328      1319      1783      1784
 -1       497    8    0    1
 -2       173       328       327      1784      1785      1780
 -1       498    8    0    1
 -2       174       175       329      1322      1786      1787
 -1       499    8    0    1
 -2       174       329       328      1787      1788      1783
 -1       500    8    0    1
 -2       175       176       330      1325      1789      1790
 -1       501    8    0    1
 -2       175       330       329      1790      1791      1786
 -1       502    8    0    1
 -2       176       177       331      1328      1792      1793
 -1       503    8    0    1
 -2       176       331       330      1793      1794      1789
 -1       504    8    0    1
 -2       177       178       332      1331      1795      1796
 -1       505    8    0    1
 -2       177       332       331      1796      1797      1792
 -1       506    8    0    1
 -2       178       179       333      1334      1798      1799
 -1       507    8    0    1
 -2       332       178       333      1795      1799      1800
 -1       508    8    0    1
 -2       179       228       333      1483      1801      1798
 -1       509    8    0    1
 -2       180        23       164      1336      1760      1802
 -1       510    8    0    1
 -2       228       229       334      1486      1803      1804
 -1       511    8    0    1
 -2       228       334       333      1804      1805      1801
 -1       512    8    0    1
 -2       180       164       321      1802      1764      1806
 -1       513    8    0    1
 -2       182       181       335      1343      1807      1808
 -1       514    8    0    1
 -2       183       182       336      1346      1809      1810
 -1       515    8    0    1
 -2       182       335       336      1808      1811      1809
 -1       516    8    0    1
 -2       184       183       337      1349      1812      1813
 -1       517    8    0    1
 -2       183       336       337      1810      1814      1812
 -1       518    8    0    1
 -2       185       184       338      1352      1815      1816
 -1       519    8    0    1
 -2       184       337       338      1813      1817      1815
 -1       520    8    0    1
 -2       186       185       339      1355      1818      1819
 -1       521    8    0    1
 -2       185       338       339      1816      1820      1818
 -1       522    8    0    1
 -2       187       186       340      1358      1821      1822
 -1       523    8    0    1
 -2       186       339       340      1819      1823      1821
 -1       524    8    0    1
 -2       188       187       341      1361      1824      1825
 -1       525    8    0    1
 -2       187       340       341      1822      1826      1824
 -1       526    8    0    1
 -2       189       188       342      1364      1827      1828
 -1       527    8    0    1
 -2       188       341       342      1825      1829      1827
 -1       528    8    0    1
 -2       190       189       343      1367      1830      1831
 -1       529    8    0    1
 -2       189       342       343      1828      1832      1830
 -1       530    8    0    1
 -2       191       190       344      1370      1833      1834
 -1       531    8    0    1
 -2       190       343       344      1831      1835      1833
 -1       532    8    0    1
 -2       192       191       345      1373      1836      1837
 -1       533    8    0    1
 -2       191       344       345      1834      1838      1836
 -1       534    8    0    1
 -2       193       192       346      1376      1839      1840
 -1       535    8    0    1
 -2       192       345       346      1837      1841      1839
 -1       536    8    0    1
 -2       194       193       347      1379      1842      1843
 -1       537    8    0    1
 -2       193       346       347      1840      1844      1842
 -1       538    8    0    1
 -2       195       194       348      1382      1845      1846
 -1       539    8    0    1
 -2       194       347       348      1843      1847      1845
 -1       540    8    0    1
 -2       196       195       349      1385      1848      1849
 -1       541    8    0    1
 -2       195       348       349      1846      1850      1848
 -1       542    8    0    1
 -2       197       196       350      1388      1851      1852
 -1       543    8    0    1
 -2       196       349       350      1849      1853      1851
 -1       544    8    0    1
 -2       198       197       351      1391      1854      1855
 -1       545    8    0    1
 -2       197       350       351      1852      1856      1854
 -1       546    8    0    1
 -2       199       198       352      1394      1857      1858
 -1       547    8    0    1
 -2       198       351       352      1855      1859      1857
 -1       548    8    0    1
 -2       200       199       353      1397      1860      1861
 -1       549    8    0    1
 -2       199       352       353      1858      1862      1860
 -1       550    8    0    1
 -2       201       200       354      1400      1863      1864
 -1       551    8    0    1
 -2       200       353       354      1861      1865      1863
 -1       552    8    0    1
 -2       202       201       355      1403      1866      1867
 -1       553    8    0    1
 -2       201       354       355      1864      1868      1866
 -1       554    8    0    1
 -2       203       202       356      1406      1869      1870
 -1       555    8    0    1
 -2       202       355       356      1867      1871      1869
 -1       556    8    0    1
 -2       204       203       357      1409      1872      1873
 -1       557    8    0    1
 -2       203       356       357      1870      1874      1872
 -1       558    8    0    1
 -2       205       204       358      1412      1875      1876
 -1       559    8    0    1
 -2       204       357       358      1873      1877      1875
 -1       560    8    0    1
 -2       206       205       359      1415      1878      1879
 -1       561    8    0    1
 -2       205       358       359      1876      1880      1878
 -1       562    8    0    1
 -2       207       206       360      1418      1881      1882
 -1       563    8    0    1
 -2       206       359       360      1879      1883      1881
 -1       564    8    0    1
 -2       208       207       361      1421      1884      1885
 -1       565    8    0    1
 -2       207       360       361      1882      1886      1884
 -1       566    8    0    1
 -2       209       208       362      1424      1887      1888
 -1       567    8    0    1
 -2       208       361       362      1885      1889      1887
 -1       568    8    0    1
 -2       210       209       363      1427      1890      1891
 -1       569    8    0    1
 -2       209       362       363      1888      1892      1890
 -1       570    8    0    1
 -2       211       210       364      1430      1893      1894
 -1       571    8    0    1
 -2       210       363       364      1891      1895      1893
 -1       572    8    0    1
 -2       212       211       365      1433      1896      1897
 -1       573    8    0    1
 -2       211       364       365      1894      1898      1896
 -1       574    8    0    1
 -2       213       212       366      1436      1899      1900
 -1       575    8    0    1
 -2       212       365       366      1897      1901      1899
 -1       576    8    0    1
 -2       214       213       367      1439      1902      1903
 -1       577    8    0    1
 -2       213       366       367      1900      1904      1902
 -1       578    8    0    1
 -2       215       214       368      1442      1905      1906
 -1       579    8    0    1
 -2       214       367       368      1903      1907      1905
 -1       580    8    0    1
 -2       216       215       369      1445      1908      1909
 -1       581    8    0    1
 -2       215       368       369      1906      1910      1908
 -1       582    8    0    1
 -2       217       216       370      1448      1911      1912
 -1       583    8    0    1
 -2       216       369       370      1909      1913      1911
 -1       584    8    0    1
 -2       218       217       371      1451      1914      1915
 -1       585    8    0    1
 -2       217       370       371      1912      1916      1914
 -1       586    8    0    1
 -2       219       218       372      1454      1917      1918
 -1       587    8    0    1
 -2       218       371       372      1915      1919      1917
 -1       588    8    0    1
 -2       220       219       373      1457      1920      1921
 -1       589    8    0    1
 -2       219       372       373      1918      1922      1920
 -1       590    8    0    1
 -2       221       220       374      1460      1923      1924
 -1       591    8    0    1
 -2       220       373       374      1921      1925      1923
 -1       592    8    0    1
 -2       222       221       375      1463      1926      1927
 -1       593    8    0    1
 -2       221       374       375      1924      1928      1926
 -1       594    8    0    1
 -2       223       222       376      1466      1929      1930
 -1       595    8    0    1
 -2       222       375       376      1927      1931      1929
 -1       596    8    0    1
 -2       224       223       377      1469      1932      1933
 -1       597    8    0    1
 -2       223       376       377      1930      1934      1932
 -1       598    8    0    1
 -2       225       224       378      1472      1935      1936
 -1       599    8    0    1
 -2       224       377       378      1933      1937      1935
 -1       600    8    0    1
 -2       226       225       379      1475      1938      1939
 -1       601    8    0    1
 -2       225       378       379      1936      1940      1938
 -1       602    8    0    1
 -2       227       226       380      1478      1941      1942
 -1       603    8    0    1
 -2       290       227       380      1670      1942      1943
 -1       604    8    0    1
 -2       226       379       380      1939      1944      1941
 -1       605    8    0    1
 -2       229       230       381      1489      1945      1946
 -1       606    8    0    1
 -2       229       381       334      1946      1947      1803
 -1       607    8    0    1
 -2       230       231       382      1492      1948      1949
 -1       608    8    0    1
 -2       230       382       381      1949      1950      1945
 -1       609    8    0    1
 -2       231       232       383      1495      1951      1952
 -1       610    8    0    1
 -2       231       383       382      1952      1953      1948
 -1       611    8    0    1
 -2       232       233       384      1498      1954      1955
 -1       612    8    0    1
 -2       232       384       383      1955      1956      1951
 -1       613    8    0    1
 -2       233       234       385      1501      1957      1958
 -1       614    8    0    1
 -2       233       385       384      1958      1959      1954
 -1       615    8    0    1
 -2       234       235       386      1504      1960      1961
 -1       616    8    0    1
 -2       234       386       385      1961      1962      1957
 -1       617    8    0    1
 -2       235       236       387      1507      1963      1964
 -1       618    8    0    1
 -2       235       387       386      1964      1965      1960
 -1       619    8    0    1
 -2       236       237       388      1510      1966      1967
 -1       620    8    0    1
 -2       236       388       387      1967      1968      1963
 -1       621    8    0    1
 -2       237       238       389      1513      1969      1970
 -1       622    8    0    1
 -2       237       389       388      1970      1971      1966
 -1       623    8    0    1
 -2       238       239       390      1516      1972      1973
 -1       624    8    0    1
 -2       238       390       389      1973      1974      1969
 -1       625    8    0    1
 -2       239       240       391      1519      1975      1976
 -1       626    8    0    1
 -2       239       391       390      1976      1977      1972
 -1       627    8    0    1
 -2       240       241       392      1522      1978      1979
 -1       628    8    0    1
 -2       240       392       391      1979      1980      1975
 -1       629    8    0    1
 -2       241       242       393      1525      1981      1982
 -1       630    8    0    1
 -2       241       393       392      1982      1983      1978
 -1       631    8    0    1
 -2       242       243       394      1528      1984      1985
 -1       632    8    0    1
 -2       242       394       393      1985      1986      1981
 -1       633    8    0    1
 -2       243       244       395      1531      1987      1988
 -1       634    8    0    1
 -2       243       395       394      1988      1989      1984
 -1       635    8    0    1
 -2       244       245       396      1534      1990      1991
 -1       636    8    0    1
 -2       244       396       395      1991      1992      1987
 -1       637    8    0    1
 -2       245       246       397      1537      1993      1994
 -1       638    8    0    1
 -2       245       397       396      1994      1995      1990
 -1       639    8    0    1
 -2       246       247       398      1540      1996      1997
 -1       640    8    0    1
 -2       246       398       397      1997      1998      1993
 -1       641    8    0    1
 -2       247       248       399      1543      1999      2000
 -1       642    8    0    1
 -2       247       399       398      2000      2001      1996
 -1       643    8    0    1
 -2       248       249       400      1546      2002      2003
 -1       644    8    0    1
 -2       248       400       399      2003      2004      1999
 -1       645    8    0    1
 -2       249       250       401      1549      2005      2006
 -1       646    8    0    1
 -2       249       401       400      2006      2007      2002
 -1       647    8    0    1
 -2       250       251       402      1552      2008      2009
 -1       648    8    0    1
 -2       250       402       401      2009      2010      2005
 -1       649    8    0    1
 -2       251       252       403      1555      2011      2012
 -1       650    8    0    1
 -2       251       403       402      2012      2013      2008
 -1       651    8    0    1
 -2       252       253       404      1558      2014      2015
 -1       652    8    0    1
 -2       252       404       403      2015      2016      2011
 -1       653    8    0    1
 -2       253       254       405      1561      2017      2018
 -1       654    8    0    1
 -2       253       405       404      2018      2019      2014
 -1       655    8    0    1
 -2       254       255       406      1564      2020      2021
 -1       656    8    0    1
 -2       254       406       405      2021      2022      2017
 -1       657    8    0    1
 -2       255       256       407      1567      2023      2024
 -1       658    8    0    1
 -2       255       407       406      2024      2025      2020
 -1       659    8    0    1
 -2       256       257       408      1570      2026      2027
 -1       660    8    0    1
 -2       256       408       407      2027      2028      2023
 -1       661    8    0    1
 -2       257       258       409      1573      2029      2030
 -1       662    8    0    1
 -2       257       409       408      2030      2031      2026
 -1       663    8    0    1
 -2       258       259       410      1576      2032      2033
 -1       664    8    0    1
 -2       258       410       409      2033      2034      2029
 -1       665    8    0    1
 -2       259       260       411      1579      2035      2036
 -1       666    8    0    1
 -2       259       411       410      2036      2037      2032
 -1       667    8    0    1
 -2       260       261       412      1582      2038      2039
 -1       668    8    0    1
 -2       260       412       411      2039      2040      2035
 -1       669    8    0    1
 -2       261       262       413      1585      2041      2042
 -1       670    8    0    1
 -2       261       413       412      2042      2043      2038
 -1       671    8    0    1
 -2       262       263       414      1588      2044      2045
 -1       672    8    0    1
 -2       262       414       413      2045      2046      2041
 -1       673    8    0    1
 -2       263       264       415      1591      2047      2048
 -1       674    8    0    1
 -2       263       415       414      2048      2049      2044
 -1       675    8    0    1
 -2       264       265       416      1594      2050      2051
 -1       676    8    0    1
 -2       264       416       415      2051      2052      2047
 -1       677    8    0    1
 -2       265       266       417      1597      2053      2054
 -1       678    8    0    1
 -2       265       417       416      2054      2055      2050
 -1       679    8    0    1
 -2       266       267       418      1600      2056      2057
 -1       680    8    0    1
 -2       266       418       417      2057      2058      2053
 -1       681    8    0    1
 -2       267       268       419      1603      2059      2060
 -1       682    8    0    1
 -2       267       419       418      2060      2061      2056
 -1       683    8    0    1
 -2       268       269       420      1606      2062      2063
 -1       684    8    0    1
 -2       268       420       419      2063      2064      2059
 -1       685    8    0    1
 -2       269       270       421      1609      2065      2066
 -1       686    8    0    1
 -2       269       421       420      2066      2067      2062
 -1       687    8    0    1
 -2       270       271       422      1612      2068      2069
 -1       688    8    0    1
 -2       270       422       421      2069      2070      2065
 -1       689    8    0    1
 -2       271       272       423      1615      2071      2072
 -1       690    8    0    1
 -2       271       423       422      2072      2073      2068
 -1       691    8    0    1
 -2       272       273       424      1618      2074      2075
 -1       692    8    0    1
 -2       272       424       423      2075      2076      2071
 -1       693    8    0    1
 -2       273       274       425      1621      2077      2078
 -1       694    8    0    1
 -2       273       425       424      2078      2079      2074
 -1       695    8    0    1
 -2       274       275       426      1624      2080      2081
 -1       696    8    0    1
 -2       425       274       426      2077      2081      2082
 -1       697    8    0    1
 -2       275       276       426      1732      2083      2080
 -1       698    8    0    1
 -2       278       279       427      1636      2084      2085
 -1       699    8    0    1
 -2       277       278       428      1633      2086      2087
 -1       700    8    0    1
 -2       278       427       428      2085      2088      2086
 -1       701    8    0    1
 -2       276       277       429      1630      2089      2090
 -1       702    8    0    1
 -2       426       276       429      2083      2090      2091
 -1       703    8    0    1
 -2       277       428       429      2087      2092      2089
 -1       704    8    0    1
 -2       279       280       430      1639      2093      2094
 -1       705    8    0    1
 -2       279       430       427      2094      2095      2084
 -1       706    8    0    1
 -2       280       281       431      1642      2096      2097
 -1       707    8    0    1
 -2       280       431       430      2097      2098      2093
 -1       708    8    0    1
 -2       281       282       432      1645      2099      2100
 -1       709    8    0    1
 -2       281       432       431      2100      2101      2096
 -1       710    8    0    1
 -2       282       283       433      1648      2102      2103
 -1       711    8    0    1
 -2       282       433       432      2103      2104      2099
 -1       712    8    0    1
 -2       283       284       434      1651      2105      2106
 -1       713    8    0    1
 -2       283       434       433      2106      2107      2102
 -1       714    8    0    1
 -2       284       285       435      1654      2108      2109
 -1       715    8    0    1
 -2       284       435       434      2109      2110      2105
 -1       716    8    0    1
 -2       285       286       436      1657      2111      2112
 -1       717    8    0    1
 -2       285       436       435      2112      2113      2108
 -1       718    8    0    1
 -2       286       287       437      1660      2114      2115
 -1       719    8    0    1
 -2       286       437       436      2115      2116      2111
 -1       720    8    0    1
 -2       287       288       438      1663      2117      2118
 -1       721    8    0    1
 -2       287       438       437      2118      2119      2114
 -1       722    8    0    1
 -2       288       289       439      1666      2120      2121
 -1       723    8    0    1
 -2       288       439       438      2121      2122      2117
 -1       724    8    0    1
 -2       292       293       440      1734      2123      2124
 -1       725    8    0    1
 -2       319       291       441      1735      2125      2126
 -1       726    8    0    1
 -2       291       292       442      1733      2127      2128
 -1       727    8    0    1
 -2       293       294       443      1730      2129      2130
 -1       728    8    0    1
 -2       293       443       440      2130      2131      2123
 -1       729    8    0    1
 -2       294       295       444      1729      2132      2133
 -1       730    8    0    1
 -2       166       167       445      1298      2134      2135
 -1       731    8    0    1
 -2       320       166       445      1761      2135      2136
 -1       732    8    0    1
 -2       167       322       445      1767      2137      2134
 -1       733    8    0    1
 -2       296       297       446      1737      2138      2139
 -1       734    8    0    1
 -2       297       298       447      1738      2140      2141
 -1       735    8    0    1
 -2       298       299       448      1739      2142      2143
 -1       736    8    0    1
 -2       298       448       447      2143      2144      2140
 -1       737    8    0    1
 -2       299       300       449      1740      2145      2146
 -1       738    8    0    1
 -2       300       301       450      1741      2147      2148
 -1       739    8    0    1
 -2       301       302       451      1742      2149      2150
 -1       740    8    0    1
 -2       302       303       452      1743      2151      2152
 -1       741    8    0    1
 -2       303       304       453      1744      2153      2154
 -1       742    8    0    1
 -2       304       305       454      1745      2155      2156
 -1       743    8    0    1
 -2       304       454       453      2156      2157      2153
 -1       744    8    0    1
 -2       305       306       455      1746      2158      2159
 -1       745    8    0    1
 -2       306       307       456      1747      2160      2161
 -1       746    8    0    1
 -2       307       308       457      1748      2162      2163
 -1       747    8    0    1
 -2       307       457       456      2163      2164      2160
 -1       748    8    0    1
 -2       308       309       458      1749      2165      2166
 -1       749    8    0    1
 -2       309       310       459      1750      2167      2168
 -1       750    8    0    1
 -2       310       311       460      1751      2169      2170
 -1       751    8    0    1
 -2       311       312       461      1752      2171      2172
 -1       752    8    0    1
 -2       312       313       462      1753      2173      2174
 -1       753    8    0    1
 -2       313       314       463      1754      2175      2176
 -1       754    8    0    1
 -2       314       315       464      1755      2177      2178
 -1       755    8    0    1
 -2       315       316       465      1756      2179      2180
 -1       756    8    0    1
 -2       316       317       466      1757      2181      2182
 -1       757    8    0    1
 -2       317       318       467      1758      2183      2184
 -1       758    8    0    1
 -2       318       319       468      1759      2185      2186
 -1       759    8    0    1
 -2       295       296       469      1736      2187      2188
 -1       760    8    0    1
 -2       295       469       444      2188      2189      2132
 -1       761    8    0    1
 -2       443       294       470      2129      2190      2191
 -1       762    8    0    1
 -2       294       444       470      2133      2192      2190
 -1       763    8    0    1
 -2       180       321       181      1806      2193      1340
 -1       764    8    0    1
 -2       296       446       469      2139      2194      2187
 -1       765    8    0    1
 -2       335       181       321      1807      2193      2195
 -1       766    8    0    1
 -2       442       292       471      2127      2196      2197
 -1       767    8    0    1
 -2       292       440       471      2124      2198      2196
 -1       768    8    0    1
 -2       441       291       442      2125      2128      2199
 -1       769    8    0    1
 -2       439       289       290      2120      1669      2200
 -1       770    8    0    1
 -2       319       441       468      2126      2201      2185
 -1       771    8    0    1
 -2       467       318       468      2183      2186      2202
 -1       772    8    0    1
 -2       466       317       467      2181      2184      2203
 -1       773    8    0    1
 -2       465       316       466      2179      2182      2204
 -1       774    8    0    1
 -2       464       315       465      2177      2180      2205
 -1       775    8    0    1
 -2       463       314       464      2175      2178      2206
 -1       776    8    0    1
 -2       462       313       463      2173      2176      2207
 -1       777    8    0    1
 -2       461       312       462      2171      2174      2208
 -1       778    8    0    1
 -2       460       311       461      2169      2172      2209
 -1       779    8    0    1
 -2       459       310       460      2167      2170      2210
 -1       780    8    0    1
 -2       457       308       458      2162      2166      2211
 -1       781    8    0    1
 -2       454       305       455      2155      2159      2212
 -1       782    8    0    1
 -2       452       303       453      2151      2154      2213
 -1       783    8    0    1
 -2       451       302       472      2149      2214      2215
 -1       784    8    0    1
 -2       302       452       472      2152      2216      2214
 -1       785    8    0    1
 -2       450       301       451      2147      2150      2217
 -1       786    8    0    1
 -2       448       299       449      2142      2146      2218
 -1       787    8    0    1
 -2       446       297       473      2138      2219      2220
 -1       788    8    0    1
 -2       297       447       473      2141      2221      2219
 -1       789    8    0    1
 -2       449       300       450      2145      2148      2222
 -1       790    8    0    1
 -2       455       306       456      2158      2161      2223
 -1       791    8    0    1
 -2       458       309       474      2165      2224      2225
 -1       792    8    0    1
 -2       309       459       474      2168      2226      2224
 -1       793    8    0    1
 -2       334       381       475      1947      2227      2228
 -1       794    8    0    1
 -2       323       324       476      1773      2229      2230
 -1       795    8    0    1
 -2       322       323       477      1770      2231      2232
 -1       796    8    0    1
 -2       323       476       477      2230      2233      2231
 -1       797    8    0    1
 -2       325       326       478      1779      2234      2235
 -1       798    8    0    1
 -2       326       327       479      1782      2236      2237
 -1       799    8    0    1
 -2       326       479       478      2237      2238      2234
 -1       800    8    0    1
 -2       327       328       480      1785      2239      2240
 -1       801    8    0    1
 -2       327       480       479      2240      2241      2236
 -1       802    8    0    1
 -2       328       329       481      1788      2242      2243
 -1       803    8    0    1
 -2       328       481       480      2243      2244      2239
 -1       804    8    0    1
 -2       329       330       482      1791      2245      2246
 -1       805    8    0    1
 -2       329       482       481      2246      2247      2242
 -1       806    8    0    1
 -2       330       331       483      1794      2248      2249
 -1       807    8    0    1
 -2       330       483       482      2249      2250      2245
 -1       808    8    0    1
 -2       381       382       484      1950      2251      2252
 -1       809    8    0    1
 -2       381       484       475      2252      2253      2227
 -1       810    8    0    1
 -2       336       335       485      1811      2254      2255
 -1       811    8    0    1
 -2       469       446       486      2194      2256      2257
 -1       812    8    0    1
 -2       337       336       487      1814      2258      2259
 -1       813    8    0    1
 -2       336       485       487      2255      2260      2258
 -1       814    8    0    1
 -2       338       337       488      1817      2261      2262
 -1       815    8    0    1
 -2       337       487       488      2259      2263      2261
 -1       816    8    0    1
 -2       339       338       489      1820      2264      2265
 -1       817    8    0    1
 -2       338       488       489      2262      2266      2264
 -1       818    8    0    1
 -2       340       339       490      1823      2267      2268
 -1       819    8    0    1
 -2       339       489       490      2265      2269      2267
 -1       820    8    0    1
 -2       341       340       491      1826      2270      2271
 -1       821    8    0    1
 -2       340       490       491      2268      2272      2270
 -1       822    8    0    1
 -2       342       341       492      1829      2273      2274
 -1       823    8    0    1
 -2       341       491       492      2271      2275      2273
 -1       824    8    0    1
 -2       343       342       493      1832      2276      2277
 -1       825    8    0    1
 -2       342       492       493      2274      2278      2276
 -1       826    8    0    1
 -2       344       343       494      1835      2279      2280
 -1       827    8    0    1
 -2       343       493       494      2277      2281      2279
 -1       828    8    0    1
 -2       345       344       495      1838      2282      2283
 -1       829    8    0    1
 -2       344       494       495      2280      2284      2282
 -1       830    8    0    1
 -2       346       345       496      1841      2285      2286
 -1       831    8    0    1
 -2       345       495       496      2283      2287      2285
 -1       832    8    0    1
 -2       347       346       497      1844      2288      2289
 -1       833    8    0    1
 -2       346       496       497      2286      2290      2288
 -1       834    8    0    1
 -2       348       347       498      1847      2291      2292
 -1       835    8    0    1
 -2       347       497       498      2289      2293      2291
 -1       836    8    0    1
 -2       349       348       499      1850      2294      2295
 -1       837    8    0    1
 -2       348       498       499      2292      2296      2294
 -1       838    8    0    1
 -2       350       349       500      1853      2297      2298
 -1       839    8    0    1
 -2       349       499       500      2295      2299      2297
 -1       840    8    0    1
 -2       351       350       501      1856      2300      2301
 -1       841    8    0    1
 -2       350       500       501      2298      2302      2300
 -1       842    8    0    1
 -2       352       351       502      1859      2303      2304
 -1       843    8    0    1
 -2       351       501       502      2301      2305      2303
 -1       844    8    0    1
 -2       353       352       503      1862      2306      2307
 -1       845    8    0    1
 -2       352       502       503      2304      2308      2306
 -1       846    8    0    1
 -2       354       353       504      1865      2309      2310
 -1       847    8    0    1
 -2       353       503       504      2307      2311      2309
 -1       848    8    0    1
 -2       355       354       505      1868      2312      2313
 -1       849    8    0    1
 -2       354       504       505      2310      2314      2312
 -1       850    8    0    1
 -2       356       355       506      1871      2315      2316
 -1       851    8    0    1
 -2       355       505       506      2313      2317      2315
 -1       852    8    0    1
 -2       357       356       507      1874      2318      2319
 -1       853    8    0    1
 -2       356       506       507      2316      2320      2318
 -1       854    8    0    1
 -2       358       357       508      1877      2321      2322
 -1       855    8    0    1
 -2       357       507       508      2319      2323      2321
 -1       856    8    0    1
 -2       359       358       509      1880      2324      2325
 -1       857    8    0    1
 -2       358       508       509      2322      2326      2324
 -1       858    8    0    1
 -2       360       359       510      1883      2327      2328
 -1       859    8    0    1
 -2       359       509       510      2325      2329      2327
 -1       860    8    0    1
 -2       361       360       511      1886      2330      2331
 -1       861    8    0    1
 -2       360       510       511      2328      2332      2330
 -1       862    8    0    1
 -2       362       361       512      1889      2333      2334
 -1       863    8    0    1
 -2       361       511       512      2331      2335      2333
 -1       864    8    0    1
 -2       363       362       513      1892      2336      2337
 -1       865    8    0    1
 -2       362       512       513      2334      2338      2336
 -1       866    8    0    1
 -2       364       363       514      1895      2339      2340
 -1       867    8    0    1
 -2       363       513       514      2337      2341      2339
 -1       868    8    0    1
 -2       365       364       515      1898      2342      2343
 -1       869    8    0    1
 -2       364       514       515      2340      2344      2342
 -1       870    8    0    1
 -2       366       365       516      1901      2345      2346
 -1       871    8    0    1
 -2       365       515       516      2343      2347      2345
 -1       872    8    0    1
 -2       367       366       517      1904      2348      2349
 -1       873    8    0    1
 -2       366       516       517      2346      2350      2348
 -1       874    8    0    1
 -2       368       367       518      1907      2351      2352
 -1       875    8    0    1
 -2       367       517       518      2349      2353      2351
 -1       876    8    0    1
 -2       369       368       519      1910      2354      2355
 -1       877    8    0    1
 -2       368       518       519      2352      2356      2354
 -1       878    8    0    1
 -2       370       369       520      1913      2357      2358
 -1       879    8    0    1
 -2       369       519       520      2355      2359      2357
 -1       880    8    0    1
 -2       371       370       521      1916      2360      2361
 -1       881    8    0    1
 -2       370       520       521      2358      2362      2360
 -1       882    8    0    1
 -2       372       371       522      1919      2363      2364
 -1       883    8    0    1
 -2       371       521       522      2361      2365      2363
 -1       884    8    0    1
 -2       373       372       523      1922      2366      2367
 -1       885    8    0    1
 -2       372       522       523      2364      2368      2366
 -1       886    8    0    1
 -2       374       373       524      1925      2369      2370
 -1       887    8    0    1
 -2       373       523       524      2367      2371      2369
 -1       888    8    0    1
 -2       375       374       525      1928      2372      2373
 -1       889    8    0    1
 -2       374       524       525      2370      2374      2372
 -1       890    8    0    1
 -2       376       375       526      1931      2375      2376
 -1       891    8    0    1
 -2       375       525       526      2373      2377      2375
 -1       892    8    0    1
 -2       377       376       527      1934      2378      2379
 -1       893    8    0    1
 -2       376       526       527      2376      2380      2378
 -1       894    8    0    1
 -2       378       377       528      1937      2381      2382
 -1       895    8    0    1
 -2       377       527       528      2379      2383      2381
 -1       896    8    0    1
 -2       379       378       529      1940      2384      2385
 -1       897    8    0    1
 -2       378       528       529      2382      2386      2384
 -1       898    8    0    1
 -2       383       384       530      1956      2387      2388
 -1       899    8    0    1
 -2       384       385       531      1959      2389      2390
 -1       900    8    0    1
 -2       384       531       530      2390      2391      2387
 -1       901    8    0    1
 -2       385       386       532      1962      2392      2393
 -1       902    8    0    1
 -2       385       532       531      2393      2394      2389
 -1       903    8    0    1
 -2       386       387       533      1965      2395      2396
 -1       904    8    0    1
 -2       386       533       532      2396      2397      2392
 -1       905    8    0    1
 -2       387       388       534      1968      2398      2399
 -1       906    8    0    1
 -2       387       534       533      2399      2400      2395
 -1       907    8    0    1
 -2       388       389       535      1971      2401      2402
 -1       908    8    0    1
 -2       388       535       534      2402      2403      2398
 -1       909    8    0    1
 -2       389       390       536      1974      2404      2405
 -1       910    8    0    1
 -2       389       536       535      2405      2406      2401
 -1       911    8    0    1
 -2       390       391       537      1977      2407      2408
 -1       912    8    0    1
 -2       390       537       536      2408      2409      2404
 -1       913    8    0    1
 -2       391       392       538      1980      2410      2411
 -1       914    8    0    1
 -2       391       538       537      2411      2412      2407
 -1       915    8    0    1
 -2       392       393       539      1983      2413      2414
 -1       916    8    0    1
 -2       392       539       538      2414      2415      2410
 -1       917    8    0    1
 -2       393       394       540      1986      2416      2417
 -1       918    8    0    1
 -2       393       540       539      2417      2418      2413
 -1       919    8    0    1
 -2       394       395       541      1989      2419      2420
 -1       920    8    0    1
 -2       394       541       540      2420      2421      2416
 -1       921    8    0    1
 -2       395       396       542      1992      2422      2423
 -1       922    8    0    1
 -2       395       542       541      2423      2424      2419
 -1       923    8    0    1
 -2       396       397       543      1995      2425      2426
 -1       924    8    0    1
 -2       396       543       542      2426      2427      2422
 -1       925    8    0    1
 -2       397       398       544      1998      2428      2429
 -1       926    8    0    1
 -2       397       544       543      2429      2430      2425
 -1       927    8    0    1
 -2       398       399       545      2001      2431      2432
 -1       928    8    0    1
 -2       398       545       544      2432      2433      2428
 -1       929    8    0    1
 -2       399       400       546      2004      2434      2435
 -1       930    8    0    1
 -2       399       546       545      2435      2436      2431
 -1       931    8    0    1
 -2       400       401       547      2007      2437      2438
 -1       932    8    0    1
 -2       400       547       546      2438      2439      2434
 -1       933    8    0    1
 -2       401       402       548      2010      2440      2441
 -1       934    8    0    1
 -2       401       548       547      2441      2442      2437
 -1       935    8    0    1
 -2       402       403       549      2013      2443      2444
 -1       936    8    0    1
 -2       402       549       548      2444      2445      2440
 -1       937    8    0    1
 -2       403       404       550      2016      2446      2447
 -1       938    8    0    1
 -2       403       550       549      2447      2448      2443
 -1       939    8    0    1
 -2       404       405       551      2019      2449      2450
 -1       940    8    0    1
 -2       404       551       550      2450      2451      2446
 -1       941    8    0    1
 -2       405       406       552      2022      2452      2453
 -1       942    8    0    1
 -2       405       552       551      2453      2454      2449
 -1       943    8    0    1
 -2       406       407       553      2025      2455      2456
 -1       944    8    0    1
 -2       406       553       552      2456      2457      2452
 -1       945    8    0    1
 -2       407       408       554      2028      2458      2459
 -1       946    8    0    1
 -2       407       554       553      2459      2460      2455
 -1       947    8    0    1
 -2       408       409       555      2031      2461      2462
 -1       948    8    0    1
 -2       408       555       554      2462      2463      2458
 -1       949    8    0    1
 -2       409       410       556      2034      2464      2465
 -1       950    8    0    1
 -2       409       556       555      2465      2466      2461
 -1       951    8    0    1
 -2       410       411       557      2037      2467      2468
 -1       952    8    0    1
 -2       410       557       556      2468      2469      2464
 -1       953    8    0    1
 -2       411       412       558      2040      2470      2471
 -1       954    8    0    1
 -2       411       558       557      2471      2472      2467
 -1       955    8    0    1
 -2       412       413       559      2043      2473      2474
 -1       956    8    0    1
 -2       412       559       558      2474      2475      2470
 -1       957    8    0    1
 -2       413       414       560      2046      2476      2477
 -1       958    8    0    1
 -2       413       560       559      2477      2478      2473
 -1       959    8    0    1
 -2       414       415       561      2049      2479      2480
 -1       960    8    0    1
 -2       414       561       560      2480      2481      2476
 -1       961    8    0    1
 -2       415       416       562      2052      2482      2483
 -1       962    8    0    1
 -2       415       562       561      2483      2484      2479
 -1       963    8    0    1
 -2       416       417       563      2055      2485      2486
 -1       964    8    0    1
 -2       416       563       562      2486      2487      2482
 -1       965    8    0    1
 -2       417       418       564      2058      2488      2489
 -1       966    8    0    1
 -2       417       564       563      2489      2490      2485
 -1       967    8    0    1
 -2       418       419       565      2061      2491      2492
 -1       968    8    0    1
 -2       418       565       564      2492      2493      2488
 -1       969    8    0    1
 -2       419       420       566      2064      2494      2495
 -1       970    8    0    1
 -2       419       566       565      2495      2496      2491
 -1       971    8    0    1
 -2       420       421       567      2067      2497      2498
 -1       972    8    0    1
 -2       420       567       566      2498      2499      2494
 -1       973    8    0    1
 -2       421       422       568      2070      2500      2501
 -1       974    8    0    1
 -2       421       568       567      2501      2502      2497
 -1       975    8    0    1
 -2       422       423       569      2073      2503      2504
 -1       976    8    0    1
 -2       422       569       568      2504      2505      2500
 -1       977    8    0    1
 -2       423       424       570      2076      2506      2507
 -1       978    8    0    1
 -2       423       570       569      2507      2508      2503
 -1       979    8    0    1
 -2       424       425       571      2079      2509      2510
 -1       980    8    0    1
 -2       424       571       570      2510      2511      2506
 -1       981    8    0    1
 -2       425       426       429      2082      2091      2512
 -1       982    8    0    1
 -2       430       431       572      2098      2513      2514
 -1       983    8    0    1
 -2       431       432       573      2101      2515      2516
 -1       984    8    0    1
 -2       431       573       572      2516      2517      2513
 -1       985    8    0    1
 -2       428       427       574      2088      2518      2519
 -1       986    8    0    1
 -2       427       430       575      2095      2520      2521
 -1       987    8    0    1
 -2       574       427       575      2518      2521      2522
 -1       988    8    0    1
 -2       430       572       575      2514      2523      2520
 -1       989    8    0    1
 -2       432       433       576      2104      2524      2525
 -1       990    8    0    1
 -2       432       576       573      2525      2526      2515
 -1       991    8    0    1
 -2       433       434       577      2107      2527      2528
 -1       992    8    0    1
 -2       433       577       576      2528      2529      2524
 -1       993    8    0    1
 -2       434       435       578      2110      2530      2531
 -1       994    8    0    1
 -2       434       578       577      2531      2532      2527
 -1       995    8    0    1
 -2       435       436       579      2113      2533      2534
 -1       996    8    0    1
 -2       435       579       578      2534      2535      2530
 -1       997    8    0    1
 -2       436       437       580      2116      2536      2537
 -1       998    8    0    1
 -2       436       580       579      2537      2538      2533
 -1       999    8    0    1
 -2       437       438       581      2119      2539      2540
 -1      1000    8    0    1
 -2       437       581       580      2540      2541      2536
 -1      1001    8    0    1
 -2       438       439       582      2122      2542      2543
 -1      1002    8    0    1
 -2       438       582       581      2543      2544      2539
 -1      1003    8    0    1
 -2       441       442       583      2199      2545      2546
 -1      1004    8    0    1
 -2       468       441       584      2201      2547      2548
 -1      1005    8    0    1
 -2       382       383       585      1953      2549      2550
 -1      1006    8    0    1
 -2       383       530       585      2388      2551      2549
 -1      1007    8    0    1
 -2       439       290       380      2200      1943      2552
 -1      1008    8    0    1
 -2       440       443       586      2131      2553      2554
 -1      1009    8    0    1
 -2       335       321       587      2195      2555      2556
 -1      1010    8    0    1
 -2       485       335       587      2254      2556      2557
 -1      1011    8    0    1
 -2       321       320       587      1765      2558      2555
 -1      1012    8    0    1
 -2       467       468       588      2202      2559      2560
 -1      1013    8    0    1
 -2       454       455       589      2212      2561      2562
 -1      1014    8    0    1
 -2       452       453       590      2213      2563      2564
 -1      1015    8    0    1
 -2       324       325       591      1776      2565      2566
 -1      1016    8    0    1
 -2       476       324       591      2229      2566      2567
 -1      1017    8    0    1
 -2       325       478       591      2235      2568      2565
 -1      1018    8    0    1
 -2       449       450       592      2222      2569      2570
 -1      1019    8    0    1
 -2       447       448       593      2144      2571      2572
 -1      1020    8    0    1
 -2       455       456       594      2223      2573      2574
 -1      1021    8    0    1
 -2       455       594       589      2574      2575      2561
 -1      1022    8    0    1
 -2       448       449       595      2218      2576      2577
 -1      1023    8    0    1
 -2       450       451       596      2217      2578      2579
 -1      1024    8    0    1
 -2       450       596       592      2579      2580      2569
 -1      1025    8    0    1
 -2       453       454       597      2157      2581      2582
 -1      1026    8    0    1
 -2       456       457       598      2164      2583      2584
 -1      1027    8    0    1
 -2       457       458       599      2211      2585      2586
 -1      1028    8    0    1
 -2       459       460       600      2210      2587      2588
 -1      1029    8    0    1
 -2       460       461       601      2209      2589      2590
 -1      1030    8    0    1
 -2       461       462       602      2208      2591      2592
 -1      1031    8    0    1
 -2       462       463       603      2207      2593      2594
 -1      1032    8    0    1
 -2       463       464       604      2206      2595      2596
 -1      1033    8    0    1
 -2       464       465       605      2205      2597      2598
 -1      1034    8    0    1
 -2       465       466       606      2204      2599      2600
 -1      1035    8    0    1
 -2       466       467       607      2203      2601      2602
 -1      1036    8    0    1
 -2       467       588       607      2560      2603      2601
 -1      1037    8    0    1
 -2       444       469       608      2189      2604      2605
 -1      1038    8    0    1
 -2       469       486       608      2257      2606      2604
 -1      1039    8    0    1
 -2       333       334       609      1805      2607      2608
 -1      1040    8    0    1
 -2       332       333       609      1800      2608      2609
 -1      1041    8    0    1
 -2       334       475       609      2228      2610      2607
 -1      1042    8    0    1
 -2       449       592       595      2570      2611      2576
 -1      1043    8    0    1
 -2       322       477       610      2232      2612      2613
 -1      1044    8    0    1
 -2       322       610       445      2613      2614      2137
 -1      1045    8    0    1
 -2       484       382       585      2251      2550      2615
 -1      1046    8    0    1
 -2       331       332       609      1797      2609      2616
 -1      1047    8    0    1
 -2       606       466       607      2599      2602      2617
 -1      1048    8    0    1
 -2       588       468       584      2559      2548      2618
 -1      1049    8    0    1
 -2       605       465       606      2597      2600      2619
 -1      1050    8    0    1
 -2       471       440       586      2198      2554      2620
 -1      1051    8    0    1
 -2       604       464       605      2595      2598      2621
 -1      1052    8    0    1
 -2       425       429       571      2512      2622      2509
 -1      1053    8    0    1
 -2       584       441       583      2547      2546      2623
 -1      1054    8    0    1
 -2       429       428       571      2092      2624      2622
 -1      1055    8    0    1
 -2       603       463       604      2593      2596      2625
 -1      1056    8    0    1
 -2       571       428       574      2624      2519      2626
 -1      1057    8    0    1
 -2       583       442       611      2545      2627      2628
 -1      1058    8    0    1
 -2       442       471       611      2197      2629      2627
 -1      1059    8    0    1
 -2       602       462       603      2591      2594      2630
 -1      1060    8    0    1
 -2       331       609       483      2616      2631      2248
 -1      1061    8    0    1
 -2       587       320       445      2558      2136      2632
 -1      1062    8    0    1
 -2       601       461       602      2589      2592      2633
 -1      1063    8    0    1
 -2       586       443       612      2553      2634      2635
 -1      1064    8    0    1
 -2       443       470       612      2191      2636      2634
 -1      1065    8    0    1
 -2       448       595       593      2577      2637      2571
 -1      1066    8    0    1
 -2       454       589       597      2562      2638      2581
 -1      1067    8    0    1
 -2       600       460       601      2587      2590      2639
 -1      1068    8    0    1
 -2       599       458       613      2585      2640      2641
 -1      1069    8    0    1
 -2       458       474       613      2225      2642      2640
 -1      1070    8    0    1
 -2       598       457       599      2583      2586      2643
 -1      1071    8    0    1
 -2       596       451       614      2578      2644      2645
 -1      1072    8    0    1
 -2       451       472       614      2215      2646      2644
 -1      1073    8    0    1
 -2       594       456       598      2573      2584      2647
 -1      1074    8    0    1
 -2       590       453       597      2563      2582      2648
 -1      1075    8    0    1
 -2       452       590       615      2564      2649      2650
 -1      1076    8    0    1
 -2       452       615       472      2650      2651      2216
 -1      1077    8    0    1
 -2       486       446       616      2256      2652      2653
 -1      1078    8    0    1
 -2       446       473       616      2220      2654      2652
 -1      1079    8    0    1
 -2       473       447       617      2221      2655      2656
 -1      1080    8    0    1
 -2       447       593       617      2572      2657      2655
 -1      1081    8    0    1
 -2       444       608       618      2605      2658      2659
 -1      1082    8    0    1
 -2       444       618       470      2659      2660      2192
 -1      1083    8    0    1
 -2       474       459       619      2226      2661      2662
 -1      1084    8    0    1
 -2       459       600       619      2588      2663      2661
 -1      1085    8    0    1
 -2       439       380       620      2552      2664      2665
 -1      1086    8    0    1
 -2       582       439       620      2542      2665      2666
 -1      1087    8    0    1
 -2       380       379       620      1944      2667      2664
 -1      1088    8    0    1
 -2       620       379       529      2667      2385      2668
 -1      1089    8    0    1
 -2       479       480       621      2241      2669      2670
 -1      1090    8    0    1
 -2       478       479       622      2238      2671      2672
 -1      1091    8    0    1
 -2       479       621       622      2670      2673      2671
 -1      1092    8    0    1
 -2       481       482       623      2247      2674      2675
 -1      1093    8    0    1
 -2       482       483       624      2250      2676      2677
 -1      1094    8    0    1
 -2       482       624       623      2677      2678      2674
 -1      1095    8    0    1
 -2       475       484       625      2253      2679      2680
 -1      1096    8    0    1
 -2       587       445       610      2632      2614      2681
 -1      1097    8    0    1
 -2       607       588       626      2603      2682      2683
 -1      1098    8    0    1
 -2       484       585       627      2615      2684      2685
 -1      1099    8    0    1
 -2       484       627       625      2685      2686      2679
 -1      1100    8    0    1
 -2       606       607       628      2617      2687      2688
 -1      1101    8    0    1
 -2       604       605       629      2621      2689      2690
 -1      1102    8    0    1
 -2       488       487       630      2263      2691      2692
 -1      1103    8    0    1
 -2       489       488       631      2266      2693      2694
 -1      1104    8    0    1
 -2       488       630       631      2692      2695      2693
 -1      1105    8    0    1
 -2       490       489       632      2269      2696      2697
 -1      1106    8    0    1
 -2       489       631       632      2694      2698      2696
 -1      1107    8    0    1
 -2       491       490       633      2272      2699      2700
 -1      1108    8    0    1
 -2       490       632       633      2697      2701      2699
 -1      1109    8    0    1
 -2       492       491       634      2275      2702      2703
 -1      1110    8    0    1
 -2       491       633       634      2700      2704      2702
 -1      1111    8    0    1
 -2       493       492       635      2278      2705      2706
 -1      1112    8    0    1
 -2       492       634       635      2703      2707      2705
 -1      1113    8    0    1
 -2       494       493       636      2281      2708      2709
 -1      1114    8    0    1
 -2       493       635       636      2706      2710      2708
 -1      1115    8    0    1
 -2       495       494       637      2284      2711      2712
 -1      1116    8    0    1
 -2       494       636       637      2709      2713      2711
 -1      1117    8    0    1
 -2       496       495       638      2287      2714      2715
 -1      1118    8    0    1
 -2       495       637       638      2712      2716      2714
 -1      1119    8    0    1
 -2       497       496       639      2290      2717      2718
 -1      1120    8    0    1
 -2       496       638       639      2715      2719      2717
 -1      1121    8    0    1
 -2       498       497       640      2293      2720      2721
 -1      1122    8    0    1
 -2       497       639       640      2718      2722      2720
 -1      1123    8    0    1
 -2       499       498       641      2296      2723      2724
 -1      1124    8    0    1
 -2       498       640       641      2721      2725      2723
 -1      1125    8    0    1
 -2       500       499       642      2299      2726      2727
 -1      1126    8    0    1
 -2       499       641       642      2724      2728      2726
 -1      1127    8    0    1
 -2       501       500       643      2302      2729      2730
 -1      1128    8    0    1
 -2       500       642       643      2727      2731      2729
 -1      1129    8    0    1
 -2       502       501       644      2305      2732      2733
 -1      1130    8    0    1
 -2       501       643       644      2730      2734      2732
 -1      1131    8    0    1
 -2       503       502       645      2308      2735      2736
 -1      1132    8    0    1
 -2       502       644       645      2733      2737      2735
 -1      1133    8    0    1
 -2       504       503       646      2311      2738      2739
 -1      1134    8    0    1
 -2       503       645       646      2736      2740      2738
 -1      1135    8    0    1
 -2       505       504       647      2314      2741      2742
 -1      1136    8    0    1
 -2       504       646       647      2739      2743      2741
 -1      1137    8    0    1
 -2       506       505       648      2317      2744      2745
 -1      1138    8    0    1
 -2       505       647       648      2742      2746      2744
 -1      1139    8    0    1
 -2       507       506       649      2320      2747      2748
 -1      1140    8    0    1
 -2       506       648       649      2745      2749      2747
 -1      1141    8    0    1
 -2       508       507       650      2323      2750      2751
 -1      1142    8    0    1
 -2       507       649       650      2748      2752      2750
 -1      1143    8    0    1
 -2       509       508       651      2326      2753      2754
 -1      1144    8    0    1
 -2       508       650       651      2751      2755      2753
 -1      1145    8    0    1
 -2       510       509       652      2329      2756      2757
 -1      1146    8    0    1
 -2       509       651       652      2754      2758      2756
 -1      1147    8    0    1
 -2       511       510       653      2332      2759      2760
 -1      1148    8    0    1
 -2       510       652       653      2757      2761      2759
 -1      1149    8    0    1
 -2       512       511       654      2335      2762      2763
 -1      1150    8    0    1
 -2       511       653       654      2760      2764      2762
 -1      1151    8    0    1
 -2       513       512       655      2338      2765      2766
 -1      1152    8    0    1
 -2       512       654       655      2763      2767      2765
 -1      1153    8    0    1
 -2       514       513       656      2341      2768      2769
 -1      1154    8    0    1
 -2       513       655       656      2766      2770      2768
 -1      1155    8    0    1
 -2       515       514       657      2344      2771      2772
 -1      1156    8    0    1
 -2       514       656       657      2769      2773      2771
 -1      1157    8    0    1
 -2       516       515       658      2347      2774      2775
 -1      1158    8    0    1
 -2       515       657       658      2772      2776      2774
 -1      1159    8    0    1
 -2       517       516       659      2350      2777      2778
 -1      1160    8    0    1
 -2       516       658       659      2775      2779      2777
 -1      1161    8    0    1
 -2       518       517       660      2353      2780      2781
 -1      1162    8    0    1
 -2       517       659       660      2778      2782      2780
 -1      1163    8    0    1
 -2       519       518       661      2356      2783      2784
 -1      1164    8    0    1
 -2       518       660       661      2781      2785      2783
 -1      1165    8    0    1
 -2       520       519       662      2359      2786      2787
 -1      1166    8    0    1
 -2       519       661       662      2784      2788      2786
 -1      1167    8    0    1
 -2       522       521       663      2365      2789      2790
 -1      1168    8    0    1
 -2       523       522       664      2368      2791      2792
 -1      1169    8    0    1
 -2       524       523       603      2371      2793      2794
 -1      1170    8    0    1
 -2       525       524       629      2374      2795      2796
 -1      1171    8    0    1
 -2       527       526       665      2380      2797      2798
 -1      1172    8    0    1
 -2       528       527       666      2383      2799      2800
 -1      1173    8    0    1
 -2       527       665       666      2798      2801      2799
 -1      1174    8    0    1
 -2       529       528       667      2386      2802      2803
 -1      1175    8    0    1
 -2       528       666       667      2800      2804      2802
 -1      1176    8    0    1
 -2       531       532       668      2394      2805      2806
 -1      1177    8    0    1
 -2       620       529       669      2668      2807      2808
 -1      1178    8    0    1
 -2       529       667       669      2803      2809      2807
 -1      1179    8    0    1
 -2       530       531       670      2391      2810      2811
 -1      1180    8    0    1
 -2       531       668       670      2806      2812      2810
 -1      1181    8    0    1
 -2       533       534       671      2400      2813      2814
 -1      1182    8    0    1
 -2       534       535       672      2403      2815      2816
 -1      1183    8    0    1
 -2       534       672       671      2816      2817      2813
 -1      1184    8    0    1
 -2       535       536       673      2406      2818      2819
 -1      1185    8    0    1
 -2       535       673       672      2819      2820      2815
 -1      1186    8    0    1
 -2       536       537       674      2409      2821      2822
 -1      1187    8    0    1
 -2       536       674       673      2822      2823      2818
 -1      1188    8    0    1
 -2       537       538       675      2412      2824      2825
 -1      1189    8    0    1
 -2       537       675       674      2825      2826      2821
 -1      1190    8    0    1
 -2       538       539       676      2415      2827      2828
 -1      1191    8    0    1
 -2       538       676       675      2828      2829      2824
 -1      1192    8    0    1
 -2       539       540       677      2418      2830      2831
 -1      1193    8    0    1
 -2       539       677       676      2831      2832      2827
 -1      1194    8    0    1
 -2       540       541       678      2421      2833      2834
 -1      1195    8    0    1
 -2       540       678       677      2834      2835      2830
 -1      1196    8    0    1
 -2       541       542       679      2424      2836      2837
 -1      1197    8    0    1
 -2       541       679       678      2837      2838      2833
 -1      1198    8    0    1
 -2       542       543       680      2427      2839      2840
 -1      1199    8    0    1
 -2       542       680       679      2840      2841      2836
 -1      1200    8    0    1
 -2       543       544       681      2430      2842      2843
 -1      1201    8    0    1
 -2       543       681       680      2843      2844      2839
 -1      1202    8    0    1
 -2       544       545       682      2433      2845      2846
 -1      1203    8    0    1
 -2       544       682       681      2846      2847      2842
 -1      1204    8    0    1
 -2       545       546       683      2436      2848      2849
 -1      1205    8    0    1
 -2       545       683       682      2849      2850      2845
 -1      1206    8    0    1
 -2       546       547       684      2439      2851      2852
 -1      1207    8    0    1
 -2       546       684       683      2852      2853      2848
 -1      1208    8    0    1
 -2       547       548       685      2442      2854      2855
 -1      1209    8    0    1
 -2       547       685       684      2855      2856      2851
 -1      1210    8    0    1
 -2       548       549       686      2445      2857      2858
 -1      1211    8    0    1
 -2       548       686       685      2858      2859      2854
 -1      1212    8    0    1
 -2       549       550       687      2448      2860      2861
 -1      1213    8    0    1
 -2       549       687       686      2861      2862      2857
 -1      1214    8    0    1
 -2       550       551       688      2451      2863      2864
 -1      1215    8    0    1
 -2       550       688       687      2864      2865      2860
 -1      1216    8    0    1
 -2       551       552       689      2454      2866      2867
 -1      1217    8    0    1
 -2       551       689       688      2867      2868      2863
 -1      1218    8    0    1
 -2       552       553       690      2457      2869      2870
 -1      1219    8    0    1
 -2       552       690       689      2870      2871      2866
 -1      1220    8    0    1
 -2       553       554       691      2460      2872      2873
 -1      1221    8    0    1
 -2       553       691       690      2873      2874      2869
 -1      1222    8    0    1
 -2       554       555       692      2463      2875      2876
 -1      1223    8    0    1
 -2       554       692       691      2876      2877      2872
 -1      1224    8    0    1
 -2       555       556       693      2466      2878      2879
 -1      1225    8    0    1
 -2       555       693       692      2879      2880      2875
 -1      1226    8    0    1
 -2       556       557       694      2469      2881      2882
 -1      1227    8    0    1
 -2       556       694       693      2882      2883      2878
 -1      1228    8    0    1
 -2       557       558       695      2472      2884      2885
 -1      1229    8    0    1
 -2       557       695       694      2885      2886      2881
 -1      1230    8    0    1
 -2       558       559       696      2475      2887      2888
 -1      1231    8    0    1
 -2       558       696       695      2888      2889      2884
 -1      1232    8    0    1
 -2       559       560       697      2478      2890      2891
 -1      1233    8    0    1
 -2       559       697       696      2891      2892      2887
 -1      1234    8    0    1
 -2       560       561       698      2481      2893      2894
 -1      1235    8    0    1
 -2       560       698       697      2894      2895      2890
 -1      1236    8    0    1
 -2       561       562       699      2484      2896      2897
 -1      1237    8    0    1
 -2       561       699       698      2897      2898      2893
 -1      1238    8    0    1
 -2       562       563       700      2487      2899      2900
 -1      1239    8    0    1
 -2       562       700       699      2900      2901      2896
 -1      1240    8    0    1
 -2       563       564       701      2490      2902      2903
 -1      1241    8    0    1
 -2       563       701       700      2903      2904      2899
 -1      1242    8    0    1
 -2       564       565       702      2493      2905      2906
 -1      1243    8    0    1
 -2       564       702       701      2906      2907      2902
 -1      1244    8    0    1
 -2       565       566       703      2496      2908      2909
 -1      1245    8    0    1
 -2       565       703       702      2909      2910      2905
 -1      1246    8    0    1
 -2       566       567       704      2499      2911      2912
 -1      1247    8    0    1
 -2       566       704       703      2912      2913      2908
 -1      1248    8    0    1
 -2       567       568       705      2502      2914      2915
 -1      1249    8    0    1
 -2       567       705       704      2915      2916      2911
 -1      1250    8    0    1
 -2       568       569       706      2505      2917      2918
 -1      1251    8    0    1
 -2       568       706       705      2918      2919      2914
 -1      1252    8    0    1
 -2       569       570       707      2508      2920      2921
 -1      1253    8    0    1
 -2       569       707       706      2921      2922      2917
 -1      1254    8    0    1
 -2       570       571       708      2511      2923      2924
 -1      1255    8    0    1
 -2       707       570       708      2920      2924      2925
 -1      1256    8    0    1
 -2       571       574       708      2626      2926      2923
 -1      1257    8    0    1
 -2       584       583       709      2623      2927      2928
 -1      1258    8    0    1
 -2       576       577       710      2529      2929      2930
 -1      1259    8    0    1
 -2       572       573       711      2517      2931      2932
 -1      1260    8    0    1
 -2       577       578       712      2532      2933      2934
 -1      1261    8    0    1
 -2       577       712       710      2934      2935      2929
 -1      1262    8    0    1
 -2       573       576       713      2526      2936      2937
 -1      1263    8    0    1
 -2       711       573       713      2931      2937      2938
 -1      1264    8    0    1
 -2       576       710       713      2930      2939      2936
 -1      1265    8    0    1
 -2       578       579       714      2535      2940      2941
 -1      1266    8    0    1
 -2       578       714       712      2941      2942      2933
 -1      1267    8    0    1
 -2       579       580       715      2538      2943      2944
 -1      1268    8    0    1
 -2       579       715       714      2944      2945      2940
 -1      1269    8    0    1
 -2       580       581       716      2541      2946      2947
 -1      1270    8    0    1
 -2       580       716       715      2947      2948      2943
 -1      1271    8    0    1
 -2       605       606       717      2619      2949      2950
 -1      1272    8    0    1
 -2       485       587       718      2557      2951      2952
 -1      1273    8    0    1
 -2       487       485       718      2260      2952      2953
 -1      1274    8    0    1
 -2       587       610       718      2681      2954      2951
 -1      1275    8    0    1
 -2       593       595       719      2637      2955      2956
 -1      1276    8    0    1
 -2       585       530       720      2551      2957      2958
 -1      1277    8    0    1
 -2       627       585       720      2684      2958      2959
 -1      1278    8    0    1
 -2       530       670       720      2811      2960      2957
 -1      1279    8    0    1
 -2       532       533       721      2397      2961      2962
 -1      1280    8    0    1
 -2       668       532       721      2805      2962      2963
 -1      1281    8    0    1
 -2       533       671       721      2814      2964      2961
 -1      1282    8    0    1
 -2       480       481       722      2244      2965      2966
 -1      1283    8    0    1
 -2       621       480       722      2669      2966      2967
 -1      1284    8    0    1
 -2       481       623       722      2675      2968      2965
 -1      1285    8    0    1
 -2       597       589       723      2638      2969      2970
 -1      1286    8    0    1
 -2       601       602       663      2633      2971      2972
 -1      1287    8    0    1
 -2       477       476       724      2233      2973      2974
 -1      1288    8    0    1
 -2       589       594       725      2575      2975      2976
 -1      1289    8    0    1
 -2       592       596       726      2580      2977      2978
 -1      1290    8    0    1
 -2       600       601       727      2639      2979      2980
 -1      1291    8    0    1
 -2       601       663       727      2972      2981      2979
 -1      1292    8    0    1
 -2       594       598       728      2647      2982      2983
 -1      1293    8    0    1
 -2       590       597       729      2648      2984      2985
 -1      1294    8    0    1
 -2       598       599       730      2643      2986      2987
 -1      1295    8    0    1
 -2       595       592       731      2611      2988      2989
 -1      1296    8    0    1
 -2       592       726       731      2978      2990      2988
 -1      1297    8    0    1
 -2       582       620       669      2666      2808      2991
 -1      1298    8    0    1
 -2       483       609       475      2631      2610      2992
 -1      1299    8    0    1
 -2       471       586       732      2620      2993      2994
 -1      1300    8    0    1
 -2       588       584       733      2618      2995      2996
 -1      1301    8    0    1
 -2       584       709       733      2928      2997      2995
 -1      1302    8    0    1
 -2       608       486       734      2606      2998      2999
 -1      1303    8    0    1
 -2       610       477       735      2612      3000      3001
 -1      1304    8    0    1
 -2       477       724       735      2974      3002      3000
 -1      1305    8    0    1
 -2       478       622       736      2672      3003      3004
 -1      1306    8    0    1
 -2       478       736       591      3004      3005      2568
 -1      1307    8    0    1
 -2       606       628       737      2688      3006      3007
 -1      1308    8    0    1
 -2       606       737       717      3007      3008      2949
 -1      1309    8    0    1
 -2       593       719       738      2956      3009      3010
 -1      1310    8    0    1
 -2       593       738       617      3010      3011      2657
 -1      1311    8    0    1
 -2       626       588       733      2682      2996      3012
 -1      1312    8    0    1
 -2       628       607       626      2687      2683      3013
 -1      1313    8    0    1
 -2       730       599       739      2986      3014      3015
 -1      1314    8    0    1
 -2       599       613       739      2641      3016      3014
 -1      1315    8    0    1
 -2       520       662       740      2787      3017      3018
 -1      1316    8    0    1
 -2       663       521       727      2789      3019      2981
 -1      1317    8    0    1
 -2       521       520       740      2362      3018      3020
 -1      1318    8    0    1
 -2       525       629       741      2796      3021      3022
 -1      1319    8    0    1
 -2       526       525       741      2377      3022      3023
 -1      1320    8    0    1
 -2       483       475       625      2992      2680      3024
 -1      1321    8    0    1
 -2       709       583       742      2927      3025      3026
 -1      1322    8    0    1
 -2       583       611       742      2628      3027      3025
 -1      1323    8    0    1
 -2       708       574       743      2926      3028      3029
 -1      1324    8    0    1
 -2       574       575       743      2522      3030      3028
 -1      1325    8    0    1
 -2       726       596       744      2977      3031      3032
 -1      1326    8    0    1
 -2       596       614       744      2645      3033      3031
 -1      1327    8    0    1
 -2       605       717       629      2950      3034      2689
 -1      1328    8    0    1
 -2       581       582       669      2544      2991      3035
 -1      1329    8    0    1
 -2       611       471       732      2629      2994      3036
 -1      1330    8    0    1
 -2       487       718       630      2953      3037      2691
 -1      1331    8    0    1
 -2       602       603       664      2630      3038      3039
 -1      1332    8    0    1
 -2       665       526       741      2797      3023      3040
 -1      1333    8    0    1
 -2       612       470       745      2636      3041      3042
 -1      1334    8    0    1
 -2       470       618       745      2660      3043      3041
 -1      1335    8    0    1
 -2       603       523       664      2793      2792      3038
 -1      1336    8    0    1
 -2       602       664       663      3039      3044      2971
 -1      1337    8    0    1
 -2       614       472       746      2646      3045      3046
 -1      1338    8    0    1
 -2       472       615       746      2651      3047      3045
 -1      1339    8    0    1
 -2       581       669       747      3035      3048      3049
 -1      1340    8    0    1
 -2       716       581       747      2946      3049      3050
 -1      1341    8    0    1
 -2       669       667       747      2809      3051      3048
 -1      1342    8    0    1
 -2       615       590       748      2649      3052      3053
 -1      1343    8    0    1
 -2       590       729       748      2985      3054      3052
 -1      1344    8    0    1
 -2       725       594       728      2975      2983      3055
 -1      1345    8    0    1
 -2       575       572       749      2523      3056      3057
 -1      1346    8    0    1
 -2       743       575       749      3030      3057      3058
 -1      1347    8    0    1
 -2       572       711       749      2932      3059      3056
 -1      1348    8    0    1
 -2       616       473       750      2654      3060      3061
 -1      1349    8    0    1
 -2       473       617       750      2656      3062      3060
 -1      1350    8    0    1
 -2       719       595       731      2955      2989      3063
 -1      1351    8    0    1
 -2       476       591       751      2567      3064      3065
 -1      1352    8    0    1
 -2       724       476       751      2973      3065      3066
 -1      1353    8    0    1
 -2       591       736       751      3005      3067      3064
 -1      1354    8    0    1
 -2       486       616       752      2653      3068      3069
 -1      1355    8    0    1
 -2       486       752       734      3069      3070      2998
 -1      1356    8    0    1
 -2       618       608       734      2658      2999      3071
 -1      1357    8    0    1
 -2       619       600       727      2663      2980      3072
 -1      1358    8    0    1
 -2       589       725       723      2976      3073      2969
 -1      1359    8    0    1
 -2       728       598       730      2982      2987      3074
 -1      1360    8    0    1
 -2       624       483       625      2676      3024      3075
 -1      1361    8    0    1
 -2       586       612       753      2635      3076      3077
 -1      1362    8    0    1
 -2       586       753       732      3077      3078      2993
 -1      1363    8    0    1
 -2       603       604       754      2625      3079      3080
 -1      1364    8    0    1
 -2       754       604       629      3079      2690      3081
 -1      1365    8    0    1
 -2       623       624       755      2678      3082      3083
 -1      1366    8    0    1
 -2       731       726       756      2990      3084      3085
 -1      1367    8    0    1
 -2       597       723       729      2970      3086      2984
 -1      1368    8    0    1
 -2       727       521       740      3019      3020      3087
 -1      1369    8    0    1
 -2       522       663       664      2790      3044      2791
 -1      1370    8    0    1
 -2       632       631       757      2698      3088      3089
 -1      1371    8    0    1
 -2       633       632       758      2701      3090      3091
 -1      1372    8    0    1
 -2       632       757       758      3089      3092      3090
 -1      1373    8    0    1
 -2       634       633       759      2704      3093      3094
 -1      1374    8    0    1
 -2       633       758       759      3091      3095      3093
 -1      1375    8    0    1
 -2       635       634       760      2707      3096      3097
 -1      1376    8    0    1
 -2       634       759       760      3094      3098      3096
 -1      1377    8    0    1
 -2       636       635       761      2710      3099      3100
 -1      1378    8    0    1
 -2       635       760       761      3097      3101      3099
 -1      1379    8    0    1
 -2       637       636       762      2713      3102      3103
 -1      1380    8    0    1
 -2       636       761       762      3100      3104      3102
 -1      1381    8    0    1
 -2       638       637       763      2716      3105      3106
 -1      1382    8    0    1
 -2       637       762       763      3103      3107      3105
 -1      1383    8    0    1
 -2       639       638       764      2719      3108      3109
 -1      1384    8    0    1
 -2       638       763       764      3106      3110      3108
 -1      1385    8    0    1
 -2       640       639       765      2722      3111      3112
 -1      1386    8    0    1
 -2       639       764       765      3109      3113      3111
 -1      1387    8    0    1
 -2       641       640       766      2725      3114      3115
 -1      1388    8    0    1
 -2       640       765       766      3112      3116      3114
 -1      1389    8    0    1
 -2       642       641       767      2728      3117      3118
 -1      1390    8    0    1
 -2       641       766       767      3115      3119      3117
 -1      1391    8    0    1
 -2       643       642       768      2731      3120      3121
 -1      1392    8    0    1
 -2       642       767       768      3118      3122      3120
 -1      1393    8    0    1
 -2       644       643       769      2734      3123      3124
 -1      1394    8    0    1
 -2       643       768       769      3121      3125      3123
 -1      1395    8    0    1
 -2       645       644       770      2737      3126      3127
 -1      1396    8    0    1
 -2       644       769       770      3124      3128      3126
 -1      1397    8    0    1
 -2       646       645       771      2740      3129      3130
 -1      1398    8    0    1
 -2       645       770       771      3127      3131      3129
 -1      1399    8    0    1
 -2       647       646       772      2743      3132      3133
 -1      1400    8    0    1
 -2       646       771       772      3130      3134      3132
 -1      1401    8    0    1
 -2       648       647       773      2746      3135      3136
 -1      1402    8    0    1
 -2       647       772       773      3133      3137      3135
 -1      1403    8    0    1
 -2       649       648       774      2749      3138      3139
 -1      1404    8    0    1
 -2       648       773       774      3136      3140      3138
 -1      1405    8    0    1
 -2       650       649       775      2752      3141      3142
 -1      1406    8    0    1
 -2       649       774       775      3139      3143      3141
 -1      1407    8    0    1
 -2       651       650       776      2755      3144      3145
 -1      1408    8    0    1
 -2       650       775       776      3142      3146      3144
 -1      1409    8    0    1
 -2       652       651       777      2758      3147      3148
 -1      1410    8    0    1
 -2       651       776       777      3145      3149      3147
 -1      1411    8    0    1
 -2       653       652       778      2761      3150      3151
 -1      1412    8    0    1
 -2       652       777       778      3148      3152      3150
 -1      1413    8    0    1
 -2       654       653       779      2764      3153      3154
 -1      1414    8    0    1
 -2       653       778       779      3151      3155      3153
 -1      1415    8    0    1
 -2       655       654       780      2767      3156      3157
 -1      1416    8    0    1
 -2       654       779       780      3154      3158      3156
 -1      1417    8    0    1
 -2       656       655       781      2770      3159      3160
 -1      1418    8    0    1
 -2       655       780       781      3157      3161      3159
 -1      1419    8    0    1
 -2       657       656       782      2773      3162      3163
 -1      1420    8    0    1
 -2       656       781       782      3160      3164      3162
 -1      1421    8    0    1
 -2       658       657       783      2776      3165      3166
 -1      1422    8    0    1
 -2       657       782       783      3163      3167      3165
 -1      1423    8    0    1
 -2       659       658       784      2779      3168      3169
 -1      1424    8    0    1
 -2       658       783       784      3166      3170      3168
 -1      1425    8    0    1
 -2       660       659       785      2782      3171      3172
 -1      1426    8    0    1
 -2       659       784       785      3169      3173      3171
 -1      1427    8    0    1
 -2       662       661       739      2788      3174      3175
 -1      1428    8    0    1
 -2       741       629       717      3021      3034      3176
 -1      1429    8    0    1
 -2       667       666       786      2804      3177      3178
 -1      1430    8    0    1
 -2       667       786       747      3178      3179      3051
 -1      1431    8    0    1
 -2       670       668       787      2812      3180      3181
 -1      1432    8    0    1
 -2       672       673       788      2820      3182      3183
 -1      1433    8    0    1
 -2       671       672       789      2817      3184      3185
 -1      1434    8    0    1
 -2       672       788       789      3183      3186      3184
 -1      1435    8    0    1
 -2       674       675       790      2826      3187      3188
 -1      1436    8    0    1
 -2       675       676       791      2829      3189      3190
 -1      1437    8    0    1
 -2       675       791       790      3190      3191      3187
 -1      1438    8    0    1
 -2       676       677       792      2832      3192      3193
 -1      1439    8    0    1
 -2       676       792       791      3193      3194      3189
 -1      1440    8    0    1
 -2       677       678       793      2835      3195      3196
 -1      1441    8    0    1
 -2       677       793       792      3196      3197      3192
 -1      1442    8    0    1
 -2       678       679       794      2838      3198      3199
 -1      1443    8    0    1
 -2       678       794       793      3199      3200      3195
 -1      1444    8    0    1
 -2       679       680       795      2841      3201      3202
 -1      1445    8    0    1
 -2       679       795       794      3202      3203      3198
 -1      1446    8    0    1
 -2       680       681       796      2844      3204      3205
 -1      1447    8    0    1
 -2       680       796       795      3205      3206      3201
 -1      1448    8    0    1
 -2       681       682       797      2847      3207      3208
 -1      1449    8    0    1
 -2       681       797       796      3208      3209      3204
 -1      1450    8    0    1
 -2       682       683       798      2850      3210      3211
 -1      1451    8    0    1
 -2       682       798       797      3211      3212      3207
 -1      1452    8    0    1
 -2       683       684       799      2853      3213      3214
 -1      1453    8    0    1
 -2       683       799       798      3214      3215      3210
 -1      1454    8    0    1
 -2       684       685       800      2856      3216      3217
 -1      1455    8    0    1
 -2       684       800       799      3217      3218      3213
 -1      1456    8    0    1
 -2       685       686       801      2859      3219      3220
 -1      1457    8    0    1
 -2       685       801       800      3220      3221      3216
 -1      1458    8    0    1
 -2       686       687       802      2862      3222      3223
 -1      1459    8    0    1
 -2       686       802       801      3223      3224      3219
 -1      1460    8    0    1
 -2       687       688       803      2865      3225      3226
 -1      1461    8    0    1
 -2       687       803       802      3226      3227      3222
 -1      1462    8    0    1
 -2       688       689       804      2868      3228      3229
 -1      1463    8    0    1
 -2       688       804       803      3229      3230      3225
 -1      1464    8    0    1
 -2       689       690       805      2871      3231      3232
 -1      1465    8    0    1
 -2       689       805       804      3232      3233      3228
 -1      1466    8    0    1
 -2       690       691       806      2874      3234      3235
 -1      1467    8    0    1
 -2       690       806       805      3235      3236      3231
 -1      1468    8    0    1
 -2       691       692       807      2877      3237      3238
 -1      1469    8    0    1
 -2       691       807       806      3238      3239      3234
 -1      1470    8    0    1
 -2       692       693       808      2880      3240      3241
 -1      1471    8    0    1
 -2       692       808       807      3241      3242      3237
 -1      1472    8    0    1
 -2       693       694       809      2883      3243      3244
 -1      1473    8    0    1
 -2       693       809       808      3244      3245      3240
 -1      1474    8    0    1
 -2       694       695       810      2886      3246      3247
 -1      1475    8    0    1
 -2       694       810       809      3247      3248      3243
 -1      1476    8    0    1
 -2       695       696       811      2889      3249      3250
 -1      1477    8    0    1
 -2       695       811       810      3250      3251      3246
 -1      1478    8    0    1
 -2       696       697       812      2892      3252      3253
 -1      1479    8    0    1
 -2       696       812       811      3253      3254      3249
 -1      1480    8    0    1
 -2       697       698       813      2895      3255      3256
 -1      1481    8    0    1
 -2       697       813       812      3256      3257      3252
 -1      1482    8    0    1
 -2       698       699       756      2898      3258      3259
 -1      1483    8    0    1
 -2       700       701       814      2904      3260      3261
 -1      1484    8    0    1
 -2       701       702       750      2907      3262      3263
 -1      1485    8    0    1
 -2       702       703       752      2910      3264      3265
 -1      1486    8    0    1
 -2       704       705       815      2916      3266      3267
 -1      1487    8    0    1
 -2       705       706       816      2919      3268      3269
 -1      1488    8    0    1
 -2       705       816       815      3269      3270      3266
 -1      1489    8    0    1
 -2       706       707       817      2922      3271      3272
 -1      1490    8    0    1
 -2       706       817       816      3272      3273      3268
 -1      1491    8    0    1
 -2       707       708       818      2925      3274      3275
 -1      1492    8    0    1
 -2       817       707       818      3271      3275      3276
 -1      1493    8    0    1
 -2       708       743       818      3029      3277      3274
 -1      1494    8    0    1
 -2       712       714       819      2942      3278      3279
 -1      1495    8    0    1
 -2       710       712       820      2935      3280      3281
 -1      1496    8    0    1
 -2       712       819       820      3279      3282      3280
 -1      1497    8    0    1
 -2       718       610       735      2954      3001      3283
 -1      1498    8    0    1
 -2       714       715       821      2945      3284      3285
 -1      1499    8    0    1
 -2       714       821       819      3285      3286      3278
 -1      1500    8    0    1
 -2       715       716       822      2948      3287      3288
 -1      1501    8    0    1
 -2       715       822       821      3288      3289      3284
 -1      1502    8    0    1
 -2       673       674       823      2823      3290      3291
 -1      1503    8    0    1
 -2       788       673       823      3182      3291      3292
 -1      1504    8    0    1
 -2       674       790       823      3188      3293      3290
 -1      1505    8    0    1
 -2       622       621       824      2673      3294      3295
 -1      1506    8    0    1
 -2       631       630       825      2695      3296      3297
 -1      1507    8    0    1
 -2       631       825       757      3297      3298      3088
 -1      1508    8    0    1
 -2       613       474       826      2642      3299      3300
 -1      1509    8    0    1
 -2       626       733       827      3012      3301      3302
 -1      1510    8    0    1
 -2       611       732       828      3036      3303      3304
 -1      1511    8    0    1
 -2       723       725       829      3073      3305      3306
 -1      1512    8    0    1
 -2       725       728       830      3055      3307      3308
 -1      1513    8    0    1
 -2       624       625       831      3075      3309      3310
 -1      1514    8    0    1
 -2       755       624       831      3082      3310      3311
 -1      1515    8    0    1
 -2       625       627       831      2686      3312      3309
 -1      1516    8    0    1
 -2       728       730       832      3074      3313      3314
 -1      1517    8    0    1
 -2       733       709       833      2997      3315      3316
 -1      1518    8    0    1
 -2       619       727       740      3072      3087      3317
 -1      1519    8    0    1
 -2       628       626       834      3013      3318      3319
 -1      1520    8    0    1
 -2       618       734       835      3071      3320      3321
 -1      1521    8    0    1
 -2       630       718       836      3037      3322      3323
 -1      1522    8    0    1
 -2       825       630       836      3296      3323      3324
 -1      1523    8    0    1
 -2       718       735       836      3283      3325      3322
 -1      1524    8    0    1
 -2       474       619       826      2662      3326      3299
 -1      1525    8    0    1
 -2       729       723       837      3086      3327      3328
 -1      1526    8    0    1
 -2       741       717       737      3176      3008      3329
 -1      1527    8    0    1
 -2       619       740       662      3317      3017      3330
 -1      1528    8    0    1
 -2       736       622       838      3003      3331      3332
 -1      1529    8    0    1
 -2       622       824       838      3295      3333      3331
 -1      1530    8    0    1
 -2       737       628       834      3006      3319      3334
 -1      1531    8    0    1
 -2       709       742       839      3026      3335      3336
 -1      1532    8    0    1
 -2       709       839       833      3336      3337      3315
 -1      1533    8    0    1
 -2       738       719       840      3009      3338      3339
 -1      1534    8    0    1
 -2       728       832       830      3314      3340      3307
 -1      1535    8    0    1
 -2       739       613       662      3016      3341      3175
 -1      1536    8    0    1
 -2       741       737       665      3329      3342      3040
 -1      1537    8    0    1
 -2       623       755       841      3083      3343      3344
 -1      1538    8    0    1
 -2       623       841       722      3344      3345      2968
 -1      1539    8    0    1
 -2       665       737       842      3342      3346      3347
 -1      1540    8    0    1
 -2       666       665       842      2801      3347      3348
 -1      1541    8    0    1
 -2       737       834       842      3334      3349      3346
 -1      1542    8    0    1
 -2       661       660       843      2785      3350      3351
 -1      1543    8    0    1
 -2       786       666       842      3177      3348      3352
 -1      1544    8    0    1
 -2       835       734       844      3320      3353      3354
 -1      1545    8    0    1
 -2       734       752       844      3070      3355      3353
 -1      1546    8    0    1
 -2       524       603       754      2794      3080      3356
 -1      1547    8    0    1
 -2       612       745       845      3042      3357      3358
 -1      1548    8    0    1
 -2       612       845       753      3358      3359      3076
 -1      1549    8    0    1
 -2       668       721       846      2963      3360      3361
 -1      1550    8    0    1
 -2       668       846       787      3361      3362      3180
 -1      1551    8    0    1
 -2       621       722       847      2967      3363      3364
 -1      1552    8    0    1
 -2       824       621       847      3294      3364      3365
 -1      1553    8    0    1
 -2       722       841       847      3345      3366      3363
 -1      1554    8    0    1
 -2       742       611       828      3027      3304      3367
 -1      1555    8    0    1
 -2       661       843       739      3351      3368      3174
 -1      1556    8    0    1
 -2       671       789       848      3185      3369      3370
 -1      1557    8    0    1
 -2       671       848       721      3370      3371      2964
 -1      1558    8    0    1
 -2       699       700       849      2901      3372      3373
 -1      1559    8    0    1
 -2       701       750       814      3263      3374      3260
 -1      1560    8    0    1
 -2       704       815       844      3267      3375      3376
 -1      1561    8    0    1
 -2       703       704       844      2913      3376      3377
 -1      1562    8    0    1
 -2       750       617       814      3062      3378      3374
 -1      1563    8    0    1
 -2       744       614       850      3033      3379      3380
 -1      1564    8    0    1
 -2       614       746       850      3046      3381      3379
 -1      1565    8    0    1
 -2       711       713       851      2938      3382      3383
 -1      1566    8    0    1
 -2       616       750       752      3061      3384      3068
 -1      1567    8    0    1
 -2       827       733       833      3301      3316      3385
 -1      1568    8    0    1
 -2       713       710       852      2939      3386      3387
 -1      1569    8    0    1
 -2       851       713       852      3382      3387      3388
 -1      1570    8    0    1
 -2       710       820       852      3281      3389      3386
 -1      1571    8    0    1
 -2       726       744       853      3032      3390      3391
 -1      1572    8    0    1
 -2       726       853       756      3391      3392      3084
 -1      1573    8    0    1
 -2       748       729       854      3054      3393      3394
 -1      1574    8    0    1
 -2       729       837       854      3328      3395      3393
 -1      1575    8    0    1
 -2       615       748       855      3053      3396      3397
 -1      1576    8    0    1
 -2       615       855       746      3397      3398      3047
 -1      1577    8    0    1
 -2       843       660       785      3350      3172      3399
 -1      1578    8    0    1
 -2       745       618       835      3043      3321      3400
 -1      1579    8    0    1
 -2       629       524       754      2795      3356      3081
 -1      1580    8    0    1
 -2       720       670       856      2960      3401      3402
 -1      1581    8    0    1
 -2       670       787       856      3181      3403      3401
 -1      1582    8    0    1
 -2       627       720       857      2959      3404      3405
 -1      1583    8    0    1
 -2       831       627       857      3312      3405      3406
 -1      1584    8    0    1
 -2       720       856       857      3402      3407      3404
 -1      1585    8    0    1
 -2       626       827       834      3302      3408      3318
 -1      1586    8    0    1
 -2       840       719       731      3338      3063      3409
 -1      1587    8    0    1
 -2       849       700       814      3372      3261      3410
 -1      1588    8    0    1
 -2       749       711       858      3059      3411      3412
 -1      1589    8    0    1
 -2       711       851       858      3383      3413      3411
 -1      1590    8    0    1
 -2       829       725       830      3305      3308      3414
 -1      1591    8    0    1
 -2       828       732       859      3303      3415      3416
 -1      1592    8    0    1
 -2       723       829       837      3306      3417      3327
 -1      1593    8    0    1
 -2       716       747       860      3050      3418      3419
 -1      1594    8    0    1
 -2       822       716       860      3287      3419      3420
 -1      1595    8    0    1
 -2       747       786       860      3179      3421      3418
 -1      1596    8    0    1
 -2       730       739       843      3015      3368      3422
 -1      1597    8    0    1
 -2       724       751       861      3066      3423      3424
 -1      1598    8    0    1
 -2       730       843       832      3422      3425      3313
 -1      1599    8    0    1
 -2       735       724       862      3002      3426      3427
 -1      1600    8    0    1
 -2       836       735       862      3325      3427      3428
 -1      1601    8    0    1
 -2       724       861       862      3424      3429      3426
 -1      1602    8    0    1
 -2       732       753       859      3078      3430      3415
 -1      1603    8    0    1
 -2       840       731       756      3409      3085      3431
 -1      1604    8    0    1
 -2       830       832       863      3340      3432      3433
 -1      1605    8    0    1
 -2       842       834       864      3349      3434      3435
 -1      1606    8    0    1
 -2       792       793       865      3197      3436      3437
 -1      1607    8    0    1
 -2       789       788       866      3186      3438      3439
 -1      1608    8    0    1
 -2       758       757       867      3092      3440      3441
 -1      1609    8    0    1
 -2       759       758       868      3095      3442      3443
 -1      1610    8    0    1
 -2       758       867       868      3441      3444      3442
 -1      1611    8    0    1
 -2       760       759       869      3098      3445      3446
 -1      1612    8    0    1
 -2       759       868       869      3443      3447      3445
 -1      1613    8    0    1
 -2       761       760       870      3101      3448      3449
 -1      1614    8    0    1
 -2       760       869       870      3446      3450      3448
 -1      1615    8    0    1
 -2       762       761       871      3104      3451      3452
 -1      1616    8    0    1
 -2       761       870       871      3449      3453      3451
 -1      1617    8    0    1
 -2       763       762       872      3107      3454      3455
 -1      1618    8    0    1
 -2       762       871       872      3452      3456      3454
 -1      1619    8    0    1
 -2       764       763       873      3110      3457      3458
 -1      1620    8    0    1
 -2       763       872       873      3455      3459      3457
 -1      1621    8    0    1
 -2       765       764       874      3113      3460      3461
 -1      1622    8    0    1
 -2       764       873       874      3458      3462      3460
 -1      1623    8    0    1
 -2       766       765       875      3116      3463      3464
 -1      1624    8    0    1
 -2       765       874       875      3461      3465      3463
 -1      1625    8    0    1
 -2       767       766       876      3119      3466      3467
 -1      1626    8    0    1
 -2       766       875       876      3464      3468      3466
 -1      1627    8    0    1
 -2       768       767       877      3122      3469      3470
 -1      1628    8    0    1
 -2       767       876       877      3467      3471      3469
 -1      1629    8    0    1
 -2       769       768       878      3125      3472      3473
 -1      1630    8    0    1
 -2       768       877       878      3470      3474      3472
 -1      1631    8    0    1
 -2       770       769       879      3128      3475      3476
 -1      1632    8    0    1
 -2       769       878       879      3473      3477      3475
 -1      1633    8    0    1
 -2       771       770       880      3131      3478      3479
 -1      1634    8    0    1
 -2       770       879       880      3476      3480      3478
 -1      1635    8    0    1
 -2       772       771       881      3134      3481      3482
 -1      1636    8    0    1
 -2       771       880       881      3479      3483      3481
 -1      1637    8    0    1
 -2       773       772       882      3137      3484      3485
 -1      1638    8    0    1
 -2       772       881       882      3482      3486      3484
 -1      1639    8    0    1
 -2       774       773       883      3140      3487      3488
 -1      1640    8    0    1
 -2       773       882       883      3485      3489      3487
 -1      1641    8    0    1
 -2       775       774       884      3143      3490      3491
 -1      1642    8    0    1
 -2       774       883       884      3488      3492      3490
 -1      1643    8    0    1
 -2       776       775       885      3146      3493      3494
 -1      1644    8    0    1
 -2       775       884       885      3491      3495      3493
 -1      1645    8    0    1
 -2       777       776       886      3149      3496      3497
 -1      1646    8    0    1
 -2       776       885       886      3494      3498      3496
 -1      1647    8    0    1
 -2       778       777       887      3152      3499      3500
 -1      1648    8    0    1
 -2       777       886       887      3497      3501      3499
 -1      1649    8    0    1
 -2       779       778       888      3155      3502      3503
 -1      1650    8    0    1
 -2       778       887       888      3500      3504      3502
 -1      1651    8    0    1
 -2       780       779       889      3158      3505      3506
 -1      1652    8    0    1
 -2       779       888       889      3503      3507      3505
 -1      1653    8    0    1
 -2       781       780       890      3161      3508      3509
 -1      1654    8    0    1
 -2       780       889       890      3506      3510      3508
 -1      1655    8    0    1
 -2       782       781       891      3164      3511      3512
 -1      1656    8    0    1
 -2       781       890       891      3509      3513      3511
 -1      1657    8    0    1
 -2       783       782       892      3167      3514      3515
 -1      1658    8    0    1
 -2       782       891       892      3512      3516      3514
 -1      1659    8    0    1
 -2       784       783       893      3170      3517      3518
 -1      1660    8    0    1
 -2       783       892       893      3515      3519      3517
 -1      1661    8    0    1
 -2       785       784       863      3173      3520      3521
 -1      1662    8    0    1
 -2       786       842       864      3352      3435      3522
 -1      1663    8    0    1
 -2       844       752       703      3355      3264      3377
 -1      1664    8    0    1
 -2       791       792       894      3194      3523      3524
 -1      1665    8    0    1
 -2       792       865       894      3437      3525      3523
 -1      1666    8    0    1
 -2       790       791       895      3191      3526      3527
 -1      1667    8    0    1
 -2       791       894       895      3524      3528      3526
 -1      1668    8    0    1
 -2       793       794       896      3200      3529      3530
 -1      1669    8    0    1
 -2       793       896       865      3530      3531      3436
 -1      1670    8    0    1
 -2       794       795       897      3203      3532      3533
 -1      1671    8    0    1
 -2       794       897       896      3533      3534      3529
 -1      1672    8    0    1
 -2       795       796       898      3206      3535      3536
 -1      1673    8    0    1
 -2       795       898       897      3536      3537      3532
 -1      1674    8    0    1
 -2       796       797       899      3209      3538      3539
 -1      1675    8    0    1
 -2       796       899       898      3539      3540      3535
 -1      1676    8    0    1
 -2       797       798       900      3212      3541      3542
 -1      1677    8    0    1
 -2       797       900       899      3542      3543      3538
 -1      1678    8    0    1
 -2       798       799       901      3215      3544      3545
 -1      1679    8    0    1
 -2       798       901       900      3545      3546      3541
 -1      1680    8    0    1
 -2       799       800       902      3218      3547      3548
 -1      1681    8    0    1
 -2       799       902       901      3548      3549      3544
 -1      1682    8    0    1
 -2       800       801       903      3221      3550      3551
 -1      1683    8    0    1
 -2       800       903       902      3551      3552      3547
 -1      1684    8    0    1
 -2       801       802       904      3224      3553      3554
 -1      1685    8    0    1
 -2       801       904       903      3554      3555      3550
 -1      1686    8    0    1
 -2       802       803       905      3227      3556      3557
 -1      1687    8    0    1
 -2       802       905       904      3557      3558      3553
 -1      1688    8    0    1
 -2       803       804       906      3230      3559      3560
 -1      1689    8    0    1
 -2       803       906       905      3560      3561      3556
 -1      1690    8    0    1
 -2       804       805       907      3233      3562      3563
 -1      1691    8    0    1
 -2       804       907       906      3563      3564      3559
 -1      1692    8    0    1
 -2       805       806       908      3236      3565      3566
 -1      1693    8    0    1
 -2       805       908       907      3566      3567      3562
 -1      1694    8    0    1
 -2       806       807       909      3239      3568      3569
 -1      1695    8    0    1
 -2       806       909       908      3569      3570      3565
 -1      1696    8    0    1
 -2       807       808       910      3242      3571      3572
 -1      1697    8    0    1
 -2       807       910       909      3572      3573      3568
 -1      1698    8    0    1
 -2       808       809       911      3245      3574      3575
 -1      1699    8    0    1
 -2       808       911       910      3575      3576      3571
 -1      1700    8    0    1
 -2       809       810       912      3248      3577      3578
 -1      1701    8    0    1
 -2       809       912       911      3578      3579      3574
 -1      1702    8    0    1
 -2       810       811       913      3251      3580      3581
 -1      1703    8    0    1
 -2       810       913       912      3581      3582      3577
 -1      1704    8    0    1
 -2       811       812       914      3254      3583      3584
 -1      1705    8    0    1
 -2       811       914       913      3584      3585      3580
 -1      1706    8    0    1
 -2       698       756       813      3259      3586      3255
 -1      1707    8    0    1
 -2       815       816       915      3270      3587      3588
 -1      1708    8    0    1
 -2       821       822       827      3289      3589      3590
 -1      1709    8    0    1
 -2       820       819       839      3282      3591      3592
 -1      1710    8    0    1
 -2       757       825       916      3298      3593      3594
 -1      1711    8    0    1
 -2       757       916       867      3594      3595      3440
 -1      1712    8    0    1
 -2       613       826       662      3300      3596      3341
 -1      1713    8    0    1
 -2       742       828       917      3367      3597      3598
 -1      1714    8    0    1
 -2       742       917       839      3598      3599      3335
 -1      1715    8    0    1
 -2       745       835       915      3400      3600      3601
 -1      1716    8    0    1
 -2       843       785       832      3399      3602      3425
 -1      1717    8    0    1
 -2       827       833       821      3385      3603      3590
 -1      1718    8    0    1
 -2       837       829       918      3417      3604      3605
 -1      1719    8    0    1
 -2       751       736       919      3067      3606      3607
 -1      1720    8    0    1
 -2       751       919       861      3607      3608      3423
 -1      1721    8    0    1
 -2       816       817       920      3273      3609      3610
 -1      1722    8    0    1
 -2       816       920       915      3610      3611      3587
 -1      1723    8    0    1
 -2       859       753       921      3430      3612      3613
 -1      1724    8    0    1
 -2       753       845       921      3359      3614      3612
 -1      1725    8    0    1
 -2       829       830       922      3414      3615      3616
 -1      1726    8    0    1
 -2       743       749       923      3058      3617      3618
 -1      1727    8    0    1
 -2       818       743       923      3277      3618      3619
 -1      1728    8    0    1
 -2       749       858       923      3412      3620      3617
 -1      1729    8    0    1
 -2       750       702       752      3262      3265      3384
 -1      1730    8    0    1
 -2       828       859       924      3416      3621      3622
 -1      1731    8    0    1
 -2       828       924       917      3622      3623      3597
 -1      1732    8    0    1
 -2       755       831       925      3311      3624      3625
 -1      1733    8    0    1
 -2       831       857       925      3406      3626      3624
 -1      1734    8    0    1
 -2       832       785       863      3602      3521      3432
 -1      1735    8    0    1
 -2       745       915       845      3601      3627      3357
 -1      1736    8    0    1
 -2       830       863       922      3433      3628      3615
 -1      1737    8    0    1
 -2       841       755       925      3343      3625      3629
 -1      1738    8    0    1
 -2       790       895       926      3527      3630      3631
 -1      1739    8    0    1
 -2       790       926       823      3631      3632      3293
 -1      1740    8    0    1
 -2       789       866       927      3439      3633      3634
 -1      1741    8    0    1
 -2       789       927       848      3634      3635      3369
 -1      1742    8    0    1
 -2       736       838       919      3332      3636      3606
 -1      1743    8    0    1
 -2       784       893       863      3518      3637      3520
 -1      1744    8    0    1
 -2       721       848       846      3371      3638      3360
 -1      1745    8    0    1
 -2       824       847       928      3365      3639      3640
 -1      1746    8    0    1
 -2       835       844       815      3354      3375      3641
 -1      1747    8    0    1
 -2       858       851       929      3413      3642      3643
 -1      1748    8    0    1
 -2       812       813       930      3257      3644      3645
 -1      1749    8    0    1
 -2       859       921       931      3613      3646      3647
 -1      1750    8    0    1
 -2       859       931       924      3647      3648      3621
 -1      1751    8    0    1
 -2       815       915       835      3588      3600      3641
 -1      1752    8    0    1
 -2       756       699       849      3258      3373      3649
 -1      1753    8    0    1
 -2       837       918       932      3605      3650      3651
 -1      1754    8    0    1
 -2       820       839       917      3592      3599      3652
 -1      1755    8    0    1
 -2       850       746       933      3381      3653      3654
 -1      1756    8    0    1
 -2       746       855       933      3398      3655      3653
 -1      1757    8    0    1
 -2       826       619       662      3326      3330      3596
 -1      1758    8    0    1
 -2       852       820       917      3389      3652      3656
 -1      1759    8    0    1
 -2       854       837       932      3395      3651      3657
 -1      1760    8    0    1
 -2       788       823       934      3292      3658      3659
 -1      1761    8    0    1
 -2       866       788       934      3438      3659      3660
 -1      1762    8    0    1
 -2       823       926       934      3632      3661      3658
 -1      1763    8    0    1
 -2       855       748       935      3396      3662      3663
 -1      1764    8    0    1
 -2       748       854       935      3394      3664      3662
 -1      1765    8    0    1
 -2       617       738       814      3011      3665      3378
 -1      1766    8    0    1
 -2       918       829       922      3604      3616      3666
 -1      1767    8    0    1
 -2       861       919       936      3608      3667      3668
 -1      1768    8    0    1
 -2       817       818       923      3276      3619      3669
 -1      1769    8    0    1
 -2       856       787       937      3403      3670      3671
 -1      1770    8    0    1
 -2       824       928       938      3640      3672      3673
 -1      1771    8    0    1
 -2       824       938       838      3673      3674      3333
 -1      1772    8    0    1
 -2       929       851       931      3642      3675      3676
 -1      1773    8    0    1
 -2       812       930       914      3645      3677      3583
 -1      1774    8    0    1
 -2       817       923       920      3669      3678      3609
 -1      1775    8    0    1
 -2       937       787       939      3670      3679      3680
 -1      1776    8    0    1
 -2       787       846       939      3362      3681      3679
 -1      1777    8    0    1
 -2       814       738       840      3665      3339      3682
 -1      1778    8    0    1
 -2       851       852       931      3388      3683      3675
 -1      1779    8    0    1
 -2       821       833       819      3603      3684      3286
 -1      1780    8    0    1
 -2       862       861       940      3429      3685      3686
 -1      1781    8    0    1
 -2       861       936       940      3668      3687      3685
 -1      1782    8    0    1
 -2       834       827       864      3408      3688      3434
 -1      1783    8    0    1
 -2       916       825       941      3593      3689      3690
 -1      1784    8    0    1
 -2       931       921       929      3646      3691      3676
 -1      1785    8    0    1
 -2       930       813       744      3644      3692      3693
 -1      1786    8    0    1
 -2       869       868       942      3447      3694      3695
 -1      1787    8    0    1
 -2       870       869       943      3450      3696      3697
 -1      1788    8    0    1
 -2       869       942       943      3695      3698      3696
 -1      1789    8    0    1
 -2       871       870       944      3453      3699      3700
 -1      1790    8    0    1
 -2       870       943       944      3697      3701      3699
 -1      1791    8    0    1
 -2       872       871       945      3456      3702      3703
 -1      1792    8    0    1
 -2       871       944       945      3700      3704      3702
 -1      1793    8    0    1
 -2       873       872       946      3459      3705      3706
 -1      1794    8    0    1
 -2       872       945       946      3703      3707      3705
 -1      1795    8    0    1
 -2       874       873       947      3462      3708      3709
 -1      1796    8    0    1
 -2       873       946       947      3706      3710      3708
 -1      1797    8    0    1
 -2       875       874       948      3465      3711      3712
 -1      1798    8    0    1
 -2       874       947       948      3709      3713      3711
 -1      1799    8    0    1
 -2       876       875       949      3468      3714      3715
 -1      1800    8    0    1
 -2       875       948       949      3712      3716      3714
 -1      1801    8    0    1
 -2       877       876       950      3471      3717      3718
 -1      1802    8    0    1
 -2       876       949       950      3715      3719      3717
 -1      1803    8    0    1
 -2       878       877       951      3474      3720      3721
 -1      1804    8    0    1
 -2       877       950       951      3718      3722      3720
 -1      1805    8    0    1
 -2       879       878       952      3477      3723      3724
 -1      1806    8    0    1
 -2       878       951       952      3721      3725      3723
 -1      1807    8    0    1
 -2       880       879       953      3480      3726      3727
 -1      1808    8    0    1
 -2       879       952       953      3724      3728      3726
 -1      1809    8    0    1
 -2       881       880       954      3483      3729      3730
 -1      1810    8    0    1
 -2       880       953       954      3727      3731      3729
 -1      1811    8    0    1
 -2       882       881       955      3486      3732      3733
 -1      1812    8    0    1
 -2       881       954       955      3730      3734      3732
 -1      1813    8    0    1
 -2       883       882       956      3489      3735      3736
 -1      1814    8    0    1
 -2       882       955       956      3733      3737      3735
 -1      1815    8    0    1
 -2       884       883       957      3492      3738      3739
 -1      1816    8    0    1
 -2       883       956       957      3736      3740      3738
 -1      1817    8    0    1
 -2       885       884       958      3495      3741      3742
 -1      1818    8    0    1
 -2       884       957       958      3739      3743      3741
 -1      1819    8    0    1
 -2       886       885       959      3498      3744      3745
 -1      1820    8    0    1
 -2       885       958       959      3742      3746      3744
 -1      1821    8    0    1
 -2       887       886       960      3501      3747      3748
 -1      1822    8    0    1
 -2       886       959       960      3745      3749      3747
 -1      1823    8    0    1
 -2       888       887       961      3504      3750      3751
 -1      1824    8    0    1
 -2       887       960       961      3748      3752      3750
 -1      1825    8    0    1
 -2       889       888       962      3507      3753      3754
 -1      1826    8    0    1
 -2       888       961       962      3751      3755      3753
 -1      1827    8    0    1
 -2       890       889       963      3510      3756      3757
 -1      1828    8    0    1
 -2       889       962       963      3754      3758      3756
 -1      1829    8    0    1
 -2       891       890       964      3513      3759      3760
 -1      1830    8    0    1
 -2       890       963       964      3757      3761      3759
 -1      1831    8    0    1
 -2       892       891       965      3516      3762      3763
 -1      1832    8    0    1
 -2       891       964       965      3760      3764      3762
 -1      1833    8    0    1
 -2       893       892       966      3519      3765      3766
 -1      1834    8    0    1
 -2       892       965       966      3763      3767      3765
 -1      1835    8    0    1
 -2       846       848       967      3638      3768      3769
 -1      1836    8    0    1
 -2       848       927       967      3635      3770      3768
 -1      1837    8    0    1
 -2       928       847       968      3639      3771      3772
 -1      1838    8    0    1
 -2       847       841       968      3366      3773      3771
 -1      1839    8    0    1
 -2       922       863       893      3628      3637      3774
 -1      1840    8    0    1
 -2       819       833       839      3684      3337      3591
 -1      1841    8    0    1
 -2       914       930       933      3677      3775      3776
 -1      1842    8    0    1
 -2       919       838       969      3636      3777      3778
 -1      1843    8    0    1
 -2       936       919       969      3667      3778      3779
 -1      1844    8    0    1
 -2       838       938       969      3674      3780      3777
 -1      1845    8    0    1
 -2       895       894       970      3528      3781      3782
 -1      1846    8    0    1
 -2       897       898       971      3537      3783      3784
 -1      1847    8    0    1
 -2       898       899       972      3540      3785      3786
 -1      1848    8    0    1
 -2       898       972       971      3786      3787      3783
 -1      1849    8    0    1
 -2       899       900       973      3543      3788      3789
 -1      1850    8    0    1
 -2       899       973       972      3789      3790      3785
 -1      1851    8    0    1
 -2       900       901       974      3546      3791      3792
 -1      1852    8    0    1
 -2       900       974       973      3792      3793      3788
 -1      1853    8    0    1
 -2       901       902       975      3549      3794      3795
 -1      1854    8    0    1
 -2       901       975       974      3795      3796      3791
 -1      1855    8    0    1
 -2       902       903       976      3552      3797      3798
 -1      1856    8    0    1
 -2       902       976       975      3798      3799      3794
 -1      1857    8    0    1
 -2       903       904       977      3555      3800      3801
 -1      1858    8    0    1
 -2       903       977       976      3801      3802      3797
 -1      1859    8    0    1
 -2       904       905       978      3558      3803      3804
 -1      1860    8    0    1
 -2       904       978       977      3804      3805      3800
 -1      1861    8    0    1
 -2       905       906       979      3561      3806      3807
 -1      1862    8    0    1
 -2       905       979       978      3807      3808      3803
 -1      1863    8    0    1
 -2       906       907       980      3564      3809      3810
 -1      1864    8    0    1
 -2       906       980       979      3810      3811      3806
 -1      1865    8    0    1
 -2       907       908       981      3567      3812      3813
 -1      1866    8    0    1
 -2       907       981       980      3813      3814      3809
 -1      1867    8    0    1
 -2       908       909       982      3570      3815      3816
 -1      1868    8    0    1
 -2       908       982       981      3816      3817      3812
 -1      1869    8    0    1
 -2       909       910       983      3573      3818      3819
 -1      1870    8    0    1
 -2       909       983       982      3819      3820      3815
 -1      1871    8    0    1
 -2       910       911       984      3576      3821      3822
 -1      1872    8    0    1
 -2       910       984       983      3822      3823      3818
 -1      1873    8    0    1
 -2       911       912       985      3579      3824      3825
 -1      1874    8    0    1
 -2       911       985       984      3825      3826      3821
 -1      1875    8    0    1
 -2       912       913       986      3582      3827      3828
 -1      1876    8    0    1
 -2       912       986       985      3828      3829      3824
 -1      1877    8    0    1
 -2       913       914       987      3585      3830      3831
 -1      1878    8    0    1
 -2       986       913       987      3827      3831      3832
 -1      1879    8    0    1
 -2       914       933       987      3776      3833      3830
 -1      1880    8    0    1
 -2       920       923       858      3678      3620      3834
 -1      1881    8    0    1
 -2       827       822       864      3589      3835      3688
 -1      1882    8    0    1
 -2       932       918       988      3650      3836      3837
 -1      1883    8    0    1
 -2       744       850       930      3380      3838      3693
 -1      1884    8    0    1
 -2       858       929       920      3643      3839      3834
 -1      1885    8    0    1
 -2       865       896       989      3531      3840      3841
 -1      1886    8    0    1
 -2       854       932       990      3657      3842      3843
 -1      1887    8    0    1
 -2       854       990       935      3843      3844      3664
 -1      1888    8    0    1
 -2       867       916       991      3595      3845      3846
 -1      1889    8    0    1
 -2       930       850       933      3838      3654      3775
 -1      1890    8    0    1
 -2       864       822       860      3835      3420      3847
 -1      1891    8    0    1
 -2       896       897       992      3534      3848      3849
 -1      1892    8    0    1
 -2       897       971       992      3784      3850      3848
 -1      1893    8    0    1
 -2       857       856       993      3407      3851      3852
 -1      1894    8    0    1
 -2       925       857       993      3626      3852      3853
 -1      1895    8    0    1
 -2       856       937       993      3671      3854      3851
 -1      1896    8    0    1
 -2       921       845       915      3614      3627      3855
 -1      1897    8    0    1
 -2       841       925       968      3629      3856      3773
 -1      1898    8    0    1
 -2       894       865       994      3525      3857      3858
 -1      1899    8    0    1
 -2       970       894       994      3781      3858      3859
 -1      1900    8    0    1
 -2       865       989       994      3841      3860      3857
 -1      1901    8    0    1
 -2       918       922       995      3666      3861      3862
 -1      1902    8    0    1
 -2       849       814       840      3410      3682      3863
 -1      1903    8    0    1
 -2       868       867       996      3444      3864      3865
 -1      1904    8    0    1
 -2       867       991       996      3846      3866      3864
 -1      1905    8    0    1
 -2       941       825       836      3689      3324      3867
 -1      1906    8    0    1
 -2       941       836       862      3867      3428      3868
 -1      1907    8    0    1
 -2       941       862       940      3868      3686      3869
 -1      1908    8    0    1
 -2       926       895       997      3630      3870      3871
 -1      1909    8    0    1
 -2       895       970       997      3782      3872      3870
 -1      1910    8    0    1
 -2       927       866       998      3633      3873      3874
 -1      1911    8    0    1
 -2       846       967       939      3769      3875      3681
 -1      1912    8    0    1
 -2       786       864       860      3522      3847      3421
 -1      1913    8    0    1
 -2       918       995       988      3862      3876      3836
 -1      1914    8    0    1
 -2       922       893       999      3774      3877      3878
 -1      1915    8    0    1
 -2       756       849       840      3649      3863      3431
 -1      1916    8    0    1
 -2       936       969      1000      3779      3879      3880
 -1      1917    8    0    1
 -2       925       993       968      3853      3881      3856
 -1      1918    8    0    1
 -2       813       756       853      3586      3392      3882
 -1      1919    8    0    1
 -2       922       999       995      3878      3883      3861
 -1      1920    8    0    1
 -2       924       931       852      3648      3683      3884
 -1      1921    8    0    1
 -2       990       932      1001      3842      3885      3886
 -1      1922    8    0    1
 -2       989       896       992      3840      3849      3887
 -1      1923    8    0    1
 -2       991       916       940      3845      3888      3889
 -1      1924    8    0    1
 -2       933       855      1002      3655      3890      3891
 -1      1925    8    0    1
 -2       987       933      1002      3833      3891      3892
 -1      1926    8    0    1
 -2       855       935      1002      3663      3893      3890
 -1      1927    8    0    1
 -2       917       924       852      3623      3884      3656
 -1      1928    8    0    1
 -2       928       968      1003      3772      3894      3895
 -1      1929    8    0    1
 -2       938       928      1004      3672      3896      3897
 -1      1930    8    0    1
 -2       928      1003      1004      3895      3898      3896
 -1      1931    8    0    1
 -2       866       934      1005      3660      3899      3900
 -1      1932    8    0    1
 -2       866      1005       998      3900      3901      3873
 -1      1933    8    0    1
 -2       937       939      1006      3680      3902      3903
 -1      1934    8    0    1
 -2       921       915       920      3855      3611      3904
 -1      1935    8    0    1
 -2       940       936      1007      3687      3905      3906
 -1      1936    8    0    1
 -2       991       940      1007      3889      3906      3907
 -1      1937    8    0    1
 -2       936      1000      1007      3880      3908      3905
 -1      1938    8    0    1
 -2       942       868       996      3694      3865      3909
 -1      1939    8    0    1
 -2       916       941       940      3690      3869      3888
 -1      1940    8    0    1
 -2       932       988      1001      3837      3910      3885
 -1      1941    8    0    1
 -2       937      1006      1008      3903      3911      3912
 -1      1942    8    0    1
 -2       937      1008       993      3912      3913      3854
 -1      1943    8    0    1
 -2       939       967      1009      3875      3914      3915
 -1      1944    8    0    1
 -2       939      1009      1006      3915      3916      3902
 -1      1945    8    0    1
 -2       944       943      1010      3701      3917      3918
 -1      1946    8    0    1
 -2       945       944      1011      3704      3919      3920
 -1      1947    8    0    1
 -2       944      1010      1011      3918      3921      3919
 -1      1948    8    0    1
 -2       946       945      1012      3707      3922      3923
 -1      1949    8    0    1
 -2       945      1011      1012      3920      3924      3922
 -1      1950    8    0    1
 -2       947       946      1013      3710      3925      3926
 -1      1951    8    0    1
 -2       946      1012      1013      3923      3927      3925
 -1      1952    8    0    1
 -2       948       947      1014      3713      3928      3929
 -1      1953    8    0    1
 -2       947      1013      1014      3926      3930      3928
 -1      1954    8    0    1
 -2       949       948      1015      3716      3931      3932
 -1      1955    8    0    1
 -2       948      1014      1015      3929      3933      3931
 -1      1956    8    0    1
 -2       950       949      1016      3719      3934      3935
 -1      1957    8    0    1
 -2       949      1015      1016      3932      3936      3934
 -1      1958    8    0    1
 -2       951       950      1017      3722      3937      3938
 -1      1959    8    0    1
 -2       950      1016      1017      3935      3939      3937
 -1      1960    8    0    1
 -2       952       951      1018      3725      3940      3941
 -1      1961    8    0    1
 -2       951      1017      1018      3938      3942      3940
 -1      1962    8    0    1
 -2       953       952      1019      3728      3943      3944
 -1      1963    8    0    1
 -2       952      1018      1019      3941      3945      3943
 -1      1964    8    0    1
 -2       954       953      1020      3731      3946      3947
 -1      1965    8    0    1
 -2       953      1019      1020      3944      3948      3946
 -1      1966    8    0    1
 -2       955       954      1021      3734      3949      3950
 -1      1967    8    0    1
 -2       954      1020      1021      3947      3951      3949
 -1      1968    8    0    1
 -2       956       955      1022      3737      3952      3953
 -1      1969    8    0    1
 -2       955      1021      1022      3950      3954      3952
 -1      1970    8    0    1
 -2       957       956      1023      3740      3955      3956
 -1      1971    8    0    1
 -2       956      1022      1023      3953      3957      3955
 -1      1972    8    0    1
 -2       958       957      1024      3743      3958      3959
 -1      1973    8    0    1
 -2       957      1023      1024      3956      3960      3958
 -1      1974    8    0    1
 -2       959       958      1025      3746      3961      3962
 -1      1975    8    0    1
 -2       958      1024      1025      3959      3963      3961
 -1      1976    8    0    1
 -2       960       959      1026      3749      3964      3965
 -1      1977    8    0    1
 -2       959      1025      1026      3962      3966      3964
 -1      1978    8    0    1
 -2       961       960      1027      3752      3967      3968
 -1      1979    8    0    1
 -2       960      1026      1027      3965      3969      3967
 -1      1980    8    0    1
 -2       962       961      1028      3755      3970      3971
 -1      1981    8    0    1
 -2       961      1027      1028      3968      3972      3970
 -1      1982    8    0    1
 -2       963       962      1029      3758      3973      3974
 -1      1983    8    0    1
 -2       962      1028      1029      3971      3975      3973
 -1      1984    8    0    1
 -2       964       963      1030      3761      3976      3977
 -1      1985    8    0    1
 -2       963      1029      1030      3974      3978      3976
 -1      1986    8    0    1
 -2       965       964      1031      3764      3979      3980
 -1      1987    8    0    1
 -2       964      1030      1031      3977      3981      3979
 -1      1988    8    0    1
 -2       966       965      1032      3767      3982      3983
 -1      1989    8    0    1
 -2       965      1031      1032      3980      3984      3982
 -1      1990    8    0    1
 -2       967       927      1033      3770      3985      3986
 -1      1991    8    0    1
 -2      1009       967      1033      3914      3986      3987
 -1      1992    8    0    1
 -2       927       998      1033      3874      3988      3985
 -1      1993    8    0    1
 -2       969       938      1034      3780      3989      3990
 -1      1994    8    0    1
 -2       938      1004      1034      3897      3991      3989
 -1      1995    8    0    1
 -2       972       973      1035      3790      3992      3993
 -1      1996    8    0    1
 -2       971       972      1036      3787      3994      3995
 -1      1997    8    0    1
 -2       972      1035      1036      3993      3996      3994
 -1      1998    8    0    1
 -2       974       975      1037      3796      3997      3998
 -1      1999    8    0    1
 -2       975       976      1038      3799      3999      4000
 -1      2000    8    0    1
 -2       975      1038      1037      4000      4001      3997
 -1      2001    8    0    1
 -2       976       977      1039      3802      4002      4003
 -1      2002    8    0    1
 -2       976      1039      1038      4003      4004      3999
 -1      2003    8    0    1
 -2       977       978      1040      3805      4005      4006
 -1      2004    8    0    1
 -2       977      1040      1039      4006      4007      4002
 -1      2005    8    0    1
 -2       978       979      1041      3808      4008      4009
 -1      2006    8    0    1
 -2       978      1041      1040      4009      4010      4005
 -1      2007    8    0    1
 -2       979       980      1042      3811      4011      4012
 -1      2008    8    0    1
 -2       979      1042      1041      4012      4013      4008
 -1      2009    8    0    1
 -2       980       981      1043      3814      4014      4015
 -1      2010    8    0    1
 -2       980      1043      1042      4015      4016      4011
 -1      2011    8    0    1
 -2       981       982      1044      3817      4017      4018
 -1      2012    8    0    1
 -2       981      1044      1043      4018      4019      4014
 -1      2013    8    0    1
 -2       982       983      1045      3820      4020      4021
 -1      2014    8    0    1
 -2       982      1045      1044      4021      4022      4017
 -1      2015    8    0    1
 -2       983       984      1046      3823      4023      4024
 -1      2016    8    0    1
 -2       983      1046      1045      4024      4025      4020
 -1      2017    8    0    1
 -2       984       985      1047      3826      4026      4027
 -1      2018    8    0    1
 -2       984      1047      1046      4027      4028      4023
 -1      2019    8    0    1
 -2       985       986      1048      3829      4029      4030
 -1      2020    8    0    1
 -2       985      1048      1047      4030      4031      4026
 -1      2021    8    0    1
 -2       989       992      1049      3887      4032      4033
 -1      2022    8    0    1
 -2      1001       988      1050      3910      4034      4035
 -1      2023    8    0    1
 -2       935       990      1051      3844      4036      4037
 -1      2024    8    0    1
 -2       935      1051      1002      4037      4038      3893
 -1      2025    8    0    1
 -2       934       926      1052      3661      4039      4040
 -1      2026    8    0    1
 -2      1005       934      1052      3899      4040      4041
 -1      2027    8    0    1
 -2       926       997      1052      3871      4042      4039
 -1      2028    8    0    1
 -2       992       971      1053      3850      4043      4044
 -1      2029    8    0    1
 -2      1049       992      1053      4032      4044      4045
 -1      2030    8    0    1
 -2       971      1036      1053      3995      4046      4043
 -1      2031    8    0    1
 -2       973       974      1054      3793      4047      4048
 -1      2032    8    0    1
 -2      1035       973      1054      3992      4048      4049
 -1      2033    8    0    1
 -2       974      1037      1054      3998      4050      4047
 -1      2034    8    0    1
 -2       942       996      1055      3909      4051      4052
 -1      2035    8    0    1
 -2      1003       968      1008      3894      4053      4054
 -1      2036    8    0    1
 -2      1000       969      1034      3879      3990      4055
 -1      2037    8    0    1
 -2       996       991      1056      3866      4056      4057
 -1      2038    8    0    1
 -2      1055       996      1056      4051      4057      4058
 -1      2039    8    0    1
 -2       991      1007      1056      3907      4059      4056
 -1      2040    8    0    1
 -2       988       995      1057      3876      4060      4061
 -1      2041    8    0    1
 -2       990      1001      1048      3886      4062      4063
 -1      2042    8    0    1
 -2       943       942      1058      3698      4064      4065
 -1      2043    8    0    1
 -2       942      1055      1058      4052      4066      4064
 -1      2044    8    0    1
 -2      1008      1006      1059      3911      4067      4068
 -1      2045    8    0    1
 -2      1008      1059      1003      4068      4069      4054
 -1      2046    8    0    1
 -2      1008       968       993      4053      3881      3913
 -1      2047    8    0    1
 -2       929       921       920      3691      3904      3839
 -1      2048    8    0    1
 -2      1010       943      1058      3917      4065      4070
 -1      2049    8    0    1
 -2       893       966       999      3766      4071      3877
 -1      2050    8    0    1
 -2      1033       998      1060      3988      4072      4073
 -1      2051    8    0    1
 -2       970       994      1061      3859      4074      4075
 -1      2052    8    0    1
 -2      1057       995       999      4060      3883      4076
 -1      2053    8    0    1
 -2       989      1049      1062      4033      4077      4078
 -1      2054    8    0    1
 -2       989      1062       994      4078      4079      3860
 -1      2055    8    0    1
 -2      1004      1003      1059      3898      4069      4080
 -1      2056    8    0    1
 -2       998      1005      1063      3901      4081      4082
 -1      2057    8    0    1
 -2       998      1063      1060      4082      4083      4072
 -1      2058    8    0    1
 -2      1006      1009      1064      3916      4084      4085
 -1      2059    8    0    1
 -2      1006      1064      1059      4085      4086      4067
 -1      2060    8    0    1
 -2       966      1032       999      3983      4087      4071
 -1      2061    8    0    1
 -2      1000      1034      1065      4055      4088      4089
 -1      2062    8    0    1
 -2      1007      1000      1066      3908      4090      4091
 -1      2063    8    0    1
 -2      1056      1007      1066      4059      4091      4092
 -1      2064    8    0    1
 -2      1000      1065      1066      4089      4093      4090
 -1      2065    8    0    1
 -2      1048      1001      1067      4062      4094      4095
 -1      2066    8    0    1
 -2      1047      1048      1067      4031      4095      4096
 -1      2067    8    0    1
 -2      1001      1050      1067      4035      4097      4094
 -1      2068    8    0    1
 -2       988      1057      1050      4061      4098      4034
 -1      2069    8    0    1
 -2       999      1032      1057      4087      4099      4076
 -1      2070    8    0    1
 -2       997       970      1068      3872      4100      4101
 -1      2071    8    0    1
 -2       970      1061      1068      4075      4102      4100
 -1      2072    8    0    1
 -2      1061       994      1062      4074      4079      4103
 -1      2073    8    0    1
 -2       744       813       853      3692      3882      3390
 -1      2074    8    0    1
 -2      1009      1033      1069      3987      4104      4105
 -1      2075    8    0    1
 -2      1064      1009      1069      4084      4105      4106
 -1      2076    8    0    1
 -2      1033      1060      1069      4073      4107      4104
 -1      2077    8    0    1
 -2      1012      1011      1070      3924      4108      4109
 -1      2078    8    0    1
 -2      1013      1012      1071      3927      4110      4111
 -1      2079    8    0    1
 -2      1012      1070      1071      4109      4112      4110
 -1      2080    8    0    1
 -2      1014      1013      1072      3930      4113      4114
 -1      2081    8    0    1
 -2      1013      1071      1072      4111      4115      4113
 -1      2082    8    0    1
 -2      1015      1014      1073      3933      4116      4117
 -1      2083    8    0    1
 -2      1014      1072      1073      4114      4118      4116
 -1      2084    8    0    1
 -2      1016      1015      1074      3936      4119      4120
 -1      2085    8    0    1
 -2      1015      1073      1074      4117      4121      4119
 -1      2086    8    0    1
 -2      1017      1016      1075      3939      4122      4123
 -1      2087    8    0    1
 -2      1016      1074      1075      4120      4124      4122
 -1      2088    8    0    1
 -2      1018      1017      1076      3942      4125      4126
 -1      2089    8    0    1
 -2      1017      1075      1076      4123      4127      4125
 -1      2090    8    0    1
 -2      1019      1018      1077      3945      4128      4129
 -1      2091    8    0    1
 -2      1018      1076      1077      4126      4130      4128
 -1      2092    8    0    1
 -2      1020      1019      1078      3948      4131      4132
 -1      2093    8    0    1
 -2      1019      1077      1078      4129      4133      4131
 -1      2094    8    0    1
 -2      1021      1020      1079      3951      4134      4135
 -1      2095    8    0    1
 -2      1020      1078      1079      4132      4136      4134
 -1      2096    8    0    1
 -2      1022      1021      1080      3954      4137      4138
 -1      2097    8    0    1
 -2      1021      1079      1080      4135      4139      4137
 -1      2098    8    0    1
 -2      1023      1022      1081      3957      4140      4141
 -1      2099    8    0    1
 -2      1022      1080      1081      4138      4142      4140
 -1      2100    8    0    1
 -2      1024      1023      1082      3960      4143      4144
 -1      2101    8    0    1
 -2      1023      1081      1082      4141      4145      4143
 -1      2102    8    0    1
 -2      1025      1024      1083      3963      4146      4147
 -1      2103    8    0    1
 -2      1024      1082      1083      4144      4148      4146
 -1      2104    8    0    1
 -2      1026      1025      1084      3966      4149      4150
 -1      2105    8    0    1
 -2      1025      1083      1084      4147      4151      4149
 -1      2106    8    0    1
 -2      1027      1026      1085      3969      4152      4153
 -1      2107    8    0    1
 -2      1026      1084      1085      4150      4154      4152
 -1      2108    8    0    1
 -2      1028      1027      1086      3972      4155      4156
 -1      2109    8    0    1
 -2      1027      1085      1086      4153      4157      4155
 -1      2110    8    0    1
 -2      1029      1028      1087      3975      4158      4159
 -1      2111    8    0    1
 -2      1028      1086      1087      4156      4160      4158
 -1      2112    8    0    1
 -2      1030      1029      1088      3978      4161      4162
 -1      2113    8    0    1
 -2      1029      1087      1088      4159      4163      4161
 -1      2114    8    0    1
 -2      1031      1030      1089      3981      4164      4165
 -1      2115    8    0    1
 -2      1030      1088      1089      4162      4166      4164
 -1      2116    8    0    1
 -2      1032      1031      1090      3984      4167      4168
 -1      2117    8    0    1
 -2      1057      1032      1090      4099      4168      4169
 -1      2118    8    0    1
 -2      1031      1089      1090      4165      4170      4167
 -1      2119    8    0    1
 -2      1036      1035      1091      3996      4171      4172
 -1      2120    8    0    1
 -2      1038      1039      1092      4004      4173      4174
 -1      2121    8    0    1
 -2      1037      1038      1093      4001      4175      4176
 -1      2122    8    0    1
 -2      1038      1092      1093      4174      4177      4175
 -1      2123    8    0    1
 -2      1040      1041      1094      4010      4178      4179
 -1      2124    8    0    1
 -2      1041      1042      1095      4013      4180      4181
 -1      2125    8    0    1
 -2      1041      1095      1094      4181      4182      4178
 -1      2126    8    0    1
 -2      1042      1043      1096      4016      4183      4184
 -1      2127    8    0    1
 -2      1042      1096      1095      4184      4185      4180
 -1      2128    8    0    1
 -2      1043      1044      1097      4019      4186      4187
 -1      2129    8    0    1
 -2      1043      1097      1096      4187      4188      4183
 -1      2130    8    0    1
 -2      1044      1045      1098      4022      4189      4190
 -1      2131    8    0    1
 -2      1044      1098      1097      4190      4191      4186
 -1      2132    8    0    1
 -2      1045      1046      1099      4025      4192      4193
 -1      2133    8    0    1
 -2      1045      1099      1098      4193      4194      4189
 -1      2134    8    0    1
 -2      1046      1047      1100      4028      4195      4196
 -1      2135    8    0    1
 -2      1099      1046      1100      4192      4196      4197
 -1      2136    8    0    1
 -2      1047      1067      1100      4096      4198      4195
 -1      2137    8    0    1
 -2      1048       986      1002      4029      4199      4200
 -1      2138    8    0    1
 -2      1034      1004      1101      3991      4201      4202
 -1      2139    8    0    1
 -2      1034      1101      1065      4202      4203      4088
 -1      2140    8    0    1
 -2      1050      1057      1090      4098      4169      4204
 -1      2141    8    0    1
 -2      1058      1055      1102      4066      4205      4206
 -1      2142    8    0    1
 -2      1004      1059      1101      4080      4207      4201
 -1      2143    8    0    1
 -2      1010      1058      1103      4070      4208      4209
 -1      2144    8    0    1
 -2      1058      1102      1103      4206      4210      4208
 -1      2145    8    0    1
 -2      1039      1040      1104      4007      4211      4212
 -1      2146    8    0    1
 -2      1092      1039      1104      4173      4212      4213
 -1      2147    8    0    1
 -2      1040      1094      1104      4179      4214      4211
 -1      2148    8    0    1
 -2      1011      1010      1105      3921      4215      4216
 -1      2149    8    0    1
 -2      1070      1011      1105      4108      4216      4217
 -1      2150    8    0    1
 -2      1010      1103      1105      4209      4218      4215
 -1      2151    8    0    1
 -2      1059      1064      1106      4086      4219      4220
 -1      2152    8    0    1
 -2      1101      1059      1106      4207      4220      4221
 -1      2153    8    0    1
 -2      1064      1069      1106      4106      4222      4219
 -1      2154    8    0    1
 -2      1036      1091      1107      4172      4223      4224
 -1      2155    8    0    1
 -2      1036      1107      1053      4224      4225      4046
 -1      2156    8    0    1
 -2      1061      1062      1108      4103      4226      4227
 -1      2157    8    0    1
 -2       997      1068      1109      4101      4228      4229
 -1      2158    8    0    1
 -2       997      1109      1052      4229      4230      4042
 -1      2159    8    0    1
 -2      1062      1049      1110      4077      4231      4232
 -1      2160    8    0    1
 -2      1062      1110      1108      4232      4233      4226
 -1      2161    8    0    1
 -2      1035      1054      1111      4049      4234      4235
 -1      2162    8    0    1
 -2      1035      1111      1091      4235      4236      4171
 -1      2163    8    0    1
 -2      1037      1093      1112      4176      4237      4238
 -1      2164    8    0    1
 -2      1037      1112      1054      4238      4239      4050
 -1      2165    8    0    1
 -2      1002       986       987      4199      3832      3892
 -1      2166    8    0    1
 -2      1065      1101      1113      4203      4240      4241
 -1      2167    8    0    1
 -2      1101      1106      1113      4221      4242      4240
 -1      2168    8    0    1
 -2      1005      1052      1114      4041      4243      4244
 -1      2169    8    0    1
 -2      1052      1109      1114      4230      4245      4243
 -1      2170    8    0    1
 -2      1065      1113      1102      4241      4246      4247
 -1      2171    8    0    1
 -2      1063      1005      1114      4081      4244      4248
 -1      2172    8    0    1
 -2      1060      1063      1115      4083      4249      4250
 -1      2173    8    0    1
 -2      1061      1108      1116      4227      4251      4252
 -1      2174    8    0    1
 -2      1061      1116      1068      4252      4253      4102
 -1      2175    8    0    1
 -2      1050      1090      1117      4204      4254      4255
 -1      2176    8    0    1
 -2      1067      1050      1117      4097      4255      4256
 -1      2177    8    0    1
 -2      1090      1089      1117      4170      4257      4254
 -1      2178    8    0    1
 -2       990      1048      1051      4063      4258      4036
 -1      2179    8    0    1
 -2      1069      1060      1118      4107      4259      4260
 -1      2180    8    0    1
 -2      1060      1115      1118      4250      4261      4259
 -1      2181    8    0    1
 -2      1049      1053      1119      4045      4262      4263
 -1      2182    8    0    1
 -2      1053      1107      1119      4225      4264      4262
 -1      2183    8    0    1
 -2      1110      1049      1119      4231      4263      4265
 -1      2184    8    0    1
 -2      1093      1092      1081      4177      4266      4267
 -1      2185    8    0    1
 -2      1071      1070      1120      4112      4268      4269
 -1      2186    8    0    1
 -2      1072      1071      1121      4115      4270      4271
 -1      2187    8    0    1
 -2      1071      1120      1121      4269      4272      4270
 -1      2188    8    0    1
 -2      1073      1072      1116      4118      4273      4274
 -1      2189    8    0    1
 -2      1074      1073      1108      4121      4275      4276
 -1      2190    8    0    1
 -2      1075      1074      1110      4124      4277      4278
 -1      2191    8    0    1
 -2      1076      1075      1119      4127      4279      4280
 -1      2192    8    0    1
 -2      1077      1076      1107      4130      4281      4282
 -1      2193    8    0    1
 -2      1078      1077      1091      4133      4283      4284
 -1      2194    8    0    1
 -2      1079      1078      1111      4136      4285      4286
 -1      2195    8    0    1
 -2      1080      1079      1112      4139      4287      4288
 -1      2196    8    0    1
 -2      1081      1080      1093      4142      4289      4267
 -1      2197    8    0    1
 -2      1082      1081      1092      4145      4266      4290
 -1      2198    8    0    1
 -2      1083      1082      1104      4148      4291      4292
 -1      2199    8    0    1
 -2      1084      1083      1094      4151      4293      4294
 -1      2200    8    0    1
 -2      1085      1084      1095      4154      4295      4296
 -1      2201    8    0    1
 -2      1086      1085      1096      4157      4297      4298
 -1      2202    8    0    1
 -2      1087      1086      1097      4160      4299      4300
 -1      2203    8    0    1
 -2      1088      1087      1098      4163      4301      4302
 -1      2204    8    0    1
 -2      1089      1088      1099      4166      4303      4304
 -1      2205    8    0    1
 -2      1065      1102      1055      4247      4205      4305
 -1      2206    8    0    1
 -2      1119      1075      1110      4279      4278      4265
 -1      2207    8    0    1
 -2      1095      1096      1085      4185      4297      4296
 -1      2208    8    0    1
 -2      1094      1095      1084      4182      4295      4294
 -1      2209    8    0    1
 -2      1097      1098      1087      4191      4301      4300
 -1      2210    8    0    1
 -2      1098      1099      1088      4194      4303      4302
 -1      2211    8    0    1
 -2      1082      1092      1104      4290      4213      4291
 -1      2212    8    0    1
 -2      1097      1086      1096      4299      4298      4188
 -1      2213    8    0    1
 -2      1110      1074      1108      4277      4276      4233
 -1      2214    8    0    1
 -2      1102      1113      1122      4246      4306      4307
 -1      2215    8    0    1
 -2      1063      1114      1123      4248      4308      4309
 -1      2216    8    0    1
 -2      1063      1123      1115      4309      4310      4249
 -1      2217    8    0    1
 -2      1108      1073      1116      4275      4274      4251
 -1      2218    8    0    1
 -2      1103      1102      1122      4210      4307      4311
 -1      2219    8    0    1
 -2      1055      1056      1066      4058      4092      4312
 -1      2220    8    0    1
 -2      1091      1077      1107      4283      4282      4223
 -1      2221    8    0    1
 -2      1076      1119      1107      4280      4264      4281
 -1      2222    8    0    1
 -2      1078      1091      1111      4284      4236      4285
 -1      2223    8    0    1
 -2      1093      1080      1112      4289      4288      4237
 -1      2224    8    0    1
 -2      1094      1083      1104      4293      4292      4214
 -1      2225    8    0    1
 -2      1109      1068      1121      4228      4313      4314
 -1      2226    8    0    1
 -2      1072      1121      1116      4271      4315      4273
 -1      2227    8    0    1
 -2      1122      1113      1106      4306      4242      4316
 -1      2228    8    0    1
 -2      1089      1099      1117      4304      4317      4257
 -1      2229    8    0    1
 -2      1051      1048      1002      4258      4200      4038
 -1      2230    8    0    1
 -2      1105      1103      1115      4218      4318      4319
 -1      2231    8    0    1
 -2      1070      1105      1123      4217      4320      4321
 -1      2232    8    0    1
 -2      1121      1068      1116      4313      4253      4315
 -1      2233    8    0    1
 -2      1111      1054      1112      4234      4239      4322
 -1      2234    8    0    1
 -2      1114      1109      1120      4245      4323      4324
 -1      2235    8    0    1
 -2      1123      1114      1120      4308      4324      4325
 -1      2236    8    0    1
 -2      1115      1123      1105      4310      4320      4319
 -1      2237    8    0    1
 -2      1106      1069      1118      4222      4260      4326
 -1      2238    8    0    1
 -2      1070      1123      1120      4321      4325      4268
 -1      2239    8    0    1
 -2      1115      1103      1122      4318      4311      4327
 -1      2240    8    0    1
 -2      1112      1079      1111      4287      4286      4322
 -1      2241    8    0    1
 -2      1065      1055      1066      4305      4312      4093
 -1      2242    8    0    1
 -2      1120      1109      1121      4323      4314      4272
 -1      2243    8    0    1
 -2      1099      1100      1117      4197      4328      4317
 -1      2244    8    0    1
 -2      1100      1067      1117      4198      4256      4328
 -1      2245    8    0    1
 -2      1122      1106      1118      4316      4326      4329
 -1      2246    8    0    1
 -2      1118      1115      1122      4261      4327      4329
 -3
    1PSTEP                         1           1           1          
  100CL  101 1.000000000        4329                     0    1           1
 -4  DISP        4    1
 -5  D1          1    2    1    0
 -5  D2          1    2    2    0
 -5  D3          1    2    3    0
 -5  ALL         1    2    0    0    1ALL
 -1         1 1.37698E-02-7.14191E-04 2.14622E-15
 -1         2 1.41222E-02-2.25773E-04 2.94899E-15
 -1         3 1.45169E-02 2.77227E-05 1.01969E-14
 -1         4 1.49641E-02-6.15699E-04-1.47696E-15
 -1         5 0.00000E+00 0.00000E+00 0.00000E+00
 -1         6 0.00000E+00 0.00000E+00 0.00000E+00
 -1         7 0.00000E+00 0.00000E+00 0.00000E+00
 -1         8 0.00000E+00 0.00000E+00 0.00000E+00
 -1         9 0.00000E+00 0.00000E+00 0.00000E+00
 -1        10 0.00000E+00 0.00000E+00 0.00000E+00
 -1        11 0.00000E+00 0.00000E+00 0.00000E+00
 -1        12 0.00000E+00 0.00000E+00 0.00000E+00
 -1        13 0.00000E+00 0.00000E+00 0.00000E+00
 -1        14 0.00000E+00 0.00000E+00 0.00000E+00
 -1        15 0.00000E+00 0.00000E+00 0.00000E+00
 -1        16 0.00000E+00 0.00000E+00 0.00000E+00
 -1        17 0.00000E+00 0.00000E+00 0.00000E+00
 -1        18 0.00000E+00 0.00000E+00 0.00000E+00
 -1        19 0.00000E+00 0.00000E+00 0.00000E+00
 -1        20 0.00000E+00 0.00000E+00 0.00000E+00
 -1        21 0.00000E+00 0.00000E+00 0.00000E+00
 -1        22 0.00000E+00 0.00000E+00 0.00000E+00
 -1        23 4.11406E-04-2.60752E-04-3.39050E-17
 -1        24 7.03410E-04-4.01014E-04-9.17947E-17
 -1        25 9.73499E-04-4.98410E-04-1.68072E-16
 -1        26 1.23801E-03-5.67181E-04-2.59029E-16
 -1        27 1.50155E-03-6.16467E-04-3.59826E-16
 -1        28 1.76623E-03-6.51650E-04-4.67284E-16
 -1        29 2.03299E-03-6.76439E-04-5.81302E-16
 -1        30 2.30219E-03-6.93533E-04-6.98731E-16
 -1        31 2.57389E-03-7.04947E-04-8.18684E-16
 -1        32 2.84794E-03-7.12205E-04-9.41254E-16
 -1        33 3.12411E-03-7.16452E-04-1.06351E-15
 -1        34 3.40212E-03-7.18541E-04-1.18000E-15
 -1        35 3.68169E-03-7.19090E-04-1.29321E-15
 -1        36 3.96255E-03-7.18538E-04-1.40357E-15
 -1        37 4.24446E-03-7.17176E-04-1.50870E-15
 -1        38 4.52724E-03-7.15181E-04-1.60570E-15
 -1        39 4.81076E-03-7.12643E-04-1.68885E-15
 -1        40 5.09493E-03-7.09585E-04-1.76054E-15
 -1        41 5.37975E-03-7.05981E-04-1.82476E-15
 -1        42 5.66529E-03-7.01775E-04-1.88256E-15
 -1        43 5.95169E-03-6.96900E-04-1.94175E-15
 -1        44 6.23923E-03-6.91300E-04-2.00047E-15
 -1        45 6.52831E-03-6.84954E-04-2.05796E-15
 -1        46 6.81947E-03-6.77923E-04-2.11605E-15
 -1        47 7.11344E-03-6.70395E-04-2.16352E-15
 -1        48 7.41119E-03-6.62764E-04-2.20393E-15
 -1        49 7.71391E-03-6.55731E-04-2.23544E-15
 -1        50 8.02305E-03-6.50442E-04-2.25648E-15
 -1        51 8.34031E-03-6.48672E-04-2.26356E-15
 -1        52 8.66749E-03-6.53042E-04-2.26050E-15
 -1        53 9.00624E-03-6.67238E-04-2.24233E-15
 -1        54 9.35754E-03-6.96140E-04-2.20920E-15
 -1        55 9.72084E-03-7.45621E-04-2.16406E-15
 -1        56 1.00928E-02-8.21631E-04-2.10726E-15
 -1        57 1.04659E-02-9.28021E-04-2.05724E-15
 -1        58 1.08282E-02-1.06279E-03-2.00419E-15
 -1        59 1.11653E-02-1.21364E-03-1.94807E-15
 -1        60 1.14661E-02-1.35597E-03-1.89663E-15
 -1        61 1.17311E-02-1.45790E-03-1.83807E-15
 -1        62 1.19753E-02-1.49341E-03-1.78020E-15
 -1        63 1.22231E-02-1.45630E-03-1.73470E-15
 -1        64 1.24948E-02-1.36342E-03-1.68017E-15
 -1        65 1.27970E-02-1.24400E-03-1.62954E-15
 -1        66 1.31223E-02-1.12457E-03-1.58567E-15
 -1        67 1.34568E-02-1.02003E-03-1.54855E-15
 -1        68 1.37868E-02-9.32893E-04-1.53067E-15
 -1        69 1.41036E-02-8.57155E-04-1.51474E-15
 -1        70 1.44046E-02-7.83041E-04-1.49132E-15
 -1        71 1.46935E-02-7.01759E-04-1.47671E-15
 -1        72 4.13852E-04 2.61457E-04 3.24888E-17
 -1        73 7.03235E-04 4.03721E-04 9.36988E-17
 -1        74 9.74037E-04 5.00186E-04 1.77209E-16
 -1        75 1.23884E-03 5.68894E-04 2.79175E-16
 -1        76 1.50251E-03 6.18226E-04 3.94290E-16
 -1        77 1.76725E-03 6.53500E-04 5.19319E-16
 -1        78 2.03405E-03 6.78401E-04 6.53984E-16
 -1        79 2.30328E-03 6.95617E-04 7.97685E-16
 -1        80 2.57499E-03 7.07159E-04 9.48409E-16
 -1        81 2.84906E-03 7.14547E-04 1.10560E-15
 -1        82 3.12523E-03 7.18926E-04 1.27188E-15
 -1        83 3.40325E-03 7.21148E-04 1.45066E-15
 -1        84 3.68282E-03 7.21832E-04 1.63999E-15
 -1        85 3.96369E-03 7.21416E-04 1.83031E-15
 -1        86 4.24561E-03 7.20191E-04 2.01998E-15
 -1        87 4.52841E-03 7.18338E-04 2.20652E-15
 -1        88 4.81195E-03 7.15951E-04 2.39405E-15
 -1        89 5.09615E-03 7.13058E-04 2.58996E-15
 -1        90 5.38101E-03 7.09642E-04 2.78139E-15
 -1        91 5.66659E-03 7.05663E-04 2.96359E-15
 -1        92 5.95304E-03 7.01074E-04 3.14645E-15
 -1        93 6.24062E-03 6.95849E-04 3.34010E-15
 -1        94 6.52969E-03 6.90014E-04 3.53165E-15
 -1        95 6.82075E-03 6.83684E-04 3.72754E-15
 -1        96 7.11442E-03 6.77120E-04 3.93412E-15
 -1        97 7.41149E-03 6.70792E-04 4.15601E-15
 -1        98 7.71285E-03 6.65460E-04 4.38102E-15
 -1        99 8.01948E-03 6.62274E-04 4.61785E-15
 -1       100 8.33233E-03 6.62864E-04 4.85997E-15
 -1       101 8.65215E-03 6.69411E-04 5.09786E-15
 -1       102 8.97919E-03 6.84638E-04 5.34345E-15
 -1       103 9.31276E-03 7.11616E-04 5.59767E-15
 -1       104 9.65074E-03 7.53276E-04 5.86929E-15
 -1       105 9.98905E-03 8.11442E-04 6.15221E-15
 -1       106 1.03216E-02 8.85362E-04 6.43723E-15
 -1       107 1.06408E-02 9.69982E-04 6.73334E-15
 -1       108 1.09397E-02 1.05479E-03 7.03371E-15
 -1       109 1.12148E-02 1.12453E-03 7.33784E-15
 -1       110 1.14689E-02 1.16272E-03 7.64116E-15
 -1       111 1.17112E-02 1.15724E-03 7.94546E-15
 -1       112 1.19545E-02 1.10529E-03 8.23755E-15
 -1       113 1.22100E-02 1.01428E-03 8.52262E-15
 -1       114 1.24829E-02 8.98073E-04 8.79566E-15
 -1       115 1.27717E-02 7.71072E-04 9.04821E-15
 -1       116 1.30702E-02 6.43541E-04 9.28021E-15
 -1       117 1.33710E-02 5.19821E-04 9.50031E-15
 -1       118 1.36684E-02 3.99103E-04 9.69620E-15
 -1       119 1.39597E-02 2.77618E-04 9.86731E-15
 -1       120 1.42460E-02 1.51598E-04 1.00334E-14
 -1       121 1.46464E-02-5.71255E-05 9.59796E-15
 -1       122 1.47806E-02-1.40766E-04 8.99984E-15
 -1       123 1.49213E-02-2.18568E-04 8.42354E-15
 -1       124 1.50665E-02-2.85367E-04 7.84425E-15
 -1       125 1.52112E-02-3.36080E-04 7.25924E-15
 -1       126 1.53452E-02-3.66287E-04 6.62078E-15
 -1       127 1.54622E-02-3.75523E-04 5.92569E-15
 -1       128 1.55483E-02-3.65563E-04 5.19773E-15
 -1       129 1.55937E-02-3.43409E-04 4.45425E-15
 -1       130 1.55939E-02-3.19414E-04 3.70123E-15
 -1       131 1.55510E-02-3.04654E-04 2.95197E-15
 -1       132 1.54749E-02-3.07784E-04 2.18001E-15
 -1       133 1.53747E-02-3.33606E-04 1.39070E-15
 -1       134 1.52644E-02-3.82530E-04 6.50711E-16
 -1       135 1.51552E-02-4.51207E-04-5.72052E-17
 -1       136 1.50543E-02-5.31975E-04-7.71952E-16
 -1       137 1.40529E-02-2.06063E-05 3.26462E-15
 -1       138 1.38583E-02 1.80888E-04 3.56891E-15
 -1       139 1.35886E-02 3.46429E-04 3.79461E-15
 -1       140 1.31969E-02 5.03255E-04 3.96964E-15
 -1       141 1.27793E-02 6.11981E-04 4.04609E-15
 -1       142 1.23173E-02 6.83944E-04 4.06076E-15
 -1       143 1.18029E-02 7.15337E-04 4.00992E-15
 -1       144 1.13459E-02 7.01364E-04 3.90847E-15
 -1       145 1.08640E-02 6.41342E-04 3.73876E-15
 -1       146 1.04695E-02 5.50583E-04 3.54046E-15
 -1       147 1.01225E-02 4.25018E-04 3.29695E-15
 -1       148 9.84132E-03 2.66533E-04 3.01373E-15
 -1       149 9.66123E-03 8.99305E-05 2.72286E-15
 -1       150 9.58982E-03-9.06904E-05 2.44397E-15
 -1       151 9.62370E-03-2.85486E-04 2.15613E-15
 -1       152 9.76498E-03-4.74790E-04 1.90403E-15
 -1       153 9.98622E-03-6.42810E-04 1.69617E-15
 -1       154 1.03358E-02-8.15468E-04 1.50495E-15
 -1       155 1.07483E-02-9.52998E-04 1.37293E-15
 -1       156 1.11880E-02-1.04737E-03 1.30284E-15
 -1       157 1.16696E-02-1.10208E-03 1.29638E-15
 -1       158 1.21686E-02-1.10970E-03 1.35779E-15
 -1       159 1.26666E-02-1.06615E-03 1.49151E-15
 -1       160 1.30984E-02-9.81493E-04 1.67517E-15
 -1       161 1.34591E-02-8.66237E-04 1.88376E-15
 -1       162 1.39639E-02-5.64624E-04 2.39734E-15
 -1       163 1.40854E-02-3.99167E-04 2.67268E-15
 -1       164 2.40414E-04-1.25526E-04-2.28089E-17
 -1       165 2.25280E-04-9.46261E-05-1.85602E-17
 -1       166 2.19523E-04-7.27815E-05-1.43386E-17
 -1       167 2.16705E-04-5.51118E-05-1.07370E-17
 -1       168 2.15217E-04-3.99722E-05-7.46067E-18
 -1       169 2.14381E-04-2.59178E-05-4.61464E-18
 -1       170 2.13961E-04-1.26450E-05-1.74489E-18
 -1       171 2.13838E-04 2.73343E-07 7.38613E-19
 -1       172 2.13980E-04 1.32041E-05 3.15096E-18
 -1       173 2.14421E-04 2.65163E-05 5.67851E-18
 -1       174 2.15265E-04 4.03974E-05 8.54487E-18
 -1       175 2.16816E-04 5.59187E-05 1.18923E-17
 -1       176 2.19674E-04 7.38222E-05 1.54465E-17
 -1       177 2.25449E-04 9.60245E-05 1.92852E-17
 -1       178 2.39344E-04 1.27604E-04 2.32392E-17
 -1       179 2.97724E-04 1.85512E-04 2.89753E-17
 -1       180 4.68647E-04-2.63571E-04-5.57856E-17
 -1       181 7.66803E-04-3.82179E-04-1.15478E-16
 -1       182 1.05066E-03-4.65080E-04-1.89580E-16
 -1       183 1.32807E-03-5.23884E-04-2.74557E-16
 -1       184 1.60267E-03-5.65601E-04-3.66430E-16
 -1       185 1.87656E-03-5.94919E-04-4.63876E-16
 -1       186 2.15086E-03-6.15144E-04-5.65703E-16
 -1       187 2.42617E-03-6.28698E-04-6.68949E-16
 -1       188 2.70274E-03-6.37389E-04-7.74276E-16
 -1       189 2.98064E-03-6.42571E-04-8.80233E-16
 -1       190 3.25982E-03-6.45250E-04-9.83334E-16
 -1       191 3.54016E-03-6.46160E-04-1.08204E-15
 -1       192 3.82153E-03-6.45824E-04-1.17708E-15
 -1       193 4.10380E-03-6.44596E-04-1.26860E-15
 -1       194 4.38683E-03-6.42698E-04-1.35396E-15
 -1       195 4.67054E-03-6.40249E-04-1.42990E-15
 -1       196 4.95487E-03-6.37291E-04-1.49390E-15
 -1       197 5.23980E-03-6.33805E-04-1.54888E-15
 -1       198 5.52539E-03-6.29729E-04-1.59718E-15
 -1       199 5.81174E-03-6.24980E-04-1.64051E-15
 -1       200 6.09903E-03-6.19468E-04-1.68549E-15
 -1       201 6.38755E-03-6.13121E-04-1.73088E-15
 -1       202 6.67767E-03-6.05919E-04-1.77572E-15
 -1       203 6.96990E-03-5.97938E-04-1.81481E-15
 -1       204 7.26489E-03-5.89410E-04-1.84360E-15
 -1       205 7.56342E-03-5.80815E-04-1.86407E-15
 -1       206 7.86646E-03-5.73002E-04-1.87498E-15
 -1       207 8.17509E-03-5.67357E-04-1.87712E-15
 -1       208 8.49049E-03-5.66023E-04-1.86653E-15
 -1       209 8.81380E-03-5.72152E-04-1.84674E-15
 -1       210 9.14586E-03-5.90148E-04-1.80974E-15
 -1       211 9.48691E-03-6.25731E-04-1.75702E-15
 -1       212 9.83596E-03-6.85536E-04-1.69546E-15
 -1       213 1.01902E-02-7.75678E-04-1.62788E-15
 -1       214 1.05444E-02-8.98688E-04-1.56357E-15
 -1       215 1.08912E-02-1.04872E-03-1.50105E-15
 -1       216 1.12227E-02-1.20684E-03-1.43621E-15
 -1       217 1.15346E-02-1.34119E-03-1.37145E-15
 -1       218 1.18300E-02-1.41708E-03-1.30130E-15
 -1       219 1.21198E-02-1.41460E-03-1.23919E-15
 -1       220 1.24167E-02-1.34073E-03-1.18029E-15
 -1       221 1.27276E-02-1.22406E-03-1.11566E-15
 -1       222 1.30508E-02-1.09735E-03-1.05317E-15
 -1       223 1.33795E-02-9.83093E-04-9.97527E-16
 -1       224 1.37058E-02-8.89229E-04-9.53197E-16
 -1       225 1.40239E-02-8.12252E-04-9.20694E-16
 -1       226 1.43311E-02-7.42464E-04-8.92193E-16
 -1       227 1.46275E-02-6.68694E-04-8.65183E-16
 -1       228 6.04596E-04 3.31064E-04 8.28635E-17
 -1       229 8.93703E-04 4.32699E-04 1.57619E-16
 -1       230 1.17260E-03 5.04466E-04 2.49011E-16
 -1       231 1.44696E-03 5.55576E-04 3.53846E-16
 -1       232 1.71978E-03 5.91850E-04 4.68609E-16
 -1       233 1.99267E-03 6.17266E-04 5.91714E-16
 -1       234 2.26649E-03 6.34695E-04 7.22167E-16
 -1       235 2.54163E-03 6.46266E-04 8.59799E-16
 -1       236 2.81822E-03 6.53577E-04 1.00595E-15
 -1       237 3.09626E-03 6.57825E-04 1.16028E-15
 -1       238 3.37562E-03 6.59892E-04 1.32403E-15
 -1       239 3.65617E-03 6.60421E-04 1.49707E-15
 -1       240 3.93775E-03 6.59860E-04 1.67338E-15
 -1       241 4.22022E-03 6.58508E-04 1.85078E-15
 -1       242 4.50344E-03 6.56545E-04 2.02694E-15
 -1       243 4.78733E-03 6.54062E-04 2.20553E-15
 -1       244 5.07184E-03 6.51079E-04 2.38704E-15
 -1       245 5.35699E-03 6.47572E-04 2.56788E-15
 -1       246 5.64284E-03 6.43483E-04 2.74361E-15
 -1       247 5.92951E-03 6.38749E-04 2.91697E-15
 -1       248 6.21724E-03 6.33320E-04 3.09651E-15
 -1       249 6.50630E-03 6.27193E-04 3.27800E-15
 -1       250 6.79710E-03 6.20446E-04 3.46820E-15
 -1       251 7.09014E-03 6.13298E-04 3.66730E-15
 -1       252 7.38600E-03 6.06168E-04 3.87291E-15
 -1       253 7.68537E-03 5.99767E-04 4.08472E-15
 -1       254 7.98896E-03 5.95196E-04 4.30717E-15
 -1       255 8.29745E-03 5.94052E-04 4.53621E-15
 -1       256 8.61137E-03 5.98522E-04 4.76616E-15
 -1       257 8.93087E-03 6.11402E-04 5.00180E-15
 -1       258 9.25550E-03 6.35955E-04 5.24755E-15
 -1       259 9.58387E-03 6.75463E-04 5.50622E-15
 -1       260 9.91336E-03 7.32301E-04 5.77358E-15
 -1       261 1.02401E-02 8.06414E-04 6.04591E-15
 -1       262 1.05593E-02 8.93404E-04 6.33029E-15
 -1       263 1.08663E-02 9.82995E-04 6.62118E-15
 -1       264 1.11585E-02 1.05936E-03 6.91438E-15
 -1       265 1.14371E-02 1.10456E-03 7.20856E-15
 -1       266 1.17073E-02 1.10461E-03 7.50293E-15
 -1       267 1.19768E-02 1.05546E-03 7.78586E-15
 -1       268 1.22527E-02 9.64515E-04 8.05870E-15
 -1       269 1.25384E-02 8.46676E-04 8.32273E-15
 -1       270 1.28331E-02 7.17724E-04 8.57133E-15
 -1       271 1.31332E-02 5.88969E-04 8.80329E-15
 -1       272 1.34342E-02 4.65206E-04 9.02540E-15
 -1       273 1.37323E-02 3.45527E-04 9.22396E-15
 -1       274 1.40257E-02 2.25649E-04 9.40045E-15
 -1       275 1.43145E-02 1.00997E-04 9.57106E-15
 -1       276 1.44654E-02 1.56201E-05 9.14602E-15
 -1       277 1.46044E-02-6.36520E-05 8.55349E-15
 -1       278 1.47502E-02-1.36451E-04 7.95896E-15
 -1       279 1.48997E-02-1.99701E-04 7.35438E-15
 -1       280 1.50435E-02-2.49701E-04 6.74263E-15
 -1       281 1.51767E-02-2.86362E-04 6.09058E-15
 -1       282 1.52842E-02-3.09016E-04 5.40931E-15
 -1       283 1.53538E-02-3.20886E-04 4.70028E-15
 -1       284 1.53772E-02-3.27905E-04 3.96820E-15
 -1       285 1.53530E-02-3.37410E-04 3.22985E-15
 -1       286 1.52885E-02-3.55786E-04 2.49571E-15
 -1       287 1.51930E-02-3.88174E-04 1.74990E-15
 -1       288 1.50809E-02-4.36000E-04 1.01039E-15
 -1       289 1.49654E-02-4.98224E-04 2.88015E-16
 -1       290 1.47936E-02-5.80740E-04-2.90468E-16
 -1       291 1.41277E-02-1.82669E-04 3.25728E-15
 -1       292 1.39384E-02-6.47363E-05 3.64858E-15
 -1       293 1.36361E-02 1.16532E-04 3.90522E-15
 -1       294 1.32152E-02 2.84481E-04 4.21897E-15
 -1       295 1.28199E-02 5.09733E-04 4.27434E-15
 -1       296 1.24071E-02 6.73012E-04 4.33608E-15
 -1       297 1.19918E-02 7.84611E-04 4.34985E-15
 -1       298 1.16097E-02 7.84403E-04 4.17641E-15
 -1       299 1.12232E-02 7.08525E-04 4.01485E-15
 -1       300 1.08184E-02 5.62592E-04 3.77391E-15
 -1       301 1.04353E-02 3.91598E-04 3.50735E-15
 -1       302 1.00837E-02 1.94135E-04 3.20572E-15
 -1       303 9.77358E-03 4.89376E-05 2.85444E-15
 -1       304 9.59590E-03-5.75404E-05 2.52049E-15
 -1       305 9.56378E-03-1.55701E-04 2.17841E-15
 -1       306 9.69208E-03-2.67698E-04 1.87084E-15
 -1       307 9.93723E-03-4.17955E-04 1.62609E-15
 -1       308 1.02976E-02-5.89351E-04 1.37448E-15
 -1       309 1.07346E-02-8.01582E-04 1.16072E-15
 -1       310 1.11253E-02-1.00428E-03 1.09122E-15
 -1       311 1.15151E-02-1.13839E-03 1.06255E-15
 -1       312 1.19120E-02-1.18933E-03 1.08975E-15
 -1       313 1.23148E-02-1.14300E-03 1.18427E-15
 -1       314 1.27301E-02-1.00948E-03 1.38036E-15
 -1       315 1.31227E-02-8.39608E-04 1.61108E-15
 -1       316 1.34944E-02-6.52214E-04 1.88998E-15
 -1       317 1.38149E-02-5.07625E-04 2.21878E-15
 -1       318 1.40274E-02-3.80746E-04 2.53716E-15
 -1       319 1.41407E-02-2.79292E-04 2.87133E-15
 -1       320 4.55404E-04-1.64812E-04-4.41812E-17
 -1       321 4.74270E-04-2.12996E-04-5.44642E-17
 -1       322 4.40441E-04-9.40255E-05-2.50756E-17
 -1       323 4.37478E-04-6.49181E-05-1.62224E-17
 -1       324 4.35854E-04-3.79100E-05-8.31109E-18
 -1       325 4.35143E-04-1.20185E-05-4.06576E-19
 -1       326 4.35173E-04 1.35386E-05 6.94906E-18
 -1       327 4.35951E-04 3.94880E-05 1.43386E-17
 -1       328 4.37618E-04 6.61478E-05 2.20330E-17
 -1       329 4.40677E-04 9.54258E-05 3.05000E-17
 -1       330 4.46067E-04 1.28340E-04 3.94616E-17
 -1       331 4.55906E-04 1.67322E-04 4.88874E-17
 -1       332 4.75905E-04 2.17065E-04 5.85537E-17
 -1       333 5.32038E-04 2.69995E-04 7.05714E-17
 -1       334 8.24528E-04 3.73546E-04 1.37721E-16
 -1       335 8.63292E-04-3.57444E-04-1.31731E-16
 -1       336 1.14966E-03-4.26208E-04-2.01326E-16
 -1       337 1.43245E-03-4.75420E-04-2.78572E-16
 -1       338 1.71317E-03-5.10174E-04-3.60379E-16
 -1       339 1.99295E-03-5.34293E-04-4.46556E-16
 -1       340 2.27254E-03-5.50597E-04-5.34905E-16
 -1       341 2.55241E-03-5.61196E-04-6.23454E-16
 -1       342 2.83283E-03-5.67676E-04-7.13171E-16
 -1       343 3.11391E-03-5.71218E-04-8.01995E-16
 -1       344 3.39567E-03-5.72689E-04-8.87037E-16
 -1       345 3.67810E-03-5.72715E-04-9.67864E-16
 -1       346 3.96114E-03-5.71724E-04-1.04564E-15
 -1       347 4.24474E-03-5.69996E-04-1.11817E-15
 -1       348 4.52885E-03-5.67692E-04-1.18451E-15
 -1       349 4.81343E-03-5.64883E-04-1.23927E-15
 -1       350 5.09849E-03-5.61567E-04-1.28519E-15
 -1       351 5.38404E-03-5.57692E-04-1.32270E-15
 -1       352 5.67015E-03-5.53171E-04-1.35499E-15
 -1       353 5.95694E-03-5.47899E-04-1.38633E-15
 -1       354 6.24456E-03-5.41776E-04-1.41732E-15
 -1       355 6.53325E-03-5.34731E-04-1.44913E-15
 -1       356 6.82330E-03-5.26761E-04-1.47952E-15
 -1       357 7.11511E-03-5.17978E-04-1.49844E-15
 -1       358 7.40914E-03-5.08688E-04-1.50754E-15
 -1       359 7.70596E-03-4.99490E-04-1.50852E-15
 -1       360 8.00623E-03-4.91413E-04-1.50203E-15
 -1       361 8.31073E-03-4.86109E-04-1.48703E-15
 -1       362 8.62032E-03-4.86086E-04-1.45849E-15
 -1       363 8.93594E-03-4.94972E-04-1.41815E-15
 -1       364 9.25862E-03-5.17733E-04-1.36337E-15
 -1       365 9.58934E-03-5.60684E-04-1.29608E-15
 -1       366 9.92873E-03-6.30912E-04-1.21996E-15
 -1       367 1.02764E-02-7.34519E-04-1.14101E-15
 -1       368 1.06297E-02-8.72827E-04-1.05993E-15
 -1       369 1.09823E-02-1.03633E-03-9.82745E-16
 -1       370 1.13257E-02-1.19869E-03-9.10242E-16
 -1       371 1.16546E-02-1.31901E-03-8.32145E-16
 -1       372 1.19733E-02-1.35962E-03-7.60148E-16
 -1       373 1.22938E-02-1.31147E-03-6.90349E-16
 -1       374 1.26246E-02-1.20049E-03-6.20699E-16
 -1       375 1.29643E-02-1.06747E-03-5.47170E-16
 -1       376 1.33048E-02-9.43707E-04-4.67467E-16
 -1       377 1.36386E-02-8.42824E-04-3.97790E-16
 -1       378 1.39614E-02-7.63888E-04-3.36391E-16
 -1       379 1.42722E-02-6.97916E-04-2.91688E-16
 -1       380 1.45366E-02-6.43316E-04-2.88211E-16
 -1       381 1.11002E-03 4.47885E-04 2.20659E-16
 -1       382 1.39077E-03 5.00970E-04 3.16523E-16
 -1       383 1.66909E-03 5.38604E-04 4.22344E-16
 -1       384 1.94649E-03 5.64911E-04 5.35975E-16
 -1       385 2.22391E-03 5.82895E-04 6.56257E-16
 -1       386 2.50188E-03 5.94791E-04 7.83285E-16
 -1       387 2.78068E-03 6.02273E-04 9.18614E-16
 -1       388 3.06041E-03 6.06589E-04 1.06182E-15
 -1       389 3.34107E-03 6.08665E-04 1.21398E-15
 -1       390 3.62261E-03 6.09168E-04 1.37497E-15
 -1       391 3.90493E-03 6.08565E-04 1.54054E-15
 -1       392 4.18796E-03 6.07168E-04 1.70736E-15
 -1       393 4.47161E-03 6.05163E-04 1.87410E-15
 -1       394 4.75582E-03 6.02643E-04 2.04342E-15
 -1       395 5.04059E-03 5.99631E-04 2.21579E-15
 -1       396 5.32590E-03 5.96094E-04 2.38690E-15
 -1       397 5.61183E-03 5.91971E-04 2.55424E-15
 -1       398 5.89848E-03 5.87186E-04 2.72026E-15
 -1       399 6.18602E-03 5.81672E-04 2.88917E-15
 -1       400 6.47468E-03 5.75405E-04 3.06379E-15
 -1       401 6.76479E-03 5.68435E-04 3.24509E-15
 -1       402 7.05672E-03 5.60941E-04 3.43490E-15
 -1       403 7.35094E-03 5.53296E-04 3.63009E-15
 -1       404 7.64798E-03 5.46153E-04 3.83207E-15
 -1       405 7.94842E-03 5.40543E-04 4.04298E-15
 -1       406 8.25284E-03 5.37991E-04 4.26038E-15
 -1       407 8.56174E-03 5.40618E-04 4.48156E-15
 -1       408 8.87544E-03 5.51187E-04 4.70983E-15
 -1       409 9.19393E-03 5.73014E-04 4.94529E-15
 -1       410 9.51664E-03 6.09594E-04 5.19381E-15
 -1       411 9.84216E-03 6.63775E-04 5.45220E-15
 -1       412 1.01680E-02 7.36311E-04 5.71520E-15
 -1       413 1.04907E-02 8.23846E-04 5.98654E-15
 -1       414 1.08061E-02 9.16963E-04 6.26622E-15
 -1       415 1.11109E-02 9.99777E-04 6.55065E-15
 -1       416 1.14048E-02 1.05295E-03 6.83880E-15
 -1       417 1.16911E-02 1.06006E-03 7.12613E-15
 -1       418 1.19762E-02 1.01510E-03 7.40182E-15
 -1       419 1.22660E-02 9.25145E-04 7.66624E-15
 -1       420 1.25633E-02 8.06278E-04 7.92351E-15
 -1       421 1.28668E-02 6.75844E-04 8.17118E-15
 -1       422 1.31730E-02 5.46254E-04 8.40336E-15
 -1       423 1.34778E-02 4.22768E-04 8.62350E-15
 -1       424 1.37785E-02 3.04474E-04 8.82507E-15
 -1       425 1.40737E-02 1.86747E-04 9.00810E-15
 -1       426 1.42705E-02 1.02658E-04 9.07527E-15
 -1       427 1.45791E-02-7.32326E-05 7.48025E-15
 -1       428 1.44286E-02 2.20019E-06 8.09068E-15
 -1       429 1.43471E-02 5.18422E-05 8.58385E-15
 -1       430 1.47292E-02-1.40240E-04 6.87419E-15
 -1       431 1.48757E-02-1.98456E-04 6.24420E-15
 -1       432 1.50037E-02-2.44897E-04 5.59616E-15
 -1       433 1.50988E-02-2.80109E-04 4.91727E-15
 -1       434 1.51486E-02-3.07744E-04 4.21368E-15
 -1       435 1.51468E-02-3.33989E-04 3.49601E-15
 -1       436 1.50975E-02-3.64959E-04 2.78429E-15
 -1       437 1.50094E-02-4.06588E-04 2.06324E-15
 -1       438 1.48978E-02-4.60375E-04 1.34126E-15
 -1       439 1.47774E-02-5.25620E-04 6.21122E-16
 -1       440 1.37390E-02-3.07619E-05 4.03833E-15
 -1       441 1.41740E-02-2.41520E-04 3.12309E-15
 -1       442 1.40675E-02-1.72155E-04 3.62466E-15
 -1       443 1.33904E-02 1.21688E-04 4.35129E-15
 -1       444 1.28906E-02 3.90086E-04 4.55465E-15
 -1       445 4.45598E-04-1.26494E-04-3.41287E-17
 -1       446 1.21762E-02 7.45591E-04 4.65483E-15
 -1       447 1.17474E-02 8.32159E-04 4.55225E-15
 -1       448 1.14639E-02 7.89413E-04 4.37495E-15
 -1       449 1.10696E-02 6.35617E-04 4.05763E-15
 -1       450 1.06915E-02 4.46022E-04 3.76169E-15
 -1       451 1.03507E-02 2.60187E-04 3.48615E-15
 -1       452 9.92373E-03 6.32388E-05 3.03754E-15
 -1       453 9.64719E-03-5.09135E-05 2.62106E-15
 -1       454 9.54412E-03-1.05851E-04 2.28838E-15
 -1       455 9.60246E-03-1.76523E-04 1.89140E-15
 -1       456 9.83500E-03-2.75294E-04 1.53527E-15
 -1       457 1.01261E-02-4.09982E-04 1.29468E-15
 -1       458 1.05517E-02-6.32163E-04 1.04312E-15
 -1       459 1.10311E-02-9.09412E-04 8.61839E-16
 -1       460 1.13905E-02-1.09902E-03 8.08808E-16
 -1       461 1.17356E-02-1.20987E-03 8.04349E-16
 -1       462 1.20779E-02-1.21427E-03 8.35676E-16
 -1       463 1.24738E-02-1.08659E-03 1.05960E-15
 -1       464 1.28518E-02-9.01420E-04 1.28869E-15
 -1       465 1.32337E-02-6.99647E-04 1.57488E-15
 -1       466 1.36472E-02-5.02738E-04 1.98436E-15
 -1       467 1.39125E-02-3.89731E-04 2.33372E-15
 -1       468 1.41087E-02-2.99459E-04 2.73133E-15
 -1       469 1.25487E-02 5.76843E-04 4.61112E-15
 -1       470 1.31152E-02 2.42144E-04 4.69034E-15
 -1       471 1.39347E-02-1.31856E-04 4.01000E-15
 -1       472 1.01326E-02 1.45015E-04 3.32009E-15
 -1       473 1.19383E-02 8.22883E-04 4.85414E-15
 -1       474 1.08064E-02-7.58869E-04 7.51494E-16
 -1       475 9.31275E-04 3.46078E-04 1.56335E-16
 -1       476 6.65835E-04-7.51492E-05-2.23718E-17
 -1       477 6.69798E-04-1.15913E-04-3.82080E-17
 -1       478 6.63164E-04 1.10506E-06 7.33531E-18
 -1       479 6.63884E-04 3.87758E-05 2.18772E-17
 -1       480 6.66021E-04 7.68375E-05 3.63343E-17
 -1       481 6.70111E-04 1.17756E-04 5.15335E-17
 -1       482 6.77119E-04 1.62379E-04 6.74780E-17
 -1       483 6.89032E-04 2.12747E-04 8.40121E-17
 -1       484 1.21716E-03 4.06586E-04 2.35970E-16
 -1       485 9.76301E-04-3.28723E-04-1.40242E-16
 -1       486 1.23556E-02 6.61267E-04 4.98395E-15
 -1       487 1.26227E-03-3.83627E-04-2.03166E-16
 -1       488 1.54726E-03-4.23351E-04-2.70837E-16
 -1       489 1.83138E-03-4.51428E-04-3.41747E-16
 -1       490 2.11492E-03-4.70715E-04-4.15219E-16
 -1       491 2.39819E-03-4.83498E-04-4.89355E-16
 -1       492 2.68143E-03-4.91540E-04-5.63382E-16
 -1       493 2.96481E-03-4.96179E-04-6.36389E-16
 -1       494 3.24843E-03-4.98412E-04-7.07977E-16
 -1       495 3.53232E-03-4.98963E-04-7.76150E-16
 -1       496 3.81650E-03-4.98345E-04-8.39860E-16
 -1       497 4.10096E-03-4.96898E-04-8.98827E-16
 -1       498 4.38571E-03-4.94835E-04-9.51286E-16
 -1       499 4.67073E-03-4.92260E-04-9.96663E-16
 -1       500 4.95601E-03-4.89202E-04-1.03215E-15
 -1       501 5.24158E-03-4.85628E-04-1.05966E-15
 -1       502 5.52746E-03-4.81461E-04-1.08075E-15
 -1       503 5.81371E-03-4.76598E-04-1.10147E-15
 -1       504 6.10040E-03-4.70930E-04-1.12106E-15
 -1       505 6.38763E-03-4.64357E-04-1.13898E-15
 -1       506 6.67554E-03-4.56828E-04-1.15604E-15
 -1       507 6.96429E-03-4.48373E-04-1.16812E-15
 -1       508 7.25410E-03-4.39164E-04-1.16813E-15
 -1       509 7.54522E-03-4.29592E-04-1.15853E-15
 -1       510 7.83796E-03-4.20374E-04-1.14108E-15
 -1       511 8.13274E-03-4.12693E-04-1.11744E-15
 -1       512 8.43012E-03-4.08383E-04-1.08517E-15
 -1       513 8.73095E-03-4.10148E-04-1.03996E-15
 -1       514 9.03651E-03-4.21808E-04-9.81576E-16
 -1       515 9.34881E-03-4.48537E-04-9.09883E-16
 -1       516 9.67068E-03-4.96962E-04-8.26545E-16
 -1       517 1.00056E-02-5.74854E-04-7.35733E-16
 -1       518 1.03562E-02-6.89627E-04-6.37555E-16
 -1       519 1.07214E-02-8.43716E-04-5.40332E-16
 -1       520 1.10924E-02-1.02513E-03-4.51858E-16
 -1       521 1.14551E-02-1.19519E-03-3.67795E-16
 -1       522 1.18029E-02-1.29488E-03-2.88371E-16
 -1       523 1.21465E-02-1.28330E-03-2.11006E-16
 -1       524 1.24999E-02-1.17717E-03-1.31534E-16
 -1       525 1.28647E-02-1.03195E-03-4.92702E-17
 -1       526 1.32280E-02-8.94836E-04 4.47742E-17
 -1       527 1.35780E-02-7.86989E-04 1.36250E-16
 -1       528 1.39100E-02-7.07700E-04 2.22228E-16
 -1       529 1.42254E-02-6.47131E-04 2.96190E-16
 -1       530 1.78402E-03 4.81190E-04 4.24048E-16
 -1       531 2.06601E-03 5.02560E-04 5.28721E-16
 -1       532 2.34775E-03 5.16889E-04 6.39791E-16
 -1       533 2.62958E-03 5.26084E-04 7.58017E-16
 -1       534 2.91171E-03 5.31583E-04 8.82341E-16
 -1       535 3.19425E-03 5.34460E-04 1.01479E-15
 -1       536 3.47723E-03 5.35499E-04 1.15506E-15
 -1       537 3.76066E-03 5.35258E-04 1.30397E-15
 -1       538 4.04452E-03 5.34116E-04 1.45570E-15
 -1       539 4.32878E-03 5.32312E-04 1.60888E-15
 -1       540 4.61342E-03 5.29976E-04 1.76413E-15
 -1       541 4.89842E-03 5.27158E-04 1.92047E-15
 -1       542 5.18379E-03 5.23842E-04 2.07876E-15
 -1       543 5.46956E-03 5.19972E-04 2.23481E-15
 -1       544 5.75580E-03 5.15466E-04 2.38854E-15
 -1       545 6.04260E-03 5.10238E-04 2.54346E-15
 -1       546 6.33008E-03 5.04225E-04 2.70361E-15
 -1       547 6.61844E-03 4.97413E-04 2.86830E-15
 -1       548 6.90790E-03 4.89886E-04 3.04155E-15
 -1       549 7.19874E-03 4.81876E-04 3.22203E-15
 -1       550 7.49131E-03 4.73840E-04 3.40926E-15
 -1       551 7.78603E-03 4.66545E-04 3.60045E-15
 -1       552 8.08338E-03 4.61178E-04 3.80045E-15
 -1       553 8.38394E-03 4.59459E-04 4.00697E-15
 -1       554 8.68835E-03 4.63738E-04 4.21857E-15
 -1       555 8.99734E-03 4.77027E-04 4.43894E-15
 -1       556 9.31158E-03 5.02889E-04 4.66896E-15
 -1       557 9.63152E-03 5.45017E-04 4.90941E-15
 -1       558 9.95693E-03 6.06291E-04 5.15895E-15
 -1       559 1.02862E-02 6.87061E-04 5.41119E-15
 -1       560 1.06159E-02 7.82590E-04 5.66933E-15
 -1       561 1.09407E-02 8.80272E-04 5.93777E-15
 -1       562 1.12563E-02 9.59757E-04 6.21832E-15
 -1       563 1.15624E-02 9.97658E-04 6.49538E-15
 -1       564 1.18642E-02 9.78312E-04 6.76396E-15
 -1       565 1.21693E-02 9.02764E-04 7.02486E-15
 -1       566 1.24821E-02 7.87785E-04 7.28209E-15
 -1       567 1.28010E-02 6.55376E-04 7.52564E-15
 -1       568 1.31212E-02 5.22663E-04 7.75845E-15
 -1       569 1.34375E-02 3.97937E-04 7.98186E-15
 -1       570 1.37467E-02 2.81618E-04 8.19003E-15
 -1       571 1.40477E-02 1.69184E-04 8.38013E-15
 -1       572 1.45590E-02-1.06749E-04 6.39558E-15
 -1       573 1.47069E-02-1.74703E-04 5.76790E-15
 -1       574 1.42497E-02 5.37060E-05 7.62058E-15
 -1       575 1.44036E-02-2.94514E-05 7.00956E-15
 -1       576 1.48301E-02-2.29940E-04 5.11397E-15
 -1       577 1.49111E-02-2.73417E-04 4.43675E-15
 -1       578 1.49368E-02-3.10784E-04 3.74269E-15
 -1       579 1.49058E-02-3.49737E-04 3.05264E-15
 -1       580 1.48261E-02-3.98753E-04 2.35111E-15
 -1       581 1.47145E-02-4.60310E-04 1.64603E-15
 -1       582 1.45890E-02-5.33174E-04 9.38011E-16
 -1       583 1.41907E-02-2.26682E-04 3.49892E-15
 -1       584 1.41753E-02-2.69941E-04 2.94071E-15
 -1       585 1.50128E-03 4.50279E-04 3.26067E-16
 -1       586 1.36048E-02-2.09649E-06 4.46075E-15
 -1       587 7.12622E-04-2.51867E-04-8.64550E-17
 -1       588 1.40469E-02-3.23277E-04 2.51826E-15
 -1       589 9.51667E-03-1.28454E-04 1.93544E-15
 -1       590 9.75484E-03-9.71037E-06 2.83722E-15
 -1       591 6.63772E-04-3.65297E-05-7.41662E-18
 -1       592 1.08895E-02 5.38694E-04 4.08868E-15
 -1       593 1.15868E-02 8.34863E-04 4.73020E-15
 -1       594 9.64686E-03-1.82084E-04 1.59191E-15
 -1       595 1.12425E-02 7.19577E-04 4.41678E-15
 -1       596 1.05785E-02 3.69366E-04 3.80695E-15
 -1       597 9.54571E-03-8.29768E-05 2.38287E-15
 -1       598 9.96621E-03-3.06665E-04 1.17992E-15
 -1       599 1.03340E-02-4.84910E-04 9.29412E-16
 -1       600 1.12488E-02-1.02269E-03 5.52299E-16
 -1       601 1.15842E-02-1.18462E-03 4.86088E-16
 -1       602 1.18883E-02-1.24863E-03 4.81731E-16
 -1       603 1.22890E-02-1.17059E-03 6.47946E-16
 -1       604 1.26375E-02-1.00327E-03 9.30313E-16
 -1       605 1.30211E-02-7.93107E-04 1.22244E-15
 -1       606 1.34620E-02-5.65596E-04 1.63374E-15
 -1       607 1.38487E-02-3.97035E-04 2.15945E-15
 -1       608 1.26419E-02 5.04064E-04 4.93696E-15
 -1       609 7.03831E-04 2.90928E-04 1.03477E-16
 -1       610 6.76579E-04-1.60073E-04-5.45760E-17
 -1       611 1.41302E-02-1.98088E-04 3.88201E-15
 -1       612 1.33698E-02 1.08495E-04 4.80216E-15
 -1       613 1.05570E-02-6.10182E-04 6.45395E-16
 -1       614 1.03367E-02 2.56239E-04 3.63989E-15
 -1       615 9.91202E-03 6.31161E-05 3.11931E-15
 -1       616 1.21274E-02 7.71336E-04 5.18152E-15
 -1       617 1.17666E-02 8.55950E-04 5.03462E-15
 -1       618 1.28771E-02 3.71631E-04 5.07726E-15
 -1       619 1.10204E-02-8.91112E-04 4.49497E-16
 -1       620 1.44281E-02-6.12068E-04 3.19284E-16
 -1       621 8.99785E-04 7.41349E-05 4.78370E-17
 -1       622 8.97698E-04 2.51862E-05 2.43979E-17
 -1       623 9.11848E-04 1.78275E-04 9.54979E-17
 -1       624 9.24209E-04 2.36849E-04 1.20736E-16
 -1       625 1.04889E-03 3.13982E-04 1.68394E-16
 -1       626 1.39969E-02-3.60408E-04 2.28584E-15
 -1       627 1.33464E-03 3.61636E-04 2.43271E-16
 -1       628 1.37292E-02-4.65057E-04 1.81900E-15
 -1       629 1.28376E-02-9.13516E-04 8.16777E-16
 -1       630 1.38330E-03-3.37103E-04-1.94364E-16
 -1       631 1.66951E-03-3.68073E-04-2.51057E-16
 -1       632 1.95572E-03-3.89873E-04-3.10302E-16
 -1       633 2.24176E-03-4.04683E-04-3.69872E-16
 -1       634 2.52762E-03-4.14291E-04-4.29402E-16
 -1       635 2.81333E-03-4.20108E-04-4.88074E-16
 -1       636 3.09895E-03-4.23215E-04-5.45638E-16
 -1       637 3.38453E-03-4.24416E-04-5.99872E-16
 -1       638 3.67009E-03-4.24291E-04-6.50372E-16
 -1       639 3.95566E-03-4.23240E-04-6.96481E-16
 -1       640 4.24125E-03-4.21522E-04-7.35062E-16
 -1       641 4.52688E-03-4.19283E-04-7.67632E-16
 -1       642 4.81255E-03-4.16584E-04-7.92081E-16
 -1       643 5.09827E-03-4.13418E-04-8.09381E-16
 -1       644 5.38405E-03-4.09730E-04-8.20480E-16
 -1       645 5.66989E-03-4.05432E-04-8.27866E-16
 -1       646 5.95580E-03-4.00419E-04-8.37892E-16
 -1       647 6.24179E-03-3.94587E-04-8.42967E-16
 -1       648 6.52787E-03-3.87859E-04-8.45214E-16
 -1       649 6.81403E-03-3.80215E-04-8.49045E-16
 -1       650 7.10028E-03-3.71734E-04-8.41293E-16
 -1       651 7.38662E-03-3.62649E-04-8.22544E-16
 -1       652 7.67306E-03-3.53428E-04-7.97400E-16
 -1       653 7.95969E-03-3.44861E-04-7.63878E-16
 -1       654 8.24670E-03-3.38184E-04-7.23546E-16
 -1       655 8.53455E-03-3.35225E-04-6.72663E-16
 -1       656 8.82422E-03-3.38576E-04-6.08078E-16
 -1       657 9.11757E-03-3.51834E-04-5.32113E-16
 -1       658 9.41792E-03-3.79965E-04-4.43639E-16
 -1       659 9.73056E-03-4.29831E-04-3.43543E-16
 -1       660 1.00627E-02-5.11115E-04-2.33666E-16
 -1       661 1.04208E-02-6.35841E-04-1.18693E-16
 -1       662 1.08063E-02-8.12306E-04-8.79220E-18
 -1       663 1.16022E-02-1.20961E-03 1.39611E-16
 -1       664 1.19786E-02-1.26698E-03 1.87709E-16
 -1       665 1.35292E-02-7.16493E-04 6.53503E-16
 -1       666 1.38712E-02-6.38751E-04 7.62848E-16
 -1       667 1.41894E-02-5.86513E-04 8.64888E-16
 -1       668 2.19068E-03 4.37579E-04 5.10873E-16
 -1       669 1.43920E-02-5.59813E-04 9.07115E-16
 -1       670 1.90569E-03 4.20812E-04 4.15673E-16
 -1       671 2.76012E-03 4.55446E-04 7.19880E-16
 -1       672 3.04479E-03 4.59291E-04 8.33203E-16
 -1       673 3.32954E-03 4.61024E-04 9.54898E-16
 -1       674 3.61439E-03 4.61286E-04 1.08437E-15
 -1       675 3.89937E-03 4.60524E-04 1.22037E-15
 -1       676 4.18448E-03 4.59032E-04 1.35931E-15
 -1       677 4.46974E-03 4.56982E-04 1.49911E-15
 -1       678 4.75514E-03 4.54456E-04 1.64050E-15
 -1       679 5.04069E-03 4.51465E-04 1.78310E-15
 -1       680 5.32641E-03 4.47968E-04 1.92611E-15
 -1       681 5.61232E-03 4.43889E-04 2.07015E-15
 -1       682 5.89844E-03 4.39139E-04 2.21279E-15
 -1       683 6.18485E-03 4.33631E-04 2.35773E-15
 -1       684 6.47160E-03 4.27310E-04 2.50693E-15
 -1       685 6.75880E-03 4.20183E-04 2.66217E-15
 -1       686 7.04658E-03 4.12364E-04 2.82770E-15
 -1       687 7.33512E-03 4.04130E-04 2.99825E-15
 -1       688 7.62468E-03 3.95993E-04 3.17318E-15
 -1       689 7.91562E-03 3.88788E-04 3.35371E-15
 -1       690 8.20846E-03 3.83774E-04 3.54350E-15
 -1       691 8.50398E-03 3.82742E-04 3.73954E-15
 -1       692 8.80327E-03 3.88126E-04 3.94347E-15
 -1       693 9.10781E-03 4.03066E-04 4.15823E-15
 -1       694 9.41944E-03 4.31380E-04 4.37853E-15
 -1       695 9.74005E-03 4.77277E-04 4.61067E-15
 -1       696 1.00707E-02 5.44454E-04 4.84996E-15
 -1       697 1.04101E-02 6.34004E-04 5.09010E-15
 -1       698 1.07533E-02 7.40705E-04 5.33807E-15
 -1       699 1.10913E-02 8.45987E-04 5.60377E-15
 -1       700 1.14195E-02 9.22420E-04 5.87574E-15
 -1       701 1.17378E-02 9.38212E-04 6.13387E-15
 -1       702 1.20565E-02 8.81647E-04 6.39064E-15
 -1       703 1.23847E-02 7.68778E-04 6.64504E-15
 -1       704 1.27224E-02 6.29531E-04 6.88943E-15
 -1       705 1.30617E-02 4.90179E-04 7.12264E-15
 -1       706 1.33945E-02 3.63196E-04 7.34270E-15
 -1       707 1.37160E-02 2.49679E-04 7.55154E-15
 -1       708 1.39862E-02 1.49221E-04 7.58890E-15
 -1       709 1.42528E-02-2.59277E-04 3.22423E-15
 -1       710 1.46626E-02-2.31634E-04 4.63364E-15
 -1       711 1.43893E-02-9.41629E-05 5.92768E-15
 -1       712 1.47254E-02-2.78230E-04 3.96082E-15
 -1       713 1.45428E-02-1.71343E-04 5.28953E-15
 -1       714 1.47192E-02-3.20972E-04 3.29086E-15
 -1       715 1.46491E-02-3.73390E-04 2.60602E-15
 -1       716 1.45348E-02-4.41504E-04 1.91785E-15
 -1       717 1.32622E-02-6.94438E-04 1.15663E-15
 -1       718 9.61624E-04-2.66814E-04-1.14929E-16
 -1       719 1.13736E-02 7.99342E-04 4.83172E-15
 -1       720 1.62034E-03 3.96315E-04 3.25823E-16
 -1       721 2.47545E-03 4.48604E-04 6.12730E-16
 -1       722 9.04229E-04 1.24653E-04 7.12863E-17
 -1       723 9.44579E-03-9.85237E-05 2.04315E-15
 -1       724 9.03863E-04-1.22239E-04-4.70103E-17
 -1       725 9.52245E-03-1.43901E-04 1.60365E-15
 -1       726 1.07195E-02 4.78795E-04 4.15650E-15
 -1       727 1.13095E-02-1.07153E-03 2.07164E-16
 -1       728 9.72400E-03-2.18676E-04 1.18482E-15
 -1       729 9.57793E-03-3.88655E-05 2.60169E-15
 -1       730 1.01198E-02-3.88890E-04 7.68300E-16
 -1       731 1.10426E-02 6.51171E-04 4.49180E-15
 -1       732 1.38811E-02-1.02679E-04 4.49714E-15
 -1       733 1.41884E-02-2.94098E-04 2.79214E-15
 -1       734 1.25174E-02 5.85860E-04 5.36728E-15
 -1       735 9.11308E-04-1.75657E-04-7.19707E-17
 -1       736 8.97636E-04-2.31655E-05 1.15874E-18
 -1       737 1.35512E-02-5.86151E-04 1.32980E-15
 -1       738 1.15511E-02 8.58100E-04 5.13681E-15
 -1       739 1.03051E-02-4.97108E-04 4.92123E-16
 -1       740 1.11522E-02-1.00160E-03 2.54923E-17
 -1       741 1.31506E-02-8.22249E-04 6.25598E-16
 -1       742 1.42596E-02-2.37562E-04 3.60747E-15
 -1       743 1.41401E-02 5.40521E-05 6.98209E-15
 -1       744 1.04828E-02 3.73656E-04 3.98314E-15
 -1       745 1.31452E-02 2.37107E-04 5.19387E-15
 -1       746 1.00865E-02 1.61795E-04 3.43601E-15
 -1       747 1.43664E-02-5.07533E-04 1.38960E-15
 -1       748 9.67823E-03 1.72359E-05 2.88130E-15
 -1       749 1.42638E-02-2.19507E-05 6.45643E-15
 -1       750 1.19514E-02 8.39295E-04 5.36240E-15
 -1       751 8.99578E-04-7.18503E-05-2.24091E-17
 -1       752 1.23002E-02 7.11673E-04 5.56099E-15
 -1       753 1.36906E-02-1.81560E-05 4.84322E-15
 -1       754 1.25115E-02-1.09374E-03 5.13288E-16
 -1       755 1.16156E-03 2.43721E-04 1.55783E-16
 -1       756 1.08305E-02 5.98362E-04 4.57310E-15
 -1       757 1.79732E-03-3.09590E-04-2.19517E-16
 -1       758 2.08500E-03-3.25682E-04-2.65148E-16
 -1       759 2.37280E-03-3.36461E-04-3.10383E-16
 -1       760 2.66051E-03-3.43273E-04-3.54937E-16
 -1       761 2.94802E-03-3.47197E-04-3.98895E-16
 -1       762 3.23529E-03-3.49064E-04-4.40244E-16
 -1       763 3.52232E-03-3.49490E-04-4.77046E-16
 -1       764 3.80912E-03-3.48913E-04-5.09829E-16
 -1       765 4.09571E-03-3.47627E-04-5.35626E-16
 -1       766 4.38210E-03-3.45813E-04-5.55430E-16
 -1       767 4.66830E-03-3.43564E-04-5.67749E-16
 -1       768 4.95434E-03-3.40902E-04-5.72794E-16
 -1       769 5.24018E-03-3.37799E-04-5.74380E-16
 -1       770 5.52583E-03-3.34190E-04-5.70649E-16
 -1       771 5.81123E-03-3.29986E-04-5.66499E-16
 -1       772 6.09632E-03-3.25094E-04-5.60129E-16
 -1       773 6.38103E-03-3.19432E-04-5.52150E-16
 -1       774 6.66524E-03-3.12957E-04-5.41291E-16
 -1       775 6.94879E-03-3.05690E-04-5.26180E-16
 -1       776 7.23151E-03-2.97762E-04-5.01006E-16
 -1       777 7.51316E-03-2.89459E-04-4.67715E-16
 -1       778 7.79354E-03-2.81285E-04-4.26264E-16
 -1       779 8.07246E-03-2.74027E-04-3.77780E-16
 -1       780 8.34988E-03-2.68828E-04-3.18061E-16
 -1       781 8.62608E-03-2.67268E-04-2.46581E-16
 -1       782 8.90202E-03-2.71477E-04-1.63393E-16
 -1       783 9.17984E-03-2.84385E-04-7.03342E-17
 -1       784 9.46367E-03-3.10398E-04 3.54128E-17
 -1       785 9.76162E-03-3.56427E-04 1.54509E-16
 -1       786 1.40646E-02-5.39599E-04 1.27909E-15
 -1       787 2.03275E-03 3.57754E-04 3.96510E-16
 -1       788 3.18005E-03 3.85694E-04 7.71390E-16
 -1       789 2.89348E-03 3.83209E-04 6.67791E-16
 -1       790 3.75275E-03 3.86262E-04 9.99875E-16
 -1       791 4.03890E-03 3.85181E-04 1.12274E-15
 -1       792 4.32496E-03 3.83516E-04 1.24770E-15
 -1       793 4.61093E-03 3.81383E-04 1.37461E-15
 -1       794 4.89682E-03 3.78819E-04 1.50158E-15
 -1       795 5.18264E-03 3.75808E-04 1.63180E-15
 -1       796 5.46838E-03 3.72290E-04 1.76340E-15
 -1       797 5.75404E-03 3.68183E-04 1.89533E-15
 -1       798 6.03961E-03 3.63395E-04 2.02618E-15
 -1       799 6.32507E-03 3.57846E-04 2.15987E-15
 -1       800 6.61042E-03 3.51492E-04 2.29853E-15
 -1       801 6.89566E-03 3.44356E-04 2.44467E-15
 -1       802 7.18082E-03 3.36569E-04 2.60102E-15
 -1       803 7.46598E-03 3.28421E-04 2.75879E-15
 -1       804 7.75134E-03 3.20422E-04 2.92174E-15
 -1       805 8.03726E-03 3.13382E-04 3.09220E-15
 -1       806 8.32437E-03 3.08500E-04 3.27257E-15
 -1       807 8.61374E-03 3.07477E-04 3.46033E-15
 -1       808 8.90706E-03 3.12658E-04 3.65894E-15
 -1       809 9.20682E-03 3.27222E-04 3.86505E-15
 -1       810 9.51633E-03 3.55434E-04 4.07571E-15
 -1       811 9.83939E-03 4.02752E-04 4.30034E-15
 -1       812 1.01788E-02 4.75318E-04 4.52834E-15
 -1       813 1.05328E-02 5.76721E-04 4.75690E-15
 -1       814 1.15953E-02 8.91187E-04 5.51089E-15
 -1       815 1.29997E-02 4.48393E-04 6.48696E-15
 -1       816 1.33523E-02 3.15711E-04 6.70815E-15
 -1       817 1.36882E-02 2.04976E-04 6.91705E-15
 -1       818 1.39176E-02 1.26195E-04 6.95159E-15
 -1       819 1.45418E-02-2.87252E-04 3.48923E-15
 -1       820 1.45082E-02-2.41473E-04 4.15291E-15
 -1       821 1.44867E-02-3.38260E-04 2.81706E-15
 -1       822 1.43654E-02-4.10070E-04 2.14817E-15
 -1       823 3.46647E-03 3.86546E-04 8.81744E-16
 -1       824 1.13830E-03 5.90747E-05 5.33970E-17
 -1       825 1.51022E-03-2.86603E-04-1.74797E-16
 -1       826 1.08386E-02-7.87756E-04 3.82967E-16
 -1       827 1.41965E-02-3.37140E-04 2.52894E-15
 -1       828 1.41547E-02-1.77561E-04 4.34008E-15
 -1       829 9.38172E-03-1.14752E-04 1.63907E-15
 -1       830 9.51105E-03-1.67759E-04 1.21841E-15
 -1       831 1.24623E-03 3.00915E-04 1.96922E-16
 -1       832 9.82543E-03-2.93049E-04 7.16647E-16
 -1       833 1.43023E-02-2.82853E-04 3.07545E-15
 -1       834 1.39467E-02-4.18324E-04 1.98114E-15
 -1       835 1.28519E-02 4.28872E-04 5.67191E-15
 -1       836 1.20813E-03-2.33431E-04-1.18012E-16
 -1       837 9.38461E-03-5.89902E-05 2.23227E-15
 -1       838 1.13693E-03 1.19588E-06 2.02000E-17
 -1       839 1.43475E-02-2.60916E-04 3.45889E-15
 -1       840 1.13363E-02 8.28623E-04 5.17657E-15
 -1       841 1.14981E-03 1.79161E-04 1.21078E-16
 -1       842 1.38800E-02-5.34103E-04 1.38549E-15
 -1       843 1.00840E-02-4.36008E-04 2.83451E-16
 -1       844 1.26244E-02 5.68796E-04 5.87315E-15
 -1       845 1.34858E-02 9.18503E-05 5.23988E-15
 -1       846 2.31981E-03 3.70316E-04 4.81952E-16
 -1       847 1.14241E-03 1.17974E-04 8.69937E-17
 -1       848 2.60673E-03 3.78394E-04 5.72323E-16
 -1       849 1.12540E-02 8.27643E-04 5.30028E-15
 -1       850 1.02276E-02 2.74859E-04 3.77931E-15
 -1       851 1.42268E-02-9.80554E-05 5.44936E-15
 -1       852 1.43924E-02-1.81549E-04 4.80742E-15
 -1       853 1.06072E-02 5.03958E-04 4.39413E-15
 -1       854 9.43251E-03-2.02120E-05 2.51162E-15
 -1       855 9.80955E-03 9.45937E-05 3.19592E-15
 -1       856 1.74570E-03 3.39186E-04 3.15937E-16
 -1       857 1.49560E-03 3.24201E-04 2.55143E-16
 -1       858 1.40875E-02-1.46186E-05 5.98609E-15
 -1       859 1.39803E-02-9.72608E-05 4.87956E-15
 -1       860 1.42201E-02-4.68510E-04 1.71294E-15
 -1       861 1.14206E-03-1.15233E-04-4.75694E-17
 -1       862 1.17329E-03-1.72322E-04-8.12643E-17
 -1       863 9.52344E-03-2.23952E-04 7.17735E-16
 -1       864 1.41626E-02-4.19671E-04 2.01134E-15
 -1       865 4.46599E-03 3.07802E-04 1.12145E-15
 -1       866 3.02952E-03 3.09646E-04 6.03172E-16
 -1       867 1.92960E-03-2.47853E-04-1.75370E-16
 -1       868 2.21841E-03-2.58949E-04-2.07123E-16
 -1       869 2.50750E-03-2.66239E-04-2.38098E-16
 -1       870 2.79652E-03-2.70686E-04-2.68062E-16
 -1       871 3.08530E-03-2.73072E-04-2.96190E-16
 -1       872 3.37372E-03-2.73995E-04-3.21324E-16
 -1       873 3.66175E-03-2.73896E-04-3.40209E-16
 -1       874 3.94939E-03-2.73081E-04-3.53677E-16
 -1       875 4.23663E-03-2.71749E-04-3.60829E-16
 -1       876 4.52349E-03-2.70015E-04-3.60738E-16
 -1       877 4.80998E-03-2.67928E-04-3.53650E-16
 -1       878 5.09607E-03-2.65484E-04-3.42388E-16
 -1       879 5.38174E-03-2.62645E-04-3.27568E-16
 -1       880 5.66692E-03-2.59348E-04-3.10224E-16
 -1       881 5.95152E-03-2.55518E-04-2.92131E-16
 -1       882 6.23538E-03-2.51085E-04-2.72602E-16
 -1       883 6.51833E-03-2.46002E-04-2.51735E-16
 -1       884 6.80012E-03-2.40265E-04-2.26300E-16
 -1       885 7.08042E-03-2.33943E-04-1.91294E-16
 -1       886 7.35888E-03-2.27211E-04-1.49400E-16
 -1       887 7.63504E-03-2.20385E-04-1.01522E-16
 -1       888 7.90844E-03-2.13959E-04-4.45776E-17
 -1       889 8.17857E-03-2.08635E-04 2.32223E-17
 -1       890 8.44503E-03-2.05331E-04 1.01163E-16
 -1       891 8.70763E-03-2.05181E-04 1.92236E-16
 -1       892 8.96667E-03-2.09556E-04 2.91674E-16
 -1       893 9.22387E-03-2.20431E-04 4.04706E-16
 -1       894 4.17932E-03 3.09465E-04 1.01034E-15
 -1       895 3.89235E-03 3.10674E-04 9.00687E-16
 -1       896 4.75237E-03 3.05751E-04 1.23383E-15
 -1       897 5.03846E-03 3.03317E-04 1.34996E-15
 -1       898 5.32424E-03 3.00464E-04 1.46902E-15
 -1       899 5.60967E-03 2.97126E-04 1.58929E-15
 -1       900 5.89471E-03 2.93219E-04 1.70742E-15
 -1       901 6.17929E-03 2.88656E-04 1.82582E-15
 -1       902 6.46330E-03 2.83367E-04 1.94876E-15
 -1       903 6.74665E-03 2.77315E-04 2.07837E-15
 -1       904 7.02924E-03 2.70525E-04 2.21539E-15
 -1       905 7.31099E-03 2.63117E-04 2.35753E-15
 -1       906 7.59187E-03 2.55342E-04 2.50362E-15
 -1       907 7.87201E-03 2.47634E-04 2.65804E-15
 -1       908 8.15175E-03 2.40662E-04 2.82083E-15
 -1       909 8.43179E-03 2.35412E-04 2.99334E-15
 -1       910 8.71346E-03 2.33310E-04 3.17252E-15
 -1       911 8.99898E-03 2.36428E-04 3.36207E-15
 -1       912 9.29185E-03 2.47915E-04 3.55942E-15
 -1       913 9.59707E-03 2.72773E-04 3.76413E-15
 -1       914 9.92115E-03 3.18849E-04 3.97729E-15
 -1       915 1.33203E-02 2.54310E-04 6.07019E-15
 -1       916 1.64165E-03-2.31821E-04-1.43687E-16
 -1       917 1.43172E-02-2.13567E-04 4.19600E-15
 -1       918 9.24846E-03-8.07120E-05 1.79849E-15
 -1       919 1.13814E-03-5.65370E-05-1.32340E-17
 -1       920 1.36702E-02 1.44963E-04 6.28249E-15
 -1       921 1.38082E-02-1.20729E-05 5.27961E-15
 -1       922 9.33595E-03-1.36464E-04 1.27029E-15
 -1       923 1.39985E-02 5.70276E-05 6.47128E-15
 -1       924 1.41871E-02-1.52776E-04 4.73535E-15
 -1       925 1.41044E-03 2.66036E-04 2.05250E-16
 -1       926 3.60507E-03 3.11286E-04 7.95157E-16
 -1       927 2.74128E-03 3.06517E-04 5.18974E-16
 -1       928 1.38425E-03 1.00086E-04 9.65618E-17
 -1       929 1.38854E-02-1.64725E-06 5.57542E-15
 -1       930 1.02702E-02 3.97001E-04 4.19548E-15
 -1       931 1.40383E-02-8.57147E-05 5.13863E-15
 -1       932 9.23965E-03-3.58613E-05 2.17363E-15
 -1       933 9.92929E-03 1.91386E-04 3.53520E-15
 -1       934 3.31746E-03 3.11064E-04 6.95651E-16
 -1       935 9.52035E-03 3.35860E-05 2.82156E-15
 -1       936 1.38397E-03-9.71142E-05-3.74050E-17
 -1       937 1.87595E-03 2.78841E-04 2.95947E-16
 -1       938 1.38109E-03 3.40517E-05 5.20078E-17
 -1       939 2.16426E-03 2.92129E-04 3.66657E-16
 -1       940 1.41464E-03-1.59022E-04-8.03326E-17
 -1       941 1.35548E-03-2.09709E-04-1.12130E-16
 -1       942 2.35539E-03-1.89805E-04-1.36247E-16
 -1       943 2.64541E-03-1.94213E-04-1.52862E-16
 -1       944 2.93533E-03-1.96772E-04-1.67032E-16
 -1       945 3.22492E-03-1.97996E-04-1.79618E-16
 -1       946 3.51406E-03-1.98277E-04-1.86656E-16
 -1       947 3.80269E-03-1.97898E-04-1.87245E-16
 -1       948 4.09079E-03-1.97051E-04-1.81990E-16
 -1       949 4.37835E-03-1.95856E-04-1.70650E-16
 -1       950 4.66539E-03-1.94376E-04-1.51514E-16
 -1       951 4.95187E-03-1.92627E-04-1.27770E-16
 -1       952 5.23776E-03-1.90596E-04-1.00692E-16
 -1       953 5.52300E-03-1.88245E-04-6.94533E-17
 -1       954 5.80745E-03-1.85525E-04-3.77573E-17
 -1       955 6.09097E-03-1.82386E-04-5.76660E-18
 -1       956 6.37332E-03-1.78791E-04 2.61530E-17
 -1       957 6.65421E-03-1.74734E-04 6.18097E-17
 -1       958 6.93326E-03-1.70253E-04 1.03230E-16
 -1       959 7.21002E-03-1.65462E-04 1.55176E-16
 -1       960 7.48392E-03-1.60567E-04 2.11636E-16
 -1       961 7.75432E-03-1.55893E-04 2.75780E-16
 -1       962 8.02045E-03-1.51888E-04 3.51146E-16
 -1       963 8.28143E-03-1.49125E-04 4.36588E-16
 -1       964 8.53627E-03-1.48254E-04 5.34857E-16
 -1       965 8.78387E-03-1.49929E-04 6.41685E-16
 -1       966 9.02305E-03-1.54865E-04 7.62076E-16
 -1       967 2.45281E-03 3.00980E-04 4.40576E-16
 -1       968 1.39078E-03 1.67449E-04 1.41227E-16
 -1       969 1.38100E-03-3.13028E-05 7.58264E-18
 -1       970 4.03315E-03 2.34775E-04 7.86694E-16
 -1       971 5.18005E-03 2.28214E-04 1.18524E-15
 -1       972 5.46551E-03 2.25722E-04 1.29354E-15
 -1       973 5.75035E-03 2.22795E-04 1.40134E-15
 -1       974 6.03445E-03 2.19354E-04 1.50546E-15
 -1       975 6.31768E-03 2.15323E-04 1.61400E-15
 -1       976 6.59985E-03 2.10637E-04 1.72755E-15
 -1       977 6.88075E-03 2.05258E-04 1.84377E-15
 -1       978 7.16016E-03 1.99193E-04 1.96966E-15
 -1       979 7.43789E-03 1.92514E-04 2.10003E-15
 -1       980 7.71377E-03 1.85381E-04 2.23575E-15
 -1       981 7.98779E-03 1.78068E-04 2.38208E-15
 -1       982 8.26016E-03 1.70994E-04 2.53936E-15
 -1       983 8.53149E-03 1.64790E-04 2.70199E-15
 -1       984 8.80306E-03 1.60436E-04 2.87677E-15
 -1       985 9.07718E-03 1.59503E-04 3.05869E-15
 -1       986 9.35816E-03 1.65029E-04 3.24562E-15
 -1       987 9.63616E-03 1.69061E-04 3.38554E-15
 -1       988 9.09453E-03-5.86812E-05 1.78303E-15
 -1       989 4.60755E-03 2.32135E-04 9.79899E-16
 -1       990 9.29093E-03 4.94249E-06 2.47963E-15
 -1       991 1.77683E-03-1.72755E-04-1.00709E-16
 -1       992 4.89405E-03 2.30337E-04 1.08127E-15
 -1       993 1.64273E-03 2.75387E-04 2.50153E-16
 -1       994 4.32058E-03 2.33624E-04 8.81883E-16
 -1       995 9.15623E-03-1.05787E-04 1.37478E-15
 -1       996 2.06566E-03-1.82900E-04-1.19150E-16
 -1       997 3.74524E-03 2.35507E-04 6.94330E-16
 -1       998 2.87875E-03 2.33209E-04 4.51540E-16
 -1       999 9.09013E-03-1.33818E-04 1.00955E-15
 -1      1000 1.62917E-03-7.01724E-05-1.55719E-17
 -1      1001 9.10212E-03-6.89197E-06 2.20085E-15
 -1      1002 9.58267E-03 9.79774E-05 3.10312E-15
 -1      1003 1.63454E-03 1.45894E-04 1.54394E-16
 -1      1004 1.62934E-03 7.32064E-05 9.78357E-17
 -1      1005 3.16800E-03 2.35018E-04 5.25736E-16
 -1      1006 2.01022E-03 2.15270E-04 2.65718E-16
 -1      1007 1.70212E-03-1.20421E-04-5.56331E-17
 -1      1008 1.72176E-03 2.02513E-04 2.09397E-16
 -1      1009 2.29956E-03 2.24039E-04 3.24305E-16
 -1      1010 2.78614E-03-1.20636E-04-5.41525E-17
 -1      1011 3.07658E-03-1.21803E-04-5.20485E-17
 -1      1012 3.36659E-03-1.22247E-04-4.80640E-17
 -1      1013 3.65606E-03-1.22180E-04-3.62090E-17
 -1      1014 3.94493E-03-1.21754E-04-1.88617E-17
 -1      1015 4.23317E-03-1.21069E-04 4.64513E-18
 -1      1016 4.52077E-03-1.20184E-04 3.49147E-17
 -1      1017 4.80771E-03-1.19125E-04 6.96939E-17
 -1      1018 5.09397E-03-1.17893E-04 1.09921E-16
 -1      1019 5.37946E-03-1.16474E-04 1.53540E-16
 -1      1020 5.66408E-03-1.14844E-04 2.00557E-16
 -1      1021 5.94766E-03-1.12979E-04 2.46609E-16
 -1      1022 6.22997E-03-1.10859E-04 2.90570E-16
 -1      1023 6.51071E-03-1.08488E-04 3.35422E-16
 -1      1024 6.78949E-03-1.05896E-04 3.86095E-16
 -1      1025 7.06584E-03-1.03166E-04 4.45177E-16
 -1      1026 7.33916E-03-1.00443E-04 5.13607E-16
 -1      1027 7.60877E-03-9.79537E-05 5.85052E-16
 -1      1028 7.87382E-03-9.60131E-05 6.65734E-16
 -1      1029 8.13326E-03-9.50227E-05 7.59358E-16
 -1      1030 8.38582E-03-9.54513E-05 8.66040E-16
 -1      1031 8.62977E-03-9.77496E-05 9.80715E-16
 -1      1032 8.86270E-03-1.02289E-04 1.10737E-15
 -1      1033 2.58920E-03 2.29759E-04 3.85454E-16
 -1      1034 1.62761E-03 1.52533E-06 4.15758E-17
 -1      1035 5.60654E-03 1.51847E-04 1.10429E-15
 -1      1036 5.32163E-03 1.53762E-04 1.00850E-15
 -1      1037 6.17352E-03 1.46899E-04 1.29325E-15
 -1      1038 6.45518E-03 1.43731E-04 1.38836E-15
 -1      1039 6.73526E-03 1.40014E-04 1.48826E-15
 -1      1040 7.01345E-03 1.35696E-04 1.59477E-15
 -1      1041 7.28940E-03 1.30745E-04 1.70885E-15
 -1      1042 7.56275E-03 1.25153E-04 1.82712E-15
 -1      1043 7.83315E-03 1.18945E-04 1.95508E-15
 -1      1044 8.10032E-03 1.12179E-04 2.09470E-15
 -1      1045 8.36414E-03 1.04948E-04 2.24379E-15
 -1      1046 8.62480E-03 9.74287E-05 2.40075E-15
 -1      1047 8.88290E-03 9.00016E-05 2.56834E-15
 -1      1048 9.14023E-03 8.38094E-05 2.74333E-15
 -1      1049 4.74958E-03 1.56753E-04 8.25034E-16
 -1      1050 8.90764E-03-3.05001E-05 1.80219E-15
 -1      1051 9.32735E-03 5.55475E-05 2.75924E-15
 -1      1052 3.45685E-03 2.35667E-04 6.06963E-16
 -1      1053 5.03594E-03 1.55382E-04 9.15107E-16
 -1      1054 5.89057E-03 1.49582E-04 1.19934E-15
 -1      1055 2.20510E-03-1.14909E-04-4.96700E-17
 -1      1056 1.95300E-03-1.18971E-04-5.45184E-17
 -1      1057 8.96386E-03-8.50642E-05 1.36486E-15
 -1      1058 2.49551E-03-1.18459E-04-5.29836E-17
 -1      1059 1.92258E-03 1.56570E-04 1.99686E-16
 -1      1060 2.72858E-03 1.56878E-04 3.17593E-16
 -1      1061 4.17499E-03 1.58817E-04 6.56678E-16
 -1      1062 4.46258E-03 1.57899E-04 7.38633E-16
 -1      1063 3.01882E-03 1.58729E-04 3.72694E-16
 -1      1064 2.21207E-03 1.64084E-04 2.47408E-16
 -1      1065 1.87719E-03-3.65597E-05 2.06236E-17
 -1      1066 1.91463E-03-7.74316E-05-1.60326E-17
 -1      1067 8.88858E-03 2.53003E-05 2.18957E-15
 -1      1068 3.88680E-03 1.59473E-04 5.78933E-16
 -1      1069 2.47020E-03 1.61371E-04 2.82299E-16
 -1      1070 3.21990E-03-4.60920E-05 7.70190E-17
 -1      1071 3.50997E-03-4.61160E-05 1.00167E-16
 -1      1072 3.79943E-03-4.59756E-05 1.30291E-16
 -1      1073 4.08823E-03-4.57122E-05 1.66615E-16
 -1      1074 4.37634E-03-4.53634E-05 2.08228E-16
 -1      1075 4.66374E-03-4.49426E-05 2.53592E-16
 -1      1076 4.95041E-03-4.44578E-05 3.05427E-16
 -1      1077 5.23629E-03-4.39094E-05 3.61510E-16
 -1      1078 5.52127E-03-4.32946E-05 4.21680E-16
 -1      1079 5.80521E-03-4.26119E-05 4.83053E-16
 -1      1080 6.08791E-03-4.18654E-05 5.41515E-16
 -1      1081 6.36907E-03-4.10718E-05 5.98046E-16
 -1      1082 6.64834E-03-4.02679E-05 6.58660E-16
 -1      1083 6.92527E-03-3.95206E-05 7.23769E-16
 -1      1084 7.19933E-03-3.89382E-05 7.99399E-16
 -1      1085 7.46986E-03-3.86832E-05 8.84323E-16
 -1      1086 7.73608E-03-3.89836E-05 9.75589E-16
 -1      1087 7.99705E-03-4.01405E-05 1.07273E-15
 -1      1088 8.25156E-03-4.25277E-05 1.18670E-15
 -1      1089 8.49791E-03-4.65665E-05 1.30869E-15
 -1      1090 8.73667E-03-6.53844E-05 1.33460E-15
 -1      1091 5.46325E-03 8.01670E-05 8.17763E-16
 -1      1092 6.59238E-03 7.41055E-05 1.14604E-15
 -1      1093 6.31234E-03 7.60777E-05 1.06478E-15
 -1      1094 7.14584E-03 6.88473E-05 1.33000E-15
 -1      1095 7.41833E-03 6.53940E-05 1.43375E-15
 -1      1096 7.68728E-03 6.12553E-05 1.54387E-15
 -1      1097 7.95208E-03 5.63024E-05 1.66424E-15
 -1      1098 8.21208E-03 5.03761E-05 1.79572E-15
 -1      1099 8.46648E-03 4.32596E-05 1.93817E-15
 -1      1100 8.68033E-03 3.49213E-05 2.06051E-15
 -1      1101 1.87731E-03 3.98353E-05 8.97753E-17
 -1      1102 2.34755E-03-4.41599E-05 3.26446E-17
 -1      1103 2.63841E-03-4.52246E-05 4.35849E-17
 -1      1104 6.87035E-03 7.17213E-05 1.23564E-15
 -1      1105 2.92931E-03-4.58335E-05 5.88315E-17
 -1      1106 2.17264E-03 9.90245E-05 1.75349E-16
 -1      1107 5.17804E-03 8.10950E-05 7.35960E-16
 -1      1108 4.31770E-03 8.30369E-05 5.12885E-16
 -1      1109 3.59802E-03 1.59777E-04 5.04276E-16
 -1      1110 4.60520E-03 8.25147E-05 5.82555E-16
 -1      1111 5.74750E-03 7.90520E-05 9.02110E-16
 -1      1112 6.03061E-03 7.77064E-05 9.83561E-16
 -1      1113 2.17022E-03 1.84366E-05 9.11069E-17
 -1      1114 3.30866E-03 1.59597E-04 4.35676E-16
 -1      1115 2.87057E-03 8.26361E-05 2.37366E-16
 -1      1116 4.02952E-03 8.34248E-05 4.47870E-16
 -1      1117 8.68503E-03-1.06728E-05 1.73853E-15
 -1      1118 2.61156E-03 8.87755E-05 2.12839E-16
 -1      1119 4.89200E-03 8.18702E-05 6.56911E-16
 -1      1120 3.36487E-03 3.00390E-05 2.22827E-16
 -1      1121 3.65470E-03 3.01122E-05 2.64169E-16
 -1      1122 2.45445E-03 3.34675E-05 1.29471E-16
 -1      1123 3.16113E-03 8.33697E-05 2.82712E-16
 -1      1124 0.00000E+00 0.00000E+00 0.00000E+00
 -1      1125 0.00000E+00 0.00000E+00 0.00000E+00
 -1      1126 0.00000E+00 0.00000E+00 0.00000E+00
 -1      1127 0.00000E+00 0.00000E+00 0.00000E+00
 -1      1128 0.00000E+00 0.00000E+00 0.00000E+00
 -1      1129 0.00000E+00 0.00000E+00 0.00000E+00
 -1      1130 0.00000E+00 0.00000E+00 0.00000E+00
 -1      1131 0.00000E+00 0.00000E+00 0.00000E+00
 -1      1132 0.00000E+00 0.00000E+00 0.00000E+00
 -1      1133 0.00000E+00 0.00000E+00 0.00000E+00
 -1      1134 0.00000E+00 0.00000E+00 0.00000E+00
 -1      1135 0.00000E+00 0.00000E+00 0.00000E+00
 -1      1136 0.00000E+00 0.00000E+00 0.00000E+00
 -1      1137 0.00000E+00 0.00000E+00 0.00000E+00
 -1      1138 0.00000E+00 0.00000E+00 0.00000E+00
 -1      1139 0.00000E+00 0.00000E+00 0.00000E+00
 -1      1140 0.00000E+00 0.00000E+00 0.00000E+00
 -1      1141 2.11675E-04-1.48337E-04-1.72117E-17
 -1      1142 5.51660E-04-3.37528E-04-6.62854E-17
 -1      1143 8.33495E-04-4.59031E-04-1.31771E-16
 -1      1144 1.10309E-03-5.40727E-04-2.14767E-16
 -1      1145 1.36852E-03-5.97997E-04-3.10732E-16
 -1      1146 1.63334E-03-6.38729E-04-4.14572E-16
 -1      1147 1.89941E-03-6.67570E-04-5.24523E-16
 -1      1148 2.16757E-03-6.87644E-04-6.40032E-16
 -1      1149 2.43812E-03-7.01232E-04-7.58535E-16
 -1      1150 2.71104E-03-7.10058E-04-8.79464E-16
 -1      1151 2.98617E-03-7.15421E-04-1.00175E-15
 -1      1152 3.26326E-03-7.18296E-04-1.12163E-15
 -1      1153 3.54204E-03-7.19401E-04-1.23623E-15
 -1      1154 3.82224E-03-7.19247E-04-1.34812E-15
 -1      1155 4.10362E-03-7.18186E-04-1.45603E-15
 -1      1156 4.38596E-03-7.16443E-04-1.55645E-15
 -1      1157 4.66911E-03-7.14141E-04-1.64589E-15
 -1      1158 4.95295E-03-7.11329E-04-1.72193E-15
 -1      1159 5.23746E-03-7.07997E-04-1.78961E-15
 -1      1160 5.52266E-03-7.04097E-04-1.85191E-15
 -1      1161 5.80866E-03-6.99559E-04-1.91194E-15
 -1      1162 6.09568E-03-6.94308E-04-1.97124E-15
 -1      1163 6.38404E-03-6.88292E-04-2.02856E-15
 -1      1164 6.67423E-03-6.81514E-04-2.08619E-15
 -1      1165 6.96689E-03-6.74071E-04-2.13963E-15
 -1      1166 7.26285E-03-6.66221E-04-2.18151E-15
 -1      1167 7.56320E-03-6.58465E-04-2.21764E-15
 -1      1168 7.86925E-03-6.51674E-04-2.24380E-15
 -1      1169 8.18255E-03-6.47245E-04-2.26039E-15
 -1      1170 8.50482E-03-6.47320E-04-2.26081E-15
 -1      1171 8.83774E-03-6.55038E-04-2.24701E-15
 -1      1172 9.18259E-03-6.74761E-04-2.22280E-15
 -1      1173 9.53957E-03-7.12150E-04-2.18537E-15
 -1      1174 9.90679E-03-7.73719E-04-2.13473E-15
 -1      1175 1.02790E-02-8.65356E-04-2.08320E-15
 -1      1176 1.06467E-02-9.89150E-04-2.03087E-15
 -1      1177 1.09968E-02-1.13863E-03-1.97420E-15
 -1      1178 1.13163E-02-1.29452E-03-1.92096E-15
 -1      1179 1.15992E-02-1.42569E-03-1.86419E-15
 -1      1180 1.18531E-02-1.49935E-03-1.80627E-15
 -1      1181 1.20982E-02-1.49706E-03-1.75843E-15
 -1      1182 1.23576E-02-1.42519E-03-1.70935E-15
 -1      1183 1.26448E-02-1.31031E-03-1.65804E-15
 -1      1184 1.29592E-02-1.18387E-03-1.61618E-15
 -1      1185 1.32894E-02-1.06837E-03-1.57293E-15
 -1      1186 1.36216E-02-9.72371E-04-1.53867E-15
 -1      1187 1.39449E-02-8.92932E-04-1.52255E-15
 -1      1188 1.42536E-02-8.20701E-04-1.50582E-15
 -1      1189 1.45481E-02-7.44777E-04-1.48243E-15
 -1      1190 1.48270E-02-6.61061E-04-1.48057E-15
 -1      1191 2.28435E-04 1.60715E-04 1.56261E-17
 -1      1192 5.53834E-04 3.42160E-04 6.66649E-17
 -1      1193 8.34427E-04 4.61200E-04 1.38168E-16
 -1      1194 1.10399E-03 5.42417E-04 2.30501E-16
 -1      1195 1.36942E-03 5.99678E-04 3.38637E-16
 -1      1196 1.63429E-03 6.40497E-04 4.57953E-16
 -1      1197 1.90042E-03 6.69445E-04 5.86987E-16
 -1      1198 2.16862E-03 6.89637E-04 7.27066E-16
 -1      1199 2.43919E-03 7.03354E-04 8.75005E-16
 -1      1200 2.71213E-03 7.12311E-04 1.02921E-15
 -1      1201 2.98727E-03 7.17809E-04 1.18975E-15
 -1      1202 3.26438E-03 7.20820E-04 1.36196E-15
 -1      1203 3.54317E-03 7.22061E-04 1.54598E-15
 -1      1204 3.82338E-03 7.22045E-04 1.73608E-15
 -1      1205 4.10476E-03 7.21123E-04 1.92656E-15
 -1      1206 4.38712E-03 7.19521E-04 2.11338E-15
 -1      1207 4.67028E-03 7.17366E-04 2.30057E-15
 -1      1208 4.95415E-03 7.14711E-04 2.49235E-15
 -1      1209 5.23869E-03 7.11553E-04 2.68664E-15
 -1      1210 5.52393E-03 7.07856E-04 2.87209E-15
 -1      1211 5.80997E-03 7.03566E-04 3.05370E-15
 -1      1212 6.09702E-03 6.98636E-04 3.24552E-15
 -1      1213 6.38540E-03 6.93051E-04 3.44072E-15
 -1      1214 6.67552E-03 6.86865E-04 3.63294E-15
 -1      1215 6.96795E-03 6.80242E-04 3.82897E-15
 -1      1216 7.26339E-03 6.73521E-04 4.04329E-15
 -1      1217 7.56267E-03 6.67290E-04 4.27180E-15
 -1      1218 7.86671E-03 6.62476E-04 4.50254E-15
 -1      1219 8.17647E-03 6.60452E-04 4.74107E-15
 -1      1220 8.49278E-03 6.63136E-04 4.98057E-15
 -1      1221 8.81611E-03 6.73042E-04 5.22385E-15
 -1      1222 9.14623E-03 6.93221E-04 5.47136E-15
 -1      1223 9.48176E-03 7.26955E-04 5.73405E-15
 -1      1224 9.81965E-03 7.77034E-04 6.01343E-15
 -1      1225 1.01549E-02 8.44481E-04 6.29757E-15
 -1      1226 1.04807E-02 9.26763E-04 6.58731E-15
 -1      1227 1.07899E-02 1.01604E-03 6.88466E-15
 -1      1228 1.10771E-02 1.09867E-03 7.18315E-15
 -1      1229 1.13417E-02 1.15732E-03 7.48814E-15
 -1      1230 1.15898E-02 1.17609E-03 7.79078E-15
 -1      1231 1.18325E-02 1.14665E-03 8.08973E-15
 -1      1232 1.20819E-02 1.07175E-03 8.37804E-15
 -1      1233 1.23462E-02 9.63509E-04 8.65810E-15
 -1      1234 1.26272E-02 8.37714E-04 8.92231E-15
 -1      1235 1.29210E-02 7.07785E-04 9.16701E-15
 -1      1236 1.32206E-02 5.81255E-04 9.39034E-15
 -1      1237 1.35197E-02 4.59457E-04 9.59516E-15
 -1      1238 1.38139E-02 3.39316E-04 9.78038E-15
 -1      1239 1.41024E-02 2.16200E-04 9.94967E-15
 -1      1240 1.43806E-02 9.09296E-05 1.01129E-14
 -1      1241 1.45805E-02-1.35861E-05 9.89633E-15
 -1      1242 1.47119E-02-9.79988E-05 9.29600E-15
 -1      1243 1.48498E-02-1.78649E-04 8.70853E-15
 -1      1244 1.49942E-02-2.50790E-04 8.13561E-15
 -1      1245 1.51416E-02-3.09473E-04 7.55074E-15
 -1      1246 1.52842E-02-3.49935E-04 6.94338E-15
 -1      1247 1.54135E-02-3.69989E-04 6.27054E-15
 -1      1248 1.55185E-02-3.69966E-04 5.55777E-15
 -1      1249 1.55865E-02-3.54279E-04 4.82074E-15
 -1      1250 1.56097E-02-3.31575E-04 4.07258E-15
 -1      1251 1.55866E-02-3.12562E-04 3.33002E-15
 -1      1252 1.55237E-02-3.07166E-04 2.57335E-15
 -1      1253 1.54315E-02-3.21791E-04 1.77928E-15
 -1      1254 1.53222E-02-3.59252E-04 1.01511E-15
 -1      1255 1.52091E-02-4.18000E-04 2.99145E-16
 -1      1256 1.51023E-02-4.92927E-04-4.13339E-16
 -1      1257 1.50069E-02-5.75880E-04-1.13155E-15
 -1      1258 1.41439E-02-1.38562E-04 3.10885E-15
 -1      1259 1.39924E-02 4.33353E-05 3.41392E-15
 -1      1260 1.37284E-02 2.22183E-04 3.68017E-15
 -1      1261 1.33712E-02 3.97547E-04 3.88230E-15
 -1      1262 1.29509E-02 5.57549E-04 4.00670E-15
 -1      1263 1.25158E-02 6.75624E-04 4.05483E-15
 -1      1264 1.20465E-02 7.45317E-04 4.04787E-15
 -1      1265 1.15853E-02 7.54552E-04 3.97490E-15
 -1      1266 1.11352E-02 7.00871E-04 3.83661E-15
 -1      1267 1.07038E-02 5.97926E-04 3.64761E-15
 -1      1268 1.03212E-02 4.64227E-04 3.42396E-15
 -1      1269 9.98150E-03 3.06271E-04 3.15720E-15
 -1      1270 9.72186E-03 1.40664E-04 2.86904E-15
 -1      1271 9.57628E-03-1.94078E-05 2.58481E-15
 -1      1272 9.55228E-03-1.80145E-04 2.29517E-15
 -1      1273 9.65389E-03-3.48362E-04 2.02278E-15
 -1      1274 9.86181E-03-5.16513E-04 1.79209E-15
 -1      1275 1.01734E-02-6.95163E-04 1.58735E-15
 -1      1276 1.05757E-02-8.74117E-04 1.42047E-15
 -1      1277 1.10047E-02-1.01956E-03 1.32064E-15
 -1      1278 1.14502E-02-1.11725E-03 1.29012E-15
 -1      1279 1.19157E-02-1.15561E-03 1.32048E-15
 -1      1280 1.23911E-02-1.12564E-03 1.41724E-15
 -1      1281 1.28448E-02-1.03578E-03 1.58562E-15
 -1      1282 1.32468E-02-9.07655E-04 1.79033E-15
 -1      1283 1.36052E-02-7.53701E-04 2.02427E-15
 -1      1284 1.38830E-02-5.96839E-04 2.27948E-15
 -1      1285 1.40653E-02-4.49195E-04 2.54222E-15
 -1      1286 1.41585E-02-3.00841E-04 2.81995E-15
 -1      1287 1.66706E-04-1.10345E-04-1.76860E-17
 -1      1288 1.12544E-04-5.69774E-05-1.30782E-17
 -1      1289 1.17626E-04-6.75852E-05-1.40540E-17
 -1      1290 1.08426E-04-4.34955E-05-1.10318E-17
 -1      1291 1.10288E-04-4.96099E-05-1.19804E-17
 -1      1292 2.26335E-04-1.07631E-04-2.85823E-17
 -1      1293 1.06841E-04-3.36106E-05-8.75493E-18
 -1      1294 1.07690E-04-3.83348E-05-9.59519E-18
 -1      1295 2.19114E-04-8.24649E-05-2.36356E-17
 -1      1296 1.06058E-04-2.53574E-05-6.55942E-18
 -1      1297 1.06489E-04-2.93881E-05-7.22350E-18
 -1      1298 2.15860E-04-6.32808E-05-1.84450E-17
 -1      1299 1.05659E-04-1.80950E-05-4.51299E-18
 -1      1300 1.05889E-04-2.16638E-05-5.06865E-18
 -1      1301 2.14205E-04-4.71984E-05-1.35119E-17
 -1      1302 1.05438E-04-1.12412E-05-2.71051E-18
 -1      1303 1.05561E-04-1.46272E-05-3.25261E-18
 -1      1304 2.13293E-04-3.27588E-05-8.86335E-18
 -1      1305 1.05337E-04-4.68978E-06-7.45389E-19
 -1      1306 1.05390E-04-7.94372E-06-1.30104E-18
 -1      1307 2.12794E-04-1.91931E-05-4.48589E-18
 -1      1308 1.05326E-04 1.74358E-06 7.58942E-19
 -1      1309 1.05324E-04-1.47044E-06 2.98156E-19
 -1      1310 2.12579E-04-6.16102E-06-3.25261E-19
 -1      1311 1.05398E-04 8.22655E-06 2.46656E-18
 -1      1312 1.05342E-04 4.96616E-06 2.01933E-18
 -1      1313 2.12587E-04 6.71027E-06 3.52366E-18
 -1      1314 1.05576E-04 1.49348E-05 4.18773E-18
 -1      1315 1.05449E-04 1.15344E-05 3.68629E-18
 -1      1316 2.12819E-04 1.97683E-05 7.49455E-18
 -1      1317 1.05910E-04 2.19545E-05 6.16640E-18
 -1      1318 1.05675E-04 1.83629E-05 5.50233E-18
 -1      1319 2.13331E-04 3.32726E-05 1.16958E-17
 -1      1320 1.06535E-04 2.98218E-05 8.25349E-18
 -1      1321 1.06095E-04 2.57447E-05 7.54876E-18
 -1      1322 2.14273E-04 4.78019E-05 1.61817E-17
 -1      1323 1.07726E-04 3.89209E-05 1.04626E-17
 -1      1324 1.06875E-04 3.41272E-05 9.69006E-18
 -1      1325 2.15979E-04 6.42158E-05 2.09522E-17
 -1      1326 1.10267E-04 5.03478E-05 1.27123E-17
 -1      1327 1.08428E-04 4.41641E-05 1.17500E-17
 -1      1328 2.19207E-04 8.37142E-05 2.58718E-17
 -1      1329 1.16942E-04 6.76208E-05 1.47587E-17
 -1      1330 1.12191E-04 5.77762E-05 1.39862E-17
 -1      1331 2.26323E-04 1.09450E-04 3.06423E-17
 -1      1332 1.57586E-04 1.09862E-04 1.61953E-17
 -1      1333 1.35667E-04 8.60928E-05 1.62088E-17
 -1      1334 2.56048E-04 1.52097E-04 3.57109E-17
 -1      1335 3.35099E-04 2.20744E-04 3.94379E-17
 -1      1336 4.21556E-04-2.61747E-04-5.21772E-17
 -1      1337 5.74660E-04-3.36812E-04-7.77915E-17
 -1      1338 7.21854E-04-3.97419E-04-1.09044E-16
 -1      1339 8.65027E-04-4.46719E-04-1.44456E-16
 -1      1340 6.12094E-04-3.30907E-04-8.86606E-17
 -1      1341 1.00506E-03-4.87798E-04-1.83447E-16
 -1      1342 1.14291E-03-5.21795E-04-2.25704E-16
 -1      1343 9.05336E-04-4.31615E-04-1.54770E-16
 -1      1344 1.27941E-03-5.50580E-04-2.70414E-16
 -1      1345 1.41506E-03-5.74628E-04-3.17644E-16
 -1      1346 1.18778E-03-5.01053E-04-2.33632E-16
 -1      1347 1.55031E-03-5.95003E-04-3.66596E-16
 -1      1348 1.68540E-03-6.12040E-04-4.17025E-16
 -1      1349 1.46471E-03-5.49849E-04-3.21764E-16
 -1      1350 1.82059E-03-6.26368E-04-4.68850E-16
 -1      1351 1.95598E-03-6.38278E-04-5.21433E-16
 -1      1352 1.73941E-03-5.84174E-04-4.15954E-16
 -1      1353 2.09169E-03-6.48174E-04-5.75264E-16
 -1      1354 2.22777E-03-6.56305E-04-6.30626E-16
 -1      1355 2.01371E-03-6.08011E-04-5.15010E-16
 -1      1356 2.36427E-03-6.62945E-04-6.86232E-16
 -1      1357 2.50120E-03-6.68299E-04-7.41987E-16
 -1      1358 2.28863E-03-6.24174E-04-6.17318E-16
 -1      1359 2.63858E-03-6.72561E-04-7.99071E-16
 -1      1360 2.77640E-03-6.75895E-04-8.55761E-16
 -1      1361 2.56461E-03-6.34733E-04-7.21862E-16
 -1      1362 2.91464E-03-6.78440E-04-9.12058E-16
 -1      1363 3.05330E-03-6.80322E-04-9.68626E-16
 -1      1364 2.84186E-03-6.41236E-04-8.27111E-16
 -1      1365 3.19234E-03-6.81639E-04-1.02389E-15
 -1      1366 3.33175E-03-6.82489E-04-1.07866E-15
 -1      1367 3.12040E-03-6.44835E-04-9.30991E-16
 -1      1368 3.47151E-03-6.82939E-04-1.13237E-15
 -1      1369 3.61158E-03-6.83061E-04-1.18487E-15
 -1      1370 3.40015E-03-6.46383E-04-1.03204E-15
 -1      1371 3.75195E-03-6.82899E-04-1.23695E-15
 -1      1372 3.89259E-03-6.82505E-04-1.28787E-15
 -1      1373 3.68099E-03-6.46492E-04-1.12944E-15
 -1      1374 4.03347E-03-6.81905E-04-1.33746E-15
 -1      1375 4.17459E-03-6.81134E-04-1.38566E-15
 -1      1376 3.96280E-03-6.45584E-04-1.22302E-15
 -1      1377 4.31591E-03-6.80204E-04-1.43157E-15
 -1      1378 4.45744E-03-6.79139E-04-1.47536E-15
 -1      1379 4.24543E-03-6.43938E-04-1.31064E-15
 -1      1380 4.59914E-03-6.77938E-04-1.51609E-15
 -1      1381 4.74101E-03-6.76617E-04-1.55426E-15
 -1      1382 4.52879E-03-6.41715E-04-1.39023E-15
 -1      1383 4.88306E-03-6.75167E-04-1.58996E-15
 -1      1384 5.02526E-03-6.73594E-04-1.62201E-15
 -1      1385 4.81281E-03-6.38987E-04-1.45981E-15
 -1      1386 5.16763E-03-6.71884E-04-1.65288E-15
 -1      1387 5.31016E-03-6.70041E-04-1.68259E-15
 -1      1388 5.09744E-03-6.35757E-04-1.51946E-15
 -1      1389 5.45288E-03-6.68042E-04-1.71056E-15
 -1      1390 5.59579E-03-6.65891E-04-1.73758E-15
 -1      1391 5.38272E-03-6.31977E-04-1.57166E-15
 -1      1392 5.73891E-03-6.63562E-04-1.76432E-15
 -1      1393 5.88226E-03-6.61060E-04-1.79013E-15
 -1      1394 5.66871E-03-6.27567E-04-1.61943E-15
 -1      1395 6.02589E-03-6.58357E-04-1.81592E-15
 -1      1396 6.16982E-03-6.55464E-04-1.84172E-15
 -1      1397 5.95558E-03-6.22429E-04-1.66390E-15
 -1      1398 6.31411E-03-6.52352E-04-1.86813E-15
 -1      1399 6.45881E-03-6.49044E-04-1.89266E-15
 -1      1400 6.24354E-03-6.16470E-04-1.70965E-15
 -1      1401 6.60397E-03-6.45515E-04-1.91748E-15
 -1      1402 6.74968E-03-6.41802E-04-1.94299E-15
 -1      1403 6.53293E-03-6.09630E-04-1.75351E-15
 -1      1404 6.89602E-03-6.37891E-04-1.96509E-15
 -1      1405 7.04307E-03-6.33846E-04-1.98509E-15
 -1      1406 6.82419E-03-6.01913E-04-1.79486E-15
 -1      1407 7.19095E-03-6.29669E-04-2.00393E-15
 -1      1408 7.33977E-03-6.25460E-04-2.01899E-15
 -1      1409 7.11791E-03-5.93445E-04-1.82775E-15
 -1      1410 7.48966E-03-6.21252E-04-2.03338E-15
 -1      1411 7.64076E-03-6.17196E-04-2.04555E-15
 -1      1412 7.41480E-03-5.84544E-04-1.85313E-15
 -1      1413 7.79322E-03-6.13376E-04-2.05376E-15
 -1      1414 7.94721E-03-6.10010E-04-2.06112E-15
 -1      1415 7.71572E-03-5.75827E-04-1.86834E-15
 -1      1416 8.10290E-03-6.07262E-04-2.06554E-15
 -1      1417 8.26045E-03-6.05440E-04-2.06729E-15
 -1      1418 8.02170E-03-5.68353E-04-1.87460E-15
 -1      1419 8.42006E-03-6.04828E-04-2.06546E-15
 -1      1420 8.58188E-03-6.05844E-04-2.05805E-15
 -1      1421 8.33383E-03-5.63828E-04-1.87038E-15
 -1      1422 8.74606E-03-6.08944E-04-2.04922E-15
 -1      1423 8.91271E-03-6.14670E-04-2.03774E-15
 -1      1424 8.65323E-03-5.64856E-04-1.85395E-15
 -1      1425 9.08193E-03-6.23703E-04-2.02236E-15
 -1      1426 9.25369E-03-6.36700E-04-2.00535E-15
 -1      1427 8.98084E-03-5.75228E-04-1.82588E-15
 -1      1428 9.42795E-03-6.54583E-04-1.98260E-15
 -1      1429 9.60446E-03-6.78064E-04-1.95605E-15
 -1      1430 9.31714E-03-6.00152E-04-1.78193E-15
 -1      1431 9.78293E-03-7.08223E-04-1.92943E-15
 -1      1432 9.96281E-03-7.45657E-04-1.90099E-15
 -1      1433 9.66172E-03-6.46197E-04-1.72643E-15
 -1      1434 1.01435E-02-7.91303E-04-1.87155E-15
 -1      1435 1.03239E-02-8.45302E-04-1.84389E-15
 -1      1436 1.00128E-02-7.20497E-04-1.66448E-15
 -1      1437 1.05032E-02-9.07840E-04-1.81359E-15
 -1      1438 1.06800E-02-9.78034E-04-1.78122E-15
 -1      1439 1.03665E-02-8.28525E-04-1.59843E-15
 -1      1440 1.08531E-02-1.05451E-03-1.75137E-15
 -1      1441 1.10213E-02-1.13481E-03-1.72338E-15
 -1      1442 1.07169E-02-9.69811E-04-1.53177E-15
 -1      1443 1.11837E-02-1.21547E-03-1.69325E-15
 -1      1444 1.13395E-02-1.29246E-03-1.66429E-15
 -1      1445 1.10564E-02-1.13228E-03-1.46717E-15
 -1      1446 1.14889E-02-1.36089E-03-1.63350E-15
 -1      1447 1.16324E-02-1.41644E-03-1.59910E-15
 -1      1448 1.13786E-02-1.28876E-03-1.40219E-15
 -1      1449 1.17712E-02-1.45497E-03-1.56986E-15
 -1      1450 1.19075E-02-1.47394E-03-1.54344E-15
 -1      1451 1.16822E-02-1.40204E-03-1.33663E-15
 -1      1452 1.20429E-02-1.47241E-03-1.51328E-15
 -1      1453 1.21799E-02-1.45127E-03-1.48664E-15
 -1      1454 1.19744E-02-1.44073E-03-1.27089E-15
 -1      1455 1.23201E-02-1.41331E-03-1.45821E-15
 -1      1456 1.24647E-02-1.36205E-03-1.42827E-15
 -1      1457 1.22675E-02-1.39749E-03-1.20986E-15
 -1      1458 1.26143E-02-1.30217E-03-1.40148E-15
 -1      1459 1.27686E-02-1.23778E-03-1.37457E-15
 -1      1460 1.25716E-02-1.29318E-03-1.14799E-15
 -1      1461 1.29271E-02-1.17283E-03-1.34926E-15
 -1      1462 1.30887E-02-1.11023E-03-1.32469E-15
 -1      1463 1.28892E-02-1.16286E-03-1.08874E-15
 -1      1464 1.32523E-02-1.05191E-03-1.30019E-15
 -1      1465 1.34164E-02-9.98975E-04-1.27546E-15
 -1      1466 1.32153E-02-1.03704E-03-1.03025E-15
 -1      1467 1.35800E-02-9.51368E-04-1.25700E-15
 -1      1468 1.37421E-02-9.08836E-04-1.23942E-15
 -1      1469 1.35426E-02-9.31467E-04-9.77625E-16
 -1      1470 1.39019E-02-8.70083E-04-1.22680E-15
 -1      1471 1.40589E-02-8.34105E-04-1.21694E-15
 -1      1472 1.38645E-02-8.47346E-04-9.37659E-16
 -1      1473 1.42130E-02-7.99143E-04-1.20512E-15
 -1      1474 1.43639E-02-7.63942E-04-1.19128E-15
 -1      1475 1.41769E-02-7.76662E-04-9.05268E-16
 -1      1476 1.45121E-02-7.26968E-04-1.17982E-15
 -1      1477 1.46579E-02-6.87193E-04-1.17133E-15
 -1      1478 1.44786E-02-7.07652E-04-8.77296E-16
 -1      1479 1.48710E-02-6.19843E-04-1.12916E-15
 -1      1480 1.48405E-02-6.05786E-04-8.18112E-16
 -1      1481 6.43106E-04 3.72028E-04 9.46644E-17
 -1      1482 4.92973E-04 3.03701E-04 6.36291E-17
 -1      1483 4.44900E-04 2.65903E-04 6.06882E-17
 -1      1484 9.28703E-04 4.72005E-04 1.72361E-16
 -1      1485 7.87834E-04 4.26507E-04 1.31121E-16
 -1      1486 7.44772E-04 3.90735E-04 1.23504E-16
 -1      1487 1.20360E-03 5.41441E-04 2.67947E-16
 -1      1488 1.06693E-03 5.09753E-04 2.18087E-16
 -1      1489 1.03083E-03 4.76189E-04 2.05809E-16
 -1      1490 1.47416E-03 5.90656E-04 3.76882E-16
 -1      1491 1.33910E-03 5.68188E-04 3.20897E-16
 -1      1492 1.30875E-03 5.36031E-04 3.03143E-16
 -1      1493 1.74369E-03 6.25571E-04 4.95738E-16
 -1      1494 1.60888E-03 6.09660E-04 4.35321E-16
 -1      1495 1.58298E-03 5.78337E-04 4.12431E-16
 -1      1496 2.01390E-03 6.50052E-04 6.24487E-16
 -1      1497 1.87863E-03 6.38943E-04 5.58906E-16
 -1      1498 1.85615E-03 6.08085E-04 5.31042E-16
 -1      1499 2.28557E-03 6.66845E-04 7.62248E-16
 -1      1500 2.14951E-03 6.59279E-04 6.92426E-16
 -1      1501 2.12965E-03 6.28655E-04 6.58151E-16
 -1      1502 2.55903E-03 6.77988E-04 9.07016E-16
 -1      1503 2.42207E-03 6.73022E-04 8.33751E-16
 -1      1504 2.40420E-03 6.42494E-04 7.92972E-16
 -1      1505 2.83433E-03 6.85018E-04 1.05834E-15
 -1      1506 2.69645E-03 6.81941E-04 9.81637E-16
 -1      1507 2.68010E-03 6.51425E-04 9.34975E-16
 -1      1508 3.11138E-03 6.89085E-04 1.21855E-15
 -1      1509 2.97265E-03 6.87364E-04 1.13733E-15
 -1      1510 2.95742E-03 6.56812E-04 1.08450E-15
 -1      1511 3.38999E-03 6.91044E-04 1.38976E-15
 -1      1512 3.25050E-03 6.90286E-04 1.30282E-15
 -1      1513 3.23611E-03 6.59674E-04 1.24372E-15
 -1      1514 3.66998E-03 6.91515E-04 1.56860E-15
 -1      1515 3.52983E-03 6.91436E-04 1.47832E-15
 -1      1516 3.51606E-03 6.60754E-04 1.41154E-15
 -1      1517 3.95113E-03 6.90929E-04 1.75278E-15
 -1      1518 3.81042E-03 6.91333E-04 1.66044E-15
 -1      1519 3.79711E-03 6.60581E-04 1.58593E-15
 -1      1520 4.23326E-03 6.89575E-04 1.93545E-15
 -1      1521 4.09209E-03 6.90335E-04 1.84484E-15
 -1      1522 4.07911E-03 6.59518E-04 1.76345E-15
 -1      1523 4.51623E-03 6.87625E-04 2.11776E-15
 -1      1524 4.37465E-03 6.88667E-04 2.02671E-15
 -1      1525 4.36194E-03 6.57791E-04 1.94037E-15
 -1      1526 4.79993E-03 6.85164E-04 2.30137E-15
 -1      1527 4.65800E-03 6.86455E-04 2.20912E-15
 -1      1528 4.64549E-03 6.55528E-04 2.11787E-15
 -1      1529 5.08429E-03 6.82212E-04 2.48849E-15
 -1      1530 4.94203E-03 6.83749E-04 2.39419E-15
 -1      1531 4.92969E-03 6.52775E-04 2.29740E-15
 -1      1532 5.36932E-03 6.78742E-04 2.67296E-15
 -1      1533 5.22672E-03 6.80542E-04 2.58147E-15
 -1      1534 5.21453E-03 6.49523E-04 2.47739E-15
 -1      1535 5.65510E-03 6.74697E-04 2.85168E-15
 -1      1536 5.51211E-03 6.76791E-04 2.76348E-15
 -1      1537 5.50004E-03 6.45723E-04 2.65489E-15
 -1      1538 5.94176E-03 6.70015E-04 3.03369E-15
 -1      1539 5.79831E-03 6.72434E-04 2.94201E-15
 -1      1540 5.78633E-03 6.41304E-04 2.82975E-15
 -1      1541 6.22954E-03 6.64649E-04 3.21965E-15
 -1      1542 6.08549E-03 6.67411E-04 3.12565E-15
 -1      1543 6.07357E-03 6.36198E-04 3.00737E-15
 -1      1544 6.51878E-03 6.58598E-04 3.40978E-15
 -1      1545 6.37396E-03 6.61696E-04 3.31461E-15
 -1      1546 6.36202E-03 6.30367E-04 3.18972E-15
 -1      1547 6.80993E-03 6.51946E-04 3.60059E-15
 -1      1548 6.66409E-03 6.55325E-04 3.50421E-15
 -1      1549 6.65202E-03 6.23830E-04 3.37539E-15
 -1      1550 7.10354E-03 6.44916E-04 3.79791E-15
 -1      1551 6.95639E-03 6.48442E-04 3.69831E-15
 -1      1552 6.94401E-03 6.16715E-04 3.56655E-15
 -1      1553 7.40029E-03 6.37935E-04 4.01548E-15
 -1      1554 7.25148E-03 6.41364E-04 3.90558E-15
 -1      1555 7.23854E-03 6.09316E-04 3.76787E-15
 -1      1556 7.70094E-03 6.31722E-04 4.23785E-15
 -1      1557 7.55007E-03 6.34653E-04 4.12609E-15
 -1      1558 7.53625E-03 6.02172E-04 3.98069E-15
 -1      1559 8.00630E-03 6.27388E-04 4.46530E-15
 -1      1560 7.85298E-03 6.29212E-04 4.35058E-15
 -1      1561 7.83780E-03 5.96162E-04 4.19905E-15
 -1      1562 8.31712E-03 6.26553E-04 4.69766E-15
 -1      1563 8.16098E-03 6.26394E-04 4.58134E-15
 -1      1564 8.14389E-03 5.92617E-04 4.42308E-15
 -1      1565 8.63396E-03 6.31432E-04 4.93555E-15
 -1      1566 8.47476E-03 6.28110E-04 4.81584E-15
 -1      1567 8.45508E-03 5.93436E-04 4.65140E-15
 -1      1568 8.95689E-03 6.44864E-04 5.17586E-15
 -1      1569 8.79466E-03 6.36895E-04 5.05578E-15
 -1      1570 8.77170E-03 6.01163E-04 4.88663E-15
 -1      1571 9.28524E-03 6.70171E-04 5.42622E-15
 -1      1572 9.12045E-03 6.55864E-04 5.29989E-15
 -1      1573 9.09356E-03 6.18961E-04 5.12784E-15
 -1      1574 9.61717E-03 7.10694E-04 5.69006E-15
 -1      1575 9.45090E-03 6.88432E-04 5.55503E-15
 -1      1576 9.41975E-03 6.50352E-04 5.37767E-15
 -1      1577 9.94940E-03 7.68826E-04 5.96337E-15
 -1      1578 9.78350E-03 7.37616E-04 5.82727E-15
 -1      1579 9.74828E-03 6.98548E-04 5.64081E-15
 -1      1580 1.02772E-02 8.44431E-04 6.24789E-15
 -1      1581 1.01142E-02 8.04760E-04 6.10474E-15
 -1      1582 1.00760E-02 7.65189E-04 5.91280E-15
 -1      1583 1.05949E-02 9.32859E-04 6.53306E-15
 -1      1584 1.04377E-02 8.87697E-04 6.38880E-15
 -1      1585 1.03987E-02 8.48467E-04 6.19079E-15
 -1      1586 1.08973E-02 1.02343E-03 6.82588E-15
 -1      1587 1.07483E-02 9.78853E-04 6.67848E-15
 -1      1588 1.07117E-02 9.41110E-04 6.47526E-15
 -1      1589 1.11819E-02 1.09987E-03 7.12332E-15
 -1      1590 1.10419E-02 1.06452E-03 6.97466E-15
 -1      1591 1.10115E-02 1.02944E-03 6.76404E-15
 -1      1592 1.14505E-02 1.14398E-03 7.42369E-15
 -1      1593 1.13179E-02 1.12686E-03 7.27311E-15
 -1      1594 1.12972E-02 1.09517E-03 7.05969E-15
 -1      1595 1.17096E-02 1.14195E-03 7.71872E-15
 -1      1596 1.15807E-02 1.14904E-03 7.57166E-15
 -1      1597 1.15718E-02 1.12065E-03 7.35290E-15
 -1      1598 1.19685E-02 1.09017E-03 8.00855E-15
 -1      1599 1.18385E-02 1.12186E-03 7.86510E-15
 -1      1600 1.18419E-02 1.09578E-03 7.64123E-15
 -1      1601 1.22354E-02 9.96623E-04 8.28705E-15
 -1      1602 1.21005E-02 1.04768E-03 8.14897E-15
 -1      1603 1.21148E-02 1.02253E-03 7.92014E-15
 -1      1604 1.25144E-02 8.76648E-04 8.55495E-15
 -1      1605 1.23733E-02 9.38893E-04 8.42359E-15
 -1      1606 1.23958E-02 9.13485E-04 8.18914E-15
 -1      1607 1.28047E-02 7.46259E-04 8.80764E-15
 -1      1608 1.26583E-02 8.11970E-04 8.68343E-15
 -1      1609 1.26861E-02 7.85741E-04 8.44730E-15
 -1      1610 1.31023E-02 6.16733E-04 9.04189E-15
 -1      1611 1.29530E-02 6.81023E-04 8.92569E-15
 -1      1612 1.29835E-02 6.54020E-04 8.68787E-15
 -1      1613 1.34017E-02 4.92633E-04 9.25491E-15
 -1      1614 1.32521E-02 5.54019E-04 9.15111E-15
 -1      1615 1.32838E-02 5.26675E-04 8.91308E-15
 -1      1616 1.36988E-02 3.72739E-04 9.45113E-15
 -1      1617 1.35508E-02 4.32405E-04 9.35618E-15
 -1      1618 1.35832E-02 4.05275E-04 9.11838E-15
 -1      1619 1.39911E-02 2.52504E-04 9.63400E-15
 -1      1620 1.38456E-02 3.12957E-04 9.54561E-15
 -1      1621 1.38788E-02 2.86501E-04 9.30946E-15
 -1      1622 1.42791E-02 1.27324E-04 9.80345E-15
 -1      1623 1.41356E-02 1.90677E-04 9.71821E-15
 -1      1624 1.41697E-02 1.65080E-04 9.48573E-15
 -1      1625 1.44448E-02 4.88697E-05 9.81424E-15
 -1      1626 1.46222E-02-5.99201E-05 9.07432E-15
 -1      1627 1.45548E-02-1.92062E-05 9.37295E-15
 -1      1628 1.47627E-02-1.37205E-04 8.48770E-15
 -1      1629 1.46915E-02-9.93963E-05 8.77826E-15
 -1      1630 1.45333E-02-2.30410E-05 8.85084E-15
 -1      1631 1.49098E-02-2.05951E-04 7.89841E-15
 -1      1632 1.48357E-02-1.72880E-04 8.19580E-15
 -1      1633 1.46766E-02-9.87854E-05 8.25888E-15
 -1      1634 1.50592E-02-2.62436E-04 7.30271E-15
 -1      1635 1.49846E-02-2.35948E-04 7.60187E-15
 -1      1636 1.48262E-02-1.66570E-04 7.66146E-15
 -1      1637 1.52008E-02-3.02959E-04 6.68117E-15
 -1      1638 1.51312E-02-2.84697E-04 6.99827E-15
 -1      1639 1.49757E-02-2.23070E-04 7.05528E-15
 -1      1640 1.53288E-02-3.27489E-04 6.00618E-15
 -1      1641 1.52676E-02-3.17322E-04 6.34688E-15
 -1      1642 1.51179E-02-2.66608E-04 6.42090E-15
 -1      1643 1.54278E-02-3.36528E-04 5.30087E-15
 -1      1644 1.53826E-02-3.33736E-04 5.65726E-15
 -1      1645 1.52420E-02-2.96613E-04 5.74925E-15
 -1      1646 1.54863E-02-3.34738E-04 4.57243E-15
 -1      1647 1.54627E-02-3.36581E-04 4.93714E-15
 -1      1648 1.53337E-02-3.14357E-04 5.04952E-15
 -1      1649 1.54976E-02-3.29514E-04 3.83427E-15
 -1      1650 1.54980E-02-3.32035E-04 4.20509E-15
 -1      1651 1.53816E-02-3.24345E-04 4.32837E-15
 -1      1652 1.54622E-02-3.29294E-04 3.09342E-15
 -1      1653 1.54855E-02-3.28277E-04 3.46278E-15
 -1      1654 1.53805E-02-3.33161E-04 3.59708E-15
 -1      1655 1.53890E-02-3.41069E-04 2.34567E-15
 -1      1656 1.54297E-02-3.33349E-04 2.72330E-15
 -1      1657 1.53333E-02-3.47660E-04 2.86395E-15
 -1      1658 1.52880E-02-3.69768E-04 1.57371E-15
 -1      1659 1.53411E-02-3.53159E-04 1.95755E-15
 -1      1660 1.52496E-02-3.73373E-04 2.12056E-15
 -1      1661 1.51738E-02-4.16539E-04 8.31732E-16
 -1      1662 1.52317E-02-3.90940E-04 1.19661E-15
 -1      1663 1.51415E-02-4.13657E-04 1.37265E-15
 -1      1664 1.50592E-02-4.79551E-04 1.13719E-16
 -1      1665 1.51159E-02-4.46232E-04 4.72075E-16
 -1      1666 1.50239E-02-4.68602E-04 6.42512E-16
 -1      1667 1.49219E-02-5.60550E-04-5.31693E-16
 -1      1668 1.49740E-02-5.22054E-04-1.72930E-16
 -1      1669 1.48784E-02-5.41210E-04-4.18773E-18
 -1      1670 1.47081E-02-6.25959E-04-5.80482E-16
 -1      1671 1.41328E-02-1.48601E-04 3.26364E-15
 -1      1672 1.41782E-02-2.00290E-04 3.10671E-15
 -1      1673 1.39083E-02-1.24243E-05 3.60396E-15
 -1      1674 1.40314E-02-7.98931E-05 3.45403E-15
 -1      1675 1.35897E-02 1.73288E-04 3.84073E-15
 -1      1676 1.37469E-02 9.39883E-05 3.73104E-15
 -1      1677 1.31509E-02 3.58456E-04 4.08297E-15
 -1      1678 1.33536E-02 2.57657E-04 3.99861E-15
 -1      1679 1.27510E-02 5.68655E-04 4.14894E-15
 -1      1680 1.29423E-02 4.84451E-04 4.11040E-15
 -1      1681 1.23349E-02 7.18931E-04 4.19421E-15
 -1      1682 1.25224E-02 6.55209E-04 4.18567E-15
 -1      1683 1.19101E-02 8.07732E-04 4.18245E-15
 -1      1684 1.20997E-02 7.79304E-04 4.20741E-15
 -1      1685 1.15224E-02 7.87843E-04 4.04987E-15
 -1      1686 1.16958E-02 8.04481E-04 4.10384E-15
 -1      1687 1.11137E-02 6.89419E-04 3.87879E-15
 -1      1688 1.13086E-02 7.46799E-04 3.96954E-15
 -1      1689 1.07107E-02 5.37508E-04 3.65813E-15
 -1      1690 1.08898E-02 6.11259E-04 3.76007E-15
 -1      1691 1.03227E-02 3.62605E-04 3.40141E-15
 -1      1692 1.05009E-02 4.45538E-04 3.52614E-15
 -1      1693 9.97354E-03 1.70741E-04 3.10941E-15
 -1      1694 1.01358E-02 2.49607E-04 3.25177E-15
 -1      1695 9.68959E-03 2.90982E-05 2.79011E-15
 -1      1696 9.80387E-03 9.07726E-05 2.93462E-15
 -1      1697 9.54481E-03-7.95076E-05 2.48458E-15
 -1      1698 9.59263E-03-3.04174E-05 2.62329E-15
 -1      1699 9.54920E-03-1.85681E-04 2.16617E-15
 -1      1700 9.52703E-03-1.37630E-04 2.30975E-15
 -1      1701 9.70868E-03-3.10306E-04 1.88660E-15
 -1      1702 9.61777E-03-2.51150E-04 2.01110E-15
 -1      1703 9.97338E-03-4.68551E-04 1.65991E-15
 -1      1704 9.84010E-03-3.96345E-04 1.76252E-15
 -1      1705 1.03601E-02-6.58757E-04 1.43291E-15
 -1      1706 1.01701E-02-5.59786E-04 1.52859E-15
 -1      1707 1.07990E-02-8.70647E-04 1.25606E-15
 -1      1708 1.06038E-02-7.71021E-04 1.32239E-15
 -1      1709 1.11957E-02-1.05690E-03 1.18942E-15
 -1      1710 1.10106E-02-9.80475E-04 1.21900E-15
 -1      1711 1.15971E-02-1.17283E-03 1.17899E-15
 -1      1712 1.14097E-02-1.12831E-03 1.17888E-15
 -1      1713 1.20053E-02-1.20056E-03 1.22444E-15
 -1      1714 1.18164E-02-1.19989E-03 1.19604E-15
 -1      1715 1.24240E-02-1.13062E-03 1.33964E-15
 -1      1716 1.22284E-02-1.17602E-03 1.27247E-15
 -1      1717 1.28432E-02-9.86641E-04 1.53542E-15
 -1      1718 1.26540E-02-1.05940E-03 1.44120E-15
 -1      1719 1.32361E-02-8.12905E-04 1.76526E-15
 -1      1720 1.30579E-02-8.94880E-04 1.65569E-15
 -1      1721 1.36096E-02-6.24980E-04 2.03323E-15
 -1      1722 1.34371E-02-7.09593E-04 1.90159E-15
 -1      1723 1.39034E-02-4.85190E-04 2.31927E-15
 -1      1724 1.37851E-02-5.48169E-04 2.19282E-15
 -1      1725 1.40970E-02-3.60546E-04 2.61531E-15
 -1      1726 1.40178E-02-4.13475E-04 2.47410E-15
 -1      1727 1.41839E-02-2.57005E-04 2.91894E-15
 -1      1728 1.41587E-02-3.02908E-04 2.78121E-15
 -1      1729 1.29839E-02 3.79237E-04 4.23590E-15
 -1      1730 1.34095E-02 1.58554E-04 4.05499E-15
 -1      1731 1.44797E-02 2.38151E-05 9.58378E-15
 -1      1732 1.43886E-02 5.93049E-05 9.35997E-15
 -1      1733 1.40826E-02-1.53848E-04 3.45164E-15
 -1      1734 1.38067E-02-2.40114E-05 3.77128E-15
 -1      1735 1.41920E-02-2.28953E-04 3.06959E-15
 -1      1736 1.25703E-02 6.03218E-04 4.29664E-15
 -1      1737 1.21665E-02 7.66739E-04 4.34077E-15
 -1      1738 1.18078E-02 8.33972E-04 4.26685E-15
 -1      1739 1.14405E-02 7.85494E-04 4.10232E-15
 -1      1740 1.10626E-02 6.48974E-04 3.89730E-15
 -1      1741 1.06652E-02 4.61582E-04 3.64249E-15
 -1      1742 1.02765E-02 2.53169E-04 3.35774E-15
 -1      1743 9.91552E-03 7.60438E-05 3.03206E-15
 -1      1744 9.64404E-03-3.58614E-05 2.69195E-15
 -1      1745 9.52519E-03-1.15916E-04 2.35234E-15
 -1      1746 9.57809E-03-1.87526E-04 2.02694E-15
 -1      1747 9.78832E-03-2.97848E-04 1.75090E-15
 -1      1748 1.01206E-02-4.58422E-04 1.49835E-15
 -1      1749 1.05476E-02-6.67043E-04 1.26101E-15
 -1      1750 1.09692E-02-9.05911E-04 1.11743E-15
 -1      1751 1.13524E-02-1.10305E-03 1.07016E-15
 -1      1752 1.17240E-02-1.21235E-03 1.07531E-15
 -1      1753 1.20975E-02-1.21218E-03 1.13836E-15
 -1      1754 1.24824E-02-1.10009E-03 1.28646E-15
 -1      1755 1.28841E-02-9.18193E-04 1.50700E-15
 -1      1756 1.32818E-02-7.12470E-04 1.76572E-15
 -1      1757 1.36537E-02-5.33256E-04 2.06701E-15
 -1      1758 1.39473E-02-3.99665E-04 2.38638E-15
 -1      1759 1.41317E-02-3.03956E-04 2.71205E-15
 -1      1760 2.85251E-04-1.76235E-04-3.70662E-17
 -1      1761 3.32197E-04-1.16777E-04-3.32308E-17
 -1      1762 3.36335E-04-1.33023E-04-3.72288E-17
 -1      1763 3.42216E-04-1.52012E-04-4.09964E-17
 -1      1764 3.51771E-04-1.74014E-04-4.46691E-17
 -1      1765 4.58341E-04-1.88082E-04-5.47929E-17
 -1      1766 3.24564E-04-6.53804E-05-1.82146E-17
 -1      1767 3.25700E-04-7.66794E-05-2.20093E-17
 -1      1768 3.23071E-04-4.38880E-05-1.13841E-17
 -1      1769 3.23724E-04-5.43778E-05-1.47316E-17
 -1      1770 4.36510E-04-7.92841E-05-2.31613E-17
 -1      1771 3.22287E-04-2.37706E-05-4.98733E-18
 -1      1772 3.22618E-04-3.36839E-05-8.41612E-18
 -1      1773 4.34510E-04-5.13155E-05-1.37694E-17
 -1      1774 3.21994E-04-4.33643E-06 1.13841E-18
 -1      1775 3.22090E-04-1.39887E-05-1.82959E-18
 -1      1776 4.33491E-04-2.49229E-05-4.75694E-18
 -1      1777 3.22116E-04 1.49814E-05 7.07442E-18
 -1      1778 3.22002E-04 5.31901E-06 3.97089E-18
 -1      1779 4.33194E-04 7.58035E-07 3.99800E-18
 -1      1780 3.22680E-04 3.47302E-05 1.30646E-17
 -1      1781 3.22330E-04 2.47844E-05 9.97466E-18
 -1      1782 4.33549E-04 2.64681E-05 1.25496E-17
 -1      1783 3.23807E-04 5.51669E-05 1.95292E-17
 -1      1784 3.23145E-04 4.48046E-05 1.61953E-17
 -1      1785 4.34623E-04 5.27234E-05 2.13046E-17
 -1      1786 3.25863E-04 7.78171E-05 2.63190E-17
 -1      1787 3.24666E-04 6.62367E-05 2.27005E-17
 -1      1788 4.36675E-04 8.06022E-05 3.03983E-17
 -1      1789 3.29550E-04 1.03654E-04 3.34070E-17
 -1      1790 3.27402E-04 9.03044E-05 2.96800E-17
 -1      1791 4.40321E-04 1.11571E-04 4.00071E-17
 -1      1792 3.36583E-04 1.35111E-04 4.08338E-17
 -1      1793 3.32401E-04 1.18613E-04 3.71068E-17
 -1      1794 4.46789E-04 1.47339E-04 5.01444E-17
 -1      1795 3.52310E-04 1.77605E-04 4.78675E-17
 -1      1796 3.42814E-04 1.54760E-04 4.42490E-17
 -1      1797 4.59323E-04 1.91459E-04 6.03087E-17
 -1      1798 4.07712E-04 2.33689E-04 5.64056E-17
 -1      1799 3.78100E-04 2.02664E-04 5.22992E-17
 -1      1800 4.95868E-04 2.43999E-04 7.11237E-17
 -1      1801 5.58565E-04 3.02510E-04 8.31041E-17
 -1      1802 3.40033E-04-1.90912E-04-4.44794E-17
 -1      1803 8.53597E-04 4.07130E-04 1.52723E-16
 -1      1804 7.07187E-04 3.59386E-04 1.15576E-16
 -1      1805 6.73420E-04 3.28817E-04 1.07783E-16
 -1      1806 4.58968E-04-2.36722E-04-6.13523E-17
 -1      1807 8.07253E-04-3.74125E-04-1.28532E-16
 -1      1808 9.52522E-04-4.15311E-04-1.62698E-16
 -1      1809 1.09537E-03-4.50001E-04-1.99683E-16
 -1      1810 1.23704E-03-4.78905E-04-2.38728E-16
 -1      1811 1.00394E-03-3.97925E-04-1.68553E-16
 -1      1812 1.37745E-03-5.03398E-04-2.79765E-16
 -1      1813 1.51714E-03-5.23775E-04-3.22618E-16
 -1      1814 1.28964E-03-4.55907E-04-2.41316E-16
 -1      1815 1.65631E-03-5.40960E-04-3.66691E-16
 -1      1816 1.79515E-03-5.55188E-04-4.11658E-16
 -1      1817 1.57205E-03-4.96864E-04-3.20422E-16
 -1      1818 1.93387E-03-5.67069E-04-4.57818E-16
 -1      1819 2.07253E-03-5.76807E-04-5.04479E-16
 -1      1820 1.85268E-03-5.25415E-04-4.03987E-16
 -1      1821 2.21128E-03-5.84819E-04-5.52103E-16
 -1      1822 2.35011E-03-5.91275E-04-6.00119E-16
 -1      1823 2.13258E-03-5.44900E-04-4.90832E-16
 -1      1824 2.48915E-03-5.96471E-04-6.48814E-16
 -1      1825 2.62836E-03-6.00546E-04-6.97549E-16
 -1      1826 2.41244E-03-5.57770E-04-5.79506E-16
 -1      1827 2.76782E-03-6.03712E-04-7.46460E-16
 -1      1828 2.90748E-03-6.06079E-04-7.94490E-16
 -1      1829 2.69266E-03-5.65851E-04-6.69021E-16
 -1      1830 3.04740E-03-6.07798E-04-8.42601E-16
 -1      1831 3.18754E-03-6.08956E-04-8.89615E-16
 -1      1832 2.97344E-03-5.70505E-04-7.58020E-16
 -1      1833 3.32792E-03-6.09658E-04-9.35965E-16
 -1      1834 3.46851E-03-6.09969E-04-9.81962E-16
 -1      1835 3.25488E-03-5.72739E-04-8.44512E-16
 -1      1836 3.60933E-03-6.09961E-04-1.02671E-15
 -1      1837 3.75033E-03-6.09680E-04-1.07064E-15
 -1      1838 3.53698E-03-5.73284E-04-9.28213E-16
 -1      1839 3.89154E-03-6.09174E-04-1.11264E-15
 -1      1840 4.03292E-03-6.08474E-04-1.15450E-15
 -1      1841 3.81972E-03-5.72654E-04-1.00702E-15
 -1      1842 4.17447E-03-6.07606E-04-1.19464E-15
 -1      1843 4.31618E-03-6.06592E-04-1.23248E-15
 -1      1844 4.10304E-03-5.71192E-04-1.08188E-15
 -1      1845 4.45804E-03-6.05442E-04-1.26804E-15
 -1      1846 4.60005E-03-6.04169E-04-1.30133E-15
 -1      1847 4.38689E-03-5.69109E-04-1.14977E-15
 -1      1848 4.74220E-03-6.02770E-04-1.33328E-15
 -1      1849 4.88449E-03-6.01253E-04-1.36191E-15
 -1      1850 4.67124E-03-5.66512E-04-1.20952E-15
 -1      1851 5.02692E-03-5.99604E-04-1.38800E-15
 -1      1852 5.16949E-03-5.97827E-04-1.41206E-15
 -1      1853 4.95607E-03-5.63428E-04-1.25991E-15
 -1      1854 5.31221E-03-5.95902E-04-1.43575E-15
 -1      1855 5.45509E-03-5.93828E-04-1.45752E-15
 -1      1856 5.24139E-03-5.59823E-04-1.30215E-15
 -1      1857 5.59814E-03-5.91582E-04-1.47756E-15
 -1      1858 5.74137E-03-5.89163E-04-1.49727E-15
 -1      1859 5.52724E-03-5.55619E-04-1.33919E-15
 -1      1860 5.88482E-03-5.86542E-04-1.51643E-15
 -1      1861 6.02850E-03-5.83723E-04-1.53546E-15
 -1      1862 5.81372E-03-5.50711E-04-1.37131E-15
 -1      1863 6.17243E-03-5.80676E-04-1.55435E-15
 -1      1864 6.31668E-03-5.77411E-04-1.57331E-15
 -1      1865 6.10096E-03-5.44987E-04-1.40389E-15
 -1      1866 6.46125E-03-5.73902E-04-1.59207E-15
 -1      1867 6.60623E-03-5.70167E-04-1.61088E-15
 -1      1868 6.38917E-03-5.38346E-04-1.43424E-15
 -1      1869 6.75162E-03-5.66190E-04-1.62679E-15
 -1      1870 6.89754E-03-5.62005E-04-1.64135E-15
 -1      1871 6.67860E-03-5.30732E-04-1.46342E-15
 -1      1872 7.04400E-03-5.57615E-04-1.65531E-15
 -1      1873 7.19113E-03-5.53076E-04-1.66655E-15
 -1      1874 6.96961E-03-5.22178E-04-1.48599E-15
 -1      1875 7.33894E-03-5.48421E-04-1.67635E-15
 -1      1876 7.48761E-03-5.43740E-04-1.68249E-15
 -1      1877 7.26261E-03-5.12863E-04-1.50192E-15
 -1      1878 7.63714E-03-5.39117E-04-1.68764E-15
 -1      1879 7.78773E-03-5.34687E-04-1.68879E-15
 -1      1880 7.55812E-03-5.03197E-04-1.50867E-15
 -1      1881 7.93938E-03-5.30611E-04-1.68772E-15
 -1      1882 8.09234E-03-5.27090E-04-1.68583E-15
 -1      1883 7.85674E-03-4.93948E-04-1.50550E-15
 -1      1884 8.24657E-03-5.24398E-04-1.68095E-15
 -1      1885 8.40234E-03-5.22823E-04-1.67248E-15
 -1      1886 8.15917E-03-4.86406E-04-1.49400E-15
 -1      1887 8.55963E-03-5.22799E-04-1.66158E-15
 -1      1888 8.71869E-03-5.24727E-04-1.64694E-15
 -1      1889 8.46619E-03-4.82602E-04-1.47148E-15
 -1      1890 8.87950E-03-5.29244E-04-1.62895E-15
 -1      1891 9.04221E-03-5.36899E-04-1.60887E-15
 -1      1892 8.77868E-03-4.85585E-04-1.43631E-15
 -1      1893 9.20690E-03-5.48549E-04-1.58459E-15
 -1      1894 9.37349E-03-5.64905E-04-1.55645E-15
 -1      1895 9.09758E-03-4.99706E-04-1.38945E-15
 -1      1896 9.54222E-03-5.86993E-04-1.52635E-15
 -1      1897 9.71260E-03-6.15650E-04-1.49418E-15
 -1      1898 9.42392E-03-5.30806E-04-1.32975E-15
 -1      1899 9.88513E-03-6.51861E-04-1.45881E-15
 -1      1900 1.00587E-02-6.96414E-04-1.42346E-15
 -1      1901 9.75862E-03-5.86048E-04-1.25846E-15
 -1      1902 1.02340E-02-7.49806E-04-1.38821E-15
 -1      1903 1.04093E-02-8.12319E-04-1.35013E-15
 -1      1904 1.01021E-02-6.72873E-04-1.18005E-15
 -1      1905 1.05854E-02-8.83295E-04-1.31483E-15
 -1      1906 1.07598E-02-9.61602E-04-1.27933E-15
 -1      1907 1.04533E-02-7.96289E-04-1.10177E-15
 -1      1908 1.09331E-02-1.04473E-03-1.24347E-15
 -1      1909 1.11030E-02-1.12933E-03-1.20828E-15
 -1      1910 1.08079E-02-9.53486E-04-1.02205E-15
 -1      1911 1.12694E-02-1.21096E-03-1.17206E-15
 -1      1912 1.14320E-02-1.28418E-03-1.13576E-15
 -1      1913 1.11575E-02-1.12659E-03-9.44381E-16
 -1      1914 1.15895E-02-1.34403E-03-1.10178E-15
 -1      1915 1.17450E-02-1.38554E-03-1.06841E-15
 -1      1916 1.14935E-02-1.27905E-03-8.70032E-16
 -1      1917 1.18967E-02-1.40583E-03-1.03441E-15
 -1      1918 1.20497E-02-1.40352E-03-9.99946E-16
 -1      1919 1.18145E-02-1.36607E-03-7.96902E-16
 -1      1920 1.22022E-02-1.37968E-03-9.65780E-16
 -1      1921 1.23585E-02-1.33803E-03-9.31601E-16
 -1      1922 1.21306E-02-1.36008E-03-7.25833E-16
 -1      1923 1.25171E-02-1.28273E-03-8.98167E-16
 -1      1924 1.26789E-02-1.21898E-03-8.66915E-16
 -1      1925 1.24548E-02-1.27147E-03-6.53503E-16
 -1      1926 1.28434E-02-1.15147E-03-8.32491E-16
 -1      1927 1.30090E-02-1.08445E-03-7.99233E-16
 -1      1928 1.27913E-02-1.13928E-03-5.81525E-16
 -1      1929 1.31759E-02-1.02095E-03-7.67791E-16
 -1      1930 1.33417E-02-9.62674E-04-7.35482E-16
 -1      1931 1.31332E-02-1.00364E-03-5.07176E-16
 -1      1932 1.35071E-02-9.10575E-04-7.04067E-16
 -1      1933 1.36700E-02-8.64475E-04-6.74889E-16
 -1      1934 1.34716E-02-8.88411E-04-4.35619E-16
 -1      1935 1.38312E-02-8.23711E-04-6.51226E-16
 -1      1936 1.39895E-02-7.87146E-04-6.29515E-16
 -1      1937 1.38004E-02-7.98923E-04-3.68710E-16
 -1      1938 1.41454E-02-7.53263E-04-6.10867E-16
 -1      1939 1.42984E-02-7.20592E-04-5.92801E-16
 -1      1940 1.41173E-02-7.28753E-04-3.17698E-16
 -1      1941 1.44312E-02-6.92727E-04-5.89603E-16
 -1      1942 1.45795E-02-6.57912E-04-5.75508E-16
 -1      1943 1.46650E-02-6.14886E-04-2.88506E-16
 -1      1944 1.44045E-02-6.71258E-04-2.90349E-16
 -1      1945 1.13866E-03 4.80103E-04 2.38741E-16
 -1      1946 9.96883E-04 4.46847E-04 1.93991E-16
 -1      1947 9.64497E-04 4.17391E-04 1.82119E-16
 -1      1948 1.41778E-03 5.31595E-04 3.38190E-16
 -1      1949 1.27862E-03 5.08141E-04 2.87015E-16
 -1      1950 1.24898E-03 4.80003E-04 2.71037E-16
 -1      1951 1.69416E-03 5.67900E-04 4.47532E-16
 -1      1952 1.55613E-03 5.51401E-04 3.91533E-16
 -1      1953 1.52925E-03 5.24228E-04 3.71163E-16
 -1      1954 1.96973E-03 5.93196E-04 5.65533E-16
 -1      1955 1.83195E-03 5.81754E-04 5.05591E-16
 -1      1956 1.80750E-03 5.55220E-04 4.80369E-16
 -1      1957 2.24556E-03 6.10435E-04 6.91382E-16
 -1      1958 2.10757E-03 6.02698E-04 6.27550E-16
 -1      1959 2.08511E-03 5.76569E-04 5.97544E-16
 -1      1960 2.52221E-03 6.21792E-04 8.24454E-16
 -1      1961 2.38376E-03 6.16756E-04 7.56827E-16
 -1      1962 2.36292E-03 5.90875E-04 7.21496E-16
 -1      1963 2.79993E-03 6.28888E-04 9.64872E-16
 -1      1964 2.66093E-03 6.25803E-04 8.94033E-16
 -1      1965 2.64137E-03 6.00065E-04 8.53118E-16
 -1      1966 3.07879E-03 6.32935E-04 1.11383E-15
 -1      1967 2.93922E-03 6.31241E-04 1.03830E-15
 -1      1968 2.92067E-03 6.05576E-04 9.92574E-16
 -1      1969 3.35877E-03 6.34825E-04 1.27189E-15
 -1      1970 3.21865E-03 6.34112E-04 1.19169E-15
 -1      1971 3.20087E-03 6.08476E-04 1.14021E-15
 -1      1972 3.63976E-03 6.35205E-04 1.43668E-15
 -1      1973 3.49915E-03 6.35178E-04 1.35363E-15
 -1      1974 3.48197E-03 6.09543E-04 1.29611E-15
 -1      1975 3.92167E-03 6.34523E-04 1.60808E-15
 -1      1976 3.78061E-03 6.34979E-04 1.52200E-15
 -1      1977 3.76389E-03 6.09332E-04 1.45897E-15
 -1      1978 4.20438E-03 6.33078E-04 1.78006E-15
 -1      1979 4.06293E-03 6.33885E-04 1.69409E-15
 -1      1980 4.04656E-03 6.08219E-04 1.62576E-15
 -1      1981 4.48778E-03 6.31045E-04 1.95197E-15
 -1      1982 4.34600E-03 6.32129E-04 1.86548E-15
 -1      1983 4.32989E-03 6.06443E-04 1.79234E-15
 -1      1984 4.77182E-03 6.28512E-04 2.12608E-15
 -1      1985 4.62973E-03 6.29839E-04 2.03857E-15
 -1      1986 4.61382E-03 6.04134E-04 1.96012E-15
 -1      1987 5.05647E-03 6.25492E-04 2.30100E-15
 -1      1988 4.91407E-03 6.27063E-04 2.21341E-15
 -1      1989 4.89831E-03 6.01343E-04 2.13008E-15
 -1      1990 5.34172E-03 6.21952E-04 2.47587E-15
 -1      1991 5.19902E-03 6.23789E-04 2.38905E-15
 -1      1992 5.18336E-03 5.98056E-04 2.30092E-15
 -1      1993 5.62766E-03 6.17827E-04 2.64692E-15
 -1      1994 5.48460E-03 6.19965E-04 2.56201E-15
 -1      1995 5.46900E-03 5.94218E-04 2.47014E-15
 -1      1996 5.91439E-03 6.13037E-04 2.82002E-15
 -1      1997 5.77091E-03 6.15516E-04 2.73291E-15
 -1      1998 5.75531E-03 5.89752E-04 2.63650E-15
 -1      1999 6.20212E-03 6.07519E-04 2.99374E-15
 -1      2000 6.05812E-03 6.10367E-04 2.90634E-15
 -1      2001 6.04244E-03 5.84575E-04 2.80522E-15
 -1      2002 6.49112E-03 6.01245E-04 3.17452E-15
 -1      2003 6.34644E-03 6.04469E-04 3.08313E-15
 -1      2004 6.33059E-03 5.78630E-04 2.97784E-15
 -1      2005 6.78173E-03 5.94269E-04 3.35826E-15
 -1      2006 6.63619E-03 5.97829E-04 3.26474E-15
 -1      2007 6.62003E-03 5.71913E-04 3.15464E-15
 -1      2008 7.07440E-03 5.86774E-04 3.54899E-15
 -1      2009 6.92777E-03 5.90560E-04 3.45419E-15
 -1      2010 6.91111E-03 5.64519E-04 3.33932E-15
 -1      2011 7.36964E-03 5.79144E-04 3.75225E-15
 -1      2012 7.22165E-03 5.82934E-04 3.64922E-15
 -1      2013 7.20425E-03 5.56701E-04 3.53146E-15
 -1      2014 7.66804E-03 5.72044E-04 3.96170E-15
 -1      2015 7.51839E-03 5.75465E-04 3.85510E-15
 -1      2016 7.49995E-03 5.48947E-04 3.73151E-15
 -1      2017 7.97022E-03 5.66535E-04 4.17751E-15
 -1      2018 7.81860E-03 5.69003E-04 4.06856E-15
 -1      2019 7.79873E-03 5.42072E-04 3.93786E-15
 -1      2020 8.27677E-03 5.64184E-04 4.39758E-15
 -1      2021 8.12290E-03 5.64847E-04 4.28795E-15
 -1      2022 8.10117E-03 5.37339E-04 4.15218E-15
 -1      2023 8.58815E-03 5.67178E-04 4.62611E-15
 -1      2024 8.43182E-03 5.64863E-04 4.51113E-15
 -1      2025 8.40779E-03 5.36572E-04 4.37165E-15
 -1      2026 8.90452E-03 5.78373E-04 4.85850E-15
 -1      2027 8.74570E-03 5.71574E-04 4.74116E-15
 -1      2028 8.71898E-03 5.42258E-04 4.59681E-15
 -1      2029 9.22560E-03 6.01193E-04 5.10129E-15
 -1      2030 9.06452E-03 5.88147E-04 4.97971E-15
 -1      2031 9.03489E-03 5.57552E-04 4.82925E-15
 -1      2032 9.55038E-03 6.39234E-04 5.35183E-15
 -1      2033 9.38766E-03 6.18165E-04 5.22447E-15
 -1      2034 9.35523E-03 5.86080E-04 5.07178E-15
 -1      2035 9.87691E-03 6.95360E-04 5.61321E-15
 -1      2036 9.71367E-03 6.65004E-04 5.48127E-15
 -1      2037 9.67909E-03 6.31374E-04 5.32330E-15
 -1      2038 1.02022E-02 7.70149E-04 5.88485E-15
 -1      2039 1.00401E-02 7.30612E-04 5.74750E-15
 -1      2040 1.00046E-02 6.95708E-04 5.58375E-15
 -1      2041 1.05223E-02 8.59784E-04 6.16053E-15
 -1      2042 1.03633E-02 8.13635E-04 6.02204E-15
 -1      2043 1.03290E-02 7.78241E-04 5.85144E-15
 -1      2044 1.08332E-02 9.54179E-04 6.44148E-15
 -1      2045 1.06793E-02 9.07290E-04 6.30096E-15
 -1      2046 1.06484E-02 8.72758E-04 6.12637E-15
 -1      2047 1.11322E-02 1.03684E-03 6.73132E-15
 -1      2048 1.09843E-02 9.98096E-04 6.58546E-15
 -1      2049 1.09588E-02 9.66081E-04 6.40633E-15
 -1      2050 1.14194E-02 1.08825E-03 7.02207E-15
 -1      2051 1.12770E-02 1.06744E-03 6.87673E-15
 -1      2052 1.12582E-02 1.03923E-03 6.69424E-15
 -1      2053 1.16990E-02 1.09255E-03 7.30924E-15
 -1      2054 1.15596E-02 1.09670E-03 7.16595E-15
 -1      2055 1.15479E-02 1.07251E-03 6.97961E-15
 -1      2056 1.19776E-02 1.04456E-03 7.59032E-15
 -1      2057 1.18378E-02 1.07473E-03 7.45092E-15
 -1      2058 1.18330E-02 1.05350E-03 7.26113E-15
 -1      2059 1.22612E-02 9.51991E-04 7.86009E-15
 -1      2060 1.21184E-02 1.00292E-03 7.72703E-15
 -1      2061 1.21201E-02 9.82968E-04 7.53263E-15
 -1      2062 1.25527E-02 8.31056E-04 8.12099E-15
 -1      2063 1.24059E-02 8.93997E-04 7.99187E-15
 -1      2064 1.24139E-02 8.73951E-04 7.79623E-15
 -1      2065 1.28512E-02 6.99139E-04 8.36831E-15
 -1      2066 1.27013E-02 7.65680E-04 8.24475E-15
 -1      2067 1.27147E-02 7.44924E-04 8.04664E-15
 -1      2068 1.31534E-02 5.68564E-04 8.60301E-15
 -1      2069 1.30022E-02 6.33332E-04 8.48701E-15
 -1      2070 1.30199E-02 6.11977E-04 8.28591E-15
 -1      2071 1.34555E-02 4.44413E-04 8.81828E-15
 -1      2072 1.33048E-02 5.05721E-04 8.71369E-15
 -1      2073 1.33256E-02 4.84252E-04 8.51286E-15
 -1      2074 1.37544E-02 3.25529E-04 9.01515E-15
 -1      2075 1.36055E-02 3.84592E-04 8.91853E-15
 -1      2076 1.36284E-02 3.63590E-04 8.72031E-15
 -1      2077 1.40485E-02 2.07046E-04 9.20240E-15
 -1      2078 1.39021E-02 2.66578E-04 9.10959E-15
 -1      2079 1.39262E-02 2.46537E-04 8.91236E-15
 -1      2080 1.42914E-02 1.03104E-04 9.32488E-15
 -1      2081 1.41469E-02 1.65023E-04 9.23902E-15
 -1      2082 1.41716E-02 1.45954E-04 9.04057E-15
 -1      2083 1.43674E-02 6.07872E-05 9.11284E-15
 -1      2084 1.47423E-02-1.33538E-04 7.41673E-15
 -1      2085 1.46659E-02-1.00162E-04 7.72097E-15
 -1      2086 1.45905E-02-6.44983E-05 8.02239E-15
 -1      2087 1.45166E-02-2.73120E-05 8.32257E-15
 -1      2088 1.45041E-02-3.46945E-05 7.78585E-15
 -1      2089 1.44757E-02-3.66545E-06 8.56886E-15
 -1      2090 1.44053E-02 3.58335E-05 8.86736E-15
 -1      2091 1.43075E-02 7.82511E-05 8.83176E-15
 -1      2092 1.43871E-02 2.82138E-05 8.33734E-15
 -1      2093 1.48916E-02-1.92143E-04 6.80832E-15
 -1      2094 1.48174E-02-1.64223E-04 7.11567E-15
 -1      2095 1.46566E-02-1.06093E-04 7.17860E-15
 -1      2096 1.50340E-02-2.40215E-04 6.16593E-15
 -1      2097 1.49647E-02-2.17744E-04 6.49173E-15
 -1      2098 1.48081E-02-1.69132E-04 6.56200E-15
 -1      2099 1.51538E-02-2.75983E-04 5.49867E-15
 -1      2100 1.50975E-02-2.59514E-04 5.83454E-15
 -1      2101 1.49492E-02-2.21862E-04 5.91935E-15
 -1      2102 1.52374E-02-3.01240E-04 4.80148E-15
 -1      2103 1.52009E-02-2.89522E-04 5.15465E-15
 -1      2104 1.50644E-02-2.62887E-04 5.25312E-15
 -1      2105 1.52740E-02-3.20535E-04 4.08732E-15
 -1      2106 1.52620E-02-3.11011E-04 4.44541E-15
 -1      2107 1.51392E-02-2.94191E-04 4.56032E-15
 -1      2108 1.52598E-02-3.40264E-04 3.36233E-15
 -1      2109 1.52731E-02-3.29677E-04 3.72591E-15
 -1      2110 1.51636E-02-3.20813E-04 3.85037E-15
 -1      2111 1.52009E-02-3.66225E-04 2.64261E-15
 -1      2112 1.52354E-02-3.51927E-04 3.00327E-15
 -1      2113 1.51361E-02-3.49212E-04 3.13863E-15
 -1      2114 1.51065E-02-4.03716E-04 1.90469E-15
 -1      2115 1.51572E-02-3.83321E-04 2.27449E-15
 -1      2116 1.50641E-02-3.85494E-04 2.42176E-15
 -1      2117 1.49921E-02-4.54100E-04 1.17378E-15
 -1      2118 1.50510E-02-4.27309E-04 1.53848E-15
 -1      2119 1.49601E-02-4.33453E-04 1.69766E-15
 -1      2120 1.48719E-02-5.16723E-04 4.53535E-16
 -1      2121 1.49320E-02-4.84084E-04 8.12366E-16
 -1      2122 1.48401E-02-4.93248E-04 9.76907E-16
 -1      2123 1.36801E-02-1.48916E-05 3.96632E-15
 -1      2124 1.38496E-02-9.06246E-05 3.84003E-15
 -1      2125 1.41933E-02-2.27262E-04 3.19617E-15
 -1      2126 1.41981E-02-2.45807E-04 3.00393E-15
 -1      2127 1.40297E-02-1.62654E-04 3.63406E-15
 -1      2128 1.41323E-02-1.95709E-04 3.44189E-15
 -1      2129 1.32743E-02 1.59846E-04 4.27420E-15
 -1      2130 1.34852E-02 6.78501E-05 4.12031E-15
 -1      2131 1.35613E-02 2.99859E-06 4.18781E-15
 -1      2132 1.28067E-02 4.34188E-04 4.40103E-15
 -1      2133 1.30050E-02 3.09522E-04 4.37695E-15
 -1      2134 3.27126E-04-8.89837E-05-2.53974E-17
 -1      2135 3.29241E-04-1.02127E-04-2.93277E-17
 -1      2136 4.46324E-04-1.45108E-04-4.37340E-17
 -1      2137 4.39987E-04-1.09945E-04-3.32715E-17
 -1      2138 1.20708E-02 8.02078E-04 4.50142E-15
 -1      2139 1.22395E-02 7.33518E-04 4.49472E-15
 -1      2140 1.17019E-02 8.51513E-04 4.36893E-15
 -1      2141 1.18490E-02 8.51127E-04 4.45474E-15
 -1      2142 1.13951E-02 7.76729E-04 4.19874E-15
 -1      2143 1.15484E-02 8.27013E-04 4.28577E-15
 -1      2144 1.16204E-02 8.49843E-04 4.46819E-15
 -1      2145 1.10057E-02 5.98204E-04 3.91570E-15
 -1      2146 1.11830E-02 6.88985E-04 4.03906E-15
 -1      2147 1.06168E-02 3.90146E-04 3.63342E-15
 -1      2148 1.08009E-02 4.91057E-04 3.76987E-15
 -1      2149 1.02460E-02 1.83564E-04 3.34754E-15
 -1      2150 1.04330E-02 2.83946E-04 3.49864E-15
 -1      2151 9.84488E-03 1.23070E-05 2.95005E-15
 -1      2152 1.00098E-02 7.66167E-05 3.12454E-15
 -1      2153 9.59320E-03-7.84844E-05 2.57420E-15
 -1      2154 9.68974E-03-4.82276E-05 2.73984E-15
 -1      2155 9.51374E-03-1.23635E-04 2.23748E-15
 -1      2156 9.53474E-03-1.05606E-04 2.40860E-15
 -1      2157 9.55539E-03-9.74380E-05 2.46101E-15
 -1      2158 9.61776E-03-1.84382E-04 1.88304E-15
 -1      2159 9.54575E-03-1.55555E-04 2.03482E-15
 -1      2160 9.88387E-03-2.89686E-04 1.58063E-15
 -1      2161 9.74678E-03-2.33113E-04 1.70214E-15
 -1      2162 1.02329E-02-4.47974E-04 1.33070E-15
 -1      2163 1.00459E-02-3.63175E-04 1.45770E-15
 -1      2164 9.97287E-03-2.98957E-04 1.41509E-15
 -1      2165 1.06822E-02-6.90376E-04 1.09447E-15
 -1      2166 1.04683E-02-5.70692E-04 1.20185E-15
 -1      2167 1.11227E-02-9.63010E-04 9.65618E-16
 -1      2168 1.09403E-02-8.45864E-04 9.99729E-16
 -1      2169 1.14771E-02-1.15188E-03 9.29243E-16
 -1      2170 1.13141E-02-1.07023E-03 9.39624E-16
 -1      2171 1.18149E-02-1.24473E-03 9.45587E-16
 -1      2172 1.16596E-02-1.21459E-03 9.30245E-16
 -1      2173 1.21536E-02-1.21378E-03 1.01283E-15
 -1      2174 1.19959E-02-1.24606E-03 9.66377E-16
 -1      2175 1.25413E-02-1.05712E-03 1.22482E-15
 -1      2176 1.23640E-02-1.14130E-03 1.12527E-15
 -1      2177 1.29273E-02-8.49165E-04 1.46198E-15
 -1      2178 1.27441E-02-9.51835E-04 1.34072E-15
 -1      2179 1.33248E-02-6.32522E-04 1.74769E-15
 -1      2180 1.31354E-02-7.35262E-04 1.60740E-15
 -1      2181 1.37221E-02-4.53573E-04 2.11406E-15
 -1      2182 1.35531E-02-5.24422E-04 1.94925E-15
 -1      2183 1.39896E-02-3.45647E-04 2.44451E-15
 -1      2184 1.38705E-02-3.93530E-04 2.28423E-15
 -1      2185 1.41632E-02-2.73385E-04 2.81099E-15
 -1      2186 1.40984E-02-3.00143E-04 2.64190E-15
 -1      2187 1.24399E-02 6.39605E-04 4.46746E-15
 -1      2188 1.26213E-02 5.39649E-04 4.43428E-15
 -1      2189 1.26799E-02 4.79715E-04 4.57371E-15
 -1      2190 1.31145E-02 2.23379E-04 4.44413E-15
 -1      2191 1.32233E-02 1.51187E-04 4.51004E-15
 -1      2192 1.29720E-02 2.91587E-04 4.61020E-15
 -1      2193 6.07896E-04-2.98136E-04-8.71021E-17
 -1      2194 1.23241E-02 6.83926E-04 4.62960E-15
 -1      2195 6.63615E-04-2.92425E-04-9.43256E-17
 -1      2196 1.39429E-02-1.46261E-04 3.82650E-15
 -1      2197 1.40229E-02-1.79914E-04 3.81356E-15
 -1      2198 1.38491E-02-1.24635E-04 4.01953E-15
 -1      2199 1.41754E-02-2.19700E-04 3.37415E-15
 -1      2200 1.47831E-02-5.55226E-04 1.63633E-16
 -1      2201 1.41889E-02-2.55289E-04 2.93256E-15
 -1      2202 1.40463E-02-3.09088E-04 2.53910E-15
 -1      2203 1.37892E-02-4.02086E-04 2.16749E-15
 -1      2204 1.34263E-02-5.60590E-04 1.79068E-15
 -1      2205 1.30074E-02-7.80530E-04 1.44187E-15
 -1      2206 1.26220E-02-1.00210E-03 1.17972E-15
 -1      2207 1.22432E-02-1.18713E-03 9.51523E-16
 -1      2208 1.19064E-02-1.25897E-03 8.20551E-16
 -1      2209 1.15848E-02-1.19405E-03 8.00195E-16
 -1      2210 1.12471E-02-1.02125E-03 8.25674E-16
 -1      2211 1.03550E-02-4.82489E-04 1.16669E-15
 -1      2212 9.51736E-03-1.31774E-04 2.09637E-15
 -1      2213 9.75746E-03-3.36502E-05 2.83481E-15
 -1      2214 1.01397E-02 1.15749E-04 3.26504E-15
 -1      2215 1.02575E-02 1.63843E-04 3.40731E-15
 -1      2216 1.00385E-02 6.64066E-05 3.18431E-15
 -1      2217 1.05502E-02 3.25733E-04 3.62534E-15
 -1      2218 1.13059E-02 7.40141E-04 4.21923E-15
 -1      2219 1.19452E-02 8.40873E-04 4.60347E-15
 -1      2220 1.20288E-02 8.15724E-04 4.75653E-15
 -1      2221 1.18448E-02 8.62506E-04 4.70370E-15
 -1      2222 1.09223E-02 5.39039E-04 3.90923E-15
 -1      2223 9.68175E-03-1.92580E-04 1.71564E-15
 -1      2224 1.08302E-02-7.57143E-04 9.45207E-16
 -1      2225 1.07205E-02-6.75583E-04 8.89236E-16
 -1      2226 1.09534E-02-8.24997E-04 7.95845E-16
 -1      2227 1.01661E-03 3.99833E-04 1.91470E-16
 -1      2228 8.72141E-04 3.63445E-04 1.52859E-16
 -1      2229 5.47781E-04-5.53055E-05-1.54228E-17
 -1      2230 5.48818E-04-7.20226E-05-2.16705E-17
 -1      2231 5.50239E-04-8.93441E-05-2.80944E-17
 -1      2232 5.52112E-04-1.07320E-04-3.48029E-17
 -1      2233 6.65285E-04-9.55016E-05-3.21601E-17
 -1      2234 5.46399E-04 8.85826E-06 8.84980E-18
 -1      2235 5.46379E-04-6.98164E-06 2.80537E-18
 -1      2236 5.47154E-04 4.08741E-05 2.06676E-17
 -1      2237 5.46654E-04 2.47972E-05 1.46774E-17
 -1      2238 6.61336E-04 1.99341E-05 1.58429E-17
 -1      2239 5.48980E-04 7.34998E-05 3.25667E-17
 -1      2240 5.47917E-04 5.70056E-05 2.64545E-17
 -1      2241 6.62662E-04 5.77961E-05 3.13063E-17
 -1      2242 5.52374E-04 1.08975E-04 4.50215E-17
 -1      2243 5.50449E-04 9.08991E-05 3.87196E-17
 -1      2244 6.65524E-04 9.72699E-05 4.69866E-17
 -1      2245 5.58256E-04 1.48311E-04 5.83572E-17
 -1      2246 5.54936E-04 1.28086E-04 5.17571E-17
 -1      2247 6.70617E-04 1.40044E-04 6.35614E-17
 -1      2248 5.68587E-04 1.93909E-04 7.20181E-17
 -1      2249 5.62747E-04 1.70191E-04 6.50792E-17
 -1      2250 6.79269E-04 1.87589E-04 8.08815E-17
 -1      2251 1.30207E-03 4.56782E-04 2.78464E-16
 -1      2252 1.15975E-03 4.30837E-04 2.33483E-16
 -1      2253 1.07178E-03 3.81356E-04 1.99060E-16
 -1      2254 9.15195E-04-3.46406E-04-1.40336E-16
 -1      2255 1.05927E-03-3.79707E-04-1.72198E-16
 -1      2256 1.22421E-02 7.22168E-04 4.81803E-15
 -1      2257 1.24053E-02 6.28764E-04 4.79472E-15
 -1      2258 1.20256E-03-4.08103E-04-2.05782E-16
 -1      2259 1.34536E-03-4.31991E-04-2.41059E-16
 -1      2260 1.11695E-03-3.60465E-04-1.73350E-16
 -1      2261 1.48753E-03-4.52211E-04-2.77474E-16
 -1      2262 1.62931E-03-4.69050E-04-3.15245E-16
 -1      2263 1.40332E-03-4.07318E-04-2.38091E-16
 -1      2264 1.77073E-03-4.83177E-04-3.53965E-16
 -1      2265 1.91191E-03-4.94815E-04-3.93186E-16
 -1      2266 1.68843E-03-4.40549E-04-3.07114E-16
 -1      2267 2.05293E-03-5.04454E-04-4.32963E-16
 -1      2268 2.19384E-03-5.12268E-04-4.73308E-16
 -1      2269 1.97262E-03-4.63590E-04-3.78996E-16
 -1      2270 2.33474E-03-5.18619E-04-5.13763E-16
 -1      2271 2.47562E-03-5.23647E-04-5.55044E-16
 -1      2272 2.25624E-03-4.79077E-04-4.52356E-16
 -1      2273 2.61656E-03-5.27617E-04-5.95634E-16
 -1      2274 2.75754E-03-5.30640E-04-6.36400E-16
 -1      2275 2.53965E-03-4.89037E-04-5.26353E-16
 -1      2276 2.89863E-03-5.32907E-04-6.77030E-16
 -1      2277 3.03980E-03-5.34507E-04-7.16983E-16
 -1      2278 2.82305E-03-4.95015E-04-5.99943E-16
 -1      2279 3.18110E-03-5.35575E-04-7.56217E-16
 -1      2280 3.32248E-03-5.36179E-04-7.95073E-16
 -1      2281 3.10661E-03-4.98166E-04-6.72273E-16
 -1      2282 3.46400E-03-5.36413E-04-8.33142E-16
 -1      2283 3.60562E-03-5.36326E-04-8.70154E-16
 -1      2284 3.39040E-03-4.99339E-04-7.42096E-16
 -1      2285 3.74736E-03-5.35980E-04-9.05458E-16
 -1      2286 3.88919E-03-5.35412E-04-9.39800E-16
 -1      2287 3.67446E-03-4.99142E-04-8.08069E-16
 -1      2288 4.03115E-03-5.34658E-04-9.72597E-16
 -1      2289 4.17319E-03-5.33742E-04-1.00477E-15
 -1      2290 3.95880E-03-4.97992E-04-8.68459E-16
 -1      2291 4.31535E-03-5.32684E-04-1.03629E-15
 -1      2292 4.45759E-03-5.31497E-04-1.06386E-15
 -1      2293 4.24342E-03-4.96155E-04-9.24215E-16
 -1      2294 4.59994E-03-5.30186E-04-1.08876E-15
 -1      2295 4.74238E-03-5.28758E-04-1.11322E-15
 -1      2296 4.52831E-03-4.93782E-04-9.73099E-16
 -1      2297 4.88491E-03-5.27207E-04-1.13525E-15
 -1      2298 5.02755E-03-5.25534E-04-1.15408E-15
 -1      2299 4.81347E-03-4.90932E-04-1.01232E-15
 -1      2300 5.17028E-03-5.23724E-04-1.17177E-15
 -1      2301 5.31311E-03-5.21774E-04-1.18841E-15
 -1      2302 5.09891E-03-4.87596E-04-1.04531E-15
 -1      2303 5.45606E-03-5.19665E-04-1.20332E-15
 -1      2304 5.59914E-03-5.17391E-04-1.21713E-15
 -1      2305 5.38466E-03-4.83711E-04-1.07020E-15
 -1      2306 5.74234E-03-5.14928E-04-1.22969E-15
 -1      2307 5.88569E-03-5.12272E-04-1.24286E-15
 -1      2308 5.67075E-03-4.79181E-04-1.09144E-15
 -1      2309 6.02920E-03-5.09396E-04-1.25505E-15
 -1      2310 6.17289E-03-5.06300E-04-1.26719E-15
 -1      2311 5.95725E-03-4.73888E-04-1.11044E-15
 -1      2312 6.31678E-03-5.02959E-04-1.28075E-15
 -1      2313 6.46092E-03-4.99379E-04-1.29244E-15
 -1      2314 6.24425E-03-4.67717E-04-1.12952E-15
 -1      2315 6.60529E-03-4.95542E-04-1.30416E-15
 -1      2316 6.74997E-03-4.91463E-04-1.31308E-15
 -1      2317 6.53186E-03-4.60579E-04-1.14656E-15
 -1      2318 6.89495E-03-4.87141E-04-1.32101E-15
 -1      2319 7.04032E-03-4.82605E-04-1.32763E-15
 -1      2320 6.82024E-03-4.52442E-04-1.16044E-15
 -1      2321 7.18606E-03-4.77880E-04-1.33205E-15
 -1      2322 7.33229E-03-4.73018E-04-1.33505E-15
 -1      2323 7.10957E-03-4.43384E-04-1.16569E-15
 -1      2324 7.47898E-03-4.68085E-04-1.33473E-15
 -1      2325 7.62629E-03-4.63167E-04-1.33179E-15
 -1      2326 7.40008E-03-4.33656E-04-1.16397E-15
 -1      2327 7.77415E-03-4.58391E-04-1.32613E-15
 -1      2328 7.92277E-03-4.53894E-04-1.31844E-15
 -1      2329 7.69203E-03-4.23774E-04-1.15005E-15
 -1      2330 8.07208E-03-4.49890E-04-1.30939E-15
 -1      2331 8.22231E-03-4.46587E-04-1.29891E-15
 -1      2332 7.98577E-03-4.14646E-04-1.12922E-15
 -1      2333 8.37341E-03-4.44321E-04-1.28485E-15
 -1      2334 8.52561E-03-4.43403E-04-1.26780E-15
 -1      2335 8.28176E-03-4.07735E-04-1.10048E-15
 -1      2336 8.67891E-03-4.44319E-04-1.24800E-15
 -1      2337 8.83356E-03-4.47532E-04-1.22425E-15
 -1      2338 8.58067E-03-4.05272E-04-1.06122E-15
 -1      2339 8.98966E-03-4.53692E-04-1.19581E-15
 -1      2340 9.14741E-03-4.63474E-04-1.16724E-15
 -1      2341 8.88354E-03-4.10508E-04-1.00777E-15
 -1      2342 9.30710E-03-4.77666E-04-1.13504E-15
 -1      2343 9.46881E-03-4.97228E-04-1.09929E-15
 -1      2344 9.19204E-03-4.27982E-04-9.42700E-16
 -1      2345 9.63315E-03-5.22975E-04-1.06131E-15
 -1      2346 9.79987E-03-5.56156E-04-1.02107E-15
 -1      2347 9.50872E-03-4.63760E-04-8.66400E-16
 -1      2348 9.96999E-03-5.97392E-04-9.77842E-16
 -1      2349 1.01426E-02-6.48024E-04-9.34365E-16
 -1      2350 9.83709E-03-5.25454E-04-7.79514E-16
 -1      2351 1.03190E-02-7.08068E-04-8.92569E-16
 -1      2352 1.04972E-02-7.78246E-04-8.48307E-16
 -1      2353 1.01809E-02-6.21591E-04-6.86476E-16
 -1      2354 1.06785E-02-8.57424E-04-8.06199E-16
 -1      2355 1.08595E-02-9.43902E-04-7.62682E-16
 -1      2356 1.05415E-02-7.58937E-04-5.92259E-16
 -1      2357 1.10407E-02-1.03467E-03-7.18812E-16
 -1      2358 1.12188E-02-1.12410E-03-6.78331E-16
 -1      2359 1.09138E-02-9.35007E-04-4.98462E-16
 -1      2360 1.13928E-02-1.20756E-03-6.38500E-16
 -1      2361 1.15629E-02-1.27562E-03-6.00377E-16
 -1      2362 1.12831E-02-1.12488E-03-4.10099E-16
 -1      2363 1.17271E-02-1.32380E-03-5.62647E-16
 -1      2364 1.18910E-02-1.34616E-03-5.26651E-16
 -1      2365 1.16349E-02-1.27382E-03-3.28960E-16
 -1      2366 1.20528E-02-1.34155E-03-4.88514E-16
 -1      2367 1.22184E-02-1.31188E-03-4.48792E-16
 -1      2368 1.19724E-02-1.32157E-03-2.51616E-16
 -1      2369 1.23854E-02-1.26068E-03-4.10303E-16
 -1      2370 1.25580E-02-1.19693E-03-3.72274E-16
 -1      2371 1.23143E-02-1.25320E-03-1.70613E-16
 -1      2372 1.27343E-02-1.12530E-03-3.32159E-16
 -1      2373 1.29111E-02-1.05282E-03-2.92640E-16
 -1      2374 1.26735E-02-1.11219E-03-8.74545E-17
 -1      2375 1.30887E-02-9.83149E-04-2.51006E-16
 -1      2376 1.32637E-02-9.19404E-04-2.11081E-16
 -1      2377 1.30420E-02-9.60988E-04 9.62229E-19
 -1      2378 1.34370E-02-8.62970E-04-1.72605E-16
 -1      2379 1.36060E-02-8.13718E-04-1.31310E-16
 -1      2380 1.34022E-02-8.34587E-04 9.07613E-17
 -1      2381 1.37720E-02-7.71518E-04-9.34853E-17
 -1      2382 1.39337E-02-7.34735E-04-5.84656E-17
 -1      2383 1.37451E-02-7.41181E-04 1.76793E-16
 -1      2384 1.40922E-02-7.02361E-04-2.92870E-17
 -1      2385 1.42470E-02-6.72447E-04-1.81604E-18
 -1      2386 1.40695E-02-6.73607E-04 2.55181E-16
 -1      2387 1.86522E-03 5.25281E-04 4.80898E-16
 -1      2388 1.72500E-03 5.12538E-04 4.27216E-16
 -1      2389 2.14529E-03 5.44536E-04 5.93181E-16
 -1      2390 2.00531E-03 5.35887E-04 5.35975E-16
 -1      2391 1.92455E-03 4.94661E-04 4.78323E-16
 -1      2392 2.42532E-03 5.57277E-04 7.12741E-16
 -1      2393 2.28529E-03 5.51615E-04 6.52121E-16
 -1      2394 2.20663E-03 5.11892E-04 5.86093E-16
 -1      2395 2.70570E-03 5.65303E-04 8.39078E-16
 -1      2396 2.56546E-03 5.61799E-04 7.74825E-16
 -1      2397 2.48856E-03 5.23149E-04 7.00801E-16
 -1      2398 2.98663E-03 5.69958E-04 9.73221E-16
 -1      2399 2.84610E-03 5.67990E-04 9.05431E-16
 -1      2400 2.77062E-03 5.30094E-04 8.22327E-16
 -1      2401 3.26820E-03 5.72232E-04 1.11543E-15
 -1      2402 3.12734E-03 5.71346E-04 1.04302E-15
 -1      2403 3.05301E-03 5.33968E-04 9.50750E-16
 -1      2404 3.55041E-03 5.72845E-04 1.26567E-15
 -1      2405 3.40923E-03 5.72712E-04 1.19003E-15
 -1      2406 3.33580E-03 5.35686E-04 1.08728E-15
 -1      2407 3.83323E-03 5.72304E-04 1.42200E-15
 -1      2408 3.69175E-03 5.72695E-04 1.34300E-15
 -1      2409 3.61902E-03 5.35905E-04 1.23211E-15
 -1      2410 4.11663E-03 5.70945E-04 1.58128E-15
 -1      2411 3.97487E-03 5.71711E-04 1.50151E-15
 -1      2412 3.90268E-03 5.35083E-04 1.38150E-15
 -1      2413 4.40054E-03 5.68975E-04 1.74112E-15
 -1      2414 4.25853E-03 5.70026E-04 1.66111E-15
 -1      2415 4.18674E-03 5.33519E-04 1.53373E-15
 -1      2416 4.68494E-03 5.66499E-04 1.90347E-15
 -1      2417 4.54269E-03 5.67795E-04 1.82176E-15
 -1      2418 4.47119E-03 5.31389E-04 1.68749E-15
 -1      2419 4.96981E-03 5.63547E-04 2.06618E-15
 -1      2420 4.82732E-03 5.65081E-04 1.98484E-15
 -1      2421 4.75602E-03 5.28775E-04 1.84264E-15
 -1      2422 5.25516E-03 5.60088E-04 2.23052E-15
 -1      2423 5.11243E-03 5.61882E-04 2.14848E-15
 -1      2424 5.04121E-03 5.25685E-04 1.99923E-15
 -1      2425 5.54104E-03 5.56057E-04 2.39235E-15
 -1      2426 5.39803E-03 5.58146E-04 2.31247E-15
 -1      2427 5.32680E-03 5.22078E-04 2.15632E-15
 -1      2428 5.82752E-03 5.51365E-04 2.55368E-15
 -1      2429 5.68419E-03 5.53796E-04 2.47231E-15
 -1      2430 5.61283E-03 5.17874E-04 2.31205E-15
 -1      2431 6.11475E-03 5.45928E-04 2.71609E-15
 -1      2432 5.97103E-03 5.48741E-04 2.63479E-15
 -1      2433 5.89937E-03 5.12982E-04 2.46712E-15
 -1      2434 6.40290E-03 5.39690E-04 2.88487E-15
 -1      2435 6.25869E-03 5.42907E-04 2.79968E-15
 -1      2436 6.18654E-03 5.07315E-04 2.62502E-15
 -1      2437 6.69221E-03 5.32657E-04 3.05643E-15
 -1      2438 6.54738E-03 5.36265E-04 2.97008E-15
 -1      2439 6.47450E-03 5.00822E-04 2.78747E-15
 -1      2440 6.98299E-03 5.24945E-04 3.23787E-15
 -1      2441 6.83739E-03 5.28870E-04 3.14721E-15
 -1      2442 6.76345E-03 4.93521E-04 2.95670E-15
 -1      2443 7.27560E-03 5.16843E-04 3.42624E-15
 -1      2444 7.12903E-03 5.20914E-04 3.33053E-15
 -1      2445 7.05363E-03 4.85551E-04 3.13370E-15
 -1      2446 7.57047E-03 5.08889E-04 3.61945E-15
 -1      2447 7.42271E-03 5.12801E-04 3.52139E-15
 -1      2448 7.34537E-03 4.77235E-04 3.31549E-15
 -1      2449 7.86807E-03 5.01975E-04 3.82207E-15
 -1      2450 7.71888E-03 5.05233E-04 3.72041E-15
 -1      2451 7.63902E-03 4.69161E-04 3.50500E-15
 -1      2452 8.16893E-03 4.97464E-04 4.02986E-15
 -1      2453 8.01805E-03 4.99320E-04 3.92507E-15
 -1      2454 7.93503E-03 4.62287E-04 3.70121E-15
 -1      2455 8.47355E-03 4.97304E-04 4.24445E-15
 -1      2456 8.32073E-03 4.96705E-04 4.13596E-15
 -1      2457 8.23392E-03 4.58059E-04 3.90437E-15
 -1      2458 8.78243E-03 5.04127E-04 4.46492E-15
 -1      2459 8.62744E-03 4.99667E-04 4.35462E-15
 -1      2460 8.53628E-03 4.58525E-04 4.11377E-15
 -1      2461 9.09594E-03 5.21233E-04 4.69488E-15
 -1      2462 8.93863E-03 5.11183E-04 4.57814E-15
 -1      2463 8.84280E-03 4.66425E-04 4.33059E-15
 -1      2464 9.41419E-03 5.52370E-04 4.93353E-15
 -1      2465 9.25456E-03 5.34821E-04 4.81398E-15
 -1      2466 9.15421E-03 4.85178E-04 4.55679E-15
 -1      2467 9.73683E-03 6.01107E-04 5.18026E-15
 -1      2468 9.57514E-03 5.74353E-04 5.05547E-15
 -1      2469 9.47118E-03 5.18653E-04 4.79137E-15
 -1      2470 1.00626E-02 6.69574E-04 5.43695E-15
 -1      2471 9.89963E-03 6.32835E-04 5.30632E-15
 -1      2472 9.79395E-03 5.70522E-04 5.03384E-15
 -1      2473 1.03890E-02 7.56436E-04 5.69774E-15
 -1      2474 1.02262E-02 7.10978E-04 5.56669E-15
 -1      2475 1.01218E-02 6.42929E-04 5.28404E-15
 -1      2476 1.07121E-02 8.54356E-04 5.96704E-15
 -1      2477 1.05514E-02 8.04753E-04 5.83360E-15
 -1      2478 1.04522E-02 7.34213E-04 5.54094E-15
 -1      2479 1.10274E-02 9.48355E-04 6.24594E-15
 -1      2480 1.08710E-02 9.03130E-04 6.10564E-15
 -1      2481 1.07805E-02 8.35973E-04 5.80636E-15
 -1      2482 1.13323E-02 1.01726E-03 6.52602E-15
 -1      2483 1.11810E-02 9.87367E-04 6.38401E-15
 -1      2484 1.11012E-02 9.30696E-04 6.07911E-15
 -1      2485 1.16284E-02 1.04041E-03 6.80403E-15
 -1      2486 1.14808E-02 1.03560E-03 6.66635E-15
 -1      2487 1.14111E-02 9.94692E-04 6.35473E-15
 -1      2488 1.19217E-02 1.00694E-03 7.07736E-15
 -1      2489 1.17745E-02 1.03076E-03 6.94147E-15
 -1      2490 1.17129E-02 1.00588E-03 6.62452E-15
 -1      2491 1.22192E-02 9.21953E-04 7.34359E-15
 -1      2492 1.20693E-02 9.69985E-04 7.21219E-15
 -1      2493 1.20143E-02 9.56173E-04 6.89141E-15
 -1      2494 1.25242E-02 8.02537E-04 7.59977E-15
 -1      2495 1.23707E-02 8.65226E-04 7.47308E-15
 -1      2496 1.23226E-02 8.55974E-04 7.15128E-15
 -1      2497 1.28350E-02 6.68941E-04 7.84496E-15
 -1      2498 1.26792E-02 7.36361E-04 7.72516E-15
 -1      2499 1.26392E-02 7.26859E-04 7.40362E-15
 -1      2500 1.31476E-02 5.36369E-04 8.07899E-15
 -1      2501 1.29916E-02 6.01923E-04 7.96222E-15
 -1      2502 1.29599E-02 5.90341E-04 7.64242E-15
 -1      2503 1.34575E-02 4.11602E-04 8.29804E-15
 -1      2504 1.33033E-02 4.72901E-04 8.19086E-15
 -1      2505 1.32792E-02 4.59763E-04 7.86857E-15
 -1      2506 1.37620E-02 2.94247E-04 8.49966E-15
 -1      2507 1.36107E-02 3.52225E-04 8.40128E-15
 -1      2508 1.35926E-02 3.39120E-04 8.08198E-15
 -1      2509 1.40597E-02 1.79362E-04 8.69175E-15
 -1      2510 1.39118E-02 2.36910E-04 8.59699E-15
 -1      2511 1.38979E-02 2.25748E-04 8.28148E-15
 -1      2512 1.42092E-02 1.19854E-04 8.79353E-15
 -1      2513 1.47240E-02-1.52807E-04 6.31972E-15
 -1      2514 1.46478E-02-1.19806E-04 6.63289E-15
 -1      2515 1.48643E-02-2.10437E-04 5.67645E-15
 -1      2516 1.47968E-02-1.83114E-04 6.00171E-15
 -1      2517 1.46400E-02-1.42530E-04 6.07992E-15
 -1      2518 1.44166E-02-9.19124E-06 7.55065E-15
 -1      2519 1.43402E-02 3.08284E-05 7.85563E-15
 -1      2520 1.45706E-02-8.45770E-05 6.94263E-15
 -1      2521 1.44935E-02-4.79125E-05 7.24681E-15
 -1      2522 1.43274E-02 1.20772E-05 7.31792E-15
 -1      2523 1.44845E-02-6.89852E-05 6.70514E-15
 -1      2524 1.49749E-02-2.56015E-04 5.00865E-15
 -1      2525 1.49243E-02-2.34555E-04 5.34506E-15
 -1      2526 1.47798E-02-2.04563E-04 5.43562E-15
 -1      2527 1.50404E-02-2.91931E-04 4.31737E-15
 -1      2528 1.50141E-02-2.74654E-04 4.66506E-15
 -1      2529 1.48856E-02-2.53428E-04 4.76533E-15
 -1      2530 1.50515E-02-3.24240E-04 3.61565E-15
 -1      2531 1.50530E-02-3.07796E-04 3.96856E-15
 -1      2532 1.49408E-02-2.92473E-04 4.08018E-15
 -1      2533 1.50096E-02-3.59811E-04 2.91828E-15
 -1      2534 1.50366E-02-3.40909E-04 3.26655E-15
 -1      2535 1.49371E-02-3.29088E-04 3.38980E-15
 -1      2536 1.49236E-02-4.05699E-04 2.20444E-15
 -1      2537 1.49711E-02-3.81182E-04 2.56183E-15
 -1      2538 1.48788E-02-3.72083E-04 2.69394E-15
 -1      2539 1.48098E-02-4.63576E-04 1.48827E-15
 -1      2540 1.48691E-02-4.33131E-04 1.84682E-15
 -1      2541 1.47787E-02-4.27341E-04 1.98860E-15
 -1      2542 1.46848E-02-5.32321E-04 7.78281E-16
 -1      2543 1.47478E-02-4.96820E-04 1.13408E-15
 -1      2544 1.46556E-02-4.95212E-04 1.28307E-15
 -1      2545 1.41619E-02-2.21723E-04 3.56044E-15
 -1      2546 1.42143E-02-2.35769E-04 3.31189E-15
 -1      2547 1.42100E-02-2.51033E-04 3.03827E-15
 -1      2548 1.41724E-02-2.62710E-04 2.84177E-15
 -1      2549 1.58449E-03 4.97111E-04 3.75215E-16
 -1      2550 1.44355E-03 4.78786E-04 3.25789E-16
 -1      2551 1.64182E-03 4.69255E-04 3.77248E-16
 -1      2552 1.46558E-02-5.83388E-04 1.64866E-16
 -1      2553 1.34877E-02 1.83585E-05 4.39662E-15
 -1      2554 1.36622E-02-5.53121E-05 4.24386E-15
 -1      2555 5.88511E-04-2.37988E-04-7.57586E-17
 -1      2556 7.81317E-04-3.04849E-04-1.11564E-16
 -1      2557 8.40765E-04-2.93621E-04-1.15508E-16
 -1      2558 5.78975E-04-2.10195E-04-6.83861E-17
 -1      2559 1.41003E-02-2.85935E-04 2.63231E-15
 -1      2560 1.39966E-02-3.15373E-04 2.43135E-15
 -1      2561 9.52944E-03-1.33915E-04 1.91627E-15
 -1      2562 9.49619E-03-1.21089E-04 2.11637E-15
 -1      2563 9.68609E-03-5.86027E-05 2.73206E-15
 -1      2564 9.83084E-03-1.37378E-05 2.94066E-15
 -1      2565 5.46593E-04-2.29036E-05-3.04932E-18
 -1      2566 5.47050E-04-3.89464E-05-9.25638E-18
 -1      2567 6.62513E-04-5.58235E-05-1.55719E-17
 -1      2568 6.61284E-04-1.77080E-05 2.03288E-19
 -1      2569 1.08416E-02 4.81885E-04 3.92457E-15
 -1      2570 1.10157E-02 5.86313E-04 4.07504E-15
 -1      2571 1.15502E-02 8.40971E-04 4.55804E-15
 -1      2572 1.16692E-02 8.65607E-04 4.64648E-15
 -1      2573 9.71947E-03-1.89781E-04 1.56591E-15
 -1      2574 9.60329E-03-1.57259E-04 1.74298E-15
 -1      2575 9.54395E-03-1.37520E-04 1.76777E-15
 -1      2576 1.12039E-02 6.90163E-04 4.23752E-15
 -1      2577 1.13742E-02 7.77526E-04 4.40262E-15
 -1      2578 1.05019E-02 2.89220E-04 3.64820E-15
 -1      2579 1.06726E-02 3.84709E-04 3.78533E-15
 -1      2580 1.07645E-02 4.43445E-04 3.94888E-15
 -1      2581 9.51823E-03-1.04371E-04 2.34241E-15
 -1      2582 9.57161E-03-9.19914E-05 2.50507E-15
 -1      2583 1.00515E-02-3.14535E-04 1.23636E-15
 -1      2584 9.90180E-03-2.54386E-04 1.35637E-15
 -1      2585 1.04656E-02-5.23510E-04 9.80783E-16
 -1      2586 1.02536E-02-4.11111E-04 1.10845E-15
 -1      2587 1.13484E-02-1.07693E-03 6.71202E-16
 -1      2588 1.11860E-02-9.73833E-04 6.96180E-16
 -1      2589 1.16683E-02-1.23022E-03 6.40113E-16
 -1      2590 1.15233E-02-1.16926E-03 6.39191E-16
 -1      2591 1.19655E-02-1.26680E-03 6.59574E-16
 -1      2592 1.18248E-02-1.26523E-03 6.40926E-16
 -1      2593 1.23377E-02-1.14925E-03 8.59068E-16
 -1      2594 1.21703E-02-1.22243E-03 7.46880E-16
 -1      2595 1.26949E-02-9.50469E-04 1.11535E-15
 -1      2596 1.25220E-02-1.05355E-03 9.98767E-16
 -1      2597 1.30858E-02-7.22433E-04 1.41129E-15
 -1      2598 1.29004E-02-8.30590E-04 1.26449E-15
 -1      2599 1.35320E-02-4.94771E-04 1.81985E-15
 -1      2600 1.33264E-02-5.93847E-04 1.61457E-15
 -1      2601 1.38837E-02-3.54251E-04 2.25464E-15
 -1      2602 1.37497E-02-4.02963E-04 2.07992E-15
 -1      2603 1.39672E-02-3.27670E-04 2.34495E-15
 -1      2604 1.25583E-02 5.39030E-04 4.76533E-15
 -1      2605 1.27183E-02 4.39203E-04 4.73615E-15
 -1      2606 1.24666E-02 5.91117E-04 4.95568E-15
 -1      2607 7.57899E-04 3.34236E-04 1.25469E-16
 -1      2608 6.11483E-04 2.84870E-04 9.33227E-17
 -1      2609 5.84758E-04 2.58101E-04 8.60992E-17
 -1      2610 8.13722E-04 3.22911E-04 1.34360E-16
 -1      2611 1.11003E-02 6.40480E-04 4.25469E-15
 -1      2612 6.70236E-04-1.37961E-04-4.89246E-17
 -1      2613 5.54601E-04-1.26218E-04-4.12539E-17
 -1      2614 5.57756E-04-1.46205E-04-4.81115E-17
 -1      2615 1.35780E-03 4.32767E-04 2.83316E-16
 -1      2616 5.72256E-04 2.27905E-04 7.95262E-17
 -1      2617 1.36584E-02-4.43373E-04 1.90248E-15
 -1      2618 1.41469E-02-2.75533E-04 2.73380E-15
 -1      2619 1.32224E-02-6.52070E-04 1.43494E-15
 -1      2620 1.37823E-02-1.02683E-04 4.22919E-15
 -1      2621 1.27958E-02-8.94611E-04 1.08230E-15
 -1      2622 1.41980E-02 1.12339E-04 8.48254E-15
 -1      2623 1.42312E-02-2.44945E-04 3.21878E-15
 -1      2624 1.42384E-02 8.59425E-05 8.23244E-15
 -1      2625 1.24298E-02-1.10775E-03 7.93555E-16
 -1      2626 1.41472E-02 1.11693E-04 7.99975E-15
 -1      2627 1.41152E-02-2.09154E-04 3.75173E-15
 -1      2628 1.41882E-02-2.25379E-04 3.68732E-15
 -1      2629 1.40570E-02-1.93042E-04 3.94196E-15
 -1      2630 1.20743E-02-1.25428E-03 5.65574E-16
 -1      2631 6.89539E-04 2.51261E-04 9.96788E-17
 -1      2632 5.71840E-04-1.85221E-04-6.07289E-17
 -1      2633 1.17464E-02-1.25592E-03 4.80220E-16
 -1      2634 1.33526E-02 7.93702E-05 4.56631E-15
 -1      2635 1.34760E-02 2.51377E-05 4.62296E-15
 -1      2636 1.32260E-02 1.46060E-04 4.73447E-15
 -1      2637 1.14390E-02 8.09817E-04 4.57666E-15
 -1      2638 9.48488E-03-1.10629E-04 2.16494E-15
 -1      2639 1.14434E-02-1.13132E-03 5.11879E-16
 -1      2640 1.05932E-02-5.92709E-04 8.37939E-16
 -1      2641 1.04688E-02-5.24652E-04 7.83878E-16
 -1      2642 1.07059E-02-6.64098E-04 6.92250E-16
 -1      2643 1.01508E-02-3.58874E-04 1.05461E-15
 -1      2644 1.03768E-02 2.25038E-04 3.56776E-15
 -1      2645 1.04771E-02 2.89877E-04 3.72708E-15
 -1      2646 1.02557E-02 1.73589E-04 3.48575E-15
 -1      2647 9.78055E-03-2.08969E-04 1.38914E-15
 -1      2648 9.61590E-03-7.34131E-05 2.61402E-15
 -1      2649 9.82948E-03-1.64821E-06 2.98013E-15
 -1      2650 9.92914E-03 2.41557E-05 3.08151E-15
 -1      2651 1.00239E-02 6.94129E-05 3.22214E-15
 -1      2652 1.21226E-02 7.79110E-04 4.92027E-15
 -1      2653 1.22130E-02 7.36556E-04 5.08426E-15
 -1      2654 1.20226E-02 8.22382E-04 5.01850E-15
 -1      2655 1.17612E-02 8.73188E-04 4.79553E-15
 -1      2656 1.18430E-02 8.68321E-04 4.94727E-15
 -1      2657 1.16862E-02 8.75085E-04 4.88579E-15
 -1      2658 1.27332E-02 4.30321E-04 4.99516E-15
 -1      2659 1.28400E-02 3.62166E-04 4.80274E-15
 -1      2660 1.29613E-02 2.92007E-04 4.87146E-15
 -1      2661 1.10685E-02-8.96724E-04 6.43311E-16
 -1      2662 1.09514E-02-8.21098E-04 5.91012E-16
 -1      2663 1.11611E-02-9.62308E-04 4.91537E-16
 -1      2664 1.44809E-02-6.29401E-04 1.71304E-17
 -1      2665 1.46053E-02-5.69533E-04 4.68443E-16
 -1      2666 1.45095E-02-5.71268E-04 6.24500E-16
 -1      2667 1.43488E-02-6.53851E-04 9.43256E-18
 -1      2668 1.43277E-02-6.28563E-04 3.04363E-16
 -1      2669 7.80200E-04 7.73499E-05 4.52112E-17
 -1      2670 7.78940E-04 5.54838E-05 3.54263E-17
 -1      2671 7.78095E-04 3.35672E-05 2.56007E-17
 -1      2672 7.77672E-04 1.18984E-05 1.56532E-17
 -1      2673 8.96509E-04 4.96914E-05 3.80013E-17
 -1      2674 7.91538E-04 1.73160E-04 8.60043E-17
 -1      2675 7.87533E-04 1.47742E-04 7.53249E-17
 -1      2676 8.03398E-04 2.28360E-04 1.07255E-16
 -1      2677 7.96778E-04 1.99969E-04 9.63991E-17
 -1      2678 9.14841E-04 2.07863E-04 1.11998E-16
 -1      2679 1.12981E-03 3.61997E-04 2.04752E-16
 -1      2680 9.86208E-04 3.32924E-04 1.67618E-16
 -1      2681 6.88568E-04-2.04037E-04-7.34276E-17
 -1      2682 1.40330E-02-3.17175E-04 2.40846E-15
 -1      2683 1.39319E-02-3.47495E-04 2.22863E-15
 -1      2684 1.41604E-03 4.07901E-04 2.86053E-16
 -1      2685 1.27300E-03 3.86868E-04 2.44352E-16
 -1      2686 1.18966E-03 3.41544E-04 2.08370E-16
 -1      2687 1.37839E-02-4.01228E-04 1.99662E-15
 -1      2688 1.35929E-02-4.81591E-04 1.73166E-15
 -1      2689 1.28935E-02-8.46408E-04 1.02917E-15
 -1      2690 1.27111E-02-9.55938E-04 8.79681E-16
 -1      2691 1.32012E-03-3.62855E-04-2.01878E-16
 -1      2692 1.46335E-03-3.81812E-04-2.32412E-16
 -1      2693 1.60640E-03-3.97887E-04-2.63542E-16
 -1      2694 1.74933E-03-4.11295E-04-2.95757E-16
 -1      2695 1.52496E-03-3.55480E-04-2.23834E-16
 -1      2696 1.89210E-03-4.22502E-04-3.28689E-16
 -1      2697 2.03475E-03-4.31691E-04-3.61419E-16
 -1      2698 1.81165E-03-3.81377E-04-2.81323E-16
 -1      2699 2.17730E-03-4.39238E-04-3.94650E-16
 -1      2700 2.31976E-03-4.45294E-04-4.27935E-16
 -1      2701 2.09810E-03-3.99223E-04-3.40589E-16
 -1      2702 2.46217E-03-4.50148E-04-4.61152E-16
 -1      2703 2.60453E-03-4.53921E-04-4.94396E-16
 -1      2704 2.38428E-03-4.11025E-04-3.99759E-16
 -1      2705 2.74688E-03-4.56829E-04-5.27668E-16
 -1      2706 2.88921E-03-4.58966E-04-5.60492E-16
 -1      2707 2.67023E-03-4.18394E-04-4.59078E-16
 -1      2708 3.03156E-03-4.60492E-04-5.92611E-16
 -1      2709 3.17390E-03-4.61477E-04-6.24135E-16
 -1      2710 2.95601E-03-4.22577E-04-5.17083E-16
 -1      2711 3.31628E-03-4.62035E-04-6.54736E-16
 -1      2712 3.45867E-03-4.62219E-04-6.85229E-16
 -1      2713 3.24168E-03-4.24510E-04-5.72486E-16
 -1      2714 3.60110E-03-4.62108E-04-7.14557E-16
 -1      2715 3.74355E-03-4.61738E-04-7.42502E-16
 -1      2716 3.52730E-03-4.24878E-04-6.24609E-16
 -1      2717 3.88605E-03-4.61162E-04-7.68943E-16
 -1      2718 4.02857E-03-4.60403E-04-7.93487E-16
 -1      2719 3.81291E-03-4.24163E-04-6.72897E-16
 -1      2720 4.17114E-03-4.59492E-04-8.16946E-16
 -1      2721 4.31373E-03-4.58443E-04-8.39972E-16
 -1      2722 4.09851E-03-4.22687E-04-7.14936E-16
 -1      2723 4.45637E-03-4.57271E-04-8.61141E-16
 -1      2724 4.59905E-03-4.55982E-04-8.78163E-16
 -1      2725 4.38414E-03-4.20644E-04-7.51271E-16
 -1      2726 4.74176E-03-4.54578E-04-8.93735E-16
 -1      2727 4.88452E-03-4.53059E-04-9.08223E-16
 -1      2728 4.66981E-03-4.18132E-04-7.79989E-16
 -1      2729 5.02732E-03-4.51417E-04-9.20528E-16
 -1      2730 5.17016E-03-4.49648E-04-9.31736E-16
 -1      2731 4.95552E-03-4.15171E-04-7.99558E-16
 -1      2732 5.31306E-03-4.47737E-04-9.41060E-16
 -1      2733 5.45600E-03-4.45678E-04-9.48948E-16
 -1      2734 5.24129E-03-4.11724E-04-8.14913E-16
 -1      2735 5.59899E-03-4.43450E-04-9.56876E-16
 -1      2736 5.74205E-03-4.41046E-04-9.64195E-16
 -1      2737 5.52712E-03-4.07711E-04-8.25213E-16
 -1      2738 5.88517E-03-4.38444E-04-9.70537E-16
 -1      2739 6.02836E-03-4.35635E-04-9.76270E-16
 -1      2740 5.81303E-03-4.03029E-04-8.33358E-16
 -1      2741 6.17162E-03-4.32601E-04-9.82951E-16
 -1      2742 6.31498E-03-4.29335E-04-9.89158E-16
 -1      2743 6.09901E-03-3.97564E-04-8.40175E-16
 -1      2744 6.45842E-03-4.25824E-04-9.93590E-16
 -1      2745 6.60198E-03-4.22067E-04-9.97344E-16
 -1      2746 6.38508E-03-3.91213E-04-8.43943E-16
 -1      2747 6.74562E-03-4.18063E-04-1.00270E-15
 -1      2748 6.88942E-03-4.13819E-04-1.00428E-15
 -1      2749 6.67123E-03-3.83913E-04-8.46694E-16
 -1      2750 7.03332E-03-4.09356E-04-1.00308E-15
 -1      2751 7.17740E-03-4.04696E-04-1.00079E-15
 -1      2752 6.95746E-03-3.75674E-04-8.44959E-16
 -1      2753 7.32160E-03-3.99891E-04-9.95474E-16
 -1      2754 7.46603E-03-3.94986E-04-9.88291E-16
 -1      2755 7.24377E-03-3.66629E-04-8.31095E-16
 -1      2756 7.61061E-03-3.90080E-04-9.79387E-16
 -1      2757 7.75547E-03-3.85250E-04-9.67000E-16
 -1      2758 7.53015E-03-3.57102E-04-8.10224E-16
 -1      2759 7.90052E-03-3.80662E-04-9.52743E-16
 -1      2760 8.04593E-03-3.76443E-04-9.37157E-16
 -1      2761 7.81662E-03-3.47686E-04-7.80748E-16
 -1      2762 8.19162E-03-3.72843E-04-9.20718E-16
 -1      2763 8.33779E-03-3.70066E-04-9.00972E-16
 -1      2764 8.10331E-03-3.39359E-04-7.44142E-16
 -1      2765 8.48440E-03-3.68463E-04-8.77242E-16
 -1      2766 8.63171E-03-3.68357E-04-8.51587E-16
 -1      2767 8.39050E-03-3.33612E-04-6.98104E-16
 -1      2768 8.77978E-03-3.70207E-04-8.23302E-16
 -1      2769 8.92892E-03-3.74525E-04-7.89001E-16
 -1      2770 8.67887E-03-3.32612E-04-6.39015E-16
 -1      2771 9.07938E-03-3.81858E-04-7.52870E-16
 -1      2772 9.23156E-03-3.93021E-04-7.15343E-16
 -1      2773 8.96985E-03-3.39410E-04-5.67390E-16
 -1      2774 9.38599E-03-4.08582E-04-6.74265E-16
 -1      2775 9.54313E-03-4.29858E-04-6.30409E-16
 -1      2776 9.26609E-03-3.58218E-04-4.84530E-16
 -1      2777 9.70398E-03-4.57309E-04-5.84453E-16
 -1      2778 9.86878E-03-4.92935E-04-5.34823E-16
 -1      2779 9.57218E-03-3.94944E-04-3.90787E-16
 -1      2780 1.00391E-02-5.37035E-04-4.84977E-16
 -1      2781 1.02142E-02-5.92068E-04-4.34548E-16
 -1      2782 9.89504E-03-4.58029E-04-2.88831E-16
 -1      2783 1.03963E-02-6.57719E-04-3.83279E-16
 -1      2784 1.05827E-02-7.36164E-04-3.32511E-16
 -1      2785 1.02428E-02-5.59367E-04-1.78853E-16
 -1      2786 1.07756E-02-8.26331E-04-2.81147E-16
 -1      2787 1.09686E-02-9.25168E-04-2.29295E-16
 -1      2788 1.06207E-02-7.12173E-04-6.63532E-17
 -1      2789 1.15360E-02-1.21864E-03-1.16660E-16
 -1      2790 1.17141E-02-1.27718E-03-7.68428E-17
 -1      2791 1.18849E-02-1.30501E-03-5.15945E-17
 -1      2792 1.20595E-02-1.29620E-03-1.13164E-17
 -1      2793 1.21884E-02-1.24887E-03 2.21692E-16
 -1      2794 1.23779E-02-1.18161E-03 2.66470E-16
 -1      2795 1.26247E-02-1.06404E-03 3.45467E-16
 -1      2796 1.28233E-02-9.74206E-04 3.94568E-16
 -1      2797 1.33701E-02-8.01377E-04 3.47067E-16
 -1      2798 1.35484E-02-7.49188E-04 3.95205E-16
 -1      2799 1.37216E-02-7.06710E-04 4.44089E-16
 -1      2800 1.38882E-02-6.71107E-04 4.91347E-16
 -1      2801 1.37013E-02-6.67895E-04 7.06913E-16
 -1      2802 1.40499E-02-6.41819E-04 5.36219E-16
 -1      2803 1.42066E-02-6.15947E-04 5.75034E-16
 -1      2804 1.40332E-02-6.06489E-04 8.11132E-16
 -1      2805 2.26914E-03 4.78606E-04 5.76213E-16
 -1      2806 2.12732E-03 4.71773E-04 5.23439E-16
 -1      2807 1.43092E-02-6.00905E-04 5.91093E-16
 -1      2808 1.44100E-02-5.86061E-04 6.08942E-16
 -1      2809 1.42931E-02-5.70501E-04 8.77282E-16
 -1      2810 1.98541E-03 4.63311E-04 4.72739E-16
 -1      2811 1.84337E-03 4.53060E-04 4.23720E-16
 -1      2812 2.04760E-03 4.31376E-04 4.64852E-16
 -1      2813 2.83617E-03 4.94424E-04 8.01686E-16
 -1      2814 2.69441E-03 4.91870E-04 7.42692E-16
 -1      2815 3.11983E-03 4.97599E-04 9.24919E-16
 -1      2816 2.97798E-03 4.96308E-04 8.62537E-16
 -1      2817 2.90235E-03 4.58383E-04 7.77739E-16
 -1      2818 3.40371E-03 4.98832E-04 1.05618E-15
 -1      2819 3.26175E-03 4.98421E-04 9.89551E-16
 -1      2820 3.18713E-03 4.60925E-04 8.96310E-16
 -1      2821 3.68785E-03 4.98720E-04 1.19472E-15
 -1      2822 3.54575E-03 4.98918E-04 1.12493E-15
 -1      2823 3.47197E-03 4.61732E-04 1.02162E-15
 -1      2824 3.97225E-03 4.97671E-04 1.33751E-15
 -1      2825 3.83002E-03 4.98295E-04 1.26535E-15
 -1      2826 3.75692E-03 4.61340E-04 1.15402E-15
 -1      2827 4.25692E-03 4.95948E-04 1.48282E-15
 -1      2828 4.11456E-03 4.96883E-04 1.41017E-15
 -1      2829 4.04199E-03 4.60110E-04 1.29039E-15
 -1      2830 4.54185E-03 4.93697E-04 1.63063E-15
 -1      2831 4.39936E-03 4.94883E-04 1.55681E-15
 -1      2832 4.32719E-03 4.58267E-04 1.42937E-15
 -1      2833 4.82704E-03 4.90979E-04 1.77839E-15
 -1      2834 4.68442E-03 4.92395E-04 1.70433E-15
 -1      2835 4.61253E-03 4.55931E-04 1.56963E-15
 -1      2836 5.11250E-03 4.87785E-04 1.92848E-15
 -1      2837 4.96974E-03 4.89443E-04 1.85358E-15
 -1      2838 4.89802E-03 4.53142E-04 1.71141E-15
 -1      2839 5.39825E-03 4.84060E-04 2.07934E-15
 -1      2840 5.25534E-03 4.85992E-04 2.00415E-15
 -1      2841 5.18367E-03 4.49876E-04 1.85511E-15
 -1      2842 5.68434E-03 4.79719E-04 2.22806E-15
 -1      2843 5.54125E-03 4.81971E-04 2.15331E-15
 -1      2844 5.46950E-03 4.46069E-04 1.99920E-15
 -1      2845 5.97082E-03 4.74667E-04 2.37789E-15
 -1      2846 5.82752E-03 4.77286E-04 2.30294E-15
 -1      2847 5.75554E-03 4.41630E-04 2.14181E-15
 -1      2848 6.25779E-03 4.68817E-04 2.53106E-15
 -1      2849 6.11423E-03 4.71844E-04 2.45367E-15
 -1      2850 6.04183E-03 4.36462E-04 2.28635E-15
 -1      2851 6.54536E-03 4.62125E-04 2.68851E-15
 -1      2852 6.40148E-03 4.65575E-04 2.60940E-15
 -1      2853 6.32844E-03 4.30483E-04 2.43433E-15
 -1      2854 6.83371E-03 4.54623E-04 2.85348E-15
 -1      2855 6.68942E-03 4.58469E-04 2.76935E-15
 -1      2856 6.61544E-03 4.23656E-04 2.58688E-15
 -1      2857 7.12302E-03 4.46471E-04 3.02543E-15
 -1      2858 6.97821E-03 4.50612E-04 2.93901E-15
 -1      2859 6.90294E-03 4.16025E-04 2.74685E-15
 -1      2860 7.41355E-03 4.38021E-04 3.20237E-15
 -1      2861 7.26810E-03 4.42254E-04 3.11356E-15
 -1      2862 7.19110E-03 4.07768E-04 2.91424E-15
 -1      2863 7.70564E-03 4.29901E-04 3.38736E-15
 -1      2864 7.55936E-03 4.33871E-04 3.29417E-15
 -1      2865 7.48013E-03 3.99260E-04 3.08713E-15
 -1      2866 7.99970E-03 4.23117E-04 3.57743E-15
 -1      2867 7.85238E-03 4.26267E-04 3.48185E-15
 -1      2868 7.77032E-03 3.91155E-04 3.26567E-15
 -1      2869 8.29629E-03 4.19168E-04 3.77488E-15
 -1      2870 8.14763E-03 4.20678E-04 3.67513E-15
 -1      2871 8.06210E-03 3.84482E-04 3.44938E-15
 -1      2872 8.59615E-03 4.20162E-04 3.98000E-15
 -1      2873 8.44576E-03 4.18892E-04 3.87686E-15
 -1      2874 8.35612E-03 3.80761E-04 3.64278E-15
 -1      2875 8.90025E-03 4.28906E-04 4.19350E-15
 -1      2876 8.74762E-03 4.23357E-04 4.08553E-15
 -1      2877 8.65330E-03 3.82117E-04 3.84358E-15
 -1      2878 9.20979E-03 4.48907E-04 4.41512E-15
 -1      2879 9.05431E-03 4.37237E-04 4.30201E-15
 -1      2880 8.95497E-03 3.91385E-04 4.05276E-15
 -1      2881 9.52606E-03 4.84181E-04 4.64577E-15
 -1      2882 9.36710E-03 4.64337E-04 4.53127E-15
 -1      2883 9.26289E-03 4.12155E-04 4.27101E-15
 -1      2884 9.85005E-03 5.38638E-04 4.88388E-15
 -1      2885 9.68721E-03 5.08739E-04 4.76304E-15
 -1      2886 9.57912E-03 4.48669E-04 4.49651E-15
 -1      2887 1.01815E-02 6.14725E-04 5.12918E-15
 -1      2888 1.00151E-02 5.73887E-04 5.00523E-15
 -1      2889 9.90539E-03 5.05330E-04 4.72990E-15
 -1      2890 1.05178E-02 7.10840E-04 5.38024E-15
 -1      2891 1.03496E-02 6.60653E-04 5.25457E-15
 -1      2892 1.02419E-02 5.85288E-04 4.97146E-15
 -1      2893 1.08526E-02 8.17515E-04 5.64544E-15
 -1      2894 1.06859E-02 7.64056E-04 5.51242E-15
 -1      2895 1.05852E-02 6.87332E-04 5.21954E-15
 -1      2896 1.11797E-02 9.14092E-04 5.91031E-15
 -1      2897 1.10176E-02 8.68773E-04 5.77534E-15
 -1      2898 1.09279E-02 8.00282E-04 5.47559E-15
 -1      2899 1.14947E-02 9.72998E-04 6.17765E-15
 -1      2900 1.13384E-02 9.50306E-04 6.04418E-15
 -1      2901 1.12610E-02 8.99399E-04 5.73716E-15
 -1      2902 1.18021E-02 9.70218E-04 6.44473E-15
 -1      2903 1.16483E-02 9.80224E-04 6.31298E-15
 -1      2904 1.15809E-02 9.51254E-04 5.99988E-15
 -1      2905 1.21115E-02 9.01369E-04 6.70594E-15
 -1      2906 1.19551E-02 9.43191E-04 6.57460E-15
 -1      2907 1.18944E-02 9.30787E-04 6.26224E-15
 -1      2908 1.24314E-02 7.84349E-04 6.95928E-15
 -1      2909 1.22699E-02 8.47001E-04 6.83243E-15
 -1      2910 1.22145E-02 8.39715E-04 6.51521E-15
 -1      2911 1.27601E-02 6.46248E-04 7.20413E-15
 -1      2912 1.25953E-02 7.16221E-04 7.08334E-15
 -1      2913 1.25481E-02 7.05844E-04 6.76443E-15
 -1      2914 1.30903E-02 5.08609E-04 7.43681E-15
 -1      2915 1.29257E-02 5.76355E-04 7.32124E-15
 -1      2916 1.28889E-02 5.61054E-04 7.00214E-15
 -1      2917 1.34152E-02 3.81997E-04 7.65737E-15
 -1      2918 1.32540E-02 4.43756E-04 7.54864E-15
 -1      2919 1.32272E-02 4.25179E-04 7.22947E-15
 -1      2920 1.37308E-02 2.66924E-04 7.86442E-15
 -1      2921 1.35745E-02 3.23317E-04 7.76362E-15
 -1      2922 1.35559E-02 3.04628E-04 7.44420E-15
 -1      2923 1.40166E-02 1.61597E-04 7.98253E-15
 -1      2924 1.38647E-02 2.15214E-04 7.88371E-15
 -1      2925 1.38518E-02 1.98374E-04 7.56666E-15
 -1      2926 1.41193E-02 1.01361E-04 7.60352E-15
 -1      2927 1.42545E-02-2.47305E-04 3.35973E-15
 -1      2928 1.42400E-02-2.55948E-04 3.08357E-15
 -1      2929 1.47981E-02-2.54569E-04 4.52555E-15
 -1      2930 1.47539E-02-2.30662E-04 4.86242E-15
 -1      2931 1.45564E-02-1.37652E-04 5.83992E-15
 -1      2932 1.44780E-02-9.93233E-05 6.15591E-15
 -1      2933 1.48415E-02-2.95341E-04 3.84591E-15
 -1      2934 1.48279E-02-2.75361E-04 4.18619E-15
 -1      2935 1.47124E-02-2.57412E-04 4.28656E-15
 -1      2936 1.46970E-02-2.03666E-04 5.19253E-15
 -1      2937 1.46304E-02-1.72560E-04 5.52034E-15
 -1      2938 1.44746E-02-1.37310E-04 5.60123E-15
 -1      2939 1.46168E-02-2.06043E-04 4.95161E-15
 -1      2940 1.48209E-02-3.35354E-04 3.16893E-15
 -1      2941 1.48388E-02-3.14352E-04 3.50914E-15
 -1      2942 1.47412E-02-2.98639E-04 3.61748E-15
 -1      2943 1.47437E-02-3.86010E-04 2.47349E-15
 -1      2944 1.47883E-02-3.58802E-04 2.82090E-15
 -1      2945 1.47004E-02-3.43253E-04 2.94029E-15
 -1      2946 1.46287E-02-4.51222E-04 1.77516E-15
 -1      2947 1.46895E-02-4.16739E-04 2.12490E-15
 -1      2948 1.46028E-02-4.02555E-04 2.25132E-15
 -1      2949 1.33354E-02-6.08760E-04 1.40378E-15
 -1      2950 1.31205E-02-7.21498E-04 1.19807E-15
 -1      2951 8.33594E-04-2.63955E-04-1.04924E-16
 -1      2952 9.65165E-04-2.98897E-04-1.30402E-16
 -1      2953 1.10820E-03-3.26696E-04-1.57657E-16
 -1      2954 8.14013E-04-2.12318E-04-8.42290E-17
 -1      2955 1.13368E-02 7.77963E-04 4.62447E-15
 -1      2956 1.14903E-02 8.40360E-04 4.78523E-15
 -1      2957 1.70116E-03 4.40598E-04 3.76272E-16
 -1      2958 1.55871E-03 4.25724E-04 3.30112E-16
 -1      2959 1.47609E-03 3.82252E-04 2.86731E-16
 -1      2960 1.76210E-03 4.11275E-04 3.72437E-16
 -1      2961 2.55265E-03 4.88472E-04 6.85663E-16
 -1      2962 2.41091E-03 4.84129E-04 6.30084E-16
 -1      2963 2.33270E-03 4.44808E-04 5.63108E-16
 -1      2964 2.61757E-03 4.53354E-04 6.67435E-16
 -1      2965 7.84387E-04 1.23484E-04 6.52012E-17
 -1      2966 7.82002E-04 1.00044E-04 5.50639E-17
 -1      2967 8.99618E-04 9.94712E-05 6.22061E-17
 -1      2968 9.05349E-04 1.51619E-04 8.68717E-17
 -1      2969 9.45652E-03-1.10610E-04 1.99154E-15
 -1      2970 9.46993E-03-1.00814E-04 2.21421E-15
 -1      2971 1.17441E-02-1.26382E-03 3.08971E-16
 -1      2972 1.16087E-02-1.21987E-03 3.07561E-16
 -1      2973 7.81738E-04-9.79890E-05-3.44505E-17
 -1      2974 7.84048E-04-1.21345E-04-4.50893E-17
 -1      2975 9.56365E-03-1.43142E-04 1.60120E-15
 -1      2976 9.49633E-03-1.27141E-04 1.77259E-15
 -1      2977 1.06837E-02 4.14183E-04 3.98410E-15
 -1      2978 1.08320E-02 5.00112E-04 4.12642E-15
 -1      2979 1.14612E-02-1.14980E-03 3.41876E-16
 -1      2980 1.13078E-02-1.05885E-03 3.73264E-16
 -1      2981 1.14736E-02-1.16543E-03 1.70423E-16
 -1      2982 9.83399E-03-2.30012E-04 1.18327E-15
 -1      2983 9.67598E-03-1.77271E-04 1.38911E-15
 -1      2984 9.54476E-03-7.68413E-05 2.49871E-15
 -1      2985 9.65233E-03-5.05711E-05 2.72149E-15
 -1      2986 1.02361E-02-4.05434E-04 8.45217E-16
 -1      2987 1.00525E-02-3.20219E-04 9.71886E-16
 -1      2988 1.10043E-02 5.98825E-04 4.28943E-15
 -1      2989 1.11657E-02 6.93174E-04 4.45797E-15
 -1      2990 1.09056E-02 5.66893E-04 4.32586E-15
 -1      2991 1.44930E-02-5.45741E-04 9.15568E-16
 -1      2992 8.03085E-04 2.78266E-04 1.22203E-16
 -1      2993 1.37504E-02-8.63944E-05 4.47414E-15
 -1      2994 1.39102E-02-1.44704E-04 4.24968E-15
 -1      2995 1.42037E-02-2.68900E-04 2.87114E-15
 -1      2996 1.41402E-02-2.85426E-04 2.65898E-15
 -1      2997 1.42528E-02-2.67190E-04 3.00873E-15
 -1      2998 1.24132E-02 6.29450E-04 5.17059E-15
 -1      2999 1.25453E-02 5.47921E-04 5.14401E-15
 -1      3000 7.87120E-04-1.45507E-04-5.57009E-17
 -1      3001 7.91015E-04-1.70702E-04-6.62854E-17
 -1      3002 9.04897E-04-1.49111E-04-6.07695E-17
 -1      3003 8.95485E-04 1.00974E-06 1.37152E-17
 -1      3004 7.77643E-04-9.72342E-06 5.75982E-18
 -1      3005 7.78006E-04-3.13756E-05-4.14707E-18
 -1      3006 1.36296E-02-5.04905E-04 1.57934E-15
 -1      3007 1.34861E-02-5.49631E-04 1.48950E-15
 -1      3008 1.33993E-02-6.20623E-04 1.24762E-15
 -1      3009 1.14759E-02 8.51230E-04 4.98417E-15
 -1      3010 1.15791E-02 8.67699E-04 4.93659E-15
 -1      3011 1.16595E-02 8.82780E-04 5.08832E-15
 -1      3012 1.41201E-02-3.04672E-04 2.54287E-15
 -1      3013 1.38742E-02-3.84272E-04 2.05642E-15
 -1      3014 1.03434E-02-4.66343E-04 7.04637E-16
 -1      3015 1.02224E-02-4.23191E-04 6.26073E-16
 -1      3016 1.04440E-02-5.31432E-04 5.64490E-16
 -1      3017 1.09946E-02-9.08080E-04 5.40746E-18
 -1      3018 1.11357E-02-1.01848E-03-2.17681E-16
 -1      3019 1.14034E-02-1.14999E-03-8.17082E-17
 -1      3020 1.13248E-02-1.11756E-03-1.73283E-16
 -1      3021 1.29802E-02-8.56890E-04 7.26930E-16
 -1      3022 1.29879E-02-9.30029E-04 2.91149E-16
 -1      3023 1.31781E-02-8.57046E-04 3.41171E-16
 -1      3024 8.64847E-04 2.66589E-04 1.27692E-16
 -1      3025 1.42464E-02-2.39496E-04 3.55054E-15
 -1      3026 1.42853E-02-2.49934E-04 3.41367E-15
 -1      3027 1.42240E-02-2.30552E-04 3.74164E-15
 -1      3028 1.41959E-02 5.61873E-05 7.30043E-15
 -1      3029 1.40627E-02 1.01267E-04 7.28330E-15
 -1      3030 1.42746E-02 1.17070E-05 6.99701E-15
 -1      3031 1.05583E-02 3.53960E-04 3.90219E-15
 -1      3032 1.06182E-02 4.15947E-04 4.07725E-15
 -1      3033 1.04339E-02 3.00517E-04 3.82019E-15
 -1      3034 1.30312E-02-7.91488E-04 9.92018E-16
 -1      3035 1.45594E-02-5.05154E-04 1.26335E-15
 -1      3036 1.40300E-02-1.74999E-04 4.18580E-15
 -1      3037 1.16983E-03-3.06998E-04-1.55475E-16
 -1      3038 1.21091E-02-1.25466E-03 4.19884E-16
 -1      3039 1.19324E-02-1.28455E-03 3.34829E-16
 -1      3040 1.33365E-02-7.57156E-04 6.40763E-16
 -1      3041 1.31010E-02 2.17513E-04 4.92897E-15
 -1      3042 1.32376E-02 1.55112E-04 4.98663E-15
 -1      3043 1.29936E-02 2.89769E-04 5.12159E-15
 -1      3044 1.17943E-02-1.28001E-03 1.63498E-16
 -1      3045 1.01269E-02 1.23885E-04 3.38342E-15
 -1      3046 1.02198E-02 1.83966E-04 3.54321E-15
 -1      3047 1.00057E-02 8.82314E-05 3.28107E-15
 -1      3048 1.43809E-02-5.32119E-04 1.13864E-15
 -1      3049 1.45467E-02-4.81338E-04 1.50940E-15
 -1      3050 1.44566E-02-4.69759E-04 1.64221E-15
 -1      3051 1.42807E-02-5.42435E-04 1.11713E-15
 -1      3052 9.71842E-03-2.14440E-05 2.86270E-15
 -1      3053 9.78729E-03 1.36703E-05 3.00337E-15
 -1      3054 9.61719E-03-2.85690E-05 2.74670E-15
 -1      3055 9.59659E-03-1.59910E-04 1.39758E-15
 -1      3056 1.44165E-02-6.61882E-05 6.42401E-15
 -1      3057 1.43360E-02-2.38218E-05 6.73267E-15
 -1      3058 1.42034E-02 1.47203E-05 6.71773E-15
 -1      3059 1.43303E-02-6.06988E-05 6.18514E-15
 -1      3060 1.19355E-02 8.53029E-04 5.10949E-15
 -1      3061 1.20241E-02 8.27658E-04 5.27513E-15
 -1      3062 1.18576E-02 8.73135E-04 5.20024E-15
 -1      3063 1.12303E-02 7.43412E-04 4.66235E-15
 -1      3064 7.78784E-04-5.31654E-05-1.40404E-17
 -1      3065 7.80000E-04-7.53580E-05-2.42455E-17
 -1      3066 8.99335E-04-9.71242E-05-3.53179E-17
 -1      3067 8.96380E-04-4.75407E-05-1.04897E-17
 -1      3068 1.22001E-02 7.55932E-04 5.37129E-15
 -1      3069 1.22997E-02 6.97465E-04 5.27277E-15
 -1      3070 1.23862E-02 6.60915E-04 5.45995E-15
 -1      3071 1.26646E-02 4.81964E-04 5.21320E-15
 -1      3072 1.11946E-02-9.93349E-04 3.23553E-16
 -1      3073 9.44570E-03-1.14657E-04 1.82636E-15
 -1      3074 9.90815E-03-2.71238E-04 9.78120E-16
 -1      3075 9.82940E-04 2.75829E-04 1.47451E-16
 -1      3076 1.35297E-02 1.61692E-05 4.81391E-15
 -1      3077 1.36397E-02-3.84616E-05 4.64404E-15
 -1      3078 1.37898E-02-8.27662E-05 4.66393E-15
 -1      3079 1.25388E-02-1.05722E-03 7.26158E-16
 -1      3080 1.23817E-02-1.14756E-03 5.87082E-16
 -1      3081 1.26488E-02-1.01120E-03 6.70186E-16
 -1      3082 1.04028E-03 2.43320E-04 1.42247E-16
 -1      3083 1.03366E-03 2.11592E-04 1.27068E-16
 -1      3084 1.08008E-02 5.39339E-04 4.36935E-15
 -1      3085 1.09539E-02 6.25714E-04 4.53797E-15
 -1      3086 9.47311E-03-8.26758E-05 2.32536E-15
 -1      3087 1.12476E-02-1.04526E-03 1.11741E-16
 -1      3088 1.73167E-03-3.40534E-04-2.37738E-16
 -1      3089 1.87534E-03-3.50741E-04-2.63854E-16
 -1      3090 2.01900E-03-3.59228E-04-2.90173E-16
 -1      3091 2.16264E-03-3.66149E-04-3.16208E-16
 -1      3092 1.94017E-03-3.19421E-04-2.43187E-16
 -1      3093 2.30624E-03-3.71780E-04-3.42310E-16
 -1      3094 2.44979E-03-3.76246E-04-3.68127E-16
 -1      3095 2.22821E-03-3.32529E-04-2.88642E-16
 -1      3096 2.59329E-03-3.79768E-04-3.94107E-16
 -1      3097 2.73672E-03-3.82443E-04-4.20305E-16
 -1      3098 2.51619E-03-3.41027E-04-3.33487E-16
 -1      3099 2.88011E-03-3.84443E-04-4.45106E-16
 -1      3100 3.02344E-03-3.85841E-04-4.69934E-16
 -1      3101 2.80397E-03-3.46141E-04-3.77248E-16
 -1      3102 3.16672E-03-3.86764E-04-4.94206E-16
 -1      3103 3.30996E-03-3.87266E-04-5.17259E-16
 -1      3104 3.09148E-03-3.48828E-04-4.19505E-16
 -1      3105 3.45316E-03-3.87439E-04-5.39743E-16
 -1      3106 3.59631E-03-3.87321E-04-5.61142E-16
 -1      3107 3.37872E-03-3.49809E-04-4.59092E-16
 -1      3108 3.73944E-03-3.86976E-04-5.81024E-16
 -1      3109 3.88253E-03-3.86427E-04-5.99428E-16
 -1      3110 3.66569E-03-3.49606E-04-4.93515E-16
 -1      3111 4.02560E-03-3.85716E-04-6.16450E-16
 -1      3112 4.16864E-03-3.84858E-04-6.31927E-16
 -1      3113 3.95243E-03-3.48579E-04-5.22247E-16
 -1      3114 4.31166E-03-3.83876E-04-6.46293E-16
 -1      3115 4.45466E-03-3.82777E-04-6.58978E-16
 -1      3116 4.23895E-03-3.46961E-04-5.45584E-16
 -1      3117 4.59764E-03-3.81570E-04-6.68899E-16
 -1      3118 4.74060E-03-3.80256E-04-6.76529E-16
 -1      3119 4.52528E-03-3.44881E-04-5.61888E-16
 -1      3120 4.88355E-03-3.78835E-04-6.83630E-16
 -1      3121 5.02648E-03-3.77301E-04-6.88685E-16
 -1      3122 4.81142E-03-3.42393E-04-5.70819E-16
 -1      3123 5.16939E-03-3.75647E-04-6.92534E-16
 -1      3124 5.31229E-03-3.73864E-04-6.95922E-16
 -1      3125 5.09739E-03-3.39486E-04-5.74763E-16
 -1      3126 5.45517E-03-3.71941E-04-6.97020E-16
 -1      3127 5.59803E-03-3.69864E-04-6.98497E-16
 -1      3128 5.38316E-03-3.36108E-04-5.73313E-16
 -1      3129 5.74086E-03-3.67621E-04-7.00056E-16
 -1      3130 5.88367E-03-3.65197E-04-7.00083E-16
 -1      3131 5.66870E-03-3.32177E-04-5.68922E-16
 -1      3132 6.02644E-03-3.62580E-04-6.99717E-16
 -1      3133 6.16919E-03-3.59756E-04-6.99243E-16
 -1      3134 5.95398E-03-3.27594E-04-5.64205E-16
 -1      3135 6.31189E-03-3.56717E-04-6.99595E-16
 -1      3136 6.45454E-03-3.53451E-04-6.97291E-16
 -1      3137 6.23891E-03-3.22262E-04-5.56345E-16
 -1      3138 6.59713E-03-3.49961E-04-6.94553E-16
 -1      3139 6.73966E-03-3.46237E-04-6.92195E-16
 -1      3140 6.52339E-03-3.16107E-04-5.47929E-16
 -1      3141 6.88209E-03-3.42300E-04-6.87208E-16
 -1      3142 7.02445E-03-3.38148E-04-6.80039E-16
 -1      3143 6.80728E-03-3.09104E-04-5.33780E-16
 -1      3144 7.16667E-03-3.33826E-04-6.70118E-16
 -1      3145 7.30880E-03-3.29346E-04-6.58273E-16
 -1      3146 7.09041E-03-3.01311E-04-5.12692E-16
 -1      3147 7.45076E-03-3.24788E-04-6.44748E-16
 -1      3148 7.59261E-03-3.20182E-04-6.30098E-16
 -1      3149 7.37257E-03-2.92919E-04-4.83012E-16
 -1      3150 7.73425E-03-3.15656E-04-6.13198E-16
 -1      3151 7.87576E-03-3.11270E-04-5.92638E-16
 -1      3152 7.65351E-03-2.84296E-04-4.46867E-16
 -1      3153 8.01706E-03-3.07211E-04-5.70019E-16
 -1      3154 8.15825E-03-3.03582E-04-5.46817E-16
 -1      3155 7.93301E-03-2.76062E-04-4.01385E-16
 -1      3156 8.29926E-03-3.00638E-04-5.21352E-16
 -1      3157 8.44028E-03-2.98550E-04-4.91401E-16
 -1      3158 8.21092E-03-2.69149E-04-3.46470E-16
 -1      3159 8.58126E-03-2.97640E-04-4.57533E-16
 -1      3160 8.72252E-03-2.98193E-04-4.22080E-16
 -1      3161 8.48733E-03-2.64876E-04-2.80808E-16
 -1      3162 8.86409E-03-3.00581E-04-3.84892E-16
 -1      3163 9.00649E-03-3.05299E-04-3.43055E-16
 -1      3164 8.76282E-03-2.65025E-04-2.03179E-16
 -1      3165 9.14995E-03-3.12720E-04-2.97925E-16
 -1      3166 9.29526E-03-3.23729E-04-2.51603E-16
 -1      3167 9.03895E-03-2.71994E-04-1.15901E-16
 -1      3168 9.44301E-03-3.38579E-04-2.01499E-16
 -1      3169 9.59434E-03-3.59087E-04-1.48766E-16
 -1      3170 9.31898E-03-2.89062E-04-1.49213E-17
 -1      3171 9.75035E-03-3.85419E-04-9.31872E-17
 -1      3172 9.91239E-03-4.20625E-04-3.67138E-17
 -1      3173 9.60930E-03-3.21575E-04 9.77544E-17
 -1      3174 1.03841E-02-5.57399E-04 1.80316E-16
 -1      3175 1.05792E-02-6.43846E-04 2.41032E-16
 -1      3176 1.31837E-02-7.50664E-04 8.98275E-16
 -1      3177 1.39679E-02-5.82387E-04 1.01521E-15
 -1      3178 1.41268E-02-5.60403E-04 1.06935E-15
 -1      3179 1.42200E-02-5.17754E-04 1.32801E-15
 -1      3180 2.11106E-03 3.98812E-04 4.54294E-16
 -1      3181 1.96783E-03 3.90896E-04 4.09666E-16
 -1      3182 3.25491E-03 4.23943E-04 8.63581E-16
 -1      3183 3.11206E-03 4.23188E-04 8.06213E-16
 -1      3184 2.96917E-03 4.21964E-04 7.51474E-16
 -1      3185 2.82626E-03 4.20207E-04 6.97874E-16
 -1      3186 3.03661E-03 3.85240E-04 7.20737E-16
 -1      3187 3.82625E-03 4.23773E-04 1.10964E-15
 -1      3188 3.68343E-03 4.24194E-04 1.04612E-15
 -1      3189 4.11189E-03 4.22411E-04 1.23989E-15
 -1      3190 3.96907E-03 4.23173E-04 1.17426E-15
 -1      3191 3.89585E-03 3.86068E-04 1.06191E-15
 -1      3192 4.39755E-03 4.20492E-04 1.37256E-15
 -1      3193 4.25472E-03 4.21514E-04 1.30584E-15
 -1      3194 4.18198E-03 3.84617E-04 1.18583E-15
 -1      3195 4.68324E-03 4.18112E-04 1.50541E-15
 -1      3196 4.54039E-03 4.19357E-04 1.43902E-15
 -1      3197 4.46802E-03 3.82662E-04 1.31098E-15
 -1      3198 4.96896E-03 4.15291E-04 1.64135E-15
 -1      3199 4.82609E-03 4.16758E-04 1.57338E-15
 -1      3200 4.75397E-03 3.80276E-04 1.43867E-15
 -1      3201 5.25472E-03 4.11994E-04 1.77811E-15
 -1      3202 5.11183E-03 4.13705E-04 1.70914E-15
 -1      3203 5.03985E-03 3.77462E-04 1.56754E-15
 -1      3204 5.54054E-03 4.08150E-04 1.91535E-15
 -1      3205 5.39762E-03 4.10146E-04 1.84675E-15
 -1      3206 5.32565E-03 3.74176E-04 1.69737E-15
 -1      3207 5.82643E-03 4.03664E-04 2.05314E-15
 -1      3208 5.68348E-03 4.05993E-04 1.98394E-15
 -1      3209 5.61137E-03 3.70341E-04 1.82908E-15
 -1      3210 6.11241E-03 3.98439E-04 2.19077E-15
 -1      3211 5.96941E-03 4.01149E-04 2.12146E-15
 -1      3212 5.89700E-03 3.65862E-04 1.96009E-15
 -1      3213 6.39850E-03 3.92399E-04 2.33436E-15
 -1      3214 6.25543E-03 3.95525E-04 2.26215E-15
 -1      3215 6.18253E-03 3.60644E-04 2.09308E-15
 -1      3216 6.68474E-03 3.85514E-04 2.48072E-15
 -1      3217 6.54159E-03 3.89062E-04 2.40696E-15
 -1      3218 6.46795E-03 3.54615E-04 2.23011E-15
 -1      3219 6.97119E-03 3.77839E-04 2.63761E-15
 -1      3220 6.82792E-03 3.81769E-04 2.55808E-15
 -1      3221 6.75325E-03 3.47753E-04 2.37279E-15
 -1      3222 7.25795E-03 3.69564E-04 2.79845E-15
 -1      3223 7.11451E-03 3.73761E-04 2.71725E-15
 -1      3224 7.03844E-03 3.40119E-04 2.52419E-15
 -1      3225 7.54519E-03 3.61074E-04 2.96643E-15
 -1      3226 7.40148E-03 3.65316E-04 2.88161E-15
 -1      3227 7.32356E-03 3.31908E-04 2.68020E-15
 -1      3228 7.83318E-03 3.53030E-04 3.13879E-15
 -1      3229 7.68905E-03 3.56947E-04 3.05162E-15
 -1      3230 7.60875E-03 3.23502E-04 2.84095E-15
 -1      3231 8.12238E-03 3.46454E-04 3.31812E-15
 -1      3232 7.97758E-03 3.49481E-04 3.22844E-15
 -1      3233 7.89425E-03 3.15542E-04 3.00911E-15
 -1      3234 8.41352E-03 3.42848E-04 3.50737E-15
 -1      3235 8.26763E-03 3.44164E-04 3.41154E-15
 -1      3236 8.18056E-03 3.09015E-04 3.18433E-15
 -1      3237 8.70776E-03 3.44303E-04 3.70434E-15
 -1      3238 8.56015E-03 3.42774E-04 3.60446E-15
 -1      3239 8.46853E-03 3.05354E-04 3.36902E-15
 -1      3240 9.00682E-03 3.53638E-04 3.90946E-15
 -1      3241 8.85656E-03 3.47746E-04 3.80606E-15
 -1      3242 8.75956E-03 3.06569E-04 3.56163E-15
 -1      3243 9.31309E-03 3.74519E-04 4.12311E-15
 -1      3244 9.15892E-03 3.62305E-04 4.01484E-15
 -1      3245 9.05580E-03 3.15420E-04 3.76360E-15
 -1      3246 9.62946E-03 4.11504E-04 4.34426E-15
 -1      3247 9.46992E-03 3.90579E-04 4.23370E-15
 -1      3248 9.36033E-03 3.35676E-04 3.97235E-15
 -1      3249 9.95864E-03 4.69733E-04 4.57436E-15
 -1      3250 9.79250E-03 4.37494E-04 4.45879E-15
 -1      3251 9.67704E-03 3.72363E-04 4.19127E-15
 -1      3252 1.03014E-02 5.53573E-04 4.80911E-15
 -1      3253 1.01288E-02 5.08207E-04 4.69050E-15
 -1      3254 1.00098E-02 4.31873E-04 4.41589E-15
 -1      3255 1.06540E-02 6.62819E-04 5.05725E-15
 -1      3256 1.04774E-02 6.05393E-04 4.93315E-15
 -1      3257 1.03598E-02 5.20624E-04 4.64826E-15
 -1      3258 1.09903E-02 7.40062E-04 5.08721E-15
 -1      3259 1.08093E-02 6.73344E-04 4.96462E-15
 -1      3260 1.16704E-02 9.30792E-04 5.82139E-15
 -1      3261 1.15089E-02 9.19813E-04 5.69262E-15
 -1      3262 1.19997E-02 8.70325E-04 5.87699E-15
 -1      3263 1.18338E-02 9.05112E-04 5.75222E-15
 -1      3264 1.23316E-02 7.45113E-04 6.10217E-15
 -1      3265 1.21571E-02 8.14828E-04 5.97756E-15
 -1      3266 1.30261E-02 4.70834E-04 6.79774E-15
 -1      3267 1.28505E-02 5.43433E-04 6.68278E-15
 -1      3268 1.33707E-02 3.40169E-04 7.01904E-15
 -1      3269 1.32004E-02 4.03043E-04 6.91112E-15
 -1      3270 1.31734E-02 3.78251E-04 6.59043E-15
 -1      3271 1.37009E-02 2.28046E-04 7.22935E-15
 -1      3272 1.35381E-02 2.82284E-04 7.12641E-15
 -1      3273 1.35208E-02 2.56177E-04 6.80785E-15
 -1      3274 1.39519E-02 1.38916E-04 7.26570E-15
 -1      3275 1.38148E-02 1.87085E-04 7.24743E-15
 -1      3276 1.38036E-02 1.62997E-04 6.93033E-15
 -1      3277 1.40305E-02 8.84458E-05 6.96551E-15
 -1      3278 1.46410E-02-3.03062E-04 3.38453E-15
 -1      3279 1.46456E-02-2.82172E-04 3.71350E-15
 -1      3280 1.46296E-02-2.62058E-04 4.04815E-15
 -1      3281 1.45940E-02-2.38682E-04 4.38155E-15
 -1      3282 1.45494E-02-2.66098E-04 3.80872E-15
 -1      3283 9.32133E-04-2.20446E-04-9.50303E-17
 -1      3284 1.45747E-02-3.52889E-04 2.70499E-15
 -1      3285 1.46162E-02-3.25482E-04 3.04569E-15
 -1      3286 1.45368E-02-3.08015E-04 3.14117E-15
 -1      3287 1.44542E-02-4.22705E-04 2.02430E-15
 -1      3288 1.45190E-02-3.85030E-04 2.36534E-15
 -1      3289 1.44406E-02-3.65725E-04 2.47101E-15
 -1      3290 3.54059E-03 4.24389E-04 9.84334E-16
 -1      3291 3.39776E-03 4.24328E-04 9.23307E-16
 -1      3292 3.32318E-03 3.86720E-04 8.28100E-16
 -1      3293 3.60959E-03 3.86859E-04 9.42361E-16
 -1      3294 1.01658E-03 6.82213E-05 5.34512E-17
 -1      3295 1.01541E-03 4.12329E-05 3.89364E-17
 -1      3296 1.44458E-03-3.13812E-04-1.87431E-16
 -1      3297 1.58808E-03-3.28285E-04-2.12219E-16
 -1      3298 1.65238E-03-3.00208E-04-1.98043E-16
 -1      3299 1.08572E-02-7.62944E-04 5.58960E-16
 -1      3300 1.07230E-02-6.87872E-04 5.10442E-16
 -1      3301 1.42061E-02-3.01849E-04 2.66057E-15
 -1      3302 1.41111E-02-3.28548E-04 2.40551E-15
 -1      3303 1.40370E-02-1.62639E-04 4.41671E-15
 -1      3304 1.41537E-02-2.02641E-04 4.10878E-15
 -1      3305 9.43390E-03-1.20399E-04 1.62453E-15
 -1      3306 9.39263E-03-1.05444E-04 1.84074E-15
 -1      3307 9.60228E-03-1.73451E-04 1.20439E-15
 -1      3308 9.50500E-03-1.42983E-04 1.41329E-15
 -1      3309 1.14500E-03 3.10621E-04 1.87174E-16
 -1      3310 1.08235E-03 2.71684E-04 1.60557E-16
 -1      3311 1.20143E-03 2.73097E-04 1.78961E-16
 -1      3312 1.28817E-03 3.32598E-04 2.22749E-16
 -1      3313 9.96837E-03-3.15134E-04 7.41174E-16
 -1      3314 9.77442E-03-2.36111E-04 9.50283E-16
 -1      3315 1.42982E-02-2.66697E-04 3.14582E-15
 -1      3316 1.42662E-02-2.77641E-04 2.93197E-15
 -1      3317 1.11161E-02-9.52579E-04 2.29824E-16
 -1      3318 1.39756E-02-3.69210E-04 2.13673E-15
 -1      3319 1.38425E-02-4.17182E-04 1.90080E-15
 -1      3320 1.26689E-02 5.04642E-04 5.51020E-15
 -1      3321 1.28376E-02 3.94102E-04 5.36252E-15
 -1      3322 1.08174E-03-2.54028E-04-1.21214E-16
 -1      3323 1.29262E-03-2.85246E-04-1.55244E-16
 -1      3324 1.35706E-03-2.61792E-04-1.46300E-16
 -1      3325 1.05671E-03-2.05799E-04-9.53149E-17
 -1      3326 1.09528E-02-8.35981E-04 4.08948E-16
 -1      3327 9.39830E-03-8.40273E-05 2.14049E-15
 -1      3328 9.46237E-03-6.26018E-05 2.41962E-15
 -1      3329 1.33339E-02-6.92572E-04 9.78831E-16
 -1      3330 1.09344E-02-8.45027E-04 2.13154E-16
 -1      3331 1.01482E-03 1.44508E-05 2.45030E-17
 -1      3332 1.01478E-03-1.22327E-05 9.87979E-18
 -1      3333 1.13551E-03 3.01716E-05 3.82317E-17
 -1      3334 1.37547E-02-4.77434E-04 1.65276E-15
 -1      3335 1.43256E-02-2.51818E-04 3.52970E-15
 -1      3336 1.43186E-02-2.58508E-04 3.33827E-15
 -1      3337 1.43488E-02-2.68208E-04 3.25980E-15
 -1      3338 1.13688E-02 8.28126E-04 5.00160E-15
 -1      3339 1.14508E-02 8.61641E-04 5.15519E-15
 -1      3340 9.64801E-03-2.06800E-04 9.70944E-16
 -1      3341 1.07188E-02-7.05679E-04 3.15150E-16
 -1      3342 1.35233E-02-6.44368E-04 9.97480E-16
 -1      3343 1.15309E-03 2.11868E-04 1.41299E-16
 -1      3344 1.02832E-03 1.81199E-04 1.12120E-16
 -1      3345 1.02415E-03 1.51871E-04 9.71987E-17
 -1      3346 1.37166E-02-5.42436E-04 1.36073E-15
 -1      3347 1.37003E-02-6.13208E-04 1.01588E-15
 -1      3348 1.38697E-02-5.81399E-04 1.07745E-15
 -1      3349 1.39067E-02-4.63351E-04 1.68635E-15
 -1      3350 1.00825E-02-4.64640E-04 2.21042E-17
 -1      3351 1.02611E-02-5.22755E-04 8.17759E-17
 -1      3352 1.39732E-02-5.28954E-04 1.33110E-15
 -1      3353 1.25532E-02 5.79131E-04 5.61020E-15
 -1      3354 1.27212E-02 5.00939E-04 5.76137E-15
 -1      3355 1.24494E-02 6.47778E-04 5.71125E-15
 -1      3356 1.24837E-02-1.14579E-03 1.95820E-16
 -1      3357 1.33092E-02 1.44849E-04 5.20500E-15
 -1      3358 1.34148E-02 7.83205E-05 5.01101E-15
 -1      3359 1.35827E-02 1.87246E-05 5.03197E-15
 -1      3360 2.39730E-03 4.10469E-04 5.47387E-16
 -1      3361 2.25421E-03 4.05290E-04 5.00142E-16
 -1      3362 2.17562E-03 3.65696E-04 4.40660E-16
 -1      3363 1.02086E-03 1.23325E-04 8.25213E-17
 -1      3364 1.01839E-03 9.55471E-05 6.79117E-17
 -1      3365 1.13817E-03 8.86427E-05 7.22756E-17
 -1      3366 1.14376E-03 1.48801E-04 1.06604E-16
 -1      3367 1.42372E-02-2.20549E-04 3.97206E-15
 -1      3368 1.02001E-02-4.48829E-04 3.83957E-16
 -1      3369 2.74983E-03 3.81828E-04 6.21871E-16
 -1      3370 2.68332E-03 4.17779E-04 6.46171E-16
 -1      3371 2.54034E-03 4.14596E-04 5.96298E-16
 -1      3372 1.13462E-02 8.90241E-04 5.57897E-15
 -1      3373 1.11788E-02 8.44595E-04 5.45096E-15
 -1      3374 1.17654E-02 8.96067E-04 5.44077E-15
 -1      3375 1.28066E-02 5.04782E-04 6.17234E-15
 -1      3376 1.26639E-02 6.01966E-04 6.37401E-15
 -1      3377 1.24842E-02 6.81375E-04 6.25265E-15
 -1      3378 1.16789E-02 8.93564E-04 5.27661E-15
 -1      3379 1.03004E-02 2.46151E-04 3.71651E-15
 -1      3380 1.03653E-02 3.09556E-04 3.89069E-15
 -1      3381 1.01708E-02 2.01940E-04 3.61477E-15
 -1      3382 1.43954E-02-1.41378E-04 5.35810E-15
 -1      3383 1.43115E-02-9.82078E-05 5.67692E-15
 -1      3384 1.21133E-02 8.00392E-04 5.46226E-15
 -1      3385 1.42751E-02-2.97955E-04 2.79519E-15
 -1      3386 1.45405E-02-2.11893E-04 4.70990E-15
 -1      3387 1.44733E-02-1.79328E-04 5.03673E-15
 -1      3388 1.43208E-02-1.48195E-04 5.11512E-15
 -1      3389 1.44694E-02-2.18568E-04 4.46690E-15
 -1      3390 1.05649E-02 4.34211E-04 4.19914E-15
 -1      3391 1.06833E-02 4.84970E-04 4.28338E-15
 -1      3392 1.07326E-02 5.49421E-04 4.49167E-15
 -1      3393 9.49793E-03-4.26218E-05 2.56016E-15
 -1      3394 9.53994E-03-1.84069E-05 2.70000E-15
 -1      3395 9.39442E-03-4.86151E-05 2.37674E-15
 -1      3396 9.74063E-03 3.81516E-05 3.04288E-15
 -1      3397 9.86771E-03 5.63134E-05 3.15989E-15
 -1      3398 9.94589E-03 1.04958E-04 3.31966E-15
 -1      3399 9.92040E-03-3.79860E-04 2.19388E-16
 -1      3400 1.29741E-02 3.28104E-04 5.42203E-15
 -1      3401 1.82455E-03 3.81229E-04 3.66487E-16
 -1      3402 1.68120E-03 3.69638E-04 3.24678E-16
 -1      3403 1.88826E-03 3.50508E-04 3.57800E-16
 -1      3404 1.55630E-03 3.61553E-04 2.92179E-16
 -1      3405 1.41293E-03 3.45378E-04 2.53446E-16
 -1      3406 1.36911E-03 3.15154E-04 2.28753E-16
 -1      3407 1.61929E-03 3.33955E-04 2.87707E-16
 -1      3408 1.40899E-02-3.57511E-04 2.24962E-15
 -1      3409 1.12196E-02 7.60670E-04 4.82771E-15
 -1      3410 1.14312E-02 8.82293E-04 5.40537E-15
 -1      3411 1.42447E-02-5.95334E-05 5.94637E-15
 -1      3412 1.41781E-02-1.92298E-05 6.21511E-15
 -1      3413 1.41613E-02-6.22269E-05 5.70591E-15
 -1      3414 9.42128E-03-1.30128E-04 1.43233E-15
 -1      3415 1.39327E-02-1.17820E-04 4.68322E-15
 -1      3416 1.40806E-02-1.53461E-04 4.60651E-15
 -1      3417 9.34749E-03-8.94946E-05 1.94132E-15
 -1      3418 1.42953E-02-4.84872E-04 1.54319E-15
 -1      3419 1.43845E-02-4.49282E-04 1.80582E-15
 -1      3420 1.43002E-02-4.31551E-04 1.91663E-15
 -1      3421 1.41463E-02-4.96601E-04 1.48542E-15
 -1      3422 1.01149E-02-3.95311E-04 5.21610E-16
 -1      3423 1.01811E-03-9.30179E-05-3.40304E-17
 -1      3424 1.02049E-03-1.20742E-04-4.90330E-17
 -1      3425 9.95631E-03-3.46641E-04 5.00014E-16
 -1      3426 1.03568E-03-1.47511E-04-6.37917E-17
 -1      3427 1.03969E-03-1.76888E-04-7.95398E-17
 -1      3428 1.18827E-03-2.03172E-04-1.00397E-16
 -1      3429 1.15540E-03-1.43887E-04-6.46184E-17
 -1      3430 1.38435E-02-7.89670E-05 4.85378E-15
 -1      3431 1.11056E-02 7.33900E-04 4.87292E-15
 -1      3432 9.66468E-03-2.40260E-04 7.18284E-16
 -1      3433 9.51296E-03-1.83257E-04 9.69527E-16
 -1      3434 1.40593E-02-4.04703E-04 1.99219E-15
 -1      3435 1.40284E-02-4.62239E-04 1.69152E-15
 -1      3436 4.53859E-03 3.44799E-04 1.24633E-15
 -1      3437 4.39545E-03 3.45825E-04 1.18703E-15
 -1      3438 3.10466E-03 3.48211E-04 6.87506E-16
 -1      3439 2.96093E-03 3.47107E-04 6.40208E-16
 -1      3440 1.86189E-03-2.80062E-04-1.99602E-16
 -1      3441 2.00612E-03-2.87392E-04-2.19022E-16
 -1      3442 2.15043E-03-2.93446E-04-2.38389E-16
 -1      3443 2.29479E-03-2.98343E-04-2.57349E-16
 -1      3444 2.07303E-03-2.54674E-04-1.91633E-16
 -1      3445 2.43915E-03-3.02282E-04-2.76404E-16
 -1      3446 2.58347E-03-3.05357E-04-2.95310E-16
 -1      3447 2.36226E-03-2.63636E-04-2.23047E-16
 -1      3448 2.72774E-03-3.07733E-04-3.13402E-16
 -1      3449 2.87195E-03-3.09482E-04-3.31251E-16
 -1      3450 2.65154E-03-2.69293E-04-2.53486E-16
 -1      3451 3.01608E-03-3.10733E-04-3.49127E-16
 -1      3452 3.16012E-03-3.11539E-04-3.66067E-16
 -1      3453 2.94060E-03-2.72529E-04-2.82177E-16
 -1      3454 3.30408E-03-3.11997E-04-3.81612E-16
 -1      3455 3.44795E-03-3.12144E-04-3.96615E-16
 -1      3456 3.22932E-03-2.74035E-04-3.08510E-16
 -1      3457 3.59174E-03-3.12052E-04-4.09842E-16
 -1      3458 3.73544E-03-3.11742E-04-4.21565E-16
 -1      3459 3.51764E-03-2.74330E-04-3.29936E-16
 -1      3460 3.87906E-03-3.11266E-04-4.31756E-16
 -1      3461 4.02260E-03-3.10635E-04-4.40999E-16
 -1      3462 3.80554E-03-2.73783E-04-3.45860E-16
 -1      3463 4.16606E-03-3.09883E-04-4.49077E-16
 -1      3464 4.30945E-03-3.09014E-04-4.55338E-16
 -1      3465 4.09303E-03-2.72642E-04-3.56581E-16
 -1      3466 4.45276E-03-3.08047E-04-4.58333E-16
 -1      3467 4.59600E-03-3.06981E-04-4.60474E-16
 -1      3468 4.38012E-03-2.71061E-04-3.60077E-16
 -1      3469 4.73917E-03-3.05824E-04-4.62331E-16
 -1      3470 4.88227E-03-3.04569E-04-4.61775E-16
 -1      3471 4.66682E-03-2.69115E-04-3.57353E-16
 -1      3472 5.02530E-03-3.03218E-04-4.59797E-16
 -1      3473 5.16824E-03-3.01760E-04-4.56883E-16
 -1      3474 4.95314E-03-2.66824E-04-3.49411E-16
 -1      3475 5.31111E-03-3.00192E-04-4.52532E-16
 -1      3476 5.45389E-03-2.98498E-04-4.47708E-16
 -1      3477 5.23905E-03-2.64162E-04-3.35954E-16
 -1      3478 5.59658E-03-2.96674E-04-4.42707E-16
 -1      3479 5.73916E-03-2.94703E-04-4.37354E-16
 -1      3480 5.52450E-03-2.61073E-04-3.19758E-16
 -1      3481 5.88163E-03-2.92578E-04-4.30550E-16
 -1      3482 6.02397E-03-2.90284E-04-4.23625E-16
 -1      3483 5.80941E-03-2.57481E-04-3.01029E-16
 -1      3484 6.16616E-03-2.87816E-04-4.17445E-16
 -1      3485 6.30820E-03-2.85157E-04-4.11251E-16
 -1      3486 6.09367E-03-2.53309E-04-2.82245E-16
 -1      3487 6.45004E-03-2.82314E-04-4.03025E-16
 -1      3488 6.59168E-03-2.79268E-04-3.94107E-16
 -1      3489 6.37709E-03-2.48489E-04-2.61401E-16
 -1      3490 6.73307E-03-2.76039E-04-3.83455E-16
 -1      3491 6.87421E-03-2.72613E-04-3.71461E-16
 -1      3492 6.65947E-03-2.42985E-04-2.37454E-16
 -1      3493 7.01502E-03-2.69029E-04-3.59101E-16
 -1      3494 7.15551E-03-2.65277E-04-3.42784E-16
 -1      3495 6.94050E-03-2.36818E-04-2.07191E-16
 -1      3496 7.29560E-03-2.61424E-04-3.25383E-16
 -1      3497 7.43528E-03-2.57470E-04-3.06694E-16
 -1      3498 7.21984E-03-2.30096E-04-1.70708E-16
 -1      3499 7.57445E-03-2.53517E-04-2.84481E-16
 -1      3500 7.71315E-03-2.49576E-04-2.62092E-16
 -1      3501 7.49707E-03-2.23049E-04-1.25822E-16
 -1      3502 7.85123E-03-2.45795E-04-2.34920E-16
 -1      3503 7.98875E-03-2.42200E-04-2.05321E-16
 -1      3504 7.77170E-03-2.16063E-04-7.11372E-17
 -1      3505 8.12557E-03-2.38989E-04-1.76386E-16
 -1      3506 8.26179E-03-2.36210E-04-1.44348E-16
 -1      3507 8.04322E-03-2.09715E-04-8.61941E-18
 -1      3508 8.39726E-03-2.34111E-04-1.07241E-16
 -1      3509 8.53217E-03-2.32775E-04-6.67055E-17
 -1      3510 8.31114E-03-2.04784E-04 6.33310E-17
 -1      3511 8.66639E-03-2.32483E-04-2.57905E-17
 -1      3512 8.80028E-03-2.33390E-04 1.69407E-17
 -1      3513 8.57512E-03-2.02247E-04 1.48102E-16
 -1      3514 8.93374E-03-2.35771E-04 6.59737E-17
 -1      3515 9.06746E-03-2.39989E-04 1.16769E-16
 -1      3516 8.83516E-03-2.03242E-04 2.43552E-16
 -1      3517 9.20147E-03-2.46237E-04 1.69474E-16
 -1      3518 9.33690E-03-2.55205E-04 2.25609E-16
 -1      3519 9.09224E-03-2.09060E-04 3.50943E-16
 -1      3520 9.49923E-03-2.57826E-04 3.76503E-16
 -1      3521 9.63791E-03-2.75223E-04 4.41657E-16
 -1      3522 1.41137E-02-4.71692E-04 1.63969E-15
 -1      3523 4.25226E-03 3.46745E-04 1.12781E-15
 -1      3524 4.10902E-03 3.47556E-04 1.06868E-15
 -1      3525 4.32271E-03 3.08839E-04 1.06576E-15
 -1      3526 3.96572E-03 3.48238E-04 1.01025E-15
 -1      3527 3.82237E-03 3.48782E-04 9.53190E-16
 -1      3528 4.03585E-03 3.10332E-04 9.55236E-16
 -1      3529 4.82474E-03 3.42449E-04 1.36719E-15
 -1      3530 4.68169E-03 3.43675E-04 1.30617E-15
 -1      3531 4.60927E-03 3.06941E-04 1.17811E-15
 -1      3532 5.11069E-03 3.39688E-04 1.49029E-15
 -1      3533 4.96774E-03 3.41123E-04 1.42886E-15
 -1      3534 4.89552E-03 3.04670E-04 1.29255E-15
 -1      3535 5.39644E-03 3.36462E-04 1.61481E-15
 -1      3536 5.25359E-03 3.38138E-04 1.55221E-15
 -1      3537 5.18148E-03 3.02005E-04 1.40990E-15
 -1      3538 5.68197E-03 3.32692E-04 1.73917E-15
 -1      3539 5.53923E-03 3.34651E-04 1.67647E-15
 -1      3540 5.46711E-03 2.98889E-04 1.52807E-15
 -1      3541 5.96725E-03 3.28284E-04 1.86500E-15
 -1      3542 5.82464E-03 3.30575E-04 1.80295E-15
 -1      3543 5.75237E-03 2.95242E-04 1.64720E-15
 -1      3544 6.25223E-03 3.23147E-04 1.99312E-15
 -1      3545 6.10978E-03 3.25813E-04 1.92869E-15
 -1      3546 6.03719E-03 2.90971E-04 1.76702E-15
 -1      3547 6.53684E-03 3.17213E-04 2.12407E-15
 -1      3548 6.39458E-03 3.20284E-04 2.05746E-15
 -1      3549 6.32149E-03 2.85991E-04 1.88868E-15
 -1      3550 6.82104E-03 3.10465E-04 2.26264E-15
 -1      3551 6.67899E-03 3.13942E-04 2.19212E-15
 -1      3552 6.60518E-03 2.80238E-04 2.01489E-15
 -1      3553 7.10478E-03 3.02966E-04 2.40757E-15
 -1      3554 6.96296E-03 3.06805E-04 2.33473E-15
 -1      3555 6.88813E-03 2.73697E-04 2.14797E-15
 -1      3556 7.38805E-03 2.94905E-04 2.55736E-15
 -1      3557 7.24646E-03 2.98994E-04 2.48185E-15
 -1      3558 7.17025E-03 2.66425E-04 2.28738E-15
 -1      3559 7.67095E-03 2.86645E-04 2.71334E-15
 -1      3560 7.52952E-03 2.90775E-04 2.63490E-15
 -1      3561 7.45148E-03 2.58595E-04 2.43170E-15
 -1      3562 7.95370E-03 2.78785E-04 2.87715E-15
 -1      3563 7.81230E-03 2.82622E-04 2.79456E-15
 -1      3564 7.73185E-03 2.50531E-04 2.58306E-15
 -1      3565 8.23681E-03 2.72237E-04 3.04864E-15
 -1      3566 8.09514E-03 2.75277E-04 2.96119E-15
 -1      3567 8.01158E-03 2.42763E-04 2.74145E-15
 -1      3568 8.52124E-03 2.68326E-04 3.22816E-15
 -1      3569 8.37876E-03 2.69842E-04 3.13688E-15
 -1      3570 8.29117E-03 2.36092E-04 2.90962E-15
 -1      3571 8.80860E-03 2.68927E-04 3.41776E-15
 -1      3572 8.66440E-03 2.67890E-04 3.32256E-15
 -1      3573 8.57165E-03 2.31682E-04 3.08583E-15
 -1      3574 9.10146E-03 2.76696E-04 3.61470E-15
 -1      3575 8.95412E-03 2.71645E-04 3.51550E-15
 -1      3576 8.85481E-03 2.31215E-04 3.27123E-15
 -1      3577 9.40361E-03 2.95492E-04 3.82019E-15
 -1      3578 9.25109E-03 2.84283E-04 3.71575E-15
 -1      3579 9.14362E-03 2.37179E-04 3.46388E-15
 -1      3580 9.72003E-03 3.30943E-04 4.03441E-15
 -1      3581 9.55977E-03 3.10502E-04 3.92679E-15
 -1      3582 9.44261E-03 2.53595E-04 3.66516E-15
 -1      3583 1.00561E-02 3.90935E-04 4.25307E-15
 -1      3584 9.88554E-03 3.56963E-04 4.14309E-15
 -1      3585 9.75805E-03 2.86755E-04 3.87388E-15
 -1      3586 1.06915E-02 5.83366E-04 4.67405E-15
 -1      3587 1.33300E-02 2.83508E-04 6.38144E-15
 -1      3588 1.31489E-02 3.49460E-04 6.27195E-15
 -1      3589 1.42794E-02-3.65245E-04 2.33790E-15
 -1      3590 1.43519E-02-3.27996E-04 2.66909E-15
 -1      3591 1.44555E-02-2.73431E-04 3.46794E-15
 -1      3592 1.44418E-02-2.53339E-04 3.79704E-15
 -1      3593 1.57403E-03-2.60762E-04-1.61424E-16
 -1      3594 1.71784E-03-2.71229E-04-1.80384E-16
 -1      3595 1.78428E-03-2.41340E-04-1.59879E-16
 -1      3596 1.08444E-02-7.95600E-04 1.82105E-16
 -1      3597 1.42534E-02-2.06709E-04 4.26363E-15
 -1      3598 1.43041E-02-2.32715E-04 3.89596E-15
 -1      3599 1.43628E-02-2.42837E-04 3.82048E-15
 -1      3600 1.30821E-02 3.28096E-04 5.86234E-15
 -1      3601 1.32163E-02 2.34155E-04 5.62317E-15
 -1      3602 9.80098E-03-3.12512E-04 4.33762E-16
 -1      3603 1.44003E-02-3.04774E-04 2.94651E-15
 -1      3604 9.29998E-03-9.61792E-05 1.72146E-15
 -1      3605 9.29885E-03-7.38985E-05 2.01775E-15
 -1      3606 1.01531E-03-3.89453E-05-4.45878E-18
 -1      3607 1.01639E-03-6.57926E-05-1.91362E-17
 -1      3608 1.13791E-03-8.60038E-05-3.02221E-17
 -1      3609 1.36763E-02 1.73913E-04 6.59400E-15
 -1      3610 1.35065E-02 2.25723E-04 6.48834E-15
 -1      3611 1.34955E-02 1.90859E-04 6.16769E-15
 -1      3612 1.37458E-02-3.10120E-05 5.05372E-15
 -1      3613 1.38979E-02-6.85607E-05 5.07320E-15
 -1      3614 1.36488E-02 2.22629E-05 5.25013E-15
 -1      3615 9.41006E-03-1.41714E-04 1.24825E-15
 -1      3616 9.34604E-03-1.19394E-04 1.45731E-15
 -1      3617 1.41345E-02 1.42744E-05 6.45694E-15
 -1      3618 1.40705E-02 5.56795E-05 6.72135E-15
 -1      3619 1.39576E-02 9.01132E-05 6.70373E-15
 -1      3620 1.40438E-02 1.80948E-05 6.21888E-15
 -1      3621 1.40952E-02-1.38371E-04 4.80205E-15
 -1      3622 1.41794E-02-1.75997E-04 4.53554E-15
 -1      3623 1.42696E-02-1.94017E-04 4.45994E-15
 -1      3624 1.32611E-03 2.85703E-04 2.05185E-16
 -1      3625 1.28392E-03 2.57011E-04 1.82973E-16
 -1      3626 1.45112E-03 2.96036E-04 2.32250E-16
 -1      3627 1.33854E-02 1.65835E-04 5.64777E-15
 -1      3628 9.41204E-03-1.66316E-04 1.00014E-15
 -1      3629 1.27731E-03 2.22444E-04 1.62874E-16
 -1      3630 3.74868E-03 3.11321E-04 8.48659E-16
 -1      3631 3.67895E-03 3.49152E-04 8.97191E-16
 -1      3632 3.53548E-03 3.49330E-04 8.42886E-16
 -1      3633 2.88509E-03 3.08839E-04 5.62809E-16
 -1      3634 2.81711E-03 3.45493E-04 5.94075E-16
 -1      3635 2.67323E-03 3.43307E-04 5.49623E-16
 -1      3636 1.13543E-03-2.77061E-05 4.22839E-18
 -1      3637 9.37261E-03-2.12545E-04 5.61244E-16
 -1      3638 2.46283E-03 3.75673E-04 5.28793E-16
 -1      3639 1.26117E-03 1.10681E-04 9.46915E-17
 -1      3640 1.25897E-03 7.91206E-05 7.48777E-17
 -1      3641 1.29140E-02 4.35947E-04 6.06954E-15
 -1      3642 1.40646E-02-6.07314E-05 5.50163E-15
 -1      3643 1.39882E-02-1.35695E-05 5.77282E-15
 -1      3644 1.04152E-02 4.84794E-04 4.48369E-15
 -1      3645 1.02333E-02 4.32904E-04 4.36520E-15
 -1      3646 1.39292E-02-6.16620E-05 5.20061E-15
 -1      3647 1.40135E-02-1.02565E-04 5.00137E-15
 -1      3648 1.41219E-02-1.30513E-04 4.93122E-15
 -1      3649 1.10664E-02 7.32969E-04 4.93216E-15
 -1      3650 9.22840E-03-6.19855E-05 1.99063E-15
 -1      3651 9.30471E-03-5.26208E-05 2.20581E-15
 -1      3652 1.44265E-02-2.33065E-04 4.16620E-15
 -1      3653 1.00177E-02 1.59062E-04 3.49081E-15
 -1      3654 1.00806E-02 2.16317E-04 3.66416E-15
 -1      3655 9.87336E-03 1.28667E-04 3.36927E-15
 -1      3656 1.43633E-02-2.04095E-04 4.49112E-15
 -1      3657 9.32336E-03-3.57537E-05 2.34501E-15
 -1      3658 3.39194E-03 3.49260E-04 7.89435E-16
 -1      3659 3.24834E-03 3.48913E-04 7.36932E-16
 -1      3660 3.17330E-03 3.10939E-04 6.51023E-16
 -1      3661 3.46117E-03 3.11622E-04 7.46676E-16
 -1      3662 9.59551E-03 1.11349E-05 2.85611E-15
 -1      3663 9.65423E-03 4.60620E-05 3.01073E-15
 -1      3664 9.46677E-03-4.74812E-06 2.67189E-15
 -1      3665 1.15791E-02 8.92451E-04 5.32545E-15
 -1      3666 9.26734E-03-1.04135E-04 1.53986E-15
 -1      3667 1.25875E-03-7.63552E-05-2.38524E-17
 -1      3668 1.26085E-03-1.07818E-04-4.40186E-17
 -1      3669 1.38428E-02 1.26441E-04 6.68806E-15
 -1      3670 1.95318E-03 3.19082E-04 3.46606E-16
 -1      3671 1.80919E-03 3.10493E-04 3.09418E-16
 -1      3672 1.38068E-03 6.71823E-05 7.56095E-17
 -1      3673 1.25750E-03 4.78301E-05 5.52808E-17
 -1      3674 1.25677E-03 1.67555E-05 3.55889E-17
 -1      3675 1.41369E-02-9.90428E-05 5.28315E-15
 -1      3676 1.39652E-02-5.37117E-05 5.34846E-15
 -1      3677 1.00973E-02 3.47038E-04 4.09086E-15
 -1      3678 1.38370E-02 9.55345E-05 6.36873E-15
 -1      3679 2.09721E-03 3.26204E-04 3.84783E-16
 -1      3680 2.01913E-03 2.86972E-04 3.32525E-16
 -1      3681 2.24126E-03 3.31999E-04 4.24086E-16
 -1      3682 1.14746E-02 8.81898E-04 5.34157E-15
 -1      3683 1.42325E-02-1.47249E-04 4.96334E-15
 -1      3684 1.44331E-02-2.81407E-04 3.27497E-15
 -1      3685 1.27597E-03-1.37333E-04-6.28295E-17
 -1      3686 1.29186E-03-1.67640E-04-8.25620E-17
 -1      3687 1.39733E-03-1.28209E-04-5.85469E-17
 -1      3688 1.41860E-02-3.66781E-04 2.26476E-15
 -1      3689 1.43064E-03-2.48429E-04-1.42857E-16
 -1      3690 1.49675E-03-2.22418E-04-1.28464E-16
 -1      3691 1.38473E-02-1.59716E-05 5.41793E-15
 -1      3692 1.05411E-02 4.76577E-04 4.38084E-15
 -1      3693 1.03899E-02 3.74724E-04 4.09692E-15
 -1      3694 2.28571E-03-2.25234E-04-1.73567E-16
 -1      3695 2.43061E-03-2.28406E-04-1.85751E-16
 -1      3696 2.57550E-03-2.30918E-04-1.97325E-16
 -1      3697 2.72037E-03-2.32836E-04-2.08221E-16
 -1      3698 2.49973E-03-1.92697E-04-1.44714E-16
 -1      3699 2.86519E-03-2.34276E-04-2.19524E-16
 -1      3700 3.00991E-03-2.35286E-04-2.29959E-16
 -1      3701 2.78991E-03-1.96040E-04-1.60489E-16
 -1      3702 3.15455E-03-2.35959E-04-2.38809E-16
 -1      3703 3.29907E-03-2.36326E-04-2.47374E-16
 -1      3704 3.07983E-03-1.97811E-04-1.73256E-16
 -1      3705 3.44348E-03-2.36459E-04-2.54001E-16
 -1      3706 3.58776E-03-2.36378E-04-2.59382E-16
 -1      3707 3.36931E-03-1.98467E-04-1.82092E-16
 -1      3708 3.73193E-03-2.36136E-04-2.63963E-16
 -1      3709 3.87597E-03-2.35743E-04-2.66334E-16
 -1      3710 3.65828E-03-1.98341E-04-1.85222E-16
 -1      3711 4.01990E-03-2.35235E-04-2.68042E-16
 -1      3712 4.16370E-03-2.34618E-04-2.68476E-16
 -1      3713 3.94672E-03-1.97669E-04-1.83447E-16
 -1      3714 4.30739E-03-2.33914E-04-2.65968E-16
 -1      3715 4.45095E-03-2.33121E-04-2.61523E-16
 -1      3716 4.23460E-03-1.96605E-04-1.75166E-16
 -1      3717 4.59440E-03-2.32255E-04-2.56278E-16
 -1      3718 4.73773E-03-2.31309E-04-2.50762E-16
 -1      3719 4.52194E-03-1.95236E-04-1.60001E-16
 -1      3720 4.88095E-03-2.30289E-04-2.42970E-16
 -1      3721 5.02403E-03-2.29186E-04-2.33754E-16
 -1      3722 4.80873E-03-1.93598E-04-1.40214E-16
 -1      3723 5.16699E-03-2.28002E-04-2.23224E-16
 -1      3724 5.30981E-03-2.26724E-04-2.11989E-16
 -1      3725 5.09495E-03-1.91690E-04-1.14858E-16
 -1      3726 5.45249E-03-2.25352E-04-2.00767E-16
 -1      3727 5.59500E-03-2.23870E-04-1.88854E-16
 -1      3728 5.38054E-03-1.89481E-04-8.61941E-17
 -1      3729 5.73734E-03-2.22278E-04-1.76942E-16
 -1      3730 5.87949E-03-2.20558E-04-1.63118E-16
 -1      3731 5.66541E-03-1.86925E-04-5.46980E-17
 -1      3732 6.02142E-03-2.18713E-04-1.50474E-16
 -1      3733 6.16312E-03-2.16723E-04-1.38276E-16
 -1      3734 5.94942E-03-1.83968E-04-2.31748E-17
 -1      3735 6.30454E-03-2.14597E-04-1.24209E-16
 -1      3736 6.44567E-03-2.12315E-04-1.09464E-16
 -1      3737 6.23237E-03-1.80559E-04 9.89334E-18
 -1      3738 6.58645E-03-2.09897E-04-9.52743E-17
 -1      3739 6.72686E-03-2.07322E-04-7.83743E-17
 -1      3740 6.51399E-03-1.76672E-04 4.46149E-17
 -1      3741 6.86683E-03-2.04625E-04-6.01326E-17
 -1      3742 7.00633E-03-2.01786E-04-4.02239E-17
 -1      3743 6.79395E-03-1.72313E-04 8.33209E-17
 -1      3744 7.14528E-03-1.98864E-04-1.82010E-17
 -1      3745 7.28365E-03-1.95839E-04 5.48877E-18
 -1      3746 7.07182E-03-1.67550E-04 1.30091E-16
 -1      3747 7.42132E-03-1.92799E-04 3.04661E-17
 -1      3748 7.55827E-03-1.89725E-04 5.83030E-17
 -1      3749 7.34707E-03-1.62533E-04 1.84572E-16
 -1      3750 7.69438E-03-1.86740E-04 8.82676E-17
 -1      3751 7.82961E-03-1.83826E-04 1.21200E-16
 -1      3752 7.61909E-03-1.57516E-04 2.45287E-16
 -1      3753 7.96381E-03-1.81149E-04 1.56112E-16
 -1      3754 8.09698E-03-1.78681E-04 1.91768E-16
 -1      3755 7.88713E-03-1.52875E-04 3.15815E-16
 -1      3756 8.22891E-03-1.76638E-04 2.31369E-16
 -1      3757 8.35966E-03-1.74976E-04 2.75008E-16
 -1      3758 8.15035E-03-1.49105E-04 3.96669E-16
 -1      3759 8.48897E-03-1.73952E-04 3.19379E-16
 -1      3760 8.61698E-03-1.73493E-04 3.66162E-16
 -1      3761 8.40777E-03-1.46793E-04 4.87322E-16
 -1      3762 8.74335E-03-1.73897E-04 4.17323E-16
 -1      3763 8.86841E-03-1.75041E-04 4.72265E-16
 -1      3764 8.65826E-03-1.46529E-04 5.89101E-16
 -1      3765 8.99163E-03-1.77238E-04 5.29822E-16
 -1      3766 9.11374E-03-1.80291E-04 5.88871E-16
 -1      3767 8.90058E-03-1.48756E-04 7.03905E-16
 -1      3768 2.52929E-03 3.40402E-04 5.06566E-16
 -1      3769 2.38530E-03 3.36695E-04 4.64757E-16
 -1      3770 2.59658E-03 3.04718E-04 4.81006E-16
 -1      3771 1.26422E-03 1.42726E-04 1.14451E-16
 -1      3772 1.38545E-03 1.34020E-04 1.20712E-16
 -1      3773 1.26816E-03 1.75381E-04 1.34468E-16
 -1      3774 9.28104E-03-1.68726E-04 8.35418E-16
 -1      3775 1.01096E-02 2.82220E-04 3.86816E-15
 -1      3776 9.93685E-03 2.48039E-04 3.76038E-15
 -1      3777 1.25673E-03-1.41731E-05 1.58022E-17
 -1      3778 1.25737E-03-4.51703E-05-4.02510E-18
 -1      3779 1.38049E-03-6.43230E-05-1.46096E-17
 -1      3780 1.37909E-03 1.37527E-06 3.06694E-17
 -1      3781 4.10625E-03 2.72365E-04 8.96744E-16
 -1      3782 3.96256E-03 2.72937E-04 8.46193E-16
 -1      3783 5.25223E-03 2.64447E-04 1.32595E-15
 -1      3784 5.10934E-03 2.65758E-04 1.27003E-15
 -1      3785 5.53766E-03 2.61497E-04 1.43826E-15
 -1      3786 5.39500E-03 2.63032E-04 1.38248E-15
 -1      3787 5.32293E-03 2.27050E-04 1.23877E-15
 -1      3788 5.82257E-03 2.58037E-04 1.55190E-15
 -1      3789 5.68018E-03 2.59838E-04 1.49483E-15
 -1      3790 5.60810E-03 2.24322E-04 1.34676E-15
 -1      3791 6.10685E-03 2.53978E-04 1.66566E-15
 -1      3792 5.96479E-03 2.56090E-04 1.60852E-15
 -1      3793 5.89259E-03 2.21114E-04 1.45329E-15
 -1      3794 6.39040E-03 2.49240E-04 1.78128E-15
 -1      3795 6.24872E-03 2.51702E-04 1.72305E-15
 -1      3796 6.17626E-03 2.17343E-04 1.56056E-15
 -1      3797 6.67304E-03 2.43762E-04 1.90303E-15
 -1      3798 6.53183E-03 2.46600E-04 1.84157E-15
 -1      3799 6.45896E-03 2.12933E-04 1.67147E-15
 -1      3800 6.95462E-03 2.37525E-04 2.02986E-15
 -1      3801 6.81397E-03 2.40742E-04 1.96582E-15
 -1      3802 6.74048E-03 2.07823E-04 1.78609E-15
 -1      3803 7.23499E-03 2.30577E-04 2.16331E-15
 -1      3804 7.09496E-03 2.34141E-04 2.09624E-15
 -1      3805 7.02059E-03 2.01989E-04 1.90771E-15
 -1      3806 7.51401E-03 2.23062E-04 2.30203E-15
 -1      3807 7.37466E-03 2.26886E-04 2.23180E-15
 -1      3808 7.29908E-03 1.95461E-04 2.03564E-15
 -1      3809 7.79167E-03 2.15250E-04 2.44883E-15
 -1      3810 7.65299E-03 2.19179E-04 2.37462E-15
 -1      3811 7.57575E-03 1.88340E-04 2.16877E-15
 -1      3812 8.06811E-03 2.07577E-04 2.60362E-15
 -1      3813 7.93000E-03 2.11368E-04 2.52458E-15
 -1      3814 7.85050E-03 1.80825E-04 2.31049E-15
 -1      3815 8.34382E-03 2.00701E-04 2.76668E-15
 -1      3816 8.20598E-03 2.03989E-04 2.68431E-15
 -1      3817 8.12340E-03 1.73235E-04 2.46202E-15
 -1      3818 8.61983E-03 1.95590E-04 2.93975E-15
 -1      3819 8.48166E-03 1.97837E-04 2.85210E-15
 -1      3820 8.39485E-03 1.66049E-04 2.62187E-15
 -1      3821 8.89800E-03 1.93683E-04 3.12197E-15
 -1      3822 8.75843E-03 1.94081E-04 3.03058E-15
 -1      3823 8.66579E-03 1.59993E-04 2.79129E-15
 -1      3824 9.18156E-03 1.97239E-04 3.30999E-15
 -1      3825 9.03876E-03 1.94492E-04 3.21454E-15
 -1      3826 8.93805E-03 1.56195E-04 2.97001E-15
 -1      3827 9.47571E-03 2.10382E-04 3.50752E-15
 -1      3828 9.32681E-03 2.02069E-04 3.40797E-15
 -1      3829 9.21491E-03 1.56538E-04 3.15516E-15
 -1      3830 9.78021E-03 2.32834E-04 3.68524E-15
 -1      3831 9.62182E-03 2.15376E-04 3.58295E-15
 -1      3832 9.49501E-03 1.59120E-04 3.32130E-15
 -1      3833 9.78147E-03 1.67819E-04 3.46584E-15
 -1      3834 1.38826E-02 5.54393E-05 6.12708E-15
 -1      3835 1.42711E-02-4.06231E-04 2.06966E-15
 -1      3836 9.16438E-03-7.04972E-05 1.79386E-15
 -1      3837 9.15523E-03-5.01798E-05 1.98051E-15
 -1      3838 1.02646E-02 3.28582E-04 3.99416E-15
 -1      3839 1.37729E-02 6.48323E-05 5.92155E-15
 -1      3840 4.68004E-03 2.69114E-04 1.10665E-15
 -1      3841 4.53674E-03 2.70061E-04 1.05329E-15
 -1      3842 9.25484E-03-2.18646E-05 2.33033E-15
 -1      3843 9.35622E-03-1.52078E-05 2.49949E-15
 -1      3844 9.39469E-03 8.76348E-06 2.65357E-15
 -1      3845 1.70752E-03-2.03527E-04-1.24006E-16
 -1      3846 1.85170E-03-2.10537E-04-1.36555E-16
 -1      3847 1.41944E-02-4.36896E-04 1.85277E-15
 -1      3848 4.96634E-03 2.66966E-04 1.21439E-15
 -1      3849 4.82324E-03 2.68085E-04 1.15989E-15
 -1      3850 5.03717E-03 2.29374E-04 1.13309E-15
 -1      3851 1.69270E-03 3.08158E-04 2.84603E-16
 -1      3852 1.56724E-03 3.01618E-04 2.56576E-16
 -1      3853 1.52495E-03 2.72563E-04 2.30163E-16
 -1      3854 1.75803E-03 2.78722E-04 2.75387E-16
 -1      3855 1.35553E-02 1.07090E-04 5.67168E-15
 -1      3856 1.39785E-03 2.16870E-04 1.75329E-16
 -1      3857 4.39334E-03 2.70919E-04 1.00087E-15
 -1      3858 4.24985E-03 2.71692E-04 9.48690E-16
 -1      3859 4.17689E-03 2.34384E-04 8.34971E-16
 -1      3860 4.46413E-03 2.33026E-04 9.31614E-16
 -1      3861 9.23502E-03-1.16126E-04 1.32680E-15
 -1      3862 9.19052E-03-9.15235E-05 1.58781E-15
 -1      3863 1.13039E-02 8.40052E-04 5.23213E-15
 -1      3864 1.99619E-03-2.16415E-04-1.49295E-16
 -1      3865 2.14089E-03-2.21265E-04-1.61763E-16
 -1      3866 1.92000E-03-1.78825E-04-1.10494E-16
 -1      3867 1.27977E-03-2.23219E-04-1.17284E-16
 -1      3868 1.26227E-03-1.91664E-04-9.68599E-17
 -1      3869 1.38310E-03-1.85238E-04-9.72665E-17
 -1      3870 3.81876E-03 2.73380E-04 7.96780E-16
 -1      3871 3.67486E-03 2.73687E-04 7.48750E-16
 -1      3872 3.88916E-03 2.35379E-04 7.41134E-16
 -1      3873 2.95377E-03 2.71867E-04 5.28562E-16
 -1      3874 2.80926E-03 2.70498E-04 4.89937E-16
 -1      3875 2.30785E-03 2.97772E-04 4.04597E-16
 -1      3876 9.11086E-03-8.15554E-05 1.58298E-15
 -1      3877 9.14498E-03-1.68870E-04 7.10349E-16
 -1      3878 9.20951E-03-1.29856E-04 1.14046E-15
 -1      3879 1.50314E-03-5.02493E-05-2.10064E-18
 -1      3880 1.50468E-03-8.48984E-05-2.77420E-17
 -1      3881 1.51407E-03 2.20788E-04 1.94208E-16
 -1      3882 1.05846E-02 5.39141E-04 4.58764E-15
 -1      3883 9.11541E-03-1.16208E-04 1.19304E-15
 -1      3884 1.42998E-02-1.75454E-04 4.76326E-15
 -1      3885 9.16561E-03-2.50815E-05 2.19045E-15
 -1      3886 9.18845E-03-6.21249E-06 2.34266E-15
 -1      3887 4.75090E-03 2.31355E-04 1.03105E-15
 -1      3888 1.52608E-03-1.95419E-04-1.09762E-16
 -1      3889 1.59386E-03-1.67517E-04-9.12356E-17
 -1      3890 9.69448E-03 8.24227E-05 3.15314E-15
 -1      3891 9.74895E-03 1.27913E-04 3.32242E-15
 -1      3892 9.60933E-03 1.24730E-04 3.25194E-15
 -1      3893 9.54806E-03 5.50912E-05 2.96867E-15
 -1      3894 1.51082E-03 1.58311E-04 1.50772E-16
 -1      3895 1.50744E-03 1.22954E-04 1.25361E-16
 -1      3896 1.50493E-03 8.79131E-05 9.96382E-17
 -1      3897 1.50328E-03 5.31608E-05 7.41865E-17
 -1      3898 1.63014E-03 1.09773E-04 1.27665E-16
 -1      3899 3.24251E-03 2.73432E-04 6.11165E-16
 -1      3900 3.09819E-03 2.72831E-04 5.68908E-16
 -1      3901 3.02307E-03 2.34636E-04 4.90886E-16
 -1      3902 2.08609E-03 2.54165E-04 3.15462E-16
 -1      3903 1.94159E-03 2.48219E-04 2.83695E-16
 -1      3904 1.37268E-02 6.16436E-05 5.77553E-15
 -1      3905 1.54107E-03-1.09316E-04-4.58753E-17
 -1      3906 1.55640E-03-1.41804E-04-7.05816E-17
 -1      3907 1.73799E-03-1.46809E-04-7.76153E-17
 -1      3908 1.66408E-03-9.53282E-05-3.46132E-17
 -1      3909 2.20960E-03-1.87193E-04-1.28248E-16
 -1      3910 9.08671E-03-3.62589E-05 1.99580E-15
 -1      3911 1.86472E-03 2.10116E-04 2.38375E-16
 -1      3912 1.79729E-03 2.41046E-04 2.53039E-16
 -1      3913 1.68034E-03 2.40003E-04 2.32995E-16
 -1      3914 2.37537E-03 2.63004E-04 3.81680E-16
 -1      3915 2.23070E-03 2.59057E-04 3.48178E-16
 -1      3916 2.15396E-03 2.20684E-04 2.95608E-16
 -1      3917 2.71490E-03-1.57901E-04-1.04747E-16
 -1      3918 2.86012E-03-1.58918E-04-1.08461E-16
 -1      3919 3.00527E-03-1.59649E-04-1.11741E-16
 -1      3920 3.15031E-03-1.60119E-04-1.13299E-16
 -1      3921 2.93094E-03-1.21526E-04-5.30446E-17
 -1      3922 3.29524E-03-1.60389E-04-1.13868E-16
 -1      3923 3.44003E-03-1.60473E-04-1.13123E-16
 -1      3924 3.22131E-03-1.22263E-04-4.94938E-17
 -1      3925 3.58468E-03-1.60420E-04-1.11456E-16
 -1      3926 3.72919E-03-1.60236E-04-1.07783E-16
 -1      3927 3.51117E-03-1.22398E-04-4.08202E-17
 -1      3928 3.87354E-03-1.59956E-04-1.02362E-16
 -1      3929 4.01775E-03-1.59581E-04-9.63314E-17
 -1      3930 3.80042E-03-1.22109E-04-2.57091E-17
 -1      3931 4.16181E-03-1.59139E-04-8.87555E-17
 -1      3932 4.30571E-03-1.58624E-04-7.86724E-17
 -1      3933 4.08904E-03-1.21521E-04-5.28549E-18
 -1      3934 4.44947E-03-1.58055E-04-6.80743E-17
 -1      3935 4.59307E-03-1.57425E-04-5.56873E-17
 -1      3936 4.37701E-03-1.20712E-04 2.05727E-17
 -1      3937 4.73652E-03-1.56745E-04-4.15927E-17
 -1      3938 4.87981E-03-1.56006E-04-2.70508E-17
 -1      3939 4.66433E-03-1.19722E-04 5.26245E-17
 -1      3940 5.02293E-03-1.55214E-04-1.08691E-17
 -1      3941 5.16589E-03-1.54360E-04 6.99310E-18
 -1      3942 4.95096E-03-1.18562E-04 9.01243E-17
 -1      3943 5.30867E-03-1.53446E-04 2.47198E-17
 -1      3944 5.45125E-03-1.52460E-04 4.35578E-17
 -1      3945 5.23686E-03-1.17225E-04 1.31663E-16
 -1      3946 5.59362E-03-1.51405E-04 6.24907E-17
 -1      3947 5.73576E-03-1.50267E-04 8.19792E-17
 -1      3948 5.52195E-03-1.15687E-04 1.75817E-16
 -1      3949 5.87764E-03-1.49052E-04 1.01332E-16
 -1      3950 6.01925E-03-1.47742E-04 1.20753E-16
 -1      3951 5.80607E-03-1.13922E-04 2.21760E-16
 -1      3952 6.16055E-03-1.46348E-04 1.40309E-16
 -1      3953 6.30150E-03-1.44852E-04 1.60096E-16
 -1      3954 6.08903E-03-1.11905E-04 2.67662E-16
 -1      3955 6.44205E-03-1.43273E-04 1.80316E-16
 -1      3956 6.58218E-03-1.41590E-04 2.01784E-16
 -1      3957 6.37056E-03-1.09624E-04 3.12399E-16
 -1      3958 6.72181E-03-1.39836E-04 2.25148E-16
 -1      3959 6.86091E-03-1.37986E-04 2.49434E-16
 -1      3960 6.65031E-03-1.07090E-04 3.62706E-16
 -1      3961 6.99938E-03-1.36093E-04 2.75130E-16
 -1      3962 7.13719E-03-1.34129E-04 3.04037E-16
 -1      3963 6.92784E-03-1.04356E-04 4.17458E-16
 -1      3964 7.27423E-03-1.32171E-04 3.33758E-16
 -1      3965 7.41044E-03-1.30186E-04 3.65200E-16
 -1      3966 7.20261E-03-1.01530E-04 4.80789E-16
 -1      3967 7.54570E-03-1.28281E-04 3.99366E-16
 -1      3968 7.67994E-03-1.26417E-04 4.35876E-16
 -1      3969 7.47396E-03-9.87917E-05 5.50788E-16
 -1      3970 7.81300E-03-1.24739E-04 4.74420E-16
 -1      3971 7.94483E-03-1.23189E-04 5.14955E-16
 -1      3972 7.74110E-03-9.64092E-05 6.29772E-16
 -1      3973 8.07521E-03-1.21959E-04 5.58052E-16
 -1      3974 8.20408E-03-1.20958E-04 6.04660E-16
 -1      3975 8.00305E-03-9.47372E-05 7.16969E-16
 -1      3976 8.33118E-03-1.20436E-04 6.53760E-16
 -1      3977 8.45644E-03-1.20234E-04 7.04338E-16
 -1      3978 8.25863E-03-9.42007E-05 8.16187E-16
 -1      3979 8.57949E-03-1.20664E-04 7.58684E-16
 -1      3980 8.70029E-03-1.21454E-04 8.16906E-16
 -1      3981 8.50628E-03-9.52683E-05 9.26261E-16
 -1      3982 8.81833E-03-1.23014E-04 8.75358E-16
 -1      3983 8.93361E-03-1.24799E-04 9.40125E-16
 -1      3984 8.74384E-03-9.82431E-05 1.04605E-15
 -1      3985 2.66467E-03 2.68617E-04 4.52397E-16
 -1      3986 2.52003E-03 2.66163E-04 4.16645E-16
 -1      3987 2.44371E-03 2.27739E-04 3.55889E-16
 -1      3988 2.73351E-03 2.32152E-04 4.20698E-16
 -1      3989 1.50245E-03 1.86706E-05 4.89382E-17
 -1      3990 1.50240E-03-1.57597E-05 2.34052E-17
 -1      3991 1.62670E-03 3.74376E-05 7.06764E-17
 -1      3992 5.67845E-03 1.87396E-04 1.25063E-15
 -1      3993 5.53612E-03 1.88672E-04 1.19944E-15
 -1      3994 5.39360E-03 1.89842E-04 1.14908E-15
 -1      3995 5.25090E-03 1.90925E-04 1.09910E-15
 -1      3996 5.46425E-03 1.52856E-04 1.05581E-15
 -1      3997 6.24548E-03 1.81109E-04 1.45203E-15
 -1      3998 6.10411E-03 1.82883E-04 1.40162E-15
 -1      3999 6.52728E-03 1.77116E-04 1.55691E-15
 -1      4000 6.38654E-03 1.79195E-04 1.50415E-15
 -1      4001 6.31455E-03 1.45306E-04 1.34011E-15
 -1      4002 6.80761E-03 1.72473E-04 1.66677E-15
 -1      4003 6.66764E-03 1.74885E-04 1.61131E-15
 -1      4004 6.59541E-03 1.41821E-04 1.43908E-15
 -1      4005 7.08619E-03 1.67144E-04 1.78178E-15
 -1      4006 6.94713E-03 1.69903E-04 1.72311E-15
 -1      4007 6.87451E-03 1.37742E-04 1.54249E-15
 -1      4008 7.36272E-03 1.61134E-04 1.90380E-15
 -1      4009 7.22472E-03 1.64232E-04 1.84260E-15
 -1      4010 7.15151E-03 1.33020E-04 1.65215E-15
 -1      4011 7.63694E-03 1.54495E-04 2.03373E-15
 -1      4012 7.50012E-03 1.57899E-04 1.96845E-15
 -1      4013 7.42604E-03 1.27625E-04 1.77064E-15
 -1      4014 7.90864E-03 1.47343E-04 2.17105E-15
 -1      4015 7.77309E-03 1.50986E-04 2.10076E-15
 -1      4016 7.69773E-03 1.21554E-04 1.89458E-15
 -1      4017 8.17776E-03 1.39864E-04 2.31831E-15
 -1      4018 8.04349E-03 1.43643E-04 2.24330E-15
 -1      4019 7.96625E-03 1.14827E-04 2.02788E-15
 -1      4020 8.44455E-03 1.32340E-04 2.47534E-15
 -1      4021 8.31137E-03 1.36092E-04 2.39599E-15
 -1      4022 8.23137E-03 1.07484E-04 2.17196E-15
 -1      4023 8.70975E-03 1.25253E-04 2.64114E-15
 -1      4024 8.57721E-03 1.28701E-04 2.55622E-15
 -1      4025 8.49309E-03 9.95943E-05 2.32472E-15
 -1      4026 8.97495E-03 1.19377E-04 2.81467E-15
 -1      4027 8.84207E-03 1.22047E-04 2.72703E-15
 -1      4028 8.75180E-03 9.13803E-05 2.48637E-15
 -1      4029 9.24306E-03 1.16068E-04 2.99676E-15
 -1      4030 9.10820E-03 1.17275E-04 2.90478E-15
 -1      4031 9.00862E-03 8.31902E-05 2.65779E-15
 -1      4032 4.82184E-03 1.93687E-04 9.52092E-16
 -1      4033 4.67853E-03 1.94468E-04 9.05241E-16
 -1      4034 8.99667E-03-4.56364E-05 1.79507E-15
 -1      4035 8.99675E-03-2.11848E-05 2.00257E-15
 -1      4036 9.30282E-03 2.28559E-05 2.62314E-15
 -1      4037 9.42056E-03 3.61027E-05 2.79393E-15
 -1      4038 9.44711E-03 6.64204E-05 2.93454E-15
 -1      4039 3.53085E-03 2.73816E-04 7.01452E-16
 -1      4040 3.38673E-03 2.73751E-04 6.55427E-16
 -1      4041 3.31224E-03 2.35746E-04 5.68515E-16
 -1      4042 3.60095E-03 2.35897E-04 6.52107E-16
 -1      4043 5.10804E-03 1.91919E-04 1.04937E-15
 -1      4044 4.96501E-03 1.92841E-04 1.00049E-15
 -1      4045 4.89287E-03 1.56144E-04 8.70614E-16
 -1      4046 5.17892E-03 1.54635E-04 9.62094E-16
 -1      4047 5.96247E-03 1.84511E-04 1.35073E-15
 -1      4048 5.82057E-03 1.86016E-04 1.29969E-15
 -1      4049 5.74874E-03 1.50752E-04 1.15028E-15
 -1      4050 6.03224E-03 1.48259E-04 1.24439E-15
 -1      4051 2.13405E-03-1.49670E-04-8.63567E-17
 -1      4052 2.27915E-03-1.52478E-04-9.13711E-17
 -1      4053 1.55440E-03 1.86154E-04 1.75614E-16
 -1      4054 1.67656E-03 1.74461E-04 1.83040E-16
 -1      4055 1.62660E-03-3.43897E-05 1.36881E-17
 -1      4056 1.86341E-03-1.46931E-04-7.94585E-17
 -1      4057 2.00804E-03-1.51085E-04-8.56926E-17
 -1      4058 2.07793E-03-1.17518E-04-5.25025E-17
 -1      4059 1.82618E-03-1.20426E-04-5.53214E-17
 -1      4060 9.05421E-03-9.35535E-05 1.37326E-15
 -1      4061 9.02041E-03-7.13591E-05 1.57617E-15
 -1      4062 9.11373E-03 3.15524E-05 2.47613E-15
 -1      4063 9.21574E-03 3.86542E-05 2.61605E-15
 -1      4064 2.42436E-03-1.54745E-04-9.62636E-17
 -1      4065 2.56963E-03-1.56522E-04-1.00763E-16
 -1      4066 2.34945E-03-1.17162E-04-5.13505E-17
 -1      4067 1.96513E-03 1.86253E-04 2.32900E-16
 -1      4068 1.82064E-03 1.80856E-04 2.07476E-16
 -1      4069 1.77706E-03 1.52113E-04 1.77918E-16
 -1      4070 2.64022E-03-1.19932E-04-5.33156E-17
 -1      4071 9.05163E-03-1.40413E-04 8.88050E-16
 -1      4072 2.80306E-03 1.95332E-04 3.85962E-16
 -1      4073 2.65799E-03 1.93887E-04 3.55591E-16
 -1      4074 4.24775E-03 1.96407E-04 7.68510E-16
 -1      4075 4.10389E-03 1.96914E-04 7.24464E-16
 -1      4076 9.01551E-03-1.06684E-04 1.19064E-15
 -1      4077 4.60616E-03 1.57419E-04 7.82631E-16
 -1      4078 4.53507E-03 1.95180E-04 8.59068E-16
 -1      4079 4.39148E-03 1.95830E-04 8.13829E-16
 -1      4080 1.77401E-03 1.14161E-04 1.45839E-16
 -1      4081 3.09299E-03 1.97157E-04 4.49917E-16
 -1      4082 2.94807E-03 1.96411E-04 4.16943E-16
 -1      4083 2.87326E-03 1.58213E-04 3.47053E-16
 -1      4084 2.25483E-03 1.94416E-04 2.85254E-16
 -1      4085 2.10989E-03 1.90736E-04 2.58623E-16
 -1      4086 2.06622E-03 1.61109E-04 2.23576E-16
 -1      4087 8.96965E-03-1.15191E-04 1.06074E-15
 -1      4088 1.75080E-03-1.70028E-05 3.30275E-17
 -1      4089 1.75158E-03-5.42325E-05 1.31460E-18
 -1      4090 1.77036E-03-7.41941E-05-1.52601E-17
 -1      4091 1.80684E-03-9.99383E-05-3.72288E-17
 -1      4092 1.93258E-03-9.83985E-05-3.44641E-17
 -1      4093 1.89465E-03-5.70811E-05 3.21195E-18
 -1      4094 8.99299E-03 6.50081E-06 2.19755E-15
 -1      4095 9.00455E-03 4.86181E-05 2.46642E-15
 -1      4096 8.88139E-03 5.39702E-05 2.38172E-15
 -1      4097 8.89104E-03-5.44056E-06 1.99860E-15
 -1      4098 8.92510E-03-5.83964E-05 1.58695E-15
 -1      4099 8.90813E-03-9.19597E-05 1.23825E-15
 -1      4100 3.95988E-03 1.97334E-04 6.81679E-16
 -1      4101 3.81574E-03 1.97666E-04 6.40289E-16
 -1      4102 4.03088E-03 1.59291E-04 6.18754E-16
 -1      4103 4.31882E-03 1.58474E-04 6.98687E-16
 -1      4104 2.52891E-03 1.95877E-04 3.34341E-16
 -1      4105 2.38381E-03 1.93482E-04 3.06219E-16
 -1      4106 2.34030E-03 1.63353E-04 2.65575E-16
 -1      4107 2.59876E-03 1.59634E-04 3.02032E-16
 -1      4108 3.14763E-03-8.41398E-05 1.05710E-17
 -1      4109 3.29280E-03-8.42685E-05 1.77538E-17
 -1      4110 3.43783E-03-8.43090E-05 2.66443E-17
 -1      4111 3.58271E-03-8.42597E-05 3.58871E-17
 -1      4112 3.36471E-03-4.61857E-05 8.92705E-17
 -1      4113 3.72742E-03-8.41523E-05 4.69731E-17
 -1      4114 3.87197E-03-8.39804E-05 6.02545E-17
 -1      4115 3.65458E-03-4.61073E-05 1.16931E-16
 -1      4116 4.01636E-03-8.37663E-05 7.38884E-17
 -1      4117 4.16057E-03-8.35060E-05 8.91621E-17
 -1      4118 3.94379E-03-4.58860E-05 1.49715E-16
 -1      4119 4.30461E-03-8.32157E-05 1.06076E-16
 -1      4120 4.44848E-03-8.28874E-05 1.23789E-16
 -1      4121 4.23230E-03-4.55709E-05 1.88150E-16
 -1      4122 4.59218E-03-8.25333E-05 1.44009E-16
 -1      4123 4.73570E-03-8.21455E-05 1.64853E-16
 -1      4124 4.52010E-03-4.51784E-05 2.31680E-16
 -1      4125 4.87904E-03-8.17326E-05 1.86564E-16
 -1      4126 5.02219E-03-8.12859E-05 2.10457E-16
 -1      4127 4.80718E-03-4.47197E-05 2.80131E-16
 -1      4128 5.16514E-03-8.08122E-05 2.35123E-16
 -1      4129 5.30788E-03-8.03019E-05 2.59992E-16
 -1      4130 5.09348E-03-4.41978E-05 3.34585E-16
 -1      4131 5.45039E-03-7.97612E-05 2.84969E-16
 -1      4132 5.59267E-03-7.91797E-05 3.11396E-16
 -1      4133 5.37894E-03-4.36106E-05 3.90719E-16
 -1      4134 5.73467E-03-7.85648E-05 3.38312E-16
 -1      4135 5.87639E-03-7.79049E-05 3.65078E-16
 -1      4136 5.66343E-03-4.29547E-05 4.50838E-16
 -1      4137 6.01779E-03-7.72108E-05 3.90828E-16
 -1      4138 6.15883E-03-7.64693E-05 4.16659E-16
 -1      4139 5.94677E-03-4.22300E-05 5.10619E-16
 -1      4140 6.29947E-03-7.56972E-05 4.42382E-16
 -1      4141 6.43967E-03-7.48793E-05 4.68687E-16
 -1      4142 6.22870E-03-4.14456E-05 5.68827E-16
 -1      4143 6.57938E-03-7.40419E-05 4.95995E-16
 -1      4144 6.71855E-03-7.31670E-05 5.25526E-16
 -1      4145 6.50891E-03-4.06265E-05 6.27970E-16
 -1      4146 6.85709E-03-7.22947E-05 5.57510E-16
 -1      4147 6.99497E-03-7.14030E-05 5.89521E-16
 -1      4148 6.78699E-03-3.98226E-05 6.92778E-16
 -1      4149 7.13208E-03-7.05510E-05 6.24013E-16
 -1      4150 7.26836E-03-6.97107E-05 6.60455E-16
 -1      4151 7.06243E-03-3.91203E-05 7.64132E-16
 -1      4152 7.40369E-03-6.89666E-05 6.98470E-16
 -1      4153 7.53801E-03-6.82808E-05 7.39589E-16
 -1      4154 7.33462E-03-3.86543E-05 8.44078E-16
 -1      4155 7.67116E-03-6.77710E-05 7.82360E-16
 -1      4156 7.80307E-03-6.73819E-05 8.26406E-16
 -1      4157 7.60282E-03-3.86210E-05 9.32211E-16
 -1      4158 7.93354E-03-6.72751E-05 8.73704E-16
 -1      4159 8.06248E-03-6.73613E-05 9.23686E-16
 -1      4160 7.86617E-03-3.92889E-05 1.02727E-15
 -1      4161 8.18966E-03-6.78639E-05 9.75660E-16
 -1      4162 8.31492E-03-6.86230E-05 1.03118E-15
 -1      4163 8.12355E-03-4.10034E-05 1.13326E-15
 -1      4164 8.43797E-03-6.99676E-05 1.09007E-15
 -1      4165 8.55862E-03-7.16393E-05 1.15076E-15
 -1      4166 8.37349E-03-4.41769E-05 1.25140E-15
 -1      4167 8.67888E-03-8.02854E-05 1.16174E-15
 -1      4168 8.79368E-03-8.28163E-05 1.22660E-15
 -1      4169 8.84693E-03-7.43811E-05 1.35403E-15
 -1      4170 8.61521E-03-5.55611E-05 1.32705E-15
 -1      4171 5.53490E-03 1.16112E-04 9.59600E-16
 -1      4172 5.39248E-03 1.16860E-04 9.15094E-16
 -1      4173 6.66347E-03 1.07073E-04 1.31824E-15
 -1      4174 6.52374E-03 1.08584E-04 1.27096E-15
 -1      4175 6.38355E-03 1.09959E-04 1.22431E-15
 -1      4176 6.24294E-03 1.11229E-04 1.17971E-15
 -1      4177 6.45255E-03 7.50934E-05 1.10540E-15
 -1      4178 7.21677E-03 9.96415E-05 1.52027E-15
 -1      4179 7.07938E-03 1.01737E-04 1.46747E-15
 -1      4180 7.48930E-03 9.49635E-05 1.63359E-15
 -1      4181 7.35342E-03 9.74006E-05 1.57480E-15
 -1      4182 7.28211E-03 6.70349E-05 1.38413E-15
 -1      4183 7.75846E-03 8.95569E-05 1.75111E-15
 -1      4184 7.62431E-03 9.23686E-05 1.69089E-15
 -1      4185 7.55268E-03 6.31770E-05 1.49095E-15
 -1      4186 8.02375E-03 8.33489E-05 1.88215E-15
 -1      4187 7.89159E-03 8.65731E-05 1.81659E-15
 -1      4188 7.81933E-03 5.85376E-05 1.60713E-15
 -1      4189 8.28474E-03 7.62381E-05 2.02183E-15
 -1      4190 8.15476E-03 7.99332E-05 1.95049E-15
 -1      4191 8.08140E-03 5.29525E-05 1.73315E-15
 -1      4192 8.54104E-03 6.80698E-05 2.17193E-15
 -1      4193 8.41341E-03 7.23089E-05 2.09578E-15
 -1      4194 8.33815E-03 4.61852E-05 1.86969E-15
 -1      4195 8.77497E-03 5.89113E-05 2.31481E-15
 -1      4196 8.64963E-03 6.37029E-05 2.23531E-15
 -1      4197 8.57143E-03 3.79013E-05 2.00221E-15
 -1      4198 8.78172E-03 2.83150E-05 2.12622E-15
 -1      4199 9.47375E-03 1.25035E-04 3.18040E-15
 -1      4200 9.35364E-03 8.04720E-05 2.92428E-15
 -1      4201 1.75174E-03 5.74084E-05 9.61010E-17
 -1      4202 1.75085E-03 2.01760E-05 6.46320E-17
 -1      4203 1.87567E-03 1.63905E-06 5.59990E-17
 -1      4204 8.81531E-03-4.79190E-05 1.57041E-15
 -1      4205 2.27510E-03-8.00702E-05-1.03541E-17
 -1      4206 2.42050E-03-8.12650E-05-8.30770E-18
 -1      4207 1.89782E-03 9.80770E-05 1.44985E-16
 -1      4208 2.56598E-03-8.22275E-05-5.63785E-18
 -1      4209 2.71147E-03-8.29570E-05-2.56143E-18
 -1      4210 2.49222E-03-4.48592E-05 3.82452E-17
 -1      4211 6.94134E-03 1.03656E-04 1.41515E-15
 -1      4212 6.80268E-03 1.05443E-04 1.36612E-15
 -1      4213 6.73154E-03 7.28969E-05 1.19300E-15
 -1      4214 7.00822E-03 7.02401E-05 1.28534E-15
 -1      4215 2.85694E-03-8.35093E-05 1.09775E-18
 -1      4216 3.00234E-03-8.38896E-05 5.32614E-18
 -1      4217 3.07424E-03-4.60564E-05 6.77491E-17
 -1      4218 2.78333E-03-4.56520E-05 5.12421E-17
 -1      4219 2.19121E-03 1.31788E-04 2.10742E-16
 -1      4220 2.04618E-03 1.28955E-04 1.90345E-16
 -1      4221 2.02354E-03 6.90324E-05 1.30023E-16
 -1      4222 2.32043E-03 1.30253E-04 2.26625E-16
 -1      4223 5.32080E-03 8.06625E-05 7.76885E-16
 -1      4224 5.24984E-03 1.17541E-04 8.71360E-16
 -1      4225 5.10700E-03 1.18171E-04 8.27883E-16
 -1      4226 4.39008E-03 1.20603E-04 6.25693E-16
 -1      4227 4.24619E-03 1.20962E-04 5.87624E-16
 -1      4228 3.74233E-03 1.59809E-04 5.42725E-16
 -1      4229 3.67145E-03 1.97879E-04 5.99171E-16
 -1      4230 3.52704E-03 1.97970E-04 5.59828E-16
 -1      4231 4.67737E-03 1.19761E-04 7.02929E-16
 -1      4232 4.53381E-03 1.20206E-04 6.64182E-16
 -1      4233 4.46151E-03 8.28281E-05 5.48796E-16
 -1      4234 5.81900E-03 1.14412E-04 1.04714E-15
 -1      4235 5.67707E-03 1.15303E-04 1.00316E-15
 -1      4236 5.60556E-03 7.96365E-05 8.59054E-16
 -1      4237 6.17168E-03 7.69058E-05 1.02252E-15
 -1      4238 6.10196E-03 1.12383E-04 1.13543E-15
 -1      4239 5.96063E-03 1.13447E-04 1.09080E-15
 -1      4240 2.02248E-03 2.95914E-05 9.18455E-17
 -1      4241 2.02226E-03-9.82005E-06 5.32885E-17
 -1      4242 2.17008E-03 5.88483E-05 1.33154E-16
 -1      4243 3.38248E-03 1.97895E-04 5.21691E-16
 -1      4244 3.23780E-03 1.97643E-04 4.84787E-16
 -1      4245 3.45317E-03 1.59928E-04 4.71438E-16
 -1      4246 2.25773E-03-1.25368E-05 6.36833E-17
 -1      4247 2.11102E-03-4.06228E-05 2.67662E-17
 -1      4248 3.16346E-03 1.59484E-04 4.05925E-16
 -1      4249 2.94408E-03 1.20815E-04 3.05460E-16
 -1      4250 2.79875E-03 1.20116E-04 2.81608E-16
 -1      4251 4.17362E-03 8.32978E-05 4.81291E-16
 -1      4252 4.10213E-03 1.21267E-04 5.51520E-16
 -1      4253 3.95791E-03 1.21526E-04 5.16555E-16
 -1      4254 8.70391E-03-3.87253E-05 1.54279E-15
 -1      4255 8.79381E-03-2.13651E-05 1.77332E-15
 -1      4256 8.78011E-03 5.31106E-06 1.96537E-15
 -1      4257 8.58697E-03-2.85818E-05 1.52551E-15
 -1      4258 9.23153E-03 6.42162E-05 2.75406E-15
 -1      4259 2.66931E-03 1.22967E-04 2.66158E-16
 -1      4260 2.53987E-03 1.25572E-04 2.50668E-16
 -1      4261 2.74049E-03 8.59449E-05 2.26802E-16
 -1      4262 4.96397E-03 1.18746E-04 7.86250E-16
 -1      4263 4.82076E-03 1.19278E-04 7.44264E-16
 -1      4264 5.03515E-03 8.15190E-05 6.98036E-16
 -1      4265 4.74869E-03 8.22354E-05 6.21072E-16
 -1      4266 6.48014E-03 1.70140E-05 8.69801E-16
 -1      4267 6.34019E-03 1.73157E-05 8.32396E-16
 -1      4268 3.29188E-03-8.07207E-06 1.49078E-16
 -1      4269 3.43700E-03-8.03934E-06 1.65707E-16
 -1      4270 3.58197E-03-8.00667E-06 1.82796E-16
 -1      4271 3.72677E-03-7.96193E-06 2.01431E-16
 -1      4272 3.50962E-03 3.01262E-05 2.44975E-16
 -1      4273 3.91407E-03 1.88474E-05 2.85620E-16
 -1      4274 4.05846E-03 1.88450E-05 3.10272E-16
 -1      4275 4.20267E-03 1.88249E-05 3.36360E-16
 -1      4276 4.34671E-03 1.88079E-05 3.63316E-16
 -1      4277 4.49057E-03 1.87744E-05 3.91587E-16
 -1      4278 4.63425E-03 1.87426E-05 4.21131E-16
 -1      4279 4.77774E-03 1.86951E-05 4.52492E-16
 -1      4280 4.92103E-03 1.86478E-05 4.84178E-16
 -1      4281 5.06413E-03 1.85837E-05 5.17192E-16
 -1      4282 5.20701E-03 1.85177E-05 5.51303E-16
 -1      4283 5.34967E-03 1.84318E-05 5.85957E-16
 -1      4284 5.49209E-03 1.83412E-05 6.20611E-16
 -1      4285 5.63425E-03 1.82251E-05 6.55888E-16
 -1      4286 5.77613E-03 1.81008E-05 6.92128E-16
 -1      4287 5.91769E-03 1.79424E-05 7.28096E-16
 -1      4288 6.05892E-03 1.77711E-05 7.62614E-16
 -1      4289 6.19976E-03 1.75531E-05 7.97146E-16
 -1      4290 6.61959E-03 1.66838E-05 9.05892E-16
 -1      4291 6.75845E-03 1.62648E-05 9.43202E-16
 -1      4292 6.89669E-03 1.58041E-05 9.84821E-16
 -1      4293 7.03422E-03 1.52212E-05 1.02679E-15
 -1      4294 7.17098E-03 1.45781E-05 1.06902E-15
 -1      4295 7.30689E-03 1.37673E-05 1.11423E-15
 -1      4296 7.44185E-03 1.28706E-05 1.16277E-15
 -1      4297 7.57579E-03 1.17452E-05 1.21252E-15
 -1      4298 7.70860E-03 1.04994E-05 1.26387E-15
 -1      4299 7.84017E-03 8.94349E-06 1.31854E-15
 -1      4300 7.97037E-03 7.22393E-06 1.37595E-15
 -1      4301 8.09910E-03 5.08574E-06 1.43479E-15
 -1      4302 8.22618E-03 2.73758E-06 1.49594E-15
 -1      4303 8.35151E-03-1.90654E-07 1.56118E-15
 -1      4304 8.47483E-03-3.32764E-06 1.62931E-15
 -1      4305 2.03956E-03-7.50945E-05-1.05439E-17
 -1      4306 2.31140E-03 2.59502E-05 1.10141E-16
 -1      4307 2.39987E-03-5.57126E-06 8.02445E-17
 -1      4308 3.23446E-03 1.21638E-04 3.58234E-16
 -1      4309 3.08933E-03 1.21317E-04 3.30858E-16
 -1      4310 3.01546E-03 8.31826E-05 2.60534E-16
 -1      4311 2.54542E-03-5.61984E-06 8.96093E-17
 -1      4312 2.05862E-03-9.62267E-05-3.11030E-17
 -1      4313 3.77035E-03 9.49887E-05 4.17852E-16
 -1      4314 3.62571E-03 9.50687E-05 3.88361E-16
 -1      4315 3.84207E-03 5.69001E-05 3.53179E-16
 -1      4316 2.31233E-03 6.70244E-05 1.55515E-16
 -1      4317 8.57383E-03 1.48887E-05 1.84412E-15
 -1      4318 2.75320E-03 1.83458E-05 1.37409E-16
 -1      4319 2.89874E-03 1.85058E-05 1.51233E-16
 -1      4320 3.04419E-03 1.86067E-05 1.65829E-16
 -1      4321 3.18954E-03 1.86976E-05 1.82214E-16
 -1      4322 5.88925E-03 7.84008E-05 9.40464E-16
 -1      4323 3.48090E-03 9.50631E-05 3.59860E-16
 -1      4324 3.33594E-03 9.49904E-05 3.33080E-16
 -1      4325 3.26258E-03 5.68310E-05 2.55980E-16
 -1      4326 2.39118E-03 9.46207E-05 1.95143E-16
 -1      4327 2.66182E-03 5.79704E-05 1.80601E-16
 -1      4328 8.67791E-03 1.03812E-05 1.90352E-15
 -1      4329 2.53218E-03 6.11098E-05 1.71033E-16
 -3
    1PSTEP                         2           1           1          
  100CL  101 1.000000000        4329                     0    1           1
 -4  STRESS      6    1
 -5  SXX         1    4    1    1
 -5  SYY         1    4    2    2
 -5  SZZ         1    4    3    3
 -5  SXY         1    4    1    2
 -5  SYZ         1    4    2    3
 -5  SZX         1    4    3    1
 -1         1 7.26404E-01-1.75964E-01-1.53487E+00-8.39238E-01 1.67411E-12-1.01635E-12
 -1         2-8.56848E-01-2.70570E+01-3.66485E+00-2.65808E-01 1.64441E-12 1.48565E-13
 -1         3 1.99787E+01-2.21313E-02 4.37522E-02-2.21738E-02-4.79135E-13-4.60269E-13
 -1         4 1.99541E+01-4.67918E-02 6.86269E-02 4.69501E-02 1.39607E-13-1.08082E-13
 -1         5 3.27685E+01 6.14282E+00 2.74250E+00 6.22435E+00-8.26422E-15 4.69277E-13
 -1         6 3.57526E+01 1.22635E+01 5.12552E+00-8.64672E+00-4.88498E-14-5.20861E-13
 -1         7 2.08190E+01 6.09978E+00-1.28638E-01-4.72554E+00-8.03524E-15-5.60080E-13
 -1         8 1.96720E+01 5.93503E+00 5.09579E-02-3.27485E+00 6.47399E-15-4.47707E-13
 -1         9 1.91377E+01 5.77201E+00 4.91752E-02-2.52663E+00 1.04673E-14-3.42519E-13
 -1        10 1.88948E+01 5.69207E+00 5.09420E-02-1.95125E+00 1.15767E-14-2.48532E-13
 -1        11 1.87735E+01 5.65119E+00 5.02765E-02-1.45634E+00 1.20711E-14-1.77563E-13
 -1        12 1.87102E+01 5.62963E+00 4.88549E-02-1.01531E+00 1.28851E-14-1.26147E-13
 -1        13 1.86766E+01 5.61818E+00 4.74477E-02-5.95420E-01 1.00678E-14-7.19565E-14
 -1        14 1.86625E+01 5.61334E+00 4.67136E-02-1.91211E-01 1.16949E-14-1.98181E-14
 -1        15 1.86630E+01 5.61350E+00 4.67535E-02 2.08249E-01 1.27752E-14 2.17716E-14
 -1        16 1.86781E+01 5.61866E+00 4.75728E-02 6.13276E-01 1.14392E-14 6.10421E-14
 -1        17 1.87129E+01 5.63036E+00 4.90856E-02 1.03508E+00 1.04918E-14 1.12593E-13
 -1        18 1.87777E+01 5.65238E+00 5.08324E-02 1.47919E+00 1.06430E-14 1.83377E-13
 -1        19 1.89009E+01 5.69377E+00 5.15381E-02 1.98032E+00 1.07744E-14 2.57638E-13
 -1        20 1.91425E+01 5.77449E+00 4.87855E-02 2.56391E+00 1.06807E-14 3.41730E-13
 -1        21 1.96675E+01 5.94962E+00 4.59232E-02 3.30886E+00 5.74540E-15 4.49025E-13
 -1        22 2.12018E+01 6.38154E+00 1.39702E-01 4.52309E+00-2.01228E-15 5.33107E-13
 -1        23 2.30300E+01-1.37923E+00-9.38310E-01-7.11189E-01-3.39138E-14-6.49605E-13
 -1        24 1.93672E+01-9.94813E-02-3.09824E-01 6.32234E-02-5.28744E-15-7.23217E-13
 -1        25 1.86789E+01-5.63103E-02-6.87550E-02 6.07471E-02-4.50204E-15-7.79847E-13
 -1        26 1.84763E+01-2.20865E-02-6.45482E-03 3.29391E-02-1.79750E-15-8.45426E-13
 -1        27 1.84872E+01-1.17930E-02 1.55978E-03 2.26000E-02 2.64318E-15-8.35033E-13
 -1        28 1.86010E+01-6.23382E-03 1.78290E-03 1.63115E-02 5.25854E-15-8.21413E-13
 -1        29 1.87604E+01-3.06988E-03 1.75461E-03 1.21472E-02-7.62628E-15-8.90303E-13
 -1        30 1.89339E+01-1.21550E-03 1.93755E-03 9.17906E-03 1.43589E-14-9.16828E-13
 -1        31 1.91038E+01-1.22703E-04 2.09743E-03 6.94638E-03-1.39565E-14-9.51224E-13
 -1        32 1.92604E+01 4.97509E-04 2.12811E-03 5.21239E-03-1.89492E-14-1.05020E-12
 -1        33 1.93988E+01 8.12963E-04 2.03359E-03 3.84539E-03 5.54452E-14-1.06118E-12
 -1        34 1.95175E+01 9.26971E-04 1.84888E-03 2.76245E-03 2.01030E-14-9.59567E-13
 -1        35 1.96168E+01 9.05610E-04 1.60648E-03 1.90522E-03-8.75817E-15-1.05772E-12
 -1        36 1.96986E+01 7.91194E-04 1.32856E-03 1.22974E-03-6.58375E-16-1.03511E-12
 -1        37 1.97656E+01 6.09639E-04 1.02686E-03 7.02074E-04-2.98615E-14-8.83910E-13
 -1        38 1.98213E+01 3.74844E-04 7.04068E-04 2.96641E-04-4.06707E-15-8.83706E-13
 -1        39 1.98694E+01 9.15635E-05 3.55101E-04-4.13830E-06-7.22748E-15-8.37290E-13
 -1        40 1.99145E+01-2.42557E-04-3.18954E-05-2.09432E-04 1.25053E-14-9.80613E-13
 -1        41 1.99615E+01-6.35390E-04-4.74906E-04-3.18986E-04-1.49947E-14-1.11161E-12
 -1        42 2.00163E+01-1.09886E-03-9.97635E-04-3.21464E-04-1.66112E-14-1.07632E-12
 -1        43 2.00858E+01-1.64729E-03-1.62915E-03-1.91969E-04-4.50456E-14-9.67340E-13
 -1        44 2.01781E+01-2.29497E-03-2.40320E-03 1.11507E-04 1.07183E-14-7.66797E-13
 -1        45 2.03033E+01-3.05227E-03-3.35632E-03 6.52972E-04-4.59051E-14-8.27566E-13
 -1        46 2.04732E+01-3.91871E-03-4.52309E-03 1.52473E-03 3.18152E-14-7.94688E-13
 -1        47 2.07019E+01-4.87080E-03-5.92477E-03 2.85445E-03-9.45923E-15-4.41598E-13
 -1        48 2.10057E+01-5.84116E-03-7.54437E-03 4.81048E-03 1.31211E-14-6.19082E-13
 -1        49 2.14024E+01-6.68416E-03-9.27488E-03 7.59807E-03 4.53769E-14-7.02046E-13
 -1        50 2.19093E+01-7.12339E-03-1.08189E-02 1.14291E-02 7.11481E-15-6.69565E-13
 -1        51 2.25392E+01-6.68207E-03-1.15122E-02 1.64283E-02-8.85419E-15-4.96971E-13
 -1        52 2.32929E+01-4.61657E-03-1.00607E-02 2.24051E-02-1.89043E-14-3.88607E-13
 -1        53 2.41445E+01 7.41050E-05-4.27421E-03 2.83896E-02-5.99671E-14-7.06851E-13
 -1        54 2.50209E+01 8.40346E-03 8.88416E-03 3.18446E-02 1.95957E-14-7.55583E-13
 -1        55 2.57743E+01 2.06398E-02 3.20880E-02 2.77199E-02-3.95224E-14-6.07826E-13
 -1        56 2.61630E+01 3.48042E-02 6.41184E-02 8.25405E-03-2.45841E-14-7.51930E-13
 -1        57 2.58707E+01 4.50277E-02 9.40074E-02-3.40203E-02 1.16586E-13-4.12677E-13
 -1        58 2.46194E+01 4.17081E-02 9.70935E-02-9.69730E-02-3.79193E-14-4.30982E-13
 -1        59 2.24024E+01 1.72823E-02 4.68890E-02-1.56137E-01 1.28096E-14-5.91610E-13
 -1        60 1.97306E+01-2.38469E-02-5.48512E-02-1.65854E-01-3.93576E-14-3.90070E-13
 -1        61 1.75995E+01-6.03844E-02-1.53090E-01-9.41233E-02 2.90809E-14-8.02636E-13
 -1        62 1.69652E+01-6.82198E-02-1.75166E-01 3.21165E-02-1.12388E-13-1.26554E-12
 -1        63 1.80383E+01-4.14944E-02-1.00898E-01 1.34453E-01 5.08218E-14-1.05320E-12
 -1        64 2.01050E+01 1.17219E-03 9.95890E-03 1.57534E-01-3.79800E-14-9.24080E-13
 -1        65 2.20905E+01 3.42081E-02 8.63643E-02 1.12095E-01 1.35404E-14-7.09093E-13
 -1        66 2.32395E+01 4.51229E-02 1.03300E-01 4.32894E-02 1.14464E-13-1.28822E-13
 -1        67 2.33637E+01 3.70877E-02 7.87821E-02-1.29070E-02 3.94650E-15 1.24381E-13
 -1        68 2.26902E+01 1.90265E-02 3.79795E-02-4.45444E-02-6.57998E-14 1.02203E-13
 -1        69 2.16181E+01-1.35581E-03-4.55969E-03-5.27378E-02 1.82938E-13-7.90739E-14
 -1        70 2.05799E+01-1.43289E-02-3.76125E-02-3.36525E-02 7.88242E-14 4.20152E-13
 -1        71 1.99868E+01 8.54148E-03-2.24658E-02 7.29662E-03-1.83116E-13 3.32066E-14
 -1        72 2.10425E+01-4.04892E-01-9.80412E-01-3.11608E-01-1.95538E-14 5.99160E-13
 -1        73 1.93318E+01-6.58818E-02-2.91129E-01-5.38308E-02 8.62374E-15 6.69579E-13
 -1        74 1.86883E+01-2.05037E-02-6.42676E-02-2.03443E-02-1.23442E-14 7.52214E-13
 -1        75 1.84853E+01-9.87559E-03-9.30550E-03-1.54441E-02 3.05897E-15 8.08202E-13
 -1        76 1.84963E+01-5.16119E-03 6.87516E-04-1.23758E-02 5.29432E-15 7.67844E-13
 -1        77 1.86093E+01-2.60930E-03 1.75495E-03-1.01031E-02-1.30130E-14 8.02697E-13
 -1        78 1.87676E+01-1.13899E-03 1.89378E-03-8.35906E-03-1.54102E-14 9.69410E-13
 -1        79 1.89401E+01-2.76018E-04 2.08925E-03-6.91942E-03 2.18952E-14 1.01131E-12
 -1        80 1.91091E+01 2.20322E-04 2.23005E-03-5.67731E-03-1.23650E-15 8.88185E-13
 -1        81 1.92648E+01 4.84427E-04 2.23801E-03-4.59006E-03 2.58209E-14 8.29211E-13
 -1        82 1.94025E+01 5.97046E-04 2.12204E-03-3.63803E-03-4.55632E-15 9.53623E-13
 -1        83 1.95205E+01 6.08896E-04 1.91744E-03-2.80819E-03 4.82754E-15 1.09261E-12
 -1        84 1.96193E+01 5.52385E-04 1.65637E-03-2.08824E-03 1.13612E-14 1.13445E-12
 -1        85 1.97007E+01 4.47806E-04 1.36062E-03-1.46509E-03-5.45881E-15 1.00992E-12
 -1        86 1.97676E+01 3.06943E-04 1.04156E-03-9.25067E-04-1.15281E-14 8.18585E-13
 -1        87 1.98232E+01 1.35393E-04 7.01713E-04-4.54991E-04-3.71188E-14 8.31783E-13
 -1        88 1.98714E+01-6.57197E-05 3.36397E-04-4.35847E-05-2.28990E-14 9.89209E-13
 -1        89 1.99167E+01-2.98274E-04-6.48249E-05 3.16869E-04 3.71135E-14 9.09688E-13
 -1        90 1.99640E+01-5.65654E-04-5.16642E-04 6.28496E-04 1.35890E-14 5.24503E-13
 -1        91 2.00190E+01-8.70964E-04-1.03618E-03 8.85303E-04-4.87458E-15 5.44673E-13
 -1        92 2.00880E+01-1.21461E-03-1.64039E-03 1.06996E-03-3.77507E-14 9.10710E-13
 -1        93 2.01787E+01-1.59088E-03-2.34202E-03 1.14966E-03 7.31683E-14 9.99770E-13
 -1        94 2.02993E+01-1.98284E-03-3.14283E-03 1.07097E-03 1.27948E-14 4.38702E-13
 -1        95 2.04595E+01-2.35505E-03-4.02236E-03 7.53762E-04-2.26842E-15 4.11450E-13
 -1        96 2.06691E+01-2.64335E-03-4.91932E-03 8.53057E-05-4.13600E-14 1.02654E-12
 -1        97 2.09378E+01-2.74177E-03-5.70196E-03-1.08245E-03-2.99457E-14 1.39860E-12
 -1        98 2.12731E+01-2.48852E-03-6.12369E-03-2.92559E-03-2.07671E-15 1.17633E-12
 -1        99 2.16776E+01-1.65719E-03-5.76379E-03-5.61663E-03-1.27649E-14 8.42082E-13
 -1       100 2.21440E+01 3.15174E-05-3.96718E-03-9.24314E-03-6.28331E-14 9.01453E-13
 -1       101 2.26486E+01 2.84814E-03 1.68402E-04-1.36378E-02 1.16410E-13 7.38441E-13
 -1       102 2.31422E+01 6.89786E-03 7.64050E-03-1.80823E-02-3.06191E-14 5.28655E-13
 -1       103 2.35415E+01 1.18321E-02 1.90274E-02-2.09026E-02-4.44944E-14 9.18466E-13
 -1       104 2.37254E+01 1.64698E-02 3.34097E-02-1.91579E-02 2.38681E-14 1.32657E-12
 -1       105 2.35469E+01 1.85657E-02 4.68536E-02-8.98332E-03 4.45323E-14 1.12287E-12
 -1       106 2.28735E+01 1.53494E-02 5.16041E-02 1.25055E-02-1.18562E-13 1.14332E-12
 -1       107 2.16634E+01 5.35712E-03 3.83942E-02 4.32910E-02-2.30747E-14 9.06004E-13
 -1       108 2.00563E+01-9.40457E-03 3.46244E-03 7.28506E-02 3.62731E-14 6.77229E-13
 -1       109 1.84100E+01-2.29339E-02-4.42071E-02 8.45849E-02 2.50559E-16 1.24954E-12
 -1       110 1.72109E+01-2.80947E-02-8.23139E-02 6.53177E-02-1.31219E-14 1.32644E-12
 -1       111 1.68492E+01-2.23185E-02-8.77155E-02 1.90612E-02-9.37987E-15 1.15964E-12
 -1       112 1.73869E+01-9.17539E-03-5.66345E-02-3.18867E-02-1.46779E-13 1.10693E-12
 -1       113 1.85170E+01 4.63549E-03-7.69848E-03-6.38275E-02 7.24511E-14 9.51583E-13
 -1       114 1.97494E+01 1.35770E-02 3.31917E-02-6.72363E-02-7.64093E-14 1.05643E-12
 -1       115 2.06645E+01 1.57523E-02 5.15697E-02-4.87606E-02-1.76308E-14 4.42849E-13
 -1       116 2.10657E+01 1.21017E-02 4.74531E-02-2.16593E-02 7.65329E-14 1.10904E-13
 -1       117 2.09838E+01 5.01016E-03 2.83220E-02 3.13968E-03-2.87940E-14-5.43914E-13
 -1       118 2.06030E+01-2.44377E-03 2.92796E-03 1.88825E-02 2.29583E-14-2.69702E-13
 -1       119 2.01796E+01-6.79269E-03-1.74944E-02 2.00098E-02-3.61037E-14-6.62185E-13
 -1       120 1.99722E+01 1.06983E-02-1.52817E-03-4.04936E-03 2.08845E-13-5.82509E-13
 -1       121 1.99966E+01-1.39413E-02-6.65001E-03-1.57490E-02-3.46498E-13 2.66038E-13
 -1       122 1.99808E+01 2.08308E-01-3.22398E-02 2.74698E-03 5.57733E-13-5.76758E-14
 -1       123 1.99796E+01 8.07079E-01-3.55188E-02 1.89091E-02 1.34272E-12 1.54621E-13
 -1       124 1.99819E+01 1.77315E+00-3.33651E-02 3.60425E-02 1.25077E-12 2.20977E-14
 -1       125 1.99899E+01 3.07564E+00-2.23884E-02 5.33873E-02 1.11089E-12-2.36325E-13
 -1       126 2.00035E+01 4.56880E+00-4.48071E-04 6.39148E-02-9.61963E-13-8.52757E-14
 -1       127 2.00205E+01 6.06449E+00 2.99066E-02 6.14921E-02-1.28826E-12 1.36571E-13
 -1       128 2.00359E+01 7.22163E+00 5.88036E-02 4.13192E-02-1.19746E-12 1.35472E-13
 -1       129 2.00437E+01 7.74236E+00 7.40453E-02 7.14116E-03-1.04736E-12 3.81917E-14
 -1       130 2.00409E+01 7.47146E+00 6.86939E-02-3.01733E-02-8.20951E-13 5.68556E-15
 -1       131 2.00281E+01 6.46583E+00 4.53768E-02-5.89326E-02-1.27410E-12-3.72442E-13
 -1       132 2.00112E+01 4.99198E+00 1.50922E-02-7.02114E-02-2.61072E-12 1.96356E-13
 -1       133 1.99944E+01 3.32083E+00-1.38812E-02-6.71260E-02-1.43893E-12 1.44469E-13
 -1       134 1.99777E+01 1.77253E+00-3.91853E-02-5.65659E-02-9.04294E-14 1.00241E-14
 -1       135 1.99761E+01 6.19902E-01-4.61335E-02-4.50468E-02 1.79348E-13-2.28815E-13
 -1       136 1.99748E+01 5.24909E-02-1.86938E-02 2.96032E-02-1.84988E-13 1.70132E-13
 -1       137-1.75941E+00-2.09847E+01-3.25599E+00-4.16684E+00 3.46723E-13-1.43344E-13
 -1       138-1.14991E+00-7.19167E+00-2.17767E+00-2.28720E+00-1.33626E-12-6.14481E-13
 -1       139 5.21204E+00 5.36153E+00-7.20685E-01 5.47886E+00-1.18933E-12-9.46632E-13
 -1       140 2.13144E+01 1.14630E+01 9.34515E-01 1.54225E+01-9.70612E-13-1.03478E-12
 -1       141 4.18248E+01 9.36014E+00 2.34988E+00 1.90930E+01-7.82846E-13-1.73495E-12
 -1       142 5.99313E+01 3.96183E+00 3.29678E+00 1.33301E+01-4.88769E-13-2.79998E-12
 -1       143 6.76068E+01 9.64315E-01 3.62729E+00 6.98655E-01-9.71306E-14-3.04798E-12
 -1       144 6.11182E+01 3.14674E+00 3.28447E+00-1.20246E+01 5.39083E-13-2.15228E-12
 -1       145 4.26092E+01 8.59998E+00 2.28024E+00-1.84643E+01 9.10050E-13-2.13413E-12
 -1       146 2.25373E+01 1.12682E+01 9.51868E-01-1.57161E+01 9.22540E-13-1.33876E-12
 -1       147 6.92697E+00 6.74258E+00-5.38558E-01-7.07733E+00 6.47371E-13-6.15341E-13
 -1       148-7.24680E-01-4.89504E+00-1.91599E+00 1.41884E+00 4.22939E-13-2.34701E-13
 -1       149-1.74096E+00-1.80249E+01-2.93303E+00 4.29602E+00 2.58904E-13-2.31974E-13
 -1       150-8.47982E-01-2.52371E+01-3.39102E+00 9.53458E-01-6.85216E-13-5.77906E-14
 -1       151-1.40030E+00-2.25221E+01-3.25029E+00-3.54313E+00-6.59917E-13-1.31995E-14
 -1       152-1.92721E+00-1.15362E+01-2.54256E+00-3.97400E+00-8.98892E-13-5.50782E-13
 -1       153 1.40368E+00 9.94006E-01-1.41912E+00 1.67486E+00-1.21719E-12-7.05269E-13
 -1       154 1.47023E+01 9.50071E+00 1.81126E-01 1.16760E+01-8.39551E-13-8.79463E-13
 -1       155 3.50165E+01 9.79609E+00 1.76051E+00 1.79642E+01-3.62488E-13-8.47045E-13
 -1       156 5.51740E+01 5.16918E+00 3.02431E+00 1.56916E+01-1.74791E-13-1.28675E-13
 -1       157 6.77234E+01 1.12510E+00 3.74988E+00 4.76447E+00-6.59611E-14-4.57134E-14
 -1       158 6.58457E+01 2.16666E+00 3.70777E+00-9.34670E+00-1.11926E-13 7.58005E-14
 -1       159 4.99356E+01 7.51124E+00 2.85711E+00-1.84012E+01-3.31735E-13 5.20084E-13
 -1       160 2.88712E+01 1.15879E+01 1.49589E+00-1.79642E+01 1.61149E-13 7.34968E-14
 -1       161 1.13813E+01 9.53905E+00-1.23795E-02-1.04172E+01 1.22957E-12-1.27642E-12
 -1       162-1.89773E+00-1.24257E+01-2.65312E+00 4.17641E+00 1.76109E-12-8.71497E-13
 -1       163-1.36653E+00-2.30163E+01-3.39813E+00 3.99704E+00 1.20928E-12-2.32318E-13
 -1       164 2.10135E+01 3.69403E+00-5.73440E-02-3.61040E+00-3.81986E-15-4.42504E-13
 -1       165 1.99910E+01 4.20779E+00-4.57388E-02-2.80962E+00 6.16278E-14-3.47809E-13
 -1       166 1.95091E+01 4.47691E+00-3.16119E-02-2.19439E+00 9.88571E-14-2.57083E-13
 -1       167 1.92670E+01 4.61517E+00-2.37711E-02-1.67569E+00 1.30845E-13-1.93590E-13
 -1       168 1.91373E+01 4.69669E+00-1.94854E-02-1.21933E+00 1.34562E-13-1.38842E-13
 -1       169 1.90635E+01 4.74778E+00-1.74123E-02-7.92166E-01 1.38047E-13-9.56232E-14
 -1       170 1.90263E+01 4.77567E+00-1.64219E-02-3.86933E-01 1.33093E-13-4.01797E-14
 -1       171 1.90154E+01 4.78420E+00-1.61347E-02 8.28481E-03 1.47305E-13 1.04266E-14
 -1       172 1.90279E+01 4.77438E+00-1.64679E-02 4.03849E-01 1.49105E-13 4.10106E-14
 -1       173 1.90671E+01 4.74485E+00-1.75215E-02 8.10167E-01 1.33522E-13 7.77520E-14
 -1       174 1.91416E+01 4.69243E+00-1.96892E-02 1.23170E+00 1.24445E-13 1.37329E-13
 -1       175 1.92771E+01 4.60529E+00-2.40086E-02 1.69843E+00 1.16209E-13 2.05527E-13
 -1       176 1.95239E+01 4.45953E+00-3.28527E-02 2.22681E+00 9.54566E-14 2.68702E-13
 -1       177 2.00134E+01 4.18383E+00-4.72143E-02 2.84703E+00 6.23139E-14 3.48461E-13
 -1       178 2.11352E+01 3.46368E+00-5.97814E-02 3.53691E+00-4.03844E-15 4.30045E-13
 -1       179 2.24196E+01 1.14338E+00-3.36472E-01 3.01496E+00-4.39605E-14 4.83003E-13
 -1       180 2.19718E+01 8.58286E-01 6.69271E-04-1.95912E+00-1.46688E-14-4.55459E-13
 -1       181 2.04472E+01 1.90242E-01-9.97480E-03-7.64206E-01-3.55965E-15-4.28740E-13
 -1       182 1.96717E+01 1.01531E-01 1.35717E-02-2.85771E-01-2.54909E-14-4.09734E-13
 -1       183 1.93317E+01 4.72893E-02 1.00069E-02-6.83847E-02 1.48813E-14-4.10570E-13
 -1       184 1.92017E+01 2.25547E-02 5.13939E-03 3.90706E-02 2.17870E-15-4.00471E-13
 -1       185 1.91880E+01 9.46730E-03 2.43508E-03 9.16073E-02-2.77871E-14-3.87671E-13
 -1       186 1.92362E+01 2.07648E-03 1.13002E-03 1.13870E-01-3.25543E-15-3.86301E-13
 -1       187 1.93149E+01-2.14458E-03 4.94811E-04 1.18705E-01-1.06520E-14-4.05800E-13
 -1       188 1.94053E+01-4.43257E-03 1.60466E-04 1.13539E-01-4.95783E-14-3.63712E-13
 -1       189 1.94965E+01-5.47797E-03-2.34426E-05 1.02997E-01-1.65721E-14-3.21292E-13
 -1       190 1.95820E+01-5.71059E-03-1.20090E-04 9.00781E-02 2.52055E-15-5.02600E-13
 -1       191 1.96590E+01-5.40964E-03-1.60545E-04 7.67551E-02-2.06130E-14-5.45800E-13
 -1       192 1.97263E+01-4.75634E-03-1.62720E-04 6.43387E-02 2.64715E-14-4.15434E-13
 -1       193 1.97846E+01-3.86262E-03-1.37695E-04 5.37160E-02 5.41084E-14-3.63514E-13
 -1       194 1.98353E+01-2.78847E-03-9.21859E-05 4.55210E-02-1.54584E-14-3.04335E-13
 -1       195 1.98808E+01-1.55324E-03-2.98070E-05 4.02627E-02-5.53855E-16-3.77415E-13
 -1       196 1.99239E+01-1.43665E-04 4.81217E-05 3.84255E-02-7.36620E-14-3.94785E-13
 -1       197 1.99683E+01 1.48036E-03 1.41968E-04 4.05489E-02-8.98765E-14-4.36800E-13
 -1       198 2.00181E+01 3.38115E-03 2.53250E-04 4.72922E-02-2.42298E-14-4.30697E-13
 -1       199 2.00782E+01 5.63886E-03 3.84033E-04 5.94855E-02 4.75895E-14-5.15457E-13
 -1       200 2.01546E+01 8.34579E-03 5.36105E-04 7.81653E-02 1.07001E-13-4.92331E-13
 -1       201 2.02540E+01 1.15968E-02 7.09673E-04 1.04588E-01-6.68018E-14-4.54657E-13
 -1       202 2.03846E+01 1.54712E-02 9.01198E-04 1.40203E-01 1.08084E-13-2.99962E-13
 -1       203 2.05554E+01 1.99967E-02 1.09981E-03 1.86555E-01 1.40789E-13-2.75459E-13
 -1       204 2.07768E+01 2.50813E-02 1.28162E-03 2.45054E-01-6.14442E-14-2.58304E-13
 -1       205 2.10594E+01 3.03860E-02 1.40161E-03 3.16487E-01-2.99541E-14-1.79272E-13
 -1       206 2.14135E+01 3.50997E-02 1.38394E-03 4.00118E-01-4.38018E-17-2.86020E-13
 -1       207 2.18462E+01 3.75683E-02 1.11565E-03 4.92056E-01 9.15560E-14-2.75741E-13
 -1       208 2.23583E+01 3.47519E-02 4.55655E-04 5.82587E-01 3.15224E-14-2.06185E-13
 -1       209 2.29380E+01 2.16178E-02-7.18192E-04 6.52210E-01-1.63261E-13-2.48238E-13
 -1       210 2.35520E+01-9.04880E-03-2.40147E-03 6.66912E-01-3.84465E-14-2.06259E-13
 -1       211 2.41361E+01-6.50652E-02-4.26640E-03 5.75249E-01 4.70938E-14-1.45686E-13
 -1       212 2.45856E+01-1.49051E-01-5.53671E-03 3.14119E-01 3.88079E-14-1.06479E-13
 -1       213 2.47585E+01-2.45674E-01-5.21200E-03-1.64196E-01 2.18039E-13 2.43995E-13
 -1       214 2.45026E+01-3.05162E-01-2.75262E-03-8.31396E-01-1.25957E-13 9.51032E-14
 -1       215 2.37297E+01-2.45677E-01-2.87865E-05-1.50388E+00-7.54206E-14 5.66144E-14
 -1       216 2.25362E+01-1.23412E-02 1.92102E-04-1.83031E+00-5.85270E-14-2.31870E-13
 -1       217 2.12898E+01 3.18512E-01-3.37921E-03-1.47515E+00-3.12534E-13-3.05065E-13
 -1       218 2.05224E+01 5.27232E-01-5.63008E-03-4.58253E-01-2.91637E-13-4.60177E-13
 -1       219 2.05733E+01 4.36688E-01-5.15853E-03 7.05399E-01-7.85717E-14-4.50204E-13
 -1       220 2.12983E+01 1.25342E-01-8.59839E-04 1.37487E+00 7.76154E-14-6.54258E-13
 -1       221 2.21934E+01-1.70223E-01 1.44617E-03 1.30457E+00 3.48799E-13-4.57079E-13
 -1       222 2.27917E+01-3.04304E-01-9.75536E-04 7.22519E-01 4.48011E-13 9.02850E-14
 -1       223 2.28888E+01-2.80688E-01-3.21720E-03 1.63123E-02 3.06945E-13 3.13205E-13
 -1       224 2.25258E+01-1.76561E-01-3.59276E-03-5.31729E-01 1.26513E-14 6.23009E-13
 -1       225 2.18738E+01-5.23762E-02-2.44644E-03-8.03935E-01-2.11696E-13 3.93127E-13
 -1       226 2.11377E+01 7.14141E-02-6.74055E-04-7.84408E-01 7.07367E-14-4.82218E-14
 -1       227 2.04828E+01 1.84517E-01-8.79232E-05-5.03766E-01-4.58814E-14-1.05492E-13
 -1       228 2.09635E+01 2.77024E-01-5.13345E-02 1.16499E+00-1.69031E-14 4.50244E-13
 -1       229 1.98686E+01 1.26835E-01 8.30991E-03 4.43297E-01-3.93739E-14 4.38509E-13
 -1       230 1.93621E+01 5.80517E-02 1.27337E-02 1.50285E-01 3.76608E-15 4.08760E-13
 -1       231 1.91522E+01 2.77045E-02 7.62649E-03 1.10516E-02 1.23404E-14 4.18692E-13
 -1       232 1.91021E+01 1.30497E-02 3.82089E-03-5.80243E-02-4.54691E-14 4.20870E-13
 -1       233 1.91375E+01 5.10152E-03 1.90473E-03-9.03867E-02-5.45248E-14 4.22684E-13
 -1       234 1.92162E+01 5.61734E-04 1.00363E-03-1.02087E-01-2.99667E-15 4.44204E-13
 -1       235 1.93133E+01-2.01561E-03 5.45108E-04-1.01857E-01 7.30469E-14 4.58348E-13
 -1       236 1.94144E+01-3.37214E-03 2.84344E-04-9.49268E-02 1.99761E-14 4.35560E-13
 -1       237 1.95110E+01-3.93979E-03 1.27328E-04-8.46070E-02-9.54670E-14 4.13594E-13
 -1       238 1.95988E+01-3.99026E-03 3.43252E-05-7.30542E-02-2.66660E-14 4.29794E-13
 -1       239 1.96759E+01-3.70019E-03-1.54478E-05-6.16902E-02 3.20047E-15 4.45673E-13
 -1       240 1.97424E+01-3.18335E-03-3.48207E-05-5.14613E-02 9.11754E-14 4.97888E-13
 -1       241 1.97995E+01-2.50850E-03-3.22828E-05-4.30136E-02 2.21788E-14 4.30935E-13
 -1       242 1.98492E+01-1.71069E-03-1.35317E-05-3.68202E-02 3.45271E-15 4.49352E-13
 -1       243 1.98943E+01-7.99418E-04 1.76113E-05-3.32755E-02-2.38734E-14 3.02630E-13
 -1       244 1.99381E+01 2.35032E-04 5.85085E-05-3.27656E-02 1.07593E-13 2.23521E-13
 -1       245 1.99844E+01 1.41584E-03 1.07092E-04-3.57187E-02 1.08394E-13 2.05476E-13
 -1       246 2.00378E+01 2.77346E-03 1.61257E-04-4.26355E-02-1.30525E-13 3.46852E-13
 -1       247 2.01033E+01 4.33769E-03 2.18157E-04-5.40968E-02-1.39621E-13 4.22144E-13
 -1       248 2.01868E+01 6.12648E-03 2.73344E-04-7.07395E-02 4.47089E-14 4.29158E-13
 -1       249 2.02946E+01 8.12884E-03 3.19715E-04-9.31886E-02 2.07055E-13 4.14010E-13
 -1       250 2.04338E+01 1.02783E-02 3.46318E-04-1.21920E-01-6.40418E-14 2.19990E-13
 -1       251 2.06114E+01 1.24122E-02 3.37329E-04-1.57024E-01-3.25352E-13 3.12105E-13
 -1       252 2.08336E+01 1.42104E-02 2.71974E-04-1.97810E-01-1.25248E-13 5.66560E-13
 -1       253 2.11049E+01 1.51103E-02 1.27141E-04-2.42208E-01 4.53580E-14 6.47813E-13
 -1       254 2.14254E+01 1.42000E-02-1.14384E-04-2.85896E-01 1.92125E-13 6.24146E-13
 -1       255 2.17881E+01 1.01197E-02-4.46237E-04-3.21161E-01-1.56650E-13 4.78474E-13
 -1       256 2.21747E+01 1.05279E-03-8.09617E-04-3.35654E-01 7.61226E-14 6.31658E-13
 -1       257 2.25506E+01-1.49982E-02-1.06074E-03-3.11622E-01 3.61925E-14 5.64277E-13
 -1       258 2.28608E+01-3.93128E-02-9.67605E-04-2.26920E-01-1.94353E-13 5.19966E-13
 -1       259 2.30298E+01-7.05308E-02-2.88385E-04-6.01122E-02-4.79903E-14 5.01716E-13
 -1       260 2.29695E+01-1.01721E-01 1.00233E-03 1.97573E-01 5.19311E-14 7.52130E-13
 -1       261 2.26025E+01-1.17966E-01 2.35010E-03 5.22855E-01-1.28331E-14 5.54052E-13
 -1       262 2.19038E+01-9.86388E-02 2.71634E-03 8.40850E-01 1.54679E-13 4.26425E-13
 -1       263 2.09500E+01-3.04170E-02 1.16269E-03 1.02692E+00-8.65123E-15 6.42506E-13
 -1       264 1.99437E+01 7.38487E-02-2.25409E-03 9.56917E-01-2.46738E-13 8.49211E-13
 -1       265 1.91670E+01 1.69743E-01-5.72654E-03 5.90619E-01-8.55999E-15 8.87174E-13
 -1       266 1.88625E+01 1.99993E-01-6.13586E-03 4.09013E-02 9.10678E-14 1.12811E-12
 -1       267 1.90878E+01 1.45368E-01-2.58374E-03-4.64995E-01 3.43918E-14 9.37504E-13
 -1       268 1.96795E+01 4.09200E-02 2.32814E-03-7.28181E-01 7.68599E-14 8.07657E-13
 -1       269 2.03536E+01-5.62220E-02 4.89712E-03-6.91527E-01 9.45424E-16 7.33506E-13
 -1       270 2.08568E+01-1.07394E-01 4.48744E-03-4.40362E-01 3.62447E-13 6.14346E-13
 -1       271 2.10622E+01-1.07991E-01 2.47719E-03-1.19762E-01 3.66628E-13 2.28514E-13
 -1       272 2.09770E+01-7.31699E-02 2.02934E-04 1.45107E-01 1.26590E-13 1.17293E-13
 -1       273 2.07010E+01-2.10820E-02-1.91163E-03 2.79476E-01-1.10135E-13 2.75870E-13
 -1       274 2.03728E+01 3.54042E-02-2.48403E-03 2.56876E-01 2.52272E-13 3.31653E-13
 -1       275 2.01148E+01 6.85702E-02 7.70479E-04 1.09125E-01 6.00514E-14 1.33753E-13
 -1       276 2.01018E+01 2.43085E-01 2.47839E-03 2.27396E-01 3.32792E-13 7.41467E-13
 -1       277 2.01115E+01 6.07649E-01 2.94442E-03 4.77713E-01 5.20698E-13 3.72629E-13
 -1       278 2.01109E+01 1.17320E+00 2.11155E-03 7.48858E-01 4.17892E-13 3.16776E-14
 -1       279 2.00911E+01 1.95209E+00 1.03033E-03 9.97124E-01 2.96241E-13-1.62962E-14
 -1       280 2.00368E+01 2.88040E+00-1.10547E-03 1.15052E+00 2.22738E-13-1.17665E-12
 -1       281 1.99471E+01 3.87696E+00-3.26521E-03 1.12842E+00 6.50083E-14-3.45479E-13
 -1       282 1.98450E+01 4.74823E+00-5.05237E-03 8.69633E-01-4.00660E-14-9.76701E-14
 -1       283 1.97687E+01 5.29772E+00-6.01419E-03 3.90419E-01-3.33059E-13-1.33729E-13
 -1       284 1.97522E+01 5.38016E+00-6.16345E-03-2.03348E-01-5.72069E-13 4.28668E-14
 -1       285 1.98029E+01 4.96512E+00-5.45972E-03-7.54767E-01-7.78188E-13-5.24897E-14
 -1       286 1.98951E+01 4.16781E+00-3.71054E-03-1.12279E+00-4.41874E-13-5.61746E-13
 -1       287 1.99961E+01 3.13992E+00-1.51683E-03-1.25768E+00-2.64299E-13 4.45675E-13
 -1       288 2.00778E+01 2.09342E+00 9.03562E-04-1.16719E+00-4.25341E-13 6.77797E-13
 -1       289 2.01468E+01 1.18463E+00 2.30211E-03-8.90797E-01-3.88626E-13 3.71343E-13
 -1       290 2.02972E+01 6.14366E-01 3.83517E-03-7.79099E-01-2.13678E-13-1.68007E-13
 -1       291-5.53427E-01-1.03050E+01-7.65476E-01 1.76982E+00 1.65798E-13-8.71969E-13
 -1       292 4.70610E+00-8.42449E+00-5.42223E-01 5.05048E+00-8.06577E-14-1.12468E-12
 -1       293 1.12993E+01-4.85529E+00-4.35685E-01 6.18529E+00-6.20837E-13-2.97928E-13
 -1       294 2.35656E+01-2.24687E+00 1.86463E-02 6.93533E+00-4.83391E-13-6.78901E-13
 -1       295 3.26788E+01 3.44355E+00 4.82860E-01 7.77072E+00-4.62547E-13-1.49758E-12
 -1       296 4.13082E+01 5.67845E+00 7.84283E-01 5.58184E+00-3.25476E-13-1.88416E-12
 -1       297 4.38086E+01 7.41788E+00 6.79315E-01 1.62600E+00-2.23932E-13-1.51201E-12
 -1       298 4.71738E+01 6.69622E+00 1.01537E+00-1.61769E+00-1.54890E-13-1.70289E-12
 -1       299 4.18549E+01 5.59813E+00 7.97632E-01-4.85198E+00 3.80411E-13-1.15760E-12
 -1       300 3.31050E+01 3.55698E+00 4.92468E-01-7.45096E+00 3.47763E-13-1.16990E-12
 -1       301 2.25102E+01 3.47827E-01 4.92765E-02-7.49470E+00 4.32182E-13-9.72222E-13
 -1       302 1.41408E+01-4.79988E+00-2.37675E-01-6.63038E+00 4.03011E-13-7.45085E-13
 -1       303 5.01046E+00-7.67523E+00-5.42413E-01-4.81956E+00 2.67369E-13-2.88297E-13
 -1       304-3.05958E-01-1.05540E+01-8.49990E-01-1.92914E+00 7.10682E-14-4.04107E-13
 -1       305-1.11013E+00-1.02102E+01-7.57013E-01 6.26897E-01 1.11168E-13-1.18572E-13
 -1       306 1.97922E+00-9.30707E+00-7.36587E-01 3.11585E+00-2.87270E-13-3.77823E-13
 -1       307 7.84782E+00-6.37729E+00-6.07410E-01 4.82249E+00-4.44811E-13-3.97370E-13
 -1       308 1.82138E+01-2.70252E+00-1.65637E-01 6.63519E+00-5.13117E-13-3.22187E-13
 -1       309 2.97661E+01 2.87944E-01 1.77312E-01 5.64154E+00-3.85011E-13-6.18949E-14
 -1       310 3.90022E+01 4.42599E+00 6.43714E-01 5.31045E+00-2.86250E-13 7.60503E-15
 -1       311 4.64531E+01 6.25027E+00 1.05534E+00 2.94848E+00-1.10939E-13-2.30094E-14
 -1       312 4.86469E+01 6.83705E+00 1.17240E+00-1.05905E+00-5.45397E-14-1.74569E-13
 -1       313 4.44890E+01 6.27718E+00 9.45635E-01-4.51798E+00-1.34837E-13-2.82246E-13
 -1       314 3.68507E+01 4.40949E+00 6.71330E-01-7.42251E+00 3.58817E-13-5.21250E-14
 -1       315 2.66110E+01 1.35242E+00 2.17990E-01-7.95201E+00 9.11521E-13 1.77303E-13
 -1       316 1.66654E+01-3.06021E+00-2.25351E-01-7.03656E+00 7.45015E-13-5.05540E-13
 -1       317 7.29279E+00-6.89127E+00-6.88451E-01-4.93591E+00 1.02474E-12-6.54463E-13
 -1       318 1.97395E+00-1.02254E+01-9.16818E-01-3.15843E+00 6.58140E-13-6.43971E-13
 -1       319-1.00593E+00-1.20568E+01-1.03394E+00-1.02915E+00 7.91520E-13-9.36196E-14
 -1       320 2.01456E+01 3.01536E+00-1.78615E-02-2.11079E+00 8.09164E-14-2.51599E-13
 -1       321 2.07561E+01 2.20828E+00-1.78101E-02-2.36357E+00 4.42597E-14-3.26699E-13
 -1       322 1.95844E+01 3.69141E+00-1.50670E-02-1.31743E+00 1.47965E-13-1.37771E-13
 -1       323 1.94605E+01 3.84858E+00-1.35670E-02-9.23652E-01 1.62842E-13-1.13120E-13
 -1       324 1.93915E+01 3.93932E+00-1.26888E-02-5.43945E-01 1.66819E-13-5.85447E-14
 -1       325 1.93610E+01 3.98059E+00-1.22914E-02-1.73279E-01 1.81527E-13-6.08671E-15
 -1       326 1.93623E+01 3.97896E+00-1.23129E-02 1.94442E-01 1.78156E-13 2.96417E-14
 -1       327 1.93957E+01 3.93406E+00-1.27596E-02 5.65496E-01 1.69034E-13 4.91252E-14
 -1       328 1.94664E+01 3.84081E+00-1.37692E-02 9.39498E-01 1.56735E-13 8.89271E-14
 -1       329 1.95933E+01 3.67857E+00-1.56567E-02 1.33357E+00 1.34803E-13 1.49797E-13
 -1       330 1.98088E+01 3.40991E+00-1.88341E-02 1.73890E+00 1.18299E-13 2.09953E-13
 -1       331 2.01792E+01 2.95519E+00-2.29401E-02 2.12745E+00 9.53885E-14 2.60006E-13
 -1       332 2.07490E+01 2.12942E+00-3.04692E-02 2.32238E+00 3.42098E-14 3.13260E-13
 -1       333 2.10955E+01 1.18772E+00-2.49230E-02 1.92210E+00 1.26635E-16 3.56949E-13
 -1       334 2.03917E+01 4.89251E-01 8.33425E-03 9.27552E-01-1.00770E-14 3.04679E-13
 -1       335 2.04577E+01 6.75518E-01 1.23661E-02-1.02549E+00 1.12362E-14-2.94450E-13
 -1       336 2.00374E+01 3.34712E-01 6.81686E-03-4.58489E-01 9.60668E-15-2.40625E-13
 -1       337 1.97823E+01 1.76527E-01 4.06058E-03-1.48933E-01 8.74062E-15-2.39076E-13
 -1       338 1.96466E+01 9.03083E-02 1.91235E-03 2.18462E-02 9.38480E-15-2.28778E-13
 -1       339 1.95909E+01 4.11837E-02 7.96423E-04 1.12818E-01-1.72585E-14-2.18581E-13
 -1       340 1.95853E+01 1.22659E-02 2.73039E-04 1.55883E-01-2.17531E-14-2.34345E-13
 -1       341 1.96091E+01-4.65531E-03 1.48009E-05 1.69915E-01 2.05282E-14-2.92307E-13
 -1       342 1.96483E+01-1.39985E-02-1.18605E-04 1.66719E-01-1.93224E-14-2.24743E-13
 -1       343 1.96941E+01-1.83975E-02-1.83239E-04 1.53959E-01-1.01465E-13-2.27582E-13
 -1       344 1.97410E+01-1.95205E-02-2.05078E-04 1.36725E-01-2.11082E-14-2.12601E-13
 -1       345 1.97861E+01-1.84526E-02-1.98606E-04 1.18444E-01 5.27876E-14-2.09070E-13
 -1       346 1.98278E+01-1.58918E-02-1.72736E-04 1.01456E-01 9.62146E-14-1.74556E-13
 -1       347 1.98662E+01-1.22609E-02-1.32858E-04 8.74048E-02 1.19670E-14-1.23946E-13
 -1       348 1.99020E+01-7.77586E-03-8.18187E-05 7.75240E-02-8.02273E-14-2.18005E-13
 -1       349 1.99366E+01-2.49266E-03-2.05169E-05 7.28517E-02-2.77870E-14-2.15684E-13
 -1       350 1.99722E+01 3.65960E-03 5.16642E-05 7.43946E-02-8.39674E-14-2.47081E-13
 -1       351 2.00112E+01 1.08527E-02 1.36514E-04 8.32568E-02-8.40875E-14-2.39810E-13
 -1       352 2.00567E+01 1.93365E-02 2.36668E-04 1.00737E-01-4.73633E-14-2.10764E-13
 -1       353 2.01124E+01 2.94135E-02 3.55203E-04 1.28394E-01 5.92382E-14-9.69335E-14
 -1       354 2.01824E+01 4.14026E-02 4.95021E-04 1.68076E-01 5.14421E-14-1.04297E-13
 -1       355 2.02717E+01 5.55785E-02 6.57762E-04 2.21893E-01 5.06893E-14 2.67180E-14
 -1       356 2.03855E+01 7.20619E-02 8.41867E-04 2.92095E-01 1.31677E-13-1.41753E-13
 -1       357 2.05297E+01 9.06202E-02 1.03916E-03 3.80791E-01 1.20044E-14-2.16075E-13
 -1       358 2.07103E+01 1.10310E-01 1.22908E-03 4.89394E-01 7.69418E-14-1.20713E-13
 -1       359 2.09335E+01 1.28860E-01 1.36973E-03 6.17615E-01 2.00169E-14 3.21915E-14
 -1       360 2.12045E+01 1.41667E-01 1.38565E-03 7.61710E-01 1.21209E-14 9.13591E-14
 -1       361 2.15274E+01 1.40294E-01 1.15513E-03 9.11651E-01 3.88620E-14 3.26659E-14
 -1       362 2.19044E+01 1.10629E-01 5.05815E-04 1.04685E+00-1.67641E-14-4.97127E-14
 -1       363 2.23346E+01 3.15926E-02-7.61383E-04 1.13054E+00-7.24642E-14 2.35125E-13
 -1       364 2.28132E+01-1.22896E-01-2.79778E-03 1.10407E+00 1.32919E-13 1.60923E-13
 -1       365 2.33265E+01-3.72627E-01-5.39228E-03 8.85976E-01 1.10432E-13 4.06842E-13
 -1       366 2.38413E+01-7.02153E-01-7.79333E-03 3.86433E-01 2.93006E-13 3.47819E-13
 -1       367 2.42798E+01-1.00892E+00-8.83946E-03-4.43093E-01 3.12380E-14 3.10825E-13
 -1       368 2.44974E+01-1.06213E+00-7.24029E-03-1.50624E+00-1.98455E-13 3.62932E-13
 -1       369 2.43090E+01-5.72707E-01-7.28153E-03-2.43248E+00-2.76576E-13 2.53648E-13
 -1       370 2.36873E+01 4.87612E-01-1.08323E-02-2.60273E+00-3.15149E-13 5.39603E-14
 -1       371 2.29676E+01 1.57421E+00-1.58342E-02-1.59482E+00-1.72581E-13 7.55689E-15
 -1       372 2.26982E+01 1.82516E+00-1.39306E-02 1.93819E-01-4.56753E-15 4.40082E-13
 -1       373 2.30215E+01 1.00554E+00-1.55257E-02 1.64432E+00-1.90473E-14 5.08137E-13
 -1       374 2.35099E+01-1.86732E-01-7.61716E-03 1.95899E+00 2.90030E-13 5.42338E-13
 -1       375 2.36515E+01-9.44565E-01-8.10824E-03 1.27645E+00 6.83400E-13 4.34563E-13
 -1       376 2.33531E+01-1.08392E+00-8.80434E-03 2.04028E-01 5.60637E-13 4.51999E-13
 -1       377 2.27615E+01-8.13627E-01-7.62297E-03-7.29860E-01 2.85268E-13 3.16031E-13
 -1       378 2.20573E+01-3.91295E-01-4.49469E-03-1.28945E+00-3.10698E-13 6.46165E-13
 -1       379 2.13621E+01 4.12090E-02-7.63194E-04-1.43261E+00-3.64818E-13 7.20001E-13
 -1       380 2.08079E+01 3.68081E-01 4.01125E-03-1.22173E+00-1.16486E-13 3.66543E-13
 -1       381 1.98900E+01 2.28431E-01 1.07949E-02 3.98971E-01 7.45844E-15 2.78784E-13
 -1       382 1.96012E+01 1.15282E-01 6.17094E-03 1.20369E-01 5.76796E-15 2.59703E-13
 -1       383 1.94663E+01 5.75548E-02 2.80078E-03-2.83445E-02-1.33622E-14 2.36624E-13
 -1       384 1.94262E+01 2.56532E-02 1.17224E-03-1.05066E-01-6.89496E-14 2.06083E-13
 -1       385 1.94416E+01 7.20032E-03 4.46423E-04-1.40121E-01-1.67225E-14 2.02897E-13
 -1       386 1.94873E+01-3.48163E-03 1.00244E-04-1.50471E-01 6.61037E-14 2.25688E-13
 -1       387 1.95473E+01-9.34187E-03-7.96761E-05-1.46371E-01 3.71478E-14 2.29089E-13
 -1       388 1.96116E+01-1.20892E-02-1.72383E-04-1.34341E-01-3.04109E-14 2.60035E-13
 -1       389 1.96744E+01-1.27891E-02-2.11280E-04-1.18655E-01-2.93346E-14 2.01804E-13
 -1       390 1.97326E+01-1.21308E-02-2.14392E-04-1.02161E-01-4.02243E-14 2.29382E-13
 -1       391 1.97851E+01-1.05595E-02-1.92965E-04-8.67776E-02 1.20396E-13 2.54997E-13
 -1       392 1.98319E+01-8.34988E-03-1.54155E-04-7.38306E-02 5.02083E-14 2.66055E-13
 -1       393 1.98742E+01-5.65033E-03-1.02207E-04-6.42861E-02 1.25562E-14 1.71037E-13
 -1       394 1.99137E+01-2.51549E-03-3.92291E-05-5.89245E-02 7.41301E-14 1.33813E-13
 -1       395 1.99528E+01 1.06931E-03 3.41682E-05-5.84675E-02 1.01617E-13 2.87563E-14
 -1       396 1.99945E+01 5.16596E-03 1.18277E-04-6.36671E-02 7.70817E-14 1.19110E-13
 -1       397 2.00422E+01 9.86036E-03 2.13681E-04-7.53592E-02-1.10980E-13 2.80665E-13
 -1       398 2.00999E+01 1.52334E-02 3.20477E-04-9.44763E-02-1.45460E-13 1.06378E-13
 -1       399 2.01719E+01 2.13211E-02 4.37218E-04-1.22008E-01-4.65440E-14 1.35131E-13
 -1       400 2.02633E+01 2.80557E-02 5.59407E-04-1.58888E-01 2.47760E-13 2.30535E-13
 -1       401 2.03792E+01 3.51773E-02 6.77372E-04-2.05779E-01 1.62198E-14 3.03520E-13
 -1       402 2.05249E+01 4.21007E-02 7.73411E-04-2.62696E-01-3.44871E-13 2.78383E-13
 -1       403 2.07051E+01 4.77244E-02 8.18353E-04-3.28415E-01-1.82163E-13 1.46747E-13
 -1       404 2.09231E+01 5.01711E-02 7.68376E-04-3.99585E-01-6.31667E-15 1.91602E-13
 -1       405 2.11799E+01 4.64825E-02 5.64331E-04-4.69464E-01 1.25840E-13 4.88299E-13
 -1       406 2.14719E+01 3.23629E-02 1.37633E-04-5.26334E-01-7.74959E-14 5.96297E-13
 -1       407 2.17890E+01 2.23380E-03-5.70353E-04-5.51800E-01 4.81830E-15 5.05478E-13
 -1       408 2.21117E+01-4.98365E-02-1.56891E-03-5.19786E-01 7.62458E-14 6.20907E-13
 -1       409 2.24083E+01-1.27361E-01-2.75594E-03-3.97927E-01-1.30134E-13 3.74860E-13
 -1       410 2.26331E+01-2.25754E-01-3.86746E-03-1.54414E-01-1.23987E-13 2.24486E-13
 -1       411 2.27267E+01-3.23809E-01-4.44367E-03 2.25916E-01-1.55616E-13 4.23241E-13
 -1       412 2.26246E+01-3.76559E-01-4.04454E-03 7.14643E-01 1.83666E-13 6.01089E-13
 -1       413 2.22780E+01-3.21117E-01-2.65179E-03 1.20955E+00 8.47144E-14 6.35104E-13
 -1       414 2.16968E+01-1.12408E-01 2.46634E-04 1.52906E+00-1.82607E-13 9.91759E-13
 -1       415 2.09956E+01 2.13225E-01 3.02726E-03 1.47781E+00-1.17630E-13 9.90686E-13
 -1       416 2.03846E+01 5.25825E-01 4.53899E-03 9.70736E-01 7.81155E-14 7.90126E-13
 -1       417 2.00938E+01 6.38596E-01 4.40641E-03 1.53965E-01-1.77800E-13 7.31877E-13
 -1       418 2.02069E+01 4.78678E-01 4.04393E-03-6.27643E-01 1.20254E-13 9.62784E-13
 -1       419 2.05981E+01 1.49423E-01 3.88553E-03-1.05175E+00 1.55013E-13 9.12674E-13
 -1       420 2.10279E+01-1.67292E-01 1.20772E-03-1.01540E+00 2.22046E-13 4.45881E-13
 -1       421 2.12981E+01-3.40622E-01-2.04700E-03-6.43458E-01 3.40918E-13 2.75648E-13
 -1       422 2.13305E+01-3.50038E-01-3.78515E-03-1.57593E-01 3.93943E-13 3.81358E-13
 -1       423 2.11504E+01-2.43170E-01-3.68812E-03 2.50921E-01 1.46481E-13 4.12721E-13
 -1       424 2.08360E+01-7.84039E-02-2.06268E-03 4.70078E-01-1.03246E-13 3.37608E-13
 -1       425 2.04822E+01 8.80251E-02-3.42963E-04 4.64110E-01 5.78765E-14 6.89972E-13
 -1       426 2.02803E+01 1.83162E-01 1.43594E-03 3.77049E-01 2.14738E-13 9.16478E-13
 -1       427 2.03938E+01 9.81953E-01 3.15538E-03 1.43964E+00-1.13657E-13 1.49241E-13
 -1       428 2.04157E+01 5.65047E-01 3.00423E-03 1.01824E+00-5.43292E-14 7.46237E-14
 -1       429 2.03479E+01 3.62751E-01 2.87626E-03 6.69427E-01 1.65521E-13 1.88125E-13
 -1       430 2.02574E+01 1.54502E+00 1.40390E-03 1.78500E+00-3.75689E-14-8.75358E-13
 -1       431 1.99761E+01 2.24802E+00-1.52997E-03 1.92378E+00 3.05885E-13-4.59396E-13
 -1       432 1.95957E+01 2.98138E+00-4.46445E-03 1.71071E+00 3.31193E-13-3.71730E-13
 -1       433 1.92367E+01 3.57813E+00-6.53944E-03 1.09267E+00-1.90559E-13-2.66055E-13
 -1       434 1.90489E+01 3.86116E+00-7.38504E-03 1.69836E-01-4.53655E-13-3.20304E-13
 -1       435 1.91200E+01 3.73343E+00-6.96266E-03-8.17374E-01-5.51969E-13-3.39668E-14
 -1       436 1.94075E+01 3.24759E+00-5.32429E-03-1.58819E+00-2.49229E-13-2.48197E-13
 -1       437 1.97958E+01 2.53688E+00-2.59218E-03-1.99800E+00 8.56579E-14 2.25687E-13
 -1       438 2.01521E+01 1.78572E+00 1.13684E-03-2.01120E+00-1.08346E-13 2.16658E-13
 -1       439 2.04084E+01 1.12835E+00 5.15736E-03-1.72226E+00-5.60934E-13 3.73686E-13
 -1       440 1.33181E+01-6.29849E+00-1.43048E-02 7.56888E+00-1.08552E-13-4.25493E-13
 -1       441 1.35441E+00-4.97465E+00-6.86014E-02-1.45842E-01 1.13911E-13-7.02688E-13
 -1       442 4.99330E+00-4.82865E+00 4.76384E-02 5.13635E+00 2.23432E-14-1.17442E-12
 -1       443 2.17394E+01-5.92291E+00 7.26839E-03 6.72125E+00-3.03965E-13-7.74908E-13
 -1       444 2.99199E+01-2.12985E+00 1.80692E-02 3.43105E+00-1.21007E-13-1.05328E-12
 -1       445 1.97870E+01 3.43942E+00-2.08814E-02-1.72587E+00 1.30368E-13-1.73595E-13
 -1       446 3.50956E+01 6.04173E+00-1.41603E-02-1.57316E-01-4.34791E-14-7.09779E-13
 -1       447 3.48612E+01 8.21798E+00-6.42712E-02 4.82819E-01-1.41498E-13-1.06251E-12
 -1       448 3.53041E+01 6.74084E+00 1.40941E-02 7.93065E-01 3.37647E-14-1.12875E-12
 -1       449 3.41906E+01 2.54820E+00 7.18762E-02-1.17571E+00 1.68608E-13-1.04111E-12
 -1       450 2.92649E+01-1.76559E+00 2.16213E-02-3.62756E+00 1.71169E-13-9.07718E-13
 -1       451 2.33666E+01-5.10279E+00-7.07621E-03-5.48558E+00 1.85144E-13-6.07132E-13
 -1       452 1.31705E+01-5.87572E+00 1.66624E-02-7.21290E+00 3.28085E-13-7.14408E-13
 -1       453 5.35488E+00-4.85204E+00 1.77301E-02-5.40488E+00 1.33657E-13-4.09117E-13
 -1       454 1.76049E+00-4.19374E+00 2.16156E-02-1.74994E+00 1.06283E-13-2.07390E-13
 -1       455 2.76642E+00-5.24520E+00-5.00621E-02 3.51030E+00 1.57541E-13-2.62165E-13
 -1       456 9.82924E+00-5.92450E+00-8.49811E-03 6.59444E+00 1.33921E-14-2.07050E-13
 -1       457 1.74085E+01-6.30884E+00-3.36366E-02 6.60657E+00-1.98869E-14-8.58306E-14
 -1       458 2.63136E+01-4.48438E+00-5.63962E-03 4.16034E+00-2.86923E-13 1.76900E-13
 -1       459 3.28058E+01 4.54151E-01-1.14239E-02 6.66774E-01-3.05282E-13 9.51739E-14
 -1       460 3.61129E+01 5.04132E+00 8.18984E-02-5.36318E-01-3.20272E-13 1.59664E-13
 -1       461 3.74068E+01 7.87549E+00 1.13633E-01-6.51093E-01 3.42226E-14 1.44461E-13
 -1       462 3.63289E+01 7.57886E+00 6.23619E-02-3.48676E-02-4.62963E-14 1.60982E-14
 -1       463 3.57912E+01 3.82463E+00 9.65272E-02-9.68858E-01 1.47701E-13-1.90292E-13
 -1       464 3.18041E+01-8.42691E-01 3.77855E-02-2.91856E+00 9.38968E-13-1.44051E-14
 -1       465 2.57436E+01-4.59080E+00 6.79530E-03-5.49562E+00 6.98122E-13 1.09676E-13
 -1       466 1.63565E+01-6.41092E+00-8.06799E-02-7.40512E+00 5.79287E-13-2.36530E-13
 -1       467 8.87307E+00-6.62836E+00-1.25494E-01-6.80674E+00 1.94289E-13-7.88820E-13
 -1       468 2.98152E+00-6.14575E+00-1.53942E-01-4.06889E+00 4.26950E-13-2.12677E-13
 -1       469 3.38332E+01 1.94130E+00 4.83547E-02 1.48034E+00 1.18378E-14-1.03675E-12
 -1       470 2.70022E+01-5.23628E+00-1.65718E-02 3.98073E+00-2.62512E-13-6.73905E-13
 -1       471 1.13383E+01-4.65815E+00 1.12672E-01 7.12452E+00 1.76983E-13-7.87752E-13
 -1       472 2.04318E+01-5.98806E+00 5.93717E-02-6.21244E+00 1.72133E-13-4.38429E-13
 -1       473 3.09865E+01 7.15350E+00-1.77079E-01-6.19918E-01-1.93040E-14-7.05064E-13
 -1       474 2.96466E+01-3.22205E+00-3.76885E-02 6.88391E-01-1.71850E-13 1.68379E-13
 -1       475 2.03731E+01 8.31862E-01 4.02912E-03 9.72311E-01 1.81409E-14 2.20490E-13
 -1       476 1.97331E+01 3.10378E+00-5.34252E-03-6.34123E-01 1.56073E-13-7.49007E-14
 -1       477 1.98291E+01 2.93071E+00-5.72713E-03-9.50611E-01 1.64108E-13-1.10782E-13
 -1       478 1.96655E+01 3.22632E+00-5.02255E-03 8.80369E-03 1.61670E-13 1.14190E-14
 -1       479 1.96840E+01 3.19331E+00-5.10293E-03 3.30537E-01 1.51495E-13 3.76043E-14
 -1       480 1.97377E+01 3.09652E+00-5.41497E-03 6.46066E-01 1.50322E-13 6.02988E-14
 -1       481 1.98361E+01 2.91876E+00-5.96676E-03 9.61695E-01 1.46602E-13 1.17574E-13
 -1       482 1.99916E+01 2.63366E+00-6.53110E-03 1.25705E+00 1.23592E-13 1.64952E-13
 -1       483 2.02334E+01 2.18773E+00-5.69904E-03 1.50181E+00 8.70148E-14 1.93056E-13
 -1       484 2.01112E+01 4.53493E-01 5.07121E-03 4.64590E-01 4.24008E-14 1.90541E-13
 -1       485 2.03415E+01 9.76508E-01 3.78106E-03-9.39999E-01 5.63734E-14-2.02878E-13
 -1       486 3.09339E+01 2.61510E+00-1.40555E-01-1.38078E+00-9.60412E-14-9.81680E-13
 -1       487 2.01761E+01 5.33944E-01 8.27261E-04-4.68722E-01 1.36077E-14-1.68425E-13
 -1       488 2.00240E+01 3.03445E-01 1.19137E-03-1.67254E-01 2.25655E-14-1.56860E-13
 -1       489 1.99230E+01 1.61359E-01 4.71456E-04 1.41380E-02 5.28891E-16-1.44017E-13
 -1       490 1.98641E+01 7.51657E-02 1.64446E-04 1.16691E-01-3.60308E-14-1.44046E-13
 -1       491 1.98367E+01 2.25649E-02 2.34378E-05 1.67995E-01-4.31001E-14-1.79005E-13
 -1       492 1.98305E+01-8.69929E-03-4.62842E-05 1.86747E-01 3.07951E-14-2.07470E-13
 -1       493 1.98379E+01-2.59727E-02-8.08094E-05 1.85614E-01-1.17768E-14-2.44603E-13
 -1       494 1.98530E+01-3.38993E-02-9.45923E-05 1.73255E-01-1.94767E-14-9.64947E-14
 -1       495 1.98722E+01-3.55163E-02-9.47859E-05 1.55633E-01 1.01951E-14 2.73196E-14
 -1       496 1.98931E+01-3.28249E-02-8.57518E-05 1.36876E-01 8.75336E-14 4.54818E-15
 -1       497 1.99145E+01-2.71070E-02-7.02517E-05 1.19887E-01 5.23513E-14-1.02461E-13
 -1       498 1.99360E+01-1.91175E-02-4.98840E-05 1.06777E-01-5.39040E-14-5.97202E-15
 -1       499 1.99578E+01-9.21200E-03-2.53231E-05 9.92014E-02-8.50490E-14 6.26662E-14
 -1       500 1.99807E+01 2.56353E-03 3.47241E-06 9.86045E-02-2.08178E-13-8.97059E-14
 -1       501 2.00057E+01 1.64043E-02 3.71222E-05 1.06414E-01-1.16489E-13-1.21285E-13
 -1       502 2.00343E+01 3.26901E-02 7.66898E-05 1.24181E-01-8.20425E-14-5.26809E-14
 -1       503 2.00683E+01 5.19294E-02 1.23551E-04 1.53683E-01 9.67925E-14-6.06327E-14
 -1       504 2.01095E+01 7.46909E-02 1.79207E-04 1.96968E-01 1.25190E-13-8.66577E-14
 -1       505 2.01602E+01 1.01503E-01 2.44972E-04 2.56357E-01 7.83609E-14-1.43949E-13
 -1       506 2.02228E+01 1.32684E-01 3.21420E-04 3.34346E-01-4.90801E-14-2.02993E-13
 -1       507 2.02996E+01 1.68060E-01 4.07362E-04 4.33388E-01 3.28284E-14-2.46311E-13
 -1       508 2.03932E+01 2.06459E-01 4.98036E-04 5.55476E-01 9.26601E-14-1.94678E-13
 -1       509 2.05062E+01 2.44869E-01 5.82078E-04 7.01411E-01 7.83440E-14-9.59127E-14
 -1       510 2.06420E+01 2.77059E-01 6.36843E-04 8.69590E-01 4.81569E-14-1.49649E-13
 -1       511 2.08052E+01 2.91475E-01 6.21992E-04 1.05409E+00 1.42624E-15-8.26502E-14
 -1       512 2.10042E+01 2.68352E-01 4.72439E-04 1.24174E+00 2.96116E-14 2.75638E-13
 -1       513 2.12545E+01 1.76660E-01 9.05628E-05 1.40786E+00 1.27580E-13 3.16797E-13
 -1       514 2.15842E+01-2.68031E-02-6.56070E-04 1.51029E+00 4.39868E-14 5.40683E-13
 -1       515 2.20380E+01-3.90124E-01-1.95764E-03 1.48201E+00 1.72604E-13 2.58685E-13
 -1       516 2.26720E+01-9.37326E-01-3.36952E-03 1.22558E+00 2.22842E-13 2.68602E-13
 -1       517 2.35235E+01-1.60297E+00-4.52803E-03 6.17021E-01 1.47254E-13 2.17986E-13
 -1       518 2.45285E+01-2.11489E+00-6.20642E-03-4.33806E-01-6.72161E-14 9.08256E-14
 -1       519 2.54239E+01-1.93228E+00-1.07145E-02-1.82755E+00-1.32799E-13 4.04349E-13
 -1       520 2.57470E+01-4.47334E-01-3.46150E-02-2.96938E+00-4.68572E-13 4.10872E-13
 -1       521 2.53370E+01 2.02061E+00-6.40655E-02-2.85462E+00-2.48366E-13 4.65641E-13
 -1       522 2.48615E+01 3.67258E+00-8.06909E-02-9.46148E-01-4.19283E-14 4.08994E-13
 -1       523 2.48935E+01 2.93033E+00-8.33542E-02 1.41416E+00 1.46716E-13 6.12867E-13
 -1       524 2.52113E+01 5.33919E-01-8.62609E-02 2.35528E+00 1.96874E-13 7.90718E-13
 -1       525 2.53498E+01-1.48607E+00-1.43700E-02 1.63159E+00 3.57803E-13 7.07434E-13
 -1       526 2.44994E+01-2.18360E+00-1.01648E-02 1.91872E-01 4.48555E-13 4.23336E-13
 -1       527 2.33776E+01-1.83891E+00-5.45872E-03-1.04032E+00 3.30776E-13 3.67193E-13
 -1       528 2.23278E+01-1.07568E+00-2.85473E-03-1.78349E+00 1.66766E-13 2.27362E-13
 -1       529 2.14928E+01-2.57350E-01-2.87602E-04-2.02939E+00-2.46843E-13 4.39200E-13
 -1       530 1.98087E+01 1.28746E-01 9.88548E-04-1.89386E-02-1.43940E-14 1.22485E-13
 -1       531 1.97506E+01 5.93603E-02 3.62166E-04-1.17324E-01-4.13472E-14 6.33448E-14
 -1       532 1.97316E+01 1.76949E-02 8.31918E-05-1.65394E-01 2.79314E-14 6.27622E-14
 -1       533 1.97375E+01-6.88061E-03-5.18234E-05-1.82117E-01 5.83653E-14 1.03948E-13
 -1       534 1.97578E+01-2.04391E-02-1.19885E-04-1.79916E-01-2.83027E-14 1.45035E-13
 -1       535 1.97857E+01-2.67168E-02-1.49530E-04-1.67112E-01 1.53775E-14 1.21580E-13
 -1       536 1.98165E+01-2.81210E-02-1.54441E-04-1.49349E-01 2.68921E-15 9.07131E-14
 -1       537 1.98476E+01-2.62297E-02-1.42752E-04-1.30489E-01-1.96436E-15 6.42422E-14
 -1       538 1.98777E+01-2.20603E-02-1.19706E-04-1.13207E-01 5.66687E-14 1.02975E-13
 -1       539 1.99065E+01-1.62275E-02-8.85249E-05-9.94129E-02 9.67742E-14 9.05853E-14
 -1       540 1.99345E+01-9.05049E-03-5.09047E-05-9.05600E-02 6.35463E-14 3.94309E-14
 -1       541 1.99627E+01-6.30746E-04-7.43363E-06-8.78659E-02 1.02957E-14 1.30879E-13
 -1       542 1.99927E+01 9.08374E-03 4.20072E-05-9.24758E-02 2.61194E-14 3.49196E-13
 -1       543 2.00263E+01 2.02373E-02 9.79265E-05-1.05567E-01-1.09338E-13 3.33109E-13
 -1       544 2.00657E+01 3.29974E-02 1.60809E-04-1.28402E-01-1.26379E-14 2.19233E-13
 -1       545 2.01136E+01 4.74666E-02 2.30597E-04-1.62306E-01 2.96130E-14 1.29492E-13
 -1       546 2.01728E+01 6.35607E-02 3.05948E-04-2.08576E-01 9.30363E-14-8.55240E-14
 -1       547 2.02466E+01 8.08312E-02 3.83167E-04-2.68266E-01 4.61599E-14 8.01776E-14
 -1       548 2.03382E+01 9.82076E-02 4.54694E-04-3.41814E-01-1.35386E-13 1.09421E-13
 -1       549 2.04512E+01 1.13628E-01 5.07070E-04-4.28462E-01-2.01324E-13-1.03919E-13
 -1       550 2.05887E+01 1.23535E-01 5.18488E-04-5.25367E-01-1.09127E-13 3.32110E-15
 -1       551 2.07542E+01 1.22256E-01 4.56505E-04-6.26356E-01-1.08796E-13 1.31272E-13
 -1       552 2.09503E+01 1.01386E-01 2.77757E-04-7.20270E-01-6.15896E-14 2.81376E-13
 -1       553 2.11796E+01 4.95299E-02-6.86045E-05-7.88992E-01-1.23236E-13 3.67587E-13
 -1       554 2.14435E+01-4.67620E-02-6.27144E-04-8.05563E-01-6.70146E-14 3.85581E-13
 -1       555 2.17414E+01-1.99282E-01-1.40579E-03-7.33401E-01 8.56660E-14 5.02462E-13
 -1       556 2.20667E+01-4.09249E-01-2.31166E-03-5.28935E-01-5.34129E-14 4.43855E-13
 -1       557 2.23989E+01-6.51318E-01-3.12337E-03-1.51948E-01-2.73406E-13 2.52852E-13
 -1       558 2.26913E+01-8.52972E-01-3.35845E-03 4.10406E-01-1.16079E-13 3.78477E-13
 -1       559 2.28618E+01-8.84580E-01-2.85349E-03 1.10267E+00 1.14573E-13 4.82208E-13
 -1       560 2.28035E+01-5.92944E-01-2.69101E-03 1.75096E+00-3.45655E-13 6.07995E-13
 -1       561 2.24821E+01 6.00000E-02 1.05535E-03 2.04856E+00-2.47859E-13 7.50762E-13
 -1       562 2.19797E+01 9.04271E-01 2.05067E-03 1.74824E+00 2.05672E-13 8.42552E-13
 -1       563 2.15894E+01 1.47229E+00 1.42243E-03 8.01424E-01-2.80876E-14 8.09592E-13
 -1       564 2.15346E+01 1.40291E+00-3.05015E-03-3.78118E-01-5.73912E-14 6.55059E-13
 -1       565 2.18118E+01 7.24114E-01-1.65420E-03-1.20858E+00 1.57170E-13 6.65646E-13
 -1       566 2.21337E+01-1.15928E-01 3.28845E-04-1.37376E+00 5.09705E-13 5.78017E-13
 -1       567 2.22433E+01-6.94313E-01-1.62069E-03-9.61032E-01 3.57149E-13 4.97441E-13
 -1       568 2.20802E+01-8.68935E-01-2.96506E-03-2.95171E-01 3.83814E-13 5.21143E-13
 -1       569 2.17134E+01-7.11677E-01-3.22639E-03 3.24997E-01 1.50895E-13 3.73254E-13
 -1       570 2.12547E+01-3.71099E-01-1.91498E-03 7.23205E-01 1.48745E-13 2.48463E-13
 -1       571 2.07836E+01 2.20462E-02 1.35393E-04 8.43448E-01-2.85163E-13 3.83660E-13
 -1       572 2.03133E+01 8.40120E-01-2.15889E-04 2.43630E+00 4.60381E-13-5.82274E-13
 -1       573 1.96045E+01 1.47015E+00-1.79655E-03 2.48982E+00 4.86237E-13-3.07428E-13
 -1       574 2.08547E+01 1.62106E-01 2.20386E-03 1.48026E+00-2.03838E-13-1.86916E-13
 -1       575 2.07261E+01 4.05644E-01 1.51866E-03 2.02407E+00-2.08285E-13 3.78174E-14
 -1       576 1.87743E+01 2.15951E+00-2.28384E-03 1.98922E+00 1.20270E-13-7.05733E-13
 -1       577 1.81405E+01 2.66970E+00-2.22802E-03 9.25644E-01-8.23191E-14-5.76609E-13
 -1       578 1.80077E+01 2.77794E+00-1.73422E-03-4.43746E-01-1.64150E-13-2.78243E-13
 -1       579 1.84257E+01 2.44780E+00-1.84373E-03-1.67192E+00-3.75258E-14 1.19066E-13
 -1       580 1.92014E+01 1.82861E+00-1.61091E-03-2.44927E+00-2.36894E-14 1.15440E-16
 -1       581 2.00009E+01 1.16911E+00 4.53649E-04-2.65101E+00-1.18363E-13-1.17569E-14
 -1       582 2.05999E+01 6.52220E-01-2.59402E-03-2.36977E+00-2.21210E-13 9.64356E-14
 -1       583 6.02541E+00-1.68876E+00 2.06382E-01 2.40059E+00-2.90670E-13-9.78842E-13
 -1       584 4.93506E+00-2.71941E+00 1.45539E-01-2.86276E+00-2.13787E-14-4.08576E-13
 -1       585 1.99238E+01 2.46126E-01 2.43469E-03 1.59288E-01 1.61696E-14 1.46432E-13
 -1       586 1.94056E+01-5.95160E+00 9.45824E-02 7.08176E+00-2.85744E-14-6.88158E-13
 -1       587 2.03942E+01 1.76885E+00-5.35251E-03-1.54580E+00 7.32366E-14-2.13272E-13
 -1       588 9.40905E+00-3.82056E+00 1.45014E-01-6.24784E+00 7.02216E-14-4.97602E-13
 -1       589 4.89486E+00-1.62308E+00 1.85465E-01 1.38583E+00 1.80328E-13 8.69999E-14
 -1       590 1.18509E+01-4.18233E+00 1.50807E-01-6.71515E+00 1.31332E-13-7.41504E-13
 -1       591 1.96811E+01 3.19777E+00-5.09914E-03-3.13020E-01 1.82250E-13-2.16059E-14
 -1       592 3.02455E+01-1.27625E+00-9.00799E-02 2.37380E-01 3.92793E-14-9.51961E-13
 -1       593 3.02548E+01 6.72954E+00-1.85364E-01 1.41287E+00-1.84852E-14-7.36126E-13
 -1       594 8.18604E+00-3.21292E+00 1.47671E-01 5.21259E+00 3.56243E-13-2.89158E-13
 -1       595 3.11446E+01 3.42089E+00-1.27196E-01 1.99042E+00 3.20230E-14-6.61686E-13
 -1       596 2.75256E+01-4.40563E+00-3.38144E-02-2.26232E+00 4.73580E-15-1.06293E-12
 -1       597 6.26605E+00-1.98141E+00 1.68225E-01-3.73436E+00 6.11906E-14-4.03289E-13
 -1       598 1.65588E+01-5.42729E+00 1.07467E-01 6.53083E+00 2.67154E-13-6.85563E-14
 -1       599 2.35721E+01-6.07165E+00 4.24361E-02 4.55082E+00-9.71168E-14-8.29892E-15
 -1       600 3.14454E+01 1.92841E+00-1.48992E-01-2.16600E+00-3.35912E-13 2.83260E-13
 -1       601 3.12846E+01 5.81586E+00-1.69752E-01-2.11189E+00-6.42819E-14 2.38261E-13
 -1       602 3.07270E+01 7.20384E+00-1.71422E-01-3.47854E-01 2.70936E-13 3.60953E-13
 -1       603 3.11028E+01 4.45548E+00-1.50362E-01 1.71438E+00 2.43500E-13 2.31190E-13
 -1       604 3.16314E+01 1.56725E-01-9.62626E-02 5.70000E-01 5.13537E-13-1.06928E-13
 -1       605 2.90996E+01-4.22723E+00-3.74326E-02-2.21105E+00 7.27390E-13 2.43652E-13
 -1       606 2.32696E+01-6.39747E+00 4.04244E-02-5.83987E+00 3.54966E-13-7.63278E-14
 -1       607 1.46035E+01-5.48322E+00 9.01269E-02-7.45692E+00 4.12864E-14-4.43055E-13
 -1       608 3.05678E+01-9.02638E-01-9.33907E-02-4.77259E-02 5.24233E-15-9.18668E-13
 -1       609 2.05850E+01 1.30518E+00-9.98551E-04 1.54815E+00 3.19224E-14 2.66562E-13
 -1       610 1.99816E+01 2.66185E+00-6.32085E-03-1.25831E+00 1.36967E-13-1.27359E-13
 -1       611 9.79383E+00-2.01878E+00 1.55495E-01 4.87461E+00 8.08902E-14-1.03232E-12
 -1       612 2.39462E+01-5.95901E+00 2.44159E-02 5.10340E+00 2.25306E-14-5.97093E-13
 -1       613 2.68166E+01-5.13318E+00-1.53462E-02 1.79797E+00-1.91925E-13 1.72175E-13
 -1       614 2.47364E+01-5.50913E+00 1.15180E-02-3.62108E+00 1.02637E-13-1.06562E-12
 -1       615 1.75150E+01-4.88498E+00 9.59786E-02-6.31455E+00 1.01009E-13-4.33747E-13
 -1       616 2.86560E+01 4.60703E+00-1.62670E-01-1.65590E+00-8.47933E-14-1.03484E-12
 -1       617 2.80262E+01 6.58158E+00-1.71779E-01 3.02594E-01-2.14495E-13-9.44778E-13
 -1       618 2.87487E+01-3.67614E+00-5.42574E-02 9.87162E-01-1.52222E-13-9.92033E-13
 -1       619 2.97540E+01-1.34095E+00-1.03093E-01-1.77886E+00-1.30986E-13 1.44024E-13
 -1       620 2.10398E+01 2.51100E-01 5.51203E-04-1.95603E+00-3.10218E-13 7.46626E-13
 -1       621 1.99608E+01 2.44875E+00-1.58163E-03 3.94377E-01 1.27474E-13 3.92364E-14
 -1       622 1.99290E+01 2.52367E+00-1.51424E-03 1.35810E-01 1.38463E-13 5.89936E-15
 -1       623 2.01209E+01 2.04550E+00-1.57313E-03 8.50422E-01 1.09295E-13 1.09126E-13
 -1       624 2.02387E+01 1.67569E+00-2.24798E-03 9.92610E-01 7.86925E-14 1.47673E-13
 -1       625 2.03191E+01 1.03642E+00 2.90905E-03 8.31889E-01 5.21508E-14 1.40454E-13
 -1       626 1.44347E+01-3.45924E+00 1.28968E-01-6.48558E+00-6.63358E-15-6.05148E-13
 -1       627 2.02052E+01 6.14496E-01 1.11534E-03 4.21113E-01 4.68744E-14 1.44139E-13
 -1       628 1.98183E+01-5.15637E+00 6.59200E-02-6.29774E+00 1.81952E-13-2.15567E-13
 -1       629 2.90950E+01-2.53695E+00-7.10599E-02 5.89028E-01 3.55159E-13 3.31554E-13
 -1       630 2.02439E+01 6.69500E-01 1.57352E-03-3.93845E-01 1.77830E-14-9.30799E-14
 -1       631 2.01669E+01 3.91283E-01 1.67117E-04-1.40448E-01 2.24581E-15-9.43775E-14
 -1       632 2.01017E+01 2.11994E-01 6.08520E-05 2.10932E-02-1.33286E-14-1.14459E-13
 -1       633 2.00515E+01 9.78893E-02 7.51146E-06 1.15952E-01-5.67535E-14-1.04403E-13
 -1       634 2.00166E+01 2.65533E-02-1.48503E-05 1.64757E-01-4.23210E-14-9.53090E-14
 -1       635 1.99943E+01-1.61572E-02-2.58886E-05 1.83178E-01-3.42517E-15-1.04537E-13
 -1       636 1.99817E+01-3.94325E-02-3.09597E-05 1.82674E-01 6.59380E-14-3.01387E-14
 -1       637 1.99760E+01-4.94116E-02-3.18975E-05 1.71485E-01 8.27997E-14-4.90855E-15
 -1       638 1.99751E+01-5.02401E-02-2.98440E-05 1.55479E-01 3.51369E-14 2.49568E-14
 -1       639 1.99777E+01-4.46786E-02-2.56422E-05 1.38835E-01-2.28148E-15 9.85559E-15
 -1       640 1.99826E+01-3.44781E-02-1.98579E-05 1.24570E-01 3.00986E-14-1.45151E-14
 -1       641 1.99894E+01-2.06291E-02-1.27622E-05 1.14959E-01-3.28340E-14 5.22691E-14
 -1       642 1.99978E+01-3.54056E-03-4.45293E-06 1.11852E-01-1.81400E-13 8.07073E-14
 -1       643 2.00077E+01 1.68276E-02 5.18701E-06 1.16917E-01-1.86752E-13 2.44191E-13
 -1       644 2.00193E+01 4.08572E-02 1.64368E-05 1.31822E-01-5.87235E-14 1.70661E-13
 -1       645 2.00326E+01 6.91756E-02 2.97170E-05 1.58364E-01 6.36198E-15 2.11420E-13
 -1       646 2.00480E+01 1.02552E-01 4.55418E-05 1.98548E-01-1.39520E-14 1.41817E-13
 -1       647 2.00656E+01 1.41763E-01 6.44689E-05 2.54603E-01 3.90275E-14 6.98015E-16
 -1       648 2.00852E+01 1.87395E-01 8.70170E-05 3.28940E-01 1.90945E-14-1.17582E-13
 -1       649 2.01068E+01 2.39526E-01 1.13510E-04 4.24017E-01-5.26134E-14-1.77438E-14
 -1       650 2.01299E+01 2.97202E-01 1.43784E-04 5.42099E-01 1.12290E-14-2.89263E-15
 -1       651 2.01541E+01 3.57578E-01 1.76657E-04 6.84867E-01 6.31533E-14-1.15859E-13
 -1       652 2.01795E+01 4.14526E-01 2.09061E-04 8.52850E-01 7.26756E-14-1.35303E-13
 -1       653 2.02083E+01 4.56491E-01 2.34822E-04 1.04462E+00 2.15137E-13-1.93313E-14
 -1       654 2.02470E+01 4.63363E-01 2.43273E-04 1.25571E+00 2.44536E-13 2.10589E-13
 -1       655 2.03120E+01 4.02397E-01 2.18885E-04 1.47693E+00 1.46313E-13 2.56063E-13
 -1       656 2.04371E+01 2.24143E-01 1.26105E-04 1.69148E+00 1.88471E-13 2.90166E-13
 -1       657 2.06848E+01-1.38220E-01-1.50999E-04 1.86910E+00 7.51595E-15 2.48188E-13
 -1       658 2.11608E+01-7.58343E-01-9.30928E-04 1.95117E+00 1.74130E-13 3.29319E-13
 -1       659 2.20064E+01-1.66816E+00-8.93409E-04 1.83108E+00 2.98119E-14 5.81440E-14
 -1       660 2.33692E+01-2.73939E+00 2.61279E-03 1.29754E+00 1.78660E-14 6.99908E-14
 -1       661 2.52239E+01-3.42556E+00-4.71324E-04 9.98719E-02-2.82916E-14 2.31696E-13
 -1       662 2.71075E+01-2.76402E+00-4.65333E-02-1.72905E+00-1.15801E-13 3.30841E-13
 -1       663 2.78064E+01 4.63743E+00-1.60957E-01-2.32843E+00-9.98437E-14 5.17707E-13
 -1       664 2.73775E+01 5.46426E+00-2.11282E-01 2.56175E-01 1.00191E-13 8.89715E-13
 -1       665 2.41183E+01-3.13985E+00 1.43823E-03-1.75529E+00 2.53456E-13 2.91735E-13
 -1       666 2.24958E+01-1.99165E+00 2.59076E-04-2.50384E+00 5.65414E-14 1.34847E-13
 -1       667 2.14219E+01-7.69308E-01 9.84448E-04-2.69495E+00-9.70618E-14 1.46890E-13
 -1       668 1.99726E+01 8.76219E-02 5.73085E-05-1.18326E-01 3.27898E-14 1.81809E-14
 -1       669 2.09515E+01-1.51359E-02 1.75966E-03-2.59625E+00 3.26213E-14 4.01504E-14
 -1       670 2.00263E+01 1.88983E-01 1.70488E-04-1.99859E-02 5.88063E-15 8.29797E-14
 -1       671 1.99251E+01-1.26964E-02-2.84344E-05-1.86839E-01-4.30802E-15 6.88745E-14
 -1       672 1.99208E+01-3.32590E-02-4.37907E-05-1.85925E-01 2.80200E-14 2.99977E-14
 -1       673 1.99239E+01-4.23371E-02-4.96361E-05-1.74033E-01 2.98728E-14 7.60744E-14
 -1       674 1.99315E+01-4.35741E-02-4.87477E-05-1.57112E-01-2.34590E-14 5.53946E-14
 -1       675 1.99418E+01-3.93960E-02-4.32454E-05-1.39345E-01 2.27204E-14 8.22354E-14
 -1       676 1.99538E+01-3.13599E-02-3.44880E-05-1.23710E-01 7.28707E-14 1.64621E-13
 -1       677 1.99670E+01-2.03831E-02-2.32256E-05-1.12407E-01 6.12139E-14 2.15763E-13
 -1       678 1.99814E+01-6.91495E-03-9.76360E-06-1.07171E-01 4.97373E-14 2.62234E-13
 -1       679 1.99972E+01 8.93573E-03 5.83053E-06-1.09506E-01-9.70765E-14 3.06331E-13
 -1       680 2.00151E+01 2.72874E-02 2.37330E-05-1.20845E-01-4.09671E-14 3.51936E-13
 -1       681 2.00358E+01 4.83679E-02 4.41809E-05-1.42655E-01 8.69916E-14 2.61398E-13
 -1       682 2.00604E+01 7.23777E-02 6.73615E-05-1.76466E-01 7.80519E-14 1.66497E-13
 -1       683 2.00902E+01 9.93137E-02 9.32094E-05-2.23821E-01 1.11650E-13 1.30012E-13
 -1       684 2.01265E+01 1.28724E-01 1.21118E-04-2.86138E-01 8.59560E-14 1.68722E-13
 -1       685 2.01711E+01 1.59362E-01 1.49521E-04-3.64435E-01-4.77091E-14 1.95889E-13
 -1       686 2.02259E+01 1.88697E-01 1.75297E-04-4.58899E-01-1.08230E-13 2.06545E-13
 -1       687 2.02939E+01 2.12239E-01 1.92948E-04-5.68231E-01-1.34218E-13 1.84553E-13
 -1       688 2.03789E+01 2.22675E-01 1.93531E-04-6.88714E-01-2.32285E-13 2.24144E-13
 -1       689 2.04868E+01 2.08870E-01 1.63376E-04-8.12940E-01-6.39127E-14 1.13968E-13
 -1       690 2.06270E+01 1.55042E-01 8.44377E-05-9.28118E-01-1.62684E-13 9.81357E-14
 -1       691 2.08133E+01 4.08169E-02-6.88057E-05-1.01397E+00-1.03676E-13 1.33197E-13
 -1       692 2.10656E+01-1.56299E-01-3.25202E-04-1.04029E+00-5.64612E-14 1.21925E-13
 -1       693 2.14081E+01-4.53090E-01-7.03507E-04-9.64593E-01 4.03589E-14 1.84386E-13
 -1       694 2.18625E+01-8.42725E-01-1.12268E-03-7.31991E-01-7.68733E-14 9.71711E-14
 -1       695 2.24283E+01-1.26386E+00-1.54502E-03-2.83293E-01-3.34670E-13-1.19306E-13
 -1       696 2.30465E+01-1.56011E+00-1.82002E-03 4.14836E-01-5.12548E-14 3.68696E-14
 -1       697 2.35823E+01-1.47705E+00-2.60300E-03 1.30427E+00-4.31421E-14 1.44066E-13
 -1       698 2.38312E+01-6.91888E-01 8.79213E-03 2.16744E+00-4.93826E-13 1.29047E-13
 -1       699 2.35087E+01 7.54553E-01-2.59857E-02 2.43341E+00-9.02438E-14 3.54960E-14
 -1       700 2.30902E+01 2.17609E+00-1.38153E-02 1.69762E+00 1.24169E-13 2.48256E-13
 -1       701 2.28136E+01 2.72101E+00-1.83470E-02 2.03685E-01-5.05468E-14 3.85457E-13
 -1       702 2.29957E+01 1.90393E+00-2.40773E-02-1.16770E+00 2.24764E-14 4.16943E-13
 -1       703 2.34514E+01 3.53917E-01-6.56109E-03-1.65597E+00 3.85862E-13 6.07733E-13
 -1       704 2.35687E+01-9.64867E-01 3.56131E-03-1.21724E+00 4.19506E-13 5.97772E-13
 -1       705 2.31933E+01-1.52053E+00-1.73583E-03-3.38382E-01 4.27470E-13 2.87900E-13
 -1       706 2.25408E+01-1.41067E+00-1.72970E-03 4.99642E-01 3.47775E-13 3.26059E-13
 -1       707 2.18268E+01-9.04955E-01-9.83796E-04 1.05662E+00 3.43504E-13 2.28542E-13
 -1       708 2.13269E+01-4.17726E-01 3.77329E-04 1.37810E+00-3.25268E-14 3.91308E-14
 -1       709 7.94965E+00-5.95569E-01 1.74307E-01-9.65641E-01-1.18358E-13-7.67254E-13
 -1       710 1.73419E+01 1.52112E+00 3.98089E-03 2.04531E+00 1.36946E-13-8.48578E-13
 -1       711 2.01222E+01-1.76784E-02-6.08211E-04 3.06129E+00 5.72114E-13-4.93503E-13
 -1       712 1.65716E+01 1.98083E+00 4.56520E-03 3.69065E-01 1.02537E-13-6.05549E-13
 -1       713 1.87443E+01 7.19027E-01 9.63268E-04 2.98093E+00 1.84882E-13-6.89029E-13
 -1       714 1.68617E+01 1.82733E+00 4.02254E-03-1.42572E+00 1.63126E-14 1.17520E-13
 -1       715 1.80501E+01 1.17132E+00 3.46335E-03-2.73878E+00 1.13535E-13-2.40122E-14
 -1       716 1.95049E+01 4.18049E-01 4.44242E-05-3.18877E+00 1.38517E-13 1.32542E-13
 -1       717 2.63195E+01-5.24040E+00-2.67121E-02-2.60577E+00 3.72798E-13 4.57826E-13
 -1       718 2.02961E+01 1.42666E+00 6.39808E-04-9.74860E-01 8.76716E-14-1.44892E-13
 -1       719 2.79587E+01 4.02809E+00-1.39140E-01 2.49644E+00-2.76550E-13-5.59337E-13
 -1       720 2.01048E+01 3.52686E-01 5.78642E-04 1.50139E-01 3.01663E-14 1.25322E-13
 -1       721 1.99407E+01 2.48137E-02 1.00973E-06-1.68310E-01 1.82034E-14 1.69267E-14
 -1       722 2.00244E+01 2.29424E+00-1.65545E-03 6.38431E-01 1.19527E-13 8.28954E-14
 -1       723 7.93215E+00-1.60128E-01 1.43434E-01-1.04379E+00 2.35872E-13 2.41890E-14
 -1       724 2.00188E+01 2.30364E+00-1.88204E-03-6.29982E-01 1.34043E-13-9.55286E-14
 -1       725 8.92554E+00-1.05663E+00 1.49626E-01 3.32207E+00 3.08129E-13-1.78607E-13
 -1       726 2.78653E+01-3.06679E+00-5.96289E-02 4.37229E-01 1.69123E-13-7.01144E-13
 -1       727 2.87400E+01 1.90489E+00-1.31870E-01-3.09601E+00-3.14068E-13 5.51070E-13
 -1       728 1.40977E+01-3.08749E+00 1.05791E-01 5.59450E+00 3.16348E-13-2.45221E-14
 -1       729 1.17751E+01-1.81560E+00 1.38831E-01-5.05096E+00 2.67647E-13-5.39395E-13
 -1       730 2.15651E+01-5.23535E+00 8.22859E-02 4.62913E+00 7.95163E-14-3.06335E-13
 -1       731 2.85313E+01 3.96938E-01-1.02245E-01 2.28013E+00-1.63203E-14-3.77358E-13
 -1       732 1.66897E+01-3.82443E+00 1.25259E-01 6.56712E+00 8.71248E-14-7.75956E-13
 -1       733 9.82426E+00-1.43361E+00 1.52778E-01-4.21498E+00 6.17319E-14-3.44343E-13
 -1       734 2.85707E+01-1.73153E-01-1.07727E-01-1.50151E+00-2.41786E-14-1.01155E-12
 -1       735 2.01100E+01 2.06282E+00-3.07018E-03-8.45291E-01 1.16437E-13-9.74512E-14
 -1       736 1.99281E+01 2.52531E+00-1.51294E-03-1.26653E-01 1.59347E-13-2.38821E-14
 -1       737 2.39072E+01-5.03792E+00 3.18277E-02-4.04951E+00 2.13480E-13 3.81518E-13
 -1       738 2.63502E+01 4.94263E+00-1.46076E-01 1.69230E+00-3.14360E-13-5.13679E-13
 -1       739 2.44609E+01-5.16461E+00 1.20279E-03 2.57778E+00-1.43854E-13 2.00088E-13
 -1       740 2.76928E+01-2.55509E-02-9.04121E-02-3.02281E+00-5.06338E-13 5.58314E-13
 -1       741 2.62896E+01-3.59552E+00 4.47612E-03-4.49109E-01 3.44697E-13 3.38703E-13
 -1       742 9.22791E+00-3.65148E-01 1.45611E-01 1.94184E+00 1.02411E-13-6.76958E-13
 -1       743 2.12624E+01-4.39869E-01 1.56148E-03 2.06397E+00 1.33741E-13 1.96603E-13
 -1       744 2.62755E+01-4.30190E+00 4.97359E-03-9.70558E-01 1.10517E-13-9.32763E-13
 -1       745 2.65164E+01-5.06066E+00-1.23546E-02 2.52684E+00-6.06702E-14-7.74809E-13
 -1       746 2.17938E+01-5.18822E+00 4.29081E-02-4.65873E+00 1.28321E-13-7.43092E-13
 -1       747 2.05124E+01-2.88547E-01 3.12257E-03-3.14323E+00-9.61817E-14-2.15372E-13
 -1       748 1.56439E+01-2.83075E+00 7.85336E-02-5.33896E+00 4.04850E-14-5.18027E-13
 -1       749 2.08960E+01-3.35501E-01 4.19852E-04 2.64176E+00 3.55758E-13 1.82415E-13
 -1       750 2.65951E+01 5.05304E+00-1.20148E-01-9.49877E-01-1.82229E-13-8.17876E-13
 -1       751 1.99578E+01 2.45425E+00-1.59989E-03-3.84796E-01 1.34025E-13-1.28104E-14
 -1       752 2.69983E+01 1.92518E+00-1.11006E-01-2.08588E+00-1.12566E-13-9.04703E-13
 -1       753 2.04824E+01-4.75967E+00 5.69127E-02 5.83397E+00-7.38402E-14-6.61254E-13
 -1       754 2.91670E+01 9.59972E-01-7.58381E-02 2.24545E+00 2.81691E-13 3.57929E-13
 -1       755 2.02648E+01 1.30778E+00 1.92878E-04 6.32479E-01 5.86216E-14 1.10549E-13
 -1       756 2.67133E+01-1.33286E+00-3.25464E-02 2.05147E+00 1.98917E-13-8.11178E-13
 -1       757 2.02626E+01 4.32153E-01-8.92497E-05-9.47073E-02-4.13472E-15-5.73275E-14
 -1       758 2.02224E+01 2.33715E-01-3.19075E-05 3.46970E-02-4.55464E-14-2.51355E-14
 -1       759 2.01811E+01 1.03717E-01-1.49637E-05 1.11875E-01-6.34510E-14-2.90231E-14
 -1       760 2.01438E+01 2.13968E-02-1.08254E-05 1.51708E-01-3.20815E-16 2.81835E-14
 -1       761 2.01122E+01-2.76637E-02-9.49850E-06 1.66363E-01 7.23564E-14 2.03924E-14
 -1       762 2.00866E+01-5.35033E-02-8.73179E-06 1.65271E-01 7.05791E-14-2.02313E-14
 -1       763 2.00664E+01-6.31404E-02-7.95079E-06 1.55471E-01 7.76599E-14-6.47440E-14
 -1       764 2.00509E+01-6.14229E-02-7.06831E-06 1.42113E-01 3.55620E-14-3.58919E-15
 -1       765 2.00393E+01-5.15869E-02-5.99093E-06 1.28947E-01 1.57178E-14 2.78156E-14
 -1       766 2.00307E+01-3.56410E-02-4.48336E-06 1.18755E-01-2.07612E-14 4.18219E-14
 -1       767 2.00244E+01-1.46560E-02-2.68381E-06 1.13705E-01-9.01050E-14 1.04863E-13
 -1       768 2.00196E+01 1.10177E-02-6.32468E-07 1.15616E-01-1.17553E-13 1.33251E-13
 -1       769 2.00153E+01 4.15802E-02 1.67648E-06 1.26172E-01-1.42163E-13 2.07800E-13
 -1       770 2.00107E+01 7.76349E-02 4.34829E-06 1.47063E-01-1.72713E-14 1.82123E-13
 -1       771 2.00046E+01 1.20044E-01 7.52452E-06 1.80090E-01-7.55506E-14 9.33158E-14
 -1       772 1.99956E+01 1.69768E-01 1.13851E-05 2.27200E-01-5.65909E-14 2.32619E-14
 -1       773 1.99820E+01 2.27647E-01 1.61648E-05 2.90481E-01-2.32907E-14 2.93863E-14
 -1       774 1.99614E+01 2.94097E-01 2.21800E-05 3.72090E-01 5.70354E-14-4.62865E-14
 -1       775 1.99314E+01 3.68631E-01 2.98758E-05 4.74141E-01-2.77906E-14 1.73346E-13
 -1       776 1.98886E+01 4.49121E-01 3.99045E-05 5.98559E-01-8.28199E-14 1.25951E-13
 -1       777 1.98301E+01 5.30648E-01 5.32631E-05 7.46956E-01 5.34197E-14 1.72150E-14
 -1       778 1.97536E+01 6.03743E-01 7.16055E-05 9.20615E-01 2.05357E-13 9.74380E-14
 -1       779 1.96597E+01 6.51801E-01 9.85802E-05 1.12074E+00 3.10301E-13 5.80284E-14
 -1       780 1.95555E+01 6.47415E-01 1.45732E-04 1.34915E+00 1.37473E-13 2.14067E-14
 -1       781 1.94611E+01 5.47433E-01 2.54383E-04 1.60936E+00 1.04751E-13 1.41073E-14
 -1       782 1.94218E+01 2.87258E-01 5.85087E-04 1.90622E+00 6.09923E-15-1.57337E-13
 -1       783 1.95210E+01-2.19226E-01 5.96595E-04 2.24179E+00 8.23688E-14-2.62453E-13
 -1       784 1.99450E+01-1.09838E+00-4.27311E-03 2.59009E+00 1.41606E-13-2.52156E-13
 -1       785 2.09228E+01-2.39272E+00 7.11786E-03 2.85060E+00 8.75354E-14-4.77806E-14
 -1       786 2.13140E+01-1.75125E+00-6.65731E-04-3.46070E+00-8.32628E-14-2.92694E-13
 -1       787 2.01706E+01 2.23567E-01 5.17363E-07-3.10767E-02 6.52130E-14 1.62113E-14
 -1       788 2.00423E+01-4.72177E-02-1.40800E-05-1.74531E-01-1.63159E-14-5.68293E-15
 -1       789 2.00624E+01-2.25124E-02-1.25566E-05-1.75548E-01 2.31711E-14-5.42808E-14
 -1       790 2.00190E+01-5.65140E-02-1.17996E-05-1.49252E-01-4.26997E-14 5.73383E-14
 -1       791 2.00134E+01-4.86870E-02-1.01366E-05-1.34432E-01-7.01256E-14 2.00298E-14
 -1       792 2.00106E+01-3.54825E-02-7.83590E-06-1.22362E-01 3.65134E-14 1.33349E-13
 -1       793 2.00100E+01-1.79984E-02-4.72075E-06-1.15253E-01-3.10396E-14 1.11243E-13
 -1       794 2.00111E+01 3.27283E-03-1.02812E-06-1.14906E-01-8.98664E-14 2.59062E-13
 -1       795 2.00134E+01 2.82761E-02 3.34837E-06-1.22936E-01-3.05419E-14 1.20639E-13
 -1       796 2.00166E+01 5.72174E-02 8.43191E-06-1.40915E-01 3.35487E-14 1.59264E-13
 -1       797 2.00205E+01 9.03815E-02 1.43091E-05-1.70453E-01 1.10319E-13 9.40907E-14
 -1       798 2.00249E+01 1.27915E-01 2.10799E-05-2.13214E-01 1.17220E-13 2.19160E-13
 -1       799 2.00295E+01 1.69541E-01 2.88019E-05-2.70853E-01 1.57879E-14 3.54999E-13
 -1       800 2.00347E+01 2.14176E-01 3.74271E-05-3.44877E-01 1.86669E-15 3.11701E-13
 -1       801 2.00408E+01 2.59391E-01 4.67206E-05-4.36397E-01-3.15782E-14 1.55560E-13
 -1       802 2.00494E+01 3.00685E-01 5.61460E-05-5.45758E-01-9.42406E-14 9.96765E-14
 -1       803 2.00632E+01 3.30517E-01 6.46644E-05-6.72034E-01-1.72420E-13 9.46076E-14
 -1       804 2.00881E+01 3.37108E-01 7.02132E-05-8.12322E-01-1.74569E-13-5.93630E-14
 -1       805 2.01344E+01 3.03127E-01 6.83034E-05-9.60765E-01-1.41243E-13 9.43762E-14
 -1       806 2.02195E+01 2.04714E-01 5.60660E-05-1.10709E+00-8.25477E-14 5.72521E-14
 -1       807 2.03714E+01 1.18184E-02 1.51671E-05-1.23429E+00-6.40942E-14 4.13017E-14
 -1       808 2.06317E+01-3.08189E-01-7.80630E-05-1.31466E+00-7.86843E-14-2.04976E-14
 -1       809 2.10556E+01-7.78991E-01-2.61409E-04-1.30230E+00-2.40965E-14 5.65104E-15
 -1       810 2.17023E+01-1.38616E+00-1.60315E-04-1.12436E+00-5.70867E-14 2.36373E-14
 -1       811 2.26041E+01-2.02780E+00-5.45750E-05-6.75703E-01-2.07302E-13-1.25933E-13
 -1       812 2.36937E+01-2.41808E+00 2.65064E-03 1.58311E-01-1.57000E-13 3.83670E-14
 -1       813 2.45740E+01-2.08035E+00-4.80717E-02 1.38473E+00-3.61661E-13 2.81758E-13
 -1       814 2.45632E+01 4.07971E+00-8.30129E-02 1.25977E+00-2.25904E-13-1.03983E-13
 -1       815 2.45399E+01-2.30549E+00-4.77537E-03-2.42526E-01 5.95557E-13 2.66529E-13
 -1       816 2.35198E+01-2.31074E+00 5.63641E-04 8.63156E-01 3.06923E-13 4.41673E-13
 -1       817 2.24347E+01-1.66128E+00-1.56689E-03 1.57001E+00 4.77685E-13 1.56733E-13
 -1       818 2.17914E+01-1.08482E+00-1.96708E-03 1.91296E+00 2.99025E-13 2.05152E-13
 -1       819 1.47093E+01 1.33633E+00 2.23913E-02-7.11728E-01-3.14928E-14-2.89416E-13
 -1       820 1.51289E+01 1.05949E+00 1.83056E-02 1.82550E+00-2.50494E-15-6.51905E-13
 -1       821 1.61434E+01 6.55059E-01 1.41114E-02-2.92066E+00-7.83813E-14 2.80050E-13
 -1       822 1.85524E+01-4.05801E-01 5.35769E-03-3.81703E+00 2.69452E-14 1.26467E-13
 -1       823 2.00282E+01-5.70409E-02-1.32072E-05-1.63935E-01-2.20654E-14 5.55329E-14
 -1       824 2.01397E+01 1.88806E+00-3.16000E-04 1.99371E-01 1.11272E-13-1.21387E-14
 -1       825 2.02910E+01 7.28573E-01 4.31078E-05-2.93419E-01 1.99633E-14-7.05282E-14
 -1       826 2.87219E+01-3.13481E+00-1.65259E-02-9.65053E-01-2.10062E-13 1.40936E-13
 -1       827 1.45092E+01-1.30408E+00 1.01265E-01-4.83692E+00-2.30198E-13-3.63768E-13
 -1       828 1.43826E+01-1.36069E+00 1.09047E-01 4.95940E+00 4.40273E-14-1.01285E-12
 -1       829 1.05793E+01 3.29979E-01 8.05136E-02 1.28746E+00 1.18508E-14-3.12701E-14
 -1       830 1.31192E+01-1.00901E+00 6.13520E-02 3.90522E+00 7.82993E-14-1.67037E-13
 -1       831 2.02777E+01 9.42746E-01 5.06276E-05 5.53967E-01 5.39999E-14 1.59169E-13
 -1       832 1.88531E+01-3.37604E+00 5.68288E-02 4.54923E+00 1.04368E-13-3.98900E-13
 -1       833 1.11160E+01-6.89242E-02 1.08854E-01-2.35750E+00 1.53225E-13-3.71540E-13
 -1       834 1.83947E+01-3.48248E+00 6.92311E-02-5.80272E+00-9.30835E-14-1.85352E-13
 -1       835 2.69618E+01-2.92777E+00-3.26869E-02-1.98814E-01 1.95012E-13-7.70869E-13
 -1       836 2.02768E+01 1.27345E+00 2.56812E-04-5.64876E-01 6.90501E-14-7.87916E-14
 -1       837 1.17267E+01-2.08824E-03 7.77100E-02-2.69429E+00 2.67481E-13-3.91482E-13
 -1       838 2.01281E+01 1.92628E+00-3.10828E-04 3.30493E-03 1.19610E-13-7.90125E-15
 -1       839 1.11394E+01 4.54415E-01 1.03521E-01 2.16963E-02 1.28022E-13-7.52183E-13
 -1       840 2.56875E+01 2.96593E+00-8.93169E-02 2.56725E+00-1.15224E-13-4.86130E-13
 -1       841 2.02223E+01 1.58091E+00 8.42747E-05 5.35642E-01 6.71550E-14 8.41050E-14
 -1       842 2.17550E+01-3.02704E+00 1.29006E-02-3.96954E+00-4.71997E-14 1.05979E-13
 -1       843 2.27736E+01-3.96475E+00 5.92749E-03 2.70378E+00 8.32242E-14 2.84707E-13
 -1       844 2.63809E+01-1.13472E+00-4.88231E-02-1.42377E+00 2.98110E-13-7.66358E-13
 -1       845 2.34579E+01-4.83390E+00 1.24177E-02 4.12824E+00 2.50884E-14-6.31274E-13
 -1       846 2.01260E+01 1.00992E-01-3.43604E-06-1.15846E-01 5.66497E-14-7.03066E-15
 -1       847 2.01722E+01 1.77470E+00-2.76107E-04 3.81955E-01 9.70521E-14 4.30182E-14
 -1       848 2.00899E+01 2.36788E-02-8.44064E-06-1.59422E-01-9.70540E-15-4.10365E-14
 -1       849 2.47897E+01 1.97778E+00-1.11027E-01 2.49251E+00 8.06352E-14-3.80526E-13
 -1       850 2.41584E+01-4.64660E+00 1.89866E-02-2.42314E+00-5.03657E-14-9.26439E-13
 -1       851 1.95126E+01-9.33581E-01 8.97322E-03 3.80828E+00 2.99611E-13-7.32895E-13
 -1       852 1.71454E+01 8.20532E-02 1.72321E-02 3.49727E+00 7.67160E-14-1.07717E-12
 -1       853 2.62267E+01-2.84757E+00 2.33155E-02 7.08247E-01 6.95673E-14-6.37637E-13
 -1       854 1.40120E+01-8.03575E-01 5.14067E-02-3.72479E+00 2.11700E-13-2.98827E-13
 -1       855 1.90917E+01-3.66566E+00 3.82589E-02-4.73457E+00 5.82017E-14-6.97112E-13
 -1       856 2.02200E+01 4.14269E-01 8.86833E-05 1.11798E-01 5.61460E-14 9.49935E-14
 -1       857 2.02493E+01 6.35948E-01-6.50007E-05 2.95573E-01 5.41709E-14 1.33523E-13
 -1       858 2.10404E+01-1.39146E+00 4.42040E-03 3.30131E+00 9.32698E-14-3.48803E-13
 -1       859 1.84032E+01-2.66456E+00 5.73316E-02 5.29311E+00-1.53610E-14-9.27095E-13
 -1       860 1.99703E+01-1.16374E+00 1.56021E-02-3.85418E+00-7.83946E-14-2.80528E-13
 -1       861 2.01696E+01 1.78047E+00-2.79561E-04-3.75745E-01 1.21652E-13-6.71961E-14
 -1       862 2.02228E+01 1.56063E+00-3.53610E-05-4.95108E-01 1.03577E-13-8.39593E-14
 -1       863 1.70992E+01-1.35331E+00 3.79876E-02 3.70244E+00 2.32351E-13-2.73128E-13
 -1       864 1.86563E+01-1.71558E+00 2.88588E-03-4.56675E+00-6.97557E-13-1.42091E-13
 -1       865 2.00475E+01-3.27084E-02 1.31558E-07-1.11740E-01-5.21965E-14 6.67151E-14
 -1       866 2.01589E+01-3.59528E-02-5.27896E-06-1.53238E-01-2.45895E-14 2.60697E-14
 -1       867 2.03314E+01 4.30043E-01-2.74761E-06-4.73188E-02 1.05806E-14-2.10710E-14
 -1       868 2.03057E+01 2.27177E-01-1.64895E-05 4.64453E-02-1.26051E-14 9.29699E-15
 -1       869 2.02697E+01 9.26510E-02-7.87412E-06 1.02373E-01-1.09133E-14 9.95054E-14
 -1       870 2.02307E+01 7.45355E-03-5.82469E-06 1.30576E-01 4.81217E-15 8.70146E-14
 -1       871 2.01928E+01-4.23001E-02-3.64797E-06 1.40033E-01 1.96568E-14-5.65260E-15
 -1       872 2.01582E+01-6.68486E-02-1.82969E-06 1.37927E-01 5.34922E-14 1.30341E-14
 -1       873 2.01277E+01-7.35438E-02-1.47338E-06 1.29737E-01 2.78381E-14 2.24292E-14
 -1       874 2.01014E+01-6.75195E-02-1.99910E-06 1.19540E-01 3.69448E-14-8.78000E-14
 -1       875 2.00788E+01-5.21591E-02-1.87439E-06 1.10356E-01 2.80603E-14-3.25347E-14
 -1       876 2.00590E+01-2.94915E-02-1.56978E-06 1.04496E-01 2.76928E-14-4.78417E-14
 -1       877 2.00409E+01-5.07989E-04-1.25260E-06 1.03807E-01-2.31420E-14 3.49259E-14
 -1       878 2.00231E+01 3.46013E-02-1.12269E-06 1.09878E-01-6.97907E-14 1.59278E-13
 -1       879 2.00039E+01 7.62441E-02-1.12381E-06 1.24203E-01-1.00266E-13 2.90267E-13
 -1       880 1.99812E+01 1.25236E-01-1.20911E-06 1.48279E-01-7.10179E-14 1.82914E-13
 -1       881 1.99527E+01 1.82605E-01-1.33993E-06 1.83659E-01-1.44251E-13 2.06158E-13
 -1       882 1.99154E+01 2.49367E-01-1.46059E-06 2.31959E-01 7.24311E-15 8.20937E-14
 -1       883 1.98658E+01 3.26232E-01-1.46945E-06 2.94824E-01-3.58549E-14 1.42111E-13
 -1       884 1.97995E+01 4.13196E-01-1.17103E-06 3.73870E-01 7.98837E-14-2.95310E-14
 -1       885 1.97116E+01 5.08965E-01-1.68301E-07 4.70644E-01-7.73451E-14 1.07979E-14
 -1       886 1.95963E+01 6.10103E-01 2.38692E-06 5.86673E-01-7.42466E-14 9.44300E-14
 -1       887 1.94475E+01 7.09813E-01 8.25686E-06 7.23764E-01 5.38279E-14-1.61439E-14
 -1       888 1.92595E+01 7.96202E-01 2.07710E-05 8.84778E-01 2.03714E-13-8.77026E-14
 -1       889 1.90282E+01 8.49885E-01 4.72406E-05 1.07526E+00 1.65560E-13-8.01454E-14
 -1       890 1.87540E+01 8.40699E-01 1.24396E-04 1.30656E+00 1.16654E-13-8.46219E-14
 -1       891 1.84471E+01 7.22553E-01 3.95345E-04 1.60070E+00 8.50004E-15-1.67556E-13
 -1       892 1.81367E+01 4.23336E-01 2.97521E-04 2.00024E+00 6.46015E-14-5.84743E-14
 -1       893 1.79372E+01-1.67343E-01-3.21666E-03 2.58409E+00 2.80787E-14-6.79235E-14
 -1       894 2.00624E+01-5.21926E-02 4.36487E-07-1.19500E-01-8.07793E-14-3.44613E-14
 -1       895 2.00804E+01-6.49948E-02 3.56819E-06-1.30501E-01-2.32974E-14-2.61279E-14
 -1       896 2.00345E+01-7.68916E-03 7.80255E-08-1.09213E-01-6.93719E-14 6.96471E-14
 -1       897 2.00226E+01 2.24507E-02 4.34662E-07-1.13606E-01-5.00596E-14 2.45600E-14
 -1       898 2.00106E+01 5.77666E-02 1.04510E-06-1.26490E-01 4.43675E-14 4.85658E-14
 -1       899 1.99972E+01 9.85615E-02 1.88609E-06-1.49433E-01 8.27272E-14 3.94924E-14
 -1       900 1.99810E+01 1.45139E-01 3.01134E-06-1.84068E-01 3.56456E-15 1.52616E-13
 -1       901 1.99607E+01 1.97503E-01 4.51934E-06-2.32105E-01 4.18268E-14 1.97812E-13
 -1       902 1.99350E+01 2.54967E-01 6.54999E-06-2.95300E-01 7.35516E-14 7.58871E-14
 -1       903 1.99027E+01 3.15637E-01 9.30509E-06-3.75369E-01 7.31855E-14 1.71491E-13
 -1       904 1.98635E+01 3.75718E-01 1.30998E-05-4.73862E-01-9.39315E-14 2.24500E-13
 -1       905 1.98180E+01 4.28601E-01 1.84584E-05-5.92017E-01-1.17611E-13 1.75899E-13
 -1       906 1.97694E+01 4.63683E-01 2.61806E-05-7.30602E-01-1.87054E-13 1.73196E-13
 -1       907 1.97250E+01 4.64938E-01 3.68022E-05-8.89733E-01-2.66725E-13 1.94451E-13
 -1       908 1.96986E+01 4.09297E-01 4.82255E-05-1.06851E+00-5.12449E-14 1.56871E-13
 -1       909 1.97149E+01 2.65393E-01 8.14565E-05-1.26404E+00 4.38267E-14-1.11329E-14
 -1       910 1.98141E+01-6.38340E-03 1.12107E-04-1.46916E+00 5.44575E-14-1.04056E-13
 -1       911 2.00604E+01-4.51944E-01 1.38836E-04-1.66685E+00-1.14819E-13-1.65260E-13
 -1       912 2.05483E+01-1.11081E+00 1.07829E-04-1.81052E+00 8.74409E-15-2.30692E-13
 -1       913 2.13983E+01-1.97481E+00 9.78986E-04-1.80867E+00-1.56480E-13-1.34045E-13
 -1       914 2.27260E+01-2.90979E+00 2.39706E-03-1.47441E+00-3.08586E-13-2.71659E-13
 -1       915 2.46081E+01-3.49033E+00 1.80960E-02 1.59672E+00 2.90377E-13-3.98538E-13
 -1       916 2.03348E+01 7.23556E-01-3.03143E-04-1.89993E-01 2.12600E-14-3.77689E-14
 -1       917 1.39095E+01-3.50143E-02 6.29817E-02 3.33955E+00 2.68529E-13-8.71999E-13
 -1       918 1.24565E+01 7.87497E-01 3.83173E-02-4.78203E-01 7.80988E-14-4.39874E-13
 -1       919 2.01384E+01 1.89097E+00-3.48926E-04-1.92771E-01 1.28346E-13-1.08696E-14
 -1       920 2.28974E+01-2.55820E+00 3.48566E-03 2.36514E+00 2.82629E-13 3.35551E-14
 -1       921 2.12135E+01-3.49801E+00 2.52381E-02 4.63324E+00-4.07443E-14-6.56048E-13
 -1       922 1.33489E+01 1.93523E-01 3.30708E-02 2.36078E+00-3.05022E-14 8.79219E-14
 -1       923 2.16290E+01-1.30772E+00 1.97743E-03 2.59286E+00 4.08491E-13 3.38623E-13
 -1       924 1.68538E+01-1.22602E+00 3.08910E-02 4.55899E+00 8.35053E-14-1.05454E-12
 -1       925 2.02972E+01 9.03140E-01-1.58996E-04 3.77605E-01 5.32082E-14 9.73645E-14
 -1       926 2.01021E+01-6.90720E-02 5.17588E-06-1.42226E-01 7.12325E-15-5.13351E-14
 -1       927 2.01940E+01 1.34316E-02-3.41358E-06-1.41785E-01-2.86804E-14-1.09170E-14
 -1       928 2.02866E+01 1.33697E+00 5.19604E-05 1.97515E-01 7.60276E-14 1.90878E-14
 -1       929 2.12104E+01-2.68256E+00-1.31720E-02 4.02013E+00 9.57125E-14-6.63053E-13
 -1       930 2.44858E+01-3.45459E+00 4.13233E-03-6.05073E-01-2.57211E-13-2.55689E-13
 -1       931 1.92191E+01-2.16113E+00 2.78545E-02 4.63329E+00-6.42641E-14-7.73669E-13
 -1       932 1.40384E+01 3.38582E-01 2.50103E-02-2.15778E+00 2.04847E-13-4.35808E-13
 -1       933 2.17473E+01-3.91422E+00 1.19652E-02-3.32575E+00-1.22899E-13-6.58425E-13
 -1       934 2.01282E+01-6.10767E-02-2.36353E-07-1.51336E-01-1.81460E-14 3.88047E-14
 -1       935 1.65050E+01-1.73285E+00 2.98828E-02-4.13679E+00 2.05459E-13-4.85553E-13
 -1       936 2.02852E+01 1.33963E+00-8.12176E-05-1.92812E-01 1.12627E-13-2.03307E-14
 -1       937 2.03006E+01 4.30222E-01-5.24549E-05 6.47319E-02 1.02075E-13 7.96998E-14
 -1       938 2.02766E+01 1.40516E+00-3.49066E-07 6.97767E-02 9.73336E-14-1.03055E-14
 -1       939 2.02698E+01 2.29441E-01 1.92747E-05-4.41615E-02 9.77790E-14 3.48794E-14
 -1       940 2.03081E+01 1.17684E+00 2.84510E-04-2.74777E-01 8.28183E-14-4.20132E-14
 -1       941 2.02951E+01 1.14440E+00 1.84244E-07-3.85941E-01 4.24486E-14-4.55988E-14
 -1       942 2.03613E+01 1.97476E-01 8.34732E-06 4.99581E-02 4.03699E-15 2.20882E-14
 -1       943 2.03263E+01 6.80012E-02-5.37583E-06 8.51599E-02 3.76388E-14 1.75819E-14
 -1       944 2.02848E+01-1.27145E-02-3.07474E-06 1.01930E-01-6.83263E-15 1.06925E-13
 -1       945 2.02420E+01-5.80191E-02-1.00979E-06 1.06483E-01 5.85739E-14 1.13260E-13
 -1       946 2.02010E+01-7.78048E-02 1.11078E-06 1.03742E-01 7.82832E-14 1.41533E-13
 -1       947 2.01632E+01-7.93359E-02-9.08359E-08 9.75054E-02-9.31730E-15 8.08789E-14
 -1       948 2.01291E+01-6.76515E-02-4.96491E-07 9.06139E-02 4.68178E-14 9.72396E-14
 -1       949 2.00981E+01-4.59490E-02-6.08574E-07 8.52412E-02 3.30786E-14 9.22700E-14
 -1       950 2.00691E+01-1.60875E-02-1.10378E-06 8.30822E-02-6.10591E-15 4.62348E-15
 -1       951 2.00406E+01 2.11530E-02-2.27828E-06 8.55069E-02 6.05827E-14 1.53262E-14
 -1       952 2.00105E+01 6.58141E-02-4.04883E-06 9.37164E-02 2.94202E-14 9.83939E-14
 -1       953 1.99764E+01 1.18514E-01-6.40699E-06 1.08840E-01-8.23367E-14 1.65505E-13
 -1       954 1.99352E+01 1.80219E-01-9.43373E-06 1.31979E-01-5.54507E-14 2.90447E-13
 -1       955 1.98833E+01 2.51998E-01-1.32665E-05 1.64221E-01-8.86892E-14 2.84439E-13
 -1       956 1.98165E+01 3.34740E-01-1.80882E-05 2.06601E-01 2.41520E-14 2.65448E-13
 -1       957 1.97295E+01 4.28795E-01-2.41394E-05 2.60062E-01-7.69993E-14 2.02710E-13
 -1       958 1.96164E+01 5.33519E-01-3.17262E-05 3.25411E-01 1.29197E-14 1.70960E-13
 -1       959 1.94699E+01 6.46666E-01-4.11194E-05 4.03352E-01-1.01462E-13 1.01944E-13
 -1       960 1.92818E+01 7.63619E-01-5.21142E-05 4.94736E-01 3.69643E-14 9.26405E-14
 -1       961 1.90420E+01 8.76394E-01-6.34321E-05 6.01219E-01 7.56823E-14 1.65762E-13
 -1       962 1.87390E+01 9.72376E-01-7.30128E-05 7.26674E-01 1.46960E-13-1.06809E-13
 -1       963 1.83591E+01 1.03293E+00-8.81247E-05 8.79690E-01 1.62045E-13-1.16403E-13
 -1       964 1.78852E+01 1.03160E+00-6.08409E-05 1.07913E+00 1.07826E-13-8.55628E-14
 -1       965 1.72984E+01 9.27461E-01 1.76794E-04 1.35986E+00 8.70454E-14 1.67555E-13
 -1       966 1.65765E+01 6.62973E-01 4.48990E-03 1.77227E+00 4.82329E-14 4.11723E-14
 -1       967 2.02320E+01 9.72080E-02 3.16685E-06-1.08851E-01 5.24335E-14 7.94420E-16
 -1       968 2.03039E+01 1.19927E+00-1.14011E-04 3.05588E-01 8.44013E-14 4.42508E-14
 -1       969 2.02759E+01 1.40656E+00-4.76352E-05-6.56060E-02 1.04652E-13-4.59109E-14
 -1       970 2.01179E+01-6.78985E-02 5.90677E-06-1.04194E-01-5.35444E-14-4.22964E-14
 -1       971 2.00171E+01 5.00633E-02 7.92272E-07-1.02616E-01-6.70167E-15-2.54946E-14
 -1       972 1.99904E+01 9.61831E-02-7.97662E-07-1.18239E-01 4.48444E-15 2.61465E-14
 -1       973 1.99591E+01 1.49315E-01-2.42150E-06-1.43150E-01 1.41192E-14 1.77120E-13
 -1       974 1.99210E+01 2.09751E-01-4.09144E-06-1.78914E-01 1.09699E-13 9.36447E-14
 -1       975 1.98734E+01 2.77296E-01-5.81460E-06-2.27249E-01 1.01458E-13 4.40902E-14
 -1       976 1.98138E+01 3.50805E-01-7.59130E-06-2.90054E-01-5.16673E-14 1.24837E-13
 -1       977 1.97398E+01 4.27566E-01-9.41233E-06-3.69436E-01-4.31873E-14 1.30654E-13
 -1       978 1.96499E+01 5.02533E-01-1.12580E-05-4.67788E-01-6.34261E-14 1.16868E-13
 -1       979 1.95436E+01 5.67338E-01-1.31457E-05-5.87975E-01-1.30660E-13 1.04934E-13
 -1       980 1.94231E+01 6.09075E-01-1.56026E-05-7.33686E-01-2.18571E-13 2.04532E-14
 -1       981 1.92949E+01 6.08770E-01-2.23085E-05-9.10056E-01-6.22910E-14-1.50349E-13
 -1       982 1.91726E+01 5.39404E-01-4.43264E-05-1.12433E+00 4.56229E-14-1.30445E-13
 -1       983 1.90824E+01 3.64069E-01 2.84163E-05-1.38562E+00 4.45920E-14 1.25249E-13
 -1       984 1.90688E+01 3.64646E-02 3.74168E-04-1.70437E+00 4.63704E-15 1.21931E-13
 -1       985 1.92045E+01-5.05376E-01-1.53598E-04-2.09057E+00 6.37143E-14-1.83568E-13
 -1       986 1.96591E+01-1.33939E+00 3.49158E-04-2.48516E+00-6.55849E-14-1.47922E-13
 -1       987 2.03181E+01-2.46255E+00-6.33129E-04-2.99757E+00-1.88002E-13-4.27402E-13
 -1       988 1.43411E+01 9.29916E-01 1.08794E-02-7.50332E-01 2.20978E-13-4.05446E-13
 -1       989 2.00654E+01-2.25590E-02 4.04182E-06-9.34912E-02-5.10144E-14-3.24748E-14
 -1       990 1.55493E+01-3.28332E-01 1.65946E-02-2.95855E+00 7.08877E-14-3.59261E-13
 -1       991 2.03760E+01 6.73763E-01 3.06100E-04-1.01208E-01 4.53762E-14-1.28618E-14
 -1       992 2.00415E+01 1.05521E-02 2.37875E-06-9.48319E-02-4.89929E-15-2.49879E-15
 -1       993 2.03051E+01 6.33332E-01-3.24895E-04 1.96091E-01 8.70310E-14 8.08914E-14
 -1       994 2.00904E+01-4.90133E-02 4.32388E-06-9.71410E-02-1.04160E-13 4.40629E-14
 -1       995 1.40433E+01 8.42864E-01 7.16606E-03 9.38359E-01 2.58731E-14-2.40088E-13
 -1       996 2.03815E+01 3.92428E-01-6.76998E-05-1.01519E-02 3.63791E-14-9.18856E-16
 -1       997 2.01489E+01-7.70993E-02 1.27085E-05-1.12607E-01-4.36514E-14-7.85340E-14
 -1       998 2.02623E+01-4.25142E-03-5.23901E-06-1.16316E-01 2.70084E-14 1.52272E-14
 -1       999 1.55793E+01 7.49706E-01 6.40124E-03 1.64347E+00 1.97958E-14 2.25868E-13
 -1      1000 2.03688E+01 9.68500E-01-1.42433E-04-7.64955E-02 7.96559E-14-1.39693E-14
 -1      1001 1.55902E+01 4.33425E-01 6.43182E-03-1.98598E+00 5.84888E-14-2.19177E-13
 -1      1002 1.86777E+01-2.22430E+00 1.20802E-02-3.71217E+00 1.65471E-14-5.20603E-13
 -1      1003 2.03621E+01 8.84690E-01 1.08768E-04 1.45189E-01 6.77565E-14 4.36898E-14
 -1      1004 2.03708E+01 9.67656E-01 1.78923E-04 8.10235E-02 5.64435E-14-1.32913E-14
 -1      1005 2.02218E+01-5.14243E-02-1.27602E-06-1.22725E-01 2.31659E-14-1.04559E-13
 -1      1006 2.03599E+01 4.07018E-01 5.17877E-05 2.23803E-02 1.01312E-13 9.61898E-14
 -1      1007 2.03806E+01 8.22076E-01-1.56900E-04-9.92242E-02 7.93143E-14-2.99541E-14
 -1      1008 2.03596E+01 6.93380E-01 6.04245E-04 1.37345E-01 8.29973E-14 5.96952E-14
 -1      1009 2.03373E+01 2.09719E-01 3.01654E-06-5.17055E-02 1.02018E-13 1.31880E-13
 -1      1010 2.03552E+01 3.48373E-02-2.96876E-05 5.89194E-02 5.80664E-14 8.20989E-14
 -1      1011 2.03105E+01-3.55205E-02-2.57870E-05 6.66700E-02 3.49050E-14 1.44126E-13
 -1      1012 2.02639E+01-7.22196E-02 5.18867E-06 6.77606E-02 4.88471E-14 7.84850E-14
 -1      1013 2.02188E+01-8.47733E-02-6.66482E-07 6.52683E-02 1.97178E-14 4.76950E-14
 -1      1014 2.01764E+01-7.97434E-02-3.07168E-06 6.13492E-02 5.39282E-14 1.17918E-13
 -1      1015 2.01371E+01-6.17041E-02 5.12703E-08 5.75416E-02-7.44658E-16-3.70000E-14
 -1      1016 2.01002E+01-3.34634E-02-3.28565E-06 5.52595E-02 9.37945E-15-1.03520E-13
 -1      1017 2.00642E+01 3.39554E-03-6.92108E-06 5.54511E-02 5.53006E-16-4.43669E-14
 -1      1018 2.00271E+01 4.84187E-02-1.24423E-05 5.89246E-02 4.71797E-14-3.93731E-14
 -1      1019 1.99862E+01 1.01898E-01-1.96091E-05 6.63908E-02 1.11809E-13 3.14212E-14
 -1      1020 1.99384E+01 1.64611E-01-2.84309E-05 7.84815E-02 2.64533E-14 2.07168E-13
 -1      1021 1.98799E+01 2.37563E-01-3.90457E-05 9.57477E-02-1.32659E-13 2.36626E-13
 -1      1022 1.98060E+01 3.21692E-01-5.16910E-05 1.18626E-01-4.97735E-14 1.78385E-13
 -1      1023 1.97115E+01 4.17539E-01-6.67447E-05 1.47376E-01-2.68035E-14 1.53180E-13
 -1      1024 1.95901E+01 5.24843E-01-8.48450E-05 1.82004E-01 3.54032E-14 2.63141E-13
 -1      1025 1.94343E+01 6.42077E-01-1.07060E-04 2.22207E-01-4.68841E-14 2.85738E-13
 -1      1026 1.92353E+01 7.65912E-01-1.34843E-04 2.67401E-01-4.57397E-14 3.53144E-13
 -1      1027 1.89821E+01 8.90669E-01-1.69074E-04 3.16960E-01-4.88674E-14 1.72575E-13
 -1      1028 1.86605E+01 1.00782E+00-2.09702E-04 3.70901E-01 4.43835E-14-3.54293E-14
 -1      1029 1.82513E+01 1.10537E+00-2.86467E-04 4.31453E-01 8.98339E-14-7.35655E-14
 -1      1030 1.77298E+01 1.16698E+00-4.63635E-05 5.03379E-01 2.03965E-13-2.65352E-13
 -1      1031 1.70516E+01 1.17505E+00-6.30965E-05 6.01881E-01 1.10597E-13-3.37655E-13
 -1      1032 1.61296E+01 1.10918E+00-4.96909E-04 7.59639E-01 1.19906E-13-2.13109E-13
 -1      1033 2.03024E+01 7.85667E-02 3.75826E-05-9.49969E-02 3.10542E-14 1.14559E-13
 -1      1034 2.03702E+01 9.97481E-01 6.10738E-05 9.35854E-04 7.00621E-14-4.39260E-14
 -1      1035 1.99568E+01 1.40911E-01-1.51164E-05-9.64217E-02-2.25307E-14-7.33139E-14
 -1      1036 1.99978E+01 8.42399E-02-8.62905E-06-8.11789E-02 1.89718E-14-3.92458E-14
 -1      1037 1.98472E+01 2.79891E-01-2.97189E-05-1.51192E-01 1.07143E-13 4.10518E-14
 -1      1038 1.97714E+01 3.62083E-01-3.76161E-05-1.93841E-01 1.01980E-14-5.24000E-14
 -1      1039 1.96766E+01 4.51061E-01-4.57695E-05-2.49289E-01-1.68495E-14-7.75808E-14
 -1      1040 1.95589E+01 5.43483E-01-5.42381E-05-3.20136E-01-1.08190E-13-2.17559E-13
 -1      1041 1.94149E+01 6.33459E-01-6.37141E-05-4.09813E-01-1.68207E-13-2.03961E-14
 -1      1042 1.92418E+01 7.11667E-01-7.69841E-05-5.23094E-01-7.69768E-14 7.21145E-14
 -1      1043 1.90384E+01 7.64342E-01-1.03741E-04-6.66990E-01-3.87324E-14-1.18557E-13
 -1      1044 1.88058E+01 7.72005E-01-1.90462E-04-8.52381E-01-1.31076E-13-1.12252E-13
 -1      1045 1.85504E+01 7.06539E-01-3.95196E-04-1.09642E+00-1.29623E-13-2.22416E-14
 -1      1046 1.82867E+01 5.28765E-01-6.39105E-04-1.42150E+00 6.49992E-14-1.40374E-13
 -1      1047 1.80411E+01 1.89039E-01-1.63405E-03-1.87192E+00 1.59728E-13-2.51708E-13
 -1      1048 1.78807E+01-3.71141E-01-2.02151E-03-2.48325E+00-2.05249E-14-4.52039E-13
 -1      1049 2.00669E+01-5.66198E-03 2.08267E-06-6.87007E-02-1.12547E-13-1.17118E-13
 -1      1050 1.58183E+01 9.87457E-01 1.82507E-03-8.90051E-01-2.56496E-14-3.13055E-13
 -1      1051 1.73079E+01-8.72798E-01 3.12137E-02-3.10808E+00-3.63101E-14-4.50053E-13
 -1      1052 2.01836E+01-7.33641E-02 8.62740E-06-1.19935E-01 1.77161E-14-8.94419E-14
 -1      1053 2.00336E+01 3.55164E-02-2.83116E-06-7.23135E-02-1.38914E-14-5.04434E-14
 -1      1054 1.99078E+01 2.06039E-01-2.21801E-05-1.19283E-01 6.12663E-14-8.40073E-14
 -1      1055 2.04155E+01 3.24134E-01-8.19904E-04 8.31918E-03 4.73630E-14-4.18303E-14
 -1      1056 2.04083E+01 5.44415E-01 2.66950E-05-3.24357E-02 6.10331E-14-2.20357E-14
 -1      1057 1.53095E+01 1.10845E+00 3.97829E-03 3.42886E-01 8.44080E-14-5.64334E-13
 -1      1058 2.03928E+01 1.51415E-01 2.31356E-05 4.14946E-02 2.72959E-14 2.35388E-14
 -1      1059 2.03963E+01 5.40950E-01-2.60842E-04 4.94852E-02 6.46458E-14 5.60884E-14
 -1      1060 2.03440E+01 4.85021E-02-6.39569E-05-7.26324E-02 1.19484E-13-9.37196E-15
 -1      1061 2.01344E+01-6.45605E-02 1.06213E-05-7.28632E-02-8.99010E-14-5.19060E-14
 -1      1062 2.00999E+01-3.92822E-02 5.73190E-06-6.92590E-02-2.27037E-14-1.43411E-13
 -1      1063 2.03007E+01-2.62060E-02-2.64034E-06-8.36365E-02 8.61761E-14-3.21335E-14
 -1      1064 2.03883E+01 3.01496E-01 1.30363E-04-1.95834E-02 9.27549E-14 7.96018E-14
 -1      1065 2.04227E+01 6.57830E-01 8.71343E-05-1.76913E-02 5.10927E-14-4.45092E-14
 -1      1066 2.04192E+01 6.10622E-01 1.71602E-03-3.08461E-02 5.71744E-14-6.41069E-14
 -1      1067 1.68583E+01 6.03268E-01 1.15827E-03-1.59848E+00 1.36918E-13-2.16762E-13
 -1      1068 2.01721E+01-8.03325E-02-8.31823E-05-7.84245E-02-9.15454E-14-4.24341E-14
 -1      1069 2.03717E+01 1.50240E-01-2.75010E-04-5.34695E-02 9.31251E-14 8.29369E-14
 -1      1070 2.03112E+01-5.58975E-02-1.63270E-05 2.65365E-02 7.17423E-16 7.03747E-14
 -1      1071 2.02623E+01-8.24834E-02 7.18437E-06 2.62782E-02-1.65723E-14 5.98200E-14
 -1      1072 2.02158E+01-8.68178E-02 6.20966E-06 2.46569E-02 4.21998E-14 6.38967E-14
 -1      1073 2.01717E+01-7.44218E-02 9.07591E-06 2.31966E-02-5.95967E-14 7.13577E-15
 -1      1074 2.01298E+01-4.99976E-02 3.00876E-05 2.22985E-02-6.78583E-14-8.80334E-15
 -1      1075 2.00893E+01-1.58000E-02 2.52847E-05 2.19847E-02 1.71107E-14-5.35288E-14
 -1      1076 2.00486E+01 2.72207E-02 2.32117E-05 2.27237E-02 5.97274E-14-5.63309E-14
 -1      1077 2.00050E+01 7.89151E-02 2.32308E-05 2.47671E-02 8.12794E-14-1.22438E-13
 -1      1078 1.99555E+01 1.39773E-01 2.52548E-05 2.82691E-02 1.37047E-13-1.21830E-13
 -1      1079 1.98964E+01 2.10632E-01 2.91616E-05 3.32756E-02-2.38674E-14-6.33260E-14
 -1      1080 1.98232E+01 2.92377E-01 3.47488E-05 3.96805E-02-1.00743E-13-3.22798E-14
 -1      1081 1.97308E+01 3.85601E-01 4.16939E-05 4.71514E-02-6.30451E-14 6.99377E-14
 -1      1082 1.96134E+01 4.90229E-01 4.94889E-05 5.50259E-02 2.64928E-14 1.42685E-13
 -1      1083 1.94640E+01 6.05076E-01 5.73690E-05 6.21800E-02-7.72369E-14 4.95388E-14
 -1      1084 1.92744E+01 7.27389E-01 6.42678E-05 6.68774E-02 1.63674E-14 6.28836E-14
 -1      1085 1.90349E+01 8.52396E-01 6.87729E-05 6.66088E-02-6.36492E-14 7.97148E-14
 -1      1086 1.87328E+01 9.72980E-01 6.80099E-05 5.79085E-02-1.22410E-13 2.86240E-14
 -1      1087 1.83509E+01 1.07964E+00 4.41127E-05 3.60520E-02-3.95246E-14-1.55424E-13
 -1      1088 1.78630E+01 1.16091E+00-1.49666E-04-5.74111E-03 8.17526E-14-1.86076E-13
 -1      1089 1.72593E+01 1.19355E+00 1.96152E-03-6.84276E-02 8.42632E-14-1.14400E-13
 -1      1090 1.64348E+01 1.19040E+00 9.97100E-04 7.08328E-02 9.36037E-14-2.74287E-13
 -1      1091 1.99690E+01 1.22508E-01-8.46511E-06-4.88017E-02-9.99199E-16-4.80425E-14
 -1      1092 1.96638E+01 4.46736E-01-3.67568E-05-1.28290E-01 3.06112E-14 3.46956E-14
 -1      1093 1.97671E+01 3.51127E-01-2.52120E-05-9.80973E-02 6.66599E-14-2.75088E-14
 -1      1094 1.93721E+01 6.57205E-01-6.97041E-05-2.21753E-01-1.77059E-13-2.76180E-14
 -1      1095 1.91718E+01 7.62181E-01-9.16733E-05-2.92231E-01-2.34965E-13-1.70445E-13
 -1      1096 1.89264E+01 8.55597E-01-1.22395E-04-3.86110E-01 2.04954E-14-1.92280E-13
 -1      1097 1.86283E+01 9.24436E-01-1.74178E-04-5.12483E-01-1.28268E-13-1.45340E-13
 -1      1098 1.82676E+01 9.52179E-01-1.97986E-04-6.84747E-01-4.33522E-14-7.79081E-14
 -1      1099 1.78334E+01 9.16045E-01-1.07325E-03-9.31895E-01 1.01138E-13-4.30298E-13
 -1      1100 1.74143E+01 7.93591E-01 1.91072E-03-1.21238E+00 1.20651E-13-3.52888E-13
 -1      1101 2.04198E+01 6.63720E-01-1.96857E-04 1.96518E-02 5.75530E-14-1.79146E-14
 -1      1102 2.04301E+01 2.48809E-01 3.46752E-04 9.58843E-03 8.33161E-14-6.20515E-14
 -1      1103 2.04011E+01 9.66611E-02-1.25122E-04 1.93822E-02 1.11176E-13-3.28044E-15
 -1      1104 1.95340E+01 5.49993E-01-5.16142E-05-1.68517E-01 4.42944E-15-7.37377E-14
 -1      1105 2.03602E+01 2.82480E-04 1.26851E-04 2.49329E-02 1.05216E-13 4.92805E-14
 -1      1106 2.04252E+01 3.57322E-01 2.84580E-04-4.47597E-03 8.26611E-14-2.57918E-15
 -1      1107 2.00148E+01 6.52987E-02-7.40029E-06-4.19492E-02 1.17177E-14-6.09145E-14
 -1      1108 2.01342E+01-5.54947E-02-2.48237E-06-3.84593E-02-3.05556E-14-1.37977E-14
 -1      1109 2.02133E+01-8.24269E-02-2.54341E-05-8.34082E-02-1.72977E-14-9.13406E-15
 -1      1110 2.00948E+01-2.37412E-02-8.61918E-06-3.74800E-02-5.82130E-14 1.97819E-14
 -1      1111 1.99151E+01 1.88869E-01-1.14548E-05-5.97606E-02 1.10834E-14-1.01557E-13
 -1      1112 1.98493E+01 2.64992E-01-1.68855E-05-7.57863E-02 7.78833E-14-9.17033E-14
 -1      1113 2.04372E+01 3.80331E-01-3.63484E-04 3.37880E-04 7.96617E-14-1.27076E-14
 -1      1114 2.02559E+01-6.60259E-02-1.64437E-05-8.59426E-02 1.07424E-14-6.61940E-14
 -1      1115 2.03605E+01 1.22513E-02-1.44035E-04-4.05837E-02 1.55994E-13-9.49492E-15
 -1      1116 2.01755E+01-7.72838E-02 5.77094E-05-4.04593E-02-3.99719E-14-1.13177E-14
 -1      1117 1.68391E+01 1.04782E+00-3.06739E-03-7.37352E-01-4.54330E-14-3.40469E-13
 -1      1118 2.03918E+01 1.03128E-01 2.07717E-05-3.81201E-02 1.49521E-13 8.56514E-15
 -1      1119 2.00558E+01 1.66404E-02-7.69974E-06-3.84105E-02-6.63466E-14-4.26095E-14
 -1      1120 2.02913E+01-7.31869E-02 1.79832E-05-1.66943E-02-1.82605E-14 1.12899E-13
 -1      1121 2.02418E+01-8.72219E-02 5.60327E-05-1.57657E-02-3.22692E-15 7.15408E-14
 -1      1122 2.04237E+01 1.85515E-01 1.33516E-04-9.79483E-03 1.02329E-13 9.41694E-16
 -1      1123 2.03151E+01-4.86368E-02 4.03202E-05-4.54347E-02 8.10633E-14 2.24832E-14
 -1      1124 2.79636E+01 9.08673E+00 2.32538E+00-6.69841E+00-2.19269E-14-5.37542E-13
 -1      1125 2.05477E+01 6.22725E+00 2.09738E-01-3.90420E+00-1.74860E-15-5.06407E-13
 -1      1126 1.94349E+01 5.85308E+00 7.53868E-02-2.88823E+00 2.09555E-15-3.94372E-13
 -1      1127 1.90259E+01 5.72586E+00 6.02864E-02-2.23520E+00 4.92315E-15-2.96098E-13
 -1      1128 1.88394E+01 5.66907E+00 5.75109E-02-1.70177E+00 4.43569E-15-2.12403E-13
 -1      1129 1.87459E+01 5.64045E+00 5.55695E-02-1.23446E+00 5.75321E-15-1.52512E-13
 -1      1130 1.86971E+01 5.62527E+00 5.38192E-02-8.04528E-01 4.32987E-15-1.00186E-13
 -1      1131 1.86730E+01 5.61768E+00 5.25500E-02-3.92918E-01 4.19695E-15-4.44098E-14
 -1      1132 1.86662E+01 5.61550E+00 5.21452E-02 8.49982E-03 3.88838E-15-1.10415E-15
 -1      1133 1.86740E+01 5.61802E+00 5.26556E-02 4.10322E-01 5.55155E-15 4.05179E-14
 -1      1134 1.86992E+01 5.62597E+00 5.40424E-02 8.23242E-01 4.27176E-15 8.51749E-14
 -1      1135 1.87498E+01 5.64183E+00 5.62476E-02 1.25573E+00 4.10002E-15 1.47899E-13
 -1      1136 1.88450E+01 5.67105E+00 5.84543E-02 1.72756E+00 4.81212E-15 2.20731E-13
 -1      1137 1.90315E+01 5.72758E+00 6.04004E-02 2.26863E+00 3.18495E-15 3.00834E-13
 -1      1138 1.94312E+01 5.85013E+00 6.92118E-02 2.92876E+00 2.92821E-15 3.90157E-13
 -1      1139 2.04538E+01 6.18214E+00 1.53282E-01 3.87875E+00-3.05311E-15 4.94632E-13
 -1      1140 2.52179E+01 7.99454E+00 1.43046E+00 5.84657E+00-2.05391E-14 5.26024E-13
 -1      1141 2.88133E+01 3.61642E+00 1.27132E+00-4.21718E+00-5.07372E-14-5.95468E-13
 -1      1142 2.02281E+01-1.77733E-01-6.16318E-01-1.09912E-01-2.17326E-14-6.96582E-13
 -1      1143 1.88339E+01-9.63749E-02-2.36337E-01 6.25388E-02 7.58074E-16-7.54679E-13
 -1      1144 1.84999E+01-4.80238E-02-5.95452E-02 4.05090E-02-1.81322E-15-8.32556E-13
 -1      1145 1.84445E+01-2.46299E-02-1.52091E-02 2.67688E-02-4.66619E-15-8.52922E-13
 -1      1146 1.85259E+01-1.30571E-02-4.99755E-03 1.90747E-02 1.69027E-15-8.30457E-13
 -1      1147 1.86725E+01-6.58966E-03-1.45364E-03 1.41225E-02 1.89410E-16-8.61639E-13
 -1      1148 1.88445E+01-2.82314E-03 5.97634E-04 1.06808E-02-4.57073E-15-9.29597E-13
 -1      1149 1.90194E+01-5.91632E-04 1.91322E-03 8.13389E-03-3.39850E-15-9.49450E-13
 -1      1150 1.91844E+01 6.97602E-04 2.65479E-03 6.17006E-03-7.60370E-15-9.89413E-13
 -1      1151 1.93328E+01 1.38388E-03 2.95462E-03 4.62232E-03 7.12988E-15-1.11163E-12
 -1      1152 1.94616E+01 1.67415E-03 2.94208E-03 3.39215E-03 3.72368E-14-9.95709E-13
 -1      1153 1.95705E+01 1.70057E-03 2.72021E-03 2.41349E-03-7.31183E-15-1.00713E-12
 -1      1154 1.96606E+01 1.54865E-03 2.36086E-03 1.63785E-03-2.52341E-15-1.09451E-12
 -1      1155 1.97345E+01 1.27229E-03 1.90883E-03 1.02790E-03-9.00579E-15-9.66911E-13
 -1      1156 1.97952E+01 9.02525E-04 1.38706E-03 5.55005E-04-2.01016E-14-9.14582E-13
 -1      1157 1.98463E+01 4.53027E-04 8.00832E-04 1.98457E-04 1.90431E-15-8.62003E-13
 -1      1158 1.98920E+01-7.60011E-05 1.40940E-04-5.43546E-05 8.84491E-16-8.94312E-13
 -1      1159 1.99370E+01-6.94989E-04-6.14058E-04-2.07109E-04 9.52772E-15-1.09597E-12
 -1      1160 1.99866E+01-1.42264E-03-1.49610E-03-2.53153E-04-1.93124E-14-1.12109E-12
 -1      1161 2.00472E+01-2.28357E-03-2.54603E-03-1.73407E-04-3.57570E-15-1.00883E-12
 -1      1162 2.01263E+01-3.30533E-03-3.81160E-03 6.66239E-05 7.76175E-15-9.13719E-13
 -1      1163 2.02330E+01-4.51375E-03-5.34372E-03 5.20935E-04-6.57710E-15-7.04457E-13
 -1      1164 2.03780E+01-5.92492E-03-7.18888E-03 1.26829E-03-3.32725E-14-9.17694E-13
 -1      1165 2.05744E+01-7.53076E-03-9.37320E-03 2.41829E-03 5.29221E-15-5.69514E-13
 -1      1166 2.08375E+01-9.27349E-03-1.18701E-02 4.11634E-03 8.83646E-15-5.34128E-13
 -1      1167 2.11845E+01-1.10014E-02-1.45368E-02 6.54250E-03 2.77672E-14-6.82206E-13
 -1      1168 2.16335E+01-1.23960E-02-1.69964E-02 9.89159E-03 1.27508E-14-7.20089E-13
 -1      1169 2.22008E+01-1.28616E-02-1.84341E-02 1.43076E-02 1.19319E-14-5.84833E-13
 -1      1170 2.28952E+01-1.13805E-02-1.72890E-02 1.97211E-02 2.35749E-14-4.17475E-13
 -1      1171 2.37071E+01-6.38148E-03-1.09039E-02 2.55082E-02-5.67410E-14-5.63771E-13
 -1      1172 2.45915E+01 4.21076E-03 4.57419E-03 2.98852E-02-3.46355E-14-8.15670E-13
 -1      1173 2.54419E+01 2.23799E-02 3.32414E-02 2.90892E-02 1.04296E-14-6.43867E-13
 -1      1174 2.60637E+01 4.82374E-02 7.60210E-02 1.68594E-02-9.63205E-16-6.09360E-13
 -1      1175 2.61664E+01 7.64778E-02 1.23831E-01-1.42105E-02 3.34602E-14-6.84525E-13
 -1      1176 2.54224E+01 9.25398E-02 1.50119E-01-6.67215E-02 4.62868E-14-3.20174E-13
 -1      1177 2.36453E+01 7.33144E-02 1.15295E-01-1.27704E-01-1.41345E-14-5.81382E-13
 -1      1178 2.10643E+01 4.51563E-03-1.79338E-03-1.62330E-01 2.31750E-14-4.79894E-13
 -1      1179 1.84815E+01-9.18087E-02-1.59342E-01-1.31385E-01-3.79349E-14-5.81618E-13
 -1      1180 1.69888E+01-1.51600E-01-2.55258E-01-3.14751E-02-4.25875E-15-1.08185E-12
 -1      1181 1.72557E+01-1.26103E-01-2.13871E-01 8.40052E-02-2.18575E-15-1.25967E-12
 -1      1182 1.89928E+01-3.58361E-02-6.73548E-02 1.47059E-01 4.52030E-14-7.85413E-13
 -1      1183 2.11866E+01 5.06851E-02 7.80507E-02 1.35613E-01-3.88079E-14-9.38152E-13
 -1      1184 2.28372E+01 9.03860E-02 1.48431E-01 7.85520E-02 5.39065E-14-3.58533E-13
 -1      1185 2.34673E+01 8.44312E-02 1.40988E-01 1.62983E-02 3.09683E-14 1.85810E-13
 -1      1186 2.31345E+01 5.35205E-02 9.00423E-02-2.74820E-02-1.67592E-14 4.77153E-14
 -1      1187 2.21871E+01 1.55720E-02 2.61132E-02-4.75876E-02 2.45433E-14-1.29806E-13
 -1      1188 2.10575E+01-1.99800E-02-3.38743E-02-4.39794E-02 1.53406E-13 3.17128E-13
 -1      1189 2.01904E+01-4.98792E-02-6.50054E-02-1.19807E-02-1.05203E-13 2.22336E-13
 -1      1190 1.99483E+01 1.66125E-02 2.66468E-02 1.87383E-02 1.36605E-14-2.61471E-14
 -1      1191 2.77930E+01 5.25756E-01 3.77060E-01 1.96669E+00-1.13867E-14 4.96159E-13
 -1      1192 2.00857E+01-6.62428E-02-5.73628E-01 1.29469E-01-7.19563E-15 6.46483E-13
 -1      1193 1.89085E+01-4.06089E-02-1.93233E-01 1.94125E-02-5.01335E-16 6.99985E-13
 -1      1194 1.85287E+01-2.14230E-02-5.05644E-02 1.45624E-03-5.09748E-15 7.96044E-13
 -1      1195 1.84572E+01-1.24104E-02-1.34147E-02-4.08258E-03-2.54137E-15 8.02157E-13
 -1      1196 1.85323E+01-7.40296E-03-4.66648E-03-5.54061E-03-2.74466E-15 7.73694E-13
 -1      1197 1.86757E+01-4.32345E-03-1.93193E-03-5.73036E-03-1.70173E-14 8.94009E-13
 -1      1198 1.88461E+01-2.34888E-03-3.40072E-04-5.44942E-03-1.01641E-15 1.01030E-12
 -1      1199 1.90201E+01-1.07440E-03 7.83819E-04-4.94962E-03 7.07451E-15 9.58306E-13
 -1      1200 1.91846E+01-2.68709E-04 1.49772E-03-4.34424E-03 2.28405E-14 8.71054E-13
 -1      1201 1.93327E+01 2.13611E-04 1.86420E-03-3.69965E-03 6.93704E-15 8.67422E-13
 -1      1202 1.94614E+01 4.68667E-04 1.96849E-03-3.05690E-03 1.03518E-15 1.00242E-12
 -1      1203 1.95703E+01 5.60985E-04 1.88647E-03-2.44008E-03 5.27776E-16 1.16098E-12
 -1      1204 1.96607E+01 5.33176E-04 1.67343E-03-1.86108E-03-1.91041E-14 1.08329E-12
 -1      1205 1.97349E+01 4.11689E-04 1.36433E-03-1.32313E-03 9.68852E-15 9.18772E-13
 -1      1206 1.97959E+01 2.10571E-04 9.76768E-04-8.23570E-04-8.24288E-15 8.51004E-13
 -1      1207 1.98475E+01-6.58248E-05 5.14088E-04-3.56363E-04-2.14454E-14 8.49604E-13
 -1      1208 1.98938E+01-4.20669E-04-3.20105E-05 8.56009E-05-2.37419E-15 9.92569E-13
 -1      1209 1.99395E+01-8.62559E-04-6.79014E-04 5.08120E-04 2.64399E-14 7.15285E-13
 -1      1210 1.99897E+01-1.40303E-03-1.45085E-03 9.12976E-04 3.54044E-14 5.35478E-13
 -1      1211 2.00506E+01-2.05315E-03-2.37413E-03 1.29459E-03-2.57881E-14 7.08375E-13
 -1      1212 2.01291E+01-2.81834E-03-3.47246E-03 1.63565E-03-1.85466E-14 1.04010E-12
 -1      1213 2.02331E+01-3.69040E-03-4.75712E-03 1.90135E-03 3.13033E-14 7.04710E-13
 -1      1214 2.03715E+01-4.63500E-03-6.21166E-03 2.03163E-03 1.11813E-14 4.00085E-13
 -1      1215 2.05542E+01-5.57261E-03-7.76675E-03 1.93161E-03-3.24997E-14 6.12035E-13
 -1      1216 2.07910E+01-6.35087E-03-9.26021E-03 1.46084E-03-5.38610E-14 1.31529E-12
 -1      1217 2.10910E+01-6.70776E-03-1.03771E-02 4.24977E-04 1.59573E-14 1.29660E-12
 -1      1218 2.14598E+01-6.23003E-03-1.05684E-02-1.42133E-03-1.25370E-14 1.00781E-12
 -1      1219 2.18960E+01-4.32447E-03-8.96075E-03-4.34149E-03-6.58111E-17 9.08395E-13
 -1      1220 2.23857E+01-2.45857E-04-4.30757E-03-8.51920E-03-3.32191E-15 7.94110E-13
 -1      1221 2.28944E+01 6.73172E-03 4.89198E-03-1.38448E-02 4.59863E-14 6.05427E-13
 -1      1222 2.33576E+01 1.68718E-02 1.98731E-02-1.95429E-02-6.72574E-15 6.84185E-13
 -1      1223 2.36737E+01 2.91726E-02 4.03978E-02-2.36871E-02-4.40277E-14 1.17174E-12
 -1      1224 2.37058E+01 4.03742E-02 6.28228E-02-2.29031E-02 3.42391E-15 1.16290E-12
 -1      1225 2.33055E+01 4.45549E-02 7.83473E-02-1.29931E-02-1.80663E-14 1.20274E-12
 -1      1226 2.23710E+01 3.50790E-02 7.40826E-02 8.59475E-03-7.19724E-14 1.04217E-12
 -1      1227 2.09371E+01 9.71252E-03 3.99790E-02 3.86913E-02 4.58576E-14 7.86884E-13
 -1      1228 1.92506E+01-2.44992E-02-2.04768E-02 6.60989E-02-1.36434E-14 9.62397E-13
 -1      1229 1.77525E+01-5.16886E-02-8.46185E-02 7.51815E-02-2.27205E-15 1.39552E-12
 -1      1230 1.69169E+01-5.66716E-02-1.19086E-01 5.64004E-02-5.76622E-14 1.24831E-12
 -1      1231 1.69978E+01-3.84635E-02-1.04279E-01 1.60979E-02-6.75493E-14 1.16171E-12
 -1      1232 1.78707E+01-9.69579E-03-5.07040E-02-2.63801E-02 3.42738E-15 1.04916E-12
 -1      1233 1.91104E+01 1.44698E-02 1.06418E-02-5.26541E-02-2.07597E-14 1.05521E-12
 -1      1234 2.02327E+01 2.60351E-02 5.20497E-02-5.58838E-02-3.90183E-14 7.89598E-13
 -1      1235 2.09144E+01 2.49675E-02 6.34986E-02-4.12310E-02-1.43314E-14 3.19005E-13
 -1      1236 2.10719E+01 1.49276E-02 4.95197E-02-1.86566E-02 1.02346E-13-2.49010E-13
 -1      1237 2.08189E+01 1.68873E-04 2.02042E-02 2.91857E-03-4.59123E-14-4.03608E-13
 -1      1238 2.03834E+01-1.40052E-02-1.21132E-02 1.63140E-02 2.20950E-14-3.63858E-13
 -1      1239 2.00327E+01-1.73066E-02-2.51559E-02 1.24457E-02 8.06332E-14-6.75382E-13
 -1      1240 1.99709E+01 1.11590E-02 2.38577E-02-1.01139E-02-5.63568E-14-5.56818E-13
 -1      1241 2.00094E+01-3.08100E-02 1.94885E-02-1.04565E-02-4.94343E-13 2.35543E-14
 -1      1242 1.99725E+01 2.95182E-02-3.99906E-02-8.18892E-03 3.90759E-14 2.15663E-14
 -1      1243 1.99641E+01 4.39983E-01-5.44405E-02 1.14017E-02 1.11352E-12-1.03446E-14
 -1      1244 1.99630E+01 1.22260E+00-5.54554E-02 2.79446E-02 1.23039E-12-6.49437E-15
 -1      1245 1.99708E+01 2.37148E+00-4.46420E-02 4.48027E-02 1.56386E-12-1.28404E-14
 -1      1246 1.99893E+01 3.80449E+00-1.74088E-02 5.84741E-02-1.90008E-13-1.93036E-13
 -1      1247 2.00196E+01 5.35181E+00 2.55790E-02 6.26254E-02-1.16705E-12-3.08109E-14
 -1      1248 2.00532E+01 6.73869E+00 7.45290E-02 5.11810E-02-1.38577E-12 3.35461E-14
 -1      1249 2.00781E+01 7.62186E+00 1.10843E-01 2.40829E-02-1.05831E-12 4.33603E-14
 -1      1250 2.00834E+01 7.75635E+00 1.18822E-01-1.15674E-02-1.08932E-12-1.36132E-14
 -1      1251 2.00663E+01 7.08867E+00 9.49005E-02-4.42428E-02-7.82520E-13-1.11113E-13
 -1      1252 2.00368E+01 5.79337E+00 5.07630E-02-6.44805E-02-2.14820E-12-1.82912E-13
 -1      1253 2.00024E+01 4.16192E+00 2.03576E-03-6.87327E-02-2.26227E-12 8.51073E-14
 -1      1254 1.99745E+01 2.50053E+00-4.05534E-02-6.08840E-02-6.93036E-13 1.11327E-13
 -1      1255 1.99531E+01 1.07949E+00-7.77587E-02-5.12687E-02 1.93540E-13 7.56773E-16
 -1      1256 1.99334E+01 2.12629E-01-7.54160E-02 3.65013E-03-3.74709E-14-1.37575E-13
 -1      1257 2.00203E+01-4.77112E-02 2.59815E-02 1.37544E-02-4.52728E-14 3.98600E-14
 -1      1258-1.42262E+00-2.61753E+01-4.06014E+00-2.59248E+00 1.26965E-12 3.50484E-14
 -1      1259-1.95727E+00-1.53390E+01-3.18431E+00-4.03356E+00-7.18758E-13-3.49276E-13
 -1      1260 1.35339E+00-9.42901E-01-1.63639E+00 9.67485E-01-1.23146E-12-7.76601E-13
 -1      1261 1.28858E+01 9.17572E+00 2.19549E-01 1.05563E+01-1.09468E-12-1.06759E-12
 -1      1262 3.20925E+01 1.12147E+01 2.00089E+00 1.81340E+01-7.86149E-13-1.24478E-12
 -1      1263 5.27749E+01 7.22738E+00 3.52078E+00 1.71807E+01-7.47680E-13-2.27640E-12
 -1      1264 6.61675E+01 2.82640E+00 4.20856E+00 7.38160E+00-2.86333E-13-3.08931E-12
 -1      1265 6.71068E+01 2.12938E+00 4.25406E+00-6.01293E+00 1.95094E-13-2.58021E-12
 -1      1266 5.35017E+01 6.30151E+00 3.34183E+00-1.60816E+01 7.61446E-13-2.26597E-12
 -1      1267 3.31119E+01 1.06987E+01 1.98783E+00-1.78161E+01 9.82103E-13-1.79590E-12
 -1      1268 1.43191E+01 9.65365E+00 2.62307E-01-1.15938E+01 7.40963E-13-8.53317E-13
 -1      1269 2.40179E+00 9.52192E-01-1.40879E+00-2.35104E+00 4.83391E-13-4.07452E-13
 -1      1270-1.72705E+00-1.24183E+01-2.80392E+00 3.64871E+00 4.55191E-13-2.14440E-13
 -1      1271-1.34442E+00-2.35957E+01-3.71260E+00 3.12883E+00-2.20268E-13-1.65284E-13
 -1      1272-1.19676E+00-2.58769E+01-3.87145E+00-1.48031E+00-8.26006E-13-4.76286E-14
 -1      1273-1.98087E+00-1.84718E+01-3.37198E+00-4.46748E+00-6.45706E-13-1.89460E-13
 -1      1274-8.36605E-01-5.74304E+00-2.26304E+00-1.87332E+00-1.21991E-12-7.20535E-13
 -1      1275 7.48482E+00 5.87375E+00-5.74642E-01 6.57263E+00-1.00786E-12-8.77520E-13
 -1      1276 2.50359E+01 1.05530E+01 1.26701E+00 1.53867E+01-6.35714E-13-8.61755E-13
 -1      1277 4.63344E+01 8.11939E+00 2.90819E+00 1.77594E+01-2.68119E-13-5.24025E-13
 -1      1278 6.36377E+01 3.31753E+00 4.03499E+00 1.08686E+01-8.92064E-14-1.88738E-14
 -1      1279 6.93895E+01 1.63768E+00 4.44123E+00-2.40167E+00-3.35149E-14-4.08840E-14
 -1      1280 5.98859E+01 5.20061E+00 3.92489E+00-1.46498E+01-2.05114E-13 3.70592E-13
 -1      1281 4.02943E+01 1.02831E+01 2.63305E+00-1.90693E+01-1.90625E-13 4.32987E-13
 -1      1282 2.00622E+01 1.13428E+01 9.41641E-01-1.45920E+01 7.41407E-13-7.13207E-13
 -1      1283 5.50836E+00 5.05544E+00-8.05489E-01-5.38793E+00 1.63225E-12-1.36668E-12
 -1      1284-1.07621E+00-6.81698E+00-2.36638E+00 2.31327E+00 1.79345E-12-8.51430E-13
 -1      1285-1.97648E+00-1.89494E+01-3.45788E+00 4.66474E+00 1.41109E-12-6.09568E-13
 -1      1286-1.21773E+00-2.70784E+01-4.13459E+00 2.16395E+00 1.48748E-12-4.02942E-14
 -1      1287 2.22671E+01 1.83821E+00-7.25870E-01-2.79072E+00-2.36200E-14-5.97411E-13
 -1      1288 2.03595E+01 4.69024E+00-4.86514E-02-3.30721E+00 8.09075E-15-4.58598E-13
 -1      1289 2.08670E+01 4.81074E+00-1.13357E-01-4.16143E+00-1.17684E-14-5.17301E-13
 -1      1290 1.95320E+01 4.99341E+00-1.96023E-02-2.65493E+00 4.03011E-14-3.57128E-13
 -1      1291 1.98298E+01 5.09029E+00 2.59490E-04-3.04593E+00 3.79280E-14-4.10658E-13
 -1      1292 2.05260E+01 3.95288E+00-2.58930E-02-3.07525E+00 3.31783E-14-3.98459E-13
 -1      1293 1.91840E+01 5.08411E+00-3.67246E-03-2.07057E+00 6.09911E-14-2.60805E-13
 -1      1294 1.93335E+01 5.13937E+00 1.05860E-02-2.36375E+00 6.05488E-14-3.09960E-13
 -1      1295 1.97544E+01 4.36600E+00-2.42661E-02-2.48993E+00 7.40866E-14-3.06033E-13
 -1      1296 1.90087E+01 5.13088E+00 3.26737E-03-1.56512E+00 7.57545E-14-1.91139E-13
 -1      1297 1.90862E+01 5.16078E+00 1.25467E-02-1.81503E+00 7.71605E-14-2.29494E-13
 -1      1298 1.93924E+01 4.55562E+00-1.95757E-02-1.93146E+00 1.08979E-13-2.25115E-13
 -1      1299 1.89156E+01 5.16055E+00 6.61130E-03-1.11733E+00 8.28513E-14-1.35508E-13
 -1      1300 1.89578E+01 5.17682E+00 1.27185E-02-1.33886E+00 8.15502E-14-1.62464E-13
 -1      1301 1.92056E+01 4.66130E+00-1.60747E-02-1.44530E+00 1.20989E-13-1.64545E-13
 -1      1302 1.88642E+01 5.18038E+00 8.20737E-03-6.93951E-01 7.80051E-14-8.40716E-14
 -1      1303 1.88872E+01 5.18924E+00 1.20399E-02-9.04205E-01 8.22328E-14-1.15935E-13
 -1      1304 1.91030E+01 4.72664E+00-1.39467E-02-1.00446E+00 1.32136E-13-1.21052E-13
 -1      1305 1.88403E+01 5.19232E+00 9.29256E-03-2.89207E-01 8.01443E-14-2.86177E-14
 -1      1306 1.88502E+01 5.19614E+00 1.10740E-02-4.91352E-01 7.67728E-14-5.62918E-14
 -1      1307 1.90473E+01 4.76564E+00-1.29100E-02-5.88881E-01 1.24453E-13-6.34631E-14
 -1      1308 1.88366E+01 5.19726E+00 1.02224E-02 1.08248E-01 8.49327E-14 1.81539E-14
 -1      1309 1.88362E+01 5.19713E+00 1.01507E-02-9.14471E-02 8.50187E-14-6.99787E-15
 -1      1310 1.90231E+01 4.78365E+00-1.24761E-02-1.89123E-01 1.35046E-13-1.73542E-14
 -1      1311 1.88519E+01 5.19578E+00 1.11600E-02 5.08739E-01 8.61685E-14 5.38111E-14
 -1      1312 1.88413E+01 5.19168E+00 9.22668E-03 3.06177E-01 8.59121E-14 3.32078E-14
 -1      1313 1.90239E+01 4.78301E+00-1.24961E-02 2.05828E-01 1.38407E-13 2.66592E-14
 -1      1314 1.88904E+01 5.18809E+00 1.20932E-02 9.23062E-01 7.87556E-14 1.01056E-13
 -1      1315 1.88666E+01 5.17908E+00 8.13548E-03 7.11861E-01 8.04114E-14 7.17343E-14
 -1      1316 1.90498E+01 4.76357E+00-1.29822E-02 6.06288E-01 1.36566E-13 5.64965E-14
 -1      1317 1.89622E+01 5.17510E+00 1.28985E-02 1.35633E+00 7.10057E-14 1.64608E-13
 -1      1318 1.89190E+01 5.15838E+00 6.44962E-03 1.13341E+00 7.26992E-14 1.28713E-13
 -1      1319 1.91072E+01 4.72316E+00-1.40038E-02 1.01967E+00 1.21795E-13 1.10460E-13
 -1      1320 1.90949E+01 5.15666E+00 1.28253E-02 1.84102E+00 6.92692E-14 2.37539E-13
 -1      1321 1.90154E+01 5.12632E+00 3.14328E-03 1.58820E+00 6.83143E-14 1.98702E-13
 -1      1322 1.92126E+01 4.65480E+00-1.61485E-02 1.46283E+00 1.11269E-13 1.71696E-13
 -1      1323 1.93435E+01 5.13343E+00 1.01682E-02 2.39813E+00 5.91575E-14 3.15237E-13
 -1      1324 1.91934E+01 5.07631E+00-4.37917E-03 2.10085E+00 5.89875E-14 2.69361E-13
 -1      1325 1.94052E+01 4.54239E+00-1.99866E-02 1.95855E+00 1.00012E-13 2.35496E-13
 -1      1326 1.98552E+01 5.09940E+00 6.04711E-03 3.08422E+00 3.23352E-14 4.08409E-13
 -1      1327 1.95431E+01 4.98440E+00-2.05469E-02 2.69685E+00 4.04121E-14 3.55015E-13
 -1      1328 1.97745E+01 4.34640E+00-2.45631E-02 2.52841E+00 7.61665E-14 3.12056E-13
 -1      1329 2.11031E+01 4.90700E+00 8.30939E-03 4.05423E+00-3.46945E-15 4.97324E-13
 -1      1330 2.03340E+01 4.73384E+00-4.79742E-02 3.41659E+00 6.05072E-15 4.49134E-13
 -1      1331 2.05643E+01 3.91594E+00-2.24142E-02 3.17874E+00 2.53651E-14 3.86163E-13
 -1      1332 2.72029E+01 3.20543E+00 9.29066E-01 4.58246E+00-3.12944E-14 4.98102E-13
 -1      1333 2.20199E+01 3.52220E+00-1.82005E-01 3.88523E+00-1.66256E-14 5.18419E-13
 -1      1334 2.21122E+01 2.56181E+00-3.25528E-02 3.45688E+00-2.23970E-14 4.56440E-13
 -1      1335 2.14268E+01 3.59592E-01-7.63537E-01 1.18399E+00-4.00513E-14 5.41844E-13
 -1      1336 2.20011E+01 1.31379E-01-4.00866E-01-1.28585E+00-2.10942E-14-5.54667E-13
 -1      1337 2.06783E+01 3.06741E-01-1.64807E-01-8.05877E-01-9.46465E-15-5.83533E-13
 -1      1338 2.00805E+01 1.53509E-01-7.35302E-02-4.02173E-01-1.81105E-15-5.71064E-13
 -1      1339 1.96106E+01 9.11923E-02-1.49183E-02-3.30004E-01-5.74887E-15-5.93189E-13
 -1      1340 2.09721E+01 3.69284E-01-1.04213E-01-1.27410E+00-7.52176E-15-4.47031E-13
 -1      1341 1.92532E+01 6.44539E-02 3.05099E-03-1.35434E-01-2.09199E-14-5.82808E-13
 -1      1342 1.90987E+01 4.11989E-02 1.32220E-02-1.17682E-01-1.24137E-14-6.14120E-13
 -1      1343 1.99212E+01 1.33754E-01-3.51699E-02-5.04095E-01-2.08687E-14-4.23007E-13
 -1      1344 1.89382E+01 3.15253E-02 1.32345E-02-2.82639E-02 6.63055E-15-6.16472E-13
 -1      1345 1.89185E+01 1.94191E-02 1.10395E-02-1.88565E-02 7.97929E-15-6.10127E-13
 -1      1346 1.94439E+01 5.55691E-02-8.44195E-03-1.70370E-01-4.32987E-15-4.20159E-13
 -1      1347 1.88622E+01 1.60205E-02 8.75648E-03 2.48320E-02 7.18674E-15-6.07743E-13
 -1      1348 1.89043E+01 9.06296E-03 6.41757E-03 2.94606E-02 5.12958E-15-6.01203E-13
 -1      1349 1.92344E+01 2.44101E-02-3.53153E-03-1.15618E-02 5.98913E-15-4.13719E-13
 -1      1350 1.89041E+01 7.83189E-03 4.66852E-03 5.05865E-02-1.11277E-14-6.00041E-13
 -1      1351 1.89742E+01 3.47637E-03 3.64671E-03 5.24604E-02-1.65449E-14-6.19655E-13
 -1      1352 1.91772E+01 1.01793E-02-2.21627E-03 6.71244E-02-1.46072E-14-3.97441E-13
 -1      1353 1.90034E+01 3.16028E-03 2.45017E-03 6.11976E-02-4.56633E-15-6.24890E-13
 -1      1354 1.90835E+01 3.08273E-04 2.21659E-03 6.14505E-02 6.76255E-15-6.40462E-13
 -1      1355 1.92029E+01 2.72459E-03-1.31451E-03 1.03831E-01-1.81374E-14-3.84240E-13
 -1      1356 1.91268E+01 4.20515E-04 1.34032E-03 6.30868E-02 5.62996E-16-6.43727E-13
 -1      1357 1.92071E+01-1.47933E-03 1.44487E-03 6.23928E-02-1.47158E-14-6.59984E-13
 -1      1358 1.92713E+01-1.34678E-03-5.51682E-04 1.16976E-01-1.04715E-14-4.19474E-13
 -1      1359 1.92553E+01-1.15755E-03 7.56943E-04 5.99754E-02-2.74528E-14-6.40908E-13
 -1      1360 1.93303E+01-2.41230E-03 9.78620E-04 5.87665E-02-3.41785E-14-6.75554E-13
 -1      1361 1.93589E+01-3.53995E-03 3.96724E-06 1.16551E-01-2.08870E-14-4.05140E-13
 -1      1362 1.93781E+01-1.99341E-03 4.23955E-04 5.41904E-02-2.90820E-14-6.69921E-13
 -1      1363 1.94451E+01-2.79365E-03 6.71583E-04 5.27538E-02 1.71153E-14-6.82144E-13
 -1      1364 1.94514E+01-4.58334E-03 3.51683E-04 1.08520E-01-4.34466E-14-3.41924E-13
 -1      1365 1.94896E+01-2.34178E-03 2.24884E-04 4.72441E-02 4.47089E-14-7.49389E-13
 -1      1366 1.95474E+01-2.81502E-03 4.62565E-04 4.57706E-02 1.65408E-14-7.30475E-13
 -1      1367 1.95407E+01-4.89226E-03 5.34540E-04 9.66678E-02 7.10011E-15-4.17339E-13
 -1      1368 1.95871E+01-2.36629E-03 1.07160E-04 4.01321E-02-3.52794E-15-7.49934E-13
 -1      1369 1.96358E+01-2.60116E-03 3.21573E-04 3.87478E-02-2.56411E-14-7.79953E-13
 -1      1370 1.96224E+01-4.72673E-03 5.99048E-04 8.34612E-02-1.68035E-14-5.62247E-13
 -1      1371 1.96704E+01-2.17359E-03 4.30403E-05 3.35138E-02 1.87136E-15-7.47373E-13
 -1      1372 1.97108E+01-2.23231E-03 2.31036E-04 3.23018E-02 3.16454E-15-7.04990E-13
 -1      1373 1.96946E+01-4.25400E-03 5.81567E-04 7.05308E-02-1.54358E-15-4.86090E-13
 -1      1374 1.97405E+01-1.83143E-03 1.56946E-05 2.78322E-02 3.68492E-14-6.91461E-13
 -1      1375 1.97739E+01-1.75695E-03 1.79485E-04 2.68491E-02 1.70607E-14-6.11836E-13
 -1      1376 1.97572E+01-3.57919E-03 5.07198E-04 5.89674E-02 3.80236E-14-3.94284E-13
 -1      1377 1.97996E+01-1.37896E-03 1.40152E-05 2.34010E-02-2.62015E-14-5.86269E-13
 -1      1378 1.98275E+01-1.19966E-03 1.59114E-04 2.26892E-02-2.36898E-14-5.88573E-13
 -1      1379 1.98113E+01-2.76227E-03 3.91744E-04 4.95250E-02 2.04280E-14-3.34970E-13
 -1      1380 1.98505E+01-8.33401E-04 3.02813E-05 2.04692E-02 4.51558E-15-6.02449E-13
 -1      1381 1.98748E+01-5.66456E-04 1.64571E-04 2.00669E-02-6.37044E-15-5.95556E-13
 -1      1382 1.98588E+01-1.82854E-03 2.43763E-04 4.27702E-02-9.65607E-15-3.42603E-13
 -1      1383 1.98965E+01-1.94439E-04 5.88125E-05 1.92729E-02-3.46676E-14-6.22130E-13
 -1      1384 1.99195E+01 1.51444E-04 1.92173E-04 1.92221E-02-3.70764E-14-6.91277E-13
 -1      1385 1.99025E+01-7.75565E-04 6.61685E-05 3.91959E-02-3.81254E-14-3.98006E-13
 -1      1386 1.99416E+01 5.52575E-04 9.50040E-05 2.00760E-02-3.10645E-14-7.17188E-13
 -1      1387 1.99658E+01 9.74682E-04 2.39282E-04 2.04289E-02-6.31043E-14-7.88552E-13
 -1      1388 1.99454E+01 4.21891E-04-1.42568E-04 3.93108E-02-8.24427E-14-4.26493E-13
 -1      1389 1.99906E+01 1.43420E-03 1.34480E-04 2.32037E-02-6.65115E-15-7.69790E-13
 -1      1390 2.00187E+01 1.93332E-03 3.03643E-04 2.40288E-02-1.49088E-14-7.81201E-13
 -1      1391 1.99916E+01 1.80827E-03-3.87468E-04 4.37120E-02-6.21372E-14-4.78985E-13
 -1      1392 2.00488E+01 2.48673E-03 1.72196E-04 2.90697E-02 2.69538E-14-7.39032E-13
 -1      1393 2.00843E+01 3.06427E-03 3.82549E-04 3.04558E-02-3.81292E-15-7.37043E-13
 -1      1394 2.00454E+01 3.44415E-03-6.76221E-04 5.31428E-02 1.26403E-14-4.48707E-13
 -1      1395 2.01225E+01 3.75364E-03 2.01353E-04 3.81955E-02 2.13817E-14-7.06652E-13
 -1      1396 2.01696E+01 4.40773E-03 4.71633E-04 4.02556E-02 5.81983E-14-6.53963E-13
 -1      1397 2.01124E+01 5.40280E-03-1.01835E-03 6.85357E-02 7.46616E-14-5.52923E-13
 -1      1398 2.02195E+01 5.28150E-03 2.11953E-04 5.12197E-02-2.16016E-15-5.80372E-13
 -1      1399 2.02829E+01 6.00116E-03 5.63051E-04 5.40918E-02-3.02026E-14-6.24198E-13
 -1      1400 2.01987E+01 7.76464E-03-1.42411E-03 9.10378E-02 2.01819E-14-4.67881E-13
 -1      1401 2.03486E+01 7.11244E-03 1.88891E-04 6.88891E-02 5.96658E-15-5.85036E-13
 -1      1402 2.04343E+01 7.86816E-03 6.42810E-04 7.27338E-02 7.38044E-14-5.44703E-13
 -1      1403 2.03119E+01 1.06066E-02-1.90288E-03 1.22005E-01-5.84407E-15-3.96406E-13
 -1      1404 2.05205E+01 9.26940E-03 1.09589E-04 9.20153E-02 1.04242E-13-4.80451E-13
 -1      1405 2.06353E+01 9.99761E-03 6.87099E-04 9.70052E-02 6.25124E-14-3.34595E-13
 -1      1406 2.04606E+01 1.39807E-02-2.46038E-03 1.62944E-01 1.38347E-13-2.66113E-13
 -1      1407 2.07474E+01 1.17279E-02-5.83201E-05 1.21367E-01-3.04622E-14-3.24215E-13
 -1      1408 2.08991E+01 1.23051E-02 6.58166E-04 1.27660E-01-3.46776E-14-3.89356E-13
 -1      1409 2.06545E+01 1.78713E-02-3.09359E-03 2.15345E-01 3.38852E-14-2.91888E-13
 -1      1410 2.10427E+01 1.43635E-02-3.57364E-04 1.57442E-01-4.50529E-15-4.19709E-13
 -1      1411 2.12397E+01 1.45641E-02 5.02055E-04 1.65125E-01 2.04615E-14-4.63712E-13
 -1      1412 2.09044E+01 2.21133E-02-3.78165E-03 2.80337E-01-6.51603E-14-1.84756E-13
 -1      1413 2.14201E+01 1.68572E-02-8.33721E-04 2.00025E-01 1.20802E-14-4.98310E-13
 -1      1414 2.16704E+01 1.62895E-02 1.54627E-04 2.09005E-01-2.05760E-14-4.88694E-13
 -1      1415 2.12209E+01 2.62426E-02-4.46876E-03 3.58001E-01-1.12410E-15-2.35536E-13
 -1      1416 2.18917E+01 1.85377E-02-1.51300E-03 2.47396E-01 6.19121E-14-4.55922E-13
 -1      1417 2.22005E+01 1.65561E-02-4.30556E-04 2.57192E-01 3.89289E-14-4.34252E-13
 -1      1418 2.16134E+01 2.92390E-02-5.03348E-03 4.46115E-01 4.73311E-14-2.97936E-13
 -1      1419 2.24633E+01 1.81422E-02-2.33953E-03 2.94980E-01 9.30983E-15-3.60737E-13
 -1      1420 2.28295E+01 1.37581E-02-1.21115E-03 3.04376E-01 1.80919E-14-3.44216E-13
 -1      1421 2.20869E+01 2.91289E-02-5.23605E-03 5.38026E-01 5.33039E-14-2.54964E-13
 -1      1422 2.31280E+01 1.35242E-02-3.05781E-03 3.33319E-01-6.53364E-14-3.53412E-13
 -1      1423 2.35369E+01 5.39993E-03-1.92524E-03 3.39827E-01-1.04058E-13-4.58749E-13
 -1      1424 2.26373E+01 2.24807E-02-4.63936E-03 6.19339E-01-2.61804E-14-2.88184E-13
 -1      1425 2.38542E+01 1.47606E-03-3.04215E-03 3.45523E-01-3.14942E-14-4.41026E-13
 -1      1426 2.42681E+01-1.17777E-02-1.92005E-03 3.44719E-01 7.38428E-15-4.54803E-13
 -1      1427 2.32441E+01 4.05736E-03-2.52175E-03 6.63523E-01-1.29524E-13-2.33318E-13
 -1      1428 2.45705E+01-2.18140E-02-1.16514E-03 3.05388E-01 4.17604E-14-4.19151E-13
 -1      1429 2.49166E+01-4.06208E-02-1.13603E-04 2.90534E-01-1.88894E-14-4.12434E-13
 -1      1430 2.38606E+01-3.25687E-02 2.13623E-03 6.27897E-01 2.35562E-14-1.05566E-13
 -1      1431 2.51487E+01-5.86516E-02 3.92419E-03 1.79555E-01-1.61971E-14-3.66292E-13
 -1      1432 2.53132E+01-8.02180E-02 4.51498E-03 1.42589E-01 3.26128E-15-4.26727E-13
 -1      1433 2.44030E+01-9.17333E-02 1.03573E-02 4.54594E-01 2.66740E-14-1.69436E-13
 -1      1434 2.53986E+01-1.04664E-01 1.25595E-02-5.98115E-02 7.64805E-14-2.51123E-13
 -1      1435 2.52398E+01-1.19727E-01 1.14912E-02-1.23782E-01 1.62278E-13-1.24054E-13
 -1      1436 2.47445E+01-1.67437E-01 2.21220E-02 8.61486E-02 1.16039E-13 8.36995E-14
 -1      1437 2.50958E+01-1.40952E-01 2.17792E-02-4.04648E-01-1.91687E-14-1.66568E-13
 -1      1438 2.44993E+01-1.32663E-01 1.65939E-02-4.87556E-01-1.28852E-13-1.87114E-13
 -1      1439 2.47274E+01-2.31057E-01 3.42414E-02-4.91240E-01 7.46625E-14 1.75401E-13
 -1      1440 2.40770E+01-1.31715E-01 2.33836E-02-7.68140E-01-4.19751E-14-2.58717E-13
 -1      1441 2.30582E+01-8.38395E-02 1.20371E-02-8.38291E-01-5.11743E-15-2.59709E-13
 -1      1442 2.42117E+01-2.25675E-01 3.82764E-02-1.17588E+00-1.44263E-13 1.26184E-14
 -1      1443 2.24084E+01-4.44272E-02 9.06409E-03-9.71070E-01 2.50207E-14-3.62613E-13
 -1      1444 2.12073E+01 3.79431E-02-7.32521E-03-9.78313E-01-2.56249E-14-3.02119E-13
 -1      1445 2.31809E+01-9.80030E-02 2.17571E-02-1.69755E+00-2.03561E-14-1.91444E-14
 -1      1446 2.05302E+01 1.03111E-01-1.91044E-02-8.25768E-01-1.79837E-13-3.11501E-13
 -1      1447 1.95822E+01 1.79428E-01-3.32015E-02-7.39479E-01-1.31615E-13-5.36821E-13
 -1      1448 2.18700E+01 1.36657E-01-1.79668E-02-1.69623E+00-2.08472E-13-3.16157E-13
 -1      1449 1.91681E+01 2.22635E-01-4.16977E-02-3.13280E-01-1.52094E-13-6.58036E-13
 -1      1450 1.88775E+01 2.39791E-01-4.53979E-02-1.66608E-01-2.45234E-13-9.36912E-13
 -1      1451 2.07751E+01 3.53008E-01-6.01429E-02-9.94476E-01-2.88009E-13-3.60236E-13
 -1      1452 1.89127E+01 2.19803E-01-4.08920E-02 3.19819E-01-9.83137E-14-8.03559E-13
 -1      1453 1.93678E+01 1.64747E-01-3.13075E-02 4.40206E-01-4.67404E-14-8.36428E-13
 -1      1454 2.03972E+01 4.00518E-01-6.95247E-02 1.35403E-01-1.46293E-13-4.67598E-13
 -1      1455 1.97724E+01 1.00090E-01-1.74542E-02 7.22827E-01 5.48372E-14-8.49779E-13
 -1      1456 2.06726E+01 1.46248E-02-1.93529E-03 7.54208E-01 5.00693E-14-8.61963E-13
 -1      1457 2.08505E+01 2.38611E-01-3.84597E-02 1.08103E+00-4.94292E-14-5.27082E-13
 -1      1458 2.11714E+01-4.16261E-02 7.40068E-03 7.29120E-01 3.50761E-14-7.49428E-13
 -1      1459 2.20555E+01-1.05401E-01 2.03318E-02 6.78666E-01 1.28695E-13-5.98410E-13
 -1      1460 2.17588E+01-7.63364E-03 8.07741E-03 1.37798E+00 1.87550E-13-6.22533E-13
 -1      1461 2.23935E+01-1.24132E-01 1.86418E-02 4.37099E-01 2.67817E-13-1.95600E-13
 -1      1462 2.29208E+01-1.45677E-01 2.50830E-02 3.52582E-01 2.75082E-13-2.43520E-14
 -1      1463 2.25738E+01-1.91804E-01 3.49600E-02 1.03089E+00 4.72806E-13-1.38379E-13
 -1      1464 2.29870E+01-1.32322E-01 1.70670E-02 5.60399E-02 1.80739E-13 8.19830E-15
 -1      1465 2.30575E+01-1.20368E-01 1.85041E-02-1.90118E-02 1.00132E-13 2.07074E-13
 -1      1466 2.29386E+01-2.44165E-01 3.78708E-02 3.66982E-01 3.62691E-13 1.12068E-13
 -1      1467 2.28751E+01-9.43777E-02 1.02636E-02-2.50691E-01 6.03189E-14 2.57447E-13
 -1      1468 2.25788E+01-6.62300E-02 8.78350E-03-2.96358E-01-2.04385E-14 3.73729E-13
 -1      1469 2.27842E+01-1.94228E-01 2.67442E-02-2.69997E-01 1.67331E-13 4.53073E-13
 -1      1470 2.22406E+01-4.01250E-02 2.88886E-03-4.12247E-01-1.38453E-13 2.83849E-13
 -1      1471 2.17556E+01-7.77931E-03 3.30017E-06-4.25022E-01 3.36484E-14 1.96274E-13
 -1      1472 2.22376E+01-9.93742E-02 1.12658E-02-6.82631E-01-1.81274E-13 5.36359E-13
 -1      1473 2.13722E+01 1.58361E-02-4.44428E-03-4.17592E-01 1.49655E-13-2.85640E-14
 -1      1474 2.08966E+01 4.69043E-02-6.04598E-03-3.98450E-01 9.95801E-14 1.37470E-13
 -1      1475 2.15033E+01 4.87864E-03-3.17807E-03-8.08135E-01-3.72990E-14 1.54274E-13
 -1      1476 2.05633E+01 7.18764E-02-9.46872E-03-2.74810E-01-6.72357E-15 6.46809E-14
 -1      1477 2.02714E+01 8.32843E-02-4.12639E-03-2.32427E-01-1.77872E-13-7.67837E-15
 -1      1478 2.07824E+01 1.12033E-01-1.22358E-02-6.55114E-01 5.95977E-14-1.18695E-13
 -1      1479 2.00159E+01 4.38122E-02-7.10713E-03-8.31119E-03-1.65781E-13 1.38581E-13
 -1      1480 2.01769E+01 1.68372E-01-1.03124E-02-2.32733E-01-1.13604E-13 1.37061E-13
 -1      1481 2.02593E+01 7.54763E-02-1.52097E-01 4.83971E-01-2.74780E-15 5.61023E-13
 -1      1482 2.15297E+01 2.16131E-01-2.29288E-01 7.20968E-01-1.08386E-14 5.27842E-13
 -1      1483 2.17283E+01 8.81784E-01-8.54664E-02 2.06506E+00-3.34524E-14 4.46157E-13
 -1      1484 1.93307E+01 3.23779E-02-2.13333E-02 1.86137E-01-2.15401E-14 5.87603E-13
 -1      1485 1.97515E+01 1.13614E-01-6.27027E-02 2.38144E-01-1.13624E-14 5.52203E-13
 -1      1486 2.03028E+01 1.87679E-01-5.51896E-02 7.86405E-01-2.66037E-14 4.49807E-13
 -1      1487 1.89486E+01 1.51004E-02 5.66679E-03 5.36521E-02 1.16747E-15 6.04974E-13
 -1      1488 1.90873E+01 5.16188E-02 9.76255E-04 7.99604E-02-1.24683E-14 5.87603E-13
 -1      1489 1.95575E+01 7.18312E-02-1.21541E-02 2.99239E-01-1.85112E-14 4.26626E-13
 -1      1490 1.88377E+01 7.11454E-03 6.97604E-03-8.82019E-03 2.13787E-14 5.88078E-13
 -1      1491 1.88525E+01 2.58499E-02 1.10873E-02 5.57282E-03 8.31279E-15 6.04506E-13
 -1      1492 1.92218E+01 3.10244E-02-2.46172E-03 8.37849E-02 2.37050E-15 4.16341E-13
 -1      1493 1.88632E+01 3.19994E-03 4.78339E-03-3.90379E-02-3.23040E-14 6.08100E-13
 -1      1494 1.88197E+01 1.37939E-02 8.51849E-03-3.09290E-02-1.90564E-14 5.83181E-13
 -1      1495 1.91048E+01 1.32477E-02-1.61628E-03-2.11404E-02-1.00393E-14 4.20999E-13
 -1      1496 1.89567E+01 1.04186E-03 3.29582E-03-5.24211E-02-3.25317E-14 6.90436E-13
 -1      1497 1.88866E+01 7.26088E-03 5.36611E-03-4.79626E-02-3.80702E-14 6.19275E-13
 -1      1498 1.91055E+01 4.51698E-03-1.63003E-03-7.25514E-02-5.93839E-14 4.33821E-13
 -1      1499 1.90803E+01-2.05141E-04 2.51439E-03-5.63202E-02 1.17886E-14 7.14357E-13
 -1      1500 1.90006E+01 3.42531E-03 3.43050E-03-5.41220E-02-8.09693E-15 6.88908E-13
 -1      1501 1.91676E+01-1.37154E-04-1.37269E-03-9.50981E-02-2.59769E-14 4.31835E-13
 -1      1502 1.92121E+01-9.07935E-04 2.04956E-03-5.47769E-02 3.40194E-14 6.56961E-13
 -1      1503 1.91324E+01 1.09583E-03 2.32946E-03-5.39987E-02 5.24784E-14 7.16614E-13
 -1      1504 1.92589E+01-2.65091E-03-9.95981E-04-1.01199E-01 3.89246E-14 4.60605E-13
 -1      1505 1.93397E+01-1.26146E-03 1.70441E-03-5.02394E-02 2.19594E-14 6.30644E-13
 -1      1506 1.92654E+01-3.03267E-04 1.65267E-03-5.03362E-02 1.57381E-14 6.46835E-13
 -1      1507 1.93602E+01-3.90808E-03-6.53499E-04-9.78767E-02 4.67563E-14 4.47113E-13
 -1      1508 1.94564E+01-1.38464E-03 1.41237E-03-4.42672E-02-5.05706E-14 6.78580E-13
 -1      1509 1.93902E+01-1.09402E-03 1.19453E-03-4.48729E-02-3.23148E-14 6.23989E-13
 -1      1510 1.94606E+01-4.38581E-03-3.91407E-04-8.94316E-02-2.83845E-14 4.36557E-13
 -1      1511 1.95591E+01-1.35499E-03 1.15522E-03-3.78761E-02-1.53353E-14 7.42041E-13
 -1      1512 1.95019E+01-1.47522E-03 8.66028E-04-3.87403E-02-1.36666E-14 6.98775E-13
 -1      1513 1.95538E+01-4.37042E-03-2.07057E-04-7.86186E-02-5.78692E-14 4.26583E-13
 -1      1514 1.96469E+01-1.22369E-03 9.27876E-04-3.17339E-02 1.09580E-14 7.79809E-13
 -1      1515 1.95988E+01-1.57613E-03 6.25752E-04-3.26826E-02 2.28138E-15 7.45296E-13
 -1      1516 1.96369E+01-4.04359E-03-8.65095E-05-6.72406E-02-1.65518E-14 4.23651E-13
 -1      1517 1.97210E+01-1.02353E-03 7.27565E-04-2.62824E-02 2.65231E-14 7.32966E-13
 -1      1518 1.96810E+01-1.48167E-03 4.50706E-04-2.71923E-02 3.81555E-14 8.00945E-13
 -1      1519 1.97091E+01-3.52205E-03-1.69658E-05-5.64912E-02 4.34456E-14 5.10920E-13
 -1      1520 1.97830E+01-7.73626E-04 5.51102E-04-2.18225E-02-1.92556E-15 6.06024E-13
 -1      1521 1.97500E+01-1.24578E-03 3.25940E-04-2.26024E-02 3.01992E-14 6.84819E-13
 -1      1522 1.97710E+01-2.87816E-03 1.06487E-05-4.71726E-02 5.94932E-14 4.46802E-13
 -1      1523 1.98359E+01-4.82633E-04 3.94352E-04-1.85754E-02-2.69133E-14 6.45813E-13
 -1      1524 1.98082E+01-8.99317E-04 2.40828E-04-1.91526E-02-1.23451E-14 6.11421E-13
 -1      1525 1.98244E+01-2.15205E-03 1.64937E-06-3.98478E-02-1.62465E-15 4.55544E-13
 -1      1526 1.98828E+01-1.51243E-04 2.52279E-04-1.67297E-02-2.40110E-14 6.44628E-13
 -1      1527 1.98586E+01-4.55491E-04 1.87469E-04-1.70383E-02-3.09142E-14 5.75043E-13
 -1      1528 1.98716E+01-1.35973E-03-4.20238E-05-3.49522E-02-8.87596E-15 3.87585E-13
 -1      1529 1.99276E+01 2.25772E-04 1.19088E-04-1.64760E-02 6.96106E-14 5.84932E-13
 -1      1530 1.99048E+01 8.62180E-05 1.59828E-04-1.64479E-02 2.51471E-14 6.15745E-13
 -1      1531 1.99158E+01-4.99303E-04-1.21465E-04-3.28758E-02 2.30903E-14 2.36820E-13
 -1      1532 1.99748E+01 6.57580E-04-1.15996E-05-1.80320E-02 7.07468E-14 3.69369E-13
 -1      1533 1.99508E+01 7.36658E-04 1.53105E-04-1.75898E-02 9.18802E-14 5.25058E-13
 -1      1534 1.99604E+01 4.43965E-04-2.40487E-04-3.40245E-02 1.23839E-13 2.33850E-13
 -1      1535 2.00294E+01 1.15498E-03-1.46498E-04-2.16575E-02-5.89514E-14 4.40100E-13
 -1      1536 2.00016E+01 1.51353E-03 1.63198E-04-2.07094E-02-5.11525E-14 4.15699E-13
 -1      1537 2.00096E+01 1.49270E-03-4.05204E-04-3.88604E-02-4.93399E-15 2.79339E-13
 -1      1538 2.00972E+01 1.72736E-03-2.92300E-04-2.76586E-02-8.14804E-14 6.64820E-13
 -1      1539 2.00624E+01 2.43704E-03 1.86150E-04-2.60950E-02-1.03906E-13 5.30309E-13
 -1      1540 2.00683E+01 2.67170E-03-6.23391E-04-4.79218E-02-1.58315E-13 4.35183E-13
 -1      1541 2.01849E+01 2.37818E-03-4.55057E-04-3.63740E-02 7.45037E-14 6.94261E-13
 -1      1542 2.01393E+01 3.52375E-03 2.17493E-04-3.40691E-02-2.30107E-14 6.49167E-13
 -1      1543 2.01418E+01 4.00040E-03-9.03370E-04-6.18160E-02-4.80727E-14 4.10156E-13
 -1      1544 2.02999E+01 3.09820E-03-6.39016E-04-4.81399E-02 1.01911E-13 4.05993E-13
 -1      1545 2.02395E+01 4.77717E-03 2.51480E-04-4.49579E-02 1.50949E-13 6.58015E-13
 -1      1546 2.02363E+01 5.48185E-03-1.25204E-03-8.11748E-02 1.62350E-13 4.78831E-13
 -1      1547 2.04503E+01 3.85491E-03-8.44343E-04-6.32170E-02-4.22401E-14 3.38189E-13
 -1      1548 2.03706E+01 6.17286E-03 2.80262E-04-5.90289E-02-2.28130E-14 3.39656E-13
 -1      1549 2.03585E+01 7.08590E-03-1.67144E-03-1.06555E-01 5.89046E-14 3.09285E-13
 -1      1550 2.06447E+01 4.57650E-03-1.06275E-03-8.16637E-02-2.04074E-13 6.36781E-13
 -1      1551 2.05408E+01 7.63524E-03 2.93298E-04-7.63795E-02-1.61671E-13 3.62899E-13
 -1      1552 2.05153E+01 8.72323E-03-2.15275E-03-1.38253E-01-1.73127E-13 2.50103E-13
 -1      1553 2.08908E+01 5.12859E-03-1.26935E-03-1.03126E-01-8.11896E-14 9.56922E-13
 -1      1554 2.07583E+01 9.00220E-03 2.77737E-04-9.67518E-02-9.47546E-14 8.33036E-13
 -1      1555 2.07137E+01 1.02059E-02-2.66639E-03-1.76000E-01-2.58936E-13 4.81802E-13
 -1      1556 2.11944E+01 5.28269E-03-1.40825E-03-1.26510E-01 4.20307E-14 9.15831E-13
 -1      1557 2.10299E+01 9.97435E-03 2.21298E-04-1.19244E-01 3.28729E-14 9.87003E-13
 -1      1558 2.09592E+01 1.11904E-02-3.14609E-03-2.18469E-01-1.39407E-14 6.16695E-13
 -1      1559 2.15566E+01 4.67992E-03-1.36964E-03-1.49509E-01 8.38067E-14 7.13888E-13
 -1      1560 2.13592E+01 1.00490E-02 1.20313E-04-1.41887E-01 9.89890E-14 8.61672E-13
 -1      1561 2.12545E+01 1.11017E-02-3.46531E-03-2.62553E-01 1.31219E-13 6.49092E-13
 -1      1562 2.19697E+01 2.80354E-03-9.58987E-04-1.67972E-01-8.82261E-14 6.85724E-13
 -1      1563 2.17436E+01 8.45169E-03-3.62641E-06-1.61077E-01-6.36766E-14 6.15263E-13
 -1      1564 2.15968E+01 9.04927E-03-3.40665E-03-3.02364E-01 6.46521E-15 5.53823E-13
 -1      1565 2.24121E+01-1.00216E-03 1.28953E-04-1.75215E-01 1.03725E-13 6.85082E-13
 -1      1566 2.21694E+01 4.10639E-03-7.67431E-05-1.70930E-01-2.07851E-14 7.53354E-13
 -1      1567 2.19742E+01 3.77794E-03-2.63324E-03-3.28042E-01-8.05205E-14 5.74948E-13
 -1      1568 2.28413E+01-7.38845E-03 2.29047E-03-1.61583E-01-9.69927E-16 5.64179E-13
 -1      1569 2.26065E+01-4.25537E-03 5.65435E-05-1.62803E-01 9.70938E-14 6.80423E-13
 -1      1570 2.23616E+01-6.24293E-03-6.91155E-04-3.24715E-01 9.47918E-14 5.79601E-13
 -1      1571 2.31881E+01-1.66089E-02 5.86216E-03-1.15002E-01-9.95896E-14 7.24922E-13
 -1      1572 2.30014E+01-1.76644E-02 6.34042E-04-1.25586E-01-9.23467E-14 5.63577E-13
 -1      1573 2.27150E+01-2.23758E-02 2.89484E-03-2.72523E-01-8.01772E-14 5.14431E-13
 -1      1574 2.33547E+01-2.77610E-02 1.07253E-02-2.38235E-02-5.74887E-15 8.96287E-13
 -1      1575 2.32734E+01-3.59309E-02 1.88235E-03-4.78584E-02-6.89023E-14 7.91462E-13
 -1      1576 2.29694E+01-4.47167E-02 8.33425E-03-1.49488E-01-1.33112E-13 5.71097E-13
 -1      1577 2.32262E+01-3.77616E-02 1.56393E-02 1.16488E-01 4.93910E-14 8.73118E-13
 -1      1578 2.33181E+01-5.60476E-02 3.74673E-03 7.66667E-02 4.57117E-14 9.51155E-13
 -1      1579 2.30412E+01-7.01150E-02 1.50438E-02 6.02087E-02-1.16226E-16 5.33532E-13
 -1      1580 2.27021E+01-4.07741E-02 1.76674E-02 2.92550E-01-9.67802E-14 9.02049E-13
 -1      1581 2.30260E+01-7.06269E-02 5.44744E-03 2.39776E-01-1.66750E-14 9.31538E-13
 -1      1582 2.28431E+01-8.98435E-02 2.10100E-02 3.50691E-01-3.69496E-16 7.21564E-13
 -1      1583 2.17543E+01-2.98082E-02 1.27963E-02 4.62460E-01 6.87449E-14 7.24018E-13
 -1      1584 2.23251E+01-6.83985E-02 5.28380E-03 4.08276E-01 2.86628E-14 8.29906E-13
 -1      1585 2.23161E+01-8.91858E-02 2.27261E-02 6.74474E-01 9.68782E-14 4.71380E-13
 -1      1586 2.04931E+01-2.08773E-03-1.23136E-03 5.57648E-01 6.48441E-14 6.28463E-13
 -1      1587 2.12421E+01-3.98098E-02 1.35590E-03 5.22062E-01 4.04314E-14 6.82079E-13
 -1      1588 2.14784E+01-5.26741E-02 1.70399E-02 9.32338E-01 1.01822E-13 4.94294E-13
 -1      1589 1.91938E+01 3.50877E-02-2.13550E-02 5.11293E-01-1.44099E-13 9.56159E-13
 -1      1590 1.99553E+01 1.31547E-02-6.63131E-03 5.14431E-01-1.85914E-13 7.52974E-13
 -1      1591 2.04683E+01 2.16377E-02 3.75169E-03 9.97561E-01-1.63246E-13 8.51291E-13
 -1      1592 1.82292E+01 6.41144E-02-3.80944E-02 3.04570E-01-3.30205E-15 1.11211E-12
 -1      1593 1.87826E+01 7.13591E-02-1.58223E-02 3.53253E-01-1.19991E-14 1.07443E-12
 -1      1594 1.95371E+01 1.10684E-01-1.24480E-02 7.84085E-01-1.04181E-13 8.77598E-13
 -1      1595 1.79036E+01 6.70180E-02-3.98659E-02 2.58888E-03 4.27757E-14 1.14133E-12
 -1      1596 1.80737E+01 1.04570E-01-2.03717E-02 7.98111E-02 2.96638E-14 1.17995E-12
 -1      1597 1.89649E+01 1.69495E-01-2.31214E-02 3.24425E-01 3.62210E-15 9.69614E-13
 -1      1598 1.82737E+01 4.19932E-02-2.39536E-02-2.69255E-01-2.84130E-14 9.61405E-13
 -1      1599 1.80333E+01 9.41466E-02-1.58536E-02-1.96724E-01 2.88242E-14 1.02871E-12
 -1      1600 1.89155E+01 1.59712E-01-2.28768E-02-2.09317E-01 4.85688E-14 1.10867E-12
 -1      1601 1.91119E+01 4.64561E-03 4.68944E-04-4.04583E-01 8.70885E-14 8.17117E-13
 -1      1602 1.85990E+01 4.85647E-02-4.20002E-03-3.64650E-01-2.51327E-14 8.91467E-13
 -1      1603 1.93364E+01 8.54473E-02-1.36251E-02-5.99235E-01 5.60324E-14 7.97227E-13
 -1      1604 2.00431E+01-2.57772E-02 1.98878E-02-3.76413E-01-3.10572E-14 8.41716E-13
 -1      1605 1.94795E+01-5.34843E-03 7.80823E-03-3.76807E-01 1.73542E-14 8.23404E-13
 -1      1606 1.99935E+01-1.05719E-02-2.26966E-03-7.14520E-01 4.57555E-14 8.19744E-13
 -1      1607 2.07394E+01-3.87174E-02 2.73199E-02-2.34744E-01 1.81828E-13 5.34059E-13
 -1      1608 2.03171E+01-4.29700E-02 1.43165E-02-2.63919E-01 1.58310E-13 8.52929E-13
 -1      1609 2.06058E+01-8.11481E-02 5.69942E-03-5.69481E-01 1.63388E-13 6.78324E-13
 -1      1610 2.10409E+01-3.50038E-02 2.37101E-02-5.97454E-02 1.74910E-13 1.49133E-13
 -1      1611 2.08525E+01-5.48466E-02 1.42696E-02-9.87746E-02 1.61528E-13 2.95423E-13
 -1      1612 2.09750E+01-1.04880E-01 8.67186E-03-2.81407E-01 3.66191E-13 4.12635E-13
 -1      1613 2.09645E+01-2.07000E-02 1.36150E-02 8.13914E-02 9.02217E-14-1.65986E-13
 -1      1614 2.09983E+01-4.45171E-02 9.79817E-03 4.88193E-02 1.84540E-13 6.08203E-14
 -1      1615 2.10388E+01-8.77092E-02 7.26013E-03 1.35010E-02 2.63008E-13 1.10354E-13
 -1      1616 2.06488E+01-1.89880E-03 1.62720E-03 1.49812E-01-5.24533E-14-2.83454E-15
 -1      1617 2.08208E+01-2.02997E-02 3.52821E-03 1.34042E-01-1.36123E-13-1.46395E-13
 -1      1618 2.08515E+01-4.64444E-02 2.66254E-03 2.15247E-01-7.85461E-14 1.97888E-13
 -1      1619 2.02861E+01 1.56687E-02-7.22478E-03 1.32912E-01 7.72972E-14-2.04153E-13
 -1      1620 2.04787E+01 9.33526E-03-2.32141E-03 1.38721E-01 1.04393E-13 8.52270E-15
 -1      1621 2.05360E+01 4.46428E-03-2.93837E-03 2.73662E-01 7.68066E-14 3.89019E-13
 -1      1622 2.00571E+01 2.77561E-02 3.97581E-04 4.88263E-02 6.53973E-14-2.90376E-13
 -1      1623 2.01566E+01 3.31958E-02-3.43812E-03 7.22378E-02 2.96791E-14-3.90353E-13
 -1      1624 2.02305E+01 5.06587E-02-4.84599E-03 1.87821E-01 2.41106E-13 1.98067E-13
 -1      1625 2.00025E+01 1.46505E-02 3.66210E-03-1.16060E-03-8.69140E-14-8.49856E-14
 -1      1626 2.00459E+01 2.53929E-01-4.49365E-03 1.25742E-01 4.02753E-13 3.56826E-13
 -1      1627 2.00452E+01 1.25597E-01 1.69238E-03 9.80214E-02 1.67505E-14 4.23046E-13
 -1      1628 2.00505E+01 7.37206E-01-3.44696E-03 2.59335E-01 9.00136E-13 1.61138E-13
 -1      1629 2.00511E+01 4.40217E-01-4.48155E-03 2.31940E-01 5.70559E-13 7.92170E-14
 -1      1630 2.00914E+01 3.85144E-01-1.20434E-02 3.49691E-01 4.75391E-13 5.16364E-13
 -1      1631 2.00487E+01 1.49716E+00-3.51854E-03 4.01125E-01 7.75047E-13-4.18858E-14
 -1      1632 2.00539E+01 1.02839E+00-5.76812E-03 3.72497E-01 7.97378E-13 1.31456E-13
 -1      1633 2.00917E+01 8.45989E-01-1.44479E-02 6.13487E-01 4.76236E-13 1.85312E-13
 -1      1634 2.00351E+01 2.52260E+00-3.61273E-03 5.29261E-01 7.88276E-13-1.32685E-13
 -1      1635 2.00478E+01 1.90016E+00-6.48156E-03 5.04792E-01 7.45036E-13 1.31386E-13
 -1      1636 2.00816E+01 1.52161E+00-1.48270E-02 8.75872E-01 3.75890E-13 1.64400E-14
 -1      1637 2.00048E+01 3.70893E+00-2.66131E-03 6.03706E-01-2.79197E-13-4.87732E-13
 -1      1638 2.00265E+01 3.00555E+00-5.78458E-03 5.93092E-01 5.13953E-13-7.42014E-13
 -1      1639 2.00503E+01 2.39307E+00-1.01679E-02 1.08076E+00 2.29223E-13-8.03739E-13
 -1      1640 1.99600E+01 4.92708E+00 3.02024E-04 5.81671E-01-5.31943E-13-5.07715E-14
 -1      1641 1.99882E+01 4.23015E+00-2.83710E-03 5.93990E-01-4.27942E-13-2.13508E-13
 -1      1642 1.99928E+01 3.38617E+00-2.30444E-04 1.15102E+00 9.87804E-14-6.55088E-13
 -1      1643 1.99146E+01 5.91830E+00 4.31477E-03 4.33730E-01-6.12642E-13 9.63379E-15
 -1      1644 1.99401E+01 5.38409E+00 1.79719E-03 4.73313E-01-6.48492E-13-9.18363E-15
 -1      1645 1.99161E+01 4.36033E+00 1.39036E-02 1.01209E+00 6.42715E-15-1.76381E-13
 -1      1646 1.98861E+01 6.44561E+00 7.28762E-03 1.73695E-01-6.22179E-13-1.03941E-13
 -1      1647 1.98991E+01 6.20720E+00 6.12087E-03 2.33878E-01-6.76417E-13 1.72952E-15
 -1      1648 1.98456E+01 5.10762E+00 2.76669E-02 6.39738E-01-2.10209E-13-6.82648E-14
 -1      1649 1.98875E+01 6.36282E+00 7.26403E-03-1.38305E-01-7.67672E-13 1.67713E-14
 -1      1650 1.98825E+01 6.48916E+00 7.93177E-03-7.36644E-02-7.92355E-13 4.25406E-14
 -1      1651 1.98091E+01 5.44256E+00 3.49861E-02 9.55708E-02-4.75425E-13-1.31183E-13
 -1      1652 1.99181E+01 5.67887E+00 4.08684E-03-4.19112E-01-9.46215E-13-2.14594E-13
 -1      1653 1.98980E+01 6.14493E+00 6.65316E-03-3.68247E-01-7.47222E-13 5.77359E-14
 -1      1654 1.98219E+01 5.26913E+00 3.21638E-02-4.85641E-01-6.86519E-13 1.28515E-13
 -1      1655 1.99643E+01 4.57496E+00-6.73597E-05-5.98623E-01-1.41429E-12-9.09880E-14
 -1      1656 1.99365E+01 5.26010E+00 3.23511E-03-5.73173E-01-8.92373E-13-5.61973E-13
 -1      1657 1.98792E+01 4.63181E+00 2.11833E-02-9.50512E-01-6.90874E-13-5.24346E-13
 -1      1658 2.00111E+01 3.25298E+00-3.94411E-03-6.55562E-01-9.14158E-13 2.75808E-13
 -1      1659 1.99834E+01 4.03602E+00-8.98604E-05-6.55545E-01-1.34721E-12 3.27047E-13
 -1      1660 1.99547E+01 3.67927E+00 6.47214E-03-1.20322E+00-3.75519E-13 1.16514E-13
 -1      1661 2.00472E+01 1.97801E+00-6.47441E-03-5.98858E-01-3.56812E-13 3.30302E-13
 -1      1662 2.00244E+01 2.70595E+00-2.76523E-03-6.18037E-01-8.83391E-13 5.28276E-13
 -1      1663 2.00287E+01 2.60306E+00-6.39151E-03-1.22271E+00-4.24955E-13 5.93399E-13
 -1      1664 2.00776E+01 9.65497E-01-1.21030E-03-4.54816E-01-1.34004E-13 1.20701E-13
 -1      1665 2.00516E+01 1.50963E+00-5.88812E-03-4.85634E-01-2.45963E-13 2.16901E-13
 -1      1666 2.00923E+01 1.59811E+00-1.40031E-02-1.04107E+00-3.99585E-13 4.34215E-13
 -1      1667 2.01405E+01 3.78299E-01 7.25026E-03-3.40728E-01-1.82445E-13-9.67655E-14
 -1      1668 2.01280E+01 6.75413E-01-3.53085E-03-4.21343E-01-1.52205E-14-2.15588E-13
 -1      1669 2.01962E+01 8.52034E-01-1.80006E-02-8.30252E-01-2.63612E-13 2.07296E-13
 -1      1670 2.03810E+01 3.66746E-01-9.81655E-03-6.42693E-01-8.98104E-14-1.92578E-13
 -1      1671-5.43623E-01-1.49547E+01-1.58971E+00-7.54747E-01 2.89435E-13-5.76927E-13
 -1      1672-5.60499E-01-1.75858E+01-1.84414E+00 5.07128E-01 8.72219E-13-2.97262E-13
 -1      1673 2.53667E+00-7.69103E+00-1.02550E+00 1.49858E+00-6.95666E-13-8.43492E-13
 -1      1674 1.38151E+00-1.34672E+01-1.58286E+00 5.36575E-01 5.08482E-14-6.36401E-13
 -1      1675 8.38778E+00 3.92287E-01-4.44591E-01 5.49179E+00-9.31921E-13-5.64992E-13
 -1      1676 4.70582E+00-5.35042E+00-1.25038E+00 2.18461E+00-9.53682E-13-4.35207E-13
 -1      1677 2.22703E+01 4.38214E+00 4.45746E-01 1.04857E+01-7.06213E-13-8.17790E-13
 -1      1678 1.46210E+01 1.32299E+00-4.32935E-01 6.80478E+00-8.39551E-13-8.09242E-13
 -1      1679 3.64058E+01 6.71565E+00 1.29176E+00 1.32036E+01-6.11622E-13-1.59983E-12
 -1      1680 2.67773E+01 6.96978E+00 4.46963E-01 1.18284E+01-7.72160E-13-1.22324E-12
 -1      1681 4.91824E+01 4.77658E+00 1.62786E+00 9.50450E+00-4.52284E-13-2.28884E-12
 -1      1682 4.11918E+01 6.63909E+00 1.15040E+00 1.20927E+01-6.06626E-13-1.85862E-12
 -1      1683 5.44626E+01 3.96654E+00 1.69860E+00 1.59800E+00-1.47438E-13-2.32167E-12
 -1      1684 5.11380E+01 4.93494E+00 1.49475E+00 6.89265E+00-2.49828E-13-2.21601E-12
 -1      1685 5.33996E+01 4.29794E+00 1.71931E+00-6.35584E+00 1.19182E-13-1.91958E-12
 -1      1686 5.61778E+01 3.44497E+00 1.84629E+00-8.49120E-01-1.15130E-13-2.32278E-12
 -1      1687 4.19958E+01 6.20817E+00 1.15728E+00-1.14351E+01 6.32050E-13-1.65334E-12
 -1      1688 5.02837E+01 4.44301E+00 1.72950E+00-8.57179E+00 5.41470E-13-1.66889E-12
 -1      1689 2.76937E+01 6.72454E+00 4.32530E-01-1.17075E+01 6.63247E-13-1.28186E-12
 -1      1690 3.69714E+01 6.25156E+00 1.21853E+00-1.26808E+01 6.68021E-13-1.57652E-12
 -1      1691 1.45335E+01 3.54721E+00-3.53190E-01-7.67559E+00 5.24913E-13-7.67275E-13
 -1      1692 2.22812E+01 6.07173E+00 5.50200E-01-1.12082E+01 6.55254E-13-1.14464E-12
 -1      1693 6.64219E+00-4.26285E+00-9.76923E-01-3.12751E+00 3.33067E-13-4.61187E-13
 -1      1694 1.09616E+01 8.76892E-01-2.08681E-01-6.48121E+00 5.14033E-13-7.40075E-13
 -1      1695 1.46832E+00-1.19192E+01-1.54379E+00-4.24768E-01 2.53131E-13-2.72504E-13
 -1      1696 2.83735E+00-6.17834E+00-9.36181E-01-1.75847E+00 3.94795E-13-2.63234E-13
 -1      1697-4.86450E-01-1.69708E+01-1.82142E+00-2.20032E-01-2.37588E-13-2.05364E-13
 -1      1698-4.44670E-01-1.37889E+01-1.54004E+00 8.97697E-01 1.43441E-13-3.30139E-13
 -1      1699-7.55915E-01-1.56211E+01-1.61453E+00-1.05906E+00-2.82996E-13-9.07607E-14
 -1      1700-7.12673E-01-1.67755E+01-1.70805E+00 4.43645E-01-2.63692E-13-1.33116E-13
 -1      1701 7.52010E-01-1.01240E+01-1.29397E+00-1.87999E-01-5.82756E-13-4.33681E-13
 -1      1702 2.79163E-01-1.48593E+01-1.70403E+00-2.46219E-01-4.54747E-13-1.67352E-13
 -1      1703 5.10754E+00-2.54051E+00-7.77929E-01 3.06090E+00-8.65530E-13-5.36016E-13
 -1      1704 2.69030E+00-8.25392E+00-1.48047E+00 6.10825E-01-6.85452E-13-5.67546E-13
 -1      1705 1.63560E+01 3.34065E+00 2.69014E-02 8.67921E+00-7.01328E-13-6.35825E-13
 -1      1706 9.64621E+00-7.92947E-01-8.78471E-01 4.62417E+00-8.11573E-13-5.74651E-13
 -1      1707 3.16673E+01 5.08049E+00 8.25518E-01 1.12364E+01-3.65818E-13-4.90274E-13
 -1      1708 2.24011E+01 4.29242E+00-3.31272E-02 9.01213E+00-5.33351E-13-4.52971E-13
 -1      1709 4.59994E+01 5.03246E+00 1.61215E+00 1.04042E+01-2.80942E-13-3.21965E-15
 -1      1710 3.67551E+01 6.30000E+00 8.34876E-01 1.15602E+01-2.99705E-13-4.31433E-13
 -1      1711 5.59526E+01 3.60234E+00 2.04924E+00 4.20739E+00-1.04472E-13-6.03406E-14
 -1      1712 5.02590E+01 4.91957E+00 1.60833E+00 8.93323E+00-1.13229E-13-1.14464E-13
 -1      1713 5.63603E+01 3.91760E+00 1.98784E+00-4.64747E+00-7.79932E-14-5.56222E-14
 -1      1714 5.72684E+01 3.54697E+00 2.04879E+00 1.36973E+00-8.05467E-14-1.26454E-13
 -1      1715 4.68150E+01 5.99248E+00 1.47515E+00-1.10851E+01-2.09568E-13 1.12244E-13
 -1      1716 5.38811E+01 4.23109E+00 1.96555E+00-7.19387E+00-1.42164E-13-8.28226E-14
 -1      1717 3.26829E+01 7.21051E+00 7.48912E-01-1.27087E+01 2.26597E-13 7.12763E-14
 -1      1718 4.23260E+01 6.12886E+00 1.53564E+00-1.27358E+01 1.89848E-14 1.45217E-13
 -1      1719 1.88804E+01 5.08108E+00-9.41842E-02-9.50991E+00 9.29812E-13-4.48974E-13
 -1      1720 2.73022E+01 6.64418E+00 8.26577E-01-1.25345E+01 5.55778E-13 1.37668E-13
 -1      1721 8.65477E+00-1.49795E+00-9.09995E-01-4.42065E+00 1.17950E-12-7.63389E-13
 -1      1722 1.42398E+01 3.14872E+00-1.65061E-02-8.31037E+00 1.03473E-12-7.67830E-13
 -1      1723 2.49329E+00-9.02208E+00-1.57220E+00-5.82160E-01 1.39555E-12-7.15872E-13
 -1      1724 4.49814E+00-3.42360E+00-8.89645E-01-2.76516E+00 1.32849E-12-7.78044E-13
 -1      1725 2.71250E-01-1.56822E+01-1.90863E+00 4.04759E-01 9.69003E-13-4.75536E-13
 -1      1726 6.78322E-01-1.10433E+01-1.47532E+00 3.02262E-01 1.19249E-12-7.27821E-13
 -1      1727-7.06374E-01-1.85652E+01-1.99036E+00-3.47356E-01 1.11783E-12 6.21447E-14
 -1      1728-7.38110E-01-1.68751E+01-1.86896E+00 1.16492E+00 1.04222E-12-1.55764E-13
 -1      1729 2.79584E+01 7.07494E-01 2.82094E-01 7.12460E+00-4.95881E-13-1.01008E-12
 -1      1730 1.77054E+01-3.20479E+00-7.43820E-02 7.00007E+00-5.44342E-13-5.09315E-13
 -1      1731 2.00434E+01 4.54871E-02-2.60244E-03 4.40015E-02-1.51019E-13 2.30871E-13
 -1      1732 2.01007E+01 1.42805E-01-5.12578E-03 1.64373E-01 1.36999E-13 5.81963E-13
 -1      1733 1.51290E+00-1.01707E+01-1.00393E+00 3.37097E+00 9.40359E-14-1.11855E-12
 -1      1734 7.49796E+00-7.52503E+00-8.13102E-01 5.30001E+00-3.58935E-13-7.03743E-13
 -1      1735-1.38176E+00-1.21637E+01-1.32778E+00 3.28231E-01 4.57571E-13-3.26850E-13
 -1      1736 3.80186E+01 5.14884E+00 1.07066E+00 6.96170E+00-3.42892E-13-1.73095E-12
 -1      1737 4.41101E+01 7.16040E+00 1.30199E+00 3.75031E+00-2.50022E-13-1.73117E-12
 -1      1738 4.69453E+01 7.74933E+00 1.42364E+00 1.05616E-01-1.73028E-13-1.66851E-12
 -1      1739 4.58122E+01 6.88668E+00 1.47419E+00-3.35709E+00 1.23457E-13-1.48387E-12
 -1      1740 3.84731E+01 5.05964E+00 1.04660E+00-6.37085E+00 3.63813E-13-1.16873E-12
 -1      1741 2.81743E+01 2.27461E+00 4.59214E-01-7.64233E+00 4.08784E-13-1.11156E-12
 -1      1742 1.79471E+01-2.59780E+00-2.64543E-01-6.76282E+00 4.41203E-13-8.61033E-13
 -1      1743 9.28004E+00-6.51077E+00-5.33838E-01-5.75775E+00 3.45168E-13-4.72414E-13
 -1      1744 1.81793E+00-9.80870E+00-1.03003E+00-3.33006E+00 1.37224E-13-3.72091E-13
 -1      1745-1.28427E+00-1.13979E+01-1.22782E+00-6.21216E-01 9.67421E-14-2.62013E-13
 -1      1746-6.97414E-02-1.07096E+01-1.13105E+00 1.80424E+00-9.47020E-14-1.46050E-13
 -1      1747 4.47292E+00-8.60029E+00-9.82054E-01 3.80235E+00-3.91465E-13-5.10161E-13
 -1      1748 1.28751E+01-4.62055E+00-4.52608E-01 5.82740E+00-5.17586E-13-2.88769E-13
 -1      1749 2.44823E+01-8.85137E-01 2.17781E-01 6.45362E+00-4.41425E-13-1.45661E-13
 -1      1750 3.46849E+01 2.73245E+00 6.11594E-01 5.48103E+00-3.54106E-13-1.35447E-13
 -1      1751 4.37815E+01 5.96077E+00 1.31299E+00 4.28921E+00-1.93096E-13 2.00950E-14
 -1      1752 4.90197E+01 7.21385E+00 1.69847E+00 9.86136E-01-9.90874E-14-1.16684E-13
 -1      1753 4.78581E+01 7.33680E+00 1.62938E+00-2.87776E+00-8.64309E-14-2.39420E-13
 -1      1754 4.18302E+01 5.90285E+00 1.27622E+00-6.17236E+00 1.00239E-13-2.14495E-13
 -1      1755 3.22914E+01 3.29990E+00 7.19069E-01-7.85109E+00 6.98330E-13 1.21347E-13
 -1      1756 2.17210E+01-8.02384E-01 5.36295E-02-7.44734E+00 8.18234E-13-2.14939E-13
 -1      1757 1.18218E+01-5.07644E+00-5.33386E-01-6.06804E+00 9.09273E-13-6.45872E-13
 -1      1758 4.23739E+00-9.21566E+00-1.08156E+00-3.89426E+00 7.89813E-13-6.30718E-13
 -1      1759-1.25411E-02-1.20296E+01-1.35715E+00-2.02027E+00 8.15903E-13-4.34042E-13
 -1      1760 2.28599E+01 1.98496E+00-2.35542E-02-2.72255E+00-2.43174E-14-5.27745E-13
 -1      1761 1.98257E+01 3.71360E+00-3.54111E-02-2.15329E+00 9.08943E-14-2.45640E-13
 -1      1762 2.00581E+01 3.56273E+00-4.02574E-02-2.44549E+00 7.18123E-14-2.91947E-13
 -1      1763 2.03636E+01 3.18151E+00-4.58202E-02-2.58509E+00 5.44191E-14-3.19036E-13
 -1      1764 2.05838E+01 2.80981E+00-1.42522E-01-2.85340E+00 2.17222E-14-3.74561E-13
 -1      1765 2.04244E+01 2.69308E+00-4.13094E-03-2.22469E+00 6.47074E-14-2.95167E-13
 -1      1766 1.93550E+01 4.18871E+00-2.00419E-02-1.27075E+00 1.35168E-13-1.32439E-13
 -1      1767 1.94287E+01 4.14922E+00-1.69384E-02-1.49521E+00 1.40439E-13-1.58016E-13
 -1      1768 1.92583E+01 4.29460E+00-1.67452E-02-8.59680E-01 1.53685E-13-9.60933E-14
 -1      1769 1.93011E+01 4.27067E+00-1.42245E-02-1.07047E+00 1.49020E-13-1.20459E-13
 -1      1770 1.95272E+01 3.78306E+00-8.91209E-03-1.11968E+00 1.45854E-13-1.27993E-13
 -1      1771 1.92068E+01 4.35501E+00-1.47929E-02-4.66819E-01 1.46472E-13-5.00260E-14
 -1      1772 1.92287E+01 4.34216E+00-1.33014E-02-6.67131E-01 1.55419E-13-7.85431E-14
 -1      1773 1.94297E+01 3.90322E+00-9.14673E-03-7.33237E-01 1.67633E-13-8.57665E-14
 -1      1774 1.91873E+01 4.38060E+00-1.36687E-02-8.36266E-02 1.67181E-13 3.27689E-15
 -1      1775 1.91938E+01 4.37668E+00-1.32171E-02-2.79094E-01 1.57046E-13-2.61024E-14
 -1      1776 1.93794E+01 3.96762E+00-9.15278E-03-3.58327E-01 1.63039E-13-3.17003E-14
 -1      1777 1.91954E+01 4.37530E+00-1.31721E-02 2.98179E-01 1.66623E-13 3.39190E-14
 -1      1778 1.91878E+01 4.37976E+00-1.37543E-02 1.02547E-01 1.64906E-13 1.82770E-14
 -1      1779 1.93646E+01 3.98700E+00-9.14737E-03 1.05689E-02 1.74827E-13 1.17892E-14
 -1      1780 1.92327E+01 4.33812E+00-1.33319E-02 6.86969E-01 1.53274E-13 5.86857E-14
 -1      1781 1.92095E+01 4.35180E+00-1.49176E-02 4.86141E-01 1.62501E-13 4.21035E-14
 -1      1782 1.93820E+01 3.96428E+00-9.19038E-03 3.79674E-01 1.70008E-13 4.11494E-14
 -1      1783 1.93062E+01 4.26474E+00-1.44129E-02 1.08466E+00 1.41468E-13 1.09449E-13
 -1      1784 1.92629E+01 4.28920E+00-1.69737E-02 8.76677E-01 1.41887E-13 7.78873E-14
 -1      1785 1.94348E+01 3.89681E+00-9.19686E-03 7.51891E-01 1.59940E-13 6.71060E-14
 -1      1786 1.94379E+01 4.13756E+00-1.74067E-02 1.51469E+00 1.26376E-13 1.73271E-13
 -1      1787 1.93614E+01 4.18013E+00-2.05035E-02 1.28514E+00 1.30638E-13 1.38313E-13
 -1      1788 1.95345E+01 3.77294E+00-9.24150E-03 1.13567E+00 1.42638E-13 1.19573E-13
 -1      1789 1.96672E+01 3.92105E+00-2.51982E-02 1.97977E+00 1.04838E-13 2.31083E-13
 -1      1790 1.95343E+01 3.99781E+00-2.69032E-02 1.72243E+00 1.18580E-13 1.99337E-13
 -1      1791 1.97080E+01 3.56589E+00-8.70409E-03 1.53541E+00 1.25394E-13 1.82136E-13
 -1      1792 2.00760E+01 3.52277E+00-4.51872E-02 2.47219E+00 8.11816E-14 2.91382E-13
 -1      1793 1.98359E+01 3.68322E+00-3.97230E-02 2.18309E+00 9.60265E-14 2.56080E-13
 -1      1794 2.00045E+01 3.22283E+00-5.26993E-03 1.93474E+00 1.03797E-13 2.37985E-13
 -1      1795 2.09215E+01 2.68182E+00-5.76498E-02 2.85786E+00 1.62691E-14 3.62849E-13
 -1      1796 2.04140E+01 3.09694E+00-5.04294E-02 2.61609E+00 4.92306E-14 3.19328E-13
 -1      1797 2.05178E+01 2.60992E+00 3.18708E-03 2.24468E+00 6.18407E-14 2.81872E-13
 -1      1798 2.17320E+01 1.21299E+00-1.22094E-01 2.32991E+00-1.60566E-14 4.04565E-13
 -1      1799 2.12754E+01 2.26306E+00 1.18190E-04 2.74052E+00-2.17708E-15 3.80862E-13
 -1      1800 2.09381E+01 1.68503E+00-2.29605E-02 2.14029E+00 1.58693E-14 3.38354E-13
 -1      1801 2.09533E+01 7.78679E-01-6.24508E-02 1.52422E+00-1.04500E-14 4.08182E-13
 -1      1802 2.17978E+01 2.45827E+00 9.09161E-02-3.04827E+00-1.15290E-14-4.29476E-13
 -1      1803 2.01024E+01 2.97927E-01-8.91618E-03 6.57088E-01-2.93342E-14 3.77936E-13
 -1      1804 2.06545E+01 4.40401E-01-1.24668E-02 1.03412E+00-1.28092E-14 3.82503E-13
 -1      1805 2.07456E+01 8.45118E-01 2.25080E-03 1.41521E+00-4.22926E-15 3.30529E-13
 -1      1806 2.15081E+01 1.74237E+00 7.94392E-02-2.33726E+00 1.06443E-14-3.92741E-13
 -1      1807 2.05214E+01 5.00816E-01 3.24266E-02-9.21519E-01 1.94983E-15-3.63328E-13
 -1      1808 2.00897E+01 3.51926E-01 7.52520E-03-6.29514E-01-1.07726E-15-3.64101E-13
 -1      1809 1.98960E+01 2.56662E-01 2.74116E-02-3.91459E-01-1.03632E-14-3.36404E-13
 -1      1810 1.97046E+01 1.77638E-01 1.03426E-02-2.54204E-01 1.48787E-14-3.34613E-13
 -1      1811 2.01992E+01 4.81160E-01-6.64760E-03-7.22426E-01 5.95357E-15-2.70052E-13
 -1      1812 1.95821E+01 1.32991E-01 1.66460E-02-1.20315E-01 1.42694E-14-3.25147E-13
 -1      1813 1.95039E+01 9.31127E-02 6.92258E-03-4.94900E-02 5.72372E-15-3.28304E-13
 -1      1814 1.98732E+01 2.42951E-01-6.22122E-03-2.96274E-01 1.41241E-14-2.45027E-13
 -1      1815 1.94390E+01 6.82529E-02 8.68021E-03 2.39351E-02 1.98886E-15-3.03893E-13
 -1      1816 1.94243E+01 4.65003E-02 4.10835E-03 6.00089E-02 3.42608E-16-3.07233E-13
 -1      1817 1.96906E+01 1.25176E-01-4.63993E-03-5.93218E-02 6.50521E-19-2.34550E-13
 -1      1818 1.93980E+01 3.21426E-02 4.23704E-03 9.85339E-02-2.70938E-14-3.04360E-13
 -1      1819 1.94174E+01 1.96973E-02 2.42637E-03 1.15165E-01-7.51786E-15-3.06893E-13
 -1      1820 1.96039E+01 6.05780E-02-3.44487E-03 6.98766E-02-6.36438E-15-2.29100E-13
 -1      1821 1.94155E+01 1.10613E-02 1.85302E-03 1.32913E-01-1.50744E-14-3.21267E-13
 -1      1822 1.94521E+01 3.87939E-03 1.43912E-03 1.38190E-01-8.80833E-15-3.28321E-13
 -1      1823 1.95791E+01 2.36865E-02-2.32827E-03 1.35902E-01-1.97751E-14-2.29369E-13
 -1      1824 1.94643E+01-1.30917E-03 5.52124E-04 1.43405E-01-5.93059E-17-3.41366E-13
 -1      1825 1.95080E+01-5.28420E-03 8.26994E-04 1.42046E-01-1.04645E-14-3.34203E-13
 -1      1826 1.95921E+01 2.15801E-03-1.43334E-03 1.63842E-01-6.59719E-15-2.66941E-13
 -1      1827 1.95277E+01-8.25494E-03-1.66655E-04 1.39872E-01-3.91235E-14-2.88787E-13
 -1      1828 1.95725E+01-1.01889E-02 4.36912E-04 1.34832E-01-1.32146E-14-2.62056E-13
 -1      1829 1.96262E+01-1.00717E-02-7.92937E-04 1.68867E-01 1.18073E-14-2.80491E-13
 -1      1830 1.95953E+01-1.16864E-02-5.47762E-04 1.28604E-01-5.46860E-14-2.95312E-13
 -1      1831 1.96378E+01-1.22950E-02 1.94961E-04 1.21804E-01-4.55760E-14-3.51721E-13
 -1      1832 1.96703E+01-1.63780E-02-3.66988E-04 1.60628E-01-6.95018E-14-2.29844E-13
 -1      1833 1.96610E+01-1.27994E-02-7.20600E-04 1.13733E-01-2.62824E-14-3.62106E-13
 -1      1834 1.96995E+01-1.25402E-02 5.98136E-05 1.06446E-01-1.07491E-14-3.88169E-13
 -1      1835 1.97176E+01-1.88110E-02-1.02890E-04 1.45455E-01-6.43472E-14-2.16039E-13
 -1      1836 1.97218E+01-1.23687E-02-7.61081E-04 9.80156E-02 2.89706E-14-3.74232E-13
 -1      1837 1.97557E+01-1.15358E-02 5.54650E-06 9.10953E-02 5.35675E-14-3.15552E-13
 -1      1838 1.97641E+01-1.86775E-02 4.35659E-05 1.27577E-01 2.53141E-14-2.17544E-13
 -1      1839 1.97763E+01-1.08961E-02-7.17070E-04 8.33154E-02 6.23365E-14-3.33502E-13
 -1      1840 1.98058E+01-9.67113E-03 1.57235E-05 7.73431E-02 6.73850E-14-2.78413E-13
 -1      1841 1.98076E+01-1.68207E-02 1.05094E-04 1.09859E-01 6.57899E-14-2.15992E-13
 -1      1842 1.98247E+01-8.69214E-03-6.19589E-04 7.09227E-02 3.14772E-14-2.34913E-13
 -1      1843 1.98506E+01-7.17457E-03 8.09305E-05 6.63164E-02 1.20916E-14-2.16580E-13
 -1      1844 1.98477E+01-1.37684E-02 1.04597E-04 9.42782E-02 6.29102E-14-1.40165E-13
 -1      1845 1.98682E+01-5.92514E-03-4.88536E-04 6.17871E-02-4.12569E-14-2.53922E-13
 -1      1846 1.98915E+01-4.15173E-03 1.97357E-04 5.88801E-02-3.29179E-14-2.88931E-13
 -1      1847 1.98845E+01-9.81869E-03 5.74236E-05 8.22640E-02-4.46994E-14-1.91791E-13
 -1      1848 1.99084E+01-2.65420E-03-3.36125E-04 5.66909E-02-2.77958E-14-3.05344E-13
 -1      1849 1.99307E+01-6.12220E-04 3.65808E-04 5.57934E-02-6.01898E-14-2.68889E-13
 -1      1850 1.99193E+01-5.09523E-03-2.67265E-05 7.49440E-02-4.81698E-14-2.41761E-13
 -1      1851 1.99481E+01 1.14781E-03-1.69241E-04 5.63836E-02-6.13607E-14-3.15229E-13
 -1      1852 1.99710E+01 3.51084E-03 5.90910E-04 5.78313E-02-7.24911E-14-2.89672E-13
 -1      1853 1.99539E+01 4.15462E-04-1.42297E-04 7.33344E-02-6.09611E-14-2.46353E-13
 -1      1854 1.99901E+01 5.57680E-03 8.77871E-06 6.16875E-02-7.57346E-14-3.26666E-13
 -1      1855 2.00159E+01 8.34542E-03 8.80357E-04 6.58798E-02-4.00306E-14-2.83968E-13
 -1      1856 1.99906E+01 6.83591E-03-2.86653E-04 7.84859E-02-9.94822E-14-2.45517E-13
 -1      1857 2.00382E+01 1.07827E-02 1.96672E-04 7.35791E-02-4.67852E-14-2.72631E-13
 -1      1858 2.00693E+01 1.40661E-02 1.24395E-03 8.10087E-02-8.38126E-15-3.03984E-13
 -1      1859 2.00321E+01 1.43749E-02-4.58997E-04 9.15960E-02-5.23748E-14-2.28523E-13
 -1      1860 2.00966E+01 1.69544E-02 3.93880E-04 9.32492E-02 4.99727E-14-3.38781E-13
 -1      1861 2.01360E+01 2.08768E-02 1.69212E-03 1.04522E-01 1.19145E-13-3.14833E-13
 -1      1862 2.00818E+01 2.33049E-02-6.59304E-04 1.14092E-01-1.28607E-14-1.57452E-13
 -1      1863 2.01704E+01 2.42991E-02 5.99120E-04 1.22136E-01 6.50095E-14-2.92673E-13
 -1      1864 2.02216E+01 2.89847E-02 2.23341E-03 1.37975E-01-3.92058E-14-3.18168E-13
 -1      1865 2.01437E+01 3.39331E-02-8.87221E-04 1.47676E-01 7.16239E-14-7.06800E-14
 -1      1866 2.02653E+01 3.30090E-02 8.08737E-04 1.61920E-01-3.42738E-14-2.25838E-13
 -1      1867 2.03324E+01 3.85546E-02 2.86988E-03 1.83148E-01 1.04941E-13-1.88632E-13
 -1      1868 2.02222E+01 4.65551E-02-1.14087E-03 1.94332E-01 3.58769E-14-4.10207E-14
 -1      1869 2.03882E+01 4.32016E-02 1.01473E-03 2.14452E-01 1.20239E-13-2.25216E-13
 -1      1870 2.04756E+01 4.96253E-02 3.58922E-03 2.41927E-01 1.31095E-13-2.51912E-13
 -1      1871 2.03225E+01 6.13732E-02-1.41569E-03 2.56245E-01 9.42949E-14-5.95929E-14
 -1      1872 2.05464E+01 5.48102E-02 1.20244E-03 2.81567E-01 7.59219E-14-2.60481E-13
 -1      1873 2.06594E+01 6.19578E-02 4.35112E-03 3.16041E-01-1.60403E-14-2.76622E-13
 -1      1874 2.04503E+01 7.83457E-02-1.70348E-03 3.35612E-01 9.24603E-14-1.89925E-13
 -1      1875 2.07482E+01 6.73856E-02 1.34829E-03 3.64696E-01-2.46352E-15-2.14340E-13
 -1      1876 2.08918E+01 7.47635E-02 5.06538E-03 4.06534E-01-1.40868E-14-1.17419E-13
 -1      1877 2.06114E+01 9.69147E-02-1.99245E-03 4.34228E-01 3.70987E-14-1.99717E-13
 -1      1878 2.10018E+01 7.97474E-02 1.41887E-03 4.64123E-01-1.26056E-14-7.04441E-14
 -1      1879 2.11809E+01 8.62386E-02 5.55923E-03 5.12782E-01 2.76142E-14-9.90229E-14
 -1      1880 2.08123E+01 1.15527E-01-2.26926E-03 5.52710E-01 3.08219E-14-5.50216E-14
 -1      1881 2.13147E+01 8.94027E-02 1.37442E-03 5.77672E-01-2.13458E-15-1.04608E-13
 -1      1882 2.15325E+01 9.28168E-02 5.53493E-03 6.30794E-01 3.10602E-14-9.08045E-14
 -1      1883 2.10587E+01 1.30829E-01-2.52467E-03 6.89140E-01 2.89315E-14 8.67798E-14
 -1      1884 2.16926E+01 9.16493E-02 1.18218E-03 6.98477E-01 9.02210E-14-9.08126E-14
 -1      1885 2.19485E+01 8.80966E-02 4.52875E-03 7.50425E-01 6.57697E-14-2.89220E-14
 -1      1886 2.13557E+01 1.36423E-01-2.76348E-03 8.36792E-01 1.42223E-14 2.15463E-15
 -1      1887 2.21366E+01 7.83905E-02 8.45547E-04 8.11520E-01 1.37878E-14-2.67351E-14
 -1      1888 2.24233E+01 6.16283E-02 1.90652E-03 8.51271E-01-1.14744E-13-9.79180E-14
 -1      1889 2.17066E+01 1.21191E-01-3.01495E-03 9.80594E-01 2.87149E-14-1.10113E-14
 -1      1890 2.26401E+01 3.70756E-02 4.45732E-04 8.88828E-01-1.86785E-13 1.48059E-14
 -1      1891 2.29393E+01-1.58592E-03-3.03237E-03 8.97526E-01-9.48226E-14-3.00940E-14
 -1      1892 2.21125E+01 6.77040E-02-3.32692E-03 1.09216E+00-5.81794E-14 7.97537E-14
 -1      1893 2.31837E+01-4.88389E-02 1.49421E-04 8.84291E-01 1.35083E-14 6.98617E-15
 -1      1894 2.34613E+01-1.18528E-01-1.06750E-02 8.33850E-01 7.66193E-14 5.33900E-14
 -1      1895 2.25707E+01-4.74658E-02-3.70236E-03 1.12405E+00 3.77567E-14 2.36904E-13
 -1      1896 2.37281E+01-1.94487E-01 1.49611E-04 7.31762E-01 5.12932E-14 1.21703E-13
 -1      1897 2.39311E+01-2.97965E-01-2.02925E-02 5.88130E-01 9.91195E-14 1.63645E-13
 -1      1898 2.30723E+01-2.47154E-01-3.84862E-03 1.00613E+00 9.57069E-14 2.31340E-13
 -1      1899 2.42038E+01-3.97949E-01 1.93047E-04 3.55327E-01 1.58451E-13 1.63655E-13
 -1      1900 2.42639E+01-5.16876E-01-2.88547E-02 9.26279E-02 2.52538E-13 3.00393E-13
 -1      1901 2.35946E+01-5.33363E-01-2.74773E-03 6.51705E-01 2.13767E-13 3.84151E-13
 -1      1902 2.45001E+01-6.09405E-01-1.23256E-03-2.92232E-01 1.44339E-13 2.82494E-13
 -1      1903 2.43517E+01-6.85375E-01-3.02809E-02-6.60019E-01 1.05090E-14 2.79359E-13
 -1      1904 2.40836E+01-8.46168E-01 1.45930E-03-1.19280E-02 1.63096E-13 2.83720E-13
 -1      1905 2.44695E+01-6.98891E-01-6.48211E-03-1.14852E+00-1.31856E-13 2.22052E-13
 -1      1906 2.40873E+01-6.34314E-01-1.80065E-02-1.52504E+00-1.77726E-13 2.44976E-13
 -1      1907 2.44282E+01-1.01888E+00 9.77619E-03-9.67467E-01-6.27337E-14 3.50617E-13
 -1      1908 2.39820E+01-4.79051E-01-1.75790E-02-1.94081E+00-1.93395E-13 1.59144E-13
 -1      1909 2.34306E+01-2.05380E-01 5.22864E-03-2.13438E+00-2.04897E-13-4.05578E-15
 -1      1910 2.44560E+01-7.90501E-01 1.77197E-02-1.98955E+00-2.34483E-13 3.41670E-13
 -1      1911 2.30849E+01 1.28689E-01-2.62117E-02-2.19699E+00-1.59004E-13-1.23618E-13
 -1      1912 2.25332E+01 5.23570E-01 2.21774E-02-2.01427E+00-2.72758E-13-1.12382E-13
 -1      1913 2.40363E+01-2.12573E-02 7.86661E-03-2.57293E+00-2.97292E-13 1.38936E-13
 -1      1914 2.21355E+01 8.64871E-01-1.88838E-02-1.54462E+00-2.75068E-13-2.13001E-13
 -1      1915 2.17994E+01 1.11566E+00 1.52464E-02-9.85567E-01-2.19831E-13-1.57986E-13
 -1      1916 2.33161E+01 1.02598E+00-2.16469E-02-2.16323E+00-2.90455E-13-7.86600E-15
 -1      1917 2.16571E+01 1.19445E+00 7.76541E-03-1.70814E-01-8.31037E-14 4.75965E-14
 -1      1918 2.16605E+01 1.08486E+00-1.03386E-02 4.73831E-01 2.05287E-14 9.08405E-14
 -1      1919 2.27819E+01 1.66372E+00-4.64306E-02-7.16969E-01-5.58165E-14 1.99688E-13
 -1      1920 2.18533E+01 8.28335E-01 2.33975E-02 1.13947E+00-6.68042E-14 5.80890E-14
 -1      1921 2.21448E+01 4.54287E-01-2.91304E-02 1.50141E+00 2.35992E-14 1.00567E-13
 -1      1922 2.28291E+01 1.39673E+00-3.37670E-02 9.69413E-01-3.34316E-14 4.85442E-13
 -1      1923 2.24301E+01 8.26927E-02 1.74515E-02 1.65957E+00 1.47792E-13-1.68494E-14
 -1      1924 2.28140E+01-2.67941E-01-2.36079E-02 1.60549E+00 3.69836E-13 6.65371E-14
 -1      1925 2.32842E+01 4.21481E-01-4.50199E-03 1.87104E+00 1.24683E-13 5.21188E-13
 -1      1926 2.29097E+01-5.07042E-01-6.35221E-03 1.30452E+00 6.58344E-13 6.76195E-15
 -1      1927 2.31877E+01-6.60742E-01-1.24994E-02 9.74800E-01 6.29278E-13 2.39098E-13
 -1      1928 2.36253E+01-5.39765E-01 1.37837E-02 1.65260E+00 4.90675E-13 4.91481E-13
 -1      1929 2.30376E+01-7.06980E-01-2.48357E-02 4.85612E-01 4.53953E-13 3.06662E-13
 -1      1930 2.31002E+01-6.72141E-01-2.84905E-03 9.63245E-02 4.70401E-13 5.45172E-13
 -1      1931 2.35462E+01-9.93320E-01 1.24332E-02 7.41296E-01 6.58296E-13 4.99623E-13
 -1      1932 2.27887E+01-5.90699E-01-2.81702E-02-3.36841E-01 3.19959E-13 4.46199E-13
 -1      1933 2.26371E+01-4.60877E-01 2.97802E-03-6.35164E-01 1.56281E-13 5.01963E-13
 -1      1934 2.30821E+01-9.38288E-01 3.45894E-03-2.78779E-01 3.76182E-13 3.49848E-13
 -1      1935 2.22657E+01-3.32306E-01-2.14781E-02-8.97909E-01-2.12988E-13 6.31319E-13
 -1      1936 2.19710E+01-1.80483E-01 6.77421E-03-1.04355E+00-3.60166E-13 4.57993E-13
 -1      1937 2.24158E+01-6.00080E-01-2.83303E-03-1.03023E+00 4.06420E-14 4.40484E-13
 -1      1938 2.16046E+01-4.89572E-02-1.21980E-02-1.11544E+00-3.07119E-13 4.76473E-13
 -1      1939 2.12613E+01 9.41700E-02 9.37597E-03-1.10161E+00-1.44035E-13 3.56105E-13
 -1      1940 2.17038E+01-1.81764E-01-5.03798E-03-1.38070E+00-3.82157E-13 7.17943E-13
 -1      1941 2.09644E+01 1.94047E-01-5.28328E-03-1.00063E+00-3.46279E-14 2.17542E-13
 -1      1942 2.06611E+01 3.13245E-01 1.36773E-02-8.52170E-01-2.62681E-14 2.05504E-14
 -1      1943 2.05540E+01 4.71426E-01-2.26918E-03-1.01327E+00-1.54230E-13 4.36044E-14
 -1      1944 2.10690E+01 2.12827E-01-1.79608E-03-1.33797E+00-2.12960E-13 5.92773E-13
 -1      1945 1.96196E+01 1.42011E-01 7.88124E-03 2.59501E-01 1.47486E-14 3.43685E-13
 -1      1946 1.98917E+01 2.04075E-01 1.64334E-02 4.32483E-01-1.38778E-14 3.50019E-13
 -1      1947 2.01032E+01 3.50528E-01-1.52763E-03 6.55072E-01-4.00548E-15 2.84820E-13
 -1      1948 1.93771E+01 7.18847E-02 6.94347E-03 5.65718E-02 2.27162E-15 3.40087E-13
 -1      1949 1.94922E+01 1.01772E-01 1.41932E-02 1.45070E-01 1.24076E-14 3.32458E-13
 -1      1950 1.97104E+01 1.65147E-01-1.94478E-03 2.56372E-01 3.81466E-15 2.82060E-13
 -1      1951 1.92865E+01 3.61058E-02 4.42448E-03-4.88277E-02-3.17567E-14 3.31612E-13
 -1      1952 1.93167E+01 5.19237E-02 8.33241E-03-1.64965E-03-4.08831E-15 3.37267E-13
 -1      1953 1.95100E+01 8.06316E-02-2.82568E-03 4.44461E-02 2.09641E-15 2.52638E-13
 -1      1954 1.92845E+01 1.61647E-02 2.85711E-03-1.01249E-01-6.37719E-14 3.11992E-13
 -1      1955 1.92694E+01 2.50258E-02 4.34783E-03-7.66603E-02-5.75054E-14 3.18508E-13
 -1      1956 1.94307E+01 3.74171E-02-2.84320E-03-6.73734E-02-4.81674E-14 2.19108E-13
 -1      1957 1.93314E+01 4.54058E-03 1.98438E-03-1.23278E-01-1.75546E-14 3.30613E-13
 -1      1958 1.92932E+01 9.56820E-03 2.14501E-03-1.11881E-01-3.23621E-14 3.09408E-13
 -1      1959 1.94240E+01 1.35912E-02-2.31181E-03-1.22844E-01-4.06241E-14 2.09582E-13
 -1      1960 1.94025E+01-2.22353E-03 1.44381E-03-1.27457E-01 5.54409E-14 3.54162E-13
 -1      1961 1.93542E+01 5.09593E-04 9.49230E-04-1.23978E-01 2.40190E-14 3.45739E-13
 -1      1962 1.94583E+01 2.89667E-05-1.69205E-03-1.45335E-01 2.34130E-14 2.02651E-13
 -1      1963 1.94827E+01-5.94494E-03 1.06564E-03-1.21362E-01 8.54445E-15 3.42212E-13
 -1      1964 1.94320E+01-4.64547E-03 2.80183E-04-1.22575E-01 4.71860E-14 3.49923E-13
 -1      1965 1.95136E+01-7.52486E-03-1.17185E-03-1.48350E-01 5.36466E-14 2.43158E-13
 -1      1966 1.95629E+01-7.68847E-03 7.86438E-04-1.09809E-01-7.37217E-14 3.29929E-13
 -1      1967 1.95141E+01-7.29991E-03-9.69487E-05-1.13633E-01-1.15216E-14 3.50462E-13
 -1      1968 1.95774E+01-1.13357E-02-7.83359E-04-1.40228E-01 2.56750E-15 2.56293E-13
 -1      1969 1.96379E+01-8.12372E-03 5.80238E-04-9.59550E-02-2.12968E-14 3.08013E-13
 -1      1970 1.95934E+01-8.31180E-03-2.96590E-04-1.01006E-01-6.64337E-14 2.92359E-13
 -1      1971 1.96420E+01-1.27352E-02-5.08236E-04-1.26342E-01-3.31210E-14 2.32536E-13
 -1      1972 1.97053E+01-7.68577E-03 4.33016E-04-8.18930E-02-1.18213E-15 3.59736E-13
 -1      1973 1.96661E+01-8.23222E-03-3.81168E-04-8.72352E-02-2.78272E-14 3.22691E-13
 -1      1974 1.97032E+01-1.25580E-02-3.21261E-04-1.10238E-01-4.20993E-14 2.08466E-13
 -1      1975 1.97646E+01-6.65582E-03 3.35633E-04-6.90301E-02 1.37069E-13 3.93243E-13
 -1      1976 1.97307E+01-7.41955E-03-3.88677E-04-7.40207E-02 6.39818E-14 4.00549E-13
 -1      1977 1.97589E+01-1.13396E-02-2.01599E-04-9.42919E-02 4.60540E-14 2.74673E-13
 -1      1978 1.98164E+01-5.20607E-03 2.82034E-04-5.83344E-02 4.72588E-14 3.44856E-13
 -1      1979 1.97872E+01-6.10017E-03-3.43434E-04-6.25179E-02 7.90400E-14 3.96560E-13
 -1      1980 1.98086E+01-9.41756E-03-1.33966E-04-8.01192E-02 7.81462E-14 2.50936E-13
 -1      1981 1.98623E+01-3.42815E-03 2.68604E-04-5.05151E-02 2.27620E-15 3.25048E-13
 -1      1982 1.98369E+01-4.40461E-03-2.60900E-04-5.35458E-02-2.49171E-15 3.17680E-13
 -1      1983 1.98531E+01-6.98835E-03-1.07768E-04-6.88609E-02 3.86078E-14 1.85391E-13
 -1      1984 1.99046E+01-1.35326E-03 2.93779E-04-4.61542E-02 7.63551E-15 2.26935E-13
 -1      1985 1.98815E+01-2.39190E-03-1.50386E-04-4.77388E-02 2.54365E-14 3.03808E-13
 -1      1986 1.98938E+01-4.14446E-03-1.16025E-04-6.13863E-02 4.44980E-14 1.59484E-13
 -1      1987 1.99461E+01 1.03182E-03 3.57628E-04-4.58045E-02 1.11887E-13 9.86638E-14
 -1      1988 1.99237E+01-6.78378E-05-1.69135E-05-4.56580E-02 3.96830E-14 1.46318E-13
 -1      1989 1.99328E+01-9.01361E-04-1.54534E-04-5.84431E-02 9.17991E-14 1.07079E-13
 -1      1990 1.99903E+01 3.77045E-03 4.61298E-04-5.00576E-02 9.84556E-14 1.43620E-13
 -1      1991 1.99665E+01 2.59961E-03 1.37314E-04-4.78720E-02 1.26326E-13 1.63470E-13
 -1      1992 1.99728E+01 2.78026E-03-2.21251E-04-6.07651E-02 9.83265E-14 8.52303E-14
 -1      1993 2.00410E+01 6.92046E-03 6.06189E-04-5.95854E-02-1.42032E-13 2.93361E-13
 -1      1994 2.00137E+01 5.66498E-03 3.11583E-04-5.50098E-02-2.92055E-14 2.30963E-13
 -1      1995 2.00169E+01 6.97304E-03-3.15686E-04-6.91441E-02-1.56400E-14 1.99257E-13
 -1      1996 2.01029E+01 1.05344E-02 7.92671E-04-7.51486E-02-1.30199E-13 2.14153E-13
 -1      1997 2.00695E+01 9.18704E-03 5.05264E-04-6.77832E-02-1.57696E-13 2.61132E-13
 -1      1998 2.00690E+01 1.17581E-02-4.38282E-04-8.44633E-02-1.53273E-13 2.28561E-13
 -1      1999 2.01811E+01 1.46323E-02 1.01802E-03-9.75632E-02-8.71048E-15 3.06991E-13
 -1      2000 2.01386E+01 1.32045E-02 7.16130E-04-8.69725E-02-7.26667E-14 2.45096E-13
 -1      2001 2.01330E+01 1.71922E-02-5.89736E-04-1.07685E-01-7.76924E-14 9.00486E-14
 -1      2002 2.02812E+01 1.91603E-02 1.27323E-03-1.27607E-01 2.51967E-13 3.60707E-13
 -1      2003 2.02265E+01 1.77005E-02 9.38195E-04-1.13361E-01 1.66343E-13 3.67775E-13
 -1      2004 2.02139E+01 2.32606E-02-7.70178E-04-1.39774E-01 1.00203E-13 2.24015E-13
 -1      2005 2.04093E+01 2.39295E-02 1.53819E-03-1.65837E-01-2.60876E-14 2.67801E-13
 -1      2006 2.03389E+01 2.25497E-02 1.15887E-03-1.47595E-01 1.19386E-13 3.43232E-13
 -1      2007 2.03166E+01 2.98066E-02-9.78105E-04-1.81541E-01 1.58802E-13 2.40480E-13
 -1      2008 2.05714E+01 2.85233E-02 1.77493E-03-2.12280E-01-3.20622E-13 2.65362E-13
 -1      2009 2.04819E+01 2.74379E-02 1.35525E-03-1.89936E-01-2.16823E-13 2.21825E-13
 -1      2010 2.04464E+01 3.64249E-02-1.20895E-03-2.33344E-01-1.91781E-13 2.88918E-13
 -1      2011 2.07731E+01 3.21648E-02 1.91912E-03-2.65927E-01-1.79345E-13 3.80331E-13
 -1      2012 2.06614E+01 3.17454E-02 1.48979E-03-2.39851E-01-2.80243E-13 2.35905E-13
 -1      2013 2.06085E+01 4.23063E-02-1.45302E-03-2.94615E-01-2.56230E-13 2.38418E-13
 -1      2014 2.10179E+01 3.35386E-02 1.87142E-03-3.23974E-01-1.36900E-14 4.29382E-13
 -1      2015 2.08822E+01 3.43835E-02 1.50590E-03-2.95389E-01-3.62340E-14 3.54839E-13
 -1      2016 2.08070E+01 4.60204E-02-1.69218E-03-3.63123E-01-6.90084E-14 1.54328E-13
 -1      2017 2.13063E+01 3.05854E-02 1.49372E-03-3.80744E-01 1.79227E-13 5.84535E-13
 -1      2018 2.11467E+01 3.35928E-02 1.32590E-03-3.52262E-01 7.43058E-14 5.32036E-13
 -1      2019 2.10444E+01 4.52445E-02-1.89428E-03-4.33908E-01 3.90719E-14 3.31131E-13
 -1      2020 2.16324E+01 2.03419E-02 6.20616E-04-4.26302E-01-1.43758E-13 5.44421E-13
 -1      2021 2.14530E+01 2.67434E-02 8.55059E-04-4.02634E-01 2.83890E-14 5.92616E-13
 -1      2022 2.13196E+01 3.64942E-02-2.00353E-03-4.97859E-01 4.21675E-14 5.54829E-13
 -1      2023 2.19817E+01-9.80602E-04-8.95426E-04-4.44991E-01 1.96312E-14 5.57999E-13
 -1      2024 2.17922E+01 1.02750E-02-1.41556E-06-4.33723E-01-1.17360E-13 5.06379E-13
 -1      2025 2.16263E+01 1.50316E-02-1.92509E-03-5.40059E-01-8.70342E-14 5.76296E-13
 -1      2026 2.23267E+01-3.72706E-02-3.08205E-03-4.14574E-01 5.40054E-14 5.92714E-13
 -1      2027 2.21450E+01-1.99171E-02-1.30199E-03-4.26672E-01 1.10956E-13 6.17511E-13
 -1      2028 2.19502E+01-2.46457E-02-1.50381E-03-5.38389E-01 7.16930E-14 5.40166E-13
 -1      2029 2.26243E+01-9.04761E-02-5.68058E-03-3.07561E-01-2.13972E-13 3.74593E-13
 -1      2030 2.24777E+01-6.70753E-02-3.00964E-03-3.56802E-01-9.63058E-14 4.54992E-13
 -1      2031 2.22661E+01-8.69869E-02-5.06496E-04-4.63603E-01-1.63381E-14 5.14929E-13
 -1      2032 2.28149E+01-1.56582E-01-7.96875E-03-9.74428E-02-9.15309E-14 3.42300E-13
 -1      2033 2.27396E+01-1.30404E-01-4.92998E-03-1.97368E-01-1.68801E-13 3.30123E-13
 -1      2034 2.25352E+01-1.71257E-01 1.35245E-03-2.83238E-01-1.35982E-13 2.48709E-13
 -1      2035 2.28270E+01-2.19881E-01-8.74231E-03 2.26887E-01-5.67584E-14 6.52449E-13
 -1      2036 2.28638E+01-1.99780E-01-6.65626E-03 7.01978E-02-7.89048E-14 4.44792E-13
 -1      2037 2.27044E+01-2.64677E-01 4.26945E-03 2.71959E-02-1.21432E-13 3.51134E-13
 -1      2038 2.25932E+01-2.48897E-01-6.85182E-03 6.37603E-01 1.12044E-13 5.61747E-13
 -1      2039 2.27753E+01-2.50100E-01-7.62128E-03 4.37382E-01 1.20426E-13 7.85283E-13
 -1      2040 2.27093E+01-3.34969E-01 7.98738E-03 4.62815E-01 1.10936E-14 5.56645E-13
 -1      2041 2.20788E+01-2.02382E-01-2.37132E-03 1.04317E+00 1.31940E-13 4.38581E-13
 -1      2042 2.24142E+01-2.41409E-01-7.26804E-03 8.44259E-01 7.85890E-14 4.78107E-13
 -1      2043 2.24892E+01-3.30004E-01 1.11934E-02 9.60266E-01 1.07718E-13 5.98605E-13
 -1      2044 2.13239E+01-5.55406E-02 2.64247E-03 1.28839E+00-1.32418E-13 7.57599E-13
 -1      2045 2.17763E+01-1.36041E-01-4.59576E-03 1.16645E+00-8.72913E-15 5.68639E-13
 -1      2046 2.20193E+01-2.00179E-01 1.13734E-02 1.37756E+00-2.01046E-14 7.86060E-13
 -1      2047 2.04802E+01 1.61038E-01 4.26210E-03 1.21492E+00-1.61709E-13 8.78133E-13
 -1      2048 2.09588E+01 6.26629E-02 4.31836E-04 1.24448E+00-1.69774E-13 8.42285E-13
 -1      2049 2.13595E+01 5.74470E-02 7.01784E-03 1.52083E+00-1.55491E-13 1.02298E-12
 -1      2050 1.97859E+01 3.55321E-01 6.48025E-05 7.66064E-01 3.98587E-14 8.95466E-13
 -1      2051 2.01667E+01 2.87422E-01 6.63461E-03 9.71404E-01-8.38860E-14 8.43200E-13
 -1      2052 2.06775E+01 3.59268E-01-2.47547E-03 1.24384E+00-4.96946E-14 8.41975E-13
 -1      2053 1.94786E+01 4.11255E-01-6.28537E-03 7.79967E-02-4.06324E-14 9.35017E-13
 -1      2054 1.96485E+01 4.18665E-01 1.14616E-02 3.89968E-01-8.01390E-14 8.22962E-13
 -1      2055 2.02073E+01 5.60139E-01-1.00553E-02 5.70201E-01-3.85577E-14 7.91946E-13
 -1      2056 1.96390E+01 2.93463E-01-8.01270E-03-5.61718E-01 7.34985E-14 1.01509E-12
 -1      2057 1.95603E+01 3.74251E-01 1.24120E-02-2.75914E-01 1.12063E-13 1.05391E-12
 -1      2058 2.01169E+01 5.37349E-01-1.03101E-02-2.45839E-01-6.11351E-14 7.96220E-13
 -1      2059 2.01303E+01 7.68845E-02-3.20410E-03-8.97285E-01 9.86622E-14 8.93459E-13
 -1      2060 1.98651E+01 1.83689E-01 8.85066E-03-7.48617E-01 5.29975E-14 8.71719E-13
 -1      2061 2.03840E+01 3.07388E-01-2.13739E-03-8.58162E-01 1.52867E-13 9.07652E-13
 -1      2062 2.06899E+01-1.21540E-01 3.03963E-03-8.53121E-01 6.37381E-14 5.98022E-13
 -1      2063 2.03660E+01-4.15086E-02 1.92269E-03-8.70314E-01 1.05538E-13 6.84315E-13
 -1      2064 2.08128E+01-1.65164E-03 5.26928E-03-1.04983E+00 2.22835E-13 6.87006E-13
 -1      2065 2.10850E+01-2.23817E-01 6.94059E-03-5.36629E-01 3.28579E-13 4.65282E-13
 -1      2066 2.08276E+01-1.95948E-01-4.90446E-03-6.70314E-01 1.61359E-13 5.77325E-13
 -1      2067 2.11741E+01-2.41967E-01 6.24478E-03-8.36414E-01 2.68226E-13 3.55674E-13
 -1      2068 2.12088E+01-2.21886E-01 7.77479E-03-1.31843E-01 4.31063E-13 3.58025E-13
 -1      2069 2.10883E+01-2.40208E-01-8.49590E-03-3.02885E-01 4.17656E-13 5.30632E-13
 -1      2070 2.13282E+01-3.34960E-01 3.70411E-03-3.98737E-01 4.09970E-13 3.26377E-13
 -1      2071 2.10777E+01-1.47656E-01 6.78997E-03 2.03474E-01 9.43837E-14 2.16128E-13
 -1      2072 2.10987E+01-1.92956E-01-8.39629E-03 6.24750E-02 2.40669E-13 3.72211E-13
 -1      2073 2.12513E+01-2.90995E-01 5.63887E-04 5.37006E-02 2.58770E-13 4.58037E-13
 -1      2074 2.07819E+01-3.88198E-02 5.20781E-03 3.76267E-01-1.18270E-13 2.56965E-13
 -1      2075 2.09010E+01-9.27707E-02-5.79809E-03 3.06748E-01-3.78916E-14 2.49631E-13
 -1      2076 2.09982E+01-1.60086E-01-1.50962E-03 3.70103E-01 1.76994E-14 3.30617E-13
 -1      2077 2.04389E+01 7.22815E-02 4.38041E-03 3.57400E-01 1.92892E-13 5.48491E-13
 -1      2078 2.05908E+01 2.20684E-02-2.64285E-03 3.75366E-01 3.99117E-14 4.81600E-13
 -1      2079 2.06571E+01 7.04083E-04-3.07263E-03 4.77419E-01-3.25765E-14 4.89579E-13
 -1      2080 2.01992E+01 1.38579E-01 5.22144E-03 2.38651E-01 1.35543E-13 6.33709E-13
 -1      2081 2.03296E+01 1.02975E-01-1.11619E-03 3.16864E-01 2.22289E-13 6.67933E-13
 -1      2082 2.03783E+01 1.21394E-01-4.23947E-03 4.20584E-01 1.46566E-13 8.08267E-13
 -1      2083 2.01955E+01 2.19035E-01 3.53137E-03 3.02998E-01 2.87932E-13 9.08858E-13
 -1      2084 2.02391E+01 1.47863E+00 8.31325E-03 1.22643E+00 1.60492E-13 8.65081E-14
 -1      2085 2.02626E+01 1.09301E+00 5.21066E-03 1.08406E+00 1.30841E-13 1.15840E-13
 -1      2086 2.02693E+01 8.85431E-01 1.07195E-02 8.94629E-01 2.11189E-13-3.39269E-14
 -1      2087 2.02671E+01 6.00797E-01 4.35852E-03 7.41514E-01 2.16379E-13 4.07225E-13
 -1      2088 2.03909E+01 7.46744E-01-8.35579E-03 1.22873E+00-9.56750E-14-8.23647E-15
 -1      2089 2.02381E+01 5.03527E-01 9.52697E-03 5.76427E-01 3.77566E-13 3.93172E-13
 -1      2090 2.02258E+01 3.14370E-01 4.80740E-03 4.38252E-01 2.96465E-13 4.21591E-13
 -1      2091 2.03128E+01 2.72214E-01 1.89756E-03 5.16101E-01 2.34831E-13 4.53114E-13
 -1      2092 2.03803E+01 4.53574E-01-8.60018E-04 8.40216E-01 5.49470E-14 2.89354E-13
 -1      2093 2.01263E+01 2.21195E+00-2.67625E-04 1.46978E+00 4.90337E-14-1.09508E-12
 -1      2094 2.01949E+01 1.76312E+00 5.69363E-03 1.38164E+00 1.41325E-13-3.87823E-13
 -1      2095 2.03128E+01 1.23943E+00-8.45605E-03 1.61825E+00-1.16012E-14-3.15951E-13
 -1      2096 1.99234E+01 3.04427E+00-1.14730E-02 1.51849E+00 1.76726E-13-3.90949E-13
 -1      2097 2.00374E+01 2.57335E+00 4.13523E-03 1.53118E+00 2.35798E-13-7.80458E-13
 -1      2098 2.01098E+01 1.88579E+00-5.72112E-03 1.86835E+00 1.02405E-13-7.96096E-13
 -1      2099 1.96740E+01 3.82982E+00-2.10194E-02 1.27185E+00 1.66694E-13-2.51302E-13
 -1      2100 1.98045E+01 3.42587E+00-3.49564E-04 1.42132E+00 2.96482E-13-3.80329E-13
 -1      2101 1.97901E+01 2.62874E+00 1.37797E-03 1.83702E+00 3.82462E-13-3.70430E-13
 -1      2102 1.94645E+01 4.39403E+00-2.45904E-02 7.16135E-01-2.94562E-13-1.97675E-13
 -1      2103 1.95620E+01 4.14323E+00-8.06311E-03 9.93665E-01-1.25295E-13-2.22908E-13
 -1      2104 1.94363E+01 3.32424E+00 1.21352E-02 1.42095E+00 3.94055E-14-3.73112E-13
 -1      2105 1.93848E+01 4.57972E+00-2.09918E-02-4.18203E-02-5.13315E-13-2.52522E-13
 -1      2106 1.94060E+01 4.54372E+00-1.69429E-02 3.02410E-01-4.22656E-13-2.31429E-13
 -1      2107 1.91761E+01 3.78799E+00 2.13857E-02 6.41469E-01-3.52553E-13-2.84332E-13
 -1      2108 1.94715E+01 4.32137E+00-1.29769E-02-8.03331E-01-6.73388E-13-3.17558E-14
 -1      2109 1.94076E+01 4.51331E+00-2.28385E-02-4.84404E-01-5.70361E-13 3.22260E-14
 -1      2110 1.91199E+01 3.87058E+00 2.32837E-02-3.27847E-01-5.00900E-13-2.04568E-13
 -1      2111 1.96797E+01 3.69686E+00-4.09160E-03-1.36174E+00-3.61379E-13-5.03248E-13
 -1      2112 1.95617E+01 4.06670E+00-2.24458E-02-1.14968E+00-5.64286E-13-1.13948E-13
 -1      2113 1.92916E+01 3.54618E+00 1.70948E-02-1.21829E+00-4.59548E-13-1.89727E-14
 -1      2114 1.99303E+01 2.84311E+00 2.63324E-03-1.62463E+00-4.58670E-14 3.62154E-13
 -1      2115 1.98020E+01 3.32637E+00-1.51921E-02-1.54799E+00-9.67776E-14-1.05545E-13
 -1      2116 1.96121E+01 2.91919E+00 6.03662E-03-1.81362E+00-3.92915E-16-1.67229E-13
 -1      2117 2.01454E+01 1.95340E+00 6.76963E-03-1.57928E+00-2.05250E-13 4.85647E-13
 -1      2118 2.00421E+01 2.45460E+00-4.50188E-03-1.63257E+00-9.08865E-14 3.04583E-13
 -1      2119 1.99697E+01 2.15987E+00-2.80817E-03-2.02220E+00-5.11249E-14 2.08809E-13
 -1      2120 2.03013E+01 1.16493E+00 5.80675E-03-1.30329E+00-4.30646E-13 3.30090E-13
 -1      2121 2.02180E+01 1.61178E+00 1.89999E-03-1.44862E+00-4.71356E-13 3.60884E-13
 -1      2122 2.02679E+01 1.43448E+00-6.60056E-03-1.87454E+00-3.78697E-13 2.42364E-13
 -1      2123 1.25215E+01-5.79340E+00-1.77244E-01 7.02875E+00-3.56715E-13-4.26270E-13
 -1      2124 8.97189E+00-7.02310E+00-2.46701E-01 6.34299E+00-6.09512E-14-7.69440E-13
 -1      2125 4.88651E-01-7.39676E+00-3.31913E-01 9.63975E-01 6.86673E-14-7.43072E-13
 -1      2126 3.33407E-01-8.33242E+00-4.76476E-01-8.41691E-01 4.50071E-13-4.05953E-13
 -1      2127 4.88098E+00-6.64568E+00-2.28983E-01 5.21186E+00 3.33067E-16-1.12710E-12
 -1      2128 2.23752E+00-7.47914E+00-3.57883E-01 3.23501E+00 1.15907E-13-1.05060E-12
 -1      2129 2.22477E+01-4.14573E+00-6.98323E-02 6.74910E+00-4.11005E-13-8.11684E-13
 -1      2130 1.67720E+01-5.51731E+00-2.68155E-01 6.51955E+00-3.74589E-13-5.99576E-13
 -1      2131 1.76549E+01-6.19442E+00 1.50889E-02 7.23704E+00-2.46247E-13-5.58872E-13
 -1      2132 3.12972E+01 6.73099E-01 3.19492E-01 5.63970E+00-2.43805E-13-1.28231E-12
 -1      2133 2.67690E+01-1.97049E+00 3.05587E-02 5.31466E+00-2.78555E-13-8.66252E-13
 -1      2134 1.95182E+01 4.01561E+00-2.70709E-02-1.70282E+00 1.31917E-13-1.78331E-13
 -1      2135 1.96465E+01 3.94559E+00-2.47493E-02-1.95411E+00 1.10501E-13-2.01495E-13
 -1      2136 1.99726E+01 3.24664E+00-1.37009E-02-1.91876E+00 1.00017E-13-2.04285E-13
 -1      2137 1.96973E+01 3.58523E+00-7.07392E-03-1.52107E+00 1.41199E-13-1.60760E-13
 -1      2138 3.88519E+01 6.64549E+00 1.63075E-01 9.34773E-01-2.18936E-13-1.05696E-12
 -1      2139 3.82442E+01 5.64071E+00 3.07191E-01 2.31602E+00-2.00173E-13-1.27570E-12
 -1      2140 4.07465E+01 7.43879E+00 3.98500E-01-1.70290E-01-1.65756E-13-1.32622E-12
 -1      2141 3.88699E+01 7.67750E+00 1.27957E-01 7.98127E-01-2.39031E-13-1.24284E-12
 -1      2142 3.82346E+01 5.88003E+00 1.98132E-01-1.58424E+00 1.08524E-13-1.15047E-12
 -1      2143 4.05089E+01 6.59903E+00 3.21153E-01-6.36610E-01-1.88738E-14-1.26071E-12
 -1      2144 3.57180E+01 7.93040E+00 2.67380E-01 6.21076E-01-3.25850E-14-1.06593E-12
 -1      2145 3.35528E+01 2.69585E+00 1.19785E-01-4.06974E+00 2.37345E-13-1.07803E-12
 -1      2146 3.74494E+01 4.04548E+00 3.04542E-01-3.10422E+00 2.67203E-13-1.00053E-12
 -1      2147 2.58635E+01-9.32203E-01-8.99934E-02-5.56012E+00 2.60236E-13-9.65117E-13
 -1      2148 3.09477E+01 1.00296E+00 2.74265E-01-5.55577E+00 2.54907E-13-1.00253E-12
 -1      2149 1.89002E+01-4.66681E+00-7.11393E-02-6.23171E+00 3.43336E-13-6.85729E-13
 -1      2150 2.32064E+01-2.42188E+00 1.53084E-01-6.55241E+00 3.26239E-13-7.83373E-13
 -1      2151 9.00175E+00-6.72347E+00-3.17649E-01-5.85002E+00 3.11917E-13-4.96776E-13
 -1      2152 1.34758E+01-5.46412E+00-1.59116E-01-6.86590E+00 3.60045E-13-6.91114E-13
 -1      2153 2.57866E+00-7.35602E+00-3.61186E-01-3.58537E+00 9.94760E-14-4.43645E-13
 -1      2154 5.30380E+00-6.12851E+00-1.59824E-01-5.27280E+00 1.86351E-13-3.48777E-13
 -1      2155 3.88676E-01-6.88463E+00-2.72774E-01-3.82142E-01 1.09589E-13-1.90903E-13
 -1      2156 9.38548E-01-7.11371E+00-3.04328E-01-2.10934E+00 8.90121E-14-3.03202E-13
 -1      2157 3.44796E+00-4.80417E+00-9.53020E-02-3.59532E+00 1.34559E-13-3.65097E-13
 -1      2158 2.55537E+00-7.15506E+00-3.09114E-01 3.52498E+00-6.31717E-14-2.77611E-13
 -1      2159 8.53824E-01-7.49106E+00-3.54083E-01 1.87288E+00 1.44218E-13-1.30895E-13
 -1      2160 9.19198E+00-6.17299E+00-1.88831E-01 5.89449E+00-2.41918E-13-2.73274E-13
 -1      2161 5.91705E+00-7.28194E+00-3.31672E-01 4.83468E+00-1.10967E-13-3.50470E-13
 -1      2162 1.77613E+01-4.54169E+00-5.76626E-02 6.63460E+00-2.55906E-13-1.45883E-13
 -1      2163 1.26781E+01-6.30841E+00-3.60979E-01 5.75634E+00-2.32925E-13-1.53988E-13
 -1      2164 1.36421E+01-6.31622E+00-6.41882E-02 6.58442E+00-6.06737E-14-1.31908E-13
 -1      2165 2.75296E+01-2.13520E+00-1.44498E-02 4.84471E+00-3.42115E-13 1.42275E-13
 -1      2166 2.23143E+01-3.73256E+00-1.75946E-01 5.25852E+00-3.59268E-13-8.59313E-14
 -1      2167 3.58288E+01 2.57031E+00 3.86556E-01 3.14815E+00-3.15378E-13 2.22045E-14
 -1      2168 3.13678E+01 3.59140E-01 4.74428E-02 3.17877E+00-4.12406E-13 4.35207E-14
 -1      2169 4.07616E+01 5.66743E+00 4.71531E-01 1.39296E+00-1.89126E-13 1.35392E-13
 -1      2170 3.73508E+01 4.36936E+00 1.64936E-01 2.14282E+00-2.02949E-13-6.77236E-15
 -1      2171 4.23952E+01 7.19091E+00 4.31285E-01-5.22333E-01-9.43690E-15 4.24209E-14
 -1      2172 4.14858E+01 6.80267E+00 3.75042E-01 7.58967E-01-5.40679E-14 1.20293E-13
 -1      2173 4.00247E+01 6.61772E+00 2.95370E-01-1.83044E+00-9.79772E-14-5.47895E-14
 -1      2174 4.18294E+01 7.13424E+00 4.45628E-01-8.82843E-01-3.02536E-14 8.74301E-16
 -1      2175 3.61874E+01 3.75396E+00 2.15351E-01-3.92247E+00 2.05044E-13-1.67755E-13
 -1      2176 3.95239E+01 5.02355E+00 3.77862E-01-2.90276E+00-1.87905E-14-2.97762E-13
 -1      2177 2.91829E+01-8.67669E-02-3.04930E-02-5.31133E+00 9.61897E-13 8.85958E-14
 -1      2178 3.39779E+01 1.79272E+00 3.18592E-01-5.14485E+00 6.38239E-13-3.43059E-14
 -1      2179 2.11964E+01-3.92732E+00-2.04831E-01-6.21712E+00 6.97886E-13-2.91434E-13
 -1      2180 2.61539E+01-1.66690E+00 1.48960E-01-6.67411E+00 8.61200E-13 8.16569E-14
 -1      2181 1.18270E+01-6.61911E+00-4.30470E-01-6.18303E+00 7.54952E-13-4.81323E-13
 -1      2182 1.64987E+01-4.67430E+00-9.18933E-02-7.24555E+00 6.54476E-13-4.97657E-13
 -1      2183 5.35664E+00-8.19168E+00-5.13217E-01-4.88517E+00 3.45834E-13-7.15844E-13
 -1      2184 8.34700E+00-6.71115E+00-2.93843E-01-5.99960E+00 5.73874E-13-6.82870E-13
 -1      2185 1.04550E+00-8.81065E+00-5.25125E-01-2.40000E+00 6.34631E-13-2.34701E-13
 -1      2186 2.66709E+00-8.00459E+00-4.18232E-01-3.81310E+00 5.62439E-13-4.42146E-13
 -1      2187 3.70183E+01 3.80079E+00 3.09297E-01 3.60909E+00-1.20293E-13-1.50535E-12
 -1      2188 3.32413E+01 2.28000E+00 9.98894E-02 4.40379E+00-1.32200E-13-1.37368E-12
 -1      2189 3.21697E+01 2.37176E-02 1.48183E-01 2.47595E+00-3.46112E-14-1.13948E-12
 -1      2190 2.55243E+01-3.92611E+00 4.20670E-03 5.34079E+00-4.06897E-13-7.83928E-13
 -1      2191 2.47968E+01-5.33522E+00 1.59477E-01 5.44332E+00-3.29403E-13-7.97168E-13
 -1      2192 2.80879E+01-4.04758E+00-1.78001E-01 3.60440E+00-2.61249E-13-8.08853E-13
 -1      2193 2.07362E+01 1.10861E+00-2.06952E-02-1.61605E+00 2.48829E-14-3.80437E-13
 -1      2194 3.51931E+01 4.37022E+00 2.80600E-01 7.33941E-01-5.07649E-14-8.67362E-13
 -1      2195 2.06266E+01 1.33053E+00-1.85096E-02-1.67811E+00 2.88589E-14-3.11032E-13
 -1      2196 8.41841E+00-6.25398E+00-1.01711E-01 6.26065E+00 7.99916E-14-1.00983E-12
 -1      2197 8.27673E+00-4.58579E+00 1.24367E-01 6.25813E+00 1.31423E-13-1.02696E-12
 -1      2198 1.19811E+01-5.76718E+00-1.09533E-01 7.34123E+00 7.93809E-14-6.50285E-13
 -1      2199 2.87181E+00-5.21920E+00-1.14891E-01 2.56769E+00 3.13916E-14-9.71723E-13
 -1      2200 2.03752E+01 8.87826E-01 8.06331E-03-1.23987E+00-4.11251E-13 2.61134E-13
 -1      2201 1.94812E+00-5.90217E+00-2.47856E-01-2.09567E+00 2.97040E-13-4.04343E-13
 -1      2202 5.68682E+00-6.72416E+00-2.68068E-01-5.45573E+00 3.43892E-13-5.19418E-13
 -1      2203 1.25462E+01-6.66159E+00-1.54293E-01-7.17865E+00 3.75255E-13-5.10800E-13
 -1      2204 2.12648E+01-5.59753E+00 1.67931E-03-6.56555E+00 6.72795E-13-1.23512E-13
 -1      2205 2.90490E+01-2.66332E+00 1.15330E-01-4.19775E+00 8.61367E-13 1.02918E-13
 -1      2206 3.42852E+01 1.73773E+00 2.68235E-01-1.96371E+00 5.34052E-13-1.20737E-13
 -1      2207 3.68195E+01 6.02784E+00 3.32045E-01-5.03950E-01-1.48770E-14-7.61613E-14
 -1      2208 3.75377E+01 8.18904E+00 3.84513E-01-3.46461E-01 1.19904E-14 8.97893E-14
 -1      2209 3.74478E+01 6.86106E+00 3.78213E-01-6.05142E-01-1.34004E-13 1.66367E-13
 -1      2210 3.48969E+01 2.89948E+00 1.80926E-01 8.06393E-02-2.80276E-13 3.89688E-14
 -1      2211 2.20939E+01-5.40374E+00 5.54501E-02 5.47504E+00-1.61093E-13 9.13158E-15
 -1      2212 1.87343E+00-5.03578E+00-1.37916E-01 8.60173E-01 1.72896E-13-2.04003E-13
 -1      2213 9.10935E+00-5.64166E+00-3.78646E-02-6.36140E+00 2.41029E-13-5.42233E-13
 -1      2214 1.77687E+01-5.44398E+00-1.16600E-02-6.51943E+00 2.85660E-13-6.24278E-13
 -1      2215 2.15190E+01-5.90265E+00-1.58273E-01-5.78290E+00 1.74499E-13-4.75342E-13
 -1      2216 1.71952E+01-5.71173E+00 1.70573E-01-6.86337E+00 2.27929E-13-6.26745E-13
 -1      2217 2.62488E+01-3.57910E+00-1.94384E-02-4.50961E+00 1.46799E-13-8.28615E-13
 -1      2218 3.55033E+01 4.95094E+00 2.79364E-01-2.32481E-01 7.07212E-14-1.14248E-12
 -1      2219 3.67805E+01 7.38420E+00 1.89318E-01 3.45785E-01-1.42664E-13-1.02651E-12
 -1      2220 3.31840E+01 6.76945E+00-1.96831E-02-3.91194E-01 2.10387E-14-7.11486E-13
 -1      2221 3.29718E+01 7.71267E+00-9.84622E-02-1.08738E-01-8.39884E-14-8.38017E-13
 -1      2222 3.21900E+01 5.81487E-01 2.20106E-01-2.46791E+00 2.22149E-13-9.42968E-13
 -1      2223 6.05934E+00-5.86917E+00-1.45400E-01 5.17220E+00 4.34097E-14-3.12139E-13
 -1      2224 2.98602E+01-1.69034E+00 7.78841E-02 2.92016E+00-3.13527E-13 1.35614E-13
 -1      2225 2.83957E+01-3.62253E+00 1.30201E-01 2.47158E+00-2.51119E-13 2.07750E-13
 -1      2226 3.09018E+01-1.69805E+00-1.70542E-01 5.89363E-01-2.45609E-13 1.50824E-13
 -1      2227 2.01479E+01 5.06377E-01 3.73341E-03 6.78218E-01 9.44730E-15 2.47411E-13
 -1      2228 2.04158E+01 6.99928E-01 2.07913E-02 9.69797E-01 2.74954E-15 2.59358E-13
 -1      2229 1.95601E+01 3.51598E+00-1.10785E-02-5.91673E-01 1.64678E-13-5.96606E-14
 -1      2230 1.95956E+01 3.47016E+00-1.04141E-02-7.76054E-01 1.61179E-13-9.67568E-14
 -1      2231 1.96422E+01 3.38218E+00-1.26389E-02-9.40490E-01 1.63817E-13-1.16716E-13
 -1      2232 1.97038E+01 3.30112E+00-1.24993E-02-1.12982E+00 1.58518E-13-1.24865E-13
 -1      2233 1.97870E+01 3.03323E+00 3.43136E-04-7.92625E-01 1.55361E-13-9.71107E-14
 -1      2234 1.95128E+01 3.59836E+00-9.61837E-03 9.94784E-02 1.70002E-13 2.06718E-14
 -1      2235 1.95121E+01 3.59920E+00-9.62390E-03-8.00807E-02 1.74330E-13 4.26395E-15
 -1      2236 1.95389E+01 3.55896E+00-9.72123E-03 4.45706E-01 1.60679E-13 4.54576E-14
 -1      2237 1.95215E+01 3.58152E+00-1.01385E-02 2.64792E-01 1.68646E-13 3.14870E-14
 -1      2238 1.96790E+01 3.22102E+00-8.99976E-04 1.69660E-01 1.57424E-13 2.20618E-14
 -1      2239 1.96007E+01 3.46245E+00-1.06139E-02 7.89846E-01 1.54177E-13 7.41213E-14
 -1      2240 1.95645E+01 3.50945E+00-1.12085E-02 6.08334E-01 1.60774E-13 5.14571E-14
 -1      2241 1.97158E+01 3.15751E+00-5.02769E-04 4.88294E-01 1.47959E-13 5.10880E-14
 -1      2242 1.97114E+01 3.28877E+00-1.29533E-02 1.14329E+00 1.40192E-13 1.32113E-13
 -1      2243 1.96487E+01 3.37208E+00-1.28811E-02 9.53977E-01 1.52744E-13 1.03984E-13
 -1      2244 1.97928E+01 3.02390E+00 2.62002E-04 8.04132E-01 1.42764E-13 8.96236E-14
 -1      2245 1.98907E+01 3.00322E+00-1.81753E-02 1.49045E+00 1.25677E-13 1.89956E-13
 -1      2246 1.97911E+01 3.14448E+00-1.51834E-02 1.29999E+00 1.27428E-13 1.58176E-13
 -1      2247 1.99220E+01 2.79879E+00 1.93025E-03 1.11047E+00 1.28726E-13 1.37795E-13
 -1      2248 2.01690E+01 2.54379E+00-2.83980E-02 1.79481E+00 9.10706E-14 2.35997E-13
 -1      2249 2.00178E+01 2.78312E+00-1.70911E-02 1.62035E+00 1.06346E-13 2.08562E-13
 -1      2250 2.01167E+01 2.44827E+00 5.85349E-03 1.37636E+00 1.06913E-13 1.84437E-13
 -1      2251 1.98706E+01 2.68150E-01 4.72227E-03 2.85763E-01 1.58458E-14 2.19384E-13
 -1      2252 2.00314E+01 3.67915E-01 2.01682E-02 4.42883E-01 2.01636E-14 2.38624E-13
 -1      2253 2.02105E+01 6.34533E-01-2.22144E-03 7.05203E-01 3.30699E-14 2.09019E-13
 -1      2254 2.03985E+01 8.56940E-01 1.29067E-02-1.00135E+00 3.44152E-14-2.44987E-13
 -1      2255 2.01872E+01 6.25782E-01-5.52060E-03-6.87791E-01 3.52331E-14-2.15672E-13
 -1      2256 3.26594E+01 4.23941E+00-1.80322E-01-6.74457E-01-7.47735E-14-8.15209E-13
 -1      2257 3.24335E+01 2.26416E+00-6.49196E-02-8.69666E-02-1.12882E-13-8.90621E-13
 -1      2258 2.01295E+01 4.70235E-01 1.78923E-02-4.79763E-01 1.58836E-14-2.00393E-13
 -1      2259 1.99825E+01 3.47135E-01 4.74849E-04-3.04389E-01 1.84492E-14-2.08531E-13
 -1      2260 2.02389E+01 7.25472E-01-9.51791E-03-6.90966E-01 3.11242E-14-1.85655E-13
 -1      2261 1.99202E+01 2.59314E-01 1.09936E-02-1.66541E-01 7.29950E-15-1.98530E-13
 -1      2262 1.98408E+01 1.87688E-01 7.33775E-04-6.94660E-02 1.88592E-14-1.91675E-13
 -1      2263 2.00781E+01 4.17961E-01-3.73692E-03-3.09905E-01 1.54820E-14-1.70391E-13
 -1      2264 1.97963E+01 1.38173E-01 6.40632E-03 1.23610E-02 3.21065E-15-1.84468E-13
 -1      2265 1.97610E+01 9.58601E-02 7.23082E-04 6.55251E-02-3.59077E-15-1.74115E-13
 -1      2266 1.99591E+01 2.26735E-01-3.59579E-03-7.23635E-02 1.72365E-14-1.47282E-13
 -1      2267 1.97350E+01 6.59791E-02 3.58965E-03 1.11122E-01-2.42441E-14-1.86908E-13
 -1      2268 1.97275E+01 4.04528E-02 6.16920E-04 1.37554E-01-2.46367E-14-2.00395E-13
 -1      2269 1.98831E+01 1.14419E-01-2.91701E-03 6.80904E-02-1.63657E-14-1.36859E-13
 -1      2270 1.97157E+01 2.22176E-02 1.86060E-03 1.59676E-01-4.08236E-14-2.12767E-13
 -1      2271 1.97246E+01 7.00097E-03 4.96850E-04 1.69691E-01-1.07577E-14-2.34035E-13
 -1      2272 1.98432E+01 4.62999E-02-2.11936E-03 1.44052E-01-4.10927E-14-1.71124E-13
 -1      2273 1.97226E+01-3.86101E-03 7.97642E-04 1.76991E-01 3.83702E-14-2.52092E-13
 -1      2274 1.97405E+01-1.24668E-02 3.86395E-04 1.77116E-01 2.26169E-14-2.38934E-13
 -1      2275 1.98289E+01 5.30490E-03-1.43960E-03 1.78438E-01-4.01685E-15-1.92091E-13
 -1      2276 1.97446E+01-1.84880E-02 1.48727E-04 1.75441E-01-2.64225E-14-2.38656E-13
 -1      2277 1.97666E+01-2.27452E-02 2.99535E-04 1.69948E-01-6.21590E-14-2.19395E-13
 -1      2278 1.98313E+01-1.83060E-02-9.26796E-04 1.86812E-01 1.20836E-14-2.46206E-13
 -1      2279 1.97742E+01-2.55233E-02-2.32689E-04 1.63280E-01-6.50908E-14-1.68421E-13
 -1      2280 1.97973E+01-2.68820E-02 2.42867E-04 1.55027E-01-1.35437E-14-1.41254E-13
 -1      2281 1.98438E+01-3.04638E-02-5.65691E-04 1.79766E-01-2.04302E-14-1.79151E-13
 -1      2282 1.98067E+01-2.74637E-02-4.37805E-04 1.46098E-01-1.27359E-15-9.72733E-14
 -1      2283 1.98293E+01-2.68731E-02 2.18262E-04 1.37020E-01 3.79984E-14-6.94714E-14
 -1      2284 1.98617E+01-3.49553E-02-3.26106E-04 1.64568E-01-5.53171E-15-4.93040E-14
 -1      2285 1.98394E+01-2.59499E-02-5.27008E-04 1.27718E-01 6.97442E-14-1.01288E-13
 -1      2286 1.98606E+01-2.40250E-02 2.26047E-04 1.19146E-01 9.87328E-14-5.75416E-14
 -1      2287 1.98822E+01-3.42583E-02-1.79468E-04 1.46234E-01 5.47452E-14 3.40276E-14
 -1      2288 1.98709E+01-2.20412E-02-5.41690E-04 1.10790E-01 8.12916E-14-1.09466E-13
 -1      2289 1.98905E+01-1.91585E-02 2.67042E-04 1.03664E-01 3.57960E-14-1.13983E-13
 -1      2290 1.99036E+01-2.99830E-02-1.02867E-04 1.28258E-01 7.31878E-14-5.28712E-14
 -1      2291 1.99008E+01-1.63766E-02-5.10558E-04 9.72162E-02-3.97957E-14-7.05073E-14
 -1      2292 1.99193E+01-1.27345E-02 3.43408E-04 9.22406E-02-7.87397E-14-7.75382E-14
 -1      2293 1.99251E+01-2.31258E-02-7.91390E-05 1.13131E-01-1.69878E-15-8.52788E-14
 -1      2294 1.99296E+01-9.27881E-03-4.53495E-04 8.84537E-02-9.50093E-14-7.54432E-14
 -1      2295 1.99477E+01-4.93877E-03 4.58901E-04 8.62176E-02-4.85364E-14-7.85365E-14
 -1      2296 1.99466E+01-1.42264E-02-9.58607E-05 1.02724E-01-7.86913E-14 4.92116E-14
 -1      2297 1.99585E+01-8.25925E-04-3.84224E-04 8.57541E-02-1.06092E-13-1.53410E-13
 -1      2298 1.99772E+01 4.25768E-03 6.18806E-04 8.68193E-02-1.49826E-13-1.82170E-13
 -1      2299 1.99688E+01-3.47528E-03-1.44174E-04 9.85779E-02-1.45486E-13-2.35426E-14
 -1      2300 1.99890E+01 9.09509E-03-3.12234E-04 9.03407E-02-1.04109E-13-2.13910E-13
 -1      2301 2.00095E+01 1.50520E-02 8.29697E-04 9.53114E-02-1.10294E-13-2.19795E-13
 -1      2302 1.99925E+01 9.20896E-03-2.17706E-04 1.02122E-01-1.58490E-13-1.31200E-13
 -1      2303 2.00230E+01 2.07458E-02-2.44225E-04 1.03545E-01-1.04119E-13-1.87846E-13
 -1      2304 2.00470E+01 2.77692E-02 1.09891E-03 1.13119E-01-7.44147E-14-1.67812E-13
 -1      2305 2.00189E+01 2.41182E-02-3.11561E-04 1.14841E-01-8.81436E-14-8.99940E-14
 -1      2306 2.00629E+01 3.44964E-02-1.85194E-04 1.26906E-01 3.42130E-14-1.79988E-13
 -1      2307 2.00922E+01 4.28203E-02 1.43367E-03 1.41910E-01 8.78120E-14-9.04043E-14
 -1      2308 2.00498E+01 4.17001E-02-4.21343E-04 1.38394E-01-1.83987E-14-4.15760E-14
 -1      2309 2.01116E+01 5.07788E-02-1.39186E-04 1.62230E-01 7.17505E-14-4.73861E-14
 -1      2310 2.01484E+01 6.06475E-02 1.83945E-03 1.83630E-01 1.03517E-13-6.35595E-14
 -1      2311 2.00869E+01 6.24969E-02-5.42208E-04 1.74695E-01 1.22229E-13-6.54351E-14
 -1      2312 2.01722E+01 7.00205E-02-1.09646E-04 2.11602E-01 9.07214E-14-1.05261E-13
 -1      2313 2.02189E+01 8.16385E-02 2.31741E-03 2.40488E-01 7.42291E-14-2.36119E-14
 -1      2314 2.01323E+01 8.70627E-02-6.68079E-04 2.25929E-01 1.05982E-13-1.44429E-13
 -1      2315 2.02484E+01 9.25345E-02-9.90672E-05 2.77329E-01-1.53281E-14-7.68075E-14
 -1      2316 2.03076E+01 1.05980E-01 2.85987E-03 3.14843E-01 4.03836E-14-1.27650E-13
 -1      2317 2.01884E+01 1.15830E-01-7.91300E-04 2.94511E-01 5.94311E-15-1.46384E-13
 -1      2318 2.03439E+01 1.18328E-01-1.07407E-04 3.61766E-01 1.01776E-13-1.69376E-13
 -1      2319 2.04187E+01 1.33402E-01 3.44320E-03 4.08953E-01 4.86283E-14-2.07464E-13
 -1      2320 2.02576E+01 1.48885E-01-9.03393E-04 3.82927E-01-1.33465E-14-2.28200E-13
 -1      2321 2.04631E+01 1.46770E-01-1.28239E-04 4.66969E-01 4.34038E-14-2.20182E-13
 -1      2322 2.05563E+01 1.62729E-01 4.01668E-03 5.24487E-01 1.13751E-13-1.30328E-13
 -1      2323 2.03423E+01 1.85569E-01-9.98219E-04 4.93427E-01 6.35685E-14-2.37656E-13
 -1      2324 2.06102E+01 1.76011E-01-1.40944E-04 5.94048E-01 1.10556E-13-9.36507E-14
 -1      2325 2.07247E+01 1.91124E-01 4.48630E-03 6.61647E-01 7.44755E-14-4.33673E-14
 -1      2326 2.04453E+01 2.23810E-01-1.07986E-03 6.27445E-01 8.40351E-14-1.10455E-13
 -1      2327 2.07899E+01 2.02021E-01-9.63976E-05 7.42047E-01 2.77428E-14-1.91279E-14
 -1      2328 2.09280E+01 2.12859E-01 4.69274E-03 8.17699E-01 4.93943E-14 2.82735E-14
 -1      2329 2.05695E+01 2.58996E-01-1.17884E-03 7.84645E-01 7.52053E-14-1.04581E-13
 -1      2330 2.10075E+01 2.17086E-01 1.06577E-04 9.06094E-01 1.13934E-14-5.00559E-15
 -1      2331 2.11707E+01 2.17470E-01 4.38496E-03 9.84607E-01-3.58165E-14-2.84374E-14
 -1      2332 2.07187E+01 2.82210E-01-1.38105E-03 9.61368E-01 2.21470E-14-1.65081E-13
 -1      2333 2.12693E+01 2.07668E-01 6.53859E-04 1.07449E+00 8.91409E-15 1.04024E-13
 -1      2334 2.14577E+01 1.87376E-01 3.19425E-03 1.14547E+00 2.93012E-14 5.96907E-14
 -1      2335 2.08991E+01 2.77697E-01-1.87181E-03 1.14822E+00 1.62993E-14 8.47932E-14
 -1      2336 2.15848E+01 1.51968E-01 1.84266E-03 1.22440E+00 6.44387E-14 5.14827E-14
 -1      2337 2.17965E+01 9.57355E-02 6.22477E-04 1.26961E+00 7.51439E-14 2.69201E-13
 -1      2338 2.11220E+01 2.19820E-01-2.98470E-03 1.32651E+00 6.52832E-14 2.87511E-13
 -1      2339 2.19682E+01 1.86989E-02 4.05473E-03 1.31602E+00 1.83281E-14 3.36602E-13
 -1      2340 2.21985E+01-9.27923E-02-3.94908E-03 1.30683E+00 9.56817E-14 3.15906E-13
 -1      2341 2.14080E+01 7.10073E-02-5.21271E-03 1.46310E+00 1.38177E-13 4.60912E-13
 -1      2342 2.24395E+01-2.28850E-01 7.51965E-03 1.28620E+00 1.73581E-13 1.75162E-13
 -1      2343 2.26790E+01-4.11887E-01-1.09466E-02 1.18308E+00 1.73308E-13 3.35107E-13
 -1      2344 2.17921E+01-2.15082E-01-9.07728E-03 1.50385E+00 5.21765E-14 4.23249E-13
 -1      2345 2.30192E+01-6.14243E-01 1.20090E-02 1.04558E+00 1.89766E-13 3.59508E-13
 -1      2346 2.32487E+01-8.63179E-01-1.99039E-02 8.04780E-01 2.62082E-13 3.12695E-13
 -1      2347 2.23247E+01-6.75159E-01-1.43048E-02 1.36668E+00 2.22008E-13 2.01118E-13
 -1      2348 2.37046E+01-1.10375E+00 1.51805E-02 4.89763E-01 2.60904E-13 2.66955E-13
 -1      2349 2.38871E+01-1.35188E+00-2.78688E-02 8.46058E-02 1.05314E-13 2.16889E-13
 -1      2350 2.30572E+01-1.28796E+00-1.84945E-02 9.41057E-01 1.75821E-13 2.74053E-13
 -1      2351 2.44150E+01-1.52520E+00 1.06913E-02-4.45022E-01-5.12784E-15 2.04546E-13
 -1      2352 2.44929E+01-1.60655E+00-2.80698E-02-9.74989E-01-1.11913E-13 1.90045E-13
 -1      2353 2.39866E+01-1.87852E+00-1.69698E-02 1.15227E-01 2.56763E-14 1.53821E-13
 -1      2354 2.49418E+01-1.51432E+00-8.97746E-03-1.65296E+00-2.09946E-13 3.22051E-13
 -1      2355 2.48530E+01-1.18896E+00-1.33045E-02-2.13947E+00-2.24346E-13 3.59559E-13
 -1      2356 2.49658E+01-2.04073E+00-8.27731E-03-1.11638E+00-9.11380E-14 2.15884E-13
 -1      2357 2.49716E+01-6.28337E-01-4.84697E-02-2.65989E+00-3.33201E-13 3.41343E-13
 -1      2358 2.47225E+01 1.69268E-01 3.31353E-03-2.78388E+00-4.44821E-13 2.59431E-13
 -1      2359 2.56331E+01-1.18219E+00 2.91568E-03-2.43129E+00-2.61475E-13 4.22903E-13
 -1      2360 2.44589E+01 1.06690E+00-7.74667E-02-2.67084E+00-3.69461E-13 2.17795E-13
 -1      2361 2.41818E+01 1.93202E+00-7.49342E-04-2.18532E+00-1.93075E-13 2.63233E-13
 -1      2362 2.56145E+01 7.94806E-01-2.98770E-02-2.99759E+00-4.49613E-13 4.09086E-13
 -1      2363 2.38881E+01 2.53591E+00-6.16052E-02-1.26866E+00 3.89966E-15 2.50129E-13
 -1      2364 2.37751E+01 2.73781E+00-4.11101E-02-3.61407E-01 2.60417E-14 3.56850E-13
 -1      2365 2.51505E+01 2.87984E+00-6.03686E-02-1.96143E+00-7.18384E-14 4.18963E-13
 -1      2366 2.38761E+01 2.47219E+00-7.59746E-03 7.41369E-01 5.55112E-16 4.25548E-13
 -1      2367 2.39337E+01 1.80816E+00-8.90997E-02 1.45370E+00 7.07802E-14 5.56663E-13
 -1      2368 2.49992E+01 3.35451E+00-5.93738E-02 2.60431E-01 1.50019E-14 3.98206E-13
 -1      2369 2.42308E+01 9.54022E-01 4.99043E-03 1.96831E+00 6.73697E-14 5.75550E-13
 -1      2370 2.43886E+01 1.18503E-02-7.40407E-02 2.08803E+00 2.75405E-13 5.74085E-13
 -1      2371 2.52158E+01 1.74024E+00-2.44105E-02 1.98514E+00 1.54876E-13 8.51451E-13
 -1      2372 2.44064E+01-7.13669E-01 1.35724E-03 1.76304E+00 3.76466E-13 5.71220E-13
 -1      2373 2.44373E+01-1.25639E+00-2.69008E-02 1.40731E+00 4.08252E-13 5.16252E-13
 -1      2374 2.54190E+01-4.31357E-01-1.79453E-02 2.08472E+00 3.52423E-13 7.08888E-13
 -1      2375 2.40536E+01-1.55107E+00-2.38967E-02 7.32757E-01 5.04700E-13 3.96227E-13
 -1      2376 2.39237E+01-1.60558E+00 2.99145E-03 1.93991E-01 5.39173E-13 2.72073E-13
 -1      2377 2.48922E+01-1.85444E+00-2.09470E-02 9.22312E-01 3.48623E-13 6.46979E-13
 -1      2378 2.33476E+01-1.50330E+00-2.92096E-02-4.16090E-01 4.11352E-13 1.26218E-13
 -1      2379 2.30931E+01-1.27144E+00 1.60495E-02-8.72257E-01 2.98518E-13 2.34626E-13
 -1      2380 2.38953E+01-2.03257E+00-1.89603E-02-4.48354E-01 3.72327E-13 2.93707E-13
 -1      2381 2.25345E+01-9.99033E-01-2.33876E-02-1.25595E+00 3.08482E-13 3.08499E-13
 -1      2382 2.22208E+01-6.75414E-01 1.81931E-02-1.52140E+00 4.45497E-14 4.57469E-13
 -1      2383 2.28043E+01-1.48018E+00-2.01021E-02-1.43737E+00 2.98897E-13 3.71550E-13
 -1      2384 2.17659E+01-3.73111E-01-1.46495E-02-1.66327E+00-2.39314E-13 5.45360E-13
 -1      2385 2.14468E+01-6.83233E-02 1.29056E-02-1.71975E+00-3.50760E-13 6.42753E-13
 -1      2386 2.18687E+01-6.82525E-01-1.49996E-02-1.93048E+00-3.19495E-14 1.88242E-13
 -1      2387 1.96227E+01 7.24441E-02 2.05950E-03-6.54942E-02-4.49473E-14 1.57538E-13
 -1      2388 1.96502E+01 1.04173E-01 6.90438E-03-1.93991E-02-1.06151E-14 1.70831E-13
 -1      2389 1.95989E+01 3.06130E-02 1.33393E-03-1.31078E-01-2.82836E-14 1.28309E-13
 -1      2390 1.95960E+01 4.95172E-02 3.68014E-03-1.08616E-01-5.42192E-14 1.22233E-13
 -1      2391 1.97675E+01 8.96871E-02-3.17828E-03-7.07426E-02-3.52325E-14 8.38919E-14
 -1      2392 1.96107E+01 5.63500E-03 8.72007E-04-1.59471E-01 5.13664E-14 1.21393E-13
 -1      2393 1.95908E+01 1.68489E-02 1.81691E-03-1.51252E-01 9.04538E-15 1.22681E-13
 -1      2394 1.97331E+01 3.57474E-02-2.28735E-03-1.42996E-01-1.06326E-14 6.23810E-14
 -1      2395 1.96427E+01-8.85408E-03 5.58427E-04-1.65208E-01 6.58337E-14 1.51366E-13
 -1      2396 1.96144E+01-2.49117E-03 7.20558E-04-1.65484E-01 7.65889E-14 1.55621E-13
 -1      2397 1.97296E+01 3.73336E-03-1.52007E-03-1.74774E-01 4.26399E-14 7.75662E-14
 -1      2398 1.96845E+01-1.65427E-02 3.45668E-04-1.57702E-01-1.93443E-14 2.05668E-13
 -1      2399 1.96532E+01-1.33418E-02 7.08956E-05-1.62779E-01 1.36279E-14 1.71052E-13
 -1      2400 1.97448E+01-1.45806E-02-9.48245E-04-1.81621E-01 1.84453E-14 1.22572E-13
 -1      2401 1.97295E+01-1.97243E-02 2.10948E-04-1.43205E-01-1.44736E-14 1.83465E-13
 -1      2402 1.96985E+01-1.86194E-02-2.99991E-04-1.50637E-01 4.54622E-15 2.01032E-13
 -1      2403 1.97703E+01-2.40055E-02-5.51869E-04-1.73836E-01-2.23251E-16 1.49303E-13
 -1      2404 1.97740E+01-1.98848E-02 1.39353E-04-1.25927E-01-3.76037E-14 1.35513E-13
 -1      2405 1.97449E+01-2.01826E-02-4.89861E-04-1.34073E-01-1.71078E-14 1.58473E-13
 -1      2406 1.98005E+01-2.75431E-02-2.92800E-04-1.58359E-01 1.10691E-14 1.02148E-13
 -1      2407 1.98158E+01-1.79959E-02 1.20251E-04-1.08736E-01 6.83698E-14 1.51114E-13
 -1      2408 1.97894E+01-1.92456E-02-5.60875E-04-1.16477E-01-2.16245E-14 1.18479E-13
 -1      2409 1.98319E+01-2.71347E-02-1.36842E-04-1.39913E-01-2.04921E-14 5.70550E-14
 -1      2410 1.98544E+01-1.46756E-02 1.46749E-04-9.36152E-02 3.45610E-14 1.97203E-13
 -1      2411 1.98306E+01-1.65964E-02-5.54490E-04-1.00170E-01 6.14600E-14 1.68642E-13
 -1      2412 1.98627E+01-2.40403E-02-5.74514E-05-1.21747E-01 3.25299E-14 1.12397E-13
 -1      2413 1.98902E+01-1.02846E-02 2.15300E-04-8.19927E-02 6.46206E-14 1.34151E-13
 -1      2414 1.98686E+01-1.27200E-02-4.98724E-04-8.67883E-02 7.04803E-14 1.89460E-13
 -1      2415 1.98922E+01-1.90500E-02-3.53090E-05-1.06139E-01 7.50300E-14 9.14751E-14
 -1      2416 1.99242E+01-4.99417E-03 3.25121E-04-7.49794E-02 7.67847E-14 5.13156E-14
 -1      2417 1.99039E+01-7.87931E-03-4.12241E-04-7.75523E-02 5.41803E-14 1.09243E-13
 -1      2418 1.99205E+01-1.26127E-02-5.68857E-05-9.47593E-02 9.78376E-14 6.66521E-14
 -1      2419 1.99583E+01 1.16392E-03 4.77513E-04-7.35428E-02 5.96225E-14 1.24651E-13
 -1      2420 1.99380E+01-2.17328E-03-3.07143E-04-7.34692E-02 6.42262E-14 1.25200E-13
 -1      2421 1.99483E+01-4.92721E-03-1.12813E-04-8.89360E-02 2.53311E-14 4.34419E-14
 -1      2422 1.99945E+01 8.25408E-03 6.74892E-04-7.86317E-02 5.01819E-14 2.06175E-13
 -1      2423 1.99729E+01 4.41734E-03-1.90988E-04-7.54775E-02 7.99231E-14 2.00896E-13
 -1      2424 1.99771E+01 3.98884E-03-1.96825E-04-8.98448E-02 2.80990E-14 2.83313E-13
 -1      2425 2.00356E+01 1.63937E-02 9.19534E-04-9.12538E-02-9.54847E-14 2.90981E-13
 -1      2426 2.00108E+01 1.19877E-02-6.82247E-05-8.45458E-02-4.86840E-14 2.36852E-13
 -1      2427 2.00084E+01 1.42378E-02-3.04719E-04-9.86440E-02-4.80548E-14 3.48629E-13
 -1      2428 2.00846E+01 2.57022E-02 1.21178E-03-1.12506E-01-7.59889E-14 1.83879E-13
 -1      2429 2.00548E+01 2.06627E-02 5.86440E-05-1.01725E-01-4.79278E-14 2.76212E-13
 -1      2430 2.00443E+01 2.59785E-02-4.33361E-04-1.16552E-01-6.69024E-14 2.49141E-13
 -1      2431 2.01451E+01 3.62338E-02 1.54741E-03-1.43543E-01-3.14902E-14 5.41372E-14
 -1      2432 2.01080E+01 3.05396E-02 1.88112E-04-1.28147E-01-6.24925E-14 8.54514E-14
 -1      2433 2.00874E+01 3.93490E-02-5.79841E-04-1.44865E-01 7.61275E-15 1.76403E-13
 -1      2434 2.02209E+01 4.78823E-02 1.91384E-03-1.85473E-01 1.40768E-13 8.80689E-15
 -1      2435 2.01741E+01 4.16095E-02 3.18918E-04-1.64957E-01 4.30158E-14-3.63159E-14
 -1      2436 2.01403E+01 5.43633E-02-7.40775E-04-1.84902E-01 7.67254E-14 2.56062E-14
 -1      2437 2.03162E+01 6.02409E-02 2.28464E-03-2.39132E-01 3.07150E-14 2.04149E-13
 -1      2438 2.02571E+01 5.36425E-02 4.49522E-04-2.13153E-01 1.30235E-13 1.19301E-13
 -1      2439 2.02062E+01 7.07636E-02-9.11863E-04-2.37848E-01 5.10659E-14-3.61179E-14
 -1      2440 2.04352E+01 7.23978E-02 2.61204E-03-3.04713E-01-2.61826E-13 1.61870E-13
 -1      2441 2.03613E+01 6.60206E-02 5.77943E-04-2.73288E-01-9.62168E-14 1.92414E-13
 -1      2442 2.02883E+01 8.78044E-02-1.08798E-03-3.04470E-01-2.80793E-14 1.40847E-13
 -1      2443 2.05818E+01 8.26438E-02 2.81728E-03-3.81166E-01-1.85187E-13 3.71820E-14
 -1      2444 2.04910E+01 7.74938E-02 7.02175E-04-3.44994E-01-2.84121E-13 1.13933E-13
 -1      2445 2.03900E+01 1.03940E-01-1.26414E-03-3.84640E-01-2.05154E-13-2.36410E-14
 -1      2446 2.07593E+01 8.80817E-02 2.77996E-03-4.65303E-01-5.04970E-14 1.27632E-13
 -1      2447 2.06501E+01 8.58413E-02 8.21507E-04-4.26237E-01-1.02930E-13 6.19384E-14
 -1      2448 2.05148E+01 1.16388E-01-1.43781E-03-4.76601E-01-1.34552E-13-2.93777E-14
 -1      2449 2.09695E+01 8.41596E-02 2.32951E-03-5.50537E-01-1.39524E-14 3.04505E-13
 -1      2450 2.08419E+01 8.74375E-02 9.38897E-04-5.12249E-01-6.26311E-14 2.10615E-13
 -1      2451 2.06661E+01 1.20567E-01-1.61231E-03-5.75909E-01-1.17385E-13 1.14643E-13
 -1      2452 2.12119E+01 6.42553E-02 1.24656E-03-6.25259E-01-4.09716E-14 4.43184E-13
 -1      2453 2.10681E+01 7.67848E-02 1.06396E-03-5.94062E-01 2.88706E-14 4.19793E-13
 -1      2454 2.08470E+01 1.09474E-01-1.79993E-03-6.73980E-01-6.21395E-14 1.84939E-13
 -1      2455 2.14825E+01 1.96520E-02-7.11573E-04-6.71015E-01-6.74034E-14 4.29257E-13
 -1      2456 2.13281E+01 4.62207E-02 1.21291E-03-6.56721E-01-8.85824E-14 5.44330E-13
 -1      2457 2.10601E+01 7.32403E-02-2.01994E-03-7.56269E-01-1.08884E-13 4.00094E-13
 -1      2458 2.17721E+01-5.93475E-02-3.73582E-03-6.61101E-01-3.95528E-15 5.33213E-13
 -1      2459 2.16175E+01-1.36911E-02 1.39769E-03-6.77499E-01 2.16862E-15 4.95124E-13
 -1      2460 2.13075E+01-5.32945E-04-2.28096E-03-8.00316E-01-1.05628E-13 3.36388E-13
 -1      2461 2.20649E+01-1.79814E-01-7.79825E-03-5.60947E-01 4.63009E-14 4.96031E-13
 -1      2462 2.19261E+01-1.12071E-01 1.58555E-03-6.25041E-01 8.25440E-14 5.76540E-13
 -1      2463 2.15898E+01-1.24435E-01-2.52304E-03-7.74356E-01 7.72668E-15 4.25825E-13
 -1      2464 2.23351E+01-3.38332E-01-1.23714E-02-3.33022E-01-1.06785E-13 2.97719E-13
 -1      2465 2.22346E+01-2.52280E-01 1.61480E-03-4.61477E-01-5.33809E-14 4.42023E-13
 -1      2466 2.19035E+01-3.04862E-01-2.49352E-03-6.38102E-01 1.59018E-14 5.14055E-13
 -1      2467 2.25442E+01-5.08178E-01-1.60392E-02 4.97470E-02-2.07871E-13 3.31180E-13
 -1      2468 2.25094E+01-4.21602E-01 1.04708E-03-1.51190E-01-1.71528E-13 2.91764E-13
 -1      2469 2.22360E+01-5.29427E-01-1.60979E-03-3.48999E-01-1.55160E-13 2.45755E-13
 -1      2470 2.26390E+01-6.25758E-01-1.63729E-02 5.78124E-01 2.36295E-14 4.58473E-13
 -1      2471 2.26976E+01-5.76821E-01-8.21656E-04 3.18989E-01-1.30091E-13 3.73517E-13
 -1      2472 2.25548E+01-7.48534E-01 1.05372E-03 1.20957E-01-1.95703E-13 3.53510E-13
 -1      2473 2.25574E+01-5.90665E-01-1.06904E-02 1.17100E+00 6.72674E-14 6.13845E-13
 -1      2474 2.27260E+01-6.34555E-01-4.83375E-03 9.06028E-01 1.10445E-13 5.01049E-13
 -1      2475 2.27962E+01-8.60686E-01 5.99657E-03 7.52705E-01 5.20092E-15 4.30990E-13
 -1      2476 2.22538E+01-3.08206E-01 1.70196E-03 1.64715E+00-2.86077E-13 8.88517E-13
 -1      2477 2.25203E+01-4.87091E-01-1.09283E-02 1.47140E+00-1.27555E-13 7.04640E-13
 -1      2478 2.28630E+01-7.24045E-01 1.14705E-02 1.43441E+00-1.07860E-13 5.00728E-13
 -1      2479 2.17622E+01 2.04095E-01 1.64011E-02 1.75829E+00-1.35233E-13 9.97747E-13
 -1      2480 2.20692E+01-7.82539E-02-1.37303E-02 1.77794E+00-2.53698E-13 9.98676E-13
 -1      2481 2.26671E+01-2.48751E-01 1.17202E-02 1.92276E+00-3.48560E-13 6.16281E-13
 -1      2482 2.12205E+01 7.67890E-01 2.10695E-02 1.33925E+00 1.48860E-13 8.38484E-13
 -1      2483 2.14857E+01 4.95009E-01-1.05411E-02 1.60428E+00 5.28520E-14 1.02165E-12
 -1      2484 2.22434E+01 4.88403E-01 5.85563E-03 1.93792E+00 1.35727E-14 7.97682E-13
 -1      2485 2.08717E+01 1.06024E+00 1.07307E-02 4.57621E-01-1.14982E-13 7.89395E-13
 -1      2486 2.10074E+01 9.67333E-01 2.11277E-03 8.88095E-01 8.15919E-14 7.87734E-13
 -1      2487 2.17699E+01 1.17553E+00-9.44384E-03 1.29982E+00 9.48824E-14 8.24953E-13
 -1      2488 2.08785E+01 8.88800E-01-7.29863E-03-5.09658E-01-5.97074E-14 8.21979E-13
 -1      2489 2.08523E+01 1.03702E+00 1.45695E-02-1.00604E-01-2.19729E-13 7.36851E-13
 -1      2490 2.15361E+01 1.41818E+00-1.75816E-02 2.09730E-01-7.34855E-14 7.08443E-13
 -1      2491 2.11871E+01 3.66533E-01-1.55543E-02-1.12092E+00 1.45545E-13 8.43081E-13
 -1      2492 2.10423E+01 6.56322E-01 2.06784E-02-9.08510E-01 1.14317E-13 8.19261E-13
 -1      2493 2.16650E+01 1.05620E+00-9.42682E-03-8.26642E-01 3.79202E-14 6.77685E-13
 -1      2494 2.15515E+01-1.93931E-01-1.36634E-02-1.17867E+00 4.46332E-13 5.06718E-13
 -1      2495 2.13761E+01 7.41906E-02 1.45056E-02-1.20986E+00 3.62443E-13 7.30417E-13
 -1      2496 2.19870E+01 3.14820E-01 5.74615E-03-1.32736E+00 3.39547E-13 6.53268E-13
 -1      2497 2.17449E+01-5.36820E-01-7.53900E-03-7.90961E-01 3.63770E-13 3.01363E-13
 -1      2498 2.16232E+01-3.99803E-01-1.81905E-04-9.90918E-01 3.78305E-13 4.69524E-13
 -1      2499 2.22166E+01-3.88218E-01 1.35008E-02-1.18667E+00 4.39738E-13 5.27991E-13
 -1      2500 2.16894E+01-5.99159E-01-7.24575E-04-2.22619E-01 3.60620E-13 4.11061E-13
 -1      2501 2.16648E+01-6.02015E-01-1.14680E-02-4.74670E-01 3.58203E-13 3.72202E-13
 -1      2502 2.21864E+01-7.69467E-01 9.97125E-03-6.31223E-01 3.61308E-13 5.05279E-13
 -1      2503 2.14273E+01-4.50337E-01 4.29614E-03 2.85705E-01 2.24227E-13 3.49832E-13
 -1      2504 2.14975E+01-5.47550E-01-1.57246E-02 7.82463E-02 2.03994E-13 3.84008E-13
 -1      2505 2.19092E+01-7.85061E-01 3.46528E-03 2.28590E-02 2.50133E-13 5.26932E-13
 -1      2506 2.10504E+01-1.92273E-01 8.22626E-03 5.93200E-01 6.21309E-14 2.74466E-13
 -1      2507 2.11843E+01-3.33936E-01-1.45298E-02 4.83573E-01 1.92860E-13 3.76837E-13
 -1      2508 2.14858E+01-5.42056E-01-1.12413E-03 5.36513E-01 1.81364E-13 3.09525E-13
 -1      2509 2.06370E+01 8.28087E-02 7.71839E-03 6.46014E-01-2.02912E-13 4.48736E-13
 -1      2510 2.07990E+01-5.33374E-02-9.75444E-03 6.51808E-01-2.10919E-13 3.04146E-13
 -1      2511 2.10182E+01-1.67319E-01 6.31767E-04 7.95255E-01-6.38319E-14 3.08498E-13
 -1      2512 2.04169E+01 2.08607E-01-1.43709E-03 5.67266E-01 6.28129E-14 3.99199E-13
 -1      2513 2.00996E+01 1.53315E+00-1.04477E-02 2.17772E+00 3.63602E-13-5.18050E-13
 -1      2514 2.03205E+01 1.21108E+00 1.16430E-02 2.10132E+00 1.84440E-13-7.77079E-13
 -1      2515 1.95374E+01 2.19850E+00-2.28712E-02 2.08801E+00 3.07542E-13-3.65653E-13
 -1      2516 1.98438E+01 1.87724E+00 1.38757E-02 2.19612E+00 4.36579E-13-3.27936E-13
 -1      2517 1.99504E+01 1.14264E+00-7.66468E-03 2.48523E+00 5.57006E-13-3.48110E-13
 -1      2518 2.06260E+01 5.79221E-01 9.49938E-03 1.46679E+00-1.97191E-13-8.73841E-14
 -1      2519 2.06353E+01 3.65701E-01 1.76597E-03 1.24355E+00-1.17141E-13-1.33143E-13
 -1      2520 2.04725E+01 9.75962E-01 1.83420E-03 1.90818E+00-1.82601E-13-4.66712E-13
 -1      2521 2.05737E+01 7.07196E-01 7.26149E-03 1.72588E+00-2.38476E-13 5.88171E-14
 -1      2522 2.07838E+01 2.60601E-01-7.50119E-03 1.75416E+00-2.03102E-13-3.38195E-14
 -1      2523 2.05176E+01 6.00469E-01-7.52218E-03 2.24051E+00 1.08052E-13-3.28724E-13
 -1      2524 1.89445E+01 2.83039E+00-2.85029E-02 1.52049E+00-2.49082E-14-4.35130E-13
 -1      2525 1.92386E+01 2.57859E+00 9.91119E-03 1.84618E+00 1.28713E-13-5.69462E-13
 -1      2526 1.91921E+01 1.82516E+00 1.62841E-03 2.26900E+00 2.19294E-13-6.22687E-13
 -1      2527 1.85622E+01 3.22966E+00-2.28713E-02 5.25624E-01-2.89023E-13-3.73451E-13
 -1      2528 1.87175E+01 3.11341E+00-1.67699E-03 1.01759E+00-1.75287E-13-3.60334E-13
 -1      2529 1.84771E+01 2.45493E+00 1.62173E-02 1.48161E+00 2.36607E-14-6.32244E-13
 -1      2530 1.85734E+01 3.23556E+00-9.10477E-03-6.44235E-01-3.48946E-13-2.19934E-13
 -1      2531 1.85150E+01 3.29018E+00-1.63126E-02-1.17750E-01-3.07216E-13-2.60217E-13
 -1      2532 1.81045E+01 2.78266E+00 2.56630E-02 2.45783E-01-1.21667E-13-4.05957E-13
 -1      2533 1.89607E+01 2.84803E+00 4.97812E-03-1.63097E+00-1.66812E-13 1.92823E-14
 -1      2534 1.87236E+01 3.05223E+00-2.61072E-02-1.22274E+00-3.04282E-13 5.16236E-14
 -1      2535 1.82449E+01 2.66250E+00 2.21772E-02-1.07388E+00-1.14264E-13-1.70963E-13
 -1      2536 1.95551E+01 2.19816E+00 1.29765E-02-2.21466E+00 4.10223E-14 1.44275E-13
 -1      2537 1.92403E+01 2.50560E+00-2.53289E-02-2.00283E+00-1.08701E-13-1.28362E-13
 -1      2538 1.88222E+01 2.16052E+00 7.89064E-03-2.08939E+00-5.12482E-14 8.04959E-14
 -1      2539 2.01250E+01 1.49487E+00 1.20869E-02-2.31550E+00-1.62138E-13 9.82211E-14
 -1      2540 1.98458E+01 1.83732E+00-1.56134E-02-2.31314E+00-9.29929E-14 2.13387E-13
 -1      2541 1.95974E+01 1.49449E+00-4.84211E-03-2.57147E+00-4.91246E-14-5.39716E-15
 -1      2542 2.05382E+01 9.14185E-01 1.28755E-02-2.03502E+00-4.13694E-13 2.31436E-13
 -1      2543 2.03483E+01 1.22738E+00-7.62751E-04-2.18666E+00-2.56016E-13 9.12739E-14
 -1      2544 2.03109E+01 9.04416E-01-2.26483E-04-2.52183E+00-1.50663E-13-4.67788E-14
 -1      2545 5.38559E+00-3.27171E+00 9.90454E-02 3.78577E+00-1.08968E-13-1.00286E-12
 -1      2546 3.81755E+00-3.21836E+00 1.16161E-01 1.10104E+00-1.18690E-13-8.27893E-13
 -1      2547 3.07595E+00-3.76324E+00 2.75884E-02-1.46096E+00 7.45307E-14-5.92137E-13
 -1      2548 4.05150E+00-4.39739E+00 1.83976E-02-3.56844E+00 1.67366E-13-1.90015E-13
 -1      2549 1.97040E+01 1.43213E-01 3.25323E-03 6.04828E-02 7.69090E-15 1.86381E-13
 -1      2550 1.97826E+01 1.98059E-01 1.23770E-02 1.46646E-01 6.65548E-15 1.95610E-13
 -1      2551 1.98486E+01 1.80783E-01-3.86979E-03 6.60285E-02 1.11571E-14 1.34448E-13
 -1      2552 2.05996E+01 7.01879E-01-4.82301E-03-1.47505E+00-3.36843E-13 4.69189E-13
 -1      2553 2.02764E+01-6.07168E+00-3.10962E-02 6.88612E+00-1.81688E-13-7.19057E-13
 -1      2554 1.66136E+01-6.13798E+00 6.56305E-02 7.19341E+00-8.23785E-14-5.55896E-13
 -1      2555 2.05471E+01 1.95489E+00-1.39022E-02-1.89825E+00 6.31543E-14-2.71765E-13
 -1      2556 2.04135E+01 1.21518E+00-6.11215E-03-1.28685E+00 4.61523E-14-2.60284E-13
 -1      2557 2.03788E+01 1.37457E+00 5.48028E-03-1.23518E+00 6.40672E-14-2.16518E-13
 -1      2558 2.02884E+01 2.38481E+00-5.28391E-03-1.84349E+00 7.82924E-14-2.25282E-13
 -1      2559 6.28200E+00-4.80366E+00 2.98396E-02-5.15711E+00 2.00534E-13-3.53495E-13
 -1      2560 9.11804E+00-5.19927E+00 2.58142E-02-6.60743E+00 1.59650E-13-7.03382E-13
 -1      2561 3.84014E+00-3.34029E+00 7.98122E-02 2.52108E+00 2.05155E-13-1.48548E-13
 -1      2562 3.22454E+00-2.84996E+00 8.70778E-02-1.91719E-01 1.35392E-13 3.60267E-14
 -1      2563 8.64623E+00-4.47464E+00 9.22545E-02-5.99966E+00 1.48992E-13-5.05651E-13
 -1      2564 1.23367E+01-5.18873E+00 2.10731E-02-6.98407E+00 2.57849E-13-7.33358E-13
 -1      2565 1.95194E+01 3.58459E+00-1.00881E-02-2.45396E-01 1.82589E-13-1.77428E-14
 -1      2566 1.95355E+01 3.56393E+00-9.65390E-03-4.26181E-01 1.73737E-13-3.59990E-14
 -1      2567 1.97118E+01 3.16332E+00-5.68151E-04-4.73582E-01 1.69584E-13-4.56514E-14
 -1      2568 1.96776E+01 3.22315E+00-9.17470E-04-1.52101E-01 1.66666E-13-7.49010E-15
 -1      2569 2.98256E+01-1.54218E+00-6.15521E-02-1.58419E+00 1.15147E-13-9.27425E-13
 -1      2570 3.18723E+01 4.77809E-01-9.61663E-02-5.43450E-01 1.00697E-13-1.02762E-12
 -1      2571 3.27286E+01 6.74032E+00-9.01189E-02 1.25781E+00 3.79696E-14-9.95176E-13
 -1      2572 3.23493E+01 7.36449E+00-2.00250E-01 7.86755E-01-5.10703E-15-9.24198E-13
 -1      2573 8.73201E+00-4.63360E+00 6.53081E-03 5.96186E+00 2.05030E-13-2.40002E-13
 -1      2574 5.63990E+00-4.07281E+00 9.14303E-02 4.27329E+00 2.35756E-13-3.33122E-13
 -1      2575 6.56352E+00-2.46097E+00 1.82654E-01 3.30168E+00 2.71450E-13-2.45137E-13
 -1      2576 3.27249E+01 2.96040E+00-3.17206E-02 6.11330E-01 6.59472E-14-9.38361E-13
 -1      2577 3.29395E+01 4.92793E+00-1.60888E-01 1.27867E+00 6.83897E-14-9.69114E-13
 -1      2578 2.55432E+01-4.62856E+00-6.46129E-03-3.89328E+00 8.04912E-14-8.73579E-13
 -1      2579 2.83553E+01-3.18850E+00-2.48561E-03-3.01296E+00 1.20903E-13-9.58705E-13
 -1      2580 2.90535E+01-2.88052E+00-2.10044E-02-1.00926E+00 5.24338E-14-9.33059E-13
 -1      2581 4.16372E+00-2.99469E+00 1.18166E-01-2.66832E+00 8.71248E-14-3.51663E-13
 -1      2582 5.76220E+00-3.40204E+00 6.74223E-02-4.61966E+00 1.21569E-13-4.23772E-13
 -1      2583 1.68262E+01-5.93686E+00-1.49242E-02 6.65020E+00 1.17240E-13-9.40359E-14
 -1      2584 1.34261E+01-5.54166E+00 1.02991E-01 6.47623E+00 1.76192E-13-5.55112E-14
 -1      2585 2.46263E+01-5.42558E+00-6.68372E-02 4.36829E+00-2.27179E-13 6.74738E-14
 -1      2586 2.06429E+01-6.09327E+00 2.47749E-02 5.50279E+00-4.09117E-14-1.09412E-13
 -1      2587 3.36246E+01 3.39940E+00-6.04470E-02-1.23540E+00-3.71037E-13 2.98317E-13
 -1      2588 3.21723E+01 1.21450E+00-9.25913E-02-8.31474E-01-2.57738E-13 2.06057E-13
 -1      2589 3.40461E+01 6.73944E+00-1.08721E-01-1.23380E+00 4.29101E-14 2.36186E-13
 -1      2590 3.35408E+01 5.41235E+00-1.07864E-01-1.50609E+00-2.17160E-13 3.08142E-13
 -1      2591 3.33102E+01 7.35724E+00-1.10940E-01-1.18303E-03 1.07803E-13 6.29219E-14
 -1      2592 3.37785E+01 7.39459E+00-1.16417E-01-6.88774E-01 1.47382E-13 1.61225E-13
 -1      2593 3.35168E+01 4.11012E+00-4.64364E-02 5.59309E-01 2.21628E-13-3.04756E-14
 -1      2594 3.33697E+01 5.88346E+00-1.76756E-01 6.79032E-01 5.77871E-14 2.74225E-14
 -1      2595 3.17406E+01-2.93266E-01-3.96855E-02-1.03252E+00 6.72171E-13-5.78426E-14
 -1      2596 3.33435E+01 1.83282E+00-1.01741E-01-2.80581E-01 3.79169E-13-1.71863E-13
 -1      2597 2.74879E+01-4.30217E+00-5.82722E-03-3.70525E+00 6.80539E-13 1.82410E-13
 -1      2598 3.01834E+01-2.68525E+00-7.80617E-02-2.66560E+00 8.28546E-13 8.03246E-14
 -1      2599 2.00711E+01-6.26318E+00 4.16258E-02-6.56193E+00 4.72400E-13-8.12544E-14
 -1      2600 2.41604E+01-5.67127E+00-6.63148E-02-5.76367E+00 5.04791E-13-1.16296E-14
 -1      2601 1.18711E+01-5.93609E+00 1.64137E-02-7.02337E+00 1.32061E-13-7.20451E-13
 -1      2602 1.52384E+01-6.02192E+00-4.35532E-02-7.51266E+00 2.76001E-13-2.47691E-13
 -1      2603 1.20303E+01-4.73421E+00 1.16610E-01-6.83596E+00 1.26954E-13-6.08957E-13
 -1      2604 3.20437E+01 4.17433E-01-5.23565E-02 8.31340E-01-1.89848E-14-8.59646E-13
 -1      2605 3.03523E+01-1.49321E+00-4.51528E-02 1.64819E+00-5.08586E-14-9.74887E-13
 -1      2606 3.10744E+01 9.21632E-01-2.21981E-02-7.25178E-01-4.67959E-14-9.47104E-13
 -1      2607 2.04903E+01 8.74895E-01-7.31605E-03 1.22699E+00 1.54893E-14 2.84753E-13
 -1      2608 2.08409E+01 1.25691E+00-6.05166E-03 1.72768E+00 1.88564E-14 3.09773E-13
 -1      2609 2.06467E+01 1.71561E+00-1.57902E-02 1.92185E+00 3.41836E-14 2.89560E-13
 -1      2610 2.04489E+01 1.05794E+00-9.39175E-03 1.24181E+00 2.14360E-14 2.45147E-13
 -1      2611 3.10511E+01 1.15587E+00-2.06003E-03 1.13577E+00 5.77316E-15-8.04967E-13
 -1      2612 1.99143E+01 2.81672E+00 3.26979E-03-1.10083E+00 1.49699E-13-1.20755E-13
 -1      2613 1.97805E+01 3.16019E+00-1.50062E-02-1.28574E+00 1.48153E-13-1.28269E-13
 -1      2614 1.98749E+01 3.03577E+00-1.82836E-02-1.48190E+00 1.36712E-13-1.49060E-13
 -1      2615 1.99944E+01 3.40058E-01-3.56972E-03 3.05090E-01 1.95191E-14 1.67302E-13
 -1      2616 2.04224E+01 2.11573E+00-1.27803E-02 1.87487E+00 6.12774E-14 2.65777E-13
 -1      2617 1.90369E+01-5.95208E+00 1.07637E-01-6.83858E+00 1.83936E-13-2.13425E-13
 -1      2618 7.12988E+00-3.38784E+00 1.16312E-01-4.64373E+00 1.77636E-15-2.85771E-13
 -1      2619 2.63187E+01-5.48300E+00 1.34171E-02-4.06088E+00 5.34489E-13 7.58560E-14
 -1      2620 1.55192E+01-5.36804E+00 1.44347E-01 7.26470E+00 4.32432E-14-7.26932E-13
 -1      2621 3.06227E+01-2.00511E+00 1.12622E-03-7.86296E-01 6.32870E-13 1.06332E-13
 -1      2622 2.05608E+01 1.88204E-01-1.03490E-03 7.69616E-01-7.32812E-14 3.36962E-13
 -1      2623 5.25267E+00-2.26689E+00 1.49722E-01-1.58997E-01-1.89952E-13-8.19234E-13
 -1      2624 2.06083E+01 2.84334E-01 5.39589E-03 9.41395E-01-1.41713E-13 2.91427E-13
 -1      2625 3.18295E+01 2.46046E+00-5.09595E-03 1.14354E+00 4.03011E-13-1.06970E-13
 -1      2626 2.08160E+01 6.75389E-02-6.56075E-03 1.15463E+00-1.88951E-13 1.45070E-13
 -1      2627 7.76768E+00-3.33580E+00 1.73107E-01 4.97162E+00 3.99680E-14-1.11666E-12
 -1      2628 7.85804E+00-1.86590E+00 1.49846E-01 3.68857E+00-7.44960E-14-9.80632E-13
 -1      2629 1.01958E+01-3.43153E+00 2.28330E-02 5.91579E+00 1.55556E-13-8.70859E-13
 -1      2630 3.12794E+01 6.11094E+00-7.54487E-02 7.97993E-01 1.85241E-13 3.37286E-13
 -1      2631 2.04364E+01 1.80799E+00 1.25466E-02 1.56265E+00 5.41208E-14 2.29576E-13
 -1      2632 2.01145E+01 2.62137E+00-1.13177E-02-1.67966E+00 1.04605E-13-1.89851E-13
 -1      2633 3.12620E+01 6.74048E+00-4.85220E-02-1.20777E+00 1.28231E-13 3.34947E-13
 -1      2634 2.30827E+01-5.97402E+00 5.65358E-02 5.84274E+00-1.16573E-13-6.46247E-13
 -1      2635 2.18080E+01-5.92578E+00 8.64335E-02 6.13561E+00-2.69229E-14-6.36408E-13
 -1      2636 2.51446E+01-5.73082E+00-1.00361E-01 4.46681E+00-6.39488E-14-6.52214E-13
 -1      2637 3.09945E+01 5.29806E+00-6.89720E-02 1.72344E+00 2.19824E-14-7.30818E-13
 -1      2638 5.46239E+00-1.81477E+00 1.88274E-01-1.22927E+00 1.31433E-13-9.54237E-14
 -1      2639 3.16871E+01 4.01010E+00-6.25304E-02-2.18517E+00-2.37754E-13 2.29594E-13
 -1      2640 2.67470E+01-4.89450E+00 3.08959E-02 2.96670E+00-1.96593E-13 1.76609E-13
 -1      2641 2.54074E+01-5.54679E+00 8.10783E-02 3.30424E+00-1.28120E-13 1.51039E-13
 -1      2642 2.77589E+01-4.38635E+00-1.82005E-01 1.20973E+00-1.77983E-13 1.37612E-13
 -1      2643 2.02487E+01-5.84706E+00 1.17279E-01 5.53439E+00 6.82232E-14-1.67333E-13
 -1      2644 2.42524E+01-5.41021E+00 2.00421E-02-4.48568E+00 1.01974E-13-8.30988E-13
 -1      2645 2.59844E+01-5.09079E+00-7.05365E-02-2.89904E+00 4.54220E-14-1.17906E-12
 -1      2646 2.27426E+01-5.57427E+00 1.08830E-01-5.01516E+00 1.20140E-13-6.37049E-13
 -1      2647 1.23181E+01-4.39075E+00 1.33802E-01 6.07718E+00 3.44003E-13-7.74103E-14
 -1      2648 9.00795E+00-3.17062E+00 1.74528E-01-5.29340E+00 1.01419E-13-5.79592E-13
 -1      2649 1.48718E+01-4.50894E+00 1.60684E-01-6.63172E+00 1.21320E-13-6.05113E-13
 -1      2650 1.57200E+01-5.33775E+00 1.26436E-01-6.80015E+00 2.26069E-13-5.95482E-13
 -1      2651 1.86109E+01-5.60608E+00-4.52638E-02-6.16122E+00 1.55709E-13-4.46185E-13
 -1      2652 3.18333E+01 5.27716E+00-5.52938E-02-9.61344E-01-2.38698E-14-8.99641E-13
 -1      2653 2.99957E+01 3.71257E+00-8.08185E-02-1.47867E+00-9.06220E-14-9.93136E-13
 -1      2654 2.96954E+01 5.78611E+00-2.31497E-01-1.19937E+00-6.72518E-14-8.59035E-13
 -1      2655 3.13702E+01 7.32387E+00-1.04610E-01 3.61980E-01-1.30618E-13-9.15488E-13
 -1      2656 2.94437E+01 6.85002E+00-2.06731E-01-7.70060E-02-1.16657E-13-8.38433E-13
 -1      2657 2.92222E+01 6.76416E+00-1.25990E-01 8.01616E-01-9.30644E-14-7.57927E-13
 -1      2658 2.95164E+01-2.42449E+00-1.37853E-01 4.47498E-01-9.58816E-14-1.03362E-12
 -1      2659 2.94157E+01-3.08593E+00-1.98507E-02 2.07663E+00-1.53953E-13-9.37250E-13
 -1      2660 2.80123E+01-4.23488E+00 4.24675E-02 2.59310E+00-1.90105E-13-6.83995E-13
 -1      2661 3.13049E+01-6.15494E-01-5.76282E-02-7.01676E-01-1.77601E-13 1.17240E-13
 -1      2662 2.98644E+01-2.10912E+00-7.01437E-03-4.55093E-01-1.24283E-13 1.93456E-13
 -1      2663 3.05105E+01 2.25957E-01-1.56257E-01-2.03611E+00-2.22738E-13 1.95399E-13
 -1      2664 2.09433E+01 3.45275E-01 1.32569E-02-1.58273E+00-2.11928E-13 6.63926E-13
 -1      2665 2.07000E+01 6.84483E-01 1.04339E-03-1.85786E+00-4.15825E-13 6.35529E-13
 -1      2666 2.08240E+01 4.25278E-01-6.77539E-03-2.16714E+00-2.68891E-13 4.64398E-13
 -1      2667 2.12028E+01 1.15886E-01-8.01976E-03-1.68767E+00-3.35966E-13 6.75632E-13
 -1      2668 2.12492E+01-5.69506E-03-5.81559E-03-1.99496E+00-3.06211E-13 6.24945E-13
 -1      2669 1.98455E+01 2.76456E+00-6.29589E-03 5.16505E-01 1.40912E-13 5.50001E-14
 -1      2670 1.98207E+01 2.81430E+00-5.69931E-03 3.65563E-01 1.35969E-13 4.34171E-14
 -1      2671 1.98038E+01 2.85182E+00-5.61357E-03 2.29958E-01 1.44426E-13 1.74372E-14
 -1      2672 1.97952E+01 2.86871E+00-5.43326E-03 7.52612E-02 1.51448E-13 1.05079E-14
 -1      2673 1.99503E+01 2.50047E+00 3.65237E-03 2.65373E-01 1.29028E-13 1.75801E-14
 -1      2674 2.00441E+01 2.32354E+00-1.07276E-02 1.04636E+00 1.18507E-13 1.34575E-13
 -1      2675 1.99797E+01 2.47254E+00-6.34085E-03 9.10638E-01 1.35046E-13 1.09326E-13
 -1      2676 2.02167E+01 1.90841E+00-1.19423E-02 1.22785E+00 8.81998E-14 1.57905E-13
 -1      2677 2.01245E+01 2.14607E+00-4.81609E-03 1.13457E+00 1.04280E-13 1.54030E-13
 -1      2678 2.01899E+01 1.88620E+00 6.47123E-03 9.27067E-01 8.84560E-14 1.32243E-13
 -1      2679 2.02125E+01 7.26626E-01-3.49260E-03 6.43325E-01 5.40748E-14 1.69176E-13
 -1      2680 2.03546E+01 9.51515E-01 9.17579E-03 9.06980E-01 3.96193E-14 1.77764E-13
 -1      2681 2.01885E+01 2.27567E+00 3.66861E-03-1.42748E+00 1.01661E-13-1.67789E-13
 -1      2682 1.20391E+01-3.58371E+00 1.57778E-01-6.29123E+00 1.00892E-14-5.79425E-13
 -1      2683 1.43459E+01-4.51971E+00 4.21104E-02-6.99501E+00 2.55629E-14-4.54956E-13
 -1      2684 2.00694E+01 4.15383E-01-1.61979E-03 2.88458E-01 3.96484E-14 1.57427E-13
 -1      2685 2.01708E+01 5.53820E-01 1.04794E-02 4.51306E-01 5.35314E-14 1.69855E-13
 -1      2686 2.02537E+01 8.21687E-01 8.45690E-04 6.17989E-01 4.65847E-14 1.43341E-13
 -1      2687 1.74530E+01-5.26078E+00 1.24207E-01-6.84095E+00 8.37108E-14-2.62998E-13
 -1      2688 2.12639E+01-5.82712E+00-5.68743E-03-6.06832E+00 2.42015E-13-1.73059E-13
 -1      2689 2.91877E+01-3.24321E+00-1.69887E-02-7.93315E-01 5.46584E-13 2.56906E-13
 -1      2690 3.00132E+01-1.41466E+00-2.05776E-01 4.09853E-01 4.29268E-13 1.26760E-13
 -1      2691 2.02265E+01 6.23784E-01 1.15612E-02-4.34723E-01 1.30082E-14-1.26133E-13
 -1      2692 2.01325E+01 4.72061E-01-4.05362E-03-2.78806E-01 2.08694E-14-1.29587E-13
 -1      2693 2.01057E+01 3.62303E-01 6.68341E-03-1.59206E-01 9.18203E-15-1.16693E-13
 -1      2694 2.00465E+01 2.67412E-01-1.80109E-03-6.18207E-02-2.19204E-15-1.41477E-13
 -1      2695 2.01962E+01 5.28316E-01-1.30346E-03-2.63506E-01 1.18127E-14-7.21934E-14
 -1      2696 2.00205E+01 1.97305E-01 4.53903E-03 1.34677E-02-2.33112E-15-1.30745E-13
 -1      2697 1.99847E+01 1.37804E-01-8.33042E-04 7.00217E-02-2.11934E-14-1.13419E-13
 -1      2698 2.01262E+01 2.98433E-01-2.05706E-03-5.63423E-02-5.30523E-15-1.21525E-13
 -1      2699 1.99637E+01 9.37430E-02 2.90281E-03 1.13365E-01-4.81840E-14-1.14607E-13
 -1      2700 1.99456E+01 5.65793E-02-2.87166E-04 1.42818E-01-4.15760E-14-1.25858E-13
 -1      2701 2.00698E+01 1.52345E-01-1.89609E-03 7.08829E-02-3.80238E-14-1.16043E-13
 -1      2702 1.99307E+01 2.92733E-02 1.73541E-03 1.64353E-01-3.81578E-14-1.22707E-13
 -1      2703 1.99248E+01 6.72401E-03 1.78765E-05 1.76356E-01-4.25796E-15-1.32671E-13
 -1      2704 2.00287E+01 6.02713E-02-1.52714E-03 1.41935E-01-5.41296E-14-8.21206E-14
 -1      2705 1.99151E+01-9.50300E-03 9.28150E-04 1.83631E-01 7.09093E-15-1.52434E-13
 -1      2706 1.99171E+01-2.22809E-02 1.85046E-04 1.84820E-01 2.10927E-15-1.74290E-13
 -1      2707 2.00015E+01 3.79083E-03-1.15163E-03 1.74979E-01-1.82586E-14-1.23290E-13
 -1      2708 1.99114E+01-3.10372E-02 3.86334E-04 1.83306E-01 3.85670E-14-1.56847E-13
 -1      2709 1.99181E+01-3.72007E-02 2.76823E-04 1.78265E-01 3.59607E-14-7.59222E-14
 -1      2710 1.99852E+01-2.87814E-02-8.36061E-04 1.83528E-01 2.88853E-14-6.18295E-14
 -1      2711 1.99154E+01-4.08663E-02 3.52283E-05 1.71876E-01 3.56670E-14-4.20230E-14
 -1      2712 1.99247E+01-4.25220E-02 3.30297E-04 1.63783E-01 4.10688E-14-1.19349E-14
 -1      2713 1.99769E+01-4.50998E-02-5.93565E-04 1.77391E-01 8.26375E-14-1.49505E-16
 -1      2714 1.99241E+01-4.26923E-02-1.82331E-04 1.55291E-01 2.02527E-14 3.62372E-14
 -1      2715 1.99346E+01-4.12473E-02 3.68187E-04 1.46363E-01 5.04282E-14 2.08661E-14
 -1      2716 1.99742E+01-5.02876E-02-4.17841E-04 1.63586E-01 5.95602E-14 2.68310E-15
 -1      2717 1.99355E+01-3.89799E-02-3.09699E-04 1.37737E-01 5.01011E-14-3.69039E-15
 -1      2718 1.99466E+01-3.53465E-02 4.05614E-04 1.29539E-01 3.91004E-14-3.46180E-14
 -1      2719 1.99754E+01-4.77788E-02-2.97483E-04 1.47113E-01 6.80182E-15 3.44246E-15
 -1      2720 1.99485E+01-3.13093E-02-3.79488E-04 1.22197E-01 4.54830E-14-7.50420E-14
 -1      2721 1.99598E+01-2.60339E-02 4.53626E-04 1.15871E-01 1.18142E-14-5.87545E-14
 -1      2722 1.99794E+01-3.98128E-02-2.21027E-04 1.31550E-01 1.97856E-14-5.41676E-15
 -1      2723 1.99626E+01-2.06021E-02-4.16116E-04 1.10879E-01-4.65592E-14 3.93379E-15
 -1      2724 1.99742E+01-1.39529E-02 5.20965E-04 1.07320E-01-5.36635E-14 6.21713E-14
 -1      2725 1.99854E+01-2.77472E-02-1.78527E-04 1.19527E-01-3.81457E-15 9.43315E-15
 -1      2726 1.99776E+01-7.27725E-03-4.37960E-04 1.05550E-01-1.27219E-13 7.12417E-14
 -1      2727 1.99900E+01 6.91626E-04 6.14961E-04 1.05531E-01-2.12880E-13 2.62441E-14
 -1      2728 1.99931E+01-1.22712E-02-1.61578E-04 1.13096E-01-1.00575E-13 6.45518E-14
 -1      2729 1.99940E+01 8.63397E-03-4.59102E-04 1.07776E-01-2.10487E-13 6.50170E-14
 -1      2730 2.00076E+01 1.80344E-02 7.42018E-04 1.12049E-01-1.64665E-13 6.44849E-14
 -1      2731 2.00022E+01 6.43965E-03-1.62910E-04 1.14006E-01-1.83520E-13 1.80975E-13
 -1      2732 2.00123E+01 2.73991E-02-4.90638E-04 1.19110E-01-8.65725E-14 7.03363E-14
 -1      2733 2.00279E+01 3.84679E-02 9.07639E-04 1.28482E-01-4.52219E-14 5.54975E-14
 -1      2734 2.00128E+01 2.86038E-02-1.75891E-04 1.23919E-01-1.26282E-13 2.23335E-13
 -1      2735 2.00334E+01 4.95068E-02-5.41585E-04 1.41235E-01-4.91334E-14 1.11592E-13
 -1      2736 2.00518E+01 6.25659E-02 1.11612E-03 1.56614E-01 1.25577E-14 1.11189E-13
 -1      2737 2.00252E+01 5.47335E-02-1.93877E-04 1.44563E-01-2.40360E-14 1.68774E-13
 -1      2738 2.00580E+01 7.55869E-02-6.19425E-04 1.76045E-01 4.83906E-14 6.53684E-14
 -1      2739 2.00804E+01 9.09959E-02 1.36987E-03 1.98465E-01 9.09169E-14-4.18869E-15
 -1      2740 2.00395E+01 8.55350E-02-2.09569E-04 1.77837E-01-1.68256E-14 1.94545E-13
 -1      2741 2.00874E+01 1.06310E-01-7.30121E-04 2.25687E-01 8.53667E-14-5.81769E-14
 -1      2742 2.01148E+01 1.24399E-01 1.66837E-03 2.56302E-01 5.88073E-14-1.29242E-13
 -1      2743 2.00559E+01 1.21791E-01-2.14578E-04 2.25858E-01 2.28451E-14 6.94168E-14
 -1      2744 2.01226E+01 1.42242E-01-8.77325E-04 2.92531E-01 2.19166E-15-1.26720E-13
 -1      2745 2.01562E+01 1.63203E-01 2.00670E-03 3.32565E-01-3.11929E-14-1.91545E-13
 -1      2746 2.00745E+01 1.64195E-01-1.99502E-04 2.90951E-01 3.61230E-14-6.51572E-14
 -1      2747 2.01645E+01 1.83603E-01-1.06022E-03 3.79060E-01-2.88055E-15-1.79376E-13
 -1      2748 2.02056E+01 2.07317E-01 2.37363E-03 4.29693E-01 7.77189E-15-1.13415E-13
 -1      2749 2.00952E+01 2.13094E-01-1.55165E-04 3.75557E-01-5.00400E-16-1.32415E-13
 -1      2750 2.02144E+01 2.29876E-01-1.26906E-03 4.87635E-01 2.64276E-14-1.60907E-13
 -1      2751 2.02641E+01 2.55607E-01 2.74977E-03 5.49795E-01 7.85352E-14-1.39483E-13
 -1      2752 2.01177E+01 2.68064E-01-7.62757E-05 4.82052E-01-6.17948E-14 3.16299E-14
 -1      2753 2.02731E+01 2.79134E-01-1.47692E-03 6.20088E-01 4.66589E-14-1.96562E-13
 -1      2754 2.03328E+01 3.05045E-01 3.10614E-03 6.94091E-01 2.42981E-14-1.42117E-13
 -1      2755 2.01417E+01 3.27211E-01 3.03494E-05 6.12429E-01 5.32103E-14-5.19793E-14
 -1      2756 2.03423E+01 3.26952E-01-1.62533E-03 7.77059E-01 7.50539E-14-1.62068E-13
 -1      2757 2.04134E+01 3.49308E-01 3.40436E-03 8.62040E-01 1.00535E-13-1.57548E-13
 -1      2758 2.01669E+01 3.86038E-01 1.29497E-04 7.67822E-01 4.92322E-14-1.55540E-13
 -1      2759 2.04248E+01 3.64675E-01-1.60035E-03 9.56965E-01 1.06461E-13-1.38842E-13
 -1      2760 2.05094E+01 3.76649E-01 3.59858E-03 1.05000E+00 9.72973E-14-6.68972E-14
 -1      2761 2.01942E+01 4.35646E-01 1.28218E-04 9.47824E-01 1.59886E-13-8.93087E-14
 -1      2762 2.05266E+01 3.76856E-01-1.19464E-03 1.15445E+00 1.52765E-13 9.64640E-14
 -1      2763 2.06286E+01 3.66873E-01 3.63374E-03 1.24927E+00 1.42846E-13 2.34282E-13
 -1      2764 2.02275E+01 4.60052E-01-1.72894E-04 1.14954E+00 2.32791E-13 1.04568E-13
 -1      2765 2.06609E+01 3.37866E-01-5.23125E-05 1.35802E+00 1.02404E-13 3.37491E-13
 -1      2766 2.07874E+01 2.87701E-01 3.41887E-03 1.44318E+00 1.32438E-13 3.03877E-13
 -1      2767 2.02773E+01 4.32497E-01-1.15216E-03 1.36621E+00 1.88591E-13 2.27659E-13
 -1      2768 2.08533E+01 2.08458E-01 2.38412E-03 1.54638E+00 1.68876E-13 4.04313E-13
 -1      2769 2.10173E+01 9.21569E-02 2.74113E-03 1.60273E+00 1.36625E-13 4.73965E-13
 -1      2770 2.03668E+01 3.11256E-01-3.45186E-03 1.58501E+00 1.82114E-13 2.68490E-13
 -1      2771 2.11509E+01-6.48141E-02 6.88120E-03 1.68239E+00-2.32258E-14 4.33550E-13
 -1      2772 2.13724E+01-2.78595E-01 8.51711E-04 1.68002E+00 3.49262E-14 3.25752E-13
 -1      2773 2.05415E+01 3.72009E-02-8.03608E-03 1.78267E+00 8.12276E-14 1.72584E-13
 -1      2774 2.16290E+01-5.40398E-01 1.41229E-02 1.70252E+00 1.78129E-13 2.98815E-13
 -1      2775 2.19323E+01-8.74003E-01-3.16839E-03 1.59741E+00 2.18943E-13 2.54532E-13
 -1      2776 2.08813E+01-4.61523E-01-1.62695E-02 1.91624E+00 7.41921E-14 3.42406E-13
 -1      2777 2.23871E+01-1.24658E+00 2.48485E-02 1.50321E+00 1.38186E-13 1.96296E-13
 -1      2778 2.27836E+01-1.68176E+00-1.11574E-02 1.23784E+00 8.77883E-14 1.53314E-13
 -1      2779 2.15095E+01-1.24042E+00-2.83037E-02 1.90277E+00 1.09641E-13 1.89489E-13
 -1      2780 2.35021E+01-2.09190E+00 3.52793E-02 9.21884E-01 5.91627E-14 1.26581E-13
 -1      2781 2.39599E+01-2.48126E+00-2.06670E-02 4.48314E-01-6.26669E-14 1.25663E-13
 -1      2782 2.25763E+01-2.25112E+00-3.80517E-02 1.59074E+00 3.98115E-14 1.73915E-14
 -1      2783 2.48985E+01-2.70064E+00 2.91303E-02-1.83694E-01-4.57863E-14 2.16941E-13
 -1      2784 2.52969E+01-2.72128E+00-3.52934E-02-8.25740E-01-5.40514E-14 3.96414E-13
 -1      2785 2.41387E+01-3.15170E+00-4.62176E-02 7.35123E-01-2.33819E-14 1.41858E-13
 -1      2786 2.62548E+01-2.31792E+00-1.56138E-03-1.77477E+00-1.08311E-13 4.17128E-13
 -1      2787 2.64197E+01-1.46321E+00-2.78928E-02-2.34269E+00-3.01988E-13 4.51002E-13
 -1      2788 2.60461E+01-3.22880E+00-7.19930E-02-7.58671E-01-5.11657E-14 3.02283E-13
 -1      2789 2.64327E+01 3.14676E+00-1.52577E-01-2.52786E+00-1.58693E-13 4.81403E-13
 -1      2790 2.62605E+01 4.25712E+00-1.14564E-01-1.66934E+00-1.32672E-13 4.74794E-13
 -1      2791 2.60636E+01 4.60643E+00-1.34972E-01-2.72322E-01-8.31557E-14 6.27708E-13
 -1      2792 2.59428E+01 4.17198E+00-1.77039E-01 8.54978E-01 1.36238E-13 7.22641E-13
 -1      2793 2.76829E+01 3.74495E+00-1.27392E-01 1.64116E+00 2.01367E-13 6.36928E-13
 -1      2794 2.76584E+01 2.12730E+00-1.64623E-01 2.01560E+00 2.24695E-13 6.26763E-13
 -1      2795 2.73462E+01-6.71233E-01-5.72925E-02 1.66508E+00 3.15178E-13 5.89244E-13
 -1      2796 2.71268E+01-2.01823E+00-5.49103E-02 1.21637E+00 4.07081E-13 5.29063E-13
 -1      2797 2.43276E+01-2.70676E+00-1.42786E-02-8.14241E-01 3.79519E-13 4.81088E-13
 -1      2798 2.37998E+01-2.39357E+00 4.03915E-02-1.36972E+00 3.22779E-13 4.35919E-13
 -1      2799 2.29569E+01-1.98230E+00-1.45691E-02-1.80278E+00 2.35787E-13 4.39427E-13
 -1      2800 2.24628E+01-1.46668E+00 2.99023E-02-2.12753E+00 2.55273E-14 2.62525E-13
 -1      2801 2.31577E+01-2.63988E+00-5.02772E-02-2.16387E+00 2.11342E-13 1.43571E-13
 -1      2802 2.18879E+01-9.66154E-01-6.32370E-03-2.25466E+00-4.27614E-14 1.74917E-13
 -1      2803 2.14994E+01-4.71164E-01 1.95043E-02-2.34621E+00-1.28501E-13 2.25226E-13
 -1      2804 2.18612E+01-1.39244E+00-2.40533E-02-2.61485E+00-6.99738E-14 2.17897E-13
 -1      2805 1.98541E+01 4.91765E-02 5.12048E-05-1.42857E-01 2.47111E-14 5.62071E-14
 -1      2806 1.98682E+01 8.09915E-02 3.16203E-03-1.14567E-01-4.77365E-15 5.98372E-14
 -1      2807 2.12378E+01-1.50310E-01-2.79204E-04-2.30613E+00-8.92797E-14 2.69363E-13
 -1      2808 2.10240E+01 1.49100E-01 1.14992E-02-2.25517E+00-1.13350E-13 3.97249E-13
 -1      2809 2.11387E+01-4.09949E-01-1.87156E-02-2.65339E+00-4.82733E-14 4.18626E-14
 -1      2810 1.98911E+01 1.18535E-01-2.58552E-04-7.01135E-02-6.93000E-15 7.64987E-14
 -1      2811 1.99269E+01 1.70137E-01 5.19648E-03-1.46752E-02-1.29879E-15 1.11556E-13
 -1      2812 1.99911E+01 1.35187E-01-2.34332E-03-7.16537E-02 1.76990E-14 4.02081E-14
 -1      2813 1.98425E+01-1.77109E-02 2.62257E-04-1.83775E-01-1.80605E-14 1.10060E-13
 -1      2814 1.98340E+01-6.84572E-03 8.81044E-04-1.83142E-01 2.69879E-14 9.96726E-14
 -1      2815 1.98539E+01-3.04974E-02 2.84953E-04-1.76754E-01 2.21284E-14 6.77501E-14
 -1      2816 1.98409E+01-2.51965E-02 2.95776E-04-1.82133E-01-7.49991E-15 8.61803E-14
 -1      2817 1.99202E+01-2.39574E-02-8.67863E-04-1.87000E-01 6.62214E-15 4.80115E-14
 -1      2818 1.98706E+01-3.52990E-02 2.95582E-04-1.61832E-01 3.54246E-14 8.45324E-14
 -1      2819 1.98556E+01-3.37569E-02-6.85777E-05-1.70154E-01 3.43568E-14 6.53510E-14
 -1      2820 1.99205E+01-3.84134E-02-5.74792E-04-1.80300E-01 2.84241E-14 4.99464E-14
 -1      2821 1.98899E+01-3.46568E-02 3.09239E-04-1.43898E-01-2.43036E-14 6.53669E-14
 -1      2822 1.98743E+01-3.56750E-02-2.81806E-04-1.53050E-01-8.61363E-15 1.02302E-13
 -1      2823 1.99265E+01-4.33280E-02-3.72233E-04-1.65685E-01 9.81206E-15 8.04880E-14
 -1      2824 1.99101E+01-3.02436E-02 3.35073E-04-1.26370E-01 5.04930E-14 7.95736E-14
 -1      2825 1.98947E+01-3.30410E-02-3.93706E-04-1.34879E-01 6.58947E-15 9.45527E-14
 -1      2826 1.99359E+01-4.17086E-02-2.41844E-04-1.48194E-01-4.76759E-15 3.54994E-14
 -1      2827 1.99306E+01-2.31098E-02 3.79808E-04-1.11684E-01 7.65924E-14 9.55356E-14
 -1      2828 1.99156E+01-2.72075E-02-4.40394E-04-1.18496E-01 8.14960E-14 1.19314E-13
 -1      2829 1.99474E+01-3.55232E-02-1.66914E-04-1.31387E-01 5.31638E-14 1.52326E-13
 -1      2830 1.99513E+01-1.38471E-02 4.48885E-04-1.01660E-01 6.98743E-14 1.63069E-13
 -1      2831 1.99366E+01-1.89891E-02-4.47814E-04-1.05973E-01 9.33767E-14 1.61413E-13
 -1      2832 1.99600E+01-2.59924E-02-1.34531E-04-1.17837E-01 7.29828E-14 1.69072E-13
 -1      2833 1.99727E+01-2.71154E-03 5.47101E-04-9.77727E-02 2.65615E-14 1.77070E-13
 -1      2834 1.99578E+01-8.80475E-03-4.34365E-04-9.89197E-02 5.12057E-14 1.68707E-13
 -1      2835 1.99738E+01-1.37869E-02-1.34648E-04-1.09501E-01 4.84089E-14 2.46692E-13
 -1      2836 1.99958E+01 1.02819E-02 6.78594E-04-1.01342E-01-5.41960E-14 3.30893E-13
 -1      2837 1.99798E+01 3.21511E-03-4.13112E-04-9.87051E-02-4.96618E-14 2.07163E-13
 -1      2838 1.99888E+01 8.23758E-04-1.59583E-04-1.07989E-01-2.18944E-14 2.72225E-13
 -1      2839 2.00217E+01 2.52717E-02 8.46384E-04-1.13672E-01-6.96352E-14 3.79037E-13
 -1      2840 2.00038E+01 1.71394E-02-3.92997E-04-1.06626E-01-3.37962E-14 3.68661E-13
 -1      2841 2.00054E+01 1.78511E-02-2.03638E-04-1.14765E-01-7.70848E-14 3.45813E-13
 -1      2842 2.00521E+01 4.24548E-02 1.05147E-03-1.36123E-01 2.57485E-14 2.29869E-13
 -1      2843 2.00311E+01 3.31463E-02-3.79589E-04-1.24009E-01 1.91394E-15 2.78964E-13
 -1      2844 2.00245E+01 3.74739E-02-2.62291E-04-1.31276E-01 3.95347E-14 2.92749E-13
 -1      2845 2.00886E+01 6.19723E-02 1.29150E-03-1.70118E-01 5.85762E-14 1.61680E-13
 -1      2846 2.00632E+01 5.14209E-02-3.75417E-04-1.52251E-01 2.89764E-14 1.73821E-13
 -1      2847 2.00470E+01 5.99110E-02-3.31887E-04-1.59021E-01 8.86633E-14 2.54373E-13
 -1      2848 2.01335E+01 8.37567E-02 1.55870E-03-2.17070E-01 9.67842E-14 1.24632E-13
 -1      2849 2.01022E+01 7.20252E-02-3.79643E-04-1.92792E-01 1.04107E-13 1.91433E-13
 -1      2850 2.00739E+01 8.52658E-02-4.09587E-04-1.99540E-01 9.47759E-14 1.04332E-13
 -1      2851 2.01888E+01 1.07316E-01 1.83714E-03-2.78200E-01 5.65607E-14 1.09311E-13
 -1      2852 2.01501E+01 9.47181E-02-3.86953E-04-2.46986E-01 9.36830E-14 1.24639E-13
 -1      2853 2.01066E+01 1.13315E-01-4.93870E-04-2.54322E-01 9.48867E-14 1.84437E-13
 -1      2854 2.02571E+01 1.31424E-01 2.09900E-03-3.54222E-01-6.07339E-14 1.63003E-13
 -1      2855 2.02094E+01 1.18699E-01-3.85390E-04-3.15870E-01 1.20548E-14 1.38190E-13
 -1      2856 2.01468E+01 1.43215E-01-5.85982E-04-3.24600E-01 7.76800E-15 1.49200E-13
 -1      2857 2.03412E+01 1.53686E-01 2.29998E-03-4.44829E-01-1.40381E-13 2.20581E-14
 -1      2858 2.02829E+01 1.42243E-01-3.52741E-04-3.99751E-01-1.04167E-13 1.89838E-13
 -1      2859 2.01962E+01 1.73076E-01-6.92938E-04-4.11000E-01-9.41744E-14 2.33966E-13
 -1      2860 2.04440E+01 1.69940E-01 2.37396E-03-5.47928E-01-1.39745E-13 5.81637E-14
 -1      2861 2.03736E+01 1.62187E-01-2.51132E-04-4.97587E-01-1.19585E-13 4.50520E-14
 -1      2862 2.02573E+01 1.99383E-01-8.32801E-04-5.12998E-01-1.11025E-13 1.92841E-13
 -1      2863 2.05690E+01 1.73505E-01 2.22713E-03-6.58554E-01-1.42464E-13 1.38454E-13
 -1      2864 2.04853E+01 1.73260E-01-1.99021E-05-6.06075E-01-1.61092E-13 8.22764E-14
 -1      2865 2.03334E+01 2.16213E-01-1.04276E-03-6.28134E-01-2.06984E-13 2.10048E-13
 -1      2866 2.07207E+01 1.54380E-01 1.73331E-03-7.67415E-01-8.42204E-14 1.59146E-13
 -1      2867 2.06227E+01 1.67280E-01 4.31727E-04-7.18376E-01-8.04167E-14 1.01108E-13
 -1      2868 2.04292E+01 2.14294E-01-1.38931E-03-7.50910E-01-1.33059E-13 2.18949E-13
 -1      2869 2.09048E+01 9.87154E-02 7.31510E-04-8.59075E-01-1.30497E-13 2.12808E-13
 -1      2870 2.07919E+01 1.32429E-01 1.22826E-03-8.22440E-01-1.27412E-13 1.84558E-13
 -1      2871 2.05522E+01 1.80077E-01-1.97580E-03-8.71306E-01-1.30283E-13 9.52177E-14
 -1      2872 2.11290E+01-1.06400E-02-9.72933E-04-9.09959E-01-9.12414E-14 1.98744E-13
 -1      2873 2.10015E+01 5.31131E-02 2.51349E-03-8.98966E-01-8.98965E-14 1.85806E-13
 -1      2874 2.07135E+01 9.53425E-02-2.93763E-03-9.72891E-01-1.01947E-13 8.58126E-14
 -1      2875 2.14028E+01-1.90913E-01-3.58805E-03-8.86731E-01 7.07079E-15 2.69047E-13
 -1      2876 2.12621E+01-8.84550E-02 4.39783E-03-9.19263E-01-5.72526E-14 2.35768E-13
 -1      2877 2.09296E+01-6.15327E-02-4.40421E-03-1.03054E+00-1.00572E-13 1.35958E-13
 -1      2878 2.17348E+01-4.50652E-01-7.21226E-03-7.46343E-01-4.29409E-15 3.20577E-13
 -1      2879 2.15854E+01-3.06804E-01 6.81337E-03-8.43813E-01 6.66591E-14 3.28950E-13
 -1      2880 2.12225E+01-3.10342E-01-6.35859E-03-1.00802E+00-8.43236E-15 1.62327E-13
 -1      2881 2.21250E+01-7.72036E-01-1.15702E-02-4.41090E-01-1.73393E-13 1.05970E-13
 -1      2882 2.19779E+01-6.00467E-01 9.25559E-03-6.23805E-01-2.48708E-14 2.55013E-13
 -1      2883 2.16161E+01-6.55886E-01-8.30600E-03-8.56623E-01-7.37171E-15 1.27062E-13
 -1      2884 2.25501E+01-1.08362E+00-1.52243E-02 6.56275E-02-2.42580E-13 1.90967E-13
 -1      2885 2.24265E+01-9.29671E-01 1.02696E-02-2.10809E-01-3.20964E-13 1.24539E-13
 -1      2886 2.21239E+01-1.06323E+00-8.95960E-03-5.18851E-01-2.08981E-13-4.46401E-14
 -1      2887 2.29415E+01-1.23558E+00-1.55148E-02 7.62523E-01 5.93900E-14 3.51589E-13
 -1      2888 2.28755E+01-1.18682E+00 7.40188E-03 4.15899E-01-9.48469E-14 1.94971E-13
 -1      2889 2.27220E+01-1.42093E+00-5.94408E-03 5.39173E-02-2.20408E-13-6.81124E-14
 -1      2890 2.31791E+01-1.01288E+00-9.56827E-03 1.53191E+00-2.19837E-13 3.11856E-13
 -1      2891 2.32090E+01-1.18428E+00-2.73660E-03 1.19700E+00 3.43163E-14 2.73429E-13
 -1      2892 2.33132E+01-1.51894E+00 1.57444E-03 8.51381E-01-1.82285E-14 1.61705E-13
 -1      2893 2.31431E+01-2.29336E-01 1.52417E-02 2.08302E+00-3.38085E-13 3.48921E-13
 -1      2894 2.32588E+01-6.87887E-01-1.90660E-02 1.92371E+00-3.53806E-13 3.28223E-13
 -1      2895 2.37046E+01-1.09054E+00 2.91115E-03 1.74825E+00-2.54722E-13 1.24118E-13
 -1      2896 2.28067E+01 8.96621E-01 2.56560E-02 2.05073E+00 7.95917E-14 3.49135E-13
 -1      2897 2.29540E+01 2.66595E-01-4.50531E-02 2.17778E+00-1.42466E-13 3.66755E-13
 -1      2898 2.36931E+01 7.87800E-02 8.86388E-03 2.35789E+00-3.32368E-13 8.38826E-14
 -1      2899 2.23607E+01 1.88036E+00 1.36922E-02 1.23312E+00 7.89924E-14 5.17195E-13
 -1      2900 2.25052E+01 1.44827E+00-3.07453E-02 1.70656E+00 1.92402E-13 5.44714E-13
 -1      2901 2.34042E+01 1.46740E+00 1.32887E-02 2.11438E+00 1.85563E-14 2.04722E-13
 -1      2902 2.21762E+01 2.02332E+00-2.51824E-02-6.84671E-02 2.73618E-14 4.35327E-13
 -1      2903 2.22326E+01 2.07662E+00-7.68794E-03 5.21237E-01-2.97436E-14 5.74684E-13
 -1      2904 2.29914E+01 2.45987E+00-1.74943E-02 9.70432E-01 6.18533E-14 2.36566E-13
 -1      2905 2.23972E+01 1.20104E+00-5.09147E-02-1.15777E+00 1.19799E-13 4.78807E-13
 -1      2906 2.23422E+01 1.72707E+00 1.27194E-02-7.60038E-01 7.08825E-14 5.62399E-13
 -1      2907 2.29810E+01 2.32405E+00-1.23511E-03-5.28434E-01-3.19094E-14 3.81837E-13
 -1      2908 2.27593E+01 2.92426E-02-3.69034E-02-1.48770E+00 5.01231E-13 4.96328E-13
 -1      2909 2.26757E+01 6.51234E-01 2.40884E-02-1.42355E+00 3.66205E-13 5.03870E-13
 -1      2910 2.33170E+01 1.16615E+00 1.22501E-02-1.48824E+00 2.19360E-13 4.83687E-13
 -1      2911 2.28727E+01-8.61425E-01-1.58547E-02-1.06896E+00 3.65679E-13 4.84794E-13
 -1      2912 2.28521E+01-4.70364E-01 9.37588E-03-1.29146E+00 4.26288E-13 5.65411E-13
 -1      2913 2.35630E+01-2.80837E-01 1.48958E-02-1.49191E+00 4.01259E-13 6.05361E-13
 -1      2914 2.26315E+01-1.18845E+00 7.06964E-04-3.13973E-01 4.27518E-13 3.51317E-13
 -1      2915 2.27061E+01-1.09588E+00-9.16727E-03-6.55239E-01 3.86791E-13 4.56073E-13
 -1      2916 2.33970E+01-1.22697E+00 1.00049E-02-7.87377E-01 4.40281E-13 4.25803E-13
 -1      2917 2.21386E+01-1.02967E+00 1.02453E-02 4.05893E-01 2.31242E-13 3.14310E-13
 -1      2918 2.22972E+01-1.16140E+00-1.63362E-02 9.81644E-02 3.72700E-13 3.84986E-13
 -1      2919 2.28623E+01-1.46933E+00 3.20695E-04 9.17683E-02 4.02860E-13 2.10896E-13
 -1      2920 2.15536E+01-6.06206E-01 1.10248E-02 8.82040E-01 1.96754E-13 1.68978E-13
 -1      2921 2.17571E+01-8.43418E-01-1.61597E-02 6.93103E-01 2.13067E-13 2.79934E-13
 -1      2922 2.21649E+01-1.17002E+00-6.27033E-03 7.96244E-01 2.87693E-13 3.22639E-13
 -1      2923 2.10641E+01-1.68784E-01 7.83250E-03 1.09618E+00-1.50568E-13 1.93804E-13
 -1      2924 2.12806E+01-4.27329E-01-1.28621E-02 1.04545E+00 3.89226E-14 1.43837E-13
 -1      2925 2.15704E+01-6.61226E-01 3.72239E-04 1.22864E+00 2.31714E-13 1.53914E-13
 -1      2926 2.10836E+01-1.11106E-01 5.40575E-03 1.43498E+00-1.90632E-13-7.90369E-14
 -1      2927 6.83227E+00-1.18240E+00 1.50291E-01 6.56515E-01-2.29920E-13-9.27203E-13
 -1      2928 6.48800E+00-1.58834E+00 1.80895E-01-1.89092E+00-7.03257E-14-6.46039E-13
 -1      2929 1.76710E+01 2.05261E+00-2.94177E-02 1.46119E+00 6.69932E-14-8.04217E-13
 -1      2930 1.81333E+01 1.85737E+00 2.16442E-02 2.00905E+00 2.13189E-13-7.63099E-13
 -1      2931 1.97922E+01 7.06169E-01-2.02023E-02 2.77478E+00 5.88209E-13-4.09494E-13
 -1      2932 2.02726E+01 4.40038E-01 1.94253E-02 2.73173E+00 5.89185E-13-4.76043E-13
 -1      2933 1.72834E+01 2.35322E+00-1.01603E-02-5.59092E-02-4.55627E-14-3.89484E-13
 -1      2934 1.73806E+01 2.31295E+00 1.35528E-03 6.60557E-01 5.97447E-14-5.34982E-13
 -1      2935 1.69819E+01 1.79823E+00 3.05831E-02 1.23492E+00 1.14965E-13-7.54839E-13
 -1      2936 1.86686E+01 1.40273E+00-3.17496E-02 2.46877E+00 2.12110E-13-6.63829E-13
 -1      2937 1.92585E+01 1.12717E+00 2.73396E-02 2.71613E+00 3.25479E-13-4.70610E-13
 -1      2938 1.94214E+01 3.26462E-01-1.03228E-02 3.05939E+00 2.82535E-13-7.37982E-13
 -1      2939 1.80442E+01 1.12845E+00 7.62586E-03 2.55597E+00 2.25726E-13-7.04862E-13
 -1      2940 1.77016E+01 2.14291E+00 1.40206E-02-1.55108E+00 5.99824E-15 3.97707E-14
 -1      2941 1.73942E+01 2.26430E+00-2.13243E-02-9.11718E-01-4.59368E-14-4.59320E-14
 -1      2942 1.67493E+01 1.95375E+00 3.30824E-02-5.38459E-01 3.50502E-14-2.24469E-13
 -1      2943 1.87106E+01 1.52983E+00 2.73853E-02-2.57753E+00 2.94252E-16-5.89381E-14
 -1      2944 1.81514E+01 1.76797E+00-3.16696E-02-2.18630E+00 6.32211E-14 1.05038E-13
 -1      2945 1.74676E+01 1.52283E+00 1.78734E-02-2.12473E+00 5.62319E-14 7.55906E-14
 -1      2946 1.98197E+01 8.38587E-01 2.60760E-02-2.89233E+00 2.20834E-14 7.91356E-14
 -1      2947 1.92725E+01 1.09785E+00-2.43093E-02-2.81671E+00 4.13889E-14 8.14657E-14
 -1      2948 1.87677E+01 7.81589E-01-3.25444E-03-3.01019E+00 7.60763E-14 6.60036E-14
 -1      2949 2.49515E+01-5.65121E+00 4.23573E-02-4.18511E+00 3.47555E-13 2.40502E-13
 -1      2950 2.75160E+01-4.93598E+00-9.54659E-02-2.54942E+00 5.11424E-13 3.96447E-13
 -1      2951 2.03089E+01 1.58857E+00-1.18576E-02-1.23656E+00 7.61856E-14-1.77130E-13
 -1      2952 2.03273E+01 1.23134E+00 1.27878E-02-9.68617E-01 6.83050E-14-1.76077E-13
 -1      2953 2.02434E+01 9.49678E-01-5.21541E-03-7.22762E-01 4.87440E-14-1.61036E-13
 -1      2954 2.01594E+01 2.04616E+00 1.17161E-04-1.13954E+00 1.11148E-13-1.36078E-13
 -1      2955 2.95599E+01 3.84372E+00-9.83495E-02 2.35706E+00-1.09496E-13-5.14727E-13
 -1      2956 2.89831E+01 5.31237E+00-2.03051E-01 1.92285E+00-1.76276E-13-5.90195E-13
 -1      2957 1.99605E+01 2.30905E-01-8.23158E-04 6.34348E-02 9.16183E-15 1.30104E-13
 -1      2958 2.00263E+01 3.14787E-01 7.83959E-03 1.61100E-01 2.69949E-14 1.44058E-13
 -1      2959 2.01458E+01 4.77736E-01-1.81988E-03 2.81146E-01 4.12954E-14 1.30267E-13
 -1      2960 2.00558E+01 2.65694E-01-2.70703E-03 6.14508E-02 1.37671E-14 1.17224E-13
 -1      2961 1.98405E+01 6.88882E-03 2.00179E-04-1.75858E-01 2.57785E-14 7.91174E-14
 -1      2962 1.98405E+01 2.60670E-02 1.78684E-03-1.64721E-01 3.22881E-14 5.64679E-14
 -1      2963 1.99506E+01 5.40169E-02-1.77670E-03-1.44961E-01 3.40676E-14 2.28577E-15
 -1      2964 1.99287E+01 4.56113E-03-1.26791E-03-1.78616E-01 2.96552E-15 4.25303E-14
 -1      2965 1.99237E+01 2.59558E+00-7.90985E-03 7.94896E-01 1.36520E-13 1.06264E-13
 -1      2966 1.98801E+01 2.68765E+00-6.12909E-03 6.45854E-01 1.36936E-13 7.07047E-14
 -1      2967 1.99989E+01 2.38793E+00 4.34661E-03 5.17139E-01 1.22105E-13 5.17649E-14
 -1      2968 2.00803E+01 2.19033E+00 5.68352E-03 7.46130E-01 1.16441E-13 1.00831E-13
 -1      2969 6.46680E+00-8.57701E-01 1.65642E-01 1.68346E-01 1.97146E-13 1.42525E-13
 -1      2970 6.94731E+00-1.11889E+00 8.85205E-02-2.38164E+00 1.44336E-13-1.20737E-13
 -1      2971 2.91595E+01 6.02368E+00-1.65000E-01-1.37564E+00 1.29952E-13 4.78131E-13
 -1      2972 2.95132E+01 5.04222E+00-1.97038E-01-2.28896E+00-7.34413E-14 2.97123E-13
 -1      2973 1.98754E+01 2.69655E+00-5.96722E-03-6.35361E-01 1.47641E-13-9.27299E-14
 -1      2974 1.99175E+01 2.60593E+00-8.09245E-03-7.85418E-01 1.51051E-13-1.00208E-13
 -1      2975 8.45227E+00-2.18921E+00 8.82354E-02 4.27844E+00 3.23297E-13-3.09835E-13
 -1      2976 6.91603E+00-1.35156E+00 1.43756E-01 2.32680E+00 1.82139E-13-7.76879E-14
 -1      2977 2.77277E+01-3.62918E+00-3.44898E-02-8.74459E-01 8.80650E-14-8.53817E-13
 -1      2978 2.88833E+01-2.30921E+00-1.25792E-01 2.28749E-01 1.03934E-13-7.84928E-13
 -1      2979 2.98582E+01 3.78251E+00-1.81283E-01-2.60980E+00-2.55712E-13 3.58075E-13
 -1      2980 3.01589E+01 1.84677E+00-1.33452E-01-2.69436E+00-3.51774E-13 3.95572E-13
 -1      2981 2.84272E+01 3.29174E+00-9.83886E-02-2.73227E+00-2.04392E-13 5.42039E-13
 -1      2982 1.49700E+01-4.40042E+00-1.45033E-02 6.12615E+00 2.96430E-13-5.64687E-14
 -1      2983 1.13632E+01-3.01945E+00 1.83911E-01 5.36531E+00 3.40214E-13-1.00808E-13
 -1      2984 9.13102E+00-1.87357E+00 1.66974E-01-4.42543E+00 1.41137E-13-4.88942E-13
 -1      2985 1.17083E+01-3.05427E+00 1.00142E-01-5.88698E+00 1.62564E-13-6.90170E-13
 -1      2986 2.23031E+01-5.80136E+00-3.26361E-02 4.60227E+00 2.63678E-14-1.59650E-13
 -1      2987 1.92902E+01-5.24131E+00 1.50273E-01 5.47950E+00 1.78468E-13-2.63387E-13
 -1      2988 2.94627E+01-3.88417E-01-7.60523E-02 1.32615E+00 1.97342E-14-6.14397E-13
 -1      2989 2.95399E+01 1.68913E+00-2.14120E-01 2.01929E+00 2.04003E-15-3.61100E-13
 -1      2990 2.84379E+01-1.47226E+00-5.14147E-02 1.36500E+00 5.95565E-14-5.52725E-13
 -1      2991 2.07643E+01 3.10682E-01-4.39211E-03-2.48816E+00-3.08670E-14 9.37021E-14
 -1      2992 2.03378E+01 1.50016E+00-1.90432E-03 1.26743E+00 5.35440E-14 2.01873E-13
 -1      2993 1.77506E+01-4.98654E+00 3.15334E-02 6.81836E+00 6.65856E-14-7.23185E-13
 -1      2994 1.43373E+01-4.08329E+00 2.18972E-01 6.78367E+00 9.42579E-14-7.18051E-13
 -1      2995 7.47024E+00-2.01345E+00 1.53501E-01-3.52497E+00-2.03448E-14-3.69871E-13
 -1      2996 9.46555E+00-2.65384E+00 1.04070E-01-5.22760E+00 1.02876E-13-3.52190E-13
 -1      2997 8.91462E+00-1.01126E+00 1.90234E-01-2.59660E+00-8.96505E-14-5.39901E-13
 -1      2998 2.95178E+01 1.13381E+00-1.82884E-01-1.38228E+00-5.74124E-14-1.11372E-12
 -1      2999 2.96735E+01-4.95279E-01-7.50104E-02-8.93597E-01-5.98688E-14-1.08352E-12
 -1      3000 1.99744E+01 2.48504E+00-6.14065E-03-9.00541E-01 1.39782E-13-9.49575E-14
 -1      3001 2.00282E+01 2.33738E+00-1.52536E-02-1.04495E+00 1.26233E-13-1.17028E-13
 -1      3002 2.00728E+01 2.20251E+00 5.14516E-03-7.36953E-01 1.25207E-13-8.82004E-14
 -1      3003 1.99337E+01 2.53800E+00 3.43451E-03 4.58944E-03 1.48417E-13-1.98702E-15
 -1      3004 1.97946E+01 2.86953E+00-5.48903E-03-6.19495E-02 1.60079E-13-3.15134E-15
 -1      3005 1.98021E+01 2.85493E+00-5.53990E-03-2.16741E-01 1.67583E-13-2.15457E-14
 -1      3006 2.20406E+01-4.98853E+00 1.10106E-01-5.20917E+00 1.09274E-13 7.31845E-14
 -1      3007 2.36937E+01-5.70963E+00 4.85384E-02-4.85458E+00 2.04017E-13 1.60420E-13
 -1      3008 2.48924E+01-5.24235E+00-8.53379E-02-3.31898E+00 3.25292E-13 3.25125E-13
 -1      3009 2.71493E+01 4.53393E+00-1.32619E-01 1.98085E+00-2.96707E-13-5.41733E-13
 -1      3010 2.82881E+01 5.72862E+00-1.56537E-01 1.54269E+00-2.11109E-13-6.23390E-13
 -1      3011 2.71999E+01 5.70415E+00-1.77506E-01 1.02428E+00-2.95597E-13-7.51395E-13
 -1      3012 1.21163E+01-2.45937E+00 1.63354E-01-5.41929E+00 8.83460E-14-5.27495E-13
 -1      3013 1.72859E+01-4.36871E+00 1.39294E-01-6.44668E+00 1.29494E-13-3.52149E-13
 -1      3014 2.41332E+01-5.53564E+00 7.38466E-02 3.47057E+00-1.10287E-13 1.33452E-13
 -1      3015 2.31057E+01-5.08652E+00 9.83036E-02 3.59459E+00-2.97123E-14-6.10124E-14
 -1      3016 2.53599E+01-5.36147E+00-1.28441E-01 2.21403E+00-1.88662E-13 1.47639E-13
 -1      3017 2.74289E+01-1.40186E+00-3.06428E-02-2.42375E+00-3.63647E-13 4.27852E-13
 -1      3018 2.66792E+01-3.52959E-01-9.41388E-02-2.97107E+00-5.28459E-13 4.28404E-13
 -1      3019 2.69767E+01 2.04778E+00-9.38155E-02-3.04063E+00-2.41668E-13 5.49435E-13
 -1      3020 2.66044E+01 1.15507E+00-5.09776E-02-2.95356E+00-4.18547E-13 5.85650E-13
 -1      3021 2.74596E+01-3.26179E+00-7.47478E-02 2.85460E-02 3.49176E-13 3.30010E-13
 -1      3022 2.58551E+01-2.54499E+00-1.79151E-02 5.95230E-01 2.95469E-13 6.42514E-13
 -1      3023 2.54320E+01-2.84813E+00 2.19491E-02-8.64789E-02 3.28712E-13 4.99775E-13
 -1      3024 2.02903E+01 1.58748E+00-1.21274E-03 1.16629E+00 6.98777E-14 1.57326E-13
 -1      3025 7.92287E+00-1.00272E+00 2.41533E-01 2.11341E+00-8.79956E-14-9.01029E-13
 -1      3026 8.54243E+00-4.87491E-01 1.55678E-01 5.18047E-01 2.40138E-14-6.91502E-13
 -1      3027 9.16832E+00-1.26432E+00 4.88627E-02 3.30677E+00 3.97668E-14-9.05526E-13
 -1      3028 2.10740E+01-1.18812E-01 7.75504E-03 1.76189E+00-2.37435E-14-9.00874E-15
 -1      3029 2.12919E+01-4.52139E-01-8.30318E-03 1.72025E+00 6.86386E-14 1.72000E-13
 -1      3030 2.09757E+01-6.96436E-03 1.55008E-03 2.04521E+00 5.27313E-15 6.16332E-14
 -1      3031 2.68331E+01-4.44776E+00-4.00347E-02-1.66945E+00 8.10185E-14-9.89570E-13
 -1      3032 2.69327E+01-3.73427E+00-6.31892E-02-2.45930E-01 1.31296E-13-8.39648E-13
 -1      3033 2.55306E+01-4.83909E+00 1.65745E-02-2.39179E+00 1.90029E-13-1.01280E-12
 -1      3034 2.80018E+01-4.11757E+00-5.48949E-04-1.07070E+00 3.33546E-13 3.58616E-13
 -1      3035 2.04563E+01 5.45531E-01-7.39404E-04-2.65052E+00-2.90243E-14-4.64130E-14
 -1      3036 1.33048E+01-2.96257E+00 1.59317E-01 5.94481E+00 1.31686E-13-8.74883E-13
 -1      3037 2.02657E+01 1.02534E+00-6.74103E-04-6.70590E-01 5.34356E-14-1.20475E-13
 -1      3038 2.93863E+01 5.20183E+00-1.35470E-01 1.06181E+00 1.47049E-13 6.79345E-13
 -1      3039 2.90667E+01 6.19526E+00-2.20788E-01-9.96386E-02 2.33397E-13 6.66380E-13
 -1      3040 2.50079E+01-3.48226E+00-6.25991E-02-1.14189E+00 2.49297E-13 2.91600E-13
 -1      3041 2.67965E+01-5.10438E+00 1.42427E-02 3.24295E+00-1.19904E-13-5.78773E-13
 -1      3042 2.52988E+01-5.40604E+00 3.17219E-02 3.90072E+00-5.11396E-14-6.12101E-13
 -1      3043 2.74244E+01-4.42918E+00-9.17231E-02 1.70765E+00-1.15585E-13-8.33833E-13
 -1      3044 2.77131E+01 5.26936E+00-1.44783E-01-1.01370E+00-1.47105E-15 7.01252E-13
 -1      3045 2.12196E+01-5.52310E+00 9.01697E-02-5.37993E+00 1.68254E-13-5.38389E-13
 -1      3046 2.30845E+01-5.44121E+00-3.06050E-02-4.09710E+00 1.43691E-13-8.36185E-13
 -1      3047 1.97347E+01-5.00796E+00 9.22062E-02-5.57789E+00 1.02959E-13-5.00565E-13
 -1      3048 2.07679E+01-1.29153E-01 1.68532E-02-2.86064E+00-7.86940E-14-1.43935E-13
 -1      3049 2.01889E+01 4.27026E-01-1.46132E-02-2.90724E+00-4.99521E-14-1.29335E-13
 -1      3050 2.00074E+01 3.37810E-02-5.38654E-03-3.18862E+00 4.95140E-14-1.01425E-14
 -1      3051 2.09939E+01-5.51644E-01 3.77434E-03-2.92457E+00-1.14137E-13-1.06476E-13
 -1      3052 1.40214E+01-3.44323E+00 1.50703E-01-5.96066E+00 2.34535E-14-6.23182E-13
 -1      3053 1.63704E+01-3.90252E+00 3.19676E-02-5.77537E+00 1.83187E-15-5.10578E-13
 -1      3054 1.37824E+01-2.41122E+00 8.79057E-02-5.25258E+00 1.69864E-13-4.88415E-13
 -1      3055 1.15943E+01-2.02483E+00 1.81831E-01 4.54026E+00 3.87052E-13-4.38538E-14
 -1      3056 2.05696E+01 2.51710E-01-5.75850E-03 2.53853E+00 4.25122E-13-2.64161E-13
 -1      3057 2.08434E+01 5.63874E-02 1.16039E-02 2.32126E+00 1.23125E-13 8.53482E-14
 -1      3058 2.10803E+01-4.08228E-01-5.97164E-03 2.35920E+00 1.84654E-13 1.44179E-13
 -1      3059 2.04985E+01-2.00154E-01-1.16400E-02 2.86424E+00 5.21343E-13-1.65379E-13
 -1      3060 2.88016E+01 5.93730E+00-1.63758E-01-7.62893E-01-9.44522E-14-9.49456E-13
 -1      3061 2.77535E+01 4.93515E+00-1.01057E-01-1.31826E+00-8.45712E-14-1.00766E-12
 -1      3062 2.73461E+01 5.89687E+00-1.34006E-01-3.58280E-01-1.77802E-13-1.03164E-12
 -1      3063 2.84328E+01 2.42795E+00-3.08274E-02 2.51845E+00-1.64327E-13-4.56885E-13
 -1      3064 1.98176E+01 2.81943E+00-5.69834E-03-3.52025E-01 1.65437E-13-1.09687E-14
 -1      3065 1.98416E+01 2.77105E+00-6.26406E-03-5.05772E-01 1.49011E-13-4.24305E-14
 -1      3066 1.99944E+01 2.39583E+00 4.25113E-03-5.08131E-01 1.28685E-13-6.21172E-14
 -1      3067 1.99484E+01 2.50392E+00 3.62970E-03-2.55951E-01 1.46689E-13-2.04766E-14
 -1      3068 2.76852E+01 3.14632E+00-2.18600E-01-1.82668E+00-6.36435E-14-9.72070E-13
 -1      3069 2.89772E+01 2.21883E+00-1.17346E-01-1.74950E+00-6.18394E-14-1.02625E-12
 -1      3070 2.79113E+01 9.84621E-01-5.94682E-02-1.74958E+00-2.46886E-14-1.03564E-12
 -1      3071 2.88592E+01-1.83730E+00-4.94035E-02-2.82303E-01-1.08875E-13-1.08119E-12
 -1      3072 2.94385E+01 3.58876E-01-8.73487E-02-2.41809E+00-2.50480E-13 3.19439E-13
 -1      3073 8.38669E+00-5.19505E-01 1.99161E-01 1.12563E+00 2.18055E-13-3.73868E-14
 -1      3074 1.79273E+01-4.25282E+00 1.29390E-01 5.27486E+00 1.97647E-13-2.19880E-13
 -1      3075 2.02792E+01 1.36616E+00 2.02133E-03 9.20078E-01 7.10587E-14 1.46409E-13
 -1      3076 2.20353E+01-5.42716E+00 7.76673E-03 5.46251E+00-2.15522E-14-6.58295E-13
 -1      3077 2.00867E+01-5.30684E+00 1.21610E-01 6.37097E+00-3.58602E-14-6.29202E-13
 -1      3078 1.85784E+01-4.35968E+00 6.51481E-02 6.23098E+00-2.20934E-14-7.27737E-13
 -1      3079 3.04441E+01 6.69653E-01-5.78320E-02 1.52547E+00 3.64583E-13 8.45712E-14
 -1      3080 3.00136E+01 2.42931E+00-1.70732E-01 1.91381E+00 3.13138E-13 2.35451E-13
 -1      3081 2.93309E+01-6.01492E-01-3.00509E-03 1.52063E+00 3.14221E-13 3.77059E-13
 -1      3082 2.02402E+01 1.48121E+00-6.08419E-03 8.03755E-01 6.28804E-14 1.31685E-13
 -1      3083 2.02018E+01 1.66912E+00-2.45456E-04 7.47751E-01 7.50483E-14 1.12651E-13
 -1      3084 2.73833E+01-2.15377E+00-8.81758E-03 1.18358E+00 2.08045E-13-7.12423E-13
 -1      3085 2.74263E+01-7.87652E-01-1.84971E-01 2.03524E+00 1.31173E-13-7.24067E-13
 -1      3086 9.77582E+00-9.51636E-01 1.79308E-01-3.15807E+00 2.46782E-13-3.12833E-13
 -1      3087 2.81566E+01 9.05837E-01-1.36959E-01-3.00818E+00-3.70926E-13 5.62800E-13
 -1      3088 2.02210E+01 4.22432E-01 4.01580E-03-1.21119E-01 1.23683E-15-6.87793E-14
 -1      3089 2.01818E+01 3.14614E-01-2.35068E-03-3.63518E-02-1.49253E-14-8.29177E-14
 -1      3090 2.01677E+01 2.31119E-01 3.16435E-03 2.50057E-02-3.71066E-14-7.07374E-14
 -1      3091 2.01374E+01 1.60634E-01-1.30821E-03 7.58624E-02-5.19439E-14-7.51336E-14
 -1      3092 2.02381E+01 3.31273E-01-8.85181E-04-2.73879E-02-3.01254E-14-4.87399E-14
 -1      3093 2.01207E+01 1.06748E-01 2.23396E-03 1.11677E-01-5.48113E-14-7.01073E-14
 -1      3094 2.00996E+01 6.17693E-02-6.18848E-04 1.38852E-01-4.78378E-14-7.24205E-14
 -1      3095 2.01975E+01 1.67080E-01-1.03068E-03 7.51818E-02-5.17658E-14-1.38106E-14
 -1      3096 2.00834E+01 2.80306E-02 1.46352E-03 1.56576E-01-3.18643E-14-5.16935E-14
 -1      3097 2.00699E+01 5.84247E-04-1.77432E-04 1.67929E-01-1.34252E-14-4.32639E-14
 -1      3098 2.01587E+01 6.11481E-02-9.80103E-04 1.33097E-01-3.19989E-14-1.31854E-14
 -1      3099 2.00556E+01-1.93057E-02 8.75492E-04 1.73587E-01 2.98262E-14-1.45869E-14
 -1      3100 2.00478E+01-3.46267E-02 9.91622E-05 1.74948E-01 5.31544E-14 3.86542E-15
 -1      3101 2.01249E+01-4.28626E-03-8.51706E-04 1.59879E-01 3.50467E-14 3.37859E-14
 -1      3102 2.00357E+01-4.49387E-02 4.48600E-04 1.73154E-01 5.78084E-14-4.41004E-15
 -1      3103 2.00321E+01-5.18574E-02 2.69164E-04 1.68756E-01 7.95620E-14-1.63429E-14
 -1      3104 2.00969E+01-4.15039E-02-7.07543E-04 1.66315E-01 7.19649E-14-2.41303E-15
 -1      3105 2.00222E+01-5.55275E-02 1.49275E-04 1.62932E-01 6.81070E-14-2.69423E-14
 -1      3106 2.00215E+01-5.66102E-02 3.72731E-04 1.55812E-01 5.65219E-14-2.09850E-14
 -1      3107 2.00745E+01-5.90446E-02-5.72196E-04 1.60616E-01 6.63268E-14-3.53643E-14
 -1      3108 2.00136E+01-5.56447E-02-5.66624E-05 1.48448E-01 2.96393E-14 1.08168E-14
 -1      3109 2.00150E+01-5.26261E-02 4.38133E-04 1.40782E-01-2.14994E-15 2.05050E-14
 -1      3110 2.00571E+01-6.28442E-02-4.54987E-04 1.48853E-01 6.29403E-14-5.82311E-14
 -1      3111 2.00088E+01-4.83535E-02-1.99017E-04 1.33685E-01-8.84288E-15 5.39094E-14
 -1      3112 2.00117E+01-4.23483E-02 4.85859E-04 1.27051E-01 9.06337E-15 6.99228E-14
 -1      3113 2.00439E+01-5.69407E-02-3.56875E-04 1.35457E-01 3.06018E-14 1.54002E-14
 -1      3114 2.00068E+01-3.55871E-02-3.02296E-04 1.21558E-01-7.43401E-15 5.01656E-14
 -1      3115 2.00108E+01-2.72381E-02 5.30850E-04 1.17147E-01-2.18852E-14 5.91004E-14
 -1      3116 2.00341E+01-4.39509E-02-2.75522E-04 1.23677E-01-2.49231E-16 8.39511E-15
 -1      3117 2.00069E+01-1.84180E-02-3.86209E-04 1.14300E-01-6.91294E-14 5.97534E-14
 -1      3118 2.00118E+01-8.00694E-03 5.83810E-04 1.13077E-01-1.27084E-13 5.17920E-14
 -1      3119 2.00269E+01-2.54081E-02-2.06995E-04 1.15974E-01-6.68250E-14 8.57657E-14
 -1      3120 2.00085E+01 2.74130E-03-4.66780E-04 1.13757E-01-1.37771E-13 8.83025E-14
 -1      3121 2.00144E+01 1.52110E-02 6.52556E-04 1.16584E-01-1.43642E-13 1.67006E-13
 -1      3122 2.00215E+01-2.01532E-03-1.46041E-04 1.14332E-01-8.27108E-14 1.13327E-13
 -1      3123 2.00112E+01 2.79854E-02-5.57241E-04 1.21614E-01-1.52307E-13 2.17346E-13
 -1      3124 2.00181E+01 4.27207E-02 7.42506E-04 1.29338E-01-1.03311E-13 1.84953E-13
 -1      3125 2.00171E+01 2.61601E-02-8.66450E-05 1.20496E-01-1.38185E-13 1.67050E-13
 -1      3126 2.00145E+01 5.77881E-02-6.68689E-04 1.39557E-01-5.13558E-14 1.71098E-13
 -1      3127 2.00226E+01 7.51446E-02 8.56841E-04 1.53081E-01 3.09916E-15 1.63404E-13
 -1      3128 2.00128E+01 5.95287E-02-2.18182E-05 1.36147E-01-7.77812E-14 2.23020E-13
 -1      3129 2.00180E+01 9.28814E-02-8.10572E-04 1.69395E-01 2.35198E-15 1.49944E-13
 -1      3130 2.00273E+01 1.13299E-01 9.96414E-04 1.89707E-01-4.86843E-14 1.20550E-13
 -1      3131 2.00076E+01 9.88335E-02 5.67072E-05 1.63027E-01-3.49167E-14 1.43930E-13
 -1      3132 2.00210E+01 1.34123E-01-9.90843E-04 2.13110E-01-7.53620E-14 1.23252E-13
 -1      3133 2.00316E+01 1.58043E-01 1.15961E-03 2.41295E-01-3.24912E-14 3.47151E-14
 -1      3134 2.00004E+01 1.44998E-01 1.58620E-04 2.03012E-01-8.61665E-14 7.05279E-14
 -1      3135 2.00227E+01 1.82321E-01-1.21559E-03 2.72871E-01-1.34216E-14 2.76512E-14
 -1      3136 2.00346E+01 2.10074E-01 1.34242E-03 3.10081E-01 4.37290E-14-3.93868E-14
 -1      3137 1.99894E+01 1.98936E-01 2.94865E-04 2.58118E-01-4.99818E-14-2.28313E-14
 -1      3138 2.00220E+01 2.37985E-01-1.48791E-03 3.50969E-01 3.57511E-14-4.20666E-14
 -1      3139 2.00351E+01 2.69614E-01 1.53915E-03 3.98359E-01-4.31633E-14-3.94170E-14
 -1      3140 1.99728E+01 2.61292E-01 4.76701E-04 3.30474E-01 4.38801E-14 2.15309E-15
 -1      3141 2.00173E+01 3.00931E-01-1.80562E-03 4.49696E-01-8.35746E-14 1.25344E-13
 -1      3142 2.00315E+01 3.35909E-01 1.74493E-03 5.08303E-01-4.83810E-14 1.58371E-13
 -1      3143 1.99482E+01 3.32046E-01 7.13142E-04 4.22221E-01 3.72962E-14 3.80906E-14
 -1      3144 2.00070E+01 3.69650E-01-2.15712E-03 5.71150E-01-4.74882E-14 1.36112E-13
 -1      3145 2.00220E+01 4.06440E-01 1.96141E-03 6.41707E-01 1.46513E-14 6.96899E-14
 -1      3146 1.99127E+01 4.09905E-01 1.00534E-03 5.35386E-01-6.19799E-14 1.79916E-13
 -1      3147 1.99894E+01 4.40311E-01-2.51421E-03 7.16963E-01 6.93570E-14-3.53114E-14
 -1      3148 2.00052E+01 4.75661E-01 2.20806E-03 7.99652E-01 2.27742E-14-1.09234E-14
 -1      3149 1.98631E+01 4.91342E-01 1.33552E-03 6.71742E-01-2.28486E-14 2.25396E-14
 -1      3150 1.99635E+01 5.05192E-01-2.81986E-03 8.87998E-01 1.21045E-13 1.85969E-15
 -1      3151 1.99812E+01 5.33077E-01 2.54222E-03 9.82121E-01 2.49237E-13 6.13768E-14
 -1      3152 1.97967E+01 5.69129E-01 1.64699E-03 8.32735E-01 1.12289E-13 4.30837E-14
 -1      3153 1.99309E+01 5.50332E-01-2.96567E-03 1.08404E+00 3.09004E-13 4.10073E-14
 -1      3154 1.99541E+01 5.60404E-01 3.08902E-03 1.18761E+00 2.80899E-13 1.40711E-13
 -1      3155 1.97123E+01 6.30129E-01 1.81015E-03 1.01959E+00 2.97466E-13 8.88040E-14
 -1      3156 1.98992E+01 5.52187E-01-2.74466E-03 1.30354E+00 1.76059E-13 9.52872E-14
 -1      3157 1.99361E+01 5.27687E-01 4.06885E-03 1.41275E+00 1.22439E-13 1.19684E-13
 -1      3158 1.96131E+01 6.52122E-01 1.56688E-03 1.23376E+00 2.10076E-13 2.49932E-14
 -1      3159 1.98875E+01 4.73296E-01-1.74717E-03 1.54319E+00 9.67937E-14 1.03268E-13
 -1      3160 1.99552E+01 3.88582E-01 5.75504E-03 1.65142E+00 1.47660E-13 1.62022E-13
 -1      3161 1.95112E+01 5.99385E-01 4.36728E-04 1.47784E+00 1.19143E-13 5.83857E-14
 -1      3162 1.99369E+01 2.57855E-01 8.11424E-04 1.79614E+00 6.71734E-14 6.55857E-14
 -1      3163 2.00671E+01 7.69158E-02 8.40044E-03 1.89169E+00 3.18566E-14 4.28820E-14
 -1      3164 1.94366E+01 4.17201E-01-2.40210E-03 1.75610E+00 8.13310E-14-5.46080E-14
 -1      3165 2.01252E+01-1.68737E-01 6.36694E-03 2.04659E+00 1.00129E-13 1.25424E-14
 -1      3166 2.03693E+01-4.91281E-01 1.11126E-02 2.10773E+00 1.06568E-13 9.98203E-15
 -1      3167 1.94506E+01 2.76127E-02-8.42862E-03 2.07127E+00 3.76691E-14-1.95221E-13
 -1      3168 2.05896E+01-8.88313E-01 1.81532E-02 2.25402E+00 1.61413E-13-1.63951E-14
 -1      3169 2.10188E+01-1.38944E+00 1.47523E-02 2.24183E+00 1.03748E-13-8.64129E-14
 -1      3170 1.96604E+01-6.71880E-01-2.33889E-02 2.41712E+00 8.94129E-14-3.26357E-13
 -1      3171 2.15390E+01-1.96340E+00 3.98095E-02 2.29275E+00 1.25928E-14 1.53662E-14
 -1      3172 2.21910E+01-2.60824E+00 9.94472E-03 2.10425E+00 1.78642E-14 4.46925E-14
 -1      3173 2.03020E+01-1.81827E+00-5.41661E-02 2.73085E+00 1.20436E-13-1.42579E-13
 -1      3174 2.50744E+01-4.16141E+00 6.77035E-02 1.25166E+00-8.48358E-14 2.42372E-13
 -1      3175 2.61955E+01-4.03890E+00 1.20856E-02 4.14516E-01-1.13722E-13 2.85577E-13
 -1      3176 2.65442E+01-4.28002E+00 7.66005E-02-1.41634E+00 4.34661E-13 3.45800E-13
 -1      3177 2.19861E+01-1.88337E+00 1.91388E-02-2.97387E+00-2.74563E-15-1.48908E-13
 -1      3178 2.14148E+01-1.20457E+00 2.69175E-02-3.04349E+00-1.07347E-13-5.18223E-14
 -1      3179 2.08323E+01-1.00328E+00-9.87523E-03-3.29401E+00-1.11855E-13-2.69359E-13
 -1      3180 2.00726E+01 1.50181E-01-1.12479E-03-7.54821E-02 5.24516E-14 2.70620E-14
 -1      3181 2.01051E+01 2.15413E-01 3.66191E-03-2.20908E-02 2.84383E-14 5.74444E-14
 -1      3182 1.99839E+01-4.52404E-02 2.75478E-04-1.74626E-01-6.62102E-15 2.72379E-14
 -1      3183 1.99831E+01-3.86475E-02 4.30701E-04-1.79401E-01 1.79528E-14 1.49409E-14
 -1      3184 1.99925E+01-2.90339E-02 1.34803E-04-1.81161E-01 1.88040E-14-8.34159E-15
 -1      3185 1.99962E+01-1.48574E-02 9.05978E-04-1.79949E-01 1.73579E-15 5.85342E-15
 -1      3186 2.00497E+01-3.58112E-02-7.55518E-04-1.75584E-01 8.70464E-15-3.94414E-14
 -1      3187 1.99810E+01-4.75879E-02 4.16106E-04-1.44556E-01-2.41775E-14 4.39504E-14
 -1      3188 1.99758E+01-4.98601E-02-1.03598E-04-1.52869E-01-2.91988E-14 3.41629E-14
 -1      3189 1.99842E+01-3.93950E-02 4.59607E-04-1.29317E-01-2.70569E-15 1.39434E-13
 -1      3190 1.99778E+01-4.42678E-02-2.40441E-04-1.36719E-01-2.99130E-14 8.46401E-14
 -1      3191 2.00151E+01-5.29883E-02-3.28660E-04-1.41780E-01-7.53119E-14 1.05622E-14
 -1      3192 1.99895E+01-2.70906E-02 5.04995E-04-1.17637E-01 2.38049E-14 1.50602E-13
 -1      3193 1.99823E+01-3.39450E-02-3.29840E-04-1.22962E-01 5.31380E-14 1.70682E-13
 -1      3194 2.00112E+01-4.23808E-02-2.51802E-04-1.28231E-01 3.79343E-15 9.37163E-14
 -1      3195 1.99964E+01-1.14210E-02 5.61933E-04-1.11487E-01 3.54576E-14 1.70343E-13
 -1      3196 1.99885E+01-1.99424E-02-3.92581E-04-1.13814E-01 2.21964E-14 1.51281E-13
 -1      3197 2.00097E+01-2.69763E-02-1.97552E-04-1.18559E-01-2.12307E-15 1.33162E-13
 -1      3198 2.00049E+01 7.33376E-03 6.37517E-04-1.12517E-01-9.25655E-14 2.88678E-13
 -1      3199 1.99961E+01-2.76311E-03-4.44676E-04-1.11058E-01-2.18241E-14 2.70768E-13
 -1      3200 2.00100E+01-7.56127E-03-1.59721E-04-1.14760E-01-6.72128E-14 1.65375E-13
 -1      3201 2.00151E+01 2.92178E-02 7.36706E-04-1.22248E-01-3.79277E-14 2.08269E-13
 -1      3202 2.00051E+01 1.74869E-02-4.98125E-04-1.16259E-01-6.74981E-14 2.35962E-13
 -1      3203 2.00118E+01 1.55968E-02-1.33582E-04-1.18535E-01-5.93113E-14 2.12168E-13
 -1      3204 2.00272E+01 5.44528E-02 8.62144E-04-1.42198E-01 2.40916E-14 2.09355E-13
 -1      3205 2.00156E+01 4.09553E-02-5.61149E-04-1.30928E-01-5.62241E-15 2.03883E-13
 -1      3206 2.00146E+01 4.25798E-02-1.14561E-04-1.31474E-01 1.42960E-14 1.16081E-13
 -1      3207 2.00416E+01 8.32780E-02 1.01403E-03-1.73931E-01 9.94591E-14 1.63748E-13
 -1      3208 2.00279E+01 6.78926E-02-6.38571E-04-1.56608E-01 9.73732E-14 1.92183E-13
 -1      3209 2.00182E+01 7.36390E-02-9.89389E-05-1.55164E-01 5.01538E-14 1.50292E-13
 -1      3210 2.00588E+01 1.15752E-01 1.18957E-03-2.19046E-01 1.13182E-13 1.27762E-13
 -1      3211 2.00423E+01 9.84766E-02-7.31254E-04-1.94897E-01 9.63514E-14 1.69110E-13
 -1      3212 2.00223E+01 1.08995E-01-8.42678E-05-1.91243E-01 1.27740E-13 1.34485E-13
 -1      3213 2.00795E+01 1.51484E-01 1.38227E-03-2.79071E-01 3.60041E-14 2.10935E-13
 -1      3214 2.00595E+01 1.32584E-01-8.34841E-04-2.47396E-01 6.53623E-14 1.96469E-13
 -1      3215 2.00269E+01 1.48585E-01-7.03983E-05-2.41375E-01 7.17579E-14 3.14415E-13
 -1      3216 2.01044E+01 1.89270E-01 1.58131E-03-3.55264E-01-3.54940E-14 2.49961E-13
 -1      3217 2.00802E+01 1.69480E-01-9.37501E-04-3.15563E-01 3.49522E-14 2.35823E-13
 -1      3218 2.00318E+01 1.91731E-01-6.14974E-05-3.07151E-01 7.12390E-15 3.65217E-13
 -1      3219 2.01351E+01 2.26573E-01 1.77108E-03-4.48267E-01-1.00560E-13 1.92091E-13
 -1      3220 2.01055E+01 2.07381E-01-1.01628E-03-4.00453E-01-6.39336E-14 2.31989E-13
 -1      3221 2.00375E+01 2.36668E-01-6.96489E-05-3.89890E-01-1.64780E-15 2.00716E-13
 -1      3222 2.01734E+01 2.58822E-01 1.93112E-03-5.57606E-01-9.92633E-14 1.56029E-13
 -1      3223 2.01373E+01 2.42855E-01-1.03157E-03-5.02312E-01-8.31810E-14 1.40624E-13
 -1      3224 2.00448E+01 2.79914E-01-1.20860E-04-4.90342E-01-6.40171E-14 1.35472E-13
 -1      3225 2.02230E+01 2.78492E-01 2.03582E-03-6.80976E-01-2.54651E-13 1.13412E-13
 -1      3226 2.01785E+01 2.70013E-01-9.19131E-04-6.19986E-01-1.51332E-13 1.53319E-13
 -1      3227 2.00558E+01 3.15409E-01-2.64488E-04-6.08239E-01-1.30681E-13 1.32895E-13
 -1      3228 2.02896E+01 2.73999E-01 2.05169E-03-8.13264E-01-1.21680E-13 4.09505E-15
 -1      3229 2.02341E+01 2.79491E-01-5.79375E-04-7.50095E-01-2.36495E-13 5.47608E-14
 -1      3230 2.00745E+01 3.33415E-01-5.86916E-04-7.41701E-01-1.88660E-13-2.16943E-14
 -1      3231 2.03833E+01 2.28618E-01 1.92958E-03-9.45225E-01-1.79275E-13 7.99459E-14
 -1      3232 2.03125E+01 2.57314E-01 1.34813E-04-8.85887E-01-1.01476E-13 5.52372E-14
 -1      3233 2.01087E+01 3.19241E-01-1.22857E-03-8.86396E-01-1.60844E-13 1.22769E-14
 -1      3234 2.05198E+01 1.19996E-01 1.58148E-03-1.06171E+00-1.25520E-13 1.05403E-13
 -1      3235 2.04274E+01 1.84025E-01 1.43110E-03-1.01565E+00-1.24983E-13 8.20627E-14
 -1      3236 2.01716E+01 2.52073E-01-2.39561E-03-1.03433E+00-7.81902E-14 6.75700E-14
 -1      3237 2.07232E+01-7.85213E-02 8.11941E-04-1.13927E+00-7.27775E-14 6.37952E-14
 -1      3238 2.06002E+01 3.48982E-02 3.56899E-03-1.12049E+00-1.03156E-13 1.44064E-13
 -1      3239 2.02852E+01 1.04654E-01-4.35708E-03-1.17198E+00-1.12681E-13 6.92705E-14
 -1      3240 2.10262E+01-3.92254E-01-8.00143E-04-1.14293E+00-2.23525E-14 1.03442E-13
 -1      3241 2.08620E+01-2.17001E-01 6.82447E-03-1.17113E+00-5.84778E-14 9.59194E-14
 -1      3242 2.04832E+01-1.54795E-01-7.42333E-03-1.27721E+00-7.38552E-14 3.05599E-15
 -1      3243 2.14663E+01-8.29995E-01-3.79830E-03-1.02203E+00-3.18489E-14 8.87563E-14
 -1      3244 2.12525E+01-5.91486E-01 1.12847E-02-1.12327E+00 1.97498E-14 1.42848E-13
 -1      3245 2.08138E+01-5.54933E-01-1.17211E-02-1.31373E+00-5.09172E-14-1.80715E-15
 -1      3246 2.20704E+01-1.35325E+00-8.82393E-03-7.10139E-01-1.95298E-13-7.55791E-14
 -1      3247 2.18101E+01-1.07859E+00 1.65187E-02-9.13529E-01-9.86899E-14 9.64353E-14
 -1      3248 2.13349E+01-1.09997E+00-1.64364E-02-1.22255E+00-3.31780E-14-4.98037E-14
 -1      3249 2.28229E+01-1.82671E+00-1.51309E-02-1.35278E-01-1.19921E-13-6.15294E-14
 -1      3250 2.25458E+01-1.60086E+00 2.00965E-02-4.62168E-01-2.50328E-13-1.19826E-13
 -1      3251 2.20972E+01-1.73118E+00-1.96375E-02-9.15428E-01-1.50350E-13-4.40013E-14
 -1      3252 2.36322E+01-1.95680E+00-1.19617E-02 7.28754E-01-7.86923E-14 7.03912E-14
 -1      3253 2.33860E+01-1.94970E+00 1.76219E-02 2.96156E-01-9.07409E-14-1.07518E-14
 -1      3254 2.30957E+01-2.25551E+00-1.70906E-02-2.81915E-01-1.93936E-13-7.17399E-14
 -1      3255 2.43379E+01-1.38278E+00 2.19108E-02 1.71011E+00-4.49881E-13 1.97073E-13
 -1      3256 2.41237E+01-1.78762E+00-3.67273E-03 1.27711E+00-1.37029E-13 1.75583E-13
 -1      3257 2.41077E+01-2.28103E+00-2.68320E-02 7.40767E-01-2.34239E-13 2.03071E-13
 -1      3258 2.51186E+01-5.09253E-02-1.91229E-02 2.38314E+00 3.92741E-15-3.35721E-13
 -1      3259 2.50749E+01-1.09733E+00-6.44787E-02 2.09771E+00-2.29058E-13-2.02690E-13
 -1      3260 2.36258E+01 3.46433E+00-4.00205E-02 7.04695E-01-9.43134E-14 2.19679E-13
 -1      3261 2.37974E+01 3.04695E+00-6.22803E-02 1.43771E+00-1.28370E-14 4.97200E-14
 -1      3262 2.45852E+01 3.30223E+00-1.08423E-01-1.01629E+00-1.17517E-13-6.14838E-14
 -1      3263 2.45153E+01 3.88596E+00-7.30831E-02-3.18254E-01-1.80841E-13-2.54462E-14
 -1      3264 2.50614E+01 9.79576E-01-8.76427E-02-1.78679E+00 3.13083E-14 5.03968E-14
 -1      3265 2.48623E+01 2.10710E+00-4.59497E-02-1.59441E+00-7.60919E-14-9.04806E-14
 -1      3266 2.38855E+01-1.88859E+00 1.65885E-03-2.83526E-01 4.83232E-13 3.81431E-13
 -1      3267 2.40680E+01-1.62510E+00-4.94205E-03-7.17930E-01 5.06106E-13 4.65400E-13
 -1      3268 2.30564E+01-1.81447E+00 1.93205E-02 6.67260E-01 3.12884E-13 3.98009E-13
 -1      3269 2.33500E+01-1.93882E+00-1.53488E-02 2.63946E-01 3.00547E-13 3.27321E-13
 -1      3270 2.40035E+01-2.30633E+00-1.05382E-02 3.28170E-01 4.65527E-13 3.62957E-13
 -1      3271 2.21614E+01-1.23705E+00 1.78875E-02 1.29349E+00 4.05279E-13 1.79936E-13
 -1      3272 2.24822E+01-1.56990E+00-1.47893E-02 1.04530E+00 3.97341E-13 3.36899E-13
 -1      3273 2.29215E+01-2.01603E+00-1.80181E-02 1.24413E+00 3.85064E-13 3.37811E-13
 -1      3274 2.15833E+01-7.34048E-01 8.10239E-03 1.63649E+00 1.74867E-13 1.67888E-13
 -1      3275 2.18158E+01-1.02598E+00-1.18560E-02 1.48506E+00 3.63721E-13 1.75864E-13
 -1      3276 2.20827E+01-1.39246E+00-1.32523E-02 1.75503E+00 3.79532E-13 9.17895E-14
 -1      3277 2.15171E+01-7.51829E-01 2.68104E-03 1.98400E+00 2.39728E-13 3.26487E-13
 -1      3278 1.58292E+01 1.57329E+00 2.45984E-02-1.07682E+00-3.18504E-14-1.18276E-13
 -1      3279 1.56192E+01 1.61893E+00 4.27695E-04-1.64578E-01 9.69762E-14-4.89010E-13
 -1      3280 1.57724E+01 1.49002E+00-1.73698E-02 1.05927E+00 5.96849E-14-6.25982E-13
 -1      3281 1.63215E+01 1.30439E+00 3.33266E-02 1.92404E+00 3.59964E-14-6.59131E-13
 -1      3282 1.49181E+01 1.26324E+00 5.67597E-02 5.55126E-01 4.98733E-14-5.18970E-13
 -1      3283 2.02134E+01 1.77846E+00 5.89366E-03-9.23515E-01 1.00748E-13-1.28772E-13
 -1      3284 1.72094E+01 9.52750E-01 5.32162E-02-2.80987E+00 6.67088E-14 1.10140E-13
 -1      3285 1.63600E+01 1.18534E+00-3.32462E-02-2.14670E+00-6.89934E-14 2.51681E-13
 -1      3286 1.54406E+01 1.04285E+00 5.17139E-02-1.86031E+00-1.71943E-13 4.84369E-14
 -1      3287 1.90780E+01 6.75181E-02 3.73627E-02-3.46542E+00 1.59897E-13 8.46736E-14
 -1      3288 1.81295E+01 3.36109E-01-4.00612E-02-3.26677E+00 9.91880E-14 2.53686E-14
 -1      3289 1.74076E+01 1.30771E-01 3.61817E-02-3.44632E+00-3.90035E-14 1.94892E-13
 -1      3290 1.99806E+01-5.02870E-02 3.60888E-04-1.60812E-01-6.66210E-15 4.68957E-14
 -1      3291 1.99770E+01-4.89233E-02 1.08480E-04-1.68460E-01 5.75560E-15 6.89503E-14
 -1      3292 2.00333E+01-5.28307E-02-5.75082E-04-1.69506E-01-3.05832E-14 9.92146E-15
 -1      3293 2.00221E+01-5.72964E-02-4.34036E-04-1.56672E-01-1.41528E-14 5.59827E-14
 -1      3294 2.00457E+01 2.15998E+00-4.28628E-03 2.92862E-01 1.18903E-13 1.04824E-14
 -1      3295 2.00325E+01 2.19877E+00-3.31721E-03 1.71028E-01 1.29669E-13-7.11659E-15
 -1      3296 2.02700E+01 7.10368E-01 3.22312E-03-3.49298E-01 1.40340E-14-8.72590E-14
 -1      3297 2.02259E+01 5.49809E-01-4.06630E-03-2.15522E-01 1.69862E-14-7.79658E-14
 -1      3298 2.02735E+01 5.79318E-01-1.16057E-04-1.89869E-01 1.74153E-14-5.64285E-14
 -1      3299 2.92405E+01-3.11713E+00 3.70621E-03-1.67579E-01-1.38200E-13 1.85990E-13
 -1      3300 2.80015E+01-3.98893E+00 6.73317E-02 3.63142E-01-2.08618E-13 1.87211E-13
 -1      3301 1.22152E+01-1.32612E+00 1.41725E-01-4.52350E+00-1.35100E-14-3.68192E-13
 -1      3302 1.42219E+01-2.41511E+00 5.28760E-02-5.67137E+00-5.67255E-14-5.10147E-13
 -1      3303 1.51763E+01-2.68041E+00 1.39370E-02 5.72505E+00 3.46251E-14-9.23359E-13
 -1      3304 1.24147E+01-1.52242E+00 2.47310E-01 4.94244E+00 1.24470E-13-1.03144E-12
 -1      3305 9.73891E+00-3.78911E-01 8.83944E-02 2.28653E+00 1.71335E-13-2.21073E-14
 -1      3306 9.12721E+00 2.00846E-02 4.36642E-02 1.64132E-01 1.45079E-13-1.21431E-14
 -1      3307 1.33221E+01-2.14411E+00-2.51470E-02 4.74863E+00 2.25875E-13-7.56339E-14
 -1      3308 1.11616E+01-1.00111E+00 1.22651E-01 3.58309E+00 2.97967E-13-1.07747E-13
 -1      3309 2.02910E+01 9.88811E-01-4.25231E-04 6.90789E-01 5.26590E-14 1.43585E-13
 -1      3310 2.02671E+01 1.30647E+00 2.88217E-03 7.71852E-01 6.54338E-14 1.54907E-13
 -1      3311 2.02709E+01 1.12715E+00 1.00913E-04 5.94517E-01 6.40050E-14 1.35775E-13
 -1      3312 2.02316E+01 7.75589E-01-3.89480E-03 4.85508E-01 4.26374E-14 1.50678E-13
 -1      3313 1.99089E+01-4.46077E+00-3.69935E-02 4.62694E+00 6.51423E-14-3.77080E-13
 -1      3314 1.67075E+01-3.15353E+00 1.47953E-01 5.04467E+00 1.59983E-13-2.69479E-13
 -1      3315 9.50838E+00-3.49444E-01 1.29836E-01-1.64565E+00-5.40540E-14-5.84088E-13
 -1      3316 1.03210E+01-8.16765E-01 7.97590E-02-3.27685E+00 7.95197E-14-3.74534E-13
 -1      3317 2.87287E+01-5.73468E-01-7.80320E-02-2.45339E+00-3.22770E-13 3.13888E-13
 -1      3318 1.65017E+01-3.39375E+00 1.30151E-01-6.06166E+00 7.87564E-15-5.31332E-13
 -1      3319 1.88947E+01-4.43738E+00-1.00155E-02-6.10826E+00 1.20653E-13-2.03372E-13
 -1      3320 2.76956E+01-1.63607E+00-9.22533E-02-8.80592E-01 9.81298E-14-8.58563E-13
 -1      3321 2.79488E+01-3.24004E+00-1.24586E-02 3.39697E-01 4.74247E-14-8.83890E-13
 -1      3322 2.02757E+01 1.35040E+00-2.06518E-03-7.61407E-01 8.30891E-14-1.15851E-13
 -1      3323 2.02566E+01 9.63467E-01-3.77148E-03-4.80671E-01 4.25528E-14-1.01003E-13
 -1      3324 2.02873E+01 9.99439E-01 1.92441E-03-4.26385E-01 4.15794E-14-8.09874E-14
 -1      3325 2.02020E+01 1.67079E+00 2.53590E-03-7.13421E-01 9.55259E-14-9.00642E-14
 -1      3326 2.90774E+01-2.34344E+00-1.17135E-01-1.33328E+00-1.82448E-13 1.35392E-13
 -1      3327 9.92966E+00-4.08056E-02 1.33545E-01-1.92985E+00 2.98496E-13-2.28220E-13
 -1      3328 1.15974E+01-9.40379E-01 6.20787E-02-3.82540E+00 3.02813E-13-4.21205E-13
 -1      3329 2.53199E+01-4.36067E+00 3.19977E-02-2.21726E+00 4.08684E-13 3.00919E-13
 -1      3330 2.81426E+01-2.18663E+00-1.10968E-01-1.67115E+00-1.77308E-13 1.55105E-13
 -1      3331 2.00254E+01 2.21753E+00-3.67523E-03 6.60364E-02 1.28263E-13 7.29354E-15
 -1      3332 2.00251E+01 2.21840E+00-3.63298E-03-5.81289E-02 1.42425E-13-1.65426E-14
 -1      3333 2.01395E+01 1.92171E+00 4.97191E-03 1.01606E-01 1.16691E-13-6.55276E-15
 -1      3334 2.12018E+01-4.31801E+00 7.64092E-02-5.08244E+00 2.58266E-14 2.17178E-13
 -1      3335 9.97925E+00-2.93625E-02 4.43717E-02 9.25919E-01 1.11331E-13-7.64666E-13
 -1      3336 9.66673E+00-7.65440E-02 1.54393E-01-5.17288E-01 1.33747E-14-8.53900E-13
 -1      3337 1.12056E+01 2.16067E-01 1.51347E-01-1.17122E+00 1.29854E-13-5.26454E-13
 -1      3338 2.66576E+01 3.25972E+00-2.08278E-01 2.45506E+00-2.10942E-13-6.35603E-13
 -1      3339 2.59554E+01 3.97492E+00-1.12165E-01 2.06065E+00-2.39961E-13-4.13385E-13
 -1      3340 1.60224E+01-2.17257E+00 1.06543E-01 4.36535E+00 5.63855E-14-3.39187E-13
 -1      3341 2.73266E+01-3.73752E+00 4.38957E-02-1.38160E-01-1.56023E-13 2.18270E-13
 -1      3342 2.41527E+01-3.92638E+00 6.97126E-02-2.74747E+00 2.34419E-13 3.44339E-13
 -1      3343 2.02560E+01 1.46088E+00 7.22962E-03 5.88542E-01 6.33724E-14 1.02941E-13
 -1      3344 2.01584E+01 1.79988E+00-7.41870E-03 6.84876E-01 8.49651E-14 9.60412E-14
 -1      3345 2.01229E+01 1.93007E+00-2.84674E-03 5.90690E-01 9.22480E-14 8.07683E-14
 -1      3346 2.24858E+01-4.08944E+00-6.25594E-02-4.06071E+00 9.24989E-14 3.29277E-13
 -1      3347 2.30865E+01-3.14595E+00 2.86229E-02-2.91118E+00 1.44034E-13 2.07243E-13
 -1      3348 2.22374E+01-2.44170E+00 4.13122E-02-3.18704E+00 4.14092E-14 1.71289E-14
 -1      3349 2.02053E+01-3.20926E+00 5.56568E-02-4.83605E+00-1.41040E-13 6.73558E-14
 -1      3350 2.32110E+01-3.25055E+00 6.67933E-02 1.94910E+00 5.09397E-14 1.56790E-13
 -1      3351 2.41778E+01-3.74396E+00 2.78188E-02 1.40595E+00 2.04350E-15 2.28964E-13
 -1      3352 2.14309E+01-2.42635E+00-3.27111E-02-3.70309E+00-8.17341E-14-1.23464E-13
 -1      3353 2.75009E+01-7.81713E-01-8.71825E-02-1.44059E+00 1.25802E-13-9.11125E-13
 -1      3354 2.67091E+01-2.01787E+00-3.69869E-02-7.52594E-01 1.56507E-13-8.60090E-13
 -1      3355 2.67736E+01 3.64917E-01-6.21535E-02-1.84515E+00 5.91194E-14-9.79335E-13
 -1      3356 2.68923E+01 6.87195E-01-1.53468E-01 2.18959E+00 2.45526E-13 6.00461E-13
 -1      3357 2.49400E+01-4.99308E+00-4.01960E-03 3.27034E+00 2.36269E-15-7.19896E-13
 -1      3358 2.37623E+01-5.36966E+00 4.97907E-02 4.63060E+00-1.67713E-14-6.56374E-13
 -1      3359 2.19604E+01-4.82371E+00 1.61096E-02 5.08194E+00-1.14353E-14-6.81174E-13
 -1      3360 2.00344E+01 5.93942E-02-4.94527E-04-1.42729E-01 3.24448E-14 1.21913E-14
 -1      3361 2.00543E+01 1.00797E-01 2.51426E-03-1.14556E-01 4.75191E-14-3.09748E-15
 -1      3362 2.01430E+01 1.60269E-01-1.38436E-03-7.55876E-02 6.21099E-14-1.63413E-14
 -1      3363 2.00914E+01 2.02409E+00-5.35626E-03 5.05130E-01 1.09139E-13 6.45333E-14
 -1      3364 2.00661E+01 2.10438E+00-3.06049E-03 3.91723E-01 1.17986E-13 3.94088E-14
 -1      3365 2.01620E+01 1.84686E+00 5.30859E-03 2.91536E-01 1.00016E-13 1.53239E-14
 -1      3366 2.02035E+01 1.69596E+00 6.30758E-03 4.60747E-01 7.84218E-14 6.50624E-14
 -1      3367 1.18271E+01-8.27138E-01 1.52953E-01 3.60879E+00 1.49152E-13-8.45282E-13
 -1      3368 2.32787E+01-4.62996E+00-9.90370E-02 2.67532E+00-7.86177E-15 2.90153E-13
 -1      3369 2.00727E+01-6.71531E-04-9.68453E-04-1.68402E-01 1.11315E-14-3.72667E-14
 -1      3370 2.00085E+01 3.36709E-03-1.01228E-04-1.73660E-01-1.73452E-14 1.50322E-14
 -1      3371 2.00189E+01 2.85894E-02 1.58386E-03-1.62060E-01-3.92819E-15-2.32071E-14
 -1      3372 2.39286E+01 2.21603E+00-1.93580E-02 2.11562E+00 5.57644E-14 1.57244E-14
 -1      3373 2.40587E+01 1.26954E+00-1.11309E-01 2.43611E+00-1.77410E-14-1.32902E-13
 -1      3374 2.55559E+01 4.69762E+00-1.01706E-01 2.29657E-01-2.43777E-13-3.45231E-13
 -1      3375 2.54142E+01-1.78100E+00-1.79676E-02-8.25037E-01 4.99236E-13-2.58976E-13
 -1      3376 2.48931E+01-1.08864E+00-3.21257E-02-1.30170E+00 4.31767E-13 1.88204E-13
 -1      3377 2.48642E+01-2.26051E-01-1.87493E-02-1.55571E+00 2.60934E-13 1.63657E-13
 -1      3378 2.62477E+01 5.19822E+00-1.42814E-01 7.67144E-01-2.75988E-13-5.16285E-13
 -1      3379 2.44620E+01-5.05829E+00 2.78228E-02-3.02641E+00 2.81442E-14-1.08386E-12
 -1      3380 2.52737E+01-4.54837E+00 2.60521E-02-1.69779E+00 7.02355E-14-9.86003E-13
 -1      3381 2.29798E+01-4.88967E+00 2.36361E-02-3.60136E+00-1.20459E-14-9.00043E-13
 -1      3382 1.90270E+01-1.32785E-01-2.51041E-02 3.39406E+00 2.23579E-13-7.91051E-13
 -1      3383 1.99099E+01-4.39067E-01 3.24249E-02 3.40652E+00 3.84731E-13-6.36602E-13
 -1      3384 2.69774E+01 3.58712E+00-8.03023E-02-1.64544E+00-9.56735E-14-8.02705E-13
 -1      3385 1.28254E+01-6.27263E-01 1.54913E-01-3.68871E+00 6.99232E-14-3.04798E-13
 -1      3386 1.71209E+01 7.58492E-01-3.35462E-02 2.73233E+00 3.56798E-14-8.36977E-13
 -1      3387 1.80727E+01 4.38555E-01 4.56439E-02 3.19740E+00 1.89015E-13-7.46078E-13
 -1      3388 1.82996E+01-4.82351E-01-9.04688E-03 3.71483E+00 2.56490E-13-8.66827E-13
 -1      3389 1.61808E+01 6.00780E-01 4.55578E-02 2.71003E+00-1.68967E-14-8.92088E-13
 -1      3390 2.64297E+01-3.44277E+00 8.10566E-02-4.84439E-02 1.12957E-14-7.65721E-13
 -1      3391 2.70679E+01-2.98994E+00-5.90756E-03 5.54413E-01 1.54505E-13-7.31665E-13
 -1      3392 2.64868E+01-2.18215E+00 3.50672E-03 1.26372E+00 1.48957E-13-7.56232E-13
 -1      3393 1.30917E+01-1.26046E+00 1.37546E-01-4.28591E+00 2.65336E-13-3.80855E-13
 -1      3394 1.46842E+01-1.81324E+00 4.71321E-02-4.49715E+00 1.99032E-13-4.18027E-13
 -1      3395 1.28908E+01-4.84084E-01 3.94631E-02-3.26760E+00 1.76407E-13-3.49665E-13
 -1      3396 1.73715E+01-3.31746E+00 3.78612E-02-5.12044E+00 5.58442E-14-6.00256E-13
 -1      3397 1.84294E+01-4.21570E+00 9.98293E-02-5.44682E+00 7.24837E-14-5.19189E-13
 -1      3398 2.02992E+01-4.45639E+00 1.03463E-02-4.66728E+00 9.46673E-14-6.62050E-13
 -1      3399 2.16118E+01-3.22975E+00-6.16891E-02 2.80966E+00 9.73171E-14 9.36560E-14
 -1      3400 2.68580E+01-3.94805E+00-1.47293E-02 1.19148E+00 8.60232E-14-7.84352E-13
 -1      3401 2.01241E+01 2.93245E-01-1.96250E-03 4.49669E-02 2.46181E-14 9.14431E-14
 -1      3402 2.01690E+01 3.94592E-01 4.34262E-03 1.35286E-01 4.45492E-14 1.14985E-13
 -1      3403 2.01899E+01 3.15258E-01-1.48842E-03 3.73149E-02 5.31532E-14 5.74284E-14
 -1      3404 2.01760E+01 4.86178E-01-2.74614E-03 2.22230E-01 4.51910E-14 1.13215E-13
 -1      3405 2.02313E+01 6.34663E-01 3.82697E-03 3.61362E-01 5.11251E-14 1.29675E-13
 -1      3406 2.02604E+01 7.94018E-01 1.23474E-03 4.22301E-01 5.32400E-14 1.52960E-13
 -1      3407 2.02299E+01 5.24482E-01-7.67349E-04 2.01051E-01 5.50137E-14 1.15702E-13
 -1      3408 1.64120E+01-2.35733E+00 1.24495E-01-5.35967E+00-1.12875E-13-4.10394E-13
 -1      3409 2.72431E+01 2.00284E+00-1.56069E-02 2.58706E+00-6.97220E-14-6.16202E-13
 -1      3410 2.47371E+01 3.09083E+00-7.56141E-02 1.93629E+00-7.87773E-14-2.60816E-13
 -1      3411 2.05205E+01-6.93090E-01-7.40469E-03 3.17332E+00 2.73198E-13-4.28537E-13
 -1      3412 2.09904E+01-8.44352E-01 1.01348E-02 2.95209E+00 2.18354E-13-3.85247E-14
 -1      3413 2.02528E+01-1.19453E+00-1.48938E-02 3.57404E+00 1.57361E-13-6.00545E-13
 -1      3414 1.19649E+01-2.78088E-01 1.34650E-01 2.61473E+00 6.27484E-14-1.44607E-14
 -1      3415 1.77413E+01-3.15655E+00 1.56138E-01 5.82357E+00 4.32293E-15-8.86111E-13
 -1      3416 1.63573E+01-2.10449E+00 4.72959E-02 5.17588E+00-6.58848E-14-9.77086E-13
 -1      3417 1.10269E+01 2.79596E-01 1.20006E-01-7.63507E-01 1.51667E-13-2.39170E-13
 -1      3418 2.02721E+01-6.86251E-01 2.27691E-02-3.45943E+00-6.94345E-14-1.56574E-13
 -1      3419 1.96460E+01-3.78867E-01-1.54562E-02-3.51124E+00 7.07826E-14-8.98392E-14
 -1      3420 1.92642E+01-7.79243E-01 2.62965E-02-3.87605E+00 1.64192E-14-1.05784E-13
 -1      3421 2.06489E+01-1.47240E+00 4.58090E-03-3.67403E+00-5.65685E-14-3.24390E-13
 -1      3422 2.23344E+01-4.48272E+00 1.00772E-01 3.51793E+00 3.71092E-14 3.19753E-14
 -1      3423 2.00636E+01 2.11034E+00-2.96950E-03-3.83869E-01 1.19185E-13-3.74588E-14
 -1      3424 2.00872E+01 2.03041E+00-5.87729E-03-4.98258E-01 1.24724E-13-7.87242E-14
 -1      3425 2.09248E+01-3.71828E+00 4.17291E-02 3.66268E+00 8.94042E-14-5.02445E-14
 -1      3426 2.01247E+01 1.92282E+00-2.03835E-03-5.67065E-01 1.16685E-13-8.27235E-14
 -1      3427 2.01556E+01 1.79753E+00-7.04900E-03-6.61955E-01 1.13738E-13-8.94067E-14
 -1      3428 2.02516E+01 1.43058E+00 3.56505E-03-5.32719E-01 8.27832E-14-7.32919E-14
 -1      3429 2.02042E+01 1.68457E+00 5.53764E-03-4.37356E-01 1.14100E-13-7.63170E-14
 -1      3430 1.92822E+01-3.70679E+00 2.55371E-02 5.53237E+00-8.58584E-14-7.85705E-13
 -1      3431 2.64378E+01 8.51031E-01-3.87754E-02 2.52830E+00 1.25067E-13-7.92429E-13
 -1      3432 1.76941E+01-2.43551E+00-3.50871E-02 4.14456E+00 1.91732E-13-3.22818E-13
 -1      3433 1.52418E+01-1.14645E+00 8.76352E-02 3.80112E+00 1.33889E-13-2.61950E-13
 -1      3434 1.84156E+01-2.58308E+00 6.25633E-03-5.19433E+00-4.07913E-13-1.40291E-13
 -1      3435 2.03041E+01-2.33375E+00 5.92235E-02-4.29824E+00-3.48416E-13-7.22673E-14
 -1      3436 2.00295E+01-2.44350E-02 5.33307E-04-1.13799E-01-3.55914E-14 1.09112E-13
 -1      3437 2.00291E+01-3.46343E-02-2.82811E-04-1.16937E-01 9.47742E-15 9.83878E-14
 -1      3438 2.01014E+01-4.25008E-02 9.07498E-05-1.64313E-01-1.46543E-14 3.33200E-14
 -1      3439 2.01127E+01-2.69302E-02 7.85109E-04-1.63322E-01 1.55508E-14 7.43393E-16
 -1      3440 2.03010E+01 4.38702E-01 2.61701E-03-7.30808E-02-5.90446E-15-5.25537E-14
 -1      3441 2.02759E+01 3.25980E-01-2.16384E-03-6.35154E-03-2.32650E-14-2.83378E-14
 -1      3442 2.02678E+01 2.36474E-01 2.13086E-03 3.86467E-02-3.27902E-14-1.06168E-14
 -1      3443 2.02433E+01 1.61299E-01-1.28094E-03 7.93955E-02-5.27513E-14 7.80629E-15
 -1      3444 2.03165E+01 3.27725E-01-8.51743E-05 1.40698E-03-5.01286E-15-1.16852E-14
 -1      3445 2.02285E+01 1.02701E-01 1.61107E-03 1.05495E-01-4.77857E-14 2.97094E-14
 -1      3446 2.02071E+01 5.43046E-02-6.43352E-04 1.27402E-01 8.90207E-15 6.83071E-14
 -1      3447 2.02851E+01 1.58899E-01-4.49445E-04 7.58109E-02-1.53056E-14 6.20968E-14
 -1      3448 2.01897E+01 1.75970E-02 1.12104E-03 1.39847E-01 1.52163E-14 6.30169E-14
 -1      3449 2.01721E+01-1.17124E-02-2.03025E-04 1.48890E-01 3.87599E-14 3.62479E-14
 -1      3450 2.02475E+01 4.90431E-02-5.91769E-04 1.17451E-01 6.93284E-15 1.15657E-13
 -1      3451 2.01544E+01-3.29039E-02 7.15671E-04 1.52201E-01 4.40325E-14-1.58115E-14
 -1      3452 2.01405E+01-4.86860E-02 8.81586E-05 1.53086E-01 4.54564E-14-2.52508E-14
 -1      3453 2.02092E+01-1.83718E-02-6.29451E-04 1.35930E-01 8.68978E-15 2.78115E-14
 -1      3454 2.01238E+01-5.89412E-02 4.02573E-04 1.50856E-01 5.88179E-14-1.56630E-14
 -1      3455 2.01132E+01-6.51879E-02 2.72256E-04 1.47122E-01 7.09319E-14-2.32464E-14
 -1      3456 2.01733E+01-5.54142E-02-5.99599E-04 1.39339E-01 3.76320E-14-2.45912E-15
 -1      3457 2.00980E+01-6.77430E-02 1.66211E-04 1.42068E-01 5.12915E-14-2.80533E-14
 -1      3458 2.00902E+01-6.72591E-02 3.83393E-04 1.36323E-01 3.34334E-14-8.04428E-15
 -1      3459 2.01411E+01-7.09142E-02-5.36344E-04 1.33992E-01 4.11092E-14 2.73852E-14
 -1      3460 2.00768E+01-6.43489E-02-1.26911E-05 1.30457E-01 3.81284E-14-6.03845E-14
 -1      3461 2.00711E+01-5.90312E-02 4.49008E-04 1.24611E-01 2.77427E-14-6.70053E-14
 -1      3462 2.01130E+01-7.11246E-02-4.55876E-04 1.24652E-01 3.95341E-14-1.55853E-14
 -1      3463 2.00594E+01-5.21171E-02-1.53442E-04 1.19418E-01 2.02469E-14-4.44196E-14
 -1      3464 2.00555E+01-4.31565E-02 4.90188E-04 1.14892E-01 1.69193E-14-2.23625E-14
 -1      3465 2.00889E+01-6.03092E-02-3.65530E-04 1.14852E-01 2.60900E-14-8.86056E-14
 -1      3466 2.00450E+01-3.31061E-02-2.73094E-04 1.11505E-01-1.06708E-14-9.93565E-15
 -1      3467 2.00424E+01-2.11529E-02 5.20873E-04 1.09407E-01-5.29473E-14 4.22292E-14
 -1      3468 2.00680E+01-4.11781E-02-2.70040E-04 1.07245E-01 4.75389E-14-4.03764E-14
 -1      3469 2.00326E+01-8.37960E-03-3.86627E-04 1.08734E-01-6.17899E-14 7.58249E-14
 -1      3470 2.00309E+01 6.33237E-03 5.50902E-04 1.09989E-01-6.40188E-14 9.29149E-14
 -1      3471 2.00493E+01-1.52360E-02-1.68210E-04 1.03900E-01-1.84675E-14-2.73477E-14
 -1      3472 2.00210E+01 2.17657E-02-5.07248E-04 1.12820E-01-9.04274E-14 1.33237E-13
 -1      3473 2.00198E+01 3.93204E-02 5.86595E-04 1.18271E-01-1.20537E-13 1.85426E-13
 -1      3474 2.00317E+01 1.69317E-02-5.69525E-05 1.06527E-01-2.27674E-14 7.01053E-14
 -1      3475 2.00091E+01 5.76132E-02-6.46246E-04 1.25359E-01-1.36376E-13 2.51038E-13
 -1      3476 2.00078E+01 7.83255E-02 6.31190E-04 1.35840E-01-7.40920E-14 2.05304E-13
 -1      3477 2.00135E+01 5.54410E-02 6.90088E-05 1.16664E-01-1.05915E-13 2.76081E-13
 -1      3478 1.99952E+01 9.98573E-02-8.13377E-04 1.47953E-01-3.35195E-14 1.55350E-13
 -1      3479 1.99934E+01 1.24188E-01 6.84982E-04 1.64339E-01-6.85055E-14 1.08043E-13
 -1      3480 1.99930E+01 1.00914E-01 2.17293E-04 1.35800E-01-9.49327E-14 2.30551E-13
 -1      3481 1.99776E+01 1.49434E-01-1.01722E-03 1.82290E-01-1.51381E-13 1.27998E-13
 -1      3482 1.99745E+01 1.77895E-01 7.45613E-04 2.05507E-01-9.63106E-14 1.21749E-13
 -1      3483 1.99679E+01 1.54284E-01 3.97581E-04 1.65462E-01-8.85534E-14 1.81831E-13
 -1      3484 1.99541E+01 2.07326E-01-1.26523E-03 2.30160E-01 1.13610E-14 7.39317E-15
 -1      3485 1.99489E+01 2.40364E-01 8.08623E-04 2.61183E-01-2.12030E-15 5.29236E-14
 -1      3486 1.99356E+01 2.16588E-01 6.21423E-04 2.07234E-01-9.16205E-14 1.43995E-13
 -1      3487 1.99219E+01 2.74308E-01-1.56367E-03 2.93440E-01-4.54955E-14 9.86382E-14
 -1      3488 1.99135E+01 3.12141E-01 8.68850E-04 3.33255E-01 2.81960E-14 3.39393E-14
 -1      3489 1.98930E+01 2.88707E-01 9.01822E-04 2.62749E-01-1.28707E-15 1.26119E-13
 -1      3490 1.98780E+01 3.50588E-01-1.91746E-03 3.74029E-01 1.05712E-13-5.14374E-14
 -1      3491 1.98649E+01 3.92964E-01 9.23687E-04 4.23572E-01 3.73163E-14 2.41099E-14
 -1      3492 1.98360E+01 3.71014E-01 1.25219E-03 3.33641E-01 4.05823E-14 6.49508E-14
 -1      3493 1.98182E+01 4.35274E-01-2.33024E-03 4.73766E-01-8.12798E-14 8.83249E-15
 -1      3494 1.97991E+01 4.81119E-01 9.79880E-04 5.33859E-01-8.62406E-14 4.24656E-14
 -1      3495 1.97602E+01 4.62879E-01 1.68410E-03 4.21493E-01-7.85206E-16-2.37578E-14
 -1      3496 1.97384E+01 5.25576E-01-2.80457E-03 5.94385E-01-6.06667E-14 4.48942E-14
 -1      3497 1.97116E+01 5.72460E-01 1.06632E-03 6.65688E-01 1.06640E-14 2.75318E-14
 -1      3498 1.96601E+01 5.61953E-01 2.20291E-03 5.27837E-01-7.49083E-14 6.06379E-14
 -1      3499 1.96338E+01 6.15602E-01-3.34248E-03 7.37591E-01 5.95028E-14-1.75535E-14
 -1      3500 1.95984E+01 6.58952E-01 1.25602E-03 8.20633E-01 1.14175E-13 5.50251E-14
 -1      3501 1.95300E+01 6.63125E-01 2.79976E-03 6.54322E-01-2.88487E-14 3.53887E-14
 -1      3502 1.95006E+01 6.94592E-01-3.94546E-03 9.05429E-01 1.93088E-13 2.71321E-14
 -1      3503 1.94571E+01 7.26572E-01 1.70281E-03 1.00081E+00 2.21558E-13-7.85376E-15
 -1      3504 1.93637E+01 7.57032E-01 3.43746E-03 8.03236E-01 1.38652E-13-3.86184E-14
 -1      3505 1.93373E+01 7.44406E-01-4.60813E-03 1.10121E+00 1.97499E-13-4.80882E-14
 -1      3506 1.92898E+01 7.52355E-01 2.70579E-03 1.21009E+00 1.53608E-13-4.75477E-14
 -1      3507 1.91562E+01 8.27966E-01 4.02924E-03 9.78686E-01 1.83529E-13-1.16368E-13
 -1      3508 1.91480E+01 7.36065E-01-5.27001E-03 1.33134E+00 1.47126E-13-2.60701E-14
 -1      3509 1.91077E+01 7.00272E-01 4.79573E-03 1.45625E+00 1.28743E-13-5.33724E-14
 -1      3510 1.89052E+01 8.51035E-01 4.41110E-03 1.18892E+00 1.53766E-13-8.65831E-14
 -1      3511 1.89491E+01 6.24885E-01-5.62779E-03 1.60823E+00 4.43385E-14-1.36977E-13
 -1      3512 1.89404E+01 5.15736E-01 8.99163E-03 1.75344E+00 2.29650E-14-2.42020E-13
 -1      3513 1.86148E+01 7.87701E-01 4.25251E-03 1.45040E+00 5.51315E-14-8.64571E-14
 -1      3514 1.87819E+01 3.43367E-01-4.79865E-03 1.95333E+00 4.10107E-14-1.86901E-13
 -1      3515 1.88460E+01 1.15186E-01 1.38567E-02 2.12359E+00 6.34543E-14-1.50682E-13
 -1      3516 1.83026E+01 5.79791E-01 2.96378E-03 1.79373E+00 5.48379E-14-1.78312E-13
 -1      3517 1.87415E+01-1.93013E-01 3.72065E-03 2.38309E+00 3.20628E-14-1.80434E-13
 -1      3518 1.90045E+01-6.00188E-01 3.04533E-02 2.56972E+00 4.65795E-14-1.71470E-13
 -1      3519 1.80396E+01 1.31247E-01 4.30242E-03 2.27238E+00 1.40337E-14-4.96265E-14
 -1      3520 1.86137E+01-1.21733E+00 1.70937E-02 3.10036E+00 1.67570E-13-2.14168E-13
 -1      3521 1.90961E+01-1.90227E+00 4.05849E-02 3.35054E+00 1.90153E-13-2.26508E-13
 -1      3522 2.01214E+01-1.76892E+00 1.58857E-02-4.02369E+00-3.79298E-13-1.91671E-13
 -1      3523 2.00373E+01-4.31109E-02 4.96239E-04-1.21251E-01-3.08477E-14 2.52481E-14
 -1      3524 2.00382E+01-5.06780E-02-1.70209E-04-1.26745E-01-7.25415E-14-1.24447E-14
 -1      3525 2.00540E+01-4.28000E-02-2.73175E-04-1.15438E-01-7.78057E-14-1.04830E-14
 -1      3526 2.00476E+01-5.63562E-02 4.52627E-04-1.32811E-01-5.20032E-14-2.53350E-14
 -1      3527 2.00503E+01-6.06112E-02-2.76921E-05-1.39518E-01-3.99776E-14 4.16442E-14
 -1      3528 2.00702E+01-5.90515E-02-3.57812E-04-1.24914E-01-4.13542E-14-1.07311E-14
 -1      3529 2.00235E+01-1.11787E-03 5.73764E-04-1.12350E-01-1.09415E-13 1.41920E-13
 -1      3530 2.00222E+01-1.36312E-02-3.81484E-04-1.12205E-01-9.19282E-14 9.09585E-14
 -1      3531 2.00403E+01-2.04498E-02-1.89734E-04-1.10220E-01-3.14602E-14 9.09721E-14
 -1      3532 2.00187E+01 2.66232E-02 6.25188E-04-1.18554E-01-2.39989E-14 8.36898E-14
 -1      3533 2.00166E+01 1.18467E-02-4.80049E-04-1.14302E-01-5.41654E-14 1.58212E-13
 -1      3534 2.00281E+01 7.22023E-03-1.07811E-04-1.11086E-01-8.07084E-14 4.07245E-14
 -1      3535 2.00143E+01 5.89289E-02 6.92193E-04-1.33980E-01 6.00180E-14 1.00977E-13
 -1      3536 2.00116E+01 4.17809E-02-5.88036E-04-1.24828E-01 5.27436E-15 9.36697E-14
 -1      3537 2.00164E+01 4.00385E-02-2.34852E-05-1.19659E-01-9.17160E-15 4.13609E-14
 -1      3538 2.00096E+01 9.60967E-02 7.77408E-04-1.60214E-01 9.60794E-14 7.15706E-14
 -1      3539 2.00063E+01 7.64137E-02-7.12530E-04-1.45360E-01 7.31358E-14 9.34610E-14
 -1      3540 2.00039E+01 7.81897E-02 6.65056E-05-1.37506E-01 6.80637E-14 3.50288E-14
 -1      3541 2.00037E+01 1.38348E-01 8.81744E-04-1.98898E-01 5.32892E-14 1.98695E-13
 -1      3542 2.00000E+01 1.16035E-01-8.57224E-04-1.77522E-01 6.97338E-14 1.40653E-13
 -1      3543 1.99894E+01 1.21982E-01 1.64654E-04-1.66226E-01 4.39898E-14 1.05504E-13
 -1      3544 1.99959E+01 1.85537E-01 1.00491E-03-2.51713E-01 2.19989E-14 3.16717E-13
 -1      3545 1.99918E+01 1.60724E-01-1.02163E-03-2.23005E-01 5.79929E-14 2.36596E-13
 -1      3546 1.99715E+01 1.71573E-01 2.71555E-04-2.07489E-01 1.05216E-14 1.66814E-13
 -1      3547 1.99856E+01 2.36761E-01 1.14642E-03-3.20287E-01 1.60086E-14 1.74810E-13
 -1      3548 1.99811E+01 2.10016E-01-1.19962E-03-2.83511E-01 4.08772E-14 2.19944E-13
 -1      3549 1.99488E+01 2.26623E-01 3.83914E-04-2.63033E-01 6.47223E-14 1.69056E-13
 -1      3550 1.99725E+01 2.89838E-01 1.30752E-03-4.06035E-01 5.38963E-14 1.10192E-13
 -1      3551 1.99674E+01 2.62450E-01-1.37712E-03-3.60645E-01 5.71190E-14 1.87840E-13
 -1      3552 1.99202E+01 2.85836E-01 4.91382E-04-3.34598E-01 7.86891E-14 1.28824E-13
 -1      3553 1.99572E+01 3.40597E-01 1.49451E-03-5.09918E-01-1.19676E-13 1.29804E-13
 -1      3554 1.99507E+01 3.14958E-01-1.52855E-03-4.55721E-01-5.19887E-14 1.58959E-13
 -1      3555 1.98848E+01 3.46351E-01 5.71517E-04-4.23822E-01-1.08495E-14 1.76728E-13
 -1      3556 1.99416E+01 3.81942E-01 1.72346E-03-6.32119E-01-1.42753E-13 1.51216E-13
 -1      3557 1.99322E+01 3.62051E-01-1.61133E-03-5.69496E-01-1.53591E-13 1.37874E-13
 -1      3558 1.98426E+01 4.02931E-01 5.81908E-04-5.32108E-01-1.34679E-13 2.12131E-13
 -1      3559 1.99301E+01 4.02667E-01 2.02494E-03-7.71630E-01-1.82387E-13 8.71383E-14
 -1      3560 1.99151E+01 3.94759E-01-1.55706E-03-7.01831E-01-1.47873E-13 1.33389E-13
 -1      3561 1.97954E+01 4.46905E-01 4.47882E-04-6.60463E-01-1.05704E-13 1.35491E-13
 -1      3562 1.99319E+01 3.86063E-01 2.44167E-03-9.25686E-01-1.88312E-13 1.65386E-13
 -1      3563 1.99061E+01 3.99333E-01-1.25678E-03-8.51225E-01-2.13602E-13 1.70618E-13
 -1      3564 1.97482E+01 4.64841E-01 4.32524E-05-8.09336E-01-2.60688E-13 2.39604E-13
 -1      3565 1.99629E+01 3.08581E-01 3.01687E-03-1.08887E+00-5.56607E-14 1.15014E-13
 -1      3566 1.99178E+01 3.55838E-01-5.38285E-04-1.01412E+00-6.66515E-14 1.67710E-13
 -1      3567 1.97108E+01 4.36988E-01-8.38145E-04-9.78354E-01-1.25003E-13 1.27871E-13
 -1      3568 2.00497E+01 1.39291E-01 3.76005E-03-1.25144E+00-1.01518E-14 5.80851E-14
 -1      3569 1.99716E+01 2.37104E-01 8.81438E-04-1.18365E+00-8.64323E-15 8.88041E-14
 -1      3570 1.97016E+01 3.35785E-01-2.50112E-03-1.16568E+00-1.59389E-14 9.42364E-14
 -1      3571 2.02338E+01-1.58641E-01 4.47566E-03-1.39632E+00-2.57680E-14-7.07853E-14
 -1      3572 2.01027E+01 9.09866E-03 3.42268E-03-1.34730E+00 5.59381E-15-9.48548E-16
 -1      3573 1.97518E+01 1.25362E-01-5.35348E-03-1.36636E+00 4.57787E-14-4.49513E-14
 -1      3574 2.05743E+01-6.22012E-01 4.26611E-03-1.49245E+00-1.12601E-13-7.40234E-14
 -1      3575 2.03648E+01-3.65745E-01 7.78264E-03-1.48192E+00-1.21207E-13-1.36556E-13
 -1      3576 1.99114E+01-2.37807E-01-1.01000E-02-1.56865E+00-2.35404E-14-1.77991E-13
 -1      3577 2.11474E+01-1.26418E+00 2.60404E-03-1.47938E+00-2.09563E-14-1.14603E-13
 -1      3578 2.08338E+01-9.17177E-01 1.46975E-02-1.54106E+00-4.97759E-14-9.03034E-14
 -1      3579 2.02580E+01-7.99260E-01-1.76944E-02-1.74257E+00-5.91180E-14-1.58252E-13
 -1      3580 2.20251E+01-2.03432E+00-2.64046E-03-1.26151E+00-1.91794E-13-1.24566E-13
 -1      3581 2.15946E+01-1.63108E+00 2.47118E-02-1.44317E+00-6.22829E-14-1.01706E-14
 -1      3582 2.08929E+01-1.56974E+00-2.73676E-02-1.81877E+00-6.44534E-14-1.73824E-13
 -1      3583 2.32294E+01-2.71330E+00-8.81231E-03-6.82308E-01-2.40385E-13-7.24575E-14
 -1      3584 2.27176E+01-2.39444E+00 3.63905E-02-1.04385E+00-2.58194E-13-1.91295E-13
 -1      3585 2.19416E+01-2.49232E+00-3.90448E-02-1.66215E+00-2.23511E-13-2.22234E-13
 -1      3586 2.54115E+01-1.82116E+00-6.29877E-02 1.60870E+00-1.47604E-13-2.02994E-13
 -1      3587 2.40909E+01-2.78059E+00 4.96036E-02 1.17578E+00 2.95104E-13 4.83459E-14
 -1      3588 2.45398E+01-2.89726E+00-8.68004E-03 6.80861E-01 4.51974E-13-1.50446E-13
 -1      3589 1.67447E+01-8.85158E-01 3.83935E-02-4.25700E+00-3.02727E-13-6.40182E-14
 -1      3590 1.51869E+01-3.55725E-01-1.02993E-02-3.80981E+00-1.40271E-13-5.49560E-14
 -1      3591 1.29489E+01 8.54196E-01 2.76014E-02-3.36345E-01 6.38396E-14-3.70495E-13
 -1      3592 1.31722E+01 7.85795E-01 5.73339E-02 1.00137E+00 3.72948E-14-6.49328E-13
 -1      3593 2.03161E+01 7.34993E-01 2.64133E-03-2.43481E-01 1.71129E-14-4.05720E-14
 -1      3594 2.02957E+01 5.71394E-01-3.38228E-03-1.42903E-01 1.30069E-14-5.02642E-14
 -1      3595 2.03318E+01 5.78176E-01 6.92128E-04-1.16195E-01 1.81846E-14-3.04412E-14
 -1      3596 2.76539E+01-2.97116E+00-1.03964E-01-1.31073E+00-1.79946E-13 1.15810E-13
 -1      3597 1.38998E+01-8.22731E-01-1.52213E-02 4.11981E+00 1.58262E-13-9.62980E-13
 -1      3598 1.17672E+01-9.71477E-02 1.65430E-01 2.69475E+00 2.32210E-13-7.11042E-13
 -1      3599 1.25051E+01 3.24436E-01 1.37251E-01 1.78149E+00 1.85366E-13-7.83922E-13
 -1      3600 2.55802E+01-3.32318E+00-4.46007E-02 7.14738E-01 3.23993E-13-6.08920E-13
 -1      3601 2.55232E+01-4.29060E+00 1.09503E-03 2.05151E+00 2.09392E-13-6.86073E-13
 -1      3602 2.00932E+01-2.77972E+00 8.99970E-02 3.59148E+00 1.72102E-13-1.67170E-13
 -1      3603 1.37799E+01 3.18053E-01 6.05916E-02-2.66228E+00 1.28630E-14-2.47094E-14
 -1      3604 1.15255E+01 5.96427E-01 6.88347E-02 3.50926E-01 1.37772E-14-2.76168E-13
 -1      3605 1.19561E+01 3.43790E-01 1.07230E-02-1.54253E+00 1.67947E-13-3.89050E-13
 -1      3606 2.00313E+01 2.20105E+00-3.35258E-03-1.63091E-01 1.42594E-13-1.89999E-14
 -1      3607 2.00435E+01 2.16414E+00-4.33245E-03-2.84797E-01 1.26468E-13-9.58023E-15
 -1      3608 2.01595E+01 1.85166E+00 5.15068E-03-2.85255E-01 1.14758E-13-2.84466E-14
 -1      3609 2.26763E+01-2.04063E+00 2.62769E-02 1.95753E+00 4.31878E-13 8.08403E-14
 -1      3610 2.31991E+01-2.49825E+00-1.40469E-02 1.66104E+00 3.79471E-13 2.27335E-13
 -1      3611 2.35711E+01-3.11683E+00-5.96134E-02 2.02207E+00 2.08471E-13-7.33797E-14
 -1      3612 2.09351E+01-4.00115E+00 9.97917E-02 5.16158E+00-5.64965E-14-5.92196E-13
 -1      3613 1.97309E+01-3.04568E+00 3.76661E-02 4.97239E+00-1.48458E-14-6.77729E-13
 -1      3614 2.21523E+01-4.27505E+00-4.99828E-02 4.44353E+00 7.58942E-15-5.82812E-13
 -1      3615 1.30624E+01-4.85060E-01-2.21234E-02 3.12419E+00 7.00481E-15-3.54577E-14
 -1      3616 1.19438E+01 2.23890E-01 3.53439E-02 1.81921E+00 6.51822E-15-3.18079E-14
 -1      3617 2.12403E+01-8.05910E-01 2.08667E-03 2.60153E+00 3.74615E-13 3.31340E-13
 -1      3618 2.14598E+01-8.59010E-01 6.51758E-03 2.31940E+00 1.97218E-13 2.90381E-13
 -1      3619 2.17476E+01-1.18609E+00 1.03720E-02 2.24817E+00 3.17736E-13 2.98475E-13
 -1      3620 2.13528E+01-1.35115E+00 5.80441E-03 2.92870E+00 3.06064E-13 2.68264E-14
 -1      3621 1.74694E+01-1.99794E+00-1.01622E-02 4.93249E+00 3.24255E-14-9.62251E-13
 -1      3622 1.58460E+01-1.24058E+00 1.37048E-01 4.70111E+00 3.69843E-14-9.84185E-13
 -1      3623 1.54627E+01-6.35172E-01 7.32504E-02 3.98014E+00 1.62925E-13-1.04777E-12
 -1      3624 2.02872E+01 9.27742E-01 9.23883E-04 4.64754E-01 5.41874E-14 1.32245E-13
 -1      3625 2.02756E+01 1.09984E+00-2.22119E-03 5.00999E-01 6.08742E-14 1.03404E-13
 -1      3626 2.02682E+01 7.66723E-01-2.54951E-03 3.33665E-01 4.84140E-14 1.23393E-13
 -1      3627 2.43121E+01-4.03597E+00 8.60917E-02 2.79949E+00 1.88421E-13-5.21394E-13
 -1      3628 1.52770E+01-5.41118E-01 7.83858E-02 3.11077E+00 1.14381E-13-9.00183E-14
 -1      3629 2.02686E+01 1.23601E+00 2.86226E-04 4.65503E-01 6.66157E-14 9.40756E-14
 -1      3630 2.00897E+01-6.76076E-02-4.42787E-04-1.36396E-01-9.02044E-15-4.76606E-14
 -1      3631 2.00613E+01-6.26293E-02 3.86371E-04-1.46110E-01-8.76689E-15 4.68367E-14
 -1      3632 2.00661E+01-6.24014E-02 1.63364E-04-1.52542E-01-9.79729E-15 3.21739E-14
 -1      3633 2.01737E+01-1.22880E-02-7.13448E-04-1.48232E-01-3.16549E-14-1.52097E-14
 -1      3634 2.01289E+01-6.33892E-03-1.94354E-04-1.59108E-01 1.23424E-14-2.87155E-14
 -1      3635 2.01447E+01 2.20931E-02 1.26593E-03-1.49161E-01 1.73482E-15-2.07779E-14
 -1      3636 2.01389E+01 1.92318E+00 4.96176E-03-9.49219E-02 1.27640E-13-2.03393E-14
 -1      3637 1.74840E+01-7.81799E-01-1.98020E-02 3.10505E+00 1.19544E-13-1.52746E-13
 -1      3638 2.01036E+01 6.07075E-02-1.19676E-03-1.39058E-01 1.50716E-14-1.67827E-14
 -1      3639 2.02232E+01 1.54662E+00-4.16323E-03 2.85506E-01 8.99006E-14 2.72941E-14
 -1      3640 2.02124E+01 1.60577E+00-2.03725E-03 2.01856E-01 9.51152E-14-3.22821E-15
 -1      3641 2.57300E+01-2.63682E+00-4.33249E-03-2.42674E-01 3.75980E-13-2.35766E-13
 -1      3642 2.03171E+01-1.78086E+00 1.12114E-02 3.90281E+00 1.41311E-13-6.16017E-13
 -1      3643 2.11703E+01-2.00766E+00 1.59647E-02 3.66599E+00 9.80084E-14-5.49438E-13
 -1      3644 2.47255E+01-2.74532E+00 1.85027E-02 4.40241E-01-3.00865E-13 4.53986E-14
 -1      3645 2.41871E+01-2.87370E+00 4.97506E-02-1.81067E-01-2.02628E-13-1.36757E-14
 -1      3646 2.01084E+01-2.79823E+00 2.02556E-02 4.63186E+00-7.83262E-14-6.52360E-13
 -1      3647 1.89604E+01-2.34119E+00 1.00003E-01 4.92397E+00 3.78343E-14-8.58515E-13
 -1      3648 1.79313E+01-1.73404E+00-8.36114E-03 4.61680E+00 5.02862E-14-9.49275E-13
 -1      3649 2.60831E+01 5.73541E-01 2.14434E-02 2.47168E+00 1.46438E-13-7.17253E-13
 -1      3650 1.32264E+01 5.46095E-01 2.42566E-02-1.39240E+00 1.43436E-13-3.92610E-13
 -1      3651 1.30812E+01 2.03094E-01 9.44887E-02-2.37194E+00 1.76794E-13-4.27047E-13
 -1      3652 1.44041E+01 4.29209E-01-1.91973E-02 2.56576E+00 1.06407E-13-7.57089E-13
 -1      3653 2.18277E+01-4.50218E+00 5.49196E-02-3.94497E+00 1.99285E-14-7.62012E-13
 -1      3654 2.28260E+01-4.38351E+00-3.93321E-02-2.88794E+00-7.57077E-14-7.25986E-13
 -1      3655 2.04027E+01-3.77686E+00 1.86109E-02-4.06976E+00-1.68719E-14-6.76572E-13
 -1      3656 1.56408E+01 3.53027E-02 5.06779E-02 3.39446E+00 1.27039E-13-1.07587E-12
 -1      3657 1.39447E+01-2.49389E-01 1.03832E-02-2.90108E+00 1.63533E-13-3.82964E-13
 -1      3658 2.00790E+01-5.93409E-02 2.73670E-04-1.58035E-01-4.68783E-14 4.71855E-14
 -1      3659 2.00867E+01-5.27867E-02 4.25619E-04-1.62160E-01-2.37239E-14 3.52115E-14
 -1      3660 2.01412E+01-4.93903E-02-6.40935E-04-1.52707E-01-8.57670E-15 4.33224E-14
 -1      3661 2.01132E+01-6.57852E-02-5.37690E-04-1.46974E-01-1.62629E-14-1.75710E-14
 -1      3662 1.61563E+01-2.19278E+00 1.01779E-01-4.70138E+00 1.37494E-13-5.09603E-13
 -1      3663 1.77197E+01-2.68557E+00 3.66846E-02-4.43277E+00 1.24161E-13-6.41681E-13
 -1      3664 1.51975E+01-1.34493E+00 4.53839E-03-3.99441E+00 2.41793E-13-3.58810E-13
 -1      3665 2.54348E+01 4.48694E+00-1.18681E-01 1.47278E+00-2.55185E-13-3.69725E-13
 -1      3666 1.28267E+01 5.95483E-01 7.80721E-02 9.23184E-01 3.34828E-14-1.96222E-13
 -1      3667 2.02122E+01 1.60953E+00-1.71734E-03-1.96434E-01 1.24627E-13-7.48525E-15
 -1      3668 2.02215E+01 1.55063E+00-4.33215E-03-2.80661E-01 1.19396E-13-4.66877E-14
 -1      3669 2.20594E+01-1.52522E+00-2.49577E-03 2.09994E+00 4.44418E-13 2.51336E-13
 -1      3670 2.02351E+01 3.20663E-01-1.97398E-03 1.67255E-02 8.57398E-14 4.23217E-14
 -1      3671 2.02649E+01 4.30034E-01 2.88982E-03 9.08740E-02 8.07665E-14 8.22159E-14
 -1      3672 2.02872E+01 1.38529E+00 5.13828E-03 1.34323E-01 8.99607E-14-8.32009E-15
 -1      3673 2.02039E+01 1.63877E+00-3.33103E-03 1.30702E-01 1.10556E-13-1.00592E-14
 -1      3674 2.01999E+01 1.65861E+00-2.64275E-03 3.99858E-02 1.06601E-13-9.57351E-15
 -1      3675 1.94153E+01-1.48191E+00 4.95967E-02 4.20367E+00 8.21114E-14-7.23574E-13
 -1      3676 2.01541E+01-2.47942E+00-2.90050E-02 4.33240E+00-4.73406E-14-5.78261E-13
 -1      3677 2.34736E+01-3.26401E+00-4.39429E-02-1.07307E+00-3.22936E-13-2.26384E-13
 -1      3678 2.21222E+01-1.94619E+00-2.28985E-02 2.52227E+00 3.85897E-13 7.92743E-14
 -1      3679 2.02247E+01 2.33414E-01 2.56760E-03-3.53293E-02 8.44994E-14 1.45582E-14
 -1      3680 2.02822E+01 3.28139E-01-4.69721E-04 7.83998E-03 9.46862E-14 6.18992E-14
 -1      3681 2.01980E+01 1.60608E-01-1.27572E-03-8.03639E-02 8.38278E-14 8.33223E-16
 -1      3682 2.52025E+01 3.68200E+00-2.55651E-02 1.82521E+00-2.38441E-13-2.81428E-13
 -1      3683 1.80541E+01-1.04666E+00 1.10700E-02 4.10585E+00 9.22396E-14-1.05329E-12
 -1      3684 1.29161E+01 6.21142E-01 2.62266E-02-1.49777E+00 1.12289E-14-2.86791E-13
 -1      3685 2.02395E+01 1.47523E+00-5.23568E-04-3.29527E-01 1.09796E-13-6.09262E-14
 -1      3686 2.02570E+01 1.36450E+00-3.39691E-03-3.81090E-01 9.38643E-14-6.45191E-14
 -1      3687 2.03007E+01 1.27049E+00 3.97335E-03-2.35488E-01 9.64089E-14-3.90250E-14
 -1      3688 1.67100E+01-1.49292E+00 7.31803E-02-4.74568E+00-5.72042E-13-2.53981E-13
 -1      3689 2.02898E+01 9.31974E-01-2.69536E-03-3.40913E-01 3.67384E-14-5.55047E-14
 -1      3690 2.03148E+01 9.32230E-01 2.64494E-04-2.84131E-01 2.95552E-14-3.65641E-14
 -1      3691 2.11462E+01-3.09125E+00-2.11063E-02 4.30701E+00 6.91582E-14-7.81687E-13
 -1      3692 2.55382E+01-3.04851E+00-3.39507E-03 3.73510E-01-1.55827E-13-3.96169E-13
 -1      3693 2.51916E+01-3.92902E+00-4.67192E-02-7.76597E-01-8.42850E-14-6.38344E-13
 -1      3694 2.03358E+01 2.16426E-01 1.32293E-03 4.68844E-02 6.46048E-15 2.14960E-14
 -1      3695 2.03152E+01 1.42099E-01-1.02866E-03 7.62749E-02-9.68085E-15 4.77561E-14
 -1      3696 2.03002E+01 8.35004E-02 1.07198E-03 9.26126E-02 1.35034E-14 5.76094E-14
 -1      3697 2.02788E+01 3.58139E-02-5.06514E-04 1.08173E-01 1.69058E-14 6.24668E-14
 -1      3698 2.03420E+01 1.32160E-01-1.13551E-04 6.85092E-02 2.04603E-14 1.16016E-14
 -1      3699 2.02596E+01-3.78212E-04 7.79029E-04 1.15253E-01-7.39814E-15 9.56708E-14
 -1      3700 2.02394E+01-2.85705E-02-1.27169E-04 1.21395E-01 6.55183E-15 8.38861E-14
 -1      3701 2.03034E+01 2.68686E-02-3.71093E-04 9.41770E-02 1.17422E-14 5.79740E-14
 -1      3702 2.02189E+01-4.86575E-02 5.29118E-04 1.22436E-01 4.39708E-14 5.96424E-14
 -1      3703 2.02009E+01-6.28596E-02 1.25964E-04 1.22657E-01 5.73228E-14 6.95194E-14
 -1      3704 2.02612E+01-3.61779E-02-4.93237E-04 1.04614E-01 2.26649E-14 1.07460E-13
 -1      3705 2.01808E+01-7.14302E-02 3.19531E-04 1.20179E-01 5.59265E-14 8.62697E-14
 -1      3706 2.01652E+01-7.56482E-02 2.82713E-04 1.17188E-01 5.52424E-14 6.37220E-14
 -1      3707 2.02195E+01-6.86929E-02-5.28543E-04 1.05331E-01 6.12185E-14 1.54051E-13
 -1      3708 2.01464E+01-7.60188E-02 1.46092E-04 1.13123E-01 8.92239E-15 7.30963E-14
 -1      3709 2.01332E+01-7.30926E-02 3.70615E-04 1.08943E-01 1.57749E-14 3.65037E-14
 -1      3710 2.01803E+01-7.92591E-02-4.97296E-04 1.00702E-01 3.82888E-14 1.13300E-13
 -1      3711 2.01158E+01-6.75377E-02-6.87138E-07 1.04723E-01 3.10847E-14 2.81115E-14
 -1      3712 2.01047E+01-5.93506E-02 4.16740E-04 1.00862E-01 2.29971E-14 7.01260E-14
 -1      3713 2.01447E+01-7.40671E-02-4.26545E-04 9.40374E-02 1.72701E-14 6.56724E-14
 -1      3714 2.00888E+01-4.93124E-02-1.31342E-04 9.75745E-02 1.62271E-14 7.29974E-14
 -1      3715 2.00792E+01-3.70092E-02 4.36072E-04 9.51929E-02 4.32873E-14 5.52380E-14
 -1      3716 2.01124E+01-5.72478E-02-3.31664E-04 8.78244E-02 3.77988E-14 9.54265E-14
 -1      3717 2.00641E+01-2.33113E-02-2.56110E-04 9.36883E-02 6.68473E-16-1.47271E-14
 -1      3718 2.00556E+01-7.47020E-03 4.39887E-04 9.37062E-02-3.05789E-14 2.75061E-14
 -1      3719 2.00828E+01-3.13236E-02-2.14516E-04 8.39958E-02 2.17479E-14 3.22830E-14
 -1      3720 2.00406E+01 9.55594E-03-3.86478E-04 9.46793E-02 1.47717E-14 6.42914E-14
 -1      3721 2.00323E+01 2.87992E-02 4.35726E-04 9.78826E-02-1.46028E-14 9.73746E-14
 -1      3722 2.00545E+01 2.38595E-03-7.61493E-05 8.40760E-02 2.28303E-14 1.10242E-14
 -1      3723 2.00163E+01 4.91954E-02-5.32288E-04 1.01950E-01-2.59913E-14 1.57423E-13
 -1      3724 2.00075E+01 7.20330E-02 4.27385E-04 1.09065E-01-2.06926E-14 2.19917E-13
 -1      3725 2.00256E+01 4.35144E-02 8.47015E-05 8.93447E-02 5.25588E-14 4.76117E-14
 -1      3726 1.99894E+01 9.61061E-02-7.01950E-04 1.16820E-01-7.41942E-14 2.47639E-13
 -1      3727 1.99789E+01 1.22950E-01 4.15083E-04 1.28560E-01-1.05483E-13 2.03805E-13
 -1      3728 1.99941E+01 9.24004E-02 2.73583E-04 1.00964E-01-2.53336E-14 1.15861E-13
 -1      3729 1.99571E+01 1.51169E-01-9.03240E-04 1.40598E-01-6.33530E-14 2.57210E-13
 -1      3730 1.99438E+01 1.82542E-01 3.95959E-04 1.57685E-01-7.53046E-14 2.42844E-13
 -1      3731 1.99570E+01 1.49847E-01 4.98749E-04 1.20050E-01-7.78074E-14 2.16969E-13
 -1      3732 1.99164E+01 2.15426E-01-1.14337E-03 1.74613E-01-1.26977E-13 2.41036E-13
 -1      3733 1.98989E+01 2.51842E-01 3.64598E-04 1.97780E-01-7.11154E-14 2.01416E-13
 -1      3734 1.99112E+01 2.16886E-01 7.70815E-04 1.47696E-01-8.26069E-14 2.52083E-13
 -1      3735 1.98638E+01 2.89826E-01-1.42930E-03 2.20204E-01 1.85417E-14 2.20655E-13
 -1      3736 1.98402E+01 3.31633E-01 3.14032E-04 2.50171E-01-1.87404E-16 1.96676E-13
 -1      3737 1.98528E+01 2.94513E-01 1.10266E-03 1.84966E-01-1.41794E-14 3.20295E-13
 -1      3738 1.97949E+01 3.74896E-01-1.76872E-03 2.78677E-01-6.90119E-14 2.00944E-13
 -1      3739 1.97631E+01 4.22076E-01 2.37956E-04 3.16121E-01-2.08390E-14 6.97262E-14
 -1      3740 1.97771E+01 3.83369E-01 1.50942E-03 2.32852E-01-4.79425E-14 2.38005E-13
 -1      3741 1.97043E+01 4.70299E-01-2.17216E-03 3.51259E-01 2.37559E-14 8.77905E-14
 -1      3742 1.96618E+01 5.22198E-01 1.35310E-04 3.96787E-01 2.97910E-15 1.08181E-13
 -1      3743 1.96785E+01 4.83330E-01 2.00863E-03 2.92230E-01-3.17192E-14 1.51027E-13
 -1      3744 1.95862E+01 5.74237E-01-2.65739E-03 4.39095E-01-5.98702E-14 9.43031E-14
 -1      3745 1.95301E+01 6.29187E-01 1.91229E-05 4.93274E-01-9.05964E-14 1.14800E-13
 -1      3746 1.95506E+01 5.92978E-01 2.62083E-03 3.63852E-01-1.44207E-14 1.36694E-13
 -1      3747 1.94332E+01 6.82609E-01-3.25726E-03 5.43400E-01-4.10943E-14 9.18305E-14
 -1      3748 1.93605E+01 7.37423E-01-6.78195E-05 6.06907E-01 4.77547E-14 8.24147E-14
 -1      3749 1.93856E+01 7.08917E-01 3.37115E-03 4.48482E-01-4.85292E-14 2.58258E-14
 -1      3750 1.92374E+01 7.87878E-01-4.03265E-03 6.65936E-01 7.83547E-14 1.30889E-13
 -1      3751 1.91455E+01 8.37165E-01-2.96015E-05 7.39962E-01 1.46885E-13 1.03348E-13
 -1      3752 1.91745E+01 8.24889E-01 4.29214E-03 5.47331E-01 8.80650E-14 1.79454E-13
 -1      3753 1.89900E+01 8.77520E-01-5.09339E-03 8.10113E-01 1.76183E-13-1.01828E-13
 -1      3754 1.88772E+01 9.12791E-01 3.15349E-04 8.97202E-01 1.50746E-13-6.93204E-14
 -1      3755 1.89069E+01 9.30649E-01 5.42564E-03 6.63087E-01 7.42261E-14 4.17526E-16
 -1      3756 1.86819E+01 9.32023E-01-6.63397E-03 9.83078E-01 1.72144E-13-8.25532E-14
 -1      3757 1.85494E+01 9.40677E-01 1.34680E-03 1.08866E+00 1.38485E-13-5.32699E-14
 -1      3758 1.85701E+01 1.01058E+00 6.82601E-03 8.01859E-01 1.74667E-13-1.38725E-13
 -1      3759 1.83048E+01 9.22388E-01-8.91292E-03 1.19996E+00 8.27034E-14-8.65338E-14
 -1      3760 1.81588E+01 8.85354E-01 3.59389E-03 1.33513E+00 6.19856E-14-6.85902E-14
 -1      3761 1.81492E+01 1.04258E+00 8.66648E-03 9.76950E-01 1.22725E-13-1.11831E-13
 -1      3762 1.78533E+01 8.04950E-01-1.21441E-02 1.48919E+00 7.80899E-14 4.25502E-14
 -1      3763 1.77073E+01 6.91801E-01 6.60181E-03 1.67551E+00 1.11346E-13 1.29270E-13
 -1      3764 1.76259E+01 9.92606E-01 1.08667E-02 1.21490E+00 9.12905E-14 3.45892E-14
 -1      3765 1.73180E+01 5.23186E-01-1.72291E-02 1.89991E+00 5.15638E-14 3.44226E-14
 -1      3766 1.71632E+01 2.48427E-01-8.30568E-03 2.19565E+00 4.74703E-14 2.99951E-14
 -1      3767 1.69777E+01 8.06580E-01 1.17815E-02 1.55767E+00 8.14678E-14 9.95261E-14
 -1      3768 2.01615E+01 5.74271E-02-6.31761E-04-1.34571E-01 1.27060E-14-3.40250E-14
 -1      3769 2.01826E+01 1.04186E-01 1.86711E-03-1.10480E-01 5.20644E-14-5.29493E-15
 -1      3770 2.02099E+01 5.41083E-02-7.43722E-04-1.26435E-01 1.52813E-14 7.44469E-15
 -1      3771 2.02375E+01 1.48164E+00-1.38240E-03 3.45793E-01 8.28174E-14 3.14991E-14
 -1      3772 2.02995E+01 1.28401E+00 5.26415E-03 2.51717E-01 8.14868E-14 3.60551E-14
 -1      3773 2.02522E+01 1.38073E+00-5.52107E-03 4.14324E-01 7.07677E-14 5.97647E-14
 -1      3774 1.57994E+01-1.88813E-02 8.25944E-03 2.58593E+00 4.31052E-15-1.87394E-15
 -1      3775 2.32602E+01-3.75877E+00 1.06946E-02-1.96460E+00-2.05131E-13-5.25876E-13
 -1      3776 2.23828E+01-3.32234E+00 4.94762E-02-2.32659E+00-2.63751E-13-4.60539E-13
 -1      3777 2.01996E+01 1.65928E+00-2.66317E-03-3.46473E-02 1.12705E-13-2.61308E-14
 -1      3778 2.02030E+01 1.64079E+00-3.40349E-03-1.25375E-01 1.19310E-13-3.71812E-14
 -1      3779 2.02854E+01 1.38810E+00 4.84828E-03-1.30080E-01 1.04910E-13-2.51859E-14
 -1      3780 2.02818E+01 1.41974E+00 4.99547E-03 2.07172E-03 9.66343E-14-2.01950E-14
 -1      3781 2.00910E+01-5.94712E-02 4.41069E-04-1.12211E-01-5.39010E-14-2.57078E-14
 -1      3782 2.00997E+01-6.63465E-02 5.52491E-07-1.16980E-01-3.58528E-14-3.46093E-14
 -1      3783 2.00143E+01 5.50596E-02 5.26523E-04-1.14738E-01-2.04844E-15-1.73610E-15
 -1      3784 2.00195E+01 3.52192E-02-5.14812E-04-1.08224E-01-4.76540E-14-1.86497E-14
 -1      3785 1.99942E+01 9.86490E-02 5.56686E-04-1.33961E-01 4.87576E-14 3.49840E-14
 -1      3786 1.99999E+01 7.56807E-02-6.63004E-04-1.22594E-01 4.70972E-14 6.11699E-15
 -1      3787 2.00040E+01 7.32344E-02 1.50812E-04-1.10070E-01 1.62007E-14-3.22023E-14
 -1      3788 1.99703E+01 1.48645E-01 5.99147E-04-1.63662E-01 1.64989E-14 1.46068E-13
 -1      3789 1.99772E+01 1.22366E-01-8.34310E-04-1.46649E-01 6.25826E-14 1.26286E-13
 -1      3790 1.99755E+01 1.23039E-01 3.11622E-04-1.30275E-01-1.32325E-14 1.32250E-13
 -1      3791 1.99410E+01 2.05194E-01 6.56823E-04-2.05478E-01 4.69339E-14 1.09409E-13
 -1      3792 1.99498E+01 1.75568E-01-1.03209E-03-1.81993E-01 4.15572E-14 1.04334E-13
 -1      3793 1.99413E+01 1.80026E-01 4.91665E-04-1.60545E-01 6.88519E-14 1.32685E-13
 -1      3794 1.99042E+01 2.67857E-01 7.34041E-04-2.61144E-01 1.02085E-13 5.85212E-14
 -1      3795 1.99155E+01 2.35193E-01-1.25660E-03-2.30341E-01 1.04169E-13 8.19549E-14
 -1      3796 1.98990E+01 2.44248E-01 6.90376E-04-2.02520E-01 1.01878E-13 5.31757E-14
 -1      3797 1.98581E+01 3.35114E-01 8.39199E-04-3.32468E-01 1.53187E-14 1.73418E-13
 -1      3798 1.98724E+01 3.00328E-01-1.50405E-03-2.93519E-01 7.97711E-14 1.11003E-13
 -1      3799 1.98460E+01 3.15034E-01 9.02578E-04-2.58009E-01 2.72756E-14 1.17572E-13
 -1      3800 1.98014E+01 4.03721E-01 9.89073E-04-4.21290E-01-7.56469E-14 2.03306E-13
 -1      3801 1.98189E+01 3.68684E-01-1.76546E-03-3.73430E-01-1.36725E-14 1.65623E-13
 -1      3802 1.97799E+01 3.90448E-01 1.11520E-03-3.29012E-01-4.90065E-14 1.23231E-13
 -1      3803 1.97337E+01 4.67878E-01 1.21561E-03-5.29452E-01-8.79552E-14 1.59447E-13
 -1      3804 1.97540E+01 4.35853E-01-2.02497E-03-4.72029E-01-9.74711E-14 2.06503E-13
 -1      3805 1.96987E+01 4.66593E-01 1.30245E-03-4.17776E-01-7.89574E-14 1.14423E-13
 -1      3806 1.96565E+01 5.18159E-01 1.57592E-03-6.58818E-01-1.80644E-13 8.93578E-14
 -1      3807 1.96779E+01 4.94365E-01-2.25680E-03-5.91331E-01-9.17677E-14 1.21313E-13
 -1      3808 1.96011E+01 5.36722E-01 1.41838E-03-5.26918E-01-5.51879E-14 1.25409E-13
 -1      3809 1.95747E+01 5.40192E-01 2.16419E-03-8.11379E-01-2.58889E-13 3.22589E-14
 -1      3810 1.95934E+01 5.32494E-01-2.41816E-03-7.33504E-01-2.18797E-13 1.37667E-13
 -1      3811 1.94880E+01 5.90132E-01 1.38463E-03-6.59692E-01-2.14660E-13 6.89520E-14
 -1      3812 1.94988E+01 5.13059E-01 3.10932E-03-9.89414E-01-5.80559E-14-2.13414E-14
 -1      3813 1.95077E+01 5.32811E-01-2.43048E-03-9.01056E-01-1.50010E-13-2.27429E-14
 -1      3814 1.93632E+01 6.10769E-01 1.06604E-03-8.20473E-01-1.30801E-13-1.13420E-13
 -1      3815 1.94485E+01 4.07585E-01 4.56852E-03-1.19534E+00 5.68317E-14-1.16082E-13
 -1      3816 1.94349E+01 4.70488E-01-2.13945E-03-1.09694E+00 1.60548E-14-6.09350E-15
 -1      3817 1.92362E+01 5.75424E-01 2.17454E-04-1.01542E+00-1.20678E-14-1.41248E-13
 -1      3818 1.94577E+01 1.85498E-01 6.78509E-03-1.43032E+00 4.25447E-14-2.18494E-14
 -1      3819 1.94013E+01 3.11819E-01-1.19366E-03-1.32388E+00 2.57166E-14-3.25697E-14
 -1      3820 1.91257E+01 4.51600E-01-1.52760E-03-1.25277E+00 3.73866E-14-3.17122E-14
 -1      3821 1.95823E+01-2.00231E-01 9.99172E-03-1.69179E+00-1.75570E-14-1.02844E-13
 -1      3822 1.94506E+01 1.46301E-02 1.01555E-03-1.58286E+00 5.50826E-14-3.49504E-14
 -1      3823 1.90655E+01 1.97712E-01-4.37830E-03-1.54204E+00 5.15892E-14 2.12532E-13
 -1      3824 1.99049E+01-8.09618E-01 1.05390E-02-1.96486E+00 6.54145E-14-2.36230E-13
 -1      3825 1.96567E+01-4.72051E-01 6.10493E-03-1.86869E+00-1.47537E-14-1.12895E-13
 -1      3826 1.91121E+01-2.41619E-01-9.70802E-03-1.89202E+00 8.82443E-15-9.71150E-14
 -1      3827 2.05781E+01-1.65577E+00 1.84732E-02-2.17108E+00-1.23711E-13-1.68035E-13
 -1      3828 2.01500E+01-1.19945E+00 1.87438E-02-2.13486E+00 1.36980E-14-2.00551E-13
 -1      3829 1.93734E+01-9.63301E-01-2.51993E-02-2.30127E+00 2.54310E-14-1.70640E-13
 -1      3830 2.16372E+01-2.71905E+00 2.22979E-02-2.25743E+00-2.59421E-13-4.24882E-13
 -1      3831 2.09624E+01-2.17840E+00 3.07561E-02-2.36960E+00-1.90840E-13-3.61074E-13
 -1      3832 1.98953E+01-1.89255E+00-2.85959E-02-2.72462E+00-1.21978E-13-2.26917E-13
 -1      3833 2.08860E+01-3.17143E+00-1.74961E-02-3.19212E+00-2.02057E-13-5.09568E-13
 -1      3834 2.19531E+01-2.01393E+00 4.86728E-03 2.85825E+00 2.31471E-13-1.50048E-13
 -1      3835 1.84994E+01-1.07539E+00-3.49085E-02-4.15468E+00-3.14725E-13 8.42382E-15
 -1      3836 1.35330E+01 8.90164E-01 5.70399E-02-6.07603E-01 1.39070E-13-4.18412E-13
 -1      3837 1.40799E+01 5.87898E-01-2.24160E-02-1.44529E+00 2.25550E-13-3.84980E-13
 -1      3838 2.43629E+01-3.95702E+00 4.21862E-02-1.44451E+00-9.84104E-14-5.72892E-13
 -1      3839 2.22639E+01-2.61934E+00 2.75542E-02 3.15944E+00 1.63336E-13-3.30441E-13
 -1      3840 2.00506E+01-1.42375E-02 4.89003E-04-1.01639E-01-3.60496E-14 4.40739E-14
 -1      3841 2.00565E+01-2.81735E-02-2.61072E-04-1.02507E-01-7.40356E-14 2.51951E-14
 -1      3842 1.47734E+01-2.88316E-02 1.11564E-02-2.60244E+00 1.78457E-13-3.95803E-13
 -1      3843 1.48656E+01-5.08340E-01 6.82383E-02-3.30647E+00 1.46152E-13-3.48398E-13
 -1      3844 1.59385E+01-1.03863E+00 3.32167E-03-3.52301E+00 1.38727E-13-4.45826E-13
 -1      3845 2.03578E+01 7.05325E-01 2.13169E-03-1.46541E-01 3.05449E-14-2.91449E-14
 -1      3846 2.03520E+01 5.46314E-01-2.47663E-03-7.53952E-02 3.04786E-14-2.60641E-14
 -1      3847 1.93611E+01-1.48542E+00 2.85577E-03-4.16841E+00-4.11375E-13-2.28326E-13
 -1      3848 2.00326E+01 1.75191E-02 5.05478E-04-1.04457E-01-3.94490E-14 7.54320E-15
 -1      3849 2.00379E+01 6.39434E-04-3.83773E-04-1.02025E-01-2.71144E-14 3.13849E-14
 -1      3850 2.00292E+01 3.02599E-02 7.47849E-06-9.84253E-02-8.23333E-15-1.07889E-14
 -1      3851 2.02587E+01 5.21568E-01-1.98708E-03 1.53445E-01 7.37885E-14 8.60424E-14
 -1      3852 2.02807E+01 6.42835E-01 2.84447E-03 2.47706E-01 7.07837E-14 1.06397E-13
 -1      3853 2.02968E+01 7.64222E-01-2.14453E-03 2.81769E-01 6.92384E-14 8.47069E-14
 -1      3854 2.02964E+01 5.33881E-01-8.62753E-04 1.26609E-01 9.01173E-14 8.91099E-14
 -1      3855 2.31697E+01-3.62290E+00 2.37080E-02 3.17687E+00 9.29326E-14-5.34480E-13
 -1      3856 2.03087E+01 1.07027E+00 5.07873E-03 3.50377E-01 6.73151E-14 7.32100E-14
 -1      3857 2.00697E+01-4.01243E-02 4.70565E-04-1.04773E-01-1.03686E-13 1.95472E-14
 -1      3858 2.00767E+01-5.08702E-02-1.39230E-04-1.08091E-01-7.75648E-14 3.96123E-17
 -1      3859 2.01029E+01-5.88998E-02-3.45214E-04-1.00544E-01-6.68076E-14 2.00932E-14
 -1      3860 2.00770E+01-3.61128E-02-2.35863E-04-9.51411E-02-8.82437E-14-2.49721E-14
 -1      3861 1.37112E+01 5.68601E-01 4.34579E-02 1.56833E+00-2.36720E-14-2.57572E-14
 -1      3862 1.31964E+01 7.86902E-01 5.57674E-05 2.85724E-01 7.16397E-14-3.52714E-13
 -1      3863 2.51986E+01 2.36174E+00-1.42796E-01 2.49003E+00 3.78378E-14-3.75526E-13
 -1      3864 2.03584E+01 4.15927E-01 1.34055E-03-3.00802E-02 3.62568E-14-2.33992E-14
 -1      3865 2.03428E+01 3.05519E-01-1.69569E-03 1.78462E-02 1.96238E-14-6.95579E-15
 -1      3866 2.03792E+01 5.32271E-01 6.77259E-04-5.47788E-02 3.86520E-14-2.26197E-14
 -1      3867 2.02809E+01 1.20737E+00-1.83425E-03-4.73037E-01 5.66162E-14-5.65453E-14
 -1      3868 2.02597E+01 1.35221E+00-4.88282E-05-4.43686E-01 6.98202E-14-6.77770E-14
 -1      3869 2.03051E+01 1.17304E+00 4.10244E-03-3.32091E-01 5.66391E-14-3.82629E-14
 -1      3870 2.01154E+01-7.07323E-02 3.92455E-04-1.21956E-01-3.26055E-14-6.41915E-14
 -1      3871 2.01264E+01-7.25783E-02 1.67155E-04-1.26914E-01-1.83346E-14-9.61707E-14
 -1      3872 2.01318E+01-7.31071E-02-4.54989E-04-1.08401E-01-6.50872E-14-7.24347E-14
 -1      3873 2.02113E+01-2.14027E-02-1.59176E-04-1.35191E-01-2.43598E-14 1.31465E-14
 -1      3874 2.02303E+01 7.20674E-03 9.17211E-04-1.27940E-01-1.81219E-14 2.83516E-15
 -1      3875 2.02477E+01 1.62010E-01-6.51674E-04-7.81081E-02 7.15289E-14 1.61905E-14
 -1      3876 1.41862E+01 9.18142E-01 2.59547E-02 6.60098E-02 1.30664E-13-3.99406E-13
 -1      3877 1.67557E+01 2.95188E-01 1.01288E-02 2.15396E+00 8.90087E-15 7.10747E-14
 -1      3878 1.45675E+01 4.24471E-01 1.12129E-03 1.97184E+00-4.17648E-14 1.43594E-13
 -1      3879 2.03222E+01 1.18222E+00-1.54921E-03-7.50721E-02 9.49388E-14-2.73684E-14
 -1      3880 2.03226E+01 1.14639E+00-3.30623E-03-1.32440E-01 9.84274E-14-2.36284E-14
 -1      3881 2.03134E+01 9.10737E-01-3.72070E-04 2.60047E-01 8.50453E-14 6.59576E-14
 -1      3882 2.50954E+01-2.49580E+00-1.14156E-01 1.11815E+00-1.93078E-13-1.86857E-13
 -1      3883 1.47849E+01 7.66023E-01-1.78525E-02 1.30973E+00 1.57339E-14-1.82189E-14
 -1      3884 1.69773E+01-5.60449E-01 2.24782E-02 4.00443E+00 1.01968E-13-1.16702E-12
 -1      3885 1.49252E+01 4.24917E-01 5.49992E-02-2.05153E+00 1.30064E-13-4.10246E-13
 -1      3886 1.55071E+01 1.50814E-02-1.72956E-02-2.47980E+00 9.93162E-14-2.91801E-13
 -1      3887 2.00529E+01-6.19630E-03-1.20718E-04-9.39210E-02-3.09572E-14-1.03483E-14
 -1      3888 2.03210E+01 9.41845E-01-2.67625E-03-2.35828E-01 5.52500E-14-4.04099E-14
 -1      3889 2.03439E+01 9.18196E-01 3.80763E-04-1.84736E-01 6.37545E-14-2.77486E-14
 -1      3890 1.89099E+01-2.90684E+00 4.75700E-02-4.21950E+00 1.92554E-14-6.75439E-13
 -1      3891 2.01594E+01-3.07642E+00 2.29041E-02-3.57125E+00-7.65759E-14-6.03895E-13
 -1      3892 1.95330E+01-2.36036E+00 1.01877E-02-3.35138E+00-6.99944E-14-4.23606E-13
 -1      3893 1.75498E+01-2.01874E+00-6.51733E-03-3.95692E+00 1.21946E-13-5.36526E-13
 -1      3894 2.03287E+01 1.03431E+00-2.51683E-03 2.19833E-01 8.33907E-14 4.28552E-14
 -1      3895 2.03268E+01 1.10511E+00-6.64670E-04 1.75363E-01 6.98573E-14 3.52977E-14
 -1      3896 2.03223E+01 1.14440E+00-3.63361E-03 1.34300E-01 6.55469E-14 2.06650E-15
 -1      3897 2.03210E+01 1.18061E+00-2.00919E-03 7.81804E-02 8.01335E-14-1.83715E-14
 -1      3898 2.03725E+01 9.36863E-01 4.20875E-03 1.15013E-01 6.14522E-14 1.85915E-14
 -1      3899 2.01758E+01-5.68301E-02 1.08819E-04-1.37480E-01 1.61800E-14-3.60437E-14
 -1      3900 2.01920E+01-4.19354E-02 6.05217E-04-1.37088E-01-3.80445E-15-5.57301E-14
 -1      3901 2.02398E+01-2.86758E-02-5.40183E-04-1.20027E-01 2.47585E-14-4.89862E-14
 -1      3902 2.03149E+01 3.13596E-01-1.53017E-03-1.03818E-02 1.08451E-13 6.93457E-14
 -1      3903 2.03329E+01 4.23607E-01 1.60290E-03 4.47581E-02 1.03221E-13 8.82972E-14
 -1      3904 2.23444E+01-2.99084E+00 5.32953E-02 3.41588E+00 4.86950E-14-4.00010E-13
 -1      3905 2.03357E+01 1.07622E+00 3.52445E-04-1.47421E-01 9.10761E-14-2.63480E-14
 -1      3906 2.03422E+01 9.93667E-01-1.84348E-03-1.81619E-01 7.55841E-14-4.01116E-14
 -1      3907 2.03757E+01 7.50475E-01-2.53106E-04-1.00159E-01 6.77644E-14-2.66088E-14
 -1      3908 2.03781E+01 9.01214E-01 2.29745E-03-8.93951E-02 8.08419E-14-1.73385E-14
 -1      3909 2.03706E+01 2.94102E-01 1.56520E-04 2.10772E-02 2.06289E-14 3.34574E-14
 -1      3910 1.49351E+01 6.74022E-01 5.21485E-03-1.39464E+00 1.32573E-13-3.08815E-13
 -1      3911 2.03595E+01 5.48917E-01 6.64484E-04 7.82787E-02 8.40548E-14 7.78248E-14
 -1      3912 2.03310E+01 5.56633E-01-1.56617E-03 1.02525E-01 9.04712E-14 6.97014E-14
 -1      3913 2.03365E+01 6.70216E-01 2.14709E-03 1.69373E-01 8.69063E-14 7.30719E-14
 -1      3914 2.02850E+01 1.49896E-01-1.00660E-03-8.02528E-02 7.61696E-14 6.85644E-14
 -1      3915 2.03061E+01 2.24040E-01 1.41783E-03-4.63591E-02 1.02157E-13 7.39967E-14
 -1      3916 2.03476E+01 3.07097E-01 9.19322E-05-1.56544E-02 1.08497E-13 1.11538E-13
 -1      3917 2.03422E+01 5.34291E-02 6.12207E-04 7.12432E-02 4.39876E-14 4.22905E-14
 -1      3918 2.03204E+01 1.00577E-02-2.84688E-04 8.07756E-02 3.02047E-14 7.91378E-14
 -1      3919 2.02990E+01-2.26346E-02 4.90678E-04 8.35141E-02 1.68288E-14 9.24129E-14
 -1      3920 2.02770E+01-4.72448E-02 3.96813E-07 8.69863E-02 4.35822E-14 1.10819E-13
 -1      3921 2.03310E+01-1.07009E-03-3.73776E-04 6.31012E-02 4.97232E-14 1.10668E-13
 -1      3922 2.02542E+01-6.41352E-02 3.67483E-04 8.64167E-02 5.43412E-14 9.04080E-14
 -1      3923 2.02333E+01-7.50875E-02 1.82205E-04 8.62191E-02 7.12986E-14 9.86016E-14
 -1      3924 2.02852E+01-5.47025E-02-4.83676E-04 6.73946E-02 4.27963E-14 1.26615E-13
 -1      3925 2.02109E+01-8.06704E-02 2.47812E-04 8.39453E-02 4.75885E-14 8.83659E-14
 -1      3926 2.01918E+01-8.18292E-02 2.86605E-04 8.18495E-02-3.41568E-15 5.60950E-14
 -1      3927 2.02394E+01-7.91920E-02-4.86456E-04 6.66314E-02 3.23474E-14 5.71192E-14
 -1      3928 2.01706E+01-7.92455E-02 1.27103E-04 7.89874E-02 2.20426E-14 6.52899E-14
 -1      3929 2.01536E+01-7.32984E-02 3.38484E-04 7.63849E-02 7.27527E-14 1.03370E-13
 -1      3930 2.01959E+01-8.29102E-02-4.76691E-04 6.33150E-02 3.21134E-14 8.71916E-14
 -1      3931 2.01336E+01-6.46491E-02 1.10287E-05 7.37582E-02 3.74793E-14 2.68112E-14
 -1      3932 2.01183E+01-5.32914E-02 3.50153E-04 7.17328E-02 1.99685E-14 3.53706E-14
 -1      3933 2.01554E+01-7.12978E-02-4.06702E-04 5.94052E-02 4.17006E-14 5.79382E-14
 -1      3934 2.00994E+01-3.99170E-02-1.05148E-04 7.00561E-02 1.40468E-14-2.26788E-15
 -1      3935 2.00852E+01-2.41770E-02 3.33467E-04 6.94297E-02 1.31419E-14-2.21789E-14
 -1      3936 2.01176E+01-4.79896E-02-2.93421E-04 5.63047E-02-9.98693E-15-6.67607E-14
 -1      3937 2.00666E+01-6.77693E-03-2.29301E-04 6.92064E-02 1.09822E-14-4.43222E-16
 -1      3938 2.00527E+01 1.29070E-02 2.98642E-04 7.06413E-02 3.51643E-14-1.43579E-14
 -1      3939 2.00816E+01-1.52615E-02-1.45359E-04 5.52246E-02 2.12714E-14-9.31909E-14
 -1      3940 2.00335E+01 3.41359E-02-3.68655E-04 7.22988E-02 7.27445E-14-5.30806E-14
 -1      3941 2.00189E+01 5.77605E-02 2.49601E-04 7.63692E-02 4.92640E-14 9.19645E-15
 -1      3942 2.00455E+01 2.58817E-02 3.02082E-05 5.70244E-02 1.70797E-14-2.77627E-14
 -1      3943 1.99977E+01 8.29783E-02-5.28256E-04 8.02960E-02 5.47120E-14 1.73720E-14
 -1      3944 1.99812E+01 1.10839E-01 1.86389E-04 8.75273E-02 2.19114E-14 8.09458E-14
 -1      3945 2.00071E+01 7.53657E-02 2.36516E-04 6.24645E-02 7.91852E-14-1.82983E-14
 -1      3946 1.99564E+01 1.40440E-01-7.13943E-04 9.40856E-02-3.25443E-15 1.90640E-13
 -1      3947 1.99364E+01 1.73008E-01 1.05786E-04 1.04975E-01-1.09122E-15 2.54058E-13
 -1      3948 1.99635E+01 1.33735E-01 4.80263E-04 7.22154E-02 7.54003E-14 1.28043E-13
 -1      3949 1.99061E+01 2.07501E-01-9.31361E-04 1.14504E-01-1.10912E-13 2.40812E-13
 -1      3950 1.98808E+01 2.45294E-01 1.53073E-06 1.29518E-01-9.69086E-14 2.40896E-13
 -1      3951 1.99112E+01 2.01893E-01 7.70822E-04 8.68693E-02-6.50628E-14 1.88305E-13
 -1      3952 1.98427E+01 2.85161E-01-1.18613E-03 1.42321E-01-4.50465E-14 2.56001E-13
 -1      3953 1.98099E+01 3.28593E-01-1.35317E-04 1.61881E-01-5.59351E-15 2.09410E-13
 -1      3954 1.98460E+01 2.80826E-01 1.12021E-03 1.06923E-01-6.84359E-14 2.40918E-13
 -1      3955 1.97613E+01 3.74130E-01-1.48472E-03 1.78199E-01-9.95862E-15 1.74642E-13
 -1      3956 1.97185E+01 4.23331E-01-3.15635E-04 2.02647E-01-2.62744E-14 1.90762E-13
 -1      3957 1.97630E+01 3.71295E-01 1.54343E-03 1.32727E-01-5.44677E-14 1.38953E-13
 -1      3958 1.96563E+01 4.74446E-01-1.83672E-03 2.22627E-01-2.30394E-14 2.23494E-13
 -1      3959 1.96004E+01 5.29040E-01-5.50702E-04 2.52202E-01 9.92392E-15 2.20736E-13
 -1      3960 1.96566E+01 4.73462E-01 2.05953E-03 1.64419E-01 1.37243E-14 2.07175E-13
 -1      3961 1.95209E+01 5.84998E-01-2.25959E-03 2.75877E-01-1.78871E-14 2.35825E-13
 -1      3962 1.94483E+01 6.43829E-01-8.49130E-04 3.10725E-01-8.73591E-14 1.99828E-13
 -1      3963 1.95199E+01 5.86465E-01 2.69417E-03 2.01852E-01 4.36496E-15 2.85135E-13
 -1      3964 1.93469E+01 7.02942E-01-2.78785E-03 3.38045E-01-1.00769E-13 2.37521E-13
 -1      3965 1.92533E+01 7.63752E-01-1.21087E-03 3.78319E-01-1.18214E-14 2.16533E-13
 -1      3966 1.93450E+01 7.07918E-01 3.48538E-03 2.44581E-01-6.09386E-14 3.15429E-13
 -1      3967 1.91246E+01 8.23003E-01-3.48908E-03 4.09297E-01 2.66106E-14 1.39873E-13
 -1      3968 1.90051E+01 8.82072E-01-1.61534E-03 4.55464E-01 4.68242E-14 1.10152E-13
 -1      3969 1.91220E+01 8.33383E-01 4.49542E-03 2.91985E-01-1.18660E-14 2.61698E-13
 -1      3970 1.88417E+01 9.36677E-01-4.48873E-03 4.90565E-01 4.86700E-14-3.67070E-14
 -1      3971 1.86907E+01 9.88406E-01-2.00356E-03 5.44061E-01 1.21210E-13-7.90148E-14
 -1      3972 1.88388E+01 9.55862E-01 5.83184E-03 3.43717E-01-3.12794E-14 2.27901E-14
 -1      3973 1.84825E+01 1.03129E+00-6.00611E-03 5.85017E-01 1.50613E-13-7.89446E-14
 -1      3974 1.82934E+01 1.06759E+00-2.38376E-03 6.49518E-01 1.26905E-13-1.04713E-13
 -1      3975 1.84793E+01 1.06531E+00 7.65881E-03 4.00785E-01 8.90876E-14-4.07247E-14
 -1      3976 1.80262E+01 1.08914E+00-8.36765E-03 6.99960E-01 1.49998E-13-1.97228E-13
 -1      3977 1.77915E+01 1.10050E+00-2.02198E-03 7.83382E-01 1.45005E-13-1.58485E-13
 -1      3978 1.80214E+01 1.14753E+00 1.01474E-02 4.67340E-01 1.42608E-13-1.77707E-13
 -1      3979 1.74405E+01 1.08718E+00-1.22518E-02 8.54788E-01 1.09716E-13-1.26958E-13
 -1      3980 1.71557E+01 1.05740E+00 1.09939E-04 9.73243E-01 1.02026E-13-7.44730E-14
 -1      3981 1.74294E+01 1.18773E+00 1.34585E-02 5.50600E-01 1.27965E-13-3.36772E-13
 -1      3982 1.66869E+01 9.97406E-01-1.39600E-02 1.08682E+00 7.89562E-14 1.80767E-14
 -1      3983 1.63476E+01 9.03419E-01 1.05390E-02 1.26348E+00 7.17967E-14 3.03505E-14
 -1      3984 1.66447E+01 1.15399E+00 1.37674E-02 6.78565E-01 1.50634E-13-3.28028E-13
 -1      3985 2.02486E+01 4.35935E-02-5.42924E-04-1.18739E-01-1.37930E-14 7.61555E-14
 -1      3986 2.02696E+01 9.13659E-02 1.20157E-03-1.00596E-01 5.35724E-14 5.82832E-14
 -1      3987 2.03182E+01 1.42753E-01-2.54335E-04-7.42298E-02 6.25918E-14 1.21932E-13
 -1      3988 2.02802E+01 3.60998E-02-4.34642E-04-1.06428E-01 3.01725E-14 7.26413E-14
 -1      3989 2.03204E+01 1.19437E+00-2.52817E-03 3.18602E-02 8.58758E-14-1.29401E-14
 -1      3990 2.03199E+01 1.19513E+00-2.58732E-03-2.88787E-02 9.33023E-14-5.20785E-14
 -1      3991 2.03753E+01 9.96175E-01 4.88403E-03 4.13983E-02 6.62269E-14-2.04291E-14
 -1      3992 1.99579E+01 1.46080E-01 3.32533E-04-1.19698E-01-5.23175E-14 2.71447E-14
 -1      3993 1.99727E+01 1.17285E-01-7.12024E-04-1.07690E-01-4.74135E-14 1.76326E-14
 -1      3994 1.99942E+01 9.11081E-02 3.47659E-04-9.97363E-02 1.30897E-14 1.61044E-14
 -1      3995 2.00069E+01 6.61680E-02-5.32527E-04-9.20980E-02 3.38206E-14-2.29197E-14
 -1      3996 1.99781E+01 1.12911E-01 3.51589E-04-8.85068E-02-8.67821E-15-8.23177E-15
 -1      3997 1.98597E+01 2.79733E-01 3.29717E-04-1.88845E-01 1.05301E-13 3.51201E-14
 -1      3998 1.98824E+01 2.42881E-01-1.16729E-03-1.65799E-01 1.52748E-13 5.49481E-14
 -1      3999 1.97918E+01 3.57700E-01 3.56516E-04-2.41395E-01-5.35382E-14 2.63061E-16
 -1      4000 1.98202E+01 3.17329E-01-1.45231E-03-2.11527E-01 5.24278E-14 1.98494E-14
 -1      4001 1.98124E+01 3.22248E-01 1.14764E-03-1.72021E-01 7.16354E-14 7.19151E-15
 -1      4002 1.97071E+01 4.40732E-01 4.21789E-04-3.08617E-01-2.09667E-15-3.80293E-14
 -1      4003 1.97424E+01 3.98080E-01-1.78083E-03-2.70920E-01-4.73057E-14-2.07616E-14
 -1      4004 1.97281E+01 4.08241E-01 1.48122E-03-2.20969E-01-1.22085E-14-8.14799E-14
 -1      4005 1.96031E+01 5.24674E-01 5.55140E-04-3.93022E-01-9.55481E-14-9.06445E-14
 -1      4006 1.96460E+01 4.82090E-01-2.15747E-03-3.46328E-01-6.30018E-14-8.58330E-14
 -1      4007 1.96230E+01 4.99401E-01 1.84266E-03-2.83986E-01-4.36019E-14-1.47401E-13
 -1      4008 1.94778E+01 6.02474E-01 8.07689E-04-4.97782E-01-1.06742E-13 1.02217E-13
 -1      4009 1.95283E+01 5.63852E-01-2.58987E-03-4.40654E-01-9.19388E-14 8.79356E-14
 -1      4010 1.94934E+01 5.91106E-01 2.21884E-03-3.64069E-01-1.63284E-13-1.25774E-13
 -1      4011 1.93311E+01 6.63151E-01 1.26590E-03-6.27179E-01-1.63258E-13 6.79113E-14
 -1      4012 1.93880E+01 6.34463E-01-3.09229E-03-5.57699E-01-1.19645E-13 1.21929E-13
 -1      4013 1.93362E+01 6.75735E-01 2.58628E-03-4.65291E-01-9.58577E-14 5.70932E-14
 -1      4014 1.91659E+01 6.90568E-01 2.07805E-03-7.87368E-01-4.90881E-14-1.52553E-13
 -1      4015 1.92255E+01 6.80486E-01-3.68873E-03-7.02784E-01-1.18364E-13-6.07400E-14
 -1      4016 1.91493E+01 7.41716E-01 2.90440E-03-5.93493E-01-7.53112E-14-6.58362E-14
 -1      4017 1.89900E+01 6.61743E-01 3.45061E-03-9.87602E-01-7.44642E-14-1.20096E-13
 -1      4018 1.90449E+01 6.82571E-01-4.40151E-03-8.83852E-01-8.60003E-14-1.60174E-13
 -1      4019 1.89324E+01 7.72399E-01 3.08874E-03-7.57504E-01-6.85448E-14-1.51066E-13
 -1      4020 1.88200E+01 5.44318E-01 5.60171E-03-1.24147E+00-1.79013E-14 5.66826E-14
 -1      4021 1.88563E+01 6.13412E-01-5.17457E-03-1.11293E+00-5.59145E-14-4.36996E-15
 -1      4022 1.86885E+01 7.44042E-01 2.87052E-03-9.71307E-01-1.58075E-13-4.41874E-14
 -1      4023 1.86884E+01 2.97589E-01 9.82780E-03-1.56395E+00 2.19046E-14 9.11515E-14
 -1      4024 1.86826E+01 4.34425E-01-5.74625E-03-1.40563E+00 2.81154E-14 6.86725E-14
 -1      4025 1.84286E+01 6.20860E-01 1.64747E-03-1.25535E+00-3.99049E-14-9.01632E-14
 -1      4026 1.86486E+01-1.41288E-01 1.41942E-02-1.97977E+00 7.92335E-14-1.97815E-13
 -1      4027 1.85617E+01 9.74409E-02-6.03332E-03-1.78700E+00 4.62490E-14-1.94064E-14
 -1      4028 1.81743E+01 3.69116E-01 2.59420E-03-1.63845E+00 1.71391E-13-2.03272E-13
 -1      4029 1.87672E+01-8.66392E-01 4.14790E-03-2.51683E+00-3.45041E-14-3.11130E-13
 -1      4030 1.85698E+01-4.31319E-01 6.51180E-03-2.27599E+00 2.85057E-14-2.45609E-13
 -1      4031 1.79874E+01-7.93076E-02 9.56743E-03-2.15916E+00 6.97949E-14-3.35664E-13
 -1      4032 2.00547E+01 3.20805E-03 3.84357E-04-8.19796E-02-5.16344E-14-5.22253E-14
 -1      4033 2.00661E+01-1.45998E-02-2.41042E-04-8.10209E-02-7.37240E-14-7.55822E-14
 -1      4034 1.51724E+01 9.88547E-01 3.47426E-02-8.16541E-01 8.98656E-14-3.38508E-13
 -1      4035 1.56240E+01 6.90651E-01-2.31475E-02-1.41064E+00 1.74349E-14-1.67843E-13
 -1      4036 1.64432E+01-6.16132E-01 2.23016E-02-3.04702E+00-1.48449E-14-4.07918E-13
 -1      4037 1.69622E+01-1.28798E+00 4.20886E-02-3.59820E+00 8.44524E-14-4.38402E-13
 -1      4038 1.79080E+01-1.54354E+00 6.46958E-03-3.43730E+00-1.97845E-15-4.78258E-13
 -1      4039 2.01437E+01-7.12604E-02 2.90153E-04-1.31512E-01 4.12231E-15-9.38946E-14
 -1      4040 2.01571E+01-6.61691E-02 3.62976E-04-1.34960E-01 1.60377E-14-5.10308E-14
 -1      4041 2.02005E+01-6.32405E-02-5.70128E-04-1.21618E-01 2.11570E-14-9.24390E-14
 -1      4042 2.01644E+01-7.59579E-02-5.16520E-04-1.16385E-01-1.75456E-14-8.14511E-14
 -1      4043 2.00257E+01 4.36207E-02 3.66305E-04-8.75912E-02 1.06792E-15-2.25059E-14
 -1      4044 2.00373E+01 2.23035E-02-3.77603E-04-8.36303E-02-2.49370E-15-1.64047E-14
 -1      4045 2.00500E+01 1.48329E-02-2.71435E-05-7.03068E-02-5.77290E-14-5.49468E-14
 -1      4046 2.00159E+01 5.99848E-02 1.49429E-04-7.65012E-02 1.23049E-14-7.86460E-14
 -1      4047 1.99141E+01 2.08940E-01 3.24779E-04-1.48878E-01 1.18006E-13 1.99652E-15
 -1      4048 1.99322E+01 1.76100E-01-9.21931E-04-1.31756E-01 5.70881E-14 2.18714E-14
 -1      4049 1.99338E+01 1.74075E-01 5.83236E-04-1.07503E-01 2.55089E-14-1.10698E-13
 -1      4050 1.98797E+01 2.43871E-01 8.47933E-04-1.34823E-01 6.42313E-14-1.60168E-15
 -1      4051 2.04002E+01 3.63855E-01 9.28961E-04-1.87681E-03 3.27781E-14-4.65043E-15
 -1      4052 2.03870E+01 2.61283E-01-1.10253E-03 2.91267E-02 1.69766E-14 2.62070E-15
 -1      4053 2.03308E+01 9.37322E-01-1.05517E-03 2.18679E-01 8.88029E-14 5.66835E-14
 -1      4054 2.03573E+01 7.91491E-01 9.99179E-05 1.39671E-01 7.54509E-14 5.18823E-14
 -1      4055 2.03740E+01 9.95713E-01 4.11284E-03-3.82162E-02 6.90380E-14-2.45290E-14
 -1      4056 2.03917E+01 6.09735E-01-2.24785E-04-6.73615E-02 5.51625E-14-3.89193E-15
 -1      4057 2.03934E+01 4.65928E-01-1.50594E-03-2.09906E-02 3.61346E-14-9.26965E-15
 -1      4058 2.04120E+01 4.31857E-01-6.81771E-04-1.02156E-02 5.36711E-14-3.42218E-14
 -1      4059 2.03944E+01 6.86064E-01 9.79666E-04-6.67005E-02 7.35501E-14-2.47835E-14
 -1      4060 1.47388E+01 1.00036E+00 2.52016E-02 6.28882E-01 5.75863E-14-3.72034E-13
 -1      4061 1.47537E+01 9.83856E-01-2.28833E-02-1.76982E-01 1.49915E-13-4.94807E-13
 -1      4062 1.67491E+01-1.55305E-02-7.31143E-03-2.30392E+00 3.62384E-14-3.31355E-13
 -1      4063 1.68469E+01-3.49080E-01 2.47293E-02-2.72399E+00-8.07145E-15-4.15063E-13
 -1      4064 2.03787E+01 1.77179E-01 8.57850E-04 4.50194E-02 1.62397E-14 1.95135E-14
 -1      4065 2.03594E+01 1.07851E-01-7.07418E-04 6.34895E-02 3.46495E-14 2.29649E-14
 -1      4066 2.04028E+01 2.41490E-01 6.58236E-04 2.62969E-02 3.76116E-14-1.20157E-14
 -1      4067 2.03755E+01 4.75191E-01-5.13975E-04 3.48319E-02 7.62460E-14 7.44589E-14
 -1      4068 2.03773E+01 6.17135E-01 1.43728E-04 9.17158E-02 7.29734E-14 6.10998E-14
 -1      4069 2.03771E+01 7.08321E-01-1.15990E-03 9.53937E-02 6.51524E-14 5.70866E-14
 -1      4070 2.03726E+01 9.26490E-02-3.09368E-05 5.07030E-02 4.00741E-14 5.11295E-14
 -1      4071 1.60972E+01 7.01023E-01 1.34469E-02 1.71158E+00 2.25566E-14 1.14121E-13
 -1      4072 2.03035E+01 2.06964E-02-3.72834E-04-9.47990E-02 7.86605E-14-6.88165E-15
 -1      4073 2.03249E+01 6.60447E-02 7.82556E-04-8.30417E-02 8.63185E-14 4.45464E-14
 -1      4074 2.01131E+01-5.62209E-02 3.90909E-04-8.53501E-02-1.13974E-13 4.21322E-14
 -1      4075 2.01267E+01-6.61821E-02 2.97890E-05-8.81680E-02-8.19107E-14-2.07954E-14
 -1      4076 1.54250E+01 9.55625E-01 1.67373E-02 9.78734E-01 7.18262E-14-9.06473E-14
 -1      4077 2.00827E+01-2.27458E-02-1.81109E-04-6.88244E-02-7.01993E-14-1.39810E-13
 -1      4078 2.00833E+01-3.02384E-02 3.95529E-04-8.16648E-02-3.66813E-14-9.90179E-14
 -1      4079 2.00954E+01-4.43886E-02-1.17272E-04-8.30008E-02-6.64293E-14-2.92682E-14
 -1      4080 2.03866E+01 7.50291E-01-4.06710E-04 7.20575E-02 5.80341E-14 1.95236E-14
 -1      4081 2.02619E+01-3.94350E-02-1.74203E-05-1.03576E-01 4.87961E-14-5.75545E-14
 -1      4082 2.02830E+01-1.34214E-02 5.99884E-04-9.91128E-02 6.38822E-14-1.06211E-14
 -1      4083 2.03204E+01 1.00257E-02-4.53000E-04-7.85729E-02 9.58461E-14-2.72257E-14
 -1      4084 2.03617E+01 2.54631E-01-7.82725E-04-3.65356E-02 1.01269E-13 1.10498E-13
 -1      4085 2.03743E+01 3.54026E-01-8.48603E-05 1.70223E-03 8.79398E-14 8.25837E-14
 -1      4086 2.03919E+01 4.20840E-01 5.94845E-04 1.42445E-02 7.87691E-14 5.97669E-14
 -1      4087 1.58342E+01 9.47393E-01 4.61794E-03 1.18351E+00 8.76885E-14 9.22782E-14
 -1      4088 2.03931E+01 8.25496E-01-1.72451E-03-1.16097E-02 5.94479E-14-4.22884E-14
 -1      4089 2.03911E+01 8.09563E-01-2.58419E-03-4.31954E-02 6.53443E-14-2.99090E-14
 -1      4090 2.03950E+01 7.86355E-01 8.09343E-04-5.36731E-02 6.34929E-14-3.34403E-14
 -1      4091 2.03971E+01 7.12806E-01-1.40179E-03-6.34832E-02 7.32092E-14-3.91624E-14
 -1      4092 2.04132E+01 5.80373E-01 1.42096E-03-3.14821E-02 6.51624E-14-5.18634E-14
 -1      4093 2.04232E+01 6.40645E-01 3.03578E-03-2.61217E-02 4.79352E-14-5.46465E-14
 -1      4094 1.63099E+01 5.56875E-01 3.19387E-02-1.78306E+00 8.71143E-14-2.00092E-13
 -1      4095 1.73081E+01 1.08623E-01-9.74791E-03-2.05042E+00 7.57562E-14-3.22014E-13
 -1      4096 1.73965E+01 3.64673E-01-2.26630E-02-1.74753E+00 1.65148E-13-2.40764E-13
 -1      4097 1.63250E+01 7.71467E-01-8.83024E-03-1.27688E+00 6.53152E-14-2.15384E-13
 -1      4098 1.55338E+01 1.05427E+00 2.73734E-03-2.94574E-01 7.86871E-15-4.44590E-13
 -1      4099 1.56974E+01 1.07607E+00-1.65458E-02 5.52724E-01 9.71287E-14-4.99482E-13
 -1      4100 2.01454E+01-7.33446E-02 3.53558E-04-9.13951E-02-6.12982E-14-3.73658E-14
 -1      4101 2.01613E+01-7.79942E-02 2.73444E-04-9.44734E-02-6.95589E-14-2.82643E-14
 -1      4102 2.01510E+01-7.28688E-02-6.12734E-04-7.56467E-02-8.20529E-14-8.12559E-14
 -1      4103 2.01161E+01-5.23823E-02-3.15646E-04-7.09613E-02-5.46960E-14-7.85140E-14
 -1      4104 2.03364E+01 1.14205E-01-6.18100E-04-7.46077E-02 6.76421E-14 1.06313E-13
 -1      4105 2.03563E+01 1.82512E-01 6.75069E-04-5.18291E-02 9.87872E-14 1.27078E-13
 -1      4106 2.03791E+01 2.22355E-01-9.74061E-04-3.75521E-02 9.48159E-14 9.72829E-14
 -1      4107 2.03558E+01 1.01422E-01 2.85406E-05-6.42451E-02 1.13996E-13 3.61217E-14
 -1      4108 2.03117E+01-4.53735E-02 2.45237E-04 4.54478E-02 2.83327E-14 1.22048E-13
 -1      4109 2.02880E+01-6.42411E-02 1.33600E-04 4.74183E-02 2.69613E-14 8.16020E-14
 -1      4110 2.02641E+01-7.66994E-02 3.00245E-04 4.64424E-02 1.32277E-14 8.34264E-14
 -1      4111 2.02414E+01-8.34336E-02 2.42118E-04 4.62597E-02 1.40063E-14 5.12934E-14
 -1      4112 2.02842E+01-7.02339E-02-5.75983E-04 2.65692E-02-9.06178E-15 6.00455E-14
 -1      4113 2.02177E+01-8.51070E-02 1.90664E-04 4.47167E-02 3.50667E-14 6.27342E-14
 -1      4114 2.01970E+01-8.26443E-02 4.22423E-04 4.39153E-02 3.76028E-14 7.27870E-14
 -1      4115 2.02365E+01-8.52691E-02-6.36878E-04 2.54348E-02 1.32169E-14 8.05660E-14
 -1      4116 2.01743E+01-7.68685E-02 1.26600E-04 4.18164E-02-1.82638E-14 3.87062E-14
 -1      4117 2.01548E+01-6.75470E-02 3.59492E-04 4.09471E-02-4.89534E-14-3.56889E-14
 -1      4118 2.01917E+01-8.18196E-02-7.29690E-04 2.36106E-02 1.74041E-15 2.50833E-14
 -1      4119 2.01336E+01-5.57655E-02 6.62946E-05 3.95151E-02-6.04273E-14-6.85809E-14
 -1      4120 2.01153E+01-4.12403E-02 3.15633E-04 3.91513E-02-4.04337E-14-8.81890E-14
 -1      4121 2.01485E+01-6.31698E-02-6.71092E-04 2.25523E-02-6.94320E-14-1.59593E-15
 -1      4122 2.00947E+01-2.47867E-02-5.72514E-05 3.83274E-02 3.49281E-14-1.00748E-13
 -1      4123 2.00770E+01-5.79778E-03 2.46490E-04 3.89069E-02 2.14358E-14-1.02011E-13
 -1      4124 2.01081E+01-3.35642E-02-4.10401E-04 2.19493E-02-3.03439E-14-2.21624E-14
 -1      4125 2.00562E+01 1.48900E-02-1.94542E-04 3.89040E-02 3.36388E-14-4.95801E-14
 -1      4126 2.00380E+01 3.80908E-02 1.61251E-04 4.08047E-02 4.67302E-14-9.69913E-15
 -1      4127 2.00684E+01 5.44894E-03-7.84107E-05 2.21849E-02 4.22925E-14-8.46424E-14
 -1      4128 2.00157E+01 6.29550E-02-3.53015E-04 4.17803E-02 6.26873E-14-5.22293E-14
 -1      4129 1.99956E+01 9.04983E-02 5.74086E-05 4.53182E-02 1.12734E-13 3.63281E-15
 -1      4130 2.00273E+01 5.32568E-02 3.14748E-04 2.36015E-02 5.35631E-14-1.01949E-13
 -1      4131 1.99703E+01 1.19791E-01-5.36546E-04 4.73972E-02 1.38287E-13 1.71314E-14
 -1      4132 1.99469E+01 1.52050E-01-7.07272E-05 5.28299E-02 6.66490E-14 9.24171E-14
 -1      4133 1.99820E+01 1.10049E-01 7.79049E-04 2.64093E-02 1.08961E-13-1.19772E-13
 -1      4134 1.99166E+01 1.86200E-01-7.48824E-04 5.61054E-02-1.50408E-14 1.27316E-13
 -1      4135 1.98878E+01 2.23648E-01-2.32531E-04 6.36250E-02-7.96738E-14 1.32389E-13
 -1      4136 1.99292E+01 1.76516E-01 1.33254E-03 3.07180E-02 6.84180E-14-7.91046E-14
 -1      4137 1.98505E+01 2.63120E-01-9.93472E-04 6.81418E-02-1.09923E-13 1.54116E-13
 -1      4138 1.98140E+01 3.06180E-01-4.41351E-04 7.78526E-02-8.22065E-14 1.18004E-13
 -1      4139 1.98648E+01 2.53553E-01 1.99931E-03 3.65109E-02-6.98645E-14-7.55759E-14
 -1      4140 1.97671E+01 3.51311E-01-1.27429E-03 8.35769E-02-8.08479E-14 1.12050E-13
 -1      4141 1.97203E+01 4.00180E-01-7.15025E-04 9.54568E-02-5.96130E-14 1.25537E-13
 -1      4142 1.97842E+01 3.41940E-01 2.80987E-03 4.35858E-02-8.69886E-14 2.65578E-14
 -1      4143 1.96609E+01 4.50995E-01-1.59644E-03 1.02233E-01-1.42265E-14 1.63146E-13
 -1      4144 1.96004E+01 5.05439E-01-1.07676E-03 1.16086E-01 4.44937E-14 1.98089E-13
 -1      4145 1.96820E+01 4.41990E-01 3.80339E-03 5.14672E-02-1.54703E-14 1.13667E-13
 -1      4146 1.95251E+01 5.61433E-01-1.96940E-03 1.23582E-01 7.52686E-15 1.32626E-13
 -1      4147 1.94473E+01 6.20552E-01-1.55669E-03 1.38994E-01-3.91010E-14 1.56539E-13
 -1      4148 1.95519E+01 5.53142E-01 5.03278E-03 5.92896E-02-1.83867E-14 1.01230E-13
 -1      4149 1.93522E+01 6.80443E-01-2.41332E-03 1.46648E-01 9.52088E-15 1.53226E-13
 -1      4150 1.92522E+01 7.42420E-01-2.19503E-03 1.62978E-01 1.06242E-14 2.08416E-13
 -1      4151 1.93867E+01 6.73524E-01 6.57509E-03 6.56572E-02-5.32931E-14 5.27578E-14
 -1      4152 1.91325E+01 8.03890E-01-2.97081E-03 1.69953E-01-3.96110E-14 2.21346E-13
 -1      4153 1.90047E+01 8.65747E-01-3.04918E-03 1.86403E-01-8.01797E-14 1.58108E-13
 -1      4154 1.91776E+01 7.99517E-01 8.55005E-03 6.84916E-02-1.02944E-14 1.20870E-13
 -1      4155 1.88543E+01 9.25223E-01-3.72696E-03 1.91582E-01-1.52164E-13 1.43780E-13
 -1      4156 1.86913E+01 9.82638E-01-4.20860E-03 2.07452E-01-7.83260E-14 2.42082E-14
 -1      4157 1.89140E+01 9.25391E-01 1.11474E-02 6.48662E-02-9.95606E-14 4.86936E-14
 -1      4158 1.85015E+01 1.03522E+00-4.83439E-03 2.09530E-01 1.35499E-14-1.95869E-14
 -1      4159 1.82933E+01 1.08238E+00-5.80105E-03 2.24849E-01 4.42492E-14-8.66729E-14
 -1      4160 1.85819E+01 1.04311E+00 1.46271E-02 5.07772E-02-7.15398E-14-7.58570E-14
 -1      4161 1.80510E+01 1.12244E+00-6.43163E-03 2.23057E-01 3.58208E-14-9.84839E-14
 -1      4162 1.77855E+01 1.15193E+00-7.22700E-03 2.39501E-01 1.15935E-13-1.72837E-13
 -1      4163 1.81600E+01 1.14205E+00 1.89272E-02 2.06101E-02 1.24457E-14-2.11822E-13
 -1      4164 1.74721E+01 1.16993E+00-8.50965E-03 2.37136E-01 1.38979E-13-1.76348E-13
 -1      4165 1.71481E+01 1.18067E+00-1.07100E-03 2.58336E-01 8.33514E-14-2.25397E-13
 -1      4166 1.76054E+01 1.20436E+00 1.93252E-02-3.39128E-02 9.22587E-14-1.34648E-13
 -1      4167 1.67188E+01 1.16109E+00-1.34490E-02 3.47430E-01 1.07236E-13-2.88240E-13
 -1      4168 1.63023E+01 1.14868E+00 4.99684E-03 3.90583E-01 1.08919E-13-3.49784E-13
 -1      4169 1.59282E+01 1.16973E+00 1.87344E-02 2.06535E-01 6.20498E-14-4.93121E-13
 -1      4170 1.69004E+01 1.20864E+00 1.83202E-02 3.77394E-03 1.04139E-13-1.44346E-13
 -1      4171 1.99629E+01 1.32007E-01 8.08836E-05-7.24387E-02 1.64472E-14-3.61134E-14
 -1      4172 1.99829E+01 1.02297E-01-5.20954E-04-6.52531E-02-5.27464E-15-3.82916E-14
 -1      4173 1.96698E+01 4.48670E-01-2.16690E-04-1.87621E-01-1.39079E-14 1.75540E-14
 -1      4174 1.97161E+01 4.01032E-01-1.71971E-03-1.62652E-01-4.93298E-15 4.09863E-14
 -1      4175 1.97689E+01 3.56495E-01-1.63113E-04-1.45147E-01 6.20831E-14-2.90286E-14
 -1      4176 1.98060E+01 3.12891E-01-1.32166E-03-1.25826E-01 1.25547E-13-3.19585E-15
 -1      4177 1.97236E+01 4.02295E-01 3.04518E-03-1.12615E-01 2.51325E-14 2.11245E-14
 -1      4178 1.93935E+01 6.45057E-01-1.59908E-04-3.13598E-01-1.96209E-13-1.01474E-13
 -1      4179 1.94633E+01 5.94783E-01-2.84674E-03-2.73525E-01-1.42440E-13-1.14457E-13
 -1      4180 1.92074E+01 7.36854E-01 3.85534E-05-4.04743E-01-1.50527E-13-1.89562E-14
 -1      4181 1.92906E+01 6.90633E-01-3.66419E-03-3.54191E-01-2.43069E-13-6.48468E-14
 -1      4182 1.92904E+01 7.17791E-01 6.73927E-03-2.55226E-01-2.28252E-13-1.06444E-13
 -1      4183 1.89840E+01 8.10418E-01 4.43521E-04-5.22682E-01-9.77853E-15-8.58964E-14
 -1      4184 1.90809E+01 7.74221E-01-4.76072E-03-4.58419E-01-1.98562E-14-5.69647E-14
 -1      4185 1.90728E+01 8.19495E-01 8.62920E-03-3.36621E-01-8.58267E-14-2.20540E-13
 -1      4186 1.87203E+01 8.49768E-01 1.15736E-03-6.77334E-01-1.26730E-13-8.93923E-14
 -1      4187 1.88295E+01 8.31857E-01-6.29614E-03-5.94288E-01-6.29249E-14-3.14779E-14
 -1      4188 1.88079E+01 9.03874E-01 1.10649E-02-4.45620E-01-4.77240E-14-1.43815E-13
 -1      4189 1.84150E+01 8.33555E-01 2.68618E-03-8.84483E-01-1.15861E-13-5.49427E-14
 -1      4190 1.85318E+01 8.45134E-01-8.49651E-03-7.74328E-01-1.01006E-13 1.50527E-14
 -1      4191 1.84874E+01 9.56067E-01 1.41524E-02-5.93367E-01-1.20972E-13-1.16295E-13
 -1      4192 1.80616E+01 7.23505E-01 1.56755E-03-1.17552E+00 1.21819E-13-2.93426E-13
 -1      4193 1.81834E+01 7.89188E-01-1.15134E-02-1.02128E+00 8.27311E-15-2.27246E-13
 -1      4194 1.80952E+01 9.56390E-01 1.64445E-02-7.97287E-01 4.58130E-14-2.54712E-13
 -1      4195 1.76979E+01 5.13483E-01 2.82934E-03-1.54159E+00 1.68651E-13-2.94193E-13
 -1      4196 1.78212E+01 6.44449E-01-1.23452E-02-1.32243E+00 1.26785E-13-2.87741E-13
 -1      4197 1.76535E+01 8.46226E-01 1.96348E-03-1.07083E+00 9.14186E-14-4.15294E-13
 -1      4198 1.71796E+01 7.21003E-01 1.85379E-02-1.38822E+00 1.39457E-13-2.64473E-13
 -1      4199 1.92240E+01-1.73547E+00 1.56312E-02-3.02841E+00-4.78558E-14-3.20927E-13
 -1      4200 1.81600E+01-1.23111E+00-6.09860E-03-3.05559E+00-1.67592E-14-4.81299E-13
 -1      4201 2.03925E+01 8.09339E-01-2.55373E-03 4.69230E-02 5.34377E-14-1.34589E-14
 -1      4202 2.03932E+01 8.24486E-01-1.90939E-03 1.27932E-02 6.44355E-14-4.32016E-14
 -1      4203 2.04249E+01 6.74380E-01 4.00890E-03 1.44175E-03 5.82170E-14-2.67980E-14
 -1      4204 1.60718E+01 1.07186E+00-1.69954E-02-3.87398E-01 1.22357E-14-3.65050E-13
 -1      4205 2.04243E+01 2.90032E-01 9.45576E-04 9.17922E-03 6.63163E-14-4.49904E-14
 -1      4206 2.04101E+01 1.98631E-01-1.16670E-03 2.60449E-02 4.98897E-14-1.86506E-14
 -1      4207 2.04125E+01 6.15813E-01 2.92592E-03 3.72008E-02 5.64868E-14 1.89165E-14
 -1      4208 2.03972E+01 1.25703E-01 3.08047E-04 3.00652E-02 6.92603E-14 2.32729E-14
 -1      4209 2.03783E+01 6.53014E-02-2.37371E-04 3.98470E-02 8.73270E-14 4.50328E-14
 -1      4210 2.04137E+01 1.74102E-01 2.84755E-04 1.49927E-02 1.00952E-13-4.34828E-14
 -1      4211 1.95462E+01 5.46438E-01-2.27213E-04-2.42712E-01-9.53336E-15-1.21536E-13
 -1      4212 1.96035E+01 4.96195E-01-2.21671E-03-2.10956E-01 3.63949E-14-4.62267E-14
 -1      4213 1.96098E+01 5.02961E-01 4.03500E-03-1.47560E-01 3.03594E-14-5.09555E-14
 -1      4214 1.94673E+01 6.09741E-01 5.24321E-03-1.93913E-01-9.40697E-14-2.69211E-14
 -1      4215 2.03577E+01 1.85338E-02 3.16718E-04 4.08446E-02 8.18843E-14 7.10889E-14
 -1      4216 2.03355E+01-1.77898E-02 2.04915E-04 4.64379E-02 6.97799E-14 9.35618E-14
 -1      4217 2.03332E+01-2.97949E-02-7.30415E-04 2.55054E-02 5.48702E-14 5.17967E-14
 -1      4218 2.03778E+01 4.77556E-02-5.55597E-04 2.14127E-02 1.09553E-13 3.15834E-14
 -1      4219 2.04077E+01 3.35362E-01 1.76520E-03-1.10735E-02 9.73038E-14 3.31170E-14
 -1      4220 2.04075E+01 4.47480E-01-1.96658E-03 1.92628E-02 7.90086E-14 2.55714E-14
 -1      4221 2.04225E+01 5.08070E-01-6.62145E-04 1.18438E-02 6.62056E-14-1.69919E-15
 -1      4222 2.03981E+01 2.49069E-01-7.14767E-04-2.74719E-02 8.50821E-14 2.81440E-14
 -1      4223 1.99931E+01 9.42877E-02 4.85824E-04-4.52925E-02 1.07888E-15-6.63955E-14
 -1      4224 2.00063E+01 7.51860E-02 1.62671E-04-6.15284E-02 4.69229E-15-5.67048E-14
 -1      4225 2.00239E+01 4.96909E-02-3.39850E-04-5.71625E-02 6.11149E-15-6.91635E-14
 -1      4226 2.01173E+01-4.67611E-02 3.50632E-04-5.41856E-02-2.96324E-14-1.03258E-13
 -1      4227 2.01345E+01-5.98665E-02 1.01221E-04-5.51914E-02-4.36285E-14-5.31744E-14
 -1      4228 2.01903E+01-8.26832E-02-9.12983E-04-8.14119E-02-5.69861E-14 1.93384E-14
 -1      4229 2.01815E+01-7.94711E-02 3.46727E-04-9.84717E-02-2.28850E-14-2.34438E-14
 -1      4230 2.01992E+01-7.69526E-02 3.87206E-04-1.00777E-01-3.28477E-15-4.02197E-14
 -1      4231 2.00810E+01-1.41060E-02 3.01951E-04-5.32863E-02-8.14049E-14-6.76375E-14
 -1      4232 2.00974E+01-3.16225E-02-4.40067E-05-5.30103E-02-2.64759E-14-8.16809E-14
 -1      4233 2.01127E+01-4.04285E-02-5.92427E-04-3.81154E-02-3.79369E-14-1.27404E-14
 -1      4234 1.99113E+01 1.97620E-01-4.19607E-06-8.91812E-02 1.54517E-14-7.74143E-14
 -1      4235 1.99353E+01 1.63391E-01-7.37181E-04-7.86174E-02 3.80105E-14-8.26068E-14
 -1      4236 1.99446E+01 1.56614E-01 9.71704E-04-5.41194E-02 2.61748E-14-4.52271E-14
 -1      4237 1.98141E+01 3.10435E-01 2.22656E-03-8.65487E-02 9.08045E-14-5.46838E-14
 -1      4238 1.98479E+01 2.72469E-01-8.80125E-05-1.12937E-01 8.99732E-14-5.96592E-15
 -1      4239 1.98776E+01 2.33512E-01-9.99698E-04-9.83644E-02 6.05256E-14-3.13852E-14
 -1      4240 2.04268E+01 5.15556E-01-1.92915E-03 6.70224E-03 7.23594E-14-1.45335E-14
 -1      4241 2.04302E+01 5.14255E-01-1.13625E-03-5.86221E-03 6.29314E-14-2.87818E-14
 -1      4242 2.04349E+01 3.77829E-01 2.64675E-03-1.67498E-03 8.24135E-14-5.92734E-15
 -1      4243 2.02205E+01-7.02062E-02 1.89294E-04-1.03752E-01 9.65928E-15-7.42395E-14
 -1      4244 2.02398E+01-5.77036E-02 3.93053E-04-1.03800E-01 1.57738E-14-6.88086E-14
 -1      4245 2.02322E+01-7.56893E-02-8.35250E-04-8.50578E-02-9.44453E-15-5.96950E-14
 -1      4246 2.04336E+01 3.14574E-01 3.14339E-05 4.62458E-03 8.28562E-14-3.42471E-14
 -1      4247 2.04286E+01 4.42240E-01-1.68432E-04-3.08060E-03 6.91116E-14-4.52660E-14
 -1      4248 2.02756E+01-4.70067E-02-5.82365E-04-8.50088E-02 4.83946E-14-4.44393E-14
 -1      4249 2.03303E+01-6.21195E-03 2.97627E-05-6.33505E-02 1.10869E-13-2.90496E-14
 -1      4250 2.03532E+01 3.31710E-02 7.57351E-04-5.57848E-02 1.17257E-13-1.69473E-14
 -1      4251 2.01525E+01-6.74343E-02-7.59222E-04-3.96598E-02-3.39763E-14-1.55037E-14
 -1      4252 2.01555E+01-7.05043E-02 3.95055E-04-5.72233E-02-5.18614E-14-7.18463E-14
 -1      4253 2.01752E+01-7.85261E-02 4.43690E-04-5.92742E-02-7.19063E-14-7.44956E-14
 -1      4254 1.66104E+01 1.11561E+00-5.36925E-03-3.57605E-01 6.13674E-14-3.07136E-13
 -1      4255 1.63962E+01 1.04603E+00 2.23448E-02-8.03744E-01-3.70281E-14-3.39842E-13
 -1      4256 1.68216E+01 8.21661E-01-8.08599E-03-1.14958E+00 2.80258E-14-2.59830E-13
 -1      4257 1.70109E+01 1.10188E+00-1.58571E-02-4.08707E-01 3.87350E-14-2.41515E-13
 -1      4258 1.75690E+01-6.10331E-01 4.32791E-03-2.75847E+00-4.73840E-14-5.35169E-13
 -1      4259 2.03679E+01 7.42416E-02-1.01299E-03-5.55333E-02 1.37950E-13 2.39256E-16
 -1      4260 2.03839E+01 1.29923E-01 1.07327E-03-4.57692E-02 1.24031E-13 1.42618E-14
 -1      4261 2.03732E+01 5.44035E-02-1.35220E-03-3.92165E-02 1.47438E-13 8.47707E-15
 -1      4262 2.00448E+01 2.65974E-02 2.37665E-04-5.54450E-02-3.78256E-14-6.14071E-14
 -1      4263 2.00612E+01 5.08997E-03-1.83848E-04-5.33799E-02-1.02938E-13-8.16980E-14
 -1      4264 2.00354E+01 4.08955E-02 6.90087E-05-4.01680E-02-9.31765E-15-6.50740E-14
 -1      4265 2.00744E+01-4.02125E-03-2.90936E-04-3.80075E-02-7.54294E-14-8.19651E-15
 -1      4266 1.96879E+01 4.15161E-01-2.44173E-03-3.87086E-02 3.14974E-15 4.54678E-14
 -1      4267 1.97409E+01 3.68005E-01-1.91264E-03-2.66174E-02-1.89347E-14 2.66455E-15
 -1      4268 2.03021E+01-6.37977E-02 3.51680E-04 5.40252E-03-2.76211E-14 1.06644E-13
 -1      4269 2.02773E+01-7.73298E-02 4.14164E-04 5.93612E-03-2.00097E-14 7.43269E-14
 -1      4270 2.02527E+01-8.46757E-02 2.46420E-04 4.60661E-03-2.57030E-15 6.62647E-14
 -1      4271 2.02303E+01-8.66512E-02 6.06949E-04 4.80270E-03 3.84528E-14 8.28654E-14
 -1      4272 2.02635E+01-8.17067E-02-8.32806E-04-1.65148E-02-1.11056E-14 8.24057E-14
 -1      4273 2.01975E+01-8.21027E-02 2.44050E-04-8.63278E-03 4.48106E-15 5.12771E-14
 -1      4274 2.01761E+01-7.48901E-02 5.30309E-04-8.06795E-03-3.13558E-14 3.92961E-14
 -1      4275 2.01553E+01-6.47368E-02 4.34421E-04-7.86191E-03-3.18919E-14 3.26613E-14
 -1      4276 2.01341E+01-5.21556E-02 4.12180E-04-7.68829E-03-3.23460E-14 4.09876E-14
 -1      4277 2.01141E+01-3.66996E-02 3.27962E-04-7.71550E-03-5.01080E-14 3.74014E-14
 -1      4278 2.00934E+01-1.93098E-02 2.36749E-04-7.51666E-03-4.32817E-14 2.54416E-14
 -1      4279 2.00734E+01 4.87161E-04 1.07466E-04-8.16524E-03-2.77718E-14-3.35684E-14
 -1      4280 2.00525E+01 2.23023E-02 1.94511E-05-7.75030E-03-1.58880E-15-4.33235E-14
 -1      4281 2.00315E+01 4.61903E-02-1.64770E-04-9.33911E-03 2.79051E-14-6.56245E-14
 -1      4282 2.00091E+01 7.24104E-02-2.33999E-04-8.64650E-03 3.92931E-14-1.03320E-13
 -1      4283 1.99856E+01 1.00482E-01-4.85528E-04-1.14737E-02 3.24508E-14-1.08932E-13
 -1      4284 1.99601E+01 1.31370E-01-5.34179E-04-1.04979E-02 5.28808E-14-1.17773E-13
 -1      4285 1.99324E+01 1.63912E-01-8.61381E-04-1.48968E-02 7.57250E-14-1.37275E-13
 -1      4286 1.99020E+01 1.99871E-01-8.97982E-04-1.36971E-02-4.73197E-15-1.35851E-13
 -1      4287 1.98682E+01 2.37209E-01-1.30300E-03-2.00751E-02 5.40011E-15-1.40670E-13
 -1      4288 1.98305E+01 2.78624E-01-1.34777E-03-1.88013E-02-1.83206E-14-1.28653E-13
 -1      4289 1.97884E+01 3.20946E-01-1.82404E-03-2.76843E-02-3.72738E-14-2.43436E-14
 -1      4290 1.96275E+01 4.67649E-01-2.63130E-03-3.83166E-02 4.78522E-14 2.56019E-14
 -1      4291 1.95609E+01 5.18915E-01-3.17927E-03-5.45829E-02-2.11777E-14 4.68160E-14
 -1      4292 1.94842E+01 5.75977E-01-3.55748E-03-5.55932E-02-9.24028E-14 6.55519E-15
 -1      4293 1.94010E+01 6.29785E-01-4.07122E-03-7.73954E-02-1.40718E-13 5.18253E-14
 -1      4294 1.93037E+01 6.89669E-01-4.76936E-03-8.08848E-02-1.00961E-13 1.61895E-14
 -1      4295 1.92006E+01 7.43319E-01-5.17308E-03-1.10177E-01-9.10065E-14-5.26189E-14
 -1      4296 1.90775E+01 8.03116E-01-6.38458E-03-1.17684E-01-1.00562E-13-7.58360E-14
 -1      4297 1.89508E+01 8.52486E-01-6.57228E-03-1.57319E-01-2.23313E-14-1.14093E-13
 -1      4298 1.87955E+01 9.07921E-01-8.57561E-03-1.71004E-01-2.72175E-14-9.54982E-14
 -1      4299 1.86410E+01 9.47258E-01-8.36936E-03-2.25150E-01-9.53414E-14-8.56410E-14
 -1      4300 1.84448E+01 9.92578E-01-1.15195E-02-2.48126E-01-1.04487E-13-1.89600E-13
 -1      4301 1.82576E+01 1.01472E+00-1.03818E-02-3.22594E-01-6.23017E-14-1.95274E-13
 -1      4302 1.80094E+01 1.04290E+00-1.47476E-02-3.59882E-01 7.44824E-14-2.23304E-13
 -1      4303 1.77861E+01 1.04264E+00-9.87231E-03-4.60625E-01 1.27745E-13-2.85747E-13
 -1      4304 1.74891E+01 1.05195E+00-9.81416E-03-5.23213E-01 1.02125E-13-3.03801E-13
 -1      4305 2.04214E+01 4.85579E-01-7.67979E-04-8.91729E-03 5.30840E-14-5.46104E-14
 -1      4306 2.04293E+01 2.84777E-01 1.94130E-04-2.93913E-03 9.35092E-14-1.26389E-15
 -1      4307 2.04271E+01 2.20678E-01 3.38766E-04-1.45897E-03 9.67230E-14-4.80673E-14
 -1      4308 2.02859E+01-5.68930E-02 3.73811E-04-6.53561E-02 5.56974E-14-3.28229E-14
 -1      4309 2.03086E+01-3.62142E-02 6.38850E-04-6.32540E-02 1.07880E-13-2.26936E-14
 -1      4310 2.03340E+01-1.91002E-02-9.69305E-04-4.45389E-02 1.25644E-13-8.55467E-15
 -1      4311 2.04131E+01 1.40015E-01-5.05391E-04 4.35375E-03 1.09531E-13-2.89453E-14
 -1      4312 2.04160E+01 4.60522E-01-1.28539E-03-1.08143E-02 5.41986E-14-6.84060E-14
 -1      4313 2.02089E+01-8.38885E-02 2.25196E-04-4.79370E-02-5.70955E-14 1.14230E-14
 -1      4314 2.02306E+01-8.34177E-02 5.86590E-04-4.89602E-02-2.62421E-14 1.96342E-14
 -1      4315 2.02055E+01-8.38445E-02-7.99442E-04-2.81379E-02-1.06387E-14 4.60013E-14
 -1      4316 2.04238E+01 2.69624E-01-5.55289E-04-1.01565E-02 9.66989E-14 5.38523E-15
 -1      4317 1.73798E+01 9.92288E-01 9.37259E-03-8.36595E-01-1.45712E-14-4.31415E-13
 -1      4318 2.03851E+01 5.55486E-02 5.29571E-04-9.87401E-03 1.44293E-13 7.97673E-15
 -1      4319 2.03643E+01 9.20300E-03 6.14568E-04-6.66044E-03 1.45995E-13 1.86144E-14
 -1      4320 2.03411E+01-2.45046E-02 2.96150E-04-1.01812E-02 8.25744E-14 3.77886E-14
 -1      4321 2.03163E+01-5.05556E-02 4.65289E-04-8.79346E-03 1.49097E-14 6.21015E-14
 -1      4322 1.98863E+01 2.28508E-01 1.54451E-03-6.75131E-02 1.64509E-14-9.06202E-14
 -1      4323 2.02549E+01-7.80381E-02 3.63960E-04-5.06185E-02-1.60319E-14 3.24377E-14
 -1      4324 2.02766E+01-6.80063E-02 5.07069E-04-5.07817E-02 3.95007E-15 1.09057E-14
 -1      4325 2.03008E+01-6.14099E-02-8.26107E-04-3.20569E-02 2.11586E-14 8.18006E-14
 -1      4326 2.04078E+01 2.24993E-01 4.00868E-05-2.27832E-02 1.11985E-13 2.61733E-15
 -1      4327 2.03912E+01 9.55816E-02 1.65618E-05-2.45411E-02 1.39960E-13 1.31383E-14
 -1      4328 1.71247E+01 9.04846E-01-5.40025E-03-9.78048E-01 2.29903E-14-3.46684E-13
 -1      4329 2.04077E+01 1.45336E-01 6.76397E-04-2.32728E-02 1.14581E-13 3.33158E-14
 -3
    1PSTEP                         3           1           1          
  100CL  101 1.000000000        4329                     0    1           1
 -4  TOSTRAIN    6    1
 -5  EXX         1    4    1    1
 -5  EYY         1    4    2    2
 -5  EZZ         1    4    3    3
 -5  EXY         1    4    1    2
 -5  EYZ         1    4    2    3
 -5  EZX         1    4    3    1
 -1         1 5.90311E-06 3.17023E-07-8.09523E-06-5.19528E-06 1.03647E-17-6.29303E-18
 -1         2 3.98082E-05-1.22383E-04 2.24253E-05-1.64548E-06 1.01797E-17 9.19984E-19
 -1         3 9.51057E-05-2.87089E-05-2.83010E-05-1.37267E-07-2.96607E-18-2.84928E-18
 -1         4 9.49884E-05-2.88267E-05-2.81123E-05 2.90644E-07 8.64238E-19-6.69083E-19
 -1         5 1.43347E-04-2.14785E-05-4.25282E-05 3.85317E-05-5.11926E-20 2.90532E-18
 -1         6 1.45409E-04 2.57571E-10-4.41871E-05-5.35273E-05-3.02391E-19-3.22423E-18
 -1         7 9.06077E-05-5.11043E-07-3.90679E-05-2.92533E-05-5.00808E-20-3.46725E-18
 -1         8 8.51247E-05 8.64490E-08-3.63388E-05-2.02729E-05 4.01811E-20-2.77151E-18
 -1         9 8.28158E-05 7.59761E-08-3.53511E-05-1.56411E-05 6.48377E-20-2.12035E-18
 -1        10 8.17710E-05 3.97269E-08-3.48815E-05-1.20791E-05 7.16802E-20-1.53853E-18
 -1        11 8.12526E-05 1.93248E-08-3.46530E-05-9.01546E-06 7.47110E-20-1.09920E-18
 -1        12 8.09841E-05 9.10965E-09-3.45385E-05-6.28528E-06 7.97601E-20-7.80908E-19
 -1        13 8.08426E-05 4.56032E-09-3.44809E-05-3.68593E-06 6.23256E-20-4.45438E-19
 -1        14 8.07833E-05 2.72896E-09-3.44574E-05-1.18369E-06 7.23977E-20-1.22679E-19
 -1        15 8.07854E-05 2.72199E-09-3.44581E-05 1.28916E-06 7.90834E-20 1.34781E-19
 -1        16 8.08488E-05 4.51298E-09-3.44831E-05 3.79647E-06 7.08149E-20 3.77878E-19
 -1        17 8.09955E-05 8.39982E-09-3.45423E-05 6.40765E-06 6.49486E-20 6.97001E-19
 -1        18 8.12703E-05 1.81671E-08-3.46581E-05 9.15688E-06 6.58800E-20 1.13518E-18
 -1        19 8.17969E-05 3.81963E-08-3.48899E-05 1.22591E-05 6.67105E-20 1.59490E-18
 -1        20 8.28356E-05 8.15353E-08-3.53633E-05 1.58718E-05 6.61083E-20 2.11548E-18
 -1        21 8.50898E-05 1.69481E-07-3.63772E-05 2.04834E-05 3.56019E-20 2.77967E-18
 -1        22 9.16450E-05-9.96332E-08-3.87396E-05 2.80001E-05-1.25996E-20 3.30025E-18
 -1        23 1.12977E-04-3.81273E-05-3.53977E-05-4.40260E-06-2.09826E-19-4.02118E-18
 -1        24 9.28094E-05-2.76985E-05-2.90006E-05 3.91383E-07-3.27299E-20-4.47705E-18
 -1        25 8.91259E-05-2.68541E-05-2.69311E-05 3.76054E-07-2.78694E-20-4.82762E-18
 -1        26 8.80232E-05-2.64907E-05-2.63939E-05 2.03909E-07-1.11264E-20-5.23362E-18
 -1        27 8.80489E-05-2.64687E-05-2.63860E-05 1.39905E-07 1.63645E-20-5.16926E-18
 -1        28 8.85827E-05-2.66051E-05-2.65555E-05 1.00976E-07 3.25522E-20-5.08497E-18
 -1        29 8.93372E-05-2.68177E-05-2.67879E-05 7.51967E-08-4.72105E-20-5.51142E-18
 -1        30 9.01605E-05-2.70570E-05-2.70375E-05 5.68228E-08 8.88887E-20-5.67561E-18
 -1        31 9.09679E-05-2.72948E-05-2.72810E-05 4.30014E-08-8.63975E-20-5.88852E-18
 -1        32 9.17125E-05-2.75156E-05-2.75055E-05 3.22672E-08-1.17304E-19-6.50127E-18
 -1        33 9.23713E-05-2.77117E-05-2.77041E-05 2.38048E-08 3.43232E-19-6.56924E-18
 -1        34 9.29363E-05-2.78803E-05-2.78746E-05 1.71009E-08 1.24447E-19-5.94018E-18
 -1        35 9.34096E-05-2.80219E-05-2.80176E-05 1.17942E-08-5.42170E-20-6.54780E-18
 -1        36 9.37998E-05-2.81390E-05-2.81356E-05 7.61269E-09-4.07549E-21-6.40779E-18
 -1        37 9.41198E-05-2.82352E-05-2.82326E-05 4.34617E-09-1.84857E-19-5.47182E-18
 -1        38 9.43856E-05-2.83154E-05-2.83133E-05 1.83635E-09-2.51772E-20-5.47056E-18
 -1        39 9.46158E-05-2.83850E-05-2.83834E-05-2.56181E-11-4.47415E-20-5.18322E-18
 -1        40 9.48314E-05-2.84504E-05-2.84491E-05-1.29648E-09 7.74135E-20-6.07046E-18
 -1        41 9.50564E-05-2.85188E-05-2.85178E-05-1.97467E-09-9.28247E-20-6.88142E-18
 -1        42 9.53187E-05-2.85985E-05-2.85979E-05-1.99001E-09-1.02831E-19-6.66294E-18
 -1        43 9.56511E-05-2.86994E-05-2.86993E-05-1.18838E-09-2.78854E-19-5.98829E-18
 -1        44 9.60929E-05-2.88334E-05-2.88340E-05 6.90281E-10 6.63511E-20-4.74684E-18
 -1        45 9.66914E-05-2.90144E-05-2.90163E-05 4.04220E-09-2.84174E-19-5.12303E-18
 -1        46 9.75034E-05-2.92596E-05-2.92633E-05 9.43880E-09 1.96951E-19-4.91950E-18
 -1        47 9.85959E-05-2.95889E-05-2.95954E-05 1.76704E-08-5.85578E-20-2.73370E-18
 -1        48 1.00046E-04-3.00252E-05-3.00358E-05 2.97792E-08 8.12273E-20-3.83241E-18
 -1        49 1.01939E-04-3.05934E-05-3.06095E-05 4.70357E-08 2.80904E-19-4.34599E-18
 -1        50 1.04355E-04-3.13174E-05-3.13403E-05 7.07519E-08 4.40428E-20-4.14492E-18
 -1        51 1.07356E-04-3.22143E-05-3.22442E-05 1.01699E-07-5.48106E-20-3.07650E-18
 -1        52 1.10939E-04-3.32831E-05-3.33168E-05 1.38698E-07-1.17028E-19-2.40563E-18
 -1        53 1.14980E-04-3.44857E-05-3.45126E-05 1.75745E-07-3.71226E-19-4.37573E-18
 -1        54 1.19122E-04-3.57168E-05-3.57138E-05 1.97133E-07 1.21305E-19-4.67740E-18
 -1        55 1.22660E-04-3.67680E-05-3.66972E-05 1.71599E-07-2.44657E-19-3.76273E-18
 -1        56 1.24444E-04-3.73016E-05-3.71201E-05 5.10965E-08-1.52188E-19-4.65481E-18
 -1        57 1.22995E-04-3.68780E-05-3.65748E-05-2.10602E-07 7.21725E-19-2.55461E-18
 -1        58 1.17037E-04-3.51106E-05-3.47677E-05-6.00309E-07-2.34726E-19-2.66802E-18
 -1        59 1.06587E-04-3.19881E-05-3.18049E-05-9.66563E-07 7.92960E-20-3.66231E-18
 -1        60 9.40674E-05-2.82217E-05-2.84136E-05-1.02671E-06-2.43650E-19-2.41473E-18
 -1        61 8.41122E-05-2.52110E-05-2.57849E-05-5.82668E-07 1.80021E-19-4.96875E-18
 -1        62 8.11345E-05-2.43107E-05-2.49727E-05 1.98816E-07-6.95735E-19-7.83425E-18
 -1        63 8.61000E-05-2.58224E-05-2.61902E-05 8.32331E-07 3.14613E-19-6.51990E-18
 -1        64 9.57221E-05-2.87301E-05-2.86757E-05 9.75210E-07-2.35116E-19-5.72054E-18
 -1        65 1.05020E-04-3.15183E-05-3.11954E-05 6.93920E-07 8.38248E-20-4.38959E-18
 -1        66 1.10452E-04-3.31320E-05-3.27718E-05 2.67982E-07 7.08593E-19-7.97402E-19
 -1        67 1.11090E-04-3.33126E-05-3.30545E-05-7.99002E-08 2.44448E-20 7.69976E-19
 -1        68 1.07967E-04-3.23783E-05-3.22609E-05-2.75751E-07-4.07329E-19 6.32681E-19
 -1        69 1.02952E-04-3.08830E-05-3.09028E-05-3.26472E-07 1.13247E-18-4.89439E-19
 -1        70 9.80738E-05-2.94144E-05-2.95585E-05-2.08325E-07 4.87960E-19 2.60096E-18
 -1        71 9.51951E-05-2.84798E-05-2.86717E-05 4.51695E-08-1.13357E-18 2.05567E-19
 -1        72 1.02181E-04-3.05882E-05-3.41510E-05-1.92900E-06-1.21046E-19 3.70947E-18
 -1        73 9.25660E-05-2.75146E-05-2.89090E-05-3.33238E-07 5.33929E-20 4.14497E-18
 -1        74 8.91128E-05-2.67033E-05-2.69743E-05-1.25941E-07-7.64158E-20 4.65660E-18
 -1        75 8.80526E-05-2.64413E-05-2.64378E-05-9.56062E-08 1.89342E-20 5.00309E-18
 -1        76 8.80840E-05-2.64489E-05-2.64126E-05-7.66118E-08 3.27729E-20 4.75333E-18
 -1        77 8.86169E-05-2.65996E-05-2.65726E-05-6.25432E-08-8.05579E-20 4.96912E-18
 -1        78 8.93684E-05-2.68190E-05-2.68002E-05-5.17465E-08-9.53968E-20 6.00112E-18
 -1        79 9.01883E-05-2.70616E-05-2.70469E-05-4.28345E-08 1.35541E-19 6.26046E-18
 -1        80 9.09921E-05-2.73008E-05-2.72884E-05-3.51453E-08-7.65454E-21 5.49829E-18
 -1        81 9.17333E-05-2.75220E-05-2.75112E-05-2.84146E-08 1.59844E-19 5.13321E-18
 -1        82 9.23889E-05-2.77180E-05-2.77086E-05-2.25212E-08-2.82058E-20 5.90339E-18
 -1        83 9.29510E-05-2.78862E-05-2.78781E-05-1.73841E-08 2.98846E-20 6.76375E-18
 -1        84 9.34220E-05-2.80273E-05-2.80204E-05-1.29272E-08 7.03310E-20 7.02277E-18
 -1        85 9.38104E-05-2.81437E-05-2.81381E-05-9.06961E-09-3.37928E-20 6.25186E-18
 -1        86 9.41293E-05-2.82394E-05-2.82349E-05-5.72661E-09-7.13645E-20 5.06743E-18
 -1        87 9.43948E-05-2.83192E-05-2.83157E-05-2.81661E-09-2.29783E-19 5.14913E-18
 -1        88 9.46254E-05-2.83885E-05-2.83860E-05-2.69810E-10-1.41755E-19 6.12367E-18
 -1        89 9.48421E-05-2.84538E-05-2.84523E-05 1.96157E-09 2.29750E-19 5.63140E-18
 -1        90 9.50683E-05-2.85220E-05-2.85217E-05 3.89069E-09 8.41222E-20 3.24692E-18
 -1        91 9.53311E-05-2.86012E-05-2.86022E-05 5.48045E-09-3.01762E-20 3.37179E-18
 -1        92 9.56613E-05-2.87006E-05-2.87033E-05 6.62355E-09-2.33695E-19 5.63773E-18
 -1        93 9.60945E-05-2.88309E-05-2.88355E-05 7.11695E-09 4.52947E-19 6.18905E-18
 -1        94 9.66708E-05-2.90040E-05-2.90112E-05 6.62985E-09 7.92059E-20 2.71577E-18
 -1        95 9.74353E-05-2.92333E-05-2.92436E-05 4.66615E-09-1.40426E-20 2.54707E-18
 -1        96 9.84351E-05-2.95328E-05-2.95469E-05 5.28083E-10-2.56038E-19 6.35477E-18
 -1        97 9.97158E-05-2.99160E-05-2.99344E-05-6.70089E-09-1.85379E-19 8.65801E-18
 -1        98 1.01313E-04-3.03932E-05-3.04157E-05-1.81108E-08-1.28567E-20 7.28203E-18
 -1        99 1.03237E-04-3.09676E-05-3.09930E-05-3.47696E-08-7.90216E-20 5.21287E-18
 -1       100 1.05453E-04-3.16285E-05-3.16532E-05-5.72194E-08-3.88968E-19 5.58042E-18
 -1       101 1.07846E-04-3.23418E-05-3.23584E-05-8.44248E-08 7.20632E-19 4.57131E-18
 -1       102 1.10180E-04-3.30383E-05-3.30337E-05-1.11938E-07-1.89548E-19 3.27265E-18
 -1       103 1.12058E-04-3.36015E-05-3.35570E-05-1.29397E-07-2.75441E-19 5.68574E-18
 -1       104 1.12907E-04-3.38628E-05-3.37579E-05-1.18596E-07 1.47751E-19 8.21208E-18
 -1       105 1.12035E-04-3.36170E-05-3.34419E-05-5.56110E-08 2.75672E-19 6.95110E-18
 -1       106 1.08826E-04-3.26770E-05-3.24526E-05 7.74148E-08-7.33955E-19 7.07769E-18
 -1       107 1.03096E-04-3.09770E-05-3.07725E-05 2.67992E-07-1.42844E-19 5.60863E-18
 -1       108 9.55144E-05-2.87015E-05-2.86219E-05 4.50980E-07 2.24547E-19 4.19244E-18
 -1       109 8.77627E-05-2.63461E-05-2.64778E-05 5.23621E-07 1.55345E-21 7.73526E-18
 -1       110 8.21143E-05-2.46032E-05-2.49388E-05 4.04348E-07-8.12242E-20 8.21132E-18
 -1       111 8.03915E-05-2.40513E-05-2.44561E-05 1.17998E-07-5.80697E-20 7.17872E-18
 -1       112 8.28887E-05-2.48012E-05-2.50950E-05-1.97394E-07-9.08630E-19 6.85246E-18
 -1       113 8.81806E-05-2.64198E-05-2.64961E-05-3.95123E-07 4.48506E-19 5.89080E-18
 -1       114 9.39777E-05-2.81961E-05-2.80747E-05-4.16225E-07-4.73009E-19 6.53978E-18
 -1       115 9.83062E-05-2.95194E-05-2.92976E-05-3.01851E-07-1.09146E-19 2.74145E-18
 -1       116 1.00228E-04-3.01041E-05-2.98852E-05-1.34081E-07 4.73776E-19 6.86547E-19
 -1       117 9.98754E-05-2.99935E-05-2.98492E-05 1.94361E-08-1.78250E-19-3.36709E-18
 -1       118 9.81088E-05-2.94487E-05-2.94154E-05 1.16891E-07 1.42122E-19-1.66959E-18
 -1       119 9.61281E-05-2.88354E-05-2.89016E-05 1.23870E-07-2.23498E-19-4.09922E-18
 -1       120 9.50928E-05-2.84787E-05-2.85543E-05-2.50674E-08 1.29285E-18-3.60601E-18
 -1       121 9.52512E-05-2.86234E-05-2.85783E-05-9.74939E-08-2.14499E-18 1.64690E-18
 -1       122 9.48953E-05-2.75060E-05-2.89952E-05 1.70051E-08 3.45263E-18-3.57038E-19
 -1       123 9.40389E-05-2.46484E-05-2.98644E-05 1.17056E-07 8.31205E-18 9.57179E-19
 -1       124 9.26664E-05-2.00543E-05-3.12375E-05 2.23120E-07 7.74282E-18 1.36795E-19
 -1       125 9.08280E-05-1.38791E-05-3.30573E-05 3.30493E-07 6.87706E-18-1.46296E-18
 -1       126 8.87287E-05-6.81963E-06-3.51055E-05 3.95663E-07-5.95496E-18-5.27895E-19
 -1       127 8.66294E-05 2.35079E-07-3.71218E-05 3.80665E-07-7.97500E-18 8.45441E-19
 -1       128 8.50083E-05 5.68205E-06-3.86593E-05 2.55785E-07-7.41286E-18 8.38632E-19
 -1       129 8.42800E-05 8.12874E-06-3.93418E-05 4.42072E-08-6.48368E-18 2.36436E-19
 -1       130 8.46613E-05 6.85038E-06-3.89763E-05-1.86787E-07-5.08204E-18 3.51965E-20
 -1       131 8.60703E-05 2.11324E-06-3.76324E-05-3.64821E-07-7.88728E-18-2.30559E-18
 -1       132 8.81384E-05-4.83766E-06-3.56469E-05-4.34642E-07-1.61617E-17 1.21554E-18
 -1       133 9.04871E-05-1.27301E-05-3.33735E-05-4.15542E-07-8.90748E-18 8.94327E-19
 -1       134 9.26559E-05-2.00430E-05-3.12584E-05-3.50170E-07-5.59770E-19 6.20493E-20
 -1       135 9.43048E-05-2.55195E-05-2.96426E-05-2.78861E-07 1.11024E-18-1.41648E-18
 -1       136 9.50697E-05-2.82587E-05-2.86994E-05 1.83258E-07-1.14516E-18 1.05320E-18
 -1       137 2.62515E-05-9.27624E-05 1.69869E-05-2.57947E-05 2.14638E-18-8.87585E-19
 -1       138 7.90901E-06-2.94924E-05 1.54668E-06-1.41589E-05-8.27255E-18-3.80445E-18
 -1       139 1.81895E-05 1.91149E-05-1.85369E-05 3.39168E-05-7.36199E-18-5.85977E-18
 -1       140 8.37862E-05 2.28018E-05-4.23748E-05 9.54727E-05-6.00843E-18-6.40696E-18
 -1       141 1.82437E-04-1.85346E-05-6.19314E-05 1.18195E-04-4.84609E-18-1.07408E-17
 -1       142 2.75018E-04-7.14600E-05-7.55769E-05 8.25195E-05-3.02563E-18-1.73330E-17
 -1       143 3.15378E-04-9.71710E-05-8.06859E-05 4.32501E-06-6.01526E-19-1.88686E-17
 -1       144 2.81851E-04-7.70193E-05-7.61667E-05-7.44382E-05 3.33718E-18-1.33219E-17
 -1       145 1.87358E-04-2.31755E-05-6.22977E-05-1.14303E-04 5.63446E-18-1.32124E-17
 -1       146 8.98632E-05 2.01021E-05-4.37609E-05-9.72901E-05 5.71197E-18-8.28737E-18
 -1       147 2.41227E-05 2.29812E-05-2.20925E-05-4.38121E-05 4.00731E-18-3.80953E-18
 -1       148 6.27919E-06-1.95374E-05-1.09557E-06 8.78329E-06 2.61860E-18-1.45266E-18
 -1       149 2.16496E-05-7.91557E-05 1.42701E-05 2.65944E-05 1.60428E-18-1.43583E-18
 -1       150 3.68593E-05-1.14121E-04 2.11167E-05 5.90236E-06-4.24157E-18-3.57871E-19
 -1       151 3.01497E-05-1.00605E-04 1.86974E-05-2.19336E-05-4.08482E-18-8.17519E-20
 -1       152 1.09354E-05-4.85490E-05 7.12602E-06-2.46009E-05-5.56331E-18-3.40931E-18
 -1       153 7.29148E-06 4.75543E-06-1.01830E-05 1.03682E-05-7.53690E-18-4.36476E-18
 -1       154 5.61798E-05 2.39794E-05-3.37132E-05 7.22803E-05-5.19570E-18-5.44642E-18
 -1       155 1.50236E-04-5.89058E-06-5.56346E-05 1.11207E-04-2.24400E-18-5.24440E-18
 -1       156 2.51028E-04-5.85253E-05-7.18030E-05 9.71382E-05-1.08219E-18-7.97482E-19
 -1       157 3.15528E-04-9.67471E-05-8.04985E-05 2.94943E-05-4.08257E-19-2.82909E-19
 -1       158 3.05159E-04-8.90447E-05-7.95045E-05-5.78605E-05-6.92820E-19 4.68409E-19
 -1       159 2.22977E-04-3.96503E-05-6.84616E-05-1.13912E-04-2.05363E-18 3.21957E-18
 -1       160 1.18791E-04 1.17988E-05-5.06754E-05-1.11207E-04 9.98228E-19 4.55280E-19
 -1       161 4.05870E-05 2.91828E-05-2.99451E-05-6.44874E-05 7.61186E-18-7.90282E-18
 -1       162 1.25043E-05-5.26686E-05 7.82809E-06 2.58540E-05 1.09017E-17-5.39518E-18
 -1       163 3.12275E-05-1.02795E-04 1.86510E-05 2.47436E-05 7.48671E-18-1.43818E-18
 -1       164 9.48690E-05-1.23468E-05-3.55695E-05-2.23501E-05-2.36110E-20-2.73923E-18
 -1       165 8.92495E-05-8.45616E-06-3.47875E-05-1.73929E-05 3.81502E-19-2.15309E-18
 -1       166 8.65498E-05-6.50631E-06-3.44162E-05-1.35843E-05 6.11971E-19-1.59146E-18
 -1       167 8.51885E-05-5.51336E-06-3.42306E-05-1.03733E-05 8.09995E-19-1.19843E-18
 -1       168 8.44482E-05-4.94595E-06-3.41413E-05-7.54825E-06 8.33001E-19-8.59494E-19
 -1       169 8.40208E-05-4.60016E-06-3.40990E-05-4.90389E-06 8.54574E-19-5.91957E-19
 -1       170 8.38023E-05-4.41562E-06-3.40810E-05-2.39530E-06 8.23907E-19-2.48750E-19
 -1       171 8.37379E-05-4.35987E-06-3.40762E-05 5.12869E-08 9.11889E-19 6.45069E-20
 -1       172 8.38121E-05-4.42405E-06-3.40817E-05 2.50002E-06 9.23029E-19 2.53878E-19
 -1       173 8.40422E-05-4.61912E-06-3.41004E-05 5.01532E-06 8.26564E-19 4.81340E-19
 -1       174 8.44750E-05-4.97207E-06-3.41423E-05 7.62483E-06 7.70376E-19 8.50150E-19
 -1       175 8.52509E-05-5.57441E-06-3.42320E-05 1.05141E-05 7.19386E-19 1.27230E-18
 -1       176 8.66471E-05-6.60849E-06-3.44185E-05 1.37850E-05 5.90928E-19 1.66339E-18
 -1       177 8.93924E-05-8.60009E-06-3.47923E-05 1.76244E-05 3.85764E-19 2.15714E-18
 -1       178 9.57809E-05-1.36140E-05-3.54259E-05 2.18952E-05-2.49610E-20 2.66209E-18
 -1       179 1.05607E-04-2.61026E-05-3.52636E-05 1.86641E-05-2.72235E-19 2.99013E-18
 -1       180 1.03401E-04-2.73022E-05-3.26113E-05-1.21279E-05-9.06855E-20-2.81951E-18
 -1       181 9.71102E-05-2.82902E-05-2.95296E-05-4.73080E-06-2.20758E-20-2.65411E-18
 -1       182 9.35104E-05-2.76384E-05-2.81829E-05-1.76906E-06-1.57776E-19-2.53645E-18
 -1       183 9.19738E-05-2.74058E-05-2.76366E-05-4.23334E-07 9.21215E-20-2.54162E-18
 -1       184 9.13972E-05-2.73310E-05-2.74388E-05 2.41866E-07 1.34847E-20-2.47910E-18
 -1       185 9.13544E-05-2.73698E-05-2.74133E-05 5.67093E-07-1.72016E-19-2.39987E-18
 -1       186 9.15964E-05-2.74720E-05-2.74779E-05 7.04907E-07-2.01530E-20-2.39139E-18
 -1       187 9.19781E-05-2.76036E-05-2.75873E-05 7.34841E-07-6.59410E-20-2.51209E-18
 -1       188 9.24125E-05-2.77433E-05-2.77148E-05 7.02857E-07-3.06913E-19-2.25155E-18
 -1       189 9.28482E-05-2.78781E-05-2.78444E-05 6.37601E-07-1.02590E-19-1.98895E-18
 -1       190 9.32561E-05-2.80013E-05-2.79667E-05 5.57627E-07 1.56033E-20-3.11133E-18
 -1       191 9.36220E-05-2.81098E-05-2.80773E-05 4.75151E-07-1.27605E-19-3.37876E-18
 -1       192 9.39418E-05-2.82029E-05-2.81744E-05 3.98287E-07 1.63871E-19-2.57174E-18
 -1       193 9.42180E-05-2.82819E-05-2.82588E-05 3.32528E-07 3.34957E-19-2.25033E-18
 -1       194 9.44580E-05-2.83493E-05-2.83326E-05 2.81797E-07-9.56951E-20-1.88398E-18
 -1       195 9.46727E-05-2.84085E-05-2.83990E-05 2.49246E-07-3.42864E-21-2.33638E-18
 -1       196 9.48760E-05-2.84635E-05-2.84623E-05 2.37872E-07-4.56003E-19-2.44391E-18
 -1       197 9.50849E-05-2.85193E-05-2.85276E-05 2.51017E-07-5.56378E-19-2.70400E-18
 -1       198 9.53191E-05-2.85815E-05-2.86009E-05 2.92761E-07-1.49994E-19-2.66622E-18
 -1       199 9.56021E-05-2.86569E-05-2.86894E-05 3.68244E-07 2.94601E-19-3.19093E-18
 -1       200 9.59616E-05-2.87533E-05-2.88017E-05 4.83881E-07 6.62389E-19-3.04776E-18
 -1       201 9.64302E-05-2.88801E-05-2.89475E-05 6.47448E-07-4.13535E-19-2.81454E-18
 -1       202 9.70460E-05-2.90484E-05-2.91386E-05 8.67920E-07 6.69090E-19-1.85691E-18
 -1       203 9.78527E-05-2.92712E-05-2.93882E-05 1.15487E-06 8.71549E-19-1.70522E-18
 -1       204 9.88994E-05-2.95635E-05-2.97108E-05 1.51700E-06-3.80369E-19-1.59902E-18
 -1       205 1.00238E-04-2.99422E-05-3.01216E-05 1.95921E-06-1.85432E-19-1.10978E-18
 -1       206 1.01917E-04-3.04255E-05-3.06342E-05 2.47692E-06-2.69661E-22-1.77060E-18
 -1       207 1.03974E-04-3.10316E-05-3.12572E-05 3.04606E-06 5.66777E-19-1.70697E-18
 -1       208 1.06418E-04-3.17757E-05-3.19880E-05 3.60649E-06 1.95141E-19-1.27638E-18
 -1       209 1.09199E-04-3.26646E-05-3.28028E-05 4.03749E-06-1.01066E-18-1.53672E-18
 -1       210 1.12169E-04-3.36854E-05-3.36443E-05 4.12850E-06-2.38002E-19-1.27685E-18
 -1       211 1.15033E-04-3.47838E-05-3.44074E-05 3.56107E-06 2.91536E-19-9.01860E-19
 -1       212 1.17295E-04-3.58242E-05-3.49358E-05 1.94454E-06 2.40250E-19-6.59164E-19
 -1       213 1.18256E-04-3.65317E-05-3.50431E-05-1.01645E-06 1.34976E-18 1.51044E-18
 -1       214 1.17119E-04-3.64529E-05-3.45809E-05-5.14674E-06-7.79727E-19 5.88739E-19
 -1       215 1.13350E-04-3.50695E-05-3.35488E-05-9.30972E-06-4.66891E-19 3.50440E-19
 -1       216 1.07333E-04-3.22536E-05-3.21760E-05-1.13305E-05-3.62311E-19-1.43540E-18
 -1       217 1.00930E-04-2.88924E-05-3.08851E-05-9.13187E-06-1.93472E-18-1.88851E-18
 -1       218 9.69805E-05-2.67990E-05-3.00977E-05-2.83681E-06-1.80536E-18-2.84872E-18
 -1       219 9.73518E-05-2.73036E-05-3.00389E-05 4.36676E-06-4.86376E-19-2.78697E-18
 -1       220 1.01243E-04-2.98281E-05-3.06093E-05 8.51111E-06 4.80471E-19-4.05015E-18
 -1       221 1.05924E-04-3.25175E-05-3.14547E-05 8.07592E-06 2.15924E-18-2.82955E-18
 -1       222 1.08968E-04-3.40073E-05-3.21295E-05 4.47274E-06 2.77341E-18 5.58896E-19
 -1       223 1.09400E-04-3.40303E-05-3.23126E-05 1.00981E-07 1.90012E-18 1.93889E-18
 -1       224 1.07523E-04-3.30154E-05-3.19446E-05-3.29165E-06 7.83108E-20 3.85672E-18
 -1       225 1.04239E-04-3.14942E-05-3.11851E-05-4.97674E-06-1.31050E-18 2.43364E-18
 -1       226 1.00555E-04-2.98557E-05-3.03020E-05-4.85586E-06 4.37897E-19-2.98516E-19
 -1       227 9.72735E-05-2.83823E-05-2.95251E-05-3.11855E-06-2.84028E-19-6.53043E-19
 -1       228 9.95039E-05-2.85554E-05-3.05881E-05 7.21181E-06-1.04595E-19 2.78725E-18
 -1       229 9.44195E-05-2.77917E-05-2.85254E-05 2.74422E-06-2.43727E-19 2.71456E-18
 -1       230 9.20994E-05-2.74019E-05-2.76824E-05 9.30333E-07 2.33166E-20 2.53042E-18
 -1       231 9.11505E-05-2.72393E-05-2.73636E-05 6.84149E-08 7.63943E-20 2.59189E-18
 -1       232 9.09384E-05-2.72321E-05-2.72892E-05-3.59198E-07-2.81473E-19 2.60539E-18
 -1       233 9.11212E-05-2.73178E-05-2.73376E-05-5.59537E-07-3.37534E-19 2.61662E-18
 -1       234 9.15034E-05-2.74505E-05-2.74477E-05-6.31967E-07-1.85510E-20 2.74984E-18
 -1       235 9.19704E-05-2.76009E-05-2.75850E-05-6.30545E-07 4.52196E-19 2.83739E-18
 -1       236 9.24540E-05-2.77513E-05-2.77287E-05-5.87642E-07 1.23661E-19 2.69633E-18
 -1       237 9.29151E-05-2.78918E-05-2.78667E-05-5.23757E-07-5.90986E-19 2.56034E-18
 -1       238 9.33332E-05-2.80173E-05-2.79924E-05-4.52240E-07-1.65075E-19 2.66063E-18
 -1       239 9.37001E-05-2.81260E-05-2.81032E-05-3.81892E-07 1.98126E-20 2.75893E-18
 -1       240 9.40161E-05-2.82186E-05-2.81991E-05-3.18570E-07 5.64419E-19 3.08216E-18
 -1       241 9.42869E-05-2.82969E-05-2.82815E-05-2.66274E-07 1.37297E-19 2.66769E-18
 -1       242 9.45224E-05-2.83641E-05-2.83536E-05-2.27934E-07 2.13739E-20 2.78171E-18
 -1       243 9.47358E-05-2.84242E-05-2.84192E-05-2.05991E-07-1.47788E-19 1.87343E-18
 -1       244 9.49427E-05-2.84819E-05-2.84830E-05-2.02835E-07 6.66051E-19 1.38370E-18
 -1       245 9.51617E-05-2.85426E-05-2.85507E-05-2.21116E-07 6.71011E-19 1.27199E-18
 -1       246 9.54139E-05-2.86124E-05-2.86286E-05-2.63934E-07-8.08012E-19 2.14718E-18
 -1       247 9.57236E-05-2.86987E-05-2.87242E-05-3.34885E-07-8.64321E-19 2.61327E-18
 -1       248 9.61184E-05-2.88095E-05-2.88457E-05-4.37911E-07 2.76769E-19 2.65669E-18
 -1       249 9.66291E-05-2.89541E-05-2.90024E-05-5.76882E-07 1.28177E-18 2.56292E-18
 -1       250 9.72888E-05-2.91427E-05-2.92042E-05-7.54746E-07-3.96449E-19 1.36184E-18
 -1       251 9.81312E-05-2.93862E-05-2.94609E-05-9.72052E-07-2.01408E-18 1.93208E-18
 -1       252 9.91870E-05-2.96950E-05-2.97813E-05-1.22454E-06-7.75347E-19 3.50727E-18
 -1       253 1.00478E-04-3.00781E-05-3.01708E-05-1.49938E-06 2.80787E-19 4.01027E-18
 -1       254 1.02005E-04-3.05399E-05-3.06285E-05-1.76983E-06 1.18934E-18 3.86376E-18
 -1       255 1.03739E-04-3.10770E-05-3.11425E-05-1.98814E-06-9.69741E-19 2.96198E-18
 -1       256 1.05593E-04-3.16720E-05-3.16835E-05-2.07786E-06 4.71235E-19 3.91026E-18
 -1       257 1.07407E-04-3.22850E-05-3.21987E-05-1.92909E-06 2.24050E-19 3.49314E-18
 -1       258 1.08919E-04-3.28441E-05-3.26068E-05-1.40475E-06-1.20314E-18 3.21883E-18
 -1       259 1.09767E-04-3.32352E-05-3.28004E-05-3.72123E-07-2.97080E-19 3.10586E-18
 -1       260 1.09522E-04-3.32993E-05-3.26634E-05 1.22307E-06 3.21489E-19 4.65604E-18
 -1       261 1.07796E-04-3.28543E-05-3.21095E-05 3.23672E-06-7.94524E-20 3.42985E-18
 -1       262 1.04441E-04-3.17647E-05-3.11373E-05 5.20526E-06 9.57541E-19 2.63976E-18
 -1       263 9.98037E-05-3.00751E-05-2.98796E-05 6.35710E-06-5.35560E-20 3.97744E-18
 -1       264 9.48675E-05-2.81361E-05-2.86072E-05 5.92377E-06-1.52743E-18 5.25701E-18
 -1       265 9.10372E-05-2.65650E-05-2.76512E-05 3.65621E-06-5.29958E-20 5.49204E-18
 -1       266 8.95443E-05-2.59853E-05-2.72613E-05 2.53198E-07 5.63737E-19 6.98355E-18
 -1       267 9.06904E-05-2.65724E-05-2.74883E-05-2.87854E-06 2.12906E-19 5.80357E-18
 -1       268 9.36501E-05-2.79220E-05-2.81609E-05-4.50779E-06 4.75798E-19 4.99978E-18
 -1       269 9.69954E-05-2.93513E-05-2.89730E-05-4.28088E-06 5.85313E-21 4.54075E-18
 -1       270 9.94652E-05-3.03133E-05-2.96207E-05-2.72605E-06 2.24372E-18 3.80310E-18
 -1       271 1.00447E-04-3.06066E-05-2.99228E-05-7.41383E-07 2.26961E-18 1.41461E-18
 -1       272 9.99949E-05-3.03159E-05-2.98617E-05 8.98281E-07 7.83651E-19 7.26097E-19
 -1       273 9.86090E-05-2.96705E-05-2.95518E-05 1.73009E-06-6.81789E-19 1.70777E-18
 -1       274 9.69662E-05-2.89318E-05-2.91664E-05 1.59018E-06 1.56168E-18 2.05309E-18
 -1       275 9.56857E-05-2.84100E-05-2.88297E-05 6.75539E-07 3.71746E-19 8.27995E-19
 -1       276 9.53722E-05-2.75629E-05-2.90524E-05 1.40769E-06 2.06014E-18 4.59003E-18
 -1       277 9.48969E-05-2.58414E-05-2.95848E-05 2.95727E-06 3.22337E-18 2.30675E-18
 -1       278 9.40874E-05-2.31463E-05-3.03959E-05 4.63579E-06 2.58695E-18 1.96095E-19
 -1       279 9.28819E-05-1.94074E-05-3.14854E-05 6.17267E-06 1.83388E-18-1.00885E-19
 -1       280 9.13000E-05-1.49062E-05-3.27441E-05 7.12224E-06 1.37887E-18-7.28405E-18
 -1       281 8.94526E-05-1.00296E-05-3.40500E-05 6.98546E-06 4.02433E-19-2.13868E-18
 -1       282 8.77241E-05-5.73218E-06-3.51573E-05 5.38344E-06-2.48015E-19-6.04623E-19
 -1       283 8.65773E-05-3.00521E-06-3.58379E-05 2.41688E-06-2.06180E-18-8.27839E-19
 -1       284 8.63808E-05-2.58877E-06-3.59327E-05-1.25882E-06-3.54138E-18 2.65376E-19
 -1       285 8.72142E-05-4.63858E-06-3.54088E-05-4.67237E-06-4.81736E-18-3.24926E-19
 -1       286 8.87898E-05-8.56955E-06-3.43932E-05-6.95061E-06-2.73541E-18-3.47747E-18
 -1       287 9.07360E-05-1.36117E-05-3.30586E-05-7.78562E-06-1.63615E-18 2.75894E-18
 -1       288 9.26165E-05-1.87151E-05-3.16688E-05-7.22543E-06-2.63307E-18 4.19588E-18
 -1       289 9.42415E-05-2.31433E-05-3.04625E-05-5.51445E-06-2.40579E-18 2.29880E-18
 -1       290 9.57702E-05-2.60759E-05-2.98554E-05-4.82299E-06-1.32277E-18-1.04005E-18
 -1       291 1.31796E-05-4.71873E-05 1.18669E-05 1.09560E-05 1.02671E-18-5.39740E-18
 -1       292 3.52196E-05-4.60650E-05 2.72996E-06 3.12649E-05-4.99538E-19-6.96219E-18
 -1       293 6.13648E-05-3.86399E-05-1.12804E-05 3.82899E-05-3.84256E-18-1.84410E-18
 -1       294 1.15400E-04-4.43912E-05-3.03666E-05 4.29330E-05-2.99257E-18-4.20298E-18
 -1       295 1.50004E-04-3.09760E-05-4.93040E-05 4.81044E-05-2.86318E-18-9.27120E-18
 -1       296 1.87473E-04-3.30918E-05-6.33890E-05 3.45543E-05-2.01477E-18-1.16643E-17
 -1       297 1.97045E-04-2.82309E-05-6.99459E-05 1.00657E-05-1.38617E-18-9.36008E-18
 -1       298 2.13621E-04-3.69550E-05-7.21221E-05-1.00143E-05-9.58947E-19-1.05415E-17
 -1       299 1.90172E-04-3.42744E-05-6.39918E-05-3.00361E-05 2.35480E-18-7.16632E-18
 -1       300 1.51858E-04-3.10584E-05-5.00292E-05-4.61250E-05 2.15284E-18-7.24234E-18
 -1       301 1.06624E-04-3.05715E-05-3.24197E-05-4.63958E-05 2.67599E-18-6.01859E-18
 -1       302 7.45338E-05-4.27182E-05-1.44760E-05-4.10452E-05 2.49472E-18-4.61262E-18
 -1       303 3.55988E-05-4.29317E-05 1.22390E-06-2.98354E-05 1.65531E-18-1.78475E-18
 -1       304 1.48344E-05-4.86057E-05 1.14666E-05-1.19423E-05 4.39610E-19-2.50161E-18
 -1       305 1.03811E-05-4.59525E-05 1.25670E-05 3.88079E-06 6.88108E-19-7.33848E-19
 -1       306 2.37730E-05-4.60946E-05 6.96079E-06 1.92886E-05-1.77856E-18-2.33887E-18
 -1       307 4.73487E-05-4.07115E-05-4.99318E-06 2.98535E-05-2.75392E-18-2.45994E-18
 -1       308 9.08295E-05-3.86522E-05-2.29476E-05 4.10750E-05-3.17595E-18-1.99434E-18
 -1       309 1.41079E-04-4.14051E-05-4.20900E-05 3.49238E-05-2.38376E-18-3.83071E-19
 -1       310 1.78482E-04-3.55608E-05-5.89749E-05 3.28742E-05-1.77204E-18 4.74338E-20
 -1       311 2.10769E-04-3.81061E-05-7.02652E-05 1.82525E-05-6.86520E-19-1.41878E-19
 -1       312 2.20210E-04-3.86130E-05-7.36799E-05-6.55604E-06-3.37543E-19-1.08066E-18
 -1       313 2.01534E-04-3.50153E-05-6.80201E-05-2.79685E-05-8.34963E-19-1.74722E-18
 -1       314 1.68221E-04-3.26053E-05-5.57463E-05-4.59489E-05 2.22113E-18-3.22508E-19
 -1       315 1.24475E-04-3.18870E-05-3.89096E-05-4.92267E-05 5.64272E-18 1.09712E-18
 -1       316 8.40526E-05-3.80582E-05-2.05091E-05-4.35596E-05 4.61104E-18-3.12979E-18
 -1       317 4.55558E-05-4.22503E-05-3.85195E-06-3.05557E-05 6.34428E-18-4.05120E-18
 -1       318 2.53173E-05-5.02028E-05 7.42204E-06-1.95522E-05 4.07380E-18-3.98688E-18
 -1       319 1.39109E-05-5.44991E-05 1.37375E-05-6.37096E-06 4.90009E-18-5.79582E-19
 -1       320 9.16495E-05-1.43951E-05-3.31722E-05-1.30668E-05 5.00910E-19-1.55753E-18
 -1       321 9.57092E-05-1.91105E-05-3.28910E-05-1.46316E-05 2.73985E-19-2.02244E-18
 -1       322 8.80073E-05-1.03781E-05-3.33230E-05-8.15550E-06 9.15975E-19-8.52870E-19
 -1       323 8.71906E-05-9.45479E-06-3.33633E-05-5.71785E-06 1.00807E-18-7.00268E-19
 -1       324 8.67310E-05-8.92536E-06-3.33902E-05-3.36728E-06 1.03269E-18-3.62424E-19
 -1       325 8.65262E-05-8.68580E-06-3.34036E-05-1.07268E-06 1.12374E-18-3.76863E-20
 -1       326 8.65348E-05-8.69541E-06-3.34033E-05 1.20369E-06 1.10287E-18 1.83502E-19
 -1       327 8.67584E-05-8.95622E-06-3.33889E-05 3.50069E-06 1.04640E-18 3.04101E-19
 -1       328 8.72300E-05-9.49992E-06-3.33616E-05 5.81594E-06 9.70262E-19 5.50489E-19
 -1       329 8.80686E-05-1.04511E-05-3.33201E-05 8.25543E-06 8.34496E-19 9.27322E-19
 -1       330 8.94830E-05-1.20337E-05-3.32592E-05 1.07646E-05 7.32325E-19 1.29970E-18
 -1       331 9.19027E-05-1.47224E-05-3.31584E-05 1.31700E-05 5.90503E-19 1.60955E-18
 -1       332 9.58062E-05-1.94578E-05-3.28285E-05 1.43767E-05 2.11776E-19 1.93919E-18
 -1       333 9.87937E-05-2.44450E-05-3.19519E-05 1.18987E-05 7.80858E-22 2.20968E-18
 -1       334 9.63925E-05-2.68132E-05-2.97903E-05 5.74199E-06-6.24025E-20 1.88612E-18
 -1       335 9.64348E-05-2.60261E-05-3.01314E-05-6.34826E-06 6.95460E-20-1.82279E-18
 -1       336 9.49285E-05-2.70408E-05-2.90706E-05-2.83827E-06 5.94743E-20-1.48959E-18
 -1       337 9.39433E-05-2.74256E-05-2.84932E-05-9.21967E-07 5.41108E-20-1.48000E-18
 -1       338 9.34233E-05-2.76392E-05-2.81864E-05 1.35239E-07 5.80964E-20-1.41625E-18
 -1       339 9.32299E-05-2.77920E-05-2.80420E-05 6.98397E-07-1.06839E-19-1.35312E-18
 -1       340 9.32455E-05-2.79210E-05-2.79952E-05 9.64993E-07-1.34662E-19-1.45071E-18
 -1       341 9.33831E-05-2.80351E-05-2.80062E-05 1.05185E-06 1.27080E-19-1.80952E-18
 -1       342 9.35835E-05-2.81355E-05-2.80496E-05 1.03207E-06-1.19615E-19-1.39127E-18
 -1       343 9.38080E-05-2.82218E-05-2.81090E-05 9.53078E-07-6.28116E-19-1.40884E-18
 -1       344 9.40331E-05-2.82941E-05-2.81746E-05 8.46392E-07-1.30670E-19-1.31610E-18
 -1       345 9.42460E-05-2.83534E-05-2.82404E-05 7.33227E-07 3.26780E-19-1.29425E-18
 -1       346 9.44412E-05-2.84009E-05-2.83036E-05 6.28062E-07 5.95614E-19-1.08058E-18
 -1       347 9.46187E-05-2.84385E-05-2.83634E-05 5.41077E-07 7.40815E-20-7.67287E-19
 -1       348 9.47827E-05-2.84683E-05-2.84207E-05 4.79911E-07-4.96645E-19-1.34956E-18
 -1       349 9.49400E-05-2.84928E-05-2.84775E-05 4.50987E-07-1.72015E-19-1.33519E-18
 -1       350 9.51003E-05-2.85143E-05-2.85367E-05 4.60538E-07-5.19798E-19-1.52955E-18
 -1       351 9.52756E-05-2.85359E-05-2.86022E-05 5.15399E-07-5.20542E-19-1.48454E-18
 -1       352 9.54801E-05-2.85607E-05-2.86789E-05 6.23609E-07-2.93201E-19-1.30473E-18
 -1       353 9.57307E-05-2.85924E-05-2.87723E-05 7.94818E-07 3.66713E-19-6.00064E-19
 -1       354 9.60470E-05-2.86356E-05-2.88888E-05 1.04047E-06 3.18451E-19-6.45649E-19
 -1       355 9.64515E-05-2.86958E-05-2.90358E-05 1.37363E-06 3.13791E-19 1.65397E-19
 -1       356 9.69695E-05-2.87802E-05-2.92210E-05 1.80821E-06 8.15143E-19-8.77516E-19
 -1       357 9.76293E-05-2.88980E-05-2.94526E-05 2.35727E-06 7.43137E-20-1.33761E-18
 -1       358 9.84613E-05-2.90627E-05-2.97379E-05 3.02958E-06 4.76306E-19-7.47271E-19
 -1       359 9.94972E-05-2.92933E-05-3.00825E-05 3.82333E-06 1.23914E-19 1.99281E-19
 -1       360 1.00769E-04-2.96195E-05-3.04879E-05 4.71535E-06 7.50323E-20 5.65557E-19
 -1       361 1.02309E-04-3.00870E-05-3.09484E-05 5.64356E-06 2.40575E-19 2.02217E-19
 -1       362 1.04148E-04-3.07659E-05-3.14476E-05 6.48053E-06-1.03778E-19-3.07745E-19
 -1       363 1.06311E-04-3.17551E-05-3.19554E-05 6.99857E-06-4.48588E-19 1.45554E-18
 -1       364 1.08814E-04-3.31714E-05-3.24280E-05 6.83469E-06 8.22828E-19 9.96189E-19
 -1       365 1.11619E-04-3.50903E-05-3.28169E-05 5.48462E-06 6.83628E-19 2.51855E-18
 -1       366 1.14544E-04-3.73914E-05-3.30930E-05 2.39221E-06 1.81385E-18 2.15316E-18
 -1       367 1.17072E-04-3.94772E-05-3.32863E-05-2.74296E-06 1.93378E-19 1.92415E-18
 -1       368 1.18182E-04-4.00437E-05-3.35135E-05-9.32434E-06-1.22853E-18 2.24672E-18
 -1       369 1.16585E-04-3.74438E-05-3.39436E-05-1.50582E-05-1.71214E-18 1.57021E-18
 -1       370 1.12116E-04-3.15016E-05-3.45872E-05-1.61121E-05-1.95091E-18 3.34039E-19
 -1       371 1.07143E-04-2.52920E-05-3.51351E-05-9.87269E-06-1.06837E-18 4.67779E-20
 -1       372 1.05499E-04-2.37148E-05-3.50996E-05 1.19983E-06-2.82697E-20 2.72432E-18
 -1       373 1.08212E-04-2.80774E-05-3.43983E-05 1.01791E-05-1.17923E-19 3.14562E-18
 -1       374 1.12229E-04-3.44638E-05-3.33550E-05 1.21271E-05 1.79542E-18 3.35733E-18
 -1       375 1.13987E-04-3.82743E-05-3.24771E-05 7.90184E-06 4.23058E-18 2.69015E-18
 -1       376 1.12766E-04-3.85105E-05-3.18550E-05 1.26303E-06 3.47061E-18 2.79809E-18
 -1       377 1.09561E-04-3.63800E-05-3.13904E-05-4.51818E-06 1.76594E-18 1.95639E-18
 -1       378 1.05600E-04-3.33673E-05-3.09728E-05-7.98233E-06-1.92337E-18 4.00007E-18
 -1       379 1.01667E-04-3.03200E-05-3.05798E-05-8.86856E-06-2.25840E-18 4.45715E-18
 -1       380 9.85535E-05-2.79785E-05-3.02322E-05-7.56310E-06-7.21105E-19 2.26907E-18
 -1       381 9.43723E-05-2.73419E-05-2.86891E-05 2.46982E-06 4.61666E-20 1.72581E-18
 -1       382 9.31654E-05-2.74615E-05-2.81370E-05 7.45139E-07 3.57044E-20 1.60769E-18
 -1       383 9.26105E-05-2.75390E-05-2.78779E-05-1.75466E-07-8.27197E-20 1.46482E-18
 -1       384 9.24675E-05-2.76313E-05-2.77828E-05-6.50411E-07-4.26831E-19 1.27575E-18
 -1       385 9.25683E-05-2.77401E-05-2.77819E-05-8.67417E-07-1.03520E-19 1.25603E-18
 -1       386 9.28016E-05-2.78557E-05-2.78336E-05-9.31487E-07 4.09214E-19 1.39711E-18
 -1       387 9.30957E-05-2.79690E-05-2.79117E-05-9.06106E-07 2.29962E-19 1.41817E-18
 -1       388 9.34060E-05-2.80739E-05-2.80001E-05-8.31636E-07-1.88258E-19 1.60974E-18
 -1       389 9.37062E-05-2.81669E-05-2.80890E-05-7.34533E-07-1.81595E-19 1.24926E-18
 -1       390 9.39826E-05-2.82470E-05-2.81732E-05-6.32424E-07-2.49007E-19 1.41999E-18
 -1       391 9.42302E-05-2.83144E-05-2.82503E-05-5.37195E-07 7.45306E-19 1.57856E-18
 -1       392 9.44498E-05-2.83708E-05-2.83201E-05-4.57047E-07 3.10813E-19 1.64701E-18
 -1       393 9.46471E-05-2.84184E-05-2.83841E-05-3.97961E-07 7.77291E-20 1.05880E-18
 -1       394 9.48306E-05-2.84600E-05-2.84447E-05-3.64771E-07 4.58901E-19 8.28368E-19
 -1       395 9.50117E-05-2.84989E-05-2.85054E-05-3.61941E-07 6.29059E-19 1.78015E-19
 -1       396 9.52044E-05-2.85391E-05-2.85704E-05-3.94129E-07 4.77173E-19 7.37345E-19
 -1       397 9.54247E-05-2.85851E-05-2.86448E-05-4.66509E-07-6.87022E-19 1.73745E-18
 -1       398 9.56915E-05-2.86420E-05-2.87343E-05-5.84853E-07-9.00469E-19 6.58528E-19
 -1       399 9.60258E-05-2.87162E-05-2.88454E-05-7.55287E-07-2.88129E-19 8.36524E-19
 -1       400 9.64511E-05-2.88148E-05-2.89850E-05-9.83595E-07 1.53375E-18 1.42712E-18
 -1       401 9.69927E-05-2.89466E-05-2.91602E-05-1.27387E-06 1.00408E-19 1.87894E-18
 -1       402 9.76764E-05-2.91219E-05-2.93778E-05-1.62621E-06-2.13492E-18 1.72332E-18
 -1       403 9.85262E-05-2.93526E-05-2.96430E-05-2.03305E-06-1.12768E-18 9.08435E-19
 -1       404 9.95612E-05-2.96524E-05-2.99582E-05-2.47362E-06-3.91033E-20 1.18611E-18
 -1       405 1.00790E-04-3.00365E-05-3.03208E-05-2.90621E-06 7.79012E-19 3.02280E-18
 -1       406 1.02201E-04-3.05203E-05-3.07198E-05-3.25826E-06-4.79736E-19 3.69136E-18
 -1       407 1.03755E-04-3.11157E-05-3.11331E-05-3.41590E-06 2.98274E-20 3.12915E-18
 -1       408 1.05367E-04-3.18232E-05-3.15244E-05-3.21772E-06 4.71997E-19 3.84371E-18
 -1       409 1.06892E-04-3.26144E-05-3.18431E-05-2.46336E-06-8.05591E-19 2.32056E-18
 -1       410 1.08104E-04-3.34024E-05-3.20289E-05-9.55896E-07-7.67544E-19 1.38968E-18
 -1       411 1.08691E-04-3.40023E-05-3.20253E-05 1.39853E-06-9.63338E-19 2.62006E-18
 -1       412 1.08280E-04-3.41082E-05-3.18022E-05 4.42398E-06 1.13698E-18 3.72103E-18
 -1       413 1.06548E-04-3.33511E-05-3.13796E-05 7.48767E-06 5.24419E-19 3.93160E-18
 -1       414 1.03478E-04-3.15311E-05-3.08337E-05 9.46563E-06-1.13042E-18 6.13946E-18
 -1       415 9.96700E-05-2.89827E-05-3.02839E-05 9.14834E-06-7.28188E-19 6.13282E-18
 -1       416 9.63119E-05-2.66234E-05-2.98504E-05 6.00932E-06 4.83566E-19 4.89126E-18
 -1       417 9.47663E-05-2.56708E-05-2.95967E-05 9.53120E-07-1.10066E-18 4.53067E-18
 -1       418 9.55339E-05-2.65934E-05-2.95316E-05-3.88541E-06 7.44436E-19 5.96009E-18
 -1       419 9.78670E-05-2.87198E-05-2.96208E-05-6.51081E-06 9.59606E-19 5.64989E-18
 -1       420 1.00370E-04-3.08382E-05-2.97951E-05-6.28579E-06 1.37457E-18 2.76022E-18
 -1       421 1.01909E-04-3.20450E-05-2.99491E-05-3.98331E-06 2.11044E-18 1.70640E-18
 -1       422 1.02079E-04-3.21335E-05-2.99901E-05-9.75578E-07 2.43870E-18 2.36079E-18
 -1       423 1.01069E-04-3.13675E-05-2.98850E-05 1.55332E-06 9.06782E-19 2.55494E-18
 -1       424 9.93340E-05-3.01361E-05-2.96635E-05 2.91001E-06-6.39143E-19 2.08995E-18
 -1       425 9.74089E-05-2.88406E-05-2.93876E-05 2.87306E-06 3.58284E-19 4.27125E-18
 -1       426 9.63090E-05-2.81017E-05-2.92266E-05 2.33411E-06 1.32933E-18 5.67344E-18
 -1       427 9.57062E-05-2.44626E-05-3.05218E-05 8.91204E-06-7.03590E-19 9.23873E-19
 -1       428 9.64063E-05-2.64789E-05-2.99582E-05 6.30337E-06-3.36323E-19 4.61957E-19
 -1       429 9.63724E-05-2.73451E-05-2.95729E-05 4.14407E-06 1.02466E-18 1.16458E-18
 -1       430 9.42549E-05-2.15840E-05-3.11397E-05 1.10500E-05-2.32568E-19-5.41888E-18
 -1       431 9.19150E-05-1.78303E-05-3.17560E-05 1.19091E-05 1.89357E-18-2.84388E-18
 -1       432 8.90599E-05-1.37904E-05-3.22742E-05 1.05901E-05 2.05024E-18-2.30118E-18
 -1       433 8.65012E-05-1.04330E-05-3.26238E-05 6.76414E-06-1.17965E-18-1.64701E-18
 -1       434 8.52037E-05-8.81570E-06-3.27638E-05 1.05136E-06-2.80834E-18-1.98283E-18
 -1       435 8.57242E-05-9.52612E-06-3.26810E-05-5.05993E-06-3.41695E-18-2.10264E-19
 -1       436 8.77847E-05-1.22526E-05-3.23897E-05-9.83168E-06-1.54284E-18-1.53646E-18
 -1       437 9.06451E-05-1.61956E-05-3.19161E-05-1.23686E-05 5.30262E-19 1.39711E-18
 -1       438 9.34096E-05-2.02869E-05-3.13343E-05-1.24503E-05-6.70709E-19 1.34122E-18
 -1       439 9.55634E-05-2.37891E-05-3.07422E-05-1.06616E-05-3.47245E-18 2.31330E-18
 -1       440 7.24376E-05-4.89982E-05-1.00961E-05 4.68550E-05-6.72438E-19-2.63393E-18
 -1       441 1.36542E-05-2.55257E-05 4.84510E-06-9.02833E-07 7.05184E-19-4.34973E-18
 -1       442 3.06076E-05-3.01949E-05-8.36654E-09 3.17965E-05 1.38172E-19-7.27061E-18
 -1       443 1.11972E-04-5.92710E-05-2.25604E-05 4.16078E-05-1.88200E-18-4.79701E-18
 -1       444 1.45492E-04-5.29106E-05-3.96140E-05 2.12398E-05-7.48989E-19-6.51993E-18
 -1       445 8.93402E-05-1.18591E-05-3.32800E-05-1.06840E-05 8.07038E-19-1.07464E-18
 -1       446 1.58511E-04-2.13462E-05-5.88350E-05-9.73860E-07-2.69039E-19-4.39388E-18
 -1       447 1.54357E-04-1.05766E-05-6.18477E-05 2.98888E-06-8.76361E-19-6.57748E-18
 -1       448 1.58465E-04-1.83553E-05-5.99971E-05 4.90945E-06 2.08476E-19-6.98765E-18
 -1       449 1.59069E-04-3.68121E-05-5.21417E-05-7.27822E-06 1.04376E-18-6.44539E-18
 -1       450 1.41848E-04-5.02454E-05-3.91818E-05-2.24564E-05 1.05959E-18-5.61879E-18
 -1       451 1.18569E-04-5.76698E-05-2.61248E-05-3.39584E-05 1.14635E-18-3.75844E-18
 -1       452 7.10869E-05-4.68185E-05-1.03418E-05-4.46513E-05 2.03087E-18-4.42249E-18
 -1       453 3.24056E-05-3.07801E-05-6.33912E-07-3.34588E-05 8.27339E-19-2.53284E-18
 -1       454 1.43435E-05-2.25161E-05 3.57901E-06-1.08330E-05 6.57880E-19-1.28336E-18
 -1       455 2.07381E-05-2.88577E-05 3.30273E-06 2.17304E-05 9.75147E-19-1.62323E-18
 -1       456 5.52816E-05-4.22416E-05-5.61867E-06 4.08227E-05 8.27975E-20-1.28177E-18
 -1       457 9.19583E-05-5.48633E-05-1.60168E-05 4.08978E-05-1.22714E-19-5.31275E-19
 -1       458 1.31717E-04-5.89369E-05-3.12114E-05 2.57545E-05-1.77644E-18 1.09521E-18
 -1       459 1.55586E-04-4.46865E-05-4.75687E-05 4.12765E-06-1.88986E-18 5.89641E-19
 -1       460 1.64647E-04-2.77006E-05-5.84018E-05-3.32006E-06-1.98280E-18 9.88593E-19
 -1       461 1.66715E-04-1.60983E-05-6.41479E-05-4.03058E-06 2.11864E-19 8.94149E-19
 -1       462 1.62079E-04-1.58977E-05-6.24284E-05-2.15847E-07-2.86615E-19 9.94734E-20
 -1       463 1.64833E-04-3.30557E-05-5.61344E-05-5.99769E-06 9.14372E-19-1.17780E-18
 -1       464 1.52598E-04-4.95013E-05-4.40507E-05-1.80673E-05 5.81258E-18-8.89385E-20
 -1       465 1.29137E-04-5.86472E-05-3.01859E-05-3.40205E-05 4.32209E-18 6.79003E-19
 -1       466 8.71619E-05-5.37794E-05-1.45922E-05-4.58412E-05 3.58613E-18-1.46424E-18
 -1       467 5.19011E-05-4.40602E-05-3.80432E-06-4.21370E-05 1.20310E-18-4.88309E-18
 -1       468 2.31973E-05-3.33049E-05 3.78727E-06-2.51884E-05 2.64295E-18-1.31650E-18
 -1       469 1.58268E-04-3.91580E-05-5.08762E-05 9.16403E-06 7.33478E-20-6.41786E-18
 -1       470 1.36086E-04-6.34856E-05-3.11731E-05 2.46426E-05-1.62517E-18-4.17169E-18
 -1       471 6.04857E-05-3.85403E-05-9.00659E-06 4.41042E-05 1.09553E-18-4.87663E-18
 -1       472 1.05764E-04-5.77877E-05-2.03512E-05-3.84580E-05 1.06567E-18-2.71408E-18
 -1       473 1.37588E-04-9.94917E-06-5.53289E-05-3.83759E-06-1.19114E-19-4.36465E-18
 -1       474 1.45831E-04-5.76416E-05-3.79289E-05 4.26147E-06-1.06383E-18 1.04238E-18
 -1       475 9.58207E-05-2.51489E-05-3.02736E-05 6.01907E-06 1.12305E-19 1.36494E-18
 -1       476 8.95409E-05-1.34026E-05-3.26496E-05-3.92553E-06 9.66167E-19-4.63669E-19
 -1       477 9.02459E-05-1.43634E-05-3.25413E-05-5.88474E-06 1.01590E-18-6.85796E-19
 -1       478 8.90436E-05-1.27230E-05-3.27266E-05 5.44990E-08 1.00081E-18 7.06909E-20
 -1       479 8.91788E-05-1.29065E-05-3.27062E-05 2.04618E-06 9.37828E-19 2.32788E-19
 -1       480 8.95732E-05-1.34436E-05-3.26461E-05 3.99946E-06 9.30567E-19 3.73272E-19
 -1       481 9.02965E-05-1.44299E-05-3.25354E-05 5.95335E-06 9.07534E-19 7.27835E-19
 -1       482 9.14448E-05-1.60088E-05-3.23528E-05 7.78174E-06 7.65095E-19 1.02113E-18
 -1       483 9.32323E-05-1.84789E-05-3.20573E-05 9.29694E-06 5.38665E-19 1.19511E-18
 -1       484 9.51127E-05-2.65781E-05-2.93540E-05 2.87603E-06 2.62481E-19 1.17954E-18
 -1       485 9.54639E-05-2.44147E-05-3.04363E-05-5.81904E-06 3.48975E-19-1.25591E-18
 -1       486 1.43769E-04-3.15376E-05-4.85964E-05-8.54769E-06-5.94299E-19-6.07683E-18
 -1       487 9.53127E-05-2.62816E-05-2.95818E-05-2.90161E-06 8.42392E-20-1.04263E-18
 -1       488 9.49171E-05-2.71624E-05-2.90335E-05-1.03538E-06 1.39691E-19-9.71040E-19
 -1       489 9.46402E-05-2.76937E-05-2.86897E-05 8.75211E-08 3.27374E-21-8.91536E-19
 -1       490 9.44835E-05-2.80196E-05-2.84839E-05 7.22373E-07-2.23048E-19-8.91714E-19
 -1       491 9.44281E-05-2.82307E-05-2.83702E-05 1.03997E-06-2.66810E-19-1.10813E-18
 -1       492 9.44437E-05-2.83707E-05-2.83171E-05 1.15605E-06 1.90636E-19-1.28434E-18
 -1       493 9.45033E-05-2.84634E-05-2.83031E-05 1.14904E-06-7.29037E-20-1.51421E-18
 -1       494 9.45867E-05-2.85227E-05-2.83135E-05 1.07253E-06-1.20570E-19-5.97348E-19
 -1       495 9.46803E-05-2.85578E-05-2.83386E-05 9.63441E-07 6.31125E-20 1.69121E-19
 -1       496 9.47760E-05-2.85749E-05-2.83722E-05 8.47329E-07 5.41874E-19 2.81554E-20
 -1       497 9.48697E-05-2.85782E-05-2.84109E-05 7.42156E-07 3.24079E-19-6.34285E-19
 -1       498 9.49606E-05-2.85709E-05-2.84529E-05 6.61001E-07-3.33692E-19-3.69696E-20
 -1       499 9.50504E-05-2.85550E-05-2.84981E-05 6.14104E-07-5.26494E-19 3.87933E-19
 -1       500 9.51424E-05-2.85316E-05-2.85475E-05 6.10409E-07-1.28872E-18-5.55322E-19
 -1       501 9.52418E-05-2.85015E-05-2.86028E-05 6.58753E-07-7.21123E-19-7.50810E-19
 -1       502 9.53548E-05-2.84649E-05-2.86668E-05 7.68742E-07-5.07882E-19-3.26120E-19
 -1       503 9.54889E-05-2.84219E-05-2.87426E-05 9.51368E-07 5.99192E-19-3.75345E-19
 -1       504 9.56526E-05-2.83725E-05-2.88337E-05 1.21933E-06 7.74984E-19-5.36453E-19
 -1       505 9.58557E-05-2.83173E-05-2.89442E-05 1.58697E-06 4.85091E-19-8.91111E-19
 -1       506 9.61089E-05-2.82583E-05-2.90777E-05 2.06976E-06-3.03829E-19-1.25662E-18
 -1       507 9.64240E-05-2.81997E-05-2.92375E-05 2.68288E-06 2.03223E-19-1.52478E-18
 -1       508 9.68147E-05-2.81507E-05-2.94257E-05 3.43866E-06 5.73610E-19-1.20515E-18
 -1       509 9.72981E-05-2.81294E-05-2.96417E-05 4.34207E-06 4.84987E-19-5.93745E-19
 -1       510 9.78985E-05-2.81701E-05-2.98813E-05 5.38318E-06 2.98114E-19-9.26400E-19
 -1       511 9.86550E-05-2.83346E-05-3.01351E-05 6.52531E-06 8.82881E-21-5.11644E-19
 -1       512 9.96358E-05-2.87287E-05-3.03871E-05 7.68697E-06 1.83310E-19 1.70633E-18
 -1       513 1.00959E-04-2.95225E-05-3.06155E-05 8.71529E-06 7.89784E-19 1.96112E-18
 -1       514 1.02821E-04-3.09613E-05-3.07995E-05 9.34942E-06 2.72299E-19 3.34708E-18
 -1       515 1.05503E-04-3.33377E-05-3.09348E-05 9.17437E-06 1.06850E-18 1.60138E-18
 -1       516 1.09306E-04-3.68473E-05-3.10656E-05 7.58695E-06 1.37949E-18 1.66277E-18
 -1       517 1.14313E-04-4.12318E-05-3.13366E-05 3.81965E-06 9.11576E-19 1.34944E-18
 -1       518 1.19832E-04-4.51027E-05-3.20489E-05-2.68547E-06-4.16098E-19 5.62253E-19
 -1       519 1.23842E-04-4.55059E-05-3.36105E-05-1.13134E-05-8.22093E-19 2.50311E-18
 -1       520 1.23293E-04-3.88622E-05-3.63073E-05-1.83819E-05-2.90070E-18 2.54350E-18
 -1       521 1.17857E-04-2.64823E-05-3.93874E-05-1.76714E-05-1.53746E-18 2.88252E-18
 -1       522 1.13257E-04-1.79126E-05-4.11472E-05-5.85710E-06-2.59589E-19 2.53187E-18
 -1       523 1.14473E-04-2.14890E-05-4.01452E-05 8.75435E-06 9.08205E-19 3.79396E-18
 -1       524 1.19414E-04-3.33504E-05-3.71896E-05 1.45803E-05 1.21872E-18 4.89491E-18
 -1       525 1.22857E-04-4.32700E-05-3.41594E-05 1.01003E-05 2.21496E-18 4.37935E-18
 -1       526 1.19798E-04-4.53827E-05-3.19281E-05 1.18778E-06 2.77677E-18 2.62066E-18
 -1       527 1.13957E-04-4.21454E-05-3.07955E-05-6.44009E-06 2.04766E-18 2.27310E-18
 -1       528 1.07864E-04-3.70151E-05-3.03738E-05-1.10406E-05 1.03236E-18 1.40748E-18
 -1       529 1.02715E-04-3.19291E-05-3.03377E-05-1.25629E-05-1.52808E-18 2.71885E-18
 -1       530 9.41419E-05-2.76865E-05-2.84774E-05-1.17239E-07-8.91060E-20 7.58242E-19
 -1       531 9.39652E-05-2.79330E-05-2.82982E-05-7.26294E-07-2.55959E-19 3.92134E-19
 -1       532 9.39346E-05-2.81039E-05-2.82129E-05-1.02387E-06 1.72909E-19 3.88528E-19
 -1       533 9.39978E-05-2.82291E-05-2.81868E-05-1.12739E-06 3.61309E-19 6.43486E-19
 -1       534 9.41143E-05-2.83226E-05-2.81969E-05-1.11376E-06-1.75207E-19 8.97837E-19
 -1       535 9.42559E-05-2.83923E-05-2.82278E-05-1.03450E-06 9.51942E-20 7.52641E-19
 -1       536 9.44045E-05-2.84429E-05-2.82698E-05-9.24542E-07 1.66476E-20 5.61557E-19
 -1       537 9.45498E-05-2.84783E-05-2.83169E-05-8.07788E-07-1.21603E-20 3.97690E-19
 -1       538 9.46872E-05-2.85015E-05-2.83657E-05-7.00803E-07 3.50806E-19 6.37465E-19
 -1       539 9.48161E-05-2.85150E-05-2.84151E-05-6.15414E-07 5.99079E-19 5.60766E-19
 -1       540 9.49392E-05-2.85209E-05-2.84652E-05-5.60609E-07 3.93382E-19 2.44096E-19
 -1       541 9.50616E-05-2.85212E-05-2.85173E-05-5.43932E-07 6.37351E-20 8.10206E-19
 -1       542 9.51903E-05-2.85178E-05-2.85738E-05-5.72469E-07 1.61691E-19 2.16169E-18
 -1       543 9.53341E-05-2.85127E-05-2.86374E-05-6.53513E-07-6.76853E-19 2.06210E-18
 -1       544 9.55035E-05-2.85084E-05-2.87116E-05-7.94867E-07-7.82343E-20 1.35716E-18
 -1       545 9.57108E-05-2.85080E-05-2.88004E-05-1.00475E-06 1.83319E-19 8.01617E-19
 -1       546 9.59698E-05-2.85161E-05-2.89077E-05-1.29119E-06 5.75939E-19-5.29434E-19
 -1       547 9.62964E-05-2.85394E-05-2.90374E-05-1.66069E-06 2.85752E-19 4.96337E-19
 -1       548 9.67078E-05-2.85876E-05-2.91928E-05-2.11599E-06-8.38104E-19 6.77369E-19
 -1       549 9.72234E-05-2.86756E-05-2.93759E-05-2.65238E-06-1.24629E-18-6.43309E-19
 -1       550 9.78644E-05-2.88250E-05-2.95865E-05-3.25227E-06-6.75550E-19 2.05592E-20
 -1       551 9.86540E-05-2.90673E-05-2.98213E-05-3.87744E-06-6.73499E-19 8.12634E-19
 -1       552 9.96181E-05-2.94466E-05-3.00725E-05-4.45881E-06-3.81269E-19 1.74185E-18
 -1       553 1.00784E-04-3.00206E-05-3.03276E-05-4.88424E-06-7.62891E-19 2.27554E-18
 -1       554 1.02180E-04-3.08554E-05-3.05698E-05-4.98682E-06-4.14852E-19 2.38693E-18
 -1       555 1.03817E-04-3.20061E-05-3.07812E-05-4.54010E-06 5.30314E-19 3.11048E-18
 -1       556 1.05668E-04-3.34694E-05-3.09503E-05-3.27436E-06-3.30651E-19 2.74767E-18
 -1       557 1.07596E-04-3.50955E-05-3.10828E-05-9.40629E-07-1.69252E-18 1.56527E-18
 -1       558 1.09277E-04-3.64731E-05-3.12136E-05 2.54061E-06-7.18588E-19 2.34295E-18
 -1       559 1.10134E-04-3.68680E-05-3.14097E-05 6.82606E-06 7.09262E-19 2.98510E-18
 -1       560 1.09439E-04-3.53962E-05-3.17422E-05 1.08393E-05-2.13977E-18 3.76378E-18
 -1       561 1.06971E-04-3.18331E-05-3.21980E-05 1.26816E-05-1.53436E-18 4.64757E-18
 -1       562 1.03371E-04-2.70965E-05-3.26817E-05 1.08224E-05 1.27321E-18 5.21580E-18
 -1       563 1.00701E-04-2.38331E-05-3.29385E-05 4.96120E-06-1.73878E-19 5.01176E-18
 -1       564 1.00546E-04-2.40788E-05-3.27824E-05-2.34073E-06-3.55274E-19 4.05513E-18
 -1       565 1.02834E-04-2.77092E-05-3.22021E-05-7.48168E-06 9.72960E-19 4.12067E-18
 -1       566 1.05564E-04-3.21721E-05-3.14524E-05-8.50421E-06 3.15531E-18 3.57820E-18
 -1       567 1.06915E-04-3.50801E-05-3.07920E-05-5.94924E-06 2.21092E-18 3.07940E-18
 -1       568 1.06389E-04-3.56767E-05-3.03159E-05-1.82725E-06 2.37599E-18 3.22612E-18
 -1       569 1.04418E-04-3.44035E-05-3.00178E-05 2.01189E-06 9.34113E-19 2.31062E-18
 -1       570 1.01746E-04-3.21283E-05-2.98429E-05 4.47698E-06 9.20804E-19 1.53810E-18
 -1       571 9.89378E-05-2.95861E-05-2.97217E-05 5.22135E-06-1.76530E-18 2.37503E-18
 -1       572 9.55304E-05-2.50182E-05-3.02203E-05 1.50819E-05 2.84998E-18-3.60455E-18
 -1       573 9.12570E-05-2.10031E-05-3.01152E-05 1.54132E-05 3.01004E-18-1.90312E-18
 -1       574 9.90732E-05-2.90236E-05-3.00135E-05 9.16349E-06-1.26185E-18-1.15710E-18
 -1       575 9.81139E-05-2.76792E-05-3.01809E-05 1.25300E-05-1.28938E-18 2.34107E-19
 -1       576 8.63197E-05-1.65338E-05-2.99163E-05 1.23142E-05 7.44527E-19-4.36882E-18
 -1       577 8.25727E-05-1.31990E-05-2.97395E-05 5.73018E-06-5.09593E-19-3.56949E-18
 -1       578 8.17850E-05-1.24945E-05-2.97020E-05-2.74700E-06-1.01617E-18-1.72246E-18
 -1       579 8.42474E-05-1.46637E-05-2.98281E-05-1.03500E-05-2.32304E-19 7.37073E-19
 -1       580 8.88255E-05-1.87207E-05-3.00506E-05-1.51621E-05-1.46649E-19 7.13236E-22
 -1       581 9.35716E-05-2.30062E-05-3.02407E-05-1.64110E-05-7.32723E-19-7.27810E-20
 -1       582 9.71666E-05-2.63189E-05-3.03725E-05-1.46700E-05-1.36939E-18 5.96983E-19
 -1       583 3.08101E-05-1.69443E-05-5.21245E-06 1.48608E-05-1.79942E-18-6.05936E-18
 -1       584 2.71772E-05-2.02075E-05-2.47217E-06-1.77219E-05-1.32269E-19-2.52924E-18
 -1       585 9.45200E-05-2.72940E-05-2.88025E-05 9.86067E-07 1.00097E-19 9.06486E-19
 -1       586 1.00775E-04-5.61983E-05-1.87696E-05 4.38394E-05-1.77030E-19-4.26007E-18
 -1       587 9.45959E-05-2.07038E-05-3.16870E-05-9.56923E-06 4.53373E-19-1.32025E-18
 -1       588 5.00558E-05-3.18418E-05-7.29301E-06-3.86771E-05 4.34846E-19-3.08029E-18
 -1       589 2.53626E-05-1.49865E-05-3.79081E-06 8.57893E-06 1.11636E-18 5.38713E-19
 -1       590 6.21924E-05-3.70612E-05-1.02370E-05-4.15700E-05 8.12993E-19-4.59034E-18
 -1       591 8.91587E-05-1.28812E-05-3.27084E-05-1.93774E-06 1.12821E-18-1.33748E-19
 -1       592 1.45978E-04-4.91565E-05-4.18135E-05 1.46950E-06 2.43178E-19-5.89313E-18
 -1       593 1.34722E-04-1.09109E-05-5.37174E-05 8.74634E-06-1.14455E-19-4.55697E-18
 -1       594 4.33601E-05-2.72049E-05-6.40127E-06 3.22684E-05 2.20520E-18-1.79026E-18
 -1       595 1.43602E-04-2.80206E-05-4.99849E-05 1.23216E-05 1.97941E-19-4.09625E-18
 -1       596 1.37417E-04-6.02532E-05-3.31896E-05-1.40049E-05 2.93285E-20-6.58018E-18
 -1       597 3.24286E-05-1.86271E-05-5.31984E-06-2.31175E-05 3.78783E-19-2.49652E-18
 -1       598 8.64514E-05-4.96533E-05-1.53905E-05 4.04289E-05 1.65351E-18-4.24337E-19
 -1       599 1.20861E-04-6.26477E-05-2.47986E-05 2.81717E-05-6.01340E-19-5.13646E-20
 -1       600 1.47198E-04-3.55263E-05-4.83864E-05-1.34086E-05-2.07936E-18 1.75378E-18
 -1       601 1.40909E-04-1.67552E-05-5.38090E-05-1.30736E-05-3.98105E-19 1.47492E-18
 -1       602 1.36273E-04-9.34688E-06-5.50033E-05-2.15338E-06 1.67702E-18 2.23448E-18
 -1       603 1.41958E-04-2.30012E-05-5.15136E-05 1.06128E-05 1.50735E-18 1.43112E-18
 -1       604 1.50539E-04-4.43038E-05-4.58700E-05 3.52857E-06 3.17910E-18-6.61850E-19
 -1       605 1.44662E-04-6.16470E-05-3.57101E-05-1.36874E-05 4.50291E-18 1.50830E-18
 -1       606 1.19889E-04-6.37642E-05-2.39105E-05-3.61516E-05 2.19747E-18-4.72591E-19
 -1       607 7.72448E-05-4.71014E-05-1.25998E-05-4.61619E-05 2.55592E-19-2.74269E-18
 -1       608 1.46984E-04-4.78331E-05-4.28234E-05-2.95446E-07 3.24519E-20-5.68719E-18
 -1       609 9.61607E-05-2.31906E-05-3.12765E-05 9.58379E-06 1.97610E-19 1.65016E-18
 -1       610 9.13568E-05-1.58606E-05-3.23779E-05-7.78956E-06 8.47887E-19-7.88424E-19
 -1       611 4.92991E-05-2.38266E-05-1.03668E-05 3.01761E-05 5.00808E-19-6.39070E-18
 -1       612 1.22507E-04-6.26199E-05-2.55797E-05 3.15925E-05 1.39469E-19-3.69628E-18
 -1       613 1.35053E-04-6.27313E-05-3.10494E-05 1.11303E-05-1.18808E-18 1.06583E-18
 -1       614 1.25646E-04-6.15881E-05-2.74127E-05-2.24162E-05 6.35460E-19-6.59667E-18
 -1       615 9.02460E-05-4.84203E-05-1.75858E-05-3.90901E-05 6.25163E-19-2.68508E-18
 -1       616 1.30108E-04-1.87666E-05-4.82933E-05-1.02508E-05-5.24949E-19-6.40614E-18
 -1       617 1.24301E-04-8.45120E-06-5.02577E-05 1.87320E-06-1.32772E-18-5.84861E-18
 -1       618 1.42228E-04-5.84975E-05-3.60764E-05 6.11100E-06-9.42355E-19-6.14117E-18
 -1       619 1.43749E-04-4.87440E-05-4.10810E-05-1.10120E-05-8.10836E-19 8.91661E-19
 -1       620 9.98298E-05-2.88619E-05-3.04129E-05-1.21087E-05-1.92039E-18 4.62197E-18
 -1       621 9.15555E-05-1.68524E-05-3.20212E-05 2.44138E-06 7.89123E-19 2.42893E-19
 -1       622 9.12968E-05-1.64503E-05-3.20824E-05 8.40730E-07 8.57152E-19 3.65186E-20
 -1       623 9.28937E-05-1.90013E-05-3.16737E-05 5.26452E-06 6.76587E-19 6.75540E-19
 -1       624 9.39841E-05-2.09297E-05-3.13170E-05 6.14473E-06 4.87144E-19 9.14169E-19
 -1       625 9.52728E-05-2.40961E-05-3.04940E-05 5.14979E-06 3.22837E-19 8.69476E-19
 -1       626 7.34944E-05-3.72779E-05-1.50651E-05-4.01488E-05-4.10282E-20-3.74608E-18
 -1       627 9.53360E-05-2.59400E-05-2.97372E-05 2.60689E-06 2.90173E-19 8.92290E-19
 -1       628 1.01645E-04-5.29602E-05-2.06318E-05-3.89860E-05 1.12626E-18-1.33451E-18
 -1       629 1.42274E-04-5.35436E-05-3.82785E-05 3.64636E-06 2.19853E-18 2.05260E-18
 -1       630 9.54410E-05-2.57341E-05-2.98688E-05-2.43809E-06 1.10085E-19-5.76209E-19
 -1       631 9.54736E-05-2.69468E-05-2.93680E-05-8.69438E-07 1.39027E-20-5.84242E-19
 -1       632 9.54194E-05-2.77073E-05-2.90193E-05 1.30577E-07-8.25106E-20-7.08555E-19
 -1       633 9.53434E-05-2.81789E-05-2.87848E-05 7.17796E-07-3.51331E-19-6.46307E-19
 -1       634 9.52790E-05-2.84686E-05-2.86331E-05 1.01992E-06-2.61987E-19-5.90008E-19
 -1       635 9.52341E-05-2.86402E-05-2.85403E-05 1.13396E-06-2.12035E-20-6.47133E-19
 -1       636 9.52072E-05-2.87330E-05-2.84891E-05 1.13084E-06 4.08188E-19-1.86573E-19
 -1       637 9.51943E-05-2.87723E-05-2.84667E-05 1.06158E-06 5.12570E-19-3.03863E-20
 -1       638 9.51914E-05-2.87751E-05-2.84643E-05 9.62492E-07 2.17514E-19 1.54495E-19
 -1       639 9.51956E-05-2.87522E-05-2.84758E-05 8.59452E-07-1.41234E-20 6.10108E-20
 -1       640 9.52046E-05-2.87107E-05-2.84974E-05 7.71145E-07 1.86325E-19-8.98553E-20
 -1       641 9.52172E-05-2.86545E-05-2.85269E-05 7.11651E-07-2.03258E-19 3.23570E-19
 -1       642 9.52326E-05-2.85851E-05-2.85632E-05 6.92419E-07-1.12295E-18 4.99616E-19
 -1       643 9.52507E-05-2.85023E-05-2.86064E-05 7.23773E-07-1.15608E-18 1.51166E-18
 -1       644 9.52714E-05-2.84044E-05-2.86572E-05 8.16041E-07-3.63527E-19 1.05647E-18
 -1       645 9.52946E-05-2.82887E-05-2.87167E-05 9.80350E-07 3.93837E-20 1.30879E-18
 -1       646 9.53202E-05-2.81518E-05-2.87863E-05 1.22910E-06-8.63697E-20 8.77916E-19
 -1       647 9.53477E-05-2.79901E-05-2.88673E-05 1.57611E-06 2.41599E-19 4.32099E-21
 -1       648 9.53762E-05-2.78010E-05-2.89605E-05 2.03629E-06 1.18204E-19-7.27889E-19
 -1       649 9.54045E-05-2.75836E-05-2.90657E-05 2.62487E-06-3.25702E-19-1.09843E-19
 -1       650 9.54319E-05-2.73420E-05-2.91809E-05 3.35585E-06 6.95131E-20-1.79067E-20
 -1       651 9.54607E-05-2.70890E-05-2.93015E-05 4.23965E-06 3.90949E-19-7.17225E-19
 -1       652 9.55004E-05-2.68542E-05-2.94190E-05 5.27955E-06 4.49897E-19-8.37592E-19
 -1       653 9.55773E-05-2.66955E-05-2.95200E-05 6.46671E-06 1.33180E-18-1.19670E-19
 -1       654 9.57522E-05-2.67182E-05-2.95851E-05 7.77342E-06 1.51380E-18 1.30364E-18
 -1       655 9.61488E-05-2.71013E-05-2.95910E-05 9.14289E-06 9.05745E-19 1.58515E-18
 -1       656 9.69990E-05-2.81286E-05-2.95154E-05 1.04711E-05 1.16673E-18 1.79627E-18
 -1       657 9.86967E-05-3.02077E-05-2.93530E-05 1.15706E-05 4.65271E-20 1.53640E-18
 -1       658 1.01850E-04-3.38395E-05-2.91507E-05 1.20787E-05 1.07795E-18 2.03864E-18
 -1       659 1.07177E-04-3.93801E-05-2.90589E-05 1.13353E-05 1.84553E-19 3.59939E-19
 -1       660 1.15192E-04-4.64330E-05-2.94587E-05 8.03242E-06 1.10597E-19 4.33275E-19
 -1       661 1.25008E-04-5.23457E-05-3.11427E-05 6.18255E-07-1.75134E-19 1.43432E-18
 -1       662 1.33099E-04-5.18206E-05-3.49980E-05-1.07036E-05-7.16845E-19 2.04807E-18
 -1       663 1.26017E-04-1.74105E-05-4.71148E-05-1.44141E-05-6.18016E-19 3.20480E-18
 -1       664 1.22865E-04-1.27886E-05-4.79229E-05 1.58584E-06 6.20346E-19 5.50773E-18
 -1       665 1.19333E-04-4.94085E-05-2.99624E-05-1.08661E-05 1.56901E-18 1.80598E-18
 -1       666 1.09968E-04-4.16213E-05-2.92905E-05-1.55000E-05 3.50022E-19 8.34763E-19
 -1       667 1.03107E-04-3.42675E-05-2.94990E-05-1.66830E-05-6.00858E-19 9.09317E-19
 -1       668 9.49823E-05-2.81151E-05-2.86572E-05-7.32497E-07 2.02985E-19 1.12549E-19
 -1       669 9.97879E-05-3.00052E-05-2.99006E-05-1.60720E-05 2.01941E-19 2.48550E-19
 -1       670 9.50932E-05-2.77093E-05-2.88782E-05-1.23722E-07 3.64037E-20 5.13684E-19
 -1       671 9.48998E-05-2.85249E-05-2.84465E-05-1.15662E-06-2.66685E-20 4.26366E-19
 -1       672 9.49087E-05-2.86167E-05-2.84110E-05-1.15096E-06 1.73457E-19 1.85700E-19
 -1       673 9.49362E-05-2.86642E-05-2.84024E-05-1.07735E-06 1.84927E-19 4.70937E-19
 -1       674 9.49742E-05-2.86810E-05-2.84115E-05-9.72597E-07-1.45222E-19 3.42919E-19
 -1       675 9.50175E-05-2.86759E-05-2.84323E-05-8.62610E-07 1.40650E-19 5.09076E-19
 -1       676 9.50632E-05-2.86548E-05-2.84609E-05-7.65825E-07 4.51104E-19 1.01908E-18
 -1       677 9.51103E-05-2.86214E-05-2.84953E-05-6.95854E-07 3.78943E-19 1.33568E-18
 -1       678 9.51594E-05-2.85778E-05-2.85350E-05-6.63442E-07 3.07898E-19 1.62335E-18
 -1       679 9.52120E-05-2.85249E-05-2.85802E-05-6.77892E-07-6.00950E-19 1.89633E-18
 -1       680 9.52708E-05-2.84630E-05-2.86318E-05-7.48086E-07-2.53606E-19 2.17865E-18
 -1       681 9.53394E-05-2.83923E-05-2.86915E-05-8.83102E-07 5.38519E-19 1.61818E-18
 -1       682 9.54224E-05-2.83132E-05-2.87609E-05-1.09241E-06 4.83179E-19 1.03070E-18
 -1       683 9.55257E-05-2.82275E-05-2.88417E-05-1.38556E-06 6.91166E-19 8.04834E-19
 -1       684 9.56565E-05-2.81394E-05-2.89355E-05-1.77133E-06 5.32108E-19 1.04447E-18
 -1       685 9.58248E-05-2.80572E-05-2.90428E-05-2.25603E-06-2.95342E-19 1.21265E-18
 -1       686 9.60441E-05-2.79959E-05-2.91629E-05-2.84080E-06-6.69996E-19 1.27861E-18
 -1       687 9.63340E-05-2.79809E-05-2.92935E-05-3.51762E-06-8.30875E-19 1.14247E-18
 -1       688 9.67238E-05-2.80526E-05-2.94298E-05-4.26347E-06-1.43796E-18 1.38756E-18
 -1       689 9.72578E-05-2.82725E-05-2.95645E-05-5.03249E-06-3.95650E-19 7.05515E-19
 -1       690 9.80023E-05-2.87290E-05-2.96883E-05-5.74549E-06-1.00709E-18 6.07507E-19
 -1       691 9.90529E-05-2.95389E-05-2.97920E-05-6.27696E-06-6.41801E-19 8.24550E-19
 -1       692 1.00536E-04-3.08375E-05-2.98719E-05-6.43989E-06-3.49522E-19 7.54773E-19
 -1       693 1.02592E-04-3.27396E-05-2.99391E-05-5.97129E-06 2.49841E-19 1.14144E-18
 -1       694 1.05313E-04-3.52436E-05-3.00337E-05-4.53137E-06-4.75883E-19 6.01535E-19
 -1       695 1.08609E-04-3.80566E-05-3.02423E-05-1.75372E-06-2.07177E-18-7.38561E-19
 -1       696 1.11977E-04-4.03501E-05-3.07035E-05 2.56803E-06-3.17290E-19 2.28240E-19
 -1       697 1.14410E-04-4.07188E-05-3.15913E-05 8.07404E-06-2.67072E-19 8.91838E-19
 -1       698 1.14458E-04-3.73519E-05-3.30143E-05 1.34175E-05-3.05702E-18 7.98878E-19
 -1       699 1.10905E-04-2.99536E-05-3.47855E-05 1.50639E-05-5.58658E-19 2.19740E-19
 -1       700 1.06864E-04-2.26039E-05-3.61605E-05 1.05091E-05 7.68666E-19 1.53682E-18
 -1       701 1.04775E-04-1.96074E-05-3.65653E-05 1.26091E-06-3.12912E-19 2.38615E-18
 -1       702 1.06818E-04-2.37503E-05-3.56856E-05-7.22865E-06 1.39150E-19 2.58107E-18
 -1       703 1.11177E-04-3.18073E-05-3.40388E-05-1.02512E-05 2.38866E-18 3.76213E-18
 -1       704 1.13605E-04-3.82693E-05-3.22742E-05-7.53529E-06 2.59695E-18 3.70049E-18
 -1       705 1.12619E-04-4.03714E-05-3.09693E-05-2.09475E-06 2.64624E-18 1.78224E-18
 -1       706 1.09355E-04-3.89161E-05-3.01941E-05 3.09302E-06 2.15289E-18 2.01846E-18
 -1       707 1.05231E-04-3.54890E-05-2.98930E-05 6.54098E-06 2.12646E-18 1.41479E-18
 -1       708 1.02153E-04-3.24567E-05-2.98684E-05 8.53109E-06-2.01356E-19 2.42239E-19
 -1       709 3.84573E-05-1.44417E-05-9.67580E-06-5.97778E-06-7.32683E-19-4.74942E-18
 -1       710 8.04018E-05-1.75364E-05-2.69282E-05 1.26614E-05 8.47764E-19-5.25310E-18
 -1       711 9.58464E-05-2.88294E-05-2.87237E-05 1.89508E-05 3.54165E-18-3.05502E-18
 -1       712 7.60760E-05-1.42477E-05-2.64817E-05 2.28469E-06 6.34748E-19-3.74864E-18
 -1       713 8.82298E-05-2.33550E-05-2.78001E-05 1.84534E-05 1.14451E-18-4.26542E-18
 -1       714 7.76775E-05-1.53923E-05-2.66794E-05-8.82589E-06 1.00981E-19 7.27500E-19
 -1       715 8.42744E-05-2.02131E-05-2.74426E-05-1.69544E-05 7.02831E-19-1.48645E-19
 -1       716 9.22832E-05-2.58735E-05-2.84611E-05-1.97400E-05 8.57482E-19 8.20498E-19
 -1       717 1.32855E-04-6.25154E-05-3.02402E-05-1.61309E-05 2.30779E-18 2.83413E-18
 -1       718 9.46089E-05-2.22017E-05-3.10294E-05-6.03485E-06 5.42729E-19-8.96948E-19
 -1       719 1.27581E-04-2.05608E-05-4.63579E-05 1.54542E-05-1.71196E-18-3.46256E-18
 -1       720 9.52324E-05-2.70425E-05-2.92222E-05 9.29430E-07 1.86744E-19 7.75803E-19
 -1       721 9.49203E-05-2.83686E-05-2.85222E-05-1.04192E-06 1.12688E-19 1.04784E-19
 -1       722 9.20794E-05-1.76790E-05-3.18917E-05 3.95219E-06 7.39926E-19 5.13162E-19
 -1       723 3.77960E-05-1.22991E-05-1.04199E-05-6.46156E-06 1.46016E-18 1.49819E-19
 -1       724 9.20393E-05-1.76258E-05-3.18981E-05-3.89989E-06 8.29792E-19-5.91367E-19
 -1       725 4.37983E-05-1.79961E-05-1.05288E-05 2.05652E-05 1.90744E-18-1.10554E-18
 -1       726 1.37158E-04-5.43262E-05-3.57105E-05 2.70665E-06 1.04696E-18-4.34041E-18
 -1       727 1.34324E-04-3.17978E-05-4.44063E-05-1.91658E-05-1.94431E-18 3.41145E-18
 -1       728 7.13913E-05-3.49930E-05-1.52251E-05 3.46326E-05 1.95829E-18-1.51751E-19
 -1       729 5.84673E-05-2.56656E-05-1.35668E-05-3.12678E-05 1.65689E-18-3.33898E-18
 -1       730 1.10053E-04-5.58551E-05-2.29364E-05 2.86565E-05 4.92206E-19-1.89634E-18
 -1       731 1.35442E-04-3.87227E-05-4.18129E-05 1.41151E-05-1.01035E-19-2.33612E-18
 -1       732 8.47595E-05-4.22330E-05-1.77825E-05 4.06536E-05 5.39269E-19-4.80363E-18
 -1       733 4.86119E-05-2.10796E-05-1.12591E-05-2.60928E-05 3.82197E-19-2.13156E-18
 -1       734 1.36452E-04-4.14860E-05-4.10810E-05-9.29505E-06-1.49634E-19-6.26190E-18
 -1       735 9.28195E-05-1.89013E-05-3.16901E-05-5.23276E-06 7.20798E-19-6.03269E-19
 -1       736 9.12901E-05-1.64412E-05-3.20834E-05-7.84044E-07 9.86435E-19-1.47841E-19
 -1       737 1.20995E-04-5.81888E-05-2.68046E-05-2.50684E-05 1.32153E-18 2.36178E-18
 -1       738 1.18625E-04-1.38982E-05-4.53997E-05 1.04761E-05-1.94608E-18-3.17993E-18
 -1       739 1.23857E-04-5.95393E-05-2.75604E-05 1.59577E-05-8.90496E-19 1.23864E-18
 -1       740 1.32036E-04-3.95537E-05-3.99552E-05-1.87126E-05-3.13447E-18 3.45621E-18
 -1       741 1.30319E-04-5.46845E-05-3.23988E-05-2.78020E-06 2.13383E-18 2.09670E-18
 -1       742 4.42560E-05-1.51295E-05-1.19677E-05 1.20209E-05 6.33998E-19-4.19075E-18
 -1       743 1.01876E-04-3.24717E-05-2.97390E-05 1.27769E-05 8.27924E-19 1.21707E-18
 -1       744 1.31260E-04-5.80288E-05-3.13672E-05-6.00821E-06 6.84154E-19-5.77425E-18
 -1       745 1.33516E-04-6.19613E-05-3.07099E-05 1.56423E-05-3.75540E-19-4.79646E-18
 -1       746 1.11130E-04-5.59011E-05-2.35179E-05-2.88398E-05 7.94358E-19-4.60009E-18
 -1       747 9.80858E-05-3.06819E-05-2.88763E-05-1.94581E-05-5.95411E-19-1.33326E-18
 -1       748 7.84263E-05-3.59403E-05-1.79305E-05-3.30507E-05 2.50642E-19-3.20677E-18
 -1       749 9.99837E-05-3.14497E-05-2.93702E-05 1.63538E-05 2.20231E-18 1.12924E-18
 -1       750 1.19597E-04-1.37593E-05-4.57838E-05-5.88019E-06-1.12812E-18-5.06305E-18
 -1       751 9.15333E-05-1.68219E-05-3.20248E-05-2.38207E-06 8.29676E-19-7.93026E-20
 -1       752 1.25972E-04-2.92429E-05-4.18478E-05-1.29126E-05-6.96790E-19-5.60053E-18
 -1       753 1.04254E-04-5.20070E-05-2.21901E-05 3.61150E-05-4.57107E-19-4.09352E-18
 -1       754 1.37627E-04-3.69874E-05-4.33996E-05 1.39004E-05 1.74386E-18 2.21573E-18
 -1       755 9.46307E-05-2.27225E-05-3.08171E-05 3.91535E-06 3.62895E-19 6.84351E-19
 -1       756 1.29157E-04-4.44623E-05-3.64127E-05 1.26996E-05 1.23135E-18-5.02159E-18
 -1       757 9.58713E-05-2.68886E-05-2.95643E-05-5.86283E-07-2.55955E-20-3.54885E-19
 -1       758 9.59634E-05-2.77762E-05-2.92232E-05 2.14791E-07-2.81954E-19-1.55600E-19
 -1       759 9.59525E-05-2.83363E-05-2.89784E-05 6.92561E-07-3.92792E-19-1.79666E-19
 -1       760 9.58923E-05-2.86750E-05-2.88075E-05 9.39143E-07-1.98611E-21 1.74469E-19
 -1       761 9.58121E-05-2.88635E-05-2.86923E-05 1.02986E-06 4.47921E-19 1.26239E-19
 -1       762 9.57269E-05-2.89499E-05-2.86187E-05 1.02311E-06 4.36918E-19-1.25242E-19
 -1       763 9.56445E-05-2.89670E-05-2.85761E-05 9.62442E-07 4.80752E-19-4.00796E-19
 -1       764 9.55683E-05-2.89366E-05-2.85564E-05 8.79748E-07 2.20146E-19-2.22188E-20
 -1       765 9.54989E-05-2.88732E-05-2.85539E-05 7.98241E-07 9.73004E-20 1.72192E-19
 -1       766 9.54354E-05-2.87850E-05-2.85644E-05 7.35150E-07-1.28522E-19 2.58898E-19
 -1       767 9.53753E-05-2.86761E-05-2.85854E-05 7.03886E-07-5.57793E-19 6.49153E-19
 -1       768 9.53155E-05-2.85469E-05-2.86151E-05 7.15720E-07-7.27708E-19 8.24886E-19
 -1       769 9.52516E-05-2.83953E-05-2.86527E-05 7.81062E-07-8.80058E-19 1.28638E-18
 -1       770 9.51781E-05-2.82170E-05-2.86976E-05 9.10389E-07-1.06918E-19 1.12743E-18
 -1       771 9.50885E-05-2.80064E-05-2.87495E-05 1.11484E-06-4.67694E-19 5.77669E-19
 -1       772 9.49747E-05-2.77568E-05-2.88076E-05 1.40648E-06-3.50325E-19 1.44002E-19
 -1       773 9.48270E-05-2.74617E-05-2.88708E-05 1.79822E-06-1.44180E-19 1.81915E-19
 -1       774 9.46343E-05-2.71159E-05-2.89364E-05 2.30341E-06 3.53077E-19-2.86535E-19
 -1       775 9.43845E-05-2.67180E-05-2.89998E-05 2.93516E-06-1.72037E-19 1.07309E-18
 -1       776 9.40659E-05-2.62737E-05-2.90537E-05 3.70537E-06-5.12695E-19 7.79696E-19
 -1       777 9.36707E-05-2.58018E-05-2.90865E-05 4.62402E-06 3.30694E-19 1.06569E-19
 -1       778 9.32019E-05-2.53445E-05-2.90815E-05 5.69904E-06 1.27126E-18 6.03188E-19
 -1       779 9.26862E-05-2.49816E-05-2.90159E-05 6.93790E-06 1.92091E-18 3.59224E-19
 -1       780 9.21963E-05-2.48537E-05-2.88606E-05 8.35190E-06 8.51026E-19 1.32517E-19
 -1       781 9.18896E-05-2.51951E-05-2.85824E-05 9.96268E-06 6.48460E-19 8.73311E-20
 -1       782 9.20735E-05-2.63784E-05-2.81530E-05 1.18004E-05 3.77571E-20-9.73993E-19
 -1       783 9.32693E-05-2.89319E-05-2.75711E-05 1.38777E-05 5.09900E-19-1.62471E-18
 -1       784 9.65516E-05-3.37172E-05-2.69441E-05 1.60339E-05 8.76606E-19-1.56097E-18
 -1       785 1.03041E-04-4.12939E-05-2.64377E-05 1.76466E-05 5.41865E-19-2.95783E-19
 -1       786 1.03998E-04-3.87869E-05-2.79499E-05-2.14234E-05-5.15431E-19-1.81192E-18
 -1       787 9.57312E-05-2.77506E-05-2.91346E-05-1.92380E-07 4.03700E-19 1.00356E-19
 -1       788 9.55068E-05-2.88566E-05-2.85644E-05-1.08043E-06-1.01003E-19-3.51800E-20
 -1       789 9.55672E-05-2.87677E-05-2.86284E-05-1.08673E-06 1.43440E-19-3.36024E-19
 -1       790 9.54091E-05-2.88676E-05-2.85178E-05-9.23941E-07-2.64332E-19 3.54951E-19
 -1       791 9.53714E-05-2.88224E-05-2.85210E-05-8.32199E-07-4.34111E-19 1.23994E-19
 -1       792 9.53394E-05-2.87556E-05-2.85360E-05-7.57482E-07 2.26035E-19 8.25496E-19
 -1       793 9.53116E-05-2.86715E-05-2.85601E-05-7.13468E-07-1.92150E-19 6.88649E-19
 -1       794 9.52863E-05-2.85717E-05-2.85920E-05-7.11321E-07-5.56316E-19 1.60372E-18
 -1       795 9.52616E-05-2.84559E-05-2.86310E-05-7.61030E-07-1.89069E-19 7.46811E-19
 -1       796 9.52356E-05-2.83227E-05-2.86769E-05-8.72330E-07 2.07683E-19 9.85918E-19
 -1       797 9.52067E-05-2.81704E-05-2.87298E-05-1.05519E-06 6.82928E-19 5.82466E-19
 -1       798 9.51737E-05-2.79979E-05-2.87896E-05-1.31989E-06 7.25649E-19 1.35671E-18
 -1       799 9.51365E-05-2.78063E-05-2.88557E-05-1.67671E-06 9.77349E-20 2.19761E-18
 -1       800 9.50973E-05-2.76012E-05-2.89268E-05-2.13495E-06 1.15557E-20 1.92958E-18
 -1       801 9.50620E-05-2.73946E-05-2.90001E-05-2.70150E-06-1.95484E-19 9.62993E-19
 -1       802 9.50436E-05-2.72102E-05-2.90712E-05-3.37850E-06-5.83394E-19 6.17045E-19
 -1       803 9.50670E-05-2.70880E-05-2.91336E-05-4.16021E-06-1.06736E-18 5.85666E-19
 -1       804 9.51761E-05-2.70922E-05-2.91786E-05-5.02866E-06-1.08066E-18-3.67485E-19
 -1       805 9.54448E-05-2.73200E-05-2.91961E-05-5.94759E-06-8.74364E-19 5.84234E-19
 -1       806 9.59907E-05-2.79102E-05-2.91771E-05-6.85339E-06-5.11009E-19 3.54418E-19
 -1       807 9.69897E-05-2.90457E-05-2.91188E-05-7.64084E-06-3.96773E-19 2.55678E-19
 -1       808 9.86863E-05-3.09412E-05-2.90339E-05-8.13838E-06-4.87093E-19-1.26889E-19
 -1       809 1.01378E-04-3.37886E-05-2.89679E-05-8.06185E-06-1.49168E-19 3.49820E-20
 -1       810 1.05325E-04-3.76037E-05-2.90238E-05-6.96032E-06-3.53392E-19 1.46327E-19
 -1       811 1.10536E-04-4.19477E-05-2.93950E-05-4.18292E-06-1.28330E-18-7.79581E-19
 -1       812 1.16278E-04-4.53665E-05-3.03811E-05 9.80018E-07-9.71899E-19 2.37509E-19
 -1       813 1.20059E-04-4.49434E-05-3.23627E-05 8.57212E-06-2.23886E-18 1.74424E-18
 -1       814 1.11258E-04-1.55444E-05-4.13137E-05 7.79858E-06-1.39848E-18-6.43699E-19
 -1       815 1.20157E-04-4.60287E-05-3.17862E-05-1.50135E-06 3.68678E-18 1.64993E-18
 -1       816 1.15299E-04-4.46041E-05-3.02960E-05 5.34335E-06 1.90000E-18 2.73417E-18
 -1       817 1.09207E-04-3.99581E-05-2.96837E-05 9.71913E-06 2.95710E-18 9.70255E-19
 -1       818 1.05321E-04-3.62936E-05-2.95903E-05 1.18421E-05 1.85111E-18 1.26999E-18
 -1       819 6.81031E-05-1.46818E-05-2.28157E-05-4.40594E-06-1.94962E-19-1.79162E-18
 -1       820 7.05025E-05-1.65936E-05-2.30390E-05 1.13007E-05-1.55063E-20-4.03559E-18
 -1       821 7.59172E-05-1.99628E-05-2.39305E-05-1.80802E-05-4.85222E-19 1.73365E-18
 -1       822 8.89169E-05-2.84435E-05-2.58982E-05-2.36292E-05 1.66806E-19 7.82892E-19
 -1       823 9.54540E-05-2.88834E-05-2.85303E-05-1.01484E-06-1.36595E-19 3.43775E-19
 -1       824 9.32065E-05-1.97797E-05-3.14697E-05 1.23420E-06 6.88825E-19-7.51441E-20
 -1       825 9.55829E-05-2.55178E-05-3.00277E-05-1.81640E-06 1.23582E-19-4.36603E-19
 -1       826 1.41273E-04-5.59353E-05-3.66317E-05-5.97414E-06-1.30039E-18 8.72656E-19
 -1       827 7.08099E-05-2.70820E-05-1.83823E-05-2.99429E-05-1.42505E-18-2.25182E-18
 -1       828 7.02764E-05-2.71818E-05-1.80834E-05 3.07010E-05 2.72546E-19-6.26999E-18
 -1       829 4.97911E-05-1.36570E-05-1.52013E-05 7.97000E-06 7.33643E-20-1.93626E-19
 -1       830 6.38262E-05-2.36342E-05-1.70081E-05 2.41752E-05 4.84734E-19-1.03406E-18
 -1       831 9.52135E-05-2.44789E-05-3.03147E-05 3.42932E-06 3.34286E-19 9.85333E-19
 -1       832 9.45185E-05-4.30906E-05-2.18395E-05 2.81619E-05 6.46068E-19-2.46938E-18
 -1       833 5.28764E-05-1.63637E-05-1.52632E-05-1.45940E-05 9.48558E-19-2.29996E-18
 -1       834 9.24701E-05-4.29603E-05-2.09736E-05-3.59216E-05-5.76221E-19-1.14744E-18
 -1       835 1.32619E-04-5.24119E-05-3.44900E-05-1.23076E-06 1.20721E-18-4.77206E-18
 -1       836 9.47368E-05-2.29032E-05-3.07849E-05-3.49685E-06 4.27454E-19-4.87758E-19
 -1       837 5.57335E-05-1.68734E-05-1.63794E-05-1.66790E-05 1.65583E-18-2.42352E-18
 -1       838 9.30965E-05-1.95812E-05-3.15077E-05 2.04591E-08 7.40444E-19-4.89128E-20
 -1       839 5.22475E-05-1.38974E-05-1.60696E-05 1.34311E-07 7.92512E-19-4.65630E-18
 -1       840 1.18212E-04-2.24453E-05-4.13588E-05 1.58925E-05-7.13255E-19-3.00939E-18
 -1       841 9.40383E-05-2.13611E-05-3.11471E-05 3.31588E-06 4.15721E-19 5.20651E-19
 -1       842 1.07901E-04-4.55116E-05-2.66929E-05-2.45733E-05-2.92183E-19 6.56060E-19
 -1       843 1.14101E-04-5.14219E-05-2.68416E-05 1.67377E-05 5.15161E-19 1.76248E-18
 -1       844 1.27314E-04-4.30207E-05-3.62985E-05-8.81382E-06 1.84547E-18-4.74413E-18
 -1       845 1.18592E-04-5.65476E-05-2.65466E-05 2.55557E-05 1.55331E-19-3.90788E-18
 -1       846 9.56938E-05-2.82705E-05-2.88957E-05-7.17143E-07 3.50689E-19-4.35231E-20
 -1       847 9.35230E-05-2.03660E-05-3.13540E-05 2.36448E-06 6.00799E-19 2.66303E-19
 -1       848 9.56323E-05-2.85871E-05-2.87337E-05-9.86899E-07-6.00810E-20-2.54035E-19
 -1       849 1.15379E-04-2.58373E-05-3.87680E-05 1.54298E-05 4.99187E-19-2.35563E-18
 -1       850 1.21651E-04-5.66658E-05-2.77836E-05-1.50004E-05-3.11759E-19-5.73511E-18
 -1       851 9.42381E-05-3.23336E-05-2.64988E-05 2.35751E-05 1.85474E-18-4.53696E-18
 -1       852 8.15031E-05-2.41274E-05-2.45286E-05 2.16498E-05 4.74908E-19-6.66820E-18
 -1       853 1.28924E-04-5.10599E-05-3.32877E-05 4.38439E-06 4.30648E-19-3.94729E-18
 -1       854 6.77982E-05-2.39171E-05-1.86243E-05-2.30582E-05 1.31054E-18-1.84985E-18
 -1       855 9.60948E-05-4.47840E-05-2.18550E-05-2.93093E-05 3.60274E-19-4.31547E-18
 -1       856 9.56940E-05-2.69132E-05-2.94772E-05 6.92081E-07 3.47570E-19 5.88055E-19
 -1       857 9.55170E-05-2.58992E-05-2.98364E-05 1.82974E-06 3.35343E-19 8.26569E-19
 -1       858 1.02174E-04-3.66901E-05-2.80489E-05 2.04367E-05 5.77379E-19-2.15926E-18
 -1       859 9.13591E-05-3.90606E-05-2.22108E-05 3.27669E-05-9.50861E-20-5.73916E-18
 -1       860 9.67370E-05-3.40930E-05-2.67922E-05-2.38592E-05-4.85300E-19-1.73660E-18
 -1       861 9.35024E-05-2.03349E-05-3.13585E-05-2.32604E-06 7.53082E-19-4.15976E-19
 -1       862 9.40696E-05-2.14581E-05-3.11194E-05-3.06496E-06 6.41191E-19-5.19748E-19
 -1       863 8.33037E-05-3.09260E-05-2.23132E-05 2.29199E-05 1.43837E-18-1.69078E-18
 -1       864 9.12862E-05-3.48254E-05-2.41873E-05-2.82703E-05-4.31821E-18-8.79604E-19
 -1       865 9.55108E-05-2.87950E-05-2.85925E-05-6.91723E-07-3.23121E-19 4.12999E-19
 -1       866 9.60463E-05-2.89697E-05-2.87471E-05-9.48614E-07-1.52221E-19 1.61384E-19
 -1       867 9.62019E-05-2.69970E-05-2.96592E-05-2.92926E-07 6.54990E-20-1.30439E-19
 -1       868 9.63695E-05-2.79264E-05-2.93328E-05 2.87518E-07-7.80314E-20 5.75528E-20
 -1       869 9.63901E-05-2.85155E-05-2.90891E-05 6.33739E-07-6.75583E-20 6.15986E-19
 -1       870 9.63261E-05-2.88655E-05-2.89117E-05 8.08326E-07 2.97895E-20 5.38662E-19
 -1       871 9.62168E-05-2.90483E-05-2.87865E-05 8.66871E-07 1.21685E-19-3.49923E-20
 -1       872 9.60870E-05-2.91158E-05-2.87020E-05 8.53835E-07 3.31142E-19 8.06875E-20
 -1       873 9.59514E-05-2.91041E-05-2.86488E-05 8.03137E-07 1.72331E-19 1.38847E-19
 -1       874 9.58175E-05-2.90378E-05-2.86199E-05 7.40007E-07 2.28706E-19-5.43524E-19
 -1       875 9.56878E-05-2.89324E-05-2.86095E-05 6.83158E-07 1.73706E-19-2.01405E-19
 -1       876 9.55611E-05-2.87961E-05-2.86136E-05 6.46882E-07 1.71432E-19-2.96163E-19
 -1       877 9.54335E-05-2.86323E-05-2.86291E-05 6.42612E-07-1.43260E-19 2.16208E-19
 -1       878 9.52985E-05-2.84396E-05-2.86538E-05 6.80198E-07-4.32038E-19 9.86009E-19
 -1       879 9.51476E-05-2.82139E-05-2.86859E-05 7.68877E-07-6.20692E-19 1.79689E-18
 -1       880 9.49698E-05-2.79482E-05-2.87235E-05 9.17917E-07-4.39635E-19 1.13232E-18
 -1       881 9.47522E-05-2.76344E-05-2.87648E-05 1.13693E-06-8.92980E-19 1.27622E-18
 -1       882 9.44792E-05-2.72632E-05-2.88069E-05 1.43593E-06 4.48384E-20 5.08199E-19
 -1       883 9.41330E-05-2.68262E-05-2.88458E-05 1.82510E-06-2.21959E-19 8.79736E-19
 -1       884 9.36931E-05-2.63174E-05-2.88753E-05 2.31444E-06 4.94518E-19-1.82811E-19
 -1       885 9.31376E-05-2.57358E-05-2.88865E-05 2.91351E-06-4.78803E-19 6.68440E-20
 -1       886 9.24440E-05-2.50894E-05-2.88662E-05 3.63179E-06-4.59622E-19 5.84567E-19
 -1       887 9.15931E-05-2.44021E-05-2.87961E-05 4.48045E-06 3.33221E-19-9.99387E-20
 -1       888 9.05742E-05-2.37221E-05-2.86508E-05 5.47720E-06 1.26109E-18-5.42921E-19
 -1       889 8.93961E-05-2.31361E-05-2.83970E-05 6.65636E-06 1.02489E-18-4.96138E-19
 -1       890 8.81036E-05-2.27883E-05-2.79918E-05 8.08821E-06 7.22145E-19-5.23850E-19
 -1       891 8.68104E-05-2.29128E-05-2.73833E-05 9.90907E-06 5.26192E-20-1.03725E-18
 -1       892 8.57600E-05-2.38941E-05-2.65129E-05 1.23824E-05 3.99913E-19-3.61981E-19
 -1       893 8.56589E-05-2.64169E-05-2.54008E-05 1.59967E-05 1.73821E-19-4.20477E-19
 -1       894 9.56099E-05-2.89091E-05-2.85860E-05-7.39762E-07-5.00062E-19-2.13332E-19
 -1       895 9.57137E-05-2.89958E-05-2.85934E-05-8.07865E-07-1.44222E-19-1.61744E-19
 -1       896 9.54136E-05-2.86574E-05-2.86098E-05-6.76081E-07-4.29445E-19 4.31149E-19
 -1       897 9.53138E-05-2.84969E-05-2.86358E-05-7.03273E-07-3.09893E-19 1.52038E-19
 -1       898 9.52060E-05-2.83115E-05-2.86691E-05-7.83031E-07 2.74656E-19 3.00646E-19
 -1       899 9.50837E-05-2.80980E-05-2.87082E-05-9.25061E-07 5.12121E-19 2.44477E-19
 -1       900 9.49402E-05-2.78531E-05-2.87516E-05-1.13947E-06 2.20663E-20 9.44763E-19
 -1       901 9.47689E-05-2.75748E-05-2.87974E-05-1.43684E-06 2.58928E-19 1.22455E-18
 -1       902 9.45643E-05-2.72644E-05-2.88428E-05-1.82805E-06 4.55320E-19 4.69777E-19
 -1       903 9.43240E-05-2.69294E-05-2.88833E-05-2.32371E-06 4.53053E-19 1.06161E-18
 -1       904 9.40511E-05-2.65872E-05-2.89130E-05-2.93343E-06-5.81481E-19 1.38976E-18
 -1       905 9.37590E-05-2.62705E-05-2.89236E-05-3.66487E-06-7.28069E-19 1.08890E-18
 -1       906 9.34777E-05-2.60341E-05-2.89043E-05-4.52278E-06-1.15795E-18 1.07217E-18
 -1       907 9.32644E-05-2.59647E-05-2.88426E-05-5.50787E-06-1.65115E-18 1.20374E-18
 -1       908 9.32183E-05-2.61920E-05-2.87254E-05-6.61461E-06-3.17230E-19 9.71107E-19
 -1       909 9.35012E-05-2.69005E-05-2.85429E-05-7.82501E-06 2.71308E-19-6.89175E-20
 -1       910 9.43620E-05-2.83365E-05-2.82963E-05-9.09480E-06 3.37118E-19-6.44155E-19
 -1       911 9.61712E-05-3.08100E-05-2.80114E-05-1.03186E-05-7.10785E-19-1.02304E-18
 -1       912 9.94360E-05-3.46445E-05-2.77674E-05-1.12080E-05 5.41288E-20-1.42809E-18
 -1       913 1.04717E-04-3.99743E-05-2.77432E-05-1.11965E-05-9.68690E-19-8.29804E-19
 -1       914 1.12372E-04-4.63252E-05-2.82974E-05-9.12732E-06-1.91029E-18-1.68170E-18
 -1       915 1.22142E-04-5.18009E-05-3.00821E-05 9.88444E-06 1.79757E-18-2.46714E-18
 -1       916 9.57992E-05-2.56038E-05-3.00848E-05-1.17615E-06 1.31609E-19-2.33808E-19
 -1       917 6.61957E-05-2.01274E-05-1.95208E-05 2.06734E-05 1.66234E-18-5.39810E-18
 -1       918 5.81368E-05-1.40997E-05-1.87375E-05-2.96030E-06 4.83466E-19-2.72310E-18
 -1       919 9.31964E-05-1.97641E-05-3.14722E-05-1.19334E-06 7.94521E-19-6.72877E-20
 -1       920 1.12685E-04-4.48975E-05-2.90394E-05 1.46414E-05 1.74961E-18 2.07713E-19
 -1       921 1.05978E-04-4.69982E-05-2.51876E-05 2.86820E-05-2.52237E-19-4.06124E-18
 -1       922 6.32427E-05-1.81956E-05-1.91889E-05 1.46144E-05-1.88821E-19 5.44285E-19
 -1       923 1.04861E-04-3.71286E-05-2.90210E-05 1.60510E-05 2.52876E-18 2.09624E-18
 -1       924 8.19637E-05-2.99592E-05-2.21784E-05 2.82223E-05 5.16942E-19-6.52811E-18
 -1       925 9.53634E-05-2.46951E-05-3.02870E-05 2.33755E-06 3.29384E-19 6.02732E-19
 -1       926 9.58230E-05-2.90462E-05-2.86186E-05-8.80445E-07 4.40963E-20-3.17789E-19
 -1       927 9.61426E-05-2.87846E-05-2.88678E-05-8.77717E-07-1.77546E-19-6.75811E-20
 -1       928 9.46929E-05-2.26144E-05-3.08906E-05 1.22271E-06 4.70647E-19 1.18163E-19
 -1       929 1.04853E-04-4.30558E-05-2.65310E-05 2.48865E-05 5.92513E-19-4.10461E-18
 -1       930 1.21528E-04-5.14361E-05-3.00249E-05-3.74569E-06-1.59226E-18-1.58283E-18
 -1       931 9.45669E-05-3.77867E-05-2.42358E-05 2.86822E-05-3.97828E-19-4.78938E-18
 -1       932 6.63302E-05-1.84783E-05-2.04195E-05-1.33577E-05 1.26809E-18-2.69784E-18
 -1       933 1.09133E-04-4.97238E-05-2.54188E-05-2.05880E-05-7.60798E-19-4.07596E-18
 -1       934 9.59359E-05-2.90454E-05-2.86673E-05-9.36844E-07-1.12333E-19 2.40219E-19
 -1       935 8.10279E-05-3.18729E-05-2.09607E-05-2.56087E-05 1.27188E-18-3.00580E-18
 -1       936 9.46827E-05-2.25996E-05-3.08931E-05-1.19360E-06 6.97212E-19-1.25857E-19
 -1       937 9.60552E-05-2.69522E-05-2.96158E-05 4.00721E-07 6.31896E-19 4.93380E-19
 -1       938 9.45477E-05-2.22753E-05-3.09739E-05 4.31951E-07 6.02541E-19-6.37960E-20
 -1       939 9.61952E-05-2.78644E-05-2.92846E-05-2.73381E-07 6.05299E-19 2.15920E-19
 -1       940 9.50238E-05-2.34080E-05-3.06915E-05-1.70100E-06 5.12684E-19-2.60082E-19
 -1       941 9.50083E-05-2.35434E-05-3.06278E-05-2.38916E-06 2.62777E-19-2.82278E-19
 -1       942 9.66764E-05-2.81472E-05-2.93696E-05 3.09264E-07 2.49910E-20 1.36737E-19
 -1       943 9.66946E-05-2.87137E-05-2.91347E-05 5.27181E-07 2.33002E-19 1.08841E-19
 -1       944 9.66123E-05-2.90388E-05-2.89601E-05 6.30992E-07-4.22973E-20 6.61916E-19
 -1       945 9.64733E-05-2.91934E-05-2.88343E-05 6.59181E-07 3.62600E-19 7.01132E-19
 -1       946 9.63064E-05-2.92291E-05-2.87474E-05 6.42211E-07 4.84610E-19 8.76158E-19
 -1       947 9.61288E-05-2.91824E-05-2.86913E-05 6.03605E-07-5.76786E-20 5.00679E-19
 -1       948 9.59495E-05-2.90780E-05-2.86592E-05 5.60943E-07 2.89825E-19 6.01960E-19
 -1       949 9.57708E-05-2.89303E-05-2.86459E-05 5.27683E-07 2.04772E-19 5.71195E-19
 -1       950 9.55901E-05-2.87467E-05-2.86472E-05 5.14318E-07-3.77984E-20 2.86215E-20
 -1       951 9.54012E-05-2.85287E-05-2.86597E-05 5.29328E-07 3.75036E-19 9.48766E-20
 -1       952 9.51942E-05-2.82731E-05-2.86805E-05 5.80149E-07 1.82125E-19 6.09105E-19
 -1       953 9.49564E-05-2.79734E-05-2.87071E-05 6.73769E-07-5.09703E-19 1.02456E-18
 -1       954 9.46721E-05-2.76207E-05-2.87364E-05 8.17016E-07-3.43266E-19 1.79800E-18
 -1       955 9.43225E-05-2.72047E-05-2.87648E-05 1.01660E-06-5.49028E-19 1.76081E-18
 -1       956 9.38859E-05-2.67152E-05-2.87875E-05 1.27896E-06 1.49512E-19 1.64325E-18
 -1       957 9.33374E-05-2.61431E-05-2.87977E-05 1.60991E-06-4.76663E-19 1.25487E-18
 -1       958 9.26492E-05-2.54828E-05-2.87857E-05 2.01445E-06 7.99791E-20 1.05832E-18
 -1       959 9.17902E-05-2.47348E-05-2.87382E-05 2.49694E-06-6.28098E-19 6.31081E-19
 -1       960 9.07271E-05-2.39090E-05-2.86365E-05 3.06265E-06 2.28826E-19 5.73489E-19
 -1       961 8.94242E-05-2.30294E-05-2.84551E-05 3.72183E-06 4.68509E-19 1.02615E-18
 -1       962 8.78445E-05-2.21396E-05-2.81595E-05 4.49846E-06 9.09749E-19-6.61201E-19
 -1       963 8.59490E-05-2.13085E-05-2.77034E-05 5.44570E-06 1.00314E-18-7.20590E-19
 -1       964 8.36941E-05-2.06378E-05-2.70243E-05 6.68033E-06 6.67495E-19-5.29675E-19
 -1       965 8.10479E-05-2.02957E-05-2.60360E-05 8.41817E-06 5.38853E-19 1.03724E-18
 -1       966 7.79822E-05-2.05301E-05-2.46064E-05 1.09712E-05 2.98587E-19 2.54876E-19
 -1       967 9.62040E-05-2.84400E-05-2.90417E-05-6.73841E-07 3.24588E-19 4.91791E-21
 -1       968 9.49721E-05-2.32946E-05-3.07193E-05 1.89174E-06 5.22484E-19 2.73934E-19
 -1       969 9.45427E-05-2.22676E-05-3.09752E-05-4.06132E-07 6.47848E-19-2.84211E-19
 -1       970 9.58967E-05-2.90633E-05-2.86429E-05-6.45008E-07-3.31465E-19-2.61835E-19
 -1       971 9.52481E-05-2.83575E-05-2.86674E-05-6.35242E-07-4.14865E-20-1.57824E-19
 -1       972 9.50550E-05-2.80997E-05-2.86951E-05-7.31957E-07 2.77608E-20 1.61859E-19
 -1       973 9.48302E-05-2.78020E-05-2.87264E-05-8.86167E-07 8.74048E-20 1.09646E-18
 -1       974 9.45622E-05-2.74597E-05-2.87582E-05-1.10756E-06 6.79089E-19 5.79705E-19
 -1       975 9.42390E-05-2.70701E-05-2.87867E-05-1.40678E-06 6.28074E-19 2.72939E-19
 -1       976 9.38501E-05-2.66349E-05-2.88066E-05-1.79557E-06-3.19845E-19 7.72803E-19
 -1       977 9.33884E-05-2.61637E-05-2.88106E-05-2.28698E-06-2.67350E-19 8.08809E-19
 -1       978 9.28530E-05-2.56782E-05-2.87892E-05-2.89583E-06-3.92638E-19 7.23471E-19
 -1       979 9.22544E-05-2.52178E-05-2.87300E-05-3.63985E-06-8.08846E-19 6.49593E-19
 -1       980 9.16211E-05-2.48470E-05-2.86175E-05-4.54186E-06-1.35306E-18 1.26615E-19
 -1       981 9.10108E-05-2.46652E-05-2.84339E-05-5.63368E-06-3.85611E-19-9.30732E-19
 -1       982 9.05275E-05-2.48208E-05-2.81602E-05-6.96014E-06 2.82427E-19-8.07517E-19
 -1       983 9.03483E-05-2.55269E-05-2.77805E-05-8.57764E-06 2.76046E-19 7.75354E-19
 -1       984 9.07513E-05-2.70681E-05-2.72915E-05-1.05509E-05 2.87053E-20 7.54811E-19
 -1       985 9.21721E-05-2.98413E-05-2.67138E-05-1.29416E-05 3.94421E-19-1.13637E-18
 -1       986 9.55278E-05-3.44630E-05-2.61694E-05-1.53843E-05-4.06005E-19-9.15705E-19
 -1       987 1.00272E-04-4.07514E-05-2.55109E-05-1.85564E-05-1.16381E-18-2.64583E-18
 -1       988 6.69472E-05-1.60747E-05-2.17640E-05-4.64491E-06 1.36795E-18-2.50990E-18
 -1       989 9.55816E-05-2.87723E-05-2.86326E-05-5.78755E-07-3.15803E-19-2.01035E-19
 -1       990 7.44899E-05-2.38006E-05-2.16653E-05-1.83148E-05 4.38828E-19-2.22399E-18
 -1       991 9.60657E-05-2.59007E-05-3.00697E-05-6.26529E-07 2.80900E-19-7.96206E-20
 -1       992 9.54206E-05-2.85805E-05-2.86458E-05-5.87055E-07-3.03289E-20-1.54687E-20
 -1       993 9.57867E-05-2.59910E-05-2.99136E-05 1.21390E-06 5.38764E-19 5.00756E-19
 -1       994 9.57386E-05-2.89340E-05-2.86305E-05-6.01349E-07-6.44802E-19 2.72771E-19
 -1       995 6.56586E-05-1.60585E-05-2.12319E-05 5.80889E-06 1.60169E-19-1.48626E-18
 -1       996 9.64943E-05-2.72476E-05-2.96774E-05-6.28451E-08 2.25204E-19-5.68825E-21
 -1       997 9.60571E-05-2.91512E-05-2.86739E-05-6.97088E-07-2.70223E-19-4.86163E-19
 -1       998 9.64934E-05-2.89664E-05-2.89401E-05-7.20050E-07 1.67195E-19 9.42639E-20
 -1       999 7.31072E-05-1.86953E-05-2.32967E-05 1.01739E-05 1.22562E-19 1.39823E-18
 -1      1000 9.56111E-05-2.44862E-05-3.04826E-05-4.73544E-07 4.93108E-19-8.64767E-20
 -1      1001 7.36104E-05-2.02169E-05-2.28602E-05-1.22942E-05 3.62075E-19-1.35681E-18
 -1      1002 9.21017E-05-3.72916E-05-2.34473E-05-2.29801E-05 1.02441E-19-3.22278E-18
 -1      1003 9.56986E-05-2.48761E-05-3.03521E-05 8.98792E-07 4.19445E-19 2.70461E-19
 -1      1004 9.56214E-05-2.44936E-05-3.04827E-05 5.01574E-07 3.49412E-19-8.22792E-20
 -1      1005 9.63675E-05-2.91331E-05-2.88148E-05-7.59725E-07 1.43408E-19-6.47270E-19
 -1      1006 9.63705E-05-2.71475E-05-2.96668E-05 1.38545E-07 6.27168E-19 5.95460E-19
 -1      1007 9.58762E-05-2.52002E-05-3.02903E-05-6.14245E-07 4.90993E-19-1.85430E-19
 -1      1008 9.59593E-05-2.57843E-05-3.00729E-05 8.50230E-07 5.13793E-19 3.69541E-19
 -1      1009 9.65447E-05-2.80546E-05-2.93529E-05-3.20082E-07 6.31539E-19 8.16398E-19
 -1      1010 9.68800E-05-2.89130E-05-2.91288E-05 3.64739E-07 3.59458E-19 5.08232E-19
 -1      1011 9.67674E-05-2.91841E-05-2.89644E-05 4.12719E-07 2.16079E-19 8.92208E-19
 -1      1012 9.65980E-05-2.92924E-05-2.88452E-05 4.19471E-07 3.02387E-19 4.85859E-19
 -1      1013 9.64009E-05-2.92876E-05-2.87628E-05 4.04042E-07 1.22062E-19 2.95255E-19
 -1      1014 9.61921E-05-2.92032E-05-2.87095E-05 3.79781E-07 3.33841E-19 7.29967E-19
 -1      1015 9.59792E-05-2.90612E-05-2.86792E-05 3.56210E-07-4.60978E-21-2.29048E-19
 -1      1016 9.57628E-05-2.88739E-05-2.86667E-05 3.42083E-07 5.80633E-20-6.40836E-19
 -1      1017 9.55388E-05-2.86469E-05-2.86680E-05 3.43269E-07 3.42335E-21-2.74653E-19
 -1      1018 9.52978E-05-2.83795E-05-2.86793E-05 3.64771E-07 2.92065E-19-2.43738E-19
 -1      1019 9.50269E-05-2.80665E-05-2.86974E-05 4.10991E-07 6.92150E-19 1.94512E-19
 -1      1020 9.47098E-05-2.76996E-05-2.87188E-05 4.85838E-07 1.63758E-19 1.28247E-18
 -1      1021 9.43268E-05-2.72685E-05-2.87394E-05 5.92724E-07-8.21221E-19 1.46483E-18
 -1      1022 9.38549E-05-2.67624E-05-2.87541E-05 7.34351E-07-3.08122E-19 1.10429E-18
 -1      1023 9.32680E-05-2.61709E-05-2.87561E-05 9.12326E-07-1.65927E-19 9.48257E-19
 -1      1024 9.25365E-05-2.54865E-05-2.87360E-05 1.12669E-06 2.19162E-19 1.62897E-18
 -1      1025 9.16274E-05-2.47057E-05-2.86811E-05 1.37557E-06-2.90235E-19 1.76885E-18
 -1      1026 9.05028E-05-2.38316E-05-2.85738E-05 1.65534E-06-2.83150E-19 2.18613E-18
 -1      1027 8.91187E-05-2.28757E-05-2.83904E-05 1.96213E-06-3.02513E-19 1.06832E-18
 -1      1028 8.74199E-05-2.18584E-05-2.80986E-05 2.29606E-06 2.74755E-19-2.19324E-19
 -1      1029 8.53322E-05-2.08092E-05-2.76537E-05 2.67090E-06 5.56114E-19-4.55406E-19
 -1      1030 8.27606E-05-1.97712E-05-2.69956E-05 3.11616E-06 1.26264E-18-1.64266E-18
 -1      1031 7.95196E-05-1.87639E-05-2.60384E-05 3.72593E-06 6.84646E-19-2.09025E-18
 -1      1032 7.52237E-05-1.77598E-05-2.46292E-05 4.70253E-06 7.42274E-19-1.31924E-18
 -1      1033 9.65659E-05-2.86294E-05-2.91155E-05-5.88076E-07 1.92241E-19 7.09174E-19
 -1      1034 9.55757E-05-2.43504E-05-3.05249E-05 5.79338E-09 4.33718E-19-2.71923E-19
 -1      1035 9.48313E-05-2.78388E-05-2.87112E-05-5.96896E-07-1.39476E-19-4.53848E-19
 -1      1036 9.51071E-05-2.81671E-05-2.86886E-05-5.02536E-07 1.17444E-19-2.42950E-19
 -1      1037 9.41106E-05-2.70203E-05-2.87531E-05-9.35952E-07 6.63264E-19 2.54130E-19
 -1      1038 9.36324E-05-2.65206E-05-2.87623E-05-1.19997E-06 6.31305E-20-3.24381E-19
 -1      1039 9.30537E-05-2.59614E-05-2.87540E-05-1.54322E-06-1.04306E-19-4.80262E-19
 -1      1040 9.23613E-05-2.53532E-05-2.87179E-05-1.98180E-06-6.69747E-19-1.34680E-18
 -1      1041 9.15469E-05-2.47190E-05-2.86408E-05-2.53694E-06-1.04128E-18-1.26262E-19
 -1      1042 9.06111E-05-2.40993E-05-2.85053E-05-3.23820E-06-4.76523E-19 4.46423E-19
 -1      1043 8.95674E-05-2.35579E-05-2.82902E-05-4.12899E-06-2.39772E-19-7.33924E-19
 -1      1044 8.84489E-05-2.31890E-05-2.79692E-05-5.27664E-06-8.11424E-19-6.94891E-19
 -1      1045 8.73263E-05-2.31355E-05-2.75117E-05-6.78738E-06-8.02428E-19-1.37685E-19
 -1      1046 8.63249E-05-2.36050E-05-2.68822E-05-8.79976E-06 4.02376E-19-8.68979E-19
 -1      1047 8.56422E-05-2.48705E-05-2.60508E-05-1.15880E-05 9.88793E-19-1.55819E-18
 -1      1048 8.56792E-05-2.73083E-05-2.50233E-05-1.53725E-05-1.27065E-19-2.79834E-18
 -1      1049 9.55646E-05-2.86939E-05-2.86589E-05-4.25290E-07-6.96719E-19-7.25017E-19
 -1      1050 7.39119E-05-1.78980E-05-2.39995E-05-5.50984E-06-1.58783E-19-1.93796E-18
 -1      1051 8.36209E-05-2.89264E-05-2.33301E-05-1.92405E-05-2.24776E-19-2.78605E-18
 -1      1052 9.62171E-05-2.91830E-05-2.87288E-05-7.42457E-07 1.09671E-19-5.53688E-19
 -1      1053 9.53471E-05-2.84502E-05-2.86701E-05-4.47655E-07-8.59947E-20-3.12269E-19
 -1      1054 9.45047E-05-2.74585E-05-2.87341E-05-7.38420E-07 3.79267E-19-5.20045E-19
 -1      1055 9.67550E-05-2.76204E-05-2.96320E-05 5.14997E-08 2.93200E-19-2.58950E-19
 -1      1056 9.64046E-05-2.65623E-05-2.99323E-05-2.00792E-07 3.77824E-19-1.36411E-19
 -1      1057 7.13133E-05-1.65981E-05-2.34353E-05 2.12263E-06 5.22527E-19-3.49349E-18
 -1      1058 9.68920E-05-2.84115E-05-2.93487E-05 2.56871E-07 1.68975E-19 1.45716E-19
 -1      1059 9.63528E-05-2.65612E-05-2.99116E-05 3.06337E-07 4.00188E-19 3.47214E-19
 -1      1060 9.68069E-05-2.88318E-05-2.91324E-05-4.49629E-07 7.39663E-19-5.80168E-20
 -1      1061 9.59704E-05-2.90709E-05-2.86712E-05-4.51058E-07-5.56530E-19-3.21323E-19
 -1      1062 9.57700E-05-2.89012E-05-2.86580E-05-4.28746E-07-1.40547E-19-8.87785E-19
 -1      1063 9.67073E-05-2.91258E-05-2.89635E-05-5.17750E-07 5.33471E-19-1.98921E-19
 -1      1064 9.66561E-05-2.76906E-05-2.95562E-05-1.21231E-07 5.74197E-19 4.92773E-19
 -1      1065 9.63112E-05-2.60429E-05-3.01147E-05-1.09518E-07 3.16288E-19-2.75533E-19
 -1      1066 9.63595E-05-2.62650E-05-3.00344E-05-1.90952E-07 3.53937E-19-3.96852E-19
 -1      1067 7.94141E-05-2.12122E-05-2.49396E-05-9.89536E-06 8.47583E-19-1.34186E-18
 -1      1068 9.61725E-05-2.91997E-05-2.87029E-05-4.85485E-07-5.66710E-19-2.62687E-19
 -1      1069 9.67938E-05-2.83866E-05-2.93183E-05-3.31002E-07 5.76488E-19 5.13419E-19
 -1      1070 9.67997E-05-2.92821E-05-2.89362E-05 1.64273E-07 4.44118E-21 4.35653E-19
 -1      1071 9.66049E-05-2.93389E-05-2.88283E-05 1.62675E-07-1.02590E-19 3.70314E-19
 -1      1072 9.63899E-05-2.92932E-05-2.87557E-05 1.52638E-07 2.61237E-19 3.95551E-19
 -1      1073 9.61619E-05-2.91711E-05-2.87103E-05 1.43598E-07-3.68932E-19 4.41738E-20
 -1      1074 9.59274E-05-2.89949E-05-2.86852E-05 1.38039E-07-4.20075E-19-5.44968E-20
 -1      1075 9.56861E-05-2.87743E-05-2.86764E-05 1.36096E-07 1.05923E-19-3.31368E-19
 -1      1076 9.54305E-05-2.85112E-05-2.86796E-05 1.40670E-07 3.69741E-19-3.48715E-19
 -1      1077 9.51492E-05-2.82028E-05-2.86912E-05 1.53320E-07 5.03158E-19-7.57953E-19
 -1      1078 9.48265E-05-2.78423E-05-2.87074E-05 1.74999E-07 8.48387E-19-7.54187E-19
 -1      1079 9.44437E-05-2.74204E-05-2.87241E-05 2.05992E-07-1.47751E-19-3.92018E-19
 -1      1080 9.39784E-05-2.69266E-05-2.87363E-05 2.45641E-07-6.23648E-19-1.99828E-19
 -1      1081 9.34055E-05-2.63508E-05-2.87376E-05 2.91890E-07-3.90278E-19 4.32948E-19
 -1      1082 9.26968E-05-2.56848E-05-2.87193E-05 3.40637E-07 1.64003E-19 8.83285E-19
 -1      1083 9.18212E-05-2.49245E-05-2.86698E-05 3.84924E-07-4.78133E-19 3.06669E-19
 -1      1084 9.07437E-05-2.40712E-05-2.85737E-05 4.14003E-07 1.01322E-19 3.89279E-19
 -1      1085 8.94244E-05-2.31337E-05-2.84100E-05 4.12340E-07-3.94019E-19 4.93473E-19
 -1      1086 8.78136E-05-2.21279E-05-2.81507E-05 3.58481E-07-7.57777E-19 1.77197E-19
 -1      1087 8.58427E-05-2.10744E-05-2.77576E-05 2.23179E-07-2.44677E-19-9.62148E-19
 -1      1088 8.34039E-05-1.99903E-05-2.71778E-05-3.55402E-08 5.06086E-19-1.15190E-18
 -1      1089 8.04795E-05-1.89754E-05-2.63519E-05-4.23599E-07 5.21629E-19-7.08190E-19
 -1      1090 7.65588E-05-1.78111E-05-2.51741E-05 4.38488E-07 5.79449E-19-1.69797E-18
 -1      1091 9.49156E-05-2.79438E-05-2.87022E-05-3.02106E-07-6.18547E-21-2.97406E-19
 -1      1092 9.29990E-05-2.59638E-05-2.87295E-05-7.94178E-07 1.89498E-19 2.14782E-19
 -1      1093 9.36275E-05-2.65667E-05-2.87405E-05-6.07269E-07 4.12657E-19-1.70292E-19
 -1      1094 9.13094E-05-2.45448E-05-2.86136E-05-1.37276E-06-1.09608E-18-1.70968E-19
 -1      1095 9.02056E-05-2.37587E-05-2.84776E-05-1.80905E-06-1.45455E-18-1.05513E-18
 -1      1096 8.89037E-05-2.29633E-05-2.82606E-05-2.39021E-06 1.26876E-19-1.19031E-18
 -1      1097 8.73858E-05-2.22095E-05-2.79333E-05-3.17252E-06-7.94039E-19-8.99724E-19
 -1      1098 8.56285E-05-2.15621E-05-2.74578E-05-4.23891E-06-2.68371E-19-4.82289E-19
 -1      1099 8.36137E-05-2.11126E-05-2.67900E-05-5.76887E-06 6.26089E-19-2.66375E-18
 -1      1100 8.17888E-05-2.11013E-05-2.60022E-05-7.50523E-06 7.46891E-19-2.18454E-18
 -1      1101 9.62890E-05-2.60102E-05-3.01202E-05 1.21654E-07 3.56281E-19-1.10899E-19
 -1      1102 9.69304E-05-2.80016E-05-2.95397E-05 5.93569E-08 5.15767E-19-3.84128E-19
 -1      1103 9.70100E-05-2.86839E-05-2.92831E-05 1.19985E-07 6.88235E-19-2.03075E-20
 -1      1104 9.22336E-05-2.52867E-05-2.86917E-05-1.04320E-06 2.74210E-20-4.56472E-19
 -1      1105 9.69526E-05-2.90848E-05-2.90858E-05 1.54347E-07 6.51339E-19 3.05070E-19
 -1      1106 9.67519E-05-2.74777E-05-2.96879E-05-2.77084E-08 5.11711E-19-1.59664E-20
 -1      1107 9.52153E-05-2.82816E-05-2.86859E-05-2.59686E-07 7.25378E-20-3.77090E-19
 -1      1108 9.59564E-05-2.90274E-05-2.86839E-05-2.38081E-07-1.89154E-19-8.54142E-20
 -1      1109 9.63717E-05-2.92687E-05-2.87586E-05-5.16337E-07-1.07081E-19-5.65442E-20
 -1      1110 9.57236E-05-2.88199E-05-2.86730E-05-2.32019E-07-3.60366E-19 1.22459E-19
 -1      1111 9.45642E-05-2.75508E-05-2.87201E-05-3.69947E-07 6.86114E-20-6.28683E-19
 -1      1112 9.41418E-05-2.70942E-05-2.87347E-05-4.69153E-07 4.82135E-19-5.67687E-19
 -1      1113 9.67772E-05-2.73844E-05-2.97411E-05 2.09164E-09 4.93144E-19-7.86663E-20
 -1      1114 9.65508E-05-2.92513E-05-2.88427E-05-5.32026E-07 6.65008E-20-4.09772E-19
 -1      1115 9.69376E-05-2.90279E-05-2.91047E-05-2.51232E-07 9.65677E-19-5.87780E-20
 -1      1116 9.61839E-05-2.91902E-05-2.87114E-05-2.50463E-07-2.47445E-19-7.00621E-20
 -1      1117 7.86937E-05-1.90619E-05-2.55673E-05-4.56456E-06-2.81251E-19-2.10766E-18
 -1      1118 9.69564E-05-2.86401E-05-2.92783E-05-2.35982E-07 9.25608E-19 5.30224E-20
 -1      1119 9.54801E-05-2.85719E-05-2.86750E-05-2.37779E-07-4.10717E-19-2.63773E-19
 -1      1120 9.67300E-05-2.93362E-05-2.88830E-05-1.03346E-07-1.13041E-19 6.98901E-19
 -1      1121 9.65138E-05-2.93322E-05-2.87919E-05-9.75974E-08-1.99762E-20 4.42872E-19
 -1      1122 9.69905E-05-2.82935E-05-2.94411E-05-6.06347E-08 6.33468E-19 5.82945E-21
 -1      1123 9.68080E-05-2.92532E-05-2.89519E-05-2.81262E-07 5.01821E-19 1.39181E-19
 -1      1124 1.16857E-04 2.57571E-10-4.18558E-05-4.14664E-05-1.35949E-19-3.32757E-18
 -1      1125 8.86505E-05 7.19171E-11-3.72512E-05-2.41689E-05-1.06938E-20-3.13503E-18
 -1      1126 8.40777E-05 4.14532E-11-3.57666E-05-1.78795E-05 1.30761E-20-2.44133E-18
 -1      1127 8.23336E-05 3.20284E-11-3.50726E-05-1.38370E-05 3.04932E-20-1.83299E-18
 -1      1128 8.15305E-05 2.73270E-11-3.47382E-05-1.05347E-05 2.74756E-20-1.31488E-18
 -1      1129 8.11291E-05 2.46124E-11-3.45730E-05-7.64192E-06 3.56019E-20-9.44117E-19
 -1      1130 8.09207E-05 2.29562E-11-3.44899E-05-4.98041E-06 2.68007E-20-6.20194E-19
 -1      1131 8.08189E-05 2.20606E-11-3.44508E-05-2.43235E-06 2.59851E-20-2.74915E-19
 -1      1132 8.07899E-05 2.17900E-11-3.44398E-05 5.26179E-08 2.40701E-20-6.83582E-21
 -1      1133 8.08231E-05 2.21044E-11-3.44522E-05 2.54009E-06 3.43677E-20 2.50828E-19
 -1      1134 8.09294E-05 2.30539E-11-3.44928E-05 5.09626E-06 2.64466E-20 5.27265E-19
 -1      1135 8.11448E-05 2.47696E-11-3.45774E-05 7.77354E-06 2.53779E-20 9.15563E-19
 -1      1136 8.15533E-05 2.76418E-11-3.47446E-05 1.06944E-05 2.97917E-20 1.36643E-18
 -1      1137 8.23576E-05 3.24998E-11-3.50825E-05 1.40439E-05 1.97200E-20 1.86231E-18
 -1      1138 8.40733E-05 4.19237E-11-3.57866E-05 1.81304E-05 1.82112E-20 2.41526E-18
 -1      1139 8.83485E-05 6.67430E-11-3.73214E-05 2.40113E-05-1.88465E-20 3.06205E-18
 -1      1140 1.06621E-04 1.63925E-10-4.06346E-05 3.61930E-05-1.27690E-19 3.25642E-18
 -1      1141 1.30224E-04-2.57570E-05-4.02743E-05-2.61064E-05-3.14037E-19-3.68629E-18
 -1      1142 9.74585E-05-2.88631E-05-3.15782E-05-6.80410E-07-1.34414E-19-4.31224E-18
 -1      1143 9.01605E-05-2.70269E-05-2.78933E-05 3.87145E-07 4.67192E-21-4.67178E-18
 -1      1144 8.82487E-05-2.65721E-05-2.66434E-05 2.50770E-07-1.12232E-20-5.15396E-18
 -1      1145 8.78877E-05-2.64448E-05-2.63865E-05 1.65712E-07-2.88851E-20-5.27998E-18
 -1      1146 8.82443E-05-2.65206E-05-2.64707E-05 1.18082E-07 1.04638E-20-5.14093E-18
 -1      1147 8.89280E-05-2.67043E-05-2.66725E-05 8.74252E-08 1.17170E-21-5.33395E-18
 -1      1148 8.97389E-05-2.69350E-05-2.69138E-05 6.61192E-08-2.82947E-20-5.75466E-18
 -1      1149 9.05668E-05-2.71761E-05-2.71606E-05 5.03526E-08-2.10383E-20-5.87755E-18
 -1      1150 9.13497E-05-2.74068E-05-2.73947E-05 3.81956E-08-4.70706E-20-6.12493E-18
 -1      1151 9.20548E-05-2.76159E-05-2.76062E-05 2.86144E-08 4.41374E-20-6.88153E-18
 -1      1152 9.26677E-05-2.77985E-05-2.77907E-05 2.09990E-08 2.30514E-19-6.16391E-18
 -1      1153 9.31863E-05-2.79536E-05-2.79473E-05 1.49407E-08-4.52635E-20-6.23462E-18
 -1      1154 9.36165E-05-2.80826E-05-2.80776E-05 1.01391E-08-1.56209E-20-6.77556E-18
 -1      1155 9.39694E-05-2.81889E-05-2.81849E-05 6.36316E-09-5.57501E-20-5.98564E-18
 -1      1156 9.42596E-05-2.82765E-05-2.82735E-05 3.43574E-09-1.24438E-19-5.66170E-18
 -1      1157 9.45044E-05-2.83509E-05-2.83487E-05 1.22854E-09 1.17886E-20-5.33621E-18
 -1      1158 9.47237E-05-2.84177E-05-2.84163E-05-3.36481E-10 5.47544E-21-5.53622E-18
 -1      1159 9.49397E-05-2.84838E-05-2.84833E-05-1.28210E-09 5.89811E-20-6.78457E-18
 -1      1160 9.51784E-05-2.85569E-05-2.85574E-05-1.56714E-09-1.19553E-19-6.94008E-18
 -1      1161 9.54698E-05-2.86461E-05-2.86477E-05-1.07347E-09-2.21356E-20-6.24515E-18
 -1      1162 9.58499E-05-2.87622E-05-2.87653E-05 4.12434E-10 4.80486E-20-5.65635E-18
 -1      1163 9.63616E-05-2.89181E-05-2.89233E-05 3.22483E-09-4.07151E-20-4.36092E-18
 -1      1164 9.70568E-05-2.91294E-05-2.91372E-05 7.85134E-09-2.05973E-19-5.68096E-18
 -1      1165 9.79976E-05-2.94145E-05-2.94259E-05 1.49704E-08 3.27601E-20-3.52557E-18
 -1      1166 9.92563E-05-2.97950E-05-2.98111E-05 2.54821E-08 5.47023E-20-3.30651E-18
 -1      1167 1.00915E-04-3.02952E-05-3.03170E-05 4.05012E-08 1.71893E-19-4.22317E-18
 -1      1168 1.03059E-04-3.09397E-05-3.09682E-05 6.12336E-08 7.89312E-20-4.45770E-18
 -1      1169 1.05763E-04-3.17504E-05-3.17849E-05 8.85711E-08 7.38647E-20-3.62039E-18
 -1      1170 1.09066E-04-3.27369E-05-3.27735E-05 1.22083E-07 1.45939E-19-2.58435E-18
 -1      1171 1.12916E-04-3.38821E-05-3.39101E-05 1.57908E-07-3.51256E-19-3.48996E-18
 -1      1172 1.17090E-04-3.51172E-05-3.51149E-05 1.85004E-07-2.14412E-19-5.04938E-18
 -1      1173 1.21072E-04-3.62865E-05-3.62193E-05 1.80076E-07 6.45614E-20-3.98585E-18
 -1      1174 1.23935E-04-3.71127E-05-3.69407E-05 1.04368E-07-5.95901E-21-3.77222E-18
 -1      1175 1.24316E-04-3.71933E-05-3.69001E-05-8.79696E-08 2.07152E-19-4.23752E-18
 -1      1176 1.20713E-04-3.60916E-05-3.57351E-05-4.13038E-07 2.86542E-19-1.98206E-18
 -1      1177 1.12327E-04-3.35946E-05-3.33347E-05-7.90550E-07-8.75091E-20-3.59915E-18
 -1      1178 1.00302E-04-3.00678E-05-3.01069E-05-1.00490E-06 1.43464E-19-2.97086E-18
 -1      1179 8.83661E-05-2.66118E-05-2.70298E-05-8.13337E-07-2.34840E-19-3.60063E-18
 -1      1180 8.14804E-05-2.46270E-05-2.52687E-05-1.94846E-07-2.63507E-20-6.69720E-18
 -1      1181 8.26555E-05-2.49459E-05-2.54892E-05 5.20032E-07-1.35393E-20-7.79805E-18
 -1      1182 9.05895E-05-2.72071E-05-2.74022E-05 9.10368E-07 2.79829E-19-4.86207E-18
 -1      1183 1.00705E-04-3.01367E-05-2.99673E-05 8.39511E-07-2.40240E-19-5.80768E-18
 -1      1184 1.08407E-04-3.24062E-05-3.20468E-05 4.86274E-07 3.33698E-19-2.21944E-18
 -1      1185 1.11427E-04-3.33241E-05-3.29740E-05 1.00894E-07 1.91701E-19 1.15027E-18
 -1      1186 1.09959E-04-3.29230E-05-3.26969E-05-1.70126E-07-1.03735E-19 2.95350E-19
 -1      1187 1.05593E-04-3.16590E-05-3.15938E-05-2.94590E-07 1.51935E-19-8.03490E-19
 -1      1188 1.00351E-04-3.01289E-05-3.02149E-05-2.72254E-07 9.49656E-19 1.96324E-18
 -1      1189 9.63091E-05-2.89882E-05-2.90818E-05-7.41662E-08-6.51259E-19 1.37636E-18
 -1      1190 9.49303E-05-2.84566E-05-2.83945E-05 1.15999E-07 8.45676E-20-1.61866E-19
 -1      1191 1.31058E-04-3.77394E-05-3.86599E-05 1.21748E-05-7.04361E-20 3.07219E-18
 -1      1192 9.65603E-05-2.81898E-05-3.13308E-05 8.01477E-07-4.46016E-20 4.00234E-18
 -1      1193 9.03744E-05-2.69294E-05-2.78742E-05 1.20172E-07-3.09696E-21 4.33322E-18
 -1      1194 8.83345E-05-2.64993E-05-2.66797E-05 9.01482E-09-3.15586E-20 4.92788E-18
 -1      1195 8.79281E-05-2.64073E-05-2.64135E-05-2.52731E-08-1.57313E-20 4.96573E-18
 -1      1196 8.82665E-05-2.65034E-05-2.64864E-05-3.42990E-08-1.69919E-20 4.78955E-18
 -1      1197 8.89410E-05-2.66975E-05-2.66827E-05-3.54737E-08-1.05345E-19 5.53438E-18
 -1      1198 8.97470E-05-2.69337E-05-2.69212E-05-3.37345E-08-6.29216E-21 6.25423E-18
 -1      1199 9.05721E-05-2.71777E-05-2.71662E-05-3.06405E-08 4.37944E-20 5.93237E-18
 -1      1200 9.13534E-05-2.74100E-05-2.73990E-05-2.68929E-08 1.41394E-19 5.39224E-18
 -1      1201 9.20575E-05-2.76198E-05-2.76096E-05-2.29026E-08 4.29437E-20 5.36976E-18
 -1      1202 9.26700E-05-2.78026E-05-2.77933E-05-1.89237E-08 6.40822E-21 6.20544E-18
 -1      1203 9.31886E-05-2.79577E-05-2.79495E-05-1.51052E-08 3.26716E-21 7.18702E-18
 -1      1204 9.36193E-05-2.80866E-05-2.80795E-05-1.15210E-08-1.18263E-19 6.70610E-18
 -1      1205 9.39730E-05-2.81927E-05-2.81868E-05-8.19080E-09 5.99764E-20 5.68764E-18
 -1      1206 9.42647E-05-2.82803E-05-2.82756E-05-5.09829E-09-5.10273E-20 5.26812E-18
 -1      1207 9.45115E-05-2.83547E-05-2.83511E-05-2.20606E-09-1.32757E-19 5.25945E-18
 -1      1208 9.47332E-05-2.84217E-05-2.84193E-05 5.29910E-10-1.46974E-20 6.14448E-18
 -1      1209 9.49521E-05-2.84881E-05-2.84870E-05 3.14550E-09 1.63675E-19 4.42796E-18
 -1      1210 9.51933E-05-2.85614E-05-2.85617E-05 5.65176E-09 2.19170E-19 3.31486E-18
 -1      1211 9.54856E-05-2.86502E-05-2.86522E-05 8.01411E-09-1.59640E-19 4.38518E-18
 -1      1212 9.58619E-05-2.87643E-05-2.87684E-05 1.01255E-08-1.14812E-19 6.43869E-18
 -1      1213 9.63601E-05-2.89152E-05-2.89218E-05 1.17702E-08 1.93783E-19 4.36249E-18
 -1      1214 9.70228E-05-2.91154E-05-2.91252E-05 1.25768E-08 6.92172E-20 2.47672E-18
 -1      1215 9.78962E-05-2.93786E-05-2.93922E-05 1.19576E-08-2.01188E-19 3.78879E-18
 -1      1216 9.90273E-05-2.97185E-05-2.97365E-05 9.04331E-09-3.33425E-19 8.14227E-18
 -1      1217 1.00458E-04-3.01471E-05-3.01699E-05 2.63081E-09 9.87815E-20 8.02656E-18
 -1      1218 1.02213E-04-3.06714E-05-3.06983E-05-8.79873E-09-7.76102E-20 6.23884E-18
 -1      1219 1.04286E-04-3.12878E-05-3.13165E-05-2.68759E-08-4.07386E-22 5.62339E-18
 -1      1220 1.06605E-04-3.19746E-05-3.19998E-05-5.27379E-08-2.05641E-20 4.91590E-18
 -1      1221 1.09004E-04-3.26812E-05-3.26926E-05-8.57060E-08 2.84676E-19 3.74792E-18
 -1      1222 1.11174E-04-3.33160E-05-3.32975E-05-1.20980E-07-4.16353E-20 4.23543E-18
 -1      1223 1.12633E-04-3.37384E-05-3.36689E-05-1.46634E-07-2.72553E-19 7.25364E-18
 -1      1224 1.12738E-04-3.37630E-05-3.36240E-05-1.41781E-07 2.11924E-20 7.19891E-18
 -1      1225 1.10803E-04-3.31933E-05-3.29841E-05-8.04336E-08-1.11841E-19 7.44558E-18
 -1      1226 1.06373E-04-3.18974E-05-3.16559E-05 5.32056E-08-4.45546E-19 6.45153E-18
 -1      1227 9.96297E-05-2.99211E-05-2.97337E-05 2.39518E-07 2.83882E-19 4.87118E-18
 -1      1228 9.17337E-05-2.75882E-05-2.75633E-05 4.09183E-07-8.44601E-20 5.95771E-18
 -1      1229 8.47304E-05-2.54860E-05-2.56898E-05 4.65409E-07-1.40654E-20 8.63899E-18
 -1      1230 8.08076E-05-2.42667E-05-2.46531E-05 3.49145E-07-3.56958E-19 7.72757E-18
 -1      1231 8.11457E-05-2.43167E-05-2.47242E-05 9.96537E-08-4.18160E-19 7.19155E-18
 -1      1232 8.51847E-05-2.55033E-05-2.57571E-05-1.63305E-07 2.12139E-20 6.49484E-18
 -1      1233 9.09659E-05-2.72468E-05-2.72705E-05-3.25954E-07-1.28512E-19 6.53242E-18
 -1      1234 9.62347E-05-2.88543E-05-2.86932E-05-3.45947E-07-2.41540E-19 4.88802E-18
 -1      1235 9.94659E-05-2.98495E-05-2.96110E-05-2.55240E-07-8.87201E-20 1.97478E-18
 -1      1236 1.00250E-04-3.01024E-05-2.98883E-05-1.15494E-07 6.33574E-19-1.54149E-18
 -1      1237 9.91087E-05-2.97694E-05-2.96454E-05 1.80673E-08-2.84220E-19-2.49856E-18
 -1      1238 9.71010E-05-2.91685E-05-2.91568E-05 1.00991E-07 1.36778E-19-2.25243E-18
 -1      1239 9.54547E-05-2.86647E-05-2.87133E-05 7.70450E-08 4.99157E-19-4.18093E-18
 -1      1240 9.50496E-05-2.85108E-05-2.84322E-05-6.26097E-08-3.48875E-19-3.44698E-18
 -1      1241 9.52991E-05-2.87594E-05-2.84481E-05-6.47306E-08-3.06021E-18 1.45812E-19
 -1      1242 9.51220E-05-2.83344E-05-2.87647E-05-5.06933E-08 2.41901E-19 1.33504E-19
 -1      1243 9.45165E-05-2.63472E-05-2.94080E-05 7.05822E-08 6.89318E-18-6.40370E-20
 -1      1244 9.33946E-05-2.26174E-05-3.05292E-05 1.72990E-07 7.61665E-18-4.01977E-20
 -1      1245 9.17750E-05-1.71732E-05-3.21301E-05 2.77350E-07 9.68111E-18-7.94854E-20
 -1      1246 8.97771E-05-1.04147E-05-3.40741E-05 3.61983E-07-1.17611E-18-1.19499E-18
 -1      1247 8.76492E-05-3.15109E-06-3.61230E-05 3.87681E-07-7.22461E-18-1.90733E-19
 -1      1248 8.57584E-05 3.33508E-06-3.79193E-05 3.16835E-07-8.57859E-18 2.07669E-19
 -1      1249 8.45632E-05 7.45326E-06-3.90435E-05 1.49085E-07-6.55146E-18 2.68443E-19
 -1      1250 8.43849E-05 8.07470E-06-3.92052E-05-7.16075E-08-6.74339E-18-8.42732E-20
 -1      1251 8.52914E-05 4.95389E-06-3.83409E-05-2.73884E-07-4.84410E-18-6.87844E-19
 -1      1252 8.70646E-05-1.10904E-06-3.66585E-05-3.99165E-07-1.32985E-17-1.13231E-18
 -1      1253 8.93012E-05-8.75916E-06-3.45108E-05-4.25488E-07-1.40044E-17 5.26855E-19
 -1      1254 9.16023E-05-1.65698E-05-3.23003E-05-3.76901E-07-4.29012E-18 6.89166E-19
 -1      1255 9.35835E-05-2.32528E-05-3.04168E-05-3.17378E-07 1.19805E-18 4.68184E-21
 -1      1256 9.47250E-05-2.73560E-05-2.91392E-05 2.25961E-08-2.31955E-19-8.51659E-19
 -1      1257 9.53656E-05-2.88647E-05-2.84085E-05 8.51461E-08-2.80255E-19 2.46755E-19
 -1      1258 3.64192E-05-1.16812E-04 2.00917E-05-1.60487E-05 7.86047E-18 2.17105E-19
 -1      1259 1.71415E-05-6.56978E-05 9.54562E-06-2.49696E-05-4.44946E-18-2.16248E-18
 -1      1260 1.01294E-05-4.08572E-06-8.37872E-06 5.98920E-06-7.62330E-18-4.80776E-18
 -1      1261 4.79389E-05 2.49720E-05-3.04709E-05 6.53483E-05-6.77796E-18-6.61025E-18
 -1      1262 1.33942E-04 4.69876E-06-5.23394E-05 1.12258E-04-4.86536E-18-7.70631E-18
 -1      1263 2.35955E-04-4.60063E-05-6.89519E-05 1.06356E-04-4.62861E-18-1.40921E-17
 -1      1264 3.05033E-04-8.70781E-05-7.85219E-05 4.56956E-05-1.77258E-18-1.91239E-17
 -1      1265 3.10437E-04-9.18042E-05-7.86514E-05-3.72229E-05 1.20766E-18-1.59725E-17
 -1      1266 2.40994E-04-5.11979E-05-6.95197E-05-9.95528E-05 4.71416E-18-1.40277E-17
 -1      1267 1.39552E-04 8.03917E-07-5.31208E-05-1.10290E-04 6.08085E-18-1.11182E-17
 -1      1268 5.40207E-05 2.51391E-05-3.29978E-05-7.17714E-05 4.58753E-18-5.28549E-18
 -1      1269 1.20894E-05 3.11568E-06-1.14999E-05-1.45541E-05 2.99341E-18-2.52246E-18
 -1      1270 1.35220E-05-5.26620E-05 6.85564E-06 2.25873E-05 2.81723E-18-1.32730E-18
 -1      1271 3.26098E-05-1.05136E-04 1.79497E-05 1.93689E-05-1.36288E-18-1.02311E-18
 -1      1272 3.67988E-05-1.15983E-04 2.02412E-05-9.16381E-06-5.11333E-18-2.94926E-19
 -1      1273 2.17726E-05-8.03138E-05 1.31610E-05-2.76558E-05-3.99884E-18-1.17314E-18
 -1      1274 7.45342E-06-2.29198E-05-1.37688E-06-1.15967E-05-7.55215E-18-4.45878E-18
 -1      1275 2.80718E-05 1.80986E-05-2.18201E-05 4.06877E-05-6.24263E-18-5.43118E-18
 -1      1276 1.02333E-04 1.26768E-05-4.48079E-05 9.52512E-05-3.93193E-18-5.33970E-18
 -1      1277 2.04886E-04-3.16828E-05-6.39426E-05 1.09939E-04-1.65891E-18-3.24583E-18
 -1      1278 2.92533E-04-8.08775E-05-7.64361E-05 6.72821E-05-5.52265E-19-1.16891E-19
 -1      1279 3.21742E-04-9.76740E-05-8.03187E-05-1.48675E-05-2.07364E-19-2.52839E-19
 -1      1280 2.72135E-04-6.63935E-05-7.42908E-05-9.06891E-05-1.26970E-18 2.29292E-18
 -1      1281 1.73426E-04-1.23578E-05-5.97150E-05-1.18048E-04-1.17907E-18 2.68001E-18
 -1      1282 7.79852E-05 2.40078E-05-4.03803E-05-9.03311E-05 4.59007E-18-4.41304E-18
 -1      1283 2.01589E-05 1.73552E-05-1.89268E-05-3.33538E-05 1.01068E-17-8.46186E-18
 -1      1284 7.99431E-06-2.75439E-05 7.50395E-09 1.43202E-05 1.11029E-17-5.27278E-18
 -1      1285 2.25985E-05-8.24716E-05 1.34279E-05 2.88770E-05 8.73630E-18-3.77353E-18
 -1      1286 3.87913E-05-1.21299E-04 2.07346E-05 1.33959E-05 9.20810E-18-2.49345E-19
 -1      1287 1.04445E-04-2.20198E-05-3.78927E-05-1.72759E-05-1.46113E-19-3.69815E-18
 -1      1288 9.03190E-05-6.68095E-06-3.60170E-05-2.04732E-05 5.01867E-20-2.83888E-18
 -1      1289 9.26559E-05-6.73973E-06-3.72222E-05-2.57612E-05-7.30566E-20-3.20237E-18
 -1      1290 8.59039E-05-4.09665E-06-3.51296E-05-1.64353E-05 2.49504E-19-2.21078E-18
 -1      1291 8.71556E-05-4.08926E-06-3.55990E-05-1.88558E-05 2.34787E-19-2.54213E-18
 -1      1292 9.21330E-05-1.04626E-05-3.50932E-05-1.90372E-05 2.05405E-19-2.46667E-18
 -1      1293 8.40948E-05-3.19046E-06-3.46863E-05-1.28178E-05 3.77565E-19-1.61447E-18
 -1      1294 8.47072E-05-3.16121E-06-3.49108E-05-1.46328E-05 3.74865E-19-1.91879E-18
 -1      1295 8.78661E-05-7.39542E-06-3.45733E-05-1.54138E-05 4.58642E-19-1.89447E-18
 -1      1296 8.31831E-05-2.72718E-06-3.44695E-05-9.68885E-06 4.68958E-19-1.18325E-18
 -1      1297 8.34961E-05-2.70876E-06-3.45788E-05-1.12359E-05 4.77647E-19-1.42071E-18
 -1      1298 8.58648E-05-5.98203E-06-3.43047E-05-1.19567E-05 6.74629E-19-1.39361E-18
 -1      1299 8.26928E-05-2.45772E-06-3.43631E-05-6.91682E-06 5.12878E-19-8.38854E-19
 -1      1300 8.28618E-05-2.44928E-06-3.44175E-05-8.28818E-06 5.04818E-19-1.00571E-18
 -1      1301 8.48192E-05-5.21692E-06-3.41721E-05-8.94709E-06 7.48979E-19-1.01861E-18
 -1      1302 8.24174E-05-2.29214E-06-3.43104E-05-4.29589E-06 4.82888E-19-5.20449E-19
 -1      1303 8.25086E-05-2.28824E-06-3.43376E-05-5.59746E-06 5.09060E-19-7.17688E-19
 -1      1304 8.42344E-05-4.76234E-06-3.41088E-05-6.21809E-06 8.17987E-19-7.49359E-19
 -1      1305 8.22848E-05-2.20265E-06-3.42881E-05-1.79033E-06 4.96132E-19-1.77162E-19
 -1      1306 8.23238E-05-2.20110E-06-3.42991E-05-3.04170E-06 4.75263E-19-3.48448E-19
 -1      1307 8.39117E-05-4.49843E-06-3.40799E-05-3.64545E-06 7.70421E-19-3.92851E-19
 -1      1308 8.22587E-05-2.17513E-06-3.42854E-05 6.70107E-07 5.25773E-19 1.12351E-19
 -1      1309 8.22574E-05-2.17518E-06-3.42850E-05-5.66101E-07 5.26306E-19-4.33310E-20
 -1      1310 8.37703E-05-4.37876E-06-3.40691E-05-1.17076E-06 8.36000E-19-1.07454E-19
 -1      1311 8.23323E-05-2.20537E-06-3.43006E-05 3.14934E-06 5.33424E-19 3.33135E-19
 -1      1312 8.22905E-05-2.20701E-06-3.42888E-05 1.89538E-06 5.31837E-19 2.05564E-19
 -1      1313 8.37751E-05-4.38297E-06-3.40694E-05 1.27417E-06 8.56803E-19 1.65052E-19
 -1      1314 8.25254E-05-2.29834E-06-3.43402E-05 5.71419E-06 4.87527E-19 6.25600E-19
 -1      1315 8.24309E-05-2.30171E-06-3.43123E-05 4.40676E-06 4.97784E-19 4.44070E-19
 -1      1316 8.39270E-05-4.51184E-06-3.40810E-05 3.75321E-06 8.45408E-19 3.49758E-19
 -1      1317 8.28849E-05-2.46397E-06-3.44205E-05 8.39630E-06 4.39557E-19 1.01898E-18
 -1      1318 8.27121E-05-2.47266E-06-3.43655E-05 7.01637E-06 4.50043E-19 7.96820E-19
 -1      1319 8.42594E-05-4.78480E-06-3.41101E-05 6.31222E-06 7.53970E-19 6.83794E-19
 -1      1320 8.35430E-05-2.74119E-06-3.45840E-05 1.13968E-05 4.28810E-19 1.47048E-18
 -1      1321 8.32216E-05-2.75829E-06-3.44732E-05 9.83173E-06 4.22888E-19 1.23006E-18
 -1      1322 8.48621E-05-5.25783E-06-3.41732E-05 9.05561E-06 6.88807E-19 1.06292E-18
 -1      1323 8.47641E-05-3.20327E-06-3.49187E-05 1.48455E-05 3.66183E-19 1.95148E-18
 -1      1324 8.41517E-05-3.24001E-06-3.46919E-05 1.30052E-05 3.65177E-19 1.66746E-18
 -1      1325 8.59452E-05-6.06277E-06-3.43060E-05 1.21243E-05 6.19115E-19 1.45780E-18
 -1      1326 8.72549E-05-4.09030E-06-3.56206E-05 1.90928E-05 2.00217E-19 2.52823E-18
 -1      1327 8.59713E-05-4.15417E-06-3.51372E-05 1.66948E-05 2.50245E-19 2.19768E-18
 -1      1328 8.79903E-05-7.51707E-06-3.45754E-05 1.56521E-05 4.71493E-19 1.93174E-18
 -1      1329 9.34690E-05-6.79248E-06-3.71177E-05 2.50976E-05-2.13876E-20 3.07859E-18
 -1      1330 9.01346E-05-6.43798E-06-3.60397E-05 2.11503E-05 3.74812E-20 2.78017E-18
 -1      1331 9.23631E-05-1.06982E-05-3.50785E-05 1.96779E-05 1.57072E-19 2.39049E-18
 -1      1332 1.23631E-04-2.49246E-05-3.90163E-05 2.83676E-05-1.93759E-19 3.08405E-18
 -1      1333 1.00085E-04-1.44247E-05-3.73554E-05 2.40514E-05-1.03020E-19 3.20951E-18
 -1      1334 1.01683E-04-1.93432E-05-3.54035E-05 2.13997E-05-1.38662E-19 2.82570E-18
 -1      1335 1.02609E-04-2.78066E-05-3.47593E-05 7.32943E-06-2.47969E-19 3.35467E-18
 -1      1336 1.05152E-04-3.02319E-05-3.35267E-05-7.96001E-06-1.30443E-19-3.43366E-18
 -1      1337 9.82654E-05-2.78443E-05-3.07634E-05-4.98876E-06-5.84982E-20-3.61233E-18
 -1      1338 9.55071E-05-2.78504E-05-2.92558E-05-2.48964E-06-1.11967E-20-3.53516E-18
 -1      1339 9.32750E-05-2.75596E-05-2.82165E-05-2.04288E-06-3.56019E-20-3.67213E-18
 -1      1340 9.94885E-05-2.80528E-05-3.09839E-05-7.88731E-06-4.64809E-20-2.76739E-18
 -1      1341 9.15856E-05-2.72020E-05-2.75821E-05-8.38403E-07-1.29484E-19-3.60783E-18
 -1      1342 9.08686E-05-2.71066E-05-2.72798E-05-7.28509E-07-7.68219E-20-3.80167E-18
 -1      1343 9.47220E-05-2.77717E-05-2.88174E-05-3.12059E-06-1.29173E-19-2.61859E-18
 -1      1344 9.01179E-05-2.69233E-05-2.70366E-05-1.74967E-07 4.10414E-20-3.81628E-18
 -1      1345 9.00445E-05-2.69497E-05-2.70016E-05-1.16730E-07 4.93926E-20-3.77699E-18
 -1      1346 9.25225E-05-2.75003E-05-2.78965E-05-1.05467E-06-2.68007E-20-2.60100E-18
 -1      1347 8.97847E-05-2.68822E-05-2.69272E-05 1.53722E-07 4.44907E-20-3.76220E-18
 -1      1348 8.99986E-05-2.69722E-05-2.69886E-05 1.82375E-07 3.17555E-20-3.72173E-18
 -1      1349 9.15628E-05-2.73565E-05-2.75295E-05-7.15733E-08 3.70775E-20-2.56112E-18
 -1      1350 9.00019E-05-2.69753E-05-2.69949E-05 3.13155E-07-6.88859E-20-3.71453E-18
 -1      1351 9.03432E-05-2.70947E-05-2.70936E-05 3.24755E-07-1.02421E-19-3.83597E-18
 -1      1352 9.13088E-05-2.73444E-05-2.74212E-05 4.15532E-07-9.04241E-20-2.46035E-18
 -1      1353 9.04843E-05-2.71362E-05-2.71406E-05 3.78842E-07-2.82681E-20-3.86837E-18
 -1      1354 9.08704E-05-2.72639E-05-2.72521E-05 3.80408E-07 4.18636E-20-3.96476E-18
 -1      1355 9.14404E-05-2.74179E-05-2.74429E-05 6.42762E-07-1.12280E-19-2.37862E-18
 -1      1356 9.10774E-05-2.73239E-05-2.73182E-05 3.90537E-07 3.48533E-21-3.98498E-18
 -1      1357 9.14625E-05-2.74478E-05-2.74297E-05 3.86241E-07-9.10979E-20-4.08561E-18
 -1      1358 9.17710E-05-2.75361E-05-2.75312E-05 7.24137E-07-6.48241E-20-2.59674E-18
 -1      1359 9.16925E-05-2.75142E-05-2.75023E-05 3.71276E-07-1.69946E-19-3.96752E-18
 -1      1360 9.20513E-05-2.76277E-05-2.76067E-05 3.63793E-07-2.11581E-19-4.18200E-18
 -1      1361 9.21903E-05-2.76725E-05-2.76505E-05 7.21504E-07-1.29301E-19-2.50801E-18
 -1      1362 9.22791E-05-2.76932E-05-2.76782E-05 3.35464E-07-1.80031E-19-4.14713E-18
 -1      1363 9.25989E-05-2.77930E-05-2.77716E-05 3.26571E-07 1.05951E-19-4.22280E-18
 -1      1364 9.26320E-05-2.78101E-05-2.77796E-05 6.71792E-07-2.68955E-19-2.11667E-18
 -1      1365 9.28105E-05-2.78537E-05-2.78378E-05 2.92463E-07 2.76769E-19-4.63908E-18
 -1      1366 9.30863E-05-2.79390E-05-2.79187E-05 2.83342E-07 1.02395E-19-4.52199E-18
 -1      1367 9.30573E-05-2.79394E-05-2.79058E-05 5.98420E-07 4.39529E-20-2.58353E-18
 -1      1368 9.32751E-05-2.79930E-05-2.79777E-05 2.48437E-07-2.18392E-20-4.64245E-18
 -1      1369 9.35073E-05-2.80641E-05-2.80460E-05 2.39867E-07-1.58731E-19-4.82828E-18
 -1      1370 9.34458E-05-2.80553E-05-2.80224E-05 5.16664E-07-1.04022E-19-3.48058E-18
 -1      1371 9.36715E-05-2.81109E-05-2.80972E-05 2.07466E-07 1.15849E-20-4.62659E-18
 -1      1372 9.38638E-05-2.81693E-05-2.81540E-05 1.99964E-07 1.95901E-20-4.36422E-18
 -1      1373 9.37889E-05-2.81562E-05-2.81262E-05 4.36619E-07-9.55559E-21-3.00913E-18
 -1      1374 9.40050E-05-2.82095E-05-2.81980E-05 1.72295E-07 2.28114E-19-4.28047E-18
 -1      1375 9.41637E-05-2.82570E-05-2.82451E-05 1.66209E-07 1.05614E-19-3.78756E-18
 -1      1376 9.40861E-05-2.82423E-05-2.82170E-05 3.65036E-07 2.35384E-19-2.44081E-18
 -1      1377 9.42858E-05-2.82917E-05-2.82831E-05 1.44863E-07-1.62200E-19-3.62928E-18
 -1      1378 9.44184E-05-2.83310E-05-2.83226E-05 1.40457E-07-1.46651E-19-3.64354E-18
 -1      1379 9.43428E-05-2.83155E-05-2.82960E-05 3.06583E-07 1.26459E-19-2.07362E-18
 -1      1380 9.45271E-05-2.83618E-05-2.83565E-05 1.26714E-07 2.79537E-20-3.72945E-18
 -1      1381 9.46427E-05-2.83956E-05-2.83911E-05 1.24224E-07-3.94361E-20-3.68678E-18
 -1      1382 9.45681E-05-2.83788E-05-2.83660E-05 2.64768E-07-5.97758E-20-2.12088E-18
 -1      1383 9.47453E-05-2.84245E-05-2.84230E-05 1.19309E-07-2.14609E-19-3.85128E-18
 -1      1384 9.48542E-05-2.84560E-05-2.84557E-05 1.18994E-07-2.29520E-19-4.27933E-18
 -1      1385 9.47747E-05-2.84359E-05-2.84307E-05 2.42641E-07-2.36015E-19-2.46384E-18
 -1      1386 9.49593E-05-2.84856E-05-2.84884E-05 1.24280E-07-1.92304E-19-4.43974E-18
 -1      1387 9.50734E-05-2.85182E-05-2.85228E-05 1.26465E-07-3.90646E-19-4.88151E-18
 -1      1388 9.49779E-05-2.84913E-05-2.84948E-05 2.43352E-07-5.10360E-19-2.64019E-18
 -1      1389 9.51911E-05-2.85514E-05-2.85594E-05 1.43642E-07-4.11737E-20-4.76537E-18
 -1      1390 9.53241E-05-2.85894E-05-2.85995E-05 1.48749E-07-9.22925E-20-4.83601E-18
 -1      1391 9.51960E-05-2.85502E-05-2.85638E-05 2.70598E-07-3.84659E-19-2.96514E-18
 -1      1392 9.54665E-05-2.86295E-05-2.86438E-05 1.79955E-07 1.66857E-19-4.57496E-18
 -1      1393 9.56347E-05-2.86778E-05-2.86944E-05 1.88536E-07-2.36036E-20-4.56265E-18
 -1      1394 9.54505E-05-2.86190E-05-2.86445E-05 3.28979E-07 7.82496E-20-2.77771E-18
 -1      1395 9.58158E-05-2.87289E-05-2.87509E-05 2.36448E-07 1.32363E-19-4.37451E-18
 -1      1396 9.60386E-05-2.87934E-05-2.88177E-05 2.49201E-07 3.60276E-19-4.04834E-18
 -1      1397 9.57670E-05-2.87048E-05-2.87445E-05 4.24269E-07 4.62191E-19-3.42286E-18
 -1      1398 9.62753E-05-2.88601E-05-2.88915E-05 3.17074E-07-1.33714E-20-3.59278E-18
 -1      1399 9.65759E-05-2.89478E-05-2.89815E-05 3.34854E-07-1.86968E-19-3.86408E-18
 -1      1400 9.61754E-05-2.88163E-05-2.88732E-05 5.63567E-07 1.24937E-19-2.89640E-18
 -1      1401 9.68876E-05-2.90358E-05-2.90787E-05 4.26456E-07 3.69369E-20-3.62165E-18
 -1      1402 9.72939E-05-2.91553E-05-2.92000E-05 4.50257E-07 4.56883E-19-3.37197E-18
 -1      1403 9.67111E-05-2.89638E-05-2.90413E-05 7.55271E-07-3.61767E-20-2.45394E-18
 -1      1404 9.77033E-05-2.92710E-05-2.93277E-05 5.69619E-07 6.45305E-19-2.97422E-18
 -1      1405 9.82481E-05-2.94324E-05-2.94900E-05 6.00508E-07 3.86980E-19-2.07130E-18
 -1      1406 9.74150E-05-2.91594E-05-2.92611E-05 1.00870E-06 8.56433E-19-1.64737E-18
 -1      1407 9.87805E-05-2.95832E-05-2.96562E-05 7.51319E-07-1.88576E-19-2.00704E-18
 -1      1408 9.95010E-05-2.97982E-05-2.98703E-05 7.90275E-07-2.14669E-19-2.41030E-18
 -1      1409 9.83338E-05-2.94170E-05-2.95467E-05 1.33309E-06 2.09768E-19-1.80693E-18
 -1      1410 1.00183E-04-2.99921E-05-3.00832E-05 9.74639E-07-2.78876E-20-2.59820E-18
 -1      1411 1.01120E-04-3.02738E-05-3.03608E-05 1.02220E-06 1.26666E-19-2.87059E-18
 -1      1412 9.95185E-05-2.97527E-05-2.99130E-05 1.73542E-06-4.03373E-19-1.14373E-18
 -1      1413 1.01978E-04-3.05187E-05-3.06282E-05 1.23825E-06 7.47788E-20-3.08477E-18
 -1      1414 1.03169E-04-3.08803E-05-3.09802E-05 1.29384E-06-1.27376E-19-3.02524E-18
 -1      1415 1.01021E-04-3.01842E-05-3.03743E-05 2.21620E-06-6.95990E-21-1.45808E-18
 -1      1416 1.04222E-04-3.11834E-05-3.13075E-05 1.53150E-06 3.83264E-19-2.82237E-18
 -1      1417 1.05694E-04-3.16355E-05-3.17407E-05 1.59214E-06 2.40987E-19-2.68822E-18
 -1      1418 1.02886E-04-3.07298E-05-3.09420E-05 2.76166E-06 2.93006E-19-1.84437E-18
 -1      1419 1.06946E-04-3.20007E-05-3.21275E-05 1.82606E-06 5.76346E-20-2.23314E-18
 -1      1420 1.08694E-04-3.25463E-05-3.26390E-05 1.88423E-06 1.11997E-19-2.13086E-18
 -1      1421 1.05141E-04-3.14065E-05-3.16192E-05 3.33064E-06 3.29979E-19-1.57835E-18
 -1      1422 1.10118E-04-3.29712E-05-3.30739E-05 2.06340E-06-4.04464E-19-2.18778E-18
 -1      1423 1.12076E-04-3.35957E-05-3.36411E-05 2.10369E-06-6.44169E-19-2.83986E-18
 -1      1424 1.07771E-04-3.22253E-05-3.23932E-05 3.83400E-06-1.62069E-19-1.78400E-18
 -1      1425 1.13594E-04-3.40661E-05-3.40941E-05 2.13895E-06-1.94964E-19-2.73016E-18
 -1      1426 1.15582E-04-3.47221E-05-3.46610E-05 2.13397E-06 4.57108E-20-2.81543E-18
 -1      1427 1.10684E-04-3.31830E-05-3.32237E-05 4.10752E-06-8.01811E-19-1.44436E-18
 -1      1428 1.17035E-04-3.52029E-05-3.50750E-05 1.89050E-06 2.58514E-19-2.59473E-18
 -1      1429 1.18709E-04-3.57885E-05-3.55377E-05 1.79854E-06-1.16924E-19-2.55316E-18
 -1      1430 1.13666E-04-3.42448E-05-3.40299E-05 3.88698E-06 1.45822E-19-6.53512E-19
 -1      1431 1.19834E-04-3.62116E-05-3.58243E-05 1.11153E-06-1.00261E-19-2.26751E-18
 -1      1432 1.20647E-04-3.65502E-05-3.60257E-05 8.82693E-07 2.01898E-20-2.64164E-18
 -1      1433 1.16321E-04-3.53130E-05-3.46811E-05 2.81416E-06 1.65132E-19-1.04890E-18
 -1      1434 1.21077E-04-3.68000E-05-3.60744E-05-3.70262E-07 4.73452E-19-1.55458E-18
 -1      1435 1.20344E-04-3.66434E-05-3.58311E-05-7.66272E-07 1.00459E-18-7.67941E-19
 -1      1436 1.18039E-04-3.61783E-05-3.50048E-05 5.33301E-07 7.18337E-19 5.18133E-19
 -1      1437 1.19674E-04-3.65534E-05-3.55460E-05-2.50497E-06-1.18664E-19-1.03113E-18
 -1      1438 1.16829E-04-3.56545E-05-3.47305E-05-3.01820E-06-7.97614E-19-1.15837E-18
 -1      1439 1.18030E-04-3.64740E-05-3.48317E-05-3.04101E-06 4.62202E-19 1.08582E-18
 -1      1440 1.14807E-04-3.50563E-05-3.40962E-05-4.75515E-06-2.59854E-19-1.60158E-18
 -1      1441 1.09904E-04-3.33568E-05-3.27632E-05-5.18942E-06-3.16909E-20-1.60756E-18
 -1      1442 1.15561E-04-3.57174E-05-3.40834E-05-7.27926E-06-8.93037E-19 7.80991E-20
 -1      1443 1.06757E-04-3.22365E-05-3.19054E-05-6.01139E-06 1.54889E-19-2.24469E-18
 -1      1444 1.00943E-04-3.01050E-05-3.03852E-05-6.05622E-06-1.58630E-19-1.87030E-18
 -1      1445 1.10494E-04-3.36134E-05-3.28720E-05-1.05086E-05-1.26029E-19-1.18532E-19
 -1      1446 9.76427E-05-2.88105E-05-2.95671E-05-5.11190E-06-1.11329E-18-1.92827E-18
 -1      1447 9.30399E-05-2.70728E-05-2.83891E-05-4.57773E-06-8.14780E-19-3.32323E-18
 -1      1448 1.03973E-04-3.05664E-05-3.15236E-05-1.05005E-05-1.29055E-18-1.95718E-18
 -1      1449 9.10182E-05-2.62633E-05-2.78996E-05-1.93935E-06-9.41543E-19-4.07359E-18
 -1      1450 8.96151E-05-2.57611E-05-2.75266E-05-1.03139E-06-1.51815E-18-5.79991E-18
 -1      1451 9.85106E-05-2.79118E-05-3.04694E-05-6.15628E-06-1.78292E-18-2.23000E-18
 -1      1452 8.98048E-05-2.59130E-05-2.75268E-05 1.97983E-06-6.08633E-19-4.97433E-18
 -1      1453 9.20369E-05-2.68390E-05-2.80527E-05 2.72508E-06-2.89341E-19-5.17791E-18
 -1      1454 9.66567E-05-2.71323E-05-3.00421E-05 8.38210E-07-9.05584E-19-2.89465E-18
 -1      1455 9.40362E-05-2.77447E-05-2.84724E-05 4.47464E-06 3.39475E-19-5.26060E-18
 -1      1456 9.84229E-05-2.94599E-05-2.95624E-05 4.66891E-06 3.09955E-19-5.33604E-18
 -1      1457 9.90019E-05-2.85952E-05-3.03104E-05 6.69208E-06-3.05964E-19-3.26290E-18
 -1      1458 1.00865E-04-3.04536E-05-3.01501E-05 4.51360E-06 2.17145E-19-4.63936E-18
 -1      1459 1.05148E-04-3.20389E-05-3.12605E-05 4.20127E-06 7.96687E-19-3.70450E-18
 -1      1460 1.03613E-04-3.11319E-05-3.10347E-05 8.53038E-06 1.16102E-18-3.85379E-18
 -1      1461 1.06787E-04-3.26085E-05-3.17246E-05 2.70585E-06 1.65791E-18-1.21094E-18
 -1      1462 1.09319E-04-3.34736E-05-3.24165E-05 2.18265E-06 1.70289E-18-1.50719E-19
 -1      1463 1.07719E-04-3.32116E-05-3.18079E-05 6.38169E-06 2.92690E-18-8.56628E-19
 -1      1464 1.09627E-04-3.34931E-05-3.25683E-05 3.46913E-07 1.11888E-18 5.07690E-20
 -1      1465 1.09943E-04-3.35389E-05-3.26793E-05-1.17692E-07 6.19856E-19 1.28188E-18
 -1      1466 1.09526E-04-3.39862E-05-3.22403E-05 2.27179E-06 2.24523E-18 6.93770E-19
 -1      1467 1.09049E-04-3.31429E-05-3.24951E-05-1.55189E-06 3.73416E-19 1.59372E-18
 -1      1468 1.07600E-04-3.25833E-05-3.21189E-05-1.83460E-06-1.26526E-19 2.31356E-18
 -1      1469 1.08735E-04-3.35119E-05-3.21440E-05-1.67141E-06 1.03586E-18 2.80474E-18
 -1      1470 1.05961E-04-3.19674E-05-3.17012E-05-2.55200E-06-8.57093E-19 1.75720E-18
 -1      1471 1.03609E-04-3.11165E-05-3.10683E-05-2.63109E-06 2.08302E-19 1.21510E-18
 -1      1472 1.06019E-04-3.22573E-05-3.15723E-05-4.22581E-06-1.12218E-18 3.32032E-18
 -1      1473 1.01756E-04-3.04499E-05-3.05755E-05-2.58509E-06 9.26439E-19-1.76818E-19
 -1      1474 9.94493E-05-2.96203E-05-2.99481E-05-2.46660E-06 6.16453E-19 8.51003E-19
 -1      1475 1.02394E-04-3.06912E-05-3.07411E-05-5.00274E-06-2.30898E-19 9.55030E-19
 -1      1476 9.78311E-05-2.90203E-05-2.95238E-05-1.70120E-06-4.16204E-20 4.00408E-19
 -1      1477 9.64174E-05-2.85567E-05-2.90978E-05-1.43884E-06-1.10111E-18-4.75281E-20
 -1      1478 9.88214E-05-2.91382E-05-2.99075E-05-4.05547E-06 3.68941E-19-7.34775E-19
 -1      1479 9.52615E-05-2.83754E-05-2.86906E-05-5.14502E-08-1.02627E-18 8.57884E-19
 -1      1480 9.58547E-05-2.80077E-05-2.91138E-05-1.44073E-06-7.03267E-19 8.48472E-19
 -1      1481 9.65821E-05-2.83651E-05-2.97739E-05 2.99601E-06-1.69936E-20 3.47299E-18
 -1      1482 1.02541E-04-2.94000E-05-3.21574E-05 4.46314E-06-6.70744E-20 3.26785E-18
 -1      1483 1.02330E-04-2.67194E-05-3.27071E-05 1.27837E-05-2.07152E-19 2.76175E-18
 -1      1484 9.20351E-05-2.74306E-05-2.77631E-05 1.15227E-06-1.33328E-19 3.63753E-18
 -1      1485 9.39820E-05-2.75858E-05-2.86773E-05 1.47423E-06-7.03302E-20 3.41837E-18
 -1      1486 9.64909E-05-2.80315E-05-2.95350E-05 4.86822E-06-1.64748E-19 2.78452E-18
 -1      1487 9.02016E-05-2.70056E-05-2.70640E-05 3.32132E-07 7.23287E-21 3.74508E-18
 -1      1488 9.08170E-05-2.70232E-05-2.73367E-05 4.94993E-07-7.71859E-20 3.63758E-18
 -1      1489 9.30456E-05-2.75798E-05-2.80998E-05 1.85243E-06-1.14588E-19 2.64100E-18
 -1      1490 8.96832E-05-2.68871E-05-2.68879E-05-5.46012E-08 1.32342E-19 3.64047E-18
 -1      1491 8.97211E-05-2.68249E-05-2.69163E-05 3.44984E-08 5.14606E-20 3.74217E-18
 -1      1492 9.14915E-05-2.73084E-05-2.75157E-05 5.18668E-07 1.46709E-20 2.57736E-18
 -1      1493 8.98135E-05-2.69391E-05-2.69293E-05-2.41663E-07-1.99978E-19 3.76444E-18
 -1      1494 8.95858E-05-2.68318E-05-2.68644E-05-1.91465E-07-1.17969E-19 3.61016E-18
 -1      1495 9.09586E-05-2.72272E-05-2.73192E-05-1.30869E-07-6.21494E-20 2.60617E-18
 -1      1496 9.02639E-05-2.70808E-05-2.70668E-05-3.24512E-07-2.01387E-19 4.27413E-18
 -1      1497 8.99181E-05-2.69539E-05-2.69657E-05-2.96912E-07-2.35673E-19 3.83363E-18
 -1      1498 9.09744E-05-2.72697E-05-2.73078E-05-4.49127E-07-3.67612E-19 2.68556E-18
 -1      1499 9.08551E-05-2.72621E-05-2.72452E-05-3.48649E-07 7.29759E-20 4.42221E-18
 -1      1500 9.04691E-05-2.71323E-05-2.71322E-05-3.35041E-07-5.01242E-20 4.26468E-18
 -1      1501 9.12765E-05-2.73810E-05-2.73887E-05-5.88702E-07-1.60810E-19 2.67327E-18
 -1      1502 9.14844E-05-2.74531E-05-2.74348E-05-3.39095E-07 2.10596E-19 4.06690E-18
 -1      1503 9.11019E-05-2.73301E-05-2.73225E-05-3.34278E-07 3.24866E-19 4.43617E-18
 -1      1504 9.17141E-05-2.75239E-05-2.75136E-05-6.26470E-07 2.40962E-19 2.85136E-18
 -1      1505 9.20932E-05-2.76366E-05-2.76182E-05-3.11006E-07 1.35939E-19 3.90398E-18
 -1      1506 9.17381E-05-2.75258E-05-2.75137E-05-3.11605E-07 9.74260E-20 4.00422E-18
 -1      1507 9.21981E-05-2.76751E-05-2.76550E-05-6.05903E-07 2.89443E-19 2.76784E-18
 -1      1508 9.26495E-05-2.78035E-05-2.77862E-05-2.74035E-07-3.13056E-19 4.20074E-18
 -1      1509 9.23339E-05-2.77071E-05-2.76930E-05-2.77785E-07-2.00044E-19 3.86279E-18
 -1      1510 9.26763E-05-2.78212E-05-2.77965E-05-5.53624E-07-1.75713E-19 2.70250E-18
 -1      1511 9.31386E-05-2.79496E-05-2.79341E-05-2.34471E-07-9.49324E-20 4.59359E-18
 -1      1512 9.28670E-05-2.78681E-05-2.78536E-05-2.39821E-07-8.46024E-20 4.32575E-18
 -1      1513 9.31199E-05-2.79545E-05-2.79287E-05-4.86686E-07-3.58237E-19 2.64075E-18
 -1      1514 9.35573E-05-2.80742E-05-2.80609E-05-1.96448E-07 6.78354E-20 4.82739E-18
 -1      1515 9.33289E-05-2.80067E-05-2.79930E-05-2.02321E-07 1.41229E-20 4.61374E-18
 -1      1516 9.35149E-05-2.80718E-05-2.80473E-05-4.16251E-07-1.02462E-19 2.62260E-18
 -1      1517 9.39097E-05-2.81787E-05-2.81679E-05-1.62701E-07 1.64190E-19 4.53741E-18
 -1      1518 9.37206E-05-2.81234E-05-2.81115E-05-1.68333E-07 2.36201E-19 4.95823E-18
 -1      1519 9.38578E-05-2.81726E-05-2.81509E-05-3.49708E-07 2.68949E-19 3.16284E-18
 -1      1520 9.42052E-05-2.82659E-05-2.82577E-05-1.35092E-07-1.19203E-20 3.75158E-18
 -1      1521 9.40491E-05-2.82207E-05-2.82110E-05-1.39920E-07 1.86947E-19 4.23936E-18
 -1      1522 9.41518E-05-2.82580E-05-2.82402E-05-2.92021E-07 3.68291E-19 2.76591E-18
 -1      1523 9.44566E-05-2.83398E-05-2.83344E-05-1.14991E-07-1.66606E-19 3.99789E-18
 -1      1524 9.43258E-05-2.83021E-05-2.82950E-05-1.18564E-07-7.64222E-20 3.78498E-18
 -1      1525 9.44050E-05-2.83308E-05-2.83175E-05-2.46677E-07-1.00573E-20 2.82003E-18
 -1      1526 9.46798E-05-2.84051E-05-2.84026E-05-1.03565E-07-1.48639E-19 3.99055E-18
 -1      1527 9.45651E-05-2.83718E-05-2.83679E-05-1.05475E-07-1.91374E-19 3.55979E-18
 -1      1528 9.46288E-05-2.83945E-05-2.83863E-05-2.16371E-07-5.49464E-20 2.39934E-18
 -1      1529 9.48930E-05-2.84671E-05-2.84678E-05-1.01994E-07 4.30923E-19 3.62101E-18
 -1      1530 9.47842E-05-2.84352E-05-2.84347E-05-1.01821E-07 1.55672E-19 3.81175E-18
 -1      1531 9.48379E-05-2.84533E-05-2.84510E-05-2.03517E-07 1.42940E-19 1.46603E-18
 -1      1532 9.51173E-05-2.85323E-05-2.85364E-05-1.11626E-07 4.37957E-19 2.28657E-18
 -1      1533 9.50028E-05-2.84979E-05-2.85015E-05-1.08890E-07 5.68783E-19 3.25036E-18
 -1      1534 9.50491E-05-2.85124E-05-2.85166E-05-2.10628E-07 7.66622E-19 1.44764E-18
 -1      1535 9.53768E-05-2.86078E-05-2.86158E-05-1.34071E-07-3.64937E-19 2.72443E-18
 -1      1536 9.52432E-05-2.85667E-05-2.85751E-05-1.28201E-07-3.16658E-19 2.57337E-18
 -1      1537 9.52824E-05-2.85775E-05-2.85892E-05-2.40564E-07-3.05439E-20 1.72924E-18
 -1      1538 9.56991E-05-2.87017E-05-2.87142E-05-1.71220E-07-5.04403E-19 4.11555E-18
 -1      1539 9.55313E-05-2.86492E-05-2.86631E-05-1.61541E-07-6.43228E-19 3.28287E-18
 -1      1540 9.55604E-05-2.86554E-05-2.86758E-05-2.96659E-07-9.80044E-19 2.69399E-18
 -1      1541 9.61159E-05-2.88236E-05-2.88412E-05-2.25172E-07 4.61213E-19 4.29780E-18
 -1      1542 9.58963E-05-2.87540E-05-2.87745E-05-2.10904E-07-1.42448E-19 4.01865E-18
 -1      1543 9.59090E-05-2.87537E-05-2.87840E-05-3.82671E-07-2.97593E-19 2.53906E-18
 -1      1544 9.66627E-05-2.89842E-05-2.90073E-05-2.98009E-07 6.30876E-19 2.51329E-18
 -1      1545 9.63714E-05-2.88912E-05-2.89192E-05-2.78311E-07 9.34449E-19 4.07343E-18
 -1      1546 9.63573E-05-2.88811E-05-2.89228E-05-5.02511E-07 1.00502E-18 2.96419E-18
 -1      1547 9.73783E-05-2.91952E-05-2.92243E-05-3.91343E-07-2.61487E-19 2.09355E-18
 -1      1548 9.69936E-05-2.90718E-05-2.91083E-05-3.65417E-07-1.41224E-19 2.10263E-18
 -1      1549 9.69374E-05-2.90474E-05-2.91016E-05-6.59623E-07 3.64648E-19 1.91462E-18
 -1      1550 9.83030E-05-2.94691E-05-2.95040E-05-5.05537E-07-1.26331E-18 3.94198E-18
 -1      1551 9.78020E-05-2.93081E-05-2.93535E-05-4.72826E-07-1.00082E-18 2.24652E-18
 -1      1552 9.76827E-05-2.92630E-05-2.93304E-05-8.55851E-07-1.07174E-18 1.54825E-18
 -1      1553 9.94745E-05-2.98178E-05-2.98574E-05-6.38397E-07-5.02602E-19 5.92381E-18
 -1      1554 9.88357E-05-2.96122E-05-2.96662E-05-5.98940E-07-5.86575E-19 5.15689E-18
 -1      1555 9.86261E-05-2.95386E-05-2.96183E-05-1.08952E-06-1.60294E-18 2.98259E-18
 -1      1556 1.00920E-04-3.02506E-05-3.02920E-05-7.83156E-07 2.60190E-19 5.66943E-18
 -1      1557 1.00128E-04-2.99955E-05-3.00559E-05-7.38177E-07 2.03501E-19 6.11002E-18
 -1      1558 9.97943E-05-2.98840E-05-2.99727E-05-1.35243E-06-8.62998E-20 3.81763E-18
 -1      1559 1.02646E-04-3.07709E-05-3.08083E-05-9.25531E-07 5.18804E-19 4.41931E-18
 -1      1560 1.01696E-04-3.04654E-05-3.05269E-05-8.78349E-07 6.12789E-19 5.33416E-18
 -1      1561 1.01201E-04-3.03057E-05-3.03959E-05-1.62533E-06 8.12305E-19 4.01819E-18
 -1      1562 1.04615E-04-3.13706E-05-3.13939E-05-1.03983E-06-5.46162E-19 4.24496E-18
 -1      1563 1.03529E-04-3.10220E-05-3.10743E-05-9.97146E-07-3.94189E-19 3.80877E-18
 -1      1564 1.02834E-04-3.08045E-05-3.08817E-05-1.87178E-06 4.00223E-20 3.42843E-18
 -1      1565 1.06726E-04-3.20223E-05-3.20153E-05-1.08467E-06 6.42110E-19 4.24097E-18
 -1      1566 1.05563E-04-3.16509E-05-3.16768E-05-1.05814E-06-1.28670E-19 4.66362E-18
 -1      1567 1.04638E-04-3.13700E-05-3.14097E-05-2.03074E-06-4.98460E-19 3.55920E-18
 -1      1568 1.08776E-04-3.26689E-05-3.26090E-05-1.00028E-06-6.00533E-21 3.49255E-18
 -1      1569 1.07656E-04-3.23153E-05-3.22886E-05-1.00783E-06 6.01058E-19 4.21214E-18
 -1      1570 1.06493E-04-3.19738E-05-3.19394E-05-2.01014E-06 5.86804E-19 3.58800E-18
 -1      1571 1.10435E-04-3.32133E-05-3.30742E-05-7.11917E-07-6.16509E-19 4.48761E-18
 -1      1572 1.09555E-04-3.29441E-05-3.28308E-05-7.77437E-07-5.71668E-19 3.48881E-18
 -1      1573 1.08194E-04-3.25606E-05-3.24042E-05-1.68705E-06-4.96332E-19 3.18457E-18
 -1      1574 1.11237E-04-3.35114E-05-3.32731E-05-1.47479E-07-3.55919E-20 5.54844E-18
 -1      1575 1.10874E-04-3.34215E-05-3.31875E-05-2.96266E-07-4.26544E-19 4.89952E-18
 -1      1576 1.09430E-04-3.30382E-05-3.27098E-05-9.25405E-07-8.24037E-19 3.53537E-18
 -1      1577 1.10632E-04-3.33824E-05-3.30518E-05 7.21114E-07 3.05759E-19 5.40501E-18
 -1      1578 1.11113E-04-3.35838E-05-3.32137E-05 4.74604E-07 2.82982E-19 5.88810E-18
 -1      1579 1.09799E-04-3.32714E-05-3.27442E-05 3.72721E-07-7.14684E-22 3.30282E-18
 -1      1580 1.08138E-04-3.26510E-05-3.22892E-05 1.81102E-06-5.99117E-19 5.58414E-18
 -1      1581 1.09741E-04-3.32385E-05-3.27675E-05 1.48433E-06-1.03226E-19 5.76668E-18
 -1      1582 1.08875E-04-3.30908E-05-3.24046E-05 2.17095E-06-2.28964E-21 4.46683E-18
 -1      1583 1.03616E-04-3.12379E-05-3.09741E-05 2.86285E-06 4.25558E-19 4.48197E-18
 -1      1584 1.06400E-04-3.22263E-05-3.17701E-05 2.52742E-06 1.77434E-19 5.13752E-18
 -1      1585 1.06362E-04-3.23373E-05-3.16446E-05 4.17532E-06 5.99726E-19 2.91808E-18
 -1      1586 9.75907E-05-2.92840E-05-2.92787E-05 3.45210E-06 4.01415E-19 3.89048E-18
 -1      1587 1.01208E-04-3.05374E-05-3.02826E-05 3.23181E-06 2.50288E-19 4.22235E-18
 -1      1588 1.02329E-04-3.09587E-05-3.05271E-05 5.77162E-06 6.30328E-19 3.05993E-18
 -1      1589 9.13793E-05-2.72221E-05-2.75715E-05 3.16515E-06-8.92041E-19 5.91907E-18
 -1      1590 9.50159E-05-2.84355E-05-2.85579E-05 3.18457E-06-1.15090E-18 4.66133E-18
 -1      1591 9.74318E-05-2.91427E-05-2.92535E-05 6.17538E-06-1.01057E-18 5.26989E-18
 -1      1592 8.67684E-05-2.56819E-05-2.63147E-05 1.88543E-06-2.04347E-20 6.88450E-18
 -1      1593 8.93614E-05-2.64698E-05-2.70095E-05 2.18680E-06-7.42742E-20 6.65133E-18
 -1      1594 9.28935E-05-2.73653E-05-2.81275E-05 4.85386E-06-6.44930E-19 5.43276E-18
 -1      1595 8.52163E-05-2.52004E-05-2.58621E-05 1.60264E-08 2.64797E-19 7.06537E-18
 -1      1596 8.59449E-05-2.52925E-05-2.60659E-05 4.94069E-07 1.83634E-19 7.30447E-18
 -1      1597 9.00999E-05-2.62526E-05-2.74449E-05 2.00834E-06 2.24067E-20 6.00237E-18
 -1      1598 8.69918E-05-2.58711E-05-2.62793E-05-1.66682E-06-1.75878E-19 5.95162E-18
 -1      1599 8.57608E-05-2.52908E-05-2.59718E-05-1.21782E-06 1.78433E-19 6.36821E-18
 -1      1600 8.98783E-05-2.62289E-05-2.73592E-05-1.29577E-06 3.00644E-19 6.86320E-18
 -1      1601 9.10019E-05-2.72813E-05-2.73072E-05-2.50456E-06 5.39117E-19 5.05832E-18
 -1      1602 8.85033E-05-2.63327E-05-2.66594E-05-2.25736E-06-1.55583E-19 5.51863E-18
 -1      1603 9.19756E-05-2.71971E-05-2.78104E-05-3.70955E-06 3.46873E-19 4.93524E-18
 -1      1604 9.54519E-05-2.87842E-05-2.85015E-05-2.33018E-06-1.92258E-19 5.21063E-18
 -1      1605 9.27562E-05-2.78646E-05-2.77831E-05-2.33261E-06 1.07428E-19 5.09729E-18
 -1      1606 9.52257E-05-2.86093E-05-2.85579E-05-4.42322E-06 2.83246E-19 5.07460E-18
 -1      1607 9.87752E-05-2.98511E-05-2.94423E-05-1.45318E-06 1.12561E-18 3.30602E-18
 -1      1608 9.67892E-05-2.92495E-05-2.88949E-05-1.63378E-06 9.80017E-19 5.27998E-18
 -1      1609 9.82305E-05-2.98314E-05-2.92937E-05-3.52536E-06 1.01145E-18 4.19917E-18
 -1      1610 1.00211E-04-3.02589E-05-2.98955E-05-3.69852E-07 1.08278E-18 9.23193E-19
 -1      1611 9.93554E-05-3.00708E-05-2.96429E-05-6.11462E-07 9.99936E-19 1.82878E-18
 -1      1612 1.00018E-04-3.04761E-05-2.97731E-05-1.74205E-06 2.26689E-18 2.55441E-18
 -1      1613 9.98412E-05-3.00673E-05-2.98549E-05 5.03851E-07 5.58512E-19-1.02754E-18
 -1      1614 1.00041E-04-3.02235E-05-2.98873E-05 3.02215E-07 1.14239E-18 3.76508E-19
 -1      1615 1.00300E-04-3.04834E-05-2.98955E-05 8.35778E-08 1.62815E-18 6.83147E-19
 -1      1616 9.83279E-05-2.95096E-05-2.94878E-05 9.27410E-07-3.24711E-19-1.75495E-20
 -1      1617 9.91706E-05-2.98457E-05-2.96982E-05 8.29782E-07-8.42669E-19-9.06259E-19
 -1      1618 9.93552E-05-3.00128E-05-2.97088E-05 1.33248E-06-4.86237E-19 1.22501E-18
 -1      1619 9.65882E-05-2.88952E-05-2.90369E-05 8.22787E-07 4.78507E-19-1.26380E-18
 -1      1620 9.75076E-05-2.92075E-05-2.92797E-05 8.58749E-07 6.46242E-19 5.27741E-20
 -1      1621 9.77881E-05-2.93116E-05-2.93575E-05 1.69410E-06 4.75470E-19 2.40820E-18
 -1      1622 9.54700E-05-2.85215E-05-2.86908E-05 3.02258E-07 4.04840E-19-1.79756E-18
 -1      1623 9.59414E-05-2.86322E-05-2.88590E-05 4.47187E-07 1.83727E-19-2.41646E-18
 -1      1624 9.62705E-05-2.86526E-05-2.89962E-05 1.16270E-06 1.49256E-18 1.22613E-18
 -1      1625 9.52239E-05-2.85105E-05-2.85785E-05-7.18468E-09-5.38038E-19-5.26098E-19
 -1      1626 9.51004E-05-2.74214E-05-2.90212E-05 7.78400E-07 2.49323E-18 2.20892E-18
 -1      1627 9.52716E-05-2.80404E-05-2.88074E-05 6.06799E-07 1.03695E-19 2.61885E-18
 -1      1628 9.44303E-05-2.51281E-05-2.97131E-05 1.60540E-06 5.57225E-18 9.97530E-19
 -1      1629 9.48590E-05-2.65418E-05-2.92947E-05 1.43582E-06 3.53203E-18 4.90396E-19
 -1      1630 9.51405E-05-2.68508E-05-2.93096E-05 2.16476E-06 2.94290E-18 3.19653E-18
 -1      1631 9.33363E-05-2.15067E-05-3.07966E-05 2.48316E-06 4.79793E-18-2.59301E-19
 -1      1632 9.40341E-05-2.37432E-05-3.01451E-05 2.30594E-06 4.93615E-18 8.13774E-19
 -1      1633 9.44870E-05-2.46533E-05-2.99798E-05 3.79778E-06 2.94813E-18 1.14715E-18
 -1      1634 9.18067E-05-1.66040E-05-3.22425E-05 3.27638E-06 4.87984E-18-8.21384E-19
 -1      1635 9.27607E-05-1.95822E-05-3.13852E-05 3.12491E-06 4.61220E-18 8.13334E-19
 -1      1636 9.34740E-05-2.14210E-05-3.09323E-05 5.42206E-06 2.32694E-18 1.01763E-19
 -1      1637 8.99662E-05-1.09129E-05-3.38894E-05 3.73723E-06-1.72834E-18-3.01929E-18
 -1      1638 9.10791E-05-1.42889E-05-3.29305E-05 3.67152E-06 3.18164E-18-4.59342E-18
 -1      1639 9.20737E-05-1.72333E-05-3.21104E-05 6.69041E-06 1.41901E-18-4.97553E-18
 -1      1640 8.80086E-05-5.05246E-06-3.55516E-05 3.60082E-06-3.29295E-18-3.14296E-19
 -1      1641 8.91427E-05-8.40689E-06-3.46111E-05 3.67708E-06-2.64915E-18-1.32172E-18
 -1      1642 9.03665E-05-1.24361E-05-3.33996E-05 7.12537E-06 6.11492E-19-4.05531E-18
 -1      1643 8.63704E-05-2.73193E-07-3.68836E-05 2.68500E-06-3.79251E-18 5.96364E-20
 -1      1644 8.72587E-05-2.84989E-06-3.61689E-05 2.93003E-06-4.01449E-18-5.68439E-20
 -1      1645 8.85895E-05-7.70792E-06-3.46144E-05 6.26533E-06 3.97973E-20-1.09189E-18
 -1      1646 8.54773E-05 2.27425E-06-3.75820E-05 1.07525E-06-3.85158E-18-6.43427E-19
 -1      1647 8.58814E-05 1.12209E-06-3.72656E-05 1.44782E-06-4.18736E-18 1.07070E-20
 -1      1648 8.71669E-05-4.06844E-06-3.55158E-05 3.96028E-06-1.30130E-18-4.22603E-19
 -1      1649 8.56024E-05 1.87801E-06-3.74659E-05-8.56176E-07-4.75225E-18 1.03841E-19
 -1      1650 8.53972E-05 2.48580E-06-3.76361E-05-4.56018E-07-4.90505E-18 2.63348E-19
 -1      1651 8.65041E-05-2.43181E-06-3.59072E-05 5.91629E-07-2.94311E-18-8.12080E-19
 -1      1652 8.67296E-05-1.41804E-06-3.65477E-05-2.59450E-06-5.85755E-18-1.32845E-18
 -1      1653 8.59646E-05 8.26285E-07-3.71726E-05-2.27963E-06-4.62565E-18 3.57415E-19
 -1      1654 8.68168E-05-3.27188E-06-3.56912E-05-3.00635E-06-4.24989E-18 7.95576E-19
 -1      1655 8.85324E-05-6.73477E-06-3.50564E-05-3.70576E-06-8.75509E-18-5.63254E-19
 -1      1656 8.74165E-05-3.43718E-06-3.59797E-05-3.54822E-06-5.52424E-18-3.47888E-18
 -1      1657 8.80156E-05-6.37284E-06-3.49148E-05-5.88412E-06-4.27684E-18-3.24594E-18
 -1      1658 9.06496E-05-1.30913E-05-3.32532E-05-4.05824E-06-5.65897E-18 1.70738E-18
 -1      1659 8.93936E-05-9.32852E-06-3.43139E-05-4.05814E-06-8.33997E-18 2.02458E-18
 -1      1660 8.97568E-05-1.09955E-05-3.37319E-05-7.44853E-06-2.32466E-18 7.21285E-19
 -1      1661 9.26466E-05-1.92106E-05-3.14955E-05-3.70722E-06-2.20877E-18 2.04472E-18
 -1      1662 9.14925E-05-1.57168E-05-3.24851E-05-3.82594E-06-5.46852E-18 3.27028E-18
 -1      1663 9.16650E-05-1.62077E-05-3.23615E-05-7.56916E-06-2.63069E-18 3.67342E-18
 -1      1664 9.42300E-05-2.40829E-05-3.00673E-05-2.81553E-06-8.29563E-19 7.47202E-19
 -1      1665 9.33354E-05-2.14480E-05-3.08297E-05-3.00631E-06-1.52262E-18 1.34272E-18
 -1      1666 9.34148E-05-2.10733E-05-3.10530E-05-6.44471E-06-2.47363E-18 2.68799E-18
 -1      1667 9.53561E-05-2.69810E-05-2.92780E-05-2.10927E-06-1.12942E-18-5.99021E-19
 -1      1668 9.48877E-05-2.55330E-05-2.97359E-05-2.60832E-06-9.42324E-20-1.33459E-18
 -1      1669 9.49809E-05-2.47687E-05-3.01546E-05-5.13966E-06-1.63189E-18 1.28327E-18
 -1      1670 9.65427E-05-2.73553E-05-2.96864E-05-3.97857E-06-5.55969E-19-1.19215E-18
 -1      1671 2.10462E-05-6.81652E-05 1.45704E-05-4.67225E-06 1.79275E-18-3.57130E-18
 -1      1672 2.50881E-05-8.03068E-05 1.71417E-05 3.13936E-06 5.39952E-18-1.83976E-18
 -1      1673 2.45316E-05-3.87828E-05 2.48002E-06 9.27695E-06-4.30632E-18-5.22153E-18
 -1      1674 2.80787E-05-6.38417E-05 9.72776E-06 3.32166E-06 3.15096E-19-3.93962E-18
 -1      1675 4.00165E-05-9.47938E-06-1.46601E-05 3.39968E-05-5.76829E-18-3.49740E-18
 -1      1676 3.18384E-05-3.04145E-05-5.03332E-06 1.35238E-05-5.90551E-18-2.69356E-18
 -1      1677 9.91523E-05-1.15842E-05-3.59524E-05 6.49112E-05-4.37323E-18-5.06187E-18
 -1      1678 6.83524E-05-1.39687E-05-2.48388E-05 4.21248E-05-5.19655E-18-5.00935E-18
 -1      1679 1.61922E-04-2.18744E-05-5.54508E-05 8.17368E-05-3.78624E-18-9.90351E-18
 -1      1680 1.16915E-04-5.70232E-06-4.60817E-05 7.32234E-05-4.78065E-18-7.57163E-18
 -1      1681 2.25053E-04-4.98405E-05-6.93325E-05 5.88374E-05-2.79981E-18-1.41675E-17
 -1      1682 1.85024E-04-2.88742E-05-6.28518E-05 7.48596E-05-3.75511E-18-1.15069E-17
 -1      1683 2.51253E-04-6.13420E-05-7.53817E-05 9.89239E-06-9.13102E-19-1.43722E-17
 -1      1684 2.34329E-04-5.16900E-05-7.29864E-05 4.26688E-05-1.54668E-18-1.37177E-17
 -1      1685 2.45688E-04-5.82750E-05-7.42379E-05-3.93457E-05 7.37977E-19-1.18818E-17
 -1      1686 2.59955E-04-6.64870E-05-7.63836E-05-5.25646E-06-7.13202E-19-1.43792E-17
 -1      1687 1.89458E-04-3.20846E-05-6.33520E-05-7.07886E-05 3.91266E-18-1.02364E-17
 -1      1688 2.30628E-04-5.31474E-05-6.99453E-05-5.30635E-05 3.35189E-18-1.03304E-17
 -1      1689 1.21650E-04-8.15865E-06-4.71092E-05-7.24749E-05 4.10642E-18-7.93500E-18
 -1      1690 1.65383E-04-2.47877E-05-5.59446E-05-7.84999E-05 4.13606E-18-9.75867E-18
 -1      1691 6.46440E-05-3.36605E-06-2.75114E-05-4.75155E-05 3.24922E-18-4.75016E-18
 -1      1692 9.66413E-05-3.70336E-06-3.78842E-05-6.93841E-05 4.05729E-18-7.08628E-18
 -1      1693 3.91149E-05-2.83925E-05-8.05107E-06-1.93608E-05 2.05998E-18-2.85535E-18
 -1      1694 5.12436E-05-1.11857E-05-1.79059E-05-4.01218E-05 3.18146E-18-4.58160E-18
 -1      1695 2.62249E-05-5.66504E-05 7.57849E-06-2.62951E-06 1.56701E-18-1.68697E-18
 -1      1696 2.36748E-05-3.21366E-05 3.14843E-07-1.08858E-05 2.44454E-18-1.62927E-18
 -1      1697 2.45296E-05-7.75162E-05 1.62655E-05-1.36210E-06-1.47024E-18-1.27161E-18
 -1      1698 1.97810E-05-6.28261E-05 1.30001E-05 5.55717E-06 8.88538E-19-2.04336E-18
 -1      1699 2.10227E-05-7.09998E-05 1.57075E-05-6.55608E-06-1.75166E-18-5.61583E-19
 -1      1700 2.30114E-05-7.64253E-05 1.68496E-05 2.74637E-06-1.63215E-18-8.24375E-19
 -1      1701 1.98924E-05-4.74354E-05 7.22683E-06-1.16381E-06-3.60751E-18-2.68467E-18
 -1      1702 2.49913E-05-6.87231E-05 1.27143E-05-1.52421E-06-2.81511E-18-1.03571E-18
 -1      1703 2.90622E-05-1.82828E-05-7.37161E-06 1.89484E-05-5.35833E-18-3.31825E-18
 -1      1704 2.67172E-05-4.10327E-05 8.98156E-07 3.78130E-06-4.24109E-18-3.51307E-18
 -1      1705 7.30748E-05-7.49626E-06-2.80099E-05 5.37285E-05-4.34104E-18-3.93616E-18
 -1      1706 4.83221E-05-1.63013E-05-1.68307E-05 2.86258E-05-5.02629E-18-3.55669E-18
 -1      1707 1.42360E-04-2.22255E-05-4.85658E-05 6.95584E-05-2.26497E-18-3.03407E-18
 -1      1708 1.00587E-04-1.15141E-05-3.82913E-05 5.57894E-05-3.30089E-18-2.80537E-18
 -1      1709 2.09553E-04-4.40525E-05-6.52258E-05 6.44070E-05-1.73938E-18-2.03288E-20
 -1      1710 1.64832E-04-2.37000E-05-5.75317E-05 7.15631E-05-1.85500E-18-2.67069E-18
 -1      1711 2.58367E-04-6.57058E-05-7.53202E-05 2.60458E-05-6.46498E-19-3.73542E-19
 -1      1712 2.30003E-04-5.06697E-05-7.11679E-05 5.53009E-05-7.01026E-19-7.08967E-19
 -1      1713 2.59946E-04-6.46992E-05-7.66453E-05-2.87700E-05-4.82809E-19-3.44531E-19
 -1      1714 2.64713E-04-6.78485E-05-7.71230E-05 8.47926E-06-4.98479E-19-7.82870E-19
 -1      1715 2.12260E-04-4.04503E-05-6.84147E-05-6.86219E-05-1.29744E-18 6.95414E-19
 -1      1716 2.47724E-04-5.96328E-05-7.36576E-05-4.45335E-05-8.80173E-19-5.13302E-19
 -1      1717 1.44262E-04-1.34240E-05-5.34243E-05-7.86731E-05 1.40311E-18 4.39610E-19
 -1      1718 1.90603E-04-3.34745E-05-6.19087E-05-7.88407E-05 1.17526E-19 8.99549E-19
 -1      1719 8.27824E-05-2.64181E-06-3.46792E-05-5.88709E-05 5.75559E-18-2.77827E-18
 -1      1720 1.19338E-04-8.54505E-06-4.45588E-05-7.75943E-05 3.44234E-18 8.52115E-19
 -1      1721 4.46531E-05-1.81970E-05-1.45573E-05-2.73660E-05 7.30142E-18-4.72560E-18
 -1      1722 6.33339E-05-5.32507E-06-2.49193E-05-5.14452E-05 6.40442E-18-4.75440E-18
 -1      1723 2.70075E-05-4.42781E-05 1.84017E-06-3.60385E-06 8.63974E-18-4.43168E-18
 -1      1724 2.75815E-05-2.14579E-05-5.77146E-06-1.71177E-05 8.22384E-18-4.81623E-18
 -1      1725 2.64214E-05-7.23378E-05 1.29269E-05 2.50565E-06 5.99869E-18-2.94407E-18
 -1      1726 2.11138E-05-5.14484E-05 7.78173E-06 1.87115E-06 7.38189E-18-4.50579E-18
 -1      1727 2.60014E-05-8.45532E-05 1.80529E-05-2.15030E-06 6.92015E-18 3.85188E-19
 -1      1728 2.32624E-05-7.66330E-05 1.62619E-05 7.21141E-06 6.45227E-18-9.64135E-19
 -1      1729 1.31722E-04-3.69746E-05-3.96080E-05 4.41047E-05-3.06922E-18-6.25280E-18
 -1      1730 8.89958E-05-4.04480E-05-2.10693E-05 4.33338E-05-3.36950E-18-3.15350E-18
 -1      1731 9.53835E-05-2.84131E-05-2.87108E-05 2.72390E-07-9.34886E-19 1.42920E-18
 -1      1732 9.55210E-05-2.80280E-05-2.89437E-05 1.01755E-06 8.48085E-19 3.60263E-18
 -1      1733 2.31680E-05-4.91590E-05 7.58765E-06 2.08679E-05 5.82335E-19-6.92428E-18
 -1      1734 4.76162E-05-4.53833E-05-3.83325E-06 3.28096E-05-2.22092E-18-4.35640E-18
 -1      1735 1.26937E-05-5.40516E-05 1.30279E-05 2.03191E-06 2.83274E-18-2.02356E-18
 -1      1736 1.72156E-04-3.13234E-05-5.65693E-05 4.30962E-05-2.12256E-18-1.07158E-17
 -1      1737 1.97959E-04-3.07773E-05-6.70436E-05 2.32162E-05-1.54838E-18-1.07171E-17
 -1      1738 2.10445E-04-3.21969E-05-7.13559E-05 6.53816E-07-1.07065E-18-1.03289E-17
 -1      1739 2.06209E-04-3.47583E-05-6.82642E-05-2.07820E-05 7.63812E-19-9.18565E-18
 -1      1740 1.74482E-04-3.23632E-05-5.72058E-05-3.94386E-05 2.25200E-18-7.23536E-18
 -1      1741 1.30258E-04-3.00735E-05-4.13116E-05-4.73096E-05 2.53093E-18-6.88130E-18
 -1      1742 8.95515E-05-3.76313E-05-2.31873E-05-4.18651E-05 2.73083E-18-5.33080E-18
 -1      1743 5.42544E-05-4.34983E-05-6.49818E-06-3.56432E-05 2.13791E-18-2.92438E-18
 -1      1744 2.41407E-05-4.78337E-05 6.51046E-06-2.06146E-05 8.49151E-19-2.30351E-18
 -1      1745 1.19212E-05-5.06872E-05 1.22707E-05-3.84562E-06 5.98852E-19-1.62249E-18
 -1      1746 1.65832E-05-4.92828E-05 1.00131E-05 1.11691E-05-5.86147E-19-9.03784E-19
 -1      1747 3.49887E-05-4.59407E-05 1.21979E-06 2.35383E-05-2.42251E-18-3.15824E-18
 -1      1748 6.85573E-05-3.97490E-05-1.39475E-05 3.60744E-05-3.20433E-18-1.78766E-18
 -1      1749 1.17536E-04-3.95008E-05-3.26732E-05 3.99510E-05-2.73295E-18-9.02090E-19
 -1      1750 1.60389E-04-3.74118E-05-5.05409E-05 3.39302E-05-2.19254E-18-8.39410E-19
 -1      1751 1.98092E-04-3.60360E-05-6.48080E-05 2.65522E-05-1.19559E-18 1.24514E-19
 -1      1752 2.20695E-04-3.81029E-05-7.22458E-05 6.10465E-06-6.12828E-19-7.22096E-19
 -1      1753 2.15087E-04-3.57592E-05-7.10909E-05-1.78147E-05-5.35325E-19-1.48231E-18
 -1      1754 1.88936E-04-3.34719E-05-6.21129E-05-3.82099E-05 6.20452E-19-1.32899E-18
 -1      1755 1.48027E-04-3.14439E-05-4.74205E-05-4.86020E-05 4.32326E-18 7.50471E-19
 -1      1756 1.04503E-04-3.49275E-05-2.96284E-05-4.61026E-05 5.06526E-18-1.33069E-18
 -1      1757 6.43085E-05-4.02999E-05-1.21762E-05-3.75641E-05 5.62853E-18-3.99884E-18
 -1      1758 3.48884E-05-4.83924E-05 1.96152E-06-2.41074E-05 4.88907E-18-3.90450E-18
 -1      1759 1.90642E-05-5.53272E-05 1.07405E-05-1.25064E-05 5.05043E-18-2.68679E-18
 -1      1760 1.06055E-04-2.31712E-05-3.56048E-05-1.68539E-05-1.50481E-19-3.26679E-18
 -1      1761 8.91535E-05-1.05880E-05-3.37962E-05-1.33299E-05 5.62685E-19-1.52064E-18
 -1      1762 9.04828E-05-1.16316E-05-3.39358E-05-1.51387E-05 4.44553E-19-1.80730E-18
 -1      1763 9.24899E-05-1.38753E-05-3.38541E-05-1.60029E-05 3.36873E-19-1.97507E-18
 -1      1764 9.42079E-05-1.58218E-05-3.40982E-05-1.76639E-05 1.34453E-19-2.31875E-18
 -1      1765 9.34179E-05-1.63477E-05-3.30447E-05-1.37719E-05 4.00570E-19-1.82726E-18
 -1      1766 8.62114E-05-7.67511E-06-3.37293E-05-7.86652E-06 8.36756E-19-8.19875E-19
 -1      1767 8.66142E-05-7.97283E-06-3.37633E-05-9.25603E-06 8.69383E-19-9.78177E-19
 -1      1768 8.55949E-05-7.03746E-06-3.37267E-05-5.32183E-06 9.51387E-19-5.94869E-19
 -1      1769 8.58294E-05-7.21620E-06-3.37417E-05-6.62671E-06 9.22505E-19-7.45707E-19
 -1      1770 8.75949E-05-9.86866E-06-3.33428E-05-6.93137E-06 9.02908E-19-7.92333E-19
 -1      1771 8.52604E-05-6.67893E-06-3.37301E-05-2.88983E-06 9.06728E-19-3.09723E-19
 -1      1772 8.53812E-05-6.77362E-06-3.37360E-05-4.12986E-06 9.62118E-19-4.86223E-19
 -1      1773 8.69592E-05-9.15682E-06-3.33762E-05-4.53908E-06 1.03773E-18-5.30937E-19
 -1      1774 8.51298E-05-6.53096E-06-3.37336E-05-5.17689E-07 1.03493E-18 2.02759E-20
 -1      1775 8.51654E-05-6.55945E-06-3.37350E-05-1.72772E-06 9.72186E-19-1.61598E-19
 -1      1776 8.66277E-05-8.77829E-06-3.33964E-05-2.21822E-06 1.00929E-18-1.96247E-19
 -1      1777 8.51752E-05-6.56847E-06-3.37352E-05 1.84587E-06 1.03148E-18 2.09985E-19
 -1      1778 8.51335E-05-6.53555E-06-3.37335E-05 6.34812E-07 1.02085E-18 1.13158E-19
 -1      1779 8.65297E-05-8.66494E-06-3.34030E-05 6.54265E-08 1.08226E-18 7.29772E-20
 -1      1780 8.54060E-05-6.79855E-06-3.37361E-05 4.25266E-06 9.48836E-19 3.63284E-19
 -1      1781 8.52782E-05-6.69793E-06-3.37300E-05 3.00944E-06 1.00596E-18 2.60648E-19
 -1      1782 8.66453E-05-8.79798E-06-3.33957E-05 2.35036E-06 1.05243E-18 2.54712E-19
 -1      1783 8.58626E-05-7.25148E-06-3.37415E-05 6.71457E-06 8.75751E-19 6.77547E-19
 -1      1784 8.56247E-05-7.06937E-06-3.37266E-05 5.42705E-06 8.78350E-19 4.82174E-19
 -1      1785 8.69932E-05-9.19470E-06-3.33747E-05 4.65457E-06 9.90104E-19 4.15410E-19
 -1      1786 8.66756E-05-8.04095E-06-3.37621E-05 9.37665E-06 7.82331E-19 1.07262E-18
 -1      1787 8.62549E-05-7.72449E-06-3.37284E-05 7.95564E-06 8.08708E-19 8.56205E-19
 -1      1788 8.76449E-05-9.92691E-06-3.33404E-05 7.03035E-06 8.82995E-19 7.40201E-19
 -1      1789 8.80879E-05-9.38834E-06-3.38175E-05 1.22557E-05 6.48993E-19 1.43051E-18
 -1      1790 8.73479E-05-8.83057E-06-3.37454E-05 1.06627E-05 7.34070E-19 1.23397E-18
 -1      1791 8.87658E-05-1.11614E-05-3.32898E-05 9.50495E-06 7.76249E-19 1.12751E-18
 -1      1792 9.06320E-05-1.18403E-05-3.39277E-05 1.53040E-05 5.02555E-19 1.80376E-18
 -1      1793 8.92515E-05-1.07411E-05-3.37878E-05 1.35144E-05 5.94465E-19 1.58525E-18
 -1      1794 9.06630E-05-1.32235E-05-3.32070E-05 1.19770E-05 6.42557E-19 1.47324E-18
 -1      1795 9.58774E-05-1.70349E-05-3.39936E-05 1.76915E-05 1.00734E-19 2.24612E-18
 -1      1796 9.28575E-05-1.43435E-05-3.38272E-05 1.61948E-05 3.04783E-19 1.97687E-18
 -1      1797 9.39707E-05-1.68875E-05-3.30244E-05 1.38957E-05 3.82819E-19 1.74494E-18
 -1      1798 1.01927E-04-2.50951E-05-3.33599E-05 1.44232E-05-9.94205E-20 2.50446E-18
 -1      1799 9.80782E-05-1.96171E-05-3.36258E-05 1.69651E-05-1.34731E-20 2.35766E-18
 -1      1800 9.73308E-05-2.18548E-05-3.24281E-05 1.32494E-05 9.82426E-20 2.09458E-18
 -1      1801 9.87543E-05-2.61360E-05-3.13430E-05 9.43564E-06-6.46921E-20 2.52687E-18
 -1      1802 1.00157E-04-1.95635E-05-3.42186E-05-1.88702E-05-7.13361E-20-2.65873E-18
 -1      1803 9.53128E-05-2.72862E-05-2.91858E-05 4.06769E-06-1.81583E-19 2.33961E-18
 -1      1804 9.77435E-05-2.73915E-05-3.01949E-05 6.40166E-06-7.93299E-20 2.36787E-18
 -1      1805 9.75781E-05-2.56154E-05-3.08332E-05 8.76080E-06-2.62051E-20 2.04614E-18
 -1      1806 9.98168E-05-2.25423E-05-3.28366E-05-1.44687E-05 6.58833E-20-2.43130E-18
 -1      1807 9.69592E-05-2.69778E-05-2.98773E-05-5.70464E-06 1.20173E-20-2.24917E-18
 -1      1808 9.51517E-05-2.70345E-05-2.91665E-05-3.89699E-06-6.64391E-21-2.25395E-18
 -1      1809 9.43369E-05-2.72398E-05-2.86589E-05-2.42331E-06-6.41495E-20-2.08250E-18
 -1      1810 9.35629E-05-2.73183E-05-2.83539E-05-1.57364E-06 9.21016E-20-2.07141E-18
 -1      1811 9.55090E-05-2.65553E-05-2.95751E-05-4.47216E-06 3.68459E-20-1.67175E-18
 -1      1812 9.30345E-05-2.73650E-05-2.80852E-05-7.44805E-07 8.83363E-20-2.01282E-18
 -1      1813 9.27328E-05-2.74292E-05-2.79628E-05-3.06367E-07 3.54364E-20-2.03236E-18
 -1      1814 9.42963E-05-2.72245E-05-2.87670E-05-1.83408E-06 8.74330E-20-1.51684E-18
 -1      1815 9.24568E-05-2.74574E-05-2.78262E-05 1.48170E-07 1.23093E-20-1.88124E-18
 -1      1816 9.24242E-05-2.75334E-05-2.77958E-05 3.71484E-07 2.11924E-21-1.90192E-18
 -1      1817 9.35928E-05-2.75268E-05-2.83304E-05-3.67230E-07 8.27181E-24-1.45198E-18
 -1      1818 9.23195E-05-2.75644E-05-2.77372E-05 6.09972E-07-1.67725E-19-1.88413E-18
 -1      1819 9.24324E-05-2.76489E-05-2.77558E-05 7.12928E-07-4.65388E-20-1.89981E-18
 -1      1820 9.32701E-05-2.77121E-05-2.81085E-05 4.32570E-07-3.93986E-20-1.41824E-18
 -1      1821 9.24362E-05-2.76864E-05-2.77434E-05 8.22795E-07-9.33178E-20-1.98880E-18
 -1      1822 9.26214E-05-2.77723E-05-2.77874E-05 8.55464E-07-5.45277E-20-2.03247E-18
 -1      1823 9.32035E-05-2.78541E-05-2.80151E-05 8.41298E-07-1.22417E-19-1.41990E-18
 -1      1824 9.26883E-05-2.78132E-05-2.78017E-05 8.87743E-07-3.67165E-22-2.11322E-18
 -1      1825 9.29017E-05-2.78949E-05-2.78571E-05 8.79332E-07-6.47803E-20-2.06887E-18
 -1      1826 9.32949E-05-2.79765E-05-2.79987E-05 1.01426E-06-4.08395E-20-1.65249E-18
 -1      1827 9.30010E-05-2.79358E-05-2.78857E-05 8.65872E-07-2.42193E-19-1.78773E-18
 -1      1828 9.32162E-05-2.80098E-05-2.79441E-05 8.34673E-07-8.18046E-20-1.62225E-18
 -1      1829 9.34735E-05-2.80842E-05-2.80268E-05 1.04537E-06 7.30929E-20-1.73637E-18
 -1      1830 9.33283E-05-2.80481E-05-2.79792E-05 7.96119E-07-3.38532E-19-1.82812E-18
 -1      1831 9.35305E-05-2.81128E-05-2.80355E-05 7.54026E-07-2.82137E-19-2.17732E-18
 -1      1832 9.36920E-05-2.81779E-05-2.80788E-05 9.94365E-07-4.30249E-19-1.42284E-18
 -1      1833 9.36433E-05-2.81471E-05-2.80723E-05 7.04059E-07-1.62701E-19-2.24161E-18
 -1      1834 9.38252E-05-2.82020E-05-2.81240E-05 6.58954E-07-6.65419E-20-2.40295E-18
 -1      1835 9.39204E-05-2.82574E-05-2.81416E-05 9.00434E-07-3.98340E-19-1.33738E-18
 -1      1836 9.39320E-05-2.82318E-05-2.81599E-05 6.06763E-07 1.79342E-19-2.31667E-18
 -1      1837 9.40913E-05-2.82774E-05-2.82059E-05 5.63923E-07 3.31608E-19-1.95342E-18
 -1      1838 9.41413E-05-2.83234E-05-2.82075E-05 7.89762E-07 1.56706E-19-1.34670E-18
 -1      1839 9.41895E-05-2.83027E-05-2.82397E-05 5.15762E-07 3.85892E-19-2.06454E-18
 -1      1840 9.43272E-05-2.83401E-05-2.82801E-05 4.78791E-07 4.17146E-19-1.72351E-18
 -1      1841 9.43460E-05-2.83769E-05-2.82721E-05 6.80078E-07 4.07271E-19-1.33709E-18
 -1      1842 9.44167E-05-2.83615E-05-2.83116E-05 4.39045E-07 1.94859E-19-1.45422E-18
 -1      1843 9.45366E-05-2.83922E-05-2.83473E-05 4.10530E-07 7.48532E-20-1.34074E-18
 -1      1844 9.45321E-05-2.84195E-05-2.83336E-05 5.83627E-07 3.89444E-19-8.67691E-19
 -1      1845 9.46194E-05-2.84106E-05-2.83769E-05 3.82491E-07-2.55400E-19-1.57190E-18
 -1      1846 9.47269E-05-2.84364E-05-2.84095E-05 3.64496E-07-2.03777E-19-1.78862E-18
 -1      1847 9.47020E-05-2.84533E-05-2.83921E-05 5.09253E-07-2.76710E-19-1.18728E-18
 -1      1848 9.48064E-05-2.84528E-05-2.84385E-05 3.50943E-07-1.72069E-19-1.89023E-18
 -1      1849 9.49084E-05-2.84758E-05-2.84698E-05 3.45388E-07-3.72604E-19-1.66455E-18
 -1      1850 9.48613E-05-2.84804E-05-2.84490E-05 4.63939E-07-2.98194E-19-1.49662E-18
 -1      1851 9.49895E-05-2.84916E-05-2.84997E-05 3.49042E-07-3.79852E-19-1.95142E-18
 -1      1852 9.50943E-05-2.85142E-05-2.85323E-05 3.58004E-07-4.48754E-19-1.79321E-18
 -1      1853 9.50183E-05-2.85034E-05-2.85069E-05 4.53975E-07-3.77378E-19-1.52505E-18
 -1      1854 9.51831E-05-2.85308E-05-2.85652E-05 3.81875E-07-4.68833E-19-2.02222E-18
 -1      1855 9.53007E-05-2.85557E-05-2.86019E-05 4.07827E-07-2.47808E-19-1.75790E-18
 -1      1856 9.51838E-05-2.85250E-05-2.85691E-05 4.85865E-07-6.15842E-19-1.51987E-18
 -1      1857 9.54043E-05-2.85749E-05-2.86405E-05 4.55489E-07-2.89622E-19-1.68772E-18
 -1      1858 9.55464E-05-2.86053E-05-2.86846E-05 5.01483E-07-5.18841E-20-1.88181E-18
 -1      1859 9.53709E-05-2.85481E-05-2.86400E-05 5.67023E-07-3.24225E-19-1.41467E-18
 -1      1860 9.56733E-05-2.86293E-05-2.87318E-05 5.77257E-07 3.09355E-19-2.09722E-18
 -1      1861 9.58537E-05-2.86688E-05-2.87875E-05 6.47040E-07 7.37562E-19-1.94897E-18
 -1      1862 9.55953E-05-2.85764E-05-2.87247E-05 7.06282E-07-7.96139E-20-9.74700E-19
 -1      1863 9.60138E-05-2.86999E-05-2.88467E-05 7.56082E-07 4.02439E-19-1.81178E-18
 -1      1864 9.62486E-05-2.87531E-05-2.89187E-05 8.54133E-07-2.42703E-19-1.96961E-18
 -1      1865 9.58752E-05-2.86139E-05-2.88294E-05 9.14186E-07 4.43386E-19-4.37543E-19
 -1      1866 9.64532E-05-2.87944E-05-2.89938E-05 1.00236E-06-2.12172E-19-1.39804E-18
 -1      1867 9.67615E-05-2.88667E-05-2.90876E-05 1.13377E-06 6.49638E-19-1.16772E-18
 -1      1868 9.62315E-05-2.86656E-05-2.89609E-05 1.20300E-06 2.22095E-19-2.53938E-19
 -1      1869 9.70234E-05-2.89217E-05-2.91828E-05 1.32756E-06 7.44338E-19-1.39420E-18
 -1      1870 9.74269E-05-2.90197E-05-2.93047E-05 1.49764E-06 8.11537E-19-1.55945E-18
 -1      1871 9.66883E-05-2.87379E-05-2.91266E-05 1.58628E-06 5.83730E-19-3.68908E-19
 -1      1872 9.77601E-05-2.90927E-05-2.94246E-05 1.74304E-06 4.69992E-19-1.61250E-18
 -1      1873 9.82832E-05-2.92246E-05-2.95812E-05 1.95644E-06-9.92972E-20-1.71242E-18
 -1      1874 9.72727E-05-2.88391E-05-2.93347E-05 2.07760E-06 5.72374E-19-1.17573E-18
 -1      1875 9.87027E-05-2.93213E-05-2.97301E-05 2.25764E-06-1.52499E-20-1.32687E-18
 -1      1876 9.93710E-05-2.94967E-05-2.99282E-05 2.51664E-06-8.72047E-20-7.26882E-19
 -1      1877 9.80141E-05-2.89806E-05-2.95929E-05 2.68808E-06 2.29657E-19-1.23634E-18
 -1      1878 9.98924E-05-2.96248E-05-3.01097E-05 2.87314E-06-7.80346E-20-4.36082E-19
 -1      1879 1.00730E-04-2.98557E-05-3.03552E-05 3.17437E-06 1.70945E-19-6.12999E-19
 -1      1880 9.89444E-05-2.91785E-05-2.99077E-05 3.42154E-06 1.90803E-19-3.40610E-19
 -1      1881 1.01369E-04-3.00259E-05-3.05708E-05 3.57606E-06-1.32134E-20-6.47576E-19
 -1      1882 1.02395E-04-3.03266E-05-3.08670E-05 3.90491E-06 1.92281E-19-5.62124E-19
 -1      1883 1.00096E-04-2.94573E-05-3.02828E-05 4.26611E-06 1.79099E-19 5.37208E-19
 -1      1884 1.03166E-04-3.05548E-05-3.11148E-05 4.32390E-06 5.58514E-19-5.62173E-19
 -1      1885 1.04384E-04-3.09420E-05-3.14593E-05 4.64549E-06 4.07148E-19-1.79042E-19
 -1      1886 1.01503E-04-2.98545E-05-3.07162E-05 5.18014E-06 8.80426E-20 1.33383E-20
 -1      1887 1.05299E-04-3.12517E-05-3.17317E-05 5.02369E-06 8.53526E-20-1.65503E-19
 -1      1888 1.06687E-04-3.17425E-05-3.21122E-05 5.26977E-06-7.10320E-19-6.06156E-19
 -1      1889 1.03196E-04-3.04280E-05-3.11969E-05 6.07034E-06 1.77758E-19-6.81646E-20
 -1      1890 1.07756E-04-3.21671E-05-3.23939E-05 5.50227E-06-1.15629E-18 9.16533E-20
 -1      1891 1.09241E-04-3.27736E-05-3.27825E-05 5.55611E-06-5.86996E-19-1.86298E-19
 -1      1892 1.05206E-04-3.12621E-05-3.17018E-05 6.76099E-06-3.60159E-19 4.93714E-19
 -1      1893 1.10468E-04-3.33524E-05-3.30491E-05 5.47418E-06 8.36213E-20 4.32450E-20
 -1      1894 1.11905E-04-3.40653E-05-3.33976E-05 5.16193E-06 4.74312E-19 3.30515E-19
 -1      1895 1.07553E-04-3.24646E-05-3.21937E-05 6.95842E-06 2.33730E-19 1.46655E-18
 -1      1896 1.13269E-04-3.48237E-05-3.36188E-05 4.52996E-06 3.17531E-19 7.53403E-19
 -1      1897 1.14412E-04-3.55772E-05-3.38582E-05 3.64080E-06 6.13603E-19 1.01303E-18
 -1      1898 1.10227E-04-3.41318E-05-3.26257E-05 6.22845E-06 5.92470E-19 1.43211E-18
 -1      1899 1.15825E-04-3.64722E-05-3.40075E-05 2.19965E-06 9.80897E-19 1.01310E-18
 -1      1900 1.16322E-04-3.70828E-05-3.40618E-05 5.73411E-07 1.56332E-18 1.85958E-18
 -1      1901 1.13121E-04-3.62424E-05-3.29576E-05 4.03436E-06 1.32332E-18 2.37807E-18
 -1      1902 1.17540E-04-3.79004E-05-3.41355E-05-1.80905E-06 8.93534E-19 1.74878E-18
 -1      1903 1.16983E-04-3.80086E-05-3.39533E-05-4.08583E-06 6.50627E-20 1.72936E-18
 -1      1904 1.15890E-04-3.84365E-05-3.31893E-05-7.38399E-08 1.00964E-18 1.75636E-18
 -1      1905 1.17529E-04-3.82752E-05-3.39889E-05-7.10987E-06-8.16249E-19 1.37461E-18
 -1      1906 1.15633E-04-3.74053E-05-3.35900E-05-9.44074E-06-1.10020E-18 1.51652E-18
 -1      1907 1.17766E-04-3.97632E-05-3.33953E-05-5.98908E-06-3.88365E-19 2.17049E-18
 -1      1908 1.14909E-04-3.65161E-05-3.36593E-05-1.20146E-05-1.19720E-18 9.85179E-19
 -1      1909 1.11860E-04-3.44577E-05-3.31540E-05-1.32128E-05-1.26841E-18-2.50934E-20
 -1      1910 1.17561E-04-3.87267E-05-3.37234E-05-1.23162E-05-1.45156E-18 2.11511E-18
 -1      1911 1.09781E-04-3.23281E-05-3.32870E-05-1.36004E-05-9.84305E-19-7.65228E-19
 -1      1912 1.06521E-04-2.97288E-05-3.28327E-05-1.24693E-05-1.68849E-18-6.95679E-19
 -1      1913 1.14478E-04-3.44501E-05-3.42698E-05-1.59277E-05-1.84038E-18 8.60076E-19
 -1      1914 1.04199E-04-2.74767E-05-3.29476E-05-9.56193E-06-1.70277E-18-1.31857E-18
 -1      1915 1.02191E-04-2.58511E-05-3.26632E-05-6.10113E-06-1.36086E-18-9.78014E-19
 -1      1916 1.09594E-04-2.83922E-05-3.48775E-05-1.33914E-05-1.79805E-18-4.86941E-20
 -1      1917 1.01411E-04-2.52619E-05-3.26080E-05-1.05742E-06-5.14414E-19 2.94635E-19
 -1      1918 1.01610E-04-2.57628E-05-3.25426E-05 2.93324E-06 1.27108E-19 5.62344E-19
 -1      1919 1.06175E-04-2.45567E-05-3.51434E-05-4.43838E-06-3.45537E-19 1.23616E-18
 -1      1920 1.02846E-04-2.73080E-05-3.22909E-05 7.05385E-06-4.13564E-19 3.59592E-19
 -1      1921 1.04844E-04-2.94306E-05-3.24231E-05 9.29442E-06 1.46113E-19 6.22569E-19
 -1      1922 1.06763E-04-2.59136E-05-3.47691E-05 6.00113E-06-2.06967E-19 3.00512E-18
 -1      1923 1.06667E-04-3.16742E-05-3.20781E-05 1.02736E-05 9.14901E-19-1.04291E-19
 -1      1924 1.09055E-04-3.38336E-05-3.23211E-05 9.93872E-06 2.28947E-18 4.11870E-19
 -1      1925 1.10281E-04-3.12497E-05-3.38867E-05 1.15826E-05 7.71859E-19 3.22640E-18
 -1      1926 1.09827E-04-3.51336E-05-3.20341E-05 8.07559E-06 4.07547E-18 4.18620E-20
 -1      1927 1.11380E-04-3.62539E-05-3.22409E-05 6.03448E-06 3.89554E-18 1.48013E-18
 -1      1928 1.13253E-04-3.63405E-05-3.29138E-05 1.02304E-05 3.03751E-18 3.04250E-18
 -1      1929 1.10748E-04-3.62419E-05-3.20191E-05 3.00617E-06 2.81019E-18 1.89838E-18
 -1      1930 1.10965E-04-3.61969E-05-3.20537E-05 5.96294E-07 2.91203E-18 3.37487E-18
 -1      1931 1.13526E-04-3.83853E-05-3.21592E-05 4.58898E-06 4.07517E-18 3.09290E-18
 -1      1932 1.09402E-04-3.53279E-05-3.18456E-05-2.08520E-06 1.98069E-18 2.76218E-18
 -1      1933 1.08450E-04-3.45377E-05-3.16662E-05-3.93197E-06 9.67457E-19 3.10739E-18
 -1      1934 1.11250E-04-3.74475E-05-3.16176E-05-1.72578E-06 2.32875E-18 2.16573E-18
 -1      1935 1.06532E-04-3.33598E-05-3.14356E-05-5.55848E-06-1.31849E-18 3.90815E-18
 -1      1936 1.04872E-04-3.22563E-05-3.10970E-05-6.46008E-06-2.22961E-18 2.83519E-18
 -1      1937 1.07603E-04-3.48761E-05-3.11788E-05-6.37759E-06 2.51599E-19 2.72681E-18
 -1      1938 1.02966E-04-3.10794E-05-3.08519E-05-6.90509E-06-1.90121E-18 2.94960E-18
 -1      1939 1.01096E-04-2.99383E-05-3.04632E-05-6.81949E-06-8.91644E-19 2.20446E-18
 -1      1940 1.03618E-04-3.18638E-05-3.07698E-05-8.54720E-06-2.36573E-18 4.44441E-18
 -1      1941 9.95608E-05-2.90176E-05-3.02515E-05-6.19435E-06-2.14362E-19 1.34669E-18
 -1      1942 9.79190E-05-2.80437E-05-2.98982E-05-5.27534E-06-1.62612E-19 1.27220E-19
 -1      1943 9.72061E-05-2.71148E-05-3.00472E-05-6.27264E-06-9.54757E-19 2.69929E-19
 -1      1944 1.00027E-04-2.90826E-05-3.04112E-05-8.28267E-06-1.31832E-18 3.66955E-18
 -1      1945 9.32124E-05-2.73630E-05-2.81933E-05 1.60643E-06 9.13075E-20 2.12757E-18
 -1      1946 9.44074E-05-2.74684E-05-2.86300E-05 2.67728E-06-8.59077E-20 2.16679E-18
 -1      1947 9.52311E-05-2.70475E-05-2.92269E-05 4.05521E-06-2.48022E-20 1.76318E-18
 -1      1948 9.21593E-05-2.73492E-05-2.77512E-05 3.50206E-07 1.40654E-20 2.10531E-18
 -1      1949 9.26542E-05-2.73816E-05-2.79238E-05 8.98049E-07 7.68054E-20 2.05809E-18
 -1      1950 9.36258E-05-2.73685E-05-2.84029E-05 1.58707E-06 2.36044E-20 1.74609E-18
 -1      1951 9.17824E-05-2.73865E-05-2.75826E-05-3.02267E-07-1.96591E-19 2.05284E-18
 -1      1952 9.18982E-05-2.73599E-05-2.76298E-05-1.02121E-08-2.53117E-20 2.08783E-18
 -1      1953 9.27936E-05-2.74834E-05-2.80001E-05 2.75142E-07 1.29752E-20 1.56395E-18
 -1      1954 9.18037E-05-2.74764E-05-2.75588E-05-6.26781E-07-3.94779E-19 1.93138E-18
 -1      1955 9.17171E-05-2.74148E-05-2.75428E-05-4.74564E-07-3.55985E-19 1.97172E-18
 -1      1956 9.24780E-05-2.75760E-05-2.78252E-05-4.17073E-07-2.98180E-19 1.35638E-18
 -1      1957 9.20450E-05-2.75975E-05-2.76133E-05-7.63151E-07-1.08672E-19 2.04665E-18
 -1      1958 9.18558E-05-2.75193E-05-2.75652E-05-6.92598E-07-2.00336E-19 1.91538E-18
 -1      1959 9.24791E-05-2.76805E-05-2.77790E-05-7.60465E-07-2.51482E-19 1.29741E-18
 -1      1960 9.23941E-05-2.77305E-05-2.77078E-05-7.89021E-07 3.43206E-19 2.19243E-18
 -1      1961 9.21610E-05-2.76478E-05-2.76451E-05-7.67482E-07 1.48690E-19 2.14029E-18
 -1      1962 9.26608E-05-2.77950E-05-2.78056E-05-8.99692E-07 1.44938E-19 1.25450E-18
 -1      1963 9.27818E-05-2.78623E-05-2.78189E-05-7.51287E-07 5.28942E-20 2.11845E-18
 -1      1964 9.25394E-05-2.77825E-05-2.77520E-05-7.58795E-07 2.92104E-19 2.16619E-18
 -1      1965 9.29342E-05-2.79107E-05-2.78714E-05-9.18359E-07 3.32097E-19 1.50526E-18
 -1      1966 9.31663E-05-2.79847E-05-2.79322E-05-6.79773E-07-4.56373E-19 2.04242E-18
 -1      1967 9.29347E-05-2.79119E-05-2.78673E-05-7.03444E-07-7.13245E-20 2.16952E-18
 -1      1968 9.32428E-05-2.80205E-05-2.79552E-05-8.68081E-07 1.58939E-20 1.58658E-18
 -1      1969 9.35244E-05-2.80936E-05-2.80397E-05-5.94007E-07-1.31838E-19 1.90675E-18
 -1      1970 9.33141E-05-2.80297E-05-2.79801E-05-6.25274E-07-4.11257E-19 1.80984E-18
 -1      1971 9.35522E-05-2.81199E-05-2.80442E-05-7.82118E-07-2.05035E-19 1.43951E-18
 -1      1972 9.38452E-05-2.81877E-05-2.81374E-05-5.06957E-07-7.31786E-21 2.22694E-18
 -1      1973 9.36603E-05-2.81331E-05-2.80845E-05-5.40027E-07-1.72264E-19 1.99761E-18
 -1      1974 9.38431E-05-2.82067E-05-2.81310E-05-6.82428E-07-2.60615E-19 1.29050E-18
 -1      1975 9.41262E-05-2.82673E-05-2.82240E-05-4.27329E-07 8.48520E-19 2.43436E-18
 -1      1976 9.39668E-05-2.82215E-05-2.81780E-05-4.58224E-07 3.96078E-19 2.47959E-18
 -1      1977 9.41064E-05-2.82807E-05-2.82117E-05-5.83712E-07 2.85096E-19 1.70036E-18
 -1      1978 9.43709E-05-2.83344E-05-2.83004E-05-3.61118E-07 2.92555E-19 2.13482E-18
 -1      1979 9.42341E-05-2.82960E-05-2.82604E-05-3.87016E-07 4.89295E-19 2.45490E-18
 -1      1980 9.43404E-05-2.83427E-05-2.82852E-05-4.95976E-07 4.83762E-19 1.55342E-18
 -1      1981 9.45870E-05-2.83914E-05-2.83686E-05-3.12712E-07 1.40910E-20 2.01220E-18
 -1      1982 9.44679E-05-2.83590E-05-2.83333E-05-3.31474E-07-1.54251E-20 1.96659E-18
 -1      1983 9.45487E-05-2.83947E-05-2.83521E-05-4.26282E-07 2.39001E-19 1.14766E-18
 -1      1984 9.47853E-05-2.84420E-05-2.84318E-05-2.85717E-07 4.72674E-20 1.40483E-18
 -1      1985 9.46773E-05-2.84133E-05-2.83994E-05-2.95526E-07 1.57464E-19 1.88072E-18
 -1      1986 9.47384E-05-2.84393E-05-2.84143E-05-3.80010E-07 2.75464E-19 9.87279E-19
 -1      1987 9.49795E-05-2.84900E-05-2.84942E-05-2.83552E-07 6.92633E-19 6.10776E-19
 -1      1988 9.48746E-05-2.84627E-05-2.84623E-05-2.82645E-07 2.45657E-19 9.05775E-19
 -1      1989 9.49195E-05-2.84795E-05-2.84748E-05-3.61790E-07 5.68280E-19 6.62872E-19
 -1      1990 9.51857E-05-2.85402E-05-2.85607E-05-3.09880E-07 6.09487E-19 8.89077E-19
 -1      1991 9.50747E-05-2.85114E-05-2.85267E-05-2.96351E-07 7.82015E-19 1.01196E-18
 -1      1992 9.51048E-05-2.85190E-05-2.85375E-05-3.76165E-07 6.08688E-19 5.27616E-19
 -1      1993 9.54227E-05-2.85979E-05-2.86370E-05-3.68862E-07-8.79247E-19 1.81605E-18
 -1      1994 9.52949E-05-2.85645E-05-2.85977E-05-3.40537E-07-1.80796E-19 1.42977E-18
 -1      1995 9.53092E-05-2.85620E-05-2.86071E-05-4.28035E-07-9.68194E-20 1.23349E-18
 -1      1996 9.57120E-05-2.86694E-05-2.87297E-05-4.65206E-07-8.05994E-19 1.32571E-18
 -1      1997 9.55552E-05-2.86277E-05-2.86814E-05-4.19610E-07-9.76215E-19 1.61653E-18
 -1      1998 9.55503E-05-2.86133E-05-2.86888E-05-5.22868E-07-9.48831E-19 1.41490E-18
 -1      1999 9.60780E-05-2.87619E-05-2.88462E-05-6.03962E-07-5.39227E-20 1.90042E-18
 -1      2000 9.58783E-05-2.87076E-05-2.87849E-05-5.38401E-07-4.49841E-19 1.51726E-18
 -1      2001 9.58479E-05-2.86788E-05-2.87889E-05-6.66618E-07-4.80953E-19 5.57443E-19
 -1      2002 9.65478E-05-2.88837E-05-2.89944E-05-7.89946E-07 1.55979E-18 2.23295E-18
 -1      2003 9.62899E-05-2.88120E-05-2.89158E-05-7.01757E-07 1.02975E-18 2.27670E-18
 -1      2004 9.62245E-05-2.87651E-05-2.89139E-05-8.65270E-07 6.20306E-19 1.38676E-18
 -1      2005 9.71506E-05-2.90443E-05-2.91829E-05-1.02661E-06-1.61495E-19 1.65781E-18
 -1      2006 9.68179E-05-2.89498E-05-2.90822E-05-9.13682E-07 7.39053E-19 2.12477E-18
 -1      2007 9.67045E-05-2.88804E-05-2.90709E-05-1.12383E-06 9.83059E-19 1.48868E-18
 -1      2008 9.79158E-05-2.92544E-05-2.94200E-05-1.31412E-06-1.98480E-18 1.64271E-18
 -1      2009 9.74917E-05-2.91311E-05-2.92926E-05-1.17579E-06-1.34224E-18 1.37320E-18
 -1      2010 9.73136E-05-2.90340E-05-2.92670E-05-1.44451E-06-1.18722E-18 1.78854E-18
 -1      2011 9.88707E-05-2.95254E-05-2.97126E-05-1.64621E-06-1.11023E-18 2.35443E-18
 -1      2012 9.83401E-05-2.93672E-05-2.95545E-05-1.48479E-06-1.73484E-18 1.46036E-18
 -1      2013 9.80772E-05-2.92371E-05-2.95080E-05-1.82381E-06-1.58619E-18 1.47592E-18
 -1      2014 1.00035E-04-2.98686E-05-3.00646E-05-2.00555E-06-8.47471E-20 2.65808E-18
 -1      2015 9.93876E-05-2.96701E-05-2.98736E-05-1.82860E-06-2.24308E-19 2.19662E-18
 -1      2016 9.90176E-05-2.95027E-05-2.97981E-05-2.24790E-06-4.27196E-19 9.55362E-19
 -1      2017 1.01413E-04-3.02940E-05-3.04741E-05-2.35699E-06 1.10950E-18 3.61856E-18
 -1      2018 1.00649E-04-3.00514E-05-3.02512E-05-2.18067E-06 4.59989E-19 3.29356E-18
 -1      2019 1.00149E-04-2.98452E-05-3.01371E-05-2.68610E-06 2.41875E-19 2.04986E-18
 -1      2020 1.02981E-04-3.08074E-05-3.09295E-05-2.63902E-06-8.89934E-19 3.37023E-18
 -1      2021 1.02118E-04-3.05210E-05-3.06813E-05-2.49250E-06 1.75739E-19 3.66858E-18
 -1      2022 1.01473E-04-3.02799E-05-3.05183E-05-3.08198E-06 2.61037E-19 3.43466E-18
 -1      2023 1.04677E-04-3.14058E-05-3.14052E-05-2.75471E-06 1.21527E-19 3.45427E-18
 -1      2024 1.03758E-04-3.10828E-05-3.11464E-05-2.68495E-06-7.26514E-19 3.13473E-18
 -1      2025 1.02964E-04-3.08204E-05-3.09254E-05-3.34322E-06-5.38783E-19 3.56755E-18
 -1      2026 1.06375E-04-3.20684E-05-3.18567E-05-2.56641E-06 3.34319E-19 3.66918E-18
 -1      2027 1.05483E-04-3.17287E-05-3.16134E-05-2.64130E-06 6.86867E-19 3.82268E-18
 -1      2028 1.04562E-04-3.14726E-05-3.13294E-05-3.33288E-06 4.43814E-19 3.34388E-18
 -1      2029 1.07872E-04-3.27432E-05-3.22183E-05-1.90395E-06-1.32459E-18 2.31891E-18
 -1      2030 1.07137E-04-3.24261E-05-3.20295E-05-2.20877E-06-5.96182E-19 2.81662E-18
 -1      2031 1.06154E-04-3.22222E-05-3.16868E-05-2.86992E-06-1.01139E-19 3.18766E-18
 -1      2032 1.08877E-04-3.33269E-05-3.24069E-05-6.03217E-07-5.66625E-19 2.11900E-18
 -1      2033 1.08477E-04-3.30991E-05-3.23224E-05-1.22180E-06-1.04497E-18 2.04362E-18
 -1      2034 1.07553E-04-3.30107E-05-3.19421E-05-1.75338E-06-8.41792E-19 1.53963E-18
 -1      2035 1.09027E-04-3.36446E-05-3.23376E-05 1.40454E-06-3.51366E-19 4.03897E-18
 -1      2036 1.09170E-04-3.36044E-05-3.24089E-05 4.34558E-07-4.88467E-19 2.75347E-18
 -1      2037 1.08488E-04-3.37013E-05-3.20364E-05 1.68356E-07-7.51735E-19 2.17369E-18
 -1      2038 1.07952E-04-3.34515E-05-3.19531E-05 3.94706E-06 6.93601E-19 3.47749E-18
 -1      2039 1.08822E-04-3.37163E-05-3.22152E-05 2.70760E-06 7.45495E-19 4.86127E-18
 -1      2040 1.08607E-04-3.40484E-05-3.19253E-05 2.86505E-06 6.86692E-20 3.44589E-18
 -1      2041 1.05429E-04-3.25014E-05-3.12633E-05 6.45770E-06 8.16775E-19 2.71503E-18
 -1      2042 1.07089E-04-3.31594E-05-3.17100E-05 5.22637E-06 4.86495E-19 2.95971E-18
 -1      2043 1.07547E-04-3.37149E-05-3.16027E-05 5.94450E-06 6.66827E-19 3.70565E-18
 -1      2044 1.01618E-04-3.07309E-05-3.03708E-05 7.97573E-06-8.19728E-19 4.68990E-18
 -1      2045 1.03897E-04-3.17502E-05-3.09365E-05 7.22091E-06-5.40347E-20 3.52014E-18
 -1      2046 1.05123E-04-3.24256E-05-3.11160E-05 8.52776E-06-1.24464E-19 4.86610E-18
 -1      2047 9.72885E-05-2.84966E-05-2.94672E-05 7.52096E-06-1.00105E-18 5.43605E-18
 -1      2048 9.97138E-05-2.96434E-05-3.00287E-05 7.70391E-06-1.05098E-18 5.21416E-18
 -1      2049 1.01620E-04-3.02501E-05-3.05622E-05 9.41469E-06-9.62564E-19 6.33272E-18
 -1      2050 9.37110E-05-2.65737E-05-2.87729E-05 4.74230E-06 2.46751E-19 5.54337E-18
 -1      2051 9.56118E-05-2.74504E-05-2.91886E-05 6.01345E-06-5.19291E-19 5.21981E-18
 -1      2052 9.79546E-05-2.78249E-05-3.00643E-05 7.69998E-06-3.07638E-19 5.21222E-18
 -1      2053 9.21768E-05-2.58593E-05-2.84440E-05 4.82837E-07-2.51536E-19 5.78820E-18
 -1      2054 9.29498E-05-2.60920E-05-2.86128E-05 2.41409E-06-4.96097E-19 5.09453E-18
 -1      2055 9.54394E-05-2.61859E-05-2.97156E-05 3.52982E-06-2.38698E-19 4.90252E-18
 -1      2056 9.31112E-05-2.66468E-05-2.85131E-05-3.47730E-06 4.55002E-19 6.28385E-18
 -1      2057 9.25917E-05-2.61788E-05-2.84188E-05-1.70804E-06 6.93720E-19 6.52421E-18
 -1      2058 9.50420E-05-2.61649E-05-2.95552E-05-1.52186E-06-3.78465E-19 4.92898E-18
 -1      2059 9.57534E-05-2.83869E-05-2.88827E-05-5.55462E-06 6.10765E-19 5.53094E-18
 -1      2060 9.43209E-05-2.75167E-05-2.85990E-05-4.63430E-06 3.28086E-19 5.39634E-18
 -1      2061 9.66308E-05-2.76533E-05-2.95694E-05-5.31243E-06 9.46314E-19 5.61879E-18
 -1      2062 9.86927E-05-3.01401E-05-2.93689E-05-5.28122E-06 3.94568E-19 3.70205E-18
 -1      2063 9.70374E-05-2.92947E-05-2.90258E-05-5.38766E-06 6.53332E-19 4.23625E-18
 -1      2064 9.91034E-05-2.97480E-05-2.97051E-05-6.49893E-06 1.37946E-18 4.25289E-18
 -1      2065 1.00715E-04-3.11971E-05-2.97686E-05-3.32199E-06 2.03406E-18 2.88032E-18
 -1      2066 9.94661E-05-3.06798E-05-2.94972E-05-4.14956E-06 9.98883E-19 3.57392E-18
 -1      2067 1.01166E-04-3.14098E-05-2.98733E-05-5.17780E-06 1.66044E-18 2.20179E-18
 -1      2068 1.01300E-04-3.13659E-05-2.99442E-05-8.16172E-07 2.66849E-18 2.21635E-18
 -1      2069 1.00776E-04-3.12579E-05-2.98235E-05-1.87500E-06 2.58550E-18 3.28486E-18
 -1      2070 1.02036E-04-3.20692E-05-2.99727E-05-2.46837E-06 2.53791E-18 2.02042E-18
 -1      2071 1.00571E-04-3.08238E-05-2.98677E-05 1.25960E-06 5.84281E-19 1.33794E-18
 -1      2072 1.00758E-04-3.10478E-05-2.99053E-05 3.86750E-07 1.48986E-18 2.30416E-18
 -1      2073 1.01612E-04-3.17455E-05-2.99407E-05 3.32432E-07 1.60190E-18 2.83547E-18
 -1      2074 9.90096E-05-2.98808E-05-2.96082E-05 2.32927E-06-7.32147E-19 1.59073E-18
 -1      2075 9.96696E-05-3.02921E-05-2.97537E-05 1.89892E-06-2.34572E-19 1.54533E-18
 -1      2076 1.00223E-04-3.07577E-05-2.97760E-05 2.29111E-06 1.09568E-19 2.04668E-18
 -1      2077 9.72184E-05-2.88604E-05-2.92808E-05 2.21248E-06 1.19410E-18 3.39541E-18
 -1      2078 9.80239E-05-2.93066E-05-2.94596E-05 2.32369E-06 2.47072E-19 2.98133E-18
 -1      2079 9.83707E-05-2.95025E-05-2.95258E-05 2.95545E-06-2.01663E-19 3.03073E-18
 -1      2080 9.59812E-05-2.82035E-05-2.90291E-05 1.47736E-06 8.39077E-19 3.92296E-18
 -1      2081 9.66620E-05-2.85503E-05-2.91947E-05 1.96154E-06 1.37607E-18 4.13482E-18
 -1      2082 9.68722E-05-2.85277E-05-2.93055E-05 2.60362E-06 9.07313E-19 5.00356E-18
 -1      2083 9.58511E-05-2.78127E-05-2.91468E-05 1.87570E-06 1.78243E-18 5.62626E-18
 -1      2084 9.42523E-05-2.18837E-05-3.09857E-05 7.59220E-06 9.93527E-19 5.35527E-19
 -1      2085 9.49197E-05-2.37492E-05-3.04832E-05 6.71083E-06 8.09970E-19 7.17103E-19
 -1      2086 9.52401E-05-2.47551E-05-3.01699E-05 5.53818E-06 1.30736E-18-2.10031E-19
 -1      2087 9.56454E-05-2.60982E-05-2.97905E-05 4.59033E-06 1.33949E-18 2.52091E-18
 -1      2088 9.60448E-05-2.55620E-05-3.02365E-05 7.60644E-06-5.92274E-19-5.09808E-20
 -1      2089 9.56391E-05-2.65275E-05-2.95856E-05 3.56836E-06 2.33731E-18 2.43392E-18
 -1      2090 9.58575E-05-2.74039E-05-2.93202E-05 2.71299E-06 1.83526E-18 2.60985E-18
 -1      2091 9.63362E-05-2.77248E-05-2.93982E-05 3.19491E-06 1.45372E-18 2.80499E-18
 -1      2092 9.64025E-05-2.69537E-05-2.97668E-05 5.20134E-06 3.40148E-19 1.79125E-18
 -1      2093 9.26798E-05-1.82183E-05-3.19130E-05 9.09864E-06 3.03552E-19-6.77908E-18
 -1      2094 9.36392E-05-2.04621E-05-3.13415E-05 8.55300E-06 8.74869E-19-2.40082E-18
 -1      2095 9.49692E-05-2.31042E-05-3.08292E-05 1.00177E-05-7.18142E-20-1.95589E-18
 -1      2096 9.05406E-05-1.39490E-05-3.28655E-05 9.40016E-06 1.09402E-18-2.42016E-18
 -1      2097 9.17342E-05-1.63768E-05-3.22814E-05 9.47876E-06 1.45972E-18-4.83140E-18
 -1      2098 9.30754E-05-1.97402E-05-3.14496E-05 1.15660E-05 6.33938E-19-4.92821E-18
 -1      2099 8.82446E-05-9.83844E-06-3.36770E-05 7.87334E-06 1.03192E-18-1.55568E-18
 -1      2100 8.94133E-05-1.19779E-05-3.31878E-05 8.79863E-06 1.83537E-18-2.35441E-18
 -1      2101 9.04813E-05-1.57558E-05-3.20204E-05 1.13720E-05 2.36762E-18-2.29313E-18
 -1      2102 8.64459E-05-6.84731E-06-3.42007E-05 4.43322E-06-1.82348E-18-1.22370E-18
 -1      2103 8.72452E-05-8.20459E-06-3.39031E-05 6.15126E-06-7.75627E-19-1.37991E-18
 -1      2104 8.77874E-05-1.19537E-05-3.24572E-05 8.79635E-06 2.43939E-19-2.30974E-18
 -1      2105 8.57961E-05-5.85443E-06-3.43350E-05-2.58888E-07-3.17767E-18-1.56324E-18
 -1      2106 8.59427E-05-6.06187E-06-3.42946E-05 1.87206E-06-2.61645E-18-1.43264E-18
 -1      2107 8.58728E-05-9.38691E-06-3.27040E-05 3.97100E-06-2.18247E-18-1.76015E-18
 -1      2108 8.65664E-05-7.21989E-06-3.40515E-05-4.97300E-06-4.16860E-18-1.96578E-19
 -1      2109 8.60020E-05-6.20051E-06-3.42814E-05-2.99869E-06-3.53080E-18 1.99489E-19
 -1      2110 8.54844E-05-8.91603E-06-3.27326E-05-2.02953E-06-3.10081E-18-1.26637E-18
 -1      2111 8.84374E-05-1.05039E-05-3.34146E-05-8.42981E-06-2.23711E-18-3.11535E-18
 -1      2112 8.73733E-05-8.54795E-06-3.38617E-05-7.11705E-06-3.49320E-18-7.05387E-19
 -1      2113 8.67746E-05-1.06973E-05-3.25441E-05-7.54177E-06-2.84482E-18-1.17453E-19
 -1      2114 9.08408E-05-1.49370E-05-3.25209E-05-1.00572E-05-2.83941E-19 2.24191E-18
 -1      2115 8.95652E-05-1.24271E-05-3.31129E-05-9.58281E-06-5.99104E-19-6.53370E-19
 -1      2116 8.92120E-05-1.41250E-05-3.21588E-05-1.12272E-05-2.42860E-21-1.03523E-18
 -1      2117 9.31304E-05-1.94869E-05-3.15375E-05-9.77647E-06-1.27060E-18 3.00638E-18
 -1      2118 9.19384E-05-1.69365E-05-3.21596E-05-1.01064E-05-5.62628E-19 1.88551E-18
 -1      2119 9.20123E-05-1.82390E-05-3.16270E-05-1.25184E-05-3.16486E-19 1.29263E-18
 -1      2120 9.50006E-05-2.34629E-05-3.06385E-05-8.06797E-06-2.66591E-18 2.04342E-18
 -1      2121 9.39708E-05-2.12104E-05-3.11763E-05-8.96765E-06-2.91792E-18 2.23404E-18
 -1      2122 9.44742E-05-2.21139E-05-3.10349E-05-1.16043E-05-2.34431E-18 1.50035E-18
 -1      2123 6.81558E-05-4.52223E-05-1.04556E-05 4.35113E-05-2.20864E-18-2.63872E-18
 -1      2124 5.31087E-05-4.59079E-05-3.95875E-06 3.92661E-05-3.76930E-19-4.76308E-18
 -1      2125 1.33679E-05-3.54466E-05 8.28819E-06 5.96747E-06 4.25528E-19-4.59981E-18
 -1      2126 1.41718E-05-3.94738E-05 9.15822E-06-5.21047E-06 2.78621E-18-2.51272E-18
 -1      2127 3.30637E-05-3.82918E-05 1.43059E-06 3.22639E-05 1.69407E-21-6.97786E-18
 -1      2128 2.18506E-05-3.83002E-05 5.78383E-06 2.00262E-05 7.17860E-19-6.50352E-18
 -1      2129 1.11964E-04-5.14243E-05-2.61925E-05 4.17802E-05-2.54449E-18-5.02439E-18
 -1      2130 8.81318E-05-4.98499E-05-1.73551E-05 4.03591E-05-2.31748E-18-3.71149E-18
 -1      2131 9.28986E-05-5.47401E-05-1.63003E-05 4.48008E-05-1.52508E-18-3.45971E-18
 -1      2132 1.47616E-04-4.19614E-05-4.41504E-05 3.49124E-05-1.50899E-18-7.93839E-18
 -1      2133 1.30243E-04-4.76684E-05-3.52810E-05 3.29002E-05-1.72414E-18-5.36214E-18
 -1      2134 8.72458E-05-8.72250E-06-3.37486E-05-1.05413E-05 8.16629E-19-1.10399E-18
 -1      2135 8.79537E-05-9.24259E-06-3.38209E-05-1.20969E-05 6.84045E-19-1.24734E-18
 -1      2136 9.04891E-05-1.30525E-05-3.32356E-05-1.18780E-05 6.19148E-19-1.26462E-18
 -1      2137 8.86852E-05-1.10564E-05-3.32945E-05-9.41617E-06 8.74092E-19-9.95184E-19
 -1      2138 1.75282E-04-2.40904E-05-6.42197E-05 5.78669E-06-1.35525E-18-6.54291E-18
 -1      2139 1.73618E-04-2.82129E-05-6.12299E-05 1.43373E-05-1.23879E-18-7.89731E-18
 -1      2140 1.82835E-04-2.33558E-05-6.69385E-05-1.05417E-06-1.02660E-18-8.21008E-18
 -1      2141 1.73944E-04-1.91516E-05-6.58869E-05 4.94079E-06-1.47977E-18-7.69381E-18
 -1      2142 1.73387E-04-2.69038E-05-6.20775E-05-9.80718E-06 6.71909E-19-7.12270E-18
 -1      2143 1.83013E-04-2.69047E-05-6.57677E-05-3.94092E-06-1.17314E-19-7.80435E-18
 -1      2144 1.58375E-04-1.36439E-05-6.10816E-05 3.84476E-06-2.01594E-19-6.59849E-18
 -1      2145 1.55753E-04-3.52663E-05-5.12133E-05-2.51936E-05 1.46913E-18-6.67293E-18
 -1      2146 1.72116E-04-3.46699E-05-5.78281E-05-1.92166E-05 1.65415E-18-6.19435E-18
 -1      2147 1.24620E-04-4.12584E-05-3.60447E-05-3.44198E-05 1.61063E-18-5.97497E-18
 -1      2148 1.45546E-04-3.98269E-05-4.43378E-05-3.43929E-05 1.57802E-18-6.20663E-18
 -1      2149 9.67694E-05-4.91216E-05-2.06722E-05-3.85772E-05 2.12521E-18-4.24469E-18
 -1      2150 1.13748E-04-4.49034E-05-2.89631E-05-4.05625E-05 2.02017E-18-4.85011E-18
 -1      2151 5.29242E-05-4.44224E-05-4.76730E-06-3.62144E-05 1.93124E-18-3.07542E-18
 -1      2152 7.22034E-05-4.50434E-05-1.22029E-05-4.25032E-05 2.22939E-18-4.27805E-18
 -1      2153 2.33039E-05-3.81965E-05 5.10487E-06-2.21951E-05 6.15793E-19-2.74650E-18
 -1      2154 3.42395E-05-3.65319E-05 4.17099E-07-3.26411E-05 1.15324E-18-2.15930E-18
 -1      2155 1.20757E-05-3.29495E-05 7.98102E-06-2.36564E-06 6.78420E-19-1.18161E-18
 -1      2156 1.50665E-05-3.47808E-05 7.37248E-06-1.30578E-05 5.50783E-19-1.87618E-18
 -1      2157 2.34181E-05-2.76665E-05 1.48362E-06-2.22567E-05 8.32845E-19-2.25988E-18
 -1      2158 2.28315E-05-3.72806E-05 5.09901E-06 2.18213E-05-3.91329E-19-1.71884E-18
 -1      2159 1.52732E-05-3.63856E-05 7.79565E-06 1.15941E-05 8.92349E-19-8.10187E-19
 -1      2160 5.28597E-05-4.22568E-05-5.21205E-06 3.64897E-05-1.49755E-18-1.69179E-18
 -1      2161 3.90530E-05-4.26550E-05 3.70450E-07 2.99290E-05-6.87367E-19-2.16925E-18
 -1      2162 9.11480E-05-4.69180E-05-1.91597E-05 4.10713E-05-1.58353E-18-9.02514E-19
 -1      2163 6.98998E-05-4.76360E-05-1.08186E-05 3.56345E-05-1.44165E-18-9.53124E-19
 -1      2164 7.40773E-05-4.94743E-05-1.07712E-05 4.07607E-05-3.75236E-19-8.16487E-19
 -1      2165 1.34164E-04-4.94750E-05-3.63465E-05 2.99910E-05-2.11737E-18 8.80067E-19
 -1      2166 1.11842E-04-4.94003E-05-2.73832E-05 3.25527E-05-2.22389E-18-5.31937E-19
 -1      2167 1.66389E-04-3.94967E-05-5.30152E-05 1.94886E-05-1.95237E-18 1.38066E-19
 -1      2168 1.48790E-04-4.31687E-05-4.50983E-05 1.96781E-05-2.55296E-18 2.68933E-19
 -1      2169 1.85333E-04-3.19166E-05-6.40817E-05 8.62311E-06-1.17102E-18 8.38139E-19
 -1      2170 1.71383E-04-3.27874E-05-5.88148E-05 1.32651E-05-1.25615E-18-4.19281E-20
 -1      2171 1.90993E-04-2.69383E-05-6.87836E-05-3.23349E-06-5.84453E-20 2.62633E-19
 -1      2172 1.87298E-04-2.74076E-05-6.71976E-05 4.69837E-06-3.34154E-19 7.44542E-19
 -1      2173 1.80718E-04-2.60872E-05-6.52255E-05-1.13313E-05-6.06052E-19-3.39237E-19
 -1      2174 1.88359E-04-2.64204E-05-6.78260E-05-5.46522E-06-1.87618E-19 5.50571E-21
 -1      2175 1.66650E-04-3.41279E-05-5.60336E-05-2.42819E-05 1.26917E-18-1.03804E-18
 -1      2176 1.80493E-04-3.30809E-05-6.18399E-05-1.79694E-05-1.16255E-19-1.84357E-18
 -1      2177 1.39134E-04-4.20594E-05-4.17111E-05-3.28796E-05 5.95485E-18 5.46760E-19
 -1      2178 1.58783E-04-4.04582E-05-4.95837E-05-3.18491E-05 3.95099E-18-2.12605E-19
 -1      2179 1.06838E-04-4.86894E-05-2.56454E-05-3.84870E-05 4.32029E-18-1.80418E-18
 -1      2180 1.26711E-04-4.55131E-05-3.42720E-05-4.13159E-05 5.33123E-18 5.06102E-19
 -1      2181 6.63897E-05-4.78003E-05-9.48964E-06-3.82759E-05 4.67393E-18-2.97965E-18
 -1      2182 8.53740E-05-4.56968E-05-1.73296E-05-4.48534E-05 4.05051E-18-3.08129E-18
 -1      2183 3.79434E-05-4.59272E-05 1.60617E-06-3.02415E-05 2.14045E-18-4.43146E-18
 -1      2184 4.97548E-05-4.34624E-05-3.73618E-06-3.71404E-05 3.55246E-18-4.22730E-18
 -1      2185 1.83154E-05-4.26989E-05 8.59248E-06-1.48571E-05 3.92917E-18-1.45224E-18
 -1      2186 2.47330E-05-4.13298E-05 5.63343E-06-2.36049E-05 3.48173E-18-2.73719E-18
 -1      2187 1.70406E-04-3.52261E-05-5.68401E-05 2.23420E-05-7.44648E-19-9.31906E-18
 -1      2188 1.54892E-04-3.67732E-05-5.02691E-05 2.72615E-05-8.18128E-19-8.50421E-18
 -1      2189 1.52944E-04-4.60555E-05-4.52850E-05 1.53273E-05-2.14180E-19-7.05367E-18
 -1      2190 1.27147E-04-5.51650E-05-3.08345E-05 3.30620E-05-2.51886E-18-4.85265E-18
 -1      2191 1.25474E-04-6.10577E-05-2.70429E-05 3.36967E-05-2.03944E-18-4.93481E-18
 -1      2192 1.39789E-04-5.91455E-05-3.51910E-05 2.23129E-05-1.61720E-18-5.00724E-18
 -1      2193 9.71895E-05-2.43144E-05-3.13054E-05-1.00041E-05 1.54001E-19-2.35510E-18
 -1      2194 1.60942E-04-2.98662E-05-5.51829E-05 4.54345E-06-3.14249E-19-5.36977E-18
 -1      2195 9.63474E-05-2.31042E-05-3.14554E-05-1.03883E-05 1.78645E-19-1.92541E-18
 -1      2196 4.91672E-05-4.16618E-05-3.57638E-06 3.87564E-05 4.95091E-19-6.25110E-18
 -1      2197 4.57865E-05-3.38387E-05-4.68055E-06 3.87408E-05 8.13363E-19-6.35741E-18
 -1      2198 6.54481E-05-4.44221E-05-9.39861E-06 4.54457E-05 4.90644E-19-4.02574E-18
 -1      2199 2.12954E-05-2.87918E-05 2.80632E-06 1.58952E-05 1.94288E-19-6.01563E-18
 -1      2200 9.57448E-05-2.48912E-05-3.03373E-05-7.67540E-06-2.54584E-18 1.61654E-18
 -1      2201 1.80625E-05-3.05345E-05 4.46837E-06-1.29732E-05 1.83891E-18-2.50256E-18
 -1      2202 3.70690E-05-3.97609E-05 2.05397E-07-3.37735E-05 2.12859E-18-3.21555E-18
 -1      2203 6.94808E-05-4.94246E-05-9.14131E-06-4.44393E-05 2.32383E-18-3.16208E-18
 -1      2204 1.09255E-04-5.70356E-05-2.23739E-05-4.06439E-05 4.16401E-18-7.64447E-19
 -1      2205 1.41969E-04-5.43458E-05-3.71447E-05-2.59861E-05 5.33228E-18 6.37816E-19
 -1      2206 1.60397E-04-4.10871E-05-5.01840E-05-1.21563E-05 3.30602E-18-7.47507E-19
 -1      2207 1.66245E-04-2.43696E-05-5.96293E-05-3.11969E-06-9.14796E-20-4.72221E-19
 -1      2208 1.66503E-04-1.51792E-05-6.34930E-05-2.14476E-06 7.41154E-20 5.55733E-19
 -1      2209 1.67981E-04-2.13654E-05-6.14973E-05-3.74612E-06-8.30516E-19 1.02978E-18
 -1      2210 1.61775E-04-3.63041E-05-5.31332E-05 4.99195E-07-1.73504E-18 2.41404E-19
 -1      2211 1.12849E-04-5.73740E-05-2.35790E-05 3.38931E-05-9.96534E-19 5.69630E-20
 -1      2212 1.63121E-05-2.64592E-05 3.86091E-06 5.32488E-06 1.07028E-18-1.26335E-18
 -1      2213 5.14915E-05-3.98243E-05-5.13414E-06-3.93801E-05 1.49247E-18-3.35637E-18
 -1      2214 9.24068E-05-5.12910E-05-1.76623E-05-4.03584E-05 1.76903E-18-3.86459E-18
 -1      2215 1.11130E-04-5.86232E-05-2.30628E-05-3.57989E-05 1.08060E-18-2.94249E-18
 -1      2216 8.97979E-05-5.20070E-05-1.55927E-05-4.24875E-05 1.41116E-18-3.87986E-18
 -1      2217 1.30135E-04-5.45139E-05-3.24779E-05-2.79166E-05 9.08866E-19-5.12963E-18
 -1      2218 1.61591E-04-2.75421E-05-5.64614E-05-1.43917E-06 4.37493E-19-7.07315E-18
 -1      2219 1.64326E-04-1.76511E-05-6.21909E-05 2.14057E-06-8.83455E-19-6.35465E-18
 -1      2220 1.48376E-04-1.51420E-05-5.71700E-05-2.42168E-06 1.30655E-19-4.40468E-18
 -1      2221 1.46131E-04-1.02349E-05-5.85896E-05-6.73137E-07-5.19231E-19-5.18773E-18
 -1      2222 1.52141E-04-4.35312E-05-4.57683E-05-1.52775E-05 1.37521E-18-5.83690E-18
 -1      2223 3.74462E-05-3.63969E-05-9.64060E-07 3.20184E-05 2.68509E-19-1.93187E-18
 -1      2224 1.44495E-04-5.08179E-05-3.98718E-05 1.80772E-05-1.94076E-18 8.39410E-19
 -1      2225 1.40207E-04-5.80015E-05-3.47703E-05 1.53003E-05-1.55462E-18 1.28601E-18
 -1      2226 1.49821E-04-5.19878E-05-4.25318E-05 3.64844E-06-1.52042E-18 9.33854E-19
 -1      2227 9.52134E-05-2.63767E-05-2.94883E-05 4.19849E-06 5.85048E-20 1.53159E-18
 -1      2228 9.61886E-05-2.58622E-05-3.00663E-05 6.00350E-06 1.70068E-20 1.60554E-18
 -1      2229 8.81362E-05-1.11844E-05-3.30186E-05-3.66274E-06 1.01944E-18-3.69326E-19
 -1      2230 8.83700E-05-1.14543E-05-3.30007E-05-4.80414E-06 9.97773E-19-5.98971E-19
 -1      2231 8.87206E-05-1.19366E-05-3.29521E-05-5.82208E-06 1.01410E-18-7.22526E-19
 -1      2232 8.91294E-05-1.24107E-05-3.29236E-05-6.99411E-06 9.81303E-19-7.72964E-19
 -1      2233 8.98902E-05-1.38237E-05-3.25987E-05-4.90673E-06 9.61757E-19-6.01158E-19
 -1      2234 8.77915E-05-1.07267E-05-3.30618E-05 6.15819E-07 1.05239E-18 1.27981E-19
 -1      2235 8.77870E-05-1.07217E-05-3.30620E-05-4.95738E-07 1.07919E-18 2.63838E-20
 -1      2236 8.79722E-05-1.09515E-05-3.30433E-05 2.75913E-06 9.94682E-19 2.81407E-19
 -1      2237 8.78576E-05-1.08185E-05-3.30526E-05 1.63919E-06 1.04400E-18 1.94917E-19
 -1      2238 8.91095E-05-1.27734E-05-3.27186E-05 1.05028E-06 9.74528E-19 1.36574E-19
 -1      2239 8.84057E-05-1.14980E-05-3.29980E-05 4.88952E-06 9.54430E-19 4.58827E-19
 -1      2240 8.81667E-05-1.12216E-05-3.30161E-05 3.76588E-06 9.95268E-19 3.18524E-19
 -1      2241 8.93749E-05-1.31290E-05-3.26786E-05 3.02277E-06 9.15939E-19 3.16264E-19
 -1      2242 8.91842E-05-1.24799E-05-3.29191E-05 7.07749E-06 8.67856E-19 8.17857E-19
 -1      2243 8.87666E-05-1.19937E-05-3.29482E-05 5.90557E-06 9.45557E-19 6.43699E-19
 -1      2244 8.99311E-05-1.38763E-05-3.25940E-05 4.97796E-06 8.83780E-19 5.54813E-19
 -1      2245 9.04531E-05-1.40882E-05-3.27921E-05 9.22661E-06 7.78001E-19 1.17591E-18
 -1      2246 8.97731E-05-1.32777E-05-3.28375E-05 8.04755E-06 7.88838E-19 9.79197E-19
 -1      2247 9.08655E-05-1.51352E-05-3.24490E-05 6.87432E-06 7.96878E-19 8.53018E-19
 -1      2248 9.24496E-05-1.66590E-05-3.25821E-05 1.11108E-05 5.63773E-19 1.46094E-18
 -1      2249 9.13715E-05-1.53195E-05-3.26542E-05 1.00307E-05 6.58338E-19 1.29110E-18
 -1      2250 9.22881E-05-1.70881E-05-3.22078E-05 8.52031E-06 6.61841E-19 1.14175E-18
 -1      2251 9.42320E-05-2.71164E-05-2.87471E-05 1.76901E-06 9.80937E-20 1.35809E-18
 -1      2252 9.48332E-05-2.68931E-05-2.90458E-05 2.74165E-06 1.24818E-19 1.47720E-18
 -1      2253 9.53372E-05-2.58474E-05-2.97892E-05 4.36555E-06 2.04714E-19 1.29393E-18
 -1      2254 9.58930E-05-2.50785E-05-3.03034E-05-6.19883E-06 2.13049E-19-1.51658E-18
 -1      2255 9.52432E-05-2.58510E-05-2.97591E-05-4.25775E-06 2.18118E-19-1.33512E-18
 -1      2256 1.49722E-04-2.62111E-05-5.35713E-05-4.17521E-06-4.62904E-19-5.04662E-18
 -1      2257 1.51304E-04-3.54591E-05-4.98773E-05-5.38364E-07-6.98379E-19-5.51334E-18
 -1      2258 9.51576E-05-2.65428E-05-2.93430E-05-2.96996E-06 9.83352E-20-1.24053E-18
 -1      2259 9.46580E-05-2.68940E-05-2.90400E-05-1.88432E-06 1.14207E-19-1.29091E-18
 -1      2260 9.53527E-05-2.54444E-05-2.99944E-05-4.27741E-06 1.92670E-19-1.14930E-18
 -1      2261 9.44720E-05-2.72383E-05-2.87755E-05-1.03097E-06 4.51880E-20-1.22900E-18
 -1      2262 9.42110E-05-2.74514E-05-2.86087E-05-4.30028E-07 1.16749E-19-1.18656E-18
 -1      2263 9.50182E-05-2.66874E-05-2.92979E-05-1.91846E-06 9.58405E-20-1.05480E-18
 -1      2264 9.40614E-05-2.76316E-05-2.84473E-05 7.65207E-08 1.98746E-20-1.14195E-18
 -1      2265 9.39620E-05-2.77745E-05-2.83635E-05 4.05632E-07-2.22297E-20-1.07786E-18
 -1      2266 9.47246E-05-2.74282E-05-2.88540E-05-4.47965E-07 1.06702E-19-9.11747E-19
 -1      2267 9.38769E-05-2.78838E-05-2.82701E-05 6.87899E-07-1.50082E-19-1.15705E-18
 -1      2268 9.38816E-05-2.79903E-05-2.82369E-05 8.51527E-07-1.52512E-19-1.24054E-18
 -1      2269 9.45220E-05-2.78554E-05-2.85817E-05 4.21512E-07-1.01311E-19-8.47224E-19
 -1      2270 9.38498E-05-2.80621E-05-2.81881E-05 9.88469E-07-2.52718E-19-1.31713E-18
 -1      2271 9.39160E-05-2.81454E-05-2.81857E-05 1.05047E-06-6.65953E-20-1.44879E-18
 -1      2272 9.44285E-05-2.81240E-05-2.84237E-05 8.91750E-07-2.54383E-19-1.05934E-18
 -1      2273 9.39213E-05-2.81946E-05-2.81658E-05 1.09566E-06 2.37530E-19-1.56057E-18
 -1      2274 9.40195E-05-2.82606E-05-2.81810E-05 1.09643E-06 1.40010E-19-1.47911E-18
 -1      2275 9.44180E-05-2.82997E-05-2.83415E-05 1.10462E-06-2.48663E-20-1.18913E-18
 -1      2276 9.40479E-05-2.82948E-05-2.81794E-05 1.08606E-06-1.63568E-19-1.47740E-18
 -1      2277 9.41587E-05-2.83467E-05-2.82041E-05 1.05206E-06-3.84794E-19-1.35816E-18
 -1      2278 9.44624E-05-2.84163E-05-2.83087E-05 1.15645E-06 7.48034E-20-1.52413E-18
 -1      2279 9.41996E-05-2.83701E-05-2.82135E-05 1.01078E-06-4.02943E-19-1.04261E-18
 -1      2280 9.43111E-05-2.84103E-05-2.82424E-05 9.59688E-07-8.38420E-20-8.74429E-19
 -1      2281 9.45385E-05-2.84925E-05-2.83074E-05 1.11284E-06-1.26473E-19-1.10903E-18
 -1      2282 9.43576E-05-2.84255E-05-2.82582E-05 9.04417E-07-7.88407E-21-6.02168E-19
 -1      2283 9.44633E-05-2.84559E-05-2.82881E-05 8.48222E-07 2.35228E-19-4.30061E-19
 -1      2284 9.46300E-05-2.85399E-05-2.83255E-05 1.01875E-06-3.42439E-20-3.05215E-19
 -1      2285 9.45112E-05-2.84648E-05-2.83074E-05 7.90634E-07 4.31750E-19-6.27020E-19
 -1      2286 9.46083E-05-2.84870E-05-2.83369E-05 7.37571E-07 6.11203E-19-3.56210E-19
 -1      2287 9.47264E-05-2.85661E-05-2.83551E-05 9.05257E-07 3.38899E-19 2.10647E-19
 -1      2288 9.46554E-05-2.84911E-05-2.83580E-05 6.85845E-07 5.03234E-19-6.77648E-19
 -1      2289 9.47439E-05-2.85067E-05-2.83864E-05 6.41730E-07 2.21595E-19-7.05608E-19
 -1      2290 9.48220E-05-2.85763E-05-2.83914E-05 7.93976E-07 4.53067E-19-3.27298E-19
 -1      2291 9.47897E-05-2.85069E-05-2.84087E-05 6.01814E-07-2.46354E-19-4.36474E-19
 -1      2292 9.48716E-05-2.85173E-05-2.84363E-05 5.71013E-07-4.87436E-19-4.79998E-19
 -1      2293 9.49145E-05-2.85744E-05-2.84317E-05 7.00332E-07-1.05162E-20-5.27916E-19
 -1      2294 9.49170E-05-2.85145E-05-2.84598E-05 5.47570E-07-5.88153E-19-4.67029E-19
 -1      2295 9.49956E-05-2.85209E-05-2.84875E-05 5.33728E-07-3.00464E-19-4.86179E-19
 -1      2296 9.50045E-05-2.85628E-05-2.84753E-05 6.35909E-07-4.87137E-19 3.04643E-19
 -1      2297 9.50423E-05-2.85156E-05-2.85128E-05 5.30859E-07-6.56762E-19-9.49681E-19
 -1      2298 9.51225E-05-2.85195E-05-2.85420E-05 5.37453E-07-9.27494E-19-1.12772E-18
 -1      2299 9.50947E-05-2.85432E-05-2.85226E-05 6.10244E-07-9.00630E-19-1.45740E-19
 -1      2300 9.51730E-05-2.85119E-05-2.85702E-05 5.59252E-07-6.44483E-19-1.32421E-18
 -1      2301 9.52607E-05-2.85145E-05-2.86026E-05 5.90023E-07-6.82771E-19-1.36063E-18
 -1      2302 9.51893E-05-2.85165E-05-2.85748E-05 6.32183E-07-9.81128E-19-8.12188E-19
 -1      2303 9.53182E-05-2.85051E-05-2.86350E-05 6.40992E-07-6.44549E-19-1.16285E-18
 -1      2304 9.54205E-05-2.85079E-05-2.86730E-05 7.00262E-07-4.60662E-19-1.03883E-18
 -1      2305 9.52941E-05-2.84831E-05-2.86344E-05 7.10918E-07-5.45651E-19-5.57106E-19
 -1      2306 9.54887E-05-2.84968E-05-2.87115E-05 7.85608E-07 2.11795E-19-1.11421E-18
 -1      2307 9.56141E-05-2.85013E-05-2.87575E-05 8.78490E-07 5.43598E-19-5.59645E-19
 -1      2308 9.54161E-05-2.84433E-05-2.87041E-05 8.56726E-07-1.13897E-19-2.57375E-19
 -1      2309 9.56972E-05-2.84889E-05-2.88041E-05 1.00428E-06 4.44170E-19-2.93342E-19
 -1      2310 9.58554E-05-2.84972E-05-2.88613E-05 1.13676E-06 6.40821E-19-3.93464E-19
 -1      2311 9.55632E-05-2.83971E-05-2.87874E-05 1.08144E-06 7.56655E-19-4.05075E-19
 -1      2312 9.59584E-05-2.84839E-05-2.89180E-05 1.30992E-06 5.61608E-19-6.51616E-19
 -1      2313 9.61606E-05-2.84987E-05-2.89897E-05 1.48874E-06 4.59514E-19-1.46169E-19
 -1      2314 9.57447E-05-2.83449E-05-2.88880E-05 1.39861E-06 6.56080E-19-8.94087E-19
 -1      2315 9.62888E-05-2.84855E-05-2.90589E-05 1.71680E-06-9.48884E-20-4.75475E-19
 -1      2316 9.65476E-05-2.85103E-05-2.91487E-05 1.94903E-06 2.49993E-19-7.90213E-19
 -1      2317 9.59709E-05-2.82879E-05-2.90098E-05 1.82316E-06 3.67908E-20-9.06185E-19
 -1      2318 9.67070E-05-2.84991E-05-2.92323E-05 2.23950E-06 6.30044E-19-1.04852E-18
 -1      2319 9.70364E-05-2.85392E-05-2.93437E-05 2.53162E-06 3.01033E-19-1.28430E-18
 -1      2320 9.62532E-05-2.82291E-05-2.91564E-05 2.37050E-06-8.26211E-20-1.41267E-18
 -1      2321 9.72337E-05-2.85339E-05-2.94432E-05 2.89076E-06 2.68689E-19-1.36303E-18
 -1      2322 9.76489E-05-2.85970E-05-2.95795E-05 3.24682E-06 7.04175E-19-8.06790E-19
 -1      2323 9.66046E-05-2.81754E-05-2.93303E-05 3.05455E-06 3.93519E-19-1.47121E-18
 -1      2324 9.78924E-05-2.86047E-05-2.96952E-05 3.67744E-06 6.84395E-19-5.79742E-19
 -1      2325 9.84095E-05-2.87030E-05-2.98583E-05 4.09591E-06 4.61037E-19-2.68464E-19
 -1      2326 9.70405E-05-2.81403E-05-2.95325E-05 3.88418E-06 5.20217E-19-6.83767E-19
 -1      2327 9.87111E-05-2.87377E-05-2.99889E-05 4.59362E-06 1.71739E-19-1.18411E-19
 -1      2328 9.93465E-05-2.88903E-05-3.01789E-05 5.06195E-06 3.05774E-19 1.75026E-19
 -1      2329 9.75817E-05-2.81500E-05-2.97606E-05 4.85733E-06 4.65556E-19-6.47409E-19
 -1      2330 9.97253E-05-2.89771E-05-3.03203E-05 5.60915E-06 7.05304E-20-3.09870E-20
 -1      2331 1.00496E-04-2.92145E-05-3.05336E-05 6.09519E-06-2.21722E-19-1.76041E-19
 -1      2332 9.82592E-05-2.82523E-05-3.00079E-05 5.95133E-06 1.37100E-19-1.02193E-18
 -1      2333 1.00985E-04-2.93968E-05-3.06783E-05 6.65162E-06 5.51820E-20 6.43958E-19
 -1      2334 1.01907E-04-2.97661E-05-3.09063E-05 7.09100E-06 1.81387E-19 3.69514E-19
 -1      2335 9.91256E-05-2.85308E-05-3.02615E-05 7.10805E-06 1.00901E-19 5.24910E-19
 -1      2336 1.02565E-04-3.01144E-05-3.10438E-05 7.57961E-06 3.98906E-19 3.18702E-19
 -1      2337 1.03655E-04-3.06828E-05-3.12716E-05 7.85946E-06 4.65176E-19 1.66648E-18
 -1      2338 1.00271E-04-2.91233E-05-3.05026E-05 8.21170E-06 4.04134E-19 1.77983E-18
 -1      2339 1.04578E-04-3.12999E-05-3.13905E-05 8.14678E-06 1.13459E-19 2.08373E-18
 -1      2340 1.05845E-04-3.21483E-05-3.15984E-05 8.08988E-06 5.92314E-19 1.95561E-18
 -1      2341 1.01849E-04-3.02373E-05-3.07092E-05 9.05728E-06 8.55379E-19 2.85326E-18
 -1      2342 1.07171E-04-3.31570E-05-3.16937E-05 7.96217E-06 1.07455E-18 1.08433E-18
 -1      2343 1.08599E-04-3.43443E-05-3.18623E-05 7.32386E-06 1.07286E-18 2.07447E-18
 -1      2344 1.04092E-04-3.21428E-05-3.08676E-05 9.30954E-06 3.22997E-19 2.62012E-18
 -1      2345 1.10476E-04-3.58267E-05-3.19499E-05 6.47261E-06 1.17474E-18 2.22552E-18
 -1      2346 1.11970E-04-3.72944E-05-3.20741E-05 4.98197E-06 1.62241E-18 1.93573E-18
 -1      2347 1.07293E-04-3.50871E-05-3.09961E-05 8.46040E-06 1.37434E-18 1.24502E-18
 -1      2348 1.14434E-04-3.91413E-05-3.22146E-05 3.03186E-06 1.61512E-18 1.65258E-18
 -1      2349 1.15719E-04-4.05221E-05-3.23259E-05 5.23750E-07 6.51937E-19 1.34264E-18
 -1      2350 1.11663E-04-3.90457E-05-3.11870E-05 5.82559E-06 1.08842E-18 1.69652E-18
 -1      2351 1.18425E-04-4.21567E-05-3.26488E-05-2.75490E-06-3.17439E-20 1.26623E-18
 -1      2352 1.18968E-04-4.26000E-05-3.28285E-05-6.03565E-06-6.92800E-19 1.17647E-18
 -1      2353 1.16930E-04-4.31877E-05-3.16638E-05 7.13307E-07 1.58954E-19 9.52226E-19
 -1      2354 1.20947E-04-4.28294E-05-3.35106E-05-1.02326E-05-1.29966E-18 1.99365E-18
 -1      2355 1.20065E-04-4.11470E-05-3.38691E-05-1.32444E-05-1.38881E-18 2.22585E-18
 -1      2356 1.21812E-04-4.53714E-05-3.27896E-05-6.91094E-06-5.64188E-19 1.33642E-18
 -1      2357 1.19879E-04-3.85966E-05-3.50069E-05-1.64660E-05-2.06268E-18 2.11308E-18
 -1      2358 1.17479E-04-3.45165E-05-3.55438E-05-1.72335E-05-2.75368E-18 1.60600E-18
 -1      2359 1.23747E-04-4.22524E-05-3.49160E-05-1.50508E-05-1.61864E-18 2.61797E-18
 -1      2360 1.15058E-04-2.97502E-05-3.68344E-05-1.65337E-05-2.28711E-18 1.34825E-18
 -1      2361 1.12393E-04-2.53443E-05-3.73090E-05-1.35282E-05-1.19524E-18 1.62953E-18
 -1      2362 1.20881E-04-3.27647E-05-3.78698E-05-1.85565E-05-2.78324E-18 2.53242E-18
 -1      2363 1.10218E-04-2.19621E-05-3.80420E-05-7.85362E-06 2.41404E-20 1.54840E-18
 -1      2364 1.09362E-04-2.08685E-05-3.80713E-05-2.23728E-06 1.61254E-19 2.20907E-18
 -1      2365 1.15736E-04-2.21295E-05-4.03308E-05-1.21422E-05-4.44692E-19 2.59359E-18
 -1      2366 1.10175E-04-2.23255E-05-3.76765E-05 4.58943E-06 3.38813E-21 2.63437E-18
 -1      2367 1.11514E-04-2.54534E-05-3.71983E-05 8.99910E-06 4.38128E-19 3.44603E-18
 -1      2368 1.14336E-04-1.96544E-05-4.07880E-05 1.61219E-06 9.29089E-20 2.46508E-18
 -1      2369 1.14015E-04-3.00796E-05-3.59546E-05 1.21847E-05 4.17058E-19 3.56294E-18
 -1      2370 1.16225E-04-3.46787E-05-3.52104E-05 1.29259E-05 1.70491E-18 3.55386E-18
 -1      2371 1.17624E-04-2.77008E-05-3.86248E-05 1.22890E-05 9.58682E-19 5.27087E-18
 -1      2372 1.17238E-04-3.82666E-05-3.38403E-05 1.09141E-05 2.33051E-18 3.53612E-18
 -1      2373 1.18201E-04-4.08548E-05-3.32437E-05 8.71195E-06 2.52727E-18 3.19584E-18
 -1      2374 1.21685E-04-3.83412E-05-3.57820E-05 1.29054E-05 2.18169E-18 4.38833E-18
 -1      2375 1.16791E-04-4.17141E-05-3.22602E-05 4.53611E-06 3.12434E-18 2.45283E-18
 -1      2376 1.16212E-04-4.18266E-05-3.18688E-05 1.20090E-06 3.33774E-18 1.68427E-18
 -1      2377 1.21213E-04-4.43610E-05-3.30108E-05 5.70955E-06 2.15814E-18 4.00512E-18
 -1      2378 1.13368E-04-4.04706E-05-3.13453E-05-2.57579E-06 2.54647E-18 7.81350E-19
 -1      2379 1.11760E-04-3.90675E-05-3.10973E-05-5.39968E-06 1.84796E-18 1.45245E-18
 -1      2380 1.16718E-04-4.37880E-05-3.13227E-05-2.77552E-06 2.30488E-18 1.81819E-18
 -1      2381 1.08768E-04-3.69160E-05-3.08763E-05-7.77494E-06 1.90965E-18 1.90976E-18
 -1      2382 1.06752E-04-3.49862E-05-3.06925E-05-9.41821E-06 2.75782E-19 2.83195E-18
 -1      2383 1.10735E-04-3.95974E-05-3.05588E-05-8.89799E-06 1.85031E-18 2.30007E-18
 -1      2384 1.04201E-04-3.28499E-05-3.06308E-05-1.02964E-05-1.48147E-18 3.37604E-18
 -1      2385 1.02207E-04-3.09821E-05-3.04793E-05-1.06460E-05-2.17137E-18 3.97895E-18
 -1      2386 1.05133E-04-3.44696E-05-3.03373E-05-1.19506E-05-1.97781E-19 1.16531E-18
 -1      2387 9.33350E-05-2.76904E-05-2.81261E-05-4.05440E-07-2.78244E-19 9.75234E-19
 -1      2388 9.34138E-05-2.75855E-05-2.81877E-05-1.20089E-07-6.57121E-20 1.05753E-18
 -1      2389 9.32825E-05-2.78546E-05-2.80358E-05-8.11435E-07-1.75089E-19 7.94295E-19
 -1      2390 9.32382E-05-2.77637E-05-2.80475E-05-6.72382E-07-3.35642E-19 7.56681E-19
 -1      2391 9.40072E-05-2.78076E-05-2.83825E-05-4.37930E-07-2.18106E-19 5.19331E-19
 -1      2392 9.33750E-05-2.79897E-05-2.80192E-05-9.87200E-07 3.17982E-19 7.51482E-19
 -1      2393 9.32630E-05-2.79093E-05-2.80023E-05-9.36322E-07 5.59953E-20 7.59452E-19
 -1      2394 9.39195E-05-2.80167E-05-2.82522E-05-8.85214E-07-6.58204E-20 3.86168E-19
 -1      2395 9.35483E-05-2.81039E-05-2.80456E-05-1.02272E-06 4.07542E-19 9.37028E-19
 -1      2396 9.34046E-05-2.80335E-05-2.80136E-05-1.02443E-06 4.74122E-19 9.63370E-19
 -1      2397 9.39474E-05-2.81652E-05-2.81977E-05-1.08193E-06 2.63961E-19 4.80172E-19
 -1      2398 9.37587E-05-2.81999E-05-2.80954E-05-9.76252E-07-1.19750E-19 1.27318E-18
 -1      2399 9.36058E-05-2.81397E-05-2.80567E-05-1.00768E-06 8.43625E-20 1.05889E-18
 -1      2400 9.40451E-05-2.82750E-05-2.81906E-05-1.12432E-06 1.14185E-19 7.58780E-19
 -1      2401 9.39780E-05-2.82793E-05-2.81559E-05-8.86506E-07-8.95983E-20 1.13573E-18
 -1      2402 9.38295E-05-2.82290E-05-2.81156E-05-9.32517E-07 2.81436E-20 1.24448E-18
 -1      2403 9.41794E-05-2.83568E-05-2.82116E-05-1.07613E-06-1.38191E-21 9.24259E-19
 -1      2404 9.41899E-05-2.83434E-05-2.82195E-05-7.79549E-07-2.32785E-19 8.38892E-19
 -1      2405 9.40528E-05-2.83024E-05-2.81805E-05-8.29978E-07-1.05906E-19 9.81023E-19
 -1      2406 9.43278E-05-2.84171E-05-2.82485E-05-9.80319E-07 6.85228E-20 6.32346E-19
 -1      2407 9.43865E-05-2.83941E-05-2.82820E-05-6.73128E-07 4.23242E-19 9.35470E-19
 -1      2408 9.42633E-05-2.83614E-05-2.82457E-05-7.21046E-07-1.33866E-19 7.33438E-19
 -1      2409 9.44766E-05-2.84603E-05-2.82932E-05-8.66129E-07-1.26856E-19 3.53197E-19
 -1      2410 9.45656E-05-2.84335E-05-2.83418E-05-5.79522E-07 2.13949E-19 1.22078E-18
 -1      2411 9.44560E-05-2.84077E-05-2.83084E-05-6.20100E-07 3.80467E-19 1.04397E-18
 -1      2412 9.46188E-05-2.84897E-05-2.83412E-05-7.53671E-07 2.01376E-19 6.95793E-19
 -1      2413 9.47295E-05-2.84638E-05-2.83988E-05-5.07574E-07 4.00032E-19 8.30456E-19
 -1      2414 9.46310E-05-2.84435E-05-2.83679E-05-5.37261E-07 4.36307E-19 1.17285E-18
 -1      2415 9.47520E-05-2.85081E-05-2.83904E-05-6.57050E-07 4.64471E-19 5.66274E-19
 -1      2416 9.48840E-05-2.84874E-05-2.84545E-05-4.64158E-07 4.75334E-19 3.17668E-19
 -1      2417 9.47922E-05-2.84710E-05-2.84248E-05-4.80086E-07 3.35402E-19 6.76263E-19
 -1      2418 9.48775E-05-2.85178E-05-2.84401E-05-5.86605E-07 6.05661E-19 4.12608E-19
 -1      2419 9.50370E-05-2.85070E-05-2.85112E-05-4.55265E-07 3.69092E-19 7.71647E-19
 -1      2420 9.49464E-05-2.84928E-05-2.84812E-05-4.54809E-07 3.97591E-19 7.75046E-19
 -1      2421 9.49993E-05-2.85209E-05-2.84911E-05-5.50556E-07 1.56811E-19 2.68926E-19
 -1      2422 9.51992E-05-2.85252E-05-2.85721E-05-4.86768E-07 3.10650E-19 1.27632E-18
 -1      2423 9.51028E-05-2.85113E-05-2.85399E-05-4.67242E-07 4.94762E-19 1.24364E-18
 -1      2424 9.51235E-05-2.85194E-05-2.85453E-05-5.56182E-07 1.73946E-19 1.75384E-18
 -1      2425 9.53828E-05-2.85455E-05-2.86413E-05-5.64905E-07-5.91096E-19 1.80131E-18
 -1      2426 9.52727E-05-2.85297E-05-2.86044E-05-5.23379E-07-3.01377E-19 1.46622E-18
 -1      2427 9.52580E-05-2.85152E-05-2.86052E-05-6.10653E-07-2.97482E-19 2.15818E-18
 -1      2428 9.56025E-05-2.85716E-05-2.87232E-05-6.96464E-07-4.70407E-19 1.13830E-18
 -1      2429 9.54695E-05-2.85514E-05-2.86790E-05-6.29725E-07-2.96696E-19 1.70988E-18
 -1      2430 9.54127E-05-2.85104E-05-2.86739E-05-7.21512E-07-4.14158E-19 1.54230E-18
 -1      2431 9.58750E-05-2.86084E-05-2.88231E-05-8.88602E-07-1.94939E-19 3.35135E-19
 -1      2432 9.57085E-05-2.85806E-05-2.87684E-05-7.93290E-07-3.86858E-19 5.28985E-19
 -1      2433 9.55989E-05-2.85081E-05-2.87553E-05-8.96784E-07 4.71265E-20 1.09202E-18
 -1      2434 9.62189E-05-2.86617E-05-2.89463E-05-1.14817E-06 8.71421E-19 5.45188E-20
 -1      2435 9.60073E-05-2.86225E-05-2.88781E-05-1.02116E-06 2.66288E-19-2.24812E-19
 -1      2436 9.58298E-05-2.85120E-05-2.88531E-05-1.14463E-06 4.74967E-19 1.58514E-19
 -1      2437 9.66545E-05-2.87395E-05-2.90983E-05-1.48034E-06 1.90141E-19 1.26378E-18
 -1      2438 9.63852E-05-2.86840E-05-2.90132E-05-1.31952E-06 8.06215E-19 7.38528E-19
 -1      2439 9.61202E-05-2.85277E-05-2.89714E-05-1.47239E-06 3.16123E-19-2.23587E-19
 -1      2440 9.72031E-05-2.88521E-05-2.92841E-05-1.88632E-06-1.62083E-18 1.00205E-18
 -1      2441 9.68636E-05-2.87741E-05-2.91792E-05-1.69178E-06-5.95627E-19 1.19113E-18
 -1      2442 9.64869E-05-2.85636E-05-2.91139E-05-1.88482E-06-1.73824E-19 8.71908E-19
 -1      2443 9.78864E-05-2.90130E-05-2.95072E-05-2.35960E-06-1.14640E-18 2.30174E-19
 -1      2444 9.74644E-05-2.89048E-05-2.93802E-05-2.13567E-06-1.75884E-18 7.05297E-19
 -1      2445 9.69485E-05-2.86318E-05-2.92831E-05-2.38110E-06-1.27000E-18-1.46349E-19
 -1      2446 9.87239E-05-2.92407E-05-2.97687E-05-2.88044E-06-3.12601E-19 7.90102E-19
 -1      2447 9.82100E-05-2.90925E-05-2.96189E-05-2.63861E-06-6.37189E-19 3.83428E-19
 -1      2448 9.75254E-05-2.87506E-05-2.94800E-05-2.95039E-06-8.32942E-19-1.81862E-19
 -1      2449 9.97312E-05-2.95590E-05-3.00656E-05-3.40809E-06-8.63717E-20 1.88503E-18
 -1      2450 9.91208E-05-2.93591E-05-2.98946E-05-3.17107E-06-3.87717E-19 1.30380E-18
 -1      2451 9.82401E-05-2.89466E-05-2.97029E-05-3.56515E-06-7.26669E-19 7.09698E-19
 -1      2452 1.00916E-04-2.99985E-05-3.03886E-05-3.87065E-06-2.53633E-19 2.74352E-18
 -1      2453 1.00213E-04-2.97332E-05-3.02019E-05-3.67753E-06 1.78722E-19 2.59872E-18
 -1      2454 9.91175E-05-2.92575E-05-2.99464E-05-4.17226E-06-3.84673E-19 1.14486E-18
 -1      2455 1.02270E-04-3.05946E-05-3.07207E-05-4.15390E-06-4.17259E-19 2.65731E-18
 -1      2456 1.01495E-04-3.02503E-05-3.05290E-05-4.06541E-06-5.48367E-19 3.36966E-18
 -1      2457 1.00185E-04-2.97342E-05-3.02001E-05-4.68166E-06-6.74047E-19 2.47677E-18
 -1      2458 1.03767E-04-3.13803E-05-3.10361E-05-4.09253E-06-2.44845E-20 3.30084E-18
 -1      2459 1.02958E-04-3.09493E-05-3.08559E-05-4.19404E-06 1.34251E-20 3.06505E-18
 -1      2460 1.01469E-04-3.04386E-05-3.04495E-05-4.95434E-06-6.53889E-19 2.08240E-18
 -1      2461 1.05339E-04-3.23664E-05-3.13016E-05-3.47253E-06 2.86625E-19 3.07067E-18
 -1      2462 1.04568E-04-3.18589E-05-3.11553E-05-3.86930E-06 5.10988E-19 3.56905E-18
 -1      2463 1.02990E-04-3.14315E-05-3.06768E-05-4.79363E-06 4.78321E-20 2.63606E-18
 -1      2464 1.06859E-04-3.35007E-05-3.14829E-05-2.06157E-06-6.61053E-19 1.84302E-18
 -1      2465 1.06237E-04-3.29673E-05-3.13956E-05-2.85676E-06-3.30454E-19 2.73633E-18
 -1      2466 1.04742E-04-3.27389E-05-3.08671E-05-3.95016E-06 9.84386E-20 3.18225E-18
 -1      2467 1.08102E-04-3.46030E-05-3.15565E-05 3.07958E-07-1.28682E-18 2.05016E-18
 -1      2468 1.07789E-04-3.41655E-05-3.15491E-05-9.35941E-07-1.06184E-18 1.80616E-18
 -1      2469 1.06644E-04-3.42845E-05-3.10171E-05-2.16047E-06-9.60516E-19 1.52134E-18
 -1      2470 1.08722E-04-3.52978E-05-3.15254E-05 3.57886E-06 1.46282E-19 2.83817E-18
 -1      2471 1.08909E-04-3.51707E-05-3.16050E-05 1.97470E-06-8.05336E-19 2.31225E-18
 -1      2472 1.08472E-04-3.57872E-05-3.11469E-05 7.48779E-07-1.21150E-18 2.18839E-18
 -1      2473 1.08275E-04-3.50222E-05-3.14319E-05 7.24903E-06 4.16423E-19 3.79999E-18
 -1      2474 1.09132E-04-3.54804E-05-3.15822E-05 5.60874E-06 6.83708E-19 3.10173E-18
 -1      2475 1.09774E-04-3.66731E-05-3.13079E-05 4.65960E-06 3.21955E-20 2.66803E-18
 -1      2476 1.06408E-04-3.32612E-05-3.13427E-05 1.01967E-05-1.77095E-18 5.50035E-18
 -1      2477 1.07951E-04-3.44757E-05-3.15280E-05 9.10870E-06-7.89625E-19 4.36206E-18
 -1      2478 1.09889E-04-3.61256E-05-3.15724E-05 8.87971E-06-6.67701E-19 3.09974E-18
 -1      2479 1.03315E-04-3.01404E-05-3.13024E-05 1.08847E-05-8.37156E-19 6.17652E-18
 -1      2480 1.05223E-04-3.18805E-05-3.14810E-05 1.10063E-05-1.57051E-18 6.18229E-18
 -1      2481 1.08277E-04-3.35828E-05-3.19704E-05 1.19028E-05-2.15775E-18 3.81507E-18
 -1      2482 9.99230E-05-2.66885E-05-3.13117E-05 8.29058E-06 9.21506E-19 5.19062E-18
 -1      2483 1.01621E-04-2.83217E-05-3.14513E-05 9.93124E-06 3.27181E-19 6.32452E-18
 -1      2484 1.05215E-04-2.94589E-05-3.24461E-05 1.19966E-05 8.40246E-20 4.93803E-18
 -1      2485 9.78590E-05-2.47832E-05-3.12802E-05 2.83289E-06-7.11792E-19 4.88673E-18
 -1      2486 9.86503E-05-2.54072E-05-3.13824E-05 5.49773E-06 5.05090E-19 4.87645E-18
 -1      2487 1.02000E-04-2.54886E-05-3.28241E-05 8.04650E-06 5.87368E-19 5.10685E-18
 -1      2488 9.81622E-05-2.55836E-05-3.11309E-05-3.15503E-06-3.69598E-19 5.08844E-18
 -1      2489 9.77942E-05-2.48716E-05-3.12010E-05-6.22789E-07-1.36022E-18 4.56146E-18
 -1      2490 1.00552E-04-2.39875E-05-3.28756E-05 1.29833E-06-4.54910E-19 4.38560E-18
 -1      2491 1.00389E-04-2.84996E-05-3.08649E-05-6.93905E-06 9.00985E-19 5.21907E-18
 -1      2492 9.92341E-05-2.69646E-05-3.08995E-05-5.62411E-06 7.07676E-19 5.07161E-18
 -1      2493 1.01671E-04-2.59070E-05-3.25037E-05-5.11731E-06 2.34754E-19 4.19520E-18
 -1      2494 1.02923E-04-3.16919E-05-3.05759E-05-7.29652E-06 2.76301E-18 3.13682E-18
 -1      2495 1.01664E-04-3.02047E-05-3.05742E-05-7.48960E-06 2.24370E-18 4.52163E-18
 -1      2496 1.04242E-04-2.99190E-05-3.18323E-05-8.21697E-06 2.10195E-18 4.04404E-18
 -1      2497 1.04325E-04-3.36097E-05-3.03332E-05-4.89642E-06 2.25191E-18 1.86558E-18
 -1      2498 1.03539E-04-3.27938E-05-3.03200E-05-6.13425E-06 2.34188E-18 2.90657E-18
 -1      2499 1.06329E-04-3.36060E-05-3.11192E-05-7.34603E-06 2.72219E-18 3.26852E-18
 -1      2500 1.04140E-04-3.38370E-05-3.01324E-05-1.37812E-06 2.23241E-18 2.54466E-18
 -1      2501 1.04042E-04-3.38000E-05-3.01443E-05-2.93844E-06 2.21745E-18 2.30411E-18
 -1      2502 1.06734E-04-3.53732E-05-3.05481E-05-3.90757E-06 2.23667E-18 3.12792E-18
 -1      2503 1.02672E-04-3.27611E-05-2.99467E-05 1.76865E-06 1.38807E-18 2.16563E-18
 -1      2504 1.03174E-04-3.32956E-05-3.00034E-05 4.84382E-07 1.26281E-18 2.37719E-18
 -1      2505 1.05446E-04-3.50422E-05-3.01609E-05 1.41508E-07 1.54844E-18 3.26196E-18
 -1      2506 1.00503E-04-3.09994E-05-2.97582E-05 3.67219E-06 3.84619E-19 1.69908E-18
 -1      2507 1.01375E-04-3.18327E-05-2.98554E-05 2.99355E-06 1.19390E-18 2.33280E-18
 -1      2508 1.03089E-04-3.32736E-05-2.99250E-05 3.32127E-06 1.12273E-18 1.91611E-18
 -1      2509 9.81421E-05-2.90981E-05-2.95630E-05 3.99913E-06-1.25612E-18 2.77789E-18
 -1      2510 9.91331E-05-2.99529E-05-2.96831E-05 4.03500E-06-1.30569E-18 1.88281E-18
 -1      2511 1.00325E-04-3.08236E-05-2.97839E-05 4.92300E-06-3.95151E-19 1.90975E-18
 -1      2512 9.69273E-05-2.81716E-05-2.94718E-05 3.51165E-06 3.88843E-19 2.47123E-18
 -1      2513 9.35373E-05-2.13981E-05-3.09537E-05 1.34811E-05 2.25087E-18-3.20698E-18
 -1      2514 9.50176E-05-2.32789E-05-3.07040E-05 1.30082E-05 1.14177E-18-4.81049E-18
 -1      2515 8.99273E-05-1.74089E-05-3.11602E-05 1.29258E-05 1.90383E-18-2.26356E-18
 -1      2516 9.17928E-05-1.94289E-05-3.09640E-05 1.35950E-05 2.70262E-18-2.03008E-18
 -1      2517 9.33804E-05-2.30484E-05-3.01694E-05 1.53847E-05 3.44813E-18-2.15497E-18
 -1      2518 9.73782E-05-2.67211E-05-3.02480E-05 9.08012E-06-1.22071E-18-5.40948E-19
 -1      2519 9.77386E-05-2.77401E-05-2.99931E-05 7.69818E-06-7.25160E-19-8.24221E-19
 -1      2520 9.60910E-05-2.46016E-05-3.06319E-05 1.18125E-05-1.13039E-18-2.88917E-18
 -1      2521 9.69491E-05-2.60337E-05-3.03666E-05 1.06840E-05-1.47628E-18 3.64108E-19
 -1      2522 9.86088E-05-2.84394E-05-3.00991E-05 1.08591E-05-1.25730E-18-2.09358E-19
 -1      2523 9.68560E-05-2.64408E-05-3.02045E-05 1.38699E-05 6.68891E-19-2.03496E-18
 -1      2524 8.62091E-05-1.35448E-05-3.12427E-05 9.41256E-06-1.54194E-19-2.69366E-18
 -1      2525 8.79145E-05-1.52189E-05-3.11202E-05 1.14287E-05 7.96800E-19-3.52524E-18
 -1      2526 8.87814E-05-1.87284E-05-3.00170E-05 1.40462E-05 1.35754E-18-3.85472E-18
 -1      2527 8.38104E-05-1.11055E-05-3.12402E-05 3.25386E-06-1.78919E-18-2.31184E-18
 -1      2528 8.46855E-05-1.19111E-05-3.11950E-05 6.29939E-06-1.08511E-18-2.23064E-18
 -1      2529 8.44562E-05-1.47289E-05-2.98257E-05 9.17187E-06 1.46471E-19-3.91389E-18
 -1      2530 8.38355E-05-1.11130E-05-3.11990E-05-3.98812E-06-2.16014E-18-1.36149E-18
 -1      2531 8.34897E-05-1.07592E-05-3.12279E-05-7.28931E-07-1.90181E-18-1.61086E-18
 -1      2532 8.22000E-05-1.26495E-05-2.97166E-05 1.52151E-06-7.53175E-19-2.51306E-18
 -1      2533 8.62132E-05-1.35317E-05-3.11316E-05-1.00965E-05-1.03265E-18 1.19365E-19
 -1      2534 8.48370E-05-1.21763E-05-3.12327E-05-7.56934E-06-1.88365E-18 3.19576E-19
 -1      2535 8.30450E-05-1.34172E-05-2.97620E-05-6.64782E-06-7.07350E-19-1.05834E-18
 -1      2536 8.99606E-05-1.74869E-05-3.10142E-05-1.37098E-05 2.53944E-19 8.93133E-19
 -1      2537 8.80772E-05-1.55185E-05-3.11862E-05-1.23985E-05-6.72913E-19-7.94619E-19
 -1      2538 8.65316E-05-1.66119E-05-2.99377E-05-1.29343E-05-3.17251E-19 4.98308E-19
 -1      2539 9.36806E-05-2.16489E-05-3.08280E-05-1.43341E-05-1.00371E-18 6.08036E-19
 -1      2540 9.19014E-05-1.95797E-05-3.10503E-05-1.43194E-05-5.75673E-19 1.32097E-18
 -1      2541 9.11928E-05-2.08727E-05-3.01543E-05-1.59187E-05-3.04104E-19-3.34148E-20
 -1      2542 9.64768E-05-2.50055E-05-3.05850E-05-1.25977E-05-2.56096E-18 1.43270E-18
 -1      2543 9.51445E-05-2.32233E-05-3.08261E-05-1.35365E-05-1.58486E-18 5.65028E-19
 -1      2544 9.54270E-05-2.47085E-05-3.03087E-05-1.56113E-05-9.32678E-19-2.89583E-19
 -1      2545 3.01780E-05-2.34148E-05-2.54818E-06 2.34357E-05-6.74768E-19-6.20833E-18
 -1      2546 2.26105E-05-2.09451E-05-3.02832E-07 6.81593E-06-7.34748E-19-5.12540E-18
 -1      2547 1.99840E-05-2.23538E-05 1.11321E-06-9.04405E-06 4.61474E-19-3.66596E-18
 -1      2548 2.55485E-05-2.67541E-05 5.81749E-07-2.20903E-05 1.03613E-18-1.17611E-18
 -1      2549 9.36191E-05-2.74712E-05-2.83376E-05 3.74417E-07 4.76076E-20 1.15378E-18
 -1      2550 9.39024E-05-2.73354E-05-2.84849E-05 9.07809E-07 4.11936E-20 1.21092E-18
 -1      2551 9.42642E-05-2.74887E-05-2.86318E-05 4.08748E-07 6.90679E-20 8.32298E-19
 -1      2552 9.70974E-05-2.60788E-05-3.04536E-05-9.13125E-06-2.08522E-18 2.90450E-18
 -1      2553 1.05273E-04-5.78347E-05-2.04406E-05 4.26284E-05-1.12486E-18-4.45137E-18
 -1      2554 8.77873E-05-5.30560E-05-1.46527E-05 4.45306E-05-5.10549E-19-3.44128E-18
 -1      2555 9.50707E-05-2.00242E-05-3.22120E-05-1.17511E-05 3.90959E-19-1.68234E-18
 -1      2556 9.54800E-05-2.33669E-05-3.09272E-05-7.96622E-06 2.85695E-19-1.61128E-18
 -1      2557 9.50703E-05-2.25748E-05-3.10501E-05-7.64633E-06 3.96603E-19-1.34035E-18
 -1      2558 9.32120E-05-1.76196E-05-3.24154E-05-1.14121E-05 4.84670E-19-1.39461E-18
 -1      2559 3.67340E-05-3.18915E-05-1.96981E-06-3.19249E-05 1.24154E-18-2.18810E-18
 -1      2560 5.08099E-05-3.78211E-05-5.47532E-06-4.09031E-05 9.88487E-19-4.35417E-18
 -1      2561 2.29442E-05-2.15061E-05-3.34006E-07 1.56067E-05 1.26991E-18-9.19878E-19
 -1      2562 1.93019E-05-1.83021E-05-1.20461E-07-1.18683E-06 8.38152E-19 2.23193E-19
 -1      2563 4.74331E-05-3.37914E-05-5.52011E-06-3.71407E-05 9.22207E-19-3.13000E-18
 -1      2564 6.61285E-05-4.23622E-05-1.01110E-05-4.32347E-05 1.59623E-18-4.53967E-18
 -1      2565 8.78433E-05-1.08010E-05-3.30538E-05-1.51912E-06 1.13031E-18-1.09830E-19
 -1      2566 8.79484E-05-1.09229E-05-3.30451E-05-2.63827E-06 1.07552E-18-2.22862E-19
 -1      2567 8.93476E-05-1.30955E-05-3.26815E-05-2.93170E-06 1.04981E-18-2.82601E-19
 -1      2568 8.90997E-05-1.27612E-05-3.27197E-05-9.41575E-07 1.03174E-18-4.63618E-20
 -1      2569 1.44318E-04-4.98638E-05-4.06980E-05-9.80690E-06 7.12858E-19-5.74077E-18
 -1      2570 1.51228E-04-4.31192E-05-4.66723E-05-3.36421E-06 6.23310E-19-6.36185E-18
 -1      2571 1.46350E-04-1.45296E-05-5.68133E-05 7.78647E-06 2.34840E-19-6.16047E-18
 -1      2572 1.43810E-04-1.08583E-05-5.76876E-05 4.87039E-06-3.17637E-20-5.72123E-18
 -1      2573 4.81911E-05-3.45484E-05-5.82376E-06 3.69067E-05 1.26928E-18-1.48570E-18
 -1      2574 3.25443E-05-2.75819E-05-1.80332E-06 2.64537E-05 1.45933E-18-2.06189E-18
 -1      2575 3.45096E-05-2.13563E-05-4.99101E-06 2.04390E-05 1.68030E-18-1.51704E-18
 -1      2576 1.51649E-04-3.26074E-05-5.11300E-05 3.78443E-06 4.08058E-19-5.80938E-18
 -1      2577 1.50044E-04-2.33602E-05-5.48624E-05 7.91559E-06 4.23093E-19-5.99911E-18
 -1      2578 1.28256E-04-5.85218E-05-2.99088E-05-2.41012E-05 4.98267E-19-5.40746E-18
 -1      2579 1.39584E-04-5.56874E-05-3.59644E-05-1.86516E-05 7.48142E-19-5.93474E-18
 -1      2580 1.42495E-04-5.51917E-05-3.74899E-05-6.24783E-06 3.24599E-19-5.77571E-18
 -1      2581 2.39366E-05-2.03774E-05-1.10735E-06-1.65182E-05 5.39242E-19-2.17709E-18
 -1      2582 3.22028E-05-2.45282E-05-3.05061E-06-2.85979E-05 7.52589E-19-2.62368E-18
 -1      2583 8.86271E-05-5.22868E-05-1.56272E-05 4.11679E-05 7.25907E-19-5.82176E-19
 -1      2584 7.17034E-05-4.57161E-05-1.07731E-05 4.00910E-05 1.09077E-18-3.43684E-19
 -1      2585 1.25114E-04-6.09211E-05-2.77479E-05 2.70418E-05-1.40650E-18 4.17587E-19
 -1      2586 1.06969E-04-5.85409E-05-2.06673E-05 3.40649E-05-2.53475E-19-6.77362E-19
 -1      2587 1.55347E-04-3.17612E-05-5.31793E-05-7.64773E-06-2.29715E-18 1.84674E-18
 -1      2588 1.51599E-04-4.00448E-05-4.81363E-05-5.14722E-06-1.59549E-18 1.27606E-18
 -1      2589 1.52652E-04-1.63894E-05-5.87828E-05-7.63780E-06 2.65968E-19 1.46208E-18
 -1      2590 1.52140E-04-2.19882E-05-5.61610E-05-9.32342E-06-1.34466E-18 1.90752E-18
 -1      2591 1.48268E-04-1.23930E-05-5.86246E-05-7.32351E-09 6.67462E-19 3.89423E-19
 -1      2592 1.50453E-04-1.28764E-05-5.93731E-05-4.26384E-06 9.12254E-19 9.98017E-19
 -1      2593 1.53798E-04-2.82428E-05-5.39738E-05 3.46239E-06 1.37219E-18-1.88677E-19
 -1      2594 1.50751E-04-1.94020E-05-5.69177E-05 4.20353E-06 3.57871E-19 1.69618E-19
 -1      2595 1.51622E-04-4.66836E-05-4.51138E-05-6.39177E-06 4.16105E-18-3.57448E-19
 -1      2596 1.56306E-04-3.87606E-05-5.07364E-05-1.73693E-06 2.34723E-18-1.06451E-18
 -1      2597 1.37049E-04-5.97466E-05-3.31502E-05-2.29372E-05 4.21293E-18 1.12931E-18
 -1      2598 1.47678E-04-5.57946E-05-3.96548E-05-1.65013E-05 5.12900E-18 4.96997E-19
 -1      2599 1.04465E-04-5.85571E-05-1.95274E-05-4.06215E-05 2.92417E-18-5.03138E-19
 -1      2600 1.23246E-04-6.14262E-05-2.67289E-05-3.56799E-05 3.12492E-18-7.17860E-20
 -1      2601 6.49858E-05-4.52493E-05-8.40045E-06-4.34780E-05 8.17810E-19-4.45995E-18
 -1      2602 8.12289E-05-5.03827E-05-1.33738E-05-4.65069E-05 1.70847E-18-1.53334E-18
 -1      2603 6.38838E-05-3.98966E-05-9.86773E-06-4.23178E-05 7.85835E-19-3.76972E-18
 -1      2604 1.52067E-04-4.37141E-05-4.66223E-05 5.14639E-06-1.17367E-19-5.32191E-18
 -1      2605 1.46733E-04-5.04065E-05-4.14423E-05 1.02031E-05-3.14818E-19-6.03511E-18
 -1      2606 1.46689E-04-3.99716E-05-4.58144E-05-4.48920E-06-2.89474E-19-5.86316E-18
 -1      2607 9.63334E-05-2.50952E-05-3.05565E-05 7.59568E-06 9.58868E-20 1.76276E-18
 -1      2608 9.74553E-05-2.37787E-05-3.15971E-05 1.06951E-05 1.16732E-19 1.91763E-18
 -1      2609 9.58895E-05-2.13032E-05-3.20214E-05 1.18972E-05 2.11606E-19 1.79251E-18
 -1      2610 9.58779E-05-2.41615E-05-3.07688E-05 7.68740E-06 1.32700E-19 1.51758E-18
 -1      2611 1.46214E-04-3.88516E-05-4.60198E-05 7.03093E-06 3.56813E-20-4.98352E-18
 -1      2612 9.08015E-05-1.50408E-05-3.24573E-05-6.81467E-06 9.26710E-19-7.47530E-19
 -1      2613 8.96999E-05-1.31879E-05-3.28439E-05-7.95937E-06 9.17136E-19-7.94040E-19
 -1      2614 9.03317E-05-1.39106E-05-3.28166E-05-9.17369E-06 8.46312E-19-9.22750E-19
 -1      2615 9.47305E-05-2.69389E-05-2.90662E-05 1.88865E-06 1.20833E-19 1.03568E-18
 -1      2616 9.42452E-05-1.90816E-05-3.22581E-05 1.16064E-05 3.79338E-19 1.64526E-18
 -1      2617 9.90012E-05-5.56926E-05-1.81801E-05-4.23341E-05 1.13905E-18-1.32136E-18
 -1      2618 3.86254E-05-2.64843E-05-4.79190E-06-2.87469E-05 1.10114E-20-1.76924E-18
 -1      2619 1.33141E-04-6.37268E-05-2.97014E-05-2.51388E-05 3.30872E-18 4.69468E-19
 -1      2620 8.13633E-05-4.79386E-05-1.38143E-05 4.49719E-05 2.67239E-19-4.49997E-18
 -1      2621 1.48685E-04-5.32965E-05-4.08770E-05-4.86755E-06 3.91785E-18 6.58356E-19
 -1      2622 9.76414E-05-2.84749E-05-2.96464E-05 4.76429E-06-4.53646E-19 2.08595E-18
 -1      2623 2.80372E-05-1.85124E-05-3.55244E-06-9.84270E-07-1.17591E-18-5.07161E-18
 -1      2624 9.77207E-05-2.80941E-05-2.98209E-05 5.82768E-06-8.77271E-19 1.80408E-18
 -1      2625 1.48061E-04-3.37470E-05-4.90099E-05 7.07906E-06 2.49472E-18-6.62168E-19
 -1      2626 9.90368E-05-2.94062E-05-2.98649E-05 7.14773E-06-1.16970E-18 8.98052E-19
 -1      2627 4.15071E-05-2.72287E-05-5.50694E-06 3.07767E-05 2.47863E-19-6.91306E-18
 -1      2628 3.98707E-05-2.03251E-05-7.84665E-06 2.28340E-05-4.61157E-19-6.07090E-18
 -1      2629 5.34210E-05-3.09387E-05-9.55451E-06 3.66215E-05 9.63076E-19-5.39094E-18
 -1      2630 1.40327E-04-1.54773E-05-5.37740E-05 4.93996E-06 1.14646E-18 2.08794E-18
 -1      2631 9.47153E-05-2.06033E-05-3.17179E-05 9.67353E-06 3.35038E-19 1.42119E-18
 -1      2632 9.20547E-05-1.62361E-05-3.25337E-05-1.03979E-05 6.47553E-19-1.17526E-18
 -1      2633 1.39307E-04-1.24932E-05-5.45204E-05-7.47667E-06 7.93670E-19 2.07354E-18
 -1      2634 1.18371E-04-6.15038E-05-2.41718E-05 3.61693E-05-7.21672E-19-4.00043E-18
 -1      2635 1.12189E-04-5.94957E-05-2.22772E-05 3.79824E-05-1.66654E-19-3.93970E-18
 -1      2636 1.28067E-04-6.30672E-05-2.82119E-05 2.76517E-05-3.95776E-19-4.03738E-18
 -1      2637 1.40123E-04-1.89504E-05-5.21749E-05 1.06689E-05 1.35949E-19-4.52443E-18
 -1      2638 2.83350E-05-1.67142E-05-4.31434E-06-7.60977E-06 8.13681E-19-5.91017E-19
 -1      2639 1.45251E-04-2.60822E-05-5.12937E-05-1.35272E-05-1.47172E-18 1.42132E-18
 -1      2640 1.34315E-04-6.15613E-05-3.10707E-05 1.83653E-05-1.21708E-18 1.09331E-18
 -1      2641 1.28796E-04-6.28254E-05-2.79862E-05 2.04548E-05-7.93246E-19 9.35071E-19
 -1      2642 1.38712E-04-6.02829E-05-3.42561E-05 7.48879E-06-1.10178E-18 8.51798E-19
 -1      2643 1.04608E-04-5.69373E-05-2.00153E-05 3.42605E-05 4.22246E-19-1.03587E-18
 -1      2644 1.23188E-04-6.04378E-05-2.68219E-05-2.77685E-05 6.31463E-19-5.14424E-18
 -1      2645 1.31108E-04-6.12616E-05-3.01838E-05-1.79465E-05 2.81321E-19-7.29909E-18
 -1      2646 1.16106E-04-5.91891E-05-2.40080E-05-3.10462E-05 7.44118E-19-3.94371E-18
 -1      2647 6.47389E-05-3.86967E-05-1.06876E-05 3.76206E-05 2.12944E-18-4.79421E-19
 -1      2648 4.71751E-05-2.82160E-05-7.50797E-06-3.27687E-05 6.27757E-19-3.58803E-18
 -1      2649 7.70298E-05-4.29461E-05-1.40389E-05-4.10535E-05 7.51106E-19-3.74590E-18
 -1      2650 8.23017E-05-4.80556E-05-1.42296E-05-4.20962E-05 1.39951E-18-3.68623E-18
 -1      2651 9.66969E-05-5.32180E-05-1.87939E-05-3.81409E-05 9.63923E-19-2.76212E-18
 -1      2652 1.44127E-04-2.02678E-05-5.32783E-05-5.95118E-06-1.48019E-19-5.56924E-18
 -1      2653 1.37648E-04-2.50566E-05-4.85395E-05-9.15367E-06-5.60736E-19-6.14798E-18
 -1      2654 1.33472E-04-1.45384E-05-5.17903E-05-7.42467E-06-4.15893E-19-5.31778E-18
 -1      2655 1.39069E-04-9.78962E-06-5.57754E-05 2.24083E-06-8.09128E-19-5.66734E-18
 -1      2656 1.30718E-04-9.14800E-06-5.28327E-05-4.76704E-07-7.21672E-19-5.19035E-18
 -1      2657 1.29670E-04-9.35577E-06-5.20091E-05 4.96239E-06-5.76194E-19-4.69188E-18
 -1      2658 1.44215E-04-5.35145E-05-3.93591E-05 2.77022E-06-5.93505E-19-6.39849E-18
 -1      2659 1.44512E-04-5.66890E-05-3.77085E-05 1.28553E-05-9.53071E-19-5.80239E-18
 -1      2660 1.39381E-04-6.02444E-05-3.37655E-05 1.60525E-05-1.17685E-18-4.23421E-18
 -1      2661 1.50033E-04-4.75699E-05-4.41165E-05-4.34371E-06-1.09945E-18 7.26331E-19
 -1      2662 1.45234E-04-5.26968E-05-3.96838E-05-2.81724E-06-7.69397E-19 1.19770E-18
 -1      2663 1.45188E-04-4.22872E-05-4.46533E-05-1.26045E-05-1.37876E-18 1.20999E-18
 -1      2664 9.92177E-05-2.82937E-05-3.03491E-05-9.79785E-06-1.31193E-18 4.11002E-18
 -1      2665 9.75923E-05-2.63135E-05-3.05444E-05-1.15011E-05-2.57415E-18 3.93423E-18
 -1      2666 9.85639E-05-2.77137E-05-3.03883E-05-1.34156E-05-1.66456E-18 2.87484E-18
 -1      2667 1.00812E-04-2.97265E-05-3.04935E-05-1.04475E-05-2.07979E-18 4.18248E-18
 -1      2668 1.01203E-04-3.03748E-05-3.03756E-05-1.23498E-05-1.89559E-18 3.86871E-18
 -1      2669 9.05619E-05-1.51771E-05-3.23300E-05 3.19741E-06 8.72315E-19 3.40474E-19
 -1      2670 9.03720E-05-1.49057E-05-3.23628E-05 2.26301E-06 8.41713E-19 2.68774E-19
 -1      2671 9.02378E-05-1.47030E-05-3.23919E-05 1.42355E-06 8.94067E-19 1.07944E-19
 -1      2672 9.01727E-05-1.46106E-05-3.24030E-05 4.65902E-07 9.37536E-19 6.50511E-20
 -1      2673 9.14242E-05-1.65987E-05-3.20552E-05 1.64279E-06 7.98745E-19 1.08830E-19
 -1      2674 9.21439E-05-1.75546E-05-3.20048E-05 6.47746E-06 7.33618E-19 8.33085E-19
 -1      2675 9.16183E-05-1.67594E-05-3.21048E-05 5.63728E-06 8.36001E-19 6.76779E-19
 -1      2676 9.35610E-05-1.97764E-05-3.16642E-05 7.60096E-06 5.45999E-19 9.77514E-19
 -1      2677 9.27720E-05-1.85230E-05-3.18380E-05 7.02354E-06 6.45543E-19 9.53521E-19
 -1      2678 9.34384E-05-1.98700E-05-3.15064E-05 5.73898E-06 5.47584E-19 8.18649E-19
 -1      2679 9.52168E-05-2.54099E-05-2.99296E-05 3.98249E-06 3.34743E-19 1.04728E-18
 -1      2680 9.55541E-05-2.45600E-05-3.03936E-05 5.61464E-06 2.45262E-19 1.10044E-18
 -1      2681 9.28793E-05-1.80094E-05-3.20741E-05-8.83680E-06 6.29331E-19-1.03870E-18
 -1      2682 6.22232E-05-3.44894E-05-1.13278E-05-3.89457E-05 6.26804E-20-3.58676E-18
 -1      2683 7.47104E-05-4.20767E-05-1.38369E-05-4.33025E-05 1.58183E-19-2.81628E-18
 -1      2684 9.49773E-05-2.66902E-05-2.92716E-05 1.78569E-06 2.45443E-19 9.74547E-19
 -1      2685 9.52453E-05-2.61932E-05-2.95567E-05 2.79380E-06 3.31385E-19 1.05148E-18
 -1      2686 9.52710E-05-2.50222E-05-3.01036E-05 3.82564E-06 2.88377E-19 8.87349E-19
 -1      2687 9.04476E-05-5.01617E-05-1.68260E-05-4.23487E-05 5.18278E-19-1.62816E-18
 -1      2688 1.09589E-04-5.81170E-05-2.20796E-05-3.75658E-05 1.49830E-18-1.07138E-18
 -1      2689 1.43646E-04-5.71163E-05-3.71444E-05-4.91100E-06 3.38363E-18 1.59030E-18
 -1      2690 1.45235E-04-4.93185E-05-4.18349E-05 2.53719E-06 2.65730E-18 7.84564E-19
 -1      2691 9.54088E-05-2.59411E-05-2.97310E-05-2.69114E-06 8.05264E-20-7.80825E-19
 -1      2692 9.52004E-05-2.65070E-05-2.94544E-05-1.72594E-06 1.29191E-19-8.02205E-19
 -1      2693 9.52141E-05-2.70067E-05-2.92081E-05-9.85562E-07 5.68412E-20-7.22384E-19
 -1      2694 9.50799E-05-2.73618E-05-2.90284E-05-3.82700E-07-1.35699E-20-8.75812E-19
 -1      2695 9.54195E-05-2.63341E-05-2.96127E-05-1.63123E-06 7.31261E-20-4.46910E-19
 -1      2696 9.50474E-05-2.76677E-05-2.88610E-05 8.33715E-08-1.44310E-20-8.09376E-19
 -1      2697 9.49693E-05-2.78921E-05-2.87503E-05 4.33468E-07-1.31196E-19-7.02117E-19
 -1      2698 9.54157E-05-2.73277E-05-2.91878E-05-3.48786E-07-3.28420E-20-7.52296E-19
 -1      2699 9.49274E-05-2.80774E-05-2.86397E-05 7.01782E-07-2.98282E-19-7.09473E-19
 -1      2700 9.48987E-05-2.82239E-05-2.85759E-05 8.84114E-07-2.57375E-19-7.79121E-19
 -1      2701 9.53553E-05-2.79429E-05-2.88977E-05 4.38799E-07-2.35385E-19-7.18364E-19
 -1      2702 9.48637E-05-2.83355E-05-2.85060E-05 1.01742E-06-2.36215E-19-7.59615E-19
 -1      2703 9.48703E-05-2.84320E-05-2.84735E-05 1.09173E-06-2.63588E-20-8.21296E-19
 -1      2704 9.52910E-05-2.83233E-05-2.87059E-05 8.78646E-07-3.35088E-19-5.08365E-19
 -1      2705 9.48460E-05-2.84967E-05-2.84321E-05 1.13676E-06 4.38961E-20-9.43639E-19
 -1      2706 9.48747E-05-2.85593E-05-2.84202E-05 1.14412E-06 1.30575E-20-1.07894E-18
 -1      2707 9.52417E-05-2.85539E-05-2.85845E-05 1.08320E-06-1.13030E-19-7.63226E-19
 -1      2708 9.48600E-05-2.85932E-05-2.83987E-05 1.13475E-06 2.38748E-19-9.70956E-19
 -1      2709 9.49008E-05-2.86320E-05-2.84000E-05 1.10355E-06 2.22614E-19-4.69995E-19
 -1      2710 9.52100E-05-2.86862E-05-2.85132E-05 1.13613E-06 1.78813E-19-3.82754E-19
 -1      2711 9.48937E-05-2.86452E-05-2.83920E-05 1.06399E-06 2.20796E-19-2.60142E-19
 -1      2712 9.49397E-05-2.86668E-05-2.84015E-05 1.01389E-06 2.54235E-19-7.38827E-20
 -1      2713 9.51933E-05-2.87523E-05-2.84768E-05 1.09813E-06 5.11566E-19-9.25460E-22
 -1      2714 9.49379E-05-2.86660E-05-2.84029E-05 9.61328E-07 1.25374E-19 2.24325E-19
 -1      2715 9.49852E-05-2.86750E-05-2.84174E-05 9.06057E-07 3.12175E-19 1.29171E-19
 -1      2716 9.51877E-05-2.87734E-05-2.84647E-05 1.01268E-06 3.68706E-19 1.66097E-20
 -1      2717 9.49872E-05-2.86645E-05-2.84251E-05 8.52660E-07 3.10150E-19-2.28452E-20
 -1      2718 9.50336E-05-2.86640E-05-2.84427E-05 8.01908E-07 2.42050E-19-2.14302E-19
 -1      2719 9.51899E-05-2.87634E-05-2.84695E-05 9.10699E-07 4.21066E-20 2.13104E-20
 -1      2720 9.50382E-05-2.86464E-05-2.84550E-05 7.56455E-07 2.81561E-19-4.64546E-19
 -1      2721 9.50833E-05-2.86387E-05-2.84747E-05 7.17297E-07 7.31353E-20-3.63719E-19
 -1      2722 9.51974E-05-2.87313E-05-2.84862E-05 8.14354E-07 1.22482E-19-3.35323E-20
 -1      2723 9.50899E-05-2.86155E-05-2.84905E-05 6.86396E-07-2.88224E-19 2.43520E-20
 -1      2724 9.51345E-05-2.86018E-05-2.85122E-05 6.64363E-07-3.32203E-19 3.84870E-19
 -1      2725 9.52087E-05-2.86825E-05-2.85118E-05 7.39930E-07-2.36141E-20 5.83957E-20
 -1      2726 9.51426E-05-2.85735E-05-2.85312E-05 6.53407E-07-7.87545E-19 4.41020E-19
 -1      2727 9.51885E-05-2.85547E-05-2.85552E-05 6.53287E-07-1.31783E-18 1.62464E-19
 -1      2728 9.52229E-05-2.86197E-05-2.85448E-05 7.00119E-07-6.22609E-19 3.99606E-19
 -1      2729 9.51980E-05-2.85211E-05-2.85774E-05 6.67182E-07-1.30301E-18 4.02486E-19
 -1      2730 9.52475E-05-2.84975E-05-2.86045E-05 6.93638E-07-1.01936E-18 3.99192E-19
 -1      2731 9.52395E-05-2.85437E-05-2.85845E-05 7.05753E-07-1.13607E-18 1.12032E-18
 -1      2732 9.52584E-05-2.84579E-05-2.86305E-05 7.37348E-07-5.35925E-19 4.35415E-19
 -1      2733 9.53147E-05-2.84294E-05-2.86619E-05 7.95366E-07-2.79945E-19 3.43556E-19
 -1      2734 9.52586E-05-2.84533E-05-2.86315E-05 7.67118E-07-7.81749E-19 1.38255E-18
 -1      2735 9.53270E-05-2.83826E-05-2.86924E-05 8.74312E-07-3.04159E-19 6.90807E-19
 -1      2736 9.53938E-05-2.83491E-05-2.87295E-05 9.69512E-07 7.77380E-20 6.88315E-19
 -1      2737 9.52802E-05-2.83465E-05-2.86866E-05 8.94914E-07-1.48794E-19 1.04479E-18
 -1      2738 9.54074E-05-2.82935E-05-2.87653E-05 1.08980E-06 2.99561E-19 4.04661E-19
 -1      2739 9.54889E-05-2.82549E-05-2.88097E-05 1.22859E-06 5.62819E-19-2.59301E-20
 -1      2740 9.53043E-05-2.82203E-05-2.87511E-05 1.10089E-06-1.04158E-19 1.20432E-18
 -1      2741 9.55036E-05-2.81890E-05-2.88517E-05 1.39711E-06 5.28460E-19-3.60143E-19
 -1      2742 9.56046E-05-2.81454E-05-2.89052E-05 1.58663E-06 3.64045E-19-8.00069E-19
 -1      2743 9.53306E-05-2.80710E-05-2.88263E-05 1.39817E-06 1.41422E-19 4.29723E-19
 -1      2744 9.56198E-05-2.80679E-05-2.89539E-05 1.81091E-06 1.35674E-20-7.84455E-19
 -1      2745 9.57457E-05-2.80202E-05-2.90181E-05 2.05873E-06-1.93099E-19-1.18575E-18
 -1      2746 9.53586E-05-2.78957E-05-2.89134E-05 1.80112E-06 2.23619E-19-4.03354E-19
 -1      2747 9.57609E-05-2.79307E-05-2.90738E-05 2.34656E-06-1.78319E-20-1.11042E-18
 -1      2748 9.59175E-05-2.78813E-05-2.91500E-05 2.66001E-06 4.81119E-20-7.02090E-19
 -1      2749 9.53873E-05-2.76925E-05-2.90126E-05 2.32488E-06-3.09764E-21-8.19713E-19
 -1      2750 9.59323E-05-2.77812E-05-2.92121E-05 3.01869E-06 1.63599E-19-9.96094E-19
 -1      2751 9.61266E-05-2.77354E-05-2.93008E-05 3.40349E-06 4.86170E-19-8.63467E-19
 -1      2752 9.54159E-05-2.74630E-05-2.91229E-05 2.98413E-06-3.82539E-19 1.95804E-19
 -1      2753 9.61420E-05-2.76303E-05-2.93674E-05 3.83864E-06 2.88841E-19-1.21681E-18
 -1      2754 9.63825E-05-2.75987E-05-2.94678E-05 4.29676E-06 1.50417E-19-8.79770E-19
 -1      2755 9.54453E-05-2.72157E-05-2.92411E-05 3.79123E-06 3.29397E-19-3.21777E-19
 -1      2756 9.64034E-05-2.75012E-05-2.95352E-05 4.81037E-06 4.64619E-19-1.00328E-18
 -1      2757 9.67026E-05-2.75034E-05-2.96447E-05 5.33644E-06 6.22359E-19-9.75297E-19
 -1      2758 9.54810E-05-2.69717E-05-2.93607E-05 4.75319E-06 3.04771E-19-9.62869E-19
 -1      2759 9.67422E-05-2.74394E-05-2.97068E-05 5.92407E-06 6.59042E-19-8.59500E-19
 -1      2760 9.71205E-05-2.75107E-05-2.98200E-05 6.50000E-06 6.02316E-19-4.14125E-19
 -1      2761 9.55403E-05-2.67745E-05-2.94706E-05 5.86748E-06 9.89770E-19-5.52864E-19
 -1      2762 9.72093E-05-2.75275E-05-2.98678E-05 7.14658E-06 9.45690E-19 5.97158E-19
 -1      2763 9.77020E-05-2.77276E-05-2.99762E-05 7.73358E-06 8.84282E-19 1.45032E-18
 -1      2764 9.56646E-05-2.67055E-05-2.95545E-05 7.11617E-06 1.44109E-18 6.47328E-19
 -1      2765 9.79026E-05-2.79066E-05-2.99985E-05 8.40682E-06 6.33930E-19 2.08923E-18
 -1      2766 9.85716E-05-2.83311E-05-3.00910E-05 8.93400E-06 8.19854E-19 1.88115E-18
 -1      2767 9.59426E-05-2.69065E-05-2.95910E-05 8.45748E-06 1.16747E-18 1.40932E-18
 -1      2768 9.90004E-05-2.88012E-05-3.00769E-05 9.57285E-06 1.04542E-18 2.50289E-18
 -1      2769 9.99469E-05-2.95898E-05-3.01433E-05 9.92166E-06 8.45776E-19 2.93407E-18
 -1      2770 9.65452E-05-2.76084E-05-2.95566E-05 9.81196E-06 1.12737E-18 1.66208E-18
 -1      2771 1.00801E-04-3.05340E-05-3.00902E-05 1.04148E-05-1.43779E-19 2.68388E-18
 -1      2772 1.02170E-04-3.18599E-05-3.01300E-05 1.04001E-05 2.16210E-19 2.01656E-18
 -1      2773 9.77751E-05-2.91564E-05-2.94364E-05 1.10356E-05 5.02837E-19 1.06837E-18
 -1      2774 1.03747E-04-3.34921E-05-3.00593E-05 1.05394E-05 1.10270E-18 1.84981E-18
 -1      2775 1.05692E-04-3.54892E-05-3.00983E-05 9.88870E-06 1.35536E-18 1.57567E-18
 -1      2776 1.00118E-04-3.20050E-05-2.92487E-05 1.18624E-05 4.59285E-19 2.11965E-18
 -1      2777 1.08351E-04-3.79532E-05-3.00824E-05 9.30561E-06 8.55437E-19 1.21516E-18
 -1      2778 1.10912E-04-4.05405E-05-3.01987E-05 7.66283E-06 5.43458E-19 9.49087E-19
 -1      2779 1.04238E-04-3.65941E-05-2.90905E-05 1.17790E-05 6.78733E-19 1.17303E-18
 -1      2780 1.14853E-04-4.35862E-05-3.04180E-05 5.70690E-06 3.66250E-19 7.83595E-19
 -1      2781 1.17669E-04-4.60144E-05-3.07822E-05 2.77528E-06-3.87934E-19 7.77909E-19
 -1      2782 1.10776E-04-4.29171E-05-2.92171E-05 9.84744E-06 2.46455E-19 1.07659E-19
 -1      2783 1.22381E-04-4.84711E-05-3.15725E-05-1.13715E-06-2.83435E-19 1.34298E-18
 -1      2784 1.24399E-04-4.90465E-05-3.24189E-05-5.11172E-06-3.34604E-19 2.45399E-18
 -1      2785 1.19515E-04-4.94259E-05-3.02015E-05 4.55076E-06-1.44747E-19 8.78161E-19
 -1      2786 1.28337E-04-4.85424E-05-3.42030E-05-1.09866E-05-6.70506E-19 2.58225E-18
 -1      2787 1.27938E-04-4.46703E-05-3.57850E-05-1.45023E-05-1.86947E-18 2.79194E-18
 -1      2788 1.28744E-04-5.24811E-05-3.29389E-05-4.69654E-06-3.16737E-19 1.87128E-18
 -1      2789 1.21593E-04-2.25584E-05-4.29829E-05-1.56487E-05-9.82399E-19 2.98007E-18
 -1      2790 1.19132E-04-1.70793E-05-4.41421E-05-1.03340E-05-8.21410E-19 2.93920E-18
 -1      2791 1.17724E-04-1.51055E-05-4.44570E-05-1.68580E-06-5.14678E-19 3.88580E-18
 -1      2792 1.17830E-04-1.69416E-05-4.38641E-05 5.29272E-06 8.43433E-19 4.47347E-18
 -1      2793 1.26655E-04-2.15319E-05-4.55035E-05 1.01596E-05 1.24651E-18 3.94289E-18
 -1      2794 1.28903E-04-2.91468E-05-4.33349E-05 1.24775E-05 1.39099E-18 3.87991E-18
 -1      2795 1.31261E-04-4.21804E-05-3.83799E-05 1.03077E-05 1.95098E-18 3.64780E-18
 -1      2796 1.32137E-04-4.82848E-05-3.61309E-05 7.52992E-06 2.52000E-18 3.27519E-18
 -1      2797 1.19733E-04-4.76227E-05-3.09550E-05-5.04054E-06 2.34939E-18 2.97817E-18
 -1      2798 1.16694E-04-4.54553E-05-3.03880E-05-8.47920E-06 1.99815E-18 2.69854E-18
 -1      2799 1.12171E-04-4.22143E-05-3.00330E-05-1.11601E-05 1.45965E-18 2.72026E-18
 -1      2800 1.09018E-04-3.91166E-05-2.98520E-05-1.31704E-05 1.58023E-19 1.62515E-18
 -1      2801 1.14118E-04-4.55815E-05-2.95506E-05-1.33954E-05 1.30831E-18 8.88769E-19
 -1      2802 1.05617E-04-3.58601E-05-2.99183E-05-1.39574E-05-2.64711E-19 1.08282E-18
 -1      2803 1.03023E-04-3.29849E-05-2.99474E-05-1.45242E-05-7.95481E-19 1.39425E-18
 -1      2804 1.06124E-04-3.78265E-05-2.93556E-05-1.61872E-05-4.33170E-19 1.34889E-18
 -1      2805 9.44730E-05-2.81289E-05-2.84330E-05-8.84354E-07 1.52974E-19 3.47949E-19
 -1      2806 9.44900E-05-2.80019E-05-2.84837E-05-7.09227E-07-2.95509E-20 3.70421E-19
 -1      2807 1.01347E-04-3.10550E-05-3.01263E-05-1.42760E-05-5.52684E-19 1.66748E-18
 -1      2808 9.98847E-05-2.93407E-05-3.01925E-05-1.39606E-05-7.01692E-19 2.45916E-18
 -1      2809 1.01273E-04-3.21235E-05-2.97016E-05-1.64258E-05-2.98836E-19 2.59148E-19
 -1      2810 9.45507E-05-2.78511E-05-2.85865E-05-4.34036E-07-4.28997E-20 4.73564E-19
 -1      2811 9.46395E-05-2.76642E-05-2.86853E-05-9.08467E-08-8.04030E-21 6.90585E-19
 -1      2812 9.50062E-05-2.79117E-05-2.87631E-05-4.43570E-07 1.09565E-19 2.48908E-19
 -1      2813 9.45129E-05-2.84311E-05-2.83198E-05-1.13765E-06-1.11803E-19 6.81322E-19
 -1      2814 9.44561E-05-2.83681E-05-2.83203E-05-1.13374E-06 1.67068E-19 6.17021E-19
 -1      2815 9.45857E-05-2.85084E-05-2.83178E-05-1.09419E-06 1.36986E-19 4.19405E-19
 -1      2816 9.45160E-05-2.84645E-05-2.83067E-05-1.12749E-06-4.64282E-20 5.33497E-19
 -1      2817 9.48934E-05-2.85702E-05-2.84273E-05-1.15762E-06 4.09941E-20 2.97214E-19
 -1      2818 9.46721E-05-2.85551E-05-2.83348E-05-1.00182E-06 2.19295E-19 5.23296E-19
 -1      2819 9.45987E-05-2.85258E-05-2.83172E-05-1.05334E-06 2.12685E-19 4.04554E-19
 -1      2820 9.49154E-05-2.86400E-05-2.84058E-05-1.11615E-06 1.75959E-19 3.09192E-19
 -1      2821 9.47628E-05-2.85796E-05-2.83631E-05-8.90797E-07-1.50451E-19 4.04652E-19
 -1      2822 9.46908E-05-2.85613E-05-2.83422E-05-9.47452E-07-5.33225E-20 6.33296E-19
 -1      2823 9.49507E-05-2.86723E-05-2.84064E-05-1.02567E-06 6.07413E-20 4.98259E-19
 -1      2824 9.48527E-05-2.85875E-05-2.83982E-05-7.82289E-07 3.12575E-19 4.92599E-19
 -1      2825 9.47845E-05-2.85778E-05-2.83757E-05-8.34966E-07 4.07919E-20 5.85326E-19
 -1      2826 9.49930E-05-2.86782E-05-2.84215E-05-9.17390E-07-2.95136E-20 2.19758E-19
 -1      2827 9.49399E-05-2.85828E-05-2.84374E-05-6.91376E-07 4.74143E-19 5.91411E-19
 -1      2828 9.48757E-05-2.85798E-05-2.84141E-05-7.33544E-07 5.04499E-19 7.38610E-19
 -1      2829 9.50384E-05-2.86651E-05-2.84463E-05-8.13346E-07 3.29110E-19 9.42970E-19
 -1      2830 9.50251E-05-2.85684E-05-2.84799E-05-6.29326E-07 4.32555E-19 1.00948E-18
 -1      2831 9.49638E-05-2.85706E-05-2.84558E-05-6.56025E-07 5.78046E-19 9.99226E-19
 -1      2832 9.50852E-05-2.86379E-05-2.84779E-05-7.29466E-07 4.51799E-19 1.04664E-18
 -1      2833 9.51112E-05-2.85461E-05-2.85259E-05-6.05260E-07 1.64428E-19 1.09615E-18
 -1      2834 9.50501E-05-2.85524E-05-2.85006E-05-6.12360E-07 3.16988E-19 1.04437E-18
 -1      2835 9.51332E-05-2.85995E-05-2.85149E-05-6.77860E-07 2.99674E-19 1.52714E-18
 -1      2836 9.52023E-05-2.85174E-05-2.85768E-05-6.27355E-07-3.35499E-19 2.04839E-18
 -1      2837 9.51380E-05-2.85267E-05-2.85492E-05-6.11031E-07-3.07430E-19 1.28244E-18
 -1      2838 9.51837E-05-2.85512E-05-2.85573E-05-6.68502E-07-1.35536E-19 1.68520E-18
 -1      2839 9.53042E-05-2.84833E-05-2.86345E-05-7.03684E-07-4.31075E-19 2.34642E-18
 -1      2840 9.52324E-05-2.84947E-05-2.86032E-05-6.60065E-07-2.09215E-19 2.28219E-18
 -1      2841 9.52388E-05-2.84939E-05-2.86057E-05-7.10447E-07-4.77191E-19 2.14075E-18
 -1      2842 9.54239E-05-2.84452E-05-2.87015E-05-8.42668E-07 1.59395E-19 1.42300E-18
 -1      2843 9.53393E-05-2.84574E-05-2.86650E-05-7.67674E-07 1.18482E-20 1.72692E-18
 -1      2844 9.53017E-05-2.84276E-05-2.86612E-05-8.12660E-07 2.44739E-19 1.81226E-18
 -1      2845 9.55698E-05-2.84048E-05-2.87804E-05-1.05311E-06 3.62615E-19 1.00088E-18
 -1      2846 9.54663E-05-2.84164E-05-2.87370E-05-9.42509E-07 1.79378E-19 1.07604E-18
 -1      2847 9.53766E-05-2.83528E-05-2.87257E-05-9.84414E-07 5.48868E-19 1.57469E-18
 -1      2848 9.57517E-05-2.83655E-05-2.88743E-05-1.34376E-06 5.99140E-19 7.71528E-19
 -1      2849 9.56224E-05-2.83739E-05-2.88221E-05-1.19347E-06 6.44470E-19 1.18506E-18
 -1      2850 9.54687E-05-2.82704E-05-2.88007E-05-1.23525E-06 5.86708E-19 6.45862E-19
 -1      2851 9.59812E-05-2.83327E-05-2.89857E-05-1.72219E-06 3.50137E-19 6.76684E-19
 -1      2852 9.58182E-05-2.83343E-05-2.89230E-05-1.52896E-06 5.79942E-19 7.71576E-19
 -1      2853 9.55848E-05-2.81835E-05-2.88880E-05-1.57437E-06 5.87394E-19 1.14175E-18
 -1      2854 9.62718E-05-2.83159E-05-2.91165E-05-2.19281E-06-3.75972E-19 1.00907E-18
 -1      2855 9.60664E-05-2.83048E-05-2.90420E-05-1.95539E-06 7.46247E-20 8.55462E-19
 -1      2856 9.57333E-05-2.80983E-05-2.89885E-05-2.00943E-06 4.80877E-20 9.23620E-19
 -1      2857 9.66400E-05-2.83303E-05-2.92674E-05-2.75371E-06-8.69028E-19 1.36550E-19
 -1      2858 9.63824E-05-2.82977E-05-2.91804E-05-2.47465E-06-6.44846E-19 1.17519E-18
 -1      2859 9.59262E-05-2.80266E-05-2.91023E-05-2.54428E-06-5.82984E-19 1.44836E-18
 -1      2860 9.71061E-05-2.83998E-05-2.94372E-05-3.39193E-06-8.65088E-19 3.60061E-19
 -1      2861 9.67857E-05-2.83324E-05-2.93380E-05-3.08030E-06-7.40291E-19 2.78893E-19
 -1      2862 9.61797E-05-2.79884E-05-2.92278E-05-3.17570E-06-6.87295E-19 1.19378E-18
 -1      2863 9.76967E-05-2.85613E-05-2.96216E-05-4.07676E-06-8.81922E-19 8.57095E-19
 -1      2864 9.73014E-05-2.84396E-05-2.95123E-05-3.75189E-06-9.97238E-19 5.09330E-19
 -1      2865 9.65182E-05-2.80166E-05-2.93615E-05-3.88845E-06-1.28133E-18 1.30030E-18
 -1      2866 9.84470E-05-2.88684E-05-2.98133E-05-4.75067E-06-5.21364E-19 9.85189E-19
 -1      2867 9.79635E-05-2.86650E-05-2.96978E-05-4.44709E-06-4.97818E-19 6.25910E-19
 -1      2868 9.69778E-05-2.81622E-05-2.94973E-05-4.64849E-06-8.23701E-19 1.35540E-18
 -1      2869 9.94047E-05-2.93950E-05-3.00016E-05-5.31808E-06-8.07841E-19 1.31738E-18
 -1      2870 9.88182E-05-2.90739E-05-2.98861E-05-5.09130E-06-7.88742E-19 1.14250E-18
 -1      2871 9.76131E-05-2.84999E-05-2.96269E-05-5.39380E-06-8.06516E-19 5.89443E-19
 -1      2872 1.00631E-04-3.02336E-05-3.01738E-05-5.63308E-06-5.64828E-19 1.23032E-18
 -1      2873 9.99275E-05-2.97528E-05-3.00660E-05-5.56503E-06-5.56502E-19 1.15023E-18
 -1      2874 9.85035E-05-2.91325E-05-2.97409E-05-6.02266E-06-6.31103E-19 5.31221E-19
 -1      2875 1.02196E-04-3.14795E-05-3.03198E-05-5.48929E-06 4.37719E-20 1.66553E-18
 -1      2876 1.01368E-04-3.08019E-05-3.02271E-05-5.69068E-06-3.54421E-19 1.45951E-18
 -1      2877 9.97587E-05-3.01861E-05-2.98324E-05-6.37952E-06-6.22592E-19 8.41642E-19
 -1      2878 1.04153E-04-3.31854E-05-3.04403E-05-4.62022E-06-2.65823E-20 1.98452E-18
 -1      2879 1.03216E-04-3.23070E-05-3.03655E-05-5.22360E-06 4.12651E-19 2.03636E-18
 -1      2880 1.01512E-04-3.17866E-05-2.99047E-05-6.24014E-06-5.22006E-20 1.00488E-18
 -1      2881 1.06477E-04-3.52670E-05-3.05594E-05-2.73056E-06-1.07338E-18 6.56002E-19
 -1      2882 1.05501E-04-3.42695E-05-3.04951E-05-3.86165E-06-1.53963E-19 1.57865E-18
 -1      2883 1.03883E-04-3.39916E-05-2.99828E-05-5.30291E-06-4.56351E-20 7.86575E-19
 -1      2884 1.08951E-04-3.73528E-05-3.07389E-05 4.06265E-07-1.50169E-18 1.18218E-18
 -1      2885 1.08106E-04-3.64795E-05-3.06609E-05-1.30501E-06-1.98692E-18 7.70957E-19
 -1      2886 1.06884E-04-3.66558E-05-3.01293E-05-3.21193E-06-1.29369E-18-2.76344E-19
 -1      2887 1.11033E-04-3.86351E-05-3.10823E-05 4.72038E-06 3.67652E-19 2.17651E-18
 -1      2888 1.10616E-04-3.83414E-05-3.09486E-05 2.57461E-06-5.87147E-19 1.20697E-18
 -1      2889 1.10238E-04-3.92178E-05-3.04584E-05 3.33774E-07-1.36443E-18-4.21648E-19
 -1      2890 1.11837E-04-3.79225E-05-3.17116E-05 9.48323E-06-1.36090E-18 1.93054E-18
 -1      2891 1.12215E-04-3.87912E-05-3.14769E-05 7.41002E-06 2.12435E-19 1.69266E-18
 -1      2892 1.13183E-04-4.05399E-05-3.11272E-05 5.27046E-06-1.12847E-19 1.00103E-18
 -1      2893 1.10511E-04-3.41754E-05-3.26613E-05 1.28949E-05-2.09290E-18 2.15999E-18
 -1      2894 1.11766E-04-3.64752E-05-3.23349E-05 1.19087E-05-2.19023E-18 2.03186E-18
 -1      2895 1.14433E-04-3.90609E-05-3.22920E-05 1.08225E-05-1.57685E-18 7.68352E-19
 -1      2896 1.07286E-04-2.83480E-05-3.37397E-05 1.26950E-05 4.92715E-19 2.16131E-18
 -1      2897 1.08988E-04-3.14576E-05-3.33869E-05 1.34815E-05-8.81923E-19 2.27039E-18
 -1      2898 1.12699E-04-3.34848E-05-3.39176E-05 1.45964E-05-2.05751E-18 5.19284E-19
 -1      2899 1.03774E-04-2.30094E-05-3.45649E-05 7.63357E-06 4.89003E-19 3.20169E-18
 -1      2900 1.05143E-04-2.52098E-05-3.43656E-05 1.05644E-05 1.19106E-18 3.37205E-18
 -1      2901 1.09333E-04-2.64658E-05-3.54675E-05 1.30890E-05 1.14859E-19 1.26733E-18
 -1      2902 1.02746E-04-2.20095E-05-3.46906E-05-4.23844E-07 1.69354E-19 2.69489E-18
 -1      2903 1.02914E-04-2.18611E-05-3.47640E-05 3.22671E-06-1.84124E-19 3.55757E-18
 -1      2904 1.05994E-04-2.11063E-05-3.64423E-05 6.00744E-06 3.82899E-19 1.46446E-18
 -1      2905 1.05010E-04-2.62041E-05-3.39542E-05-7.16712E-06 7.41610E-19 2.96404E-18
 -1      2906 1.03906E-04-2.37115E-05-3.43241E-05-4.70500E-06 4.38790E-19 3.48152E-18
 -1      2907 1.06115E-04-2.17613E-05-3.61559E-05-3.27126E-06-1.97551E-19 2.36375E-18
 -1      2908 1.08388E-04-3.23213E-05-3.27307E-05-9.20959E-06 3.10285E-18 3.07250E-18
 -1      2909 1.07015E-04-2.93271E-05-3.32095E-05-8.81246E-06 2.26699E-18 3.11920E-18
 -1      2910 1.09350E-04-2.77744E-05-3.49176E-05-9.21294E-06 1.35794E-18 2.99425E-18
 -1      2911 1.10171E-04-3.67547E-05-3.15202E-05-6.61735E-06 2.26373E-18 3.00111E-18
 -1      2912 1.09478E-04-3.48991E-05-3.19293E-05-7.99474E-06 2.63892E-18 3.50017E-18
 -1      2913 1.12585E-04-3.50201E-05-3.31894E-05-9.23563E-06 2.48397E-18 3.74747E-18
 -1      2914 1.09466E-04-3.79911E-05-3.06296E-05-1.94364E-06 2.64654E-18 2.17482E-18
 -1      2915 1.09703E-04-3.76426E-05-3.09154E-05-4.05624E-06 2.39442E-18 2.82331E-18
 -1      2916 1.13153E-04-3.92813E-05-3.16238E-05-4.87424E-06 2.72556E-18 2.63591E-18
 -1      2917 1.06878E-04-3.65445E-05-3.01069E-05 2.51267E-06 1.43150E-18 1.94572E-18
 -1      2918 1.07859E-04-3.73603E-05-3.02717E-05 6.07684E-07 2.30719E-18 2.38325E-18
 -1      2919 1.10967E-04-3.96577E-05-3.05598E-05 5.68090E-07 2.49389E-18 1.30555E-18
 -1      2920 1.03487E-04-3.36933E-05-2.98724E-05 5.46025E-06 1.21800E-18 1.04605E-18
 -1      2921 1.04833E-04-3.50747E-05-2.99536E-05 4.29064E-06 1.31898E-18 1.73292E-18
 -1      2922 1.07227E-04-3.72267E-05-3.00225E-05 4.92913E-06 1.78096E-18 1.99729E-18
 -1      2923 1.00535E-04-3.09065E-05-2.98132E-05 6.78588E-06-9.32084E-19 1.19974E-18
 -1      2924 1.01965E-04-3.24173E-05-2.98516E-05 6.47182E-06 2.40949E-19 8.90415E-19
 -1      2925 1.03660E-04-3.39641E-05-2.98685E-05 7.60589E-06 1.43442E-18 9.52801E-19
 -1      2926 1.00549E-04-3.06562E-05-2.99349E-05 8.88319E-06-1.18010E-18-4.89277E-19
 -1      2927 3.40091E-05-1.56056E-05-7.35558E-06 4.06414E-06-1.42335E-18-5.73971E-18
 -1      2928 3.29059E-05-1.70905E-05-6.13811E-06-1.17057E-05-4.35375E-19-3.99948E-18
 -1      2929 8.12576E-05-1.54280E-05-2.83167E-05 9.04548E-06 4.14721E-19-4.97849E-18
 -1      2930 8.36648E-05-1.70910E-05-2.84551E-05 1.24370E-05 1.31975E-18-4.72395E-18
 -1      2931 9.32687E-05-2.48830E-05-2.93796E-05 1.71772E-05 3.64129E-18-2.53497E-18
 -1      2932 9.58797E-05-2.68932E-05-2.94970E-05 1.69107E-05 3.64733E-18-2.94693E-18
 -1      2933 7.89545E-05-1.34702E-05-2.81006E-05-3.46105E-07-2.82056E-19-2.41109E-18
 -1      2934 7.94587E-05-1.38173E-05-2.81272E-05 4.08916E-06 3.69849E-19-3.31180E-18
 -1      2935 7.82535E-05-1.57405E-05-2.66831E-05 7.64472E-06 7.11690E-19-4.67281E-18
 -1      2936 8.69393E-05-1.99443E-05-2.88245E-05 1.52828E-05 1.31306E-18-4.10942E-18
 -1      2937 9.00578E-05-2.21837E-05-2.89922E-05 1.68141E-05 2.01487E-18-2.91330E-18
 -1      2938 9.20312E-05-2.61755E-05-2.82604E-05 1.89391E-05 1.74903E-18-4.56846E-18
 -1      2939 8.43019E-05-2.04148E-05-2.73532E-05 1.58227E-05 1.39735E-18-4.36343E-18
 -1      2940 8.12118E-05-1.51036E-05-2.82825E-05-9.60195E-06 3.71288E-20 2.46197E-19
 -1      2941 7.96253E-05-1.40360E-05-2.81851E-05-5.64397E-06-2.84372E-19-2.84345E-19
 -1      2942 7.69200E-05-1.46712E-05-2.65610E-05-3.33332E-06 2.16979E-19-1.38958E-18
 -1      2943 8.68734E-05-1.94836E-05-2.87845E-05-1.59561E-05 1.82145E-21-3.64854E-19
 -1      2944 8.39548E-05-1.74664E-05-2.86071E-05-1.35342E-05 3.91366E-19 6.50237E-19
 -1      2945 8.09780E-05-1.77277E-05-2.70440E-05-1.31531E-05 3.48102E-19 4.67939E-19
 -1      2946 9.31441E-05-2.43578E-05-2.93876E-05-1.79049E-05 1.36708E-19 4.89887E-19
 -1      2947 9.02400E-05-2.22695E-05-2.92162E-05-1.74368E-05 2.56216E-19 5.04312E-19
 -1      2948 8.82583E-05-2.30846E-05-2.79431E-05-1.86345E-05 4.70947E-19 4.08597E-19
 -1      2949 1.26829E-04-6.26160E-05-2.73701E-05-2.59079E-05 2.15146E-18 1.48877E-18
 -1      2950 1.38216E-04-6.26768E-05-3.27117E-05-1.57821E-05 3.16600E-18 2.45407E-18
 -1      2951 9.44568E-05-2.14312E-05-3.13386E-05-7.65486E-06 4.71625E-19-1.09652E-18
 -1      2952 9.50193E-05-2.31937E-05-3.07371E-05-5.99620E-06 4.22838E-19-1.09000E-18
 -1      2953 9.50478E-05-2.43894E-05-3.03006E-05-4.47424E-06 3.01746E-19-9.96887E-19
 -1      2954 9.30738E-05-1.90557E-05-3.17216E-05-7.05431E-06 6.88057E-19-8.42394E-19
 -1      2955 1.35411E-04-2.37845E-05-4.81878E-05 1.45913E-05-6.77626E-19-3.18654E-18
 -1      2956 1.30716E-04-1.58174E-05-4.99605E-05 1.19033E-05-1.09140E-18-3.65346E-18
 -1      2957 9.47214E-05-2.74143E-05-2.88488E-05 3.92691E-07 5.67173E-20 8.05408E-19
 -1      2958 9.49027E-05-2.71213E-05-2.90214E-05 9.97286E-07 1.67112E-19 8.91788E-19
 -1      2959 9.52527E-05-2.65022E-05-2.94709E-05 1.74042E-06 2.55637E-19 8.06418E-19
 -1      2960 9.51281E-05-2.73821E-05-2.90436E-05 3.80410E-07 8.52247E-20 7.25672E-19
 -1      2961 9.44685E-05-2.83111E-05-2.83525E-05-1.08865E-06 1.59581E-19 4.89774E-19
 -1      2962 9.44387E-05-2.82220E-05-2.83723E-05-1.01970E-06 1.99879E-19 3.49563E-19
 -1      2963 9.49282E-05-2.82411E-05-2.85865E-05-8.97376E-07 2.10895E-19 1.41498E-20
 -1      2964 9.48940E-05-2.84461E-05-2.84822E-05-1.10572E-06 1.83581E-20 2.63283E-19
 -1      2965 9.11782E-05-1.60913E-05-3.22081E-05 4.92079E-06 8.45123E-19 6.57822E-19
 -1      2966 9.08363E-05-1.55930E-05-3.22688E-05 3.99814E-06 8.47700E-19 4.37698E-19
 -1      2967 9.18154E-05-1.72050E-05-3.19605E-05 3.20134E-06 7.55886E-19 3.20451E-19
 -1      2968 9.24834E-05-1.82641E-05-3.17882E-05 4.61890E-06 7.20824E-19 6.24191E-19
 -1      2969 3.17829E-05-1.35592E-05-7.22423E-06 1.04214E-06 1.22044E-18 8.82397E-19
 -1      2970 3.45544E-05-1.53792E-05-7.90479E-06-1.47435E-05 8.93461E-19-7.47930E-19
 -1      2971 1.30485E-04-1.27365E-05-5.10474E-05-8.51585E-06 8.04258E-19 2.95985E-18
 -1      2972 1.33617E-04-1.78696E-05-5.03031E-05-1.41698E-05-4.54645E-19 1.83933E-18
 -1      2973 9.08012E-05-1.55442E-05-3.22741E-05-3.93319E-06 9.13965E-19-5.74040E-19
 -1      2974 9.11338E-05-1.60328E-05-3.22148E-05-4.86211E-06 9.35080E-19-6.20333E-19
 -1      2975 4.32503E-05-2.26255E-05-8.52706E-06 2.64856E-05 2.00112E-18-1.91811E-18
 -1      2976 3.46589E-05-1.65214E-05-7.26470E-06 1.44040E-05 1.12761E-18-4.80691E-19
 -1      2977 1.37271E-04-5.68436E-05-3.45908E-05-5.41332E-06 5.45198E-19-5.28559E-18
 -1      2978 1.41018E-04-5.20784E-05-3.85620E-05 1.41607E-06 6.43427E-19-4.85911E-18
 -1      2979 1.37037E-04-2.43836E-05-4.89214E-05-1.61559E-05-1.58332E-18 2.21658E-18
 -1      2980 1.41166E-04-3.40994E-05-4.63579E-05-1.66794E-05-2.17762E-18 2.44888E-18
 -1      2981 1.30806E-04-2.47948E-05-4.57813E-05-1.69141E-05-1.26526E-18 3.35552E-18
 -1      2982 7.75927E-05-4.23194E-05-1.51685E-05 3.79238E-05 1.83478E-18-3.49719E-19
 -1      2983 5.81611E-05-3.08742E-05-1.10438E-05 3.32138E-05 2.10615E-18-6.24263E-19
 -1      2984 4.59190E-05-2.22046E-05-9.57268E-06-2.73955E-05 8.73714E-19-3.02687E-18
 -1      2985 5.99740E-05-3.14134E-05-1.18860E-05-3.64432E-05 1.00628E-18-4.27243E-18
 -1      2986 1.14540E-04-5.94406E-05-2.37294E-05 2.84903E-05 1.63054E-19-9.88309E-19
 -1      2987 9.91309E-05-5.27307E-05-1.93542E-05 3.39207E-05 1.10474E-18-1.63038E-18
 -1      2988 1.40962E-04-4.38306E-05-4.18969E-05 8.20947E-06 1.22185E-19-3.80371E-18
 -1      2989 1.38559E-04-3.38505E-05-4.56325E-05 1.25003E-05 1.25996E-20-2.23553E-18
 -1      2990 1.37595E-04-4.75629E-05-3.87672E-05 8.45002E-06 3.68645E-19-3.42148E-18
 -1      2991 9.84403E-05-2.81776E-05-3.01281E-05-1.54029E-05-1.91082E-19 5.80060E-19
 -1      2992 9.47064E-05-2.19077E-05-3.12062E-05 7.84598E-06 3.31468E-19 1.24968E-18
 -1      2993 9.16052E-05-4.91485E-05-1.80842E-05 4.22089E-05 4.12082E-19-4.47683E-18
 -1      2994 7.37934E-05-4.02390E-05-1.36059E-05 4.19941E-05 5.83712E-19-4.44512E-18
 -1      2995 3.82296E-05-2.04789E-05-7.06446E-06-2.18212E-05-1.25890E-19-2.29038E-18
 -1      2996 4.87166E-05-2.63082E-05-9.23545E-06-3.23614E-05 6.36757E-19-2.18026E-18
 -1      2997 4.36235E-05-1.78224E-05-1.03846E-05-1.60742E-05-5.54912E-19-3.34197E-18
 -1      2998 1.39203E-04-3.65080E-05-4.46589E-05-8.55698E-06-3.55119E-19-6.89442E-18
 -1      2999 1.42117E-04-4.46421E-05-4.20404E-05-5.53179E-06-3.70683E-19-6.70755E-18
 -1      3000 9.15747E-05-1.66925E-05-3.21141E-05-5.57478E-06 8.65319E-19-5.87829E-19
 -1      3001 9.20551E-05-1.74595E-05-3.20235E-05-6.46873E-06 7.81440E-19-7.24463E-19
 -1      3002 9.24312E-05-1.81947E-05-3.17974E-05-4.56209E-06 7.75089E-19-5.46002E-19
 -1      3003 9.12918E-05-1.63959E-05-3.20861E-05 2.84108E-08 9.18773E-19-1.23018E-20
 -1      3004 9.01686E-05-1.46057E-05-3.24035E-05-3.83497E-07 9.90963E-19-1.95082E-20
 -1      3005 9.02251E-05-1.46859E-05-3.23935E-05-1.34173E-06 1.03742E-18-1.33378E-19
 -1      3006 1.11925E-04-5.53988E-05-2.38358E-05-3.22473E-05 6.76356E-19 4.53030E-19
 -1      3007 1.20914E-04-6.11062E-05-2.54604E-05-3.00522E-05 1.26293E-18 9.93040E-19
 -1      3008 1.26146E-04-6.04022E-05-2.84778E-05-2.05461E-05 2.01371E-18 2.01266E-18
 -1      3009 1.22995E-04-1.70051E-05-4.58932E-05 1.22624E-05-1.83679E-18-3.35362E-18
 -1      3010 1.26745E-04-1.29088E-05-4.93407E-05 9.55000E-06-1.30718E-18-3.85898E-18
 -1      3011 1.21628E-04-1.14407E-05-4.78510E-05 6.34075E-06-1.83001E-18-4.65153E-18
 -1      3012 6.09766E-05-2.92536E-05-1.30177E-05-3.35480E-05 5.46972E-19-3.26531E-18
 -1      3013 8.83557E-05-4.56965E-05-1.77898E-05-3.99080E-05 8.01611E-19-2.18005E-18
 -1      3014 1.22723E-04-6.09417E-05-2.62163E-05 2.14845E-05-6.82814E-19 8.26122E-19
 -1      3015 1.17153E-04-5.73701E-05-2.52735E-05 2.22522E-05-1.84018E-19-3.77714E-19
 -1      3016 1.28604E-04-6.15758E-05-2.91808E-05 1.37059E-05-1.16790E-18 9.13896E-19
 -1      3017 1.32660E-04-4.58160E-05-3.73274E-05-1.50042E-05-2.25112E-18 2.64862E-18
 -1      3018 1.27683E-04-3.96594E-05-3.80572E-05-1.83923E-05-3.27143E-18 2.65206E-18
 -1      3019 1.25669E-04-2.86527E-05-4.19102E-05-1.88230E-05-1.49597E-18 3.40121E-18
 -1      3020 1.25111E-04-3.24332E-05-3.98992E-05-1.82840E-05-2.59097E-18 3.62543E-18
 -1      3021 1.35527E-04-5.46536E-05-3.49243E-05 1.76713E-07 2.16156E-18 2.04291E-18
 -1      3022 1.26781E-04-4.90293E-05-3.33855E-05 3.68476E-06 1.82908E-18 3.97746E-18
 -1      3023 1.25142E-04-4.99253E-05-3.21582E-05-5.35345E-07 2.03488E-18 3.09383E-18
 -1      3024 9.43542E-05-2.14249E-05-3.12597E-05 7.21990E-06 4.32576E-19 9.73936E-19
 -1      3025 3.88154E-05-1.64383E-05-8.73577E-06 1.30830E-05-5.44748E-19-5.57792E-18
 -1      3026 4.11523E-05-1.47473E-05-1.07657E-05 3.20696E-06 1.48651E-19-4.28090E-18
 -1      3027 4.53950E-05-1.91880E-05-1.10587E-05 2.04705E-05 2.46222E-19-5.60588E-18
 -1      3028 1.00511E-04-3.06825E-05-2.98990E-05 1.09069E-05-1.46983E-19-5.57689E-20
 -1      3029 1.02048E-04-3.25581E-05-2.98106E-05 1.06492E-05 4.24906E-19 1.06476E-18
 -1      3030 9.98921E-05-3.00007E-05-2.99480E-05 1.26608E-05 3.26430E-20 3.81540E-19
 -1      3031 1.34188E-04-5.94555E-05-3.21696E-05-1.03347E-05 5.01549E-19-6.12595E-18
 -1      3032 1.33676E-04-5.61672E-05-3.34415E-05-1.52242E-06 8.12804E-19-5.19792E-18
 -1      3033 1.28464E-04-5.95393E-05-2.94804E-05-1.48063E-05 1.17632E-18-6.26974E-18
 -1      3034 1.39225E-04-5.96092E-05-3.41229E-05-6.62817E-06 2.06478E-18 2.22007E-18
 -1      3035 9.66325E-05-2.66244E-05-3.00061E-05-1.64080E-05-1.79674E-19-2.87316E-19
 -1      3036 6.73611E-05-3.33420E-05-1.40160E-05 3.68012E-05 8.15269E-19-5.41614E-18
 -1      3037 9.50394E-05-2.40674E-05-3.04189E-05-4.15127E-06 3.30791E-19-7.45796E-19
 -1      3038 1.32697E-04-1.70163E-05-5.00567E-05 6.57314E-06 9.10349E-19 4.20557E-18
 -1      3039 1.29878E-04-1.17073E-05-5.14256E-05-6.16810E-07 1.44440E-18 4.12520E-18
 -1      3040 1.24149E-04-5.22183E-05-3.10489E-05-7.06884E-06 1.54326E-18 1.80511E-18
 -1      3041 1.34874E-04-6.26077E-05-3.09210E-05 2.00754E-05-7.42213E-19-3.58284E-18
 -1      3042 1.28148E-04-6.19296E-05-2.82672E-05 2.41473E-05-3.16579E-19-3.78925E-18
 -1      3043 1.37051E-04-6.01381E-05-3.32871E-05 1.05712E-05-7.15544E-19-5.16182E-18
 -1      3044 1.24646E-04-1.42911E-05-4.78072E-05-6.27528E-06-9.10560E-21 4.34104E-18
 -1      3045 1.08807E-04-5.67430E-05-2.19942E-05-3.33044E-05 1.04164E-18-3.33290E-18
 -1      3046 1.17743E-04-5.88447E-05-2.53505E-05-2.53630E-05 8.89596E-19-5.17642E-18
 -1      3047 1.00997E-04-5.21715E-05-2.05991E-05-3.45298E-05 6.37604E-19-3.09876E-18
 -1      3048 9.90552E-05-3.03075E-05-2.94037E-05-1.77087E-05-4.87155E-19-8.91023E-19
 -1      3049 9.55482E-05-2.67869E-05-2.95208E-05-1.79972E-05-3.09227E-19-8.00645E-19
 -1      3050 9.52327E-05-2.84134E-05-2.86559E-05-1.97391E-05 3.06517E-19-6.27892E-20
 -1      3051 1.00754E-04-3.26236E-05-2.91853E-05-1.81045E-05-7.06564E-19-6.59134E-19
 -1      3052 7.14722E-05-3.66422E-05-1.43941E-05-3.68993E-05 1.45266E-19-3.85781E-18
 -1      3053 8.34834E-05-4.20153E-05-1.76590E-05-3.57523E-05 1.11173E-20-3.16070E-18
 -1      3054 6.89496E-05-3.12967E-05-1.58260E-05-3.25159E-05 1.05154E-18-3.02354E-18
 -1      3055 5.78436E-05-2.64650E-05-1.28047E-05 2.81064E-05 2.39615E-18-2.71368E-19
 -1      3056 9.75992E-05-2.81783E-05-2.97722E-05 1.57147E-05 2.63171E-18-1.63528E-18
 -1      3057 9.91569E-05-2.95243E-05-2.98015E-05 1.43697E-05 7.62202E-19 5.28346E-19
 -1      3058 1.00974E-04-3.20502E-05-2.95600E-05 1.46045E-05 1.14310E-18 8.92535E-19
 -1      3059 9.79145E-05-3.02201E-05-2.90531E-05 1.77310E-05 3.22736E-18-1.02378E-18
 -1      3060 1.28902E-04-1.26383E-05-5.04068E-05-4.72267E-06-5.84453E-19-5.87756E-18
 -1      3061 1.25253E-04-1.60027E-05-4.71792E-05-8.16064E-06-5.23466E-19-6.23787E-18
 -1      3062 1.21987E-04-1.07940E-05-4.81280E-05-2.21792E-06-1.10114E-18-6.38636E-18
 -1      3063 1.31970E-04-2.90125E-05-4.42336E-05 1.55904E-05-1.01707E-18-2.82824E-18
 -1      3064 9.03501E-05-1.48769E-05-3.23658E-05-2.17920E-06 1.02413E-18-6.79033E-20
 -1      3065 9.05342E-05-1.51408E-05-3.23336E-05-3.13097E-06 9.22448E-19-2.62666E-19
 -1      3066 9.17826E-05-1.71607E-05-3.19658E-05-3.14557E-06 7.96619E-19-3.84535E-19
 -1      3067 9.14101E-05-1.65794E-05-3.20575E-05-1.58446E-06 9.08072E-19-1.26760E-19
 -1      3068 1.27652E-04-2.42556E-05-4.50860E-05-1.13080E-05-3.93976E-19-6.01753E-18
 -1      3069 1.34985E-04-3.06625E-05-4.51246E-05-1.08303E-05-3.82435E-19-6.35296E-18
 -1      3070 1.31589E-04-3.50996E-05-4.15630E-05-1.08307E-05-1.52678E-19-6.41109E-18
 -1      3071 1.40120E-04-4.99060E-05-3.88380E-05-1.74759E-06-6.74026E-19-6.69304E-18
 -1      3072 1.39796E-04-4.02213E-05-4.29837E-05-1.49691E-05-1.55060E-18 1.97772E-18
 -1      3073 4.03943E-05-1.47393E-05-1.02905E-05 6.96818E-06 1.34984E-18-2.31558E-19
 -1      3074 9.12585E-05-4.60467E-05-1.89188E-05 3.26539E-05 1.22354E-18-1.36118E-18
 -1      3075 9.46132E-05-2.24677E-05-3.09124E-05 5.69572E-06 4.39887E-19 9.06344E-19
 -1      3076 1.12672E-04-5.73338E-05-2.36890E-05 3.38156E-05-1.33355E-19-4.07514E-18
 -1      3077 1.03058E-04-5.41397E-05-2.05350E-05 3.94393E-05-2.22240E-19-3.89508E-18
 -1      3078 9.46037E-05-4.73941E-05-2.00023E-05 3.85727E-05-1.36902E-19-4.50505E-18
 -1      3079 1.44098E-04-4.02201E-05-4.47236E-05 9.44336E-06 2.25703E-18 5.23678E-19
 -1      3080 1.39695E-04-3.10645E-05-4.71600E-05 1.18474E-05 1.93865E-18 1.45753E-18
 -1      3081 1.40535E-04-4.47612E-05-4.10563E-05 9.41339E-06 1.94516E-18 2.33411E-18
 -1      3082 9.42745E-05-2.18525E-05-3.10595E-05 4.97563E-06 3.89260E-19 8.15196E-19
 -1      3083 9.38150E-05-2.09112E-05-3.12454E-05 4.62894E-06 4.64585E-19 6.97365E-19
 -1      3084 1.33486E-04-4.93624E-05-3.60841E-05 7.32695E-06 1.28789E-18-4.41018E-18
 -1      3085 1.31991E-04-4.26669E-05-3.89361E-05 1.25991E-05 8.11934E-19-4.48239E-18
 -1      3086 4.76548E-05-1.87532E-05-1.17521E-05-1.95500E-05 1.52773E-18-1.93653E-18
 -1      3087 1.32981E-04-3.57146E-05-4.21700E-05-1.86221E-05-2.29620E-18 3.48401E-18
 -1      3088 9.56812E-05-2.68813E-05-2.94715E-05-7.49787E-07 7.65680E-21-4.25777E-19
 -1      3089 9.56578E-05-2.73296E-05-2.92918E-05-2.25035E-07-9.23944E-20-5.13300E-19
 -1      3090 9.57017E-05-2.77149E-05-2.91260E-05 1.54797E-07-2.29708E-19-4.37898E-19
 -1      3091 9.56648E-05-2.80009E-05-2.90034E-05 4.69624E-07-3.21558E-19-4.65112E-19
 -1      3092 9.59001E-05-2.73329E-05-2.93891E-05-1.69544E-07-1.86491E-19-3.01723E-19
 -1      3093 9.56572E-05-2.82387E-05-2.88857E-05 6.91331E-07-3.39308E-19-4.33997E-19
 -1      3094 9.56251E-05-2.84187E-05-2.88049E-05 8.59557E-07-2.96139E-19-4.48317E-19
 -1      3095 9.59414E-05-2.80565E-05-2.90972E-05 4.65411E-07-3.20455E-19-8.54946E-20
 -1      3096 9.55933E-05-2.85592E-05-2.87237E-05 9.69281E-07-1.97255E-19-3.20008E-19
 -1      3097 9.55704E-05-2.86683E-05-2.86730E-05 1.03956E-06-8.31084E-20-2.67824E-19
 -1      3098 9.59079E-05-2.85056E-05-2.88902E-05 8.23932E-07-1.98089E-19-8.16240E-20
 -1      3099 9.55291E-05-2.87440E-05-2.86191E-05 1.07459E-06 1.84639E-19-9.03001E-20
 -1      3100 9.55150E-05-2.88047E-05-2.85898E-05 1.08301E-06 3.29051E-19 2.39288E-20
 -1      3101 9.58402E-05-2.87691E-05-2.87478E-05 9.89730E-07 2.16956E-19 2.09151E-19
 -1      3102 9.54716E-05-2.88371E-05-2.85561E-05 1.07191E-06 3.57862E-19-2.73002E-20
 -1      3103 9.54646E-05-2.88646E-05-2.85419E-05 1.04468E-06 4.92527E-19-1.01170E-19
 -1      3104 9.57599E-05-2.89065E-05-2.86540E-05 1.02957E-06 4.45497E-19-1.49377E-20
 -1      3105 9.54229E-05-2.88678E-05-2.85231E-05 1.00863E-06 4.21615E-19-1.66786E-19
 -1      3106 9.54209E-05-2.88723E-05-2.85195E-05 9.64549E-07 3.49898E-19-1.29907E-19
 -1      3107 9.56782E-05-2.89582E-05-2.85963E-05 9.94289E-07 4.10595E-19-2.18922E-19
 -1      3108 9.53825E-05-2.88558E-05-2.85117E-05 9.18966E-07 1.83482E-19 6.69609E-20
 -1      3109 9.53841E-05-2.88441E-05-2.85156E-05 8.71506E-07-1.33092E-20 1.26936E-19
 -1      3110 9.56005E-05-2.89516E-05-2.85654E-05 9.21473E-07 3.89630E-19-3.60478E-19
 -1      3111 9.53493E-05-2.88139E-05-2.85158E-05 8.27574E-07-5.47416E-20 3.33725E-19
 -1      3112 9.53534E-05-2.87904E-05-2.85253E-05 7.86503E-07 5.61066E-20 4.32855E-19
 -1      3113 9.55291E-05-2.89048E-05-2.85545E-05 8.38544E-07 1.89440E-19 9.53347E-20
 -1      3114 9.53216E-05-2.87501E-05-2.85317E-05 7.52502E-07-4.60201E-20 3.10549E-19
 -1      3115 9.53275E-05-2.87173E-05-2.85454E-05 7.25195E-07-1.35480E-19 3.65860E-19
 -1      3116 9.54636E-05-2.88290E-05-2.85587E-05 7.65616E-07-1.54286E-21 5.19697E-20
 -1      3117 9.52976E-05-2.86684E-05-2.85567E-05 7.07573E-07-4.27944E-19 3.69902E-19
 -1      3118 9.53050E-05-2.86273E-05-2.85741E-05 7.00002E-07-7.86708E-19 3.20617E-19
 -1      3119 9.54026E-05-2.87305E-05-2.85745E-05 7.17933E-07-4.13679E-19 5.30930E-19
 -1      3120 9.52753E-05-2.85698E-05-2.85897E-05 7.04213E-07-8.52871E-19 5.46634E-19
 -1      3121 9.52840E-05-2.85205E-05-2.86106E-05 7.21710E-07-8.89210E-19 1.03384E-18
 -1      3122 9.53434E-05-2.86115E-05-2.85999E-05 7.07772E-07-5.12019E-19 7.01545E-19
 -1      3123 9.52522E-05-2.84534E-05-2.86301E-05 7.52846E-07-9.42851E-19 1.34548E-18
 -1      3124 9.52622E-05-2.83949E-05-2.86548E-05 8.00666E-07-6.39543E-19 1.14495E-18
 -1      3125 9.52821E-05-2.84711E-05-2.86336E-05 7.45928E-07-8.55432E-19 1.03412E-18
 -1      3126 9.52258E-05-2.83161E-05-2.86779E-05 8.63925E-07-3.17917E-19 1.05918E-18
 -1      3127 9.52369E-05-2.82470E-05-2.87069E-05 9.47645E-07 1.91853E-20 1.01155E-18
 -1      3128 9.52140E-05-2.83062E-05-2.86748E-05 8.42813E-07-4.81503E-19 1.38060E-18
 -1      3129 9.51925E-05-2.81537E-05-2.87337E-05 1.04863E-06 1.45599E-20 9.28223E-19
 -1      3130 9.52047E-05-2.80723E-05-2.87675E-05 1.17437E-06-3.01379E-19 7.46263E-19
 -1      3131 9.51332E-05-2.81118E-05-2.87233E-05 1.00922E-06-2.16151E-19 8.90998E-19
 -1      3132 9.51481E-05-2.79614E-05-2.87978E-05 1.31926E-06-4.66526E-19 7.62986E-19
 -1      3133 9.51612E-05-2.78657E-05-2.88368E-05 1.49373E-06-2.01136E-19 2.14903E-19
 -1      3134 9.50324E-05-2.78817E-05-2.87783E-05 1.25674E-06-5.33412E-19 4.36601E-19
 -1      3135 9.50877E-05-2.77340E-05-2.88702E-05 1.68920E-06-8.30860E-20 1.71174E-19
 -1      3136 9.51010E-05-2.76225E-05-2.89146E-05 1.91955E-06 2.70703E-19-2.43823E-19
 -1      3137 9.49030E-05-2.76094E-05-2.88391E-05 1.59788E-06-3.09411E-19-1.41336E-19
 -1      3138 9.50050E-05-2.74675E-05-2.89499E-05 2.17266E-06 2.21316E-19-2.60412E-19
 -1      3139 9.50180E-05-2.73399E-05-2.89994E-05 2.46603E-06-2.67202E-19-2.44010E-19
 -1      3140 9.47347E-05-2.72890E-05-2.89036E-05 2.04579E-06 2.71639E-19 1.33286E-20
 -1      3141 9.48934E-05-2.71606E-05-2.90347E-05 2.78383E-06-5.17367E-19 7.75936E-19
 -1      3142 9.49056E-05-2.70193E-05-2.90880E-05 3.14664E-06-2.99502E-19 9.80393E-19
 -1      3143 9.45161E-05-2.69173E-05-2.89684E-05 2.61375E-06 2.30881E-19 2.35799E-19
 -1      3144 9.47466E-05-2.68182E-05-2.91198E-05 3.53569E-06-2.93974E-19 8.42598E-19
 -1      3145 9.47593E-05-2.66702E-05-2.91741E-05 3.97247E-06 9.06984E-20 4.31413E-19
 -1      3146 9.42352E-05-2.64962E-05-2.90275E-05 3.31429E-06-3.83685E-19 1.11376E-18
 -1      3147 9.45621E-05-2.64559E-05-2.91972E-05 4.43834E-06 4.29353E-19-2.18595E-19
 -1      3148 9.45802E-05-2.63170E-05-2.92479E-05 4.95023E-06 1.40983E-19-6.76212E-20
 -1      3149 9.38823E-05-2.60380E-05-2.90714E-05 4.15841E-06-1.41444E-19 1.39531E-19
 -1      3150 9.43465E-05-2.61095E-05-2.92544E-05 5.49713E-06 7.49325E-19 1.15121E-20
 -1      3151 9.43835E-05-2.60098E-05-2.92940E-05 6.07979E-06 1.54290E-18 3.79951E-19
 -1      3152 9.34545E-05-2.55732E-05-2.90862E-05 5.15503E-06 6.95125E-19 2.66708E-19
 -1      3153 9.41273E-05-2.58479E-05-2.92731E-05 6.71073E-06 1.91288E-18 2.53855E-19
 -1      3154 9.42144E-05-2.58416E-05-2.92917E-05 7.35189E-06 1.73890E-18 8.71070E-19
 -1      3155 9.29654E-05-2.51624E-05-2.90520E-05 6.31173E-06 1.84146E-18 5.49739E-19
 -1      3156 9.39732E-05-2.57941E-05-2.92293E-05 8.06953E-06 1.08989E-18 5.89873E-19
 -1      3157 9.41739E-05-2.59731E-05-2.92145E-05 8.74559E-06 7.57954E-19 7.40902E-19
 -1      3158 9.24619E-05-2.49156E-05-2.89429E-05 7.63758E-06 1.30047E-18 1.54720E-19
 -1      3159 9.40286E-05-2.61544E-05-2.90951E-05 9.55305E-06 5.99199E-19 6.39278E-19
 -1      3160 9.44615E-05-2.66653E-05-2.90352E-05 1.02231E-05 9.14089E-19 1.00300E-18
 -1      3161 9.20537E-05-2.50196E-05-2.87274E-05 9.14856E-06 7.37552E-19 3.61435E-19
 -1      3162 9.45680E-05-2.72545E-05-2.88458E-05 1.11189E-05 4.15836E-19 4.06006E-19
 -1      3163 9.54356E-05-2.83130E-05-2.87371E-05 1.17105E-05 1.97208E-19 2.65460E-19
 -1      3164 9.19627E-05-2.57765E-05-2.83740E-05 1.08711E-05 5.03478E-19-3.38049E-19
 -1      3165 9.60665E-05-2.95630E-05-2.84790E-05 1.26694E-05 6.19845E-19 7.76441E-20
 -1      3166 9.76827E-05-3.14543E-05-2.83443E-05 1.30479E-05 6.59702E-19 6.17933E-20
 -1      3167 9.25947E-05-2.76431E-05-2.78662E-05 1.28222E-05 2.33190E-19-1.20851E-18
 -1      3168 9.92887E-05-3.36697E-05-2.80582E-05 1.39535E-05 9.99224E-19-1.01495E-19
 -1      3169 1.02054E-04-3.66644E-05-2.79718E-05 1.38780E-05 6.42252E-19-5.34939E-19
 -1      3170 9.46142E-05-3.12523E-05-2.72378E-05 1.49631E-05 5.53503E-19-2.02030E-18
 -1      3171 1.05315E-04-4.01764E-05-2.77756E-05 1.41932E-05 7.79527E-20 9.51192E-20
 -1      3172 1.09383E-04-4.41357E-05-2.79280E-05 1.30263E-05 1.10591E-19 2.76665E-19
 -1      3173 9.93511E-05-3.75839E-05-2.66632E-05 1.69053E-05 7.45551E-19-8.82635E-19
 -1      3174 1.25250E-04-5.57335E-05-2.95533E-05 7.74838E-06-5.25154E-19 1.50041E-18
 -1      3175 1.30493E-04-5.66723E-05-3.15947E-05 2.56605E-06-7.03937E-19 1.76797E-18
 -1      3176 1.32406E-04-5.84108E-05-3.14412E-05-8.76784E-06 2.69077E-18 2.14064E-18
 -1      3177 1.07359E-04-4.04045E-05-2.86270E-05-1.84097E-05-1.69936E-20-9.21817E-19
 -1      3178 1.03657E-04-3.63670E-05-2.87435E-05-1.88406E-05-6.64524E-19-3.20807E-19
 -1      3179 1.00649E-04-3.45238E-05-2.83742E-05-2.03915E-05-6.92436E-19-1.66746E-18
 -1      3180 9.53708E-05-2.79584E-05-2.88950E-05-4.67270E-07 3.24701E-19 1.67527E-19
 -1      3181 9.54254E-05-2.77010E-05-2.90118E-05-1.36752E-07 1.76047E-19 3.55608E-19
 -1      3182 9.52254E-05-2.87642E-05-2.84824E-05-1.08102E-06-4.09873E-20 1.68615E-19
 -1      3183 9.52124E-05-2.87320E-05-2.84901E-05-1.11058E-06 1.11136E-19 9.24916E-20
 -1      3184 9.52436E-05-2.86991E-05-2.85186E-05-1.12147E-06 1.16406E-19-5.16385E-20
 -1      3185 9.52399E-05-2.86380E-05-2.85405E-05-1.11397E-06 1.07453E-20 3.62354E-20
 -1      3186 9.55270E-05-2.88119E-05-2.85949E-05-1.08695E-06 5.38858E-20-2.44161E-19
 -1      3187 9.52152E-05-2.87715E-05-2.84744E-05-8.94868E-07-1.49670E-19 2.72074E-19
 -1      3188 9.51940E-05-2.87741E-05-2.84661E-05-9.46331E-07-1.80754E-19 2.11485E-19
 -1      3189 9.52186E-05-2.87372E-05-2.84904E-05-8.00532E-07-1.67495E-20 8.63166E-19
 -1      3190 9.51962E-05-2.87502E-05-2.84777E-05-8.46357E-07-1.85176E-19 5.23963E-19
 -1      3191 9.53861E-05-2.88448E-05-2.85188E-05-8.77688E-07-4.66217E-19 6.53849E-20
 -1      3192 9.52259E-05-2.86861E-05-2.85153E-05-7.28230E-07 1.47364E-19 9.32297E-19
 -1      3193 9.52027E-05-2.87073E-05-2.84992E-05-7.61192E-07 3.28949E-19 1.05660E-18
 -1      3194 9.53522E-05-2.87888E-05-2.85280E-05-7.93810E-07 2.34831E-20 5.80148E-19
 -1      3195 9.52364E-05-2.86215E-05-2.85473E-05-6.90157E-07 2.19500E-19 1.05451E-18
 -1      3196 9.52122E-05-2.86493E-05-2.85283E-05-7.04565E-07 1.37406E-19 9.36500E-19
 -1      3197 9.53230E-05-2.87134E-05-2.85477E-05-7.33934E-07-1.31428E-20 8.24336E-19
 -1      3198 9.52501E-05-2.85444E-05-2.85859E-05-6.96532E-07-5.73025E-19 1.78705E-18
 -1      3199 9.52240E-05-2.85783E-05-2.85640E-05-6.87502E-07-1.35102E-19 1.67618E-18
 -1      3200 9.52969E-05-2.86215E-05-2.85757E-05-7.10419E-07-4.16079E-19 1.02375E-18
 -1      3201 9.52672E-05-2.84549E-05-2.86312E-05-7.56776E-07-2.34791E-19 1.28929E-18
 -1      3202 9.52380E-05-2.84947E-05-2.86060E-05-7.19701E-07-4.17846E-19 1.46072E-18
 -1      3203 9.52721E-05-2.85138E-05-2.86112E-05-7.33791E-07-3.67165E-19 1.31342E-18
 -1      3204 9.52886E-05-2.83522E-05-2.86840E-05-8.80276E-07 1.49138E-19 1.29600E-18
 -1      3205 9.52546E-05-2.83979E-05-2.86549E-05-8.10509E-07-3.48054E-20 1.26213E-18
 -1      3206 9.52469E-05-2.83893E-05-2.86536E-05-8.13884E-07 8.84991E-20 7.18597E-19
 -1      3207 9.53159E-05-2.82358E-05-2.87450E-05-1.07672E-06 6.15699E-19 1.01368E-18
 -1      3208 9.52746E-05-2.82870E-05-2.87112E-05-9.69478E-07 6.02786E-19 1.18970E-18
 -1      3209 9.52195E-05-2.82466E-05-2.87030E-05-9.60537E-07 3.10476E-19 9.30379E-19
 -1      3210 9.53511E-05-2.81060E-05-2.88152E-05-1.35600E-06 7.00648E-19 7.90905E-19
 -1      3211 9.52999E-05-2.81619E-05-2.87760E-05-1.20650E-06 5.96461E-19 1.04687E-18
 -1      3212 9.51887E-05-2.80841E-05-2.87594E-05-1.18388E-06 7.90769E-19 8.32526E-19
 -1      3213 9.53981E-05-2.79656E-05-2.88948E-05-1.72758E-06 2.22883E-19 1.30579E-18
 -1      3214 9.53331E-05-2.80238E-05-2.88498E-05-1.53150E-06 4.04624E-19 1.21624E-18
 -1      3215 9.51538E-05-2.79021E-05-2.88224E-05-1.49423E-06 4.44215E-19 1.94638E-18
 -1      3216 9.54628E-05-2.78216E-05-2.89835E-05-2.19925E-06-2.19725E-19 1.54738E-18
 -1      3217 9.53791E-05-2.78776E-05-2.89325E-05-1.95349E-06 2.16371E-19 1.45985E-18
 -1      3218 9.51158E-05-2.77038E-05-2.88911E-05-1.90141E-06 4.41004E-20 2.26086E-18
 -1      3219 9.55551E-05-2.76880E-05-2.90796E-05-2.77498E-06-6.22512E-19 1.18914E-18
 -1      3220 9.54458E-05-2.77332E-05-2.90233E-05-2.47900E-06-3.95779E-19 1.43612E-18
 -1      3221 9.50787E-05-2.74979E-05-2.89634E-05-2.41361E-06-1.02006E-20 1.24253E-18
 -1      3222 9.56914E-05-2.75894E-05-2.91797E-05-3.45185E-06-6.14487E-19 9.65894E-19
 -1      3223 9.55465E-05-2.76097E-05-2.91194E-05-3.10955E-06-5.14930E-19 8.70527E-19
 -1      3224 9.50518E-05-2.73023E-05-2.90359E-05-3.03545E-06-3.96296E-19 8.38637E-19
 -1      3225 9.58991E-05-2.75667E-05-2.92781E-05-4.21557E-06-1.57641E-18 7.02075E-19
 -1      3226 9.57038E-05-2.75394E-05-2.92166E-05-3.83801E-06-9.36814E-19 9.49120E-19
 -1      3227 9.50535E-05-2.71488E-05-2.91030E-05-3.76529E-06-8.08981E-19 8.22682E-19
 -1      3228 9.62229E-05-2.76834E-05-2.93668E-05-5.03449E-06-7.53260E-19 2.53501E-20
 -1      3229 9.59545E-05-2.75741E-05-2.93079E-05-4.64344E-06-1.46401E-18 3.38995E-19
 -1      3230 9.51175E-05-2.70894E-05-2.91570E-05-4.59148E-06-1.16789E-18-1.34298E-19
 -1      3231 9.67340E-05-2.80331E-05-2.94364E-05-5.85139E-06-1.10980E-18 4.94903E-19
 -1      3232 9.63584E-05-2.77927E-05-2.93848E-05-5.48406E-06-6.28186E-19 3.41944E-19
 -1      3233 9.53014E-05-2.72047E-05-2.91886E-05-5.48721E-06-9.95698E-19 7.60001E-20
 -1      3234 9.75399E-05-2.87449E-05-2.94780E-05-6.57246E-06-7.77026E-19 6.52497E-19
 -1      3235 9.70084E-05-2.83077E-05-2.94381E-05-6.28734E-06-7.73702E-19 5.08007E-19
 -1      3236 9.56985E-05-2.76128E-05-2.91881E-05-6.40300E-06-4.84035E-19 4.18290E-19
 -1      3237 9.87930E-05-2.99797E-05-2.94886E-05-7.05260E-06-4.50527E-19 3.94923E-19
 -1      3238 9.80413E-05-2.92678E-05-2.94617E-05-6.93634E-06-6.38585E-19 8.91825E-19
 -1      3239 9.64528E-05-2.84742E-05-2.91491E-05-7.25512E-06-6.97547E-19 4.28817E-19
 -1      3240 1.00686E-04-3.19041E-05-2.94808E-05-7.07528E-06-1.38372E-19 6.40356E-19
 -1      3241 9.96430E-05-3.08459E-05-2.94603E-05-7.24986E-06-3.62006E-19 5.93787E-19
 -1      3242 9.77710E-05-2.99883E-05-2.90760E-05-7.90657E-06-4.57199E-19 1.89184E-20
 -1      3243 1.03412E-04-3.46130E-05-2.94985E-05-6.32686E-06-1.97160E-19 5.49444E-19
 -1      3244 1.02031E-04-3.31934E-05-2.94620E-05-6.95356E-06 1.22260E-19 8.84294E-19
 -1      3245 9.99228E-05-3.23598E-05-2.89970E-05-8.13261E-06-3.15202E-19-1.11868E-20
 -1      3246 1.07043E-04-3.79606E-05-2.96379E-05-4.39610E-06-1.20899E-18-4.67870E-19
 -1      3247 1.05375E-04-3.63170E-05-2.95377E-05-5.65518E-06-6.10938E-19 5.96980E-19
 -1      3248 1.03190E-04-3.56930E-05-2.89854E-05-7.56818E-06-2.05386E-19-3.08310E-19
 -1      3249 1.11312E-04-4.12811E-05-3.00666E-05-8.37434E-07-7.42366E-19-3.80898E-19
 -1      3250 1.09619E-04-3.98601E-05-2.98256E-05-2.86104E-06-1.54965E-18-7.41779E-19
 -1      3251 1.07726E-04-3.97830E-05-2.91877E-05-5.66694E-06-9.30733E-19-2.72387E-19
 -1      3252 1.15347E-04-4.30613E-05-3.10218E-05 4.51133E-06-4.87143E-19 4.35757E-19
 -1      3253 1.14122E-04-4.27180E-05-3.05393E-05 1.83335E-06-5.61729E-19-6.65591E-20
 -1      3254 1.13226E-04-4.37099E-05-2.98530E-05-1.74519E-06-1.20055E-18-4.44102E-19
 -1      3255 1.17839E-04-4.13844E-05-3.26887E-05 1.05864E-05-2.78496E-18 1.21998E-18
 -1      3256 1.17434E-04-4.29696E-05-3.19262E-05 7.90593E-06-8.48264E-19 1.08695E-18
 -1      3257 1.18096E-04-4.52633E-05-3.13087E-05 4.58570E-06-1.45005E-18 1.25711E-18
 -1      3258 1.19713E-04-3.60989E-05-3.59021E-05 1.47528E-05 2.42198E-20-2.07827E-18
 -1      3259 1.21064E-04-4.09545E-05-3.45607E-05 1.29858E-05-1.41800E-18-1.25475E-18
 -1      3260 1.07612E-04-1.71971E-05-3.88907E-05 4.36240E-06-5.83870E-19 1.35992E-18
 -1      3261 1.09057E-04-1.93980E-05-3.86456E-05 8.90010E-06-7.94623E-20 3.07789E-19
 -1      3262 1.12510E-04-1.92419E-05-4.03555E-05-6.29133E-06-7.27495E-19-3.80602E-19
 -1      3263 1.11292E-04-1.64129E-05-4.09212E-05-1.97014E-06-1.11946E-18-1.57532E-19
 -1      3264 1.18066E-04-3.10122E-05-3.76188E-05-1.10611E-05 1.93812E-19 3.12006E-19
 -1      3265 1.15447E-04-2.54181E-05-3.87465E-05-9.87014E-06-4.71056E-19-5.60101E-19
 -1      3266 1.16436E-04-4.31179E-05-3.14163E-05-1.75516E-06 2.99144E-18 2.36124E-18
 -1      3267 1.16938E-04-4.21144E-05-3.20848E-05-4.44433E-06 3.13304E-18 2.88105E-18
 -1      3268 1.12357E-04-4.16057E-05-3.02536E-05 4.13066E-06 1.93690E-18 2.46387E-18
 -1      3269 1.13982E-04-4.25677E-05-3.06605E-05 1.63395E-06 1.86053E-18 2.02627E-18
 -1      3270 1.17612E-04-4.52581E-05-3.10461E-05 2.03153E-06 2.88183E-18 2.24687E-18
 -1      3271 1.07272E-04-3.75754E-05-2.98068E-05 8.00734E-06 2.50887E-18 1.11389E-18
 -1      3272 1.09322E-04-3.95720E-05-2.99451E-05 6.47090E-06 2.45973E-18 2.08557E-18
 -1      3273 1.12056E-04-4.23195E-05-2.99508E-05 7.70175E-06 2.38374E-18 2.09121E-18
 -1      3274 1.03815E-04-3.43403E-05-2.97461E-05 1.01307E-05 1.08251E-18 1.03931E-18
 -1      3275 1.05367E-04-3.60341E-05-2.97562E-05 9.19320E-06 2.25161E-18 1.08868E-18
 -1      3276 1.07164E-04-3.81585E-05-2.96206E-05 1.08645E-05 2.34949E-18 5.68221E-19
 -1      3277 1.03533E-04-3.43227E-05-2.96519E-05 1.22819E-05 1.48403E-18 2.02111E-18
 -1      3278 7.30946E-05-1.51565E-05-2.47436E-05-6.66602E-06-1.97173E-19-7.32184E-19
 -1      3279 7.20639E-05-1.46046E-05-2.46239E-05-1.01881E-06 6.00321E-19-3.02722E-18
 -1      3280 7.30027E-05-1.54118E-05-2.47433E-05 6.55737E-06 3.69472E-19-3.87512E-18
 -1      3281 7.58104E-05-1.71527E-05-2.50211E-05 1.19107E-05 2.22839E-19-4.08034E-18
 -1      3282 6.91530E-05-1.53773E-05-2.28460E-05 3.43649E-06 3.08717E-19-3.21266E-18
 -1      3283 9.37053E-05-2.04159E-05-3.13889E-05-5.71700E-06 6.23674E-19-7.97162E-19
 -1      3284 8.05123E-05-2.01239E-05-2.56925E-05-1.73944E-05 4.12940E-19 6.81809E-19
 -1      3285 7.62590E-05-1.76795E-05-2.52231E-05-1.32891E-05-4.27109E-19 1.55801E-18
 -1      3286 7.19629E-05-1.71659E-05-2.33015E-05-1.15162E-05-1.06442E-18 2.99843E-19
 -1      3287 9.06977E-05-2.69861E-05-2.71728E-05-2.14526E-05 9.89832E-19 5.24174E-19
 -1      3288 8.59082E-05-2.42416E-05-2.65703E-05-2.02229E-05 6.14010E-19 1.57039E-19
 -1      3289 8.26547E-05-2.42969E-05-2.48825E-05-2.13343E-05-2.41451E-19 1.20649E-18
 -1      3290 9.52168E-05-2.87836E-05-2.84701E-05-9.95506E-07-4.12416E-20 2.90306E-19
 -1      3291 9.51984E-05-2.87717E-05-2.84682E-05-1.04285E-06 3.56298E-20 4.26835E-19
 -1      3292 9.54730E-05-2.88698E-05-2.85463E-05-1.04933E-06-1.89325E-19 6.14185E-20
 -1      3293 9.54260E-05-2.88753E-05-2.85233E-05-9.69873E-07-8.76125E-20 3.46560E-19
 -1      3294 9.23761E-05-1.83450E-05-3.17428E-05 1.81296E-06 7.36067E-19 6.48915E-20
 -1      3295 9.22566E-05-1.81428E-05-3.17748E-05 1.05875E-06 8.02715E-19-4.40548E-20
 -1      3296 9.55042E-05-2.55790E-05-2.99565E-05-2.16232E-06 8.68771E-20-5.40175E-19
 -1      3297 9.55340E-05-2.62702E-05-2.96989E-05-1.33419E-06 1.05153E-19-4.82646E-19
 -1      3298 9.57131E-05-2.62033E-05-2.97903E-05-1.17538E-06 1.07809E-19-3.49319E-19
 -1      3299 1.43688E-04-5.66209E-05-3.73015E-05-1.03739E-06-8.55517E-19 1.15133E-18
 -1      3300 1.38943E-04-5.90933E-05-3.39831E-05 2.24802E-06-1.29143E-18 1.15916E-18
 -1      3301 5.98597E-05-2.39676E-05-1.48810E-05-2.80026E-05-8.36445E-20-2.27905E-18
 -1      3302 7.10981E-05-3.18931E-05-1.66151E-05-3.51085E-05-3.51148E-19-3.15806E-18
 -1      3303 7.60773E-05-3.44642E-05-1.77849E-05 3.54408E-05 2.14299E-19-5.71604E-18
 -1      3304 6.09390E-05-2.53381E-05-1.43827E-05 3.05961E-05 7.70429E-19-6.38536E-18
 -1      3305 4.67908E-05-1.58434E-05-1.29505E-05 1.41547E-05 1.06059E-18-1.36796E-19
 -1      3306 4.33718E-05-1.30056E-05-1.28596E-05 1.01606E-06 8.98116E-19-7.52801E-20
 -1      3307 6.65373E-05-2.92057E-05-1.60882E-05 2.93963E-05 1.39829E-18-4.68197E-19
 -1      3308 5.44055E-05-2.08876E-05-1.39310E-05 2.21810E-05 1.84447E-18-6.66827E-19
 -1      3309 9.52120E-05-2.42780E-05-3.04018E-05 4.27631E-06 3.25985E-19 8.88861E-19
 -1      3310 9.46396E-05-2.27359E-05-3.08057E-05 4.77813E-06 4.05067E-19 9.58948E-19
 -1      3311 9.49178E-05-2.35912E-05-3.05682E-05 3.68035E-06 3.96222E-19 8.40516E-19
 -1      3312 9.52386E-05-2.52034E-05-3.00288E-05 3.00552E-06 2.63945E-19 9.32768E-19
 -1      3313 1.01230E-04-4.96302E-05-2.22449E-05 2.86429E-05 4.03294E-19-2.33432E-18
 -1      3314 8.38533E-05-3.90960E-05-1.86583E-05 3.12289E-05 9.90287E-19-1.66813E-18
 -1      3315 4.55917E-05-1.54329E-05-1.24659E-05-1.01874E-05-3.34631E-19-3.61556E-18
 -1      3316 5.02007E-05-1.87476E-05-1.31977E-05-2.02852E-05 4.92338E-19-2.31844E-18
 -1      3317 1.37734E-04-4.36603E-05-4.05933E-05-1.51876E-05-1.99804E-18 1.94320E-18
 -1      3318 8.32418E-05-3.99205E-05-1.81059E-05-3.75246E-05 4.87044E-20-3.28929E-18
 -1      3319 9.63282E-05-4.81085E-05-2.07010E-05-3.78131E-05 7.46765E-19-1.25901E-18
 -1      3320 1.34353E-04-4.72242E-05-3.76672E-05-5.45128E-06 6.07429E-19-5.31487E-18
 -1      3321 1.37736E-04-5.53378E-05-3.53575E-05 2.10288E-06 2.93590E-19-5.47178E-18
 -1      3322 9.46246E-05-2.25318E-05-3.09042E-05-4.71347E-06 5.14362E-19-7.17176E-19
 -1      3323 9.50890E-05-2.43447E-05-3.03323E-05-2.97558E-06 2.63423E-19-6.25255E-19
 -1      3324 9.51758E-05-2.42254E-05-3.04005E-05-2.63953E-06 2.57397E-19-5.01351E-19
 -1      3325 9.38094E-05-2.09075E-05-3.12347E-05-4.41642E-06 5.91351E-19-5.57540E-19
 -1      3326 1.41979E-04-5.25310E-05-3.87491E-05-8.25363E-06-1.12944E-18 8.38139E-19
 -1      3327 4.71516E-05-1.45703E-05-1.34910E-05-1.19467E-05 1.84782E-18-1.41275E-18
 -1      3328 5.64802E-05-2.11343E-05-1.49286E-05-2.36811E-05 1.87456E-18-2.60738E-18
 -1      3329 1.26755E-04-5.69820E-05-2.97893E-05-1.37259E-05 2.52996E-18 1.86282E-18
 -1      3330 1.37294E-04-5.04576E-05-3.76083E-05-1.03452E-05-1.09760E-18 9.60218E-19
 -1      3331 9.21966E-05-1.80429E-05-3.17932E-05 4.08797E-07 7.94007E-19 4.51488E-20
 -1      3332 9.21936E-05-1.80383E-05-3.17937E-05-3.59845E-07 8.81677E-19-1.02407E-19
 -1      3333 9.31502E-05-1.96269E-05-3.14924E-05 6.28990E-07 7.22376E-19-4.05654E-20
 -1      3334 1.07020E-04-5.09594E-05-2.37558E-05-3.14627E-05 1.59930E-19 1.34444E-18
 -1      3335 4.74988E-05-1.44593E-05-1.40028E-05 5.73188E-06 6.89180E-19-4.73364E-18
 -1      3336 4.59208E-05-1.43947E-05-1.29651E-05-3.20226E-06 8.27578E-20-5.28580E-18
 -1      3337 5.28349E-05-1.51953E-05-1.55959E-05-7.25038E-06 8.03862E-19-3.25896E-18
 -1      3338 1.22582E-04-2.22622E-05-4.37308E-05 1.51980E-05-1.30570E-18-3.93463E-18
 -1      3339 1.18079E-04-1.79906E-05-4.32917E-05 1.27564E-05-1.48538E-18-2.55905E-18
 -1      3340 7.92484E-05-3.33869E-05-1.92781E-05 2.70236E-05 3.49083E-19-2.09972E-18
 -1      3341 1.35403E-04-5.68984E-05-3.34897E-05-8.55277E-07-9.65829E-19 1.35123E-18
 -1      3342 1.20522E-04-5.33005E-05-2.85628E-05-1.70081E-05 1.45116E-18 2.13161E-18
 -1      3343 9.43597E-05-2.19909E-05-3.09897E-05 3.64335E-06 3.92304E-19 6.37254E-19
 -1      3344 9.34316E-05-2.02162E-05-3.14043E-05 4.23971E-06 5.25974E-19 5.94542E-19
 -1      3345 9.30702E-05-1.95521E-05-3.15178E-05 3.65665E-06 5.71059E-19 4.99995E-19
 -1      3346 1.13006E-04-5.15067E-05-2.65784E-05-2.51377E-05 5.72647E-19 2.03838E-18
 -1      3347 1.14389E-04-4.80023E-05-2.83501E-05-1.80216E-05 8.91661E-19 1.28294E-18
 -1      3348 1.09321E-04-4.34539E-05-2.80828E-05-1.97293E-05 2.56340E-19 1.06031E-19
 -1      3349 1.00721E-04-4.42264E-05-2.40151E-05-2.99374E-05-8.73079E-19 4.16965E-19
 -1      3350 1.15077E-04-4.87328E-05-2.81969E-05 1.20659E-05 3.15328E-19 9.70607E-19
 -1      3351 1.20441E-04-5.24078E-05-2.90587E-05 8.70352E-06 1.26128E-20 1.41743E-18
 -1      3352 1.05565E-04-4.21228E-05-2.73051E-05-2.29239E-05-5.05976E-19-7.64288E-19
 -1      3353 1.32198E-04-4.28849E-05-3.85855E-05-8.91795E-06 7.78794E-19-5.64029E-18
 -1      3354 1.30121E-04-4.77119E-05-3.54493E-05-4.65891E-06 9.68847E-19-5.32434E-18
 -1      3355 1.27061E-04-3.64216E-05-3.90653E-05-1.14224E-05 3.66024E-19-6.06259E-18
 -1      3356 1.27296E-04-3.49260E-05-4.01301E-05 1.35546E-05 1.51984E-18 3.71712E-18
 -1      3357 1.25901E-04-5.93995E-05-2.85148E-05 2.02450E-05 1.46643E-20-4.45658E-18
 -1      3358 1.20754E-04-5.95871E-05-2.60381E-05 2.86656E-05-1.03814E-19-4.06324E-18
 -1      3359 1.11441E-04-5.43650E-05-2.44042E-05 3.14596E-05-7.07273E-20-4.21678E-18
 -1      3360 9.53178E-05-2.83371E-05-2.87078E-05-8.83561E-07 2.00848E-19 7.54701E-20
 -1      3361 9.53492E-05-2.81726E-05-2.87810E-05-7.09159E-07 2.94165E-19-1.91749E-20
 -1      3362 9.56921E-05-2.80106E-05-2.90113E-05-4.67923E-07 3.84490E-19-1.01160E-19
 -1      3363 9.27893E-05-1.90558E-05-3.16190E-05 3.12699E-06 6.75625E-19 3.99492E-19
 -1      3364 9.25508E-05-1.86406E-05-3.16866E-05 2.42495E-06 7.30392E-19 2.43960E-19
 -1      3365 9.33636E-05-2.00159E-05-3.14160E-05 1.80475E-06 6.19146E-19 9.48621E-20
 -1      3366 9.37752E-05-2.07951E-05-3.12549E-05 2.85225E-06 4.85468E-19 4.02767E-19
 -1      3367 5.72828E-05-2.10532E-05-1.49859E-05 2.23401E-05 9.23266E-19-5.23244E-18
 -1      3368 1.17606E-04-5.51612E-05-2.71126E-05 1.65615E-05-4.86779E-20 1.79619E-18
 -1      3369 9.55866E-05-2.86771E-05-2.86789E-05-1.04249E-06 6.89090E-20-2.30699E-19
 -1      3370 9.52740E-05-2.85674E-05-2.85889E-05-1.07504E-06-1.07375E-19 9.30567E-20
 -1      3371 9.52849E-05-2.84645E-05-2.86317E-05-1.00323E-06-2.43172E-20-1.43663E-19
 -1      3372 1.10807E-04-2.36035E-05-3.74416E-05 1.30967E-05 3.45219E-19 9.73261E-20
 -1      3373 1.12911E-04-2.81651E-05-3.67132E-05 1.50807E-05-1.09850E-19-8.22734E-19
 -1      3374 1.15129E-04-1.39935E-05-4.37037E-05 1.42169E-06-1.50920E-18-2.13717E-18
 -1      3375 1.23590E-04-4.47612E-05-3.38472E-05-5.10737E-06 3.09051E-18-1.60317E-18
 -1      3376 1.20140E-04-4.06997E-05-3.41594E-05-8.05817E-06 2.67286E-18 1.16507E-18
 -1      3377 1.18751E-04-3.65700E-05-3.52867E-05-9.63059E-06 1.61534E-18 1.01307E-18
 -1      3378 1.17767E-04-1.25393E-05-4.56028E-05 4.74899E-06-1.70868E-18-3.19605E-18
 -1      3379 1.23672E-04-5.90725E-05-2.75871E-05-1.87349E-05 1.74330E-19-6.70961E-18
 -1      3380 1.26812E-04-5.78015E-05-2.94836E-05-1.05101E-05 4.34793E-19-6.10383E-18
 -1      3381 1.16379E-04-5.61462E-05-2.57305E-05-2.22942E-05-7.45389E-20-5.57170E-18
 -1      3382 9.08303E-05-2.77779E-05-2.71113E-05 2.10109E-05 1.38406E-18-4.89697E-18
 -1      3383 9.53900E-05-3.05798E-05-2.76611E-05 2.10880E-05 2.38167E-18-3.94087E-18
 -1      3384 1.23454E-04-2.13429E-05-4.40460E-05-1.01860E-05-5.92288E-19-4.96912E-18
 -1      3385 6.17483E-05-2.15303E-05-1.66883E-05-2.28349E-05 4.32860E-19-1.88677E-18
 -1      3386 8.04926E-05-2.07987E-05-2.57018E-05 1.69144E-05 2.20870E-19-5.18129E-18
 -1      3387 8.53687E-05-2.37950E-05-2.62273E-05 1.97934E-05 1.17010E-18-4.61858E-18
 -1      3388 8.78430E-05-2.84263E-05-2.54963E-05 2.29965E-05 1.58780E-18-5.36607E-18
 -1      3389 7.61282E-05-2.03197E-05-2.37568E-05 1.67764E-05-1.04601E-19-5.52246E-18
 -1      3390 1.30658E-04-5.42666E-05-3.24525E-05-2.99891E-07 6.99265E-20-4.74016E-18
 -1      3391 1.33175E-04-5.28979E-05-3.44253E-05 3.43208E-06 9.56457E-19-4.52930E-18
 -1      3392 1.29240E-04-4.82345E-05-3.47042E-05 7.82304E-06 9.22101E-19-4.68142E-18
 -1      3393 6.39456E-05-2.49011E-05-1.62468E-05-2.65318E-05 1.64264E-18-2.35766E-18
 -1      3394 7.24476E-05-2.96792E-05-1.81626E-05-2.78395E-05 1.23212E-18-2.58769E-18
 -1      3395 6.20201E-05-2.07770E-05-1.75360E-05-2.02280E-05 1.09206E-18-2.16465E-18
 -1      3396 8.74066E-05-4.06679E-05-1.98969E-05-3.16980E-05 3.45642E-19-3.71583E-18
 -1      3397 9.36387E-05-4.65451E-05-1.98299E-05-3.37184E-05 4.48663E-19-3.21404E-18
 -1      3398 1.03014E-04-5.02346E-05-2.25834E-05-2.88927E-05 5.86014E-19-4.09840E-18
 -1      3399 1.07616E-04-4.61657E-05-2.65539E-05 1.73931E-05 6.02419E-19 5.79781E-19
 -1      3400 1.33556E-04-5.71478E-05-3.27986E-05 7.37585E-06 5.32506E-19-4.85551E-18
 -1      3401 9.54130E-05-2.73495E-05-2.91770E-05 2.78367E-07 1.52397E-19 5.66076E-19
 -1      3402 9.54729E-05-2.69400E-05-2.93559E-05 8.37486E-07 2.75781E-19 7.11812E-19
 -1      3403 9.56942E-05-2.73394E-05-2.93002E-05 2.30997E-07 3.29044E-19 3.55509E-19
 -1      3404 9.53854E-05-2.65038E-05-2.95304E-05 1.37571E-06 2.79754E-19 7.00857E-19
 -1      3405 9.54272E-05-2.58851E-05-2.97902E-05 2.23701E-06 3.16489E-19 8.02752E-19
 -1      3406 9.53422E-05-2.51642E-05-3.00719E-05 2.61424E-06 3.29581E-19 9.46892E-19
 -1      3407 9.55849E-05-2.64013E-05-2.96528E-05 1.24460E-06 3.40561E-19 7.16252E-19
 -1      3408 8.13422E-05-3.48490E-05-1.94853E-05-3.31789E-05-6.98802E-19-2.54052E-18
 -1      3409 1.26890E-04-2.93591E-05-4.18543E-05 1.60152E-05-4.31669E-19-3.81467E-18
 -1      3410 1.13488E-04-2.05125E-05-4.01143E-05 1.19866E-05-4.87626E-19-1.61450E-18
 -1      3411 9.87175E-05-3.26049E-05-2.83602E-05 1.96443E-05 1.69122E-18-2.65285E-18
 -1      3412 1.01146E-04-3.40215E-05-2.87318E-05 1.82749E-05 1.35172E-18-2.38483E-19
 -1      3413 9.81694E-05-3.45995E-05-2.72970E-05 2.21250E-05 9.74134E-19-3.71765E-18
 -1      3414 5.71805E-05-1.86093E-05-1.60542E-05 1.61864E-05 3.88431E-19-8.95737E-20
 -1      3415 8.87686E-05-4.05989E-05-2.00918E-05 3.60507E-05 2.66551E-20-5.48546E-18
 -1      3416 8.08309E-05-3.34566E-05-2.01360E-05 3.20412E-05-4.07846E-19-6.04861E-18
 -1      3417 5.19381E-05-1.45927E-05-1.55807E-05-4.72647E-06 9.38883E-19-1.48056E-18
 -1      3418 9.74814E-05-3.22605E-05-2.78713E-05-2.14155E-05-4.29833E-19-9.69268E-19
 -1      3419 9.41159E-05-2.98478E-05-2.75981E-05-2.17362E-05 4.38174E-19-5.56147E-19
 -1      3420 9.28098E-05-3.12685E-05-2.62818E-05-2.39946E-05 1.01644E-19-6.54852E-19
 -1      3421 1.00425E-04-3.65165E-05-2.73733E-05-2.27440E-05-3.50189E-19-2.00813E-18
 -1      3422 1.12614E-04-5.33964E-05-2.50225E-05 2.17777E-05 2.29625E-19 1.97948E-19
 -1      3423 9.25305E-05-1.86089E-05-3.16912E-05-2.37633E-06 7.37812E-19-2.31888E-19
 -1      3424 9.27610E-05-1.90189E-05-3.16245E-05-3.08445E-06 7.72099E-19-4.87341E-19
 -1      3425 1.04894E-04-4.76582E-05-2.43820E-05 2.26737E-05 5.53430E-19-3.11046E-19
 -1      3426 9.30880E-05-1.95904E-05-3.15062E-05-3.51040E-06 7.22336E-19-5.12099E-19
 -1      3427 9.34214E-05-2.02241E-05-3.13952E-05-4.09782E-06 7.04093E-19-5.53469E-19
 -1      3428 9.43876E-05-2.21237E-05-3.09576E-05-3.29779E-06 5.12468E-19-4.53712E-19
 -1      3429 9.37959E-05-2.08493E-05-3.12433E-05-2.70744E-06 7.06333E-19-4.72439E-19
 -1      3430 9.70789E-05-4.52339E-05-2.21290E-05 3.42480E-05-5.31566E-19-4.86387E-18
 -1      3431 1.24734E-04-3.36603E-05-3.91686E-05 1.56514E-05 7.74188E-19-4.90554E-18
 -1      3432 8.77870E-05-3.68248E-05-2.19650E-05 2.56568E-05 1.18692E-18-1.99839E-18
 -1      3433 7.40925E-05-2.73585E-05-1.97189E-05 2.35307E-05 8.28848E-19-1.62167E-18
 -1      3434 9.13746E-05-3.86173E-05-2.25881E-05-3.21554E-05-2.52519E-18-8.68447E-19
 -1      3435 9.99355E-05-4.02036E-05-2.53899E-05-2.66081E-05-2.15686E-18-4.47372E-19
 -1      3436 9.54125E-05-2.87306E-05-2.85761E-05-7.04468E-07-2.20328E-19 6.75458E-19
 -1      3437 9.54268E-05-2.87776E-05-2.85649E-05-7.23894E-07 5.86697E-20 6.09068E-19
 -1      3438 9.57816E-05-2.89188E-05-2.86551E-05-1.01718E-06-9.07172E-20 2.06267E-19
 -1      3439 9.58121E-05-2.88618E-05-2.86902E-05-1.01104E-06 9.62669E-20 4.60202E-21
 -1      3440 9.60409E-05-2.69161E-05-2.96157E-05-4.52405E-07-3.65516E-20-3.25332E-19
 -1      3441 9.60894E-05-2.74102E-05-2.94416E-05-3.93191E-08-1.44022E-19-1.75425E-19
 -1      3442 9.61723E-05-2.78309E-05-2.92816E-05 2.39242E-07-2.02987E-19-6.57231E-20
 -1      3443 9.61681E-05-2.81491E-05-2.91555E-05 4.91496E-07-3.26556E-19 4.83247E-20
 -1      3444 9.62772E-05-2.74629E-05-2.94922E-05 8.70989E-09-3.10320E-20-7.23373E-20
 -1      3445 9.61774E-05-2.84112E-05-2.90370E-05 6.53062E-07-2.95816E-19 1.83915E-19
 -1      3446 9.61478E-05-2.86078E-05-2.89480E-05 7.88678E-07 5.51080E-20 4.22854E-19
 -1      3447 9.63692E-05-2.82214E-05-2.92078E-05 4.69306E-07-9.47486E-20 3.84409E-19
 -1      3448 9.61149E-05-2.87603E-05-2.88623E-05 8.65717E-07 9.41958E-20 3.90105E-19
 -1      3449 9.60748E-05-2.88728E-05-2.88016E-05 9.21701E-07 2.39942E-19 2.24392E-19
 -1      3450 9.63475E-05-2.86906E-05-2.89979E-05 7.27077E-07 4.29174E-20 7.15971E-19
 -1      3451 9.60194E-05-2.89497E-05-2.87416E-05 9.42196E-07 2.72582E-19-9.78807E-20
 -1      3452 9.59766E-05-2.90041E-05-2.87022E-05 9.47678E-07 2.81396E-19-1.56314E-19
 -1      3453 9.62617E-05-2.89569E-05-2.88471E-05 8.41473E-07 5.37938E-20 1.72167E-19
 -1      3454 9.59112E-05-2.90295E-05-2.86621E-05 9.33870E-07 3.64111E-19-9.69615E-20
 -1      3455 9.58697E-05-2.90439E-05-2.86387E-05 9.10756E-07 4.39102E-19-1.43907E-19
 -1      3456 9.61433E-05-2.90820E-05-2.87427E-05 8.62578E-07 2.32960E-19-1.52231E-20
 -1      3457 9.58014E-05-2.90343E-05-2.86139E-05 8.79469E-07 3.17519E-19-1.73664E-19
 -1      3458 9.57629E-05-2.90210E-05-2.86023E-05 8.43906E-07 2.06969E-19-4.97979E-20
 -1      3459 9.60120E-05-2.91099E-05-2.86742E-05 8.29476E-07 2.54485E-19 1.69528E-19
 -1      3460 9.56957E-05-2.89875E-05-2.85893E-05 8.07591E-07 2.36033E-19-3.73809E-19
 -1      3461 9.56606E-05-2.89548E-05-2.85866E-05 7.71398E-07 1.71740E-19-4.14795E-19
 -1      3462 9.58785E-05-2.90709E-05-2.86334E-05 7.71657E-07 2.44735E-19-9.64804E-20
 -1      3463 9.55956E-05-2.89042E-05-2.85825E-05 7.39253E-07 1.25338E-19-2.74978E-19
 -1      3464 9.55634E-05-2.88569E-05-2.85867E-05 7.11238E-07 1.04739E-19-1.38434E-19
 -1      3465 9.57479E-05-2.89850E-05-2.86140E-05 7.10990E-07 1.61510E-19-5.48511E-19
 -1      3466 9.54999E-05-2.87929E-05-2.85897E-05 6.90267E-07-6.60575E-20-6.15064E-20
 -1      3467 9.54695E-05-2.87335E-05-2.85993E-05 6.77284E-07-3.27769E-19 2.61419E-19
 -1      3468 9.56209E-05-2.88642E-05-2.86110E-05 6.63899E-07 2.94288E-19-2.49949E-19
 -1      3469 9.54057E-05-2.86573E-05-2.86078E-05 6.73114E-07-3.82509E-19 4.69392E-19
 -1      3470 9.53753E-05-2.85862E-05-2.86220E-05 6.80884E-07-3.96307E-19 5.75187E-19
 -1      3471 9.54949E-05-2.87142E-05-2.86209E-05 6.43189E-07-1.14323E-19-1.69295E-19
 -1      3472 9.53078E-05-2.84971E-05-2.86350E-05 6.98410E-07-5.59789E-19 8.24803E-19
 -1      3473 9.52753E-05-2.84133E-05-2.86531E-05 7.32152E-07-7.46183E-19 1.14788E-18
 -1      3474 9.53648E-05-2.85360E-05-2.86411E-05 6.59454E-07-1.40941E-19 4.33985E-19
 -1      3475 9.51999E-05-2.83091E-05-2.86698E-05 7.76030E-07-8.44232E-19 1.55404E-18
 -1      3476 9.51625E-05-2.82105E-05-2.86915E-05 8.40916E-07-4.58665E-19 1.27093E-18
 -1      3477 9.52231E-05-2.83268E-05-2.86696E-05 7.22203E-07-6.55666E-19 1.70907E-18
 -1      3478 9.50737E-05-2.80879E-05-2.87111E-05 9.15901E-07-2.07502E-19 9.61692E-19
 -1      3479 9.50281E-05-2.79716E-05-2.87361E-05 1.01733E-06-4.24081E-19 6.68838E-19
 -1      3480 9.50602E-05-2.80812E-05-2.87045E-05 8.40669E-07-5.87679E-19 1.42722E-18
 -1      3481 9.49193E-05-2.78264E-05-2.87577E-05 1.12846E-06-9.37123E-19 7.92370E-19
 -1      3482 9.48615E-05-2.76890E-05-2.87856E-05 1.27218E-06-5.96209E-19 7.53683E-19
 -1      3483 9.48643E-05-2.77915E-05-2.87441E-05 1.02429E-06-5.48188E-19 1.12562E-18
 -1      3484 9.47250E-05-2.75167E-05-2.88080E-05 1.42480E-06 7.03298E-20 4.57673E-20
 -1      3485 9.46500E-05-2.73549E-05-2.88379E-05 1.61685E-06-1.31256E-20 3.27622E-19
 -1      3486 9.46213E-05-2.74490E-05-2.87859E-05 1.28287E-06-5.67174E-19 8.91399E-19
 -1      3487 9.44768E-05-2.71515E-05-2.88592E-05 1.81654E-06-2.81639E-19 6.10618E-19
 -1      3488 9.43791E-05-2.69627E-05-2.88896E-05 2.06301E-06 1.74547E-19 2.10101E-19
 -1      3489 9.43146E-05-2.70450E-05-2.88266E-05 1.62654E-06-7.96753E-21 7.80737E-19
 -1      3490 9.41589E-05-2.67249E-05-2.89071E-05 2.31542E-06 6.54408E-19-3.18422E-19
 -1      3491 9.40323E-05-2.65086E-05-2.89355E-05 2.62211E-06 2.31006E-19 1.49252E-19
 -1      3492 9.39254E-05-2.65722E-05-2.88612E-05 2.06540E-06 2.51224E-19 4.02076E-19
 -1      3493 9.37541E-05-2.62357E-05-2.89447E-05 2.93284E-06-5.03160E-19 5.46775E-20
 -1      3494 9.35927E-05-2.59948E-05-2.89671E-05 3.30484E-06-5.33870E-19 2.62882E-19
 -1      3495 9.34324E-05-2.60270E-05-2.88821E-05 2.60924E-06-4.86072E-21-1.47072E-19
 -1      3496 9.32455E-05-2.56909E-05-2.89619E-05 3.67952E-06-3.75556E-19 2.77916E-19
 -1      3497 9.30455E-05-2.54350E-05-2.89722E-05 4.12092E-06 6.60154E-20 1.70435E-19
 -1      3498 9.28138E-05-2.54131E-05-2.88782E-05 3.26757E-06-4.63718E-19 3.75377E-19
 -1      3499 9.26197E-05-2.51121E-05-2.89437E-05 4.56604E-06 3.68351E-19-1.08665E-19
 -1      3500 9.23826E-05-2.48616E-05-2.89331E-05 5.08011E-06 7.06799E-19 3.40632E-19
 -1      3501 9.20487E-05-2.47463E-05-2.88340E-05 4.05057E-06-1.78587E-19 2.19073E-19
 -1      3502 9.18734E-05-2.45448E-05-2.88691E-05 5.60504E-06 1.19531E-18 1.67961E-19
 -1      3503 9.16126E-05-2.43385E-05-2.88258E-05 6.19551E-06 1.37155E-18-4.86183E-20
 -1      3504 9.11218E-05-2.40625E-05-2.87276E-05 4.97241E-06 8.58322E-19-2.39066E-19
 -1      3505 9.10255E-05-2.40733E-05-2.87101E-05 6.81699E-06 1.22261E-18-2.97688E-19
 -1      3506 9.07776E-05-2.39781E-05-2.86188E-05 7.49104E-06 9.50905E-19-2.94344E-19
 -1      3507 9.00315E-05-2.34291E-05-2.85296E-05 6.05853E-06 1.13613E-18-7.20375E-19
 -1      3508 9.01371E-05-2.38417E-05-2.84309E-05 8.24164E-06 9.10783E-19-1.61387E-19
 -1      3509 8.99817E-05-2.39689E-05-2.82742E-05 9.01491E-06 7.96979E-19-3.30401E-19
 -1      3510 8.88026E-05-2.29612E-05-2.82022E-05 7.36001E-06 9.51885E-19-5.35990E-19
 -1      3511 8.93492E-05-2.40865E-05-2.79897E-05 9.95569E-06 2.74477E-19-8.47955E-19
 -1      3512 8.94429E-05-2.46147E-05-2.77517E-05 1.08546E-05 1.42165E-19-1.49822E-18
 -1      3513 8.75106E-05-2.28477E-05-2.76976E-05 8.97864E-06 3.41290E-19-5.35210E-19
 -1      3514 8.89541E-05-2.51894E-05-2.73447E-05 1.20921E-05 2.53876E-19-1.15701E-18
 -1      3515 8.95585E-05-2.63941E-05-2.70214E-05 1.31460E-05 3.92811E-19-9.32794E-19
 -1      3516 8.63227E-05-2.33899E-05-2.69607E-05 1.11040E-05 3.39473E-19-1.10384E-18
 -1      3517 8.95156E-05-2.76980E-05-2.64801E-05 1.47525E-05 1.98484E-19-1.11697E-18
 -1      3518 9.13117E-05-3.00509E-05-2.61469E-05 1.59078E-05 2.88345E-19-1.06148E-18
 -1      3519 8.57092E-05-2.51520E-05-2.59379E-05 1.40671E-05 8.68751E-20-3.07208E-19
 -1      3520 9.03514E-05-3.24123E-05-2.47706E-05 1.91927E-05 1.03734E-18-1.32581E-18
 -1      3521 9.35931E-05-3.63965E-05-2.43693E-05 2.07415E-05 1.17715E-18-1.40216E-18
 -1      3522 9.83203E-05-3.71909E-05-2.61421E-05-2.49086E-05-2.34803E-18-1.18652E-18
 -1      3523 9.54764E-05-2.88307E-05-2.85607E-05-7.50600E-07-1.90962E-19 1.56297E-19
 -1      3524 9.54928E-05-2.88671E-05-2.85545E-05-7.84614E-07-4.49066E-19-7.70388E-20
 -1      3525 9.55568E-05-2.88520E-05-2.85887E-05-7.14613E-07-4.81654E-19-6.48948E-20
 -1      3526 9.55448E-05-2.89085E-05-2.85568E-05-8.22162E-07-3.21925E-19-1.56836E-19
 -1      3527 9.55641E-05-2.89318E-05-2.85568E-05-8.63686E-07-2.47480E-19 2.57798E-19
 -1      3528 9.56571E-05-2.89524E-05-2.85890E-05-7.73277E-07-2.56002E-19-6.64306E-20
 -1      3529 9.53509E-05-2.86112E-05-2.86007E-05-6.95501E-07-6.77332E-19 8.78554E-19
 -1      3530 9.53639E-05-2.86675E-05-2.85855E-05-6.94604E-07-5.69079E-19 5.63077E-19
 -1      3531 9.54596E-05-2.87261E-05-2.86007E-05-6.82316E-07-1.94753E-19 5.63161E-19
 -1      3532 9.52883E-05-2.84723E-05-2.86332E-05-7.33907E-07-1.48564E-19 5.18080E-19
 -1      3533 9.53011E-05-2.85381E-05-2.86144E-05-7.07585E-07-3.35310E-19 9.79405E-19
 -1      3534 9.53620E-05-2.85771E-05-2.86225E-05-6.87674E-07-4.99624E-19 2.52104E-19
 -1      3535 9.52211E-05-2.83122E-05-2.86728E-05-8.29401E-07 3.71540E-19 6.25094E-19
 -1      3536 9.52345E-05-2.83882E-05-2.86505E-05-7.72748E-07 3.26508E-20 5.79860E-19
 -1      3537 9.52591E-05-2.84042E-05-2.86522E-05-7.40747E-07-5.67765E-20 2.56043E-19
 -1      3538 9.51452E-05-2.81286E-05-2.87187E-05-9.91799E-07 5.94777E-19 4.43056E-19
 -1      3539 9.51601E-05-2.82156E-05-2.86930E-05-8.99848E-07 4.52746E-19 5.78568E-19
 -1      3540 9.51449E-05-2.82048E-05-2.86884E-05-8.51229E-07 4.21346E-19 2.16845E-19
 -1      3541 9.50566E-05-2.79191E-05-2.87701E-05-1.23127E-06 3.29885E-19 1.23001E-18
 -1      3542 9.50736E-05-2.80177E-05-2.87413E-05-1.09895E-06 4.31686E-19 8.70707E-19
 -1      3543 9.50131E-05-2.79756E-05-2.87297E-05-1.02902E-06 2.72318E-19 6.53119E-19
 -1      3544 9.49519E-05-2.76835E-05-2.88258E-05-1.55822E-06 1.36184E-19 1.96063E-18
 -1      3545 9.49711E-05-2.77930E-05-2.87942E-05-1.38050E-06 3.59003E-19 1.46464E-18
 -1      3546 9.48568E-05-2.77141E-05-2.87745E-05-1.28446E-06 6.51336E-20 1.03266E-18
 -1      3547 9.48296E-05-2.74250E-05-2.88836E-05-1.98273E-06 9.91011E-20 1.08215E-18
 -1      3548 9.48499E-05-2.75427E-05-2.88502E-05-1.75507E-06 2.53050E-19 1.36156E-18
 -1      3549 9.46701E-05-2.74197E-05-2.88202E-05-1.62830E-06 4.00662E-19 1.04654E-18
 -1      3550 9.46914E-05-2.71539E-05-2.89400E-05-2.51355E-06 3.33644E-19 6.82140E-19
 -1      3551 9.47097E-05-2.72731E-05-2.89063E-05-2.23257E-06 3.53594E-19 1.16282E-18
 -1      3552 9.44490E-05-2.70970E-05-2.88634E-05-2.07132E-06 4.87123E-19 7.97480E-19
 -1      3553 9.45456E-05-2.68905E-05-2.89898E-05-3.15663E-06-7.40850E-19 8.03546E-19
 -1      3554 9.45553E-05-2.69989E-05-2.89581E-05-2.82113E-06-3.21835E-19 9.84030E-19
 -1      3555 9.41937E-05-2.67583E-05-2.88989E-05-2.62366E-06-6.71638E-20 1.09403E-18
 -1      3556 9.44117E-05-2.66716E-05-2.90254E-05-3.91312E-06-8.83707E-19 9.36102E-19
 -1      3557 9.44002E-05-2.67482E-05-2.89994E-05-3.52545E-06-9.50799E-19 8.53506E-19
 -1      3558 9.39120E-05-2.64287E-05-2.89194E-05-3.29400E-06-8.33725E-19 1.31319E-18
 -1      3559 9.43272E-05-2.65570E-05-2.90372E-05-4.77676E-06-1.12906E-18 5.39428E-19
 -1      3560 9.42721E-05-2.65681E-05-2.90215E-05-4.34467E-06-9.15407E-19 8.25744E-19
 -1      3561 9.36250E-05-2.61517E-05-2.89155E-05-4.08858E-06-6.54359E-19 8.38753E-19
 -1      3562 9.43587E-05-2.66392E-05-2.90140E-05-5.73044E-06-1.16574E-18 1.02382E-18
 -1      3563 9.42225E-05-2.65340E-05-2.90138E-05-5.26949E-06-1.32230E-18 1.05621E-18
 -1      3564 9.33748E-05-2.59982E-05-2.88755E-05-5.01017E-06-1.61378E-18 1.48326E-18
 -1      3565 9.46161E-05-2.70533E-05-2.89448E-05-6.74060E-06-3.44566E-19 7.11989E-19
 -1      3566 9.43390E-05-2.67587E-05-2.89649E-05-6.27790E-06-4.12605E-19 1.03820E-18
 -1      3567 9.32377E-05-2.60761E-05-2.87865E-05-6.05648E-06-7.73830E-19 7.91583E-19
 -1      3568 9.52705E-05-2.79845E-05-2.88235E-05-7.74701E-06-6.28446E-20 3.59575E-19
 -1      3569 9.47630E-05-2.74031E-05-2.88654E-05-7.32734E-06-5.35056E-20 5.49740E-19
 -1      3570 9.33409E-05-2.65426E-05-2.86367E-05-7.21609E-06-9.86694E-20 5.83368E-19
 -1      3571 9.65717E-05-2.96673E-05-2.86575E-05-8.64388E-06-1.59516E-19-4.38194E-19
 -1      3572 9.57093E-05-2.86797E-05-2.87149E-05-8.34040E-06 3.46289E-20-5.87138E-21
 -1      3573 9.38846E-05-2.76122E-05-2.84214E-05-8.45840E-06 2.83392E-19-2.78269E-19
 -1      3574 9.88552E-05-3.23599E-05-2.84829E-05-9.23897E-06-6.97052E-19-4.58240E-19
 -1      3575 9.74867E-05-3.08454E-05-2.85330E-05-9.17381E-06-7.50330E-19-8.45346E-19
 -1      3576 9.51701E-05-2.95628E-05-2.81532E-05-9.71069E-06-1.45726E-19-1.10185E-18
 -1      3577 1.02504E-04-3.62342E-05-2.83922E-05-9.15805E-06-1.29730E-19-7.09446E-19
 -1      3578 1.00498E-04-3.41511E-05-2.83824E-05-9.53986E-06-3.08137E-19-5.59021E-19
 -1      3579 9.76338E-05-3.27207E-05-2.78825E-05-1.07873E-05-3.65968E-19-9.79656E-19
 -1      3580 1.07791E-04-4.11479E-05-2.85708E-05-7.80934E-06-1.18730E-18-7.71125E-19
 -1      3581 1.05126E-04-3.86517E-05-2.84016E-05-8.93388E-06-3.85560E-19-6.29571E-20
 -1      3582 1.01771E-04-3.72828E-05-2.77348E-05-1.12590E-05-3.99000E-19-1.07606E-18
 -1      3583 1.14505E-04-4.60928E-05-2.93507E-05-4.22381E-06-1.48810E-18-4.48549E-19
 -1      3584 1.11548E-04-4.39078E-05-2.88598E-05-6.46192E-06-1.59834E-18-1.18421E-18
 -1      3585 1.08100E-04-4.31575E-05-2.79706E-05-1.02895E-05-1.38364E-18-1.37573E-18
 -1      3586 1.23699E-04-4.48844E-05-3.40005E-05 9.95865E-06-9.13763E-19-1.25664E-18
 -1      3587 1.18620E-04-4.77274E-05-3.02071E-05 7.27867E-06 1.82683E-18 2.99281E-19
 -1      3588 1.21007E-04-4.88409E-05-3.09592E-05 4.21485E-06 2.79793E-18-9.31323E-19
 -1      3589 8.09465E-05-2.81909E-05-2.24737E-05-2.63529E-05-1.87402E-18-3.96332E-19
 -1      3590 7.28414E-05-2.33748E-05-2.12364E-05-2.35845E-05-8.68368E-19-3.40110E-19
 -1      3591 6.04017E-05-1.44702E-05-1.95873E-05-2.08213E-06 3.95194E-19-2.29361E-18
 -1      3592 6.15205E-05-1.51575E-05-1.96670E-05 6.19897E-06 2.30889E-19-4.01965E-18
 -1      3593 9.56898E-05-2.55269E-05-3.00605E-05-1.50726E-06 1.05937E-19-2.51160E-19
 -1      3594 9.58350E-05-2.62682E-05-2.98263E-05-8.84639E-07 8.05190E-20-3.11159E-19
 -1      3595 9.59911E-05-2.62932E-05-2.98681E-05-7.19300E-07 1.12571E-19-1.88445E-19
 -1      3596 1.36078E-04-5.35054E-05-3.57561E-05-8.11407E-06-1.11391E-18 7.16960E-19
 -1      3597 6.73867E-05-2.37529E-05-1.87540E-05 2.55036E-05 9.79726E-19-5.96126E-18
 -1      3598 5.59367E-05-1.75092E-05-1.58837E-05 1.66818E-05 1.43749E-18-4.40171E-18
 -1      3599 5.88885E-05-1.65156E-05-1.76743E-05 1.10283E-05 1.14754E-18-4.85281E-18
 -1      3600 1.26622E-04-5.23041E-05-3.20081E-05 4.42457E-06 2.00566E-18-3.76950E-18
 -1      3601 1.27667E-04-5.68947E-05-3.03271E-05 1.26998E-05 1.29620E-18-4.24716E-18
 -1      3602 9.95246E-05-4.20700E-05-2.43050E-05 2.22329E-05 1.06538E-18-1.03485E-18
 -1      3603 6.50774E-05-1.82575E-05-1.98513E-05-1.64808E-05 7.96277E-20-1.52942E-19
 -1      3604 5.39328E-05-1.37232E-05-1.69892E-05 2.17240E-06 8.52823E-20-1.70963E-18
 -1      3605 5.64273E-05-1.54584E-05-1.75202E-05-9.54901E-06 1.03967E-18-2.40843E-18
 -1      3606 9.22478E-05-1.81302E-05-3.17765E-05-1.00961E-06 8.82725E-19-1.17618E-19
 -1      3607 9.23599E-05-1.83220E-05-3.17459E-05-1.76303E-06 7.82900E-19-5.93060E-20
 -1      3608 9.33449E-05-1.99892E-05-3.14200E-05-1.76587E-06 7.10406E-19-1.76098E-19
 -1      3609 1.10860E-04-4.21495E-05-2.93544E-05 1.21181E-05 2.67354E-18 5.00443E-19
 -1      3610 1.14061E-04-4.50179E-05-2.96396E-05 1.02826E-05 2.34911E-18 1.40731E-18
 -1      3611 1.16781E-04-4.84299E-05-2.95043E-05 1.25176E-05 1.29053E-18-4.54261E-19
 -1      3612 1.05264E-04-4.91029E-05-2.37161E-05 3.19527E-05-3.49719E-19-3.66596E-18
 -1      3613 9.82538E-05-4.27440E-05-2.36566E-05 3.07815E-05-9.18766E-20-4.19541E-18
 -1      3614 1.11666E-04-5.19322E-05-2.57770E-05 2.75075E-05 4.69574E-20-3.60786E-18
 -1      3615 6.29266E-05-2.09388E-05-1.80730E-05 1.93402E-05 4.33707E-20-2.19593E-19
 -1      3616 5.65047E-05-1.60468E-05-1.72140E-05 1.12618E-05 4.03466E-20-1.96882E-19
 -1      3617 1.02293E-04-3.41840E-05-2.91821E-05 1.61047E-05 2.31905E-18 2.05115E-18
 -1      3618 1.03407E-04-3.47567E-05-2.93987E-05 1.43582E-05 1.22087E-18 1.79760E-18
 -1      3619 1.05240E-04-3.67308E-05-2.93242E-05 1.39172E-05 1.96693E-18 1.84770E-18
 -1      3620 1.03602E-04-3.69464E-05-2.85462E-05 1.81300E-05 1.89468E-18 1.66071E-19
 -1      3621 8.60566E-05-3.44559E-05-2.21505E-05 3.05345E-05 2.00773E-19-5.95679E-18
 -1      3622 7.70336E-05-2.87405E-05-2.02123E-05 2.91021E-05 2.29043E-19-6.09263E-18
 -1      3623 7.44345E-05-2.52188E-05-2.08333E-05 2.46390E-05 1.00860E-18-6.48623E-18
 -1      3624 9.52790E-05-2.45652E-05-3.03027E-05 2.87705E-06 3.35446E-19 8.18661E-19
 -1      3625 9.49823E-05-2.37246E-05-3.05469E-05 3.10142E-06 3.76840E-19 6.40119E-19
 -1      3626 9.54238E-05-2.52999E-05-3.00621E-05 2.06555E-06 2.99706E-19 7.63859E-19
 -1      3627 1.21415E-04-5.40735E-05-2.85559E-05 1.73302E-05 1.16642E-18-3.22769E-18
 -1      3628 7.34085E-05-2.45130E-05-2.06779E-05 1.92572E-05 7.08080E-19-5.57282E-19
 -1      3629 9.47508E-05-2.30697E-05-3.07194E-05 2.88169E-06 4.12383E-19 5.82373E-19
 -1      3630 9.57625E-05-2.90209E-05-2.86051E-05-8.44356E-07-5.58408E-20-2.95042E-19
 -1      3631 9.56191E-05-2.89578E-05-2.85677E-05-9.04492E-07-5.42713E-20 2.89942E-19
 -1      3632 9.56420E-05-2.89633E-05-2.85760E-05-9.44311E-07-6.06499E-20 1.99172E-19
 -1      3633 9.60839E-05-2.88771E-05-2.88054E-05-9.17628E-07-1.95959E-19-9.41553E-20
 -1      3634 9.58612E-05-2.87855E-05-2.87474E-05-9.84956E-07 7.64051E-20-1.77763E-19
 -1      3635 9.58939E-05-2.86748E-05-2.88037E-05-9.23380E-07 1.07394E-20-1.28625E-19
 -1      3636 9.31451E-05-1.96189E-05-3.14937E-05-5.87612E-07 7.90150E-19-1.25910E-19
 -1      3637 8.44022E-05-2.86717E-05-2.39546E-05 1.92218E-05 7.40035E-19-9.45567E-19
 -1      3638 9.56463E-05-2.84286E-05-2.88118E-05-8.60836E-07 9.33004E-20-1.03893E-19
 -1      3639 9.40973E-05-2.15194E-05-3.11195E-05 1.76742E-06 5.56528E-19 1.68964E-19
 -1      3640 9.39587E-05-2.12255E-05-3.11786E-05 1.24959E-06 5.88809E-19-1.99845E-20
 -1      3641 1.26297E-04-4.93073E-05-3.30109E-05-1.50227E-06 2.32749E-18-1.45953E-18
 -1      3642 9.92759E-05-3.75206E-05-2.64269E-05 2.41602E-05 8.74787E-19-3.81343E-18
 -1      3643 1.03656E-04-3.98264E-05-2.72992E-05 2.26942E-05 6.06707E-19-3.40128E-18
 -1      3644 1.21636E-04-4.84215E-05-3.13121E-05 2.72530E-06-1.86252E-18 2.81053E-19
 -1      3645 1.19211E-04-4.83083E-05-3.02107E-05-1.12089E-06-1.25436E-18-8.46603E-20
 -1      3646 9.97227E-05-4.20801E-05-2.46323E-05 2.86734E-05-4.84887E-19-4.03841E-18
 -1      3647 9.34891E-05-3.83776E-05-2.32655E-05 3.04817E-05 2.34218E-19-5.31460E-18
 -1      3648 8.78764E-05-3.38616E-05-2.31788E-05 2.85802E-05 3.11311E-19-5.87648E-18
 -1      3649 1.23355E-04-3.45611E-05-3.79789E-05 1.53009E-05 9.06484E-19-4.44015E-18
 -1      3650 6.21681E-05-1.63291E-05-1.95595E-05-8.61960E-06 8.87929E-19-2.43048E-18
 -1      3651 6.18664E-05-1.78553E-05-1.85276E-05-1.46834E-05 1.09443E-18-2.64364E-18
 -1      3652 6.80052E-05-1.85060E-05-2.12819E-05 1.58833E-05 6.58714E-19-4.68677E-18
 -1      3653 1.10295E-04-5.26998E-05-2.44892E-05-2.44213E-05 1.23376E-19-4.71721E-18
 -1      3654 1.15014E-04-5.34263E-05-2.65337E-05-1.78777E-05-4.68661E-19-4.49420E-18
 -1      3655 1.02525E-04-4.71584E-05-2.36626E-05-2.51937E-05-1.04450E-19-4.18830E-18
 -1      3656 7.43571E-05-2.22483E-05-2.21531E-05 2.10133E-05 7.86444E-19-6.66018E-18
 -1      3657 6.67448E-05-2.11234E-05-1.95153E-05-1.79591E-05 1.01233E-18-2.37069E-18
 -1      3658 9.56989E-05-2.89673E-05-2.85983E-05-9.78310E-07-2.90199E-19 2.92101E-19
 -1      3659 9.57257E-05-2.89472E-05-2.86178E-05-1.00385E-06-1.46862E-19 2.17976E-19
 -1      3660 9.59821E-05-2.90075E-05-2.87057E-05-9.45331E-07-5.30939E-20 2.68186E-19
 -1      3661 9.58721E-05-2.90457E-05-2.86418E-05-9.09836E-07-1.00675E-19-1.08773E-19
 -1      3662 7.99221E-05-3.36677E-05-1.94633E-05-2.91038E-05 8.51189E-19-3.15462E-18
 -1      3663 8.81638E-05-3.81547E-05-2.13027E-05-2.74410E-05 7.68616E-19-3.97232E-18
 -1      3664 7.42841E-05-2.81217E-05-1.97678E-05-2.47273E-05 1.49681E-18-2.22116E-18
 -1      3665 1.14878E-04-1.47994E-05-4.33104E-05 9.11719E-06-1.57977E-18-2.28876E-18
 -1      3666 6.01173E-05-1.55997E-05-1.88028E-05 5.71495E-06 2.07272E-19-1.21475E-18
 -1      3667 9.39515E-05-2.12076E-05-3.11820E-05-1.21602E-06 7.71501E-19-4.63377E-20
 -1      3668 9.40838E-05-2.14977E-05-3.11237E-05-1.73742E-06 7.39117E-19-2.89019E-19
 -1      3669 1.07227E-04-3.87728E-05-2.93464E-05 1.29996E-05 2.75116E-18 1.55589E-18
 -1      3670 9.59025E-05-2.73775E-05-2.93748E-05 1.03539E-07 5.30771E-19 2.61991E-19
 -1      3671 9.58809E-05-2.69061E-05-2.95504E-05 5.62553E-07 4.99983E-19 5.08955E-19
 -1      3672 9.46194E-05-2.23924E-05-3.09363E-05 8.31523E-07 5.56900E-19-5.15052E-20
 -1      3673 9.38725E-05-2.10543E-05-3.12196E-05 8.09106E-07 6.84397E-19-6.22712E-20
 -1      3674 9.38244E-05-2.09551E-05-3.12390E-05 2.47531E-07 6.59912E-19-5.92647E-20
 -1      3675 9.45001E-05-3.48637E-05-2.53830E-05 2.60227E-05 5.08316E-19-4.47928E-18
 -1      3676 9.95553E-05-4.05569E-05-2.53876E-05 2.68196E-05-2.93073E-19-3.57969E-18
 -1      3677 1.16505E-04-4.90138E-05-2.90801E-05-6.64279E-06-1.99913E-18-1.40142E-18
 -1      3678 1.08157E-04-4.08380E-05-2.89319E-05 1.56140E-05 2.38889E-18 4.90743E-19
 -1      3679 9.59710E-05-2.77846E-05-2.92137E-05-2.18705E-07 5.23091E-19 9.01219E-20
 -1      3680 9.61137E-05-2.74113E-05-2.94455E-05 4.85332E-08 5.86153E-19 3.83186E-19
 -1      3681 9.59535E-05-2.80877E-05-2.90899E-05-4.97491E-07 5.18934E-19 5.15794E-21
 -1      3682 1.14789E-04-1.84338E-05-4.13854E-05 1.12989E-05-1.47606E-18-1.74216E-18
 -1      3683 8.74515E-05-3.07916E-05-2.42437E-05 2.54172E-05 5.71003E-19-6.52039E-18
 -1      3684 6.05806E-05-1.55313E-05-1.92141E-05-9.27193E-06 6.95096E-20-1.77538E-18
 -1      3685 9.42718E-05-2.18879E-05-3.10235E-05-2.03993E-06 6.79688E-19-3.77162E-19
 -1      3686 9.45173E-05-2.24361E-05-3.09040E-05-2.35913E-06 5.81065E-19-3.99404E-19
 -1      3687 9.48492E-05-2.29567E-05-3.07970E-05-1.45779E-06 5.96817E-19-2.41583E-19
 -1      3688 8.15998E-05-3.10852E-05-2.13903E-05-2.93780E-05-3.54123E-18-1.57223E-18
 -1      3689 9.52906E-05-2.45436E-05-3.03297E-05-2.11041E-06 2.27428E-19-3.43601E-19
 -1      3690 9.54052E-05-2.45824E-05-3.03517E-05-1.75891E-06 1.82960E-19-2.26349E-19
 -1      3691 1.05142E-04-4.48989E-05-2.58932E-05 2.66624E-05 4.28122E-19-4.83901E-18
 -1      3692 1.25970E-04-5.09951E-05-3.21443E-05 2.31220E-06-9.64665E-19-2.45246E-18
 -1      3693 1.25639E-04-5.46308E-05-3.05975E-05-4.80750E-06-5.21779E-19-3.95165E-18
 -1      3694 9.65260E-05-2.80224E-05-2.93540E-05 2.90237E-07 3.99934E-20 1.33070E-19
 -1      3695 9.65375E-05-2.83436E-05-2.92296E-05 4.72178E-07-5.99290E-20 2.95633E-19
 -1      3696 9.65466E-05-2.86041E-05-2.91144E-05 5.73316E-07 8.35921E-20 3.56630E-19
 -1      3697 9.65152E-05-2.87984E-05-2.90233E-05 6.69643E-07 1.04654E-19 3.86699E-19
 -1      3698 9.66781E-05-2.84305E-05-2.92494E-05 4.24104E-07 1.26659E-19 7.18195E-20
 -1      3699 9.64736E-05-2.89452E-05-2.89380E-05 7.13468E-07-4.57981E-20 5.92248E-19
 -1      3700 9.64192E-05-2.90493E-05-2.88733E-05 7.51490E-07 4.05589E-20 5.19295E-19
 -1      3701 9.66452E-05-2.88764E-05-2.90451E-05 5.83000E-07 7.26896E-20 3.58886E-19
 -1      3702 9.63494E-05-2.91166E-05-2.88122E-05 7.57940E-07 2.72200E-19 3.69215E-19
 -1      3703 9.62844E-05-2.91579E-05-2.87680E-05 7.59307E-07 3.54856E-19 4.30358E-19
 -1      3704 9.65345E-05-2.91162E-05-2.88953E-05 6.47608E-07 1.40307E-19 6.65229E-19
 -1      3705 9.62006E-05-2.91703E-05-2.87261E-05 7.43967E-07 3.46212E-19 5.34050E-19
 -1      3706 9.61325E-05-2.91681E-05-2.86980E-05 7.25452E-07 3.41977E-19 3.94469E-19
 -1      3707 9.63821E-05-2.92113E-05-2.87893E-05 6.52049E-07 3.78972E-19 9.53649E-19
 -1      3708 9.60434E-05-2.91427E-05-2.86712E-05 7.00286E-07 5.52338E-20 4.52501E-19
 -1      3709 9.59761E-05-2.91103E-05-2.86555E-05 6.74411E-07 9.76544E-20 2.25975E-19
 -1      3710 9.62107E-05-2.92057E-05-2.87182E-05 6.23392E-07 2.37026E-19 7.01378E-19
 -1      3711 9.58862E-05-2.90585E-05-2.86404E-05 6.48284E-07 1.92429E-19 1.74024E-19
 -1      3712 9.58210E-05-2.90043E-05-2.86343E-05 6.24387E-07 1.42363E-19 4.34113E-19
 -1      3713 9.60335E-05-2.91302E-05-2.86743E-05 5.82136E-07 1.06910E-19 4.06543E-19
 -1      3714 9.57314E-05-2.89329E-05-2.86284E-05 6.04033E-07 1.00454E-19 4.51889E-19
 -1      3715 9.56676E-05-2.88615E-05-2.86297E-05 5.89289E-07 2.67969E-19 3.41949E-19
 -1      3716 9.58557E-05-2.90042E-05-2.86518E-05 5.43675E-07 2.33992E-19 5.90736E-19
 -1      3717 9.55771E-05-2.87737E-05-2.86309E-05 5.79975E-07 4.13815E-21-9.11678E-20
 -1      3718 9.55128E-05-2.86870E-05-2.86381E-05 5.80086E-07-1.89298E-19 1.70276E-19
 -1      3719 9.56774E-05-2.88386E-05-2.86460E-05 5.19974E-07 1.34630E-19 1.99847E-19
 -1      3720 9.54181E-05-2.85833E-05-2.86449E-05 5.86110E-07 9.14439E-20 3.97995E-19
 -1      3721 9.53501E-05-2.84810E-05-2.86566E-05 6.05940E-07-9.03982E-20 6.02795E-19
 -1      3722 9.54941E-05-2.86377E-05-2.86530E-05 5.20470E-07 1.41330E-19 6.82450E-20
 -1      3723 9.52464E-05-2.83597E-05-2.86676E-05 6.31122E-07-1.60899E-19 9.74526E-19
 -1      3724 9.51703E-05-2.82397E-05-2.86830E-05 6.75164E-07-1.28097E-19 1.36139E-18
 -1      3725 9.52978E-05-2.84009E-05-2.86698E-05 5.53086E-07 3.25364E-19 2.94739E-19
 -1      3726 9.50511E-05-2.80976E-05-2.86969E-05 7.23174E-07-4.59297E-19 1.53300E-18
 -1      3727 9.49615E-05-2.79564E-05-2.87150E-05 7.95845E-07-6.52992E-19 1.26165E-18
 -1      3728 9.50774E-05-2.81233E-05-2.86936E-05 6.25018E-07-1.56827E-19 7.17233E-19
 -1      3729 9.48190E-05-2.77890E-05-2.87304E-05 8.70371E-07-3.92185E-19 1.59225E-18
 -1      3730 9.47093E-05-2.76225E-05-2.87501E-05 9.76148E-07-4.66171E-19 1.50332E-18
 -1      3731 9.48186E-05-2.77972E-05-2.87217E-05 7.43168E-07-4.81665E-19 1.34314E-18
 -1      3732 9.45341E-05-2.74246E-05-2.87652E-05 1.08094E-06-7.86047E-19 1.49212E-18
 -1      3733 9.43965E-05-2.72283E-05-2.87851E-05 1.22435E-06-4.40238E-19 1.24686E-18
 -1      3734 9.45044E-05-2.74129E-05-2.87508E-05 9.14310E-07-5.11376E-19 1.56052E-18
 -1      3735 9.41776E-05-2.69947E-05-2.87977E-05 1.36317E-06 1.14782E-19 1.36596E-18
 -1      3736 9.40031E-05-2.67644E-05-2.88155E-05 1.54868E-06-1.16017E-21 1.21752E-18
 -1      3737 9.41148E-05-2.69603E-05-2.87766E-05 1.14503E-06-8.77774E-20 1.98278E-18
 -1      3738 9.37282E-05-2.64906E-05-2.88224E-05 1.72514E-06-4.27216E-19 1.24394E-18
 -1      3739 9.35065E-05-2.62234E-05-2.88348E-05 1.95694E-06-1.29003E-19 4.31638E-19
 -1      3740 9.36267E-05-2.64295E-05-2.87934E-05 1.44146E-06-2.96787E-19 1.47337E-18
 -1      3741 9.31614E-05-2.59064E-05-2.88313E-05 2.17446E-06 1.47061E-19 5.43464E-19
 -1      3742 9.28815E-05-2.56018E-05-2.88337E-05 2.45630E-06 1.84423E-20 6.69695E-19
 -1      3743 9.30138E-05-2.58134E-05-2.87930E-05 1.80904E-06-1.96357E-19 9.34931E-19
 -1      3744 9.24509E-05-2.52420E-05-2.88132E-05 2.71821E-06-3.70625E-19 5.83781E-19
 -1      3745 9.21014E-05-2.49040E-05-2.87988E-05 3.05360E-06-5.60835E-19 7.10669E-19
 -1      3746 9.22471E-05-2.51094E-05-2.87640E-05 2.25242E-06-8.92711E-20 8.46204E-19
 -1      3747 9.15685E-05-2.45065E-05-2.87524E-05 3.36390E-06-2.54393E-19 5.68474E-19
 -1      3748 9.11396E-05-2.41462E-05-2.87117E-05 3.75704E-06 2.95624E-19 5.10186E-19
 -1      3749 9.12948E-05-2.43227E-05-2.86904E-05 2.77631E-06-3.00419E-19 1.59874E-19
 -1      3750 9.04867E-05-2.37244E-05-2.86267E-05 4.12246E-06 4.85053E-19 8.10266E-19
 -1      3751 8.99729E-05-2.33641E-05-2.85467E-05 4.58072E-06 9.09285E-19 6.39773E-19
 -1      3752 9.01228E-05-2.34703E-05-2.85502E-05 3.38824E-06 5.45164E-19 1.11090E-18
 -1      3753 8.91821E-05-2.29426E-05-2.84064E-05 5.01498E-06 1.09066E-18-6.30366E-19
 -1      3754 8.85870E-05-2.26213E-05-2.82699E-05 5.55411E-06 9.33192E-19-4.29125E-19
 -1      3755 8.86954E-05-2.25859E-05-2.83134E-05 4.10482E-06 4.59494E-19 2.58515E-21
 -1      3756 8.76397E-05-2.22408E-05-2.80515E-05 6.08572E-06 1.06566E-18-5.11043E-19
 -1      3757 8.69847E-05-2.20216E-05-2.78365E-05 6.73935E-06 8.57288E-19-3.29766E-19
 -1      3758 8.69757E-05-2.17262E-05-2.79399E-05 4.96389E-06 1.08127E-18-8.58776E-19
 -1      3759 8.58607E-05-2.17446E-05-2.75098E-05 7.42835E-06 5.11973E-19-5.35685E-19
 -1      3760 8.52003E-05-2.17302E-05-2.71888E-05 8.26511E-06 3.83721E-19-4.24606E-19
 -1      3761 8.49229E-05-2.09751E-05-2.73755E-05 6.04778E-06 7.59729E-19-6.92289E-19
 -1      3762 8.38829E-05-2.16542E-05-2.67124E-05 9.21877E-06 4.83414E-19 2.63406E-19
 -1      3763 8.33229E-05-2.20113E-05-2.62530E-05 1.03722E-05 6.89285E-19 8.00243E-19
 -1      3764 8.24991E-05-2.04686E-05-2.65461E-05 7.52084E-06 5.65132E-19 2.14123E-19
 -1      3765 8.17438E-05-2.22240E-05-2.55694E-05 1.17613E-05 3.19206E-19 2.13093E-19
 -1      3766 8.13864E-05-2.33240E-05-2.49133E-05 1.35921E-05 2.93867E-19 1.85686E-19
 -1      3767 7.96771E-05-2.04298E-05-2.53500E-05 9.64272E-06 5.04325E-19 6.16112E-19
 -1      3768 9.59259E-05-2.85278E-05-2.88872E-05-8.33059E-07 7.86561E-20-2.10631E-19
 -1      3769 9.59563E-05-2.83389E-05-2.89723E-05-6.83923E-07 3.22303E-19-3.27780E-20
 -1      3770 9.61614E-05-2.86126E-05-2.89521E-05-7.82696E-07 9.45988E-20 4.60860E-20
 -1      3771 9.42543E-05-2.18533E-05-3.10339E-05 2.14062E-06 5.12679E-19 1.94994E-19
 -1      3772 9.48223E-05-2.28924E-05-3.08085E-05 1.55825E-06 5.04442E-19 2.23198E-19
 -1      3773 9.44743E-05-2.23489E-05-3.09304E-05 2.56487E-06 4.38085E-19 3.69972E-19
 -1      3774 7.52502E-05-2.26722E-05-2.25042E-05 1.60082E-05 2.66882E-20-1.16004E-20
 -1      3775 1.16117E-04-5.11430E-05-2.78082E-05-1.21618E-05-1.26987E-18-3.25542E-18
 -1      3776 1.11260E-04-4.78668E-05-2.69937E-05-1.44027E-05-1.63275E-18-2.85094E-18
 -1      3777 9.38221E-05-2.09515E-05-3.12397E-05-2.14484E-07 6.97696E-19-1.61762E-19
 -1      3778 9.38654E-05-2.10432E-05-3.12216E-05-7.76131E-07 7.38589E-19-2.30169E-19
 -1      3779 9.46073E-05-2.23761E-05-3.09391E-05-8.05258E-07 6.49442E-19-1.55912E-19
 -1      3780 9.45447E-05-2.22205E-05-3.09784E-05 1.28250E-08 5.98212E-19-1.25017E-19
 -1      3781 9.57556E-05-2.89852E-05-2.86143E-05-6.94638E-07-3.33673E-19-1.59143E-19
 -1      3782 9.58078E-05-2.90299E-05-2.86191E-05-7.24162E-07-2.21946E-19-2.14248E-19
 -1      3783 9.52270E-05-2.83305E-05-2.86681E-05-7.10281E-07-1.26808E-20-1.07472E-20
 -1      3784 9.52814E-05-2.84308E-05-2.86521E-05-6.69956E-07-2.95001E-19-1.15451E-19
 -1      3785 9.50686E-05-2.80941E-05-2.87014E-05-8.29280E-07 3.01832E-19 2.16567E-19
 -1      3786 9.51303E-05-2.82099E-05-2.86825E-05-7.58915E-07 2.91554E-19 3.78671E-20
 -1      3787 9.51524E-05-2.82287E-05-2.86811E-05-6.81388E-07 1.00290E-19-1.99348E-19
 -1      3788 9.48837E-05-2.78221E-05-2.87386E-05-1.01315E-06 1.02136E-19 9.04229E-19
 -1      3789 9.49561E-05-2.79550E-05-2.87177E-05-9.07830E-07 3.87416E-19 7.81770E-19
 -1      3790 9.49451E-05-2.79509E-05-2.87107E-05-8.06466E-07-8.19156E-20 8.18690E-19
 -1      3791 9.46631E-05-2.75110E-05-2.87772E-05-1.27201E-06 2.90543E-19 6.77296E-19
 -1      3792 9.47495E-05-2.76621E-05-2.87554E-05-1.12662E-06 2.57259E-19 6.45880E-19
 -1      3793 9.47006E-05-2.76310E-05-2.87424E-05-9.93849E-07 4.26226E-19 8.21384E-19
 -1      3794 9.43982E-05-2.71601E-05-2.88137E-05-1.61661E-06 6.31952E-19 3.62274E-19
 -1      3795 9.45014E-05-2.73289E-05-2.87926E-05-1.42592E-06 6.44855E-19 5.07340E-19
 -1      3796 9.44071E-05-2.72650E-05-2.87728E-05-1.25370E-06 6.30675E-19 3.29183E-19
 -1      3797 9.40826E-05-2.67742E-05-2.88435E-05-2.05813E-06 9.48302E-20 1.07354E-18
 -1      3798 9.42037E-05-2.69569E-05-2.88254E-05-1.81702E-06 4.93821E-19 6.87164E-19
 -1      3799 9.40535E-05-2.68526E-05-2.87972E-05-1.59720E-06 1.68849E-19 7.27826E-19
 -1      3800 9.37144E-05-2.63667E-05-2.88598E-05-2.60799E-06-4.68291E-19 1.25856E-18
 -1      3801 9.38518E-05-2.65546E-05-2.88479E-05-2.31171E-06-8.46390E-20 1.02529E-18
 -1      3802 9.36308E-05-2.63994E-05-2.88095E-05-2.03674E-06-3.03373E-19 7.62860E-19
 -1      3803 9.32999E-05-2.59648E-05-2.88536E-05-3.27756E-06-5.44484E-19 9.87053E-19
 -1      3804 9.34469E-05-2.61416E-05-2.88523E-05-2.92208E-06-6.03393E-19 1.27835E-18
 -1      3805 9.31349E-05-2.59210E-05-2.88013E-05-2.58623E-06-4.88784E-19 7.08331E-19
 -1      3806 9.28599E-05-2.56156E-05-2.88135E-05-4.07839E-06-1.11827E-18 5.53167E-19
 -1      3807 9.30012E-05-2.57539E-05-2.88283E-05-3.66062E-06-5.68086E-19 7.50987E-19
 -1      3808 9.25700E-05-2.54478E-05-2.87616E-05-3.26187E-06-3.41640E-19 7.76339E-19
 -1      3809 9.24381E-05-2.53946E-05-2.87253E-05-5.02282E-06-1.60265E-18 1.99698E-19
 -1      3810 9.25448E-05-2.54515E-05-2.87628E-05-4.54074E-06-1.35446E-18 8.52223E-19
 -1      3811 9.19551E-05-2.50319E-05-2.86765E-05-4.08381E-06-1.32885E-18 4.26846E-19
 -1      3812 9.21140E-05-2.54167E-05-2.85736E-05-6.12494E-06-3.59394E-19-1.32114E-19
 -1      3813 9.21360E-05-2.53274E-05-2.86408E-05-5.57797E-06-9.28636E-19-1.40790E-19
 -1      3814 9.13318E-05-2.47549E-05-2.85292E-05-5.07912E-06-8.09720E-19-7.02126E-19
 -1      3815 9.20229E-05-2.58491E-05-2.83440E-05-7.39970E-06 3.51815E-19-7.18603E-19
 -1      3816 9.18781E-05-2.55207E-05-2.84465E-05-6.79059E-06 9.93869E-20-3.77217E-20
 -1      3817 9.07784E-05-2.47404E-05-2.83012E-05-6.28594E-06-7.47050E-20-8.74394E-19
 -1      3818 9.23811E-05-2.69231E-05-2.80294E-05-8.85439E-06 2.63372E-19-1.35258E-19
 -1      3819 9.19432E-05-2.62295E-05-2.81672E-05-8.19546E-06 1.59198E-19-2.01622E-19
 -1      3820 9.04317E-05-2.51697E-05-2.79748E-05-7.75526E-06 2.31441E-19-1.96313E-19
 -1      3821 9.35210E-05-2.89425E-05-2.76412E-05-1.04730E-05-1.08687E-19-6.36655E-19
 -1      3822 9.25993E-05-2.77183E-05-2.78026E-05-9.79868E-06 3.40988E-19-2.16360E-19
 -1      3823 9.05121E-05-2.62888E-05-2.75398E-05-9.54593E-06 3.19361E-19 1.31567E-18
 -1      3824 9.59269E-05-3.23060E-05-2.72288E-05-1.21634E-05 4.04947E-19-1.46238E-18
 -1      3825 9.42687E-05-3.03375E-05-2.73775E-05-1.15681E-05-9.13307E-20-6.98872E-19
 -1      3826 9.13692E-05-2.84398E-05-2.70041E-05-1.17125E-05 5.46270E-20-6.01190E-19
 -1      3827 1.00330E-04-3.73084E-05-2.69440E-05-1.34400E-05-7.65830E-19-1.04022E-18
 -1      3828 9.76392E-05-3.45242E-05-2.69830E-05-1.32158E-05 8.47959E-20-1.24151E-18
 -1      3829 9.36664E-05-3.22274E-05-2.64201E-05-1.42459E-05 1.57426E-19-1.05634E-18
 -1      3830 1.06887E-04-4.38900E-05-2.69198E-05-1.39746E-05-1.60595E-18-2.63022E-18
 -1      3831 1.02889E-04-4.03636E-05-2.66879E-05-1.46689E-05-1.18139E-18-2.23522E-18
 -1      3832 9.74840E-05-3.73931E-05-2.58544E-05-1.68667E-05-7.55102E-19-1.40473E-18
 -1      3833 1.04013E-04-4.49142E-05-2.53899E-05-1.97608E-05-1.25084E-18-3.15446E-18
 -1      3834 1.07408E-04-4.09586E-05-2.84613E-05 1.76939E-05 1.43292E-18-9.28874E-19
 -1      3835 8.96787E-05-3.14988E-05-2.50577E-05-2.57194E-05-1.94830E-18 5.21719E-20
 -1      3836 6.30896E-05-1.51754E-05-2.03329E-05-3.76135E-06 8.60903E-19-2.59019E-18
 -1      3837 6.62392E-05-1.72826E-05-2.10607E-05-8.94703E-06 1.39626E-18-2.38321E-18
 -1      3838 1.21606E-04-5.37073E-05-2.89503E-05-8.94220E-06-6.09199E-19-3.54649E-18
 -1      3839 1.09721E-04-4.43179E-05-2.79324E-05 1.95584E-05 1.01114E-18-2.04560E-18
 -1      3840 9.54987E-05-2.87122E-05-2.86211E-05-6.29191E-07-2.23164E-19 2.72838E-19
 -1      3841 9.55478E-05-2.87859E-05-2.86131E-05-6.34569E-07-4.58316E-19 1.55970E-19
 -1      3842 7.03748E-05-2.12581E-05-2.10105E-05-1.61103E-05 1.10474E-18-2.45021E-18
 -1      3843 7.14174E-05-2.37548E-05-2.01855E-05-2.04686E-05 9.04751E-19-2.15674E-18
 -1      3844 7.73767E-05-2.77199E-05-2.12697E-05-2.18091E-05 8.58786E-19-2.75987E-18
 -1      3845 9.59311E-05-2.57269E-05-3.00800E-05-9.07158E-07 1.89087E-19-1.80421E-19
 -1      3846 9.61374E-05-2.64693E-05-2.98665E-05-4.66732E-07 1.88677E-19-1.61350E-19
 -1      3847 9.43138E-05-3.47363E-05-2.55231E-05-2.58044E-05-2.54661E-18-1.41342E-18
 -1      3848 9.53677E-05-2.85353E-05-2.86407E-05-6.46638E-07-2.44208E-19 4.66960E-20
 -1      3849 9.54181E-05-2.86219E-05-2.86283E-05-6.31582E-07-1.67851E-19 1.94287E-19
 -1      3850 9.53337E-05-2.84690E-05-2.86563E-05-6.09299E-07-5.09683E-20-6.67887E-20
 -1      3851 9.57278E-05-2.64545E-05-2.96956E-05 9.49895E-07 4.56786E-19 5.32643E-19
 -1      3852 9.56525E-05-2.59154E-05-2.98773E-05 1.53342E-06 4.38185E-19 6.58650E-19
 -1      3853 9.55626E-05-2.53532E-05-3.00973E-05 1.74428E-06 4.28619E-19 5.24376E-19
 -1      3854 9.58879E-05-2.64513E-05-2.97616E-05 7.83772E-07 5.57869E-19 5.51633E-19
 -1      3855 1.15474E-04-5.03854E-05-2.78111E-05 1.96664E-05 5.75241E-19-3.30867E-18
 -1      3856 9.51721E-05-2.39232E-05-3.05173E-05 2.16900E-06 4.16712E-19 4.53206E-19
 -1      3857 9.56264E-05-2.88627E-05-2.86114E-05-6.48595E-07-6.41864E-19 1.21007E-19
 -1      3858 9.56764E-05-2.89231E-05-2.86091E-05-6.69138E-07-4.80163E-19 2.45207E-22
 -1      3859 9.58129E-05-2.89985E-05-2.86360E-05-6.22412E-07-4.13571E-19 1.24387E-19
 -1      3860 9.56568E-05-2.88531E-05-2.86310E-05-5.88969E-07-5.46271E-19-1.54589E-19
 -1      3861 6.44171E-05-1.69419E-05-2.01928E-05 9.70871E-06-1.46537E-19-1.59454E-19
 -1      3862 6.17158E-05-1.51049E-05-1.99759E-05 1.76877E-06 4.43485E-19-2.18349E-18
 -1      3863 1.16823E-04-2.45476E-05-4.00519E-05 1.54145E-05 2.34231E-19-2.32468E-18
 -1      3864 9.63487E-05-2.71047E-05-2.96712E-05-1.86211E-07 2.24447E-19-1.44852E-19
 -1      3865 9.64365E-05-2.76039E-05-2.95057E-05 1.10476E-07 1.21480E-19-4.30598E-20
 -1      3866 9.62826E-05-2.65795E-05-2.98704E-05-3.39107E-07 2.39274E-19-1.40027E-19
 -1      3867 9.48536E-05-2.32207E-05-3.07063E-05-2.92832E-06 3.50481E-19-3.50042E-19
 -1      3868 9.45430E-05-2.25032E-05-3.08744E-05-2.74662E-06 4.32221E-19-4.19572E-19
 -1      3869 9.50093E-05-2.34272E-05-3.06635E-05-2.05580E-06 3.50623E-19-2.36866E-19
 -1      3870 9.58883E-05-2.90737E-05-2.86334E-05-7.54967E-07-2.01843E-19-3.97376E-19
 -1      3871 9.59434E-05-2.90978E-05-2.86475E-05-7.85661E-07-1.13500E-19-5.95343E-19
 -1      3872 9.59709E-05-2.91072E-05-2.86575E-05-6.71056E-07-4.02921E-19-4.48405E-19
 -1      3873 9.62750E-05-2.89749E-05-2.88434E-05-8.36895E-07-1.50799E-19 8.13834E-20
 -1      3874 9.63230E-05-2.88674E-05-2.89063E-05-7.92008E-07-1.12183E-19 1.75511E-20
 -1      3875 9.61871E-05-2.81529E-05-2.91598E-05-4.83526E-07 4.42798E-19 1.00227E-19
 -1      3876 6.62048E-05-1.59310E-05-2.14541E-05 4.08632E-07 8.08870E-19-2.47252E-18
 -1      3877 7.93530E-05-2.25456E-05-2.43102E-05 1.33341E-05 5.51101E-20 4.39994E-19
 -1      3878 6.87611E-05-1.87910E-05-2.14118E-05 1.22066E-05-2.58534E-19 8.88918E-19
 -1      3879 9.50859E-05-2.33999E-05-3.07280E-05-4.64732E-07 5.87716E-19-1.69424E-19
 -1      3880 9.51414E-05-2.35686E-05-3.06858E-05-8.19867E-07 6.09313E-19-1.46271E-19
 -1      3881 9.54299E-05-2.46817E-05-3.03219E-05 1.60981E-06 5.26471E-19 4.08309E-19
 -1      3882 1.23230E-04-4.75722E-05-3.28287E-05 6.92186E-06-1.19527E-18-1.15673E-18
 -1      3883 6.93354E-05-1.74480E-05-2.23006E-05 8.10783E-06 9.73956E-20-1.12781E-19
 -1      3884 8.16129E-05-2.69542E-05-2.33456E-05 2.47894E-05 6.31231E-19-7.22445E-18
 -1      3885 7.03867E-05-1.93769E-05-2.16668E-05-1.26999E-05 8.05159E-19-2.53962E-18
 -1      3886 7.38464E-05-2.20565E-05-2.22569E-05-1.53511E-05 6.14815E-19-1.80640E-18
 -1      3887 9.54991E-05-2.86764E-05-2.86388E-05-5.81415E-07-1.91640E-19-6.40609E-20
 -1      3888 9.54250E-05-2.45412E-05-3.03882E-05-1.45989E-06 3.42024E-19-2.50156E-19
 -1      3889 9.55635E-05-2.46909E-05-3.03726E-05-1.14360E-06 3.94671E-19-1.71776E-19
 -1      3890 9.41316E-05-4.09241E-05-2.26349E-05-2.61207E-05 1.19193E-19-4.18130E-18
 -1      3891 1.00359E-04-4.34814E-05-2.42952E-05-2.21077E-05-4.74034E-19-3.73839E-18
 -1      3892 9.63714E-05-3.91586E-05-2.44838E-05-2.07467E-05-4.33290E-19-2.62233E-18
 -1      3893 8.64637E-05-3.46749E-05-2.22183E-05-2.44952E-05 7.54892E-19-3.32134E-18
 -1      3894 9.53294E-05-2.41121E-05-3.05306E-05 1.36087E-06 5.16228E-19 2.65294E-19
 -1      3895 9.52165E-05-2.37749E-05-3.06202E-05 1.08558E-06 4.32450E-19 2.18510E-19
 -1      3896 9.51433E-05-2.35772E-05-3.06840E-05 8.31382E-07 4.05766E-19 1.27924E-20
 -1      3897 9.50827E-05-2.34051E-05-3.07261E-05 4.83974E-07 4.96065E-19-1.13728E-19
 -1      3898 9.56673E-05-2.46483E-05-3.04218E-05 7.11984E-07 3.80419E-19 1.15090E-19
 -1      3899 9.61561E-05-2.90933E-05-2.87408E-05-8.51068E-07 1.00162E-19-2.23128E-19
 -1      3900 9.62114E-05-2.90463E-05-2.87829E-05-8.48641E-07-2.35514E-20-3.44996E-19
 -1      3901 9.64215E-05-2.90497E-05-2.88755E-05-7.43022E-07 1.53267E-19-3.03248E-19
 -1      3902 9.62919E-05-2.75258E-05-2.94766E-05-6.42685E-08 6.71362E-19 4.29283E-19
 -1      3903 9.62160E-05-2.70322E-05-2.96446E-05 2.77074E-07 6.38985E-19 5.46602E-19
 -1      3904 1.10599E-04-4.62388E-05-2.73942E-05 2.11459E-05 3.01428E-19-2.47627E-18
 -1      3905 9.52987E-05-2.39267E-05-3.05868E-05-9.12608E-07 5.63805E-19-1.63107E-19
 -1      3906 9.54509E-05-2.43260E-05-3.04886E-05-1.12431E-06 4.67902E-19-2.48310E-19
 -1      3907 9.59553E-05-2.55341E-05-3.01814E-05-6.20034E-07 4.19494E-19-1.64721E-19
 -1      3908 9.57481E-05-2.48234E-05-3.03881E-05-5.53398E-07 5.00450E-19-1.07334E-19
 -1      3909 9.65823E-05-2.77005E-05-2.95202E-05 1.30478E-07 1.27702E-19 2.07117E-19
 -1      3910 7.01491E-05-1.81336E-05-2.22739E-05-8.63349E-06 8.20689E-19-1.91171E-18
 -1      3911 9.61649E-05-2.64721E-05-2.98660E-05 4.84583E-07 5.20339E-19 4.81773E-19
 -1      3912 9.60212E-05-2.63914E-05-2.98469E-05 6.34677E-07 5.60060E-19 4.31484E-19
 -1      3913 9.58799E-05-2.58637E-05-2.99993E-05 1.04850E-06 5.37992E-19 4.52350E-19
 -1      3914 9.63827E-05-2.82634E-05-2.91975E-05-4.96803E-07 4.71526E-19 4.24447E-19
 -1      3915 9.63736E-05-2.79439E-05-2.93220E-05-2.86985E-07 6.32402E-19 4.58075E-19
 -1      3916 9.64546E-05-2.76058E-05-2.95063E-05-9.69083E-08 6.71649E-19 6.90476E-19
 -1      3917 9.67904E-05-2.88067E-05-2.91337E-05 4.41029E-07 2.72304E-19 2.61798E-19
 -1      3918 9.67498E-05-2.89808E-05-2.90449E-05 5.00039E-07 1.86981E-19 4.89901E-19
 -1      3919 9.66935E-05-2.91070E-05-2.89639E-05 5.16992E-07 1.04178E-19 5.72080E-19
 -1      3920 9.66244E-05-2.91920E-05-2.88996E-05 5.38486E-07 2.69795E-19 6.86020E-19
 -1      3921 9.68162E-05-2.90488E-05-2.90445E-05 3.90627E-07 3.07810E-19 6.85086E-19
 -1      3922 9.65394E-05-2.92404E-05-2.88411E-05 5.34960E-07 3.36398E-19 5.59669E-19
 -1      3923 9.64559E-05-2.92625E-05-2.87965E-05 5.33737E-07 4.41372E-19 6.10391E-19
 -1      3924 9.66751E-05-2.92387E-05-2.89030E-05 4.17204E-07 2.64930E-19 7.83808E-19
 -1      3925 9.63571E-05-2.92572E-05-2.87562E-05 5.19661E-07 2.94595E-19 5.47027E-19
 -1      3926 9.62681E-05-2.92356E-05-2.87272E-05 5.06688E-07-2.11447E-20 3.47255E-19
 -1      3927 9.64920E-05-2.92899E-05-2.88026E-05 4.12480E-07 2.00246E-19 3.53595E-19
 -1      3928 9.61635E-05-2.91927E-05-2.87013E-05 4.88970E-07 1.36454E-19 4.04176E-19
 -1      3929 9.60736E-05-2.91403E-05-2.86845E-05 4.72859E-07 4.50374E-19 6.39912E-19
 -1      3930 9.62900E-05-2.92454E-05-2.87351E-05 3.91950E-07 1.98797E-19 5.39758E-19
 -1      3931 9.59667E-05-2.90702E-05-2.86699E-05 4.56599E-07 2.32015E-19 1.65974E-19
 -1      3932 9.58770E-05-2.89947E-05-2.86626E-05 4.44060E-07 1.23615E-19 2.18961E-19
 -1      3933 9.60804E-05-2.91323E-05-2.86935E-05 3.67746E-07 2.58146E-19 3.58665E-19
 -1      3934 9.57685E-05-2.89033E-05-2.86569E-05 4.33680E-07 8.69564E-20-1.40392E-20
 -1      3935 9.56777E-05-2.88087E-05-2.86570E-05 4.29803E-07 8.13547E-20-1.37298E-19
 -1      3936 9.58670E-05-2.89675E-05-2.86723E-05 3.48553E-07-6.18238E-20-4.13280E-19
 -1      3937 9.55654E-05-2.86985E-05-2.86580E-05 4.28421E-07 6.79848E-20-2.74380E-21
 -1      3938 9.54704E-05-2.85857E-05-2.86638E-05 4.37303E-07 2.17684E-19-8.88819E-20
 -1      3939 9.56485E-05-2.87604E-05-2.86668E-05 3.41866E-07 1.31680E-19-5.76896E-19
 -1      3940 9.53495E-05-2.84562E-05-2.86698E-05 4.47564E-07 4.50323E-19-3.28594E-19
 -1      3941 9.52454E-05-2.83238E-05-2.86798E-05 4.72761E-07 3.04968E-19 5.69304E-20
 -1      3942 9.54179E-05-2.85133E-05-2.86733E-05 3.53008E-07 1.05731E-19-1.71864E-19
 -1      3943 9.51096E-05-2.81723E-05-2.86893E-05 4.97070E-07 3.38693E-19 1.07541E-19
 -1      3944 9.49900E-05-2.80170E-05-2.87020E-05 5.41836E-07 1.35642E-19 5.01093E-19
 -1      3945 9.51641E-05-2.82231E-05-2.86882E-05 3.86685E-07 4.90194E-19-1.13275E-19
 -1      3946 9.48309E-05-2.78394E-05-2.87132E-05 5.82435E-07-2.01465E-20 1.18015E-18
 -1      3947 9.46879E-05-2.76569E-05-2.87272E-05 6.49844E-07-6.75512E-21 1.57274E-18
 -1      3948 9.48726E-05-2.78832E-05-2.87081E-05 4.47047E-07 4.66764E-19 7.92647E-19
 -1      3949 9.44957E-05-2.74478E-05-2.87381E-05 7.08833E-07-6.86596E-19 1.49074E-18
 -1      3950 9.43199E-05-2.72330E-05-2.87515E-05 8.01780E-07-5.99910E-19 1.49126E-18
 -1      3951 9.45256E-05-2.74842E-05-2.87293E-05 5.37763E-07-4.02770E-19 1.16570E-18
 -1      3952 9.40831E-05-2.69870E-05-2.87597E-05 8.81036E-07-2.78859E-19 1.58477E-18
 -1      3953 9.38636E-05-2.67349E-05-2.87699E-05 1.00212E-06-3.46265E-20 1.29635E-18
 -1      3954 9.41018E-05-2.70157E-05-2.87472E-05 6.61902E-07-4.23651E-19 1.49140E-18
 -1      3955 9.35691E-05-2.64468E-05-2.87720E-05 1.10314E-06-6.16486E-20 1.08112E-18
 -1      3956 9.32934E-05-2.61530E-05-2.87756E-05 1.25448E-06-1.62651E-19 1.18091E-18
 -1      3957 9.35770E-05-2.64670E-05-2.87559E-05 8.21642E-07-3.37181E-19 8.60185E-19
 -1      3958 9.29264E-05-2.58186E-05-2.87670E-05 1.37816E-06-1.42625E-19 1.38353E-18
 -1      3959 9.25804E-05-2.54806E-05-2.87590E-05 1.56125E-06 6.14338E-20 1.36646E-18
 -1      3960 9.29235E-05-2.58292E-05-2.87474E-05 1.01783E-06 8.49601E-20 1.28251E-18
 -1      3961 9.21242E-05-2.50981E-05-2.87335E-05 1.70781E-06-1.10729E-19 1.45987E-18
 -1      3962 9.16923E-05-2.47162E-05-2.87070E-05 1.92354E-06-5.40795E-19 1.23703E-18
 -1      3963 9.21104E-05-2.50968E-05-2.87106E-05 1.24956E-06 2.70210E-20 1.76512E-18
 -1      3964 9.11280E-05-2.42871E-05-2.86559E-05 2.09266E-06-6.23809E-19 1.47037E-18
 -1      3965 9.05932E-05-2.38661E-05-2.86016E-05 2.34198E-06-7.31798E-20 1.34044E-18
 -1      3966 9.11026E-05-2.42696E-05-2.86304E-05 1.51407E-06-3.77239E-19 1.95265E-18
 -1      3967 8.98987E-05-2.33968E-05-2.85132E-05 2.53374E-06 1.64732E-19 8.65878E-19
 -1      3968 8.92428E-05-2.29475E-05-2.84180E-05 2.81954E-06 2.89864E-19 6.81896E-19
 -1      3969 8.98603E-05-2.33551E-05-2.84863E-05 1.80753E-06-7.34560E-20 1.62003E-18
 -1      3970 8.83905E-05-2.24499E-05-2.82762E-05 3.03683E-06 3.01291E-19-2.27234E-19
 -1      3971 8.75942E-05-2.19915E-05-2.81226E-05 3.36799E-06 7.50346E-19-4.89139E-19
 -1      3972 8.83349E-05-2.23692E-05-2.82504E-05 2.12777E-06-1.93635E-19 1.41081E-19
 -1      3973 8.65472E-05-2.14841E-05-2.79054E-05 3.62153E-06 9.32362E-19-4.88704E-19
 -1      3974 8.55895E-05-2.10462E-05-2.76698E-05 4.02082E-06 7.85604E-19-6.48224E-19
 -1      3975 8.64638E-05-2.13370E-05-2.78844E-05 2.48105E-06 5.51495E-19-2.52106E-19
 -1      3976 8.42952E-05-2.05534E-05-2.73475E-05 4.33309E-06 9.28559E-19-1.22093E-18
 -1      3977 8.31520E-05-2.01730E-05-2.69982E-05 4.84951E-06 8.97649E-19-9.81098E-19
 -1      3978 8.41626E-05-2.02950E-05-2.73359E-05 2.89306E-06 8.82809E-19-1.10009E-18
 -1      3979 8.15141E-05-1.97204E-05-2.65264E-05 5.29155E-06 6.79196E-19-7.85928E-19
 -1      3980 8.01830E-05-1.94730E-05-2.60182E-05 6.02483E-06 6.31591E-19-4.61022E-19
 -1      3981 8.12812E-05-1.92625E-05-2.65318E-05 3.40848E-06 7.92162E-19-2.08478E-18
 -1      3982 7.80565E-05-1.90689E-05-2.53298E-05 6.72792E-06 4.88778E-19 1.11905E-19
 -1      3983 7.65399E-05-1.90667E-05-2.45941E-05 7.82154E-06 4.44457E-19 1.87886E-19
 -1      3984 7.75924E-05-1.83027E-05-2.53612E-05 4.20064E-06 9.32497E-19-2.03064E-18
 -1      3985 9.63606E-05-2.87183E-05-2.89915E-05-7.35053E-07-8.53853E-20 4.71439E-19
 -1      3986 9.63897E-05-2.85232E-05-2.90814E-05-6.22738E-07 3.31639E-19 3.60801E-19
 -1      3987 9.65499E-05-2.83459E-05-2.92312E-05-4.59518E-07 3.87473E-19 7.54820E-19
 -1      3988 9.65216E-05-2.87993E-05-2.90254E-05-6.58839E-07 1.86782E-19 4.49684E-19
 -1      3989 9.50613E-05-2.33381E-05-3.07475E-05 1.97230E-07 5.31612E-19-8.01053E-20
 -1      3990 9.50576E-05-2.33336E-05-3.07480E-05-1.78773E-07 5.77586E-19-3.22391E-19
 -1      3991 9.55953E-05-2.43709E-05-3.05075E-05 2.56275E-07 4.09976E-19-1.26466E-19
 -1      3992 9.48286E-05-2.78162E-05-2.87184E-05-7.40990E-07-3.23870E-19 1.68039E-19
 -1      3993 9.49418E-05-2.79730E-05-2.87034E-05-6.66651E-07-2.93512E-19 1.09154E-19
 -1      3994 9.50799E-05-2.81298E-05-2.86917E-05-6.17415E-07 8.10315E-20 9.96941E-20
 -1      3995 9.51772E-05-2.82654E-05-2.86783E-05-5.70130E-07 2.09365E-19-1.41884E-19
 -1      3996 9.49722E-05-2.80030E-05-2.86998E-05-5.47899E-07-5.37222E-20-5.09585E-20
 -1      3997 9.41701E-05-2.70395E-05-2.87691E-05-1.16904E-06 6.51863E-19 2.17410E-19
 -1      3998 9.43327E-05-2.72452E-05-2.87559E-05-1.02637E-06 9.45581E-19 3.40155E-19
 -1      3999 9.37351E-05-2.65711E-05-2.87833E-05-1.49435E-06-3.31427E-19 1.62847E-21
 -1      4000 9.39306E-05-2.68014E-05-2.87748E-05-1.30945E-06 3.24553E-19 1.22877E-19
 -1      4001 9.38829E-05-2.67706E-05-2.87584E-05-1.06489E-06 4.43457E-19 4.45188E-20
 -1      4002 9.32132E-05-2.60549E-05-2.87806E-05-1.91049E-06-1.29794E-20-2.35419E-19
 -1      4003 9.34453E-05-2.63053E-05-2.87806E-05-1.67712E-06-2.92845E-19-1.28524E-19
 -1      4004 9.33582E-05-2.62412E-05-2.87592E-05-1.36790E-06-7.55765E-20-5.04399E-19
 -1      4005 9.25977E-05-2.55067E-05-2.87513E-05-2.43299E-06-5.91488E-19-5.61132E-19
 -1      4006 9.28667E-05-2.57669E-05-2.87647E-05-2.14393E-06-3.90011E-19-5.31347E-19
 -1      4007 9.27269E-05-2.56574E-05-2.87375E-05-1.75801E-06-2.69916E-19-9.12479E-19
 -1      4008 9.18896E-05-2.49577E-05-2.86823E-05-3.08151E-06-6.60786E-19 6.32773E-19
 -1      4009 9.21903E-05-2.52089E-05-2.87155E-05-2.72786E-06-5.69145E-19 5.44363E-19
 -1      4010 9.19781E-05-2.50361E-05-2.86816E-05-2.25376E-06-1.01081E-18-7.78599E-19
 -1      4011 9.11039E-05-2.44599E-05-2.85573E-05-3.88254E-06-1.01065E-18 4.20403E-19
 -1      4012 9.14220E-05-2.46715E-05-2.86183E-05-3.45242E-06-7.40657E-19 7.54796E-19
 -1      4013 9.11079E-05-2.44090E-05-2.85761E-05-2.88037E-06-5.93405E-19 3.53435E-19
 -1      4014 9.02769E-05-2.40945E-05-2.83565E-05-4.87418E-06-3.03879E-19-9.44378E-19
 -1      4015 9.05834E-05-2.42194E-05-2.84548E-05-4.35057E-06-7.32731E-19-3.76010E-19
 -1      4016 9.01232E-05-2.38282E-05-2.84018E-05-3.67400E-06-4.66213E-19-4.07558E-19
 -1      4017 8.94784E-05-2.39824E-05-2.80575E-05-6.11373E-06-4.60969E-19-7.43452E-19
 -1      4018 8.97210E-05-2.39503E-05-2.82030E-05-5.47146E-06-5.32383E-19-9.91555E-19
 -1      4019 8.90465E-05-2.33726E-05-2.81350E-05-4.68931E-06-4.24325E-19-9.35168E-19
 -1      4020 8.88333E-05-2.43017E-05-2.76366E-05-7.68530E-06-1.10817E-19 3.50892E-19
 -1      4021 8.89232E-05-2.40092E-05-2.78386E-05-6.88960E-06-3.46137E-19-2.70519E-20
 -1      4022 8.79261E-05-2.31590E-05-2.77472E-05-6.01285E-06-9.78561E-19-2.73541E-19
 -1      4023 8.85531E-05-2.52946E-05-2.70760E-05-9.68158E-06 1.35599E-19 5.64271E-19
 -1      4024 8.83523E-05-2.46125E-05-2.73374E-05-8.70150E-06 1.74047E-19 4.25116E-19
 -1      4025 8.68657E-05-2.33724E-05-2.72056E-05-7.77119E-06-2.47030E-19-5.58153E-19
 -1      4026 8.89844E-05-2.73339E-05-2.63714E-05-1.22557E-05 4.90493E-19-1.22457E-18
 -1      4027 8.82584E-05-2.60441E-05-2.66846E-05-1.10624E-05 2.86303E-19-1.20133E-19
 -1      4028 8.60135E-05-2.42094E-05-2.64783E-05-1.01428E-05 1.06099E-18-1.25835E-18
 -1      4029 9.05993E-05-3.09419E-05-2.55528E-05-1.55804E-05-2.13605E-19-1.92604E-18
 -1      4030 8.90346E-05-2.85915E-05-2.58811E-05-1.40894E-05 1.76465E-19-1.52044E-18
 -1      4031 8.57539E-05-2.60876E-05-2.55374E-05-1.33662E-05 4.32060E-19-2.07792E-18
 -1      4032 9.54932E-05-2.86348E-05-2.86523E-05-5.07493E-07-3.19642E-19-3.23299E-19
 -1      4033 9.55743E-05-2.87351E-05-2.86462E-05-5.01558E-07-4.56386E-19-4.67889E-19
 -1      4034 7.07878E-05-1.70172E-05-2.29217E-05-5.05478E-06 5.56311E-19-2.09552E-18
 -1      4035 7.34462E-05-1.89981E-05-2.34168E-05-8.73254E-06 1.07928E-19-1.03902E-18
 -1      4036 7.91493E-05-2.64561E-05-2.25039E-05-1.88625E-05-9.18965E-20-2.52521E-18
 -1      4037 8.25521E-05-3.04251E-05-2.21913E-05-2.22746E-05 5.22801E-19-2.71391E-18
 -1      4038 8.74722E-05-3.29423E-05-2.33470E-05-2.12785E-05-1.22489E-20-2.96064E-18
 -1      4039 9.60237E-05-2.91164E-05-2.86735E-05-8.14119E-07 2.55191E-20-5.81252E-19
 -1      4040 9.60804E-05-2.91115E-05-2.86997E-05-8.35465E-07 9.92809E-20-3.15905E-19
 -1      4041 9.62842E-05-2.91582E-05-2.87703E-05-7.52875E-07 1.30972E-19-5.72242E-19
 -1      4042 9.61300E-05-2.91672E-05-2.87002E-05-7.20482E-07-1.08616E-19-5.04221E-19
 -1      4043 9.52975E-05-2.84009E-05-2.86687E-05-5.42231E-07 6.61094E-21-1.39322E-19
 -1      4044 9.53843E-05-2.85179E-05-2.86583E-05-5.17712E-07-1.54372E-20-1.01553E-19
 -1      4045 9.54548E-05-2.85721E-05-2.86641E-05-4.35233E-07-3.57370E-19-3.40147E-19
 -1      4046 9.52280E-05-2.83087E-05-2.86791E-05-4.73579E-07 7.61731E-20-4.86856E-19
 -1      4047 9.45301E-05-2.74542E-05-2.87457E-05-9.21624E-07 7.30515E-19 1.23593E-20
 -1      4048 9.46650E-05-2.76347E-05-2.87305E-05-8.15633E-07 3.53403E-19 1.35394E-19
 -1      4049 9.46734E-05-2.76488E-05-2.87228E-05-6.65498E-07 1.57913E-19-6.85275E-19
 -1      4050 9.43158E-05-2.72396E-05-2.87440E-05-8.34618E-07 3.97623E-19-9.91510E-21
 -1      4051 9.66228E-05-2.74119E-05-2.96585E-05-1.16183E-08 2.02912E-19-2.87884E-20
 -1      4052 9.67094E-05-2.78786E-05-2.95028E-05 1.80308E-07 1.05093E-19 1.62234E-20
 -1      4053 9.54757E-05-2.45790E-05-3.03880E-05 1.35373E-06 5.49732E-19 3.50898E-19
 -1      4054 9.58089E-05-2.53131E-05-3.02122E-05 8.64633E-07 4.67077E-19 3.21176E-19
 -1      4055 9.55908E-05-2.43701E-05-3.05086E-05-2.36576E-07 4.27378E-19-1.51846E-19
 -1      4056 9.62327E-05-2.62272E-05-3.00032E-05-4.17000E-07 3.41482E-19-2.40930E-20
 -1      4057 9.64482E-05-2.69126E-05-2.98063E-05-1.29942E-07 2.23690E-19-5.73836E-20
 -1      4058 9.65838E-05-2.71025E-05-2.97801E-05-6.32395E-08 3.32250E-19-2.11849E-19
 -1      4059 9.61347E-05-2.58693E-05-3.01103E-05-4.12908E-07 4.55310E-19-1.53422E-19
 -1      4060 6.87197E-05-1.63278E-05-2.23645E-05 3.89308E-06 3.56495E-19-2.30307E-18
 -1      4061 6.88830E-05-1.63590E-05-2.25912E-05-1.09560E-06 9.28045E-19-3.06310E-18
 -1      4062 7.97900E-05-2.39907E-05-2.39399E-05-1.42624E-05 2.24331E-19-2.05125E-18
 -1      4063 8.06868E-05-2.57646E-05-2.34506E-05-1.68628E-05-4.99700E-20-2.56944E-18
 -1      4064 9.67870E-05-2.82699E-05-2.93614E-05 2.78691E-07 1.00532E-19 1.20798E-19
 -1      4065 9.67963E-05-2.85702E-05-2.92423E-05 3.93030E-07 2.14497E-19 1.42164E-19
 -1      4066 9.68101E-05-2.79978E-05-2.94887E-05 1.62790E-07 2.32834E-19-7.43833E-20
 -1      4067 9.63483E-05-2.68444E-05-2.97892E-05 2.15626E-07 4.71999E-19 4.60936E-19
 -1      4068 9.61528E-05-2.61719E-05-2.99913E-05 5.67764E-07 4.51740E-19 3.78237E-19
 -1      4069 9.60236E-05-2.57355E-05-3.01276E-05 5.90532E-07 4.03325E-19 3.53393E-19
 -1      4070 9.68801E-05-2.86625E-05-2.92362E-05 3.13876E-07 2.48078E-19 3.16516E-19
 -1      4071 7.56328E-05-1.96771E-05-2.39335E-05 1.05955E-05 1.39643E-19 7.06465E-19
 -1      4072 9.66544E-05-2.89059E-05-2.90364E-05-5.86851E-07 4.86946E-19-4.26006E-20
 -1      4073 9.66899E-05-2.87222E-05-2.91262E-05-5.14068E-07 5.34352E-19 2.75763E-19
 -1      4074 9.58565E-05-2.90013E-05-2.86508E-05-5.28358E-07-7.05556E-19 2.60819E-19
 -1      4075 9.59361E-05-2.90677E-05-2.86578E-05-5.45802E-07-5.07066E-19-1.28734E-19
 -1      4076 7.20631E-05-1.75090E-05-2.33211E-05 6.05883E-06 4.44646E-19-5.61149E-19
 -1      4077 9.56646E-05-2.87976E-05-2.86579E-05-4.26056E-07-4.34567E-19-8.65488E-19
 -1      4078 9.56772E-05-2.88349E-05-2.86453E-05-5.05544E-07-2.27075E-19-6.12968E-19
 -1      4079 9.57561E-05-2.89190E-05-2.86449E-05-5.13815E-07-4.11229E-19-1.81184E-19
 -1      4080 9.60079E-05-2.55503E-05-3.01975E-05 4.46070E-07 3.59259E-19 1.20860E-19
 -1      4081 9.65415E-05-2.91333E-05-2.88893E-05-6.41183E-07 3.02071E-19-3.56290E-19
 -1      4082 9.66041E-05-2.90405E-05-2.89537E-05-6.13555E-07 3.95461E-19-6.57494E-20
 -1      4083 9.67501E-05-2.89807E-05-2.90456E-05-4.86404E-07 5.93333E-19-1.68540E-19
 -1      4084 9.65978E-05-2.78745E-05-2.94556E-05-2.26173E-07 6.26902E-19 6.84036E-19
 -1      4085 9.65148E-05-2.74202E-05-2.96123E-05 1.05376E-08 5.44389E-19 5.11232E-19
 -1      4086 9.65023E-05-2.71282E-05-2.97297E-05 8.81800E-08 4.87618E-19 3.69986E-19
 -1      4087 7.40407E-05-1.81154E-05-2.39517E-05 7.32646E-06 5.42836E-19 5.71244E-19
 -1      4088 9.59332E-05-2.51996E-05-3.03205E-05-7.18697E-08 3.68011E-19-2.61785E-19
 -1      4089 9.59476E-05-2.52714E-05-3.02990E-05-2.67400E-07 4.04512E-19-1.85151E-19
 -1      4090 9.59943E-05-2.53923E-05-3.02552E-05-3.32262E-07 3.93052E-19-2.07011E-19
 -1      4091 9.61128E-05-2.57424E-05-3.01637E-05-3.92991E-07 4.53200E-19-2.42434E-19
 -1      4092 9.63745E-05-2.64000E-05-2.99840E-05-1.94889E-07 4.03386E-19-3.21059E-19
 -1      4093 9.63338E-05-2.61297E-05-3.00768E-05-1.61706E-07 2.96742E-19-3.38288E-19
 -1      4094 7.68250E-05-2.06937E-05-2.39433E-05-1.10380E-05 5.39277E-19-1.23867E-18
 -1      4095 8.22781E-05-2.41946E-05-2.49274E-05-1.26931E-05 4.68964E-19-1.99342E-18
 -1      4096 8.23518E-05-2.30832E-05-2.54810E-05-1.08180E-05 1.02234E-18-1.49044E-18
 -1      4097 7.66488E-05-1.96352E-05-2.44656E-05-7.90448E-06 4.04333E-19-1.33333E-18
 -1      4098 7.24606E-05-1.71748E-05-2.36842E-05-1.82355E-06 4.87094E-20-2.75222E-18
 -1      4099 7.32359E-05-1.72771E-05-2.40409E-05 3.42162E-06 6.01273E-19-3.09203E-18
 -1      4100 9.60348E-05-2.91289E-05-2.86727E-05-5.65779E-07-3.79465E-19-2.31312E-19
 -1      4101 9.61173E-05-2.91737E-05-2.86892E-05-5.84835E-07-4.30603E-19-1.74969E-19
 -1      4102 9.60620E-05-2.91332E-05-2.86859E-05-4.68289E-07-5.07946E-19-5.03013E-19
 -1      4103 9.58661E-05-2.89862E-05-2.86639E-05-4.39284E-07-3.38594E-19-4.86039E-19
 -1      4104 9.66779E-05-2.85073E-05-2.92181E-05-4.61857E-07 4.18737E-19 6.58128E-19
 -1      4105 9.66731E-05-2.82123E-05-2.93379E-05-3.20847E-07 6.11540E-19 7.86670E-19
 -1      4106 9.67271E-05-2.80528E-05-2.94353E-05-2.32465E-07 5.86955E-19 6.02227E-19
 -1      4107 9.67873E-05-2.85968E-05-2.92244E-05-3.97708E-07 7.05690E-19 2.23610E-19
 -1      4108 9.67867E-05-2.92331E-05-2.89507E-05 2.81344E-07 1.75393E-19 7.55536E-19
 -1      4109 9.67012E-05-2.92890E-05-2.88905E-05 2.93542E-07 1.66903E-19 5.05155E-19
 -1      4110 9.66050E-05-2.93144E-05-2.88378E-05 2.87501E-07 8.18860E-20 5.16449E-19
 -1      4111 9.65065E-05-2.93139E-05-2.87959E-05 2.86370E-07 8.67057E-20 3.17530E-19
 -1      4112 9.66927E-05-2.93111E-05-2.88799E-05 1.64476E-07-5.60967E-20 3.71710E-19
 -1      4113 9.63960E-05-2.92880E-05-2.87599E-05 2.76818E-07 2.17079E-19 3.88355E-19
 -1      4114 9.62935E-05-2.92470E-05-2.87327E-05 2.71857E-07 2.32779E-19 4.50586E-19
 -1      4115 9.64870E-05-2.93144E-05-2.87905E-05 1.57453E-07 8.18189E-20 4.98742E-19
 -1      4116 9.61777E-05-2.91866E-05-2.87100E-05 2.58863E-07-1.13062E-19 2.39610E-19
 -1      4117 9.60714E-05-2.91148E-05-2.86944E-05 2.53482E-07-3.03045E-19-2.20931E-19
 -1      4118 9.62689E-05-2.92339E-05-2.87319E-05 1.46161E-07 1.07741E-20 1.55278E-19
 -1      4119 9.59537E-05-2.90279E-05-2.86823E-05 2.44617E-07-3.74074E-19-4.24549E-19
 -1      4120 9.58455E-05-2.89329E-05-2.86757E-05 2.42365E-07-2.50304E-19-5.45932E-19
 -1      4121 9.60366E-05-2.90835E-05-2.86966E-05 1.39609E-07-4.29817E-19-9.87954E-21
 -1      4122 9.57246E-05-2.88247E-05-2.86716E-05 2.37265E-07 2.16221E-19-6.23676E-19
 -1      4123 9.56126E-05-2.87094E-05-2.86720E-05 2.40852E-07 1.32698E-19-6.31497E-19
 -1      4124 9.58014E-05-2.88851E-05-2.86799E-05 1.35876E-07-1.87843E-19-1.37196E-19
 -1      4125 9.54847E-05-2.85805E-05-2.86739E-05 2.40834E-07 2.08240E-19-3.06925E-19
 -1      4126 9.53642E-05-2.84445E-05-2.86793E-05 2.52601E-07 2.89282E-19-6.00422E-20
 -1      4127 9.55563E-05-2.86431E-05-2.86773E-05 1.37335E-07 2.61811E-19-5.23977E-19
 -1      4128 9.52233E-05-2.82935E-05-2.86854E-05 2.58640E-07 3.88064E-19-3.23324E-19
 -1      4129 9.50880E-05-2.81343E-05-2.86942E-05 2.80541E-07 6.97877E-19 2.24888E-20
 -1      4130 9.52917E-05-2.83573E-05-2.86850E-05 1.46105E-07 3.31581E-19-6.31113E-19
 -1      4131 9.49263E-05-2.79578E-05-2.87027E-05 2.93412E-07 8.56063E-19 1.06052E-19
 -1      4132 9.47679E-05-2.77714E-05-2.87131E-05 3.27042E-07 4.12589E-19 5.72106E-19
 -1      4133 9.49942E-05-2.80228E-05-2.86993E-05 1.63486E-07 6.74518E-19-7.41448E-19
 -1      4134 9.45761E-05-2.75646E-05-2.87219E-05 3.47319E-07-9.31100E-20 7.88149E-19
 -1      4135 9.43847E-05-2.73458E-05-2.87318E-05 3.93869E-07-4.93219E-19 8.19553E-19
 -1      4136 9.46468E-05-2.76316E-05-2.87161E-05 1.90159E-07 4.23540E-19-4.89695E-19
 -1      4137 9.41517E-05-2.71035E-05-2.87385E-05 4.21830E-07-6.80475E-19 9.54049E-19
 -1      4138 9.39158E-05-2.68471E-05-2.87453E-05 4.81944E-07-5.08897E-19 7.30499E-19
 -1      4139 9.42292E-05-2.71737E-05-2.87310E-05 2.26020E-07-4.32494E-19-4.67851E-19
 -1      4140 9.36291E-05-2.65640E-05-2.87467E-05 5.17381E-07-5.00487E-19 6.93645E-19
 -1      4141 9.33355E-05-2.62652E-05-2.87469E-05 5.90923E-07-3.69033E-19 7.77136E-19
 -1      4142 9.37180E-05-2.66389E-05-2.87383E-05 2.69817E-07-5.38501E-19 1.64406E-19
 -1      4143 9.29812E-05-2.59371E-05-2.87388E-05 6.32870E-07-8.80691E-20 1.00995E-18
 -1      4144 9.26149E-05-2.55922E-05-2.87278E-05 7.18626E-07 2.75437E-19 1.22626E-18
 -1      4145 9.30870E-05-2.60179E-05-2.87305E-05 3.18607E-07-9.57684E-20 7.03651E-19
 -1      4146 9.21776E-05-2.52168E-05-2.87045E-05 7.65029E-07 4.65948E-20 8.21017E-19
 -1      4147 9.17218E-05-2.48246E-05-2.86757E-05 8.60440E-07-2.42054E-19 9.69051E-19
 -1      4148 9.23071E-05-2.53045E-05-2.86976E-05 3.67031E-07-1.13823E-19 6.26663E-19
 -1      4149 9.11845E-05-2.44023E-05-2.86295E-05 9.07819E-07 5.89387E-20 9.48542E-19
 -1      4150 9.06197E-05-2.39647E-05-2.85742E-05 1.00891E-06 6.57691E-20 1.29020E-18
 -1      4151 9.13460E-05-2.44974E-05-2.86261E-05 4.06450E-07-3.29910E-19 3.26596E-19
 -1      4152 8.99629E-05-2.34998E-05-2.84947E-05 1.05209E-06-2.45211E-19 1.37023E-18
 -1      4153 8.92663E-05-2.30227E-05-2.84009E-05 1.15392E-06-4.96351E-19 9.78761E-19
 -1      4154 9.01675E-05-2.36016E-05-2.84980E-05 4.23996E-07-6.37268E-20 7.48244E-19
 -1      4155 8.84658E-05-2.25235E-05-2.82742E-05 1.18598E-06-9.41967E-19 8.90066E-19
 -1      4156 8.76084E-05-2.20166E-05-2.81257E-05 1.28423E-06-4.84875E-19 1.49860E-19
 -1      4157 8.87289E-05-2.26294E-05-2.82890E-05 4.01553E-07-6.16329E-19 3.01436E-19
 -1      4158 8.66306E-05-2.14942E-05-2.79327E-05 1.29709E-06 8.38800E-20-1.21252E-19
 -1      4159 8.55729E-05-2.09708E-05-2.77071E-05 1.39192E-06 2.73923E-19-5.36545E-19
 -1      4160 8.69742E-05-2.15993E-05-2.79661E-05 3.14335E-07-4.42865E-19-4.69590E-19
 -1      4161 8.43630E-05-2.04331E-05-2.74213E-05 1.38083E-06 2.21749E-19-6.09663E-19
 -1      4162 8.30578E-05-1.99122E-05-2.70880E-05 1.48262E-06 7.17692E-19-1.06994E-18
 -1      4163 8.48177E-05-2.05316E-05-2.74842E-05 1.27586E-07 7.70428E-20-1.31128E-18
 -1      4164 8.15414E-05-1.93769E-05-2.66720E-05 1.46798E-06 8.60349E-19-1.09168E-18
 -1      4165 7.99724E-05-1.88735E-05-2.61890E-05 1.59922E-06 5.15985E-19-1.39531E-18
 -1      4166 8.20870E-05-1.94431E-05-2.67790E-05-2.09936E-07 5.71122E-19-8.33537E-19
 -1      4167 7.79737E-05-1.83357E-05-2.56067E-05 2.15075E-06 6.63842E-19-1.78435E-18
 -1      4168 7.59820E-05-1.78263E-05-2.49062E-05 2.41789E-06 6.74264E-19-2.16533E-18
 -1      4169 7.41508E-05-1.72112E-05-2.43364E-05 1.27855E-06 3.84114E-19-3.05265E-18
 -1      4170 7.87253E-05-1.84141E-05-2.57828E-05 2.33625E-08 6.44672E-19-8.93568E-19
 -1      4171 9.48725E-05-2.78899E-05-2.87066E-05-4.48430E-07 1.01816E-19-2.23559E-19
 -1      4172 9.50114E-05-2.80592E-05-2.86957E-05-4.03948E-07-3.26525E-20-2.37043E-19
 -1      4173 9.30252E-05-2.59629E-05-2.87417E-05-1.16146E-06-8.60968E-20 1.08667E-19
 -1      4174 9.33159E-05-2.62538E-05-2.87470E-05-1.00690E-06-3.05376E-20 2.53725E-19
 -1      4175 9.36286E-05-2.65435E-05-2.87513E-05-8.98527E-07 3.84324E-19-1.79701E-19
 -1      4176 9.38691E-05-2.68024E-05-2.87475E-05-7.78920E-07 7.77195E-19-1.97839E-20
 -1      4177 9.33430E-05-2.62653E-05-2.87368E-05-6.97140E-07 1.55582E-19 1.30770E-19
 -1      4178 9.14287E-05-2.46331E-05-2.86273E-05-1.94132E-06-1.21463E-18-6.28175E-19
 -1      4179 9.18365E-05-2.49683E-05-2.86679E-05-1.69325E-06-8.81772E-19-7.08545E-19
 -1      4180 9.04111E-05-2.39304E-05-2.84916E-05-2.50555E-06-9.31836E-19-1.17348E-19
 -1      4181 9.08788E-05-2.42641E-05-2.85621E-05-2.19261E-06-1.50471E-18-4.01432E-19
 -1      4182 9.08240E-05-2.41493E-05-2.85510E-05-1.57997E-06-1.41299E-18-6.58937E-19
 -1      4183 8.92418E-05-2.32616E-05-2.82757E-05-3.23565E-06-6.05341E-20-5.31740E-19
 -1      4184 8.97621E-05-2.35648E-05-2.83871E-05-2.83783E-06-1.22920E-19-3.52639E-19
 -1      4185 8.96400E-05-2.33569E-05-2.83765E-05-2.08384E-06-5.31307E-19-1.36525E-18
 -1      4186 8.79286E-05-2.26984E-05-2.79517E-05-4.19302E-06-7.84515E-19-5.53381E-19
 -1      4187 8.84848E-05-2.29290E-05-2.81176E-05-3.67893E-06-3.89534E-19-1.94863E-19
 -1      4188 8.82544E-05-2.25801E-05-2.81070E-05-2.75860E-06-2.95435E-19-8.90283E-19
 -1      4189 8.64960E-05-2.23417E-05-2.74852E-05-5.47537E-06-7.17238E-19-3.40122E-19
 -1      4190 8.70513E-05-2.24374E-05-2.77217E-05-4.79346E-06-6.25274E-19 9.31833E-20
 -1      4191 8.66491E-05-2.18780E-05-2.77089E-05-3.67322E-06-7.48877E-19-7.19921E-19
 -1      4192 8.49717E-05-2.23592E-05-2.68284E-05-7.27703E-06 7.54116E-19-1.81644E-18
 -1      4193 8.54767E-05-2.22018E-05-2.71586E-05-6.32221E-06 5.12136E-20-1.40676E-18
 -1      4194 8.47776E-05-2.13195E-05-2.71382E-05-4.93559E-06 2.83606E-19-1.57679E-18
 -1      4195 8.35382E-05-2.28416E-05-2.60028E-05-9.54320E-06 1.04403E-18-1.82119E-18
 -1      4196 8.39597E-05-2.23724E-05-2.64382E-05-8.18644E-06 7.84858E-19-1.78125E-18
 -1      4197 8.28528E-05-2.11925E-05-2.64189E-05-6.62896E-06 5.65927E-19-2.57086E-18
 -1      4198 8.07512E-05-2.11355E-05-2.54840E-05-8.59375E-06 8.63307E-19-1.63722E-18
 -1      4199 9.39998E-05-3.57493E-05-2.49092E-05-1.87473E-05-2.96250E-19-1.98669E-18
 -1      4200 8.82438E-05-3.17966E-05-2.42132E-05-1.89156E-05-1.03762E-19-2.97947E-18
 -1      4201 9.59544E-05-2.52744E-05-3.03004E-05 2.90476E-07 3.30805E-19-8.33169E-20
 -1      4202 9.59354E-05-2.52043E-05-3.03201E-05 7.91959E-08 3.98886E-19-2.67438E-19
 -1      4203 9.62923E-05-2.59728E-05-3.01227E-05 8.92513E-09 3.60391E-19-1.65892E-19
 -1      4204 7.50252E-05-1.78313E-05-2.45718E-05-2.39818E-06 7.57433E-20-2.25984E-18
 -1      4205 9.68431E-05-2.77979E-05-2.95875E-05 5.68237E-08 4.10529E-19-2.78512E-19
 -1      4206 9.69089E-05-2.82098E-05-2.94466E-05 1.61230E-07 3.08841E-19-1.15456E-19
 -1      4207 9.63184E-05-2.62324E-05-3.00265E-05 2.30291E-07 3.49680E-19 1.17102E-19
 -1      4208 9.69497E-05-2.85408E-05-2.93170E-05 1.86118E-07 4.28754E-19 1.44070E-19
 -1      4209 9.69465E-05-2.88005E-05-2.92062E-05 2.46672E-07 5.40596E-19 2.78775E-19
 -1      4210 9.69589E-05-2.83338E-05-2.94098E-05 9.28117E-08 6.24942E-19-2.69179E-19
 -1      4211 9.22969E-05-2.53207E-05-2.87049E-05-1.50250E-06-5.90158E-20-7.52367E-19
 -1      4212 9.26442E-05-2.56390E-05-2.87244E-05-1.30592E-06 2.25302E-19-2.86166E-19
 -1      4213 9.26558E-05-2.56248E-05-2.87133E-05-9.13467E-07 1.87939E-19-3.15439E-19
 -1      4214 9.18231E-05-2.49144E-05-2.86566E-05-1.20041E-06-5.82336E-19-1.66655E-19
 -1      4215 9.69145E-05-2.89946E-05-2.91074E-05 2.52848E-07 5.06903E-19 4.40074E-19
 -1      4216 9.68609E-05-2.91358E-05-2.90244E-05 2.87473E-07 4.31971E-19 5.79192E-19
 -1      4217 9.68686E-05-2.91883E-05-2.90084E-05 1.57891E-07 3.39673E-19 3.20646E-19
 -1      4218 9.69699E-05-2.88830E-05-2.91821E-05 1.32555E-07 6.78186E-19 1.95517E-19
 -1      4219 9.66979E-05-2.75594E-05-2.96245E-05-6.85500E-08 6.02357E-19 2.05010E-19
 -1      4220 9.65421E-05-2.70199E-05-2.98022E-05 1.19246E-07 4.89101E-19 1.58299E-19
 -1      4221 9.65249E-05-2.67546E-05-2.99039E-05 7.33187E-08 4.09844E-19-1.05188E-20
 -1      4222 9.67788E-05-2.79530E-05-2.94993E-05-1.70064E-07 5.26699E-19 1.74225E-19
 -1      4223 9.50699E-05-2.81133E-05-2.86940E-05-2.80382E-07 6.67877E-21-4.11020E-19
 -1      4224 9.51605E-05-2.82227E-05-2.86871E-05-3.80890E-07 2.90476E-20-3.51030E-19
 -1      4225 9.52813E-05-2.83684E-05-2.86782E-05-3.53863E-07 3.78330E-20-4.28155E-19
 -1      4226 9.58630E-05-2.89622E-05-2.86705E-05-3.35435E-07-1.83439E-19-6.39216E-19
 -1      4227 9.59640E-05-2.90488E-05-2.86776E-05-3.41661E-07-2.70081E-19-3.29175E-19
 -1      4228 9.62637E-05-2.92357E-05-2.87295E-05-5.03978E-07-3.52771E-19 1.19714E-19
 -1      4229 9.62152E-05-2.92096E-05-2.87155E-05-6.09587E-07-1.41669E-19-1.45128E-19
 -1      4230 9.62959E-05-2.92229E-05-2.87442E-05-6.23859E-07-2.03343E-20-2.48979E-19
 -1      4231 9.56438E-05-2.87548E-05-2.86656E-05-3.29867E-07-5.03935E-19-4.18708E-19
 -1      4232 9.57471E-05-2.88611E-05-2.86656E-05-3.28159E-07-1.63899E-19-5.05644E-19
 -1      4233 9.58333E-05-2.89241E-05-2.86775E-05-2.35952E-07-2.34848E-19-7.88691E-20
 -1      4234 9.45333E-05-2.75036E-05-2.87270E-05-5.52074E-07 9.56535E-20-4.79231E-19
 -1      4235 9.46977E-05-2.76999E-05-2.87160E-05-4.86679E-07 2.35303E-19-5.11375E-19
 -1      4236 9.47491E-05-2.77479E-05-2.87114E-05-3.35025E-07 1.62035E-19-2.79977E-19
 -1      4237 9.39062E-05-2.68308E-05-2.87387E-05-5.35777E-07 5.62123E-19-3.38519E-19
 -1      4238 9.41249E-05-2.70566E-05-2.87439E-05-6.99134E-07 5.56977E-19-3.69320E-20
 -1      4239 9.43232E-05-2.72832E-05-2.87350E-05-6.08922E-07 3.74682E-19-1.94289E-19
 -1      4240 9.65367E-05-2.67233E-05-2.99268E-05 4.14901E-08 4.47939E-19-8.99691E-20
 -1      4241 9.65534E-05-2.67355E-05-2.99260E-05-3.62899E-08 3.89575E-19-1.78173E-19
 -1      4242 9.67654E-05-2.73973E-05-2.97198E-05-1.03689E-08 5.10179E-19-3.66929E-20
 -1      4243 9.63881E-05-2.92210E-05-2.87852E-05-6.42275E-07 5.97956E-20-4.59578E-19
 -1      4244 9.64618E-05-2.91893E-05-2.88297E-05-6.42574E-07 9.76473E-20-4.25958E-19
 -1      4245 9.64529E-05-2.92623E-05-2.87989E-05-5.26548E-07-5.84662E-20-3.69541E-19
 -1      4246 9.68532E-05-2.76929E-05-2.96400E-05 2.86284E-08 5.12919E-19-2.12006E-19
 -1      4247 9.66475E-05-2.70776E-05-2.98163E-05-1.90704E-08 4.27834E-19-2.80218E-19
 -1      4248 9.66185E-05-2.91882E-05-2.89008E-05-5.26245E-07 2.99585E-19-2.75101E-19
 -1      4249 9.68196E-05-2.90729E-05-2.90342E-05-3.92170E-07 6.86335E-19-1.79831E-19
 -1      4250 9.68716E-05-2.89191E-05-2.91198E-05-3.45335E-07 7.25874E-19-1.04912E-19
 -1      4251 9.60617E-05-2.91093E-05-2.86966E-05-2.45513E-07-2.10330E-19-9.59755E-20
 -1      4252 9.60789E-05-2.91299E-05-2.86910E-05-3.54240E-07-3.21047E-19-4.44763E-19
 -1      4253 9.61840E-05-2.91963E-05-2.87074E-05-3.66935E-07-4.45134E-19-4.61163E-19
 -1      4254 7.75112E-05-1.84091E-05-2.53485E-05-2.21375E-06 3.79893E-19-1.90132E-18
 -1      4255 7.65508E-05-1.84739E-05-2.48111E-05-4.97556E-06-2.29220E-19-2.10378E-18
 -1      4256 7.89406E-05-2.01066E-05-2.52432E-05-7.11645E-06 1.73495E-19-1.60848E-18
 -1      4257 7.94529E-05-1.90316E-05-2.59509E-05-2.53009E-06 2.39790E-19-1.49509E-18
 -1      4258 8.45275E-05-2.80111E-05-2.42060E-05-1.70763E-05-2.93341E-19-3.31295E-18
 -1      4259 9.68853E-05-2.87420E-05-2.92078E-05-3.43778E-07 8.53976E-19 1.48138E-21
 -1      4260 9.68791E-05-2.85027E-05-2.93004E-05-2.83333E-07 7.67811E-19 8.82875E-20
 -1      4261 9.69396E-05-2.88436E-05-2.91888E-05-2.42769E-07 9.12711E-19 5.24771E-20
 -1      4262 9.54131E-05-2.85091E-05-2.86723E-05-3.43231E-07-2.34159E-19-3.80139E-19
 -1      4263 9.55225E-05-2.86343E-05-2.86670E-05-3.30447E-07-6.37238E-19-5.05750E-19
 -1      4264 9.53479E-05-2.84273E-05-2.86800E-05-2.48659E-07-5.76807E-20-4.02839E-19
 -1      4265 9.55984E-05-2.86964E-05-2.86733E-05-2.35285E-07-4.66944E-19-5.07404E-20
 -1      4266 9.31622E-05-2.61451E-05-2.87302E-05-2.39624E-07 1.94991E-20 2.81467E-19
 -1      4267 9.34812E-05-2.64461E-05-2.87361E-05-1.64775E-07-1.17214E-19 1.64948E-20
 -1      4268 9.67673E-05-2.93073E-05-2.89102E-05 3.34441E-08-1.70988E-19 6.60178E-19
 -1      4269 9.66684E-05-2.93364E-05-2.88551E-05 3.67474E-08-1.23869E-19 4.60119E-19
 -1      4270 9.65619E-05-2.93360E-05-2.88102E-05 2.85171E-08-1.59114E-20 4.10210E-19
 -1      4271 9.64578E-05-2.93140E-05-2.87738E-05 2.97310E-08 2.38041E-19 5.12976E-19
 -1      4272 9.66106E-05-2.93357E-05-2.88350E-05-1.02234E-07-6.87490E-20 5.10130E-19
 -1      4273 9.62958E-05-2.92450E-05-2.87352E-05-5.34410E-08 2.77399E-20 3.17429E-19
 -1      4274 9.61827E-05-2.91803E-05-2.87134E-05-4.99445E-08-1.94107E-19 2.43261E-19
 -1      4275 9.60696E-05-2.91022E-05-2.86988E-05-4.86689E-08-1.97426E-19 2.02189E-19
 -1      4276 9.59506E-05-2.90119E-05-2.86865E-05-4.75942E-08-2.00237E-19 2.53733E-19
 -1      4277 9.58333E-05-2.89096E-05-2.86804E-05-4.77626E-08-3.10193E-19 2.31533E-19
 -1      4278 9.57101E-05-2.87972E-05-2.86761E-05-4.65317E-08-2.67934E-19 1.57496E-19
 -1      4279 9.55870E-05-2.86742E-05-2.86765E-05-5.05467E-08-1.71920E-19-2.07805E-19
 -1      4280 9.54563E-05-2.85403E-05-2.86782E-05-4.79781E-08-9.83544E-21-2.68193E-19
 -1      4281 9.53223E-05-2.83962E-05-2.86832E-05-5.78135E-08 1.72746E-19-4.06247E-19
 -1      4282 9.51782E-05-2.82393E-05-2.86890E-05-5.35259E-08 2.43243E-19-6.39601E-19
 -1      4283 9.50266E-05-2.80717E-05-2.86967E-05-7.10275E-08 2.00886E-19-6.74339E-19
 -1      4284 9.48612E-05-2.78881E-05-2.87046E-05-6.49869E-08 3.27358E-19-7.29073E-19
 -1      4285 9.46834E-05-2.76931E-05-2.87132E-05-9.22181E-08 4.68774E-19-8.49797E-19
 -1      4286 9.44871E-05-2.74783E-05-2.87212E-05-8.47913E-08-2.92930E-20-8.40982E-19
 -1      4287 9.42734E-05-2.72517E-05-2.87282E-05-1.24274E-07 3.34293E-20-8.70815E-19
 -1      4288 9.40349E-05-2.70006E-05-2.87338E-05-1.16389E-07-1.13413E-19-7.96426E-19
 -1      4289 9.37744E-05-2.67382E-05-2.87363E-05-1.71379E-07-2.30742E-19-1.50698E-19
 -1      4290 9.28001E-05-2.58087E-05-2.87199E-05-2.37198E-07 2.96228E-19 1.58488E-19
 -1      4291 9.24105E-05-2.54686E-05-2.87006E-05-3.37894E-07-1.31100E-19 2.89813E-19
 -1      4292 9.19641E-05-2.50867E-05-2.86743E-05-3.44148E-07-5.72017E-19 4.05794E-20
 -1      4293 9.14918E-05-2.47109E-05-2.86348E-05-4.79114E-07-8.71113E-19 3.20824E-19
 -1      4294 9.09438E-05-2.42857E-05-2.85846E-05-5.00716E-07-6.24999E-19 1.00221E-19
 -1      4295 9.03767E-05-2.38824E-05-2.85159E-05-6.82050E-07-5.63374E-19-3.25736E-19
 -1      4296 8.97071E-05-2.34201E-05-2.84313E-05-7.28523E-07-6.22524E-19-4.69461E-19
 -1      4297 8.90335E-05-2.30037E-05-2.83217E-05-9.73877E-07-1.38242E-19-7.06292E-19
 -1      4298 8.82178E-05-2.25151E-05-2.81886E-05-1.05860E-06-1.68489E-19-5.91180E-19
 -1      4299 8.74252E-05-2.21072E-05-2.80230E-05-1.39379E-06-5.90208E-19-5.30158E-19
 -1      4300 8.64310E-05-2.16067E-05-2.78226E-05-1.53602E-06-6.46826E-19-1.17371E-18
 -1      4301 8.55062E-05-2.12355E-05-2.75813E-05-1.99701E-06-3.85679E-19-1.20884E-18
 -1      4302 8.42905E-05-2.07405E-05-2.72879E-05-2.22784E-06 4.61084E-19-1.38236E-18
 -1      4303 8.32202E-05-2.04296E-05-2.69452E-05-2.85149E-06 7.90802E-19-1.76891E-18
 -1      4304 8.17925E-05-1.99611E-05-2.65339E-05-3.23894E-06 6.32203E-19-1.88067E-18
 -1      4305 9.65523E-05-2.68601E-05-2.98708E-05-5.52023E-08 3.28615E-19-3.38064E-19
 -1      4306 9.68754E-05-2.78290E-05-2.95907E-05-1.81946E-08 5.78867E-19-7.82399E-21
 -1      4307 9.69560E-05-2.81312E-05-2.94952E-05-9.03170E-09 5.98762E-19-2.97559E-19
 -1      4308 9.66804E-05-2.92513E-05-2.88968E-05-4.04585E-07 3.44793E-19-2.03189E-19
 -1      4309 9.67583E-05-2.91856E-05-2.89575E-05-3.91572E-07 6.67827E-19-1.40484E-19
 -1      4310 9.68574E-05-2.91382E-05-2.90260E-05-2.75717E-07 7.77795E-19-5.29574E-20
 -1      4311 9.70059E-05-2.84941E-05-2.93640E-05 2.69518E-08 6.78052E-19-1.79185E-19
 -1      4312 9.65630E-05-2.69709E-05-2.98297E-05-6.69459E-08 3.35515E-19-4.23466E-19
 -1      4313 9.63522E-05-2.92696E-05-2.87489E-05-2.96753E-07-3.53448E-19 7.07136E-20
 -1      4314 9.64544E-05-2.92989E-05-2.87789E-05-3.03087E-07-1.62451E-19 1.21545E-19
 -1      4315 9.63377E-05-2.92632E-05-2.87491E-05-1.74187E-07-6.58585E-20 2.84770E-19
 -1      4316 9.68717E-05-2.78921E-05-2.95646E-05-6.28738E-08 5.98612E-19 3.33371E-20
 -1      4317 8.13300E-05-2.01165E-05-2.62012E-05-5.17892E-06-9.02036E-20-2.67067E-18
 -1      4318 9.69920E-05-2.88579E-05-2.91985E-05-6.11248E-08 8.93241E-19 4.93799E-20
 -1      4319 9.69588E-05-2.90489E-05-2.91021E-05-4.12313E-08 9.03782E-19 1.15232E-19
 -1      4320 9.68969E-05-2.91758E-05-2.90223E-05-6.30262E-08 5.11175E-19 2.33930E-19
 -1      4321 9.68160E-05-2.92647E-05-2.89489E-05-5.44357E-08 9.22984E-20 3.84438E-19
 -1      4322 9.43678E-05-2.73230E-05-2.87280E-05-4.17938E-07 1.01839E-19-5.60982E-19
 -1      4323 9.65627E-05-2.93077E-05-2.88223E-05-3.13352E-07-9.92448E-20 2.00805E-19
 -1      4324 9.66518E-05-2.92912E-05-2.88670E-05-3.14363E-07 2.44529E-20 6.75118E-20
 -1      4325 9.67595E-05-2.92924E-05-2.89174E-05-1.98448E-07 1.30982E-19 5.06385E-19
 -1      4326 9.68585E-05-2.80827E-05-2.94752E-05-1.41039E-07 6.93243E-19 1.62026E-20
 -1      4327 9.69645E-05-2.86752E-05-2.92668E-05-1.51921E-07 8.66419E-19 8.13322E-20
 -1      4328 8.02613E-05-2.01473E-05-2.57822E-05-6.05458E-06 1.42322E-19-2.14614E-18
 -1      4329 9.69708E-05-2.84627E-05-2.93582E-05-1.44069E-07 7.09309E-19 2.06241E-19
 -3
    1PSTEP                         4           1           1          
  100CL  101 1.000000000        4329                     0    1           1
 -4  ERROR       1    1
 -5  STR(%)      1    1    0    0
 -1         1 3.08355E+01
 -1         2 2.60133E+01
 -1         3 9.05032E-02
 -1         4 1.91751E-01
 -1         5 1.40397E+01
 -1         6 1.31440E+01
 -1         7 1.31440E+01
 -1         8 3.66366E+00
 -1         9 1.82364E+00
 -1        10 1.29201E+00
 -1        11 1.04578E+00
 -1        12 8.99276E-01
 -1        13 8.08941E-01
 -1        14 7.54075E-01
 -1        15 7.56009E-01
 -1        16 8.13210E-01
 -1        17 9.00832E-01
 -1        18 1.05254E+00
 -1        19 1.30766E+00
 -1        20 1.83563E+00
 -1        21 3.50551E+00
 -1        22 8.64182E+00
 -1        23 1.31440E+01
 -1        24 4.31822E+00
 -1        25 3.34120E+00
 -1        26 2.11180E+00
 -1        27 1.36353E+00
 -1        28 1.01462E+00
 -1        29 7.75742E-01
 -1        30 5.96185E-01
 -1        31 4.56433E-01
 -1        32 3.49465E-01
 -1        33 2.71393E-01
 -1        34 2.09048E-01
 -1        35 1.60421E-01
 -1        36 1.23589E-01
 -1        37 9.68017E-02
 -1        38 7.85153E-02
 -1        39 6.73919E-02
 -1        40 6.90422E-02
 -1        41 7.95437E-02
 -1        42 9.41697E-02
 -1        43 1.18967E-01
 -1        44 1.59787E-01
 -1        45 2.13416E-01
 -1        46 2.81265E-01
 -1        47 3.63939E-01
 -1        48 4.60313E-01
 -1        49 5.66081E-01
 -1        50 6.72948E-01
 -1        51 8.86543E-01
 -1        52 1.11847E+00
 -1        53 1.40856E+00
 -1        54 1.68145E+00
 -1        55 1.81053E+00
 -1        56 1.81053E+00
 -1        57 1.82302E+00
 -1        58 2.09872E+00
 -1        59 3.04278E+00
 -1        60 5.01477E+00
 -1        61 5.51446E+00
 -1        62 5.51446E+00
 -1        63 5.35048E+00
 -1        64 4.05803E+00
 -1        65 2.02410E+00
 -1        66 1.24701E+00
 -1        67 1.29760E+00
 -1        68 1.29760E+00
 -1        69 1.14748E+00
 -1        70 1.13782E+00
 -1        71 9.33146E-01
 -1        72 1.40397E+01
 -1        73 3.39493E+00
 -1        74 2.41343E+00
 -1        75 1.66631E+00
 -1        76 1.14531E+00
 -1        77 9.06016E-01
 -1        78 7.31479E-01
 -1        79 5.88254E-01
 -1        80 4.69071E-01
 -1        81 3.70148E-01
 -1        82 2.96409E-01
 -1        83 2.35600E-01
 -1        84 1.85953E-01
 -1        85 1.46777E-01
 -1        86 1.17201E-01
 -1        87 9.63345E-02
 -1        88 8.33527E-02
 -1        89 8.43513E-02
 -1        90 9.69877E-02
 -1        91 1.15745E-01
 -1        92 1.39795E-01
 -1        93 1.67798E-01
 -1        94 1.97705E-01
 -1        95 2.52659E-01
 -1        96 3.14782E-01
 -1        97 3.79894E-01
 -1        98 4.40483E-01
 -1        99 4.84585E-01
 -1       100 4.97878E-01
 -1       101 6.05212E-01
 -1       102 7.69372E-01
 -1       103 8.92754E-01
 -1       104 1.04994E+00
 -1       105 1.30501E+00
 -1       106 1.32929E+00
 -1       107 1.65725E+00
 -1       108 1.87279E+00
 -1       109 2.76927E+00
 -1       110 3.17057E+00
 -1       111 3.39801E+00
 -1       112 3.39801E+00
 -1       113 3.11891E+00
 -1       114 2.17050E+00
 -1       115 1.23521E+00
 -1       116 5.32558E-01
 -1       117 4.65593E-01
 -1       118 4.66044E-01
 -1       119 4.66044E-01
 -1       120 3.12062E-01
 -1       121 2.00961E-01
 -1       122 2.47188E-01
 -1       123 2.74171E-01
 -1       124 2.74171E-01
 -1       125 2.62389E-01
 -1       126 1.74489E-01
 -1       127 2.95626E-01
 -1       128 4.94233E-01
 -1       129 5.33614E-01
 -1       130 5.33614E-01
 -1       131 3.93978E-01
 -1       132 1.59498E-01
 -1       133 2.62870E-01
 -1       134 3.46177E-01
 -1       135 5.45685E-01
 -1       136 6.14782E-01
 -1       137 2.60133E+01
 -1       138 4.58714E+01
 -1       139 4.58714E+01
 -1       140 1.76453E+01
 -1       141 1.27434E+01
 -1       142 1.33439E+01
 -1       143 1.33439E+01
 -1       144 1.23544E+01
 -1       145 1.23544E+01
 -1       146 1.52334E+01
 -1       147 4.07546E+01
 -1       148 4.07546E+01
 -1       149 2.48522E+01
 -1       150 2.54557E+01
 -1       151 2.54809E+01
 -1       152 2.92746E+01
 -1       153 2.92746E+01
 -1       154 2.64507E+01
 -1       155 1.21769E+01
 -1       156 1.21769E+01
 -1       157 1.20880E+01
 -1       158 1.25253E+01
 -1       159 1.25253E+01
 -1       160 1.25144E+01
 -1       161 2.90119E+01
 -1       162 2.73578E+01
 -1       163 2.40827E+01
 -1       164 6.07797E+00
 -1       165 2.29796E+00
 -1       166 1.50841E+00
 -1       167 1.15754E+00
 -1       168 9.73124E-01
 -1       169 8.64172E-01
 -1       170 7.96206E-01
 -1       171 7.56009E-01
 -1       172 7.99575E-01
 -1       173 8.67282E-01
 -1       174 9.80988E-01
 -1       175 1.17241E+00
 -1       176 1.52744E+00
 -1       177 2.26069E+00
 -1       178 3.93120E+00
 -1       179 1.40397E+01
 -1       180 4.31822E+00
 -1       181 3.34120E+00
 -1       182 2.11180E+00
 -1       183 1.44797E+00
 -1       184 1.02653E+00
 -1       185 7.75742E-01
 -1       186 5.96185E-01
 -1       187 4.69213E-01
 -1       188 3.69709E-01
 -1       189 2.92103E-01
 -1       190 2.36083E-01
 -1       191 1.88824E-01
 -1       192 1.50158E-01
 -1       193 1.19441E-01
 -1       194 9.57897E-02
 -1       195 7.82037E-02
 -1       196 6.56265E-02
 -1       197 6.90422E-02
 -1       198 7.95437E-02
 -1       199 9.92945E-02
 -1       200 1.29992E-01
 -1       201 1.70275E-01
 -1       202 2.21141E-01
 -1       203 2.83035E-01
 -1       204 3.76347E-01
 -1       205 5.09689E-01
 -1       206 6.68076E-01
 -1       207 8.43998E-01
 -1       208 1.01962E+00
 -1       209 1.17643E+00
 -1       210 1.40856E+00
 -1       211 1.68145E+00
 -1       212 1.81053E+00
 -1       213 1.80649E+00
 -1       214 1.82302E+00
 -1       215 2.09872E+00
 -1       216 3.12252E+00
 -1       217 5.01477E+00
 -1       218 5.51446E+00
 -1       219 5.35048E+00
 -1       220 4.05803E+00
 -1       221 2.49697E+00
 -1       222 1.30555E+00
 -1       223 1.12864E+00
 -1       224 1.29760E+00
 -1       225 1.14748E+00
 -1       226 1.13782E+00
 -1       227 9.33146E-01
 -1       228 3.39493E+00
 -1       229 2.41343E+00
 -1       230 1.66631E+00
 -1       231 1.14531E+00
 -1       232 9.06016E-01
 -1       233 7.31479E-01
 -1       234 5.88254E-01
 -1       235 4.69071E-01
 -1       236 3.70148E-01
 -1       237 2.96409E-01
 -1       238 2.35600E-01
 -1       239 1.88382E-01
 -1       240 1.50767E-01
 -1       241 1.21320E-01
 -1       242 9.94395E-02
 -1       243 8.44499E-02
 -1       244 7.90529E-02
 -1       245 8.64138E-02
 -1       246 9.85963E-02
 -1       247 1.15745E-01
 -1       248 1.39795E-01
 -1       249 1.77680E-01
 -1       250 2.23262E-01
 -1       251 2.73877E-01
 -1       252 3.25820E-01
 -1       253 3.79894E-01
 -1       254 4.40483E-01
 -1       255 4.84585E-01
 -1       256 5.28578E-01
 -1       257 6.38158E-01
 -1       258 7.69372E-01
 -1       259 8.92754E-01
 -1       260 1.04994E+00
 -1       261 1.30501E+00
 -1       262 1.32929E+00
 -1       263 1.65725E+00
 -1       264 2.01591E+00
 -1       265 2.76927E+00
 -1       266 3.17057E+00
 -1       267 3.39801E+00
 -1       268 3.11891E+00
 -1       269 2.17050E+00
 -1       270 1.33551E+00
 -1       271 6.39041E-01
 -1       272 4.18556E-01
 -1       273 4.65593E-01
 -1       274 4.66044E-01
 -1       275 3.22320E-01
 -1       276 3.34882E-01
 -1       277 4.53785E-01
 -1       278 5.09110E-01
 -1       279 5.09110E-01
 -1       280 4.85710E-01
 -1       281 4.64409E-01
 -1       282 8.73534E-01
 -1       283 1.05197E+00
 -1       284 1.05197E+00
 -1       285 9.94381E-01
 -1       286 6.45843E-01
 -1       287 4.52622E-01
 -1       288 5.81919E-01
 -1       289 5.81919E-01
 -1       290 6.40925E-01
 -1       291 2.93689E+01
 -1       292 2.56430E+01
 -1       293 4.58714E+01
 -1       294 2.03346E+01
 -1       295 1.11645E+01
 -1       296 1.27434E+01
 -1       297 1.33439E+01
 -1       298 1.21405E+01
 -1       299 1.23544E+01
 -1       300 1.10739E+01
 -1       301 1.52334E+01
 -1       302 4.07546E+01
 -1       303 3.58152E+01
 -1       304 2.91709E+01
 -1       305 2.91709E+01
 -1       306 3.26334E+01
 -1       307 3.26334E+01
 -1       308 2.85031E+01
 -1       309 1.20802E+01
 -1       310 1.21769E+01
 -1       311 1.20880E+01
 -1       312 1.15389E+01
 -1       313 1.25253E+01
 -1       314 1.17548E+01
 -1       315 1.25144E+01
 -1       316 3.08355E+01
 -1       317 3.08355E+01
 -1       318 2.40827E+01
 -1       319 2.93689E+01
 -1       320 1.04627E+00
 -1       321 2.47999E+00
 -1       322 7.91206E-01
 -1       323 6.94021E-01
 -1       324 6.31793E-01
 -1       325 5.87700E-01
 -1       326 5.90933E-01
 -1       327 6.34557E-01
 -1       328 7.01226E-01
 -1       329 7.96368E-01
 -1       330 9.31739E-01
 -1       331 1.15997E+00
 -1       332 1.32899E+00
 -1       333 2.20099E+00
 -1       334 1.91456E+00
 -1       335 1.72961E+00
 -1       336 1.26823E+00
 -1       337 9.07692E-01
 -1       338 6.57118E-01
 -1       339 5.39334E-01
 -1       340 4.42534E-01
 -1       341 3.57454E-01
 -1       342 2.92397E-01
 -1       343 2.37776E-01
 -1       344 1.91087E-01
 -1       345 1.55241E-01
 -1       346 1.26426E-01
 -1       347 1.02247E-01
 -1       348 8.23392E-02
 -1       349 6.60328E-02
 -1       350 6.02662E-02
 -1       351 6.19287E-02
 -1       352 7.69960E-02
 -1       353 9.92945E-02
 -1       354 1.29992E-01
 -1       355 1.84550E-01
 -1       356 2.59413E-01
 -1       357 3.54484E-01
 -1       358 4.71752E-01
 -1       359 6.10868E-01
 -1       360 7.67039E-01
 -1       361 9.28047E-01
 -1       362 1.07075E+00
 -1       363 1.19122E+00
 -1       364 1.33427E+00
 -1       365 1.38113E+00
 -1       366 1.27900E+00
 -1       367 1.24111E+00
 -1       368 1.35923E+00
 -1       369 2.08991E+00
 -1       370 2.80225E+00
 -1       371 3.28919E+00
 -1       372 3.16466E+00
 -1       373 3.04968E+00
 -1       374 2.42952E+00
 -1       375 1.96404E+00
 -1       376 1.38783E+00
 -1       377 1.22338E+00
 -1       378 9.86354E-01
 -1       379 8.21267E-01
 -1       380 8.54837E-01
 -1       381 1.13077E+00
 -1       382 8.91897E-01
 -1       383 7.04560E-01
 -1       384 5.45990E-01
 -1       385 4.38604E-01
 -1       386 3.72413E-01
 -1       387 3.09070E-01
 -1       388 2.53862E-01
 -1       389 2.09044E-01
 -1       390 1.69928E-01
 -1       391 1.36971E-01
 -1       392 1.11558E-01
 -1       393 9.23053E-02
 -1       394 7.86331E-02
 -1       395 7.01158E-02
 -1       396 7.10322E-02
 -1       397 7.68665E-02
 -1       398 9.25580E-02
 -1       399 1.17409E-01
 -1       400 1.48039E-01
 -1       401 2.06520E-01
 -1       402 2.78255E-01
 -1       403 3.61894E-01
 -1       404 4.53570E-01
 -1       405 5.45187E-01
 -1       406 6.22955E-01
 -1       407 6.98243E-01
 -1       408 7.29936E-01
 -1       409 7.29936E-01
 -1       410 6.76875E-01
 -1       411 5.44765E-01
 -1       412 6.19001E-01
 -1       413 1.02174E+00
 -1       414 1.62683E+00
 -1       415 1.98044E+00
 -1       416 1.98044E+00
 -1       417 1.97041E+00
 -1       418 1.92962E+00
 -1       419 1.99508E+00
 -1       420 1.64413E+00
 -1       421 1.20250E+00
 -1       422 9.57374E-01
 -1       423 7.15184E-01
 -1       424 5.98996E-01
 -1       425 5.08526E-01
 -1       426 3.19277E-01
 -1       427 7.12525E-01
 -1       428 6.48331E-01
 -1       429 5.08526E-01
 -1       430 7.12525E-01
 -1       431 7.69563E-01
 -1       432 1.09143E+00
 -1       433 1.60340E+00
 -1       434 1.62059E+00
 -1       435 1.62059E+00
 -1       436 1.38002E+00
 -1       437 8.15104E-01
 -1       438 7.43349E-01
 -1       439 8.54837E-01
 -1       440 2.56430E+01
 -1       441 3.01024E+01
 -1       442 3.01024E+01
 -1       443 1.51202E+01
 -1       444 8.19527E+00
 -1       445 9.19738E-01
 -1       446 9.19668E+00
 -1       447 1.13569E+01
 -1       448 1.10048E+01
 -1       449 8.20587E+00
 -1       450 7.69010E+00
 -1       451 1.32002E+01
 -1       452 2.30975E+01
 -1       453 2.51934E+01
 -1       454 3.39480E+01
 -1       455 3.39480E+01
 -1       456 3.26334E+01
 -1       457 1.94375E+01
 -1       458 1.06920E+01
 -1       459 7.57778E+00
 -1       460 9.66869E+00
 -1       461 1.06953E+01
 -1       462 1.11814E+01
 -1       463 8.95265E+00
 -1       464 7.25911E+00
 -1       465 1.14040E+01
 -1       466 2.00061E+01
 -1       467 2.36333E+01
 -1       468 2.68838E+01
 -1       469 8.12124E+00
 -1       470 7.52984E+00
 -1       471 2.13275E+01
 -1       472 1.30095E+01
 -1       473 9.67582E+00
 -1       474 5.08439E+00
 -1       475 1.04831E+00
 -1       476 4.86225E-01
 -1       477 5.09778E-01
 -1       478 4.31724E-01
 -1       479 4.57579E-01
 -1       480 4.87087E-01
 -1       481 5.11192E-01
 -1       482 5.11192E-01
 -1       483 6.08715E-01
 -1       484 8.91897E-01
 -1       485 8.03623E-01
 -1       486 5.36081E+00
 -1       487 7.05512E-01
 -1       488 5.89831E-01
 -1       489 4.77582E-01
 -1       490 3.79109E-01
 -1       491 3.24345E-01
 -1       492 2.74757E-01
 -1       493 2.27982E-01
 -1       494 1.89303E-01
 -1       495 1.56032E-01
 -1       496 1.27032E-01
 -1       497 1.02457E-01
 -1       498 8.23392E-02
 -1       499 6.60328E-02
 -1       500 5.46729E-02
 -1       501 4.92235E-02
 -1       502 5.90788E-02
 -1       503 7.35923E-02
 -1       504 1.12106E-01
 -1       505 1.62136E-01
 -1       506 2.26130E-01
 -1       507 3.06966E-01
 -1       508 4.07217E-01
 -1       509 5.28532E-01
 -1       510 6.70601E-01
 -1       511 8.29556E-01
 -1       512 9.95702E-01
 -1       513 1.15071E+00
 -1       514 1.26509E+00
 -1       515 1.48316E+00
 -1       516 1.72435E+00
 -1       517 1.88869E+00
 -1       518 2.21615E+00
 -1       519 2.72238E+00
 -1       520 2.20943E+00
 -1       521 4.22789E+00
 -1       522 4.72847E+00
 -1       523 7.08811E+00
 -1       524 5.31910E+00
 -1       525 3.14556E+00
 -1       526 2.58099E+00
 -1       527 1.87534E+00
 -1       528 1.26419E+00
 -1       529 9.86354E-01
 -1       530 5.45990E-01
 -1       531 4.38604E-01
 -1       532 3.72413E-01
 -1       533 3.09070E-01
 -1       534 2.53862E-01
 -1       535 2.09535E-01
 -1       536 1.70882E-01
 -1       537 1.37966E-01
 -1       538 1.11168E-01
 -1       539 8.98996E-02
 -1       540 7.15922E-02
 -1       541 5.88124E-02
 -1       542 5.18646E-02
 -1       543 5.95819E-02
 -1       544 7.34085E-02
 -1       545 9.52825E-02
 -1       546 1.37720E-01
 -1       547 1.90374E-01
 -1       548 2.54112E-01
 -1       549 3.28604E-01
 -1       550 4.11518E-01
 -1       551 4.97480E-01
 -1       552 5.76915E-01
 -1       553 6.47585E-01
 -1       554 6.98243E-01
 -1       555 7.41384E-01
 -1       556 7.42758E-01
 -1       557 6.77371E-01
 -1       558 8.06902E-01
 -1       559 9.41762E-01
 -1       560 1.34715E+00
 -1       561 1.69952E+00
 -1       562 2.01434E+00
 -1       563 2.00858E+00
 -1       564 2.28366E+00
 -1       565 2.04933E+00
 -1       566 1.76894E+00
 -1       567 1.56099E+00
 -1       568 1.33816E+00
 -1       569 9.98802E-01
 -1       570 7.46382E-01
 -1       571 7.33271E-01
 -1       572 1.14460E+00
 -1       573 1.47394E+00
 -1       574 7.36750E-01
 -1       575 8.82853E-01
 -1       576 2.10228E+00
 -1       577 2.46999E+00
 -1       578 2.46999E+00
 -1       579 2.43007E+00
 -1       580 1.51738E+00
 -1       581 1.34165E+00
 -1       582 1.04524E+00
 -1       583 3.01024E+01
 -1       584 2.68838E+01
 -1       585 7.04560E-01
 -1       586 1.33061E+01
 -1       587 8.73983E-01
 -1       588 2.36333E+01
 -1       589 3.39480E+01
 -1       590 1.82620E+01
 -1       591 4.57460E-01
 -1       592 3.69888E+00
 -1       593 7.34100E+00
 -1       594 2.29198E+01
 -1       595 5.50075E+00
 -1       596 6.33387E+00
 -1       597 2.51934E+01
 -1       598 1.59304E+01
 -1       599 9.26237E+00
 -1       600 4.93004E+00
 -1       601 7.68297E+00
 -1       602 8.77557E+00
 -1       603 7.08811E+00
 -1       604 4.46355E+00
 -1       605 6.64510E+00
 -1       606 1.15048E+01
 -1       607 1.42851E+01
 -1       608 2.83458E+00
 -1       609 1.32830E+00
 -1       610 7.25499E-01
 -1       611 1.53750E+01
 -1       612 7.15998E+00
 -1       613 5.52319E+00
 -1       614 6.78760E+00
 -1       615 1.09536E+01
 -1       616 7.06978E+00
 -1       617 7.67328E+00
 -1       618 3.50567E+00
 -1       619 3.24307E+00
 -1       620 8.54837E-01
 -1       621 3.58554E-01
 -1       622 3.43011E-01
 -1       623 3.61797E-01
 -1       624 3.37852E-01
 -1       625 5.44166E-01
 -1       626 1.07215E+01
 -1       627 5.15915E-01
 -1       628 8.65494E+00
 -1       629 3.78181E+00
 -1       630 3.98861E-01
 -1       631 3.84522E-01
 -1       632 3.44232E-01
 -1       633 2.94841E-01
 -1       634 2.45370E-01
 -1       635 2.13972E-01
 -1       636 1.81525E-01
 -1       637 1.50445E-01
 -1       638 1.22800E-01
 -1       639 1.00178E-01
 -1       640 8.08615E-02
 -1       641 6.44189E-02
 -1       642 5.01278E-02
 -1       643 3.70226E-02
 -1       644 3.90223E-02
 -1       645 5.47682E-02
 -1       646 8.70092E-02
 -1       647 1.27502E-01
 -1       648 1.78612E-01
 -1       649 2.42978E-01
 -1       650 3.23493E-01
 -1       651 4.23302E-01
 -1       652 5.45787E-01
 -1       653 6.94637E-01
 -1       654 8.77651E-01
 -1       655 1.08679E+00
 -1       656 1.32870E+00
 -1       657 1.59200E+00
 -1       658 1.91873E+00
 -1       659 2.41450E+00
 -1       660 3.22741E+00
 -1       661 3.53114E+00
 -1       662 4.41066E+00
 -1       663 5.40824E+00
 -1       664 7.08811E+00
 -1       665 3.13380E+00
 -1       666 1.87534E+00
 -1       667 1.26525E+00
 -1       668 3.29049E-01
 -1       669 1.29779E+00
 -1       670 3.97448E-01
 -1       671 2.35386E-01
 -1       672 1.98656E-01
 -1       673 1.64727E-01
 -1       674 1.36333E-01
 -1       675 1.11421E-01
 -1       676 8.98996E-02
 -1       677 7.15922E-02
 -1       678 5.68073E-02
 -1       679 4.46450E-02
 -1       680 4.36166E-02
 -1       681 5.22654E-02
 -1       682 7.84150E-02
 -1       683 1.15277E-01
 -1       684 1.60706E-01
 -1       685 2.16040E-01
 -1       686 2.82073E-01
 -1       687 3.58612E-01
 -1       688 4.43828E-01
 -1       689 5.33416E-01
 -1       690 6.19590E-01
 -1       691 6.91389E-01
 -1       692 7.93890E-01
 -1       693 9.08107E-01
 -1       694 9.91142E-01
 -1       695 1.08637E+00
 -1       696 1.40710E+00
 -1       697 1.37065E+00
 -1       698 2.42229E+00
 -1       699 3.74543E+00
 -1       700 2.54169E+00
 -1       701 4.70571E+00
 -1       702 5.03986E+00
 -1       703 3.52367E+00
 -1       704 2.89530E+00
 -1       705 1.64081E+00
 -1       706 1.35854E+00
 -1       707 9.98802E-01
 -1       708 7.46382E-01
 -1       709 1.28743E+01
 -1       710 3.71291E+00
 -1       711 2.13136E+00
 -1       712 3.86978E+00
 -1       713 2.54758E+00
 -1       714 3.86978E+00
 -1       715 2.91640E+00
 -1       716 2.42202E+00
 -1       717 5.29441E+00
 -1       718 4.64081E-01
 -1       719 4.68373E+00
 -1       720 4.64846E-01
 -1       721 2.74408E-01
 -1       722 3.61797E-01
 -1       723 1.34283E+01
 -1       724 3.65383E-01
 -1       725 1.53507E+01
 -1       726 2.86299E+00
 -1       727 4.22789E+00
 -1       728 1.29559E+01
 -1       729 1.42404E+01
 -1       730 9.96951E+00
 -1       731 3.45850E+00
 -1       732 1.36639E+01
 -1       733 1.55570E+01
 -1       734 2.78350E+00
 -1       735 4.64081E-01
 -1       736 3.42472E-01
 -1       737 6.38078E+00
 -1       738 4.90048E+00
 -1       739 4.83501E+00
 -1       740 2.68670E+00
 -1       741 4.03609E+00
 -1       742 1.31053E+01
 -1       743 9.72231E-01
 -1       744 3.87752E+00
 -1       745 4.22984E+00
 -1       746 6.97286E+00
 -1       747 1.45579E+00
 -1       748 7.78220E+00
 -1       749 1.32169E+00
 -1       750 5.22840E+00
 -1       751 3.57888E-01
 -1       752 5.03986E+00
 -1       753 6.47629E+00
 -1       754 5.31910E+00
 -1       755 2.43071E-01
 -1       756 3.74543E+00
 -1       757 2.56760E-01
 -1       758 2.49616E-01
 -1       759 2.27831E-01
 -1       760 1.99518E-01
 -1       761 1.72725E-01
 -1       762 1.51426E-01
 -1       763 1.28843E-01
 -1       764 1.06767E-01
 -1       765 8.60855E-02
 -1       766 6.70299E-02
 -1       767 4.93596E-02
 -1       768 3.24829E-02
 -1       769 2.58915E-02
 -1       770 3.61989E-02
 -1       771 6.31647E-02
 -1       772 9.71892E-02
 -1       773 1.42677E-01
 -1       774 2.01617E-01
 -1       775 2.76719E-01
 -1       776 3.71319E-01
 -1       777 4.88633E-01
 -1       778 6.31128E-01
 -1       779 7.99243E-01
 -1       780 9.88507E-01
 -1       781 1.25319E+00
 -1       782 1.62748E+00
 -1       783 2.20454E+00
 -1       784 3.50895E+00
 -1       785 5.22836E+00
 -1       786 3.10347E+00
 -1       787 2.87579E-01
 -1       788 1.64104E-01
 -1       789 1.89845E-01
 -1       790 1.13446E-01
 -1       791 9.09237E-02
 -1       792 7.06067E-02
 -1       793 5.34714E-02
 -1       794 3.88685E-02
 -1       795 2.54087E-02
 -1       796 3.09414E-02
 -1       797 5.57442E-02
 -1       798 8.58103E-02
 -1       799 1.22724E-01
 -1       800 1.68166E-01
 -1       801 2.23850E-01
 -1       802 2.91440E-01
 -1       803 3.74931E-01
 -1       804 4.72997E-01
 -1       805 5.82801E-01
 -1       806 6.98033E-01
 -1       807 8.23234E-01
 -1       808 9.69295E-01
 -1       809 1.20649E+00
 -1       810 1.45864E+00
 -1       811 1.64648E+00
 -1       812 2.21983E+00
 -1       813 2.79055E+00
 -1       814 4.70571E+00
 -1       815 2.89530E+00
 -1       816 2.05930E+00
 -1       817 1.35854E+00
 -1       818 8.27392E-01
 -1       819 8.43396E+00
 -1       820 7.62288E+00
 -1       821 8.43396E+00
 -1       822 5.33006E+00
 -1       823 1.38080E-01
 -1       824 2.88879E-01
 -1       825 2.32374E-01
 -1       826 3.69418E+00
 -1       827 9.03666E+00
 -1       828 1.31053E+01
 -1       829 1.07335E+01
 -1       830 9.45030E+00
 -1       831 2.82761E-01
 -1       832 8.70117E+00
 -1       833 8.43396E+00
 -1       834 6.89923E+00
 -1       835 3.01777E+00
 -1       836 2.54837E-01
 -1       837 1.07335E+01
 -1       838 2.81913E-01
 -1       839 1.06063E+01
 -1       840 3.45850E+00
 -1       841 2.79430E-01
 -1       842 4.73368E+00
 -1       843 5.33074E+00
 -1       844 3.52367E+00
 -1       845 4.70770E+00
 -1       846 2.55118E-01
 -1       847 2.88879E-01
 -1       848 2.18487E-01
 -1       849 3.74543E+00
 -1       850 4.18857E+00
 -1       851 3.51377E+00
 -1       852 5.23800E+00
 -1       853 2.79055E+00
 -1       854 5.11897E+00
 -1       855 5.67633E+00
 -1       856 3.06251E-01
 -1       857 2.70431E-01
 -1       858 2.38698E+00
 -1       859 7.06495E+00
 -1       860 2.48749E+00
 -1       861 2.93241E-01
 -1       862 2.93241E-01
 -1       863 6.67237E+00
 -1       864 5.76434E+00
 -1       865 6.11413E-02
 -1       866 1.52899E-01
 -1       867 1.74847E-01
 -1       868 1.83250E-01
 -1       869 1.76039E-01
 -1       870 1.60267E-01
 -1       871 1.40418E-01
 -1       872 1.23770E-01
 -1       873 1.06953E-01
 -1       874 8.96395E-02
 -1       875 7.27811E-02
 -1       876 5.67460E-02
 -1       877 4.14585E-02
 -1       878 3.79098E-02
 -1       879 4.17669E-02
 -1       880 5.91590E-02
 -1       881 9.10001E-02
 -1       882 1.32250E-01
 -1       883 1.85024E-01
 -1       884 2.52378E-01
 -1       885 3.38000E-01
 -1       886 4.46441E-01
 -1       887 5.83469E-01
 -1       888 7.56601E-01
 -1       889 9.75904E-01
 -1       890 1.25319E+00
 -1       891 1.60151E+00
 -1       892 2.19433E+00
 -1       893 6.29388E+00
 -1       894 7.85691E-02
 -1       895 9.71054E-02
 -1       896 4.46904E-02
 -1       897 3.17546E-02
 -1       898 3.38291E-02
 -1       899 4.72853E-02
 -1       900 7.45816E-02
 -1       901 1.10032E-01
 -1       902 1.53834E-01
 -1       903 2.07309E-01
 -1       904 2.71335E-01
 -1       905 3.45922E-01
 -1       906 4.29498E-01
 -1       907 5.23674E-01
 -1       908 6.47485E-01
 -1       909 8.20543E-01
 -1       910 1.05644E+00
 -1       911 1.32611E+00
 -1       912 1.64612E+00
 -1       913 2.19944E+00
 -1       914 2.99217E+00
 -1       915 4.44106E+00
 -1       916 1.39446E-01
 -1       917 1.06063E+01
 -1       918 6.62021E+00
 -1       919 2.89723E-01
 -1       920 2.12240E+00
 -1       921 4.44106E+00
 -1       922 6.67237E+00
 -1       923 1.58642E+00
 -1       924 5.62571E+00
 -1       925 1.62840E-01
 -1       926 1.16421E-01
 -1       927 1.76694E-01
 -1       928 2.17624E-01
 -1       929 2.70279E+00
 -1       930 3.64781E+00
 -1       931 3.89845E+00
 -1       932 4.53073E+00
 -1       933 3.90985E+00
 -1       934 1.35592E-01
 -1       935 4.69022E+00
 -1       936 2.18314E-01
 -1       937 2.07972E-01
 -1       938 2.17624E-01
 -1       939 2.10306E-01
 -1       940 2.13143E-01
 -1       941 1.36334E-01
 -1       942 1.36624E-01
 -1       943 1.35890E-01
 -1       944 1.26954E-01
 -1       945 1.13434E-01
 -1       946 9.83593E-02
 -1       947 8.56354E-02
 -1       948 7.22503E-02
 -1       949 5.90576E-02
 -1       950 4.63882E-02
 -1       951 4.57647E-02
 -1       952 4.90943E-02
 -1       953 5.59674E-02
 -1       954 7.70673E-02
 -1       955 1.10746E-01
 -1       956 1.53767E-01
 -1       957 2.08645E-01
 -1       958 2.78575E-01
 -1       959 3.67874E-01
 -1       960 4.82807E-01
 -1       961 6.33072E-01
 -1       962 8.34437E-01
 -1       963 1.11515E+00
 -1       964 1.51789E+00
 -1       965 2.09839E+00
 -1       966 2.93437E+00
 -1       967 1.97440E-01
 -1       968 2.05398E-01
 -1       969 2.18314E-01
 -1       970 7.99547E-02
 -1       971 4.38776E-02
 -1       972 4.88467E-02
 -1       973 6.82379E-02
 -1       974 1.00036E-01
 -1       975 1.39925E-01
 -1       976 1.89677E-01
 -1       977 2.51151E-01
 -1       978 3.26214E-01
 -1       979 4.16614E-01
 -1       980 5.23674E-01
 -1       981 6.47338E-01
 -1       982 7.94032E-01
 -1       983 1.01897E+00
 -1       984 1.37833E+00
 -1       985 1.95618E+00
 -1       986 2.47219E+00
 -1       987 3.51517E+00
 -1       988 3.96970E+00
 -1       989 5.07878E-02
 -1       990 3.77072E+00
 -1       991 1.08701E-01
 -1       992 4.18656E-02
 -1       993 1.62691E-01
 -1       994 6.49913E-02
 -1       995 3.96970E+00
 -1       996 1.24023E-01
 -1       997 9.51162E-02
 -1       998 1.41166E-01
 -1       999 6.29388E+00
 -1      1000 1.61939E-01
 -1      1001 3.77072E+00
 -1      1002 4.10579E+00
 -1      1003 1.43894E-01
 -1      1004 1.53466E-01
 -1      1005 1.25016E-01
 -1      1006 1.46668E-01
 -1      1007 1.61939E-01
 -1      1008 1.21566E-01
 -1      1009 1.56262E-01
 -1      1010 1.03541E-01
 -1      1011 9.80717E-02
 -1      1012 8.85534E-02
 -1      1013 7.70022E-02
 -1      1014 6.52918E-02
 -1      1015 5.56487E-02
 -1      1016 5.09392E-02
 -1      1017 5.02432E-02
 -1      1018 5.24698E-02
 -1      1019 5.82070E-02
 -1      1020 6.96324E-02
 -1      1021 8.93080E-02
 -1      1022 1.15934E-01
 -1      1023 1.55508E-01
 -1      1024 2.06070E-01
 -1      1025 2.70135E-01
 -1      1026 3.51961E-01
 -1      1027 4.58611E-01
 -1      1028 6.02822E-01
 -1      1029 8.04930E-01
 -1      1030 1.12223E+00
 -1      1031 1.66131E+00
 -1      1032 1.99658E+00
 -1      1033 1.52880E-01
 -1      1034 1.54129E-01
 -1      1035 6.23657E-02
 -1      1036 5.35202E-02
 -1      1037 1.15488E-01
 -1      1038 1.57531E-01
 -1      1039 2.10957E-01
 -1      1040 2.78643E-01
 -1      1041 3.64343E-01
 -1      1042 4.73215E-01
 -1      1043 6.12848E-01
 -1      1044 7.94032E-01
 -1      1045 1.01897E+00
 -1      1046 1.31181E+00
 -1      1047 1.81309E+00
 -1      1048 3.77072E+00
 -1      1049 4.80185E-02
 -1      1050 2.77945E+00
 -1      1051 2.83450E+00
 -1      1052 1.09408E-01
 -1      1053 4.91896E-02
 -1      1054 8.25300E-02
 -1      1055 9.12772E-02
 -1      1056 7.01027E-02
 -1      1057 2.77945E+00
 -1      1058 1.02051E-01
 -1      1059 9.16716E-02
 -1      1060 1.17427E-01
 -1      1061 6.12908E-02
 -1      1062 5.19331E-02
 -1      1063 1.10670E-01
 -1      1064 9.00979E-02
 -1      1065 1.01908E-01
 -1      1066 9.92707E-02
 -1      1067 2.79441E+00
 -1      1068 9.90378E-02
 -1      1069 1.07271E-01
 -1      1070 7.23397E-02
 -1      1071 6.63099E-02
 -1      1072 8.89285E-02
 -1      1073 5.97712E-02
 -1      1074 5.38628E-02
 -1      1075 5.09392E-02
 -1      1076 5.24698E-02
 -1      1077 5.82070E-02
 -1      1078 6.96324E-02
 -1      1079 8.78648E-02
 -1      1080 1.12583E-01
 -1      1081 1.45033E-01
 -1      1082 1.86757E-01
 -1      1083 2.39798E-01
 -1      1084 3.07086E-01
 -1      1085 3.93208E-01
 -1      1086 5.06454E-01
 -1      1087 6.65055E-01
 -1      1088 9.29731E-01
 -1      1089 1.49773E+00
 -1      1090 1.99658E+00
 -1      1091 6.23657E-02
 -1      1092 1.63612E-01
 -1      1093 1.27699E-01
 -1      1094 2.81064E-01
 -1      1095 3.73974E-01
 -1      1096 4.99181E-01
 -1      1097 6.72744E-01
 -1      1098 9.39630E-01
 -1      1099 1.49773E+00
 -1      1100 1.50833E+00
 -1      1101 1.01908E-01
 -1      1102 6.48393E-02
 -1      1103 8.79198E-02
 -1      1104 2.10959E-01
 -1      1105 8.34575E-02
 -1      1106 9.00979E-02
 -1      1107 5.35202E-02
 -1      1108 5.97712E-02
 -1      1109 1.11973E-01
 -1      1110 5.27980E-02
 -1      1111 7.80712E-02
 -1      1112 9.95308E-02
 -1      1113 6.51562E-02
 -1      1114 1.11973E-01
 -1      1115 9.76306E-02
 -1      1116 8.89285E-02
 -1      1117 1.66438E+00
 -1      1118 9.76306E-02
 -1      1119 4.91896E-02
 -1      1120 1.11973E-01
 -1      1121 9.90378E-02
 -1      1122 9.76306E-02
 -1      1123 8.57220E-02
 -1      1124 1.31440E+01
 -1      1125 8.40381E+00
 -1      1126 2.74365E+00
 -1      1127 1.55782E+00
 -1      1128 1.16889E+00
 -1      1129 9.72526E-01
 -1      1130 8.54108E-01
 -1      1131 7.81508E-01
 -1      1132 7.55042E-01
 -1      1133 7.84610E-01
 -1      1134 8.57021E-01
 -1      1135 9.76687E-01
 -1      1136 1.18010E+00
 -1      1137 1.57165E+00
 -1      1138 2.67057E+00
 -1      1139 6.07366E+00
 -1      1140 1.13408E+01
 -1      1141 1.31440E+01
 -1      1142 8.73109E+00
 -1      1143 3.82971E+00
 -1      1144 2.72650E+00
 -1      1145 1.73766E+00
 -1      1146 1.18907E+00
 -1      1147 8.95179E-01
 -1      1148 6.85964E-01
 -1      1149 5.26309E-01
 -1      1150 4.02949E-01
 -1      1151 3.10429E-01
 -1      1152 2.40221E-01
 -1      1153 1.84734E-01
 -1      1154 1.42005E-01
 -1      1155 1.10195E-01
 -1      1156 8.76585E-02
 -1      1157 7.29536E-02
 -1      1158 6.82170E-02
 -1      1159 7.42929E-02
 -1      1160 8.68567E-02
 -1      1161 1.06568E-01
 -1      1162 1.39377E-01
 -1      1163 1.86601E-01
 -1      1164 2.47340E-01
 -1      1165 3.22602E-01
 -1      1166 4.12126E-01
 -1      1167 5.13197E-01
 -1      1168 6.19514E-01
 -1      1169 7.79745E-01
 -1      1170 1.00251E+00
 -1      1171 1.26352E+00
 -1      1172 1.54501E+00
 -1      1173 1.74599E+00
 -1      1174 1.81053E+00
 -1      1175 1.81678E+00
 -1      1176 1.96087E+00
 -1      1177 2.57075E+00
 -1      1178 4.02877E+00
 -1      1179 5.26462E+00
 -1      1180 5.51446E+00
 -1      1181 5.43247E+00
 -1      1182 4.70425E+00
 -1      1183 3.04107E+00
 -1      1184 1.63556E+00
 -1      1185 1.27231E+00
 -1      1186 1.29760E+00
 -1      1187 1.22254E+00
 -1      1188 1.14265E+00
 -1      1189 1.03548E+00
 -1      1190 5.62448E-01
 -1      1191 1.40397E+01
 -1      1192 8.71733E+00
 -1      1193 2.90418E+00
 -1      1194 2.03987E+00
 -1      1195 1.40581E+00
 -1      1196 1.02566E+00
 -1      1197 8.18747E-01
 -1      1198 6.59866E-01
 -1      1199 5.28663E-01
 -1      1200 4.19610E-01
 -1      1201 3.33278E-01
 -1      1202 2.66004E-01
 -1      1203 2.10777E-01
 -1      1204 1.66365E-01
 -1      1205 1.31989E-01
 -1      1206 1.06768E-01
 -1      1207 8.98436E-02
 -1      1208 8.38520E-02
 -1      1209 9.06695E-02
 -1      1210 1.06366E-01
 -1      1211 1.27770E-01
 -1      1212 1.53796E-01
 -1      1213 1.82752E-01
 -1      1214 2.25182E-01
 -1      1215 2.83720E-01
 -1      1216 3.47338E-01
 -1      1217 4.10189E-01
 -1      1218 4.62534E-01
 -1      1219 4.91232E-01
 -1      1220 5.51545E-01
 -1      1221 6.87292E-01
 -1      1222 8.31063E-01
 -1      1223 9.71345E-01
 -1      1224 1.17747E+00
 -1      1225 1.31715E+00
 -1      1226 1.49327E+00
 -1      1227 1.76502E+00
 -1      1228 2.32103E+00
 -1      1229 2.96992E+00
 -1      1230 3.28429E+00
 -1      1231 3.39801E+00
 -1      1232 3.25846E+00
 -1      1233 2.64470E+00
 -1      1234 1.70285E+00
 -1      1235 8.83884E-01
 -1      1236 4.99075E-01
 -1      1237 4.65819E-01
 -1      1238 4.66044E-01
 -1      1239 3.89053E-01
 -1      1240 2.01282E-01
 -1      1241 1.45732E-01
 -1      1242 2.24074E-01
 -1      1243 2.60679E-01
 -1      1244 2.74171E-01
 -1      1245 2.68280E-01
 -1      1246 2.18439E-01
 -1      1247 2.35057E-01
 -1      1248 3.94929E-01
 -1      1249 5.13924E-01
 -1      1250 5.33614E-01
 -1      1251 4.63796E-01
 -1      1252 2.76738E-01
 -1      1253 2.11184E-01
 -1      1254 3.04524E-01
 -1      1255 4.45931E-01
 -1      1256 5.80233E-01
 -1      1257 4.03267E-01
 -1      1258 2.60133E+01
 -1      1259 3.59423E+01
 -1      1260 4.58714E+01
 -1      1261 3.17583E+01
 -1      1262 1.51943E+01
 -1      1263 1.30436E+01
 -1      1264 1.33439E+01
 -1      1265 1.28491E+01
 -1      1266 1.23544E+01
 -1      1267 1.37939E+01
 -1      1268 2.79940E+01
 -1      1269 4.07546E+01
 -1      1270 3.28034E+01
 -1      1271 2.51539E+01
 -1      1272 2.54683E+01
 -1      1273 2.73777E+01
 -1      1274 2.92746E+01
 -1      1275 2.78626E+01
 -1      1276 1.93138E+01
 -1      1277 1.21769E+01
 -1      1278 1.21324E+01
 -1      1279 1.23066E+01
 -1      1280 1.25253E+01
 -1      1281 1.25199E+01
 -1      1282 2.07632E+01
 -1      1283 2.99237E+01
 -1      1284 2.90966E+01
 -1      1285 2.57203E+01
 -1      1286 2.50480E+01
 -1      1287 1.31440E+01
 -1      1288 4.87081E+00
 -1      1289 9.61097E+00
 -1      1290 2.06080E+00
 -1      1291 2.98081E+00
 -1      1292 4.18797E+00
 -1      1293 1.40021E+00
 -1      1294 1.66602E+00
 -1      1295 1.90319E+00
 -1      1296 1.10166E+00
 -1      1297 1.22477E+00
 -1      1298 1.33297E+00
 -1      1299 9.36200E-01
 -1      1300 1.00945E+00
 -1      1301 1.06533E+00
 -1      1302 8.36556E-01
 -1      1303 8.81724E-01
 -1      1304 9.18648E-01
 -1      1305 7.75141E-01
 -1      1306 8.02573E-01
 -1      1307 8.30189E-01
 -1      1308 7.56009E-01
 -1      1309 7.55042E-01
 -1      1310 7.76107E-01
 -1      1311 8.06393E-01
 -1      1312 7.77792E-01
 -1      1313 7.77792E-01
 -1      1314 8.84057E-01
 -1      1315 8.40246E-01
 -1      1316 8.33429E-01
 -1      1317 1.01676E+00
 -1      1318 9.40910E-01
 -1      1319 9.24135E-01
 -1      1320 1.24003E+00
 -1      1321 1.11247E+00
 -1      1322 1.07670E+00
 -1      1323 1.68153E+00
 -1      1324 1.41755E+00
 -1      1325 1.34992E+00
 -1      1326 2.88310E+00
 -1      1327 2.04816E+00
 -1      1328 1.89406E+00
 -1      1329 6.28651E+00
 -1      1330 3.71835E+00
 -1      1331 3.09594E+00
 -1      1332 1.40397E+01
 -1      1333 1.13408E+01
 -1      1334 8.98547E+00
 -1      1335 1.40397E+01
 -1      1336 8.73109E+00
 -1      1337 4.31822E+00
 -1      1338 3.82971E+00
 -1      1339 3.34120E+00
 -1      1340 3.82971E+00
 -1      1341 2.72650E+00
 -1      1342 2.11180E+00
 -1      1343 2.72650E+00
 -1      1344 1.77988E+00
 -1      1345 1.40575E+00
 -1      1346 1.77988E+00
 -1      1347 1.19503E+00
 -1      1348 1.02058E+00
 -1      1349 1.23725E+00
 -1      1350 8.95179E-01
 -1      1351 7.75742E-01
 -1      1352 9.01138E-01
 -1      1353 6.85964E-01
 -1      1354 5.96185E-01
 -1      1355 6.85964E-01
 -1      1356 5.32699E-01
 -1      1357 4.62823E-01
 -1      1358 5.32699E-01
 -1      1359 4.13071E-01
 -1      1360 3.59587E-01
 -1      1361 4.19461E-01
 -1      1362 3.20784E-01
 -1      1363 2.81748E-01
 -1      1364 3.30906E-01
 -1      1365 2.53738E-01
 -1      1366 2.22566E-01
 -1      1367 2.64093E-01
 -1      1368 1.98936E-01
 -1      1369 1.74623E-01
 -1      1370 2.12454E-01
 -1      1371 1.55289E-01
 -1      1372 1.36873E-01
 -1      1373 1.69491E-01
 -1      1374 1.21515E-01
 -1      1375 1.08121E-01
 -1      1376 1.34799E-01
 -1      1377 9.62957E-02
 -1      1378 8.71525E-02
 -1      1379 1.07615E-01
 -1      1380 7.83595E-02
 -1      1381 7.27978E-02
 -1      1382 8.69967E-02
 -1      1383 6.65092E-02
 -1      1384 6.73343E-02
 -1      1385 7.19151E-02
 -1      1386 6.90422E-02
 -1      1387 7.42929E-02
 -1      1388 6.73343E-02
 -1      1389 7.95437E-02
 -1      1390 8.68567E-02
 -1      1391 7.42929E-02
 -1      1392 9.67321E-02
 -1      1393 1.09131E-01
 -1      1394 8.94191E-02
 -1      1395 1.24480E-01
 -1      1396 1.44890E-01
 -1      1397 1.14643E-01
 -1      1398 1.65031E-01
 -1      1399 1.91845E-01
 -1      1400 1.50134E-01
 -1      1401 2.17278E-01
 -1      1402 2.51203E-01
 -1      1403 1.95708E-01
 -1      1404 2.82150E-01
 -1      1405 3.23487E-01
 -1      1406 2.52088E-01
 -1      1407 3.70143E-01
 -1      1408 4.18330E-01
 -1      1409 3.29691E-01
 -1      1410 4.85001E-01
 -1      1411 5.37885E-01
 -1      1412 4.43018E-01
 -1      1413 6.17079E-01
 -1      1414 6.70512E-01
 -1      1415 5.88882E-01
 -1      1416 7.58473E-01
 -1      1417 8.65271E-01
 -1      1418 7.56037E-01
 -1      1419 9.53084E-01
 -1      1420 1.06905E+00
 -1      1421 9.31811E-01
 -1      1422 1.14745E+00
 -1      1423 1.29250E+00
 -1      1424 1.09803E+00
 -1      1425 1.40856E+00
 -1      1426 1.54501E+00
 -1      1427 1.29250E+00
 -1      1428 1.68145E+00
 -1      1429 1.74599E+00
 -1      1430 1.54501E+00
 -1      1431 1.81053E+00
 -1      1432 1.81053E+00
 -1      1433 1.74599E+00
 -1      1434 1.80851E+00
 -1      1435 1.81475E+00
 -1      1436 1.80851E+00
 -1      1437 1.82302E+00
 -1      1438 1.96087E+00
 -1      1439 1.81475E+00
 -1      1440 2.09872E+00
 -1      1441 2.57075E+00
 -1      1442 1.96087E+00
 -1      1443 3.08265E+00
 -1      1444 4.06864E+00
 -1      1445 2.61062E+00
 -1      1446 5.01477E+00
 -1      1447 5.26462E+00
 -1      1448 4.06864E+00
 -1      1449 5.51446E+00
 -1      1450 5.51446E+00
 -1      1451 5.26462E+00
 -1      1452 5.43247E+00
 -1      1453 5.35048E+00
 -1      1454 5.43247E+00
 -1      1455 4.70425E+00
 -1      1456 4.05803E+00
 -1      1457 4.70425E+00
 -1      1458 3.27750E+00
 -1      1459 2.26054E+00
 -1      1460 3.27750E+00
 -1      1461 1.66483E+00
 -1      1462 1.27628E+00
 -1      1463 1.90126E+00
 -1      1464 1.18782E+00
 -1      1465 1.21312E+00
 -1      1466 1.21709E+00
 -1      1467 1.29760E+00
 -1      1468 1.29760E+00
 -1      1469 1.21312E+00
 -1      1470 1.22254E+00
 -1      1471 1.14748E+00
 -1      1472 1.22254E+00
 -1      1473 1.14265E+00
 -1      1474 1.13782E+00
 -1      1475 1.14265E+00
 -1      1476 1.03548E+00
 -1      1477 9.33146E-01
 -1      1478 1.03548E+00
 -1      1479 7.73964E-01
 -1      1480 7.73964E-01
 -1      1481 3.39493E+00
 -1      1482 8.71733E+00
 -1      1483 8.71733E+00
 -1      1484 2.41343E+00
 -1      1485 2.90418E+00
 -1      1486 2.90418E+00
 -1      1487 1.66631E+00
 -1      1488 2.03987E+00
 -1      1489 2.03987E+00
 -1      1490 1.14531E+00
 -1      1491 1.40581E+00
 -1      1492 1.40581E+00
 -1      1493 9.06016E-01
 -1      1494 1.02566E+00
 -1      1495 1.02566E+00
 -1      1496 7.31479E-01
 -1      1497 8.18747E-01
 -1      1498 8.18747E-01
 -1      1499 5.88254E-01
 -1      1500 6.59866E-01
 -1      1501 6.59866E-01
 -1      1502 4.69071E-01
 -1      1503 5.28663E-01
 -1      1504 5.28663E-01
 -1      1505 3.70148E-01
 -1      1506 4.19610E-01
 -1      1507 4.19610E-01
 -1      1508 2.96409E-01
 -1      1509 3.33278E-01
 -1      1510 3.33278E-01
 -1      1511 2.35600E-01
 -1      1512 2.66004E-01
 -1      1513 2.66004E-01
 -1      1514 1.87167E-01
 -1      1515 2.11991E-01
 -1      1516 2.11991E-01
 -1      1517 1.48772E-01
 -1      1518 1.68360E-01
 -1      1519 1.69574E-01
 -1      1520 1.19260E-01
 -1      1521 1.34048E-01
 -1      1522 1.36043E-01
 -1      1523 9.78870E-02
 -1      1524 1.08320E-01
 -1      1525 1.10380E-01
 -1      1526 8.39013E-02
 -1      1527 9.03922E-02
 -1      1528 9.19447E-02
 -1      1529 8.17021E-02
 -1      1530 8.12028E-02
 -1      1531 8.17514E-02
 -1      1532 9.17007E-02
 -1      1533 8.53826E-02
 -1      1534 8.27333E-02
 -1      1535 1.07171E-01
 -1      1536 9.77920E-02
 -1      1537 9.25050E-02
 -1      1538 1.27770E-01
 -1      1539 1.15745E-01
 -1      1540 1.07171E-01
 -1      1541 1.53796E-01
 -1      1542 1.39795E-01
 -1      1543 1.27770E-01
 -1      1544 1.87692E-01
 -1      1545 1.72739E-01
 -1      1546 1.58737E-01
 -1      1547 2.37961E-01
 -1      1548 2.10484E-01
 -1      1549 2.00471E-01
 -1      1550 2.94329E-01
 -1      1551 2.63268E-01
 -1      1552 2.48570E-01
 -1      1553 3.52857E-01
 -1      1554 3.20301E-01
 -1      1555 2.99848E-01
 -1      1556 4.10189E-01
 -1      1557 3.79894E-01
 -1      1558 3.52857E-01
 -1      1559 4.62534E-01
 -1      1560 4.40483E-01
 -1      1561 4.10189E-01
 -1      1562 4.91232E-01
 -1      1563 4.84585E-01
 -1      1564 4.62534E-01
 -1      1565 5.66895E-01
 -1      1566 5.13228E-01
 -1      1567 5.06582E-01
 -1      1568 7.03765E-01
 -1      1569 6.21685E-01
 -1      1570 5.83368E-01
 -1      1571 8.31063E-01
 -1      1572 7.69372E-01
 -1      1573 7.03765E-01
 -1      1574 9.71345E-01
 -1      1575 8.92754E-01
 -1      1576 8.31063E-01
 -1      1577 1.17747E+00
 -1      1578 1.04994E+00
 -1      1579 9.71345E-01
 -1      1580 1.31715E+00
 -1      1581 1.30501E+00
 -1      1582 1.17747E+00
 -1      1583 1.49327E+00
 -1      1584 1.32929E+00
 -1      1585 1.31715E+00
 -1      1586 1.76502E+00
 -1      1587 1.65725E+00
 -1      1588 1.49327E+00
 -1      1589 2.39259E+00
 -1      1590 1.94435E+00
 -1      1591 1.83658E+00
 -1      1592 2.96992E+00
 -1      1593 2.76927E+00
 -1      1594 2.39259E+00
 -1      1595 3.28429E+00
 -1      1596 3.17057E+00
 -1      1597 2.96992E+00
 -1      1598 3.39801E+00
 -1      1599 3.39801E+00
 -1      1600 3.28429E+00
 -1      1601 3.11891E+00
 -1      1602 3.25846E+00
 -1      1603 3.25846E+00
 -1      1604 2.17050E+00
 -1      1605 2.64470E+00
 -1      1606 2.64470E+00
 -1      1607 1.28536E+00
 -1      1608 1.75300E+00
 -1      1609 1.75300E+00
 -1      1610 5.85799E-01
 -1      1611 9.37126E-01
 -1      1612 9.87276E-01
 -1      1613 4.42075E-01
 -1      1614 4.75557E-01
 -1      1615 5.28799E-01
 -1      1616 4.65819E-01
 -1      1617 4.65593E-01
 -1      1618 4.42075E-01
 -1      1619 4.66044E-01
 -1      1620 4.66044E-01
 -1      1621 4.65819E-01
 -1      1622 3.17191E-01
 -1      1623 3.94182E-01
 -1      1624 3.94182E-01
 -1      1625 2.56511E-01
 -1      1626 2.91035E-01
 -1      1627 2.67922E-01
 -1      1628 3.63978E-01
 -1      1629 3.50487E-01
 -1      1630 3.94334E-01
 -1      1631 3.91640E-01
 -1      1632 3.91640E-01
 -1      1633 4.81448E-01
 -1      1634 3.85749E-01
 -1      1635 3.91640E-01
 -1      1636 5.09110E-01
 -1      1637 3.30100E-01
 -1      1638 3.74050E-01
 -1      1639 4.97410E-01
 -1      1640 3.80017E-01
 -1      1641 3.19449E-01
 -1      1642 4.75060E-01
 -1      1643 6.83884E-01
 -1      1644 5.84580E-01
 -1      1645 6.68971E-01
 -1      1646 7.92792E-01
 -1      1647 7.73101E-01
 -1      1648 9.62752E-01
 -1      1649 7.92792E-01
 -1      1650 7.92792E-01
 -1      1651 1.05197E+00
 -1      1652 6.94179E-01
 -1      1653 7.63997E-01
 -1      1654 1.02318E+00
 -1      1655 4.02670E-01
 -1      1656 5.19910E-01
 -1      1657 8.20112E-01
 -1      1658 3.57746E-01
 -1      1659 3.06060E-01
 -1      1660 5.49233E-01
 -1      1661 4.64048E-01
 -1      1662 4.22395E-01
 -1      1663 5.17270E-01
 -1      1664 5.63802E-01
 -1      1665 4.64048E-01
 -1      1666 5.81919E-01
 -1      1667 6.27854E-01
 -1      1668 5.93305E-01
 -1      1669 6.11422E-01
 -1      1670 7.87035E-01
 -1      1671 2.76911E+01
 -1      1672 2.76911E+01
 -1      1673 3.57572E+01
 -1      1674 2.58281E+01
 -1      1675 4.58714E+01
 -1      1676 4.58714E+01
 -1      1677 1.89899E+01
 -1      1678 3.31030E+01
 -1      1679 1.19540E+01
 -1      1680 1.44049E+01
 -1      1681 1.30436E+01
 -1      1682 1.27434E+01
 -1      1683 1.33439E+01
 -1      1684 1.33439E+01
 -1      1685 1.22474E+01
 -1      1686 1.27422E+01
 -1      1687 1.23544E+01
 -1      1688 1.23544E+01
 -1      1689 1.31536E+01
 -1      1690 1.17141E+01
 -1      1691 2.79940E+01
 -1      1692 1.52334E+01
 -1      1693 4.07546E+01
 -1      1694 4.07546E+01
 -1      1695 3.03337E+01
 -1      1696 3.82849E+01
 -1      1697 2.73133E+01
 -1      1698 2.70115E+01
 -1      1699 2.73259E+01
 -1      1700 2.73133E+01
 -1      1701 3.09540E+01
 -1      1702 2.90571E+01
 -1      1703 3.09540E+01
 -1      1704 3.09540E+01
 -1      1705 2.74769E+01
 -1      1706 2.88889E+01
 -1      1707 1.21285E+01
 -1      1708 1.92654E+01
 -1      1709 1.21769E+01
 -1      1710 1.21769E+01
 -1      1711 1.20880E+01
 -1      1712 1.21324E+01
 -1      1713 1.20321E+01
 -1      1714 1.18134E+01
 -1      1715 1.25253E+01
 -1      1716 1.25253E+01
 -1      1717 1.21346E+01
 -1      1718 1.21400E+01
 -1      1719 2.07632E+01
 -1      1720 1.25144E+01
 -1      1721 3.08355E+01
 -1      1722 2.99237E+01
 -1      1723 2.90966E+01
 -1      1724 3.08355E+01
 -1      1725 2.40827E+01
 -1      1726 2.57203E+01
 -1      1727 2.76911E+01
 -1      1728 2.67258E+01
 -1      1729 1.57496E+01
 -1      1730 3.31030E+01
 -1      1731 2.61640E-01
 -1      1732 3.28601E-01
 -1      1733 2.75060E+01
 -1      1734 3.57572E+01
 -1      1735 2.93689E+01
 -1      1736 1.19540E+01
 -1      1737 1.30436E+01
 -1      1738 1.27422E+01
 -1      1739 1.22474E+01
 -1      1740 1.17141E+01
 -1      1741 1.31536E+01
 -1      1742 2.79940E+01
 -1      1743 3.82849E+01
 -1      1744 3.24930E+01
 -1      1745 2.91709E+01
 -1      1746 3.09021E+01
 -1      1747 3.26334E+01
 -1      1748 3.05682E+01
 -1      1749 2.02916E+01
 -1      1750 1.21285E+01
 -1      1751 1.21324E+01
 -1      1752 1.18134E+01
 -1      1753 1.20321E+01
 -1      1754 1.21400E+01
 -1      1755 1.21346E+01
 -1      1756 2.16750E+01
 -1      1757 3.08355E+01
 -1      1758 2.74591E+01
 -1      1759 2.67258E+01
 -1      1760 9.61097E+00
 -1      1761 1.27734E+00
 -1      1762 1.67212E+00
 -1      1763 2.38898E+00
 -1      1764 4.27898E+00
 -1      1765 1.76313E+00
 -1      1766 8.82165E-01
 -1      1767 9.74371E-01
 -1      1768 7.79096E-01
 -1      1769 8.33572E-01
 -1      1770 7.42614E-01
 -1      1771 7.14000E-01
 -1      1772 7.47982E-01
 -1      1773 6.62907E-01
 -1      1774 6.71855E-01
 -1      1775 6.91953E-01
 -1      1776 6.09747E-01
 -1      1777 6.95254E-01
 -1      1778 6.73471E-01
 -1      1779 5.89317E-01
 -1      1780 7.50920E-01
 -1      1781 7.17066E-01
 -1      1782 6.12745E-01
 -1      1783 8.41107E-01
 -1      1784 7.84254E-01
 -1      1785 6.67891E-01
 -1      1786 9.84388E-01
 -1      1787 8.88678E-01
 -1      1788 7.48797E-01
 -1      1789 1.22959E+00
 -1      1790 1.05207E+00
 -1      1791 8.64054E-01
 -1      1792 1.71033E+00
 -1      1793 1.34370E+00
 -1      1794 1.04586E+00
 -1      1795 2.63010E+00
 -1      1796 1.79484E+00
 -1      1797 1.24448E+00
 -1      1798 8.12036E+00
 -1      1799 3.06610E+00
 -1      1800 1.76499E+00
 -1      1801 2.79796E+00
 -1      1802 5.19809E+00
 -1      1803 2.16400E+00
 -1      1804 2.65474E+00
 -1      1805 2.05778E+00
 -1      1806 3.39911E+00
 -1      1807 2.53541E+00
 -1      1808 1.92070E+00
 -1      1809 1.69001E+00
 -1      1810 1.35810E+00
 -1      1811 1.49892E+00
 -1      1812 1.17783E+00
 -1      1813 9.67113E-01
 -1      1814 1.08796E+00
 -1      1815 8.41826E-01
 -1      1816 7.16430E-01
 -1      1817 7.82405E-01
 -1      1818 6.57538E-01
 -1      1819 5.67760E-01
 -1      1820 5.98226E-01
 -1      1821 5.19360E-01
 -1      1822 4.55873E-01
 -1      1823 4.90934E-01
 -1      1824 4.13333E-01
 -1      1825 3.63581E-01
 -1      1826 3.99994E-01
 -1      1827 3.31053E-01
 -1      1828 2.92250E-01
 -1      1829 3.24925E-01
 -1      1830 2.64940E-01
 -1      1831 2.36930E-01
 -1      1832 2.65086E-01
 -1      1833 2.13585E-01
 -1      1834 1.89956E-01
 -1      1835 2.14432E-01
 -1      1836 1.72033E-01
 -1      1837 1.52699E-01
 -1      1838 1.73164E-01
 -1      1839 1.38292E-01
 -1      1840 1.22934E-01
 -1      1841 1.40834E-01
 -1      1842 1.10844E-01
 -1      1843 9.90184E-02
 -1      1844 1.14337E-01
 -1      1845 8.90644E-02
 -1      1846 8.02714E-02
 -1      1847 9.22931E-02
 -1      1848 7.21183E-02
 -1      1849 6.58296E-02
 -1      1850 7.41860E-02
 -1      1851 6.29463E-02
 -1      1852 6.46542E-02
 -1      1853 6.31495E-02
 -1      1854 6.54854E-02
 -1      1855 7.07362E-02
 -1      1856 6.10974E-02
 -1      1857 7.82698E-02
 -1      1858 8.81452E-02
 -1      1859 6.94623E-02
 -1      1860 9.92945E-02
 -1      1861 1.14643E-01
 -1      1862 8.81452E-02
 -1      1863 1.29992E-01
 -1      1864 1.50134E-01
 -1      1865 1.14643E-01
 -1      1866 1.77413E-01
 -1      1867 2.02846E-01
 -1      1868 1.57271E-01
 -1      1869 2.40277E-01
 -1      1870 2.71224E-01
 -1      1871 2.21982E-01
 -1      1872 3.18760E-01
 -1      1873 3.65415E-01
 -1      1874 3.06948E-01
 -1      1875 4.24049E-01
 -1      1876 4.90720E-01
 -1      1877 4.13118E-01
 -1      1878 5.60278E-01
 -1      1879 6.39472E-01
 -1      1880 5.41310E-01
 -1      1881 7.17558E-01
 -1      1882 8.05519E-01
 -1      1883 6.88953E-01
 -1      1884 8.86022E-01
 -1      1885 9.73835E-01
 -1      1886 8.47543E-01
 -1      1887 1.04519E+00
 -1      1888 1.12359E+00
 -1      1889 9.99398E-01
 -1      1890 1.18383E+00
 -1      1891 1.29989E+00
 -1      1892 1.13099E+00
 -1      1893 1.37141E+00
 -1      1894 1.50786E+00
 -1      1895 1.26275E+00
 -1      1896 1.53129E+00
 -1      1897 1.59583E+00
 -1      1898 1.35770E+00
 -1      1899 1.54477E+00
 -1      1900 1.54275E+00
 -1      1901 1.33007E+00
 -1      1902 1.52380E+00
 -1      1903 1.53207E+00
 -1      1904 1.26006E+00
 -1      1905 1.59113E+00
 -1      1906 1.72897E+00
 -1      1907 1.30017E+00
 -1      1908 2.09431E+00
 -1      1909 2.60621E+00
 -1      1910 1.72457E+00
 -1      1911 2.96238E+00
 -1      1912 3.90851E+00
 -1      1913 2.44608E+00
 -1      1914 4.15198E+00
 -1      1915 4.40183E+00
 -1      1916 3.04572E+00
 -1      1917 4.33956E+00
 -1      1918 4.25757E+00
 -1      1919 3.22692E+00
 -1      1920 4.20008E+00
 -1      1921 3.55385E+00
 -1      1922 3.10717E+00
 -1      1923 3.24378E+00
 -1      1924 2.46325E+00
 -1      1925 2.73960E+00
 -1      1926 2.23050E+00
 -1      1927 1.63480E+00
 -1      1928 2.19678E+00
 -1      1929 1.34669E+00
 -1      1930 1.25823E+00
 -1      1931 1.67593E+00
 -1      1932 1.17601E+00
 -1      1933 1.26049E+00
 -1      1934 1.30560E+00
 -1      1935 1.14198E+00
 -1      1936 1.06692E+00
 -1      1937 1.10487E+00
 -1      1938 9.84373E-01
 -1      1939 9.79543E-01
 -1      1940 9.03810E-01
 -1      1941 9.96328E-01
 -1      1942 8.93991E-01
 -1      1943 7.47881E-01
 -1      1944 8.38052E-01
 -1      1945 1.39854E+00
 -1      1946 1.77210E+00
 -1      1947 1.52267E+00
 -1      1948 1.01860E+00
 -1      1949 1.27910E+00
 -1      1950 1.01133E+00
 -1      1951 8.05288E-01
 -1      1952 9.24933E-01
 -1      1953 7.98228E-01
 -1      1954 6.38735E-01
 -1      1955 7.26003E-01
 -1      1956 6.25275E-01
 -1      1957 5.13429E-01
 -1      1958 5.85041E-01
 -1      1959 4.92297E-01
 -1      1960 4.20742E-01
 -1      1961 4.80333E-01
 -1      1962 4.05508E-01
 -1      1963 3.39609E-01
 -1      1964 3.89071E-01
 -1      1965 3.40742E-01
 -1      1966 2.75135E-01
 -1      1967 3.12005E-01
 -1      1968 2.81466E-01
 -1      1969 2.22322E-01
 -1      1970 2.52727E-01
 -1      1971 2.31453E-01
 -1      1972 1.79155E-01
 -1      1973 2.02764E-01
 -1      1974 1.89486E-01
 -1      1975 1.43869E-01
 -1      1976 1.62677E-01
 -1      1977 1.53450E-01
 -1      1978 1.16439E-01
 -1      1979 1.31162E-01
 -1      1980 1.24265E-01
 -1      1981 9.58724E-02
 -1      1982 1.06813E-01
 -1      1983 1.01932E-01
 -1      1984 8.15415E-02
 -1      1985 8.90363E-02
 -1      1986 8.54692E-02
 -1      1987 7.45843E-02
 -1      1988 7.72828E-02
 -1      1989 7.43744E-02
 -1      1990 7.87230E-02
 -1      1991 7.50425E-02
 -1      1992 7.05739E-02
 -1      1993 8.77314E-02
 -1      1994 8.16401E-02
 -1      1995 7.39493E-02
 -1      1996 1.04151E-01
 -1      1997 9.55771E-02
 -1      1998 8.47122E-02
 -1      1999 1.28602E-01
 -1      2000 1.16577E-01
 -1      2001 1.04983E-01
 -1      2002 1.62859E-01
 -1      2003 1.43917E-01
 -1      2004 1.32724E-01
 -1      2005 2.14891E-01
 -1      2006 1.92100E-01
 -1      2007 1.77280E-01
 -1      2008 2.76066E-01
 -1      2009 2.50759E-01
 -1      2010 2.42388E-01
 -1      2011 3.43857E-01
 -1      2012 3.17886E-01
 -1      2013 3.20075E-01
 -1      2014 4.16732E-01
 -1      2015 3.89695E-01
 -1      2016 4.07732E-01
 -1      2017 4.92835E-01
 -1      2018 4.62540E-01
 -1      2019 4.99378E-01
 -1      2020 5.53770E-01
 -1      2021 5.31719E-01
 -1      2022 5.84071E-01
 -1      2023 6.13410E-01
 -1      2024 5.91414E-01
 -1      2025 6.60599E-01
 -1      2026 6.84047E-01
 -1      2027 6.29257E-01
 -1      2028 7.14090E-01
 -1      2029 7.49654E-01
 -1      2030 6.84047E-01
 -1      2031 7.29936E-01
 -1      2032 7.84814E-01
 -1      2033 7.23123E-01
 -1      2034 7.03405E-01
 -1      2035 7.97350E-01
 -1      2036 7.18760E-01
 -1      2037 6.10820E-01
 -1      2038 9.62006E-01
 -1      2039 8.34468E-01
 -1      2040 5.81883E-01
 -1      2041 1.17551E+00
 -1      2042 1.16337E+00
 -1      2043 8.20368E-01
 -1      2044 1.64204E+00
 -1      2045 1.47806E+00
 -1      2046 1.32428E+00
 -1      2047 1.99817E+00
 -1      2048 1.81884E+00
 -1      2049 1.80363E+00
 -1      2050 2.37485E+00
 -1      2051 1.99817E+00
 -1      2052 1.98044E+00
 -1      2053 2.57049E+00
 -1      2054 2.36984E+00
 -1      2055 1.97542E+00
 -1      2056 2.66381E+00
 -1      2057 2.55010E+00
 -1      2058 1.95002E+00
 -1      2059 2.55699E+00
 -1      2060 2.69654E+00
 -1      2061 1.96235E+00
 -1      2062 1.90732E+00
 -1      2063 2.38152E+00
 -1      2064 1.81961E+00
 -1      2065 1.26901E+00
 -1      2066 1.68650E+00
 -1      2067 1.42332E+00
 -1      2068 7.98208E-01
 -1      2069 1.14644E+00
 -1      2070 1.07994E+00
 -1      2071 5.66870E-01
 -1      2072 6.77112E-01
 -1      2073 8.36279E-01
 -1      2074 5.32295E-01
 -1      2075 5.08776E-01
 -1      2076 6.57090E-01
 -1      2077 4.87285E-01
 -1      2078 4.87059E-01
 -1      2079 5.53761E-01
 -1      2080 3.20799E-01
 -1      2081 3.92661E-01
 -1      2082 4.13901E-01
 -1      2083 3.27080E-01
 -1      2084 6.10818E-01
 -1      2085 6.10818E-01
 -1      2086 5.78721E-01
 -1      2087 5.51058E-01
 -1      2088 6.80428E-01
 -1      2089 4.81155E-01
 -1      2090 4.21704E-01
 -1      2091 4.13901E-01
 -1      2092 5.78428E-01
 -1      2093 5.99118E-01
 -1      2094 6.10818E-01
 -1      2095 7.12525E-01
 -1      2096 6.16986E-01
 -1      2097 6.27637E-01
 -1      2098 7.41044E-01
 -1      2099 9.82481E-01
 -1      2100 7.77919E-01
 -1      2101 9.30496E-01
 -1      2102 1.32768E+00
 -1      2103 1.23847E+00
 -1      2104 1.34741E+00
 -1      2105 1.33628E+00
 -1      2106 1.33628E+00
 -1      2107 1.61199E+00
 -1      2108 1.30749E+00
 -1      2109 1.33628E+00
 -1      2110 1.62059E+00
 -1      2111 1.01293E+00
 -1      2112 1.18720E+00
 -1      2113 1.50030E+00
 -1      2114 6.33863E-01
 -1      2115 7.30474E-01
 -1      2116 1.09756E+00
 -1      2117 6.62634E-01
 -1      2118 5.97986E-01
 -1      2119 7.79227E-01
 -1      2120 7.18378E-01
 -1      2121 7.18378E-01
 -1      2122 7.99093E-01
 -1      2123 3.57572E+01
 -1      2124 2.56430E+01
 -1      2125 2.97357E+01
 -1      2126 2.97357E+01
 -1      2127 2.78727E+01
 -1      2128 2.97357E+01
 -1      2129 1.77274E+01
 -1      2130 3.04958E+01
 -1      2131 2.03816E+01
 -1      2132 9.67990E+00
 -1      2133 1.42649E+01
 -1      2134 1.03864E+00
 -1      2135 1.21407E+00
 -1      2136 9.83004E-01
 -1      2137 8.55472E-01
 -1      2138 1.12703E+01
 -1      2139 1.09700E+01
 -1      2140 1.17487E+01
 -1      2141 1.23504E+01
 -1      2142 1.16796E+01
 -1      2143 1.15727E+01
 -1      2144 1.11809E+01
 -1      2145 9.63989E+00
 -1      2146 1.02801E+01
 -1      2147 1.14617E+01
 -1      2148 9.38201E+00
 -1      2149 2.69774E+01
 -1      2150 1.42168E+01
 -1      2151 2.94563E+01
 -1      2152 3.19260E+01
 -1      2153 2.71821E+01
 -1      2154 3.05043E+01
 -1      2155 3.15594E+01
 -1      2156 3.15594E+01
 -1      2157 2.95707E+01
 -1      2158 3.32907E+01
 -1      2159 3.15594E+01
 -1      2160 3.26334E+01
 -1      2161 3.26334E+01
 -1      2162 2.39703E+01
 -1      2163 2.60354E+01
 -1      2164 2.60354E+01
 -1      2165 1.13861E+01
 -1      2166 1.95976E+01
 -1      2167 9.87734E+00
 -1      2168 9.82897E+00
 -1      2169 1.08783E+01
 -1      2170 1.09228E+01
 -1      2171 1.11171E+01
 -1      2172 1.13916E+01
 -1      2173 1.18533E+01
 -1      2174 1.13601E+01
 -1      2175 1.03537E+01
 -1      2176 1.07390E+01
 -1      2177 9.88678E+00
 -1      2178 9.50693E+00
 -1      2179 2.11197E+01
 -1      2180 1.19592E+01
 -1      2181 2.54208E+01
 -1      2182 2.54208E+01
 -1      2183 2.38580E+01
 -1      2184 2.72344E+01
 -1      2185 2.81264E+01
 -1      2186 2.54833E+01
 -1      2187 1.04323E+01
 -1      2188 9.64289E+00
 -1      2189 8.15826E+00
 -1      2190 1.39322E+01
 -1      2191 1.13250E+01
 -1      2192 7.86256E+00
 -1      2193 2.91060E+00
 -1      2194 8.65896E+00
 -1      2195 2.10480E+00
 -1      2196 2.34852E+01
 -1      2197 2.57149E+01
 -1      2198 2.34852E+01
 -1      2199 3.01024E+01
 -1      2200 7.47881E-01
 -1      2201 2.84931E+01
 -1      2202 2.52586E+01
 -1      2203 2.18197E+01
 -1      2204 1.57050E+01
 -1      2205 9.33156E+00
 -1      2206 8.10588E+00
 -1      2207 1.00670E+01
 -1      2208 1.09383E+01
 -1      2209 1.01820E+01
 -1      2210 8.62324E+00
 -1      2211 1.50648E+01
 -1      2212 3.39480E+01
 -1      2213 2.41454E+01
 -1      2214 2.68820E+01
 -1      2215 1.31049E+01
 -1      2216 1.80535E+01
 -1      2217 1.04452E+01
 -1      2218 9.60535E+00
 -1      2219 1.15098E+01
 -1      2220 9.43625E+00
 -1      2221 1.05164E+01
 -1      2222 7.94799E+00
 -1      2223 3.32907E+01
 -1      2224 8.58228E+00
 -1      2225 7.88818E+00
 -1      2226 6.33109E+00
 -1      2227 1.08954E+00
 -1      2228 1.48144E+00
 -1      2229 5.59009E-01
 -1      2230 5.90123E-01
 -1      2231 6.01900E-01
 -1      2232 6.50492E-01
 -1      2233 4.98001E-01
 -1      2234 5.11328E-01
 -1      2235 5.09712E-01
 -1      2236 5.46068E-01
 -1      2237 5.24256E-01
 -1      2238 4.44651E-01
 -1      2239 5.94156E-01
 -1      2240 5.60822E-01
 -1      2241 4.72333E-01
 -1      2242 6.53780E-01
 -1      2243 6.06209E-01
 -1      2244 4.99139E-01
 -1      2245 7.21466E-01
 -1      2246 6.53780E-01
 -1      2247 5.11192E-01
 -1      2248 8.84343E-01
 -1      2249 7.70227E-01
 -1      2250 5.59953E-01
 -1      2251 8.91897E-01
 -1      2252 1.01133E+00
 -1      2253 9.70104E-01
 -1      2254 1.26662E+00
 -1      2255 1.03593E+00
 -1      2256 7.27874E+00
 -1      2257 6.74102E+00
 -1      2258 9.86872E-01
 -1      2259 8.06602E-01
 -1      2260 7.54567E-01
 -1      2261 7.48761E-01
 -1      2262 6.23474E-01
 -1      2263 6.47671E-01
 -1      2264 5.67350E-01
 -1      2265 5.08458E-01
 -1      2266 5.33707E-01
 -1      2267 4.59222E-01
 -1      2268 4.10822E-01
 -1      2269 4.28346E-01
 -1      2270 3.83440E-01
 -1      2271 3.40899E-01
 -1      2272 3.51727E-01
 -1      2273 3.16105E-01
 -1      2274 2.83577E-01
 -1      2275 2.99551E-01
 -1      2276 2.60190E-01
 -1      2277 2.32879E-01
 -1      2278 2.51370E-01
 -1      2279 2.13539E-01
 -1      2280 1.90195E-01
 -1      2281 2.08643E-01
 -1      2282 1.73560E-01
 -1      2283 1.55637E-01
 -1      2284 1.72667E-01
 -1      2285 1.41137E-01
 -1      2286 1.26729E-01
 -1      2287 1.41532E-01
 -1      2288 1.14442E-01
 -1      2289 1.02352E-01
 -1      2290 1.14745E-01
 -1      2291 9.22931E-02
 -1      2292 8.23392E-02
 -1      2293 9.23982E-02
 -1      2294 7.41860E-02
 -1      2295 6.60328E-02
 -1      2296 7.41860E-02
 -1      2297 6.03528E-02
 -1      2298 5.74695E-02
 -1      2299 6.03528E-02
 -1      2300 5.47448E-02
 -1      2301 5.55761E-02
 -1      2302 5.19482E-02
 -1      2303 6.05038E-02
 -1      2304 6.80374E-02
 -1      2305 5.41512E-02
 -1      2306 7.52941E-02
 -1      2307 8.64434E-02
 -1      2308 6.63355E-02
 -1      2309 1.05700E-01
 -1      2310 1.21049E-01
 -1      2311 9.28493E-02
 -1      2312 1.46064E-01
 -1      2313 1.73343E-01
 -1      2314 1.37121E-01
 -1      2315 2.05340E-01
 -1      2316 2.42772E-01
 -1      2317 1.94133E-01
 -1      2318 2.83190E-01
 -1      2319 3.30725E-01
 -1      2320 2.66548E-01
 -1      2321 3.80850E-01
 -1      2322 4.39484E-01
 -1      2323 3.57092E-01
 -1      2324 5.00142E-01
 -1      2325 5.69700E-01
 -1      2326 4.67875E-01
 -1      2327 6.40735E-01
 -1      2328 7.18820E-01
 -1      2329 5.99567E-01
 -1      2330 7.98298E-01
 -1      2331 8.78801E-01
 -1      2332 7.50079E-01
 -1      2333 9.61874E-01
 -1      2334 1.03323E+00
 -1      2335 9.12629E-01
 -1      2336 1.11073E+00
 -1      2337 1.17097E+00
 -1      2338 1.07321E+00
 -1      2339 1.22815E+00
 -1      2340 1.29968E+00
 -1      2341 1.20790E+00
 -1      2342 1.40871E+00
 -1      2343 1.43214E+00
 -1      2344 1.37412E+00
 -1      2345 1.55274E+00
 -1      2346 1.50168E+00
 -1      2347 1.60375E+00
 -1      2348 1.58385E+00
 -1      2349 1.56490E+00
 -1      2350 1.80652E+00
 -1      2351 1.72863E+00
 -1      2352 1.78769E+00
 -1      2353 2.05242E+00
 -1      2354 2.04080E+00
 -1      2355 2.40614E+00
 -1      2356 2.46926E+00
 -1      2357 2.14967E+00
 -1      2358 2.50584E+00
 -1      2359 2.46590E+00
 -1      2360 3.51507E+00
 -1      2361 3.75854E+00
 -1      2362 3.21866E+00
 -1      2363 4.00883E+00
 -1      2364 3.94656E+00
 -1      2365 4.47818E+00
 -1      2366 5.12638E+00
 -1      2367 5.06889E+00
 -1      2368 5.90829E+00
 -1      2369 4.18439E+00
 -1      2370 3.87431E+00
 -1      2371 6.20361E+00
 -1      2372 2.78754E+00
 -1      2373 2.55480E+00
 -1      2374 4.23233E+00
 -1      2375 2.27251E+00
 -1      2376 1.98441E+00
 -1      2377 2.86327E+00
 -1      2378 1.63159E+00
 -1      2379 1.54936E+00
 -1      2380 2.22817E+00
 -1      2381 1.24378E+00
 -1      2382 1.12527E+00
 -1      2383 1.56977E+00
 -1      2384 9.86354E-01
 -1      2385 9.03810E-01
 -1      2386 1.12527E+00
 -1      2387 5.45990E-01
 -1      2388 6.25275E-01
 -1      2389 4.38604E-01
 -1      2390 4.92297E-01
 -1      2391 4.92297E-01
 -1      2392 3.72413E-01
 -1      2393 4.05508E-01
 -1      2394 4.05508E-01
 -1      2395 3.09070E-01
 -1      2396 3.40742E-01
 -1      2397 3.40742E-01
 -1      2398 2.53862E-01
 -1      2399 2.81466E-01
 -1      2400 2.81466E-01
 -1      2401 2.09290E-01
 -1      2402 2.31699E-01
 -1      2403 2.31699E-01
 -1      2404 1.70405E-01
 -1      2405 1.89963E-01
 -1      2406 1.90208E-01
 -1      2407 1.37469E-01
 -1      2408 1.53947E-01
 -1      2409 1.54424E-01
 -1      2410 1.11363E-01
 -1      2411 1.24070E-01
 -1      2412 1.24567E-01
 -1      2413 9.11024E-02
 -1      2414 1.00729E-01
 -1      2415 1.00534E-01
 -1      2416 7.51126E-02
 -1      2417 8.19487E-02
 -1      2418 8.07459E-02
 -1      2419 6.44641E-02
 -1      2420 6.87228E-02
 -1      2421 6.52023E-02
 -1      2422 6.14484E-02
 -1      2423 6.09902E-02
 -1      2424 5.53385E-02
 -1      2425 6.82242E-02
 -1      2426 6.53070E-02
 -1      2427 5.57232E-02
 -1      2428 8.29833E-02
 -1      2429 7.51375E-02
 -1      2430 6.64952E-02
 -1      2431 1.06346E-01
 -1      2432 9.39202E-02
 -1      2433 8.43455E-02
 -1      2434 1.42879E-01
 -1      2435 1.27564E-01
 -1      2436 1.16501E-01
 -1      2437 1.98447E-01
 -1      2438 1.69207E-01
 -1      2439 1.64047E-01
 -1      2440 2.66184E-01
 -1      2441 2.30316E-01
 -1      2442 2.22243E-01
 -1      2443 3.45249E-01
 -1      2444 3.03430E-01
 -1      2445 2.91358E-01
 -1      2446 4.32544E-01
 -1      2447 3.86706E-01
 -1      2448 3.70061E-01
 -1      2449 5.21333E-01
 -1      2450 4.75525E-01
 -1      2451 4.54499E-01
 -1      2452 5.99935E-01
 -1      2453 5.61051E-01
 -1      2454 5.37197E-01
 -1      2455 6.72914E-01
 -1      2456 6.35270E-01
 -1      2457 6.12250E-01
 -1      2458 7.14090E-01
 -1      2459 6.98243E-01
 -1      2460 6.72914E-01
 -1      2461 7.35660E-01
 -1      2462 7.35660E-01
 -1      2463 7.19814E-01
 -1      2464 7.09816E-01
 -1      2465 7.36347E-01
 -1      2466 7.42071E-01
 -1      2467 6.11068E-01
 -1      2468 6.77123E-01
 -1      2469 7.10064E-01
 -1      2470 7.12951E-01
 -1      2471 6.75834E-01
 -1      2472 7.42136E-01
 -1      2473 9.81749E-01
 -1      2474 7.80382E-01
 -1      2475 8.74332E-01
 -1      2476 1.48699E+00
 -1      2477 1.18444E+00
 -1      2478 1.14446E+00
 -1      2479 1.83998E+00
 -1      2480 1.66317E+00
 -1      2481 1.52334E+00
 -1      2482 1.99739E+00
 -1      2483 1.99739E+00
 -1      2484 1.85693E+00
 -1      2485 1.98949E+00
 -1      2486 1.99451E+00
 -1      2487 2.01146E+00
 -1      2488 2.10664E+00
 -1      2489 2.12703E+00
 -1      2490 2.14612E+00
 -1      2491 2.02221E+00
 -1      2492 1.98948E+00
 -1      2493 2.16649E+00
 -1      2494 1.70654E+00
 -1      2495 1.88201E+00
 -1      2496 1.90914E+00
 -1      2497 1.38175E+00
 -1      2498 1.60256E+00
 -1      2499 1.66497E+00
 -1      2500 1.14777E+00
 -1      2501 1.27033E+00
 -1      2502 1.44958E+00
 -1      2503 8.56993E-01
 -1      2504 9.78088E-01
 -1      2505 1.16848E+00
 -1      2506 6.72689E-01
 -1      2507 7.30783E-01
 -1      2508 8.72592E-01
 -1      2509 6.20898E-01
 -1      2510 6.66134E-01
 -1      2511 7.39826E-01
 -1      2512 5.08526E-01
 -1      2513 9.57080E-01
 -1      2514 9.28561E-01
 -1      2515 1.28268E+00
 -1      2516 1.12175E+00
 -1      2517 1.30927E+00
 -1      2518 7.24637E-01
 -1      2519 6.92540E-01
 -1      2520 7.97689E-01
 -1      2521 7.97689E-01
 -1      2522 8.09801E-01
 -1      2523 1.01372E+00
 -1      2524 1.85284E+00
 -1      2525 1.59686E+00
 -1      2526 1.78811E+00
 -1      2527 2.04529E+00
 -1      2528 2.03669E+00
 -1      2529 2.28614E+00
 -1      2530 2.04529E+00
 -1      2531 2.04529E+00
 -1      2532 2.46999E+00
 -1      2533 1.90505E+00
 -1      2534 2.02533E+00
 -1      2535 2.45003E+00
 -1      2536 1.16624E+00
 -1      2537 1.44870E+00
 -1      2538 1.97373E+00
 -1      2539 1.04250E+00
 -1      2540 1.07838E+00
 -1      2541 1.42952E+00
 -1      2542 9.50041E-01
 -1      2543 8.94297E-01
 -1      2544 1.19345E+00
 -1      2545 3.01024E+01
 -1      2546 3.01024E+01
 -1      2547 2.84931E+01
 -1      2548 2.68838E+01
 -1      2549 7.04560E-01
 -1      2550 7.98228E-01
 -1      2551 6.25275E-01
 -1      2552 8.54837E-01
 -1      2553 1.42132E+01
 -1      2554 1.94746E+01
 -1      2555 1.67699E+00
 -1      2556 1.30180E+00
 -1      2557 8.38803E-01
 -1      2558 9.60126E-01
 -1      2559 2.52586E+01
 -1      2560 2.36333E+01
 -1      2561 3.39480E+01
 -1      2562 3.39480E+01
 -1      2563 2.17277E+01
 -1      2564 2.06797E+01
 -1      2565 5.22580E-01
 -1      2566 5.44627E-01
 -1      2567 4.71842E-01
 -1      2568 4.44592E-01
 -1      2569 5.69449E+00
 -1      2570 5.95238E+00
 -1      2571 9.17291E+00
 -1      2572 9.34896E+00
 -1      2573 2.77766E+01
 -1      2574 2.84339E+01
 -1      2575 2.84339E+01
 -1      2576 6.85331E+00
 -1      2577 8.25279E+00
 -1      2578 9.76705E+00
 -1      2579 7.01198E+00
 -1      2580 5.01637E+00
 -1      2581 2.95707E+01
 -1      2582 2.51934E+01
 -1      2583 1.76840E+01
 -1      2584 2.42819E+01
 -1      2585 9.97717E+00
 -1      2586 1.43500E+01
 -1      2587 7.29936E+00
 -1      2588 6.25391E+00
 -1      2589 9.18913E+00
 -1      2590 8.67583E+00
 -1      2591 9.97847E+00
 -1      2592 9.73543E+00
 -1      2593 8.02038E+00
 -1      2594 9.13474E+00
 -1      2595 5.86133E+00
 -1      2596 6.70810E+00
 -1      2597 9.02455E+00
 -1      2598 6.95210E+00
 -1      2599 1.57554E+01
 -1      2600 1.14544E+01
 -1      2601 1.89592E+01
 -1      2602 1.71456E+01
 -1      2603 1.89592E+01
 -1      2604 5.47791E+00
 -1      2605 5.51493E+00
 -1      2606 4.09769E+00
 -1      2607 1.62143E+00
 -1      2608 1.76464E+00
 -1      2609 1.32865E+00
 -1      2610 1.18831E+00
 -1      2611 4.59981E+00
 -1      2612 6.17639E-01
 -1      2613 7.58353E-01
 -1      2614 8.22619E-01
 -1      2615 7.98228E-01
 -1      2616 1.24414E+00
 -1      2617 1.28949E+01
 -1      2618 2.52586E+01
 -1      2619 9.07494E+00
 -1      2620 1.73168E+01
 -1      2621 5.55432E+00
 -1      2622 6.20898E-01
 -1      2623 2.84931E+01
 -1      2624 6.90801E-01
 -1      2625 5.77583E+00
 -1      2626 7.35010E-01
 -1      2627 2.27387E+01
 -1      2628 2.27387E+01
 -1      2629 1.83512E+01
 -1      2630 7.93184E+00
 -1      2631 9.68508E-01
 -1      2632 8.96860E-01
 -1      2633 8.22927E+00
 -1      2634 1.11401E+01
 -1      2635 1.02331E+01
 -1      2636 7.34491E+00
 -1      2637 6.42088E+00
 -1      2638 2.95707E+01
 -1      2639 6.30650E+00
 -1      2640 8.10758E+00
 -1      2641 7.39278E+00
 -1      2642 5.30379E+00
 -1      2643 1.25964E+01
 -1      2644 9.99392E+00
 -1      2645 6.56073E+00
 -1      2646 9.89854E+00
 -1      2647 1.94251E+01
 -1      2648 2.17277E+01
 -1      2649 1.46078E+01
 -1      2650 1.70256E+01
 -1      2651 1.19816E+01
 -1      2652 8.13323E+00
 -1      2653 6.21529E+00
 -1      2654 8.37280E+00
 -1      2655 9.51510E+00
 -1      2656 8.67455E+00
 -1      2657 7.50714E+00
 -1      2658 3.17012E+00
 -1      2659 5.85047E+00
 -1      2660 5.51775E+00
 -1      2661 5.41042E+00
 -1      2662 4.16373E+00
 -1      2663 4.08655E+00
 -1      2664 8.54837E-01
 -1      2665 8.54837E-01
 -1      2666 9.50041E-01
 -1      2667 8.38052E-01
 -1      2668 9.20595E-01
 -1      2669 4.22820E-01
 -1      2670 4.08066E-01
 -1      2671 4.00295E-01
 -1      2672 3.87368E-01
 -1      2673 3.50783E-01
 -1      2674 4.36494E-01
 -1      2675 4.36494E-01
 -1      2676 4.73283E-01
 -1      2677 4.24522E-01
 -1      2678 3.49824E-01
 -1      2679 7.18031E-01
 -1      2680 7.96238E-01
 -1      2681 7.99741E-01
 -1      2682 1.71774E+01
 -1      2683 1.25033E+01
 -1      2684 6.10238E-01
 -1      2685 7.03906E-01
 -1      2686 5.30041E-01
 -1      2687 1.14700E+01
 -1      2688 1.00799E+01
 -1      2689 5.21345E+00
 -1      2690 4.12268E+00
 -1      2691 5.52186E-01
 -1      2692 4.94346E-01
 -1      2693 4.87176E-01
 -1      2694 4.31052E-01
 -1      2695 3.91691E-01
 -1      2696 4.10907E-01
 -1      2697 3.61670E-01
 -1      2698 3.64377E-01
 -1      2699 3.36975E-01
 -1      2700 3.09593E-01
 -1      2701 3.19537E-01
 -1      2702 2.84858E-01
 -1      2703 2.60063E-01
 -1      2704 2.70105E-01
 -1      2705 2.44364E-01
 -1      2706 2.20977E-01
 -1      2707 2.29671E-01
 -1      2708 2.04754E-01
 -1      2709 1.85414E-01
 -1      2710 1.97748E-01
 -1      2711 1.69874E-01
 -1      2712 1.53238E-01
 -1      2713 1.65985E-01
 -1      2714 1.39416E-01
 -1      2715 1.24916E-01
 -1      2716 1.36622E-01
 -1      2717 1.13605E-01
 -1      2718 1.01318E-01
 -1      2719 1.11489E-01
 -1      2720 9.16593E-02
 -1      2721 8.16003E-02
 -1      2722 9.05199E-02
 -1      2723 7.33790E-02
 -1      2724 6.52259E-02
 -1      2725 7.26402E-02
 -1      2726 5.80803E-02
 -1      2727 5.24003E-02
 -1      2728 5.72734E-02
 -1      2729 4.58477E-02
 -1      2730 4.31230E-02
 -1      2731 4.35752E-02
 -1      2732 4.41229E-02
 -1      2733 4.90506E-02
 -1      2734 3.80224E-02
 -1      2735 5.69235E-02
 -1      2736 6.41802E-02
 -1      2737 4.68952E-02
 -1      2738 8.03007E-02
 -1      2739 9.95577E-02
 -1      2740 7.08887E-02
 -1      2741 1.19804E-01
 -1      2742 1.44819E-01
 -1      2743 1.07255E-01
 -1      2744 1.70374E-01
 -1      2745 2.02371E-01
 -1      2746 1.53057E-01
 -1      2747 2.34554E-01
 -1      2748 2.74972E-01
 -1      2749 2.10795E-01
 -1      2750 3.15230E-01
 -1      2751 3.65355E-01
 -1      2752 2.83235E-01
 -1      2753 4.15260E-01
 -1      2754 4.75917E-01
 -1      2755 3.73398E-01
 -1      2756 5.37160E-01
 -1      2757 6.08194E-01
 -1      2758 4.84545E-01
 -1      2759 6.82619E-01
 -1      2760 7.62097E-01
 -1      2761 6.20212E-01
 -1      2762 8.53604E-01
 -1      2763 9.36676E-01
 -1      2764 7.86144E-01
 -1      2765 1.04125E+00
 -1      2766 1.11875E+00
 -1      2767 9.82220E-01
 -1      2768 1.23971E+00
 -1      2769 1.29689E+00
 -1      2770 1.20774E+00
 -1      2771 1.42854E+00
 -1      2772 1.53758E+00
 -1      2773 1.46035E+00
 -1      2774 1.70094E+00
 -1      2775 1.82154E+00
 -1      2776 1.75536E+00
 -1      2777 2.06943E+00
 -1      2778 2.15159E+00
 -1      2779 2.16661E+00
 -1      2780 2.55805E+00
 -1      2781 2.72178E+00
 -1      2782 2.82095E+00
 -1      2783 2.87365E+00
 -1      2784 3.12676E+00
 -1      2785 3.37928E+00
 -1      2786 3.56652E+00
 -1      2787 3.31005E+00
 -1      2788 3.97090E+00
 -1      2789 4.81806E+00
 -1      2790 5.06835E+00
 -1      2791 5.90829E+00
 -1      2792 7.08811E+00
 -1      2793 7.08811E+00
 -1      2794 6.20361E+00
 -1      2795 4.55046E+00
 -1      2796 3.46369E+00
 -1      2797 2.85739E+00
 -1      2798 2.50457E+00
 -1      2799 1.87534E+00
 -1      2800 1.56977E+00
 -1      2801 2.50457E+00
 -1      2802 1.26472E+00
 -1      2803 1.12580E+00
 -1      2804 1.57030E+00
 -1      2805 3.50731E-01
 -1      2806 3.83827E-01
 -1      2807 1.14207E+00
 -1      2808 1.07631E+00
 -1      2809 1.28152E+00
 -1      2810 4.18026E-01
 -1      2811 4.71719E-01
 -1      2812 3.63249E-01
 -1      2813 2.44624E-01
 -1      2814 2.72228E-01
 -1      2815 2.04096E-01
 -1      2816 2.26259E-01
 -1      2817 2.17021E-01
 -1      2818 1.67804E-01
 -1      2819 1.87131E-01
 -1      2820 1.81691E-01
 -1      2821 1.37149E-01
 -1      2822 1.53607E-01
 -1      2823 1.50530E-01
 -1      2824 1.11294E-01
 -1      2825 1.24693E-01
 -1      2826 1.23877E-01
 -1      2827 8.98996E-02
 -1      2828 1.00534E-01
 -1      2829 1.00660E-01
 -1      2830 7.15922E-02
 -1      2831 8.07459E-02
 -1      2832 8.07459E-02
 -1      2833 5.78099E-02
 -1      2834 6.41997E-02
 -1      2835 6.41997E-02
 -1      2836 4.82548E-02
 -1      2837 5.17287E-02
 -1      2838 5.07261E-02
 -1      2839 5.15992E-02
 -1      2840 4.77406E-02
 -1      2841 4.41308E-02
 -1      2842 6.28370E-02
 -1      2843 5.59237E-02
 -1      2844 4.79410E-02
 -1      2845 8.68488E-02
 -1      2846 7.59118E-02
 -1      2847 6.53402E-02
 -1      2848 1.26498E-01
 -1      2849 1.05280E-01
 -1      2850 9.68459E-02
 -1      2851 1.75540E-01
 -1      2852 1.49213E-01
 -1      2853 1.37992E-01
 -1      2854 2.35076E-01
 -1      2855 2.03207E-01
 -1      2856 1.88373E-01
 -1      2857 3.05339E-01
 -1      2858 2.68093E-01
 -1      2859 2.49057E-01
 -1      2860 3.85065E-01
 -1      2861 3.43608E-01
 -1      2862 3.20343E-01
 -1      2863 4.70654E-01
 -1      2864 4.27673E-01
 -1      2865 4.01220E-01
 -1      2866 5.55166E-01
 -1      2867 5.15448E-01
 -1      2868 4.88622E-01
 -1      2869 6.33588E-01
 -1      2870 5.98253E-01
 -1      2871 5.76503E-01
 -1      2872 6.94816E-01
 -1      2873 6.69487E-01
 -1      2874 6.55490E-01
 -1      2875 7.67637E-01
 -1      2876 7.46066E-01
 -1      2877 7.42639E-01
 -1      2878 8.25432E-01
 -1      2879 8.24746E-01
 -1      2880 8.50998E-01
 -1      2881 8.34256E-01
 -1      2882 8.66950E-01
 -1      2883 9.49624E-01
 -1      2884 9.46638E-01
 -1      2885 8.81872E-01
 -1      2886 1.03876E+00
 -1      2887 1.17443E+00
 -1      2888 1.10700E+00
 -1      2889 1.24674E+00
 -1      2890 1.35890E+00
 -1      2891 1.15621E+00
 -1      2892 1.38887E+00
 -1      2893 2.06090E+00
 -1      2894 1.88472E+00
 -1      2895 1.89647E+00
 -1      2896 2.87988E+00
 -1      2897 2.72247E+00
 -1      2898 3.08386E+00
 -1      2899 2.27513E+00
 -1      2900 2.27802E+00
 -1      2901 3.14356E+00
 -1      2902 3.49469E+00
 -1      2903 3.35714E+00
 -1      2904 3.62370E+00
 -1      2905 3.54459E+00
 -1      2906 3.66176E+00
 -1      2907 4.87278E+00
 -1      2908 2.64631E+00
 -1      2909 2.78650E+00
 -1      2910 4.28176E+00
 -1      2911 2.22814E+00
 -1      2912 2.33212E+00
 -1      2913 3.20948E+00
 -1      2914 1.48949E+00
 -1      2915 1.60090E+00
 -1      2916 2.26805E+00
 -1      2917 1.17867E+00
 -1      2918 1.34835E+00
 -1      2919 1.49968E+00
 -1      2920 8.72592E-01
 -1      2921 9.98802E-01
 -1      2922 1.17867E+00
 -1      2923 7.39826E-01
 -1      2924 7.46382E-01
 -1      2925 8.72592E-01
 -1      2926 7.41566E-01
 -1      2927 2.14884E+01
 -1      2928 1.98791E+01
 -1      2929 3.09145E+00
 -1      2930 2.90759E+00
 -1      2931 1.80265E+00
 -1      2932 1.63798E+00
 -1      2933 3.16988E+00
 -1      2934 3.16988E+00
 -1      2935 3.79134E+00
 -1      2936 2.32493E+00
 -1      2937 2.01076E+00
 -1      2938 2.33947E+00
 -1      2939 3.13024E+00
 -1      2940 3.14993E+00
 -1      2941 3.16988E+00
 -1      2942 3.86978E+00
 -1      2943 2.21689E+00
 -1      2944 2.67324E+00
 -1      2945 3.39309E+00
 -1      2946 1.88184E+00
 -1      2947 1.96970E+00
 -1      2948 2.66921E+00
 -1      2949 8.39960E+00
 -1      2950 5.96975E+00
 -1      2951 6.69032E-01
 -1      2952 6.33852E-01
 -1      2953 5.84796E-01
 -1      2954 5.94790E-01
 -1      2955 5.09224E+00
 -1      2956 6.01236E+00
 -1      2957 5.05418E-01
 -1      2958 5.84703E-01
 -1      2959 4.90380E-01
 -1      2960 4.31147E-01
 -1      2961 2.91739E-01
 -1      2962 3.23410E-01
 -1      2963 3.01728E-01
 -1      2964 2.54897E-01
 -1      2965 4.36494E-01
 -1      2966 4.24442E-01
 -1      2967 3.60176E-01
 -1      2968 3.61797E-01
 -1      2969 2.36882E+01
 -1      2970 1.93108E+01
 -1      2971 7.09190E+00
 -1      2972 6.54560E+00
 -1      2973 4.25804E-01
 -1      2974 4.37581E-01
 -1      2975 1.91352E+01
 -1      2976 2.46493E+01
 -1      2977 4.59843E+00
 -1      2978 3.28093E+00
 -1      2979 5.95543E+00
 -1      2980 4.57896E+00
 -1      2981 4.81806E+00
 -1      2982 1.44431E+01
 -1      2983 1.79378E+01
 -1      2984 1.97169E+01
 -1      2985 1.62512E+01
 -1      2986 9.61594E+00
 -1      2987 1.29500E+01
 -1      2988 3.57869E+00
 -1      2989 4.47963E+00
 -1      2990 3.16075E+00
 -1      2991 1.17152E+00
 -1      2992 8.28513E-01
 -1      2993 1.34850E+01
 -1      2994 1.74957E+01
 -1      2995 2.12204E+01
 -1      2996 1.95951E+01
 -1      2997 1.42156E+01
 -1      2998 4.07216E+00
 -1      2999 2.80904E+00
 -1      3000 4.86930E-01
 -1      3001 5.94790E-01
 -1      3002 4.14732E-01
 -1      3003 3.42742E-01
 -1      3004 3.87098E-01
 -1      3005 3.99966E-01
 -1      3006 7.51786E+00
 -1      3007 8.94278E+00
 -1      3008 5.83760E+00
 -1      3009 4.79210E+00
 -1      3010 6.12074E+00
 -1      3011 6.28688E+00
 -1      3012 1.31392E+01
 -1      3013 9.68821E+00
 -1      3014 7.04869E+00
 -1      3015 7.40226E+00
 -1      3016 5.17910E+00
 -1      3017 3.54868E+00
 -1      3018 2.44806E+00
 -1      3019 4.22789E+00
 -1      3020 3.45729E+00
 -1      3021 3.90895E+00
 -1      3022 3.59083E+00
 -1      3023 3.30854E+00
 -1      3024 5.76440E-01
 -1      3025 2.16039E+01
 -1      3026 1.29898E+01
 -1      3027 1.42401E+01
 -1      3028 8.54491E-01
 -1      3029 8.59307E-01
 -1      3030 9.27542E-01
 -1      3031 5.10569E+00
 -1      3032 3.37026E+00
 -1      3033 5.33256E+00
 -1      3034 4.53811E+00
 -1      3035 1.31972E+00
 -1      3036 1.45194E+01
 -1      3037 4.31471E-01
 -1      3038 7.08811E+00
 -1      3039 7.93184E+00
 -1      3040 3.58494E+00
 -1      3041 5.87984E+00
 -1      3042 5.69491E+00
 -1      3043 3.86776E+00
 -1      3044 6.24817E+00
 -1      3045 9.99117E+00
 -1      3046 6.88023E+00
 -1      3047 8.96325E+00
 -1      3048 1.37679E+00
 -1      3049 1.39872E+00
 -1      3050 1.93891E+00
 -1      3051 1.36052E+00
 -1      3052 1.30221E+01
 -1      3053 9.36792E+00
 -1      3054 1.10113E+01
 -1      3055 1.41533E+01
 -1      3056 1.23314E+00
 -1      3057 1.10227E+00
 -1      3058 1.14696E+00
 -1      3059 1.72653E+00
 -1      3060 7.45211E+00
 -1      3061 6.14909E+00
 -1      3062 6.45084E+00
 -1      3063 4.07111E+00
 -1      3064 4.07674E-01
 -1      3065 4.22056E-01
 -1      3066 3.61636E-01
 -1      3067 3.50180E-01
 -1      3068 6.05482E+00
 -1      3069 5.20033E+00
 -1      3070 3.91168E+00
 -1      3071 3.14459E+00
 -1      3072 3.73548E+00
 -1      3073 1.43895E+01
 -1      3074 1.14627E+01
 -1      3075 4.41009E-01
 -1      3076 6.81813E+00
 -1      3077 9.89121E+00
 -1      3078 1.00701E+01
 -1      3079 4.89132E+00
 -1      3080 6.20361E+00
 -1      3081 4.55046E+00
 -1      3082 2.90461E-01
 -1      3083 3.02434E-01
 -1      3084 3.30421E+00
 -1      3085 3.60196E+00
 -1      3086 1.38344E+01
 -1      3087 3.45729E+00
 -1      3088 3.20641E-01
 -1      3089 3.00496E-01
 -1      3090 2.96924E-01
 -1      3091 2.72229E-01
 -1      3092 2.53188E-01
 -1      3093 2.61336E-01
 -1      3094 2.36600E-01
 -1      3095 2.38724E-01
 -1      3096 2.22444E-01
 -1      3097 2.06745E-01
 -1      3098 2.13674E-01
 -1      3099 1.93348E-01
 -1      3100 1.77125E-01
 -1      3101 1.86122E-01
 -1      3102 1.66475E-01
 -1      3103 1.50935E-01
 -1      3104 1.62076E-01
 -1      3105 1.39644E-01
 -1      3106 1.25821E-01
 -1      3107 1.40134E-01
 -1      3108 1.14783E-01
 -1      3109 1.03473E-01
 -1      3110 1.17805E-01
 -1      3111 9.31319E-02
 -1      3112 8.34735E-02
 -1      3113 9.64263E-02
 -1      3114 7.39457E-02
 -1      3115 6.57244E-02
 -1      3116 7.65577E-02
 -1      3117 5.68892E-02
 -1      3118 4.97437E-02
 -1      3119 5.81947E-02
 -1      3120 4.13053E-02
 -1      3121 3.47527E-02
 -1      3122 4.09212E-02
 -1      3123 3.14570E-02
 -1      3124 3.24569E-02
 -1      3125 2.91872E-02
 -1      3126 3.76106E-02
 -1      3127 4.54835E-02
 -1      3128 3.10452E-02
 -1      3129 5.89664E-02
 -1      3130 7.50869E-02
 -1      3131 4.96818E-02
 -1      3132 9.20992E-02
 -1      3133 1.12345E-01
 -1      3134 8.01769E-02
 -1      3135 1.35089E-01
 -1      3136 1.60645E-01
 -1      3137 1.19933E-01
 -1      3138 1.90115E-01
 -1      3139 2.22297E-01
 -1      3140 1.72147E-01
 -1      3141 2.59848E-01
 -1      3142 3.00106E-01
 -1      3143 2.39168E-01
 -1      3144 3.47406E-01
 -1      3145 3.97310E-01
 -1      3146 3.24019E-01
 -1      3147 4.55968E-01
 -1      3148 5.17210E-01
 -1      3149 4.29976E-01
 -1      3150 5.88458E-01
 -1      3151 6.62883E-01
 -1      3152 5.59881E-01
 -1      3153 7.46940E-01
 -1      3154 8.38447E-01
 -1      3155 7.15186E-01
 -1      3156 9.33079E-01
 -1      3157 1.03765E+00
 -1      3158 8.93875E-01
 -1      3159 1.16999E+00
 -1      3160 1.29094E+00
 -1      3161 1.12085E+00
 -1      3162 1.47809E+00
 -1      3163 1.60974E+00
 -1      3164 1.44034E+00
 -1      3165 1.89827E+00
 -1      3166 2.06163E+00
 -1      3167 1.91601E+00
 -1      3168 2.71384E+00
 -1      3169 2.96173E+00
 -1      3170 2.85675E+00
 -1      3171 3.82143E+00
 -1      3172 4.22789E+00
 -1      3173 4.36866E+00
 -1      3174 4.18308E+00
 -1      3175 4.62284E+00
 -1      3176 4.66525E+00
 -1      3177 2.48941E+00
 -1      3178 2.18436E+00
 -1      3179 2.27963E+00
 -1      3180 3.08314E-01
 -1      3181 3.42514E-01
 -1      3182 1.64415E-01
 -1      3183 1.81380E-01
 -1      3184 1.94251E-01
 -1      3185 2.12616E-01
 -1      3186 1.76975E-01
 -1      3187 1.12433E-01
 -1      3188 1.24889E-01
 -1      3189 9.04117E-02
 -1      3190 1.01172E-01
 -1      3191 1.02185E-01
 -1      3192 7.10994E-02
 -1      3193 8.02532E-02
 -1      3194 8.07652E-02
 -1      3195 5.51393E-02
 -1      3196 6.25318E-02
 -1      3197 6.20391E-02
 -1      3198 4.17567E-02
 -1      3199 4.78379E-02
 -1      3200 4.61699E-02
 -1      3201 3.45126E-02
 -1      3202 3.50269E-02
 -1      3203 3.21386E-02
 -1      3204 4.16034E-02
 -1      3205 3.72790E-02
 -1      3206 2.81750E-02
 -1      3207 6.70796E-02
 -1      3208 5.40048E-02
 -1      3209 4.33428E-02
 -1      3210 1.00544E-01
 -1      3211 8.21127E-02
 -1      3212 7.07773E-02
 -1      3213 1.41715E-01
 -1      3214 1.19001E-01
 -1      3215 1.04267E-01
 -1      3216 1.92103E-01
 -1      3217 1.64436E-01
 -1      3218 1.45445E-01
 -1      3219 2.52962E-01
 -1      3220 2.19945E-01
 -1      3221 1.96008E-01
 -1      3222 3.25026E-01
 -1      3223 2.86757E-01
 -1      3224 2.57645E-01
 -1      3225 4.09379E-01
 -1      3226 3.66771E-01
 -1      3227 3.33185E-01
 -1      3228 5.03206E-01
 -1      3229 4.58412E-01
 -1      3230 4.23964E-01
 -1      3231 6.01196E-01
 -1      3232 5.58109E-01
 -1      3233 5.27899E-01
 -1      3234 6.94711E-01
 -1      3235 6.58811E-01
 -1      3236 6.40417E-01
 -1      3237 8.08562E-01
 -1      3238 7.57312E-01
 -1      3239 7.60633E-01
 -1      3240 9.38701E-01
 -1      3241 8.81592E-01
 -1      3242 8.96265E-01
 -1      3243 1.09882E+00
 -1      3244 1.05730E+00
 -1      3245 1.08789E+00
 -1      3246 1.27251E+00
 -1      3247 1.22489E+00
 -1      3248 1.33257E+00
 -1      3249 1.52679E+00
 -1      3250 1.36643E+00
 -1      3251 1.55256E+00
 -1      3252 1.79524E+00
 -1      3253 1.81346E+00
 -1      3254 1.93315E+00
 -1      3255 2.60642E+00
 -1      3256 2.08060E+00
 -1      3257 2.50519E+00
 -1      3258 3.74543E+00
 -1      3259 3.08386E+00
 -1      3260 4.70571E+00
 -1      3261 3.62370E+00
 -1      3262 5.13413E+00
 -1      3263 4.96706E+00
 -1      3264 4.28176E+00
 -1      3265 5.03986E+00
 -1      3266 2.26805E+00
 -1      3267 2.89530E+00
 -1      3268 1.70892E+00
 -1      3269 1.85006E+00
 -1      3270 2.47730E+00
 -1      3271 1.17867E+00
 -1      3272 1.35854E+00
 -1      3273 1.70892E+00
 -1      3274 7.86887E-01
 -1      3275 9.13097E-01
 -1      3276 1.09297E+00
 -1      3277 8.99811E-01
 -1      3278 6.15187E+00
 -1      3279 6.15187E+00
 -1      3280 5.74633E+00
 -1      3281 5.66789E+00
 -1      3282 8.02842E+00
 -1      3283 4.64081E-01
 -1      3284 5.67518E+00
 -1      3285 6.15187E+00
 -1      3286 8.43396E+00
 -1      3287 3.87604E+00
 -1      3288 4.12323E+00
 -1      3289 6.88201E+00
 -1      3290 1.37206E-01
 -1      3291 1.51404E-01
 -1      3292 1.51092E-01
 -1      3293 1.25763E-01
 -1      3294 3.23717E-01
 -1      3295 3.15945E-01
 -1      3296 3.15617E-01
 -1      3297 3.08448E-01
 -1      3298 2.44567E-01
 -1      3299 4.38929E+00
 -1      3300 4.60868E+00
 -1      3301 1.22968E+01
 -1      3302 9.87907E+00
 -1      3303 1.33846E+01
 -1      3304 1.42401E+01
 -1      3305 1.30421E+01
 -1      3306 1.20809E+01
 -1      3307 1.12031E+01
 -1      3308 1.24005E+01
 -1      3309 4.13463E-01
 -1      3310 3.10306E-01
 -1      3311 2.62916E-01
 -1      3312 3.99338E-01
 -1      3313 9.33534E+00
 -1      3314 1.08285E+01
 -1      3315 1.06541E+01
 -1      3316 1.19955E+01
 -1      3317 2.96488E+00
 -1      3318 8.81036E+00
 -1      3319 7.77709E+00
 -1      3320 2.90064E+00
 -1      3321 3.26172E+00
 -1      3322 3.59459E-01
 -1      3323 3.26849E-01
 -1      3324 2.43606E-01
 -1      3325 3.59459E-01
 -1      3326 3.46862E+00
 -1      3327 1.20809E+01
 -1      3328 1.24870E+01
 -1      3329 5.20844E+00
 -1      3330 3.82687E+00
 -1      3331 3.12462E-01
 -1      3332 3.12193E-01
 -1      3333 2.85396E-01
 -1      3334 6.64001E+00
 -1      3335 1.18558E+01
 -1      3336 1.17403E+01
 -1      3337 9.52012E+00
 -1      3338 4.07111E+00
 -1      3339 4.17949E+00
 -1      3340 9.07573E+00
 -1      3341 4.96693E+00
 -1      3342 4.75729E+00
 -1      3343 2.61250E-01
 -1      3344 3.20614E-01
 -1      3345 3.20614E-01
 -1      3346 5.55723E+00
 -1      3347 3.93374E+00
 -1      3348 3.30451E+00
 -1      3349 5.81646E+00
 -1      3350 4.27908E+00
 -1      3351 4.43094E+00
 -1      3352 3.91857E+00
 -1      3353 3.15359E+00
 -1      3354 3.27072E+00
 -1      3355 4.28176E+00
 -1      3356 5.31910E+00
 -1      3357 4.46877E+00
 -1      3358 5.93384E+00
 -1      3359 5.59199E+00
 -1      3360 2.64763E-01
 -1      3361 2.92084E-01
 -1      3362 2.71349E-01
 -1      3363 3.25338E-01
 -1      3364 3.23717E-01
 -1      3365 2.88879E-01
 -1      3366 2.84155E-01
 -1      3367 1.31053E+01
 -1      3368 5.08288E+00
 -1      3369 2.04166E-01
 -1      3370 2.26937E-01
 -1      3371 2.46447E-01
 -1      3372 3.14356E+00
 -1      3373 3.74543E+00
 -1      3374 4.96706E+00
 -1      3375 3.20948E+00
 -1      3376 3.20948E+00
 -1      3377 3.52367E+00
 -1      3378 6.18949E+00
 -1      3379 5.48809E+00
 -1      3380 4.03305E+00
 -1      3381 5.58071E+00
 -1      3382 3.03067E+00
 -1      3383 2.82256E+00
 -1      3384 5.13413E+00
 -1      3385 8.73531E+00
 -1      3386 4.47545E+00
 -1      3387 3.89279E+00
 -1      3388 4.37589E+00
 -1      3389 6.43044E+00
 -1      3390 3.33404E+00
 -1      3391 2.82677E+00
 -1      3392 3.26799E+00
 -1      3393 9.67971E+00
 -1      3394 6.45058E+00
 -1      3395 7.92625E+00
 -1      3396 6.72926E+00
 -1      3397 8.31498E+00
 -1      3398 6.32459E+00
 -1      3399 5.27955E+00
 -1      3400 3.62381E+00
 -1      3401 3.51850E-01
 -1      3402 3.85549E-01
 -1      3403 2.96915E-01
 -1      3404 3.67638E-01
 -1      3405 3.93173E-01
 -1      3406 2.76596E-01
 -1      3407 2.88341E-01
 -1      3408 7.96794E+00
 -1      3409 3.45850E+00
 -1      3410 4.22557E+00
 -1      3411 2.25917E+00
 -1      3412 1.85434E+00
 -1      3413 2.95038E+00
 -1      3414 1.00919E+01
 -1      3415 1.03644E+01
 -1      3416 1.00851E+01
 -1      3417 1.07335E+01
 -1      3418 1.97164E+00
 -1      3419 2.45475E+00
 -1      3420 3.90878E+00
 -1      3421 2.79548E+00
 -1      3422 7.65013E+00
 -1      3423 3.25564E-01
 -1      3424 3.29312E-01
 -1      3425 7.01596E+00
 -1      3426 3.29312E-01
 -1      3427 3.78661E-01
 -1      3428 2.74039E-01
 -1      3429 2.93241E-01
 -1      3430 6.77062E+00
 -1      3431 3.60196E+00
 -1      3432 7.68677E+00
 -1      3433 8.06133E+00
 -1      3434 6.33179E+00
 -1      3435 5.24901E+00
 -1      3436 5.73063E-02
 -1      3437 6.58740E-02
 -1      3438 1.58501E-01
 -1      3439 1.71372E-01
 -1      3440 2.15803E-01
 -1      3441 2.12232E-01
 -1      3442 2.16433E-01
 -1      3443 2.05540E-01
 -1      3444 1.79049E-01
 -1      3445 2.01935E-01
 -1      3446 1.87779E-01
 -1      3447 1.79645E-01
 -1      3448 1.79892E-01
 -1      3449 1.66496E-01
 -1      3450 1.68153E-01
 -1      3451 1.56572E-01
 -1      3452 1.45922E-01
 -1      3453 1.50343E-01
 -1      3454 1.37598E-01
 -1      3455 1.26306E-01
 -1      3456 1.32094E-01
 -1      3457 1.17898E-01
 -1      3458 1.06860E-01
 -1      3459 1.15362E-01
 -1      3460 9.82033E-02
 -1      3461 8.78625E-02
 -1      3462 9.82964E-02
 -1      3463 7.94333E-02
 -1      3464 6.99055E-02
 -1      3465 8.12103E-02
 -1      3466 6.18880E-02
 -1      3467 5.30528E-02
 -1      3468 6.47636E-02
 -1      3469 4.54090E-02
 -1      3470 3.69707E-02
 -1      3471 4.91023E-02
 -1      3472 3.51963E-02
 -1      3473 3.19006E-02
 -1      3474 3.96841E-02
 -1      3475 3.38292E-02
 -1      3476 3.89829E-02
 -1      3477 3.98383E-02
 -1      3478 4.76790E-02
 -1      3479 6.11619E-02
 -1      3480 5.04630E-02
 -1      3481 7.70824E-02
 -1      3482 9.40946E-02
 -1      3483 7.50796E-02
 -1      3484 1.14720E-01
 -1      3485 1.37463E-01
 -1      3486 1.11625E-01
 -1      3487 1.63851E-01
 -1      3488 1.93321E-01
 -1      3489 1.58637E-01
 -1      3490 2.26997E-01
 -1      3491 2.64548E-01
 -1      3492 2.18701E-01
 -1      3493 3.07359E-01
 -1      3494 3.54659E-01
 -1      3495 2.95189E-01
 -1      3496 4.08880E-01
 -1      3497 4.67537E-01
 -1      3498 3.92220E-01
 -1      3499 5.36051E-01
 -1      3500 6.07299E-01
 -1      3501 5.14955E-01
 -1      3502 6.93865E-01
 -1      3503 7.77922E-01
 -1      3504 6.70035E-01
 -1      3505 8.87573E-01
 -1      3506 9.82205E-01
 -1      3507 8.66252E-01
 -1      3508 1.12085E+00
 -1      3509 1.25319E+00
 -1      3510 1.11455E+00
 -1      3511 1.42735E+00
 -1      3512 1.61449E+00
 -1      3513 1.42735E+00
 -1      3514 1.91091E+00
 -1      3515 2.19944E+00
 -1      3516 1.89792E+00
 -1      3517 4.24921E+00
 -1      3518 4.90142E+00
 -1      3519 4.24410E+00
 -1      3520 5.09066E+00
 -1      3521 5.95037E+00
 -1      3522 4.43391E+00
 -1      3523 7.45879E-02
 -1      3524 8.47464E-02
 -1      3525 6.98552E-02
 -1      3526 9.40146E-02
 -1      3527 1.05276E-01
 -1      3528 8.78372E-02
 -1      3529 4.17794E-02
 -1      3530 4.90809E-02
 -1      3531 5.29159E-02
 -1      3532 2.85817E-02
 -1      3533 3.53116E-02
 -1      3534 3.82225E-02
 -1      3535 3.23852E-02
 -1      3536 2.96189E-02
 -1      3537 3.27919E-02
 -1      3538 5.15148E-02
 -1      3539 3.91133E-02
 -1      3540 4.05572E-02
 -1      3541 8.01960E-02
 -1      3542 6.51629E-02
 -1      3543 6.09335E-02
 -1      3544 1.16378E-01
 -1      3545 9.79211E-02
 -1      3546 9.23067E-02
 -1      3547 1.61000E-01
 -1      3548 1.38279E-01
 -1      3549 1.31933E-01
 -1      3550 2.15579E-01
 -1      3551 1.87737E-01
 -1      3552 1.80572E-01
 -1      3553 2.81387E-01
 -1      3554 2.47592E-01
 -1      3555 2.39322E-01
 -1      3556 3.60426E-01
 -1      3557 3.18681E-01
 -1      3558 3.08628E-01
 -1      3559 4.51247E-01
 -1      3560 4.02214E-01
 -1      3561 3.87710E-01
 -1      3562 5.53238E-01
 -1      3563 4.98335E-01
 -1      3564 4.76586E-01
 -1      3565 6.72759E-01
 -1      3566 6.15143E-01
 -1      3567 5.85580E-01
 -1      3568 8.21888E-01
 -1      3569 7.59288E-01
 -1      3570 7.34014E-01
 -1      3571 1.01287E+00
 -1      3572 9.39838E-01
 -1      3573 9.38492E-01
 -1      3574 1.26630E+00
 -1      3575 1.14770E+00
 -1      3576 1.19127E+00
 -1      3577 1.55238E+00
 -1      3578 1.42631E+00
 -1      3579 1.48611E+00
 -1      3580 1.92296E+00
 -1      3581 1.82904E+00
 -1      3582 1.92278E+00
 -1      3583 2.60600E+00
 -1      3584 2.31932E+00
 -1      3585 2.59580E+00
 -1      3586 3.26799E+00
 -1      3587 3.25018E+00
 -1      3588 3.66818E+00
 -1      3589 7.18336E+00
 -1      3590 8.73531E+00
 -1      3591 9.52012E+00
 -1      3592 9.11458E+00
 -1      3593 1.85910E-01
 -1      3594 1.98103E-01
 -1      3595 1.57147E-01
 -1      3596 4.05242E+00
 -1      3597 1.18558E+01
 -1      3598 1.18558E+01
 -1      3599 1.06063E+01
 -1      3600 3.72942E+00
 -1      3601 4.33545E+00
 -1      3602 6.96477E+00
 -1      3603 8.43396E+00
 -1      3604 8.67687E+00
 -1      3605 8.67687E+00
 -1      3606 3.16098E-01
 -1      3607 3.23805E-01
 -1      3608 2.91482E-01
 -1      3609 1.74047E+00
 -1      3610 2.09085E+00
 -1      3611 3.28173E+00
 -1      3612 5.45868E+00
 -1      3613 5.75300E+00
 -1      3614 4.57438E+00
 -1      3615 8.06133E+00
 -1      3616 8.70294E+00
 -1      3617 1.45405E+00
 -1      3618 1.27932E+00
 -1      3619 1.20690E+00
 -1      3620 1.98670E+00
 -1      3621 6.34533E+00
 -1      3622 9.36552E+00
 -1      3623 8.11599E+00
 -1      3624 2.22801E-01
 -1      3625 2.02955E-01
 -1      3626 2.16636E-01
 -1      3627 4.57438E+00
 -1      3628 6.67237E+00
 -1      3629 2.21135E-01
 -1      3630 1.06763E-01
 -1      3631 1.14934E-01
 -1      3632 1.27251E-01
 -1      3633 1.64796E-01
 -1      3634 1.83270E-01
 -1      3635 1.97591E-01
 -1      3636 2.85818E-01
 -1      3637 6.48312E+00
 -1      3638 2.36803E-01
 -1      3639 2.53252E-01
 -1      3640 2.53252E-01
 -1      3641 2.95653E+00
 -1      3642 3.10828E+00
 -1      3643 2.54489E+00
 -1      3644 3.21918E+00
 -1      3645 2.93382E+00
 -1      3646 4.16976E+00
 -1      3647 5.48170E+00
 -1      3648 4.76208E+00
 -1      3649 3.74543E+00
 -1      3650 5.57547E+00
 -1      3651 7.63212E+00
 -1      3652 9.11458E+00
 -1      3653 5.44136E+00
 -1      3654 4.04921E+00
 -1      3655 4.79309E+00
 -1      3656 7.92214E+00
 -1      3657 4.82485E+00
 -1      3658 1.36836E-01
 -1      3659 1.49848E-01
 -1      3660 1.44245E-01
 -1      3661 1.26007E-01
 -1      3662 6.23621E+00
 -1      3663 5.18327E+00
 -1      3664 4.90460E+00
 -1      3665 4.80309E+00
 -1      3666 6.64629E+00
 -1      3667 2.54019E-01
 -1      3668 2.55778E-01
 -1      3669 1.47248E+00
 -1      3670 2.47776E-01
 -1      3671 2.57112E-01
 -1      3672 2.17624E-01
 -1      3673 2.53252E-01
 -1      3674 2.49768E-01
 -1      3675 3.70611E+00
 -1      3676 3.30062E+00
 -1      3677 3.31999E+00
 -1      3678 1.85441E+00
 -1      3679 2.48943E-01
 -1      3680 2.09139E-01
 -1      3681 2.32712E-01
 -1      3682 4.08211E+00
 -1      3683 4.56823E+00
 -1      3684 8.43396E+00
 -1      3685 2.53192E-01
 -1      3686 2.53192E-01
 -1      3687 2.15728E-01
 -1      3688 7.40050E+00
 -1      3689 1.84354E-01
 -1      3690 1.37890E-01
 -1      3691 3.57193E+00
 -1      3692 3.33404E+00
 -1      3693 3.76266E+00
 -1      3694 1.59937E-01
 -1      3695 1.56332E-01
 -1      3696 1.55965E-01
 -1      3697 1.48079E-01
 -1      3698 1.36257E-01
 -1      3699 1.43611E-01
 -1      3700 1.33686E-01
 -1      3701 1.31422E-01
 -1      3702 1.26926E-01
 -1      3703 1.18602E-01
 -1      3704 1.20194E-01
 -1      3705 1.11065E-01
 -1      3706 1.02656E-01
 -1      3707 1.05897E-01
 -1      3708 9.62944E-02
 -1      3709 8.76375E-02
 -1      3710 9.19973E-02
 -1      3711 8.09449E-02
 -1      3712 7.25157E-02
 -1      3713 7.89428E-02
 -1      3714 6.59194E-02
 -1      3715 5.79018E-02
 -1      3716 6.56539E-02
 -1      3717 5.15671E-02
 -1      3718 4.39234E-02
 -1      3719 5.27229E-02
 -1      3720 4.36116E-02
 -1      3721 4.18372E-02
 -1      3722 4.60764E-02
 -1      3723 4.35020E-02
 -1      3724 4.54306E-02
 -1      3725 4.74295E-02
 -1      3726 4.88671E-02
 -1      3727 5.75632E-02
 -1      3728 5.25308E-02
 -1      3729 6.81132E-02
 -1      3730 8.40337E-02
 -1      3731 6.65173E-02
 -1      3732 1.00873E-01
 -1      3733 1.21498E-01
 -1      3734 9.39066E-02
 -1      3735 1.43009E-01
 -1      3736 1.69396E-01
 -1      3737 1.32257E-01
 -1      3738 1.96835E-01
 -1      3739 2.30511E-01
 -1      3740 1.81206E-01
 -1      3741 2.65476E-01
 -1      3742 3.08287E-01
 -1      3743 2.43610E-01
 -1      3744 3.52937E-01
 -1      3745 4.07157E-01
 -1      3746 3.23224E-01
 -1      3747 4.64624E-01
 -1      3748 5.33138E-01
 -1      3749 4.25341E-01
 -1      3750 6.08271E-01
 -1      3751 6.94836E-01
 -1      3752 5.57940E-01
 -1      3753 7.95519E-01
 -1      3754 9.05171E-01
 -1      3755 7.33755E-01
 -1      3756 1.04553E+00
 -1      3757 1.18417E+00
 -1      3758 9.74793E-01
 -1      3759 1.38554E+00
 -1      3760 1.55970E+00
 -1      3761 1.31652E+00
 -1      3762 1.84995E+00
 -1      3763 2.14636E+00
 -1      3764 1.80814E+00
 -1      3765 2.56435E+00
 -1      3766 4.61413E+00
 -1      3767 2.51638E+00
 -1      3768 2.07964E-01
 -1      3769 2.26279E-01
 -1      3770 1.87067E-01
 -1      3771 2.47139E-01
 -1      3772 2.11511E-01
 -1      3773 2.42414E-01
 -1      3774 6.48312E+00
 -1      3775 3.77883E+00
 -1      3776 3.45101E+00
 -1      3777 2.50113E-01
 -1      3778 2.54019E-01
 -1      3779 2.18314E-01
 -1      3780 2.17969E-01
 -1      3781 7.92619E-02
 -1      3782 8.85301E-02
 -1      3783 3.88533E-02
 -1      3784 3.78161E-02
 -1      3785 4.80660E-02
 -1      3786 4.13379E-02
 -1      3787 4.63621E-02
 -1      3788 7.14098E-02
 -1      3789 5.77616E-02
 -1      3790 5.85423E-02
 -1      3791 1.05034E-01
 -1      3792 8.73088E-02
 -1      3793 8.41370E-02
 -1      3794 1.46879E-01
 -1      3795 1.24978E-01
 -1      3796 1.19980E-01
 -1      3797 1.98493E-01
 -1      3798 1.71756E-01
 -1      3799 1.64801E-01
 -1      3800 2.61243E-01
 -1      3801 2.29230E-01
 -1      3802 2.20414E-01
 -1      3803 3.36068E-01
 -1      3804 2.98774E-01
 -1      3805 2.88682E-01
 -1      3806 4.23056E-01
 -1      3807 3.81268E-01
 -1      3808 3.71414E-01
 -1      3809 5.23674E-01
 -1      3810 4.76586E-01
 -1      3811 4.70144E-01
 -1      3812 6.47412E-01
 -1      3813 5.85506E-01
 -1      3814 5.85506E-01
 -1      3815 8.07288E-01
 -1      3816 7.20759E-01
 -1      3817 7.20685E-01
 -1      3818 1.03771E+00
 -1      3819 9.19759E-01
 -1      3820 9.06504E-01
 -1      3821 1.35222E+00
 -1      3822 1.21739E+00
 -1      3823 1.19865E+00
 -1      3824 1.80115E+00
 -1      3825 1.64115E+00
 -1      3826 1.66726E+00
 -1      3827 2.33581E+00
 -1      3828 2.05915E+00
 -1      3829 2.21419E+00
 -1      3830 3.25367E+00
 -1      3831 2.85730E+00
 -1      3832 2.99368E+00
 -1      3833 3.71251E+00
 -1      3834 2.25469E+00
 -1      3835 5.54720E+00
 -1      3836 5.29496E+00
 -1      3837 4.25022E+00
 -1      3838 3.91819E+00
 -1      3839 2.41260E+00
 -1      3840 4.77391E-02
 -1      3841 5.59646E-02
 -1      3842 4.15072E+00
 -1      3843 4.44484E+00
 -1      3844 4.23047E+00
 -1      3845 1.24074E-01
 -1      3846 1.41774E-01
 -1      3847 4.12592E+00
 -1      3848 3.68101E-02
 -1      3849 4.32780E-02
 -1      3850 4.28716E-02
 -1      3851 2.34471E-01
 -1      3852 2.16561E-01
 -1      3853 1.62765E-01
 -1      3854 1.85332E-01
 -1      3855 4.44106E+00
 -1      3856 1.84119E-01
 -1      3857 6.30663E-02
 -1      3858 7.17802E-02
 -1      3859 7.24730E-02
 -1      3860 5.78896E-02
 -1      3861 5.32103E+00
 -1      3862 5.29496E+00
 -1      3863 3.60196E+00
 -1      3864 1.49435E-01
 -1      3865 1.53637E-01
 -1      3866 1.16362E-01
 -1      3867 1.95585E-01
 -1      3868 2.14788E-01
 -1      3869 1.74738E-01
 -1      3870 9.61108E-02
 -1      3871 1.05769E-01
 -1      3872 8.75355E-02
 -1      3873 1.47032E-01
 -1      3874 1.58930E-01
 -1      3875 2.03873E-01
 -1      3876 3.96970E+00
 -1      3877 6.29388E+00
 -1      3878 6.48312E+00
 -1      3879 1.90127E-01
 -1      3880 1.90127E-01
 -1      3881 1.84044E-01
 -1      3882 2.79055E+00
 -1      3883 5.13179E+00
 -1      3884 5.43186E+00
 -1      3885 4.15072E+00
 -1      3886 3.77072E+00
 -1      3887 4.63267E-02
 -1      3888 1.76295E-01
 -1      3889 1.60922E-01
 -1      3890 4.89106E+00
 -1      3891 4.00782E+00
 -1      3892 3.81048E+00
 -1      3893 4.39801E+00
 -1      3894 1.74646E-01
 -1      3895 1.80759E-01
 -1      3896 1.85545E-01
 -1      3897 1.85545E-01
 -1      3898 1.48680E-01
 -1      3899 1.30304E-01
 -1      3900 1.38957E-01
 -1      3901 1.33091E-01
 -1      3902 1.78487E-01
 -1      3903 1.77320E-01
 -1      3904 3.28173E+00
 -1      3905 1.90127E-01
 -1      3906 1.87541E-01
 -1      3907 1.35320E-01
 -1      3908 1.61939E-01
 -1      3909 1.30324E-01
 -1      3910 3.87021E+00
 -1      3911 1.34117E-01
 -1      3912 1.64769E-01
 -1      3913 1.42128E-01
 -1      3914 1.76851E-01
 -1      3915 1.83284E-01
 -1      3916 1.51465E-01
 -1      3917 1.19716E-01
 -1      3918 1.15248E-01
 -1      3919 1.12513E-01
 -1      3920 1.05753E-01
 -1      3921 1.00807E-01
 -1      3922 1.00994E-01
 -1      3923 9.34564E-02
 -1      3924 9.33126E-02
 -1      3925 8.76807E-02
 -1      3926 8.13188E-02
 -1      3927 8.27778E-02
 -1      3928 7.54636E-02
 -1      3929 6.87710E-02
 -1      3930 7.11470E-02
 -1      3931 6.39495E-02
 -1      3932 5.73531E-02
 -1      3933 6.04702E-02
 -1      3934 5.49984E-02
 -1      3935 4.86637E-02
 -1      3936 5.32939E-02
 -1      3937 4.83157E-02
 -1      3938 4.80039E-02
 -1      3939 5.05912E-02
 -1      3940 4.91172E-02
 -1      3941 5.07820E-02
 -1      3942 5.13565E-02
 -1      3943 5.36507E-02
 -1      3944 5.70872E-02
 -1      3945 5.53384E-02
 -1      3946 6.27999E-02
 -1      3947 7.33498E-02
 -1      3948 6.39197E-02
 -1      3949 8.31877E-02
 -1      3950 1.00027E-01
 -1      3951 7.94702E-02
 -1      3952 1.13340E-01
 -1      3953 1.34851E-01
 -1      3954 1.02621E-01
 -1      3955 1.54638E-01
 -1      3956 1.82076E-01
 -1      3957 1.35721E-01
 -1      3958 2.07358E-01
 -1      3959 2.42323E-01
 -1      3960 1.80789E-01
 -1      3961 2.74355E-01
 -1      3962 3.19004E-01
 -1      3963 2.38103E-01
 -1      3964 3.59917E-01
 -1      3965 4.17384E-01
 -1      3966 3.11048E-01
 -1      3967 4.70709E-01
 -1      3968 5.45842E-01
 -1      3969 4.05286E-01
 -1      3970 6.17947E-01
 -1      3971 7.18629E-01
 -1      3972 5.30716E-01
 -1      3973 8.19684E-01
 -1      3974 9.60040E-01
 -1      3975 7.03876E-01
 -1      3976 1.11869E+00
 -1      3977 1.32006E+00
 -1      3978 9.63580E-01
 -1      3979 1.58960E+00
 -1      3980 1.87985E+00
 -1      3981 1.39177E+00
 -1      3982 2.04748E+00
 -1      3983 2.46548E+00
 -1      3984 1.82894E+00
 -1      3985 1.64787E-01
 -1      3986 1.75160E-01
 -1      3987 1.54571E-01
 -1      3988 1.47023E-01
 -1      3989 1.85876E-01
 -1      3990 1.86221E-01
 -1      3991 1.53797E-01
 -1      3992 6.53018E-02
 -1      3993 5.56062E-02
 -1      3994 5.11834E-02
 -1      3995 4.86989E-02
 -1      3996 5.79429E-02
 -1      3997 1.27706E-01
 -1      3998 1.07762E-01
 -1      3999 1.73604E-01
 -1      4000 1.48728E-01
 -1      4001 1.36510E-01
 -1      4002 2.31054E-01
 -1      4003 2.00317E-01
 -1      4004 1.84244E-01
 -1      4005 3.02428E-01
 -1      4006 2.64897E-01
 -1      4007 2.44800E-01
 -1      4008 3.90478E-01
 -1      4009 3.45278E-01
 -1      4010 3.21493E-01
 -1      4011 4.98444E-01
 -1      4012 4.44914E-01
 -1      4013 4.18779E-01
 -1      4014 6.30093E-01
 -1      4015 5.68261E-01
 -1      4016 5.43032E-01
 -1      4017 7.94032E-01
 -1      4018 7.20685E-01
 -1      4019 7.03440E-01
 -1      4020 1.01897E+00
 -1      4021 9.06504E-01
 -1      4022 9.06504E-01
 -1      4023 1.34507E+00
 -1      4024 1.16539E+00
 -1      4025 1.16539E+00
 -1      4026 1.88464E+00
 -1      4027 1.59571E+00
 -1      4028 1.56245E+00
 -1      4029 3.12145E+00
 -1      4030 2.86345E+00
 -1      4031 2.79190E+00
 -1      4032 4.49421E-02
 -1      4033 4.94032E-02
 -1      4034 3.37458E+00
 -1      4035 3.27508E+00
 -1      4036 3.30261E+00
 -1      4037 3.76236E+00
 -1      4038 3.47014E+00
 -1      4039 1.12915E-01
 -1      4040 1.22500E-01
 -1      4041 1.17212E-01
 -1      4042 1.02262E-01
 -1      4043 4.65336E-02
 -1      4044 4.55276E-02
 -1      4045 4.86041E-02
 -1      4046 5.13549E-02
 -1      4047 9.12830E-02
 -1      4048 7.53840E-02
 -1      4049 7.24479E-02
 -1      4050 9.90091E-02
 -1      4051 1.07650E-01
 -1      4052 1.13951E-01
 -1      4053 1.63482E-01
 -1      4054 1.32730E-01
 -1      4055 1.58034E-01
 -1      4056 8.94019E-02
 -1      4057 9.70628E-02
 -1      4058 8.06899E-02
 -1      4059 1.16021E-01
 -1      4060 3.37458E+00
 -1      4061 3.37458E+00
 -1      4062 3.77072E+00
 -1      4063 3.77072E+00
 -1      4064 1.19338E-01
 -1      4065 1.18971E-01
 -1      4066 9.66643E-02
 -1      4067 1.19170E-01
 -1      4068 1.06619E-01
 -1      4069 1.17783E-01
 -1      4070 1.02796E-01
 -1      4071 4.61413E+00
 -1      4072 1.29296E-01
 -1      4073 1.35154E-01
 -1      4074 6.31411E-02
 -1      4075 7.06228E-02
 -1      4076 4.53666E+00
 -1      4077 4.99758E-02
 -1      4078 5.13605E-02
 -1      4079 5.84622E-02
 -1      4080 1.22569E-01
 -1      4081 1.17843E-01
 -1      4082 1.25918E-01
 -1      4083 1.14048E-01
 -1      4084 1.23180E-01
 -1      4085 1.18383E-01
 -1      4086 9.08847E-02
 -1      4087 4.14523E+00
 -1      4088 1.28018E-01
 -1      4089 1.31924E-01
 -1      4090 1.30605E-01
 -1      4091 1.30605E-01
 -1      4092 8.46867E-02
 -1      4093 1.00589E-01
 -1      4094 3.28256E+00
 -1      4095 3.28256E+00
 -1      4096 2.30375E+00
 -1      4097 2.78693E+00
 -1      4098 2.77945E+00
 -1      4099 2.38801E+00
 -1      4100 8.94963E-02
 -1      4101 9.70770E-02
 -1      4102 8.01643E-02
 -1      4103 5.66120E-02
 -1      4104 1.30076E-01
 -1      4105 1.31767E-01
 -1      4106 9.86847E-02
 -1      4107 1.12349E-01
 -1      4108 8.52057E-02
 -1      4109 8.04466E-02
 -1      4110 7.74317E-02
 -1      4111 7.16561E-02
 -1      4112 6.93248E-02
 -1      4113 8.29654E-02
 -1      4114 7.71102E-02
 -1      4115 7.76192E-02
 -1      4116 6.25315E-02
 -1      4117 5.77100E-02
 -1      4118 7.43499E-02
 -1      4119 5.47558E-02
 -1      4120 5.24010E-02
 -1      4121 5.68170E-02
 -1      4122 5.09392E-02
 -1      4123 5.05912E-02
 -1      4124 5.24010E-02
 -1      4125 5.13565E-02
 -1      4126 5.24698E-02
 -1      4127 5.17045E-02
 -1      4128 5.53384E-02
 -1      4129 5.82070E-02
 -1      4130 5.53384E-02
 -1      4131 6.39197E-02
 -1      4132 6.96324E-02
 -1      4133 6.39197E-02
 -1      4134 7.87486E-02
 -1      4135 8.85864E-02
 -1      4136 7.87486E-02
 -1      4137 1.00946E-01
 -1      4138 1.14259E-01
 -1      4139 1.00224E-01
 -1      4140 1.30484E-01
 -1      4141 1.50271E-01
 -1      4142 1.28808E-01
 -1      4143 1.71133E-01
 -1      4144 1.96414E-01
 -1      4145 1.65895E-01
 -1      4146 2.22934E-01
 -1      4147 2.54966E-01
 -1      4148 2.13277E-01
 -1      4149 2.88611E-01
 -1      4150 3.29523E-01
 -1      4151 2.73442E-01
 -1      4152 3.72584E-01
 -1      4153 4.25909E-01
 -1      4154 3.50147E-01
 -1      4155 4.82532E-01
 -1      4156 5.54638E-01
 -1      4157 4.49831E-01
 -1      4158 6.33938E-01
 -1      4159 7.34992E-01
 -1      4160 5.85754E-01
 -1      4161 8.67331E-01
 -1      4162 1.02598E+00
 -1      4163 7.97393E-01
 -1      4164 1.30998E+00
 -1      4165 1.57952E+00
 -1      4166 1.21373E+00
 -1      4167 1.82894E+00
 -1      4168 1.99658E+00
 -1      4169 2.38801E+00
 -1      4170 1.74716E+00
 -1      4171 6.23657E-02
 -1      4172 5.79429E-02
 -1      4173 1.87284E-01
 -1      4174 1.60571E-01
 -1      4175 1.42615E-01
 -1      4176 1.21594E-01
 -1      4177 1.45656E-01
 -1      4178 3.22703E-01
 -1      4179 2.79853E-01
 -1      4180 4.23594E-01
 -1      4181 3.69158E-01
 -1      4182 3.27519E-01
 -1      4183 5.56015E-01
 -1      4184 4.86198E-01
 -1      4185 4.36577E-01
 -1      4186 7.33388E-01
 -1      4187 6.42796E-01
 -1      4188 5.85963E-01
 -1      4189 9.79303E-01
 -1      4190 8.66831E-01
 -1      4191 8.06187E-01
 -1      4192 1.40477E+00
 -1      4193 1.25835E+00
 -1      4194 1.21868E+00
 -1      4195 1.66071E+00
 -1      4196 1.41007E+00
 -1      4197 1.50303E+00
 -1      4198 2.15137E+00
 -1      4199 3.28899E+00
 -1      4200 3.93825E+00
 -1      4201 1.27687E-01
 -1      4202 1.28018E-01
 -1      4203 1.01908E-01
 -1      4204 2.38801E+00
 -1      4205 7.80583E-02
 -1      4206 8.34454E-02
 -1      4207 9.67897E-02
 -1      4208 9.49856E-02
 -1      4209 9.57306E-02
 -1      4210 7.63796E-02
 -1      4211 2.44801E-01
 -1      4212 2.10958E-01
 -1      4213 1.87285E-01
 -1      4214 2.46011E-01
 -1      4215 9.34995E-02
 -1      4216 9.07646E-02
 -1      4217 7.78986E-02
 -1      4218 8.56887E-02
 -1      4219 9.00979E-02
 -1      4220 9.08847E-02
 -1      4221 9.60028E-02
 -1      4222 9.86847E-02
 -1      4223 5.79429E-02
 -1      4224 5.35202E-02
 -1      4225 5.13549E-02
 -1      4226 5.58522E-02
 -1      4227 6.05310E-02
 -1      4228 1.05506E-01
 -1      4229 1.03545E-01
 -1      4230 1.10691E-01
 -1      4231 5.04082E-02
 -1      4232 5.23655E-02
 -1      4233 5.62846E-02
 -1      4234 8.03006E-02
 -1      4235 7.02185E-02
 -1      4236 7.02185E-02
 -1      4237 1.13615E-01
 -1      4238 1.07510E-01
 -1      4239 9.10304E-02
 -1      4240 8.35319E-02
 -1      4241 8.35319E-02
 -1      4242 7.76270E-02
 -1      4243 1.10691E-01
 -1      4244 1.18495E-01
 -1      4245 1.11973E-01
 -1      4246 6.49977E-02
 -1      4247 8.33735E-02
 -1      4248 1.11321E-01
 -1      4249 1.04150E-01
 -1      4250 1.07529E-01
 -1      4251 7.43499E-02
 -1      4252 7.51097E-02
 -1      4253 9.39832E-02
 -1      4254 1.83048E+00
 -1      4255 2.22191E+00
 -1      4256 2.22939E+00
 -1      4257 1.58106E+00
 -1      4258 3.30261E+00
 -1      4259 1.07529E-01
 -1      4260 1.02451E-01
 -1      4261 9.76306E-02
 -1      4262 4.91896E-02
 -1      4263 4.86041E-02
 -1      4264 5.13549E-02
 -1      4265 5.09938E-02
 -1      4266 1.54323E-01
 -1      4267 1.36366E-01
 -1      4268 9.21565E-02
 -1      4269 8.91416E-02
 -1      4270 8.26739E-02
 -1      4271 9.39832E-02
 -1      4272 1.05506E-01
 -1      4273 8.89285E-02
 -1      4274 7.43499E-02
 -1      4275 5.97712E-02
 -1      4276 5.68170E-02
 -1      4277 5.33304E-02
 -1      4278 5.18686E-02
 -1      4279 5.00644E-02
 -1      4280 5.08297E-02
 -1      4281 5.29950E-02
 -1      4282 5.58636E-02
 -1      4283 6.02864E-02
 -1      4284 6.59990E-02
 -1      4285 7.38518E-02
 -1      4286 8.29680E-02
 -1      4287 9.36978E-02
 -1      4288 1.06057E-01
 -1      4289 1.20141E-01
 -1      4290 1.75185E-01
 -1      4291 1.98858E-01
 -1      4292 2.25378E-01
 -1      4293 2.60431E-01
 -1      4294 2.94075E-01
 -1      4295 3.40530E-01
 -1      4296 3.83591E-01
 -1      4297 4.46194E-01
 -1      4298 5.02817E-01
 -1      4299 5.89599E-01
 -1      4300 6.68900E-01
 -1      4301 8.02343E-01
 -1      4302 9.34681E-01
 -1      4303 1.21373E+00
 -1      4304 1.49773E+00
 -1      4305 9.65925E-02
 -1      4306 8.13934E-02
 -1      4307 8.12350E-02
 -1      4308 9.88476E-02
 -1      4309 9.81958E-02
 -1      4310 9.16763E-02
 -1      4311 9.27752E-02
 -1      4312 9.52740E-02
 -1      4313 9.90378E-02
 -1      4314 1.05506E-01
 -1      4315 9.39832E-02
 -1      4316 9.38643E-02
 -1      4317 1.58106E+00
 -1      4318 9.27752E-02
 -1      4319 9.05441E-02
 -1      4320 8.45898E-02
 -1      4321 7.90308E-02
 -1      4322 8.88010E-02
 -1      4323 1.11973E-01
 -1      4324 1.11973E-01
 -1      4325 9.88476E-02
 -1      4326 9.38643E-02
 -1      4327 9.76306E-02
 -1      4328 1.58636E+00
 -1      4329 9.76306E-02
 -3
 9999
