    1C
    1UUSER                                                              
    1UDATE              26.october.2022                                 
    1UTIME              23:40:59                                        
    1UHOST                                                              
    1UPGM               CalculiX                                        
    1UVERSION           Version 2.17                             
    1UCOMPILETIME       Thu Jul 23 21:43:50 CEST 2020                    
    1UDIR                                                               
    1UDBN                                                               
    1UMAT    1SOLIDMATERIAL                                             
    2C                          4317                                     1
 -1         1 4.36364E+01 3.39813E+01 0.00000E+00
 -1         2 5.00103E+01 2.70093E+01 0.00000E+00
 -1         3 1.50000E+02 0.00000E+00 0.00000E+00
 -1         4 1.50000E+02 5.00000E+01 0.00000E+00
 -1         5 0.00000E+00 0.00000E+00 0.00000E+00
 -1         6 0.00000E+00 5.00000E+01 0.00000E+00
 -1         7 0.00000E+00 4.70500E+01 0.00000E+00
 -1         8 0.00000E+00 4.41000E+01 0.00000E+00
 -1         9 0.00000E+00 4.11500E+01 0.00000E+00
 -1        10 0.00000E+00 3.82000E+01 0.00000E+00
 -1        11 0.00000E+00 3.52500E+01 0.00000E+00
 -1        12 0.00000E+00 3.23500E+01 0.00000E+00
 -1        13 0.00000E+00 2.94000E+01 0.00000E+00
 -1        14 0.00000E+00 2.64500E+01 0.00000E+00
 -1        15 0.00000E+00 2.35000E+01 0.00000E+00
 -1        16 0.00000E+00 2.05500E+01 0.00000E+00
 -1        17 0.00000E+00 1.76000E+01 0.00000E+00
 -1        18 0.00000E+00 1.47000E+01 0.00000E+00
 -1        19 0.00000E+00 1.17500E+01 0.00000E+00
 -1        20 0.00000E+00 8.80000E+00 0.00000E+00
 -1        21 0.00000E+00 5.85000E+00 0.00000E+00
 -1        22 0.00000E+00 2.90000E+00 0.00000E+00
 -1        23 3.15000E+00 5.00000E+01 0.00000E+00
 -1        24 6.15000E+00 5.00000E+01 0.00000E+00
 -1        25 9.15000E+00 5.00000E+01 0.00000E+00
 -1        26 1.21500E+01 5.00000E+01 0.00000E+00
 -1        27 1.51500E+01 5.00000E+01 0.00000E+00
 -1        28 1.81500E+01 5.00000E+01 0.00000E+00
 -1        29 2.11500E+01 5.00000E+01 0.00000E+00
 -1        30 2.41500E+01 5.00000E+01 0.00000E+00
 -1        31 2.71500E+01 5.00000E+01 0.00000E+00
 -1        32 3.01500E+01 5.00000E+01 0.00000E+00
 -1        33 3.31500E+01 5.00000E+01 0.00000E+00
 -1        34 3.61500E+01 5.00000E+01 0.00000E+00
 -1        35 3.91500E+01 5.00000E+01 0.00000E+00
 -1        36 4.21500E+01 5.00000E+01 0.00000E+00
 -1        37 4.51500E+01 5.00000E+01 0.00000E+00
 -1        38 4.81500E+01 5.00000E+01 0.00000E+00
 -1        39 5.11500E+01 5.00000E+01 0.00000E+00
 -1        40 5.41500E+01 5.00000E+01 0.00000E+00
 -1        41 5.71500E+01 5.00000E+01 0.00000E+00
 -1        42 6.01500E+01 5.00000E+01 0.00000E+00
 -1        43 6.31500E+01 5.00000E+01 0.00000E+00
 -1        44 6.61500E+01 5.00000E+01 0.00000E+00
 -1        45 6.91500E+01 5.00000E+01 0.00000E+00
 -1        46 7.21500E+01 5.00000E+01 0.00000E+00
 -1        47 7.51500E+01 5.00000E+01 0.00000E+00
 -1        48 7.81500E+01 5.00000E+01 0.00000E+00
 -1        49 8.11500E+01 5.00000E+01 0.00000E+00
 -1        50 8.41500E+01 5.00000E+01 0.00000E+00
 -1        51 8.71500E+01 5.00000E+01 0.00000E+00
 -1        52 9.01500E+01 5.00000E+01 0.00000E+00
 -1        53 9.31500E+01 5.00000E+01 0.00000E+00
 -1        54 9.61500E+01 5.00000E+01 0.00000E+00
 -1        55 9.91500E+01 5.00000E+01 0.00000E+00
 -1        56 1.02150E+02 5.00000E+01 0.00000E+00
 -1        57 1.05150E+02 5.00000E+01 0.00000E+00
 -1        58 1.08150E+02 5.00000E+01 0.00000E+00
 -1        59 1.11150E+02 5.00000E+01 0.00000E+00
 -1        60 1.14150E+02 5.00000E+01 0.00000E+00
 -1        61 1.17150E+02 5.00000E+01 0.00000E+00
 -1        62 1.20150E+02 5.00000E+01 0.00000E+00
 -1        63 1.23150E+02 5.00000E+01 0.00000E+00
 -1        64 1.26150E+02 5.00000E+01 0.00000E+00
 -1        65 1.29150E+02 5.00000E+01 0.00000E+00
 -1        66 1.32150E+02 5.00000E+01 0.00000E+00
 -1        67 1.35150E+02 5.00000E+01 0.00000E+00
 -1        68 1.38150E+02 5.00000E+01 0.00000E+00
 -1        69 1.41150E+02 5.00000E+01 0.00000E+00
 -1        70 1.44150E+02 5.00000E+01 0.00000E+00
 -1        71 1.47150E+02 5.00000E+01 0.00000E+00
 -1        72 3.15000E+00 0.00000E+00 0.00000E+00
 -1        73 6.15000E+00 0.00000E+00 0.00000E+00
 -1        74 9.15000E+00 0.00000E+00 0.00000E+00
 -1        75 1.21500E+01 0.00000E+00 0.00000E+00
 -1        76 1.51500E+01 0.00000E+00 0.00000E+00
 -1        77 1.81500E+01 0.00000E+00 0.00000E+00
 -1        78 2.11500E+01 0.00000E+00 0.00000E+00
 -1        79 2.41500E+01 0.00000E+00 0.00000E+00
 -1        80 2.71500E+01 0.00000E+00 0.00000E+00
 -1        81 3.01500E+01 0.00000E+00 0.00000E+00
 -1        82 3.31500E+01 0.00000E+00 0.00000E+00
 -1        83 3.61500E+01 0.00000E+00 0.00000E+00
 -1        84 3.91500E+01 0.00000E+00 0.00000E+00
 -1        85 4.21500E+01 0.00000E+00 0.00000E+00
 -1        86 4.51500E+01 0.00000E+00 0.00000E+00
 -1        87 4.81500E+01 0.00000E+00 0.00000E+00
 -1        88 5.11500E+01 0.00000E+00 0.00000E+00
 -1        89 5.41500E+01 0.00000E+00 0.00000E+00
 -1        90 5.71500E+01 0.00000E+00 0.00000E+00
 -1        91 6.01500E+01 0.00000E+00 0.00000E+00
 -1        92 6.31500E+01 0.00000E+00 0.00000E+00
 -1        93 6.61500E+01 0.00000E+00 0.00000E+00
 -1        94 6.91500E+01 0.00000E+00 0.00000E+00
 -1        95 7.21500E+01 0.00000E+00 0.00000E+00
 -1        96 7.51500E+01 0.00000E+00 0.00000E+00
 -1        97 7.81500E+01 0.00000E+00 0.00000E+00
 -1        98 8.11500E+01 0.00000E+00 0.00000E+00
 -1        99 8.41500E+01 0.00000E+00 0.00000E+00
 -1       100 8.71500E+01 0.00000E+00 0.00000E+00
 -1       101 9.01500E+01 0.00000E+00 0.00000E+00
 -1       102 9.31500E+01 0.00000E+00 0.00000E+00
 -1       103 9.61500E+01 0.00000E+00 0.00000E+00
 -1       104 9.91500E+01 0.00000E+00 0.00000E+00
 -1       105 1.02150E+02 0.00000E+00 0.00000E+00
 -1       106 1.05150E+02 0.00000E+00 0.00000E+00
 -1       107 1.08150E+02 0.00000E+00 0.00000E+00
 -1       108 1.11150E+02 0.00000E+00 0.00000E+00
 -1       109 1.14150E+02 0.00000E+00 0.00000E+00
 -1       110 1.17150E+02 0.00000E+00 0.00000E+00
 -1       111 1.20150E+02 0.00000E+00 0.00000E+00
 -1       112 1.23150E+02 0.00000E+00 0.00000E+00
 -1       113 1.26150E+02 0.00000E+00 0.00000E+00
 -1       114 1.29150E+02 0.00000E+00 0.00000E+00
 -1       115 1.32150E+02 0.00000E+00 0.00000E+00
 -1       116 1.35150E+02 0.00000E+00 0.00000E+00
 -1       117 1.38150E+02 0.00000E+00 0.00000E+00
 -1       118 1.41150E+02 0.00000E+00 0.00000E+00
 -1       119 1.44150E+02 0.00000E+00 0.00000E+00
 -1       120 1.47150E+02 0.00000E+00 0.00000E+00
 -1       121 1.50000E+02 2.95000E+00 0.00000E+00
 -1       122 1.50000E+02 5.90000E+00 0.00000E+00
 -1       123 1.50000E+02 8.85000E+00 0.00000E+00
 -1       124 1.50000E+02 1.18000E+01 0.00000E+00
 -1       125 1.50000E+02 1.47500E+01 0.00000E+00
 -1       126 1.50000E+02 1.76500E+01 0.00000E+00
 -1       127 1.50000E+02 2.06000E+01 0.00000E+00
 -1       128 1.50000E+02 2.35500E+01 0.00000E+00
 -1       129 1.50000E+02 2.65000E+01 0.00000E+00
 -1       130 1.50000E+02 2.94500E+01 0.00000E+00
 -1       131 1.50000E+02 3.24000E+01 0.00000E+00
 -1       132 1.50000E+02 3.53000E+01 0.00000E+00
 -1       133 1.50000E+02 3.82500E+01 0.00000E+00
 -1       134 1.50000E+02 4.12000E+01 0.00000E+00
 -1       135 1.50000E+02 4.41500E+01 0.00000E+00
 -1       136 1.50000E+02 4.71000E+01 0.00000E+00
 -1       137 4.98670E+01 2.56002E+01 0.00000E+00
 -1       138 4.93445E+01 2.40297E+01 0.00000E+00
 -1       139 4.85140E+01 2.26840E+01 0.00000E+00
 -1       140 4.74488E+01 2.15964E+01 0.00000E+00
 -1       141 4.61642E+01 2.07601E+01 0.00000E+00
 -1       142 4.47693E+01 2.02339E+01 0.00000E+00
 -1       143 4.32623E+01 2.00139E+01 0.00000E+00
 -1       144 4.17320E+01 2.01270E+01 0.00000E+00
 -1       145 4.03130E+01 2.05499E+01 0.00000E+00
 -1       146 3.89133E+01 2.13336E+01 0.00000E+00
 -1       147 3.78505E+01 2.22790E+01 0.00000E+00
 -1       148 3.69972E+01 2.34256E+01 0.00000E+00
 -1       149 3.63242E+01 2.49368E+01 0.00000E+00
 -1       150 3.60401E+01 2.63642E+01 0.00000E+00
 -1       151 3.60859E+01 2.80357E+01 0.00000E+00
 -1       152 3.64406E+01 2.94258E+01 0.00000E+00
 -1       153 3.71669E+01 3.08634E+01 0.00000E+00
 -1       154 3.80620E+01 3.19605E+01 0.00000E+00
 -1       155 3.92136E+01 3.28902E+01 0.00000E+00
 -1       156 4.05347E+01 3.35570E+01 0.00000E+00
 -1       157 4.20991E+01 3.39498E+01 0.00000E+00
 -1       158 4.50648E+01 3.37010E+01 0.00000E+00
 -1       159 4.63827E+01 3.31434E+01 0.00000E+00
 -1       160 4.76117E+01 3.22845E+01 0.00000E+00
 -1       161 4.86104E+01 3.12092E+01 0.00000E+00
 -1       162 4.93476E+01 2.99824E+01 0.00000E+00
 -1       163 4.98314E+01 2.85817E+01 0.00000E+00
 -1       164 2.59800E+00 4.55750E+01 0.00000E+00
 -1       165 2.59800E+00 4.26250E+01 0.00000E+00
 -1       166 2.59800E+00 3.96750E+01 0.00000E+00
 -1       167 2.59800E+00 3.67250E+01 0.00000E+00
 -1       168 2.59800E+00 3.38250E+01 0.00000E+00
 -1       169 2.59800E+00 3.08750E+01 0.00000E+00
 -1       170 2.59800E+00 2.79250E+01 0.00000E+00
 -1       171 2.59800E+00 2.49750E+01 0.00000E+00
 -1       172 2.59800E+00 2.20250E+01 0.00000E+00
 -1       173 2.59800E+00 1.90750E+01 0.00000E+00
 -1       174 2.59800E+00 1.61750E+01 0.00000E+00
 -1       175 2.59800E+00 1.32250E+01 0.00000E+00
 -1       176 2.59800E+00 1.02750E+01 0.00000E+00
 -1       177 2.59800E+00 7.32500E+00 0.00000E+00
 -1       178 2.59800E+00 4.37500E+00 0.00000E+00
 -1       179 2.87400E+00 2.18750E+00 0.00000E+00
 -1       180 4.65000E+00 4.74020E+01 0.00000E+00
 -1       181 7.65000E+00 4.74020E+01 0.00000E+00
 -1       182 1.06500E+01 4.74020E+01 0.00000E+00
 -1       183 1.36500E+01 4.74020E+01 0.00000E+00
 -1       184 1.66500E+01 4.74020E+01 0.00000E+00
 -1       185 1.96500E+01 4.74020E+01 0.00000E+00
 -1       186 2.26500E+01 4.74020E+01 0.00000E+00
 -1       187 2.56500E+01 4.74020E+01 0.00000E+00
 -1       188 2.86500E+01 4.74020E+01 0.00000E+00
 -1       189 3.16500E+01 4.74020E+01 0.00000E+00
 -1       190 3.46500E+01 4.74020E+01 0.00000E+00
 -1       191 3.76500E+01 4.74020E+01 0.00000E+00
 -1       192 4.06500E+01 4.74020E+01 0.00000E+00
 -1       193 4.36500E+01 4.74020E+01 0.00000E+00
 -1       194 4.66500E+01 4.74020E+01 0.00000E+00
 -1       195 4.96500E+01 4.74020E+01 0.00000E+00
 -1       196 5.26500E+01 4.74020E+01 0.00000E+00
 -1       197 5.56500E+01 4.74020E+01 0.00000E+00
 -1       198 5.86500E+01 4.74020E+01 0.00000E+00
 -1       199 6.16500E+01 4.74020E+01 0.00000E+00
 -1       200 6.46500E+01 4.74020E+01 0.00000E+00
 -1       201 6.76500E+01 4.74020E+01 0.00000E+00
 -1       202 7.06500E+01 4.74020E+01 0.00000E+00
 -1       203 7.36500E+01 4.74020E+01 0.00000E+00
 -1       204 7.66500E+01 4.74020E+01 0.00000E+00
 -1       205 7.96500E+01 4.74020E+01 0.00000E+00
 -1       206 8.26500E+01 4.74020E+01 0.00000E+00
 -1       207 8.56500E+01 4.74020E+01 0.00000E+00
 -1       208 8.86500E+01 4.74020E+01 0.00000E+00
 -1       209 9.16500E+01 4.74020E+01 0.00000E+00
 -1       210 9.46500E+01 4.74020E+01 0.00000E+00
 -1       211 9.76500E+01 4.74020E+01 0.00000E+00
 -1       212 1.00650E+02 4.74020E+01 0.00000E+00
 -1       213 1.03650E+02 4.74020E+01 0.00000E+00
 -1       214 1.06650E+02 4.74020E+01 0.00000E+00
 -1       215 1.09650E+02 4.74020E+01 0.00000E+00
 -1       216 1.12650E+02 4.74020E+01 0.00000E+00
 -1       217 1.15650E+02 4.74020E+01 0.00000E+00
 -1       218 1.18650E+02 4.74020E+01 0.00000E+00
 -1       219 1.21650E+02 4.74020E+01 0.00000E+00
 -1       220 1.24650E+02 4.74020E+01 0.00000E+00
 -1       221 1.27650E+02 4.74020E+01 0.00000E+00
 -1       222 1.30650E+02 4.74020E+01 0.00000E+00
 -1       223 1.33650E+02 4.74020E+01 0.00000E+00
 -1       224 1.36650E+02 4.74020E+01 0.00000E+00
 -1       225 1.39650E+02 4.74020E+01 0.00000E+00
 -1       226 1.42650E+02 4.74020E+01 0.00000E+00
 -1       227 1.45650E+02 4.74020E+01 0.00000E+00
 -1       228 5.87400E+00 2.18750E+00 0.00000E+00
 -1       229 8.87400E+00 2.18750E+00 0.00000E+00
 -1       230 1.18740E+01 2.18750E+00 0.00000E+00
 -1       231 1.48740E+01 2.18750E+00 0.00000E+00
 -1       232 1.78740E+01 2.18750E+00 0.00000E+00
 -1       233 2.08740E+01 2.18750E+00 0.00000E+00
 -1       234 2.38740E+01 2.18750E+00 0.00000E+00
 -1       235 2.68740E+01 2.18750E+00 0.00000E+00
 -1       236 2.98740E+01 2.18750E+00 0.00000E+00
 -1       237 3.28740E+01 2.18750E+00 0.00000E+00
 -1       238 3.58740E+01 2.18750E+00 0.00000E+00
 -1       239 3.88740E+01 2.18750E+00 0.00000E+00
 -1       240 4.18740E+01 2.18750E+00 0.00000E+00
 -1       241 4.48740E+01 2.18750E+00 0.00000E+00
 -1       242 4.78740E+01 2.18750E+00 0.00000E+00
 -1       243 5.08740E+01 2.18750E+00 0.00000E+00
 -1       244 5.38740E+01 2.18750E+00 0.00000E+00
 -1       245 5.68740E+01 2.18750E+00 0.00000E+00
 -1       246 5.98740E+01 2.18750E+00 0.00000E+00
 -1       247 6.28740E+01 2.18750E+00 0.00000E+00
 -1       248 6.58740E+01 2.18750E+00 0.00000E+00
 -1       249 6.88740E+01 2.18750E+00 0.00000E+00
 -1       250 7.18740E+01 2.18750E+00 0.00000E+00
 -1       251 7.48740E+01 2.18750E+00 0.00000E+00
 -1       252 7.78740E+01 2.18750E+00 0.00000E+00
 -1       253 8.08740E+01 2.18750E+00 0.00000E+00
 -1       254 8.38740E+01 2.18750E+00 0.00000E+00
 -1       255 8.68740E+01 2.18750E+00 0.00000E+00
 -1       256 8.98740E+01 2.18750E+00 0.00000E+00
 -1       257 9.28740E+01 2.18750E+00 0.00000E+00
 -1       258 9.58740E+01 2.18750E+00 0.00000E+00
 -1       259 9.88740E+01 2.18750E+00 0.00000E+00
 -1       260 1.01874E+02 2.18750E+00 0.00000E+00
 -1       261 1.04874E+02 2.18750E+00 0.00000E+00
 -1       262 1.07874E+02 2.18750E+00 0.00000E+00
 -1       263 1.10874E+02 2.18750E+00 0.00000E+00
 -1       264 1.13874E+02 2.18750E+00 0.00000E+00
 -1       265 1.16874E+02 2.18750E+00 0.00000E+00
 -1       266 1.19874E+02 2.18750E+00 0.00000E+00
 -1       267 1.22874E+02 2.18750E+00 0.00000E+00
 -1       268 1.25874E+02 2.18750E+00 0.00000E+00
 -1       269 1.28874E+02 2.18750E+00 0.00000E+00
 -1       270 1.31874E+02 2.18750E+00 0.00000E+00
 -1       271 1.34874E+02 2.18750E+00 0.00000E+00
 -1       272 1.37874E+02 2.18750E+00 0.00000E+00
 -1       273 1.40874E+02 2.18750E+00 0.00000E+00
 -1       274 1.43874E+02 2.18750E+00 0.00000E+00
 -1       275 1.46874E+02 2.18750E+00 0.00000E+00
 -1       276 1.47402E+02 4.42500E+00 0.00000E+00
 -1       277 1.47402E+02 7.37500E+00 0.00000E+00
 -1       278 1.47402E+02 1.03250E+01 0.00000E+00
 -1       279 1.47402E+02 1.32750E+01 0.00000E+00
 -1       280 1.47402E+02 1.61750E+01 0.00000E+00
 -1       281 1.47402E+02 1.91250E+01 0.00000E+00
 -1       282 1.47402E+02 2.20750E+01 0.00000E+00
 -1       283 1.47402E+02 2.50250E+01 0.00000E+00
 -1       284 1.47402E+02 2.79750E+01 0.00000E+00
 -1       285 1.47402E+02 3.09250E+01 0.00000E+00
 -1       286 1.47402E+02 3.38250E+01 0.00000E+00
 -1       287 1.47402E+02 3.67750E+01 0.00000E+00
 -1       288 1.47402E+02 3.97250E+01 0.00000E+00
 -1       289 1.47402E+02 4.26750E+01 0.00000E+00
 -1       290 1.46526E+02 4.50385E+01 0.00000E+00
 -1       291 5.11448E+01 2.61821E+01 0.00000E+00
 -1       292 5.10741E+01 2.43264E+01 0.00000E+00
 -1       293 5.01749E+01 2.25881E+01 0.00000E+00
 -1       294 4.89673E+01 2.11745E+01 0.00000E+00
 -1       295 4.76508E+01 1.98813E+01 0.00000E+00
 -1       296 4.59242E+01 1.92842E+01 0.00000E+00
 -1       297 4.41910E+01 1.89242E+01 0.00000E+00
 -1       298 4.24077E+01 1.88613E+01 0.00000E+00
 -1       299 4.06523E+01 1.90963E+01 0.00000E+00
 -1       300 3.88571E+01 1.95914E+01 0.00000E+00
 -1       301 3.75760E+01 2.09004E+01 0.00000E+00
 -1       302 3.64512E+01 2.21285E+01 0.00000E+00
 -1       303 3.53236E+01 2.35856E+01 0.00000E+00
 -1       304 3.49930E+01 2.54138E+01 0.00000E+00
 -1       305 3.45161E+01 2.72424E+01 0.00000E+00
 -1       306 3.50885E+01 2.90305E+01 0.00000E+00
 -1       307 3.55720E+01 3.07668E+01 0.00000E+00
 -1       308 3.66750E+01 3.21785E+01 0.00000E+00
 -1       309 3.78762E+01 3.33687E+01 0.00000E+00
 -1       310 3.92902E+01 3.43808E+01 0.00000E+00
 -1       311 4.09400E+01 3.52543E+01 0.00000E+00
 -1       312 4.28412E+01 3.52614E+01 0.00000E+00
 -1       313 4.45840E+01 3.50309E+01 0.00000E+00
 -1       314 4.61962E+01 3.45388E+01 0.00000E+00
 -1       315 4.76917E+01 3.37077E+01 0.00000E+00
 -1       316 4.89994E+01 3.25719E+01 0.00000E+00
 -1       317 5.00182E+01 3.12202E+01 0.00000E+00
 -1       318 5.07354E+01 2.96779E+01 0.00000E+00
 -1       319 5.12920E+01 2.79515E+01 0.00000E+00
 -1       320 5.19600E+00 4.11500E+01 0.00000E+00
 -1       321 5.19600E+00 4.41000E+01 0.00000E+00
 -1       322 5.19600E+00 3.52750E+01 0.00000E+00
 -1       323 5.19600E+00 3.23250E+01 0.00000E+00
 -1       324 5.19600E+00 2.93750E+01 0.00000E+00
 -1       325 5.19600E+00 2.64250E+01 0.00000E+00
 -1       326 5.19600E+00 2.34750E+01 0.00000E+00
 -1       327 5.19600E+00 2.05250E+01 0.00000E+00
 -1       328 5.19600E+00 1.76250E+01 0.00000E+00
 -1       329 5.19600E+00 1.46750E+01 0.00000E+00
 -1       330 5.19600E+00 1.17250E+01 0.00000E+00
 -1       331 5.19600E+00 8.77500E+00 0.00000E+00
 -1       332 5.19600E+00 5.82500E+00 0.00000E+00
 -1       333 5.53500E+00 4.00625E+00 0.00000E+00
 -1       334 8.53500E+00 4.00625E+00 0.00000E+00
 -1       335 9.15000E+00 4.48040E+01 0.00000E+00
 -1       336 1.21500E+01 4.48040E+01 0.00000E+00
 -1       337 1.51500E+01 4.48040E+01 0.00000E+00
 -1       338 1.81500E+01 4.48040E+01 0.00000E+00
 -1       339 2.11500E+01 4.48040E+01 0.00000E+00
 -1       340 2.41500E+01 4.48040E+01 0.00000E+00
 -1       341 2.71500E+01 4.48040E+01 0.00000E+00
 -1       342 3.01500E+01 4.48040E+01 0.00000E+00
 -1       343 3.31500E+01 4.48040E+01 0.00000E+00
 -1       344 3.61500E+01 4.48040E+01 0.00000E+00
 -1       345 3.91500E+01 4.48040E+01 0.00000E+00
 -1       346 4.21500E+01 4.48040E+01 0.00000E+00
 -1       347 4.51500E+01 4.48040E+01 0.00000E+00
 -1       348 4.81500E+01 4.48040E+01 0.00000E+00
 -1       349 5.11500E+01 4.48040E+01 0.00000E+00
 -1       350 5.41500E+01 4.48040E+01 0.00000E+00
 -1       351 5.71500E+01 4.48040E+01 0.00000E+00
 -1       352 6.01500E+01 4.48040E+01 0.00000E+00
 -1       353 6.31500E+01 4.48040E+01 0.00000E+00
 -1       354 6.61500E+01 4.48040E+01 0.00000E+00
 -1       355 6.91500E+01 4.48040E+01 0.00000E+00
 -1       356 7.21500E+01 4.48040E+01 0.00000E+00
 -1       357 7.51500E+01 4.48040E+01 0.00000E+00
 -1       358 7.81500E+01 4.48040E+01 0.00000E+00
 -1       359 8.11500E+01 4.48040E+01 0.00000E+00
 -1       360 8.41500E+01 4.48040E+01 0.00000E+00
 -1       361 8.71500E+01 4.48040E+01 0.00000E+00
 -1       362 9.01500E+01 4.48040E+01 0.00000E+00
 -1       363 9.31500E+01 4.48040E+01 0.00000E+00
 -1       364 9.61500E+01 4.48040E+01 0.00000E+00
 -1       365 9.91500E+01 4.48040E+01 0.00000E+00
 -1       366 1.02150E+02 4.48040E+01 0.00000E+00
 -1       367 1.05150E+02 4.48040E+01 0.00000E+00
 -1       368 1.08150E+02 4.48040E+01 0.00000E+00
 -1       369 1.11150E+02 4.48040E+01 0.00000E+00
 -1       370 1.14150E+02 4.48040E+01 0.00000E+00
 -1       371 1.17150E+02 4.48040E+01 0.00000E+00
 -1       372 1.20150E+02 4.48040E+01 0.00000E+00
 -1       373 1.23150E+02 4.48040E+01 0.00000E+00
 -1       374 1.26150E+02 4.48040E+01 0.00000E+00
 -1       375 1.29150E+02 4.48040E+01 0.00000E+00
 -1       376 1.32150E+02 4.48040E+01 0.00000E+00
 -1       377 1.35150E+02 4.48040E+01 0.00000E+00
 -1       378 1.38150E+02 4.48040E+01 0.00000E+00
 -1       379 1.41150E+02 4.48040E+01 0.00000E+00
 -1       380 1.43838E+02 4.49212E+01 0.00000E+00
 -1       381 1.15350E+01 4.00625E+00 0.00000E+00
 -1       382 1.45350E+01 4.00625E+00 0.00000E+00
 -1       383 1.75350E+01 4.00625E+00 0.00000E+00
 -1       384 2.05350E+01 4.00625E+00 0.00000E+00
 -1       385 2.35350E+01 4.00625E+00 0.00000E+00
 -1       386 2.65350E+01 4.00625E+00 0.00000E+00
 -1       387 2.95350E+01 4.00625E+00 0.00000E+00
 -1       388 3.25350E+01 4.00625E+00 0.00000E+00
 -1       389 3.55350E+01 4.00625E+00 0.00000E+00
 -1       390 3.85350E+01 4.00625E+00 0.00000E+00
 -1       391 4.15350E+01 4.00625E+00 0.00000E+00
 -1       392 4.45350E+01 4.00625E+00 0.00000E+00
 -1       393 4.75350E+01 4.00625E+00 0.00000E+00
 -1       394 5.05350E+01 4.00625E+00 0.00000E+00
 -1       395 5.35350E+01 4.00625E+00 0.00000E+00
 -1       396 5.65350E+01 4.00625E+00 0.00000E+00
 -1       397 5.95350E+01 4.00625E+00 0.00000E+00
 -1       398 6.25350E+01 4.00625E+00 0.00000E+00
 -1       399 6.55350E+01 4.00625E+00 0.00000E+00
 -1       400 6.85350E+01 4.00625E+00 0.00000E+00
 -1       401 7.15350E+01 4.00625E+00 0.00000E+00
 -1       402 7.45350E+01 4.00625E+00 0.00000E+00
 -1       403 7.75350E+01 4.00625E+00 0.00000E+00
 -1       404 8.05350E+01 4.00625E+00 0.00000E+00
 -1       405 8.35350E+01 4.00625E+00 0.00000E+00
 -1       406 8.65350E+01 4.00625E+00 0.00000E+00
 -1       407 8.95350E+01 4.00625E+00 0.00000E+00
 -1       408 9.25350E+01 4.00625E+00 0.00000E+00
 -1       409 9.55350E+01 4.00625E+00 0.00000E+00
 -1       410 9.85350E+01 4.00625E+00 0.00000E+00
 -1       411 1.01535E+02 4.00625E+00 0.00000E+00
 -1       412 1.04535E+02 4.00625E+00 0.00000E+00
 -1       413 1.07535E+02 4.00625E+00 0.00000E+00
 -1       414 1.10535E+02 4.00625E+00 0.00000E+00
 -1       415 1.13535E+02 4.00625E+00 0.00000E+00
 -1       416 1.16535E+02 4.00625E+00 0.00000E+00
 -1       417 1.19535E+02 4.00625E+00 0.00000E+00
 -1       418 1.22535E+02 4.00625E+00 0.00000E+00
 -1       419 1.25535E+02 4.00625E+00 0.00000E+00
 -1       420 1.28535E+02 4.00625E+00 0.00000E+00
 -1       421 1.31535E+02 4.00625E+00 0.00000E+00
 -1       422 1.34535E+02 4.00625E+00 0.00000E+00
 -1       423 1.37535E+02 4.00625E+00 0.00000E+00
 -1       424 1.40535E+02 4.00625E+00 0.00000E+00
 -1       425 1.43535E+02 4.00625E+00 0.00000E+00
 -1       426 1.45469E+02 4.21562E+00 0.00000E+00
 -1       427 1.44804E+02 1.18000E+01 0.00000E+00
 -1       428 1.44804E+02 8.85000E+00 0.00000E+00
 -1       429 1.45136E+02 6.53281E+00 0.00000E+00
 -1       430 1.44804E+02 1.47000E+01 0.00000E+00
 -1       431 1.44804E+02 1.76500E+01 0.00000E+00
 -1       432 1.44804E+02 2.06000E+01 0.00000E+00
 -1       433 1.44804E+02 2.35500E+01 0.00000E+00
 -1       434 1.44804E+02 2.65000E+01 0.00000E+00
 -1       435 1.44804E+02 2.94500E+01 0.00000E+00
 -1       436 1.44804E+02 3.23500E+01 0.00000E+00
 -1       437 1.44804E+02 3.53000E+01 0.00000E+00
 -1       438 1.44804E+02 3.82500E+01 0.00000E+00
 -1       439 1.44804E+02 4.12000E+01 0.00000E+00
 -1       440 5.19991E+01 2.27463E+01 0.00000E+00
 -1       441 5.25936E+01 2.69524E+01 0.00000E+00
 -1       442 5.25229E+01 2.50967E+01 0.00000E+00
 -1       443 5.06203E+01 2.09850E+01 0.00000E+00
 -1       444 4.93348E+01 1.94837E+01 0.00000E+00
 -1       445 5.19600E+00 3.82125E+01 0.00000E+00
 -1       446 4.53553E+01 1.76711E+01 0.00000E+00
 -1       447 4.33568E+01 1.72625E+01 0.00000E+00
 -1       448 4.13470E+01 1.76110E+01 0.00000E+00
 -1       449 3.93655E+01 1.79328E+01 0.00000E+00
 -1       450 3.71105E+01 1.91635E+01 0.00000E+00
 -1       451 3.60578E+01 2.06390E+01 0.00000E+00
 -1       452 3.46635E+01 2.19099E+01 0.00000E+00
 -1       453 3.36355E+01 2.42244E+01 0.00000E+00
 -1       454 3.31585E+01 2.60529E+01 0.00000E+00
 -1       455 3.34880E+01 2.85572E+01 0.00000E+00
 -1       456 3.39715E+01 3.02935E+01 0.00000E+00
 -1       457 3.51022E+01 3.22707E+01 0.00000E+00
 -1       458 3.63633E+01 3.36943E+01 0.00000E+00
 -1       459 3.77800E+01 3.49969E+01 0.00000E+00
 -1       460 3.93517E+01 3.62593E+01 0.00000E+00
 -1       461 4.18851E+01 3.67216E+01 0.00000E+00
 -1       462 4.38826E+01 3.64311E+01 0.00000E+00
 -1       463 4.57685E+01 3.60245E+01 0.00000E+00
 -1       464 4.76550E+01 3.54027E+01 0.00000E+00
 -1       465 4.94153E+01 3.43714E+01 0.00000E+00
 -1       466 5.07446E+01 3.28276E+01 0.00000E+00
 -1       467 5.15521E+01 3.09956E+01 0.00000E+00
 -1       468 5.24866E+01 2.92895E+01 0.00000E+00
 -1       469 4.72385E+01 1.82786E+01 0.00000E+00
 -1       470 4.89225E+01 1.78810E+01 0.00000E+00
 -1       471 4.02968E+01 3.77266E+01 0.00000E+00
 -1       472 3.21305E+01 2.73677E+01 0.00000E+00
 -1       473 3.76190E+01 1.75049E+01 0.00000E+00
 -1       474 1.00350E+01 6.60425E+00 0.00000E+00
 -1       475 7.79400E+00 3.08500E+01 0.00000E+00
 -1       476 7.79400E+00 3.38000E+01 0.00000E+00
 -1       477 7.79400E+00 2.49500E+01 0.00000E+00
 -1       478 7.79400E+00 2.20000E+01 0.00000E+00
 -1       479 7.79400E+00 1.91000E+01 0.00000E+00
 -1       480 7.79400E+00 1.61500E+01 0.00000E+00
 -1       481 7.79400E+00 1.32000E+01 0.00000E+00
 -1       482 7.79400E+00 1.02500E+01 0.00000E+00
 -1       483 1.30350E+01 6.60425E+00 0.00000E+00
 -1       484 1.06500E+01 4.22060E+01 0.00000E+00
 -1       485 4.67463E+01 1.65818E+01 0.00000E+00
 -1       486 1.36500E+01 4.22060E+01 0.00000E+00
 -1       487 1.66500E+01 4.22060E+01 0.00000E+00
 -1       488 1.96500E+01 4.22060E+01 0.00000E+00
 -1       489 2.26500E+01 4.22060E+01 0.00000E+00
 -1       490 2.56500E+01 4.22060E+01 0.00000E+00
 -1       491 2.86500E+01 4.22060E+01 0.00000E+00
 -1       492 3.16500E+01 4.22060E+01 0.00000E+00
 -1       493 3.46500E+01 4.22060E+01 0.00000E+00
 -1       494 3.76500E+01 4.22060E+01 0.00000E+00
 -1       495 4.06500E+01 4.22060E+01 0.00000E+00
 -1       496 4.36500E+01 4.22060E+01 0.00000E+00
 -1       497 4.66500E+01 4.22060E+01 0.00000E+00
 -1       498 4.96500E+01 4.22060E+01 0.00000E+00
 -1       499 5.26500E+01 4.22060E+01 0.00000E+00
 -1       500 5.56500E+01 4.22060E+01 0.00000E+00
 -1       501 5.86500E+01 4.22060E+01 0.00000E+00
 -1       502 6.16500E+01 4.22060E+01 0.00000E+00
 -1       503 6.46500E+01 4.22060E+01 0.00000E+00
 -1       504 6.76500E+01 4.22060E+01 0.00000E+00
 -1       505 7.06500E+01 4.22060E+01 0.00000E+00
 -1       506 7.36500E+01 4.22060E+01 0.00000E+00
 -1       507 7.66500E+01 4.22060E+01 0.00000E+00
 -1       508 7.96500E+01 4.22060E+01 0.00000E+00
 -1       509 8.26500E+01 4.22060E+01 0.00000E+00
 -1       510 8.56500E+01 4.22060E+01 0.00000E+00
 -1       511 8.86500E+01 4.22060E+01 0.00000E+00
 -1       512 9.16500E+01 4.22060E+01 0.00000E+00
 -1       513 9.46500E+01 4.22060E+01 0.00000E+00
 -1       514 9.76500E+01 4.22060E+01 0.00000E+00
 -1       515 1.00650E+02 4.22060E+01 0.00000E+00
 -1       516 1.03650E+02 4.22060E+01 0.00000E+00
 -1       517 1.06650E+02 4.22060E+01 0.00000E+00
 -1       518 1.09650E+02 4.22060E+01 0.00000E+00
 -1       519 1.12650E+02 4.22060E+01 0.00000E+00
 -1       520 1.15650E+02 4.22060E+01 0.00000E+00
 -1       521 1.18650E+02 4.22060E+01 0.00000E+00
 -1       522 1.21650E+02 4.22060E+01 0.00000E+00
 -1       523 1.24650E+02 4.22060E+01 0.00000E+00
 -1       524 1.27650E+02 4.22060E+01 0.00000E+00
 -1       525 1.30650E+02 4.22060E+01 0.00000E+00
 -1       526 1.33650E+02 4.22060E+01 0.00000E+00
 -1       527 1.36650E+02 4.22060E+01 0.00000E+00
 -1       528 1.39650E+02 4.22060E+01 0.00000E+00
 -1       529 1.90350E+01 6.60425E+00 0.00000E+00
 -1       530 2.20350E+01 6.60425E+00 0.00000E+00
 -1       531 2.50350E+01 6.60425E+00 0.00000E+00
 -1       532 2.80350E+01 6.60425E+00 0.00000E+00
 -1       533 3.10350E+01 6.60425E+00 0.00000E+00
 -1       534 3.40350E+01 6.60425E+00 0.00000E+00
 -1       535 3.70350E+01 6.60425E+00 0.00000E+00
 -1       536 4.00350E+01 6.60425E+00 0.00000E+00
 -1       537 4.30350E+01 6.60425E+00 0.00000E+00
 -1       538 4.60350E+01 6.60425E+00 0.00000E+00
 -1       539 4.90350E+01 6.60425E+00 0.00000E+00
 -1       540 5.20350E+01 6.60425E+00 0.00000E+00
 -1       541 5.50350E+01 6.60425E+00 0.00000E+00
 -1       542 5.80350E+01 6.60425E+00 0.00000E+00
 -1       543 6.10350E+01 6.60425E+00 0.00000E+00
 -1       544 6.40350E+01 6.60425E+00 0.00000E+00
 -1       545 6.70350E+01 6.60425E+00 0.00000E+00
 -1       546 7.00350E+01 6.60425E+00 0.00000E+00
 -1       547 7.30350E+01 6.60425E+00 0.00000E+00
 -1       548 7.60350E+01 6.60425E+00 0.00000E+00
 -1       549 7.90350E+01 6.60425E+00 0.00000E+00
 -1       550 8.20350E+01 6.60425E+00 0.00000E+00
 -1       551 8.50350E+01 6.60425E+00 0.00000E+00
 -1       552 8.80350E+01 6.60425E+00 0.00000E+00
 -1       553 9.10350E+01 6.60425E+00 0.00000E+00
 -1       554 9.40350E+01 6.60425E+00 0.00000E+00
 -1       555 9.70350E+01 6.60425E+00 0.00000E+00
 -1       556 1.00035E+02 6.60425E+00 0.00000E+00
 -1       557 1.03035E+02 6.60425E+00 0.00000E+00
 -1       558 1.06035E+02 6.60425E+00 0.00000E+00
 -1       559 1.09035E+02 6.60425E+00 0.00000E+00
 -1       560 1.12035E+02 6.60425E+00 0.00000E+00
 -1       561 1.15035E+02 6.60425E+00 0.00000E+00
 -1       562 1.18035E+02 6.60425E+00 0.00000E+00
 -1       563 1.21035E+02 6.60425E+00 0.00000E+00
 -1       564 1.24035E+02 6.60425E+00 0.00000E+00
 -1       565 1.27035E+02 6.60425E+00 0.00000E+00
 -1       566 1.30035E+02 6.60425E+00 0.00000E+00
 -1       567 1.33035E+02 6.60425E+00 0.00000E+00
 -1       568 1.36035E+02 6.60425E+00 0.00000E+00
 -1       569 1.39035E+02 6.60425E+00 0.00000E+00
 -1       570 1.42035E+02 6.60425E+00 0.00000E+00
 -1       571 1.42206E+02 1.61750E+01 0.00000E+00
 -1       572 1.42206E+02 1.91250E+01 0.00000E+00
 -1       573 1.42206E+02 1.03250E+01 0.00000E+00
 -1       574 1.42206E+02 1.32500E+01 0.00000E+00
 -1       575 1.42206E+02 2.20750E+01 0.00000E+00
 -1       576 1.42206E+02 2.50250E+01 0.00000E+00
 -1       577 1.42206E+02 2.79750E+01 0.00000E+00
 -1       578 1.42206E+02 3.08750E+01 0.00000E+00
 -1       579 1.42206E+02 3.38250E+01 0.00000E+00
 -1       580 1.42206E+02 3.67750E+01 0.00000E+00
 -1       581 1.42206E+02 3.97250E+01 0.00000E+00
 -1       582 5.26602E+01 2.08084E+01 0.00000E+00
 -1       583 5.42534E+01 2.81994E+01 0.00000E+00
 -1       584 1.60350E+01 6.60425E+00 0.00000E+00
 -1       585 5.41047E+01 2.59657E+01 0.00000E+00
 -1       586 5.35236E+01 3.09665E+01 0.00000E+00
 -1       587 7.92300E+00 4.16780E+01 0.00000E+00
 -1       588 5.13747E+01 1.93072E+01 0.00000E+00
 -1       589 3.24289E+01 2.23029E+01 0.00000E+00
 -1       590 7.79400E+00 2.79000E+01 0.00000E+00
 -1       591 4.20588E+01 1.57469E+01 0.00000E+00
 -1       592 3.44489E+01 3.41198E+01 0.00000E+00
 -1       593 4.46828E+01 1.58685E+01 0.00000E+00
 -1       594 4.00774E+01 1.60686E+01 0.00000E+00
 -1       595 3.49152E+01 1.87104E+01 0.00000E+00
 -1       596 3.35209E+01 1.99814E+01 0.00000E+00
 -1       597 3.17374E+01 2.47057E+01 0.00000E+00
 -1       598 3.22389E+01 2.98405E+01 0.00000E+00
 -1       599 3.29025E+01 3.22167E+01 0.00000E+00
 -1       600 3.58656E+01 3.54224E+01 0.00000E+00
 -1       601 3.74919E+01 3.69653E+01 0.00000E+00
 -1       602 4.31186E+01 3.81907E+01 0.00000E+00
 -1       603 4.51340E+01 3.76587E+01 0.00000E+00
 -1       604 4.71962E+01 3.71834E+01 0.00000E+00
 -1       605 4.93822E+01 3.63329E+01 0.00000E+00
 -1       606 5.12527E+01 3.46092E+01 0.00000E+00
 -1       607 5.27161E+01 3.27984E+01 0.00000E+00
 -1       608 5.39350E+01 2.35484E+01 0.00000E+00
 -1       609 7.61550E+00 6.21462E+00 0.00000E+00
 -1       610 7.79400E+00 3.67375E+01 0.00000E+00
 -1       611 5.09624E+01 1.77044E+01 0.00000E+00
 -1       612 4.84303E+01 1.61842E+01 0.00000E+00
 -1       613 5.45962E+01 2.16105E+01 0.00000E+00
 -1       614 1.41678E+02 4.22645E+01 0.00000E+00
 -1       615 3.83308E+01 1.56407E+01 0.00000E+00
 -1       616 4.15303E+01 3.91957E+01 0.00000E+00
 -1       617 3.54236E+01 1.70518E+01 0.00000E+00
 -1       618 3.07094E+01 2.60205E+01 0.00000E+00
 -1       619 3.84370E+01 3.84326E+01 0.00000E+00
 -1       620 1.03920E+01 2.05500E+01 0.00000E+00
 -1       621 1.03920E+01 2.35000E+01 0.00000E+00
 -1       622 1.03920E+01 1.46750E+01 0.00000E+00
 -1       623 1.03920E+01 1.17250E+01 0.00000E+00
 -1       624 1.15350E+01 9.20225E+00 0.00000E+00
 -1       625 5.57308E+01 2.46369E+01 0.00000E+00
 -1       626 1.45350E+01 9.20225E+00 0.00000E+00
 -1       627 1.51500E+01 3.96080E+01 0.00000E+00
 -1       628 1.81500E+01 3.96080E+01 0.00000E+00
 -1       629 2.11500E+01 3.96080E+01 0.00000E+00
 -1       630 2.41500E+01 3.96080E+01 0.00000E+00
 -1       631 2.71500E+01 3.96080E+01 0.00000E+00
 -1       632 3.01500E+01 3.96080E+01 0.00000E+00
 -1       633 3.31500E+01 3.96080E+01 0.00000E+00
 -1       634 4.51500E+01 3.99882E+01 0.00000E+00
 -1       635 4.81500E+01 3.98206E+01 0.00000E+00
 -1       636 5.11500E+01 3.98206E+01 0.00000E+00
 -1       637 5.41500E+01 3.98206E+01 0.00000E+00
 -1       638 5.71500E+01 3.98206E+01 0.00000E+00
 -1       639 6.01500E+01 3.98206E+01 0.00000E+00
 -1       640 6.31500E+01 3.98206E+01 0.00000E+00
 -1       641 6.61500E+01 3.98206E+01 0.00000E+00
 -1       642 6.91500E+01 3.98206E+01 0.00000E+00
 -1       643 7.21500E+01 3.98206E+01 0.00000E+00
 -1       644 7.51500E+01 3.98206E+01 0.00000E+00
 -1       645 7.81500E+01 3.98206E+01 0.00000E+00
 -1       646 8.11500E+01 3.98206E+01 0.00000E+00
 -1       647 8.41500E+01 3.98206E+01 0.00000E+00
 -1       648 8.71500E+01 3.98206E+01 0.00000E+00
 -1       649 9.01500E+01 3.98206E+01 0.00000E+00
 -1       650 9.31500E+01 3.98206E+01 0.00000E+00
 -1       651 9.61500E+01 3.98206E+01 0.00000E+00
 -1       652 9.91500E+01 3.98206E+01 0.00000E+00
 -1       653 1.02150E+02 3.98206E+01 0.00000E+00
 -1       654 1.05150E+02 3.98206E+01 0.00000E+00
 -1       655 1.08150E+02 3.98206E+01 0.00000E+00
 -1       656 1.11150E+02 3.98206E+01 0.00000E+00
 -1       657 1.14150E+02 3.98206E+01 0.00000E+00
 -1       658 1.17150E+02 3.98206E+01 0.00000E+00
 -1       659 1.20150E+02 3.98206E+01 0.00000E+00
 -1       660 1.23150E+02 3.98206E+01 0.00000E+00
 -1       661 1.26150E+02 3.98206E+01 0.00000E+00
 -1       662 1.29150E+02 3.98206E+01 0.00000E+00
 -1       663 1.32150E+02 3.98206E+01 0.00000E+00
 -1       664 1.35150E+02 3.98206E+01 0.00000E+00
 -1       665 1.38150E+02 3.98206E+01 0.00000E+00
 -1       666 2.35350E+01 9.20225E+00 0.00000E+00
 -1       667 5.14797E+01 3.67323E+01 0.00000E+00
 -1       668 5.46893E+01 3.25743E+01 0.00000E+00
 -1       669 2.05350E+01 9.20225E+00 0.00000E+00
 -1       670 2.95350E+01 9.20225E+00 0.00000E+00
 -1       671 3.25350E+01 9.20225E+00 0.00000E+00
 -1       672 3.55350E+01 9.20225E+00 0.00000E+00
 -1       673 3.85350E+01 9.20225E+00 0.00000E+00
 -1       674 4.15350E+01 9.20225E+00 0.00000E+00
 -1       675 4.45350E+01 9.20225E+00 0.00000E+00
 -1       676 4.75350E+01 9.20225E+00 0.00000E+00
 -1       677 5.05350E+01 9.20225E+00 0.00000E+00
 -1       678 5.35350E+01 9.20225E+00 0.00000E+00
 -1       679 5.65350E+01 9.20225E+00 0.00000E+00
 -1       680 5.95350E+01 9.20225E+00 0.00000E+00
 -1       681 6.25350E+01 9.20225E+00 0.00000E+00
 -1       682 6.55350E+01 9.20225E+00 0.00000E+00
 -1       683 6.85350E+01 9.20225E+00 0.00000E+00
 -1       684 7.15350E+01 9.20225E+00 0.00000E+00
 -1       685 7.45350E+01 9.20225E+00 0.00000E+00
 -1       686 7.75350E+01 9.20225E+00 0.00000E+00
 -1       687 8.05350E+01 9.20225E+00 0.00000E+00
 -1       688 8.35350E+01 9.20225E+00 0.00000E+00
 -1       689 8.65350E+01 9.20225E+00 0.00000E+00
 -1       690 8.95350E+01 9.20225E+00 0.00000E+00
 -1       691 9.25350E+01 9.20225E+00 0.00000E+00
 -1       692 9.55350E+01 9.20225E+00 0.00000E+00
 -1       693 9.85350E+01 9.20225E+00 0.00000E+00
 -1       694 1.01535E+02 9.20225E+00 0.00000E+00
 -1       695 1.04535E+02 9.20225E+00 0.00000E+00
 -1       696 1.07535E+02 9.20225E+00 0.00000E+00
 -1       697 1.10535E+02 9.20225E+00 0.00000E+00
 -1       698 1.13535E+02 9.20225E+00 0.00000E+00
 -1       699 1.16535E+02 9.20225E+00 0.00000E+00
 -1       700 1.19535E+02 9.20225E+00 0.00000E+00
 -1       701 1.22535E+02 9.20225E+00 0.00000E+00
 -1       702 1.25535E+02 9.20225E+00 0.00000E+00
 -1       703 1.28535E+02 9.20225E+00 0.00000E+00
 -1       704 1.31535E+02 9.20225E+00 0.00000E+00
 -1       705 1.34535E+02 9.20225E+00 0.00000E+00
 -1       706 1.37535E+02 9.20225E+00 0.00000E+00
 -1       707 1.39870E+02 9.76363E+00 0.00000E+00
 -1       708 1.39608E+02 2.35500E+01 0.00000E+00
 -1       709 1.40178E+02 3.97728E+01 0.00000E+00
 -1       710 1.39608E+02 1.76500E+01 0.00000E+00
 -1       711 1.39608E+02 2.65000E+01 0.00000E+00
 -1       712 1.39608E+02 2.06000E+01 0.00000E+00
 -1       713 1.75350E+01 9.20225E+00 0.00000E+00
 -1       714 1.39608E+02 2.94000E+01 0.00000E+00
 -1       715 1.39608E+02 3.23500E+01 0.00000E+00
 -1       716 1.39608E+02 3.53000E+01 0.00000E+00
 -1       717 1.39893E+02 3.75364E+01 0.00000E+00
 -1       718 9.78035E+00 3.93914E+01 0.00000E+00
 -1       719 5.58710E+01 3.01058E+01 0.00000E+00
 -1       720 5.35790E+01 3.49925E+01 0.00000E+00
 -1       721 2.65350E+01 9.20225E+00 0.00000E+00
 -1       722 1.24652E+01 3.94997E+01 0.00000E+00
 -1       723 1.03920E+01 1.76125E+01 0.00000E+00
 -1       724 3.23446E+01 3.42499E+01 0.00000E+00
 -1       725 5.35748E+01 1.87243E+01 0.00000E+00
 -1       726 3.06386E+01 2.86719E+01 0.00000E+00
 -1       727 1.03920E+01 3.23250E+01 0.00000E+00
 -1       728 4.62475E+01 1.46833E+01 0.00000E+00
 -1       729 3.05960E+01 3.15800E+01 0.00000E+00
 -1       730 4.08066E+01 1.42975E+01 0.00000E+00
 -1       731 3.30626E+01 1.80784E+01 0.00000E+00
 -1       732 4.34580E+01 1.39270E+01 0.00000E+00
 -1       733 3.40531E+01 3.59720E+01 0.00000E+00
 -1       734 3.56794E+01 3.75149E+01 0.00000E+00
 -1       735 3.01129E+01 2.29373E+01 0.00000E+00
 -1       736 5.58904E+01 2.69686E+01 0.00000E+00
 -1       737 3.11197E+01 2.02694E+01 0.00000E+00
 -1       738 1.03920E+01 3.52625E+01 0.00000E+00
 -1       739 1.03920E+01 2.64500E+01 0.00000E+00
 -1       740 5.04702E+01 1.60076E+01 0.00000E+00
 -1       741 4.79315E+01 1.42857E+01 0.00000E+00
 -1       742 3.00381E+01 3.36132E+01 0.00000E+00
 -1       743 3.89734E+01 3.99663E+01 0.00000E+00
 -1       744 3.61500E+01 3.96530E+01 0.00000E+00
 -1       745 1.39608E+02 1.47250E+01 0.00000E+00
 -1       746 1.39739E+02 1.22443E+01 0.00000E+00
 -1       747 3.90601E+01 1.38696E+01 0.00000E+00
 -1       748 3.61355E+01 1.51876E+01 0.00000E+00
 -1       749 1.03920E+01 2.93875E+01 0.00000E+00
 -1       750 5.63919E+01 2.26991E+01 0.00000E+00
 -1       751 2.90848E+01 2.42521E+01 0.00000E+00
 -1       752 5.76888E+01 2.56742E+01 0.00000E+00
 -1       753 1.29900E+01 1.32000E+01 0.00000E+00
 -1       754 1.66500E+01 3.70100E+01 0.00000E+00
 -1       755 1.96500E+01 3.70100E+01 0.00000E+00
 -1       756 2.26500E+01 3.70100E+01 0.00000E+00
 -1       757 2.56500E+01 3.70100E+01 0.00000E+00
 -1       758 2.86500E+01 3.70100E+01 0.00000E+00
 -1       759 5.56500E+01 3.72226E+01 0.00000E+00
 -1       760 5.86500E+01 3.72226E+01 0.00000E+00
 -1       761 6.16500E+01 3.72226E+01 0.00000E+00
 -1       762 6.46500E+01 3.72226E+01 0.00000E+00
 -1       763 6.76500E+01 3.72226E+01 0.00000E+00
 -1       764 7.06500E+01 3.72226E+01 0.00000E+00
 -1       765 7.36500E+01 3.72226E+01 0.00000E+00
 -1       766 7.66500E+01 3.72226E+01 0.00000E+00
 -1       767 7.96500E+01 3.72226E+01 0.00000E+00
 -1       768 8.26500E+01 3.72226E+01 0.00000E+00
 -1       769 8.56500E+01 3.72226E+01 0.00000E+00
 -1       770 8.86500E+01 3.72226E+01 0.00000E+00
 -1       771 9.16500E+01 3.72226E+01 0.00000E+00
 -1       772 9.46500E+01 3.72226E+01 0.00000E+00
 -1       773 9.76500E+01 3.72226E+01 0.00000E+00
 -1       774 1.00650E+02 3.72226E+01 0.00000E+00
 -1       775 1.03650E+02 3.72226E+01 0.00000E+00
 -1       776 1.06650E+02 3.72226E+01 0.00000E+00
 -1       777 1.09650E+02 3.72226E+01 0.00000E+00
 -1       778 1.12650E+02 3.72226E+01 0.00000E+00
 -1       779 1.15650E+02 3.72226E+01 0.00000E+00
 -1       780 1.18650E+02 3.72226E+01 0.00000E+00
 -1       781 1.21650E+02 3.72226E+01 0.00000E+00
 -1       782 1.24650E+02 3.72226E+01 0.00000E+00
 -1       783 1.27650E+02 3.72226E+01 0.00000E+00
 -1       784 1.30650E+02 3.72226E+01 0.00000E+00
 -1       785 1.33650E+02 3.72226E+01 0.00000E+00
 -1       786 1.36650E+02 3.72226E+01 0.00000E+00
 -1       787 1.37010E+02 2.79500E+01 0.00000E+00
 -1       788 3.40350E+01 1.18003E+01 0.00000E+00
 -1       789 3.10350E+01 1.18003E+01 0.00000E+00
 -1       790 4.00350E+01 1.17552E+01 0.00000E+00
 -1       791 4.90350E+01 1.18003E+01 0.00000E+00
 -1       792 5.20350E+01 1.18003E+01 0.00000E+00
 -1       793 5.50350E+01 1.18003E+01 0.00000E+00
 -1       794 5.80350E+01 1.18003E+01 0.00000E+00
 -1       795 6.10350E+01 1.18003E+01 0.00000E+00
 -1       796 6.40350E+01 1.18003E+01 0.00000E+00
 -1       797 6.70350E+01 1.18003E+01 0.00000E+00
 -1       798 7.00350E+01 1.18003E+01 0.00000E+00
 -1       799 7.30350E+01 1.18003E+01 0.00000E+00
 -1       800 7.60350E+01 1.18003E+01 0.00000E+00
 -1       801 7.90350E+01 1.18003E+01 0.00000E+00
 -1       802 8.20350E+01 1.18003E+01 0.00000E+00
 -1       803 8.50350E+01 1.18003E+01 0.00000E+00
 -1       804 8.80350E+01 1.18003E+01 0.00000E+00
 -1       805 9.10350E+01 1.18003E+01 0.00000E+00
 -1       806 9.40350E+01 1.18003E+01 0.00000E+00
 -1       807 9.70350E+01 1.18003E+01 0.00000E+00
 -1       808 1.00035E+02 1.18003E+01 0.00000E+00
 -1       809 1.03035E+02 1.18003E+01 0.00000E+00
 -1       810 1.06035E+02 1.18003E+01 0.00000E+00
 -1       811 1.09035E+02 1.18003E+01 0.00000E+00
 -1       812 1.12035E+02 1.18003E+01 0.00000E+00
 -1       813 1.15035E+02 1.18003E+01 0.00000E+00
 -1       814 1.18035E+02 1.18003E+01 0.00000E+00
 -1       815 1.21035E+02 1.18003E+01 0.00000E+00
 -1       816 1.24035E+02 1.18003E+01 0.00000E+00
 -1       817 1.27035E+02 1.18003E+01 0.00000E+00
 -1       818 1.30035E+02 1.18003E+01 0.00000E+00
 -1       819 1.33035E+02 1.18003E+01 0.00000E+00
 -1       820 1.36035E+02 1.18003E+01 0.00000E+00
 -1       821 1.37887E+02 1.20223E+01 0.00000E+00
 -1       822 1.29900E+01 2.20250E+01 0.00000E+00
 -1       823 1.37010E+02 3.09000E+01 0.00000E+00
 -1       824 1.37010E+02 2.50000E+01 0.00000E+00
 -1       825 2.85413E+01 2.08203E+01 0.00000E+00
 -1       826 3.70350E+01 1.18003E+01 0.00000E+00
 -1       827 2.20350E+01 1.18003E+01 0.00000E+00
 -1       828 1.37625E+01 1.12011E+01 0.00000E+00
 -1       829 5.61762E+01 1.94275E+01 0.00000E+00
 -1       830 1.37010E+02 3.38500E+01 0.00000E+00
 -1       831 5.67603E+01 3.48044E+01 0.00000E+00
 -1       832 4.68913E+01 1.19428E+01 0.00000E+00
 -1       833 5.30751E+01 1.61484E+01 0.00000E+00
 -1       834 2.83998E+01 3.00935E+01 0.00000E+00
 -1       835 3.16244E+01 3.66729E+01 0.00000E+00
 -1       836 5.79420E+01 3.23359E+01 0.00000E+00
 -1       837 3.06825E+01 1.79248E+01 0.00000E+00
 -1       838 3.34924E+01 1.58386E+01 0.00000E+00
 -1       839 2.84705E+01 2.74421E+01 0.00000E+00
 -1       840 5.80985E+01 2.85509E+01 0.00000E+00
 -1       841 1.29900E+01 2.49750E+01 0.00000E+00
 -1       842 1.29900E+01 1.61375E+01 0.00000E+00
 -1       843 4.99714E+01 1.41092E+01 0.00000E+00
 -1       844 1.29900E+01 3.37938E+01 0.00000E+00
 -1       845 1.37010E+02 1.61875E+01 0.00000E+00
 -1       846 1.39652E+01 3.69017E+01 0.00000E+00
 -1       847 1.37010E+02 2.20500E+01 0.00000E+00
 -1       848 2.75133E+01 2.21351E+01 0.00000E+00
 -1       849 2.80350E+01 1.18003E+01 0.00000E+00
 -1       850 5.56766E+01 1.68517E+01 0.00000E+00
 -1       851 1.37010E+02 1.91187E+01 0.00000E+00
 -1       852 1.29900E+01 1.90875E+01 0.00000E+00
 -1       853 5.83500E+01 2.37363E+01 0.00000E+00
 -1       854 2.50350E+01 1.18003E+01 0.00000E+00
 -1       855 1.90350E+01 1.18003E+01 0.00000E+00
 -1       856 2.78419E+01 3.21266E+01 0.00000E+00
 -1       857 1.29900E+01 3.08563E+01 0.00000E+00
 -1       858 3.11123E+01 1.56850E+01 0.00000E+00
 -1       859 2.81042E+01 1.84756E+01 0.00000E+00
 -1       860 1.63988E+01 1.15007E+01 0.00000E+00
 -1       861 2.11500E+01 3.44120E+01 0.00000E+00
 -1       862 2.41500E+01 3.44120E+01 0.00000E+00
 -1       863 6.02362E+01 3.05350E+01 0.00000E+00
 -1       864 6.01500E+01 3.46246E+01 0.00000E+00
 -1       865 6.31500E+01 3.46246E+01 0.00000E+00
 -1       866 6.61500E+01 3.46246E+01 0.00000E+00
 -1       867 6.91500E+01 3.46246E+01 0.00000E+00
 -1       868 7.21500E+01 3.46246E+01 0.00000E+00
 -1       869 7.51500E+01 3.46246E+01 0.00000E+00
 -1       870 7.81500E+01 3.46246E+01 0.00000E+00
 -1       871 8.11500E+01 3.46246E+01 0.00000E+00
 -1       872 8.41500E+01 3.46246E+01 0.00000E+00
 -1       873 8.71500E+01 3.46246E+01 0.00000E+00
 -1       874 9.01500E+01 3.46246E+01 0.00000E+00
 -1       875 9.31500E+01 3.46246E+01 0.00000E+00
 -1       876 9.61500E+01 3.46246E+01 0.00000E+00
 -1       877 9.91500E+01 3.46246E+01 0.00000E+00
 -1       878 1.02150E+02 3.46246E+01 0.00000E+00
 -1       879 1.05150E+02 3.46246E+01 0.00000E+00
 -1       880 1.08150E+02 3.46246E+01 0.00000E+00
 -1       881 1.11150E+02 3.46246E+01 0.00000E+00
 -1       882 1.14150E+02 3.46246E+01 0.00000E+00
 -1       883 1.17150E+02 3.46246E+01 0.00000E+00
 -1       884 1.20150E+02 3.46246E+01 0.00000E+00
 -1       885 1.23150E+02 3.46246E+01 0.00000E+00
 -1       886 1.26150E+02 3.46246E+01 0.00000E+00
 -1       887 1.29150E+02 3.46246E+01 0.00000E+00
 -1       888 1.32150E+02 3.46246E+01 0.00000E+00
 -1       889 1.34580E+02 3.42373E+01 0.00000E+00
 -1       890 5.95350E+01 1.43982E+01 0.00000E+00
 -1       891 6.25350E+01 1.43982E+01 0.00000E+00
 -1       892 6.55350E+01 1.43982E+01 0.00000E+00
 -1       893 6.85350E+01 1.43982E+01 0.00000E+00
 -1       894 7.15350E+01 1.43982E+01 0.00000E+00
 -1       895 7.45350E+01 1.43982E+01 0.00000E+00
 -1       896 7.75350E+01 1.43982E+01 0.00000E+00
 -1       897 8.05350E+01 1.43982E+01 0.00000E+00
 -1       898 8.35350E+01 1.43982E+01 0.00000E+00
 -1       899 8.65350E+01 1.43982E+01 0.00000E+00
 -1       900 8.95350E+01 1.43982E+01 0.00000E+00
 -1       901 9.25350E+01 1.43982E+01 0.00000E+00
 -1       902 9.55350E+01 1.43982E+01 0.00000E+00
 -1       903 9.85350E+01 1.43982E+01 0.00000E+00
 -1       904 1.01535E+02 1.43982E+01 0.00000E+00
 -1       905 1.04535E+02 1.43982E+01 0.00000E+00
 -1       906 1.07535E+02 1.43982E+01 0.00000E+00
 -1       907 1.10535E+02 1.43982E+01 0.00000E+00
 -1       908 1.13535E+02 1.43982E+01 0.00000E+00
 -1       909 1.16535E+02 1.43982E+01 0.00000E+00
 -1       910 1.19535E+02 1.43982E+01 0.00000E+00
 -1       911 1.22535E+02 1.43982E+01 0.00000E+00
 -1       912 1.25535E+02 1.43982E+01 0.00000E+00
 -1       913 1.28535E+02 1.43982E+01 0.00000E+00
 -1       914 1.31535E+02 1.43982E+01 0.00000E+00
 -1       915 1.34535E+02 1.43982E+01 0.00000E+00
 -1       916 1.34412E+02 2.94250E+01 0.00000E+00
 -1       917 1.37449E+02 1.41049E+01 0.00000E+00
 -1       918 1.34412E+02 2.64750E+01 0.00000E+00
 -1       919 5.25763E+01 1.42500E+01 0.00000E+00
 -1       920 1.56263E+01 1.34996E+01 0.00000E+00
 -1       921 1.29900E+01 2.79188E+01 0.00000E+00
 -1       922 2.67644E+01 2.54594E+01 0.00000E+00
 -1       923 1.81500E+01 3.44120E+01 0.00000E+00
 -1       924 5.97575E+01 2.68472E+01 0.00000E+00
 -1       925 2.65531E+01 2.87176E+01 0.00000E+00
 -1       926 1.34496E+02 3.18312E+01 0.00000E+00
 -1       927 5.84971E+01 2.09174E+01 0.00000E+00
 -1       928 2.67459E+01 3.45683E+01 0.00000E+00
 -1       929 1.55700E+01 3.41029E+01 0.00000E+00
 -1       930 1.34412E+02 2.35250E+01 0.00000E+00
 -1       931 5.51778E+01 1.49532E+01 0.00000E+00
 -1       932 1.55700E+01 3.11654E+01 0.00000E+00
 -1       933 1.34250E+02 1.73983E+01 0.00000E+00
 -1       934 2.59952E+01 3.07507E+01 0.00000E+00
 -1       935 2.05350E+01 1.43982E+01 0.00000E+00
 -1       936 2.70761E+01 1.97905E+01 0.00000E+00
 -1       937 5.84769E+01 1.76449E+01 0.00000E+00
 -1       938 1.55880E+01 2.35000E+01 0.00000E+00
 -1       939 6.04187E+01 2.49093E+01 0.00000E+00
 -1       940 2.85339E+01 1.62358E+01 0.00000E+00
 -1       941 1.55880E+01 2.05625E+01 0.00000E+00
 -1       942 2.35350E+01 1.43982E+01 0.00000E+00
 -1       943 2.26500E+01 3.18140E+01 0.00000E+00
 -1       944 6.21962E+01 2.84057E+01 0.00000E+00
 -1       945 1.61458E+01 1.66550E+01 0.00000E+00
 -1       946 6.46500E+01 3.20266E+01 0.00000E+00
 -1       947 6.76500E+01 3.20266E+01 0.00000E+00
 -1       948 7.06500E+01 3.20266E+01 0.00000E+00
 -1       949 7.36500E+01 3.20266E+01 0.00000E+00
 -1       950 7.66500E+01 3.20266E+01 0.00000E+00
 -1       951 7.96500E+01 3.20266E+01 0.00000E+00
 -1       952 8.26500E+01 3.20266E+01 0.00000E+00
 -1       953 8.56500E+01 3.20266E+01 0.00000E+00
 -1       954 8.86500E+01 3.20266E+01 0.00000E+00
 -1       955 9.16500E+01 3.20266E+01 0.00000E+00
 -1       956 9.46500E+01 3.20266E+01 0.00000E+00
 -1       957 9.76500E+01 3.20266E+01 0.00000E+00
 -1       958 1.00650E+02 3.20266E+01 0.00000E+00
 -1       959 1.03650E+02 3.20266E+01 0.00000E+00
 -1       960 1.06650E+02 3.20266E+01 0.00000E+00
 -1       961 1.09650E+02 3.20266E+01 0.00000E+00
 -1       962 1.12650E+02 3.20266E+01 0.00000E+00
 -1       963 1.15650E+02 3.20266E+01 0.00000E+00
 -1       964 1.18650E+02 3.20266E+01 0.00000E+00
 -1       965 1.21650E+02 3.20266E+01 0.00000E+00
 -1       966 1.24650E+02 3.20266E+01 0.00000E+00
 -1       967 1.27650E+02 3.20266E+01 0.00000E+00
 -1       968 1.30650E+02 3.20266E+01 0.00000E+00
 -1       969 1.32573E+02 3.19289E+01 0.00000E+00
 -1       970 6.70350E+01 1.69963E+01 0.00000E+00
 -1       971 1.81500E+01 3.14745E+01 0.00000E+00
 -1       972 1.34412E+02 2.05938E+01 0.00000E+00
 -1       973 6.10350E+01 1.69963E+01 0.00000E+00
 -1       974 7.00350E+01 1.69963E+01 0.00000E+00
 -1       975 7.30350E+01 1.69963E+01 0.00000E+00
 -1       976 7.60350E+01 1.69963E+01 0.00000E+00
 -1       977 7.90350E+01 1.69963E+01 0.00000E+00
 -1       978 8.20350E+01 1.69963E+01 0.00000E+00
 -1       979 8.50350E+01 1.69963E+01 0.00000E+00
 -1       980 8.80350E+01 1.69963E+01 0.00000E+00
 -1       981 9.10350E+01 1.69963E+01 0.00000E+00
 -1       982 9.40350E+01 1.69963E+01 0.00000E+00
 -1       983 9.70350E+01 1.69963E+01 0.00000E+00
 -1       984 1.00035E+02 1.69963E+01 0.00000E+00
 -1       985 1.03035E+02 1.69963E+01 0.00000E+00
 -1       986 1.06035E+02 1.69963E+01 0.00000E+00
 -1       987 1.09035E+02 1.69963E+01 0.00000E+00
 -1       988 1.12035E+02 1.69963E+01 0.00000E+00
 -1       989 1.15035E+02 1.69963E+01 0.00000E+00
 -1       990 1.18035E+02 1.69963E+01 0.00000E+00
 -1       991 1.21035E+02 1.69963E+01 0.00000E+00
 -1       992 1.24035E+02 1.69963E+01 0.00000E+00
 -1       993 1.27035E+02 1.69963E+01 0.00000E+00
 -1       994 1.30035E+02 1.69963E+01 0.00000E+00
 -1       995 1.31814E+02 2.79500E+01 0.00000E+00
 -1       996 6.05658E+01 2.20904E+01 0.00000E+00
 -1       997 6.26731E+01 3.15151E+01 0.00000E+00
 -1       998 2.48118E+01 2.32730E+01 0.00000E+00
 -1       999 1.75904E+01 1.42276E+01 0.00000E+00
 -1      1000 1.55880E+01 2.64438E+01 0.00000E+00
 -1      1001 1.55790E+01 2.88046E+01 0.00000E+00
 -1      1002 6.40350E+01 1.69963E+01 0.00000E+00
 -1      1003 2.42784E+01 2.69341E+01 0.00000E+00
 -1      1004 2.04000E+01 3.16443E+01 0.00000E+00
 -1      1005 2.60345E+01 1.53170E+01 0.00000E+00
 -1      1006 2.50726E+01 3.25814E+01 0.00000E+00
 -1      1007 2.43746E+01 2.09284E+01 0.00000E+00
 -1      1008 1.81860E+01 2.20313E+01 0.00000E+00
 -1      1009 1.30197E+02 2.01917E+01 0.00000E+00
 -1      1010 1.81860E+01 2.49750E+01 0.00000E+00
 -1      1011 2.37205E+01 2.89672E+01 0.00000E+00
 -1      1012 2.20350E+01 1.69963E+01 0.00000E+00
 -1      1013 1.31814E+02 2.50000E+01 0.00000E+00
 -1      1014 1.90904E+01 1.68256E+01 0.00000E+00
 -1      1015 2.56047E+01 1.75569E+01 0.00000E+00
 -1      1016 6.12660E+01 1.89568E+01 0.00000E+00
 -1      1017 6.28574E+01 2.64678E+01 0.00000E+00
 -1      1018 6.61500E+01 2.94286E+01 0.00000E+00
 -1      1019 6.41731E+01 2.89171E+01 0.00000E+00
 -1      1020 2.21846E+01 2.47596E+01 0.00000E+00
 -1      1021 6.91500E+01 2.94286E+01 0.00000E+00
 -1      1022 7.21500E+01 2.94286E+01 0.00000E+00
 -1      1023 7.51500E+01 2.94286E+01 0.00000E+00
 -1      1024 7.81500E+01 2.94286E+01 0.00000E+00
 -1      1025 8.11500E+01 2.94286E+01 0.00000E+00
 -1      1026 8.41500E+01 2.94286E+01 0.00000E+00
 -1      1027 8.71500E+01 2.94286E+01 0.00000E+00
 -1      1028 9.01500E+01 2.94286E+01 0.00000E+00
 -1      1029 9.31500E+01 2.94286E+01 0.00000E+00
 -1      1030 9.61500E+01 2.94286E+01 0.00000E+00
 -1      1031 9.91500E+01 2.94286E+01 0.00000E+00
 -1      1032 1.02150E+02 2.94286E+01 0.00000E+00
 -1      1033 1.05150E+02 2.94286E+01 0.00000E+00
 -1      1034 1.08150E+02 2.94286E+01 0.00000E+00
 -1      1035 1.11150E+02 2.94286E+01 0.00000E+00
 -1      1036 1.14150E+02 2.94286E+01 0.00000E+00
 -1      1037 1.17150E+02 2.94286E+01 0.00000E+00
 -1      1038 1.20150E+02 2.94286E+01 0.00000E+00
 -1      1039 1.23150E+02 2.94286E+01 0.00000E+00
 -1      1040 1.26150E+02 2.94286E+01 0.00000E+00
 -1      1041 1.81590E+01 2.91137E+01 0.00000E+00
 -1      1042 1.31005E+02 2.25958E+01 0.00000E+00
 -1      1043 6.85350E+01 1.95942E+01 0.00000E+00
 -1      1044 7.75350E+01 1.95942E+01 0.00000E+00
 -1      1045 8.05350E+01 1.95942E+01 0.00000E+00
 -1      1046 8.35350E+01 1.95942E+01 0.00000E+00
 -1      1047 8.65350E+01 1.95942E+01 0.00000E+00
 -1      1048 8.95350E+01 1.95942E+01 0.00000E+00
 -1      1049 9.25350E+01 1.95942E+01 0.00000E+00
 -1      1050 9.55350E+01 1.95942E+01 0.00000E+00
 -1      1051 9.85350E+01 1.95942E+01 0.00000E+00
 -1      1052 1.01535E+02 1.95942E+01 0.00000E+00
 -1      1053 1.04535E+02 1.95942E+01 0.00000E+00
 -1      1054 1.07535E+02 1.95942E+01 0.00000E+00
 -1      1055 1.10535E+02 1.95942E+01 0.00000E+00
 -1      1056 1.13535E+02 1.95942E+01 0.00000E+00
 -1      1057 1.16535E+02 1.95942E+01 0.00000E+00
 -1      1058 1.19535E+02 1.95942E+01 0.00000E+00
 -1      1059 1.22535E+02 1.95942E+01 0.00000E+00
 -1      1060 1.25535E+02 1.95942E+01 0.00000E+00
 -1      1061 1.27866E+02 1.98930E+01 0.00000E+00
 -1      1062 6.34074E+01 2.10804E+01 0.00000E+00
 -1      1063 6.31324E+01 2.37741E+01 0.00000E+00
 -1      1064 7.15350E+01 1.95942E+01 0.00000E+00
 -1      1065 6.49005E+01 1.92755E+01 0.00000E+00
 -1      1066 7.45350E+01 1.95942E+01 0.00000E+00
 -1      1067 2.16267E+01 2.67928E+01 0.00000E+00
 -1      1068 1.29150E+02 2.94286E+01 0.00000E+00
 -1      1069 2.07840E+01 2.35031E+01 0.00000E+00
 -1      1070 2.10134E+01 2.92185E+01 0.00000E+00
 -1      1071 1.29150E+02 2.64786E+01 0.00000E+00
 -1      1072 1.81725E+01 2.70443E+01 0.00000E+00
 -1      1073 2.14095E+01 2.02497E+01 0.00000E+00
 -1      1074 7.06500E+01 2.68306E+01 0.00000E+00
 -1      1075 7.36500E+01 2.68306E+01 0.00000E+00
 -1      1076 7.66500E+01 2.68306E+01 0.00000E+00
 -1      1077 7.96500E+01 2.68306E+01 0.00000E+00
 -1      1078 8.26500E+01 2.68306E+01 0.00000E+00
 -1      1079 8.56500E+01 2.68306E+01 0.00000E+00
 -1      1080 8.86500E+01 2.68306E+01 0.00000E+00
 -1      1081 9.16500E+01 2.68306E+01 0.00000E+00
 -1      1082 9.46500E+01 2.68306E+01 0.00000E+00
 -1      1083 9.76500E+01 2.68306E+01 0.00000E+00
 -1      1084 1.00650E+02 2.68306E+01 0.00000E+00
 -1      1085 1.03650E+02 2.68306E+01 0.00000E+00
 -1      1086 1.06650E+02 2.68306E+01 0.00000E+00
 -1      1087 1.09650E+02 2.68306E+01 0.00000E+00
 -1      1088 1.12650E+02 2.68306E+01 0.00000E+00
 -1      1089 1.15650E+02 2.68306E+01 0.00000E+00
 -1      1090 1.18650E+02 2.68306E+01 0.00000E+00
 -1      1091 1.21650E+02 2.68306E+01 0.00000E+00
 -1      1092 1.24650E+02 2.68306E+01 0.00000E+00
 -1      1093 8.20350E+01 2.21922E+01 0.00000E+00
 -1      1094 7.90350E+01 2.21922E+01 0.00000E+00
 -1      1095 8.80350E+01 2.21922E+01 0.00000E+00
 -1      1096 9.10350E+01 2.21922E+01 0.00000E+00
 -1      1097 9.40350E+01 2.21922E+01 0.00000E+00
 -1      1098 9.70350E+01 2.21922E+01 0.00000E+00
 -1      1099 1.00035E+02 2.21922E+01 0.00000E+00
 -1      1100 1.03035E+02 2.21922E+01 0.00000E+00
 -1      1101 1.06035E+02 2.21922E+01 0.00000E+00
 -1      1102 1.09035E+02 2.21922E+01 0.00000E+00
 -1      1103 1.12035E+02 2.21922E+01 0.00000E+00
 -1      1104 1.15035E+02 2.21922E+01 0.00000E+00
 -1      1105 1.18035E+02 2.21922E+01 0.00000E+00
 -1      1106 1.21035E+02 2.21922E+01 0.00000E+00
 -1      1107 1.24035E+02 2.21922E+01 0.00000E+00
 -1      1108 6.64908E+01 2.20230E+01 0.00000E+00
 -1      1109 6.56166E+01 2.65636E+01 0.00000E+00
 -1      1110 1.26900E+02 2.66546E+01 0.00000E+00
 -1      1111 8.50350E+01 2.21922E+01 0.00000E+00
 -1      1112 7.00350E+01 2.21922E+01 0.00000E+00
 -1      1113 1.28341E+02 2.40745E+01 0.00000E+00
 -1      1114 7.60350E+01 2.21922E+01 0.00000E+00
 -1      1115 1.26366E+02 2.24910E+01 0.00000E+00
 -1      1116 7.30350E+01 2.21922E+01 0.00000E+00
 -1      1117 7.21500E+01 2.42326E+01 0.00000E+00
 -1      1118 1.28701E+02 2.26193E+01 0.00000E+00
 -1      1119 1.26918E+02 2.41699E+01 0.00000E+00
 -1      1120 6.81390E+01 2.47027E+01 0.00000E+00
 -1      1121 0.00000E+00 4.85250E+01 0.00000E+00
 -1      1122 0.00000E+00 4.55750E+01 0.00000E+00
 -1      1123 0.00000E+00 4.26250E+01 0.00000E+00
 -1      1124 0.00000E+00 3.96750E+01 0.00000E+00
 -1      1125 0.00000E+00 3.67250E+01 0.00000E+00
 -1      1126 0.00000E+00 3.38000E+01 0.00000E+00
 -1      1127 0.00000E+00 3.08750E+01 0.00000E+00
 -1      1128 0.00000E+00 2.79250E+01 0.00000E+00
 -1      1129 0.00000E+00 2.49750E+01 0.00000E+00
 -1      1130 0.00000E+00 2.20250E+01 0.00000E+00
 -1      1131 0.00000E+00 1.90750E+01 0.00000E+00
 -1      1132 0.00000E+00 1.61500E+01 0.00000E+00
 -1      1133 0.00000E+00 1.32250E+01 0.00000E+00
 -1      1134 0.00000E+00 1.02750E+01 0.00000E+00
 -1      1135 0.00000E+00 7.32500E+00 0.00000E+00
 -1      1136 0.00000E+00 4.37500E+00 0.00000E+00
 -1      1137 0.00000E+00 1.45000E+00 0.00000E+00
 -1      1138 1.57500E+00 5.00000E+01 0.00000E+00
 -1      1139 4.65000E+00 5.00000E+01 0.00000E+00
 -1      1140 7.65000E+00 5.00000E+01 0.00000E+00
 -1      1141 1.06500E+01 5.00000E+01 0.00000E+00
 -1      1142 1.36500E+01 5.00000E+01 0.00000E+00
 -1      1143 1.66500E+01 5.00000E+01 0.00000E+00
 -1      1144 1.96500E+01 5.00000E+01 0.00000E+00
 -1      1145 2.26500E+01 5.00000E+01 0.00000E+00
 -1      1146 2.56500E+01 5.00000E+01 0.00000E+00
 -1      1147 2.86500E+01 5.00000E+01 0.00000E+00
 -1      1148 3.16500E+01 5.00000E+01 0.00000E+00
 -1      1149 3.46500E+01 5.00000E+01 0.00000E+00
 -1      1150 3.76500E+01 5.00000E+01 0.00000E+00
 -1      1151 4.06500E+01 5.00000E+01 0.00000E+00
 -1      1152 4.36500E+01 5.00000E+01 0.00000E+00
 -1      1153 4.66500E+01 5.00000E+01 0.00000E+00
 -1      1154 4.96500E+01 5.00000E+01 0.00000E+00
 -1      1155 5.26500E+01 5.00000E+01 0.00000E+00
 -1      1156 5.56500E+01 5.00000E+01 0.00000E+00
 -1      1157 5.86500E+01 5.00000E+01 0.00000E+00
 -1      1158 6.16500E+01 5.00000E+01 0.00000E+00
 -1      1159 6.46500E+01 5.00000E+01 0.00000E+00
 -1      1160 6.76500E+01 5.00000E+01 0.00000E+00
 -1      1161 7.06500E+01 5.00000E+01 0.00000E+00
 -1      1162 7.36500E+01 5.00000E+01 0.00000E+00
 -1      1163 7.66500E+01 5.00000E+01 0.00000E+00
 -1      1164 7.96500E+01 5.00000E+01 0.00000E+00
 -1      1165 8.26500E+01 5.00000E+01 0.00000E+00
 -1      1166 8.56500E+01 5.00000E+01 0.00000E+00
 -1      1167 8.86500E+01 5.00000E+01 0.00000E+00
 -1      1168 9.16500E+01 5.00000E+01 0.00000E+00
 -1      1169 9.46500E+01 5.00000E+01 0.00000E+00
 -1      1170 9.76500E+01 5.00000E+01 0.00000E+00
 -1      1171 1.00650E+02 5.00000E+01 0.00000E+00
 -1      1172 1.03650E+02 5.00000E+01 0.00000E+00
 -1      1173 1.06650E+02 5.00000E+01 0.00000E+00
 -1      1174 1.09650E+02 5.00000E+01 0.00000E+00
 -1      1175 1.12650E+02 5.00000E+01 0.00000E+00
 -1      1176 1.15650E+02 5.00000E+01 0.00000E+00
 -1      1177 1.18650E+02 5.00000E+01 0.00000E+00
 -1      1178 1.21650E+02 5.00000E+01 0.00000E+00
 -1      1179 1.24650E+02 5.00000E+01 0.00000E+00
 -1      1180 1.27650E+02 5.00000E+01 0.00000E+00
 -1      1181 1.30650E+02 5.00000E+01 0.00000E+00
 -1      1182 1.33650E+02 5.00000E+01 0.00000E+00
 -1      1183 1.36650E+02 5.00000E+01 0.00000E+00
 -1      1184 1.39650E+02 5.00000E+01 0.00000E+00
 -1      1185 1.42650E+02 5.00000E+01 0.00000E+00
 -1      1186 1.45650E+02 5.00000E+01 0.00000E+00
 -1      1187 1.48575E+02 5.00000E+01 0.00000E+00
 -1      1188 1.57500E+00 0.00000E+00 0.00000E+00
 -1      1189 4.65000E+00 0.00000E+00 0.00000E+00
 -1      1190 7.65000E+00 0.00000E+00 0.00000E+00
 -1      1191 1.06500E+01 0.00000E+00 0.00000E+00
 -1      1192 1.36500E+01 0.00000E+00 0.00000E+00
 -1      1193 1.66500E+01 0.00000E+00 0.00000E+00
 -1      1194 1.96500E+01 0.00000E+00 0.00000E+00
 -1      1195 2.26500E+01 0.00000E+00 0.00000E+00
 -1      1196 2.56500E+01 0.00000E+00 0.00000E+00
 -1      1197 2.86500E+01 0.00000E+00 0.00000E+00
 -1      1198 3.16500E+01 0.00000E+00 0.00000E+00
 -1      1199 3.46500E+01 0.00000E+00 0.00000E+00
 -1      1200 3.76500E+01 0.00000E+00 0.00000E+00
 -1      1201 4.06500E+01 0.00000E+00 0.00000E+00
 -1      1202 4.36500E+01 0.00000E+00 0.00000E+00
 -1      1203 4.66500E+01 0.00000E+00 0.00000E+00
 -1      1204 4.96500E+01 0.00000E+00 0.00000E+00
 -1      1205 5.26500E+01 0.00000E+00 0.00000E+00
 -1      1206 5.56500E+01 0.00000E+00 0.00000E+00
 -1      1207 5.86500E+01 0.00000E+00 0.00000E+00
 -1      1208 6.16500E+01 0.00000E+00 0.00000E+00
 -1      1209 6.46500E+01 0.00000E+00 0.00000E+00
 -1      1210 6.76500E+01 0.00000E+00 0.00000E+00
 -1      1211 7.06500E+01 0.00000E+00 0.00000E+00
 -1      1212 7.36500E+01 0.00000E+00 0.00000E+00
 -1      1213 7.66500E+01 0.00000E+00 0.00000E+00
 -1      1214 7.96500E+01 0.00000E+00 0.00000E+00
 -1      1215 8.26500E+01 0.00000E+00 0.00000E+00
 -1      1216 8.56500E+01 0.00000E+00 0.00000E+00
 -1      1217 8.86500E+01 0.00000E+00 0.00000E+00
 -1      1218 9.16500E+01 0.00000E+00 0.00000E+00
 -1      1219 9.46500E+01 0.00000E+00 0.00000E+00
 -1      1220 9.76500E+01 0.00000E+00 0.00000E+00
 -1      1221 1.00650E+02 0.00000E+00 0.00000E+00
 -1      1222 1.03650E+02 0.00000E+00 0.00000E+00
 -1      1223 1.06650E+02 0.00000E+00 0.00000E+00
 -1      1224 1.09650E+02 0.00000E+00 0.00000E+00
 -1      1225 1.12650E+02 0.00000E+00 0.00000E+00
 -1      1226 1.15650E+02 0.00000E+00 0.00000E+00
 -1      1227 1.18650E+02 0.00000E+00 0.00000E+00
 -1      1228 1.21650E+02 0.00000E+00 0.00000E+00
 -1      1229 1.24650E+02 0.00000E+00 0.00000E+00
 -1      1230 1.27650E+02 0.00000E+00 0.00000E+00
 -1      1231 1.30650E+02 0.00000E+00 0.00000E+00
 -1      1232 1.33650E+02 0.00000E+00 0.00000E+00
 -1      1233 1.36650E+02 0.00000E+00 0.00000E+00
 -1      1234 1.39650E+02 0.00000E+00 0.00000E+00
 -1      1235 1.42650E+02 0.00000E+00 0.00000E+00
 -1      1236 1.45650E+02 0.00000E+00 0.00000E+00
 -1      1237 1.48575E+02 0.00000E+00 0.00000E+00
 -1      1238 1.50000E+02 1.47500E+00 0.00000E+00
 -1      1239 1.50000E+02 4.42500E+00 0.00000E+00
 -1      1240 1.50000E+02 7.37500E+00 0.00000E+00
 -1      1241 1.50000E+02 1.03250E+01 0.00000E+00
 -1      1242 1.50000E+02 1.32750E+01 0.00000E+00
 -1      1243 1.50000E+02 1.62000E+01 0.00000E+00
 -1      1244 1.50000E+02 1.91250E+01 0.00000E+00
 -1      1245 1.50000E+02 2.20750E+01 0.00000E+00
 -1      1246 1.50000E+02 2.50250E+01 0.00000E+00
 -1      1247 1.50000E+02 2.79750E+01 0.00000E+00
 -1      1248 1.50000E+02 3.09250E+01 0.00000E+00
 -1      1249 1.50000E+02 3.38500E+01 0.00000E+00
 -1      1250 1.50000E+02 3.67750E+01 0.00000E+00
 -1      1251 1.50000E+02 3.97250E+01 0.00000E+00
 -1      1252 1.50000E+02 4.26750E+01 0.00000E+00
 -1      1253 1.50000E+02 4.56250E+01 0.00000E+00
 -1      1254 1.50000E+02 4.85500E+01 0.00000E+00
 -1      1255 4.99744E+01 2.63012E+01 0.00000E+00
 -1      1256 4.96523E+01 2.47995E+01 0.00000E+00
 -1      1257 4.89674E+01 2.33333E+01 0.00000E+00
 -1      1258 4.80111E+01 2.21111E+01 0.00000E+00
 -1      1259 4.68295E+01 2.11430E+01 0.00000E+00
 -1      1260 4.54808E+01 2.04598E+01 0.00000E+00
 -1      1261 4.40218E+01 2.00828E+01 0.00000E+00
 -1      1262 4.24940E+01 2.00284E+01 0.00000E+00
 -1      1263 4.10113E+01 2.03008E+01 0.00000E+00
 -1      1264 3.95906E+01 2.09015E+01 0.00000E+00
 -1      1265 3.83578E+01 2.17792E+01 0.00000E+00
 -1      1266 3.73945E+01 2.28305E+01 0.00000E+00
 -1      1267 3.66159E+01 2.41612E+01 0.00000E+00
 -1      1268 3.61449E+01 2.56431E+01 0.00000E+00
 -1      1269 3.60129E+01 2.72013E+01 0.00000E+00
 -1      1270 3.62276E+01 2.87398E+01 0.00000E+00
 -1      1271 3.67622E+01 3.01656E+01 0.00000E+00
 -1      1272 3.75866E+01 3.14347E+01 0.00000E+00
 -1      1273 3.86131E+01 3.24559E+01 0.00000E+00
 -1      1274 3.98565E+01 3.32586E+01 0.00000E+00
 -1      1275 4.13055E+01 3.37986E+01 0.00000E+00
 -1      1276 4.28669E+01 3.40079E+01 0.00000E+00
 -1      1277 4.43579E+01 3.38784E+01 0.00000E+00
 -1      1278 4.57381E+01 3.34560E+01 0.00000E+00
 -1      1279 4.70203E+01 3.27469E+01 0.00000E+00
 -1      1280 4.81393E+01 3.17731E+01 0.00000E+00
 -1      1281 4.90104E+01 3.06147E+01 0.00000E+00
 -1      1282 4.96267E+01 2.92949E+01 0.00000E+00
 -1      1283 4.99654E+01 2.78006E+01 0.00000E+00
 -1      1284 1.57500E+00 4.85250E+01 0.00000E+00
 -1      1285 1.29900E+00 4.48375E+01 0.00000E+00
 -1      1286 1.29900E+00 4.63125E+01 0.00000E+00
 -1      1287 1.29900E+00 4.18875E+01 0.00000E+00
 -1      1288 1.29900E+00 4.33625E+01 0.00000E+00
 -1      1289 2.59800E+00 4.41000E+01 0.00000E+00
 -1      1290 1.29900E+00 3.89375E+01 0.00000E+00
 -1      1291 1.29900E+00 4.04125E+01 0.00000E+00
 -1      1292 2.59800E+00 4.11500E+01 0.00000E+00
 -1      1293 1.29900E+00 3.59875E+01 0.00000E+00
 -1      1294 1.29900E+00 3.74625E+01 0.00000E+00
 -1      1295 2.59800E+00 3.82000E+01 0.00000E+00
 -1      1296 1.29900E+00 3.30875E+01 0.00000E+00
 -1      1297 1.29900E+00 3.45375E+01 0.00000E+00
 -1      1298 2.59800E+00 3.52750E+01 0.00000E+00
 -1      1299 1.29900E+00 3.01375E+01 0.00000E+00
 -1      1300 1.29900E+00 3.16125E+01 0.00000E+00
 -1      1301 2.59800E+00 3.23500E+01 0.00000E+00
 -1      1302 1.29900E+00 2.71875E+01 0.00000E+00
 -1      1303 1.29900E+00 2.86625E+01 0.00000E+00
 -1      1304 2.59800E+00 2.94000E+01 0.00000E+00
 -1      1305 1.29900E+00 2.42375E+01 0.00000E+00
 -1      1306 1.29900E+00 2.57125E+01 0.00000E+00
 -1      1307 2.59800E+00 2.64500E+01 0.00000E+00
 -1      1308 1.29900E+00 2.12875E+01 0.00000E+00
 -1      1309 1.29900E+00 2.27625E+01 0.00000E+00
 -1      1310 2.59800E+00 2.35000E+01 0.00000E+00
 -1      1311 1.29900E+00 1.83375E+01 0.00000E+00
 -1      1312 1.29900E+00 1.98125E+01 0.00000E+00
 -1      1313 2.59800E+00 2.05500E+01 0.00000E+00
 -1      1314 1.29900E+00 1.54375E+01 0.00000E+00
 -1      1315 1.29900E+00 1.68875E+01 0.00000E+00
 -1      1316 2.59800E+00 1.76250E+01 0.00000E+00
 -1      1317 1.29900E+00 1.24875E+01 0.00000E+00
 -1      1318 1.29900E+00 1.39625E+01 0.00000E+00
 -1      1319 2.59800E+00 1.47000E+01 0.00000E+00
 -1      1320 1.29900E+00 9.53750E+00 0.00000E+00
 -1      1321 1.29900E+00 1.10125E+01 0.00000E+00
 -1      1322 2.59800E+00 1.17500E+01 0.00000E+00
 -1      1323 1.29900E+00 6.58750E+00 0.00000E+00
 -1      1324 1.29900E+00 8.06250E+00 0.00000E+00
 -1      1325 2.59800E+00 8.80000E+00 0.00000E+00
 -1      1326 1.29900E+00 3.63750E+00 0.00000E+00
 -1      1327 1.29900E+00 5.11250E+00 0.00000E+00
 -1      1328 2.59800E+00 5.85000E+00 0.00000E+00
 -1      1329 1.43700E+00 1.09375E+00 0.00000E+00
 -1      1330 1.43700E+00 2.54375E+00 0.00000E+00
 -1      1331 2.73600E+00 3.28125E+00 0.00000E+00
 -1      1332 3.01200E+00 1.09375E+00 0.00000E+00
 -1      1333 3.90000E+00 4.87010E+01 0.00000E+00
 -1      1334 5.40000E+00 4.87010E+01 0.00000E+00
 -1      1335 6.90000E+00 4.87010E+01 0.00000E+00
 -1      1336 8.40000E+00 4.87010E+01 0.00000E+00
 -1      1337 6.15000E+00 4.74020E+01 0.00000E+00
 -1      1338 9.90000E+00 4.87010E+01 0.00000E+00
 -1      1339 1.14000E+01 4.87010E+01 0.00000E+00
 -1      1340 9.15000E+00 4.74020E+01 0.00000E+00
 -1      1341 1.29000E+01 4.87010E+01 0.00000E+00
 -1      1342 1.44000E+01 4.87010E+01 0.00000E+00
 -1      1343 1.21500E+01 4.74020E+01 0.00000E+00
 -1      1344 1.59000E+01 4.87010E+01 0.00000E+00
 -1      1345 1.74000E+01 4.87010E+01 0.00000E+00
 -1      1346 1.51500E+01 4.74020E+01 0.00000E+00
 -1      1347 1.89000E+01 4.87010E+01 0.00000E+00
 -1      1348 2.04000E+01 4.87010E+01 0.00000E+00
 -1      1349 1.81500E+01 4.74020E+01 0.00000E+00
 -1      1350 2.19000E+01 4.87010E+01 0.00000E+00
 -1      1351 2.34000E+01 4.87010E+01 0.00000E+00
 -1      1352 2.11500E+01 4.74020E+01 0.00000E+00
 -1      1353 2.49000E+01 4.87010E+01 0.00000E+00
 -1      1354 2.64000E+01 4.87010E+01 0.00000E+00
 -1      1355 2.41500E+01 4.74020E+01 0.00000E+00
 -1      1356 2.79000E+01 4.87010E+01 0.00000E+00
 -1      1357 2.94000E+01 4.87010E+01 0.00000E+00
 -1      1358 2.71500E+01 4.74020E+01 0.00000E+00
 -1      1359 3.09000E+01 4.87010E+01 0.00000E+00
 -1      1360 3.24000E+01 4.87010E+01 0.00000E+00
 -1      1361 3.01500E+01 4.74020E+01 0.00000E+00
 -1      1362 3.39000E+01 4.87010E+01 0.00000E+00
 -1      1363 3.54000E+01 4.87010E+01 0.00000E+00
 -1      1364 3.31500E+01 4.74020E+01 0.00000E+00
 -1      1365 3.69000E+01 4.87010E+01 0.00000E+00
 -1      1366 3.84000E+01 4.87010E+01 0.00000E+00
 -1      1367 3.61500E+01 4.74020E+01 0.00000E+00
 -1      1368 3.99000E+01 4.87010E+01 0.00000E+00
 -1      1369 4.14000E+01 4.87010E+01 0.00000E+00
 -1      1370 3.91500E+01 4.74020E+01 0.00000E+00
 -1      1371 4.29000E+01 4.87010E+01 0.00000E+00
 -1      1372 4.44000E+01 4.87010E+01 0.00000E+00
 -1      1373 4.21500E+01 4.74020E+01 0.00000E+00
 -1      1374 4.59000E+01 4.87010E+01 0.00000E+00
 -1      1375 4.74000E+01 4.87010E+01 0.00000E+00
 -1      1376 4.51500E+01 4.74020E+01 0.00000E+00
 -1      1377 4.89000E+01 4.87010E+01 0.00000E+00
 -1      1378 5.04000E+01 4.87010E+01 0.00000E+00
 -1      1379 4.81500E+01 4.74020E+01 0.00000E+00
 -1      1380 5.19000E+01 4.87010E+01 0.00000E+00
 -1      1381 5.34000E+01 4.87010E+01 0.00000E+00
 -1      1382 5.11500E+01 4.74020E+01 0.00000E+00
 -1      1383 5.49000E+01 4.87010E+01 0.00000E+00
 -1      1384 5.64000E+01 4.87010E+01 0.00000E+00
 -1      1385 5.41500E+01 4.74020E+01 0.00000E+00
 -1      1386 5.79000E+01 4.87010E+01 0.00000E+00
 -1      1387 5.94000E+01 4.87010E+01 0.00000E+00
 -1      1388 5.71500E+01 4.74020E+01 0.00000E+00
 -1      1389 6.09000E+01 4.87010E+01 0.00000E+00
 -1      1390 6.24000E+01 4.87010E+01 0.00000E+00
 -1      1391 6.01500E+01 4.74020E+01 0.00000E+00
 -1      1392 6.39000E+01 4.87010E+01 0.00000E+00
 -1      1393 6.54000E+01 4.87010E+01 0.00000E+00
 -1      1394 6.31500E+01 4.74020E+01 0.00000E+00
 -1      1395 6.69000E+01 4.87010E+01 0.00000E+00
 -1      1396 6.84000E+01 4.87010E+01 0.00000E+00
 -1      1397 6.61500E+01 4.74020E+01 0.00000E+00
 -1      1398 6.99000E+01 4.87010E+01 0.00000E+00
 -1      1399 7.14000E+01 4.87010E+01 0.00000E+00
 -1      1400 6.91500E+01 4.74020E+01 0.00000E+00
 -1      1401 7.29000E+01 4.87010E+01 0.00000E+00
 -1      1402 7.44000E+01 4.87010E+01 0.00000E+00
 -1      1403 7.21500E+01 4.74020E+01 0.00000E+00
 -1      1404 7.59000E+01 4.87010E+01 0.00000E+00
 -1      1405 7.74000E+01 4.87010E+01 0.00000E+00
 -1      1406 7.51500E+01 4.74020E+01 0.00000E+00
 -1      1407 7.89000E+01 4.87010E+01 0.00000E+00
 -1      1408 8.04000E+01 4.87010E+01 0.00000E+00
 -1      1409 7.81500E+01 4.74020E+01 0.00000E+00
 -1      1410 8.19000E+01 4.87010E+01 0.00000E+00
 -1      1411 8.34000E+01 4.87010E+01 0.00000E+00
 -1      1412 8.11500E+01 4.74020E+01 0.00000E+00
 -1      1413 8.49000E+01 4.87010E+01 0.00000E+00
 -1      1414 8.64000E+01 4.87010E+01 0.00000E+00
 -1      1415 8.41500E+01 4.74020E+01 0.00000E+00
 -1      1416 8.79000E+01 4.87010E+01 0.00000E+00
 -1      1417 8.94000E+01 4.87010E+01 0.00000E+00
 -1      1418 8.71500E+01 4.74020E+01 0.00000E+00
 -1      1419 9.09000E+01 4.87010E+01 0.00000E+00
 -1      1420 9.24000E+01 4.87010E+01 0.00000E+00
 -1      1421 9.01500E+01 4.74020E+01 0.00000E+00
 -1      1422 9.39000E+01 4.87010E+01 0.00000E+00
 -1      1423 9.54000E+01 4.87010E+01 0.00000E+00
 -1      1424 9.31500E+01 4.74020E+01 0.00000E+00
 -1      1425 9.69000E+01 4.87010E+01 0.00000E+00
 -1      1426 9.84000E+01 4.87010E+01 0.00000E+00
 -1      1427 9.61500E+01 4.74020E+01 0.00000E+00
 -1      1428 9.99000E+01 4.87010E+01 0.00000E+00
 -1      1429 1.01400E+02 4.87010E+01 0.00000E+00
 -1      1430 9.91500E+01 4.74020E+01 0.00000E+00
 -1      1431 1.02900E+02 4.87010E+01 0.00000E+00
 -1      1432 1.04400E+02 4.87010E+01 0.00000E+00
 -1      1433 1.02150E+02 4.74020E+01 0.00000E+00
 -1      1434 1.05900E+02 4.87010E+01 0.00000E+00
 -1      1435 1.07400E+02 4.87010E+01 0.00000E+00
 -1      1436 1.05150E+02 4.74020E+01 0.00000E+00
 -1      1437 1.08900E+02 4.87010E+01 0.00000E+00
 -1      1438 1.10400E+02 4.87010E+01 0.00000E+00
 -1      1439 1.08150E+02 4.74020E+01 0.00000E+00
 -1      1440 1.11900E+02 4.87010E+01 0.00000E+00
 -1      1441 1.13400E+02 4.87010E+01 0.00000E+00
 -1      1442 1.11150E+02 4.74020E+01 0.00000E+00
 -1      1443 1.14900E+02 4.87010E+01 0.00000E+00
 -1      1444 1.16400E+02 4.87010E+01 0.00000E+00
 -1      1445 1.14150E+02 4.74020E+01 0.00000E+00
 -1      1446 1.17900E+02 4.87010E+01 0.00000E+00
 -1      1447 1.19400E+02 4.87010E+01 0.00000E+00
 -1      1448 1.17150E+02 4.74020E+01 0.00000E+00
 -1      1449 1.20900E+02 4.87010E+01 0.00000E+00
 -1      1450 1.22400E+02 4.87010E+01 0.00000E+00
 -1      1451 1.20150E+02 4.74020E+01 0.00000E+00
 -1      1452 1.23900E+02 4.87010E+01 0.00000E+00
 -1      1453 1.25400E+02 4.87010E+01 0.00000E+00
 -1      1454 1.23150E+02 4.74020E+01 0.00000E+00
 -1      1455 1.26900E+02 4.87010E+01 0.00000E+00
 -1      1456 1.28400E+02 4.87010E+01 0.00000E+00
 -1      1457 1.26150E+02 4.74020E+01 0.00000E+00
 -1      1458 1.29900E+02 4.87010E+01 0.00000E+00
 -1      1459 1.31400E+02 4.87010E+01 0.00000E+00
 -1      1460 1.29150E+02 4.74020E+01 0.00000E+00
 -1      1461 1.32900E+02 4.87010E+01 0.00000E+00
 -1      1462 1.34400E+02 4.87010E+01 0.00000E+00
 -1      1463 1.32150E+02 4.74020E+01 0.00000E+00
 -1      1464 1.35900E+02 4.87010E+01 0.00000E+00
 -1      1465 1.37400E+02 4.87010E+01 0.00000E+00
 -1      1466 1.35150E+02 4.74020E+01 0.00000E+00
 -1      1467 1.38900E+02 4.87010E+01 0.00000E+00
 -1      1468 1.40400E+02 4.87010E+01 0.00000E+00
 -1      1469 1.38150E+02 4.74020E+01 0.00000E+00
 -1      1470 1.41900E+02 4.87010E+01 0.00000E+00
 -1      1471 1.43400E+02 4.87010E+01 0.00000E+00
 -1      1472 1.41150E+02 4.74020E+01 0.00000E+00
 -1      1473 1.44900E+02 4.87010E+01 0.00000E+00
 -1      1474 1.46400E+02 4.87010E+01 0.00000E+00
 -1      1475 1.44150E+02 4.74020E+01 0.00000E+00
 -1      1476 1.48575E+02 4.85500E+01 0.00000E+00
 -1      1477 1.47825E+02 4.72510E+01 0.00000E+00
 -1      1478 6.01200E+00 1.09375E+00 0.00000E+00
 -1      1479 4.51200E+00 1.09375E+00 0.00000E+00
 -1      1480 4.37400E+00 2.18750E+00 0.00000E+00
 -1      1481 9.01200E+00 1.09375E+00 0.00000E+00
 -1      1482 7.51200E+00 1.09375E+00 0.00000E+00
 -1      1483 7.37400E+00 2.18750E+00 0.00000E+00
 -1      1484 1.20120E+01 1.09375E+00 0.00000E+00
 -1      1485 1.05120E+01 1.09375E+00 0.00000E+00
 -1      1486 1.03740E+01 2.18750E+00 0.00000E+00
 -1      1487 1.50120E+01 1.09375E+00 0.00000E+00
 -1      1488 1.35120E+01 1.09375E+00 0.00000E+00
 -1      1489 1.33740E+01 2.18750E+00 0.00000E+00
 -1      1490 1.80120E+01 1.09375E+00 0.00000E+00
 -1      1491 1.65120E+01 1.09375E+00 0.00000E+00
 -1      1492 1.63740E+01 2.18750E+00 0.00000E+00
 -1      1493 2.10120E+01 1.09375E+00 0.00000E+00
 -1      1494 1.95120E+01 1.09375E+00 0.00000E+00
 -1      1495 1.93740E+01 2.18750E+00 0.00000E+00
 -1      1496 2.40120E+01 1.09375E+00 0.00000E+00
 -1      1497 2.25120E+01 1.09375E+00 0.00000E+00
 -1      1498 2.23740E+01 2.18750E+00 0.00000E+00
 -1      1499 2.70120E+01 1.09375E+00 0.00000E+00
 -1      1500 2.55120E+01 1.09375E+00 0.00000E+00
 -1      1501 2.53740E+01 2.18750E+00 0.00000E+00
 -1      1502 3.00120E+01 1.09375E+00 0.00000E+00
 -1      1503 2.85120E+01 1.09375E+00 0.00000E+00
 -1      1504 2.83740E+01 2.18750E+00 0.00000E+00
 -1      1505 3.30120E+01 1.09375E+00 0.00000E+00
 -1      1506 3.15120E+01 1.09375E+00 0.00000E+00
 -1      1507 3.13740E+01 2.18750E+00 0.00000E+00
 -1      1508 3.60120E+01 1.09375E+00 0.00000E+00
 -1      1509 3.45120E+01 1.09375E+00 0.00000E+00
 -1      1510 3.43740E+01 2.18750E+00 0.00000E+00
 -1      1511 3.90120E+01 1.09375E+00 0.00000E+00
 -1      1512 3.75120E+01 1.09375E+00 0.00000E+00
 -1      1513 3.73740E+01 2.18750E+00 0.00000E+00
 -1      1514 4.20120E+01 1.09375E+00 0.00000E+00
 -1      1515 4.05120E+01 1.09375E+00 0.00000E+00
 -1      1516 4.03740E+01 2.18750E+00 0.00000E+00
 -1      1517 4.50120E+01 1.09375E+00 0.00000E+00
 -1      1518 4.35120E+01 1.09375E+00 0.00000E+00
 -1      1519 4.33740E+01 2.18750E+00 0.00000E+00
 -1      1520 4.80120E+01 1.09375E+00 0.00000E+00
 -1      1521 4.65120E+01 1.09375E+00 0.00000E+00
 -1      1522 4.63740E+01 2.18750E+00 0.00000E+00
 -1      1523 5.10120E+01 1.09375E+00 0.00000E+00
 -1      1524 4.95120E+01 1.09375E+00 0.00000E+00
 -1      1525 4.93740E+01 2.18750E+00 0.00000E+00
 -1      1526 5.40120E+01 1.09375E+00 0.00000E+00
 -1      1527 5.25120E+01 1.09375E+00 0.00000E+00
 -1      1528 5.23740E+01 2.18750E+00 0.00000E+00
 -1      1529 5.70120E+01 1.09375E+00 0.00000E+00
 -1      1530 5.55120E+01 1.09375E+00 0.00000E+00
 -1      1531 5.53740E+01 2.18750E+00 0.00000E+00
 -1      1532 6.00120E+01 1.09375E+00 0.00000E+00
 -1      1533 5.85120E+01 1.09375E+00 0.00000E+00
 -1      1534 5.83740E+01 2.18750E+00 0.00000E+00
 -1      1535 6.30120E+01 1.09375E+00 0.00000E+00
 -1      1536 6.15120E+01 1.09375E+00 0.00000E+00
 -1      1537 6.13740E+01 2.18750E+00 0.00000E+00
 -1      1538 6.60120E+01 1.09375E+00 0.00000E+00
 -1      1539 6.45120E+01 1.09375E+00 0.00000E+00
 -1      1540 6.43740E+01 2.18750E+00 0.00000E+00
 -1      1541 6.90120E+01 1.09375E+00 0.00000E+00
 -1      1542 6.75120E+01 1.09375E+00 0.00000E+00
 -1      1543 6.73740E+01 2.18750E+00 0.00000E+00
 -1      1544 7.20120E+01 1.09375E+00 0.00000E+00
 -1      1545 7.05120E+01 1.09375E+00 0.00000E+00
 -1      1546 7.03740E+01 2.18750E+00 0.00000E+00
 -1      1547 7.50120E+01 1.09375E+00 0.00000E+00
 -1      1548 7.35120E+01 1.09375E+00 0.00000E+00
 -1      1549 7.33740E+01 2.18750E+00 0.00000E+00
 -1      1550 7.80120E+01 1.09375E+00 0.00000E+00
 -1      1551 7.65120E+01 1.09375E+00 0.00000E+00
 -1      1552 7.63740E+01 2.18750E+00 0.00000E+00
 -1      1553 8.10120E+01 1.09375E+00 0.00000E+00
 -1      1554 7.95120E+01 1.09375E+00 0.00000E+00
 -1      1555 7.93740E+01 2.18750E+00 0.00000E+00
 -1      1556 8.40120E+01 1.09375E+00 0.00000E+00
 -1      1557 8.25120E+01 1.09375E+00 0.00000E+00
 -1      1558 8.23740E+01 2.18750E+00 0.00000E+00
 -1      1559 8.70120E+01 1.09375E+00 0.00000E+00
 -1      1560 8.55120E+01 1.09375E+00 0.00000E+00
 -1      1561 8.53740E+01 2.18750E+00 0.00000E+00
 -1      1562 9.00120E+01 1.09375E+00 0.00000E+00
 -1      1563 8.85120E+01 1.09375E+00 0.00000E+00
 -1      1564 8.83740E+01 2.18750E+00 0.00000E+00
 -1      1565 9.30120E+01 1.09375E+00 0.00000E+00
 -1      1566 9.15120E+01 1.09375E+00 0.00000E+00
 -1      1567 9.13740E+01 2.18750E+00 0.00000E+00
 -1      1568 9.60120E+01 1.09375E+00 0.00000E+00
 -1      1569 9.45120E+01 1.09375E+00 0.00000E+00
 -1      1570 9.43740E+01 2.18750E+00 0.00000E+00
 -1      1571 9.90120E+01 1.09375E+00 0.00000E+00
 -1      1572 9.75120E+01 1.09375E+00 0.00000E+00
 -1      1573 9.73740E+01 2.18750E+00 0.00000E+00
 -1      1574 1.02012E+02 1.09375E+00 0.00000E+00
 -1      1575 1.00512E+02 1.09375E+00 0.00000E+00
 -1      1576 1.00374E+02 2.18750E+00 0.00000E+00
 -1      1577 1.05012E+02 1.09375E+00 0.00000E+00
 -1      1578 1.03512E+02 1.09375E+00 0.00000E+00
 -1      1579 1.03374E+02 2.18750E+00 0.00000E+00
 -1      1580 1.08012E+02 1.09375E+00 0.00000E+00
 -1      1581 1.06512E+02 1.09375E+00 0.00000E+00
 -1      1582 1.06374E+02 2.18750E+00 0.00000E+00
 -1      1583 1.11012E+02 1.09375E+00 0.00000E+00
 -1      1584 1.09512E+02 1.09375E+00 0.00000E+00
 -1      1585 1.09374E+02 2.18750E+00 0.00000E+00
 -1      1586 1.14012E+02 1.09375E+00 0.00000E+00
 -1      1587 1.12512E+02 1.09375E+00 0.00000E+00
 -1      1588 1.12374E+02 2.18750E+00 0.00000E+00
 -1      1589 1.17012E+02 1.09375E+00 0.00000E+00
 -1      1590 1.15512E+02 1.09375E+00 0.00000E+00
 -1      1591 1.15374E+02 2.18750E+00 0.00000E+00
 -1      1592 1.20012E+02 1.09375E+00 0.00000E+00
 -1      1593 1.18512E+02 1.09375E+00 0.00000E+00
 -1      1594 1.18374E+02 2.18750E+00 0.00000E+00
 -1      1595 1.23012E+02 1.09375E+00 0.00000E+00
 -1      1596 1.21512E+02 1.09375E+00 0.00000E+00
 -1      1597 1.21374E+02 2.18750E+00 0.00000E+00
 -1      1598 1.26012E+02 1.09375E+00 0.00000E+00
 -1      1599 1.24512E+02 1.09375E+00 0.00000E+00
 -1      1600 1.24374E+02 2.18750E+00 0.00000E+00
 -1      1601 1.29012E+02 1.09375E+00 0.00000E+00
 -1      1602 1.27512E+02 1.09375E+00 0.00000E+00
 -1      1603 1.27374E+02 2.18750E+00 0.00000E+00
 -1      1604 1.32012E+02 1.09375E+00 0.00000E+00
 -1      1605 1.30512E+02 1.09375E+00 0.00000E+00
 -1      1606 1.30374E+02 2.18750E+00 0.00000E+00
 -1      1607 1.35012E+02 1.09375E+00 0.00000E+00
 -1      1608 1.33512E+02 1.09375E+00 0.00000E+00
 -1      1609 1.33374E+02 2.18750E+00 0.00000E+00
 -1      1610 1.38012E+02 1.09375E+00 0.00000E+00
 -1      1611 1.36512E+02 1.09375E+00 0.00000E+00
 -1      1612 1.36374E+02 2.18750E+00 0.00000E+00
 -1      1613 1.41012E+02 1.09375E+00 0.00000E+00
 -1      1614 1.39512E+02 1.09375E+00 0.00000E+00
 -1      1615 1.39374E+02 2.18750E+00 0.00000E+00
 -1      1616 1.44012E+02 1.09375E+00 0.00000E+00
 -1      1617 1.42512E+02 1.09375E+00 0.00000E+00
 -1      1618 1.42374E+02 2.18750E+00 0.00000E+00
 -1      1619 1.47012E+02 1.09375E+00 0.00000E+00
 -1      1620 1.45512E+02 1.09375E+00 0.00000E+00
 -1      1621 1.45374E+02 2.18750E+00 0.00000E+00
 -1      1622 1.48575E+02 1.47500E+00 0.00000E+00
 -1      1623 1.48701E+02 5.16250E+00 0.00000E+00
 -1      1624 1.48701E+02 3.68750E+00 0.00000E+00
 -1      1625 1.48701E+02 8.11250E+00 0.00000E+00
 -1      1626 1.48701E+02 6.63750E+00 0.00000E+00
 -1      1627 1.47402E+02 5.90000E+00 0.00000E+00
 -1      1628 1.48701E+02 1.10625E+01 0.00000E+00
 -1      1629 1.48701E+02 9.58750E+00 0.00000E+00
 -1      1630 1.47402E+02 8.85000E+00 0.00000E+00
 -1      1631 1.48701E+02 1.40125E+01 0.00000E+00
 -1      1632 1.48701E+02 1.25375E+01 0.00000E+00
 -1      1633 1.47402E+02 1.18000E+01 0.00000E+00
 -1      1634 1.48701E+02 1.69125E+01 0.00000E+00
 -1      1635 1.48701E+02 1.54625E+01 0.00000E+00
 -1      1636 1.47402E+02 1.47250E+01 0.00000E+00
 -1      1637 1.48701E+02 1.98625E+01 0.00000E+00
 -1      1638 1.48701E+02 1.83875E+01 0.00000E+00
 -1      1639 1.47402E+02 1.76500E+01 0.00000E+00
 -1      1640 1.48701E+02 2.28125E+01 0.00000E+00
 -1      1641 1.48701E+02 2.13375E+01 0.00000E+00
 -1      1642 1.47402E+02 2.06000E+01 0.00000E+00
 -1      1643 1.48701E+02 2.57625E+01 0.00000E+00
 -1      1644 1.48701E+02 2.42875E+01 0.00000E+00
 -1      1645 1.47402E+02 2.35500E+01 0.00000E+00
 -1      1646 1.48701E+02 2.87125E+01 0.00000E+00
 -1      1647 1.48701E+02 2.72375E+01 0.00000E+00
 -1      1648 1.47402E+02 2.65000E+01 0.00000E+00
 -1      1649 1.48701E+02 3.16625E+01 0.00000E+00
 -1      1650 1.48701E+02 3.01875E+01 0.00000E+00
 -1      1651 1.47402E+02 2.94500E+01 0.00000E+00
 -1      1652 1.48701E+02 3.45625E+01 0.00000E+00
 -1      1653 1.48701E+02 3.31125E+01 0.00000E+00
 -1      1654 1.47402E+02 3.23750E+01 0.00000E+00
 -1      1655 1.48701E+02 3.75125E+01 0.00000E+00
 -1      1656 1.48701E+02 3.60375E+01 0.00000E+00
 -1      1657 1.47402E+02 3.53000E+01 0.00000E+00
 -1      1658 1.48701E+02 4.04625E+01 0.00000E+00
 -1      1659 1.48701E+02 3.89875E+01 0.00000E+00
 -1      1660 1.47402E+02 3.82500E+01 0.00000E+00
 -1      1661 1.48701E+02 4.34125E+01 0.00000E+00
 -1      1662 1.48701E+02 4.19375E+01 0.00000E+00
 -1      1663 1.47402E+02 4.12000E+01 0.00000E+00
 -1      1664 1.48263E+02 4.60692E+01 0.00000E+00
 -1      1665 1.48263E+02 4.45942E+01 0.00000E+00
 -1      1666 1.46964E+02 4.38568E+01 0.00000E+00
 -1      1667 1.46088E+02 4.62202E+01 0.00000E+00
 -1      1668 5.05059E+01 2.58912E+01 0.00000E+00
 -1      1669 5.05776E+01 2.65957E+01 0.00000E+00
 -1      1670 5.02093E+01 2.41781E+01 0.00000E+00
 -1      1671 5.04706E+01 2.49633E+01 0.00000E+00
 -1      1672 4.93445E+01 2.26360E+01 0.00000E+00
 -1      1673 4.97597E+01 2.33089E+01 0.00000E+00
 -1      1674 4.82080E+01 2.13855E+01 0.00000E+00
 -1      1675 4.87406E+01 2.19292E+01 0.00000E+00
 -1      1676 4.69075E+01 2.03207E+01 0.00000E+00
 -1      1677 4.75498E+01 2.07389E+01 0.00000E+00
 -1      1678 4.53468E+01 1.97591E+01 0.00000E+00
 -1      1679 4.60442E+01 2.00222E+01 0.00000E+00
 -1      1680 4.37266E+01 1.94690E+01 0.00000E+00
 -1      1681 4.44801E+01 1.95791E+01 0.00000E+00
 -1      1682 4.20699E+01 1.94942E+01 0.00000E+00
 -1      1683 4.28350E+01 1.94376E+01 0.00000E+00
 -1      1684 4.04826E+01 1.98231E+01 0.00000E+00
 -1      1685 4.11922E+01 1.96116E+01 0.00000E+00
 -1      1686 3.88852E+01 2.04625E+01 0.00000E+00
 -1      1687 3.95850E+01 2.00707E+01 0.00000E+00
 -1      1688 3.77132E+01 2.15897E+01 0.00000E+00
 -1      1689 3.82447E+01 2.11170E+01 0.00000E+00
 -1      1690 3.67242E+01 2.27770E+01 0.00000E+00
 -1      1691 3.71508E+01 2.22038E+01 0.00000E+00
 -1      1692 3.58239E+01 2.42612E+01 0.00000E+00
 -1      1693 3.61604E+01 2.35056E+01 0.00000E+00
 -1      1694 3.55166E+01 2.58890E+01 0.00000E+00
 -1      1695 3.56586E+01 2.51753E+01 0.00000E+00
 -1      1696 3.53010E+01 2.76390E+01 0.00000E+00
 -1      1697 3.52781E+01 2.68033E+01 0.00000E+00
 -1      1698 3.57646E+01 2.92281E+01 0.00000E+00
 -1      1699 3.55872E+01 2.85331E+01 0.00000E+00
 -1      1700 3.63694E+01 3.08151E+01 0.00000E+00
 -1      1701 3.60063E+01 3.00963E+01 0.00000E+00
 -1      1702 3.73685E+01 3.20695E+01 0.00000E+00
 -1      1703 3.69209E+01 3.15210E+01 0.00000E+00
 -1      1704 3.85449E+01 3.31295E+01 0.00000E+00
 -1      1705 3.79691E+01 3.26646E+01 0.00000E+00
 -1      1706 3.99124E+01 3.39689E+01 0.00000E+00
 -1      1707 3.92519E+01 3.36355E+01 0.00000E+00
 -1      1708 4.15195E+01 3.46020E+01 0.00000E+00
 -1      1709 4.07374E+01 3.44056E+01 0.00000E+00
 -1      1710 4.32388E+01 3.46214E+01 0.00000E+00
 -1      1711 4.24701E+01 3.46056E+01 0.00000E+00
 -1      1712 4.48244E+01 3.43660E+01 0.00000E+00
 -1      1713 4.41102E+01 3.45061E+01 0.00000E+00
 -1      1714 4.62895E+01 3.38411E+01 0.00000E+00
 -1      1715 4.56305E+01 3.41199E+01 0.00000E+00
 -1      1716 4.76517E+01 3.29961E+01 0.00000E+00
 -1      1717 4.70372E+01 3.34255E+01 0.00000E+00
 -1      1718 4.88049E+01 3.18905E+01 0.00000E+00
 -1      1719 4.83055E+01 3.24282E+01 0.00000E+00
 -1      1720 4.96829E+01 3.06013E+01 0.00000E+00
 -1      1721 4.93143E+01 3.12147E+01 0.00000E+00
 -1      1722 5.02834E+01 2.91298E+01 0.00000E+00
 -1      1723 5.00415E+01 2.98302E+01 0.00000E+00
 -1      1724 5.06511E+01 2.74804E+01 0.00000E+00
 -1      1725 5.05617E+01 2.82666E+01 0.00000E+00
 -1      1726 4.83090E+01 2.05279E+01 0.00000E+00
 -1      1727 4.95711E+01 2.18813E+01 0.00000E+00
 -1      1728 1.48437E+02 2.56875E+00 0.00000E+00
 -1      1729 1.47138E+02 3.30625E+00 0.00000E+00
 -1      1730 5.11095E+01 2.52543E+01 0.00000E+00
 -1      1731 5.06245E+01 2.34573E+01 0.00000E+00
 -1      1732 5.12184E+01 2.70668E+01 0.00000E+00
 -1      1733 4.67875E+01 1.95828E+01 0.00000E+00
 -1      1734 4.50576E+01 1.91042E+01 0.00000E+00
 -1      1735 4.32993E+01 1.88928E+01 0.00000E+00
 -1      1736 4.15300E+01 1.89788E+01 0.00000E+00
 -1      1737 3.97547E+01 1.93438E+01 0.00000E+00
 -1      1738 3.82166E+01 2.02459E+01 0.00000E+00
 -1      1739 3.70136E+01 2.15145E+01 0.00000E+00
 -1      1740 3.58874E+01 2.28571E+01 0.00000E+00
 -1      1741 3.51583E+01 2.44997E+01 0.00000E+00
 -1      1742 3.47545E+01 2.63281E+01 0.00000E+00
 -1      1743 3.48023E+01 2.81364E+01 0.00000E+00
 -1      1744 3.53303E+01 2.98986E+01 0.00000E+00
 -1      1745 3.61235E+01 3.14726E+01 0.00000E+00
 -1      1746 3.72756E+01 3.27736E+01 0.00000E+00
 -1      1747 3.85832E+01 3.38747E+01 0.00000E+00
 -1      1748 4.01151E+01 3.48175E+01 0.00000E+00
 -1      1749 4.18906E+01 3.52579E+01 0.00000E+00
 -1      1750 4.37126E+01 3.51462E+01 0.00000E+00
 -1      1751 4.53901E+01 3.47848E+01 0.00000E+00
 -1      1752 4.69440E+01 3.41232E+01 0.00000E+00
 -1      1753 4.83456E+01 3.31398E+01 0.00000E+00
 -1      1754 4.95088E+01 3.18961E+01 0.00000E+00
 -1      1755 5.03768E+01 3.04491E+01 0.00000E+00
 -1      1756 5.10137E+01 2.88147E+01 0.00000E+00
 -1      1757 2.87400E+00 4.77875E+01 0.00000E+00
 -1      1758 3.89700E+00 4.04125E+01 0.00000E+00
 -1      1759 3.89700E+00 4.18875E+01 0.00000E+00
 -1      1760 3.89700E+00 4.33625E+01 0.00000E+00
 -1      1761 3.89700E+00 4.48375E+01 0.00000E+00
 -1      1762 5.19600E+00 4.26250E+01 0.00000E+00
 -1      1763 3.89700E+00 3.45500E+01 0.00000E+00
 -1      1764 3.89700E+00 3.60000E+01 0.00000E+00
 -1      1765 3.89700E+00 3.16000E+01 0.00000E+00
 -1      1766 3.89700E+00 3.30750E+01 0.00000E+00
 -1      1767 5.19600E+00 3.38000E+01 0.00000E+00
 -1      1768 3.89700E+00 2.86500E+01 0.00000E+00
 -1      1769 3.89700E+00 3.01250E+01 0.00000E+00
 -1      1770 5.19600E+00 3.08500E+01 0.00000E+00
 -1      1771 3.89700E+00 2.57000E+01 0.00000E+00
 -1      1772 3.89700E+00 2.71750E+01 0.00000E+00
 -1      1773 5.19600E+00 2.79000E+01 0.00000E+00
 -1      1774 3.89700E+00 2.27500E+01 0.00000E+00
 -1      1775 3.89700E+00 2.42250E+01 0.00000E+00
 -1      1776 5.19600E+00 2.49500E+01 0.00000E+00
 -1      1777 3.89700E+00 1.98000E+01 0.00000E+00
 -1      1778 3.89700E+00 2.12750E+01 0.00000E+00
 -1      1779 5.19600E+00 2.20000E+01 0.00000E+00
 -1      1780 3.89700E+00 1.69000E+01 0.00000E+00
 -1      1781 3.89700E+00 1.83500E+01 0.00000E+00
 -1      1782 5.19600E+00 1.90750E+01 0.00000E+00
 -1      1783 3.89700E+00 1.39500E+01 0.00000E+00
 -1      1784 3.89700E+00 1.54250E+01 0.00000E+00
 -1      1785 5.19600E+00 1.61500E+01 0.00000E+00
 -1      1786 3.89700E+00 1.10000E+01 0.00000E+00
 -1      1787 3.89700E+00 1.24750E+01 0.00000E+00
 -1      1788 5.19600E+00 1.32000E+01 0.00000E+00
 -1      1789 3.89700E+00 8.05000E+00 0.00000E+00
 -1      1790 3.89700E+00 9.52500E+00 0.00000E+00
 -1      1791 5.19600E+00 1.02500E+01 0.00000E+00
 -1      1792 3.89700E+00 5.10000E+00 0.00000E+00
 -1      1793 3.89700E+00 6.57500E+00 0.00000E+00
 -1      1794 5.19600E+00 7.30000E+00 0.00000E+00
 -1      1795 4.20450E+00 3.09687E+00 0.00000E+00
 -1      1796 4.06650E+00 4.19063E+00 0.00000E+00
 -1      1797 5.36550E+00 4.91563E+00 0.00000E+00
 -1      1798 5.70450E+00 3.09687E+00 0.00000E+00
 -1      1799 3.62400E+00 4.64885E+01 0.00000E+00
 -1      1800 8.70450E+00 3.09687E+00 0.00000E+00
 -1      1801 7.20450E+00 3.09687E+00 0.00000E+00
 -1      1802 7.03500E+00 4.00625E+00 0.00000E+00
 -1      1803 4.92300E+00 4.57510E+01 0.00000E+00
 -1      1804 8.40000E+00 4.61030E+01 0.00000E+00
 -1      1805 9.90000E+00 4.61030E+01 0.00000E+00
 -1      1806 1.14000E+01 4.61030E+01 0.00000E+00
 -1      1807 1.29000E+01 4.61030E+01 0.00000E+00
 -1      1808 1.06500E+01 4.48040E+01 0.00000E+00
 -1      1809 1.44000E+01 4.61030E+01 0.00000E+00
 -1      1810 1.59000E+01 4.61030E+01 0.00000E+00
 -1      1811 1.36500E+01 4.48040E+01 0.00000E+00
 -1      1812 1.74000E+01 4.61030E+01 0.00000E+00
 -1      1813 1.89000E+01 4.61030E+01 0.00000E+00
 -1      1814 1.66500E+01 4.48040E+01 0.00000E+00
 -1      1815 2.04000E+01 4.61030E+01 0.00000E+00
 -1      1816 2.19000E+01 4.61030E+01 0.00000E+00
 -1      1817 1.96500E+01 4.48040E+01 0.00000E+00
 -1      1818 2.34000E+01 4.61030E+01 0.00000E+00
 -1      1819 2.49000E+01 4.61030E+01 0.00000E+00
 -1      1820 2.26500E+01 4.48040E+01 0.00000E+00
 -1      1821 2.64000E+01 4.61030E+01 0.00000E+00
 -1      1822 2.79000E+01 4.61030E+01 0.00000E+00
 -1      1823 2.56500E+01 4.48040E+01 0.00000E+00
 -1      1824 2.94000E+01 4.61030E+01 0.00000E+00
 -1      1825 3.09000E+01 4.61030E+01 0.00000E+00
 -1      1826 2.86500E+01 4.48040E+01 0.00000E+00
 -1      1827 3.24000E+01 4.61030E+01 0.00000E+00
 -1      1828 3.39000E+01 4.61030E+01 0.00000E+00
 -1      1829 3.16500E+01 4.48040E+01 0.00000E+00
 -1      1830 3.54000E+01 4.61030E+01 0.00000E+00
 -1      1831 3.69000E+01 4.61030E+01 0.00000E+00
 -1      1832 3.46500E+01 4.48040E+01 0.00000E+00
 -1      1833 3.84000E+01 4.61030E+01 0.00000E+00
 -1      1834 3.99000E+01 4.61030E+01 0.00000E+00
 -1      1835 3.76500E+01 4.48040E+01 0.00000E+00
 -1      1836 4.14000E+01 4.61030E+01 0.00000E+00
 -1      1837 4.29000E+01 4.61030E+01 0.00000E+00
 -1      1838 4.06500E+01 4.48040E+01 0.00000E+00
 -1      1839 4.44000E+01 4.61030E+01 0.00000E+00
 -1      1840 4.59000E+01 4.61030E+01 0.00000E+00
 -1      1841 4.36500E+01 4.48040E+01 0.00000E+00
 -1      1842 4.74000E+01 4.61030E+01 0.00000E+00
 -1      1843 4.89000E+01 4.61030E+01 0.00000E+00
 -1      1844 4.66500E+01 4.48040E+01 0.00000E+00
 -1      1845 5.04000E+01 4.61030E+01 0.00000E+00
 -1      1846 5.19000E+01 4.61030E+01 0.00000E+00
 -1      1847 4.96500E+01 4.48040E+01 0.00000E+00
 -1      1848 5.34000E+01 4.61030E+01 0.00000E+00
 -1      1849 5.49000E+01 4.61030E+01 0.00000E+00
 -1      1850 5.26500E+01 4.48040E+01 0.00000E+00
 -1      1851 5.64000E+01 4.61030E+01 0.00000E+00
 -1      1852 5.79000E+01 4.61030E+01 0.00000E+00
 -1      1853 5.56500E+01 4.48040E+01 0.00000E+00
 -1      1854 5.94000E+01 4.61030E+01 0.00000E+00
 -1      1855 6.09000E+01 4.61030E+01 0.00000E+00
 -1      1856 5.86500E+01 4.48040E+01 0.00000E+00
 -1      1857 6.24000E+01 4.61030E+01 0.00000E+00
 -1      1858 6.39000E+01 4.61030E+01 0.00000E+00
 -1      1859 6.16500E+01 4.48040E+01 0.00000E+00
 -1      1860 6.54000E+01 4.61030E+01 0.00000E+00
 -1      1861 6.69000E+01 4.61030E+01 0.00000E+00
 -1      1862 6.46500E+01 4.48040E+01 0.00000E+00
 -1      1863 6.84000E+01 4.61030E+01 0.00000E+00
 -1      1864 6.99000E+01 4.61030E+01 0.00000E+00
 -1      1865 6.76500E+01 4.48040E+01 0.00000E+00
 -1      1866 7.14000E+01 4.61030E+01 0.00000E+00
 -1      1867 7.29000E+01 4.61030E+01 0.00000E+00
 -1      1868 7.06500E+01 4.48040E+01 0.00000E+00
 -1      1869 7.44000E+01 4.61030E+01 0.00000E+00
 -1      1870 7.59000E+01 4.61030E+01 0.00000E+00
 -1      1871 7.36500E+01 4.48040E+01 0.00000E+00
 -1      1872 7.74000E+01 4.61030E+01 0.00000E+00
 -1      1873 7.89000E+01 4.61030E+01 0.00000E+00
 -1      1874 7.66500E+01 4.48040E+01 0.00000E+00
 -1      1875 8.04000E+01 4.61030E+01 0.00000E+00
 -1      1876 8.19000E+01 4.61030E+01 0.00000E+00
 -1      1877 7.96500E+01 4.48040E+01 0.00000E+00
 -1      1878 8.34000E+01 4.61030E+01 0.00000E+00
 -1      1879 8.49000E+01 4.61030E+01 0.00000E+00
 -1      1880 8.26500E+01 4.48040E+01 0.00000E+00
 -1      1881 8.64000E+01 4.61030E+01 0.00000E+00
 -1      1882 8.79000E+01 4.61030E+01 0.00000E+00
 -1      1883 8.56500E+01 4.48040E+01 0.00000E+00
 -1      1884 8.94000E+01 4.61030E+01 0.00000E+00
 -1      1885 9.09000E+01 4.61030E+01 0.00000E+00
 -1      1886 8.86500E+01 4.48040E+01 0.00000E+00
 -1      1887 9.24000E+01 4.61030E+01 0.00000E+00
 -1      1888 9.39000E+01 4.61030E+01 0.00000E+00
 -1      1889 9.16500E+01 4.48040E+01 0.00000E+00
 -1      1890 9.54000E+01 4.61030E+01 0.00000E+00
 -1      1891 9.69000E+01 4.61030E+01 0.00000E+00
 -1      1892 9.46500E+01 4.48040E+01 0.00000E+00
 -1      1893 9.84000E+01 4.61030E+01 0.00000E+00
 -1      1894 9.99000E+01 4.61030E+01 0.00000E+00
 -1      1895 9.76500E+01 4.48040E+01 0.00000E+00
 -1      1896 1.01400E+02 4.61030E+01 0.00000E+00
 -1      1897 1.02900E+02 4.61030E+01 0.00000E+00
 -1      1898 1.00650E+02 4.48040E+01 0.00000E+00
 -1      1899 1.04400E+02 4.61030E+01 0.00000E+00
 -1      1900 1.05900E+02 4.61030E+01 0.00000E+00
 -1      1901 1.03650E+02 4.48040E+01 0.00000E+00
 -1      1902 1.07400E+02 4.61030E+01 0.00000E+00
 -1      1903 1.08900E+02 4.61030E+01 0.00000E+00
 -1      1904 1.06650E+02 4.48040E+01 0.00000E+00
 -1      1905 1.10400E+02 4.61030E+01 0.00000E+00
 -1      1906 1.11900E+02 4.61030E+01 0.00000E+00
 -1      1907 1.09650E+02 4.48040E+01 0.00000E+00
 -1      1908 1.13400E+02 4.61030E+01 0.00000E+00
 -1      1909 1.14900E+02 4.61030E+01 0.00000E+00
 -1      1910 1.12650E+02 4.48040E+01 0.00000E+00
 -1      1911 1.16400E+02 4.61030E+01 0.00000E+00
 -1      1912 1.17900E+02 4.61030E+01 0.00000E+00
 -1      1913 1.15650E+02 4.48040E+01 0.00000E+00
 -1      1914 1.19400E+02 4.61030E+01 0.00000E+00
 -1      1915 1.20900E+02 4.61030E+01 0.00000E+00
 -1      1916 1.18650E+02 4.48040E+01 0.00000E+00
 -1      1917 1.22400E+02 4.61030E+01 0.00000E+00
 -1      1918 1.23900E+02 4.61030E+01 0.00000E+00
 -1      1919 1.21650E+02 4.48040E+01 0.00000E+00
 -1      1920 1.25400E+02 4.61030E+01 0.00000E+00
 -1      1921 1.26900E+02 4.61030E+01 0.00000E+00
 -1      1922 1.24650E+02 4.48040E+01 0.00000E+00
 -1      1923 1.28400E+02 4.61030E+01 0.00000E+00
 -1      1924 1.29900E+02 4.61030E+01 0.00000E+00
 -1      1925 1.27650E+02 4.48040E+01 0.00000E+00
 -1      1926 1.31400E+02 4.61030E+01 0.00000E+00
 -1      1927 1.32900E+02 4.61030E+01 0.00000E+00
 -1      1928 1.30650E+02 4.48040E+01 0.00000E+00
 -1      1929 1.34400E+02 4.61030E+01 0.00000E+00
 -1      1930 1.35900E+02 4.61030E+01 0.00000E+00
 -1      1931 1.33650E+02 4.48040E+01 0.00000E+00
 -1      1932 1.37400E+02 4.61030E+01 0.00000E+00
 -1      1933 1.38900E+02 4.61030E+01 0.00000E+00
 -1      1934 1.36650E+02 4.48040E+01 0.00000E+00
 -1      1935 1.40400E+02 4.61030E+01 0.00000E+00
 -1      1936 1.41900E+02 4.61030E+01 0.00000E+00
 -1      1937 1.39650E+02 4.48040E+01 0.00000E+00
 -1      1938 1.43244E+02 4.61616E+01 0.00000E+00
 -1      1939 1.44744E+02 4.61616E+01 0.00000E+00
 -1      1940 1.45182E+02 4.49799E+01 0.00000E+00
 -1      1941 1.42494E+02 4.48626E+01 0.00000E+00
 -1      1942 1.17045E+01 3.09687E+00 0.00000E+00
 -1      1943 1.02045E+01 3.09687E+00 0.00000E+00
 -1      1944 1.00350E+01 4.00625E+00 0.00000E+00
 -1      1945 1.47045E+01 3.09687E+00 0.00000E+00
 -1      1946 1.32045E+01 3.09687E+00 0.00000E+00
 -1      1947 1.30350E+01 4.00625E+00 0.00000E+00
 -1      1948 1.77045E+01 3.09687E+00 0.00000E+00
 -1      1949 1.62045E+01 3.09687E+00 0.00000E+00
 -1      1950 1.60350E+01 4.00625E+00 0.00000E+00
 -1      1951 2.07045E+01 3.09687E+00 0.00000E+00
 -1      1952 1.92045E+01 3.09687E+00 0.00000E+00
 -1      1953 1.90350E+01 4.00625E+00 0.00000E+00
 -1      1954 2.37045E+01 3.09687E+00 0.00000E+00
 -1      1955 2.22045E+01 3.09687E+00 0.00000E+00
 -1      1956 2.20350E+01 4.00625E+00 0.00000E+00
 -1      1957 2.67045E+01 3.09687E+00 0.00000E+00
 -1      1958 2.52045E+01 3.09687E+00 0.00000E+00
 -1      1959 2.50350E+01 4.00625E+00 0.00000E+00
 -1      1960 2.97045E+01 3.09687E+00 0.00000E+00
 -1      1961 2.82045E+01 3.09687E+00 0.00000E+00
 -1      1962 2.80350E+01 4.00625E+00 0.00000E+00
 -1      1963 3.27045E+01 3.09687E+00 0.00000E+00
 -1      1964 3.12045E+01 3.09687E+00 0.00000E+00
 -1      1965 3.10350E+01 4.00625E+00 0.00000E+00
 -1      1966 3.57045E+01 3.09687E+00 0.00000E+00
 -1      1967 3.42045E+01 3.09687E+00 0.00000E+00
 -1      1968 3.40350E+01 4.00625E+00 0.00000E+00
 -1      1969 3.87045E+01 3.09687E+00 0.00000E+00
 -1      1970 3.72045E+01 3.09687E+00 0.00000E+00
 -1      1971 3.70350E+01 4.00625E+00 0.00000E+00
 -1      1972 4.17045E+01 3.09687E+00 0.00000E+00
 -1      1973 4.02045E+01 3.09687E+00 0.00000E+00
 -1      1974 4.00350E+01 4.00625E+00 0.00000E+00
 -1      1975 4.47045E+01 3.09687E+00 0.00000E+00
 -1      1976 4.32045E+01 3.09687E+00 0.00000E+00
 -1      1977 4.30350E+01 4.00625E+00 0.00000E+00
 -1      1978 4.77045E+01 3.09687E+00 0.00000E+00
 -1      1979 4.62045E+01 3.09687E+00 0.00000E+00
 -1      1980 4.60350E+01 4.00625E+00 0.00000E+00
 -1      1981 5.07045E+01 3.09687E+00 0.00000E+00
 -1      1982 4.92045E+01 3.09687E+00 0.00000E+00
 -1      1983 4.90350E+01 4.00625E+00 0.00000E+00
 -1      1984 5.37045E+01 3.09687E+00 0.00000E+00
 -1      1985 5.22045E+01 3.09687E+00 0.00000E+00
 -1      1986 5.20350E+01 4.00625E+00 0.00000E+00
 -1      1987 5.67045E+01 3.09687E+00 0.00000E+00
 -1      1988 5.52045E+01 3.09687E+00 0.00000E+00
 -1      1989 5.50350E+01 4.00625E+00 0.00000E+00
 -1      1990 5.97045E+01 3.09687E+00 0.00000E+00
 -1      1991 5.82045E+01 3.09687E+00 0.00000E+00
 -1      1992 5.80350E+01 4.00625E+00 0.00000E+00
 -1      1993 6.27045E+01 3.09687E+00 0.00000E+00
 -1      1994 6.12045E+01 3.09687E+00 0.00000E+00
 -1      1995 6.10350E+01 4.00625E+00 0.00000E+00
 -1      1996 6.57045E+01 3.09687E+00 0.00000E+00
 -1      1997 6.42045E+01 3.09687E+00 0.00000E+00
 -1      1998 6.40350E+01 4.00625E+00 0.00000E+00
 -1      1999 6.87045E+01 3.09687E+00 0.00000E+00
 -1      2000 6.72045E+01 3.09687E+00 0.00000E+00
 -1      2001 6.70350E+01 4.00625E+00 0.00000E+00
 -1      2002 7.17045E+01 3.09687E+00 0.00000E+00
 -1      2003 7.02045E+01 3.09687E+00 0.00000E+00
 -1      2004 7.00350E+01 4.00625E+00 0.00000E+00
 -1      2005 7.47045E+01 3.09687E+00 0.00000E+00
 -1      2006 7.32045E+01 3.09687E+00 0.00000E+00
 -1      2007 7.30350E+01 4.00625E+00 0.00000E+00
 -1      2008 7.77045E+01 3.09687E+00 0.00000E+00
 -1      2009 7.62045E+01 3.09687E+00 0.00000E+00
 -1      2010 7.60350E+01 4.00625E+00 0.00000E+00
 -1      2011 8.07045E+01 3.09687E+00 0.00000E+00
 -1      2012 7.92045E+01 3.09687E+00 0.00000E+00
 -1      2013 7.90350E+01 4.00625E+00 0.00000E+00
 -1      2014 8.37045E+01 3.09687E+00 0.00000E+00
 -1      2015 8.22045E+01 3.09687E+00 0.00000E+00
 -1      2016 8.20350E+01 4.00625E+00 0.00000E+00
 -1      2017 8.67045E+01 3.09687E+00 0.00000E+00
 -1      2018 8.52045E+01 3.09687E+00 0.00000E+00
 -1      2019 8.50350E+01 4.00625E+00 0.00000E+00
 -1      2020 8.97045E+01 3.09687E+00 0.00000E+00
 -1      2021 8.82045E+01 3.09687E+00 0.00000E+00
 -1      2022 8.80350E+01 4.00625E+00 0.00000E+00
 -1      2023 9.27045E+01 3.09687E+00 0.00000E+00
 -1      2024 9.12045E+01 3.09687E+00 0.00000E+00
 -1      2025 9.10350E+01 4.00625E+00 0.00000E+00
 -1      2026 9.57045E+01 3.09687E+00 0.00000E+00
 -1      2027 9.42045E+01 3.09687E+00 0.00000E+00
 -1      2028 9.40350E+01 4.00625E+00 0.00000E+00
 -1      2029 9.87045E+01 3.09687E+00 0.00000E+00
 -1      2030 9.72045E+01 3.09687E+00 0.00000E+00
 -1      2031 9.70350E+01 4.00625E+00 0.00000E+00
 -1      2032 1.01704E+02 3.09687E+00 0.00000E+00
 -1      2033 1.00204E+02 3.09687E+00 0.00000E+00
 -1      2034 1.00035E+02 4.00625E+00 0.00000E+00
 -1      2035 1.04704E+02 3.09687E+00 0.00000E+00
 -1      2036 1.03204E+02 3.09687E+00 0.00000E+00
 -1      2037 1.03035E+02 4.00625E+00 0.00000E+00
 -1      2038 1.07704E+02 3.09687E+00 0.00000E+00
 -1      2039 1.06204E+02 3.09687E+00 0.00000E+00
 -1      2040 1.06035E+02 4.00625E+00 0.00000E+00
 -1      2041 1.10704E+02 3.09687E+00 0.00000E+00
 -1      2042 1.09204E+02 3.09687E+00 0.00000E+00
 -1      2043 1.09035E+02 4.00625E+00 0.00000E+00
 -1      2044 1.13704E+02 3.09687E+00 0.00000E+00
 -1      2045 1.12204E+02 3.09687E+00 0.00000E+00
 -1      2046 1.12035E+02 4.00625E+00 0.00000E+00
 -1      2047 1.16704E+02 3.09687E+00 0.00000E+00
 -1      2048 1.15204E+02 3.09687E+00 0.00000E+00
 -1      2049 1.15035E+02 4.00625E+00 0.00000E+00
 -1      2050 1.19704E+02 3.09687E+00 0.00000E+00
 -1      2051 1.18204E+02 3.09687E+00 0.00000E+00
 -1      2052 1.18035E+02 4.00625E+00 0.00000E+00
 -1      2053 1.22704E+02 3.09687E+00 0.00000E+00
 -1      2054 1.21204E+02 3.09687E+00 0.00000E+00
 -1      2055 1.21035E+02 4.00625E+00 0.00000E+00
 -1      2056 1.25704E+02 3.09687E+00 0.00000E+00
 -1      2057 1.24204E+02 3.09687E+00 0.00000E+00
 -1      2058 1.24035E+02 4.00625E+00 0.00000E+00
 -1      2059 1.28704E+02 3.09687E+00 0.00000E+00
 -1      2060 1.27204E+02 3.09687E+00 0.00000E+00
 -1      2061 1.27035E+02 4.00625E+00 0.00000E+00
 -1      2062 1.31704E+02 3.09687E+00 0.00000E+00
 -1      2063 1.30204E+02 3.09687E+00 0.00000E+00
 -1      2064 1.30035E+02 4.00625E+00 0.00000E+00
 -1      2065 1.34704E+02 3.09687E+00 0.00000E+00
 -1      2066 1.33204E+02 3.09687E+00 0.00000E+00
 -1      2067 1.33035E+02 4.00625E+00 0.00000E+00
 -1      2068 1.37704E+02 3.09687E+00 0.00000E+00
 -1      2069 1.36204E+02 3.09687E+00 0.00000E+00
 -1      2070 1.36035E+02 4.00625E+00 0.00000E+00
 -1      2071 1.40704E+02 3.09687E+00 0.00000E+00
 -1      2072 1.39204E+02 3.09687E+00 0.00000E+00
 -1      2073 1.39035E+02 4.00625E+00 0.00000E+00
 -1      2074 1.43704E+02 3.09687E+00 0.00000E+00
 -1      2075 1.42204E+02 3.09687E+00 0.00000E+00
 -1      2076 1.42035E+02 4.00625E+00 0.00000E+00
 -1      2077 1.46171E+02 3.20156E+00 0.00000E+00
 -1      2078 1.44671E+02 3.20156E+00 0.00000E+00
 -1      2079 1.44502E+02 4.11094E+00 0.00000E+00
 -1      2080 1.46435E+02 4.32031E+00 0.00000E+00
 -1      2081 1.46103E+02 1.25375E+01 0.00000E+00
 -1      2082 1.46103E+02 1.10625E+01 0.00000E+00
 -1      2083 1.46103E+02 9.58750E+00 0.00000E+00
 -1      2084 1.46103E+02 8.11250E+00 0.00000E+00
 -1      2085 1.44804E+02 1.03250E+01 0.00000E+00
 -1      2086 1.46269E+02 6.95391E+00 0.00000E+00
 -1      2087 1.46269E+02 5.47891E+00 0.00000E+00
 -1      2088 1.45302E+02 5.37422E+00 0.00000E+00
 -1      2089 1.44970E+02 7.69141E+00 0.00000E+00
 -1      2090 1.46103E+02 1.54375E+01 0.00000E+00
 -1      2091 1.46103E+02 1.39875E+01 0.00000E+00
 -1      2092 1.44804E+02 1.32500E+01 0.00000E+00
 -1      2093 1.46103E+02 1.83875E+01 0.00000E+00
 -1      2094 1.46103E+02 1.69125E+01 0.00000E+00
 -1      2095 1.44804E+02 1.61750E+01 0.00000E+00
 -1      2096 1.46103E+02 2.13375E+01 0.00000E+00
 -1      2097 1.46103E+02 1.98625E+01 0.00000E+00
 -1      2098 1.44804E+02 1.91250E+01 0.00000E+00
 -1      2099 1.46103E+02 2.42875E+01 0.00000E+00
 -1      2100 1.46103E+02 2.28125E+01 0.00000E+00
 -1      2101 1.44804E+02 2.20750E+01 0.00000E+00
 -1      2102 1.46103E+02 2.72375E+01 0.00000E+00
 -1      2103 1.46103E+02 2.57625E+01 0.00000E+00
 -1      2104 1.44804E+02 2.50250E+01 0.00000E+00
 -1      2105 1.46103E+02 3.01875E+01 0.00000E+00
 -1      2106 1.46103E+02 2.87125E+01 0.00000E+00
 -1      2107 1.44804E+02 2.79750E+01 0.00000E+00
 -1      2108 1.46103E+02 3.30875E+01 0.00000E+00
 -1      2109 1.46103E+02 3.16375E+01 0.00000E+00
 -1      2110 1.44804E+02 3.09000E+01 0.00000E+00
 -1      2111 1.46103E+02 3.60375E+01 0.00000E+00
 -1      2112 1.46103E+02 3.45625E+01 0.00000E+00
 -1      2113 1.44804E+02 3.38250E+01 0.00000E+00
 -1      2114 1.46103E+02 3.89875E+01 0.00000E+00
 -1      2115 1.46103E+02 3.75125E+01 0.00000E+00
 -1      2116 1.44804E+02 3.67750E+01 0.00000E+00
 -1      2117 1.46103E+02 4.19375E+01 0.00000E+00
 -1      2118 1.46103E+02 4.04625E+01 0.00000E+00
 -1      2119 1.44804E+02 3.97250E+01 0.00000E+00
 -1      2120 5.10870E+01 2.26672E+01 0.00000E+00
 -1      2121 5.15366E+01 2.35363E+01 0.00000E+00
 -1      2122 5.18692E+01 2.65673E+01 0.00000E+00
 -1      2123 5.19428E+01 2.74520E+01 0.00000E+00
 -1      2124 5.17985E+01 2.47116E+01 0.00000E+00
 -1      2125 5.18339E+01 2.56394E+01 0.00000E+00
 -1      2126 5.25583E+01 2.60246E+01 0.00000E+00
 -1      2127 4.97938E+01 2.10798E+01 0.00000E+00
 -1      2128 5.03976E+01 2.17866E+01 0.00000E+00
 -1      2129 4.84928E+01 1.96825E+01 0.00000E+00
 -1      2130 4.91510E+01 2.03291E+01 0.00000E+00
 -1      2131 3.89700E+00 3.74688E+01 0.00000E+00
 -1      2132 3.89700E+00 3.89437E+01 0.00000E+00
 -1      2133 5.19600E+00 3.96813E+01 0.00000E+00
 -1      2134 5.19600E+00 3.67438E+01 0.00000E+00
 -1      2135 4.47731E+01 1.82976E+01 0.00000E+00
 -1      2136 4.56398E+01 1.84777E+01 0.00000E+00
 -1      2137 4.28823E+01 1.80619E+01 0.00000E+00
 -1      2138 4.37739E+01 1.80933E+01 0.00000E+00
 -1      2139 4.09997E+01 1.83536E+01 0.00000E+00
 -1      2140 4.18774E+01 1.82362E+01 0.00000E+00
 -1      2141 3.91113E+01 1.87621E+01 0.00000E+00
 -1      2142 4.00089E+01 1.85145E+01 0.00000E+00
 -1      2143 3.73433E+01 2.00320E+01 0.00000E+00
 -1      2144 3.79838E+01 1.93775E+01 0.00000E+00
 -1      2145 3.62545E+01 2.13837E+01 0.00000E+00
 -1      2146 3.68169E+01 2.07697E+01 0.00000E+00
 -1      2147 3.49936E+01 2.27478E+01 0.00000E+00
 -1      2148 3.55574E+01 2.20192E+01 0.00000E+00
 -1      2149 3.43143E+01 2.48191E+01 0.00000E+00
 -1      2150 3.44795E+01 2.39050E+01 0.00000E+00
 -1      2151 3.38373E+01 2.66476E+01 0.00000E+00
 -1      2152 3.40758E+01 2.57334E+01 0.00000E+00
 -1      2153 3.33970E+01 2.51386E+01 0.00000E+00
 -1      2154 3.42883E+01 2.87938E+01 0.00000E+00
 -1      2155 3.40020E+01 2.78998E+01 0.00000E+00
 -1      2156 3.47718E+01 3.05302E+01 0.00000E+00
 -1      2157 3.45300E+01 2.96620E+01 0.00000E+00
 -1      2158 3.37298E+01 2.94254E+01 0.00000E+00
 -1      2159 3.58886E+01 3.22246E+01 0.00000E+00
 -1      2160 3.53371E+01 3.15188E+01 0.00000E+00
 -1      2161 3.71197E+01 3.35315E+01 0.00000E+00
 -1      2162 3.65191E+01 3.29364E+01 0.00000E+00
 -1      2163 3.85351E+01 3.46888E+01 0.00000E+00
 -1      2164 3.78281E+01 3.41828E+01 0.00000E+00
 -1      2165 4.01459E+01 3.57568E+01 0.00000E+00
 -1      2166 3.93209E+01 3.53200E+01 0.00000E+00
 -1      2167 4.23631E+01 3.59915E+01 0.00000E+00
 -1      2168 4.14126E+01 3.59880E+01 0.00000E+00
 -1      2169 4.42333E+01 3.57310E+01 0.00000E+00
 -1      2170 4.33619E+01 3.58463E+01 0.00000E+00
 -1      2171 4.59824E+01 3.52817E+01 0.00000E+00
 -1      2172 4.51762E+01 3.55277E+01 0.00000E+00
 -1      2173 4.76734E+01 3.45552E+01 0.00000E+00
 -1      2174 4.69256E+01 3.49707E+01 0.00000E+00
 -1      2175 4.92074E+01 3.34717E+01 0.00000E+00
 -1      2176 4.85535E+01 3.40395E+01 0.00000E+00
 -1      2177 5.03814E+01 3.20239E+01 0.00000E+00
 -1      2178 4.98720E+01 3.26997E+01 0.00000E+00
 -1      2179 5.11438E+01 3.03368E+01 0.00000E+00
 -1      2180 5.07852E+01 3.11079E+01 0.00000E+00
 -1      2181 5.18893E+01 2.86205E+01 0.00000E+00
 -1      2182 5.16110E+01 2.94837E+01 0.00000E+00
 -1      2183 4.65814E+01 1.87814E+01 0.00000E+00
 -1      2184 4.74447E+01 1.90800E+01 0.00000E+00
 -1      2185 4.82867E+01 1.88812E+01 0.00000E+00
 -1      2186 4.91287E+01 1.86824E+01 0.00000E+00
 -1      2187 4.80805E+01 1.80798E+01 0.00000E+00
 -1      2188 6.42300E+00 4.57510E+01 0.00000E+00
 -1      2189 4.62969E+01 1.79748E+01 0.00000E+00
 -1      2190 7.17300E+00 4.44520E+01 0.00000E+00
 -1      2191 5.22610E+01 2.39215E+01 0.00000E+00
 -1      2192 5.13097E+01 2.18656E+01 0.00000E+00
 -1      2193 1.45665E+02 4.31193E+01 0.00000E+00
 -1      2194 5.25401E+01 2.81210E+01 0.00000E+00
 -1      2195 4.99776E+01 2.02344E+01 0.00000E+00
 -1      2196 5.20194E+01 3.01426E+01 0.00000E+00
 -1      2197 5.11484E+01 3.19116E+01 0.00000E+00
 -1      2198 5.00800E+01 3.35995E+01 0.00000E+00
 -1      2199 4.85352E+01 3.48871E+01 0.00000E+00
 -1      2200 4.67118E+01 3.57136E+01 0.00000E+00
 -1      2201 4.48255E+01 3.62278E+01 0.00000E+00
 -1      2202 4.28838E+01 3.65764E+01 0.00000E+00
 -1      2203 4.06184E+01 3.64904E+01 0.00000E+00
 -1      2204 3.98243E+01 3.69929E+01 0.00000E+00
 -1      2205 4.10910E+01 3.72241E+01 0.00000E+00
 -1      2206 3.85659E+01 3.56281E+01 0.00000E+00
 -1      2207 3.70716E+01 3.43456E+01 0.00000E+00
 -1      2208 3.45368E+01 3.12821E+01 0.00000E+00
 -1      2209 3.33233E+01 2.73050E+01 0.00000E+00
 -1      2210 3.26445E+01 2.67103E+01 0.00000E+00
 -1      2211 3.28092E+01 2.79624E+01 0.00000E+00
 -1      2212 3.41495E+01 2.30672E+01 0.00000E+00
 -1      2213 3.53607E+01 2.12745E+01 0.00000E+00
 -1      2214 3.65842E+01 1.99012E+01 0.00000E+00
 -1      2215 3.82380E+01 1.85481E+01 0.00000E+00
 -1      2216 3.84922E+01 1.77188E+01 0.00000E+00
 -1      2217 3.73647E+01 1.83342E+01 0.00000E+00
 -1      2218 4.03562E+01 1.77719E+01 0.00000E+00
 -1      2219 4.43561E+01 1.74668E+01 0.00000E+00
 -1      2220 4.23519E+01 1.74367E+01 0.00000E+00
 -1      2221 3.57327E+01 3.29825E+01 0.00000E+00
 -1      2222 1.07850E+01 5.30525E+00 0.00000E+00
 -1      2223 9.28500E+00 5.30525E+00 0.00000E+00
 -1      2224 6.49500E+00 3.01125E+01 0.00000E+00
 -1      2225 6.49500E+00 3.15875E+01 0.00000E+00
 -1      2226 6.49500E+00 3.30625E+01 0.00000E+00
 -1      2227 6.49500E+00 3.45375E+01 0.00000E+00
 -1      2228 7.79400E+00 3.23250E+01 0.00000E+00
 -1      2229 6.49500E+00 2.42125E+01 0.00000E+00
 -1      2230 6.49500E+00 2.56875E+01 0.00000E+00
 -1      2231 6.49500E+00 2.12625E+01 0.00000E+00
 -1      2232 6.49500E+00 2.27375E+01 0.00000E+00
 -1      2233 7.79400E+00 2.34750E+01 0.00000E+00
 -1      2234 6.49500E+00 1.83625E+01 0.00000E+00
 -1      2235 6.49500E+00 1.98125E+01 0.00000E+00
 -1      2236 7.79400E+00 2.05500E+01 0.00000E+00
 -1      2237 6.49500E+00 1.54125E+01 0.00000E+00
 -1      2238 6.49500E+00 1.68875E+01 0.00000E+00
 -1      2239 7.79400E+00 1.76250E+01 0.00000E+00
 -1      2240 6.49500E+00 1.24625E+01 0.00000E+00
 -1      2241 6.49500E+00 1.39375E+01 0.00000E+00
 -1      2242 7.79400E+00 1.46750E+01 0.00000E+00
 -1      2243 6.49500E+00 9.51250E+00 0.00000E+00
 -1      2244 6.49500E+00 1.09875E+01 0.00000E+00
 -1      2245 7.79400E+00 1.17250E+01 0.00000E+00
 -1      2246 1.37850E+01 5.30525E+00 0.00000E+00
 -1      2247 1.22850E+01 5.30525E+00 0.00000E+00
 -1      2248 1.15350E+01 6.60425E+00 0.00000E+00
 -1      2249 9.90000E+00 4.35050E+01 0.00000E+00
 -1      2250 1.14000E+01 4.35050E+01 0.00000E+00
 -1      2251 4.60508E+01 1.71264E+01 0.00000E+00
 -1      2252 4.69924E+01 1.74302E+01 0.00000E+00
 -1      2253 1.29000E+01 4.35050E+01 0.00000E+00
 -1      2254 1.44000E+01 4.35050E+01 0.00000E+00
 -1      2255 1.21500E+01 4.22060E+01 0.00000E+00
 -1      2256 1.59000E+01 4.35050E+01 0.00000E+00
 -1      2257 1.74000E+01 4.35050E+01 0.00000E+00
 -1      2258 1.51500E+01 4.22060E+01 0.00000E+00
 -1      2259 1.89000E+01 4.35050E+01 0.00000E+00
 -1      2260 2.04000E+01 4.35050E+01 0.00000E+00
 -1      2261 1.81500E+01 4.22060E+01 0.00000E+00
 -1      2262 2.19000E+01 4.35050E+01 0.00000E+00
 -1      2263 2.34000E+01 4.35050E+01 0.00000E+00
 -1      2264 2.11500E+01 4.22060E+01 0.00000E+00
 -1      2265 2.49000E+01 4.35050E+01 0.00000E+00
 -1      2266 2.64000E+01 4.35050E+01 0.00000E+00
 -1      2267 2.41500E+01 4.22060E+01 0.00000E+00
 -1      2268 2.79000E+01 4.35050E+01 0.00000E+00
 -1      2269 2.94000E+01 4.35050E+01 0.00000E+00
 -1      2270 2.71500E+01 4.22060E+01 0.00000E+00
 -1      2271 3.09000E+01 4.35050E+01 0.00000E+00
 -1      2272 3.24000E+01 4.35050E+01 0.00000E+00
 -1      2273 3.01500E+01 4.22060E+01 0.00000E+00
 -1      2274 3.39000E+01 4.35050E+01 0.00000E+00
 -1      2275 3.54000E+01 4.35050E+01 0.00000E+00
 -1      2276 3.31500E+01 4.22060E+01 0.00000E+00
 -1      2277 3.69000E+01 4.35050E+01 0.00000E+00
 -1      2278 3.84000E+01 4.35050E+01 0.00000E+00
 -1      2279 3.61500E+01 4.22060E+01 0.00000E+00
 -1      2280 3.99000E+01 4.35050E+01 0.00000E+00
 -1      2281 4.14000E+01 4.35050E+01 0.00000E+00
 -1      2282 3.91500E+01 4.22060E+01 0.00000E+00
 -1      2283 4.29000E+01 4.35050E+01 0.00000E+00
 -1      2284 4.44000E+01 4.35050E+01 0.00000E+00
 -1      2285 4.21500E+01 4.22060E+01 0.00000E+00
 -1      2286 4.59000E+01 4.35050E+01 0.00000E+00
 -1      2287 4.74000E+01 4.35050E+01 0.00000E+00
 -1      2288 4.51500E+01 4.22060E+01 0.00000E+00
 -1      2289 4.89000E+01 4.35050E+01 0.00000E+00
 -1      2290 5.04000E+01 4.35050E+01 0.00000E+00
 -1      2291 4.81500E+01 4.22060E+01 0.00000E+00
 -1      2292 5.19000E+01 4.35050E+01 0.00000E+00
 -1      2293 5.34000E+01 4.35050E+01 0.00000E+00
 -1      2294 5.11500E+01 4.22060E+01 0.00000E+00
 -1      2295 5.49000E+01 4.35050E+01 0.00000E+00
 -1      2296 5.64000E+01 4.35050E+01 0.00000E+00
 -1      2297 5.41500E+01 4.22060E+01 0.00000E+00
 -1      2298 5.79000E+01 4.35050E+01 0.00000E+00
 -1      2299 5.94000E+01 4.35050E+01 0.00000E+00
 -1      2300 5.71500E+01 4.22060E+01 0.00000E+00
 -1      2301 6.09000E+01 4.35050E+01 0.00000E+00
 -1      2302 6.24000E+01 4.35050E+01 0.00000E+00
 -1      2303 6.01500E+01 4.22060E+01 0.00000E+00
 -1      2304 6.39000E+01 4.35050E+01 0.00000E+00
 -1      2305 6.54000E+01 4.35050E+01 0.00000E+00
 -1      2306 6.31500E+01 4.22060E+01 0.00000E+00
 -1      2307 6.69000E+01 4.35050E+01 0.00000E+00
 -1      2308 6.84000E+01 4.35050E+01 0.00000E+00
 -1      2309 6.61500E+01 4.22060E+01 0.00000E+00
 -1      2310 6.99000E+01 4.35050E+01 0.00000E+00
 -1      2311 7.14000E+01 4.35050E+01 0.00000E+00
 -1      2312 6.91500E+01 4.22060E+01 0.00000E+00
 -1      2313 7.29000E+01 4.35050E+01 0.00000E+00
 -1      2314 7.44000E+01 4.35050E+01 0.00000E+00
 -1      2315 7.21500E+01 4.22060E+01 0.00000E+00
 -1      2316 7.59000E+01 4.35050E+01 0.00000E+00
 -1      2317 7.74000E+01 4.35050E+01 0.00000E+00
 -1      2318 7.51500E+01 4.22060E+01 0.00000E+00
 -1      2319 7.89000E+01 4.35050E+01 0.00000E+00
 -1      2320 8.04000E+01 4.35050E+01 0.00000E+00
 -1      2321 7.81500E+01 4.22060E+01 0.00000E+00
 -1      2322 8.19000E+01 4.35050E+01 0.00000E+00
 -1      2323 8.34000E+01 4.35050E+01 0.00000E+00
 -1      2324 8.11500E+01 4.22060E+01 0.00000E+00
 -1      2325 8.49000E+01 4.35050E+01 0.00000E+00
 -1      2326 8.64000E+01 4.35050E+01 0.00000E+00
 -1      2327 8.41500E+01 4.22060E+01 0.00000E+00
 -1      2328 8.79000E+01 4.35050E+01 0.00000E+00
 -1      2329 8.94000E+01 4.35050E+01 0.00000E+00
 -1      2330 8.71500E+01 4.22060E+01 0.00000E+00
 -1      2331 9.09000E+01 4.35050E+01 0.00000E+00
 -1      2332 9.24000E+01 4.35050E+01 0.00000E+00
 -1      2333 9.01500E+01 4.22060E+01 0.00000E+00
 -1      2334 9.39000E+01 4.35050E+01 0.00000E+00
 -1      2335 9.54000E+01 4.35050E+01 0.00000E+00
 -1      2336 9.31500E+01 4.22060E+01 0.00000E+00
 -1      2337 9.69000E+01 4.35050E+01 0.00000E+00
 -1      2338 9.84000E+01 4.35050E+01 0.00000E+00
 -1      2339 9.61500E+01 4.22060E+01 0.00000E+00
 -1      2340 9.99000E+01 4.35050E+01 0.00000E+00
 -1      2341 1.01400E+02 4.35050E+01 0.00000E+00
 -1      2342 9.91500E+01 4.22060E+01 0.00000E+00
 -1      2343 1.02900E+02 4.35050E+01 0.00000E+00
 -1      2344 1.04400E+02 4.35050E+01 0.00000E+00
 -1      2345 1.02150E+02 4.22060E+01 0.00000E+00
 -1      2346 1.05900E+02 4.35050E+01 0.00000E+00
 -1      2347 1.07400E+02 4.35050E+01 0.00000E+00
 -1      2348 1.05150E+02 4.22060E+01 0.00000E+00
 -1      2349 1.08900E+02 4.35050E+01 0.00000E+00
 -1      2350 1.10400E+02 4.35050E+01 0.00000E+00
 -1      2351 1.08150E+02 4.22060E+01 0.00000E+00
 -1      2352 1.11900E+02 4.35050E+01 0.00000E+00
 -1      2353 1.13400E+02 4.35050E+01 0.00000E+00
 -1      2354 1.11150E+02 4.22060E+01 0.00000E+00
 -1      2355 1.14900E+02 4.35050E+01 0.00000E+00
 -1      2356 1.16400E+02 4.35050E+01 0.00000E+00
 -1      2357 1.14150E+02 4.22060E+01 0.00000E+00
 -1      2358 1.17900E+02 4.35050E+01 0.00000E+00
 -1      2359 1.19400E+02 4.35050E+01 0.00000E+00
 -1      2360 1.17150E+02 4.22060E+01 0.00000E+00
 -1      2361 1.20900E+02 4.35050E+01 0.00000E+00
 -1      2362 1.22400E+02 4.35050E+01 0.00000E+00
 -1      2363 1.20150E+02 4.22060E+01 0.00000E+00
 -1      2364 1.23900E+02 4.35050E+01 0.00000E+00
 -1      2365 1.25400E+02 4.35050E+01 0.00000E+00
 -1      2366 1.23150E+02 4.22060E+01 0.00000E+00
 -1      2367 1.26900E+02 4.35050E+01 0.00000E+00
 -1      2368 1.28400E+02 4.35050E+01 0.00000E+00
 -1      2369 1.26150E+02 4.22060E+01 0.00000E+00
 -1      2370 1.29900E+02 4.35050E+01 0.00000E+00
 -1      2371 1.31400E+02 4.35050E+01 0.00000E+00
 -1      2372 1.29150E+02 4.22060E+01 0.00000E+00
 -1      2373 1.32900E+02 4.35050E+01 0.00000E+00
 -1      2374 1.34400E+02 4.35050E+01 0.00000E+00
 -1      2375 1.32150E+02 4.22060E+01 0.00000E+00
 -1      2376 1.35900E+02 4.35050E+01 0.00000E+00
 -1      2377 1.37400E+02 4.35050E+01 0.00000E+00
 -1      2378 1.35150E+02 4.22060E+01 0.00000E+00
 -1      2379 1.38900E+02 4.35050E+01 0.00000E+00
 -1      2380 1.40400E+02 4.35050E+01 0.00000E+00
 -1      2381 1.38150E+02 4.22060E+01 0.00000E+00
 -1      2382 1.97850E+01 5.30525E+00 0.00000E+00
 -1      2383 1.82850E+01 5.30525E+00 0.00000E+00
 -1      2384 2.27850E+01 5.30525E+00 0.00000E+00
 -1      2385 2.12850E+01 5.30525E+00 0.00000E+00
 -1      2386 2.05350E+01 6.60425E+00 0.00000E+00
 -1      2387 2.57850E+01 5.30525E+00 0.00000E+00
 -1      2388 2.42850E+01 5.30525E+00 0.00000E+00
 -1      2389 2.35350E+01 6.60425E+00 0.00000E+00
 -1      2390 2.87850E+01 5.30525E+00 0.00000E+00
 -1      2391 2.72850E+01 5.30525E+00 0.00000E+00
 -1      2392 2.65350E+01 6.60425E+00 0.00000E+00
 -1      2393 3.17850E+01 5.30525E+00 0.00000E+00
 -1      2394 3.02850E+01 5.30525E+00 0.00000E+00
 -1      2395 2.95350E+01 6.60425E+00 0.00000E+00
 -1      2396 3.47850E+01 5.30525E+00 0.00000E+00
 -1      2397 3.32850E+01 5.30525E+00 0.00000E+00
 -1      2398 3.25350E+01 6.60425E+00 0.00000E+00
 -1      2399 3.77850E+01 5.30525E+00 0.00000E+00
 -1      2400 3.62850E+01 5.30525E+00 0.00000E+00
 -1      2401 3.55350E+01 6.60425E+00 0.00000E+00
 -1      2402 4.07850E+01 5.30525E+00 0.00000E+00
 -1      2403 3.92850E+01 5.30525E+00 0.00000E+00
 -1      2404 3.85350E+01 6.60425E+00 0.00000E+00
 -1      2405 4.37850E+01 5.30525E+00 0.00000E+00
 -1      2406 4.22850E+01 5.30525E+00 0.00000E+00
 -1      2407 4.15350E+01 6.60425E+00 0.00000E+00
 -1      2408 4.67850E+01 5.30525E+00 0.00000E+00
 -1      2409 4.52850E+01 5.30525E+00 0.00000E+00
 -1      2410 4.45350E+01 6.60425E+00 0.00000E+00
 -1      2411 4.97850E+01 5.30525E+00 0.00000E+00
 -1      2412 4.82850E+01 5.30525E+00 0.00000E+00
 -1      2413 4.75350E+01 6.60425E+00 0.00000E+00
 -1      2414 5.27850E+01 5.30525E+00 0.00000E+00
 -1      2415 5.12850E+01 5.30525E+00 0.00000E+00
 -1      2416 5.05350E+01 6.60425E+00 0.00000E+00
 -1      2417 5.57850E+01 5.30525E+00 0.00000E+00
 -1      2418 5.42850E+01 5.30525E+00 0.00000E+00
 -1      2419 5.35350E+01 6.60425E+00 0.00000E+00
 -1      2420 5.87850E+01 5.30525E+00 0.00000E+00
 -1      2421 5.72850E+01 5.30525E+00 0.00000E+00
 -1      2422 5.65350E+01 6.60425E+00 0.00000E+00
 -1      2423 6.17850E+01 5.30525E+00 0.00000E+00
 -1      2424 6.02850E+01 5.30525E+00 0.00000E+00
 -1      2425 5.95350E+01 6.60425E+00 0.00000E+00
 -1      2426 6.47850E+01 5.30525E+00 0.00000E+00
 -1      2427 6.32850E+01 5.30525E+00 0.00000E+00
 -1      2428 6.25350E+01 6.60425E+00 0.00000E+00
 -1      2429 6.77850E+01 5.30525E+00 0.00000E+00
 -1      2430 6.62850E+01 5.30525E+00 0.00000E+00
 -1      2431 6.55350E+01 6.60425E+00 0.00000E+00
 -1      2432 7.07850E+01 5.30525E+00 0.00000E+00
 -1      2433 6.92850E+01 5.30525E+00 0.00000E+00
 -1      2434 6.85350E+01 6.60425E+00 0.00000E+00
 -1      2435 7.37850E+01 5.30525E+00 0.00000E+00
 -1      2436 7.22850E+01 5.30525E+00 0.00000E+00
 -1      2437 7.15350E+01 6.60425E+00 0.00000E+00
 -1      2438 7.67850E+01 5.30525E+00 0.00000E+00
 -1      2439 7.52850E+01 5.30525E+00 0.00000E+00
 -1      2440 7.45350E+01 6.60425E+00 0.00000E+00
 -1      2441 7.97850E+01 5.30525E+00 0.00000E+00
 -1      2442 7.82850E+01 5.30525E+00 0.00000E+00
 -1      2443 7.75350E+01 6.60425E+00 0.00000E+00
 -1      2444 8.27850E+01 5.30525E+00 0.00000E+00
 -1      2445 8.12850E+01 5.30525E+00 0.00000E+00
 -1      2446 8.05350E+01 6.60425E+00 0.00000E+00
 -1      2447 8.57850E+01 5.30525E+00 0.00000E+00
 -1      2448 8.42850E+01 5.30525E+00 0.00000E+00
 -1      2449 8.35350E+01 6.60425E+00 0.00000E+00
 -1      2450 8.87850E+01 5.30525E+00 0.00000E+00
 -1      2451 8.72850E+01 5.30525E+00 0.00000E+00
 -1      2452 8.65350E+01 6.60425E+00 0.00000E+00
 -1      2453 9.17850E+01 5.30525E+00 0.00000E+00
 -1      2454 9.02850E+01 5.30525E+00 0.00000E+00
 -1      2455 8.95350E+01 6.60425E+00 0.00000E+00
 -1      2456 9.47850E+01 5.30525E+00 0.00000E+00
 -1      2457 9.32850E+01 5.30525E+00 0.00000E+00
 -1      2458 9.25350E+01 6.60425E+00 0.00000E+00
 -1      2459 9.77850E+01 5.30525E+00 0.00000E+00
 -1      2460 9.62850E+01 5.30525E+00 0.00000E+00
 -1      2461 9.55350E+01 6.60425E+00 0.00000E+00
 -1      2462 1.00785E+02 5.30525E+00 0.00000E+00
 -1      2463 9.92850E+01 5.30525E+00 0.00000E+00
 -1      2464 9.85350E+01 6.60425E+00 0.00000E+00
 -1      2465 1.03785E+02 5.30525E+00 0.00000E+00
 -1      2466 1.02285E+02 5.30525E+00 0.00000E+00
 -1      2467 1.01535E+02 6.60425E+00 0.00000E+00
 -1      2468 1.06785E+02 5.30525E+00 0.00000E+00
 -1      2469 1.05285E+02 5.30525E+00 0.00000E+00
 -1      2470 1.04535E+02 6.60425E+00 0.00000E+00
 -1      2471 1.09785E+02 5.30525E+00 0.00000E+00
 -1      2472 1.08285E+02 5.30525E+00 0.00000E+00
 -1      2473 1.07535E+02 6.60425E+00 0.00000E+00
 -1      2474 1.12785E+02 5.30525E+00 0.00000E+00
 -1      2475 1.11285E+02 5.30525E+00 0.00000E+00
 -1      2476 1.10535E+02 6.60425E+00 0.00000E+00
 -1      2477 1.15785E+02 5.30525E+00 0.00000E+00
 -1      2478 1.14285E+02 5.30525E+00 0.00000E+00
 -1      2479 1.13535E+02 6.60425E+00 0.00000E+00
 -1      2480 1.18785E+02 5.30525E+00 0.00000E+00
 -1      2481 1.17285E+02 5.30525E+00 0.00000E+00
 -1      2482 1.16535E+02 6.60425E+00 0.00000E+00
 -1      2483 1.21785E+02 5.30525E+00 0.00000E+00
 -1      2484 1.20285E+02 5.30525E+00 0.00000E+00
 -1      2485 1.19535E+02 6.60425E+00 0.00000E+00
 -1      2486 1.24785E+02 5.30525E+00 0.00000E+00
 -1      2487 1.23285E+02 5.30525E+00 0.00000E+00
 -1      2488 1.22535E+02 6.60425E+00 0.00000E+00
 -1      2489 1.27785E+02 5.30525E+00 0.00000E+00
 -1      2490 1.26285E+02 5.30525E+00 0.00000E+00
 -1      2491 1.25535E+02 6.60425E+00 0.00000E+00
 -1      2492 1.30785E+02 5.30525E+00 0.00000E+00
 -1      2493 1.29285E+02 5.30525E+00 0.00000E+00
 -1      2494 1.28535E+02 6.60425E+00 0.00000E+00
 -1      2495 1.33785E+02 5.30525E+00 0.00000E+00
 -1      2496 1.32285E+02 5.30525E+00 0.00000E+00
 -1      2497 1.31535E+02 6.60425E+00 0.00000E+00
 -1      2498 1.36785E+02 5.30525E+00 0.00000E+00
 -1      2499 1.35285E+02 5.30525E+00 0.00000E+00
 -1      2500 1.34535E+02 6.60425E+00 0.00000E+00
 -1      2501 1.39785E+02 5.30525E+00 0.00000E+00
 -1      2502 1.38285E+02 5.30525E+00 0.00000E+00
 -1      2503 1.37535E+02 6.60425E+00 0.00000E+00
 -1      2504 1.42785E+02 5.30525E+00 0.00000E+00
 -1      2505 1.41285E+02 5.30525E+00 0.00000E+00
 -1      2506 1.40535E+02 6.60425E+00 0.00000E+00
 -1      2507 1.44336E+02 5.26953E+00 0.00000E+00
 -1      2508 1.43505E+02 1.69125E+01 0.00000E+00
 -1      2509 1.43505E+02 1.54375E+01 0.00000E+00
 -1      2510 1.43505E+02 1.98625E+01 0.00000E+00
 -1      2511 1.43505E+02 1.83875E+01 0.00000E+00
 -1      2512 1.42206E+02 1.76500E+01 0.00000E+00
 -1      2513 1.43505E+02 1.10625E+01 0.00000E+00
 -1      2514 1.43505E+02 9.58750E+00 0.00000E+00
 -1      2515 1.43505E+02 1.39750E+01 0.00000E+00
 -1      2516 1.43505E+02 1.25250E+01 0.00000E+00
 -1      2517 1.42206E+02 1.17875E+01 0.00000E+00
 -1      2518 1.42206E+02 1.47125E+01 0.00000E+00
 -1      2519 1.43505E+02 2.28125E+01 0.00000E+00
 -1      2520 1.43505E+02 2.13375E+01 0.00000E+00
 -1      2521 1.42206E+02 2.06000E+01 0.00000E+00
 -1      2522 1.43505E+02 2.57625E+01 0.00000E+00
 -1      2523 1.43505E+02 2.42875E+01 0.00000E+00
 -1      2524 1.42206E+02 2.35500E+01 0.00000E+00
 -1      2525 1.43505E+02 2.87125E+01 0.00000E+00
 -1      2526 1.43505E+02 2.72375E+01 0.00000E+00
 -1      2527 1.42206E+02 2.65000E+01 0.00000E+00
 -1      2528 1.43505E+02 3.16125E+01 0.00000E+00
 -1      2529 1.43505E+02 3.01625E+01 0.00000E+00
 -1      2530 1.42206E+02 2.94250E+01 0.00000E+00
 -1      2531 1.43505E+02 3.45625E+01 0.00000E+00
 -1      2532 1.43505E+02 3.30875E+01 0.00000E+00
 -1      2533 1.42206E+02 3.23500E+01 0.00000E+00
 -1      2534 1.43505E+02 3.75125E+01 0.00000E+00
 -1      2535 1.43505E+02 3.60375E+01 0.00000E+00
 -1      2536 1.42206E+02 3.53000E+01 0.00000E+00
 -1      2537 1.43505E+02 4.04625E+01 0.00000E+00
 -1      2538 1.43505E+02 3.89875E+01 0.00000E+00
 -1      2539 1.42206E+02 3.82500E+01 0.00000E+00
 -1      2540 5.16402E+01 2.08967E+01 0.00000E+00
 -1      2541 5.23296E+01 2.17773E+01 0.00000E+00
 -1      2542 1.44321E+02 4.30606E+01 0.00000E+00
 -1      2543 5.34235E+01 2.75759E+01 0.00000E+00
 -1      2544 5.33700E+01 2.87445E+01 0.00000E+00
 -1      2545 1.67850E+01 5.30525E+00 0.00000E+00
 -1      2546 1.52850E+01 5.30525E+00 0.00000E+00
 -1      2547 1.75350E+01 6.60425E+00 0.00000E+00
 -1      2548 5.33138E+01 2.55312E+01 0.00000E+00
 -1      2549 5.33492E+01 2.64591E+01 0.00000E+00
 -1      2550 5.30051E+01 3.01280E+01 0.00000E+00
 -1      2551 5.25379E+01 3.09811E+01 0.00000E+00
 -1      2552 6.55950E+00 4.28890E+01 0.00000E+00
 -1      2553 8.53650E+00 4.32410E+01 0.00000E+00
 -1      2554 9.28650E+00 4.19420E+01 0.00000E+00
 -1      2555 6.55950E+00 4.14140E+01 0.00000E+00
 -1      2556 5.03548E+01 1.93955E+01 0.00000E+00
 -1      2557 5.09975E+01 2.01461E+01 0.00000E+00
 -1      2558 5.20175E+01 2.00578E+01 0.00000E+00
 -1      2559 3.30322E+01 2.32636E+01 0.00000E+00
 -1      2560 3.35462E+01 2.21064E+01 0.00000E+00
 -1      2561 6.49500E+00 2.71625E+01 0.00000E+00
 -1      2562 6.49500E+00 2.86375E+01 0.00000E+00
 -1      2563 7.79400E+00 2.93750E+01 0.00000E+00
 -1      2564 7.79400E+00 2.64250E+01 0.00000E+00
 -1      2565 4.17029E+01 1.66789E+01 0.00000E+00
 -1      2566 4.27078E+01 1.65047E+01 0.00000E+00
 -1      2567 3.54061E+01 3.39070E+01 0.00000E+00
 -1      2568 3.47755E+01 3.31953E+01 0.00000E+00
 -1      2569 4.40198E+01 1.65655E+01 0.00000E+00
 -1      2570 4.50191E+01 1.67698E+01 0.00000E+00
 -1      2571 3.97214E+01 1.70007E+01 0.00000E+00
 -1      2572 4.07122E+01 1.68398E+01 0.00000E+00
 -1      2573 4.10681E+01 1.59077E+01 0.00000E+00
 -1      2574 3.54865E+01 1.96747E+01 0.00000E+00
 -1      2575 3.60129E+01 1.89370E+01 0.00000E+00
 -1      2576 3.40922E+01 2.09457E+01 0.00000E+00
 -1      2577 3.47894E+01 2.03102E+01 0.00000E+00
 -1      2578 3.42181E+01 1.93459E+01 0.00000E+00
 -1      2579 3.24479E+01 2.53793E+01 0.00000E+00
 -1      2580 3.26864E+01 2.44651E+01 0.00000E+00
 -1      2581 3.31052E+01 3.00670E+01 0.00000E+00
 -1      2582 3.28635E+01 2.91988E+01 0.00000E+00
 -1      2583 3.40023E+01 3.22437E+01 0.00000E+00
 -1      2584 3.34370E+01 3.12551E+01 0.00000E+00
 -1      2585 3.68228E+01 3.52096E+01 0.00000E+00
 -1      2586 3.61144E+01 3.45583E+01 0.00000E+00
 -1      2587 3.51573E+01 3.47711E+01 0.00000E+00
 -1      2588 3.84218E+01 3.66123E+01 0.00000E+00
 -1      2589 3.76359E+01 3.59811E+01 0.00000E+00
 -1      2590 4.35006E+01 3.73109E+01 0.00000E+00
 -1      2591 4.25019E+01 3.74562E+01 0.00000E+00
 -1      2592 4.54513E+01 3.68416E+01 0.00000E+00
 -1      2593 4.45083E+01 3.70449E+01 0.00000E+00
 -1      2594 4.74256E+01 3.62930E+01 0.00000E+00
 -1      2595 4.64824E+01 3.66040E+01 0.00000E+00
 -1      2596 4.93988E+01 3.53522E+01 0.00000E+00
 -1      2597 4.85186E+01 3.58678E+01 0.00000E+00
 -1      2598 5.09986E+01 3.37184E+01 0.00000E+00
 -1      2599 5.03340E+01 3.44903E+01 0.00000E+00
 -1      2600 5.21341E+01 3.18970E+01 0.00000E+00
 -1      2601 5.17304E+01 3.28130E+01 0.00000E+00
 -1      2602 5.31199E+01 3.18825E+01 0.00000E+00
 -1      2603 5.29670E+01 2.31473E+01 0.00000E+00
 -1      2604 5.32290E+01 2.43226E+01 0.00000E+00
 -1      2605 8.07525E+00 5.11044E+00 0.00000E+00
 -1      2606 6.57525E+00 5.11044E+00 0.00000E+00
 -1      2607 6.40575E+00 6.01981E+00 0.00000E+00
 -1      2608 8.82525E+00 6.40944E+00 0.00000E+00
 -1      2609 4.33708E+01 1.58077E+01 0.00000E+00
 -1      2610 7.79400E+00 3.52687E+01 0.00000E+00
 -1      2611 6.49500E+00 3.60062E+01 0.00000E+00
 -1      2612 6.49500E+00 3.74750E+01 0.00000E+00
 -1      2613 1.45350E+01 6.60425E+00 0.00000E+00
 -1      2614 6.40575E+00 7.49481E+00 0.00000E+00
 -1      2615 5.01486E+01 1.85941E+01 0.00000E+00
 -1      2616 5.11686E+01 1.85058E+01 0.00000E+00
 -1      2617 4.99425E+01 1.77927E+01 0.00000E+00
 -1      2618 4.75883E+01 1.63830E+01 0.00000E+00
 -1      2619 4.78344E+01 1.72314E+01 0.00000E+00
 -1      2620 4.86764E+01 1.70326E+01 0.00000E+00
 -1      2621 5.38885E+01 2.95830E+01 0.00000E+00
 -1      2622 1.43586E+02 6.56853E+00 0.00000E+00
 -1      2623 1.43419E+02 7.72713E+00 0.00000E+00
 -1      2624 5.19844E+01 3.37038E+01 0.00000E+00
 -1      2625 5.36282E+01 2.12095E+01 0.00000E+00
 -1      2626 5.32976E+01 2.21784E+01 0.00000E+00
 -1      2627 5.42656E+01 2.25795E+01 0.00000E+00
 -1      2628 3.29749E+01 2.11421E+01 0.00000E+00
 -1      2629 1.42758E+02 4.35929E+01 0.00000E+00
 -1      2630 1.43241E+02 4.17323E+01 0.00000E+00
 -1      2631 1.41942E+02 4.09948E+01 0.00000E+00
 -1      2632 1.41414E+02 4.35342E+01 0.00000E+00
 -1      2633 5.03175E+01 3.54711E+01 0.00000E+00
 -1      2634 5.41791E+01 2.70826E+01 0.00000E+00
 -1      2635 7.70475E+00 8.23231E+00 0.00000E+00
 -1      2636 5.40199E+01 2.47570E+01 0.00000E+00
 -1      2637 4.82892E+01 3.67581E+01 0.00000E+00
 -1      2638 4.61651E+01 3.74210E+01 0.00000E+00
 -1      2639 3.20832E+01 2.35043E+01 0.00000E+00
 -1      2640 4.41263E+01 3.79247E+01 0.00000E+00
 -1      2641 3.66788E+01 3.61938E+01 0.00000E+00
 -1      2642 3.36757E+01 3.31683E+01 0.00000E+00
 -1      2643 3.25707E+01 3.10286E+01 0.00000E+00
 -1      2644 3.88482E+01 1.67867E+01 0.00000E+00
 -1      2645 3.92041E+01 1.58547E+01 0.00000E+00
 -1      2646 3.79749E+01 1.65728E+01 0.00000E+00
 -1      2647 4.17077E+01 3.79586E+01 0.00000E+00
 -1      2648 4.09136E+01 3.84611E+01 0.00000E+00
 -1      2649 4.23245E+01 3.86932E+01 0.00000E+00
 -1      2650 6.55950E+00 3.99453E+01 0.00000E+00
 -1      2651 3.21847E+01 2.86041E+01 0.00000E+00
 -1      2652 3.62671E+01 1.81076E+01 0.00000E+00
 -1      2653 3.65213E+01 1.72783E+01 0.00000E+00
 -1      2654 3.51694E+01 1.78811E+01 0.00000E+00
 -1      2655 4.57146E+01 1.62251E+01 0.00000E+00
 -1      2656 3.19339E+01 2.60367E+01 0.00000E+00
 -1      2657 3.12234E+01 2.53631E+01 0.00000E+00
 -1      2658 3.14199E+01 2.66941E+01 0.00000E+00
 -1      2659 3.88944E+01 3.73459E+01 0.00000E+00
 -1      2660 3.79644E+01 3.76989E+01 0.00000E+00
 -1      2661 3.93669E+01 3.80796E+01 0.00000E+00
 -1      2662 1.42120E+02 8.46463E+00 0.00000E+00
 -1      2663 1.40664E+02 4.22352E+01 0.00000E+00
 -1      2664 9.09300E+00 1.98250E+01 0.00000E+00
 -1      2665 9.09300E+00 2.12750E+01 0.00000E+00
 -1      2666 9.09300E+00 2.27500E+01 0.00000E+00
 -1      2667 9.09300E+00 2.42250E+01 0.00000E+00
 -1      2668 1.03920E+01 2.20250E+01 0.00000E+00
 -1      2669 9.09300E+00 1.39375E+01 0.00000E+00
 -1      2670 9.09300E+00 1.54125E+01 0.00000E+00
 -1      2671 9.09300E+00 1.09875E+01 0.00000E+00
 -1      2672 9.09300E+00 1.24625E+01 0.00000E+00
 -1      2673 1.03920E+01 1.32000E+01 0.00000E+00
 -1      2674 1.22850E+01 7.90325E+00 0.00000E+00
 -1      2675 1.07850E+01 7.90325E+00 0.00000E+00
 -1      2676 5.48329E+01 2.40927E+01 0.00000E+00
 -1      2677 5.49177E+01 2.53013E+01 0.00000E+00
 -1      2678 1.52850E+01 7.90325E+00 0.00000E+00
 -1      2679 1.37850E+01 7.90325E+00 0.00000E+00
 -1      2680 1.30350E+01 9.20225E+00 0.00000E+00
 -1      2681 8.91450E+00 8.42712E+00 0.00000E+00
 -1      2682 1.44000E+01 4.09070E+01 0.00000E+00
 -1      2683 1.59000E+01 4.09070E+01 0.00000E+00
 -1      2684 1.74000E+01 4.09070E+01 0.00000E+00
 -1      2685 1.89000E+01 4.09070E+01 0.00000E+00
 -1      2686 1.66500E+01 3.96080E+01 0.00000E+00
 -1      2687 2.04000E+01 4.09070E+01 0.00000E+00
 -1      2688 2.19000E+01 4.09070E+01 0.00000E+00
 -1      2689 1.96500E+01 3.96080E+01 0.00000E+00
 -1      2690 2.34000E+01 4.09070E+01 0.00000E+00
 -1      2691 2.49000E+01 4.09070E+01 0.00000E+00
 -1      2692 2.26500E+01 3.96080E+01 0.00000E+00
 -1      2693 2.64000E+01 4.09070E+01 0.00000E+00
 -1      2694 2.79000E+01 4.09070E+01 0.00000E+00
 -1      2695 2.56500E+01 3.96080E+01 0.00000E+00
 -1      2696 2.94000E+01 4.09070E+01 0.00000E+00
 -1      2697 3.09000E+01 4.09070E+01 0.00000E+00
 -1      2698 2.86500E+01 3.96080E+01 0.00000E+00
 -1      2699 3.24000E+01 4.09070E+01 0.00000E+00
 -1      2700 3.39000E+01 4.09070E+01 0.00000E+00
 -1      2701 3.16500E+01 3.96080E+01 0.00000E+00
 -1      2702 4.10902E+01 4.07008E+01 0.00000E+00
 -1      2703 4.25902E+01 4.07008E+01 0.00000E+00
 -1      2704 4.44000E+01 4.10971E+01 0.00000E+00
 -1      2705 4.59000E+01 4.10971E+01 0.00000E+00
 -1      2706 4.74000E+01 4.10133E+01 0.00000E+00
 -1      2707 4.89000E+01 4.10133E+01 0.00000E+00
 -1      2708 5.04000E+01 4.10133E+01 0.00000E+00
 -1      2709 5.19000E+01 4.10133E+01 0.00000E+00
 -1      2710 4.96500E+01 3.98206E+01 0.00000E+00
 -1      2711 5.34000E+01 4.10133E+01 0.00000E+00
 -1      2712 5.49000E+01 4.10133E+01 0.00000E+00
 -1      2713 5.26500E+01 3.98206E+01 0.00000E+00
 -1      2714 5.64000E+01 4.10133E+01 0.00000E+00
 -1      2715 5.79000E+01 4.10133E+01 0.00000E+00
 -1      2716 5.56500E+01 3.98206E+01 0.00000E+00
 -1      2717 5.94000E+01 4.10133E+01 0.00000E+00
 -1      2718 6.09000E+01 4.10133E+01 0.00000E+00
 -1      2719 5.86500E+01 3.98206E+01 0.00000E+00
 -1      2720 6.24000E+01 4.10133E+01 0.00000E+00
 -1      2721 6.39000E+01 4.10133E+01 0.00000E+00
 -1      2722 6.16500E+01 3.98206E+01 0.00000E+00
 -1      2723 6.54000E+01 4.10133E+01 0.00000E+00
 -1      2724 6.69000E+01 4.10133E+01 0.00000E+00
 -1      2725 6.46500E+01 3.98206E+01 0.00000E+00
 -1      2726 6.84000E+01 4.10133E+01 0.00000E+00
 -1      2727 6.99000E+01 4.10133E+01 0.00000E+00
 -1      2728 6.76500E+01 3.98206E+01 0.00000E+00
 -1      2729 7.14000E+01 4.10133E+01 0.00000E+00
 -1      2730 7.29000E+01 4.10133E+01 0.00000E+00
 -1      2731 7.06500E+01 3.98206E+01 0.00000E+00
 -1      2732 7.44000E+01 4.10133E+01 0.00000E+00
 -1      2733 7.59000E+01 4.10133E+01 0.00000E+00
 -1      2734 7.36500E+01 3.98206E+01 0.00000E+00
 -1      2735 7.74000E+01 4.10133E+01 0.00000E+00
 -1      2736 7.89000E+01 4.10133E+01 0.00000E+00
 -1      2737 7.66500E+01 3.98206E+01 0.00000E+00
 -1      2738 8.04000E+01 4.10133E+01 0.00000E+00
 -1      2739 8.19000E+01 4.10133E+01 0.00000E+00
 -1      2740 7.96500E+01 3.98206E+01 0.00000E+00
 -1      2741 8.34000E+01 4.10133E+01 0.00000E+00
 -1      2742 8.49000E+01 4.10133E+01 0.00000E+00
 -1      2743 8.26500E+01 3.98206E+01 0.00000E+00
 -1      2744 8.64000E+01 4.10133E+01 0.00000E+00
 -1      2745 8.79000E+01 4.10133E+01 0.00000E+00
 -1      2746 8.56500E+01 3.98206E+01 0.00000E+00
 -1      2747 8.94000E+01 4.10133E+01 0.00000E+00
 -1      2748 9.09000E+01 4.10133E+01 0.00000E+00
 -1      2749 8.86500E+01 3.98206E+01 0.00000E+00
 -1      2750 9.24000E+01 4.10133E+01 0.00000E+00
 -1      2751 9.39000E+01 4.10133E+01 0.00000E+00
 -1      2752 9.16500E+01 3.98206E+01 0.00000E+00
 -1      2753 9.54000E+01 4.10133E+01 0.00000E+00
 -1      2754 9.69000E+01 4.10133E+01 0.00000E+00
 -1      2755 9.46500E+01 3.98206E+01 0.00000E+00
 -1      2756 9.84000E+01 4.10133E+01 0.00000E+00
 -1      2757 9.99000E+01 4.10133E+01 0.00000E+00
 -1      2758 9.76500E+01 3.98206E+01 0.00000E+00
 -1      2759 1.01400E+02 4.10133E+01 0.00000E+00
 -1      2760 1.02900E+02 4.10133E+01 0.00000E+00
 -1      2761 1.00650E+02 3.98206E+01 0.00000E+00
 -1      2762 1.04400E+02 4.10133E+01 0.00000E+00
 -1      2763 1.05900E+02 4.10133E+01 0.00000E+00
 -1      2764 1.03650E+02 3.98206E+01 0.00000E+00
 -1      2765 1.07400E+02 4.10133E+01 0.00000E+00
 -1      2766 1.08900E+02 4.10133E+01 0.00000E+00
 -1      2767 1.06650E+02 3.98206E+01 0.00000E+00
 -1      2768 1.10400E+02 4.10133E+01 0.00000E+00
 -1      2769 1.11900E+02 4.10133E+01 0.00000E+00
 -1      2770 1.09650E+02 3.98206E+01 0.00000E+00
 -1      2771 1.13400E+02 4.10133E+01 0.00000E+00
 -1      2772 1.14900E+02 4.10133E+01 0.00000E+00
 -1      2773 1.12650E+02 3.98206E+01 0.00000E+00
 -1      2774 1.16400E+02 4.10133E+01 0.00000E+00
 -1      2775 1.17900E+02 4.10133E+01 0.00000E+00
 -1      2776 1.15650E+02 3.98206E+01 0.00000E+00
 -1      2777 1.19400E+02 4.10133E+01 0.00000E+00
 -1      2778 1.20900E+02 4.10133E+01 0.00000E+00
 -1      2779 1.18650E+02 3.98206E+01 0.00000E+00
 -1      2780 1.22400E+02 4.10133E+01 0.00000E+00
 -1      2781 1.23900E+02 4.10133E+01 0.00000E+00
 -1      2782 1.21650E+02 3.98206E+01 0.00000E+00
 -1      2783 1.25400E+02 4.10133E+01 0.00000E+00
 -1      2784 1.26900E+02 4.10133E+01 0.00000E+00
 -1      2785 1.24650E+02 3.98206E+01 0.00000E+00
 -1      2786 1.28400E+02 4.10133E+01 0.00000E+00
 -1      2787 1.29900E+02 4.10133E+01 0.00000E+00
 -1      2788 1.27650E+02 3.98206E+01 0.00000E+00
 -1      2789 1.31400E+02 4.10133E+01 0.00000E+00
 -1      2790 1.32900E+02 4.10133E+01 0.00000E+00
 -1      2791 1.30650E+02 3.98206E+01 0.00000E+00
 -1      2792 1.34400E+02 4.10133E+01 0.00000E+00
 -1      2793 1.35900E+02 4.10133E+01 0.00000E+00
 -1      2794 1.33650E+02 3.98206E+01 0.00000E+00
 -1      2795 1.37400E+02 4.10133E+01 0.00000E+00
 -1      2796 1.38900E+02 4.10133E+01 0.00000E+00
 -1      2797 1.36650E+02 3.98206E+01 0.00000E+00
 -1      2798 2.42850E+01 7.90325E+00 0.00000E+00
 -1      2799 2.27850E+01 7.90325E+00 0.00000E+00
 -1      2800 5.13662E+01 3.56708E+01 0.00000E+00
 -1      2801 5.04310E+01 3.65326E+01 0.00000E+00
 -1      2802 5.41064E+01 3.17704E+01 0.00000E+00
 -1      2803 5.37027E+01 3.26863E+01 0.00000E+00
 -1      2804 2.12850E+01 7.90325E+00 0.00000E+00
 -1      2805 1.97850E+01 7.90325E+00 0.00000E+00
 -1      2806 2.20350E+01 9.20225E+00 0.00000E+00
 -1      2807 3.02850E+01 7.90325E+00 0.00000E+00
 -1      2808 2.87850E+01 7.90325E+00 0.00000E+00
 -1      2809 3.32850E+01 7.90325E+00 0.00000E+00
 -1      2810 3.17850E+01 7.90325E+00 0.00000E+00
 -1      2811 3.10350E+01 9.20225E+00 0.00000E+00
 -1      2812 3.62850E+01 7.90325E+00 0.00000E+00
 -1      2813 3.47850E+01 7.90325E+00 0.00000E+00
 -1      2814 3.40350E+01 9.20225E+00 0.00000E+00
 -1      2815 3.92850E+01 7.90325E+00 0.00000E+00
 -1      2816 3.77850E+01 7.90325E+00 0.00000E+00
 -1      2817 3.70350E+01 9.20225E+00 0.00000E+00
 -1      2818 4.22850E+01 7.90325E+00 0.00000E+00
 -1      2819 4.07850E+01 7.90325E+00 0.00000E+00
 -1      2820 4.00350E+01 9.20225E+00 0.00000E+00
 -1      2821 4.52850E+01 7.90325E+00 0.00000E+00
 -1      2822 4.37850E+01 7.90325E+00 0.00000E+00
 -1      2823 4.30350E+01 9.20225E+00 0.00000E+00
 -1      2824 4.82850E+01 7.90325E+00 0.00000E+00
 -1      2825 4.67850E+01 7.90325E+00 0.00000E+00
 -1      2826 4.60350E+01 9.20225E+00 0.00000E+00
 -1      2827 5.12850E+01 7.90325E+00 0.00000E+00
 -1      2828 4.97850E+01 7.90325E+00 0.00000E+00
 -1      2829 4.90350E+01 9.20225E+00 0.00000E+00
 -1      2830 5.42850E+01 7.90325E+00 0.00000E+00
 -1      2831 5.27850E+01 7.90325E+00 0.00000E+00
 -1      2832 5.20350E+01 9.20225E+00 0.00000E+00
 -1      2833 5.72850E+01 7.90325E+00 0.00000E+00
 -1      2834 5.57850E+01 7.90325E+00 0.00000E+00
 -1      2835 5.50350E+01 9.20225E+00 0.00000E+00
 -1      2836 6.02850E+01 7.90325E+00 0.00000E+00
 -1      2837 5.87850E+01 7.90325E+00 0.00000E+00
 -1      2838 5.80350E+01 9.20225E+00 0.00000E+00
 -1      2839 6.32850E+01 7.90325E+00 0.00000E+00
 -1      2840 6.17850E+01 7.90325E+00 0.00000E+00
 -1      2841 6.10350E+01 9.20225E+00 0.00000E+00
 -1      2842 6.62850E+01 7.90325E+00 0.00000E+00
 -1      2843 6.47850E+01 7.90325E+00 0.00000E+00
 -1      2844 6.40350E+01 9.20225E+00 0.00000E+00
 -1      2845 6.92850E+01 7.90325E+00 0.00000E+00
 -1      2846 6.77850E+01 7.90325E+00 0.00000E+00
 -1      2847 6.70350E+01 9.20225E+00 0.00000E+00
 -1      2848 7.22850E+01 7.90325E+00 0.00000E+00
 -1      2849 7.07850E+01 7.90325E+00 0.00000E+00
 -1      2850 7.00350E+01 9.20225E+00 0.00000E+00
 -1      2851 7.52850E+01 7.90325E+00 0.00000E+00
 -1      2852 7.37850E+01 7.90325E+00 0.00000E+00
 -1      2853 7.30350E+01 9.20225E+00 0.00000E+00
 -1      2854 7.82850E+01 7.90325E+00 0.00000E+00
 -1      2855 7.67850E+01 7.90325E+00 0.00000E+00
 -1      2856 7.60350E+01 9.20225E+00 0.00000E+00
 -1      2857 8.12850E+01 7.90325E+00 0.00000E+00
 -1      2858 7.97850E+01 7.90325E+00 0.00000E+00
 -1      2859 7.90350E+01 9.20225E+00 0.00000E+00
 -1      2860 8.42850E+01 7.90325E+00 0.00000E+00
 -1      2861 8.27850E+01 7.90325E+00 0.00000E+00
 -1      2862 8.20350E+01 9.20225E+00 0.00000E+00
 -1      2863 8.72850E+01 7.90325E+00 0.00000E+00
 -1      2864 8.57850E+01 7.90325E+00 0.00000E+00
 -1      2865 8.50350E+01 9.20225E+00 0.00000E+00
 -1      2866 9.02850E+01 7.90325E+00 0.00000E+00
 -1      2867 8.87850E+01 7.90325E+00 0.00000E+00
 -1      2868 8.80350E+01 9.20225E+00 0.00000E+00
 -1      2869 9.32850E+01 7.90325E+00 0.00000E+00
 -1      2870 9.17850E+01 7.90325E+00 0.00000E+00
 -1      2871 9.10350E+01 9.20225E+00 0.00000E+00
 -1      2872 9.62850E+01 7.90325E+00 0.00000E+00
 -1      2873 9.47850E+01 7.90325E+00 0.00000E+00
 -1      2874 9.40350E+01 9.20225E+00 0.00000E+00
 -1      2875 9.92850E+01 7.90325E+00 0.00000E+00
 -1      2876 9.77850E+01 7.90325E+00 0.00000E+00
 -1      2877 9.70350E+01 9.20225E+00 0.00000E+00
 -1      2878 1.02285E+02 7.90325E+00 0.00000E+00
 -1      2879 1.00785E+02 7.90325E+00 0.00000E+00
 -1      2880 1.00035E+02 9.20225E+00 0.00000E+00
 -1      2881 1.05285E+02 7.90325E+00 0.00000E+00
 -1      2882 1.03785E+02 7.90325E+00 0.00000E+00
 -1      2883 1.03035E+02 9.20225E+00 0.00000E+00
 -1      2884 1.08285E+02 7.90325E+00 0.00000E+00
 -1      2885 1.06785E+02 7.90325E+00 0.00000E+00
 -1      2886 1.06035E+02 9.20225E+00 0.00000E+00
 -1      2887 1.11285E+02 7.90325E+00 0.00000E+00
 -1      2888 1.09785E+02 7.90325E+00 0.00000E+00
 -1      2889 1.09035E+02 9.20225E+00 0.00000E+00
 -1      2890 1.14285E+02 7.90325E+00 0.00000E+00
 -1      2891 1.12785E+02 7.90325E+00 0.00000E+00
 -1      2892 1.12035E+02 9.20225E+00 0.00000E+00
 -1      2893 1.17285E+02 7.90325E+00 0.00000E+00
 -1      2894 1.15785E+02 7.90325E+00 0.00000E+00
 -1      2895 1.15035E+02 9.20225E+00 0.00000E+00
 -1      2896 1.20285E+02 7.90325E+00 0.00000E+00
 -1      2897 1.18785E+02 7.90325E+00 0.00000E+00
 -1      2898 1.18035E+02 9.20225E+00 0.00000E+00
 -1      2899 1.23285E+02 7.90325E+00 0.00000E+00
 -1      2900 1.21785E+02 7.90325E+00 0.00000E+00
 -1      2901 1.21035E+02 9.20225E+00 0.00000E+00
 -1      2902 1.26285E+02 7.90325E+00 0.00000E+00
 -1      2903 1.24785E+02 7.90325E+00 0.00000E+00
 -1      2904 1.24035E+02 9.20225E+00 0.00000E+00
 -1      2905 1.29285E+02 7.90325E+00 0.00000E+00
 -1      2906 1.27785E+02 7.90325E+00 0.00000E+00
 -1      2907 1.27035E+02 9.20225E+00 0.00000E+00
 -1      2908 1.32285E+02 7.90325E+00 0.00000E+00
 -1      2909 1.30785E+02 7.90325E+00 0.00000E+00
 -1      2910 1.30035E+02 9.20225E+00 0.00000E+00
 -1      2911 1.35285E+02 7.90325E+00 0.00000E+00
 -1      2912 1.33785E+02 7.90325E+00 0.00000E+00
 -1      2913 1.33035E+02 9.20225E+00 0.00000E+00
 -1      2914 1.38285E+02 7.90325E+00 0.00000E+00
 -1      2915 1.36785E+02 7.90325E+00 0.00000E+00
 -1      2916 1.36035E+02 9.20225E+00 0.00000E+00
 -1      2917 1.40953E+02 8.18394E+00 0.00000E+00
 -1      2918 1.39453E+02 8.18394E+00 0.00000E+00
 -1      2919 1.38703E+02 9.48294E+00 0.00000E+00
 -1      2920 1.41038E+02 1.00443E+01 0.00000E+00
 -1      2921 1.40907E+02 2.42875E+01 0.00000E+00
 -1      2922 1.40907E+02 2.28125E+01 0.00000E+00
 -1      2923 1.39914E+02 4.09894E+01 0.00000E+00
 -1      2924 1.40928E+02 4.10187E+01 0.00000E+00
 -1      2925 1.41192E+02 3.97489E+01 0.00000E+00
 -1      2926 1.39164E+02 3.97967E+01 0.00000E+00
 -1      2927 1.40907E+02 1.83875E+01 0.00000E+00
 -1      2928 1.40907E+02 1.69125E+01 0.00000E+00
 -1      2929 1.40907E+02 2.72375E+01 0.00000E+00
 -1      2930 1.40907E+02 2.57625E+01 0.00000E+00
 -1      2931 1.39608E+02 2.50250E+01 0.00000E+00
 -1      2932 1.40907E+02 2.13375E+01 0.00000E+00
 -1      2933 1.40907E+02 1.98625E+01 0.00000E+00
 -1      2934 1.39608E+02 1.91250E+01 0.00000E+00
 -1      2935 1.39608E+02 2.20750E+01 0.00000E+00
 -1      2936 1.82850E+01 7.90325E+00 0.00000E+00
 -1      2937 1.67850E+01 7.90325E+00 0.00000E+00
 -1      2938 1.60350E+01 9.20225E+00 0.00000E+00
 -1      2939 1.90350E+01 9.20225E+00 0.00000E+00
 -1      2940 1.40907E+02 3.01375E+01 0.00000E+00
 -1      2941 1.40907E+02 2.86875E+01 0.00000E+00
 -1      2942 1.39608E+02 2.79500E+01 0.00000E+00
 -1      2943 1.40907E+02 3.30875E+01 0.00000E+00
 -1      2944 1.40907E+02 3.16125E+01 0.00000E+00
 -1      2945 1.39608E+02 3.08750E+01 0.00000E+00
 -1      2946 1.40907E+02 3.60375E+01 0.00000E+00
 -1      2947 1.40907E+02 3.45625E+01 0.00000E+00
 -1      2948 1.39608E+02 3.38250E+01 0.00000E+00
 -1      2949 1.41049E+02 3.86307E+01 0.00000E+00
 -1      2950 1.41049E+02 3.71557E+01 0.00000E+00
 -1      2951 1.39751E+02 3.64182E+01 0.00000E+00
 -1      2952 1.40036E+02 3.86546E+01 0.00000E+00
 -1      2953 4.87661E+01 3.80768E+01 0.00000E+00
 -1      2954 4.76731E+01 3.85020E+01 0.00000E+00
 -1      2955 8.85168E+00 4.05347E+01 0.00000E+00
 -1      2956 1.02152E+01 4.07987E+01 0.00000E+00
 -1      2957 5.50622E+01 2.91526E+01 0.00000E+00
 -1      2958 5.46973E+01 3.05362E+01 0.00000E+00
 -1      2959 5.31476E+01 3.38955E+01 0.00000E+00
 -1      2960 5.24159E+01 3.48009E+01 0.00000E+00
 -1      2961 2.72850E+01 7.90325E+00 0.00000E+00
 -1      2962 2.57850E+01 7.90325E+00 0.00000E+00
 -1      2963 2.50350E+01 9.20225E+00 0.00000E+00
 -1      2964 2.80350E+01 9.20225E+00 0.00000E+00
 -1      2965 1.15576E+01 4.08528E+01 0.00000E+00
 -1      2966 1.30576E+01 4.08528E+01 0.00000E+00
 -1      2967 1.38076E+01 3.95538E+01 0.00000E+00
 -1      2968 1.11228E+01 3.94455E+01 0.00000E+00
 -1      2969 9.09300E+00 1.68813E+01 0.00000E+00
 -1      2970 9.09300E+00 1.83563E+01 0.00000E+00
 -1      2971 1.03920E+01 1.90812E+01 0.00000E+00
 -1      2972 1.03920E+01 1.61437E+01 0.00000E+00
 -1      2973 3.33968E+01 3.41848E+01 0.00000E+00
 -1      2974 3.26236E+01 3.32333E+01 0.00000E+00
 -1      2975 5.24748E+01 1.90157E+01 0.00000E+00
 -1      2976 5.31175E+01 1.97663E+01 0.00000E+00
 -1      2977 3.14388E+01 2.92562E+01 0.00000E+00
 -1      2978 3.13846E+01 2.80198E+01 0.00000E+00
 -1      2979 9.09300E+00 3.15875E+01 0.00000E+00
 -1      2980 9.09300E+00 3.30625E+01 0.00000E+00
 -1      2981 4.54652E+01 1.52759E+01 0.00000E+00
 -1      2982 4.64969E+01 1.56326E+01 0.00000E+00
 -1      2983 3.17493E+01 3.18984E+01 0.00000E+00
 -1      2984 3.14175E+01 3.07103E+01 0.00000E+00
 -1      2985 4.04420E+01 1.51831E+01 0.00000E+00
 -1      2986 4.14327E+01 1.50222E+01 0.00000E+00
 -1      2987 4.51420E+01 3.88234E+01 0.00000E+00
 -1      2988 4.41343E+01 3.90895E+01 0.00000E+00
 -1      2989 3.32918E+01 1.90299E+01 0.00000E+00
 -1      2990 3.39889E+01 1.83944E+01 0.00000E+00
 -1      2991 4.27584E+01 1.48369E+01 0.00000E+00
 -1      2992 4.40704E+01 1.48978E+01 0.00000E+00
 -1      2993 3.49594E+01 3.56972E+01 0.00000E+00
 -1      2994 3.42510E+01 3.50459E+01 0.00000E+00
 -1      2995 7.48818E+00 3.88019E+01 0.00000E+00
 -1      2996 3.65856E+01 3.72401E+01 0.00000E+00
 -1      2997 3.57725E+01 3.64686E+01 0.00000E+00
 -1      2998 3.48662E+01 3.67434E+01 0.00000E+00
 -1      2999 3.09251E+01 2.38215E+01 0.00000E+00
 -1      3000 3.12709E+01 2.26201E+01 0.00000E+00
 -1      3001 5.49975E+01 2.64671E+01 0.00000E+00
 -1      3002 5.50719E+01 2.75840E+01 0.00000E+00
 -1      3003 3.17743E+01 2.12862E+01 0.00000E+00
 -1      3004 3.23203E+01 2.01254E+01 0.00000E+00
 -1      3005 9.09300E+00 3.45313E+01 0.00000E+00
 -1      3006 9.09300E+00 3.60000E+01 0.00000E+00
 -1      3007 1.03920E+01 3.37938E+01 0.00000E+00
 -1      3008 1.03920E+01 2.49750E+01 0.00000E+00
 -1      3009 9.09300E+00 2.57000E+01 0.00000E+00
 -1      3010 9.09300E+00 2.71750E+01 0.00000E+00
 -1      3011 9.66450E+00 9.72612E+00 0.00000E+00
 -1      3012 5.58106E+01 2.58028E+01 0.00000E+00
 -1      3013 4.96964E+01 1.69443E+01 0.00000E+00
 -1      3014 5.07163E+01 1.68560E+01 0.00000E+00
 -1      3015 4.94503E+01 1.60959E+01 0.00000E+00
 -1      3016 4.73389E+01 1.54338E+01 0.00000E+00
 -1      3017 4.81809E+01 1.52350E+01 0.00000E+00
 -1      3018 4.70895E+01 1.44845E+01 0.00000E+00
 -1      3019 3.11914E+01 3.39315E+01 0.00000E+00
 -1      3020 3.14703E+01 3.29149E+01 0.00000E+00
 -1      3021 3.03171E+01 3.25966E+01 0.00000E+00
 -1      3022 3.06163E+01 2.16034E+01 0.00000E+00
 -1      3023 4.33402E+01 3.95919E+01 0.00000E+00
 -1      3024 3.98117E+01 4.10861E+01 0.00000E+00
 -1      3025 4.02519E+01 3.95810E+01 0.00000E+00
 -1      3026 3.96351E+01 3.88464E+01 0.00000E+00
 -1      3027 3.83117E+01 4.10861E+01 0.00000E+00
 -1      3028 3.54000E+01 4.09295E+01 0.00000E+00
 -1      3029 3.69000E+01 4.09295E+01 0.00000E+00
 -1      3030 3.75617E+01 3.98097E+01 0.00000E+00
 -1      3031 4.66500E+01 3.99044E+01 0.00000E+00
 -1      3032 1.39608E+02 1.61875E+01 0.00000E+00
 -1      3033 1.40907E+02 1.54500E+01 0.00000E+00
 -1      3034 1.40907E+02 1.39875E+01 0.00000E+00
 -1      3035 5.41341E+01 3.37834E+01 0.00000E+00
 -1      3036 4.61731E+01 3.85858E+01 0.00000E+00
 -1      3037 1.40973E+02 1.27472E+01 0.00000E+00
 -1      3038 1.40973E+02 1.12847E+01 0.00000E+00
 -1      3039 1.39805E+02 1.10040E+01 0.00000E+00
 -1      3040 1.39674E+02 1.34847E+01 0.00000E+00
 -1      3041 5.40855E+01 2.01674E+01 0.00000E+00
 -1      3042 5.02661E+01 3.80768E+01 0.00000E+00
 -1      3043 4.21323E+01 1.41123E+01 0.00000E+00
 -1      3044 3.31989E+01 3.51109E+01 0.00000E+00
 -1      3045 3.20912E+01 1.91739E+01 0.00000E+00
 -1      3046 3.95687E+01 1.49691E+01 0.00000E+00
 -1      3047 3.99334E+01 1.40835E+01 0.00000E+00
 -1      3048 3.86955E+01 1.47552E+01 0.00000E+00
 -1      3049 4.48528E+01 1.43052E+01 0.00000E+00
 -1      3050 5.52801E+01 3.13400E+01 0.00000E+00
 -1      3051 5.25294E+01 3.58624E+01 0.00000E+00
 -1      3052 1.09635E+01 1.04636E+01 0.00000E+00
 -1      3053 3.68772E+01 1.63462E+01 0.00000E+00
 -1      3054 3.72331E+01 1.54142E+01 0.00000E+00
 -1      3055 3.57795E+01 1.61197E+01 0.00000E+00
 -1      3056 8.78718E+00 3.80644E+01 0.00000E+00
 -1      3057 3.42431E+01 1.75651E+01 0.00000E+00
 -1      3058 9.09300E+00 2.86437E+01 0.00000E+00
 -1      3059 9.09300E+00 3.01187E+01 0.00000E+00
 -1      3060 1.03920E+01 3.08563E+01 0.00000E+00
 -1      3061 1.03920E+01 2.79188E+01 0.00000E+00
 -1      3062 3.06173E+01 3.01260E+01 0.00000E+00
 -1      3063 5.51635E+01 2.31237E+01 0.00000E+00
 -1      3064 5.60613E+01 2.36680E+01 0.00000E+00
 -1      3065 5.54940E+01 2.21548E+01 0.00000E+00
 -1      3066 3.06740E+01 2.73462E+01 0.00000E+00
 -1      3067 5.22686E+01 1.82144E+01 0.00000E+00
 -1      3068 5.13149E+01 3.82765E+01 0.00000E+00
 -1      3069 2.98971E+01 2.51363E+01 0.00000E+00
 -1      3070 3.04111E+01 2.44789E+01 0.00000E+00
 -1      3071 2.95989E+01 2.35947E+01 0.00000E+00
 -1      3072 3.46500E+01 3.96305E+01 0.00000E+00
 -1      3073 3.68209E+01 3.83092E+01 0.00000E+00
 -1      3074 3.59147E+01 3.85840E+01 0.00000E+00
 -1      3075 5.67098E+01 2.51556E+01 0.00000E+00
 -1      3076 5.67896E+01 2.63214E+01 0.00000E+00
 -1      3077 1.16910E+01 1.24625E+01 0.00000E+00
 -1      3078 1.16910E+01 1.39375E+01 0.00000E+00
 -1      3079 1.59000E+01 3.83090E+01 0.00000E+00
 -1      3080 1.74000E+01 3.83090E+01 0.00000E+00
 -1      3081 1.89000E+01 3.83090E+01 0.00000E+00
 -1      3082 2.04000E+01 3.83090E+01 0.00000E+00
 -1      3083 1.81500E+01 3.70100E+01 0.00000E+00
 -1      3084 2.19000E+01 3.83090E+01 0.00000E+00
 -1      3085 2.34000E+01 3.83090E+01 0.00000E+00
 -1      3086 2.11500E+01 3.70100E+01 0.00000E+00
 -1      3087 2.49000E+01 3.83090E+01 0.00000E+00
 -1      3088 2.64000E+01 3.83090E+01 0.00000E+00
 -1      3089 2.41500E+01 3.70100E+01 0.00000E+00
 -1      3090 2.79000E+01 3.83090E+01 0.00000E+00
 -1      3091 2.94000E+01 3.83090E+01 0.00000E+00
 -1      3092 2.71500E+01 3.70100E+01 0.00000E+00
 -1      3093 5.28149E+01 3.82765E+01 0.00000E+00
 -1      3094 5.49000E+01 3.85216E+01 0.00000E+00
 -1      3095 5.64000E+01 3.85216E+01 0.00000E+00
 -1      3096 5.79000E+01 3.85216E+01 0.00000E+00
 -1      3097 5.94000E+01 3.85216E+01 0.00000E+00
 -1      3098 5.71500E+01 3.72226E+01 0.00000E+00
 -1      3099 6.09000E+01 3.85216E+01 0.00000E+00
 -1      3100 6.24000E+01 3.85216E+01 0.00000E+00
 -1      3101 6.01500E+01 3.72226E+01 0.00000E+00
 -1      3102 6.39000E+01 3.85216E+01 0.00000E+00
 -1      3103 6.54000E+01 3.85216E+01 0.00000E+00
 -1      3104 6.31500E+01 3.72226E+01 0.00000E+00
 -1      3105 6.69000E+01 3.85216E+01 0.00000E+00
 -1      3106 6.84000E+01 3.85216E+01 0.00000E+00
 -1      3107 6.61500E+01 3.72226E+01 0.00000E+00
 -1      3108 6.99000E+01 3.85216E+01 0.00000E+00
 -1      3109 7.14000E+01 3.85216E+01 0.00000E+00
 -1      3110 6.91500E+01 3.72226E+01 0.00000E+00
 -1      3111 7.29000E+01 3.85216E+01 0.00000E+00
 -1      3112 7.44000E+01 3.85216E+01 0.00000E+00
 -1      3113 7.21500E+01 3.72226E+01 0.00000E+00
 -1      3114 7.59000E+01 3.85216E+01 0.00000E+00
 -1      3115 7.74000E+01 3.85216E+01 0.00000E+00
 -1      3116 7.51500E+01 3.72226E+01 0.00000E+00
 -1      3117 7.89000E+01 3.85216E+01 0.00000E+00
 -1      3118 8.04000E+01 3.85216E+01 0.00000E+00
 -1      3119 7.81500E+01 3.72226E+01 0.00000E+00
 -1      3120 8.19000E+01 3.85216E+01 0.00000E+00
 -1      3121 8.34000E+01 3.85216E+01 0.00000E+00
 -1      3122 8.11500E+01 3.72226E+01 0.00000E+00
 -1      3123 8.49000E+01 3.85216E+01 0.00000E+00
 -1      3124 8.64000E+01 3.85216E+01 0.00000E+00
 -1      3125 8.41500E+01 3.72226E+01 0.00000E+00
 -1      3126 8.79000E+01 3.85216E+01 0.00000E+00
 -1      3127 8.94000E+01 3.85216E+01 0.00000E+00
 -1      3128 8.71500E+01 3.72226E+01 0.00000E+00
 -1      3129 9.09000E+01 3.85216E+01 0.00000E+00
 -1      3130 9.24000E+01 3.85216E+01 0.00000E+00
 -1      3131 9.01500E+01 3.72226E+01 0.00000E+00
 -1      3132 9.39000E+01 3.85216E+01 0.00000E+00
 -1      3133 9.54000E+01 3.85216E+01 0.00000E+00
 -1      3134 9.31500E+01 3.72226E+01 0.00000E+00
 -1      3135 9.69000E+01 3.85216E+01 0.00000E+00
 -1      3136 9.84000E+01 3.85216E+01 0.00000E+00
 -1      3137 9.61500E+01 3.72226E+01 0.00000E+00
 -1      3138 9.99000E+01 3.85216E+01 0.00000E+00
 -1      3139 1.01400E+02 3.85216E+01 0.00000E+00
 -1      3140 9.91500E+01 3.72226E+01 0.00000E+00
 -1      3141 1.02900E+02 3.85216E+01 0.00000E+00
 -1      3142 1.04400E+02 3.85216E+01 0.00000E+00
 -1      3143 1.02150E+02 3.72226E+01 0.00000E+00
 -1      3144 1.05900E+02 3.85216E+01 0.00000E+00
 -1      3145 1.07400E+02 3.85216E+01 0.00000E+00
 -1      3146 1.05150E+02 3.72226E+01 0.00000E+00
 -1      3147 1.08900E+02 3.85216E+01 0.00000E+00
 -1      3148 1.10400E+02 3.85216E+01 0.00000E+00
 -1      3149 1.08150E+02 3.72226E+01 0.00000E+00
 -1      3150 1.11900E+02 3.85216E+01 0.00000E+00
 -1      3151 1.13400E+02 3.85216E+01 0.00000E+00
 -1      3152 1.11150E+02 3.72226E+01 0.00000E+00
 -1      3153 1.14900E+02 3.85216E+01 0.00000E+00
 -1      3154 1.16400E+02 3.85216E+01 0.00000E+00
 -1      3155 1.14150E+02 3.72226E+01 0.00000E+00
 -1      3156 1.17900E+02 3.85216E+01 0.00000E+00
 -1      3157 1.19400E+02 3.85216E+01 0.00000E+00
 -1      3158 1.17150E+02 3.72226E+01 0.00000E+00
 -1      3159 1.20900E+02 3.85216E+01 0.00000E+00
 -1      3160 1.22400E+02 3.85216E+01 0.00000E+00
 -1      3161 1.20150E+02 3.72226E+01 0.00000E+00
 -1      3162 1.23900E+02 3.85216E+01 0.00000E+00
 -1      3163 1.25400E+02 3.85216E+01 0.00000E+00
 -1      3164 1.23150E+02 3.72226E+01 0.00000E+00
 -1      3165 1.26900E+02 3.85216E+01 0.00000E+00
 -1      3166 1.28400E+02 3.85216E+01 0.00000E+00
 -1      3167 1.26150E+02 3.72226E+01 0.00000E+00
 -1      3168 1.29900E+02 3.85216E+01 0.00000E+00
 -1      3169 1.31400E+02 3.85216E+01 0.00000E+00
 -1      3170 1.29150E+02 3.72226E+01 0.00000E+00
 -1      3171 1.32900E+02 3.85216E+01 0.00000E+00
 -1      3172 1.34400E+02 3.85216E+01 0.00000E+00
 -1      3173 1.32150E+02 3.72226E+01 0.00000E+00
 -1      3174 1.35900E+02 3.85216E+01 0.00000E+00
 -1      3175 1.37400E+02 3.85216E+01 0.00000E+00
 -1      3176 1.35150E+02 3.72226E+01 0.00000E+00
 -1      3177 1.38309E+02 2.86750E+01 0.00000E+00
 -1      3178 1.38309E+02 2.72250E+01 0.00000E+00
 -1      3179 3.47850E+01 1.05013E+01 0.00000E+00
 -1      3180 3.32850E+01 1.05013E+01 0.00000E+00
 -1      3181 3.17850E+01 1.05013E+01 0.00000E+00
 -1      3182 3.02850E+01 1.05013E+01 0.00000E+00
 -1      3183 3.25350E+01 1.18003E+01 0.00000E+00
 -1      3184 4.07850E+01 1.04787E+01 0.00000E+00
 -1      3185 3.92850E+01 1.04787E+01 0.00000E+00
 -1      3186 4.39965E+01 1.15646E+01 0.00000E+00
 -1      3187 4.24965E+01 1.15646E+01 0.00000E+00
 -1      3188 4.97850E+01 1.05013E+01 0.00000E+00
 -1      3189 4.82850E+01 1.05013E+01 0.00000E+00
 -1      3190 5.27850E+01 1.05013E+01 0.00000E+00
 -1      3191 5.12850E+01 1.05013E+01 0.00000E+00
 -1      3192 5.05350E+01 1.18003E+01 0.00000E+00
 -1      3193 5.57850E+01 1.05013E+01 0.00000E+00
 -1      3194 5.42850E+01 1.05013E+01 0.00000E+00
 -1      3195 5.35350E+01 1.18003E+01 0.00000E+00
 -1      3196 5.87850E+01 1.05013E+01 0.00000E+00
 -1      3197 5.72850E+01 1.05013E+01 0.00000E+00
 -1      3198 5.65350E+01 1.18003E+01 0.00000E+00
 -1      3199 6.17850E+01 1.05013E+01 0.00000E+00
 -1      3200 6.02850E+01 1.05013E+01 0.00000E+00
 -1      3201 5.95350E+01 1.18003E+01 0.00000E+00
 -1      3202 6.47850E+01 1.05013E+01 0.00000E+00
 -1      3203 6.32850E+01 1.05013E+01 0.00000E+00
 -1      3204 6.25350E+01 1.18003E+01 0.00000E+00
 -1      3205 6.77850E+01 1.05013E+01 0.00000E+00
 -1      3206 6.62850E+01 1.05013E+01 0.00000E+00
 -1      3207 6.55350E+01 1.18003E+01 0.00000E+00
 -1      3208 7.07850E+01 1.05013E+01 0.00000E+00
 -1      3209 6.92850E+01 1.05013E+01 0.00000E+00
 -1      3210 6.85350E+01 1.18003E+01 0.00000E+00
 -1      3211 7.37850E+01 1.05013E+01 0.00000E+00
 -1      3212 7.22850E+01 1.05013E+01 0.00000E+00
 -1      3213 7.15350E+01 1.18003E+01 0.00000E+00
 -1      3214 7.67850E+01 1.05013E+01 0.00000E+00
 -1      3215 7.52850E+01 1.05013E+01 0.00000E+00
 -1      3216 7.45350E+01 1.18003E+01 0.00000E+00
 -1      3217 7.97850E+01 1.05013E+01 0.00000E+00
 -1      3218 7.82850E+01 1.05013E+01 0.00000E+00
 -1      3219 7.75350E+01 1.18003E+01 0.00000E+00
 -1      3220 8.27850E+01 1.05013E+01 0.00000E+00
 -1      3221 8.12850E+01 1.05013E+01 0.00000E+00
 -1      3222 8.05350E+01 1.18003E+01 0.00000E+00
 -1      3223 8.57850E+01 1.05013E+01 0.00000E+00
 -1      3224 8.42850E+01 1.05013E+01 0.00000E+00
 -1      3225 8.35350E+01 1.18003E+01 0.00000E+00
 -1      3226 8.87850E+01 1.05013E+01 0.00000E+00
 -1      3227 8.72850E+01 1.05013E+01 0.00000E+00
 -1      3228 8.65350E+01 1.18003E+01 0.00000E+00
 -1      3229 9.17850E+01 1.05013E+01 0.00000E+00
 -1      3230 9.02850E+01 1.05013E+01 0.00000E+00
 -1      3231 8.95350E+01 1.18003E+01 0.00000E+00
 -1      3232 9.47850E+01 1.05013E+01 0.00000E+00
 -1      3233 9.32850E+01 1.05013E+01 0.00000E+00
 -1      3234 9.25350E+01 1.18003E+01 0.00000E+00
 -1      3235 9.77850E+01 1.05013E+01 0.00000E+00
 -1      3236 9.62850E+01 1.05013E+01 0.00000E+00
 -1      3237 9.55350E+01 1.18003E+01 0.00000E+00
 -1      3238 1.00785E+02 1.05013E+01 0.00000E+00
 -1      3239 9.92850E+01 1.05013E+01 0.00000E+00
 -1      3240 9.85350E+01 1.18003E+01 0.00000E+00
 -1      3241 1.03785E+02 1.05013E+01 0.00000E+00
 -1      3242 1.02285E+02 1.05013E+01 0.00000E+00
 -1      3243 1.01535E+02 1.18003E+01 0.00000E+00
 -1      3244 1.06785E+02 1.05013E+01 0.00000E+00
 -1      3245 1.05285E+02 1.05013E+01 0.00000E+00
 -1      3246 1.04535E+02 1.18003E+01 0.00000E+00
 -1      3247 1.09785E+02 1.05013E+01 0.00000E+00
 -1      3248 1.08285E+02 1.05013E+01 0.00000E+00
 -1      3249 1.07535E+02 1.18003E+01 0.00000E+00
 -1      3250 1.12785E+02 1.05013E+01 0.00000E+00
 -1      3251 1.11285E+02 1.05013E+01 0.00000E+00
 -1      3252 1.10535E+02 1.18003E+01 0.00000E+00
 -1      3253 1.15785E+02 1.05013E+01 0.00000E+00
 -1      3254 1.14285E+02 1.05013E+01 0.00000E+00
 -1      3255 1.13535E+02 1.18003E+01 0.00000E+00
 -1      3256 1.18785E+02 1.05013E+01 0.00000E+00
 -1      3257 1.17285E+02 1.05013E+01 0.00000E+00
 -1      3258 1.16535E+02 1.18003E+01 0.00000E+00
 -1      3259 1.21785E+02 1.05013E+01 0.00000E+00
 -1      3260 1.20285E+02 1.05013E+01 0.00000E+00
 -1      3261 1.19535E+02 1.18003E+01 0.00000E+00
 -1      3262 1.24785E+02 1.05013E+01 0.00000E+00
 -1      3263 1.23285E+02 1.05013E+01 0.00000E+00
 -1      3264 1.22535E+02 1.18003E+01 0.00000E+00
 -1      3265 1.27785E+02 1.05013E+01 0.00000E+00
 -1      3266 1.26285E+02 1.05013E+01 0.00000E+00
 -1      3267 1.25535E+02 1.18003E+01 0.00000E+00
 -1      3268 1.30785E+02 1.05013E+01 0.00000E+00
 -1      3269 1.29285E+02 1.05013E+01 0.00000E+00
 -1      3270 1.28535E+02 1.18003E+01 0.00000E+00
 -1      3271 1.33785E+02 1.05013E+01 0.00000E+00
 -1      3272 1.32285E+02 1.05013E+01 0.00000E+00
 -1      3273 1.31535E+02 1.18003E+01 0.00000E+00
 -1      3274 1.36785E+02 1.05013E+01 0.00000E+00
 -1      3275 1.35285E+02 1.05013E+01 0.00000E+00
 -1      3276 1.34535E+02 1.18003E+01 0.00000E+00
 -1      3277 1.38879E+02 1.08930E+01 0.00000E+00
 -1      3278 1.37711E+02 1.06123E+01 0.00000E+00
 -1      3279 1.36961E+02 1.19113E+01 0.00000E+00
 -1      3280 1.38813E+02 1.21333E+01 0.00000E+00
 -1      3281 1.39021E+02 3.86785E+01 0.00000E+00
 -1      3282 1.16910E+01 2.12875E+01 0.00000E+00
 -1      3283 1.16910E+01 2.27625E+01 0.00000E+00
 -1      3284 1.38309E+02 3.16250E+01 0.00000E+00
 -1      3285 1.38309E+02 3.01500E+01 0.00000E+00
 -1      3286 1.37010E+02 2.94250E+01 0.00000E+00
 -1      3287 1.38309E+02 2.57500E+01 0.00000E+00
 -1      3288 1.38309E+02 2.42750E+01 0.00000E+00
 -1      3289 1.37010E+02 2.64750E+01 0.00000E+00
 -1      3290 5.58807E+01 2.85372E+01 0.00000E+00
 -1      3291 2.93271E+01 2.18788E+01 0.00000E+00
 -1      3292 2.98305E+01 2.05449E+01 0.00000E+00
 -1      3293 3.77850E+01 1.05013E+01 0.00000E+00
 -1      3294 3.62850E+01 1.05013E+01 0.00000E+00
 -1      3295 3.55350E+01 1.18003E+01 0.00000E+00
 -1      3296 2.27850E+01 1.05013E+01 0.00000E+00
 -1      3297 2.12850E+01 1.05013E+01 0.00000E+00
 -1      3298 5.46145E+01 3.61076E+01 0.00000E+00
 -1      3299 5.35649E+01 3.69775E+01 0.00000E+00
 -1      3300 1.26488E+01 1.02017E+01 0.00000E+00
 -1      3301 1.20772E+01 1.14631E+01 0.00000E+00
 -1      3302 1.33763E+01 1.22006E+01 0.00000E+00
 -1      3303 1.41488E+01 1.02017E+01 0.00000E+00
 -1      3304 4.04208E+01 1.30264E+01 0.00000E+00
 -1      3305 4.17465E+01 1.28411E+01 0.00000E+00
 -1      3306 5.48755E+01 1.90759E+01 0.00000E+00
 -1      3307 5.53862E+01 2.05190E+01 0.00000E+00
 -1      3308 3.87052E+01 3.91994E+01 0.00000E+00
 -1      3309 1.38309E+02 3.45750E+01 0.00000E+00
 -1      3310 1.38309E+02 3.31000E+01 0.00000E+00
 -1      3311 1.37010E+02 3.23750E+01 0.00000E+00
 -1      3312 5.57248E+01 3.36893E+01 0.00000E+00
 -1      3313 5.51696E+01 3.48984E+01 0.00000E+00
 -1      3314 5.62051E+01 3.60135E+01 0.00000E+00
 -1      3315 4.57131E+01 1.05725E+01 0.00000E+00
 -1      3316 4.51746E+01 1.29349E+01 0.00000E+00
 -1      3317 4.65694E+01 1.33131E+01 0.00000E+00
 -1      3318 4.72131E+01 1.05725E+01 0.00000E+00
 -1      3319 5.20188E+01 1.69264E+01 0.00000E+00
 -1      3320 5.33250E+01 1.74363E+01 0.00000E+00
 -1      3321 2.94979E+01 3.08368E+01 0.00000E+00
 -1      3322 2.95192E+01 2.93827E+01 0.00000E+00
 -1      3323 3.28388E+01 3.63224E+01 0.00000E+00
 -1      3324 3.19845E+01 3.54614E+01 0.00000E+00
 -1      3325 3.72935E+01 3.90428E+01 0.00000E+00
 -1      3326 5.69065E+01 3.12209E+01 0.00000E+00
 -1      3327 5.63156E+01 3.24551E+01 0.00000E+00
 -1      3328 5.73511E+01 3.35701E+01 0.00000E+00
 -1      3329 1.00862E+01 3.73269E+01 0.00000E+00
 -1      3330 3.44147E+01 3.85614E+01 0.00000E+00
 -1      3331 3.09011E+01 1.90971E+01 0.00000E+00
 -1      3332 3.18726E+01 1.80016E+01 0.00000E+00
 -1      3333 3.32775E+01 1.69585E+01 0.00000E+00
 -1      3334 3.44580E+01 1.64452E+01 0.00000E+00
 -1      3335 2.95546E+01 2.80570E+01 0.00000E+00
 -1      3336 2.95899E+01 2.67313E+01 0.00000E+00
 -1      3337 2.84351E+01 2.87678E+01 0.00000E+00
 -1      3338 3.36016E+01 3.77900E+01 0.00000E+00
 -1      3339 5.69944E+01 2.77598E+01 0.00000E+00
 -1      3340 5.69847E+01 2.93284E+01 0.00000E+00
 -1      3341 3.23872E+01 3.81405E+01 0.00000E+00
 -1      3342 1.16910E+01 2.42375E+01 0.00000E+00
 -1      3343 1.16910E+01 2.57125E+01 0.00000E+00
 -1      3344 1.29900E+01 2.35000E+01 0.00000E+00
 -1      3345 1.29900E+01 1.46687E+01 0.00000E+00
 -1      3346 1.16910E+01 1.54063E+01 0.00000E+00
 -1      3347 1.16910E+01 1.68750E+01 0.00000E+00
 -1      3348 3.01372E+01 3.68415E+01 0.00000E+00
 -1      3349 3.08872E+01 3.81405E+01 0.00000E+00
 -1      3350 4.92009E+01 1.51467E+01 0.00000E+00
 -1      3351 5.02208E+01 1.50584E+01 0.00000E+00
 -1      3352 4.89515E+01 1.41975E+01 0.00000E+00
 -1      3353 4.74114E+01 1.31143E+01 0.00000E+00
 -1      3354 3.08313E+01 3.51430E+01 0.00000E+00
 -1      3355 1.16910E+01 3.30594E+01 0.00000E+00
 -1      3356 1.16910E+01 3.45281E+01 0.00000E+00
 -1      3357 1.38271E+02 3.73795E+01 0.00000E+00
 -1      3358 1.38309E+02 1.69188E+01 0.00000E+00
 -1      3359 1.38309E+02 1.54563E+01 0.00000E+00
 -1      3360 1.32152E+01 3.82007E+01 0.00000E+00
 -1      3361 1.45576E+01 3.82548E+01 0.00000E+00
 -1      3362 1.53076E+01 3.69558E+01 0.00000E+00
 -1      3363 1.37010E+02 2.35250E+01 0.00000E+00
 -1      3364 1.38309E+02 2.28000E+01 0.00000E+00
 -1      3365 1.38309E+02 2.13250E+01 0.00000E+00
 -1      3366 1.14286E+01 3.73811E+01 0.00000E+00
 -1      3367 2.82991E+01 2.31936E+01 0.00000E+00
 -1      3368 2.88131E+01 2.25362E+01 0.00000E+00
 -1      3369 2.80273E+01 2.14777E+01 0.00000E+00
 -1      3370 3.85350E+01 1.17777E+01 0.00000E+00
 -1      3371 2.95350E+01 1.18003E+01 0.00000E+00
 -1      3372 2.87850E+01 1.05013E+01 0.00000E+00
 -1      3373 2.72850E+01 1.05013E+01 0.00000E+00
 -1      3374 4.79631E+01 1.18715E+01 0.00000E+00
 -1      3375 5.43759E+01 1.65000E+01 0.00000E+00
 -1      3376 5.46257E+01 1.77880E+01 0.00000E+00
 -1      3377 5.59264E+01 1.81396E+01 0.00000E+00
 -1      3378 1.38309E+02 1.98594E+01 0.00000E+00
 -1      3379 1.38309E+02 1.83844E+01 0.00000E+00
 -1      3380 1.37010E+02 1.76531E+01 0.00000E+00
 -1      3381 1.37010E+02 2.05844E+01 0.00000E+00
 -1      3382 1.16910E+01 1.98188E+01 0.00000E+00
 -1      3383 1.29900E+01 2.05562E+01 0.00000E+00
 -1      3384 1.16910E+01 1.83500E+01 0.00000E+00
 -1      3385 5.17727E+01 1.60780E+01 0.00000E+00
 -1      3386 5.70404E+01 2.41866E+01 0.00000E+00
 -1      3387 5.80194E+01 2.47053E+01 0.00000E+00
 -1      3388 5.73709E+01 2.32177E+01 0.00000E+00
 -1      3389 1.38129E+02 3.62613E+01 0.00000E+00
 -1      3390 5.80202E+01 3.04434E+01 0.00000E+00
 -1      3391 5.78937E+01 2.71126E+01 0.00000E+00
 -1      3392 2.42850E+01 1.05013E+01 0.00000E+00
 -1      3393 2.35350E+01 1.18003E+01 0.00000E+00
 -1      3394 2.57850E+01 1.05013E+01 0.00000E+00
 -1      3395 3.48139E+01 1.55131E+01 0.00000E+00
 -1      3396 5.62841E+01 2.10633E+01 0.00000E+00
 -1      3397 1.97850E+01 1.05013E+01 0.00000E+00
 -1      3398 1.82850E+01 1.05013E+01 0.00000E+00
 -1      3399 2.05350E+01 1.18003E+01 0.00000E+00
 -1      3400 1.36830E+02 3.55363E+01 0.00000E+00
 -1      3401 2.92189E+01 3.18533E+01 0.00000E+00
 -1      3402 2.81208E+01 3.11100E+01 0.00000E+00
 -1      3403 2.89400E+01 3.28699E+01 0.00000E+00
 -1      3404 2.87777E+01 2.58471E+01 0.00000E+00
 -1      3405 1.16910E+01 3.01219E+01 0.00000E+00
 -1      3406 1.16910E+01 3.15906E+01 0.00000E+00
 -1      3407 1.29900E+01 3.23250E+01 0.00000E+00
 -1      3408 3.20875E+01 1.68817E+01 0.00000E+00
 -1      3409 3.23023E+01 1.57618E+01 0.00000E+00
 -1      3410 3.08974E+01 1.68049E+01 0.00000E+00
 -1      3411 2.96119E+01 1.93725E+01 0.00000E+00
 -1      3412 2.93934E+01 1.82002E+01 0.00000E+00
 -1      3413 2.83227E+01 1.96480E+01 0.00000E+00
 -1      3414 3.65852E+01 1.34939E+01 0.00000E+00
 -1      3415 3.76829E+01 1.37205E+01 0.00000E+00
 -1      3416 1.69669E+01 1.03515E+01 0.00000E+00
 -1      3417 1.54669E+01 1.03515E+01 0.00000E+00
 -1      3418 1.50806E+01 1.13509E+01 0.00000E+00
 -1      3419 1.77169E+01 1.16505E+01 0.00000E+00
 -1      3420 3.95475E+01 1.28124E+01 0.00000E+00
 -1      3421 2.93441E+01 3.53116E+01 0.00000E+00
 -1      3422 4.84833E+01 1.30430E+01 0.00000E+00
 -1      3423 2.04000E+01 3.57110E+01 0.00000E+00
 -1      3424 2.19000E+01 3.57110E+01 0.00000E+00
 -1      3425 2.34000E+01 3.57110E+01 0.00000E+00
 -1      3426 2.49000E+01 3.57110E+01 0.00000E+00
 -1      3427 2.26500E+01 3.44120E+01 0.00000E+00
 -1      3428 5.77051E+01 3.60135E+01 0.00000E+00
 -1      3429 5.91673E+01 2.95430E+01 0.00000E+00
 -1      3430 5.90891E+01 3.14355E+01 0.00000E+00
 -1      3431 5.94000E+01 3.59236E+01 0.00000E+00
 -1      3432 6.09000E+01 3.59236E+01 0.00000E+00
 -1      3433 6.24000E+01 3.59236E+01 0.00000E+00
 -1      3434 6.39000E+01 3.59236E+01 0.00000E+00
 -1      3435 6.16500E+01 3.46246E+01 0.00000E+00
 -1      3436 6.54000E+01 3.59236E+01 0.00000E+00
 -1      3437 6.69000E+01 3.59236E+01 0.00000E+00
 -1      3438 6.46500E+01 3.46246E+01 0.00000E+00
 -1      3439 6.84000E+01 3.59236E+01 0.00000E+00
 -1      3440 6.99000E+01 3.59236E+01 0.00000E+00
 -1      3441 6.76500E+01 3.46246E+01 0.00000E+00
 -1      3442 7.14000E+01 3.59236E+01 0.00000E+00
 -1      3443 7.29000E+01 3.59236E+01 0.00000E+00
 -1      3444 7.06500E+01 3.46246E+01 0.00000E+00
 -1      3445 7.44000E+01 3.59236E+01 0.00000E+00
 -1      3446 7.59000E+01 3.59236E+01 0.00000E+00
 -1      3447 7.36500E+01 3.46246E+01 0.00000E+00
 -1      3448 7.74000E+01 3.59236E+01 0.00000E+00
 -1      3449 7.89000E+01 3.59236E+01 0.00000E+00
 -1      3450 7.66500E+01 3.46246E+01 0.00000E+00
 -1      3451 8.04000E+01 3.59236E+01 0.00000E+00
 -1      3452 8.19000E+01 3.59236E+01 0.00000E+00
 -1      3453 7.96500E+01 3.46246E+01 0.00000E+00
 -1      3454 8.34000E+01 3.59236E+01 0.00000E+00
 -1      3455 8.49000E+01 3.59236E+01 0.00000E+00
 -1      3456 8.26500E+01 3.46246E+01 0.00000E+00
 -1      3457 8.64000E+01 3.59236E+01 0.00000E+00
 -1      3458 8.79000E+01 3.59236E+01 0.00000E+00
 -1      3459 8.56500E+01 3.46246E+01 0.00000E+00
 -1      3460 8.94000E+01 3.59236E+01 0.00000E+00
 -1      3461 9.09000E+01 3.59236E+01 0.00000E+00
 -1      3462 8.86500E+01 3.46246E+01 0.00000E+00
 -1      3463 9.24000E+01 3.59236E+01 0.00000E+00
 -1      3464 9.39000E+01 3.59236E+01 0.00000E+00
 -1      3465 9.16500E+01 3.46246E+01 0.00000E+00
 -1      3466 9.54000E+01 3.59236E+01 0.00000E+00
 -1      3467 9.69000E+01 3.59236E+01 0.00000E+00
 -1      3468 9.46500E+01 3.46246E+01 0.00000E+00
 -1      3469 9.84000E+01 3.59236E+01 0.00000E+00
 -1      3470 9.99000E+01 3.59236E+01 0.00000E+00
 -1      3471 9.76500E+01 3.46246E+01 0.00000E+00
 -1      3472 1.01400E+02 3.59236E+01 0.00000E+00
 -1      3473 1.02900E+02 3.59236E+01 0.00000E+00
 -1      3474 1.00650E+02 3.46246E+01 0.00000E+00
 -1      3475 1.04400E+02 3.59236E+01 0.00000E+00
 -1      3476 1.05900E+02 3.59236E+01 0.00000E+00
 -1      3477 1.03650E+02 3.46246E+01 0.00000E+00
 -1      3478 1.07400E+02 3.59236E+01 0.00000E+00
 -1      3479 1.08900E+02 3.59236E+01 0.00000E+00
 -1      3480 1.06650E+02 3.46246E+01 0.00000E+00
 -1      3481 1.10400E+02 3.59236E+01 0.00000E+00
 -1      3482 1.11900E+02 3.59236E+01 0.00000E+00
 -1      3483 1.09650E+02 3.46246E+01 0.00000E+00
 -1      3484 1.13400E+02 3.59236E+01 0.00000E+00
 -1      3485 1.14900E+02 3.59236E+01 0.00000E+00
 -1      3486 1.12650E+02 3.46246E+01 0.00000E+00
 -1      3487 1.16400E+02 3.59236E+01 0.00000E+00
 -1      3488 1.17900E+02 3.59236E+01 0.00000E+00
 -1      3489 1.15650E+02 3.46246E+01 0.00000E+00
 -1      3490 1.19400E+02 3.59236E+01 0.00000E+00
 -1      3491 1.20900E+02 3.59236E+01 0.00000E+00
 -1      3492 1.18650E+02 3.46246E+01 0.00000E+00
 -1      3493 1.22400E+02 3.59236E+01 0.00000E+00
 -1      3494 1.23900E+02 3.59236E+01 0.00000E+00
 -1      3495 1.21650E+02 3.46246E+01 0.00000E+00
 -1      3496 1.25400E+02 3.59236E+01 0.00000E+00
 -1      3497 1.26900E+02 3.59236E+01 0.00000E+00
 -1      3498 1.24650E+02 3.46246E+01 0.00000E+00
 -1      3499 1.28400E+02 3.59236E+01 0.00000E+00
 -1      3500 1.29900E+02 3.59236E+01 0.00000E+00
 -1      3501 1.27650E+02 3.46246E+01 0.00000E+00
 -1      3502 1.31400E+02 3.59236E+01 0.00000E+00
 -1      3503 1.32900E+02 3.59236E+01 0.00000E+00
 -1      3504 1.30650E+02 3.46246E+01 0.00000E+00
 -1      3505 1.34115E+02 3.57300E+01 0.00000E+00
 -1      3506 1.35615E+02 3.57300E+01 0.00000E+00
 -1      3507 1.35795E+02 3.40437E+01 0.00000E+00
 -1      3508 1.33365E+02 3.44310E+01 0.00000E+00
 -1      3509 6.02850E+01 1.30992E+01 0.00000E+00
 -1      3510 5.87850E+01 1.30992E+01 0.00000E+00
 -1      3511 6.32850E+01 1.30992E+01 0.00000E+00
 -1      3512 6.17850E+01 1.30992E+01 0.00000E+00
 -1      3513 6.10350E+01 1.43982E+01 0.00000E+00
 -1      3514 6.62850E+01 1.30992E+01 0.00000E+00
 -1      3515 6.47850E+01 1.30992E+01 0.00000E+00
 -1      3516 6.40350E+01 1.43982E+01 0.00000E+00
 -1      3517 6.92850E+01 1.30992E+01 0.00000E+00
 -1      3518 6.77850E+01 1.30992E+01 0.00000E+00
 -1      3519 6.70350E+01 1.43982E+01 0.00000E+00
 -1      3520 7.22850E+01 1.30992E+01 0.00000E+00
 -1      3521 7.07850E+01 1.30992E+01 0.00000E+00
 -1      3522 7.00350E+01 1.43982E+01 0.00000E+00
 -1      3523 7.52850E+01 1.30992E+01 0.00000E+00
 -1      3524 7.37850E+01 1.30992E+01 0.00000E+00
 -1      3525 7.30350E+01 1.43982E+01 0.00000E+00
 -1      3526 7.82850E+01 1.30992E+01 0.00000E+00
 -1      3527 7.67850E+01 1.30992E+01 0.00000E+00
 -1      3528 7.60350E+01 1.43982E+01 0.00000E+00
 -1      3529 8.12850E+01 1.30992E+01 0.00000E+00
 -1      3530 7.97850E+01 1.30992E+01 0.00000E+00
 -1      3531 7.90350E+01 1.43982E+01 0.00000E+00
 -1      3532 8.42850E+01 1.30992E+01 0.00000E+00
 -1      3533 8.27850E+01 1.30992E+01 0.00000E+00
 -1      3534 8.20350E+01 1.43982E+01 0.00000E+00
 -1      3535 8.72850E+01 1.30992E+01 0.00000E+00
 -1      3536 8.57850E+01 1.30992E+01 0.00000E+00
 -1      3537 8.50350E+01 1.43982E+01 0.00000E+00
 -1      3538 9.02850E+01 1.30992E+01 0.00000E+00
 -1      3539 8.87850E+01 1.30992E+01 0.00000E+00
 -1      3540 8.80350E+01 1.43982E+01 0.00000E+00
 -1      3541 9.32850E+01 1.30992E+01 0.00000E+00
 -1      3542 9.17850E+01 1.30992E+01 0.00000E+00
 -1      3543 9.10350E+01 1.43982E+01 0.00000E+00
 -1      3544 9.62850E+01 1.30992E+01 0.00000E+00
 -1      3545 9.47850E+01 1.30992E+01 0.00000E+00
 -1      3546 9.40350E+01 1.43982E+01 0.00000E+00
 -1      3547 9.92850E+01 1.30992E+01 0.00000E+00
 -1      3548 9.77850E+01 1.30992E+01 0.00000E+00
 -1      3549 9.70350E+01 1.43982E+01 0.00000E+00
 -1      3550 1.02285E+02 1.30992E+01 0.00000E+00
 -1      3551 1.00785E+02 1.30992E+01 0.00000E+00
 -1      3552 1.00035E+02 1.43982E+01 0.00000E+00
 -1      3553 1.05285E+02 1.30992E+01 0.00000E+00
 -1      3554 1.03785E+02 1.30992E+01 0.00000E+00
 -1      3555 1.03035E+02 1.43982E+01 0.00000E+00
 -1      3556 1.08285E+02 1.30992E+01 0.00000E+00
 -1      3557 1.06785E+02 1.30992E+01 0.00000E+00
 -1      3558 1.06035E+02 1.43982E+01 0.00000E+00
 -1      3559 1.11285E+02 1.30992E+01 0.00000E+00
 -1      3560 1.09785E+02 1.30992E+01 0.00000E+00
 -1      3561 1.09035E+02 1.43982E+01 0.00000E+00
 -1      3562 1.14285E+02 1.30992E+01 0.00000E+00
 -1      3563 1.12785E+02 1.30992E+01 0.00000E+00
 -1      3564 1.12035E+02 1.43982E+01 0.00000E+00
 -1      3565 1.17285E+02 1.30992E+01 0.00000E+00
 -1      3566 1.15785E+02 1.30992E+01 0.00000E+00
 -1      3567 1.15035E+02 1.43982E+01 0.00000E+00
 -1      3568 1.20285E+02 1.30992E+01 0.00000E+00
 -1      3569 1.18785E+02 1.30992E+01 0.00000E+00
 -1      3570 1.18035E+02 1.43982E+01 0.00000E+00
 -1      3571 1.23285E+02 1.30992E+01 0.00000E+00
 -1      3572 1.21785E+02 1.30992E+01 0.00000E+00
 -1      3573 1.21035E+02 1.43982E+01 0.00000E+00
 -1      3574 1.26285E+02 1.30992E+01 0.00000E+00
 -1      3575 1.24785E+02 1.30992E+01 0.00000E+00
 -1      3576 1.24035E+02 1.43982E+01 0.00000E+00
 -1      3577 1.29285E+02 1.30992E+01 0.00000E+00
 -1      3578 1.27785E+02 1.30992E+01 0.00000E+00
 -1      3579 1.27035E+02 1.43982E+01 0.00000E+00
 -1      3580 1.32285E+02 1.30992E+01 0.00000E+00
 -1      3581 1.30785E+02 1.30992E+01 0.00000E+00
 -1      3582 1.30035E+02 1.43982E+01 0.00000E+00
 -1      3583 1.35285E+02 1.30992E+01 0.00000E+00
 -1      3584 1.33785E+02 1.30992E+01 0.00000E+00
 -1      3585 1.33035E+02 1.43982E+01 0.00000E+00
 -1      3586 4.95032E+01 1.29547E+01 0.00000E+00
 -1      3587 1.35711E+02 3.01625E+01 0.00000E+00
 -1      3588 1.35711E+02 2.86875E+01 0.00000E+00
 -1      3589 1.38528E+02 1.44149E+01 0.00000E+00
 -1      3590 1.38594E+02 1.31746E+01 0.00000E+00
 -1      3591 1.37668E+02 1.30636E+01 0.00000E+00
 -1      3592 1.37229E+02 1.51462E+01 0.00000E+00
 -1      3593 1.35711E+02 2.72125E+01 0.00000E+00
 -1      3594 1.35711E+02 2.57375E+01 0.00000E+00
 -1      3595 1.34412E+02 2.79500E+01 0.00000E+00
 -1      3596 1.21786E+01 3.60821E+01 0.00000E+00
 -1      3597 3.50852E+01 1.34939E+01 0.00000E+00
 -1      3598 5.15233E+01 1.51288E+01 0.00000E+00
 -1      3599 5.28257E+01 1.51992E+01 0.00000E+00
 -1      3600 5.12739E+01 1.41796E+01 0.00000E+00
 -1      3601 1.46944E+01 1.23503E+01 0.00000E+00
 -1      3602 1.43081E+01 1.33498E+01 0.00000E+00
 -1      3603 1.60125E+01 1.25001E+01 0.00000E+00
 -1      3604 3.37637E+01 1.38194E+01 0.00000E+00
 -1      3605 1.16910E+01 2.71844E+01 0.00000E+00
 -1      3606 1.16910E+01 2.86531E+01 0.00000E+00
 -1      3607 1.29900E+01 2.93875E+01 0.00000E+00
 -1      3608 5.38057E+01 1.30251E+01 0.00000E+00
 -1      3609 5.23057E+01 1.30251E+01 0.00000E+00
 -1      3610 3.22637E+01 1.38194E+01 0.00000E+00
 -1      3611 1.34776E+01 3.53477E+01 0.00000E+00
 -1      3612 2.76174E+01 2.64507E+01 0.00000E+00
 -1      3613 2.79246E+01 2.48557E+01 0.00000E+00
 -1      3614 1.74000E+01 3.57110E+01 0.00000E+00
 -1      3615 1.89000E+01 3.57110E+01 0.00000E+00
 -1      3616 1.96500E+01 3.44120E+01 0.00000E+00
 -1      3617 5.87232E+01 2.62607E+01 0.00000E+00
 -1      3618 5.89280E+01 2.76990E+01 0.00000E+00
 -1      3619 2.74764E+01 2.94055E+01 0.00000E+00
 -1      3620 2.75118E+01 2.80798E+01 0.00000E+00
 -1      3621 1.35753E+02 3.28406E+01 0.00000E+00
 -1      3622 1.35753E+02 3.13656E+01 0.00000E+00
 -1      3623 1.34454E+02 3.06281E+01 0.00000E+00
 -1      3624 1.34538E+02 3.30342E+01 0.00000E+00
 -1      3625 5.90460E+01 3.34803E+01 0.00000E+00
 -1      3626 5.84551E+01 3.47145E+01 0.00000E+00
 -1      3627 5.73367E+01 2.01725E+01 0.00000E+00
 -1      3628 5.74445E+01 2.18083E+01 0.00000E+00
 -1      3629 2.76980E+01 3.57892E+01 0.00000E+00
 -1      3630 2.83920E+01 3.40907E+01 0.00000E+00
 -1      3631 2.72939E+01 3.33475E+01 0.00000E+00
 -1      3632 2.61980E+01 3.57892E+01 0.00000E+00
 -1      3633 1.43081E+01 1.48185E+01 0.00000E+00
 -1      3634 5.99968E+01 2.86911E+01 0.00000E+00
 -1      3635 1.29900E+01 1.76125E+01 0.00000E+00
 -1      3636 2.54480E+01 3.44902E+01 0.00000E+00
 -1      3637 2.71388E+01 2.37972E+01 0.00000E+00
 -1      3638 1.47676E+01 3.55023E+01 0.00000E+00
 -1      3639 1.61100E+01 3.55564E+01 0.00000E+00
 -1      3640 1.68600E+01 3.42574E+01 0.00000E+00
 -1      3641 1.42800E+01 3.39483E+01 0.00000E+00
 -1      3642 1.35711E+02 2.42625E+01 0.00000E+00
 -1      3643 1.35711E+02 2.27875E+01 0.00000E+00
 -1      3644 1.34412E+02 2.50000E+01 0.00000E+00
 -1      3645 3.10736E+01 1.37426E+01 0.00000E+00
 -1      3646 2.95736E+01 1.37426E+01 0.00000E+00
 -1      3647 5.41265E+01 1.55508E+01 0.00000E+00
 -1      3648 5.54272E+01 1.59024E+01 0.00000E+00
 -1      3649 5.38771E+01 1.46016E+01 0.00000E+00
 -1      3650 5.10032E+01 1.29547E+01 0.00000E+00
 -1      3651 1.35773E+02 1.52929E+01 0.00000E+00
 -1      3652 1.35992E+02 1.42516E+01 0.00000E+00
 -1      3653 1.36742E+02 1.29526E+01 0.00000E+00
 -1      3654 6.01931E+01 3.25798E+01 0.00000E+00
 -1      3655 5.84235E+01 2.23269E+01 0.00000E+00
 -1      3656 2.65350E+01 1.18003E+01 0.00000E+00
 -1      3657 3.80475E+01 1.28349E+01 0.00000E+00
 -1      3658 1.42800E+01 3.24796E+01 0.00000E+00
 -1      3659 1.55700E+01 3.26341E+01 0.00000E+00
 -1      3660 1.42800E+01 3.10108E+01 0.00000E+00
 -1      3661 1.35630E+02 1.67929E+01 0.00000E+00
 -1      3662 1.34393E+02 1.58983E+01 0.00000E+00
 -1      3663 2.71975E+01 3.04221E+01 0.00000E+00
 -1      3664 2.62742E+01 2.97342E+01 0.00000E+00
 -1      3665 2.69185E+01 3.14387E+01 0.00000E+00
 -1      3666 1.35630E+02 1.82585E+01 0.00000E+00
 -1      3667 2.12850E+01 1.30992E+01 0.00000E+00
 -1      3668 1.97850E+01 1.30992E+01 0.00000E+00
 -1      3669 1.29900E+01 2.64469E+01 0.00000E+00
 -1      3670 2.72947E+01 2.09628E+01 0.00000E+00
 -1      3671 2.78087E+01 2.03054E+01 0.00000E+00
 -1      3672 2.75902E+01 1.91331E+01 0.00000E+00
 -1      3673 5.51064E+01 1.33767E+01 0.00000E+00
 -1      3674 5.70767E+01 1.72483E+01 0.00000E+00
 -1      3675 5.73266E+01 1.85362E+01 0.00000E+00
 -1      3676 5.66064E+01 1.33767E+01 0.00000E+00
 -1      3677 1.42890E+01 2.27625E+01 0.00000E+00
 -1      3678 1.42890E+01 2.42375E+01 0.00000E+00
 -1      3679 2.66588E+01 2.70885E+01 0.00000E+00
 -1      3680 5.90538E+01 2.52918E+01 0.00000E+00
 -1      3681 6.00881E+01 2.58782E+01 0.00000E+00
 -1      3682 5.93843E+01 2.43228E+01 0.00000E+00
 -1      3683 2.96082E+01 1.70803E+01 0.00000E+00
 -1      3684 2.98231E+01 1.59604E+01 0.00000E+00
 -1      3685 2.83190E+01 1.73557E+01 0.00000E+00
 -1      3686 5.84870E+01 1.92812E+01 0.00000E+00
 -1      3687 1.42890E+01 1.98250E+01 0.00000E+00
 -1      3688 1.42890E+01 2.12938E+01 0.00000E+00
 -1      3689 1.55880E+01 2.20313E+01 0.00000E+00
 -1      3690 2.42850E+01 1.30992E+01 0.00000E+00
 -1      3691 2.27850E+01 1.30992E+01 0.00000E+00
 -1      3692 2.20350E+01 1.43982E+01 0.00000E+00
 -1      3693 5.73564E+01 1.46757E+01 0.00000E+00
 -1      3694 2.19000E+01 3.31130E+01 0.00000E+00
 -1      3695 2.34000E+01 3.31130E+01 0.00000E+00
 -1      3696 6.09769E+01 2.76264E+01 0.00000E+00
 -1      3697 6.12162E+01 2.94704E+01 0.00000E+00
 -1      3698 1.58860E+01 1.50773E+01 0.00000E+00
 -1      3699 1.45679E+01 1.63963E+01 0.00000E+00
 -1      3700 1.45679E+01 1.78713E+01 0.00000E+00
 -1      3701 2.82845E+01 1.40180E+01 0.00000E+00
 -1      3702 6.39000E+01 3.33256E+01 0.00000E+00
 -1      3703 6.54000E+01 3.33256E+01 0.00000E+00
 -1      3704 6.69000E+01 3.33256E+01 0.00000E+00
 -1      3705 6.84000E+01 3.33256E+01 0.00000E+00
 -1      3706 6.61500E+01 3.20266E+01 0.00000E+00
 -1      3707 6.99000E+01 3.33256E+01 0.00000E+00
 -1      3708 7.14000E+01 3.33256E+01 0.00000E+00
 -1      3709 6.91500E+01 3.20266E+01 0.00000E+00
 -1      3710 7.29000E+01 3.33256E+01 0.00000E+00
 -1      3711 7.44000E+01 3.33256E+01 0.00000E+00
 -1      3712 7.21500E+01 3.20266E+01 0.00000E+00
 -1      3713 7.59000E+01 3.33256E+01 0.00000E+00
 -1      3714 7.74000E+01 3.33256E+01 0.00000E+00
 -1      3715 7.51500E+01 3.20266E+01 0.00000E+00
 -1      3716 7.89000E+01 3.33256E+01 0.00000E+00
 -1      3717 8.04000E+01 3.33256E+01 0.00000E+00
 -1      3718 7.81500E+01 3.20266E+01 0.00000E+00
 -1      3719 8.19000E+01 3.33256E+01 0.00000E+00
 -1      3720 8.34000E+01 3.33256E+01 0.00000E+00
 -1      3721 8.11500E+01 3.20266E+01 0.00000E+00
 -1      3722 8.49000E+01 3.33256E+01 0.00000E+00
 -1      3723 8.64000E+01 3.33256E+01 0.00000E+00
 -1      3724 8.41500E+01 3.20266E+01 0.00000E+00
 -1      3725 8.79000E+01 3.33256E+01 0.00000E+00
 -1      3726 8.94000E+01 3.33256E+01 0.00000E+00
 -1      3727 8.71500E+01 3.20266E+01 0.00000E+00
 -1      3728 9.09000E+01 3.33256E+01 0.00000E+00
 -1      3729 9.24000E+01 3.33256E+01 0.00000E+00
 -1      3730 9.01500E+01 3.20266E+01 0.00000E+00
 -1      3731 9.39000E+01 3.33256E+01 0.00000E+00
 -1      3732 9.54000E+01 3.33256E+01 0.00000E+00
 -1      3733 9.31500E+01 3.20266E+01 0.00000E+00
 -1      3734 9.69000E+01 3.33256E+01 0.00000E+00
 -1      3735 9.84000E+01 3.33256E+01 0.00000E+00
 -1      3736 9.61500E+01 3.20266E+01 0.00000E+00
 -1      3737 9.99000E+01 3.33256E+01 0.00000E+00
 -1      3738 1.01400E+02 3.33256E+01 0.00000E+00
 -1      3739 9.91500E+01 3.20266E+01 0.00000E+00
 -1      3740 1.02900E+02 3.33256E+01 0.00000E+00
 -1      3741 1.04400E+02 3.33256E+01 0.00000E+00
 -1      3742 1.02150E+02 3.20266E+01 0.00000E+00
 -1      3743 1.05900E+02 3.33256E+01 0.00000E+00
 -1      3744 1.07400E+02 3.33256E+01 0.00000E+00
 -1      3745 1.05150E+02 3.20266E+01 0.00000E+00
 -1      3746 1.08900E+02 3.33256E+01 0.00000E+00
 -1      3747 1.10400E+02 3.33256E+01 0.00000E+00
 -1      3748 1.08150E+02 3.20266E+01 0.00000E+00
 -1      3749 1.11900E+02 3.33256E+01 0.00000E+00
 -1      3750 1.13400E+02 3.33256E+01 0.00000E+00
 -1      3751 1.11150E+02 3.20266E+01 0.00000E+00
 -1      3752 1.14900E+02 3.33256E+01 0.00000E+00
 -1      3753 1.16400E+02 3.33256E+01 0.00000E+00
 -1      3754 1.14150E+02 3.20266E+01 0.00000E+00
 -1      3755 1.17900E+02 3.33256E+01 0.00000E+00
 -1      3756 1.19400E+02 3.33256E+01 0.00000E+00
 -1      3757 1.17150E+02 3.20266E+01 0.00000E+00
 -1      3758 1.20900E+02 3.33256E+01 0.00000E+00
 -1      3759 1.22400E+02 3.33256E+01 0.00000E+00
 -1      3760 1.20150E+02 3.20266E+01 0.00000E+00
 -1      3761 1.23900E+02 3.33256E+01 0.00000E+00
 -1      3762 1.25400E+02 3.33256E+01 0.00000E+00
 -1      3763 1.23150E+02 3.20266E+01 0.00000E+00
 -1      3764 1.26900E+02 3.33256E+01 0.00000E+00
 -1      3765 1.28400E+02 3.33256E+01 0.00000E+00
 -1      3766 1.26150E+02 3.20266E+01 0.00000E+00
 -1      3767 1.29900E+02 3.33256E+01 0.00000E+00
 -1      3768 1.31400E+02 3.33256E+01 0.00000E+00
 -1      3769 1.29150E+02 3.20266E+01 0.00000E+00
 -1      3770 1.32361E+02 3.32767E+01 0.00000E+00
 -1      3771 1.33577E+02 3.30831E+01 0.00000E+00
 -1      3772 1.33535E+02 3.18800E+01 0.00000E+00
 -1      3773 1.31611E+02 3.19777E+01 0.00000E+00
 -1      3774 6.77850E+01 1.56973E+01 0.00000E+00
 -1      3775 6.62850E+01 1.56973E+01 0.00000E+00
 -1      3776 1.68600E+01 3.27887E+01 0.00000E+00
 -1      3777 1.81500E+01 3.29432E+01 0.00000E+00
 -1      3778 1.68600E+01 3.13199E+01 0.00000E+00
 -1      3779 1.35711E+02 2.13219E+01 0.00000E+00
 -1      3780 1.35711E+02 1.98563E+01 0.00000E+00
 -1      3781 1.34412E+02 2.20594E+01 0.00000E+00
 -1      3782 6.17850E+01 1.56973E+01 0.00000E+00
 -1      3783 6.02850E+01 1.56973E+01 0.00000E+00
 -1      3784 7.07850E+01 1.56973E+01 0.00000E+00
 -1      3785 6.92850E+01 1.56973E+01 0.00000E+00
 -1      3786 6.85350E+01 1.69963E+01 0.00000E+00
 -1      3787 7.37850E+01 1.56973E+01 0.00000E+00
 -1      3788 7.22850E+01 1.56973E+01 0.00000E+00
 -1      3789 7.15350E+01 1.69963E+01 0.00000E+00
 -1      3790 7.67850E+01 1.56973E+01 0.00000E+00
 -1      3791 7.52850E+01 1.56973E+01 0.00000E+00
 -1      3792 7.45350E+01 1.69963E+01 0.00000E+00
 -1      3793 7.97850E+01 1.56973E+01 0.00000E+00
 -1      3794 7.82850E+01 1.56973E+01 0.00000E+00
 -1      3795 7.75350E+01 1.69963E+01 0.00000E+00
 -1      3796 8.27850E+01 1.56973E+01 0.00000E+00
 -1      3797 8.12850E+01 1.56973E+01 0.00000E+00
 -1      3798 8.05350E+01 1.69963E+01 0.00000E+00
 -1      3799 8.57850E+01 1.56973E+01 0.00000E+00
 -1      3800 8.42850E+01 1.56973E+01 0.00000E+00
 -1      3801 8.35350E+01 1.69963E+01 0.00000E+00
 -1      3802 8.87850E+01 1.56973E+01 0.00000E+00
 -1      3803 8.72850E+01 1.56973E+01 0.00000E+00
 -1      3804 8.65350E+01 1.69963E+01 0.00000E+00
 -1      3805 9.17850E+01 1.56973E+01 0.00000E+00
 -1      3806 9.02850E+01 1.56973E+01 0.00000E+00
 -1      3807 8.95350E+01 1.69963E+01 0.00000E+00
 -1      3808 9.47850E+01 1.56973E+01 0.00000E+00
 -1      3809 9.32850E+01 1.56973E+01 0.00000E+00
 -1      3810 9.25350E+01 1.69963E+01 0.00000E+00
 -1      3811 9.77850E+01 1.56973E+01 0.00000E+00
 -1      3812 9.62850E+01 1.56973E+01 0.00000E+00
 -1      3813 9.55350E+01 1.69963E+01 0.00000E+00
 -1      3814 1.00785E+02 1.56973E+01 0.00000E+00
 -1      3815 9.92850E+01 1.56973E+01 0.00000E+00
 -1      3816 9.85350E+01 1.69963E+01 0.00000E+00
 -1      3817 1.03785E+02 1.56973E+01 0.00000E+00
 -1      3818 1.02285E+02 1.56973E+01 0.00000E+00
 -1      3819 1.01535E+02 1.69963E+01 0.00000E+00
 -1      3820 1.06785E+02 1.56973E+01 0.00000E+00
 -1      3821 1.05285E+02 1.56973E+01 0.00000E+00
 -1      3822 1.04535E+02 1.69963E+01 0.00000E+00
 -1      3823 1.09785E+02 1.56973E+01 0.00000E+00
 -1      3824 1.08285E+02 1.56973E+01 0.00000E+00
 -1      3825 1.07535E+02 1.69963E+01 0.00000E+00
 -1      3826 1.12785E+02 1.56973E+01 0.00000E+00
 -1      3827 1.11285E+02 1.56973E+01 0.00000E+00
 -1      3828 1.10535E+02 1.69963E+01 0.00000E+00
 -1      3829 1.15785E+02 1.56973E+01 0.00000E+00
 -1      3830 1.14285E+02 1.56973E+01 0.00000E+00
 -1      3831 1.13535E+02 1.69963E+01 0.00000E+00
 -1      3832 1.18785E+02 1.56973E+01 0.00000E+00
 -1      3833 1.17285E+02 1.56973E+01 0.00000E+00
 -1      3834 1.16535E+02 1.69963E+01 0.00000E+00
 -1      3835 1.21785E+02 1.56973E+01 0.00000E+00
 -1      3836 1.20285E+02 1.56973E+01 0.00000E+00
 -1      3837 1.19535E+02 1.69963E+01 0.00000E+00
 -1      3838 1.24785E+02 1.56973E+01 0.00000E+00
 -1      3839 1.23285E+02 1.56973E+01 0.00000E+00
 -1      3840 1.22535E+02 1.69963E+01 0.00000E+00
 -1      3841 1.27785E+02 1.56973E+01 0.00000E+00
 -1      3842 1.26285E+02 1.56973E+01 0.00000E+00
 -1      3843 1.25535E+02 1.69963E+01 0.00000E+00
 -1      3844 1.30785E+02 1.56973E+01 0.00000E+00
 -1      3845 1.29285E+02 1.56973E+01 0.00000E+00
 -1      3846 1.28535E+02 1.69963E+01 0.00000E+00
 -1      3847 1.32893E+02 1.58983E+01 0.00000E+00
 -1      3848 1.33113E+02 2.86875E+01 0.00000E+00
 -1      3849 1.33113E+02 2.72125E+01 0.00000E+00
 -1      3850 5.95314E+01 2.15039E+01 0.00000E+00
 -1      3851 5.94579E+01 2.29134E+01 0.00000E+00
 -1      3852 6.04922E+01 2.34999E+01 0.00000E+00
 -1      3853 6.14546E+01 3.10251E+01 0.00000E+00
 -1      3854 6.14116E+01 3.30699E+01 0.00000E+00
 -1      3855 6.29116E+01 3.30699E+01 0.00000E+00
 -1      3856 6.24347E+01 2.99604E+01 0.00000E+00
 -1      3857 2.57881E+01 2.43662E+01 0.00000E+00
 -1      3858 2.61625E+01 2.27041E+01 0.00000E+00
 -1      3859 1.69946E+01 1.28642E+01 0.00000E+00
 -1      3860 1.66083E+01 1.38636E+01 0.00000E+00
 -1      3861 1.68681E+01 1.54413E+01 0.00000E+00
 -1      3862 1.83127E+01 1.30139E+01 0.00000E+00
 -1      3863 1.42890E+01 2.57094E+01 0.00000E+00
 -1      3864 1.42890E+01 2.71812E+01 0.00000E+00
 -1      3865 1.55880E+01 2.49719E+01 0.00000E+00
 -1      3866 1.42845E+01 2.83617E+01 0.00000E+00
 -1      3867 1.42845E+01 2.98304E+01 0.00000E+00
 -1      3868 1.55745E+01 2.99850E+01 0.00000E+00
 -1      3869 1.55835E+01 2.76242E+01 0.00000E+00
 -1      3870 6.47850E+01 1.56973E+01 0.00000E+00
 -1      3871 6.32850E+01 1.56973E+01 0.00000E+00
 -1      3872 6.55350E+01 1.69963E+01 0.00000E+00
 -1      3873 2.54157E+01 2.78258E+01 0.00000E+00
 -1      3874 2.55214E+01 2.61967E+01 0.00000E+00
 -1      3875 1.92750E+01 3.30281E+01 0.00000E+00
 -1      3876 2.07750E+01 3.30281E+01 0.00000E+00
 -1      3877 2.15250E+01 3.17291E+01 0.00000E+00
 -1      3878 1.92750E+01 3.15594E+01 0.00000E+00
 -1      3879 1.34331E+02 1.89960E+01 0.00000E+00
 -1      3880 2.70347E+01 1.35586E+01 0.00000E+00
 -1      3881 2.55347E+01 1.35586E+01 0.00000E+00
 -1      3882 2.47847E+01 1.48576E+01 0.00000E+00
 -1      3883 2.72842E+01 1.57764E+01 0.00000E+00
 -1      3884 2.59093E+01 3.35748E+01 0.00000E+00
 -1      3885 2.64572E+01 3.23540E+01 0.00000E+00
 -1      3886 2.55339E+01 3.16660E+01 0.00000E+00
 -1      3887 2.46113E+01 3.34967E+01 0.00000E+00
 -1      3888 1.32143E+02 1.71973E+01 0.00000E+00
 -1      3889 2.45932E+01 2.21007E+01 0.00000E+00
 -1      3890 2.59440E+01 2.15317E+01 0.00000E+00
 -1      3891 2.57254E+01 2.03594E+01 0.00000E+00
 -1      3892 1.58669E+01 1.86088E+01 0.00000E+00
 -1      3893 2.38613E+01 3.21977E+01 0.00000E+00
 -1      3894 1.90627E+01 1.43129E+01 0.00000E+00
 -1      3895 1.68870E+01 2.12969E+01 0.00000E+00
 -1      3896 1.68870E+01 2.27656E+01 0.00000E+00
 -1      3897 6.36616E+01 3.17709E+01 0.00000E+00
 -1      3898 1.32304E+02 2.03927E+01 0.00000E+00
 -1      3899 1.32223E+02 1.87950E+01 0.00000E+00
 -1      3900 1.30116E+02 1.85940E+01 0.00000E+00
 -1      3901 5.76058E+01 1.56250E+01 0.00000E+00
 -1      3902 6.25350E+01 1.69963E+01 0.00000E+00
 -1      3903 1.81860E+01 2.35031E+01 0.00000E+00
 -1      3904 1.68870E+01 2.42375E+01 0.00000E+00
 -1      3905 1.68870E+01 2.57094E+01 0.00000E+00
 -1      3906 5.90059E+01 1.60216E+01 0.00000E+00
 -1      3907 2.48578E+01 2.98590E+01 0.00000E+00
 -1      3908 2.51368E+01 2.88424E+01 0.00000E+00
 -1      3909 2.39994E+01 2.79507E+01 0.00000E+00
 -1      3910 2.27850E+01 1.56973E+01 0.00000E+00
 -1      3911 2.12850E+01 1.56973E+01 0.00000E+00
 -1      3912 1.33113E+02 2.57375E+01 0.00000E+00
 -1      3913 1.33113E+02 2.42625E+01 0.00000E+00
 -1      3914 1.31814E+02 2.64750E+01 0.00000E+00
 -1      3915 2.05627E+01 1.69109E+01 0.00000E+00
 -1      3916 1.98127E+01 1.56119E+01 0.00000E+00
 -1      3917 1.83404E+01 1.55266E+01 0.00000E+00
 -1      3918 2.68544E+01 1.80163E+01 0.00000E+00
 -1      3919 2.70693E+01 1.68963E+01 0.00000E+00
 -1      3920 2.58196E+01 1.64369E+01 0.00000E+00
 -1      3921 5.97559E+01 1.73206E+01 0.00000E+00
 -1      3922 2.63404E+01 1.86737E+01 0.00000E+00
 -1      3923 6.11505E+01 1.79765E+01 0.00000E+00
 -1      3924 5.98715E+01 1.83009E+01 0.00000E+00
 -1      3925 5.98816E+01 1.99371E+01 0.00000E+00
 -1      3926 6.26505E+01 1.79765E+01 0.00000E+00
 -1      3927 6.16380E+01 2.56886E+01 0.00000E+00
 -1      3928 6.13074E+01 2.66575E+01 0.00000E+00
 -1      3929 6.25268E+01 2.74367E+01 0.00000E+00
 -1      3930 1.33492E+02 3.06769E+01 0.00000E+00
 -1      3931 2.45451E+01 2.51035E+01 0.00000E+00
 -1      3932 1.32193E+02 2.99394E+01 0.00000E+00
 -1      3933 6.09159E+01 2.05236E+01 0.00000E+00
 -1      3934 6.54000E+01 3.07276E+01 0.00000E+00
 -1      3935 6.69000E+01 3.07276E+01 0.00000E+00
 -1      3936 1.73392E+01 1.86941E+01 0.00000E+00
 -1      3937 1.86382E+01 1.94284E+01 0.00000E+00
 -1      3938 6.34231E+01 3.02161E+01 0.00000E+00
 -1      3939 6.44116E+01 3.04719E+01 0.00000E+00
 -1      3940 6.31847E+01 2.86614E+01 0.00000E+00
 -1      3941 2.32315E+01 2.58469E+01 0.00000E+00
 -1      3942 2.34982E+01 2.40163E+01 0.00000E+00
 -1      3943 6.84000E+01 3.07276E+01 0.00000E+00
 -1      3944 6.99000E+01 3.07276E+01 0.00000E+00
 -1      3945 6.76500E+01 2.94286E+01 0.00000E+00
 -1      3946 7.14000E+01 3.07276E+01 0.00000E+00
 -1      3947 7.29000E+01 3.07276E+01 0.00000E+00
 -1      3948 7.06500E+01 2.94286E+01 0.00000E+00
 -1      3949 7.44000E+01 3.07276E+01 0.00000E+00
 -1      3950 7.59000E+01 3.07276E+01 0.00000E+00
 -1      3951 7.36500E+01 2.94286E+01 0.00000E+00
 -1      3952 7.74000E+01 3.07276E+01 0.00000E+00
 -1      3953 7.89000E+01 3.07276E+01 0.00000E+00
 -1      3954 7.66500E+01 2.94286E+01 0.00000E+00
 -1      3955 8.04000E+01 3.07276E+01 0.00000E+00
 -1      3956 8.19000E+01 3.07276E+01 0.00000E+00
 -1      3957 7.96500E+01 2.94286E+01 0.00000E+00
 -1      3958 8.34000E+01 3.07276E+01 0.00000E+00
 -1      3959 8.49000E+01 3.07276E+01 0.00000E+00
 -1      3960 8.26500E+01 2.94286E+01 0.00000E+00
 -1      3961 8.64000E+01 3.07276E+01 0.00000E+00
 -1      3962 8.79000E+01 3.07276E+01 0.00000E+00
 -1      3963 8.56500E+01 2.94286E+01 0.00000E+00
 -1      3964 8.94000E+01 3.07276E+01 0.00000E+00
 -1      3965 9.09000E+01 3.07276E+01 0.00000E+00
 -1      3966 8.86500E+01 2.94286E+01 0.00000E+00
 -1      3967 9.24000E+01 3.07276E+01 0.00000E+00
 -1      3968 9.39000E+01 3.07276E+01 0.00000E+00
 -1      3969 9.16500E+01 2.94286E+01 0.00000E+00
 -1      3970 9.54000E+01 3.07276E+01 0.00000E+00
 -1      3971 9.69000E+01 3.07276E+01 0.00000E+00
 -1      3972 9.46500E+01 2.94286E+01 0.00000E+00
 -1      3973 9.84000E+01 3.07276E+01 0.00000E+00
 -1      3974 9.99000E+01 3.07276E+01 0.00000E+00
 -1      3975 9.76500E+01 2.94286E+01 0.00000E+00
 -1      3976 1.01400E+02 3.07276E+01 0.00000E+00
 -1      3977 1.02900E+02 3.07276E+01 0.00000E+00
 -1      3978 1.00650E+02 2.94286E+01 0.00000E+00
 -1      3979 1.04400E+02 3.07276E+01 0.00000E+00
 -1      3980 1.05900E+02 3.07276E+01 0.00000E+00
 -1      3981 1.03650E+02 2.94286E+01 0.00000E+00
 -1      3982 1.07400E+02 3.07276E+01 0.00000E+00
 -1      3983 1.08900E+02 3.07276E+01 0.00000E+00
 -1      3984 1.06650E+02 2.94286E+01 0.00000E+00
 -1      3985 1.10400E+02 3.07276E+01 0.00000E+00
 -1      3986 1.11900E+02 3.07276E+01 0.00000E+00
 -1      3987 1.09650E+02 2.94286E+01 0.00000E+00
 -1      3988 1.13400E+02 3.07276E+01 0.00000E+00
 -1      3989 1.14900E+02 3.07276E+01 0.00000E+00
 -1      3990 1.12650E+02 2.94286E+01 0.00000E+00
 -1      3991 1.16400E+02 3.07276E+01 0.00000E+00
 -1      3992 1.17900E+02 3.07276E+01 0.00000E+00
 -1      3993 1.15650E+02 2.94286E+01 0.00000E+00
 -1      3994 1.19400E+02 3.07276E+01 0.00000E+00
 -1      3995 1.20900E+02 3.07276E+01 0.00000E+00
 -1      3996 1.18650E+02 2.94286E+01 0.00000E+00
 -1      3997 1.22400E+02 3.07276E+01 0.00000E+00
 -1      3998 1.23900E+02 3.07276E+01 0.00000E+00
 -1      3999 1.21650E+02 2.94286E+01 0.00000E+00
 -1      4000 1.25400E+02 3.07276E+01 0.00000E+00
 -1      4001 1.26900E+02 3.07276E+01 0.00000E+00
 -1      4002 1.24650E+02 2.94286E+01 0.00000E+00
 -1      4003 1.68645E+01 3.01395E+01 0.00000E+00
 -1      4004 1.81545E+01 3.02941E+01 0.00000E+00
 -1      4005 1.68690E+01 2.89591E+01 0.00000E+00
 -1      4006 1.32709E+02 2.30604E+01 0.00000E+00
 -1      4007 1.32709E+02 2.15948E+01 0.00000E+00
 -1      4008 1.30601E+02 2.13938E+01 0.00000E+00
 -1      4009 1.31410E+02 2.37979E+01 0.00000E+00
 -1      4010 6.92850E+01 1.82952E+01 0.00000E+00
 -1      4011 6.77850E+01 1.82952E+01 0.00000E+00
 -1      4012 7.82850E+01 1.82952E+01 0.00000E+00
 -1      4013 7.67850E+01 1.82952E+01 0.00000E+00
 -1      4014 8.12850E+01 1.82952E+01 0.00000E+00
 -1      4015 7.97850E+01 1.82952E+01 0.00000E+00
 -1      4016 7.90350E+01 1.95942E+01 0.00000E+00
 -1      4017 8.42850E+01 1.82952E+01 0.00000E+00
 -1      4018 8.27850E+01 1.82952E+01 0.00000E+00
 -1      4019 8.20350E+01 1.95942E+01 0.00000E+00
 -1      4020 8.72850E+01 1.82952E+01 0.00000E+00
 -1      4021 8.57850E+01 1.82952E+01 0.00000E+00
 -1      4022 8.50350E+01 1.95942E+01 0.00000E+00
 -1      4023 9.02850E+01 1.82952E+01 0.00000E+00
 -1      4024 8.87850E+01 1.82952E+01 0.00000E+00
 -1      4025 8.80350E+01 1.95942E+01 0.00000E+00
 -1      4026 9.32850E+01 1.82952E+01 0.00000E+00
 -1      4027 9.17850E+01 1.82952E+01 0.00000E+00
 -1      4028 9.10350E+01 1.95942E+01 0.00000E+00
 -1      4029 9.62850E+01 1.82952E+01 0.00000E+00
 -1      4030 9.47850E+01 1.82952E+01 0.00000E+00
 -1      4031 9.40350E+01 1.95942E+01 0.00000E+00
 -1      4032 9.92850E+01 1.82952E+01 0.00000E+00
 -1      4033 9.77850E+01 1.82952E+01 0.00000E+00
 -1      4034 9.70350E+01 1.95942E+01 0.00000E+00
 -1      4035 1.02285E+02 1.82952E+01 0.00000E+00
 -1      4036 1.00785E+02 1.82952E+01 0.00000E+00
 -1      4037 1.00035E+02 1.95942E+01 0.00000E+00
 -1      4038 1.05285E+02 1.82952E+01 0.00000E+00
 -1      4039 1.03785E+02 1.82952E+01 0.00000E+00
 -1      4040 1.03035E+02 1.95942E+01 0.00000E+00
 -1      4041 1.08285E+02 1.82952E+01 0.00000E+00
 -1      4042 1.06785E+02 1.82952E+01 0.00000E+00
 -1      4043 1.06035E+02 1.95942E+01 0.00000E+00
 -1      4044 1.11285E+02 1.82952E+01 0.00000E+00
 -1      4045 1.09785E+02 1.82952E+01 0.00000E+00
 -1      4046 1.09035E+02 1.95942E+01 0.00000E+00
 -1      4047 1.14285E+02 1.82952E+01 0.00000E+00
 -1      4048 1.12785E+02 1.82952E+01 0.00000E+00
 -1      4049 1.12035E+02 1.95942E+01 0.00000E+00
 -1      4050 1.17285E+02 1.82952E+01 0.00000E+00
 -1      4051 1.15785E+02 1.82952E+01 0.00000E+00
 -1      4052 1.15035E+02 1.95942E+01 0.00000E+00
 -1      4053 1.20285E+02 1.82952E+01 0.00000E+00
 -1      4054 1.18785E+02 1.82952E+01 0.00000E+00
 -1      4055 1.18035E+02 1.95942E+01 0.00000E+00
 -1      4056 1.23285E+02 1.82952E+01 0.00000E+00
 -1      4057 1.21785E+02 1.82952E+01 0.00000E+00
 -1      4058 1.21035E+02 1.95942E+01 0.00000E+00
 -1      4059 1.26285E+02 1.82952E+01 0.00000E+00
 -1      4060 1.24785E+02 1.82952E+01 0.00000E+00
 -1      4061 1.24035E+02 1.95942E+01 0.00000E+00
 -1      4062 1.28950E+02 1.84446E+01 0.00000E+00
 -1      4063 1.27450E+02 1.84446E+01 0.00000E+00
 -1      4064 1.26700E+02 1.97436E+01 0.00000E+00
 -1      4065 1.29031E+02 2.00423E+01 0.00000E+00
 -1      4066 6.23367E+01 2.00186E+01 0.00000E+00
 -1      4067 6.19866E+01 2.15854E+01 0.00000E+00
 -1      4068 6.18491E+01 2.29323E+01 0.00000E+00
 -1      4069 6.17755E+01 2.43417E+01 0.00000E+00
 -1      4070 6.29949E+01 2.51210E+01 0.00000E+00
 -1      4071 6.32699E+01 2.24273E+01 0.00000E+00
 -1      4072 1.76181E+01 1.67403E+01 0.00000E+00
 -1      4073 7.22850E+01 1.82952E+01 0.00000E+00
 -1      4074 7.07850E+01 1.82952E+01 0.00000E+00
 -1      4075 7.00350E+01 1.95942E+01 0.00000E+00
 -1      4076 6.59678E+01 1.81359E+01 0.00000E+00
 -1      4077 6.44678E+01 1.81359E+01 0.00000E+00
 -1      4078 6.30833E+01 1.91162E+01 0.00000E+00
 -1      4079 6.67178E+01 1.94349E+01 0.00000E+00
 -1      4080 2.40347E+01 1.61566E+01 0.00000E+00
 -1      4081 7.52850E+01 1.82952E+01 0.00000E+00
 -1      4082 7.37850E+01 1.82952E+01 0.00000E+00
 -1      4083 7.30350E+01 1.95942E+01 0.00000E+00
 -1      4084 7.60350E+01 1.95942E+01 0.00000E+00
 -1      4085 2.49897E+01 1.92426E+01 0.00000E+00
 -1      4086 2.43226E+01 3.12824E+01 0.00000E+00
 -1      4087 6.51616E+01 2.91729E+01 0.00000E+00
 -1      4088 2.29525E+01 2.68634E+01 0.00000E+00
 -1      4089 2.19057E+01 2.57762E+01 0.00000E+00
 -1      4090 2.26736E+01 2.78800E+01 0.00000E+00
 -1      4091 6.41540E+01 2.01780E+01 0.00000E+00
 -1      4092 1.92795E+01 3.03790E+01 0.00000E+00
 -1      4093 1.28400E+02 3.07276E+01 0.00000E+00
 -1      4094 1.29900E+02 3.07276E+01 0.00000E+00
 -1      4095 1.31232E+02 2.99883E+01 0.00000E+00
 -1      4096 1.94850E+01 2.27672E+01 0.00000E+00
 -1      4097 1.94850E+01 2.42391E+01 0.00000E+00
 -1      4098 2.27979E+01 2.33881E+01 0.00000E+00
 -1      4099 2.25793E+01 2.22157E+01 0.00000E+00
 -1      4100 2.31852E+01 3.03906E+01 0.00000E+00
 -1      4101 1.30482E+02 2.86893E+01 0.00000E+00
 -1      4102 1.27650E+02 2.94286E+01 0.00000E+00
 -1      4103 2.18317E+01 3.05163E+01 0.00000E+00
 -1      4104 2.23669E+01 2.90929E+01 0.00000E+00
 -1      4105 2.13200E+01 2.80056E+01 0.00000E+00
 -1      4106 2.07067E+01 3.04314E+01 0.00000E+00
 -1      4107 1.30482E+02 2.72143E+01 0.00000E+00
 -1      4108 1.30482E+02 2.57393E+01 0.00000E+00
 -1      4109 1.29150E+02 2.79536E+01 0.00000E+00
 -1      4110 6.35152E+01 2.76925E+01 0.00000E+00
 -1      4111 1.68803E+01 2.67440E+01 0.00000E+00
 -1      4112 1.68757E+01 2.79245E+01 0.00000E+00
 -1      4113 1.81658E+01 2.80790E+01 0.00000E+00
 -1      4114 1.81793E+01 2.60097E+01 0.00000E+00
 -1      4115 2.02499E+01 1.85377E+01 0.00000E+00
 -1      4116 1.97978E+01 2.11405E+01 0.00000E+00
 -1      4117 2.10968E+01 2.18764E+01 0.00000E+00
 -1      4118 2.17222E+01 1.86230E+01 0.00000E+00
 -1      4119 6.99000E+01 2.81296E+01 0.00000E+00
 -1      4120 7.14000E+01 2.81296E+01 0.00000E+00
 -1      4121 7.29000E+01 2.81296E+01 0.00000E+00
 -1      4122 7.44000E+01 2.81296E+01 0.00000E+00
 -1      4123 7.21500E+01 2.68306E+01 0.00000E+00
 -1      4124 7.59000E+01 2.81296E+01 0.00000E+00
 -1      4125 7.74000E+01 2.81296E+01 0.00000E+00
 -1      4126 7.51500E+01 2.68306E+01 0.00000E+00
 -1      4127 7.89000E+01 2.81296E+01 0.00000E+00
 -1      4128 8.04000E+01 2.81296E+01 0.00000E+00
 -1      4129 7.81500E+01 2.68306E+01 0.00000E+00
 -1      4130 8.19000E+01 2.81296E+01 0.00000E+00
 -1      4131 8.34000E+01 2.81296E+01 0.00000E+00
 -1      4132 8.11500E+01 2.68306E+01 0.00000E+00
 -1      4133 8.49000E+01 2.81296E+01 0.00000E+00
 -1      4134 8.64000E+01 2.81296E+01 0.00000E+00
 -1      4135 8.41500E+01 2.68306E+01 0.00000E+00
 -1      4136 8.79000E+01 2.81296E+01 0.00000E+00
 -1      4137 8.94000E+01 2.81296E+01 0.00000E+00
 -1      4138 8.71500E+01 2.68306E+01 0.00000E+00
 -1      4139 9.09000E+01 2.81296E+01 0.00000E+00
 -1      4140 9.24000E+01 2.81296E+01 0.00000E+00
 -1      4141 9.01500E+01 2.68306E+01 0.00000E+00
 -1      4142 9.39000E+01 2.81296E+01 0.00000E+00
 -1      4143 9.54000E+01 2.81296E+01 0.00000E+00
 -1      4144 9.31500E+01 2.68306E+01 0.00000E+00
 -1      4145 9.69000E+01 2.81296E+01 0.00000E+00
 -1      4146 9.84000E+01 2.81296E+01 0.00000E+00
 -1      4147 9.61500E+01 2.68306E+01 0.00000E+00
 -1      4148 9.99000E+01 2.81296E+01 0.00000E+00
 -1      4149 1.01400E+02 2.81296E+01 0.00000E+00
 -1      4150 9.91500E+01 2.68306E+01 0.00000E+00
 -1      4151 1.02900E+02 2.81296E+01 0.00000E+00
 -1      4152 1.04400E+02 2.81296E+01 0.00000E+00
 -1      4153 1.02150E+02 2.68306E+01 0.00000E+00
 -1      4154 1.05900E+02 2.81296E+01 0.00000E+00
 -1      4155 1.07400E+02 2.81296E+01 0.00000E+00
 -1      4156 1.05150E+02 2.68306E+01 0.00000E+00
 -1      4157 1.08900E+02 2.81296E+01 0.00000E+00
 -1      4158 1.10400E+02 2.81296E+01 0.00000E+00
 -1      4159 1.08150E+02 2.68306E+01 0.00000E+00
 -1      4160 1.11900E+02 2.81296E+01 0.00000E+00
 -1      4161 1.13400E+02 2.81296E+01 0.00000E+00
 -1      4162 1.11150E+02 2.68306E+01 0.00000E+00
 -1      4163 1.14900E+02 2.81296E+01 0.00000E+00
 -1      4164 1.16400E+02 2.81296E+01 0.00000E+00
 -1      4165 1.14150E+02 2.68306E+01 0.00000E+00
 -1      4166 1.17900E+02 2.81296E+01 0.00000E+00
 -1      4167 1.19400E+02 2.81296E+01 0.00000E+00
 -1      4168 1.17150E+02 2.68306E+01 0.00000E+00
 -1      4169 1.20900E+02 2.81296E+01 0.00000E+00
 -1      4170 1.22400E+02 2.81296E+01 0.00000E+00
 -1      4171 1.20150E+02 2.68306E+01 0.00000E+00
 -1      4172 1.23900E+02 2.81296E+01 0.00000E+00
 -1      4173 1.25400E+02 2.81296E+01 0.00000E+00
 -1      4174 1.23150E+02 2.68306E+01 0.00000E+00
 -1      4175 8.27850E+01 2.08932E+01 0.00000E+00
 -1      4176 8.12850E+01 2.08932E+01 0.00000E+00
 -1      4177 2.28921E+01 2.05890E+01 0.00000E+00
 -1      4178 2.35071E+01 1.89033E+01 0.00000E+00
 -1      4179 7.97850E+01 2.08932E+01 0.00000E+00
 -1      4180 7.82850E+01 2.08932E+01 0.00000E+00
 -1      4181 8.05350E+01 2.21922E+01 0.00000E+00
 -1      4182 8.87850E+01 2.08932E+01 0.00000E+00
 -1      4183 8.72850E+01 2.08932E+01 0.00000E+00
 -1      4184 9.17850E+01 2.08932E+01 0.00000E+00
 -1      4185 9.02850E+01 2.08932E+01 0.00000E+00
 -1      4186 8.95350E+01 2.21922E+01 0.00000E+00
 -1      4187 9.47850E+01 2.08932E+01 0.00000E+00
 -1      4188 9.32850E+01 2.08932E+01 0.00000E+00
 -1      4189 9.25350E+01 2.21922E+01 0.00000E+00
 -1      4190 9.77850E+01 2.08932E+01 0.00000E+00
 -1      4191 9.62850E+01 2.08932E+01 0.00000E+00
 -1      4192 9.55350E+01 2.21922E+01 0.00000E+00
 -1      4193 1.00785E+02 2.08932E+01 0.00000E+00
 -1      4194 9.92850E+01 2.08932E+01 0.00000E+00
 -1      4195 9.85350E+01 2.21922E+01 0.00000E+00
 -1      4196 1.03785E+02 2.08932E+01 0.00000E+00
 -1      4197 1.02285E+02 2.08932E+01 0.00000E+00
 -1      4198 1.01535E+02 2.21922E+01 0.00000E+00
 -1      4199 1.06785E+02 2.08932E+01 0.00000E+00
 -1      4200 1.05285E+02 2.08932E+01 0.00000E+00
 -1      4201 1.04535E+02 2.21922E+01 0.00000E+00
 -1      4202 1.09785E+02 2.08932E+01 0.00000E+00
 -1      4203 1.08285E+02 2.08932E+01 0.00000E+00
 -1      4204 1.07535E+02 2.21922E+01 0.00000E+00
 -1      4205 1.12785E+02 2.08932E+01 0.00000E+00
 -1      4206 1.11285E+02 2.08932E+01 0.00000E+00
 -1      4207 1.10535E+02 2.21922E+01 0.00000E+00
 -1      4208 1.15785E+02 2.08932E+01 0.00000E+00
 -1      4209 1.14285E+02 2.08932E+01 0.00000E+00
 -1      4210 1.13535E+02 2.21922E+01 0.00000E+00
 -1      4211 1.18785E+02 2.08932E+01 0.00000E+00
 -1      4212 1.17285E+02 2.08932E+01 0.00000E+00
 -1      4213 1.16535E+02 2.21922E+01 0.00000E+00
 -1      4214 1.21785E+02 2.08932E+01 0.00000E+00
 -1      4215 1.20285E+02 2.08932E+01 0.00000E+00
 -1      4216 1.19535E+02 2.21922E+01 0.00000E+00
 -1      4217 1.24785E+02 2.08932E+01 0.00000E+00
 -1      4218 1.23285E+02 2.08932E+01 0.00000E+00
 -1      4219 1.22535E+02 2.21922E+01 0.00000E+00
 -1      4220 1.95862E+01 2.91661E+01 0.00000E+00
 -1      4221 6.75129E+01 2.08086E+01 0.00000E+00
 -1      4222 6.56957E+01 2.06493E+01 0.00000E+00
 -1      4223 6.42370E+01 2.65157E+01 0.00000E+00
 -1      4224 6.48949E+01 2.77404E+01 0.00000E+00
 -1      4225 2.38199E+01 1.72766E+01 0.00000E+00
 -1      4226 1.26525E+02 2.80416E+01 0.00000E+00
 -1      4227 1.28025E+02 2.80416E+01 0.00000E+00
 -1      4228 1.28025E+02 2.65666E+01 0.00000E+00
 -1      4229 1.25775E+02 2.67426E+01 0.00000E+00
 -1      4230 6.49491E+01 2.15517E+01 0.00000E+00
 -1      4231 8.57850E+01 2.08932E+01 0.00000E+00
 -1      4232 8.42850E+01 2.08932E+01 0.00000E+00
 -1      4233 8.65350E+01 2.21922E+01 0.00000E+00
 -1      4234 6.58833E+01 2.79961E+01 0.00000E+00
 -1      4235 7.07850E+01 2.08932E+01 0.00000E+00
 -1      4236 6.92850E+01 2.08932E+01 0.00000E+00
 -1      4237 2.14843E+01 2.41314E+01 0.00000E+00
 -1      4238 6.73833E+01 2.79961E+01 0.00000E+00
 -1      4239 8.35350E+01 2.21922E+01 0.00000E+00
 -1      4240 6.81333E+01 2.66971E+01 0.00000E+00
 -1      4241 1.30078E+02 2.45372E+01 0.00000E+00
 -1      4242 1.29673E+02 2.33351E+01 0.00000E+00
 -1      4243 1.28746E+02 2.52765E+01 0.00000E+00
 -1      4244 7.75350E+01 2.21922E+01 0.00000E+00
 -1      4245 7.67850E+01 2.08932E+01 0.00000E+00
 -1      4246 7.52850E+01 2.08932E+01 0.00000E+00
 -1      4247 1.95929E+01 2.81314E+01 0.00000E+00
 -1      4248 1.25950E+02 2.10426E+01 0.00000E+00
 -1      4249 1.25200E+02 2.23416E+01 0.00000E+00
 -1      4250 1.27116E+02 2.11920E+01 0.00000E+00
 -1      4251 6.43745E+01 2.51689E+01 0.00000E+00
 -1      4252 6.82629E+01 2.21076E+01 0.00000E+00
 -1      4253 6.48116E+01 2.28985E+01 0.00000E+00
 -1      4254 1.99064E+01 2.58839E+01 0.00000E+00
 -1      4255 1.98996E+01 2.69186E+01 0.00000E+00
 -1      4256 7.37850E+01 2.08932E+01 0.00000E+00
 -1      4257 7.22850E+01 2.08932E+01 0.00000E+00
 -1      4258 7.15350E+01 2.21922E+01 0.00000E+00
 -1      4259 7.45350E+01 2.21922E+01 0.00000E+00
 -1      4260 2.12054E+01 2.51480E+01 0.00000E+00
 -1      4261 7.14000E+01 2.55316E+01 0.00000E+00
 -1      4262 7.29000E+01 2.55316E+01 0.00000E+00
 -1      4263 7.48425E+01 2.45114E+01 0.00000E+00
 -1      4264 7.63425E+01 2.45114E+01 0.00000E+00
 -1      4265 7.78425E+01 2.45114E+01 0.00000E+00
 -1      4266 7.93425E+01 2.45114E+01 0.00000E+00
 -1      4267 8.08425E+01 2.45114E+01 0.00000E+00
 -1      4268 8.23425E+01 2.45114E+01 0.00000E+00
 -1      4269 8.38425E+01 2.45114E+01 0.00000E+00
 -1      4270 8.53425E+01 2.45114E+01 0.00000E+00
 -1      4271 8.68425E+01 2.45114E+01 0.00000E+00
 -1      4272 8.83425E+01 2.45114E+01 0.00000E+00
 -1      4273 8.98425E+01 2.45114E+01 0.00000E+00
 -1      4274 9.13425E+01 2.45114E+01 0.00000E+00
 -1      4275 9.28425E+01 2.45114E+01 0.00000E+00
 -1      4276 9.43425E+01 2.45114E+01 0.00000E+00
 -1      4277 9.58425E+01 2.45114E+01 0.00000E+00
 -1      4278 9.73425E+01 2.45114E+01 0.00000E+00
 -1      4279 9.88425E+01 2.45114E+01 0.00000E+00
 -1      4280 1.00342E+02 2.45114E+01 0.00000E+00
 -1      4281 1.01842E+02 2.45114E+01 0.00000E+00
 -1      4282 1.03342E+02 2.45114E+01 0.00000E+00
 -1      4283 1.04842E+02 2.45114E+01 0.00000E+00
 -1      4284 1.06342E+02 2.45114E+01 0.00000E+00
 -1      4285 1.07842E+02 2.45114E+01 0.00000E+00
 -1      4286 1.09342E+02 2.45114E+01 0.00000E+00
 -1      4287 1.10842E+02 2.45114E+01 0.00000E+00
 -1      4288 1.12342E+02 2.45114E+01 0.00000E+00
 -1      4289 1.13842E+02 2.45114E+01 0.00000E+00
 -1      4290 1.15342E+02 2.45114E+01 0.00000E+00
 -1      4291 1.16842E+02 2.45114E+01 0.00000E+00
 -1      4292 1.18342E+02 2.45114E+01 0.00000E+00
 -1      4293 1.19842E+02 2.45114E+01 0.00000E+00
 -1      4294 1.21342E+02 2.45114E+01 0.00000E+00
 -1      4295 1.22842E+02 2.45114E+01 0.00000E+00
 -1      4296 1.24342E+02 2.45114E+01 0.00000E+00
 -1      4297 6.60537E+01 2.42933E+01 0.00000E+00
 -1      4298 1.29449E+02 2.14055E+01 0.00000E+00
 -1      4299 1.28283E+02 2.12561E+01 0.00000E+00
 -1      4300 1.27533E+02 2.25551E+01 0.00000E+00
 -1      4301 1.29853E+02 2.26075E+01 0.00000E+00
 -1      4302 1.25476E+02 2.31811E+01 0.00000E+00
 -1      4303 1.25784E+02 2.55003E+01 0.00000E+00
 -1      4304 1.27621E+02 2.53645E+01 0.00000E+00
 -1      4305 6.90870E+01 2.34475E+01 0.00000E+00
 -1      4306 6.73149E+01 2.33628E+01 0.00000E+00
 -1      4307 7.25925E+01 2.32124E+01 0.00000E+00
 -1      4308 7.10925E+01 2.32124E+01 0.00000E+00
 -1      4309 6.68778E+01 2.56331E+01 0.00000E+00
 -1      4310 6.93945E+01 2.57666E+01 0.00000E+00
 -1      4311 7.01445E+01 2.44676E+01 0.00000E+00
 -1      4312 1.28521E+02 2.33469E+01 0.00000E+00
 -1      4313 7.40925E+01 2.32124E+01 0.00000E+00
 -1      4314 1.26909E+02 2.54123E+01 0.00000E+00
 -1      4315 1.27809E+02 2.33946E+01 0.00000E+00
 -1      4316 1.26642E+02 2.33305E+01 0.00000E+00
 -1      4317 1.27630E+02 2.41222E+01 0.00000E+00
 -3
    3C                          2077                                     1
 -1       164    8    0    1
 -2         6         7        23      1121      1284      1138
 -1       165    8    0    1
 -2         7         8       164      1122      1285      1286
 -1       166    8    0    1
 -2         8         9       165      1123      1287      1288
 -1       167    8    0    1
 -2         8       165       164      1288      1289      1285
 -1       168    8    0    1
 -2         9        10       166      1124      1290      1291
 -1       169    8    0    1
 -2         9       166       165      1291      1292      1287
 -1       170    8    0    1
 -2        10        11       167      1125      1293      1294
 -1       171    8    0    1
 -2        10       167       166      1294      1295      1290
 -1       172    8    0    1
 -2        11        12       168      1126      1296      1297
 -1       173    8    0    1
 -2        11       168       167      1297      1298      1293
 -1       174    8    0    1
 -2        12        13       169      1127      1299      1300
 -1       175    8    0    1
 -2        12       169       168      1300      1301      1296
 -1       176    8    0    1
 -2        13        14       170      1128      1302      1303
 -1       177    8    0    1
 -2        13       170       169      1303      1304      1299
 -1       178    8    0    1
 -2        14        15       171      1129      1305      1306
 -1       179    8    0    1
 -2        14       171       170      1306      1307      1302
 -1       180    8    0    1
 -2        15        16       172      1130      1308      1309
 -1       181    8    0    1
 -2        15       172       171      1309      1310      1305
 -1       182    8    0    1
 -2        16        17       173      1131      1311      1312
 -1       183    8    0    1
 -2        16       173       172      1312      1313      1308
 -1       184    8    0    1
 -2        17        18       174      1132      1314      1315
 -1       185    8    0    1
 -2        17       174       173      1315      1316      1311
 -1       186    8    0    1
 -2        18        19       175      1133      1317      1318
 -1       187    8    0    1
 -2        18       175       174      1318      1319      1314
 -1       188    8    0    1
 -2        19        20       176      1134      1320      1321
 -1       189    8    0    1
 -2        19       176       175      1321      1322      1317
 -1       190    8    0    1
 -2        20        21       177      1135      1323      1324
 -1       191    8    0    1
 -2        20       177       176      1324      1325      1320
 -1       192    8    0    1
 -2        21        22       178      1136      1326      1327
 -1       193    8    0    1
 -2        21       178       177      1327      1328      1323
 -1       194    8    0    1
 -2        22         5       179      1137      1329      1330
 -1       195    8    0    1
 -2       178        22       179      1326      1330      1331
 -1       196    8    0    1
 -2         5        72       179      1188      1332      1329
 -1       197    8    0    1
 -2        24        23       180      1139      1333      1334
 -1       198    8    0    1
 -2        25        24       181      1140      1335      1336
 -1       199    8    0    1
 -2        24       180       181      1334      1337      1335
 -1       200    8    0    1
 -2        26        25       182      1141      1338      1339
 -1       201    8    0    1
 -2        25       181       182      1336      1340      1338
 -1       202    8    0    1
 -2        27        26       183      1142      1341      1342
 -1       203    8    0    1
 -2        26       182       183      1339      1343      1341
 -1       204    8    0    1
 -2        28        27       184      1143      1344      1345
 -1       205    8    0    1
 -2        27       183       184      1342      1346      1344
 -1       206    8    0    1
 -2        29        28       185      1144      1347      1348
 -1       207    8    0    1
 -2        28       184       185      1345      1349      1347
 -1       208    8    0    1
 -2        30        29       186      1145      1350      1351
 -1       209    8    0    1
 -2        29       185       186      1348      1352      1350
 -1       210    8    0    1
 -2        31        30       187      1146      1353      1354
 -1       211    8    0    1
 -2        30       186       187      1351      1355      1353
 -1       212    8    0    1
 -2        32        31       188      1147      1356      1357
 -1       213    8    0    1
 -2        31       187       188      1354      1358      1356
 -1       214    8    0    1
 -2        33        32       189      1148      1359      1360
 -1       215    8    0    1
 -2        32       188       189      1357      1361      1359
 -1       216    8    0    1
 -2        34        33       190      1149      1362      1363
 -1       217    8    0    1
 -2        33       189       190      1360      1364      1362
 -1       218    8    0    1
 -2        35        34       191      1150      1365      1366
 -1       219    8    0    1
 -2        34       190       191      1363      1367      1365
 -1       220    8    0    1
 -2        36        35       192      1151      1368      1369
 -1       221    8    0    1
 -2        35       191       192      1366      1370      1368
 -1       222    8    0    1
 -2        37        36       193      1152      1371      1372
 -1       223    8    0    1
 -2        36       192       193      1369      1373      1371
 -1       224    8    0    1
 -2        38        37       194      1153      1374      1375
 -1       225    8    0    1
 -2        37       193       194      1372      1376      1374
 -1       226    8    0    1
 -2        39        38       195      1154      1377      1378
 -1       227    8    0    1
 -2        38       194       195      1375      1379      1377
 -1       228    8    0    1
 -2        40        39       196      1155      1380      1381
 -1       229    8    0    1
 -2        39       195       196      1378      1382      1380
 -1       230    8    0    1
 -2        41        40       197      1156      1383      1384
 -1       231    8    0    1
 -2        40       196       197      1381      1385      1383
 -1       232    8    0    1
 -2        42        41       198      1157      1386      1387
 -1       233    8    0    1
 -2        41       197       198      1384      1388      1386
 -1       234    8    0    1
 -2        43        42       199      1158      1389      1390
 -1       235    8    0    1
 -2        42       198       199      1387      1391      1389
 -1       236    8    0    1
 -2        44        43       200      1159      1392      1393
 -1       237    8    0    1
 -2        43       199       200      1390      1394      1392
 -1       238    8    0    1
 -2        45        44       201      1160      1395      1396
 -1       239    8    0    1
 -2        44       200       201      1393      1397      1395
 -1       240    8    0    1
 -2        46        45       202      1161      1398      1399
 -1       241    8    0    1
 -2        45       201       202      1396      1400      1398
 -1       242    8    0    1
 -2        47        46       203      1162      1401      1402
 -1       243    8    0    1
 -2        46       202       203      1399      1403      1401
 -1       244    8    0    1
 -2        48        47       204      1163      1404      1405
 -1       245    8    0    1
 -2        47       203       204      1402      1406      1404
 -1       246    8    0    1
 -2        49        48       205      1164      1407      1408
 -1       247    8    0    1
 -2        48       204       205      1405      1409      1407
 -1       248    8    0    1
 -2        50        49       206      1165      1410      1411
 -1       249    8    0    1
 -2        49       205       206      1408      1412      1410
 -1       250    8    0    1
 -2        51        50       207      1166      1413      1414
 -1       251    8    0    1
 -2        50       206       207      1411      1415      1413
 -1       252    8    0    1
 -2        52        51       208      1167      1416      1417
 -1       253    8    0    1
 -2        51       207       208      1414      1418      1416
 -1       254    8    0    1
 -2        53        52       209      1168      1419      1420
 -1       255    8    0    1
 -2        52       208       209      1417      1421      1419
 -1       256    8    0    1
 -2        54        53       210      1169      1422      1423
 -1       257    8    0    1
 -2        53       209       210      1420      1424      1422
 -1       258    8    0    1
 -2        55        54       211      1170      1425      1426
 -1       259    8    0    1
 -2        54       210       211      1423      1427      1425
 -1       260    8    0    1
 -2        56        55       212      1171      1428      1429
 -1       261    8    0    1
 -2        55       211       212      1426      1430      1428
 -1       262    8    0    1
 -2        57        56       213      1172      1431      1432
 -1       263    8    0    1
 -2        56       212       213      1429      1433      1431
 -1       264    8    0    1
 -2        58        57       214      1173      1434      1435
 -1       265    8    0    1
 -2        57       213       214      1432      1436      1434
 -1       266    8    0    1
 -2        59        58       215      1174      1437      1438
 -1       267    8    0    1
 -2        58       214       215      1435      1439      1437
 -1       268    8    0    1
 -2        60        59       216      1175      1440      1441
 -1       269    8    0    1
 -2        59       215       216      1438      1442      1440
 -1       270    8    0    1
 -2        61        60       217      1176      1443      1444
 -1       271    8    0    1
 -2        60       216       217      1441      1445      1443
 -1       272    8    0    1
 -2        62        61       218      1177      1446      1447
 -1       273    8    0    1
 -2        61       217       218      1444      1448      1446
 -1       274    8    0    1
 -2        63        62       219      1178      1449      1450
 -1       275    8    0    1
 -2        62       218       219      1447      1451      1449
 -1       276    8    0    1
 -2        64        63       220      1179      1452      1453
 -1       277    8    0    1
 -2        63       219       220      1450      1454      1452
 -1       278    8    0    1
 -2        65        64       221      1180      1455      1456
 -1       279    8    0    1
 -2        64       220       221      1453      1457      1455
 -1       280    8    0    1
 -2        66        65       222      1181      1458      1459
 -1       281    8    0    1
 -2        65       221       222      1456      1460      1458
 -1       282    8    0    1
 -2        67        66       223      1182      1461      1462
 -1       283    8    0    1
 -2        66       222       223      1459      1463      1461
 -1       284    8    0    1
 -2        68        67       224      1183      1464      1465
 -1       285    8    0    1
 -2        67       223       224      1462      1466      1464
 -1       286    8    0    1
 -2        69        68       225      1184      1467      1468
 -1       287    8    0    1
 -2        68       224       225      1465      1469      1467
 -1       288    8    0    1
 -2        70        69       226      1185      1470      1471
 -1       289    8    0    1
 -2        69       225       226      1468      1472      1470
 -1       290    8    0    1
 -2        71        70       227      1186      1473      1474
 -1       291    8    0    1
 -2        70       226       227      1471      1475      1473
 -1       292    8    0    1
 -2         4        71       136      1187      1476      1254
 -1       293    8    0    1
 -2       136        71       227      1476      1474      1477
 -1       294    8    0    1
 -2        72        73       228      1189      1478      1479
 -1       295    8    0    1
 -2        72       228       179      1479      1480      1332
 -1       296    8    0    1
 -2        73        74       229      1190      1481      1482
 -1       297    8    0    1
 -2        73       229       228      1482      1483      1478
 -1       298    8    0    1
 -2        74        75       230      1191      1484      1485
 -1       299    8    0    1
 -2        74       230       229      1485      1486      1481
 -1       300    8    0    1
 -2        75        76       231      1192      1487      1488
 -1       301    8    0    1
 -2        75       231       230      1488      1489      1484
 -1       302    8    0    1
 -2        76        77       232      1193      1490      1491
 -1       303    8    0    1
 -2        76       232       231      1491      1492      1487
 -1       304    8    0    1
 -2        77        78       233      1194      1493      1494
 -1       305    8    0    1
 -2        77       233       232      1494      1495      1490
 -1       306    8    0    1
 -2        78        79       234      1195      1496      1497
 -1       307    8    0    1
 -2        78       234       233      1497      1498      1493
 -1       308    8    0    1
 -2        79        80       235      1196      1499      1500
 -1       309    8    0    1
 -2        79       235       234      1500      1501      1496
 -1       310    8    0    1
 -2        80        81       236      1197      1502      1503
 -1       311    8    0    1
 -2        80       236       235      1503      1504      1499
 -1       312    8    0    1
 -2        81        82       237      1198      1505      1506
 -1       313    8    0    1
 -2        81       237       236      1506      1507      1502
 -1       314    8    0    1
 -2        82        83       238      1199      1508      1509
 -1       315    8    0    1
 -2        82       238       237      1509      1510      1505
 -1       316    8    0    1
 -2        83        84       239      1200      1511      1512
 -1       317    8    0    1
 -2        83       239       238      1512      1513      1508
 -1       318    8    0    1
 -2        84        85       240      1201      1514      1515
 -1       319    8    0    1
 -2        84       240       239      1515      1516      1511
 -1       320    8    0    1
 -2        85        86       241      1202      1517      1518
 -1       321    8    0    1
 -2        85       241       240      1518      1519      1514
 -1       322    8    0    1
 -2        86        87       242      1203      1520      1521
 -1       323    8    0    1
 -2        86       242       241      1521      1522      1517
 -1       324    8    0    1
 -2        87        88       243      1204      1523      1524
 -1       325    8    0    1
 -2        87       243       242      1524      1525      1520
 -1       326    8    0    1
 -2        88        89       244      1205      1526      1527
 -1       327    8    0    1
 -2        88       244       243      1527      1528      1523
 -1       328    8    0    1
 -2        89        90       245      1206      1529      1530
 -1       329    8    0    1
 -2        89       245       244      1530      1531      1526
 -1       330    8    0    1
 -2        90        91       246      1207      1532      1533
 -1       331    8    0    1
 -2        90       246       245      1533      1534      1529
 -1       332    8    0    1
 -2        91        92       247      1208      1535      1536
 -1       333    8    0    1
 -2        91       247       246      1536      1537      1532
 -1       334    8    0    1
 -2        92        93       248      1209      1538      1539
 -1       335    8    0    1
 -2        92       248       247      1539      1540      1535
 -1       336    8    0    1
 -2        93        94       249      1210      1541      1542
 -1       337    8    0    1
 -2        93       249       248      1542      1543      1538
 -1       338    8    0    1
 -2        94        95       250      1211      1544      1545
 -1       339    8    0    1
 -2        94       250       249      1545      1546      1541
 -1       340    8    0    1
 -2        95        96       251      1212      1547      1548
 -1       341    8    0    1
 -2        95       251       250      1548      1549      1544
 -1       342    8    0    1
 -2        96        97       252      1213      1550      1551
 -1       343    8    0    1
 -2        96       252       251      1551      1552      1547
 -1       344    8    0    1
 -2        97        98       253      1214      1553      1554
 -1       345    8    0    1
 -2        97       253       252      1554      1555      1550
 -1       346    8    0    1
 -2        98        99       254      1215      1556      1557
 -1       347    8    0    1
 -2        98       254       253      1557      1558      1553
 -1       348    8    0    1
 -2        99       100       255      1216      1559      1560
 -1       349    8    0    1
 -2        99       255       254      1560      1561      1556
 -1       350    8    0    1
 -2       100       101       256      1217      1562      1563
 -1       351    8    0    1
 -2       100       256       255      1563      1564      1559
 -1       352    8    0    1
 -2       101       102       257      1218      1565      1566
 -1       353    8    0    1
 -2       101       257       256      1566      1567      1562
 -1       354    8    0    1
 -2       102       103       258      1219      1568      1569
 -1       355    8    0    1
 -2       102       258       257      1569      1570      1565
 -1       356    8    0    1
 -2       103       104       259      1220      1571      1572
 -1       357    8    0    1
 -2       103       259       258      1572      1573      1568
 -1       358    8    0    1
 -2       104       105       260      1221      1574      1575
 -1       359    8    0    1
 -2       104       260       259      1575      1576      1571
 -1       360    8    0    1
 -2       105       106       261      1222      1577      1578
 -1       361    8    0    1
 -2       105       261       260      1578      1579      1574
 -1       362    8    0    1
 -2       106       107       262      1223      1580      1581
 -1       363    8    0    1
 -2       106       262       261      1581      1582      1577
 -1       364    8    0    1
 -2       107       108       263      1224      1583      1584
 -1       365    8    0    1
 -2       107       263       262      1584      1585      1580
 -1       366    8    0    1
 -2       108       109       264      1225      1586      1587
 -1       367    8    0    1
 -2       108       264       263      1587      1588      1583
 -1       368    8    0    1
 -2       109       110       265      1226      1589      1590
 -1       369    8    0    1
 -2       109       265       264      1590      1591      1586
 -1       370    8    0    1
 -2       110       111       266      1227      1592      1593
 -1       371    8    0    1
 -2       110       266       265      1593      1594      1589
 -1       372    8    0    1
 -2       111       112       267      1228      1595      1596
 -1       373    8    0    1
 -2       111       267       266      1596      1597      1592
 -1       374    8    0    1
 -2       112       113       268      1229      1598      1599
 -1       375    8    0    1
 -2       112       268       267      1599      1600      1595
 -1       376    8    0    1
 -2       113       114       269      1230      1601      1602
 -1       377    8    0    1
 -2       113       269       268      1602      1603      1598
 -1       378    8    0    1
 -2       114       115       270      1231      1604      1605
 -1       379    8    0    1
 -2       114       270       269      1605      1606      1601
 -1       380    8    0    1
 -2       115       116       271      1232      1607      1608
 -1       381    8    0    1
 -2       115       271       270      1608      1609      1604
 -1       382    8    0    1
 -2       116       117       272      1233      1610      1611
 -1       383    8    0    1
 -2       116       272       271      1611      1612      1607
 -1       384    8    0    1
 -2       117       118       273      1234      1613      1614
 -1       385    8    0    1
 -2       117       273       272      1614      1615      1610
 -1       386    8    0    1
 -2       118       119       274      1235      1616      1617
 -1       387    8    0    1
 -2       118       274       273      1617      1618      1613
 -1       388    8    0    1
 -2       119       120       275      1236      1619      1620
 -1       389    8    0    1
 -2       119       275       274      1620      1621      1616
 -1       390    8    0    1
 -2       120         3       121      1237      1238      1622
 -1       391    8    0    1
 -2       121       122       276      1239      1623      1624
 -1       392    8    0    1
 -2       122       123       277      1240      1625      1626
 -1       393    8    0    1
 -2       122       277       276      1626      1627      1623
 -1       394    8    0    1
 -2       123       124       278      1241      1628      1629
 -1       395    8    0    1
 -2       123       278       277      1629      1630      1625
 -1       396    8    0    1
 -2       124       125       279      1242      1631      1632
 -1       397    8    0    1
 -2       124       279       278      1632      1633      1628
 -1       398    8    0    1
 -2       125       126       280      1243      1634      1635
 -1       399    8    0    1
 -2       125       280       279      1635      1636      1631
 -1       400    8    0    1
 -2       126       127       281      1244      1637      1638
 -1       401    8    0    1
 -2       126       281       280      1638      1639      1634
 -1       402    8    0    1
 -2       127       128       282      1245      1640      1641
 -1       403    8    0    1
 -2       127       282       281      1641      1642      1637
 -1       404    8    0    1
 -2       128       129       283      1246      1643      1644
 -1       405    8    0    1
 -2       128       283       282      1644      1645      1640
 -1       406    8    0    1
 -2       129       130       284      1247      1646      1647
 -1       407    8    0    1
 -2       129       284       283      1647      1648      1643
 -1       408    8    0    1
 -2       130       131       285      1248      1649      1650
 -1       409    8    0    1
 -2       130       285       284      1650      1651      1646
 -1       410    8    0    1
 -2       131       132       286      1249      1652      1653
 -1       411    8    0    1
 -2       131       286       285      1653      1654      1649
 -1       412    8    0    1
 -2       132       133       287      1250      1655      1656
 -1       413    8    0    1
 -2       132       287       286      1656      1657      1652
 -1       414    8    0    1
 -2       133       134       288      1251      1658      1659
 -1       415    8    0    1
 -2       133       288       287      1659      1660      1655
 -1       416    8    0    1
 -2       134       135       289      1252      1661      1662
 -1       417    8    0    1
 -2       134       289       288      1662      1663      1658
 -1       418    8    0    1
 -2       135       136       290      1253      1664      1665
 -1       419    8    0    1
 -2       289       135       290      1661      1665      1666
 -1       420    8    0    1
 -2       136       227       290      1477      1667      1664
 -1       421    8    0    1
 -2         2       137       291      1255      1668      1669
 -1       422    8    0    1
 -2       137       138       292      1256      1670      1671
 -1       423    8    0    1
 -2       138       139       293      1257      1672      1673
 -1       424    8    0    1
 -2       139       140       294      1258      1674      1675
 -1       425    8    0    1
 -2       140       141       295      1259      1676      1677
 -1       426    8    0    1
 -2       141       142       296      1260      1678      1679
 -1       427    8    0    1
 -2       142       143       297      1261      1680      1681
 -1       428    8    0    1
 -2       143       144       298      1262      1682      1683
 -1       429    8    0    1
 -2       144       145       299      1263      1684      1685
 -1       430    8    0    1
 -2       145       146       300      1264      1686      1687
 -1       431    8    0    1
 -2       146       147       301      1265      1688      1689
 -1       432    8    0    1
 -2       147       148       302      1266      1690      1691
 -1       433    8    0    1
 -2       148       149       303      1267      1692      1693
 -1       434    8    0    1
 -2       149       150       304      1268      1694      1695
 -1       435    8    0    1
 -2       150       151       305      1269      1696      1697
 -1       436    8    0    1
 -2       151       152       306      1270      1698      1699
 -1       437    8    0    1
 -2       152       153       307      1271      1700      1701
 -1       438    8    0    1
 -2       153       154       308      1272      1702      1703
 -1       439    8    0    1
 -2       154       155       309      1273      1704      1705
 -1       440    8    0    1
 -2       155       156       310      1274      1706      1707
 -1       441    8    0    1
 -2       156       157       311      1275      1708      1709
 -1       442    8    0    1
 -2       157         1       312      1276      1710      1711
 -1       443    8    0    1
 -2         1       158       313      1277      1712      1713
 -1       444    8    0    1
 -2       158       159       314      1278      1714      1715
 -1       445    8    0    1
 -2       159       160       315      1279      1716      1717
 -1       446    8    0    1
 -2       160       161       316      1280      1718      1719
 -1       447    8    0    1
 -2       161       162       317      1281      1720      1721
 -1       448    8    0    1
 -2       162       163       318      1282      1722      1723
 -1       449    8    0    1
 -2       163         2       319      1283      1724      1725
 -1       450    8    0    1
 -2       294       140       295      1674      1677      1726
 -1       451    8    0    1
 -2       293       139       294      1672      1675      1727
 -1       452    8    0    1
 -2       120       121       275      1622      1728      1619
 -1       453    8    0    1
 -2       121       276       275      1624      1729      1728
 -1       454    8    0    1
 -2       291       137       292      1668      1671      1730
 -1       455    8    0    1
 -2       292       138       293      1670      1673      1731
 -1       456    8    0    1
 -2         2       291       319      1669      1732      1724
 -1       457    8    0    1
 -2       141       296       295      1679      1733      1676
 -1       458    8    0    1
 -2       142       297       296      1681      1734      1678
 -1       459    8    0    1
 -2       143       298       297      1683      1735      1680
 -1       460    8    0    1
 -2       144       299       298      1685      1736      1682
 -1       461    8    0    1
 -2       145       300       299      1687      1737      1684
 -1       462    8    0    1
 -2       146       301       300      1689      1738      1686
 -1       463    8    0    1
 -2       147       302       301      1691      1739      1688
 -1       464    8    0    1
 -2       148       303       302      1693      1740      1690
 -1       465    8    0    1
 -2       149       304       303      1695      1741      1692
 -1       466    8    0    1
 -2       150       305       304      1697      1742      1694
 -1       467    8    0    1
 -2       151       306       305      1699      1743      1696
 -1       468    8    0    1
 -2       152       307       306      1701      1744      1698
 -1       469    8    0    1
 -2       153       308       307      1703      1745      1700
 -1       470    8    0    1
 -2       154       309       308      1705      1746      1702
 -1       471    8    0    1
 -2       155       310       309      1707      1747      1704
 -1       472    8    0    1
 -2       156       311       310      1709      1748      1706
 -1       473    8    0    1
 -2       157       312       311      1711      1749      1708
 -1       474    8    0    1
 -2         1       313       312      1713      1750      1710
 -1       475    8    0    1
 -2       158       314       313      1715      1751      1712
 -1       476    8    0    1
 -2       159       315       314      1717      1752      1714
 -1       477    8    0    1
 -2       160       316       315      1719      1753      1716
 -1       478    8    0    1
 -2       161       317       316      1721      1754      1718
 -1       479    8    0    1
 -2       162       318       317      1723      1755      1720
 -1       480    8    0    1
 -2       163       319       318      1725      1756      1722
 -1       481    8    0    1
 -2        23         7       164      1284      1286      1757
 -1       482    8    0    1
 -2       165       166       320      1292      1758      1759
 -1       483    8    0    1
 -2       164       165       321      1289      1760      1761
 -1       484    8    0    1
 -2       165       320       321      1759      1762      1760
 -1       485    8    0    1
 -2       167       168       322      1298      1763      1764
 -1       486    8    0    1
 -2       168       169       323      1301      1765      1766
 -1       487    8    0    1
 -2       168       323       322      1766      1767      1763
 -1       488    8    0    1
 -2       169       170       324      1304      1768      1769
 -1       489    8    0    1
 -2       169       324       323      1769      1770      1765
 -1       490    8    0    1
 -2       170       171       325      1307      1771      1772
 -1       491    8    0    1
 -2       170       325       324      1772      1773      1768
 -1       492    8    0    1
 -2       171       172       326      1310      1774      1775
 -1       493    8    0    1
 -2       171       326       325      1775      1776      1771
 -1       494    8    0    1
 -2       172       173       327      1313      1777      1778
 -1       495    8    0    1
 -2       172       327       326      1778      1779      1774
 -1       496    8    0    1
 -2       173       174       328      1316      1780      1781
 -1       497    8    0    1
 -2       173       328       327      1781      1782      1777
 -1       498    8    0    1
 -2       174       175       329      1319      1783      1784
 -1       499    8    0    1
 -2       174       329       328      1784      1785      1780
 -1       500    8    0    1
 -2       175       176       330      1322      1786      1787
 -1       501    8    0    1
 -2       175       330       329      1787      1788      1783
 -1       502    8    0    1
 -2       176       177       331      1325      1789      1790
 -1       503    8    0    1
 -2       176       331       330      1790      1791      1786
 -1       504    8    0    1
 -2       177       178       332      1328      1792      1793
 -1       505    8    0    1
 -2       177       332       331      1793      1794      1789
 -1       506    8    0    1
 -2       178       179       333      1331      1795      1796
 -1       507    8    0    1
 -2       332       178       333      1792      1796      1797
 -1       508    8    0    1
 -2       179       228       333      1480      1798      1795
 -1       509    8    0    1
 -2       180        23       164      1333      1757      1799
 -1       510    8    0    1
 -2       228       229       334      1483      1800      1801
 -1       511    8    0    1
 -2       228       334       333      1801      1802      1798
 -1       512    8    0    1
 -2       180       164       321      1799      1761      1803
 -1       513    8    0    1
 -2       182       181       335      1340      1804      1805
 -1       514    8    0    1
 -2       183       182       336      1343      1806      1807
 -1       515    8    0    1
 -2       182       335       336      1805      1808      1806
 -1       516    8    0    1
 -2       184       183       337      1346      1809      1810
 -1       517    8    0    1
 -2       183       336       337      1807      1811      1809
 -1       518    8    0    1
 -2       185       184       338      1349      1812      1813
 -1       519    8    0    1
 -2       184       337       338      1810      1814      1812
 -1       520    8    0    1
 -2       186       185       339      1352      1815      1816
 -1       521    8    0    1
 -2       185       338       339      1813      1817      1815
 -1       522    8    0    1
 -2       187       186       340      1355      1818      1819
 -1       523    8    0    1
 -2       186       339       340      1816      1820      1818
 -1       524    8    0    1
 -2       188       187       341      1358      1821      1822
 -1       525    8    0    1
 -2       187       340       341      1819      1823      1821
 -1       526    8    0    1
 -2       189       188       342      1361      1824      1825
 -1       527    8    0    1
 -2       188       341       342      1822      1826      1824
 -1       528    8    0    1
 -2       190       189       343      1364      1827      1828
 -1       529    8    0    1
 -2       189       342       343      1825      1829      1827
 -1       530    8    0    1
 -2       191       190       344      1367      1830      1831
 -1       531    8    0    1
 -2       190       343       344      1828      1832      1830
 -1       532    8    0    1
 -2       192       191       345      1370      1833      1834
 -1       533    8    0    1
 -2       191       344       345      1831      1835      1833
 -1       534    8    0    1
 -2       193       192       346      1373      1836      1837
 -1       535    8    0    1
 -2       192       345       346      1834      1838      1836
 -1       536    8    0    1
 -2       194       193       347      1376      1839      1840
 -1       537    8    0    1
 -2       193       346       347      1837      1841      1839
 -1       538    8    0    1
 -2       195       194       348      1379      1842      1843
 -1       539    8    0    1
 -2       194       347       348      1840      1844      1842
 -1       540    8    0    1
 -2       196       195       349      1382      1845      1846
 -1       541    8    0    1
 -2       195       348       349      1843      1847      1845
 -1       542    8    0    1
 -2       197       196       350      1385      1848      1849
 -1       543    8    0    1
 -2       196       349       350      1846      1850      1848
 -1       544    8    0    1
 -2       198       197       351      1388      1851      1852
 -1       545    8    0    1
 -2       197       350       351      1849      1853      1851
 -1       546    8    0    1
 -2       199       198       352      1391      1854      1855
 -1       547    8    0    1
 -2       198       351       352      1852      1856      1854
 -1       548    8    0    1
 -2       200       199       353      1394      1857      1858
 -1       549    8    0    1
 -2       199       352       353      1855      1859      1857
 -1       550    8    0    1
 -2       201       200       354      1397      1860      1861
 -1       551    8    0    1
 -2       200       353       354      1858      1862      1860
 -1       552    8    0    1
 -2       202       201       355      1400      1863      1864
 -1       553    8    0    1
 -2       201       354       355      1861      1865      1863
 -1       554    8    0    1
 -2       203       202       356      1403      1866      1867
 -1       555    8    0    1
 -2       202       355       356      1864      1868      1866
 -1       556    8    0    1
 -2       204       203       357      1406      1869      1870
 -1       557    8    0    1
 -2       203       356       357      1867      1871      1869
 -1       558    8    0    1
 -2       205       204       358      1409      1872      1873
 -1       559    8    0    1
 -2       204       357       358      1870      1874      1872
 -1       560    8    0    1
 -2       206       205       359      1412      1875      1876
 -1       561    8    0    1
 -2       205       358       359      1873      1877      1875
 -1       562    8    0    1
 -2       207       206       360      1415      1878      1879
 -1       563    8    0    1
 -2       206       359       360      1876      1880      1878
 -1       564    8    0    1
 -2       208       207       361      1418      1881      1882
 -1       565    8    0    1
 -2       207       360       361      1879      1883      1881
 -1       566    8    0    1
 -2       209       208       362      1421      1884      1885
 -1       567    8    0    1
 -2       208       361       362      1882      1886      1884
 -1       568    8    0    1
 -2       210       209       363      1424      1887      1888
 -1       569    8    0    1
 -2       209       362       363      1885      1889      1887
 -1       570    8    0    1
 -2       211       210       364      1427      1890      1891
 -1       571    8    0    1
 -2       210       363       364      1888      1892      1890
 -1       572    8    0    1
 -2       212       211       365      1430      1893      1894
 -1       573    8    0    1
 -2       211       364       365      1891      1895      1893
 -1       574    8    0    1
 -2       213       212       366      1433      1896      1897
 -1       575    8    0    1
 -2       212       365       366      1894      1898      1896
 -1       576    8    0    1
 -2       214       213       367      1436      1899      1900
 -1       577    8    0    1
 -2       213       366       367      1897      1901      1899
 -1       578    8    0    1
 -2       215       214       368      1439      1902      1903
 -1       579    8    0    1
 -2       214       367       368      1900      1904      1902
 -1       580    8    0    1
 -2       216       215       369      1442      1905      1906
 -1       581    8    0    1
 -2       215       368       369      1903      1907      1905
 -1       582    8    0    1
 -2       217       216       370      1445      1908      1909
 -1       583    8    0    1
 -2       216       369       370      1906      1910      1908
 -1       584    8    0    1
 -2       218       217       371      1448      1911      1912
 -1       585    8    0    1
 -2       217       370       371      1909      1913      1911
 -1       586    8    0    1
 -2       219       218       372      1451      1914      1915
 -1       587    8    0    1
 -2       218       371       372      1912      1916      1914
 -1       588    8    0    1
 -2       220       219       373      1454      1917      1918
 -1       589    8    0    1
 -2       219       372       373      1915      1919      1917
 -1       590    8    0    1
 -2       221       220       374      1457      1920      1921
 -1       591    8    0    1
 -2       220       373       374      1918      1922      1920
 -1       592    8    0    1
 -2       222       221       375      1460      1923      1924
 -1       593    8    0    1
 -2       221       374       375      1921      1925      1923
 -1       594    8    0    1
 -2       223       222       376      1463      1926      1927
 -1       595    8    0    1
 -2       222       375       376      1924      1928      1926
 -1       596    8    0    1
 -2       224       223       377      1466      1929      1930
 -1       597    8    0    1
 -2       223       376       377      1927      1931      1929
 -1       598    8    0    1
 -2       225       224       378      1469      1932      1933
 -1       599    8    0    1
 -2       224       377       378      1930      1934      1932
 -1       600    8    0    1
 -2       226       225       379      1472      1935      1936
 -1       601    8    0    1
 -2       225       378       379      1933      1937      1935
 -1       602    8    0    1
 -2       227       226       380      1475      1938      1939
 -1       603    8    0    1
 -2       290       227       380      1667      1939      1940
 -1       604    8    0    1
 -2       226       379       380      1936      1941      1938
 -1       605    8    0    1
 -2       229       230       381      1486      1942      1943
 -1       606    8    0    1
 -2       229       381       334      1943      1944      1800
 -1       607    8    0    1
 -2       230       231       382      1489      1945      1946
 -1       608    8    0    1
 -2       230       382       381      1946      1947      1942
 -1       609    8    0    1
 -2       231       232       383      1492      1948      1949
 -1       610    8    0    1
 -2       231       383       382      1949      1950      1945
 -1       611    8    0    1
 -2       232       233       384      1495      1951      1952
 -1       612    8    0    1
 -2       232       384       383      1952      1953      1948
 -1       613    8    0    1
 -2       233       234       385      1498      1954      1955
 -1       614    8    0    1
 -2       233       385       384      1955      1956      1951
 -1       615    8    0    1
 -2       234       235       386      1501      1957      1958
 -1       616    8    0    1
 -2       234       386       385      1958      1959      1954
 -1       617    8    0    1
 -2       235       236       387      1504      1960      1961
 -1       618    8    0    1
 -2       235       387       386      1961      1962      1957
 -1       619    8    0    1
 -2       236       237       388      1507      1963      1964
 -1       620    8    0    1
 -2       236       388       387      1964      1965      1960
 -1       621    8    0    1
 -2       237       238       389      1510      1966      1967
 -1       622    8    0    1
 -2       237       389       388      1967      1968      1963
 -1       623    8    0    1
 -2       238       239       390      1513      1969      1970
 -1       624    8    0    1
 -2       238       390       389      1970      1971      1966
 -1       625    8    0    1
 -2       239       240       391      1516      1972      1973
 -1       626    8    0    1
 -2       239       391       390      1973      1974      1969
 -1       627    8    0    1
 -2       240       241       392      1519      1975      1976
 -1       628    8    0    1
 -2       240       392       391      1976      1977      1972
 -1       629    8    0    1
 -2       241       242       393      1522      1978      1979
 -1       630    8    0    1
 -2       241       393       392      1979      1980      1975
 -1       631    8    0    1
 -2       242       243       394      1525      1981      1982
 -1       632    8    0    1
 -2       242       394       393      1982      1983      1978
 -1       633    8    0    1
 -2       243       244       395      1528      1984      1985
 -1       634    8    0    1
 -2       243       395       394      1985      1986      1981
 -1       635    8    0    1
 -2       244       245       396      1531      1987      1988
 -1       636    8    0    1
 -2       244       396       395      1988      1989      1984
 -1       637    8    0    1
 -2       245       246       397      1534      1990      1991
 -1       638    8    0    1
 -2       245       397       396      1991      1992      1987
 -1       639    8    0    1
 -2       246       247       398      1537      1993      1994
 -1       640    8    0    1
 -2       246       398       397      1994      1995      1990
 -1       641    8    0    1
 -2       247       248       399      1540      1996      1997
 -1       642    8    0    1
 -2       247       399       398      1997      1998      1993
 -1       643    8    0    1
 -2       248       249       400      1543      1999      2000
 -1       644    8    0    1
 -2       248       400       399      2000      2001      1996
 -1       645    8    0    1
 -2       249       250       401      1546      2002      2003
 -1       646    8    0    1
 -2       249       401       400      2003      2004      1999
 -1       647    8    0    1
 -2       250       251       402      1549      2005      2006
 -1       648    8    0    1
 -2       250       402       401      2006      2007      2002
 -1       649    8    0    1
 -2       251       252       403      1552      2008      2009
 -1       650    8    0    1
 -2       251       403       402      2009      2010      2005
 -1       651    8    0    1
 -2       252       253       404      1555      2011      2012
 -1       652    8    0    1
 -2       252       404       403      2012      2013      2008
 -1       653    8    0    1
 -2       253       254       405      1558      2014      2015
 -1       654    8    0    1
 -2       253       405       404      2015      2016      2011
 -1       655    8    0    1
 -2       254       255       406      1561      2017      2018
 -1       656    8    0    1
 -2       254       406       405      2018      2019      2014
 -1       657    8    0    1
 -2       255       256       407      1564      2020      2021
 -1       658    8    0    1
 -2       255       407       406      2021      2022      2017
 -1       659    8    0    1
 -2       256       257       408      1567      2023      2024
 -1       660    8    0    1
 -2       256       408       407      2024      2025      2020
 -1       661    8    0    1
 -2       257       258       409      1570      2026      2027
 -1       662    8    0    1
 -2       257       409       408      2027      2028      2023
 -1       663    8    0    1
 -2       258       259       410      1573      2029      2030
 -1       664    8    0    1
 -2       258       410       409      2030      2031      2026
 -1       665    8    0    1
 -2       259       260       411      1576      2032      2033
 -1       666    8    0    1
 -2       259       411       410      2033      2034      2029
 -1       667    8    0    1
 -2       260       261       412      1579      2035      2036
 -1       668    8    0    1
 -2       260       412       411      2036      2037      2032
 -1       669    8    0    1
 -2       261       262       413      1582      2038      2039
 -1       670    8    0    1
 -2       261       413       412      2039      2040      2035
 -1       671    8    0    1
 -2       262       263       414      1585      2041      2042
 -1       672    8    0    1
 -2       262       414       413      2042      2043      2038
 -1       673    8    0    1
 -2       263       264       415      1588      2044      2045
 -1       674    8    0    1
 -2       263       415       414      2045      2046      2041
 -1       675    8    0    1
 -2       264       265       416      1591      2047      2048
 -1       676    8    0    1
 -2       264       416       415      2048      2049      2044
 -1       677    8    0    1
 -2       265       266       417      1594      2050      2051
 -1       678    8    0    1
 -2       265       417       416      2051      2052      2047
 -1       679    8    0    1
 -2       266       267       418      1597      2053      2054
 -1       680    8    0    1
 -2       266       418       417      2054      2055      2050
 -1       681    8    0    1
 -2       267       268       419      1600      2056      2057
 -1       682    8    0    1
 -2       267       419       418      2057      2058      2053
 -1       683    8    0    1
 -2       268       269       420      1603      2059      2060
 -1       684    8    0    1
 -2       268       420       419      2060      2061      2056
 -1       685    8    0    1
 -2       269       270       421      1606      2062      2063
 -1       686    8    0    1
 -2       269       421       420      2063      2064      2059
 -1       687    8    0    1
 -2       270       271       422      1609      2065      2066
 -1       688    8    0    1
 -2       270       422       421      2066      2067      2062
 -1       689    8    0    1
 -2       271       272       423      1612      2068      2069
 -1       690    8    0    1
 -2       271       423       422      2069      2070      2065
 -1       691    8    0    1
 -2       272       273       424      1615      2071      2072
 -1       692    8    0    1
 -2       272       424       423      2072      2073      2068
 -1       693    8    0    1
 -2       273       274       425      1618      2074      2075
 -1       694    8    0    1
 -2       273       425       424      2075      2076      2071
 -1       695    8    0    1
 -2       274       275       426      1621      2077      2078
 -1       696    8    0    1
 -2       425       274       426      2074      2078      2079
 -1       697    8    0    1
 -2       275       276       426      1729      2080      2077
 -1       698    8    0    1
 -2       278       279       427      1633      2081      2082
 -1       699    8    0    1
 -2       277       278       428      1630      2083      2084
 -1       700    8    0    1
 -2       278       427       428      2082      2085      2083
 -1       701    8    0    1
 -2       276       277       429      1627      2086      2087
 -1       702    8    0    1
 -2       426       276       429      2080      2087      2088
 -1       703    8    0    1
 -2       277       428       429      2084      2089      2086
 -1       704    8    0    1
 -2       279       280       430      1636      2090      2091
 -1       705    8    0    1
 -2       279       430       427      2091      2092      2081
 -1       706    8    0    1
 -2       280       281       431      1639      2093      2094
 -1       707    8    0    1
 -2       280       431       430      2094      2095      2090
 -1       708    8    0    1
 -2       281       282       432      1642      2096      2097
 -1       709    8    0    1
 -2       281       432       431      2097      2098      2093
 -1       710    8    0    1
 -2       282       283       433      1645      2099      2100
 -1       711    8    0    1
 -2       282       433       432      2100      2101      2096
 -1       712    8    0    1
 -2       283       284       434      1648      2102      2103
 -1       713    8    0    1
 -2       283       434       433      2103      2104      2099
 -1       714    8    0    1
 -2       284       285       435      1651      2105      2106
 -1       715    8    0    1
 -2       284       435       434      2106      2107      2102
 -1       716    8    0    1
 -2       285       286       436      1654      2108      2109
 -1       717    8    0    1
 -2       285       436       435      2109      2110      2105
 -1       718    8    0    1
 -2       286       287       437      1657      2111      2112
 -1       719    8    0    1
 -2       286       437       436      2112      2113      2108
 -1       720    8    0    1
 -2       287       288       438      1660      2114      2115
 -1       721    8    0    1
 -2       287       438       437      2115      2116      2111
 -1       722    8    0    1
 -2       288       289       439      1663      2117      2118
 -1       723    8    0    1
 -2       288       439       438      2118      2119      2114
 -1       724    8    0    1
 -2       292       293       440      1731      2120      2121
 -1       725    8    0    1
 -2       319       291       441      1732      2122      2123
 -1       726    8    0    1
 -2       291       292       442      1730      2124      2125
 -1       727    8    0    1
 -2       291       442       441      2125      2126      2122
 -1       728    8    0    1
 -2       293       294       443      1727      2127      2128
 -1       729    8    0    1
 -2       294       295       444      1726      2129      2130
 -1       730    8    0    1
 -2       166       167       445      1295      2131      2132
 -1       731    8    0    1
 -2       320       166       445      1758      2132      2133
 -1       732    8    0    1
 -2       167       322       445      1764      2134      2131
 -1       733    8    0    1
 -2       296       297       446      1734      2135      2136
 -1       734    8    0    1
 -2       297       298       447      1735      2137      2138
 -1       735    8    0    1
 -2       298       299       448      1736      2139      2140
 -1       736    8    0    1
 -2       299       300       449      1737      2141      2142
 -1       737    8    0    1
 -2       300       301       450      1738      2143      2144
 -1       738    8    0    1
 -2       301       302       451      1739      2145      2146
 -1       739    8    0    1
 -2       302       303       452      1740      2147      2148
 -1       740    8    0    1
 -2       303       304       453      1741      2149      2150
 -1       741    8    0    1
 -2       304       305       454      1742      2151      2152
 -1       742    8    0    1
 -2       304       454       453      2152      2153      2149
 -1       743    8    0    1
 -2       305       306       455      1743      2154      2155
 -1       744    8    0    1
 -2       306       307       456      1744      2156      2157
 -1       745    8    0    1
 -2       306       456       455      2157      2158      2154
 -1       746    8    0    1
 -2       307       308       457      1745      2159      2160
 -1       747    8    0    1
 -2       308       309       458      1746      2161      2162
 -1       748    8    0    1
 -2       309       310       459      1747      2163      2164
 -1       749    8    0    1
 -2       310       311       460      1748      2165      2166
 -1       750    8    0    1
 -2       311       312       461      1749      2167      2168
 -1       751    8    0    1
 -2       312       313       462      1750      2169      2170
 -1       752    8    0    1
 -2       313       314       463      1751      2171      2172
 -1       753    8    0    1
 -2       314       315       464      1752      2173      2174
 -1       754    8    0    1
 -2       315       316       465      1753      2175      2176
 -1       755    8    0    1
 -2       316       317       466      1754      2177      2178
 -1       756    8    0    1
 -2       317       318       467      1755      2179      2180
 -1       757    8    0    1
 -2       318       319       468      1756      2181      2182
 -1       758    8    0    1
 -2       295       296       469      1733      2183      2184
 -1       759    8    0    1
 -2       444       295       470      2129      2185      2186
 -1       760    8    0    1
 -2       295       469       470      2184      2187      2185
 -1       761    8    0    1
 -2       180       321       181      1803      2188      1337
 -1       762    8    0    1
 -2       296       446       469      2136      2189      2183
 -1       763    8    0    1
 -2       335       181       321      1804      2188      2190
 -1       764    8    0    1
 -2       442       292       440      2124      2121      2191
 -1       765    8    0    1
 -2       293       443       440      2128      2192      2120
 -1       766    8    0    1
 -2       439       289       290      2117      1666      2193
 -1       767    8    0    1
 -2       319       441       468      2123      2194      2181
 -1       768    8    0    1
 -2       443       294       444      2127      2130      2195
 -1       769    8    0    1
 -2       467       318       468      2179      2182      2196
 -1       770    8    0    1
 -2       466       317       467      2177      2180      2197
 -1       771    8    0    1
 -2       465       316       466      2175      2178      2198
 -1       772    8    0    1
 -2       464       315       465      2173      2176      2199
 -1       773    8    0    1
 -2       463       314       464      2171      2174      2200
 -1       774    8    0    1
 -2       462       313       463      2169      2172      2201
 -1       775    8    0    1
 -2       461       312       462      2167      2170      2202
 -1       776    8    0    1
 -2       460       311       471      2165      2203      2204
 -1       777    8    0    1
 -2       311       461       471      2168      2205      2203
 -1       778    8    0    1
 -2       459       310       460      2163      2166      2206
 -1       779    8    0    1
 -2       458       309       459      2161      2164      2207
 -1       780    8    0    1
 -2       456       307       457      2156      2160      2208
 -1       781    8    0    1
 -2       454       305       472      2151      2209      2210
 -1       782    8    0    1
 -2       305       455       472      2155      2211      2209
 -1       783    8    0    1
 -2       452       303       453      2147      2150      2212
 -1       784    8    0    1
 -2       451       302       452      2145      2148      2213
 -1       785    8    0    1
 -2       450       301       451      2143      2146      2214
 -1       786    8    0    1
 -2       449       300       473      2141      2215      2216
 -1       787    8    0    1
 -2       300       450       473      2144      2217      2215
 -1       788    8    0    1
 -2       448       299       449      2139      2142      2218
 -1       789    8    0    1
 -2       446       297       447      2135      2138      2219
 -1       790    8    0    1
 -2       447       298       448      2137      2140      2220
 -1       791    8    0    1
 -2       457       308       458      2159      2162      2221
 -1       792    8    0    1
 -2       334       381       474      1944      2222      2223
 -1       793    8    0    1
 -2       323       324       475      1770      2224      2225
 -1       794    8    0    1
 -2       322       323       476      1767      2226      2227
 -1       795    8    0    1
 -2       323       475       476      2225      2228      2226
 -1       796    8    0    1
 -2       325       326       477      1776      2229      2230
 -1       797    8    0    1
 -2       326       327       478      1779      2231      2232
 -1       798    8    0    1
 -2       326       478       477      2232      2233      2229
 -1       799    8    0    1
 -2       327       328       479      1782      2234      2235
 -1       800    8    0    1
 -2       327       479       478      2235      2236      2231
 -1       801    8    0    1
 -2       328       329       480      1785      2237      2238
 -1       802    8    0    1
 -2       328       480       479      2238      2239      2234
 -1       803    8    0    1
 -2       329       330       481      1788      2240      2241
 -1       804    8    0    1
 -2       329       481       480      2241      2242      2237
 -1       805    8    0    1
 -2       330       331       482      1791      2243      2244
 -1       806    8    0    1
 -2       330       482       481      2244      2245      2240
 -1       807    8    0    1
 -2       381       382       483      1947      2246      2247
 -1       808    8    0    1
 -2       381       483       474      2247      2248      2222
 -1       809    8    0    1
 -2       336       335       484      1808      2249      2250
 -1       810    8    0    1
 -2       469       446       485      2189      2251      2252
 -1       811    8    0    1
 -2       337       336       486      1811      2253      2254
 -1       812    8    0    1
 -2       336       484       486      2250      2255      2253
 -1       813    8    0    1
 -2       338       337       487      1814      2256      2257
 -1       814    8    0    1
 -2       337       486       487      2254      2258      2256
 -1       815    8    0    1
 -2       339       338       488      1817      2259      2260
 -1       816    8    0    1
 -2       338       487       488      2257      2261      2259
 -1       817    8    0    1
 -2       340       339       489      1820      2262      2263
 -1       818    8    0    1
 -2       339       488       489      2260      2264      2262
 -1       819    8    0    1
 -2       341       340       490      1823      2265      2266
 -1       820    8    0    1
 -2       340       489       490      2263      2267      2265
 -1       821    8    0    1
 -2       342       341       491      1826      2268      2269
 -1       822    8    0    1
 -2       341       490       491      2266      2270      2268
 -1       823    8    0    1
 -2       343       342       492      1829      2271      2272
 -1       824    8    0    1
 -2       342       491       492      2269      2273      2271
 -1       825    8    0    1
 -2       344       343       493      1832      2274      2275
 -1       826    8    0    1
 -2       343       492       493      2272      2276      2274
 -1       827    8    0    1
 -2       345       344       494      1835      2277      2278
 -1       828    8    0    1
 -2       344       493       494      2275      2279      2277
 -1       829    8    0    1
 -2       346       345       495      1838      2280      2281
 -1       830    8    0    1
 -2       345       494       495      2278      2282      2280
 -1       831    8    0    1
 -2       347       346       496      1841      2283      2284
 -1       832    8    0    1
 -2       346       495       496      2281      2285      2283
 -1       833    8    0    1
 -2       348       347       497      1844      2286      2287
 -1       834    8    0    1
 -2       347       496       497      2284      2288      2286
 -1       835    8    0    1
 -2       349       348       498      1847      2289      2290
 -1       836    8    0    1
 -2       348       497       498      2287      2291      2289
 -1       837    8    0    1
 -2       350       349       499      1850      2292      2293
 -1       838    8    0    1
 -2       349       498       499      2290      2294      2292
 -1       839    8    0    1
 -2       351       350       500      1853      2295      2296
 -1       840    8    0    1
 -2       350       499       500      2293      2297      2295
 -1       841    8    0    1
 -2       352       351       501      1856      2298      2299
 -1       842    8    0    1
 -2       351       500       501      2296      2300      2298
 -1       843    8    0    1
 -2       353       352       502      1859      2301      2302
 -1       844    8    0    1
 -2       352       501       502      2299      2303      2301
 -1       845    8    0    1
 -2       354       353       503      1862      2304      2305
 -1       846    8    0    1
 -2       353       502       503      2302      2306      2304
 -1       847    8    0    1
 -2       355       354       504      1865      2307      2308
 -1       848    8    0    1
 -2       354       503       504      2305      2309      2307
 -1       849    8    0    1
 -2       356       355       505      1868      2310      2311
 -1       850    8    0    1
 -2       355       504       505      2308      2312      2310
 -1       851    8    0    1
 -2       357       356       506      1871      2313      2314
 -1       852    8    0    1
 -2       356       505       506      2311      2315      2313
 -1       853    8    0    1
 -2       358       357       507      1874      2316      2317
 -1       854    8    0    1
 -2       357       506       507      2314      2318      2316
 -1       855    8    0    1
 -2       359       358       508      1877      2319      2320
 -1       856    8    0    1
 -2       358       507       508      2317      2321      2319
 -1       857    8    0    1
 -2       360       359       509      1880      2322      2323
 -1       858    8    0    1
 -2       359       508       509      2320      2324      2322
 -1       859    8    0    1
 -2       361       360       510      1883      2325      2326
 -1       860    8    0    1
 -2       360       509       510      2323      2327      2325
 -1       861    8    0    1
 -2       362       361       511      1886      2328      2329
 -1       862    8    0    1
 -2       361       510       511      2326      2330      2328
 -1       863    8    0    1
 -2       363       362       512      1889      2331      2332
 -1       864    8    0    1
 -2       362       511       512      2329      2333      2331
 -1       865    8    0    1
 -2       364       363       513      1892      2334      2335
 -1       866    8    0    1
 -2       363       512       513      2332      2336      2334
 -1       867    8    0    1
 -2       365       364       514      1895      2337      2338
 -1       868    8    0    1
 -2       364       513       514      2335      2339      2337
 -1       869    8    0    1
 -2       366       365       515      1898      2340      2341
 -1       870    8    0    1
 -2       365       514       515      2338      2342      2340
 -1       871    8    0    1
 -2       367       366       516      1901      2343      2344
 -1       872    8    0    1
 -2       366       515       516      2341      2345      2343
 -1       873    8    0    1
 -2       368       367       517      1904      2346      2347
 -1       874    8    0    1
 -2       367       516       517      2344      2348      2346
 -1       875    8    0    1
 -2       369       368       518      1907      2349      2350
 -1       876    8    0    1
 -2       368       517       518      2347      2351      2349
 -1       877    8    0    1
 -2       370       369       519      1910      2352      2353
 -1       878    8    0    1
 -2       369       518       519      2350      2354      2352
 -1       879    8    0    1
 -2       371       370       520      1913      2355      2356
 -1       880    8    0    1
 -2       370       519       520      2353      2357      2355
 -1       881    8    0    1
 -2       372       371       521      1916      2358      2359
 -1       882    8    0    1
 -2       371       520       521      2356      2360      2358
 -1       883    8    0    1
 -2       373       372       522      1919      2361      2362
 -1       884    8    0    1
 -2       372       521       522      2359      2363      2361
 -1       885    8    0    1
 -2       374       373       523      1922      2364      2365
 -1       886    8    0    1
 -2       373       522       523      2362      2366      2364
 -1       887    8    0    1
 -2       375       374       524      1925      2367      2368
 -1       888    8    0    1
 -2       374       523       524      2365      2369      2367
 -1       889    8    0    1
 -2       376       375       525      1928      2370      2371
 -1       890    8    0    1
 -2       375       524       525      2368      2372      2370
 -1       891    8    0    1
 -2       377       376       526      1931      2373      2374
 -1       892    8    0    1
 -2       376       525       526      2371      2375      2373
 -1       893    8    0    1
 -2       378       377       527      1934      2376      2377
 -1       894    8    0    1
 -2       377       526       527      2374      2378      2376
 -1       895    8    0    1
 -2       379       378       528      1937      2379      2380
 -1       896    8    0    1
 -2       378       527       528      2377      2381      2379
 -1       897    8    0    1
 -2       383       384       529      1953      2382      2383
 -1       898    8    0    1
 -2       384       385       530      1956      2384      2385
 -1       899    8    0    1
 -2       384       530       529      2385      2386      2382
 -1       900    8    0    1
 -2       385       386       531      1959      2387      2388
 -1       901    8    0    1
 -2       385       531       530      2388      2389      2384
 -1       902    8    0    1
 -2       386       387       532      1962      2390      2391
 -1       903    8    0    1
 -2       386       532       531      2391      2392      2387
 -1       904    8    0    1
 -2       387       388       533      1965      2393      2394
 -1       905    8    0    1
 -2       387       533       532      2394      2395      2390
 -1       906    8    0    1
 -2       388       389       534      1968      2396      2397
 -1       907    8    0    1
 -2       388       534       533      2397      2398      2393
 -1       908    8    0    1
 -2       389       390       535      1971      2399      2400
 -1       909    8    0    1
 -2       389       535       534      2400      2401      2396
 -1       910    8    0    1
 -2       390       391       536      1974      2402      2403
 -1       911    8    0    1
 -2       390       536       535      2403      2404      2399
 -1       912    8    0    1
 -2       391       392       537      1977      2405      2406
 -1       913    8    0    1
 -2       391       537       536      2406      2407      2402
 -1       914    8    0    1
 -2       392       393       538      1980      2408      2409
 -1       915    8    0    1
 -2       392       538       537      2409      2410      2405
 -1       916    8    0    1
 -2       393       394       539      1983      2411      2412
 -1       917    8    0    1
 -2       393       539       538      2412      2413      2408
 -1       918    8    0    1
 -2       394       395       540      1986      2414      2415
 -1       919    8    0    1
 -2       394       540       539      2415      2416      2411
 -1       920    8    0    1
 -2       395       396       541      1989      2417      2418
 -1       921    8    0    1
 -2       395       541       540      2418      2419      2414
 -1       922    8    0    1
 -2       396       397       542      1992      2420      2421
 -1       923    8    0    1
 -2       396       542       541      2421      2422      2417
 -1       924    8    0    1
 -2       397       398       543      1995      2423      2424
 -1       925    8    0    1
 -2       397       543       542      2424      2425      2420
 -1       926    8    0    1
 -2       398       399       544      1998      2426      2427
 -1       927    8    0    1
 -2       398       544       543      2427      2428      2423
 -1       928    8    0    1
 -2       399       400       545      2001      2429      2430
 -1       929    8    0    1
 -2       399       545       544      2430      2431      2426
 -1       930    8    0    1
 -2       400       401       546      2004      2432      2433
 -1       931    8    0    1
 -2       400       546       545      2433      2434      2429
 -1       932    8    0    1
 -2       401       402       547      2007      2435      2436
 -1       933    8    0    1
 -2       401       547       546      2436      2437      2432
 -1       934    8    0    1
 -2       402       403       548      2010      2438      2439
 -1       935    8    0    1
 -2       402       548       547      2439      2440      2435
 -1       936    8    0    1
 -2       403       404       549      2013      2441      2442
 -1       937    8    0    1
 -2       403       549       548      2442      2443      2438
 -1       938    8    0    1
 -2       404       405       550      2016      2444      2445
 -1       939    8    0    1
 -2       404       550       549      2445      2446      2441
 -1       940    8    0    1
 -2       405       406       551      2019      2447      2448
 -1       941    8    0    1
 -2       405       551       550      2448      2449      2444
 -1       942    8    0    1
 -2       406       407       552      2022      2450      2451
 -1       943    8    0    1
 -2       406       552       551      2451      2452      2447
 -1       944    8    0    1
 -2       407       408       553      2025      2453      2454
 -1       945    8    0    1
 -2       407       553       552      2454      2455      2450
 -1       946    8    0    1
 -2       408       409       554      2028      2456      2457
 -1       947    8    0    1
 -2       408       554       553      2457      2458      2453
 -1       948    8    0    1
 -2       409       410       555      2031      2459      2460
 -1       949    8    0    1
 -2       409       555       554      2460      2461      2456
 -1       950    8    0    1
 -2       410       411       556      2034      2462      2463
 -1       951    8    0    1
 -2       410       556       555      2463      2464      2459
 -1       952    8    0    1
 -2       411       412       557      2037      2465      2466
 -1       953    8    0    1
 -2       411       557       556      2466      2467      2462
 -1       954    8    0    1
 -2       412       413       558      2040      2468      2469
 -1       955    8    0    1
 -2       412       558       557      2469      2470      2465
 -1       956    8    0    1
 -2       413       414       559      2043      2471      2472
 -1       957    8    0    1
 -2       413       559       558      2472      2473      2468
 -1       958    8    0    1
 -2       414       415       560      2046      2474      2475
 -1       959    8    0    1
 -2       414       560       559      2475      2476      2471
 -1       960    8    0    1
 -2       415       416       561      2049      2477      2478
 -1       961    8    0    1
 -2       415       561       560      2478      2479      2474
 -1       962    8    0    1
 -2       416       417       562      2052      2480      2481
 -1       963    8    0    1
 -2       416       562       561      2481      2482      2477
 -1       964    8    0    1
 -2       417       418       563      2055      2483      2484
 -1       965    8    0    1
 -2       417       563       562      2484      2485      2480
 -1       966    8    0    1
 -2       418       419       564      2058      2486      2487
 -1       967    8    0    1
 -2       418       564       563      2487      2488      2483
 -1       968    8    0    1
 -2       419       420       565      2061      2489      2490
 -1       969    8    0    1
 -2       419       565       564      2490      2491      2486
 -1       970    8    0    1
 -2       420       421       566      2064      2492      2493
 -1       971    8    0    1
 -2       420       566       565      2493      2494      2489
 -1       972    8    0    1
 -2       421       422       567      2067      2495      2496
 -1       973    8    0    1
 -2       421       567       566      2496      2497      2492
 -1       974    8    0    1
 -2       422       423       568      2070      2498      2499
 -1       975    8    0    1
 -2       422       568       567      2499      2500      2495
 -1       976    8    0    1
 -2       423       424       569      2073      2501      2502
 -1       977    8    0    1
 -2       423       569       568      2502      2503      2498
 -1       978    8    0    1
 -2       424       425       570      2076      2504      2505
 -1       979    8    0    1
 -2       424       570       569      2505      2506      2501
 -1       980    8    0    1
 -2       425       426       429      2079      2088      2507
 -1       981    8    0    1
 -2       430       431       571      2095      2508      2509
 -1       982    8    0    1
 -2       431       432       572      2098      2510      2511
 -1       983    8    0    1
 -2       431       572       571      2511      2512      2508
 -1       984    8    0    1
 -2       428       427       573      2085      2513      2514
 -1       985    8    0    1
 -2       427       430       574      2092      2515      2516
 -1       986    8    0    1
 -2       573       427       574      2513      2516      2517
 -1       987    8    0    1
 -2       430       571       574      2509      2518      2515
 -1       988    8    0    1
 -2       432       433       575      2101      2519      2520
 -1       989    8    0    1
 -2       432       575       572      2520      2521      2510
 -1       990    8    0    1
 -2       433       434       576      2104      2522      2523
 -1       991    8    0    1
 -2       433       576       575      2523      2524      2519
 -1       992    8    0    1
 -2       434       435       577      2107      2525      2526
 -1       993    8    0    1
 -2       434       577       576      2526      2527      2522
 -1       994    8    0    1
 -2       435       436       578      2110      2528      2529
 -1       995    8    0    1
 -2       435       578       577      2529      2530      2525
 -1       996    8    0    1
 -2       436       437       579      2113      2531      2532
 -1       997    8    0    1
 -2       436       579       578      2532      2533      2528
 -1       998    8    0    1
 -2       437       438       580      2116      2534      2535
 -1       999    8    0    1
 -2       437       580       579      2535      2536      2531
 -1      1000    8    0    1
 -2       438       439       581      2119      2537      2538
 -1      1001    8    0    1
 -2       438       581       580      2538      2539      2534
 -1      1002    8    0    1
 -2       440       443       582      2192      2540      2541
 -1      1003    8    0    1
 -2       439       290       380      2193      1940      2542
 -1      1004    8    0    1
 -2       468       441       583      2194      2543      2544
 -1      1005    8    0    1
 -2       382       383       584      1950      2545      2546
 -1      1006    8    0    1
 -2       383       529       584      2383      2547      2545
 -1      1007    8    0    1
 -2       441       442       585      2126      2548      2549
 -1      1008    8    0    1
 -2       467       468       586      2196      2550      2551
 -1      1009    8    0    1
 -2       335       321       587      2190      2552      2553
 -1      1010    8    0    1
 -2       484       335       587      2249      2553      2554
 -1      1011    8    0    1
 -2       321       320       587      1762      2555      2552
 -1      1012    8    0    1
 -2       443       444       588      2195      2556      2557
 -1      1013    8    0    1
 -2       443       588       582      2557      2558      2540
 -1      1014    8    0    1
 -2       452       453       589      2212      2559      2560
 -1      1015    8    0    1
 -2       324       325       590      1773      2561      2562
 -1      1016    8    0    1
 -2       475       324       590      2224      2562      2563
 -1      1017    8    0    1
 -2       325       477       590      2230      2564      2561
 -1      1018    8    0    1
 -2       447       448       591      2220      2565      2566
 -1      1019    8    0    1
 -2       457       458       592      2221      2567      2568
 -1      1020    8    0    1
 -2       446       447       593      2219      2569      2570
 -1      1021    8    0    1
 -2       448       449       594      2218      2571      2572
 -1      1022    8    0    1
 -2       448       594       591      2572      2573      2565
 -1      1023    8    0    1
 -2       450       451       595      2214      2574      2575
 -1      1024    8    0    1
 -2       451       452       596      2213      2576      2577
 -1      1025    8    0    1
 -2       451       596       595      2577      2578      2574
 -1      1026    8    0    1
 -2       453       454       597      2153      2579      2580
 -1      1027    8    0    1
 -2       455       456       598      2158      2581      2582
 -1      1028    8    0    1
 -2       456       457       599      2208      2583      2584
 -1      1029    8    0    1
 -2       458       459       600      2207      2585      2586
 -1      1030    8    0    1
 -2       458       600       592      2586      2587      2567
 -1      1031    8    0    1
 -2       459       460       601      2206      2588      2589
 -1      1032    8    0    1
 -2       461       462       602      2202      2590      2591
 -1      1033    8    0    1
 -2       462       463       603      2201      2592      2593
 -1      1034    8    0    1
 -2       463       464       604      2200      2594      2595
 -1      1035    8    0    1
 -2       464       465       605      2199      2596      2597
 -1      1036    8    0    1
 -2       465       466       606      2198      2598      2599
 -1      1037    8    0    1
 -2       466       467       607      2197      2600      2601
 -1      1038    8    0    1
 -2       467       586       607      2551      2602      2600
 -1      1039    8    0    1
 -2       442       440       608      2191      2603      2604
 -1      1040    8    0    1
 -2       333       334       609      1802      2605      2606
 -1      1041    8    0    1
 -2       332       333       609      1797      2606      2607
 -1      1042    8    0    1
 -2       334       474       609      2223      2608      2605
 -1      1043    8    0    1
 -2       447       591       593      2566      2609      2569
 -1      1044    8    0    1
 -2       322       476       610      2227      2610      2611
 -1      1045    8    0    1
 -2       322       610       445      2611      2612      2134
 -1      1046    8    0    1
 -2       483       382       584      2246      2546      2613
 -1      1047    8    0    1
 -2       331       332       609      1794      2607      2614
 -1      1048    8    0    1
 -2       588       444       611      2556      2615      2616
 -1      1049    8    0    1
 -2       444       470       611      2186      2617      2615
 -1      1050    8    0    1
 -2       469       485       612      2252      2618      2619
 -1      1051    8    0    1
 -2       469       612       470      2619      2620      2187
 -1      1052    8    0    1
 -2       468       583       586      2544      2621      2550
 -1      1053    8    0    1
 -2       425       429       570      2507      2622      2504
 -1      1054    8    0    1
 -2       429       428       570      2089      2623      2622
 -1      1055    8    0    1
 -2       606       466       607      2598      2601      2624
 -1      1056    8    0    1
 -2       440       582       613      2541      2625      2626
 -1      1057    8    0    1
 -2       440       613       608      2626      2627      2603
 -1      1058    8    0    1
 -2       452       589       596      2560      2628      2576
 -1      1059    8    0    1
 -2       439       380       614      2542      2629      2630
 -1      1060    8    0    1
 -2       581       439       614      2537      2630      2631
 -1      1061    8    0    1
 -2       380       379       614      1941      2632      2629
 -1      1062    8    0    1
 -2       605       465       606      2596      2599      2633
 -1      1063    8    0    1
 -2       583       441       585      2543      2549      2634
 -1      1064    8    0    1
 -2       331       609       482      2614      2635      2243
 -1      1065    8    0    1
 -2       585       442       608      2548      2604      2636
 -1      1066    8    0    1
 -2       604       464       605      2594      2597      2637
 -1      1067    8    0    1
 -2       603       463       604      2592      2595      2638
 -1      1068    8    0    1
 -2       589       453       597      2559      2580      2639
 -1      1069    8    0    1
 -2       602       462       603      2590      2593      2640
 -1      1070    8    0    1
 -2       600       459       601      2585      2589      2641
 -1      1071    8    0    1
 -2       599       457       592      2583      2568      2642
 -1      1072    8    0    1
 -2       598       456       599      2581      2584      2643
 -1      1073    8    0    1
 -2       594       449       615      2571      2644      2645
 -1      1074    8    0    1
 -2       449       473       615      2216      2646      2644
 -1      1075    8    0    1
 -2       471       461       616      2205      2647      2648
 -1      1076    8    0    1
 -2       461       602       616      2591      2649      2647
 -1      1077    8    0    1
 -2       587       320       445      2555      2133      2650
 -1      1078    8    0    1
 -2       472       455       598      2211      2582      2651
 -1      1079    8    0    1
 -2       473       450       617      2217      2652      2653
 -1      1080    8    0    1
 -2       450       595       617      2575      2654      2652
 -1      1081    8    0    1
 -2       485       446       593      2251      2570      2655
 -1      1082    8    0    1
 -2       597       454       618      2579      2656      2657
 -1      1083    8    0    1
 -2       454       472       618      2210      2658      2656
 -1      1084    8    0    1
 -2       601       460       619      2588      2659      2660
 -1      1085    8    0    1
 -2       460       471       619      2204      2661      2659
 -1      1086    8    0    1
 -2       570       428       573      2623      2514      2662
 -1      1087    8    0    1
 -2       614       379       528      2632      2380      2663
 -1      1088    8    0    1
 -2       478       479       620      2236      2664      2665
 -1      1089    8    0    1
 -2       477       478       621      2233      2666      2667
 -1      1090    8    0    1
 -2       478       620       621      2665      2668      2666
 -1      1091    8    0    1
 -2       480       481       622      2242      2669      2670
 -1      1092    8    0    1
 -2       481       482       623      2245      2671      2672
 -1      1093    8    0    1
 -2       481       623       622      2672      2673      2669
 -1      1094    8    0    1
 -2       474       483       624      2248      2674      2675
 -1      1095    8    0    1
 -2       585       608       625      2636      2676      2677
 -1      1096    8    0    1
 -2       483       584       626      2613      2678      2679
 -1      1097    8    0    1
 -2       483       626       624      2679      2680      2674
 -1      1098    8    0    1
 -2       609       474       482      2608      2681      2635
 -1      1099    8    0    1
 -2       487       486       627      2258      2682      2683
 -1      1100    8    0    1
 -2       488       487       628      2261      2684      2685
 -1      1101    8    0    1
 -2       487       627       628      2683      2686      2684
 -1      1102    8    0    1
 -2       489       488       629      2264      2687      2688
 -1      1103    8    0    1
 -2       488       628       629      2685      2689      2687
 -1      1104    8    0    1
 -2       490       489       630      2267      2690      2691
 -1      1105    8    0    1
 -2       489       629       630      2688      2692      2690
 -1      1106    8    0    1
 -2       491       490       631      2270      2693      2694
 -1      1107    8    0    1
 -2       490       630       631      2691      2695      2693
 -1      1108    8    0    1
 -2       492       491       632      2273      2696      2697
 -1      1109    8    0    1
 -2       491       631       632      2694      2698      2696
 -1      1110    8    0    1
 -2       493       492       633      2276      2699      2700
 -1      1111    8    0    1
 -2       492       632       633      2697      2701      2699
 -1      1112    8    0    1
 -2       496       495       616      2285      2702      2703
 -1      1113    8    0    1
 -2       497       496       634      2288      2704      2705
 -1      1114    8    0    1
 -2       498       497       635      2291      2706      2707
 -1      1115    8    0    1
 -2       499       498       636      2294      2708      2709
 -1      1116    8    0    1
 -2       498       635       636      2707      2710      2708
 -1      1117    8    0    1
 -2       500       499       637      2297      2711      2712
 -1      1118    8    0    1
 -2       499       636       637      2709      2713      2711
 -1      1119    8    0    1
 -2       501       500       638      2300      2714      2715
 -1      1120    8    0    1
 -2       500       637       638      2712      2716      2714
 -1      1121    8    0    1
 -2       502       501       639      2303      2717      2718
 -1      1122    8    0    1
 -2       501       638       639      2715      2719      2717
 -1      1123    8    0    1
 -2       503       502       640      2306      2720      2721
 -1      1124    8    0    1
 -2       502       639       640      2718      2722      2720
 -1      1125    8    0    1
 -2       504       503       641      2309      2723      2724
 -1      1126    8    0    1
 -2       503       640       641      2721      2725      2723
 -1      1127    8    0    1
 -2       505       504       642      2312      2726      2727
 -1      1128    8    0    1
 -2       504       641       642      2724      2728      2726
 -1      1129    8    0    1
 -2       506       505       643      2315      2729      2730
 -1      1130    8    0    1
 -2       505       642       643      2727      2731      2729
 -1      1131    8    0    1
 -2       507       506       644      2318      2732      2733
 -1      1132    8    0    1
 -2       506       643       644      2730      2734      2732
 -1      1133    8    0    1
 -2       508       507       645      2321      2735      2736
 -1      1134    8    0    1
 -2       507       644       645      2733      2737      2735
 -1      1135    8    0    1
 -2       509       508       646      2324      2738      2739
 -1      1136    8    0    1
 -2       508       645       646      2736      2740      2738
 -1      1137    8    0    1
 -2       510       509       647      2327      2741      2742
 -1      1138    8    0    1
 -2       509       646       647      2739      2743      2741
 -1      1139    8    0    1
 -2       511       510       648      2330      2744      2745
 -1      1140    8    0    1
 -2       510       647       648      2742      2746      2744
 -1      1141    8    0    1
 -2       512       511       649      2333      2747      2748
 -1      1142    8    0    1
 -2       511       648       649      2745      2749      2747
 -1      1143    8    0    1
 -2       513       512       650      2336      2750      2751
 -1      1144    8    0    1
 -2       512       649       650      2748      2752      2750
 -1      1145    8    0    1
 -2       514       513       651      2339      2753      2754
 -1      1146    8    0    1
 -2       513       650       651      2751      2755      2753
 -1      1147    8    0    1
 -2       515       514       652      2342      2756      2757
 -1      1148    8    0    1
 -2       514       651       652      2754      2758      2756
 -1      1149    8    0    1
 -2       516       515       653      2345      2759      2760
 -1      1150    8    0    1
 -2       515       652       653      2757      2761      2759
 -1      1151    8    0    1
 -2       517       516       654      2348      2762      2763
 -1      1152    8    0    1
 -2       516       653       654      2760      2764      2762
 -1      1153    8    0    1
 -2       518       517       655      2351      2765      2766
 -1      1154    8    0    1
 -2       517       654       655      2763      2767      2765
 -1      1155    8    0    1
 -2       519       518       656      2354      2768      2769
 -1      1156    8    0    1
 -2       518       655       656      2766      2770      2768
 -1      1157    8    0    1
 -2       520       519       657      2357      2771      2772
 -1      1158    8    0    1
 -2       519       656       657      2769      2773      2771
 -1      1159    8    0    1
 -2       521       520       658      2360      2774      2775
 -1      1160    8    0    1
 -2       520       657       658      2772      2776      2774
 -1      1161    8    0    1
 -2       522       521       659      2363      2777      2778
 -1      1162    8    0    1
 -2       521       658       659      2775      2779      2777
 -1      1163    8    0    1
 -2       523       522       660      2366      2780      2781
 -1      1164    8    0    1
 -2       522       659       660      2778      2782      2780
 -1      1165    8    0    1
 -2       524       523       661      2369      2783      2784
 -1      1166    8    0    1
 -2       523       660       661      2781      2785      2783
 -1      1167    8    0    1
 -2       525       524       662      2372      2786      2787
 -1      1168    8    0    1
 -2       524       661       662      2784      2788      2786
 -1      1169    8    0    1
 -2       526       525       663      2375      2789      2790
 -1      1170    8    0    1
 -2       525       662       663      2787      2791      2789
 -1      1171    8    0    1
 -2       527       526       664      2378      2792      2793
 -1      1172    8    0    1
 -2       526       663       664      2790      2794      2792
 -1      1173    8    0    1
 -2       528       527       665      2381      2795      2796
 -1      1174    8    0    1
 -2       527       664       665      2793      2797      2795
 -1      1175    8    0    1
 -2       530       531       666      2389      2798      2799
 -1      1176    8    0    1
 -2       605       606       667      2633      2800      2801
 -1      1177    8    0    1
 -2       607       586       668      2602      2802      2803
 -1      1178    8    0    1
 -2       529       530       669      2386      2804      2805
 -1      1179    8    0    1
 -2       530       666       669      2799      2806      2804
 -1      1180    8    0    1
 -2       532       533       670      2395      2807      2808
 -1      1181    8    0    1
 -2       533       534       671      2398      2809      2810
 -1      1182    8    0    1
 -2       533       671       670      2810      2811      2807
 -1      1183    8    0    1
 -2       534       535       672      2401      2812      2813
 -1      1184    8    0    1
 -2       534       672       671      2813      2814      2809
 -1      1185    8    0    1
 -2       535       536       673      2404      2815      2816
 -1      1186    8    0    1
 -2       535       673       672      2816      2817      2812
 -1      1187    8    0    1
 -2       536       537       674      2407      2818      2819
 -1      1188    8    0    1
 -2       536       674       673      2819      2820      2815
 -1      1189    8    0    1
 -2       537       538       675      2410      2821      2822
 -1      1190    8    0    1
 -2       537       675       674      2822      2823      2818
 -1      1191    8    0    1
 -2       538       539       676      2413      2824      2825
 -1      1192    8    0    1
 -2       538       676       675      2825      2826      2821
 -1      1193    8    0    1
 -2       539       540       677      2416      2827      2828
 -1      1194    8    0    1
 -2       539       677       676      2828      2829      2824
 -1      1195    8    0    1
 -2       540       541       678      2419      2830      2831
 -1      1196    8    0    1
 -2       540       678       677      2831      2832      2827
 -1      1197    8    0    1
 -2       541       542       679      2422      2833      2834
 -1      1198    8    0    1
 -2       541       679       678      2834      2835      2830
 -1      1199    8    0    1
 -2       542       543       680      2425      2836      2837
 -1      1200    8    0    1
 -2       542       680       679      2837      2838      2833
 -1      1201    8    0    1
 -2       543       544       681      2428      2839      2840
 -1      1202    8    0    1
 -2       543       681       680      2840      2841      2836
 -1      1203    8    0    1
 -2       544       545       682      2431      2842      2843
 -1      1204    8    0    1
 -2       544       682       681      2843      2844      2839
 -1      1205    8    0    1
 -2       545       546       683      2434      2845      2846
 -1      1206    8    0    1
 -2       545       683       682      2846      2847      2842
 -1      1207    8    0    1
 -2       546       547       684      2437      2848      2849
 -1      1208    8    0    1
 -2       546       684       683      2849      2850      2845
 -1      1209    8    0    1
 -2       547       548       685      2440      2851      2852
 -1      1210    8    0    1
 -2       547       685       684      2852      2853      2848
 -1      1211    8    0    1
 -2       548       549       686      2443      2854      2855
 -1      1212    8    0    1
 -2       548       686       685      2855      2856      2851
 -1      1213    8    0    1
 -2       549       550       687      2446      2857      2858
 -1      1214    8    0    1
 -2       549       687       686      2858      2859      2854
 -1      1215    8    0    1
 -2       550       551       688      2449      2860      2861
 -1      1216    8    0    1
 -2       550       688       687      2861      2862      2857
 -1      1217    8    0    1
 -2       551       552       689      2452      2863      2864
 -1      1218    8    0    1
 -2       551       689       688      2864      2865      2860
 -1      1219    8    0    1
 -2       552       553       690      2455      2866      2867
 -1      1220    8    0    1
 -2       552       690       689      2867      2868      2863
 -1      1221    8    0    1
 -2       553       554       691      2458      2869      2870
 -1      1222    8    0    1
 -2       553       691       690      2870      2871      2866
 -1      1223    8    0    1
 -2       554       555       692      2461      2872      2873
 -1      1224    8    0    1
 -2       554       692       691      2873      2874      2869
 -1      1225    8    0    1
 -2       555       556       693      2464      2875      2876
 -1      1226    8    0    1
 -2       555       693       692      2876      2877      2872
 -1      1227    8    0    1
 -2       556       557       694      2467      2878      2879
 -1      1228    8    0    1
 -2       556       694       693      2879      2880      2875
 -1      1229    8    0    1
 -2       557       558       695      2470      2881      2882
 -1      1230    8    0    1
 -2       557       695       694      2882      2883      2878
 -1      1231    8    0    1
 -2       558       559       696      2473      2884      2885
 -1      1232    8    0    1
 -2       558       696       695      2885      2886      2881
 -1      1233    8    0    1
 -2       559       560       697      2476      2887      2888
 -1      1234    8    0    1
 -2       559       697       696      2888      2889      2884
 -1      1235    8    0    1
 -2       560       561       698      2479      2890      2891
 -1      1236    8    0    1
 -2       560       698       697      2891      2892      2887
 -1      1237    8    0    1
 -2       561       562       699      2482      2893      2894
 -1      1238    8    0    1
 -2       561       699       698      2894      2895      2890
 -1      1239    8    0    1
 -2       562       563       700      2485      2896      2897
 -1      1240    8    0    1
 -2       562       700       699      2897      2898      2893
 -1      1241    8    0    1
 -2       563       564       701      2488      2899      2900
 -1      1242    8    0    1
 -2       563       701       700      2900      2901      2896
 -1      1243    8    0    1
 -2       564       565       702      2491      2902      2903
 -1      1244    8    0    1
 -2       564       702       701      2903      2904      2899
 -1      1245    8    0    1
 -2       565       566       703      2494      2905      2906
 -1      1246    8    0    1
 -2       565       703       702      2906      2907      2902
 -1      1247    8    0    1
 -2       566       567       704      2497      2908      2909
 -1      1248    8    0    1
 -2       566       704       703      2909      2910      2905
 -1      1249    8    0    1
 -2       567       568       705      2500      2911      2912
 -1      1250    8    0    1
 -2       567       705       704      2912      2913      2908
 -1      1251    8    0    1
 -2       568       569       706      2503      2914      2915
 -1      1252    8    0    1
 -2       568       706       705      2915      2916      2911
 -1      1253    8    0    1
 -2       569       570       707      2506      2917      2918
 -1      1254    8    0    1
 -2       706       569       707      2914      2918      2919
 -1      1255    8    0    1
 -2       570       573       707      2662      2920      2917
 -1      1256    8    0    1
 -2       575       576       708      2524      2921      2922
 -1      1257    8    0    1
 -2       614       528       709      2663      2923      2924
 -1      1258    8    0    1
 -2       581       614       709      2631      2924      2925
 -1      1259    8    0    1
 -2       528       665       709      2796      2926      2923
 -1      1260    8    0    1
 -2       571       572       710      2512      2927      2928
 -1      1261    8    0    1
 -2       576       577       711      2527      2929      2930
 -1      1262    8    0    1
 -2       576       711       708      2930      2931      2921
 -1      1263    8    0    1
 -2       572       575       712      2521      2932      2933
 -1      1264    8    0    1
 -2       710       572       712      2927      2933      2934
 -1      1265    8    0    1
 -2       575       708       712      2922      2935      2932
 -1      1266    8    0    1
 -2       584       529       713      2547      2936      2937
 -1      1267    8    0    1
 -2       626       584       713      2678      2937      2938
 -1      1268    8    0    1
 -2       529       669       713      2805      2939      2936
 -1      1269    8    0    1
 -2       577       578       714      2530      2940      2941
 -1      1270    8    0    1
 -2       577       714       711      2941      2942      2929
 -1      1271    8    0    1
 -2       578       579       715      2533      2943      2944
 -1      1272    8    0    1
 -2       578       715       714      2944      2945      2940
 -1      1273    8    0    1
 -2       579       580       716      2536      2946      2947
 -1      1274    8    0    1
 -2       579       716       715      2947      2948      2943
 -1      1275    8    0    1
 -2       580       581       717      2539      2949      2950
 -1      1276    8    0    1
 -2       716       580       717      2946      2950      2951
 -1      1277    8    0    1
 -2       581       709       717      2925      2952      2949
 -1      1278    8    0    1
 -2       604       605       635      2637      2953      2954
 -1      1279    8    0    1
 -2       484       587       718      2554      2955      2956
 -1      1280    8    0    1
 -2       586       583       719      2621      2957      2958
 -1      1281    8    0    1
 -2       606       607       720      2624      2959      2960
 -1      1282    8    0    1
 -2       531       532       721      2392      2961      2962
 -1      1283    8    0    1
 -2       666       531       721      2798      2962      2963
 -1      1284    8    0    1
 -2       532       670       721      2808      2964      2961
 -1      1285    8    0    1
 -2       486       484       722      2255      2965      2966
 -1      1286    8    0    1
 -2       627       486       722      2682      2966      2967
 -1      1287    8    0    1
 -2       484       718       722      2956      2968      2965
 -1      1288    8    0    1
 -2       479       480       723      2239      2969      2970
 -1      1289    8    0    1
 -2       620       479       723      2664      2970      2971
 -1      1290    8    0    1
 -2       480       622       723      2670      2972      2969
 -1      1291    8    0    1
 -2       599       592       724      2642      2973      2974
 -1      1292    8    0    1
 -2       582       588       725      2558      2975      2976
 -1      1293    8    0    1
 -2       472       598       726      2651      2977      2978
 -1      1294    8    0    1
 -2       476       475       727      2228      2979      2980
 -1      1295    8    0    1
 -2       485       593       728      2655      2981      2982
 -1      1296    8    0    1
 -2       598       599       729      2643      2983      2984
 -1      1297    8    0    1
 -2       591       594       730      2573      2985      2986
 -1      1298    8    0    1
 -2       602       603       634      2640      2987      2988
 -1      1299    8    0    1
 -2       595       596       731      2578      2989      2990
 -1      1300    8    0    1
 -2       593       591       732      2609      2991      2992
 -1      1301    8    0    1
 -2       592       600       733      2587      2993      2994
 -1      1302    8    0    1
 -2       587       445       718      2650      2995      2955
 -1      1303    8    0    1
 -2       600       601       734      2641      2996      2997
 -1      1304    8    0    1
 -2       600       734       733      2997      2998      2993
 -1      1305    8    0    1
 -2       589       597       735      2639      2999      3000
 -1      1306    8    0    1
 -2       583       585       736      2634      3001      3002
 -1      1307    8    0    1
 -2       596       589       737      2628      3003      3004
 -1      1308    8    0    1
 -2       610       476       738      2610      3005      3006
 -1      1309    8    0    1
 -2       476       727       738      2980      3007      3005
 -1      1310    8    0    1
 -2       477       621       739      2667      3008      3009
 -1      1311    8    0    1
 -2       477       739       590      3009      3010      2564
 -1      1312    8    0    1
 -2       482       474       624      2681      2675      3011
 -1      1313    8    0    1
 -2       585       625       736      2677      3012      3001
 -1      1314    8    0    1
 -2       611       470       740      2617      3013      3014
 -1      1315    8    0    1
 -2       470       612       740      2620      3015      3013
 -1      1316    8    0    1
 -2       612       485       741      2618      3016      3017
 -1      1317    8    0    1
 -2       485       728       741      2982      3018      3016
 -1      1318    8    0    1
 -2       599       724       742      2974      3019      3020
 -1      1319    8    0    1
 -2       599       742       729      3020      3021      2983
 -1      1320    8    0    1
 -2       737       589       735      3003      3000      3022
 -1      1321    8    0    1
 -2       496       616       634      2703      3023      2704
 -1      1322    8    0    1
 -2       616       495       743      2702      3024      3025
 -1      1323    8    0    1
 -2       471       616       743      2648      3025      3026
 -1      1324    8    0    1
 -2       495       494       743      2282      3027      3024
 -1      1325    8    0    1
 -2       494       493       744      2279      3028      3029
 -1      1326    8    0    1
 -2       494       744       743      3029      3030      3027
 -1      1327    8    0    1
 -2       497       634       635      2705      3031      2706
 -1      1328    8    0    1
 -2       571       710       745      2928      3032      3033
 -1      1329    8    0    1
 -2       571       745       574      3033      3034      2518
 -1      1330    8    0    1
 -2       607       668       720      2803      3035      2959
 -1      1331    8    0    1
 -2       604       635       634      2954      3031      3036
 -1      1332    8    0    1
 -2       573       574       746      2517      3037      3038
 -1      1333    8    0    1
 -2       707       573       746      2920      3038      3039
 -1      1334    8    0    1
 -2       574       745       746      3034      3040      3037
 -1      1335    8    0    1
 -2       613       582       725      2625      2976      3041
 -1      1336    8    0    1
 -2       635       605       636      2953      3042      2710
 -1      1337    8    0    1
 -2       732       591       730      2991      2986      3043
 -1      1338    8    0    1
 -2       724       592       733      2973      2994      3044
 -1      1339    8    0    1
 -2       731       596       737      2989      3004      3045
 -1      1340    8    0    1
 -2       730       594       747      2985      3046      3047
 -1      1341    8    0    1
 -2       594       615       747      2645      3048      3046
 -1      1342    8    0    1
 -2       728       593       732      2981      2992      3049
 -1      1343    8    0    1
 -2       586       719       668      2958      3050      2802
 -1      1344    8    0    1
 -2       606       720       667      2960      3051      2800
 -1      1345    8    0    1
 -2       482       624       623      3011      3052      2671
 -1      1346    8    0    1
 -2       615       473       748      2646      3053      3054
 -1      1347    8    0    1
 -2       473       617       748      2653      3055      3053
 -1      1348    8    0    1
 -2       445       610       718      2612      3056      2995
 -1      1349    8    0    1
 -2       617       595       731      2654      2990      3057
 -1      1350    8    0    1
 -2       475       590       749      2563      3058      3059
 -1      1351    8    0    1
 -2       727       475       749      2979      3059      3060
 -1      1352    8    0    1
 -2       590       739       749      3010      3061      3058
 -1      1353    8    0    1
 -2       726       598       729      2977      2984      3062
 -1      1354    8    0    1
 -2       625       608       750      2676      3063      3064
 -1      1355    8    0    1
 -2       608       613       750      2627      3065      3063
 -1      1356    8    0    1
 -2       618       472       726      2658      2978      3066
 -1      1357    8    0    1
 -2       725       588       611      2975      2616      3067
 -1      1358    8    0    1
 -2       636       605       667      3042      2801      3068
 -1      1359    8    0    1
 -2       597       618       751      2657      3069      3070
 -1      1360    8    0    1
 -2       597       751       735      3070      3071      2999
 -1      1361    8    0    1
 -2       744       493       633      3028      2700      3072
 -1      1362    8    0    1
 -2       734       601       744      2996      3073      3074
 -1      1363    8    0    1
 -2       603       604       634      2638      3036      2987
 -1      1364    8    0    1
 -2       736       625       752      3012      3075      3076
 -1      1365    8    0    1
 -2       622       623       753      2673      3077      3078
 -1      1366    8    0    1
 -2       628       627       754      2686      3079      3080
 -1      1367    8    0    1
 -2       629       628       755      2689      3081      3082
 -1      1368    8    0    1
 -2       628       754       755      3080      3083      3081
 -1      1369    8    0    1
 -2       630       629       756      2692      3084      3085
 -1      1370    8    0    1
 -2       629       755       756      3082      3086      3084
 -1      1371    8    0    1
 -2       631       630       757      2695      3087      3088
 -1      1372    8    0    1
 -2       630       756       757      3085      3089      3087
 -1      1373    8    0    1
 -2       632       631       758      2698      3090      3091
 -1      1374    8    0    1
 -2       631       757       758      3088      3092      3090
 -1      1375    8    0    1
 -2       637       636       667      2713      3068      3093
 -1      1376    8    0    1
 -2       638       637       759      2716      3094      3095
 -1      1377    8    0    1
 -2       639       638       760      2719      3096      3097
 -1      1378    8    0    1
 -2       638       759       760      3095      3098      3096
 -1      1379    8    0    1
 -2       640       639       761      2722      3099      3100
 -1      1380    8    0    1
 -2       639       760       761      3097      3101      3099
 -1      1381    8    0    1
 -2       641       640       762      2725      3102      3103
 -1      1382    8    0    1
 -2       640       761       762      3100      3104      3102
 -1      1383    8    0    1
 -2       642       641       763      2728      3105      3106
 -1      1384    8    0    1
 -2       641       762       763      3103      3107      3105
 -1      1385    8    0    1
 -2       643       642       764      2731      3108      3109
 -1      1386    8    0    1
 -2       642       763       764      3106      3110      3108
 -1      1387    8    0    1
 -2       644       643       765      2734      3111      3112
 -1      1388    8    0    1
 -2       643       764       765      3109      3113      3111
 -1      1389    8    0    1
 -2       645       644       766      2737      3114      3115
 -1      1390    8    0    1
 -2       644       765       766      3112      3116      3114
 -1      1391    8    0    1
 -2       646       645       767      2740      3117      3118
 -1      1392    8    0    1
 -2       645       766       767      3115      3119      3117
 -1      1393    8    0    1
 -2       647       646       768      2743      3120      3121
 -1      1394    8    0    1
 -2       646       767       768      3118      3122      3120
 -1      1395    8    0    1
 -2       648       647       769      2746      3123      3124
 -1      1396    8    0    1
 -2       647       768       769      3121      3125      3123
 -1      1397    8    0    1
 -2       649       648       770      2749      3126      3127
 -1      1398    8    0    1
 -2       648       769       770      3124      3128      3126
 -1      1399    8    0    1
 -2       650       649       771      2752      3129      3130
 -1      1400    8    0    1
 -2       649       770       771      3127      3131      3129
 -1      1401    8    0    1
 -2       651       650       772      2755      3132      3133
 -1      1402    8    0    1
 -2       650       771       772      3130      3134      3132
 -1      1403    8    0    1
 -2       652       651       773      2758      3135      3136
 -1      1404    8    0    1
 -2       651       772       773      3133      3137      3135
 -1      1405    8    0    1
 -2       653       652       774      2761      3138      3139
 -1      1406    8    0    1
 -2       652       773       774      3136      3140      3138
 -1      1407    8    0    1
 -2       654       653       775      2764      3141      3142
 -1      1408    8    0    1
 -2       653       774       775      3139      3143      3141
 -1      1409    8    0    1
 -2       655       654       776      2767      3144      3145
 -1      1410    8    0    1
 -2       654       775       776      3142      3146      3144
 -1      1411    8    0    1
 -2       656       655       777      2770      3147      3148
 -1      1412    8    0    1
 -2       655       776       777      3145      3149      3147
 -1      1413    8    0    1
 -2       657       656       778      2773      3150      3151
 -1      1414    8    0    1
 -2       656       777       778      3148      3152      3150
 -1      1415    8    0    1
 -2       658       657       779      2776      3153      3154
 -1      1416    8    0    1
 -2       657       778       779      3151      3155      3153
 -1      1417    8    0    1
 -2       659       658       780      2779      3156      3157
 -1      1418    8    0    1
 -2       658       779       780      3154      3158      3156
 -1      1419    8    0    1
 -2       660       659       781      2782      3159      3160
 -1      1420    8    0    1
 -2       659       780       781      3157      3161      3159
 -1      1421    8    0    1
 -2       661       660       782      2785      3162      3163
 -1      1422    8    0    1
 -2       660       781       782      3160      3164      3162
 -1      1423    8    0    1
 -2       662       661       783      2788      3165      3166
 -1      1424    8    0    1
 -2       661       782       783      3163      3167      3165
 -1      1425    8    0    1
 -2       663       662       784      2791      3168      3169
 -1      1426    8    0    1
 -2       662       783       784      3166      3170      3168
 -1      1427    8    0    1
 -2       664       663       785      2794      3171      3172
 -1      1428    8    0    1
 -2       663       784       785      3169      3173      3171
 -1      1429    8    0    1
 -2       665       664       786      2797      3174      3175
 -1      1430    8    0    1
 -2       664       785       786      3172      3176      3174
 -1      1431    8    0    1
 -2       711       714       787      2942      3177      3178
 -1      1432    8    0    1
 -2       671       672       788      2814      3179      3180
 -1      1433    8    0    1
 -2       670       671       789      2811      3181      3182
 -1      1434    8    0    1
 -2       671       788       789      3180      3183      3181
 -1      1435    8    0    1
 -2       673       674       790      2820      3184      3185
 -1      1436    8    0    1
 -2       674       675       732      2823      3186      3187
 -1      1437    8    0    1
 -2       676       677       791      2829      3188      3189
 -1      1438    8    0    1
 -2       677       678       792      2832      3190      3191
 -1      1439    8    0    1
 -2       677       792       791      3191      3192      3188
 -1      1440    8    0    1
 -2       678       679       793      2835      3193      3194
 -1      1441    8    0    1
 -2       678       793       792      3194      3195      3190
 -1      1442    8    0    1
 -2       679       680       794      2838      3196      3197
 -1      1443    8    0    1
 -2       679       794       793      3197      3198      3193
 -1      1444    8    0    1
 -2       680       681       795      2841      3199      3200
 -1      1445    8    0    1
 -2       680       795       794      3200      3201      3196
 -1      1446    8    0    1
 -2       681       682       796      2844      3202      3203
 -1      1447    8    0    1
 -2       681       796       795      3203      3204      3199
 -1      1448    8    0    1
 -2       682       683       797      2847      3205      3206
 -1      1449    8    0    1
 -2       682       797       796      3206      3207      3202
 -1      1450    8    0    1
 -2       683       684       798      2850      3208      3209
 -1      1451    8    0    1
 -2       683       798       797      3209      3210      3205
 -1      1452    8    0    1
 -2       684       685       799      2853      3211      3212
 -1      1453    8    0    1
 -2       684       799       798      3212      3213      3208
 -1      1454    8    0    1
 -2       685       686       800      2856      3214      3215
 -1      1455    8    0    1
 -2       685       800       799      3215      3216      3211
 -1      1456    8    0    1
 -2       686       687       801      2859      3217      3218
 -1      1457    8    0    1
 -2       686       801       800      3218      3219      3214
 -1      1458    8    0    1
 -2       687       688       802      2862      3220      3221
 -1      1459    8    0    1
 -2       687       802       801      3221      3222      3217
 -1      1460    8    0    1
 -2       688       689       803      2865      3223      3224
 -1      1461    8    0    1
 -2       688       803       802      3224      3225      3220
 -1      1462    8    0    1
 -2       689       690       804      2868      3226      3227
 -1      1463    8    0    1
 -2       689       804       803      3227      3228      3223
 -1      1464    8    0    1
 -2       690       691       805      2871      3229      3230
 -1      1465    8    0    1
 -2       690       805       804      3230      3231      3226
 -1      1466    8    0    1
 -2       691       692       806      2874      3232      3233
 -1      1467    8    0    1
 -2       691       806       805      3233      3234      3229
 -1      1468    8    0    1
 -2       692       693       807      2877      3235      3236
 -1      1469    8    0    1
 -2       692       807       806      3236      3237      3232
 -1      1470    8    0    1
 -2       693       694       808      2880      3238      3239
 -1      1471    8    0    1
 -2       693       808       807      3239      3240      3235
 -1      1472    8    0    1
 -2       694       695       809      2883      3241      3242
 -1      1473    8    0    1
 -2       694       809       808      3242      3243      3238
 -1      1474    8    0    1
 -2       695       696       810      2886      3244      3245
 -1      1475    8    0    1
 -2       695       810       809      3245      3246      3241
 -1      1476    8    0    1
 -2       696       697       811      2889      3247      3248
 -1      1477    8    0    1
 -2       696       811       810      3248      3249      3244
 -1      1478    8    0    1
 -2       697       698       812      2892      3250      3251
 -1      1479    8    0    1
 -2       697       812       811      3251      3252      3247
 -1      1480    8    0    1
 -2       698       699       813      2895      3253      3254
 -1      1481    8    0    1
 -2       698       813       812      3254      3255      3250
 -1      1482    8    0    1
 -2       699       700       814      2898      3256      3257
 -1      1483    8    0    1
 -2       699       814       813      3257      3258      3253
 -1      1484    8    0    1
 -2       700       701       815      2901      3259      3260
 -1      1485    8    0    1
 -2       700       815       814      3260      3261      3256
 -1      1486    8    0    1
 -2       701       702       816      2904      3262      3263
 -1      1487    8    0    1
 -2       701       816       815      3263      3264      3259
 -1      1488    8    0    1
 -2       702       703       817      2907      3265      3266
 -1      1489    8    0    1
 -2       702       817       816      3266      3267      3262
 -1      1490    8    0    1
 -2       703       704       818      2910      3268      3269
 -1      1491    8    0    1
 -2       703       818       817      3269      3270      3265
 -1      1492    8    0    1
 -2       704       705       819      2913      3271      3272
 -1      1493    8    0    1
 -2       704       819       818      3272      3273      3268
 -1      1494    8    0    1
 -2       705       706       820      2916      3274      3275
 -1      1495    8    0    1
 -2       705       820       819      3275      3276      3271
 -1      1496    8    0    1
 -2       706       707       821      2919      3277      3278
 -1      1497    8    0    1
 -2       820       706       821      3274      3278      3279
 -1      1498    8    0    1
 -2       707       746       821      3039      3280      3277
 -1      1499    8    0    1
 -2       709       665       717      2926      3281      2952
 -1      1500    8    0    1
 -2       621       620       822      2668      3282      3283
 -1      1501    8    0    1
 -2       714       715       823      2945      3284      3285
 -1      1502    8    0    1
 -2       714       823       787      3285      3286      3177
 -1      1503    8    0    1
 -2       708       711       824      2931      3287      3288
 -1      1504    8    0    1
 -2       711       787       824      3178      3289      3287
 -1      1505    8    0    1
 -2       719       583       736      2957      3002      3290
 -1      1506    8    0    1
 -2       737       735       825      3022      3291      3292
 -1      1507    8    0    1
 -2       672       673       826      2817      3293      3294
 -1      1508    8    0    1
 -2       672       826       788      3294      3295      3179
 -1      1509    8    0    1
 -2       669       666       827      2806      3296      3297
 -1      1510    8    0    1
 -2       667       720       759      3051      3298      3299
 -1      1511    8    0    1
 -2       623       624       828      3052      3300      3301
 -1      1512    8    0    1
 -2       753       623       828      3077      3301      3302
 -1      1513    8    0    1
 -2       624       626       828      2680      3303      3300
 -1      1514    8    0    1
 -2       732       730       790      3043      3304      3305
 -1      1515    8    0    1
 -2       613       725       829      3041      3306      3307
 -1      1516    8    0    1
 -2       471       743       619      3026      3308      2661
 -1      1517    8    0    1
 -2       715       716       830      2948      3309      3310
 -1      1518    8    0    1
 -2       715       830       823      3310      3311      3284
 -1      1519    8    0    1
 -2       720       668       831      3035      3312      3313
 -1      1520    8    0    1
 -2       720       831       759      3313      3314      3298
 -1      1521    8    0    1
 -2       732       675       832      3186      3315      3316
 -1      1522    8    0    1
 -2       728       732       832      3049      3316      3317
 -1      1523    8    0    1
 -2       675       676       832      2826      3318      3315
 -1      1524    8    0    1
 -2       725       611       833      3067      3319      3320
 -1      1525    8    0    1
 -2       726       729       834      3062      3321      3322
 -1      1526    8    0    1
 -2       724       733       835      3044      3323      3324
 -1      1527    8    0    1
 -2       602       634       616      2988      3023      2649
 -1      1528    8    0    1
 -2       744       601       619      3073      2660      3325
 -1      1529    8    0    1
 -2       668       719       836      3050      3326      3327
 -1      1530    8    0    1
 -2       668       836       831      3327      3328      3312
 -1      1531    8    0    1
 -2       718       610       738      3056      3006      3329
 -1      1532    8    0    1
 -2       734       744       633      3074      3072      3330
 -1      1533    8    0    1
 -2       731       737       837      3045      3331      3332
 -1      1534    8    0    1
 -2       617       731       838      3057      3333      3334
 -1      1535    8    0    1
 -2       618       726       839      3066      3335      3336
 -1      1536    8    0    1
 -2       726       834       839      3322      3337      3335
 -1      1537    8    0    1
 -2       734       633       733      3330      3338      2998
 -1      1538    8    0    1
 -2       719       736       840      3290      3339      3340
 -1      1539    8    0    1
 -2       637       667       759      3093      3299      3094
 -1      1540    8    0    1
 -2       619       743       744      3308      3030      3325
 -1      1541    8    0    1
 -2       733       633       835      3338      3341      3323
 -1      1542    8    0    1
 -2       739       621       841      3008      3342      3343
 -1      1543    8    0    1
 -2       621       822       841      3283      3344      3342
 -1      1544    8    0    1
 -2       622       753       842      3078      3345      3346
 -1      1545    8    0    1
 -2       622       842       723      3346      3347      2972
 -1      1546    8    0    1
 -2       632       758       835      3091      3348      3349
 -1      1547    8    0    1
 -2       740       612       843      3015      3350      3351
 -1      1548    8    0    1
 -2       612       741       843      3017      3352      3350
 -1      1549    8    0    1
 -2       741       728       832      3018      3317      3353
 -1      1550    8    0    1
 -2       742       724       835      3019      3324      3354
 -1      1551    8    0    1
 -2       738       727       844      3007      3355      3356
 -1      1552    8    0    1
 -2       632       835       633      3349      3341      2701
 -1      1553    8    0    1
 -2       717       665       786      3281      3175      3357
 -1      1554    8    0    1
 -2       745       710       845      3032      3358      3359
 -1      1555    8    0    1
 -2       627       722       846      2967      3360      3361
 -1      1556    8    0    1
 -2       627       846       754      3361      3362      3079
 -1      1557    8    0    1
 -2       708       824       847      3288      3363      3364
 -1      1558    8    0    1
 -2       708       847       712      3364      3365      2935
 -1      1559    8    0    1
 -2       722       718       738      2968      3329      3366
 -1      1560    8    0    1
 -2       735       751       848      3071      3367      3368
 -1      1561    8    0    1
 -2       735       848       825      3368      3369      3291
 -1      1562    8    0    1
 -2       673       790       826      3185      3370      3293
 -1      1563    8    0    1
 -2       670       789       849      3182      3371      3372
 -1      1564    8    0    1
 -2       670       849       721      3372      3373      2964
 -1      1565    8    0    1
 -2       790       674       732      3184      3187      3305
 -1      1566    8    0    1
 -2       676       791       832      3189      3374      3318
 -1      1567    8    0    1
 -2       725       833       850      3320      3375      3376
 -1      1568    8    0    1
 -2       725       850       829      3376      3377      3306
 -1      1569    8    0    1
 -2       710       712       851      2934      3378      3379
 -1      1570    8    0    1
 -2       845       710       851      3358      3379      3380
 -1      1571    8    0    1
 -2       712       847       851      3365      3381      3378
 -1      1572    8    0    1
 -2       822       620       852      3282      3382      3383
 -1      1573    8    0    1
 -2       620       723       852      2971      3384      3382
 -1      1574    8    0    1
 -2       611       740       833      3014      3385      3319
 -1      1575    8    0    1
 -2       752       625       853      3075      3386      3387
 -1      1576    8    0    1
 -2       625       750       853      3064      3388      3386
 -1      1577    8    0    1
 -2       716       717       786      2951      3357      3389
 -1      1578    8    0    1
 -2       719       840       836      3340      3390      3326
 -1      1579    8    0    1
 -2       736       752       840      3076      3391      3339
 -1      1580    8    0    1
 -2       827       666       854      3296      3392      3393
 -1      1581    8    0    1
 -2       666       721       854      2963      3394      3392
 -1      1582    8    0    1
 -2       748       617       838      3055      3334      3395
 -1      1583    8    0    1
 -2       613       829       750      3307      3396      3065
 -1      1584    8    0    1
 -2       713       669       855      2939      3397      3398
 -1      1585    8    0    1
 -2       669       827       855      3297      3399      3397
 -1      1586    8    0    1
 -2       830       716       786      3309      3389      3400
 -1      1587    8    0    1
 -2       834       729       856      3321      3401      3402
 -1      1588    8    0    1
 -2       729       742       856      3021      3403      3401
 -1      1589    8    0    1
 -2       751       618       839      3069      3336      3404
 -1      1590    8    0    1
 -2       727       749       857      3060      3405      3406
 -1      1591    8    0    1
 -2       727       857       844      3406      3407      3355
 -1      1592    8    0    1
 -2       838       731       858      3333      3408      3409
 -1      1593    8    0    1
 -2       731       837       858      3332      3410      3408
 -1      1594    8    0    1
 -2       837       737       859      3331      3411      3412
 -1      1595    8    0    1
 -2       737       825       859      3292      3413      3411
 -1      1596    8    0    1
 -2       615       748       826      3054      3414      3415
 -1      1597    8    0    1
 -2       626       713       860      2938      3416      3417
 -1      1598    8    0    1
 -2       828       626       860      3303      3417      3418
 -1      1599    8    0    1
 -2       713       855       860      3398      3419      3416
 -1      1600    8    0    1
 -2       790       730       747      3304      3047      3420
 -1      1601    8    0    1
 -2       835       758       742      3348      3421      3354
 -1      1602    8    0    1
 -2       832       791       741      3374      3422      3353
 -1      1603    8    0    1
 -2       756       755       861      3086      3423      3424
 -1      1604    8    0    1
 -2       757       756       862      3089      3425      3426
 -1      1605    8    0    1
 -2       756       861       862      3424      3427      3425
 -1      1606    8    0    1
 -2       760       759       831      3098      3314      3428
 -1      1607    8    0    1
 -2       836       840       863      3390      3429      3430
 -1      1608    8    0    1
 -2       761       760       864      3101      3431      3432
 -1      1609    8    0    1
 -2       762       761       865      3104      3433      3434
 -1      1610    8    0    1
 -2       761       864       865      3432      3435      3433
 -1      1611    8    0    1
 -2       763       762       866      3107      3436      3437
 -1      1612    8    0    1
 -2       762       865       866      3434      3438      3436
 -1      1613    8    0    1
 -2       764       763       867      3110      3439      3440
 -1      1614    8    0    1
 -2       763       866       867      3437      3441      3439
 -1      1615    8    0    1
 -2       765       764       868      3113      3442      3443
 -1      1616    8    0    1
 -2       764       867       868      3440      3444      3442
 -1      1617    8    0    1
 -2       766       765       869      3116      3445      3446
 -1      1618    8    0    1
 -2       765       868       869      3443      3447      3445
 -1      1619    8    0    1
 -2       767       766       870      3119      3448      3449
 -1      1620    8    0    1
 -2       766       869       870      3446      3450      3448
 -1      1621    8    0    1
 -2       768       767       871      3122      3451      3452
 -1      1622    8    0    1
 -2       767       870       871      3449      3453      3451
 -1      1623    8    0    1
 -2       769       768       872      3125      3454      3455
 -1      1624    8    0    1
 -2       768       871       872      3452      3456      3454
 -1      1625    8    0    1
 -2       770       769       873      3128      3457      3458
 -1      1626    8    0    1
 -2       769       872       873      3455      3459      3457
 -1      1627    8    0    1
 -2       771       770       874      3131      3460      3461
 -1      1628    8    0    1
 -2       770       873       874      3458      3462      3460
 -1      1629    8    0    1
 -2       772       771       875      3134      3463      3464
 -1      1630    8    0    1
 -2       771       874       875      3461      3465      3463
 -1      1631    8    0    1
 -2       773       772       876      3137      3466      3467
 -1      1632    8    0    1
 -2       772       875       876      3464      3468      3466
 -1      1633    8    0    1
 -2       774       773       877      3140      3469      3470
 -1      1634    8    0    1
 -2       773       876       877      3467      3471      3469
 -1      1635    8    0    1
 -2       775       774       878      3143      3472      3473
 -1      1636    8    0    1
 -2       774       877       878      3470      3474      3472
 -1      1637    8    0    1
 -2       776       775       879      3146      3475      3476
 -1      1638    8    0    1
 -2       775       878       879      3473      3477      3475
 -1      1639    8    0    1
 -2       777       776       880      3149      3478      3479
 -1      1640    8    0    1
 -2       776       879       880      3476      3480      3478
 -1      1641    8    0    1
 -2       778       777       881      3152      3481      3482
 -1      1642    8    0    1
 -2       777       880       881      3479      3483      3481
 -1      1643    8    0    1
 -2       779       778       882      3155      3484      3485
 -1      1644    8    0    1
 -2       778       881       882      3482      3486      3484
 -1      1645    8    0    1
 -2       780       779       883      3158      3487      3488
 -1      1646    8    0    1
 -2       779       882       883      3485      3489      3487
 -1      1647    8    0    1
 -2       781       780       884      3161      3490      3491
 -1      1648    8    0    1
 -2       780       883       884      3488      3492      3490
 -1      1649    8    0    1
 -2       782       781       885      3164      3493      3494
 -1      1650    8    0    1
 -2       781       884       885      3491      3495      3493
 -1      1651    8    0    1
 -2       783       782       886      3167      3496      3497
 -1      1652    8    0    1
 -2       782       885       886      3494      3498      3496
 -1      1653    8    0    1
 -2       784       783       887      3170      3499      3500
 -1      1654    8    0    1
 -2       783       886       887      3497      3501      3499
 -1      1655    8    0    1
 -2       785       784       888      3173      3502      3503
 -1      1656    8    0    1
 -2       784       887       888      3500      3504      3502
 -1      1657    8    0    1
 -2       786       785       889      3176      3505      3506
 -1      1658    8    0    1
 -2       830       786       889      3400      3506      3507
 -1      1659    8    0    1
 -2       785       888       889      3503      3508      3505
 -1      1660    8    0    1
 -2       794       795       890      3201      3509      3510
 -1      1661    8    0    1
 -2       795       796       891      3204      3511      3512
 -1      1662    8    0    1
 -2       795       891       890      3512      3513      3509
 -1      1663    8    0    1
 -2       796       797       892      3207      3514      3515
 -1      1664    8    0    1
 -2       796       892       891      3515      3516      3511
 -1      1665    8    0    1
 -2       797       798       893      3210      3517      3518
 -1      1666    8    0    1
 -2       797       893       892      3518      3519      3514
 -1      1667    8    0    1
 -2       798       799       894      3213      3520      3521
 -1      1668    8    0    1
 -2       798       894       893      3521      3522      3517
 -1      1669    8    0    1
 -2       799       800       895      3216      3523      3524
 -1      1670    8    0    1
 -2       799       895       894      3524      3525      3520
 -1      1671    8    0    1
 -2       800       801       896      3219      3526      3527
 -1      1672    8    0    1
 -2       800       896       895      3527      3528      3523
 -1      1673    8    0    1
 -2       801       802       897      3222      3529      3530
 -1      1674    8    0    1
 -2       801       897       896      3530      3531      3526
 -1      1675    8    0    1
 -2       802       803       898      3225      3532      3533
 -1      1676    8    0    1
 -2       802       898       897      3533      3534      3529
 -1      1677    8    0    1
 -2       803       804       899      3228      3535      3536
 -1      1678    8    0    1
 -2       803       899       898      3536      3537      3532
 -1      1679    8    0    1
 -2       804       805       900      3231      3538      3539
 -1      1680    8    0    1
 -2       804       900       899      3539      3540      3535
 -1      1681    8    0    1
 -2       805       806       901      3234      3541      3542
 -1      1682    8    0    1
 -2       805       901       900      3542      3543      3538
 -1      1683    8    0    1
 -2       806       807       902      3237      3544      3545
 -1      1684    8    0    1
 -2       806       902       901      3545      3546      3541
 -1      1685    8    0    1
 -2       807       808       903      3240      3547      3548
 -1      1686    8    0    1
 -2       807       903       902      3548      3549      3544
 -1      1687    8    0    1
 -2       808       809       904      3243      3550      3551
 -1      1688    8    0    1
 -2       808       904       903      3551      3552      3547
 -1      1689    8    0    1
 -2       809       810       905      3246      3553      3554
 -1      1690    8    0    1
 -2       809       905       904      3554      3555      3550
 -1      1691    8    0    1
 -2       810       811       906      3249      3556      3557
 -1      1692    8    0    1
 -2       810       906       905      3557      3558      3553
 -1      1693    8    0    1
 -2       811       812       907      3252      3559      3560
 -1      1694    8    0    1
 -2       811       907       906      3560      3561      3556
 -1      1695    8    0    1
 -2       812       813       908      3255      3562      3563
 -1      1696    8    0    1
 -2       812       908       907      3563      3564      3559
 -1      1697    8    0    1
 -2       813       814       909      3258      3565      3566
 -1      1698    8    0    1
 -2       813       909       908      3566      3567      3562
 -1      1699    8    0    1
 -2       814       815       910      3261      3568      3569
 -1      1700    8    0    1
 -2       814       910       909      3569      3570      3565
 -1      1701    8    0    1
 -2       815       816       911      3264      3571      3572
 -1      1702    8    0    1
 -2       815       911       910      3572      3573      3568
 -1      1703    8    0    1
 -2       816       817       912      3267      3574      3575
 -1      1704    8    0    1
 -2       816       912       911      3575      3576      3571
 -1      1705    8    0    1
 -2       817       818       913      3270      3577      3578
 -1      1706    8    0    1
 -2       817       913       912      3578      3579      3574
 -1      1707    8    0    1
 -2       818       819       914      3273      3580      3581
 -1      1708    8    0    1
 -2       818       914       913      3581      3582      3577
 -1      1709    8    0    1
 -2       819       820       915      3276      3583      3584
 -1      1710    8    0    1
 -2       819       915       914      3584      3585      3580
 -1      1711    8    0    1
 -2       741       791       843      3422      3586      3352
 -1      1712    8    0    1
 -2       787       823       916      3286      3587      3588
 -1      1713    8    0    1
 -2       746       745       917      3040      3589      3590
 -1      1714    8    0    1
 -2       821       746       917      3280      3590      3591
 -1      1715    8    0    1
 -2       745       845       917      3359      3592      3589
 -1      1716    8    0    1
 -2       824       787       918      3289      3593      3594
 -1      1717    8    0    1
 -2       787       916       918      3588      3595      3593
 -1      1718    8    0    1
 -2       722       738       846      3366      3596      3360
 -1      1719    8    0    1
 -2       788       826       748      3295      3414      3597
 -1      1720    8    0    1
 -2       833       740       919      3385      3598      3599
 -1      1721    8    0    1
 -2       740       843       919      3351      3600      3598
 -1      1722    8    0    1
 -2       753       828       920      3302      3601      3602
 -1      1723    8    0    1
 -2       828       860       920      3418      3603      3601
 -1      1724    8    0    1
 -2       788       748       838      3597      3395      3604
 -1      1725    8    0    1
 -2       749       739       921      3061      3605      3606
 -1      1726    8    0    1
 -2       749       921       857      3606      3607      3405
 -1      1727    8    0    1
 -2       792       793       919      3195      3608      3609
 -1      1728    8    0    1
 -2       789       788       838      3183      3604      3610
 -1      1729    8    0    1
 -2       738       844       846      3356      3611      3596
 -1      1730    8    0    1
 -2       751       839       922      3404      3612      3613
 -1      1731    8    0    1
 -2       755       754       923      3083      3614      3615
 -1      1732    8    0    1
 -2       755       923       861      3615      3616      3423
 -1      1733    8    0    1
 -2       840       752       924      3391      3617      3618
 -1      1734    8    0    1
 -2       839       834       925      3337      3619      3620
 -1      1735    8    0    1
 -2       823       830       926      3311      3621      3622
 -1      1736    8    0    1
 -2       916       823       926      3587      3622      3623
 -1      1737    8    0    1
 -2       830       889       926      3507      3624      3621
 -1      1738    8    0    1
 -2       831       836       864      3328      3625      3626
 -1      1739    8    0    1
 -2       750       829       927      3396      3627      3628
 -1      1740    8    0    1
 -2       742       758       928      3421      3629      3630
 -1      1741    8    0    1
 -2       856       742       928      3403      3630      3631
 -1      1742    8    0    1
 -2       758       757       928      3092      3632      3629
 -1      1743    8    0    1
 -2       760       831       864      3428      3626      3431
 -1      1744    8    0    1
 -2       842       753       920      3345      3602      3633
 -1      1745    8    0    1
 -2       840       924       863      3618      3634      3429
 -1      1746    8    0    1
 -2       852       723       842      3384      3347      3635
 -1      1747    8    0    1
 -2       757       862       928      3426      3636      3632
 -1      1748    8    0    1
 -2       751       922       848      3613      3637      3367
 -1      1749    8    0    1
 -2       754       846       929      3362      3638      3639
 -1      1750    8    0    1
 -2       923       754       929      3614      3639      3640
 -1      1751    8    0    1
 -2       846       844       929      3611      3641      3638
 -1      1752    8    0    1
 -2       847       824       930      3363      3642      3643
 -1      1753    8    0    1
 -2       824       918       930      3594      3644      3642
 -1      1754    8    0    1
 -2       849       789       858      3371      3645      3646
 -1      1755    8    0    1
 -2       850       833       931      3375      3647      3648
 -1      1756    8    0    1
 -2       833       919       931      3599      3649      3647
 -1      1757    8    0    1
 -2       791       792       843      3192      3650      3586
 -1      1758    8    0    1
 -2       917       845       915      3592      3651      3652
 -1      1759    8    0    1
 -2       820       821       917      3279      3591      3653
 -1      1760    8    0    1
 -2       836       863       864      3430      3654      3625
 -1      1761    8    0    1
 -2       853       750       927      3388      3628      3655
 -1      1762    8    0    1
 -2       721       849       854      3373      3656      3394
 -1      1763    8    0    1
 -2       826       790       747      3370      3420      3657
 -1      1764    8    0    1
 -2       929       844       932      3641      3658      3659
 -1      1765    8    0    1
 -2       844       857       932      3407      3660      3658
 -1      1766    8    0    1
 -2       915       845       933      3651      3661      3662
 -1      1767    8    0    1
 -2       820       917       915      3653      3652      3583
 -1      1768    8    0    1
 -2       747       615       826      3048      3415      3657
 -1      1769    8    0    1
 -2       925       834       934      3619      3663      3664
 -1      1770    8    0    1
 -2       834       856       934      3402      3665      3663
 -1      1771    8    0    1
 -2       845       851       933      3380      3666      3661
 -1      1772    8    0    1
 -2       855       827       935      3399      3667      3668
 -1      1773    8    0    1
 -2       739       841       921      3343      3669      3605
 -1      1774    8    0    1
 -2       825       848       936      3369      3670      3671
 -1      1775    8    0    1
 -2       825       936       859      3671      3672      3413
 -1      1776    8    0    1
 -2       919       793       931      3608      3673      3649
 -1      1777    8    0    1
 -2       829       850       937      3377      3674      3675
 -1      1778    8    0    1
 -2       793       794       931      3198      3676      3673
 -1      1779    8    0    1
 -2       789       838       858      3610      3409      3645
 -1      1780    8    0    1
 -2       792       919       843      3609      3600      3650
 -1      1781    8    0    1
 -2       841       822       938      3344      3677      3678
 -1      1782    8    0    1
 -2       922       839       925      3612      3620      3679
 -1      1783    8    0    1
 -2       924       752       939      3617      3680      3681
 -1      1784    8    0    1
 -2       752       853       939      3387      3682      3680
 -1      1785    8    0    1
 -2       858       837       940      3410      3683      3684
 -1      1786    8    0    1
 -2       837       859       940      3412      3685      3683
 -1      1787    8    0    1
 -2       927       829       937      3627      3675      3686
 -1      1788    8    0    1
 -2       822       852       941      3383      3687      3688
 -1      1789    8    0    1
 -2       822       941       938      3688      3689      3677
 -1      1790    8    0    1
 -2       827       854       942      3393      3690      3691
 -1      1791    8    0    1
 -2       827       942       935      3691      3692      3667
 -1      1792    8    0    1
 -2       931       794       890      3676      3510      3693
 -1      1793    8    0    1
 -2       862       861       943      3427      3694      3695
 -1      1794    8    0    1
 -2       863       924       944      3634      3696      3697
 -1      1795    8    0    1
 -2       842       920       945      3633      3698      3699
 -1      1796    8    0    1
 -2       852       842       945      3635      3699      3700
 -1      1797    8    0    1
 -2       849       858       940      3646      3684      3701
 -1      1798    8    0    1
 -2       866       865       946      3438      3702      3703
 -1      1799    8    0    1
 -2       867       866       947      3441      3704      3705
 -1      1800    8    0    1
 -2       866       946       947      3703      3706      3704
 -1      1801    8    0    1
 -2       868       867       948      3444      3707      3708
 -1      1802    8    0    1
 -2       867       947       948      3705      3709      3707
 -1      1803    8    0    1
 -2       869       868       949      3447      3710      3711
 -1      1804    8    0    1
 -2       868       948       949      3708      3712      3710
 -1      1805    8    0    1
 -2       870       869       950      3450      3713      3714
 -1      1806    8    0    1
 -2       869       949       950      3711      3715      3713
 -1      1807    8    0    1
 -2       871       870       951      3453      3716      3717
 -1      1808    8    0    1
 -2       870       950       951      3714      3718      3716
 -1      1809    8    0    1
 -2       872       871       952      3456      3719      3720
 -1      1810    8    0    1
 -2       871       951       952      3717      3721      3719
 -1      1811    8    0    1
 -2       873       872       953      3459      3722      3723
 -1      1812    8    0    1
 -2       872       952       953      3720      3724      3722
 -1      1813    8    0    1
 -2       874       873       954      3462      3725      3726
 -1      1814    8    0    1
 -2       873       953       954      3723      3727      3725
 -1      1815    8    0    1
 -2       875       874       955      3465      3728      3729
 -1      1816    8    0    1
 -2       874       954       955      3726      3730      3728
 -1      1817    8    0    1
 -2       876       875       956      3468      3731      3732
 -1      1818    8    0    1
 -2       875       955       956      3729      3733      3731
 -1      1819    8    0    1
 -2       877       876       957      3471      3734      3735
 -1      1820    8    0    1
 -2       876       956       957      3732      3736      3734
 -1      1821    8    0    1
 -2       878       877       958      3474      3737      3738
 -1      1822    8    0    1
 -2       877       957       958      3735      3739      3737
 -1      1823    8    0    1
 -2       879       878       959      3477      3740      3741
 -1      1824    8    0    1
 -2       878       958       959      3738      3742      3740
 -1      1825    8    0    1
 -2       880       879       960      3480      3743      3744
 -1      1826    8    0    1
 -2       879       959       960      3741      3745      3743
 -1      1827    8    0    1
 -2       881       880       961      3483      3746      3747
 -1      1828    8    0    1
 -2       880       960       961      3744      3748      3746
 -1      1829    8    0    1
 -2       882       881       962      3486      3749      3750
 -1      1830    8    0    1
 -2       881       961       962      3747      3751      3749
 -1      1831    8    0    1
 -2       883       882       963      3489      3752      3753
 -1      1832    8    0    1
 -2       882       962       963      3750      3754      3752
 -1      1833    8    0    1
 -2       884       883       964      3492      3755      3756
 -1      1834    8    0    1
 -2       883       963       964      3753      3757      3755
 -1      1835    8    0    1
 -2       885       884       965      3495      3758      3759
 -1      1836    8    0    1
 -2       884       964       965      3756      3760      3758
 -1      1837    8    0    1
 -2       886       885       966      3498      3761      3762
 -1      1838    8    0    1
 -2       885       965       966      3759      3763      3761
 -1      1839    8    0    1
 -2       887       886       967      3501      3764      3765
 -1      1840    8    0    1
 -2       886       966       967      3762      3766      3764
 -1      1841    8    0    1
 -2       888       887       968      3504      3767      3768
 -1      1842    8    0    1
 -2       887       967       968      3765      3769      3767
 -1      1843    8    0    1
 -2       889       888       969      3508      3770      3771
 -1      1844    8    0    1
 -2       926       889       969      3624      3771      3772
 -1      1845    8    0    1
 -2       888       968       969      3768      3773      3770
 -1      1846    8    0    1
 -2       892       893       970      3519      3774      3775
 -1      1847    8    0    1
 -2       923       929       971      3640      3776      3777
 -1      1848    8    0    1
 -2       929       932       971      3659      3778      3776
 -1      1849    8    0    1
 -2       851       847       972      3381      3779      3780
 -1      1850    8    0    1
 -2       847       930       972      3643      3781      3779
 -1      1851    8    0    1
 -2       890       891       973      3513      3782      3783
 -1      1852    8    0    1
 -2       893       894       974      3522      3784      3785
 -1      1853    8    0    1
 -2       893       974       970      3785      3786      3774
 -1      1854    8    0    1
 -2       894       895       975      3525      3787      3788
 -1      1855    8    0    1
 -2       894       975       974      3788      3789      3784
 -1      1856    8    0    1
 -2       895       896       976      3528      3790      3791
 -1      1857    8    0    1
 -2       895       976       975      3791      3792      3787
 -1      1858    8    0    1
 -2       896       897       977      3531      3793      3794
 -1      1859    8    0    1
 -2       896       977       976      3794      3795      3790
 -1      1860    8    0    1
 -2       897       898       978      3534      3796      3797
 -1      1861    8    0    1
 -2       897       978       977      3797      3798      3793
 -1      1862    8    0    1
 -2       898       899       979      3537      3799      3800
 -1      1863    8    0    1
 -2       898       979       978      3800      3801      3796
 -1      1864    8    0    1
 -2       899       900       980      3540      3802      3803
 -1      1865    8    0    1
 -2       899       980       979      3803      3804      3799
 -1      1866    8    0    1
 -2       900       901       981      3543      3805      3806
 -1      1867    8    0    1
 -2       900       981       980      3806      3807      3802
 -1      1868    8    0    1
 -2       901       902       982      3546      3808      3809
 -1      1869    8    0    1
 -2       901       982       981      3809      3810      3805
 -1      1870    8    0    1
 -2       902       903       983      3549      3811      3812
 -1      1871    8    0    1
 -2       902       983       982      3812      3813      3808
 -1      1872    8    0    1
 -2       903       904       984      3552      3814      3815
 -1      1873    8    0    1
 -2       903       984       983      3815      3816      3811
 -1      1874    8    0    1
 -2       904       905       985      3555      3817      3818
 -1      1875    8    0    1
 -2       904       985       984      3818      3819      3814
 -1      1876    8    0    1
 -2       905       906       986      3558      3820      3821
 -1      1877    8    0    1
 -2       905       986       985      3821      3822      3817
 -1      1878    8    0    1
 -2       906       907       987      3561      3823      3824
 -1      1879    8    0    1
 -2       906       987       986      3824      3825      3820
 -1      1880    8    0    1
 -2       907       908       988      3564      3826      3827
 -1      1881    8    0    1
 -2       907       988       987      3827      3828      3823
 -1      1882    8    0    1
 -2       908       909       989      3567      3829      3830
 -1      1883    8    0    1
 -2       908       989       988      3830      3831      3826
 -1      1884    8    0    1
 -2       909       910       990      3570      3832      3833
 -1      1885    8    0    1
 -2       909       990       989      3833      3834      3829
 -1      1886    8    0    1
 -2       910       911       991      3573      3835      3836
 -1      1887    8    0    1
 -2       910       991       990      3836      3837      3832
 -1      1888    8    0    1
 -2       911       912       992      3576      3838      3839
 -1      1889    8    0    1
 -2       911       992       991      3839      3840      3835
 -1      1890    8    0    1
 -2       912       913       993      3579      3841      3842
 -1      1891    8    0    1
 -2       912       993       992      3842      3843      3838
 -1      1892    8    0    1
 -2       913       914       994      3582      3844      3845
 -1      1893    8    0    1
 -2       913       994       993      3845      3846      3841
 -1      1894    8    0    1
 -2       914       915       933      3585      3662      3847
 -1      1895    8    0    1
 -2       918       916       995      3595      3848      3849
 -1      1896    8    0    1
 -2       853       927       996      3655      3850      3851
 -1      1897    8    0    1
 -2       853       996       939      3851      3852      3682
 -1      1898    8    0    1
 -2       864       863       997      3654      3853      3854
 -1      1899    8    0    1
 -2       865       864       997      3435      3854      3855
 -1      1900    8    0    1
 -2       863       944       997      3697      3856      3853
 -1      1901    8    0    1
 -2       848       922       998      3637      3857      3858
 -1      1902    8    0    1
 -2       920       860       999      3603      3859      3860
 -1      1903    8    0    1
 -2       945       920       999      3698      3860      3861
 -1      1904    8    0    1
 -2       860       855       999      3419      3862      3859
 -1      1905    8    0    1
 -2       921       841      1000      3669      3863      3864
 -1      1906    8    0    1
 -2       841       938      1000      3678      3865      3863
 -1      1907    8    0    1
 -2       857       921      1001      3607      3866      3867
 -1      1908    8    0    1
 -2       932       857      1001      3660      3867      3868
 -1      1909    8    0    1
 -2       921      1000      1001      3864      3869      3866
 -1      1910    8    0    1
 -2       891       892      1002      3516      3870      3871
 -1      1911    8    0    1
 -2       892       970      1002      3775      3872      3870
 -1      1912    8    0    1
 -2       922       925      1003      3679      3873      3874
 -1      1913    8    0    1
 -2       861       923      1004      3616      3875      3876
 -1      1914    8    0    1
 -2       943       861      1004      3694      3876      3877
 -1      1915    8    0    1
 -2       923       971      1004      3777      3878      3875
 -1      1916    8    0    1
 -2       933       851       972      3666      3780      3879
 -1      1917    8    0    1
 -2       854       849      1005      3656      3880      3881
 -1      1918    8    0    1
 -2       942       854      1005      3690      3881      3882
 -1      1919    8    0    1
 -2       849       940      1005      3701      3883      3880
 -1      1920    8    0    1
 -2       856       928      1006      3631      3884      3885
 -1      1921    8    0    1
 -2       934       856      1006      3665      3885      3886
 -1      1922    8    0    1
 -2       928       862      1006      3636      3887      3884
 -1      1923    8    0    1
 -2       914       933       994      3847      3888      3844
 -1      1924    8    0    1
 -2       848       998      1007      3858      3889      3890
 -1      1925    8    0    1
 -2       848      1007       936      3890      3891      3670
 -1      1926    8    0    1
 -2       852       945       941      3700      3892      3687
 -1      1927    8    0    1
 -2       862       943      1006      3695      3893      3887
 -1      1928    8    0    1
 -2       855       935       999      3668      3894      3862
 -1      1929    8    0    1
 -2       938       941      1008      3689      3895      3896
 -1      1930    8    0    1
 -2       946       865       997      3702      3855      3897
 -1      1931    8    0    1
 -2       933       972      1009      3879      3898      3899
 -1      1932    8    0    1
 -2       933      1009       994      3899      3900      3888
 -1      1933    8    0    1
 -2       850       931       890      3648      3693      3901
 -1      1934    8    0    1
 -2       973       891      1002      3782      3871      3902
 -1      1935    8    0    1
 -2       938      1008      1010      3896      3903      3904
 -1      1936    8    0    1
 -2       938      1010      1000      3904      3905      3865
 -1      1937    8    0    1
 -2       850       890       937      3901      3906      3674
 -1      1938    8    0    1
 -2       925       934      1011      3664      3907      3908
 -1      1939    8    0    1
 -2       925      1011      1003      3908      3909      3873
 -1      1940    8    0    1
 -2       935       942      1012      3692      3910      3911
 -1      1941    8    0    1
 -2       930       918      1013      3644      3912      3913
 -1      1942    8    0    1
 -2       918       995      1013      3849      3914      3912
 -1      1943    8    0    1
 -2       935      1012      1014      3911      3915      3916
 -1      1944    8    0    1
 -2       935      1014       999      3916      3917      3894
 -1      1945    8    0    1
 -2       940       859      1015      3685      3918      3919
 -1      1946    8    0    1
 -2       940      1015      1005      3919      3920      3883
 -1      1947    8    0    1
 -2       937       890       973      3906      3783      3921
 -1      1948    8    0    1
 -2      1015       859       936      3918      3672      3922
 -1      1949    8    0    1
 -2       937       973      1016      3921      3923      3924
 -1      1950    8    0    1
 -2       927       937      1016      3686      3924      3925
 -1      1951    8    0    1
 -2       973      1002      1016      3902      3926      3923
 -1      1952    8    0    1
 -2       924       939      1017      3681      3927      3928
 -1      1953    8    0    1
 -2       924      1017       944      3928      3929      3696
 -1      1954    8    0    1
 -2       916       926       969      3623      3772      3930
 -1      1955    8    0    1
 -2       922      1003       998      3874      3931      3857
 -1      1956    8    0    1
 -2       916       969       995      3930      3932      3848
 -1      1957    8    0    1
 -2       927      1016       996      3925      3933      3850
 -1      1958    8    0    1
 -2       947       946      1018      3706      3934      3935
 -1      1959    8    0    1
 -2      1008       941      1014      3895      3936      3937
 -1      1960    8    0    1
 -2       946       997      1019      3897      3938      3939
 -1      1961    8    0    1
 -2       997       944      1019      3856      3940      3938
 -1      1962    8    0    1
 -2       998      1003      1020      3931      3941      3942
 -1      1963    8    0    1
 -2       948       947      1021      3709      3943      3944
 -1      1964    8    0    1
 -2       947      1018      1021      3935      3945      3943
 -1      1965    8    0    1
 -2       949       948      1022      3712      3946      3947
 -1      1966    8    0    1
 -2       948      1021      1022      3944      3948      3946
 -1      1967    8    0    1
 -2       950       949      1023      3715      3949      3950
 -1      1968    8    0    1
 -2       949      1022      1023      3947      3951      3949
 -1      1969    8    0    1
 -2       951       950      1024      3718      3952      3953
 -1      1970    8    0    1
 -2       950      1023      1024      3950      3954      3952
 -1      1971    8    0    1
 -2       952       951      1025      3721      3955      3956
 -1      1972    8    0    1
 -2       951      1024      1025      3953      3957      3955
 -1      1973    8    0    1
 -2       953       952      1026      3724      3958      3959
 -1      1974    8    0    1
 -2       952      1025      1026      3956      3960      3958
 -1      1975    8    0    1
 -2       954       953      1027      3727      3961      3962
 -1      1976    8    0    1
 -2       953      1026      1027      3959      3963      3961
 -1      1977    8    0    1
 -2       955       954      1028      3730      3964      3965
 -1      1978    8    0    1
 -2       954      1027      1028      3962      3966      3964
 -1      1979    8    0    1
 -2       956       955      1029      3733      3967      3968
 -1      1980    8    0    1
 -2       955      1028      1029      3965      3969      3967
 -1      1981    8    0    1
 -2       957       956      1030      3736      3970      3971
 -1      1982    8    0    1
 -2       956      1029      1030      3968      3972      3970
 -1      1983    8    0    1
 -2       958       957      1031      3739      3973      3974
 -1      1984    8    0    1
 -2       957      1030      1031      3971      3975      3973
 -1      1985    8    0    1
 -2       959       958      1032      3742      3976      3977
 -1      1986    8    0    1
 -2       958      1031      1032      3974      3978      3976
 -1      1987    8    0    1
 -2       960       959      1033      3745      3979      3980
 -1      1988    8    0    1
 -2       959      1032      1033      3977      3981      3979
 -1      1989    8    0    1
 -2       961       960      1034      3748      3982      3983
 -1      1990    8    0    1
 -2       960      1033      1034      3980      3984      3982
 -1      1991    8    0    1
 -2       962       961      1035      3751      3985      3986
 -1      1992    8    0    1
 -2       961      1034      1035      3983      3987      3985
 -1      1993    8    0    1
 -2       963       962      1036      3754      3988      3989
 -1      1994    8    0    1
 -2       962      1035      1036      3986      3990      3988
 -1      1995    8    0    1
 -2       964       963      1037      3757      3991      3992
 -1      1996    8    0    1
 -2       963      1036      1037      3989      3993      3991
 -1      1997    8    0    1
 -2       965       964      1038      3760      3994      3995
 -1      1998    8    0    1
 -2       964      1037      1038      3992      3996      3994
 -1      1999    8    0    1
 -2       966       965      1039      3763      3997      3998
 -1      2000    8    0    1
 -2       965      1038      1039      3995      3999      3997
 -1      2001    8    0    1
 -2       967       966      1040      3766      4000      4001
 -1      2002    8    0    1
 -2       966      1039      1040      3998      4002      4000
 -1      2003    8    0    1
 -2       971       932      1041      3778      4003      4004
 -1      2004    8    0    1
 -2       932      1001      1041      3868      4005      4003
 -1      2005    8    0    1
 -2       972       930      1042      3781      4006      4007
 -1      2006    8    0    1
 -2      1009       972      1042      3898      4007      4008
 -1      2007    8    0    1
 -2       930      1013      1042      3913      4009      4006
 -1      2008    8    0    1
 -2       970       974      1043      3786      4010      4011
 -1      2009    8    0    1
 -2       976       977      1044      3795      4012      4013
 -1      2010    8    0    1
 -2       977       978      1045      3798      4014      4015
 -1      2011    8    0    1
 -2       977      1045      1044      4015      4016      4012
 -1      2012    8    0    1
 -2       978       979      1046      3801      4017      4018
 -1      2013    8    0    1
 -2       978      1046      1045      4018      4019      4014
 -1      2014    8    0    1
 -2       979       980      1047      3804      4020      4021
 -1      2015    8    0    1
 -2       979      1047      1046      4021      4022      4017
 -1      2016    8    0    1
 -2       980       981      1048      3807      4023      4024
 -1      2017    8    0    1
 -2       980      1048      1047      4024      4025      4020
 -1      2018    8    0    1
 -2       981       982      1049      3810      4026      4027
 -1      2019    8    0    1
 -2       981      1049      1048      4027      4028      4023
 -1      2020    8    0    1
 -2       982       983      1050      3813      4029      4030
 -1      2021    8    0    1
 -2       982      1050      1049      4030      4031      4026
 -1      2022    8    0    1
 -2       983       984      1051      3816      4032      4033
 -1      2023    8    0    1
 -2       983      1051      1050      4033      4034      4029
 -1      2024    8    0    1
 -2       984       985      1052      3819      4035      4036
 -1      2025    8    0    1
 -2       984      1052      1051      4036      4037      4032
 -1      2026    8    0    1
 -2       985       986      1053      3822      4038      4039
 -1      2027    8    0    1
 -2       985      1053      1052      4039      4040      4035
 -1      2028    8    0    1
 -2       986       987      1054      3825      4041      4042
 -1      2029    8    0    1
 -2       986      1054      1053      4042      4043      4038
 -1      2030    8    0    1
 -2       987       988      1055      3828      4044      4045
 -1      2031    8    0    1
 -2       987      1055      1054      4045      4046      4041
 -1      2032    8    0    1
 -2       988       989      1056      3831      4047      4048
 -1      2033    8    0    1
 -2       988      1056      1055      4048      4049      4044
 -1      2034    8    0    1
 -2       989       990      1057      3834      4050      4051
 -1      2035    8    0    1
 -2       989      1057      1056      4051      4052      4047
 -1      2036    8    0    1
 -2       990       991      1058      3837      4053      4054
 -1      2037    8    0    1
 -2       990      1058      1057      4054      4055      4050
 -1      2038    8    0    1
 -2       991       992      1059      3840      4056      4057
 -1      2039    8    0    1
 -2       991      1059      1058      4057      4058      4053
 -1      2040    8    0    1
 -2       992       993      1060      3843      4059      4060
 -1      2041    8    0    1
 -2       992      1060      1059      4060      4061      4056
 -1      2042    8    0    1
 -2       993       994      1061      3846      4062      4063
 -1      2043    8    0    1
 -2      1060       993      1061      4059      4063      4064
 -1      2044    8    0    1
 -2       994      1009      1061      3900      4065      4062
 -1      2045    8    0    1
 -2       996      1016      1062      3933      4066      4067
 -1      2046    8    0    1
 -2       939       996      1063      3852      4068      4069
 -1      2047    8    0    1
 -2      1017       939      1063      3927      4069      4070
 -1      2048    8    0    1
 -2       996      1062      1063      4067      4071      4068
 -1      2049    8    0    1
 -2       945       999      1014      3861      3917      4072
 -1      2050    8    0    1
 -2       974       975      1064      3789      4073      4074
 -1      2051    8    0    1
 -2       974      1064      1043      4074      4075      4010
 -1      2052    8    0    1
 -2      1002       970      1065      3872      4076      4077
 -1      2053    8    0    1
 -2      1016      1002      1065      3926      4077      4078
 -1      2054    8    0    1
 -2       970      1043      1065      4011      4079      4076
 -1      2055    8    0    1
 -2      1012       942      1005      3910      3882      4080
 -1      2056    8    0    1
 -2       975       976      1066      3792      4081      4082
 -1      2057    8    0    1
 -2      1064       975      1066      4073      4082      4083
 -1      2058    8    0    1
 -2       976      1044      1066      4013      4084      4081
 -1      2059    8    0    1
 -2      1015       936      1007      3922      3891      4085
 -1      2060    8    0    1
 -2       934      1006       943      3886      3893      4086
 -1      2061    8    0    1
 -2       946      1019      1018      3939      4087      3934
 -1      2062    8    0    1
 -2      1020      1003      1067      3941      4088      4089
 -1      2063    8    0    1
 -2      1003      1011      1067      3909      4090      4088
 -1      2064    8    0    1
 -2      1016      1065      1062      4078      4091      4066
 -1      2065    8    0    1
 -2       971      1041      1004      4004      4092      3878
 -1      2066    8    0    1
 -2       968       967      1068      3769      4093      4094
 -1      2067    8    0    1
 -2       969       968       995      3773      4095      3932
 -1      2068    8    0    1
 -2      1010      1008      1069      3903      4096      4097
 -1      2069    8    0    1
 -2      1007       998      1069      3889      4098      4099
 -1      2070    8    0    1
 -2       934       943      1011      4086      4100      3907
 -1      2071    8    0    1
 -2       995       968      1068      4095      4094      4101
 -1      2072    8    0    1
 -2      1068       967      1040      4093      4001      4102
 -1      2073    8    0    1
 -2      1011       943      1070      4100      4103      4104
 -1      2074    8    0    1
 -2      1067      1011      1070      4090      4104      4105
 -1      2075    8    0    1
 -2       943      1004      1070      3877      4106      4103
 -1      2076    8    0    1
 -2      1013       995      1071      3914      4107      4108
 -1      2077    8    0    1
 -2       995      1068      1071      4101      4109      4107
 -1      2078    8    0    1
 -2       944      1017      1019      3929      4110      3940
 -1      2079    8    0    1
 -2      1001      1000      1072      3869      4111      4112
 -1      2080    8    0    1
 -2      1041      1001      1072      4005      4112      4113
 -1      2081    8    0    1
 -2      1000      1010      1072      3905      4114      4111
 -1      2082    8    0    1
 -2       941       945      1014      3892      4072      3936
 -1      2083    8    0    1
 -2      1008      1014      1073      3937      4115      4116
 -1      2084    8    0    1
 -2      1069      1008      1073      4096      4116      4117
 -1      2085    8    0    1
 -2      1014      1012      1073      3915      4118      4115
 -1      2086    8    0    1
 -2      1022      1021      1074      3948      4119      4120
 -1      2087    8    0    1
 -2      1023      1022      1075      3951      4121      4122
 -1      2088    8    0    1
 -2      1022      1074      1075      4120      4123      4121
 -1      2089    8    0    1
 -2      1024      1023      1076      3954      4124      4125
 -1      2090    8    0    1
 -2      1023      1075      1076      4122      4126      4124
 -1      2091    8    0    1
 -2      1025      1024      1077      3957      4127      4128
 -1      2092    8    0    1
 -2      1024      1076      1077      4125      4129      4127
 -1      2093    8    0    1
 -2      1026      1025      1078      3960      4130      4131
 -1      2094    8    0    1
 -2      1025      1077      1078      4128      4132      4130
 -1      2095    8    0    1
 -2      1027      1026      1079      3963      4133      4134
 -1      2096    8    0    1
 -2      1026      1078      1079      4131      4135      4133
 -1      2097    8    0    1
 -2      1028      1027      1080      3966      4136      4137
 -1      2098    8    0    1
 -2      1027      1079      1080      4134      4138      4136
 -1      2099    8    0    1
 -2      1029      1028      1081      3969      4139      4140
 -1      2100    8    0    1
 -2      1028      1080      1081      4137      4141      4139
 -1      2101    8    0    1
 -2      1030      1029      1082      3972      4142      4143
 -1      2102    8    0    1
 -2      1029      1081      1082      4140      4144      4142
 -1      2103    8    0    1
 -2      1031      1030      1083      3975      4145      4146
 -1      2104    8    0    1
 -2      1030      1082      1083      4143      4147      4145
 -1      2105    8    0    1
 -2      1032      1031      1084      3978      4148      4149
 -1      2106    8    0    1
 -2      1031      1083      1084      4146      4150      4148
 -1      2107    8    0    1
 -2      1033      1032      1085      3981      4151      4152
 -1      2108    8    0    1
 -2      1032      1084      1085      4149      4153      4151
 -1      2109    8    0    1
 -2      1034      1033      1086      3984      4154      4155
 -1      2110    8    0    1
 -2      1033      1085      1086      4152      4156      4154
 -1      2111    8    0    1
 -2      1035      1034      1087      3987      4157      4158
 -1      2112    8    0    1
 -2      1034      1086      1087      4155      4159      4157
 -1      2113    8    0    1
 -2      1036      1035      1088      3990      4160      4161
 -1      2114    8    0    1
 -2      1035      1087      1088      4158      4162      4160
 -1      2115    8    0    1
 -2      1037      1036      1089      3993      4163      4164
 -1      2116    8    0    1
 -2      1036      1088      1089      4161      4165      4163
 -1      2117    8    0    1
 -2      1038      1037      1090      3996      4166      4167
 -1      2118    8    0    1
 -2      1037      1089      1090      4164      4168      4166
 -1      2119    8    0    1
 -2      1039      1038      1091      3999      4169      4170
 -1      2120    8    0    1
 -2      1038      1090      1091      4167      4171      4169
 -1      2121    8    0    1
 -2      1040      1039      1092      4002      4172      4173
 -1      2122    8    0    1
 -2      1039      1091      1092      4170      4174      4172
 -1      2123    8    0    1
 -2      1045      1046      1093      4019      4175      4176
 -1      2124    8    0    1
 -2      1007      1069      1073      4099      4117      4177
 -1      2125    8    0    1
 -2      1015      1007      1073      4085      4177      4178
 -1      2126    8    0    1
 -2      1044      1045      1094      4016      4179      4180
 -1      2127    8    0    1
 -2      1045      1093      1094      4176      4181      4179
 -1      2128    8    0    1
 -2      1047      1048      1095      4025      4182      4183
 -1      2129    8    0    1
 -2      1048      1049      1096      4028      4184      4185
 -1      2130    8    0    1
 -2      1048      1096      1095      4185      4186      4182
 -1      2131    8    0    1
 -2      1049      1050      1097      4031      4187      4188
 -1      2132    8    0    1
 -2      1049      1097      1096      4188      4189      4184
 -1      2133    8    0    1
 -2      1050      1051      1098      4034      4190      4191
 -1      2134    8    0    1
 -2      1050      1098      1097      4191      4192      4187
 -1      2135    8    0    1
 -2      1051      1052      1099      4037      4193      4194
 -1      2136    8    0    1
 -2      1051      1099      1098      4194      4195      4190
 -1      2137    8    0    1
 -2      1052      1053      1100      4040      4196      4197
 -1      2138    8    0    1
 -2      1052      1100      1099      4197      4198      4193
 -1      2139    8    0    1
 -2      1053      1054      1101      4043      4199      4200
 -1      2140    8    0    1
 -2      1053      1101      1100      4200      4201      4196
 -1      2141    8    0    1
 -2      1054      1055      1102      4046      4202      4203
 -1      2142    8    0    1
 -2      1054      1102      1101      4203      4204      4199
 -1      2143    8    0    1
 -2      1055      1056      1103      4049      4205      4206
 -1      2144    8    0    1
 -2      1055      1103      1102      4206      4207      4202
 -1      2145    8    0    1
 -2      1056      1057      1104      4052      4208      4209
 -1      2146    8    0    1
 -2      1056      1104      1103      4209      4210      4205
 -1      2147    8    0    1
 -2      1057      1058      1105      4055      4211      4212
 -1      2148    8    0    1
 -2      1057      1105      1104      4212      4213      4208
 -1      2149    8    0    1
 -2      1058      1059      1106      4058      4214      4215
 -1      2150    8    0    1
 -2      1058      1106      1105      4215      4216      4211
 -1      2151    8    0    1
 -2      1059      1060      1107      4061      4217      4218
 -1      2152    8    0    1
 -2      1059      1107      1106      4218      4219      4214
 -1      2153    8    0    1
 -2      1004      1041      1070      4092      4220      4106
 -1      2154    8    0    1
 -2      1065      1043      1108      4079      4221      4222
 -1      2155    8    0    1
 -2      1019      1017      1109      4110      4223      4224
 -1      2156    8    0    1
 -2      1012      1005      1015      4080      3920      4225
 -1      2157    8    0    1
 -2      1068      1040      1110      4102      4226      4227
 -1      2158    8    0    1
 -2      1071      1068      1110      4109      4227      4228
 -1      2159    8    0    1
 -2      1040      1092      1110      4173      4229      4226
 -1      2160    8    0    1
 -2      1062      1065      1108      4091      4222      4230
 -1      2161    8    0    1
 -2      1073      1012      1015      4118      4225      4178
 -1      2162    8    0    1
 -2      1046      1047      1111      4022      4231      4232
 -1      2163    8    0    1
 -2      1047      1095      1111      4183      4233      4231
 -1      2164    8    0    1
 -2      1018      1019      1109      4087      4224      4234
 -1      2165    8    0    1
 -2      1043      1064      1112      4075      4235      4236
 -1      2166    8    0    1
 -2      1069       998      1020      4098      3942      4237
 -1      2167    8    0    1
 -2      1018      1109      1021      4234      4238      3945
 -1      2168    8    0    1
 -2      1093      1046      1111      4175      4232      4239
 -1      2169    8    0    1
 -2      1074      1021      1109      4119      4238      4240
 -1      2170    8    0    1
 -2      1042      1013      1113      4009      4241      4242
 -1      2171    8    0    1
 -2      1013      1071      1113      4108      4243      4241
 -1      2172    8    0    1
 -2      1044      1094      1114      4180      4244      4245
 -1      2173    8    0    1
 -2      1044      1114      1066      4245      4246      4084
 -1      2174    8    0    1
 -2      1070      1041      1072      4220      4113      4247
 -1      2175    8    0    1
 -2      1107      1060      1115      4217      4248      4249
 -1      2176    8    0    1
 -2      1060      1061      1115      4064      4250      4248
 -1      2177    8    0    1
 -2      1109      1017      1063      4223      4070      4251
 -1      2178    8    0    1
 -2      1108      1043      1112      4221      4236      4252
 -1      2179    8    0    1
 -2      1063      1062      1108      4071      4230      4253
 -1      2180    8    0    1
 -2      1072      1010      1067      4114      4254      4255
 -1      2181    8    0    1
 -2      1064      1066      1116      4083      4256      4257
 -1      2182    8    0    1
 -2      1112      1064      1116      4235      4257      4258
 -1      2183    8    0    1
 -2      1066      1114      1116      4246      4259      4256
 -1      2184    8    0    1
 -2      1010      1069      1067      4097      4260      4254
 -1      2185    8    0    1
 -2      1075      1074      1117      4123      4261      4262
 -1      2186    8    0    1
 -2      1076      1075      1114      4126      4263      4264
 -1      2187    8    0    1
 -2      1077      1076      1094      4129      4265      4266
 -1      2188    8    0    1
 -2      1078      1077      1093      4132      4267      4268
 -1      2189    8    0    1
 -2      1079      1078      1111      4135      4269      4270
 -1      2190    8    0    1
 -2      1080      1079      1095      4138      4271      4272
 -1      2191    8    0    1
 -2      1081      1080      1096      4141      4273      4274
 -1      2192    8    0    1
 -2      1082      1081      1097      4144      4275      4276
 -1      2193    8    0    1
 -2      1083      1082      1098      4147      4277      4278
 -1      2194    8    0    1
 -2      1084      1083      1099      4150      4279      4280
 -1      2195    8    0    1
 -2      1085      1084      1100      4153      4281      4282
 -1      2196    8    0    1
 -2      1086      1085      1101      4156      4283      4284
 -1      2197    8    0    1
 -2      1087      1086      1102      4159      4285      4286
 -1      2198    8    0    1
 -2      1088      1087      1103      4162      4287      4288
 -1      2199    8    0    1
 -2      1089      1088      1104      4165      4289      4290
 -1      2200    8    0    1
 -2      1090      1089      1105      4168      4291      4292
 -1      2201    8    0    1
 -2      1091      1090      1106      4171      4293      4294
 -1      2202    8    0    1
 -2      1092      1091      1107      4174      4295      4296
 -1      2203    8    0    1
 -2      1096      1080      1095      4273      4272      4186
 -1      2204    8    0    1
 -2      1107      1091      1106      4295      4294      4219
 -1      2205    8    0    1
 -2      1095      1079      1111      4271      4270      4233
 -1      2206    8    0    1
 -2      1097      1098      1082      4192      4277      4276
 -1      2207    8    0    1
 -2      1094      1093      1077      4181      4267      4266
 -1      2208    8    0    1
 -2      1096      1097      1081      4189      4275      4274
 -1      2209    8    0    1
 -2      1098      1099      1083      4195      4279      4278
 -1      2210    8    0    1
 -2      1099      1100      1084      4198      4281      4280
 -1      2211    8    0    1
 -2      1100      1101      1085      4201      4283      4282
 -1      2212    8    0    1
 -2      1101      1102      1086      4204      4285      4284
 -1      2213    8    0    1
 -2      1102      1103      1087      4207      4287      4286
 -1      2214    8    0    1
 -2      1103      1104      1088      4210      4289      4288
 -1      2215    8    0    1
 -2      1104      1105      1089      4213      4291      4290
 -1      2216    8    0    1
 -2      1105      1106      1090      4216      4293      4292
 -1      2217    8    0    1
 -2      1111      1078      1093      4269      4268      4239
 -1      2218    8    0    1
 -2      1109      1063      1108      4251      4253      4297
 -1      2219    8    0    1
 -2      1061      1009      1118      4065      4298      4299
 -1      2220    8    0    1
 -2      1067      1070      1072      4105      4247      4255
 -1      2221    8    0    1
 -2      1061      1118      1115      4299      4300      4250
 -1      2222    8    0    1
 -2      1094      1076      1114      4265      4264      4244
 -1      2223    8    0    1
 -2      1009      1042      1118      4008      4301      4298
 -1      2224    8    0    1
 -2      1069      1020      1067      4237      4089      4260
 -1      2225    8    0    1
 -2      1092      1107      1119      4296      4302      4303
 -1      2226    8    0    1
 -2      1113      1071      1110      4243      4228      4304
 -1      2227    8    0    1
 -2      1108      1112      1120      4252      4305      4306
 -1      2228    8    0    1
 -2      1112      1116      1117      4258      4307      4308
 -1      2229    8    0    1
 -2      1109      1108      1120      4297      4306      4309
 -1      2230    8    0    1
 -2      1074      1109      1120      4240      4309      4310
 -1      2231    8    0    1
 -2      1120      1112      1117      4305      4308      4311
 -1      2232    8    0    1
 -2      1074      1120      1117      4310      4311      4261
 -1      2233    8    0    1
 -2      1118      1042      1113      4301      4242      4312
 -1      2234    8    0    1
 -2      1075      1117      1114      4262      4313      4263
 -1      2235    8    0    1
 -2      1110      1092      1119      4229      4303      4314
 -1      2236    8    0    1
 -2      1115      1118      1119      4300      4315      4316
 -1      2237    8    0    1
 -2      1113      1110      1119      4304      4314      4317
 -1      2238    8    0    1
 -2      1119      1118      1113      4315      4312      4317
 -1      2239    8    0    1
 -2      1119      1107      1115      4302      4249      4316
 -1      2240    8    0    1
 -2      1116      1114      1117      4259      4313      4307
 -3
    1PSTEP                         1           1           1          
  100CL  101 1.000000000        4317                     0    1           1
 -4  DISP        4    1
 -5  D1          1    2    1    0
 -5  D2          1    2    2    0
 -5  D3          1    2    3    0
 -5  ALL         1    2    0    0    1ALL
 -1         1 4.77523E-03-1.03216E-03-9.99438E-15
 -1         2 6.73834E-03-1.85280E-04-1.30490E-14
 -1         3 1.49738E-02-2.90479E-04-1.13895E-13
 -1         4 1.54460E-02-1.72053E-03-1.18501E-13
 -1         5 0.00000E+00 0.00000E+00 0.00000E+00
 -1         6 0.00000E+00 0.00000E+00 0.00000E+00
 -1         7 0.00000E+00 0.00000E+00 0.00000E+00
 -1         8 0.00000E+00 0.00000E+00 0.00000E+00
 -1         9 0.00000E+00 0.00000E+00 0.00000E+00
 -1        10 0.00000E+00 0.00000E+00 0.00000E+00
 -1        11 0.00000E+00 0.00000E+00 0.00000E+00
 -1        12 0.00000E+00 0.00000E+00 0.00000E+00
 -1        13 0.00000E+00 0.00000E+00 0.00000E+00
 -1        14 0.00000E+00 0.00000E+00 0.00000E+00
 -1        15 0.00000E+00 0.00000E+00 0.00000E+00
 -1        16 0.00000E+00 0.00000E+00 0.00000E+00
 -1        17 0.00000E+00 0.00000E+00 0.00000E+00
 -1        18 0.00000E+00 0.00000E+00 0.00000E+00
 -1        19 0.00000E+00 0.00000E+00 0.00000E+00
 -1        20 0.00000E+00 0.00000E+00 0.00000E+00
 -1        21 0.00000E+00 0.00000E+00 0.00000E+00
 -1        22 0.00000E+00 0.00000E+00 0.00000E+00
 -1        23 4.18981E-04-2.46156E-04 2.57159E-17
 -1        24 7.30390E-04-3.68434E-04-5.80455E-17
 -1        25 1.03022E-03-4.51512E-04-2.49062E-16
 -1        26 1.33388E-03-5.12589E-04-5.45493E-16
 -1        27 1.64674E-03-5.63404E-04-9.45123E-16
 -1        28 1.97191E-03-6.12843E-04-1.44693E-15
 -1        29 2.31065E-03-6.69220E-04-2.05301E-15
 -1        30 2.66185E-03-7.40553E-04-2.76190E-15
 -1        31 3.02096E-03-8.33570E-04-3.57708E-15
 -1        32 3.37907E-03-9.51162E-04-4.50025E-15
 -1        33 3.72354E-03-1.08850E-03-5.53212E-15
 -1        34 4.04154E-03-1.22950E-03-6.67385E-15
 -1        35 4.32691E-03-1.34759E-03-7.93233E-15
 -1        36 4.58658E-03-1.41412E-03-9.31013E-15
 -1        37 4.84042E-03-1.41252E-03-1.08079E-14
 -1        38 5.11188E-03-1.34814E-03-1.24246E-14
 -1        39 5.41579E-03-1.24521E-03-1.41512E-14
 -1        40 5.75285E-03-1.13364E-03-1.59836E-14
 -1        41 6.11308E-03-1.03670E-03-1.79268E-14
 -1        42 6.48308E-03-9.66112E-04-1.99804E-14
 -1        43 6.85164E-03-9.23929E-04-2.21487E-14
 -1        44 7.21176E-03-9.06614E-04-2.44203E-14
 -1        45 7.56029E-03-9.08597E-04-2.67986E-14
 -1        46 7.89673E-03-9.24349E-04-2.92818E-14
 -1        47 8.22203E-03-9.49260E-04-3.18547E-14
 -1        48 8.53780E-03-9.79840E-04-3.45169E-14
 -1        49 8.84577E-03-1.01361E-03-3.72635E-14
 -1        50 9.14758E-03-1.04888E-03-4.00959E-14
 -1        51 9.44464E-03-1.08457E-03-4.30173E-14
 -1        52 9.73811E-03-1.12001E-03-4.60289E-14
 -1        53 1.00289E-02-1.15484E-03-4.91203E-14
 -1        54 1.03179E-02-1.18888E-03-5.22807E-14
 -1        55 1.06054E-02-1.22207E-03-5.55123E-14
 -1        56 1.08921E-02-1.25445E-03-5.88236E-14
 -1        57 1.11781E-02-1.28606E-03-6.22091E-14
 -1        58 1.14637E-02-1.31702E-03-6.56512E-14
 -1        59 1.17491E-02-1.34741E-03-6.91595E-14
 -1        60 1.20344E-02-1.37732E-03-7.27269E-14
 -1        61 1.23196E-02-1.40685E-03-7.63405E-14
 -1        62 1.26049E-02-1.43608E-03-8.00046E-14
 -1        63 1.28902E-02-1.46506E-03-8.37144E-14
 -1        64 1.31755E-02-1.49386E-03-8.74727E-14
 -1        65 1.34610E-02-1.52252E-03-9.12756E-14
 -1        66 1.37464E-02-1.55108E-03-9.51260E-14
 -1        67 1.40320E-02-1.57958E-03-9.90266E-14
 -1        68 1.43176E-02-1.60805E-03-1.02942E-13
 -1        69 1.46032E-02-1.63651E-03-1.06862E-13
 -1        70 1.48889E-02-1.66497E-03-1.10791E-13
 -1        71 1.51746E-02-1.69345E-03-1.14741E-13
 -1        72 4.20753E-04 2.48889E-04 6.80540E-17
 -1        73 7.28321E-04 3.75547E-04 5.81641E-17
 -1        74 1.02560E-03 4.60221E-04-3.34070E-17
 -1        75 1.32426E-03 5.23532E-04-2.11775E-16
 -1        76 1.62895E-03 5.76056E-04-4.81210E-16
 -1        77 1.94149E-03 6.25564E-04-8.44651E-16
 -1        78 2.26167E-03 6.78401E-04-1.30719E-15
 -1        79 2.58723E-03 7.39545E-04-1.86745E-15
 -1        80 2.91362E-03 8.11808E-04-2.52973E-15
 -1        81 3.23431E-03 8.94410E-04-3.30240E-15
 -1        82 3.54188E-03 9.81477E-04-4.18494E-15
 -1        83 3.83056E-03 1.06153E-03-5.17588E-15
 -1        84 4.09923E-03 1.11930E-03-6.28572E-15
 -1        85 4.35352E-03 1.14039E-03-7.51819E-15
 -1        86 4.60482E-03 1.11702E-03-8.88119E-15
 -1        87 4.86611E-03 1.05171E-03-1.03692E-14
 -1        88 5.14675E-03 9.56198E-04-1.19757E-14
 -1        89 5.44953E-03 8.46535E-04-1.36984E-14
 -1        90 5.77109E-03 7.37482E-04-1.55381E-14
 -1        91 6.10468E-03 6.39094E-04-1.74891E-14
 -1        92 6.44311E-03 5.56094E-04-1.95571E-14
 -1        93 6.78054E-03 4.89052E-04-2.17375E-14
 -1        94 7.11320E-03 4.36082E-04-2.40305E-14
 -1        95 7.43915E-03 3.94278E-04-2.64257E-14
 -1        96 7.75787E-03 3.60636E-04-2.89136E-14
 -1        97 8.06970E-03 3.32520E-04-3.14947E-14
 -1        98 8.37542E-03 3.07835E-04-3.41786E-14
 -1        99 8.67602E-03 2.85022E-04-3.69529E-14
 -1       100 8.97248E-03 2.62990E-04-3.98073E-14
 -1       101 9.26569E-03 2.41020E-04-4.27457E-14
 -1       102 9.55643E-03 2.18670E-04-4.57572E-14
 -1       103 9.84534E-03 1.95700E-04-4.88512E-14
 -1       104 1.01329E-02 1.72004E-04-5.20201E-14
 -1       105 1.04196E-02 1.47569E-04-5.52686E-14
 -1       106 1.07057E-02 1.22434E-04-5.86027E-14
 -1       107 1.09913E-02 9.66686E-05-6.20139E-14
 -1       108 1.12768E-02 7.03565E-05-6.54998E-14
 -1       109 1.15621E-02 4.35837E-05-6.90438E-14
 -1       110 1.18473E-02 1.64322E-05-7.26436E-14
 -1       111 1.21326E-02-1.10232E-05-7.62927E-14
 -1       112 1.24179E-02-3.87174E-05-7.99836E-14
 -1       113 1.27033E-02-6.65943E-05-8.36974E-14
 -1       114 1.29887E-02-9.46066E-05-8.74356E-14
 -1       115 1.32741E-02-1.22715E-04-9.11928E-14
 -1       116 1.35597E-02-1.50887E-04-9.49655E-14
 -1       117 1.38453E-02-1.79093E-04-9.87680E-14
 -1       118 1.41309E-02-2.07312E-04-1.02594E-13
 -1       119 1.44166E-02-2.35524E-04-1.06435E-13
 -1       120 1.47023E-02-2.63715E-04-1.10266E-13
 -1       121 1.50015E-02-3.74762E-04-1.14176E-13
 -1       122 1.50291E-02-4.59053E-04-1.14468E-13
 -1       123 1.50568E-02-5.43367E-04-1.14739E-13
 -1       124 1.50845E-02-6.27714E-04-1.15004E-13
 -1       125 1.51121E-02-7.12098E-04-1.15260E-13
 -1       126 1.51394E-02-7.95084E-04-1.15523E-13
 -1       127 1.51671E-02-8.79527E-04-1.15799E-13
 -1       128 1.51949E-02-9.63987E-04-1.16105E-13
 -1       129 1.52228E-02-1.04845E-03-1.16436E-13
 -1       130 1.52507E-02-1.13291E-03-1.16728E-13
 -1       131 1.52787E-02-1.21736E-03-1.17022E-13
 -1       132 1.53062E-02-1.30034E-03-1.17309E-13
 -1       133 1.53343E-02-1.38472E-03-1.17591E-13
 -1       134 1.53624E-02-1.46907E-03-1.17827E-13
 -1       135 1.53904E-02-1.55338E-03-1.18057E-13
 -1       136 1.54185E-02-1.63768E-03-1.18283E-13
 -1       137 6.68331E-03-1.83002E-05-1.29121E-14
 -1       138 6.50974E-03 1.66886E-04-1.25609E-14
 -1       139 6.24270E-03 3.30982E-04-1.20630E-14
 -1       140 5.90339E-03 4.67817E-04-1.14640E-14
 -1       141 5.49791E-03 5.78006E-04-1.07742E-14
 -1       142 5.05700E-03 6.51143E-04-1.00616E-14
 -1       143 4.58135E-03 6.86549E-04-9.33180E-15
 -1       144 4.09916E-03 6.79568E-04-8.63089E-15
 -1       145 3.65307E-03 6.32756E-04-8.01620E-15
 -1       146 3.21681E-03 5.40740E-04-7.44698E-15
 -1       147 2.88445E-03 4.29816E-04-7.03950E-15
 -1       148 2.61999E-03 2.94740E-04-6.73162E-15
 -1       149 2.41290E-03 1.19416E-04-6.50985E-15
 -1       150 2.32781E-03-4.95805E-05-6.43833E-15
 -1       151 2.34694E-03-2.45027E-04-6.50085E-15
 -1       152 2.46241E-03-4.15013E-04-6.68059E-15
 -1       153 2.69617E-03-5.94270E-04-7.01345E-15
 -1       154 2.98349E-03-7.37822E-04-7.41287E-15
 -1       155 3.35400E-03-8.65044E-04-7.92709E-15
 -1       156 3.78027E-03-9.60841E-04-8.52846E-15
 -1       157 4.28100E-03-1.02225E-03-9.25890E-15
 -1       158 5.23103E-03-9.97891E-04-1.06918E-14
 -1       159 5.64695E-03-9.26305E-04-1.13470E-14
 -1       160 6.02962E-03-8.17064E-04-1.19599E-14
 -1       161 6.33527E-03-6.83613E-04-1.24511E-14
 -1       162 6.55595E-03-5.35200E-04-1.28046E-14
 -1       163 6.69514E-03-3.68565E-04-1.30175E-14
 -1       164 2.52299E-04-1.07198E-04-2.09251E-17
 -1       165 2.34090E-04-7.27062E-05-3.52366E-17
 -1       166 2.23398E-04-4.97334E-05-4.30056E-17
 -1       167 2.15211E-04-3.34932E-05-4.70747E-17
 -1       168 2.08839E-04-2.20559E-05-4.87552E-17
 -1       169 2.04138E-04-1.36460E-05-4.88433E-17
 -1       170 2.01427E-04-7.24315E-06-4.78065E-17
 -1       171 2.00821E-04-1.62544E-06-4.64411E-17
 -1       172 2.02272E-04 4.38699E-06-4.42253E-17
 -1       173 2.05575E-04 1.18735E-05-4.12641E-17
 -1       174 2.10350E-04 2.15997E-05-3.72966E-17
 -1       175 2.16534E-04 3.47943E-05-3.16418E-17
 -1       176 2.24103E-04 5.24050E-05-2.34526E-17
 -1       177 2.33999E-04 7.63291E-05-1.10758E-17
 -1       178 2.50456E-04 1.11448E-04 8.15185E-18
 -1       179 3.09752E-04 1.71110E-04 3.02967E-17
 -1       180 4.92578E-04-2.34339E-04-5.75373E-17
 -1       181 8.12761E-04-3.34615E-04-2.14537E-16
 -1       182 1.12490E-03-4.04208E-04-4.71225E-16
 -1       183 1.43770E-03-4.57279E-04-8.28402E-16
 -1       184 1.75559E-03-5.03840E-04-1.28531E-15
 -1       185 2.08113E-03-5.52766E-04-1.84296E-15
 -1       186 2.41525E-03-6.12765E-04-2.50157E-15
 -1       187 2.75703E-03-6.92141E-04-3.26122E-15
 -1       188 3.10324E-03-7.97070E-04-4.12529E-15
 -1       189 3.44822E-03-9.28083E-04-5.09561E-15
 -1       190 3.78471E-03-1.07537E-03-6.17549E-15
 -1       191 4.10648E-03-1.21588E-03-7.36765E-15
 -1       192 4.41254E-03-1.31738E-03-8.67915E-15
 -1       193 4.70980E-03-1.35205E-03-1.01115E-14
 -1       194 5.01059E-03-1.31280E-03-1.16651E-14
 -1       195 5.32554E-03-1.21798E-03-1.33359E-14
 -1       196 5.65800E-03-1.10010E-03-1.51150E-14
 -1       197 6.00413E-03-9.89176E-04-1.70022E-14
 -1       198 6.35675E-03-9.03207E-04-1.90002E-14
 -1       199 6.70895E-03-8.47897E-04-2.11059E-14
 -1       200 7.05588E-03-8.20996E-04-2.33198E-14
 -1       201 7.39495E-03-8.16806E-04-2.56401E-14
 -1       202 7.72526E-03-8.29093E-04-2.80653E-14
 -1       203 8.04708E-03-8.52457E-04-3.05852E-14
 -1       204 8.36125E-03-8.82734E-04-3.31964E-14
 -1       205 8.66889E-03-9.16938E-04-3.58957E-14
 -1       206 8.97113E-03-9.53040E-04-3.86766E-14
 -1       207 9.26905E-03-9.89727E-04-4.15465E-14
 -1       208 9.56358E-03-1.02620E-03-4.45047E-14
 -1       209 9.85551E-03-1.06199E-03-4.75480E-14
 -1       210 1.01455E-02-1.09690E-03-5.06651E-14
 -1       211 1.04340E-02-1.13084E-03-5.38511E-14
 -1       212 1.07215E-02-1.16385E-03-5.71120E-14
 -1       213 1.10082E-02-1.19599E-03-6.04483E-14
 -1       214 1.12944E-02-1.22737E-03-6.38522E-14
 -1       215 1.15803E-02-1.25809E-03-6.73237E-14
 -1       216 1.18659E-02-1.28827E-03-7.08511E-14
 -1       217 1.21515E-02-1.31799E-03-7.44328E-14
 -1       218 1.24369E-02-1.34736E-03-7.80641E-14
 -1       219 1.27224E-02-1.37645E-03-8.17452E-14
 -1       220 1.30079E-02-1.40533E-03-8.54719E-14
 -1       221 1.32934E-02-1.43404E-03-8.92439E-14
 -1       222 1.35789E-02-1.46263E-03-9.30596E-14
 -1       223 1.38645E-02-1.49115E-03-9.69255E-14
 -1       224 1.41501E-02-1.51962E-03-1.00819E-13
 -1       225 1.44357E-02-1.54807E-03-1.04729E-13
 -1       226 1.47214E-02-1.57652E-03-1.08650E-13
 -1       227 1.50071E-02-1.60498E-03-1.12582E-13
 -1       228 6.33779E-04 2.99544E-04 2.81215E-19
 -1       229 9.45327E-04 3.87545E-04-1.06526E-16
 -1       230 1.25223E-03 4.51853E-04-2.97051E-16
 -1       231 1.56018E-03 5.03874E-04-5.76345E-16
 -1       232 1.87197E-03 5.51950E-04-9.47877E-16
 -1       233 2.18843E-03 6.02920E-04-1.41555E-15
 -1       234 2.50867E-03 6.62340E-04-1.98108E-15
 -1       235 2.83021E-03 7.33726E-04-2.64741E-15
 -1       236 3.14914E-03 8.17061E-04-3.41925E-15
 -1       237 3.46091E-03 9.07041E-04-4.29987E-15
 -1       238 3.76170E-03 9.92167E-04-5.29186E-15
 -1       239 4.05039E-03 1.05624E-03-6.40003E-15
 -1       240 4.32997E-03 1.08312E-03-7.62986E-15
 -1       241 4.60714E-03 1.06332E-03-8.98708E-15
 -1       242 4.88991E-03 9.98561E-04-1.04689E-14
 -1       243 5.18426E-03 9.01026E-04-1.20704E-14
 -1       244 5.49212E-03 7.88002E-04-1.37898E-14
 -1       245 5.81157E-03 6.75508E-04-1.56237E-14
 -1       246 6.13841E-03 5.74411E-04-1.75702E-14
 -1       247 6.46804E-03 4.89733E-04-1.96330E-14
 -1       248 6.79660E-03 4.21984E-04-2.18057E-14
 -1       249 7.12147E-03 3.69051E-04-2.40902E-14
 -1       250 7.44122E-03 3.27773E-04-2.64707E-14
 -1       251 7.75536E-03 2.94921E-04-2.89466E-14
 -1       252 8.06404E-03 2.67696E-04-3.15219E-14
 -1       253 8.36778E-03 2.43895E-04-3.41966E-14
 -1       254 8.66728E-03 2.21895E-04-3.69631E-14
 -1       255 8.96325E-03 2.00575E-04-3.98101E-14
 -1       256 9.25640E-03 1.79205E-04-4.27402E-14
 -1       257 9.54733E-03 1.57346E-04-4.57452E-14
 -1       258 9.83659E-03 1.34766E-04-4.88286E-14
 -1       259 1.01246E-02 1.11375E-04-5.19918E-14
 -1       260 1.04117E-02 8.71716E-05-5.52359E-14
 -1       261 1.06982E-02 6.22091E-05-5.85575E-14
 -1       262 1.09842E-02 3.65694E-05-6.19568E-14
 -1       263 1.12699E-02 1.03463E-05-6.54258E-14
 -1       264 1.15555E-02-1.63657E-05-6.89545E-14
 -1       265 1.18410E-02-4.34773E-05-7.25414E-14
 -1       266 1.21264E-02-7.09084E-05-7.61812E-14
 -1       267 1.24119E-02-9.85895E-05-7.98639E-14
 -1       268 1.26973E-02-1.26461E-04-8.35742E-14
 -1       269 1.29828E-02-1.54474E-04-8.73148E-14
 -1       270 1.32684E-02-1.82586E-04-9.10710E-14
 -1       271 1.35539E-02-2.10764E-04-9.48432E-14
 -1       272 1.38396E-02-2.38979E-04-9.86385E-14
 -1       273 1.41252E-02-2.67206E-04-1.02457E-13
 -1       274 1.44109E-02-2.95425E-04-1.06288E-13
 -1       275 1.46966E-02-3.23622E-04-1.10119E-13
 -1       276 1.47679E-02-3.92516E-04-1.11004E-13
 -1       277 1.47955E-02-4.76823E-04-1.11285E-13
 -1       278 1.48232E-02-5.61151E-04-1.11561E-13
 -1       279 1.48508E-02-6.45504E-04-1.11838E-13
 -1       280 1.48780E-02-7.28451E-04-1.12108E-13
 -1       281 1.49058E-02-8.12848E-04-1.12384E-13
 -1       282 1.49335E-02-8.97260E-04-1.12670E-13
 -1       283 1.49614E-02-9.81680E-04-1.12962E-13
 -1       284 1.49893E-02-1.06610E-03-1.13247E-13
 -1       285 1.50172E-02-1.15051E-03-1.13524E-13
 -1       286 1.50448E-02-1.23348E-03-1.13790E-13
 -1       287 1.50728E-02-1.31785E-03-1.14051E-13
 -1       288 1.51009E-02-1.40221E-03-1.14296E-13
 -1       289 1.51290E-02-1.48654E-03-1.14526E-13
 -1       290 1.50680E-02-1.54576E-03-1.13557E-13
 -1       291 6.74281E-03-1.47678E-04-1.37523E-14
 -1       292 6.58716E-03-5.61620E-05-1.36474E-14
 -1       293 6.28939E-03 9.29880E-05-1.30470E-14
 -1       294 5.92504E-03 2.75709E-04-1.23036E-14
 -1       295 5.51433E-03 4.60613E-04-1.15363E-14
 -1       296 5.13707E-03 6.32782E-04-1.06101E-14
 -1       297 4.75382E-03 7.37432E-04-9.73729E-15
 -1       298 4.36630E-03 7.60774E-04-8.89914E-15
 -1       299 3.98635E-03 6.98799E-04-8.13139E-15
 -1       300 3.60603E-03 5.57567E-04-7.40551E-15
 -1       301 3.19195E-03 3.94612E-04-6.93506E-15
 -1       302 2.84960E-03 2.35938E-04-6.54427E-15
 -1       303 2.55031E-03 7.32626E-05-6.18105E-15
 -1       304 2.34877E-03-3.13955E-05-6.10047E-15
 -1       305 2.29092E-03-1.29218E-04-5.99106E-15
 -1       306 2.39522E-03-2.37986E-04-6.22596E-15
 -1       307 2.63246E-03-3.56929E-04-6.45175E-15
 -1       308 2.95665E-03-5.33410E-04-6.89920E-15
 -1       309 3.32573E-03-7.14548E-04-7.40436E-15
 -1       310 3.73046E-03-8.94570E-04-8.01681E-15
 -1       311 4.15238E-03-1.04886E-03-8.76184E-15
 -1       312 4.54388E-03-1.11166E-03-9.64416E-15
 -1       313 4.92807E-03-1.07806E-03-1.04923E-14
 -1       314 5.30359E-03-9.71177E-04-1.13062E-14
 -1       315 5.68733E-03-8.13044E-04-1.20795E-14
 -1       316 6.06001E-03-6.37737E-04-1.27639E-14
 -1       317 6.37935E-03-4.80600E-04-1.32956E-14
 -1       318 6.62024E-03-3.51043E-04-1.36547E-14
 -1       319 6.75447E-03-2.40304E-04-1.39209E-14
 -1       320 4.68839E-04-1.23145E-04-1.46300E-16
 -1       321 4.97623E-04-1.74081E-04-1.23501E-16
 -1       322 4.30110E-04-5.85371E-05-1.66767E-16
 -1       323 4.17098E-04-3.81148E-05-1.69180E-16
 -1       324 4.08547E-04-2.24850E-05-1.68265E-16
 -1       325 4.04827E-04-9.38928E-06-1.65127E-16
 -1       326 4.05997E-04 3.39680E-06-1.60086E-16
 -1       327 4.11724E-04 1.79633E-05-1.52588E-16
 -1       328 4.21200E-04 3.58264E-05-1.42857E-16
 -1       329 4.34138E-04 5.92420E-05-1.29532E-16
 -1       330 4.50163E-04 8.96494E-05-1.11642E-16
 -1       331 4.70117E-04 1.29359E-04-8.67057E-17
 -1       332 4.98057E-04 1.82577E-04-5.15470E-17
 -1       333 5.58934E-04 2.36726E-04-3.11369E-17
 -1       334 8.70689E-04 3.25417E-04-1.47414E-16
 -1       335 9.13188E-04-2.96364E-04-3.88344E-16
 -1       336 1.22274E-03-3.54037E-04-7.06110E-16
 -1       337 1.53374E-03-4.00463E-04-1.12105E-15
 -1       338 1.84871E-03-4.44275E-04-1.63353E-15
 -1       339 2.16984E-03-4.94062E-04-2.24406E-15
 -1       340 2.49881E-03-5.58625E-04-2.95218E-15
 -1       341 2.83648E-03-6.46283E-04-3.75985E-15
 -1       342 3.18204E-03-7.62608E-04-4.67049E-15
 -1       343 3.53176E-03-9.05974E-04-5.68696E-15
 -1       344 3.87865E-03-1.06150E-03-6.81408E-15
 -1       345 4.21538E-03-1.19797E-03-8.05614E-15
 -1       346 4.54072E-03-1.27600E-03-9.42024E-15
 -1       347 4.86311E-03-1.27039E-03-1.09096E-14
 -1       348 5.19403E-03-1.18936E-03-1.25215E-14
 -1       349 5.53780E-03-1.06799E-03-1.42469E-14
 -1       350 5.88962E-03-9.44788E-04-1.60810E-14
 -1       351 6.24156E-03-8.44684E-04-1.80234E-14
 -1       352 6.58782E-03-7.76892E-04-2.00729E-14
 -1       353 6.92585E-03-7.40329E-04-2.22307E-14
 -1       354 7.25532E-03-7.29336E-04-2.44927E-14
 -1       355 7.57691E-03-7.37259E-04-2.68595E-14
 -1       356 7.89158E-03-7.58146E-04-2.93286E-14
 -1       357 8.20035E-03-7.87301E-04-3.18861E-14
 -1       358 8.50416E-03-8.21291E-04-3.45330E-14
 -1       359 8.80387E-03-8.57742E-04-3.72683E-14
 -1       360 9.10024E-03-8.95092E-04-4.00852E-14
 -1       361 9.39393E-03-9.32366E-04-4.29928E-14
 -1       362 9.68549E-03-9.69000E-04-4.59850E-14
 -1       363 9.97542E-03-1.00471E-03-4.90517E-14
 -1       364 1.02641E-02-1.03938E-03-5.21953E-14
 -1       365 1.05518E-02-1.07302E-03-5.54132E-14
 -1       366 1.08388E-02-1.10570E-03-5.87032E-14
 -1       367 1.11253E-02-1.13752E-03-6.20636E-14
 -1       368 1.14115E-02-1.16860E-03-6.54924E-14
 -1       369 1.16974E-02-1.19906E-03-6.89824E-14
 -1       370 1.19832E-02-1.22902E-03-7.25349E-14
 -1       371 1.22689E-02-1.25856E-03-7.61353E-14
 -1       372 1.25545E-02-1.28777E-03-7.97856E-14
 -1       373 1.28401E-02-1.31674E-03-8.34832E-14
 -1       374 1.31257E-02-1.34552E-03-8.72236E-14
 -1       375 1.34113E-02-1.37416E-03-9.10100E-14
 -1       376 1.36969E-02-1.40270E-03-9.48363E-14
 -1       377 1.39825E-02-1.43118E-03-9.87056E-14
 -1       378 1.42682E-02-1.45963E-03-1.02600E-13
 -1       379 1.45538E-02-1.48807E-03-1.06509E-13
 -1       380 1.48109E-02-1.51690E-03-1.10029E-13
 -1       381 1.17943E-03 3.90650E-04-3.45017E-16
 -1       382 1.48791E-03 4.42566E-04-6.29559E-16
 -1       383 1.79864E-03 4.89493E-04-1.00429E-15
 -1       384 2.11299E-03 5.38504E-04-1.47342E-15
 -1       385 2.43115E-03 5.95571E-04-2.03909E-15
 -1       386 2.75203E-03 6.64890E-04-2.70391E-15
 -1       387 3.07324E-03 7.47419E-04-3.47223E-15
 -1       388 3.39127E-03 8.38924E-04-4.34814E-15
 -1       389 3.70244E-03 9.28528E-04-5.33416E-15
 -1       390 4.00455E-03 9.99468E-04-6.43555E-15
 -1       391 4.29884E-03 1.03367E-03-7.65712E-15
 -1       392 4.59034E-03 1.01922E-03-9.00488E-15
 -1       393 4.88575E-03 9.56459E-04-1.04794E-14
 -1       394 5.19003E-03 8.57936E-04-1.20739E-14
 -1       395 5.50432E-03 7.42345E-04-1.37861E-14
 -1       396 5.82636E-03 6.27055E-04-1.56115E-14
 -1       397 6.15236E-03 5.23693E-04-1.75515E-14
 -1       398 6.47867E-03 4.37511E-04-1.96050E-14
 -1       399 6.80258E-03 3.68957E-04-2.17697E-14
 -1       400 7.12247E-03 3.15759E-04-2.40418E-14
 -1       401 7.43758E-03 2.74586E-04-2.64109E-14
 -1       402 7.74779E-03 2.42074E-04-2.88755E-14
 -1       403 8.05338E-03 2.15316E-04-3.14399E-14
 -1       404 8.35483E-03 1.92031E-04-3.41017E-14
 -1       405 8.65272E-03 1.70545E-04-3.68589E-14
 -1       406 8.94765E-03 1.49704E-04-3.96963E-14
 -1       407 9.24017E-03 1.28761E-04-4.26182E-14
 -1       408 9.53080E-03 1.07269E-04-4.56141E-14
 -1       409 9.81995E-03 8.49969E-05-4.86881E-14
 -1       410 1.01080E-02 6.18570E-05-5.18405E-14
 -1       411 1.03952E-02 3.78543E-05-5.50765E-14
 -1       412 1.06818E-02 1.30488E-05-5.83883E-14
 -1       413 1.09680E-02-1.24705E-05-6.17753E-14
 -1       414 1.12539E-02-3.86032E-05-6.52301E-14
 -1       415 1.15397E-02-6.52487E-05-6.87460E-14
 -1       416 1.18253E-02-9.23128E-05-7.23211E-14
 -1       417 1.21109E-02-1.19711E-04-7.59509E-14
 -1       418 1.23964E-02-1.47370E-04-7.96270E-14
 -1       419 1.26819E-02-1.75229E-04-8.33387E-14
 -1       420 1.29675E-02-2.03234E-04-8.70765E-14
 -1       421 1.32531E-02-2.31344E-04-9.08294E-14
 -1       422 1.35387E-02-2.59523E-04-9.45974E-14
 -1       423 1.38243E-02-2.87742E-04-9.83888E-14
 -1       424 1.41100E-02-3.15975E-04-1.02203E-13
 -1       425 1.43957E-02-3.44201E-04-1.06030E-13
 -1       426 1.45818E-02-3.68365E-04-1.08516E-13
 -1       427 1.45896E-02-5.78892E-04-1.08396E-13
 -1       428 1.45619E-02-4.94561E-04-1.08115E-13
 -1       429 1.45718E-02-4.31458E-04-1.08315E-13
 -1       430 1.46167E-02-6.61812E-04-1.08672E-13
 -1       431 1.46444E-02-7.46178E-04-1.08950E-13
 -1       432 1.46722E-02-8.30557E-04-1.09226E-13
 -1       433 1.47000E-02-9.14944E-04-1.09502E-13
 -1       434 1.47278E-02-9.99334E-04-1.09776E-13
 -1       435 1.47558E-02-1.08372E-03-1.10044E-13
 -1       436 1.47833E-02-1.16667E-03-1.10297E-13
 -1       437 1.48113E-02-1.25104E-03-1.10544E-13
 -1       438 1.48394E-02-1.33539E-03-1.10783E-13
 -1       439 1.48675E-02-1.41972E-03-1.11012E-13
 -1       440 6.42801E-03-4.61060E-05-1.41717E-14
 -1       441 6.78293E-03-1.98781E-04-1.47134E-14
 -1       442 6.70155E-03-1.48030E-04-1.45924E-14
 -1       443 6.05780E-03 1.25212E-04-1.32660E-14
 -1       444 5.68156E-03 3.12771E-04-1.24618E-14
 -1       445 4.47190E-04-8.58660E-05-1.59534E-16
 -1       446 4.88140E-03 7.16948E-04-1.02681E-14
 -1       447 4.54531E-03 7.97717E-04-9.28545E-15
 -1       448 4.21506E-03 7.69492E-04-8.38895E-15
 -1       449 3.87936E-03 6.54003E-04-7.56880E-15
 -1       450 3.41304E-03 4.22613E-04-6.73305E-15
 -1       451 3.07090E-03 2.60879E-04-6.38694E-15
 -1       452 2.74766E-03 1.02859E-04-5.93907E-15
 -1       453 2.41064E-03-3.27491E-05-5.65390E-15
 -1       454 2.28426E-03-9.01246E-05-5.54394E-15
 -1       455 2.32506E-03-1.55770E-04-5.70456E-15
 -1       456 2.49467E-03-2.27588E-04-5.90489E-15
 -1       457 2.84372E-03-3.82473E-04-6.34171E-15
 -1       458 3.20499E-03-5.64592E-04-6.83733E-15
 -1       459 3.59305E-03-7.69347E-04-7.41876E-15
 -1       460 3.97308E-03-9.65143E-04-8.09551E-15
 -1       461 4.40633E-03-1.12845E-03-9.23185E-15
 -1       462 4.73402E-03-1.13720E-03-1.01824E-14
 -1       463 5.06921E-03-1.04854E-03-1.11305E-14
 -1       464 5.42760E-03-8.81970E-04-1.21258E-14
 -1       465 5.80728E-03-6.77228E-04-1.30867E-14
 -1       466 6.18078E-03-4.91278E-04-1.38143E-14
 -1       467 6.49622E-03-3.56861E-04-1.42324E-14
 -1       468 6.70479E-03-2.63558E-04-1.47472E-14
 -1       469 5.22871E-03 5.58943E-04-1.12621E-14
 -1       470 5.43785E-03 4.31086E-04-1.21660E-14
 -1       471 4.20299E-03-1.07281E-03-8.53504E-15
 -1       472 2.25358E-03-1.13232E-04-5.25778E-15
 -1       473 3.65152E-03 5.42434E-04-6.87667E-15
 -1       474 9.75913E-04 2.87343E-04-3.13687E-16
 -1       475 6.23873E-04-4.67698E-05-3.59355E-16
 -1       476 6.42086E-04-7.35345E-05-3.58068E-16
 -1       477 6.11654E-04-4.91250E-06-3.48181E-16
 -1       478 6.17813E-04 1.62405E-05-3.36272E-16
 -1       479 6.30859E-04 4.07865E-05-3.20165E-16
 -1       480 6.50045E-04 7.18161E-05-2.98952E-16
 -1       481 6.74241E-04 1.10892E-04-2.71027E-16
 -1       482 7.03414E-04 1.59919E-04-2.34269E-16
 -1       483 1.28032E-03 3.41229E-04-5.76355E-16
 -1       484 1.01571E-03-2.57849E-04-5.80472E-16
 -1       485 5.02745E-03 6.53516E-04-1.09365E-14
 -1       486 1.31644E-03-3.04447E-04-9.55504E-16
 -1       487 1.61977E-03-3.44653E-04-1.42473E-15
 -1       488 1.92738E-03-3.85612E-04-1.98944E-15
 -1       489 2.24195E-03-4.35318E-04-2.64915E-15
 -1       490 2.56695E-03-5.02538E-04-3.40454E-15
 -1       491 2.90588E-03-5.96204E-04-4.25860E-15
 -1       492 3.26030E-03-7.23021E-04-5.21188E-15
 -1       493 3.62623E-03-8.81315E-04-6.27242E-15
 -1       494 3.99257E-03-1.05015E-03-7.44446E-15
 -1       495 4.34753E-03-1.18287E-03-8.73666E-15
 -1       496 4.69148E-03-1.22665E-03-1.01562E-14
 -1       497 5.03962E-03-1.16539E-03-1.17052E-14
 -1       498 5.40117E-03-1.03709E-03-1.33763E-14
 -1       499 5.77010E-03-8.97449E-04-1.51598E-14
 -1       500 6.13326E-03-7.82628E-04-1.70504E-14
 -1       501 6.48240E-03-7.04486E-04-1.90481E-14
 -1       502 6.81630E-03-6.60851E-04-2.11502E-14
 -1       503 7.13751E-03-6.44852E-04-2.33577E-14
 -1       504 7.44934E-03-6.49179E-04-2.56669E-14
 -1       505 7.75454E-03-6.67582E-04-2.80802E-14
 -1       506 8.05505E-03-6.95173E-04-3.05882E-14
 -1       507 8.35215E-03-7.28337E-04-3.31813E-14
 -1       508 8.64668E-03-7.64516E-04-3.58649E-14
 -1       509 8.93921E-03-8.01978E-04-3.86340E-14
 -1       510 9.23015E-03-8.39607E-04-4.14892E-14
 -1       511 9.51983E-03-8.76729E-04-4.44308E-14
 -1       512 9.80851E-03-9.12975E-04-4.74513E-14
 -1       513 1.00964E-02-9.48183E-04-5.05448E-14
 -1       514 1.03837E-02-9.82327E-04-5.37190E-14
 -1       515 1.06705E-02-1.01546E-03-5.69671E-14
 -1       516 1.09569E-02-1.04767E-03-6.02836E-14
 -1       517 1.12431E-02-1.07908E-03-6.36684E-14
 -1       518 1.15291E-02-1.10981E-03-6.71231E-14
 -1       519 1.18150E-02-1.13998E-03-7.06397E-14
 -1       520 1.21008E-02-1.16969E-03-7.42133E-14
 -1       521 1.23865E-02-1.19904E-03-7.78343E-14
 -1       522 1.26722E-02-1.22811E-03-8.14988E-14
 -1       523 1.29578E-02-1.25696E-03-8.52111E-14
 -1       524 1.32435E-02-1.28565E-03-8.89657E-14
 -1       525 1.35292E-02-1.31423E-03-9.27608E-14
 -1       526 1.38149E-02-1.34273E-03-9.66011E-14
 -1       527 1.41005E-02-1.37118E-03-1.00476E-13
 -1       528 1.43862E-02-1.39961E-03-1.04369E-13
 -1       529 1.89626E-03 4.30890E-04-1.36600E-15
 -1       530 2.21043E-03 4.79938E-04-1.89890E-15
 -1       531 2.53011E-03 5.39638E-04-2.52831E-15
 -1       532 2.85510E-03 6.13847E-04-3.25666E-15
 -1       533 3.18351E-03 7.02641E-04-4.08948E-15
 -1       534 3.51136E-03 7.99729E-04-5.02870E-15
 -1       535 3.83364E-03 8.90383E-04-6.07896E-15
 -1       536 4.14730E-03 9.53009E-04-7.24656E-15
 -1       537 4.45442E-03 9.67047E-04-8.53810E-15
 -1       538 4.76188E-03 9.23907E-04-9.95805E-15
 -1       539 5.07651E-03 8.32890E-04-1.15040E-14
 -1       540 5.40028E-03 7.15281E-04-1.31669E-14
 -1       541 5.72998E-03 5.93131E-04-1.49454E-14
 -1       542 6.06053E-03 4.81751E-04-1.68388E-14
 -1       543 6.38787E-03 3.88306E-04-1.88441E-14
 -1       544 6.70986E-03 3.13923E-04-2.09605E-14
 -1       545 7.02596E-03 2.56404E-04-2.31821E-14
 -1       546 7.33653E-03 2.12266E-04-2.55048E-14
 -1       547 7.64224E-03 1.77910E-04-2.79216E-14
 -1       548 7.94384E-03 1.50182E-04-3.04361E-14
 -1       549 8.24203E-03 1.26569E-04-3.30478E-14
 -1       550 8.53743E-03 1.05196E-04-3.57582E-14
 -1       551 8.83055E-03 8.47450E-05-3.85545E-14
 -1       552 9.12185E-03 6.43438E-05-4.14344E-14
 -1       553 9.41171E-03 4.34563E-05-4.43948E-14
 -1       554 9.70042E-03 2.17894E-05-4.74284E-14
 -1       555 9.98827E-03-7.82780E-07-5.05424E-14
 -1       556 1.02755E-02-2.42765E-05-5.37360E-14
 -1       557 1.05621E-02-4.86413E-05-5.70080E-14
 -1       558 1.08485E-02-7.37894E-05-6.03546E-14
 -1       559 1.11345E-02-9.96169E-05-6.37700E-14
 -1       560 1.14204E-02-1.26017E-04-6.72493E-14
 -1       561 1.17062E-02-1.52887E-04-7.07930E-14
 -1       562 1.19919E-02-1.80136E-04-7.43927E-14
 -1       563 1.22776E-02-2.07683E-04-7.80414E-14
 -1       564 1.25632E-02-2.35459E-04-8.17362E-14
 -1       565 1.28489E-02-2.63407E-04-8.54638E-14
 -1       566 1.31345E-02-2.91479E-04-8.92089E-14
 -1       567 1.34201E-02-3.19636E-04-9.29674E-14
 -1       568 1.37058E-02-3.47846E-04-9.67456E-14
 -1       569 1.39915E-02-3.76083E-04-1.00548E-13
 -1       570 1.42772E-02-4.04323E-04-1.04370E-13
 -1       571 1.43831E-02-6.79514E-04-1.05500E-13
 -1       572 1.44108E-02-7.63869E-04-1.05776E-13
 -1       573 1.43283E-02-5.12270E-04-1.04947E-13
 -1       574 1.43557E-02-5.95885E-04-1.05223E-13
 -1       575 1.44386E-02-8.48232E-04-1.06047E-13
 -1       576 1.44664E-02-9.32599E-04-1.06312E-13
 -1       577 1.44943E-02-1.01697E-03-1.06571E-13
 -1       578 1.45218E-02-1.09990E-03-1.06816E-13
 -1       579 1.45498E-02-1.18425E-03-1.07051E-13
 -1       580 1.45779E-02-1.26860E-03-1.07282E-13
 -1       581 1.46060E-02-1.35293E-03-1.07510E-13
 -1       582 6.23633E-03 1.54754E-05-1.44982E-14
 -1       583 6.80534E-03-2.27115E-04-1.58390E-14
 -1       584 1.58668E-03 3.86814E-04-9.26000E-16
 -1       585 6.78957E-03-1.90809E-04-1.56466E-14
 -1       586 6.61269E-03-2.99250E-04-1.54781E-14
 -1       587 7.37155E-04-1.93649E-04-3.27131E-16
 -1       588 5.91797E-03 1.66942E-04-1.36475E-14
 -1       589 2.53066E-03 1.15520E-05-5.23499E-15
 -1       590 6.13586E-04-2.49135E-05-3.55977E-16
 -1       591 4.35631E-03 8.12934E-04-8.63867E-15
 -1       592 3.03851E-03-4.39278E-04-6.15861E-15
 -1       593 4.71238E-03 7.80575E-04-9.86648E-15
 -1       594 4.07975E-03 7.45173E-04-7.80014E-15
 -1       595 3.17038E-03 2.93059E-04-5.94415E-15
 -1       596 2.87296E-03 1.53029E-04-5.51877E-15
 -1       597 2.30358E-03-6.63753E-05-5.08059E-15
 -1       598 2.37593E-03-1.63985E-04-5.34361E-15
 -1       599 2.65322E-03-2.64570E-04-5.60113E-15
 -1       600 3.37410E-03-6.18657E-04-6.69424E-15
 -1       601 3.75147E-03-8.36917E-04-7.34744E-15
 -1       602 4.61088E-03-1.16782E-03-9.84985E-15
 -1       603 4.90073E-03-1.11997E-03-1.08445E-14
 -1       604 5.21970E-03-9.89115E-04-1.19264E-14
 -1       605 5.59403E-03-7.87517E-04-1.31314E-14
 -1       606 6.01235E-03-5.61060E-04-1.41873E-14
 -1       607 6.36957E-03-3.94841E-04-1.50313E-14
 -1       608 6.62658E-03-1.34179E-04-1.54296E-14
 -1       609 7.37165E-04 2.42754E-04-1.54462E-16
 -1       610 6.67296E-04-1.08000E-04-3.50089E-16
 -1       611 5.70158E-03 2.86882E-04-1.33265E-14
 -1       612 5.24165E-03 5.46008E-04-1.18187E-14
 -1       613 6.49067E-03-7.96148E-05-1.57557E-14
 -1       614 1.45799E-02-1.42050E-03-1.07013E-13
 -1       615 3.85513E-03 6.62227E-04-7.08444E-15
 -1       616 4.41094E-03-1.15430E-03-9.11603E-15
 -1       617 3.37817E-03 4.17899E-04-6.06498E-15
 -1       618 2.21803E-03-8.71577E-05-4.80226E-15
 -1       619 3.97304E-03-9.69957E-04-7.75233E-15
 -1       620 8.38554E-04 3.67164E-05-5.70256E-16
 -1       621 8.23640E-04 6.21561E-06-5.92161E-16
 -1       622 8.94323E-04 1.18239E-04-5.04462E-16
 -1       623 9.31977E-04 1.73227E-04-4.56602E-16
 -1       624 1.08128E-03 2.47401E-04-5.07271E-16
 -1       625 6.78937E-03-1.79989E-04-1.66447E-14
 -1       626 1.37938E-03 2.90675E-04-8.32999E-16
 -1       627 1.40220E-03-2.56405E-04-1.21898E-15
 -1       628 1.69447E-03-2.90263E-04-1.73868E-15
 -1       629 1.99150E-03-3.26966E-04-2.35159E-15
 -1       630 2.29716E-03-3.73780E-04-3.05745E-15
 -1       631 2.61741E-03-4.39833E-04-3.85739E-15
 -1       632 2.95933E-03-5.36576E-04-4.75300E-15
 -1       633 3.32759E-03-6.75749E-04-5.74769E-15
 -1       634 4.87146E-03-1.16228E-03-1.08956E-14
 -1       635 5.25767E-03-1.02445E-03-1.25046E-14
 -1       636 5.65055E-03-8.58590E-04-1.42363E-14
 -1       637 6.03176E-03-7.22917E-04-1.60802E-14
 -1       638 6.38851E-03-6.34524E-04-1.80293E-14
 -1       639 6.72095E-03-5.86452E-04-2.00802E-14
 -1       640 7.03487E-03-5.68121E-04-2.22326E-14
 -1       641 7.33678E-03-5.70553E-04-2.44885E-14
 -1       642 7.63163E-03-5.87170E-04-2.68444E-14
 -1       643 7.92258E-03-6.13180E-04-2.92977E-14
 -1       644 8.21148E-03-6.45098E-04-3.18418E-14
 -1       645 8.49932E-03-6.80418E-04-3.44749E-14
 -1       646 8.78658E-03-7.17384E-04-3.71936E-14
 -1       647 9.07351E-03-7.54812E-04-3.99989E-14
 -1       648 9.36020E-03-7.91947E-04-4.28914E-14
 -1       649 9.64671E-03-8.28350E-04-4.58658E-14
 -1       650 9.93306E-03-8.63798E-04-4.89146E-14
 -1       651 1.02193E-02-8.98217E-04-5.20428E-14
 -1       652 1.05054E-02-9.31628E-04-5.52483E-14
 -1       653 1.07914E-02-9.64107E-04-5.85233E-14
 -1       654 1.10773E-02-9.95760E-04-6.18664E-14
 -1       655 1.13632E-02-1.02670E-03-6.52802E-14
 -1       656 1.16490E-02-1.05705E-03-6.87636E-14
 -1       657 1.19348E-02-1.08691E-03-7.23039E-14
 -1       658 1.22206E-02-1.11638E-03-7.58997E-14
 -1       659 1.25063E-02-1.14554E-03-7.95367E-14
 -1       660 1.27921E-02-1.17446E-03-8.32194E-14
 -1       661 1.30778E-02-1.20320E-03-8.69442E-14
 -1       662 1.33635E-02-1.23182E-03-9.07150E-14
 -1       663 1.36492E-02-1.26034E-03-9.45261E-14
 -1       664 1.39349E-02-1.28880E-03-9.83737E-14
 -1       665 1.42206E-02-1.31723E-03-1.02247E-13
 -1       666 2.30301E-03 4.17416E-04-2.34314E-15
 -1       667 5.85320E-03-6.74737E-04-1.43813E-14
 -1       668 6.55888E-03-3.44670E-04-1.62833E-14
 -1       669 1.98850E-03 3.69754E-04-1.74816E-15
 -1       670 2.96051E-03 5.57208E-04-3.82508E-15
 -1       671 3.30176E-03 6.54064E-04-4.71887E-15
 -1       672 3.64419E-03 7.60612E-04-5.71752E-15
 -1       673 3.97958E-03 8.55433E-04-6.83104E-15
 -1       674 4.30429E-03 9.07592E-04-8.06547E-15
 -1       675 4.62348E-03 8.92682E-04-9.42906E-15
 -1       676 4.94825E-03 8.11577E-04-1.09223E-14
 -1       677 5.28423E-03 6.89019E-04-1.25391E-14
 -1       678 5.62706E-03 5.56459E-04-1.42738E-14
 -1       679 5.96861E-03 4.35606E-04-1.61220E-14
 -1       680 6.30252E-03 3.35526E-04-1.80814E-14
 -1       681 6.62640E-03 2.56963E-04-2.01508E-14
 -1       682 6.94074E-03 1.96807E-04-2.23257E-14
 -1       683 7.24731E-03 1.50942E-04-2.46010E-14
 -1       684 7.54803E-03 1.15440E-04-2.69714E-14
 -1       685 7.84454E-03 8.69947E-05-2.94374E-14
 -1       686 8.13808E-03 6.30069E-05-3.20021E-14
 -1       687 8.42950E-03 4.15336E-05-3.46637E-14
 -1       688 8.71941E-03 2.11898E-05-3.74156E-14
 -1       689 9.00822E-03 1.03896E-06-4.02529E-14
 -1       690 9.29621E-03-1.95117E-05-4.31731E-14
 -1       691 9.58359E-03-4.08012E-05-4.61736E-14
 -1       692 9.87051E-03-6.29900E-05-4.92483E-14
 -1       693 1.01571E-02-8.61181E-05-5.24024E-14
 -1       694 1.04434E-02-1.10149E-04-5.56341E-14
 -1       695 1.07295E-02-1.35004E-04-5.89419E-14
 -1       696 1.10155E-02-1.60580E-04-6.23206E-14
 -1       697 1.13014E-02-1.86771E-04-6.57624E-14
 -1       698 1.15872E-02-2.13470E-04-6.92686E-14
 -1       699 1.18730E-02-2.40583E-04-7.28417E-14
 -1       700 1.21587E-02-2.68023E-04-7.64680E-14
 -1       701 1.24444E-02-2.95717E-04-8.01375E-14
 -1       702 1.27301E-02-3.23605E-04-8.38484E-14
 -1       703 1.30158E-02-3.51635E-04-8.75852E-14
 -1       704 1.33015E-02-3.79765E-04-9.13365E-14
 -1       705 1.35872E-02-4.07962E-04-9.51062E-14
 -1       706 1.38729E-02-4.36197E-04-9.88960E-14
 -1       707 1.41006E-02-4.74233E-04-1.01918E-13
 -1       708 1.42050E-02-8.65884E-04-1.02860E-13
 -1       709 1.44133E-02-1.33508E-03-1.04876E-13
 -1       710 1.41495E-02-6.97194E-04-1.02332E-13
 -1       711 1.42329E-02-9.50233E-04-1.03113E-13
 -1       712 1.41772E-02-7.81537E-04-1.02601E-13
 -1       713 1.68130E-03 3.29533E-04-1.24587E-15
 -1       714 1.42604E-02-1.03315E-03-1.03350E-13
 -1       715 1.42884E-02-1.11749E-03-1.03579E-13
 -1       716 1.43164E-02-1.20183E-03-1.03804E-13
 -1       717 1.43649E-02-1.26846E-03-1.04339E-13
 -1       718 8.82868E-04-1.80890E-04-5.20349E-16
 -1       719 6.79865E-03-2.64916E-04-1.69720E-14
 -1       720 6.24843E-03-4.83671E-04-1.56396E-14
 -1       721 2.62681E-03 4.78402E-04-3.03372E-15
 -1       722 1.14089E-03-2.21195E-04-8.33111E-16
 -1       723 8.62765E-04 7.33179E-05-5.41362E-16
 -1       724 2.82050E-03-3.44144E-04-5.44992E-15
 -1       725 6.11617E-03 9.01098E-05-1.49577E-14
 -1       726 2.24275E-03-1.22927E-04-4.83391E-15
 -1       727 8.49755E-04-7.94026E-05-6.17843E-16
 -1       728 4.88859E-03 7.31117E-04-1.05939E-14
 -1       729 2.42153E-03-1.89017E-04-4.86557E-15
 -1       730 4.20813E-03 8.05036E-04-8.03513E-15
 -1       731 2.99565E-03 2.43141E-04-5.31043E-15
 -1       732 4.53152E-03 8.32421E-04-9.19822E-15
 -1       733 3.19052E-03-5.25220E-04-6.04886E-15
 -1       734 3.53547E-03-7.23143E-04-6.65516E-15
 -1       735 2.32497E-03-2.55712E-05-4.55602E-15
 -1       736 6.86741E-03-2.15742E-04-1.68578E-14
 -1       737 2.60309E-03 7.82649E-05-4.77871E-15
 -1       738 8.81392E-04-1.18008E-04-6.11517E-16
 -1       739 8.20094E-04-2.09319E-05-6.07560E-16
 -1       740 5.50849E-03 4.11290E-04-1.29532E-14
 -1       741 5.09273E-03 6.47680E-04-1.14531E-14
 -1       742 2.53917E-03-2.52895E-04-4.71676E-15
 -1       743 4.10001E-03-1.05318E-03-7.99274E-15
 -1       744 3.71986E-03-8.61201E-04-6.84867E-15
 -1       745 1.41221E-02-6.13573E-04-1.02060E-13
 -1       746 1.41113E-02-5.43898E-04-1.01988E-13
 -1       747 3.99667E-03 7.51178E-04-7.29762E-15
 -1       748 3.57824E-03 5.52881E-04-6.24547E-15
 -1       749 8.28887E-04-4.81870E-05-6.16101E-16
 -1       750 6.70803E-03-1.40505E-04-1.69782E-14
 -1       751 2.19833E-03-5.28595E-05-4.29351E-15
 -1       752 6.92285E-03-2.07180E-04-1.79943E-14
 -1       753 1.15498E-03 1.73207E-04-7.55303E-16
 -1       754 1.47892E-03-2.10142E-04-1.49459E-15
 -1       755 1.75709E-03-2.37173E-04-2.06187E-15
 -1       756 2.03930E-03-2.67545E-04-2.71956E-15
 -1       757 2.33046E-03-3.07666E-04-3.46822E-15
 -1       758 2.63902E-03-3.67737E-04-4.30923E-15
 -1       759 6.33378E-03-5.45696E-04-1.70137E-14
 -1       760 6.65864E-03-4.98452E-04-1.90158E-14
 -1       761 6.95909E-03-4.83306E-04-2.11157E-14
 -1       762 7.24578E-03-4.87722E-04-2.33160E-14
 -1       763 7.52602E-03-5.04719E-04-2.56158E-14
 -1       764 7.80394E-03-5.30013E-04-2.80162E-14
 -1       765 8.08173E-03-5.60721E-04-3.05084E-14
 -1       766 8.36041E-03-5.94762E-04-3.30909E-14
 -1       767 8.64032E-03-6.30608E-04-3.57604E-14
 -1       768 8.92145E-03-6.67163E-04-3.85162E-14
 -1       769 9.20368E-03-7.03678E-04-4.13552E-14
 -1       770 9.48681E-03-7.39678E-04-4.42812E-14
 -1       771 9.77066E-03-7.74893E-04-4.72840E-14
 -1       772 1.00551E-02-8.09203E-04-5.03668E-14
 -1       773 1.03399E-02-8.42589E-04-5.35304E-14
 -1       774 1.06250E-02-8.75096E-04-5.67659E-14
 -1       775 1.09103E-02-9.06806E-04-6.00673E-14
 -1       776 1.11958E-02-9.37821E-04-6.34393E-14
 -1       777 1.14814E-02-9.68244E-04-6.68854E-14
 -1       778 1.17671E-02-9.98177E-04-7.03934E-14
 -1       779 1.20528E-02-1.02771E-03-7.39541E-14
 -1       780 1.23385E-02-1.05693E-03-7.75678E-14
 -1       781 1.26242E-02-1.08590E-03-8.12240E-14
 -1       782 1.29100E-02-1.11468E-03-8.49214E-14
 -1       783 1.31958E-02-1.14332E-03-8.86624E-14
 -1       784 1.34815E-02-1.17187E-03-9.24486E-14
 -1       785 1.37673E-02-1.20034E-03-9.62721E-14
 -1       786 1.40530E-02-1.22877E-03-1.00126E-13
 -1       787 1.39991E-02-9.67133E-04-9.99048E-14
 -1       788 3.42157E-03 6.03812E-04-5.35523E-15
 -1       789 3.06290E-03 4.93376E-04-4.40613E-15
 -1       790 4.13476E-03 8.31697E-04-7.58743E-15
 -1       791 5.16293E-03 6.69991E-04-1.19000E-14
 -1       792 5.52412E-03 5.18705E-04-1.35928E-14
 -1       793 5.88197E-03 3.83239E-04-1.54000E-14
 -1       794 6.22626E-03 2.75861E-04-1.73154E-14
 -1       795 6.55408E-03 1.94991E-04-1.93397E-14
 -1       796 6.86731E-03 1.34711E-04-2.14689E-14
 -1       797 7.16960E-03 8.92937E-05-2.36979E-14
 -1       798 7.46452E-03 5.41415E-05-2.60248E-14
 -1       799 7.75483E-03 2.58115E-05-2.84463E-14
 -1       800 8.04245E-03 1.77326E-06-3.09624E-14
 -1       801 8.32862E-03-1.98123E-05-3.35762E-14
 -1       802 8.61410E-03-4.02541E-05-3.62850E-14
 -1       803 8.89929E-03-6.04507E-05-3.90774E-14
 -1       804 9.18444E-03-8.09851E-05-4.19567E-14
 -1       805 9.46965E-03-1.02203E-04-4.49178E-14
 -1       806 9.75496E-03-1.24281E-04-4.79587E-14
 -1       807 1.00404E-02-1.47272E-04-5.10743E-14
 -1       808 1.03259E-02-1.71157E-04-5.42691E-14
 -1       809 1.06115E-02-1.95865E-04-5.75365E-14
 -1       810 1.08971E-02-2.21303E-04-6.08756E-14
 -1       811 1.11828E-02-2.47368E-04-6.42871E-14
 -1       812 1.14685E-02-2.73957E-04-6.77600E-14
 -1       813 1.17542E-02-3.00976E-04-7.12982E-14
 -1       814 1.20399E-02-3.28338E-04-7.48966E-14
 -1       815 1.23257E-02-3.55969E-04-7.85423E-14
 -1       816 1.26114E-02-3.83807E-04-8.22309E-14
 -1       817 1.28972E-02-4.11800E-04-8.59543E-14
 -1       818 1.31829E-02-4.39905E-04-8.97010E-14
 -1       819 1.34686E-02-4.68087E-04-9.34679E-14
 -1       820 1.37544E-02-4.96317E-04-9.72517E-14
 -1       821 1.39329E-02-5.20105E-04-9.96131E-14
 -1       822 1.04319E-03 2.38822E-05-8.92353E-16
 -1       823 1.40271E-02-1.05146E-03-1.00132E-13
 -1       824 1.39712E-02-8.82803E-04-9.96666E-14
 -1       825 2.33710E-03 3.72824E-05-4.05085E-15
 -1       826 3.78289E-03 7.28206E-04-6.41338E-15
 -1       827 2.07343E-03 3.04095E-04-2.15139E-15
 -1       828 1.26411E-03 2.28499E-04-7.98545E-16
 -1       829 6.44626E-03-1.91677E-05-1.66505E-14
 -1       830 1.40552E-02-1.13579E-03-1.00348E-13
 -1       831 6.59037E-03-4.16375E-04-1.76987E-14
 -1       832 4.91255E-03 7.64871E-04-1.07742E-14
 -1       833 5.85501E-03 2.54577E-04-1.45019E-14
 -1       834 2.19161E-03-1.34166E-04-4.20319E-15
 -1       835 2.95012E-03-4.45773E-04-5.23264E-15
 -1       836 6.82572E-03-3.25802E-04-1.84281E-14
 -1       837 2.73198E-03 1.82915E-04-4.56997E-15
 -1       838 3.20045E-03 3.85687E-04-5.36553E-15
 -1       839 2.12035E-03-9.46871E-05-4.18500E-15
 -1       840 6.96014E-03-2.48101E-04-1.84003E-14
 -1       841 1.02944E-03-1.09220E-05-9.18245E-16
 -1       842 1.10931E-03 1.14099E-04-8.11732E-16
 -1       843 5.34816E-03 5.31247E-04-1.25627E-14
 -1       844 1.08835E-03-1.18926E-04-9.40667E-16
 -1       845 1.38883E-02-6.30893E-04-9.88991E-14
 -1       846 1.22939E-03-1.82756E-04-1.06462E-15
 -1       847 1.39434E-02-7.98474E-04-9.94206E-14
 -1       848 2.18850E-03-1.14268E-06-3.80779E-15
 -1       849 2.71723E-03 4.08971E-04-3.55708E-15
 -1       850 6.21006E-03 1.15249E-04-1.61670E-14
 -1       851 1.39158E-02-7.14682E-04-9.91661E-14
 -1       852 1.07089E-03 6.46454E-05-8.57065E-16
 -1       853 6.89013E-03-1.77378E-04-1.83408E-14
 -1       854 2.38794E-03 3.48160E-04-2.80687E-15
 -1       855 1.76968E-03 2.69580E-04-1.58847E-15
 -1       856 2.25870E-03-1.76628E-04-4.06477E-15
 -1       857 1.05255E-03-7.79019E-05-9.42826E-16
 -1       858 2.91486E-03 3.07980E-04-4.61091E-15
 -1       859 2.43131E-03 1.21897E-04-3.85613E-15
 -1       860 1.51572E-03 2.50294E-04-1.15809E-15
 -1       861 1.80780E-03-1.86179E-04-2.39311E-15
 -1       862 2.06830E-03-2.08545E-04-3.09312E-15
 -1       863 7.05210E-03-2.95048E-04-1.99472E-14
 -1       864 6.91061E-03-3.98509E-04-2.00060E-14
 -1       865 7.17360E-03-4.08007E-04-2.21517E-14
 -1       866 7.43395E-03-4.27240E-04-2.43976E-14
 -1       867 7.69564E-03-4.52504E-04-2.67409E-14
 -1       868 7.96029E-03-4.82000E-04-2.91821E-14
 -1       869 8.22836E-03-5.14354E-04-3.17122E-14
 -1       870 8.49975E-03-5.48467E-04-3.43327E-14
 -1       871 8.77413E-03-5.83463E-04-3.70401E-14
 -1       872 9.05105E-03-6.18679E-04-3.98304E-14
 -1       873 9.33007E-03-6.53651E-04-4.27067E-14
 -1       874 9.61078E-03-6.88086E-04-4.56632E-14
 -1       875 9.89281E-03-7.21823E-04-4.87006E-14
 -1       876 1.01759E-02-7.54800E-04-5.18212E-14
 -1       877 1.04597E-02-7.87025E-04-5.50157E-14
 -1       878 1.07442E-02-8.18548E-04-5.82776E-14
 -1       879 1.10290E-02-8.49443E-04-6.16060E-14
 -1       880 1.13142E-02-8.79795E-04-6.50148E-14
 -1       881 1.15996E-02-9.09690E-04-6.84872E-14
 -1       882 1.18852E-02-9.39208E-04-7.20159E-14
 -1       883 1.21708E-02-9.68425E-04-7.55981E-14
 -1       884 1.24565E-02-9.97402E-04-7.92344E-14
 -1       885 1.27423E-02-1.02619E-03-8.29065E-14
 -1       886 1.30280E-02-1.05485E-03-8.66223E-14
 -1       887 1.33138E-02-1.08340E-03-9.03821E-14
 -1       888 1.35996E-02-1.11188E-03-9.41835E-14
 -1       889 1.38274E-02-1.12384E-03-9.72573E-14
 -1       890 6.49927E-03 1.25755E-04-1.85273E-14
 -1       891 6.80904E-03 6.84662E-05-2.06139E-14
 -1       892 7.10472E-03 2.63404E-05-2.27999E-14
 -1       893 7.39178E-03-6.40082E-06-2.50804E-14
 -1       894 7.67415E-03-3.33575E-05-2.74572E-14
 -1       895 7.95441E-03-5.68243E-05-2.99290E-14
 -1       896 8.23409E-03-7.83478E-05-3.24962E-14
 -1       897 8.51404E-03-9.89966E-05-3.51591E-14
 -1       898 8.79468E-03-1.19507E-04-3.79087E-14
 -1       899 9.07616E-03-1.40365E-04-4.07456E-14
 -1       900 9.35848E-03-1.61868E-04-4.36660E-14
 -1       901 9.64157E-03-1.84170E-04-4.66688E-14
 -1       902 9.92532E-03-2.07326E-04-4.97515E-14
 -1       903 1.02096E-02-2.31320E-04-5.29095E-14
 -1       904 1.04943E-02-2.56094E-04-5.61412E-14
 -1       905 1.07793E-02-2.81564E-04-5.94451E-14
 -1       906 1.10646E-02-3.07637E-04-6.28177E-14
 -1       907 1.13501E-02-3.34218E-04-6.62592E-14
 -1       908 1.16356E-02-3.61219E-04-6.97625E-14
 -1       909 1.19213E-02-3.88558E-04-7.33290E-14
 -1       910 1.22070E-02-4.16165E-04-7.69487E-14
 -1       911 1.24928E-02-4.43980E-04-8.06151E-14
 -1       912 1.27785E-02-4.71953E-04-8.43202E-14
 -1       913 1.30643E-02-5.00042E-04-8.80632E-14
 -1       914 1.33500E-02-5.28214E-04-9.18294E-14
 -1       915 1.36358E-02-5.56440E-04-9.56052E-14
 -1       916 1.37656E-02-9.84724E-04-9.67002E-14
 -1       917 1.39106E-02-5.75498E-04-9.92606E-14
 -1       918 1.37377E-02-9.00417E-04-9.64744E-14
 -1       919 5.68585E-03 3.78578E-04-1.40813E-14
 -1       920 1.39882E-03 1.91043E-04-1.10463E-15
 -1       921 1.03241E-03-4.33518E-05-9.35192E-16
 -1       922 2.03649E-03-6.12791E-05-3.68455E-15
 -1       923 1.54757E-03-1.66208E-04-1.78176E-15
 -1       924 7.05386E-03-2.33902E-04-1.94619E-14
 -1       925 2.03748E-03-1.03491E-04-3.68047E-15
 -1       926 1.37965E-02-1.05428E-03-9.69837E-14
 -1       927 6.75116E-03-1.06246E-04-1.82789E-14
 -1       928 2.30608E-03-2.38939E-04-3.77026E-15
 -1       929 1.31679E-03-1.42914E-04-1.32849E-15
 -1       930 1.37098E-02-8.16110E-04-9.62438E-14
 -1       931 6.03932E-03 2.27322E-04-1.57226E-14
 -1       932 1.26846E-03-9.55976E-05-1.33123E-15
 -1       933 1.36368E-02-6.39495E-04-9.55185E-14
 -1       934 2.06242E-03-1.34646E-04-3.55360E-15
 -1       935 1.84892E-03 2.05812E-04-1.95426E-15
 -1       936 2.26684E-03 6.78169E-05-3.62479E-15
 -1       937 6.55495E-03 1.30135E-05-1.80527E-14
 -1       938 1.24410E-03 3.91821E-06-1.28549E-15
 -1       939 7.05929E-03-2.08052E-04-1.98260E-14
 -1       940 2.59386E-03 2.23167E-04-3.89119E-15
 -1       941 1.27328E-03 4.73418E-05-1.24589E-15
 -1       942 2.14659E-03 2.32242E-04-2.57609E-15
 -1       943 1.84979E-03-1.39741E-04-2.73108E-15
 -1       944 7.20909E-03-2.71995E-04-2.12534E-14
 -1       945 1.38485E-03 1.22024E-04-1.25859E-15
 -1       946 7.35123E-03-3.56764E-04-2.31873E-14
 -1       947 7.59354E-03-3.81699E-04-2.54766E-14
 -1       948 7.84340E-03-4.09596E-04-2.78624E-14
 -1       949 8.10001E-03-4.39722E-04-3.03433E-14
 -1       950 8.36239E-03-4.71465E-04-3.29116E-14
 -1       951 8.62963E-03-5.04224E-04-3.55686E-14
 -1       952 8.90089E-03-5.37465E-04-3.83115E-14
 -1       953 9.17546E-03-5.70770E-04-4.11399E-14
 -1       954 9.45270E-03-6.03844E-04-4.40529E-14
 -1       955 9.73207E-03-6.36498E-04-4.70451E-14
 -1       956 1.00131E-02-6.68630E-04-5.01181E-14
 -1       957 1.02954E-02-7.00209E-04-5.32740E-14
 -1       958 1.05788E-02-7.31245E-04-5.64982E-14
 -1       959 1.08628E-02-7.61781E-04-5.97891E-14
 -1       960 1.11475E-02-7.91872E-04-6.31546E-14
 -1       961 1.14325E-02-8.21582E-04-6.65915E-14
 -1       962 1.17178E-02-8.50972E-04-7.00879E-14
 -1       963 1.20033E-02-8.80102E-04-7.36372E-14
 -1       964 1.22889E-02-9.09024E-04-7.72440E-14
 -1       965 1.25746E-02-9.37783E-04-8.08948E-14
 -1       966 1.28604E-02-9.66416E-04-8.45899E-14
 -1       967 1.31462E-02-9.94957E-04-8.83257E-14
 -1       968 1.34320E-02-1.02343E-03-9.21028E-14
 -1       969 1.36142E-02-1.03887E-03-9.45398E-14
 -1       970 7.33033E-03-6.58782E-05-2.41397E-14
 -1       971 1.48378E-03-1.12908E-04-1.78450E-15
 -1       972 1.36822E-02-7.32338E-04-9.60028E-14
 -1       973 6.77211E-03-2.19160E-06-1.97589E-14
 -1       974 7.60198E-03-9.01739E-05-2.64724E-14
 -1       975 7.87297E-03-1.12385E-04-2.89001E-14
 -1       976 8.14481E-03-1.33618E-04-3.14219E-14
 -1       977 8.41824E-03-1.54542E-04-3.40397E-14
 -1       978 8.69354E-03-1.75617E-04-3.67477E-14
 -1       979 8.97072E-03-1.97147E-04-3.95400E-14
 -1       980 9.24962E-03-2.19317E-04-4.24204E-14
 -1       981 9.53004E-03-2.42224E-04-4.53851E-14
 -1       982 9.81173E-03-2.65896E-04-4.84302E-14
 -1       983 1.00945E-02-2.90311E-04-5.15548E-14
 -1       984 1.03780E-02-3.15415E-04-5.47514E-14
 -1       985 1.06623E-02-3.41137E-04-5.80190E-14
 -1       986 1.09470E-02-3.67396E-04-6.13570E-14
 -1       987 1.12320E-02-3.94110E-04-6.47650E-14
 -1       988 1.15173E-02-4.21202E-04-6.82338E-14
 -1       989 1.18028E-02-4.48601E-04-7.17676E-14
 -1       990 1.20885E-02-4.76245E-04-7.53603E-14
 -1       991 1.23742E-02-5.04081E-04-7.90022E-14
 -1       992 1.26599E-02-5.32064E-04-8.26866E-14
 -1       993 1.29457E-02-5.60157E-04-8.64176E-14
 -1       994 1.32315E-02-5.88330E-04-9.01785E-14
 -1       995 1.35041E-02-9.17999E-04-9.32920E-14
 -1       996 6.97082E-03-1.52560E-04-1.97715E-14
 -1       997 7.20643E-03-3.31452E-04-2.17152E-14
 -1       998 1.95447E-03-1.63419E-05-3.14263E-15
 -1       999 1.56997E-03 1.88508E-04-1.42565E-15
 -1      1000 1.23554E-03-3.38560E-05-1.31339E-15
 -1      1001 1.24468E-03-6.34665E-05-1.32611E-15
 -1      1002 7.05528E-03-3.77032E-05-2.19025E-14
 -1      1003 1.87598E-03-7.01030E-05-3.07776E-15
 -1      1004 1.66801E-03-1.26128E-04-2.23302E-15
 -1      1005 2.36912E-03 2.25723E-04-3.20121E-15
 -1      1006 2.06702E-03-1.68874E-04-3.32410E-15
 -1      1007 1.99127E-03 3.49801E-05-2.98103E-15
 -1      1008 1.46765E-03 2.30095E-05-1.70607E-15
 -1      1009 1.32768E-02-6.81119E-04-9.06525E-14
 -1      1010 1.44062E-03-2.13605E-05-1.74808E-15
 -1      1011 1.85952E-03-9.61628E-05-2.96697E-15
 -1      1012 1.91549E-03 1.38421E-04-2.34182E-15
 -1      1013 1.34762E-02-8.33723E-04-9.30716E-14
 -1      1014 1.64856E-03 1.31015E-04-1.75775E-15
 -1      1015 2.23293E-03 1.38412E-04-3.17758E-15
 -1      1016 6.88538E-03-7.06519E-05-2.00598E-14
 -1      1017 7.24540E-03-2.45662E-04-2.16407E-14
 -1      1018 7.49030E-03-3.18814E-04-2.42215E-14
 -1      1019 7.34498E-03-2.94349E-04-2.27167E-14
 -1      1020 1.74178E-03-3.08866E-05-2.55770E-15
 -1      1021 7.72529E-03-3.43832E-04-2.65530E-14
 -1      1022 7.97090E-03-3.70970E-04-2.89793E-14
 -1      1023 8.22478E-03-3.99667E-04-3.14974E-14
 -1      1024 8.48530E-03-4.29561E-04-3.41049E-14
 -1      1025 8.75121E-03-4.60215E-04-3.68002E-14
 -1      1026 9.02150E-03-4.91267E-04-3.95816E-14
 -1      1027 9.29535E-03-5.22430E-04-4.24477E-14
 -1      1028 9.57205E-03-5.53498E-04-4.53971E-14
 -1      1029 9.85102E-03-5.84341E-04-4.84274E-14
 -1      1030 1.01318E-02-6.14888E-04-5.15383E-14
 -1      1031 1.04139E-02-6.45113E-04-5.47265E-14
 -1      1032 1.06971E-02-6.75019E-04-5.79848E-14
 -1      1033 1.09811E-02-7.04630E-04-6.13064E-14
 -1      1034 1.12657E-02-7.33979E-04-6.47043E-14
 -1      1035 1.15506E-02-7.63103E-04-6.81638E-14
 -1      1036 1.18359E-02-7.92041E-04-7.16823E-14
 -1      1037 1.21214E-02-8.20827E-04-7.52570E-14
 -1      1038 1.24071E-02-8.49492E-04-7.88849E-14
 -1      1039 1.26928E-02-8.78063E-04-8.25596E-14
 -1      1040 1.29786E-02-9.06563E-04-8.62781E-14
 -1      1041 1.45080E-03-7.74966E-05-1.77850E-15
 -1      1042 1.33765E-02-7.57411E-04-9.18666E-14
 -1      1043 7.53712E-03-1.43603E-04-2.54915E-14
 -1      1044 8.32518E-03-2.06447E-04-3.29268E-14
 -1      1045 8.59459E-03-2.28372E-04-3.55949E-14
 -1      1046 8.86707E-03-2.50938E-04-3.83465E-14
 -1      1047 9.14225E-03-2.74178E-04-4.11826E-14
 -1      1048 9.41976E-03-2.98094E-04-4.41060E-14
 -1      1049 9.69919E-03-3.22664E-04-4.71160E-14
 -1      1050 9.98020E-03-3.47846E-04-5.02027E-14
 -1      1051 1.02625E-02-3.73585E-04-5.33659E-14
 -1      1052 1.05457E-02-3.99816E-04-5.66013E-14
 -1      1053 1.08297E-02-4.26474E-04-5.99054E-14
 -1      1054 1.11143E-02-4.53494E-04-6.32770E-14
 -1      1055 1.13993E-02-4.80814E-04-6.67142E-14
 -1      1056 1.16846E-02-5.08379E-04-7.02128E-14
 -1      1057 1.19701E-02-5.36141E-04-7.37743E-14
 -1      1058 1.22557E-02-5.64058E-04-7.73921E-14
 -1      1059 1.25414E-02-5.92095E-04-8.10568E-14
 -1      1060 1.28272E-02-6.20223E-04-8.47684E-14
 -1      1061 1.30520E-02-6.50651E-04-8.77023E-14
 -1      1062 7.15299E-03-1.45279E-04-2.17339E-14
 -1      1063 7.21504E-03-2.01295E-04-2.16970E-14
 -1      1064 7.79648E-03-1.64222E-04-2.78759E-14
 -1      1065 7.21534E-03-1.10088E-04-2.27072E-14
 -1      1066 8.05910E-03-1.85103E-04-3.03550E-14
 -1      1067 1.69405E-03-5.78116E-05-2.46347E-15
 -1      1068 1.32644E-02-9.35011E-04-9.00345E-14
 -1      1069 1.65269E-03-6.45639E-06-2.23595E-15
 -1      1070 1.66958E-03-8.96947E-05-2.35300E-15
 -1      1071 1.32364E-02-8.50777E-04-8.98269E-14
 -1      1072 1.43803E-03-4.94424E-05-1.76665E-15
 -1      1073 1.76699E-03 5.43131E-05-2.29988E-15
 -1      1074 7.83498E-03-3.07326E-04-2.76259E-14
 -1      1075 8.08253E-03-3.32414E-04-3.00936E-14
 -1      1076 8.33776E-03-3.59035E-04-3.26487E-14
 -1      1077 8.59945E-03-3.86653E-04-3.52960E-14
 -1      1078 8.86628E-03-4.15010E-04-3.80315E-14
 -1      1079 9.13730E-03-4.43822E-04-4.08530E-14
 -1      1080 9.41170E-03-4.72879E-04-4.37566E-14
 -1      1081 9.68884E-03-5.02034E-04-4.67441E-14
 -1      1082 9.96816E-03-5.31187E-04-4.98122E-14
 -1      1083 1.02492E-02-5.60280E-04-5.29604E-14
 -1      1084 1.05315E-02-5.89282E-04-5.61804E-14
 -1      1085 1.08149E-02-6.18182E-04-5.94728E-14
 -1      1086 1.10990E-02-6.46981E-04-6.28259E-14
 -1      1087 1.13837E-02-6.75687E-04-6.62486E-14
 -1      1088 1.16688E-02-7.04311E-04-6.97353E-14
 -1      1089 1.19541E-02-7.32867E-04-7.32767E-14
 -1      1090 1.22397E-02-7.61367E-04-7.68787E-14
 -1      1091 1.25253E-02-7.89822E-04-8.05307E-14
 -1      1092 1.28111E-02-8.18243E-04-8.42302E-14
 -1      1093 8.76374E-03-3.01514E-04-3.71575E-14
 -1      1094 8.49598E-03-2.77514E-04-3.44450E-14
 -1      1095 9.30983E-03-3.51563E-04-4.28342E-14
 -1      1096 9.58702E-03-3.77419E-04-4.58038E-14
 -1      1097 9.86629E-03-4.03727E-04-4.88540E-14
 -1      1098 1.01472E-02-4.30419E-04-5.19826E-14
 -1      1099 1.04295E-02-4.57438E-04-5.51844E-14
 -1      1100 1.07128E-02-4.84730E-04-5.84561E-14
 -1      1101 1.09968E-02-5.12249E-04-6.17934E-14
 -1      1102 1.12814E-02-5.39955E-04-6.51982E-14
 -1      1103 1.15665E-02-5.67812E-04-6.86649E-14
 -1      1104 1.18518E-02-5.95790E-04-7.21951E-14
 -1      1105 1.21373E-02-6.23863E-04-7.57843E-14
 -1      1106 1.24230E-02-6.52009E-04-7.94279E-14
 -1      1107 1.27087E-02-6.80213E-04-8.31187E-14
 -1      1108 7.42842E-03-1.85026E-04-2.40844E-14
 -1      1109 7.44209E-03-2.64840E-04-2.36844E-14
 -1      1110 1.30237E-02-8.34519E-04-8.70208E-14
 -1      1111 9.03523E-03-3.26232E-04-3.99533E-14
 -1      1112 7.72200E-03-2.11410E-04-2.68555E-14
 -1      1113 1.31367E-02-7.74498E-04-8.86334E-14
 -1      1114 8.23262E-03-2.54348E-04-3.18206E-14
 -1      1115 1.29335E-02-7.10676E-04-8.60385E-14
 -1      1116 7.97437E-03-2.32213E-04-2.92920E-14
 -1      1117 7.93008E-03-2.68187E-04-2.86947E-14
 -1      1118 1.31572E-02-7.36347E-04-8.89715E-14
 -1      1119 1.30020E-02-7.63789E-04-8.68597E-14
 -1      1120 7.61166E-03-2.48554E-04-2.55172E-14
 -1      1121 0.00000E+00 0.00000E+00 0.00000E+00
 -1      1122 0.00000E+00 0.00000E+00 0.00000E+00
 -1      1123 0.00000E+00 0.00000E+00 0.00000E+00
 -1      1124 0.00000E+00 0.00000E+00 0.00000E+00
 -1      1125 0.00000E+00 0.00000E+00 0.00000E+00
 -1      1126 0.00000E+00 0.00000E+00 0.00000E+00
 -1      1127 0.00000E+00 0.00000E+00 0.00000E+00
 -1      1128 0.00000E+00 0.00000E+00 0.00000E+00
 -1      1129 0.00000E+00 0.00000E+00 0.00000E+00
 -1      1130 0.00000E+00 0.00000E+00 0.00000E+00
 -1      1131 0.00000E+00 0.00000E+00 0.00000E+00
 -1      1132 0.00000E+00 0.00000E+00 0.00000E+00
 -1      1133 0.00000E+00 0.00000E+00 0.00000E+00
 -1      1134 0.00000E+00 0.00000E+00 0.00000E+00
 -1      1135 0.00000E+00 0.00000E+00 0.00000E+00
 -1      1136 0.00000E+00 0.00000E+00 0.00000E+00
 -1      1137 0.00000E+00 0.00000E+00 0.00000E+00
 -1      1138 2.14341E-04-1.42708E-04 1.08556E-17
 -1      1139 5.69148E-04-3.13371E-04-3.08591E-17
 -1      1140 8.76174E-04-4.17189E-04-1.65815E-16
 -1      1141 1.18035E-03-4.86670E-04-4.10221E-16
 -1      1142 1.48999E-03-5.39585E-04-7.59578E-16
 -1      1143 1.80959E-03-5.86729E-04-1.21081E-15
 -1      1144 2.14165E-03-6.36875E-04-1.76485E-15
 -1      1145 2.48646E-03-6.98467E-04-2.42302E-15
 -1      1146 2.84137E-03-7.79529E-04-3.18533E-15
 -1      1147 3.19989E-03-8.85864E-04-4.05492E-15
 -1      1148 3.55142E-03-1.01745E-03-5.03266E-15
 -1      1149 3.88319E-03-1.16391E-03-6.11933E-15
 -1      1150 4.18522E-03-1.30221E-03-7.31987E-15
 -1      1151 4.45745E-03-1.40137E-03-8.63865E-15
 -1      1152 4.71340E-03-1.43549E-03-1.00767E-14
 -1      1153 4.97540E-03-1.39803E-03-1.16331E-14
 -1      1154 5.26310E-03-1.30596E-03-1.33048E-14
 -1      1155 5.58407E-03-1.18999E-03-1.50823E-14
 -1      1156 5.93313E-03-1.07942E-03-1.69698E-14
 -1      1157 6.29829E-03-9.92580E-04-1.89686E-14
 -1      1158 6.66731E-03-9.35748E-04-2.10808E-14
 -1      1159 7.03129E-03-9.07083E-04-2.33030E-14
 -1      1160 7.38532E-03-9.01108E-04-2.56262E-14
 -1      1161 7.72765E-03-9.11696E-04-2.80550E-14
 -1      1162 8.05848E-03-9.33507E-04-3.05830E-14
 -1      1163 8.37907E-03-9.62411E-04-3.31988E-14
 -1      1164 8.69104E-03-9.95436E-04-3.59028E-14
 -1      1165 8.99604E-03-1.03055E-03-3.86905E-14
 -1      1166 9.29559E-03-1.06643E-03-4.15694E-14
 -1      1167 9.59097E-03-1.10226E-03-4.45367E-14
 -1      1168 9.88321E-03-1.13755E-03-4.75865E-14
 -1      1169 1.01732E-02-1.17207E-03-5.07108E-14
 -1      1170 1.04615E-02-1.20572E-03-5.39048E-14
 -1      1171 1.07486E-02-1.23850E-03-5.71763E-14
 -1      1172 1.10350E-02-1.27049E-03-6.05257E-14
 -1      1173 1.13208E-02-1.30175E-03-6.39390E-14
 -1      1174 1.16064E-02-1.33240E-03-6.74148E-14
 -1      1175 1.18917E-02-1.36252E-03-7.09513E-14
 -1      1176 1.21770E-02-1.39222E-03-7.45445E-14
 -1      1177 1.24623E-02-1.42157E-03-7.81832E-14
 -1      1178 1.27475E-02-1.45065E-03-8.18662E-14
 -1      1179 1.30329E-02-1.47952E-03-8.55991E-14
 -1      1180 1.33183E-02-1.50823E-03-8.93820E-14
 -1      1181 1.36037E-02-1.53683E-03-9.32072E-14
 -1      1182 1.38892E-02-1.56535E-03-9.70807E-14
 -1      1183 1.41748E-02-1.59383E-03-1.00988E-13
 -1      1184 1.44604E-02-1.62228E-03-1.04903E-13
 -1      1185 1.47461E-02-1.65074E-03-1.08828E-13
 -1      1186 1.50318E-02-1.67921E-03-1.12767E-13
 -1      1187 1.53103E-02-1.70699E-03-1.16625E-13
 -1      1188 2.30911E-04 1.55712E-04 3.40711E-17
 -1      1189 5.70001E-04 3.21014E-04 5.42643E-17
 -1      1190 8.73311E-04 4.25135E-04 2.71051E-18
 -1      1191 1.17312E-03 4.96777E-04-1.33818E-16
 -1      1192 1.47592E-03 5.52036E-04-3.58884E-16
 -1      1193 1.78505E-03 6.00702E-04-6.76095E-16
 -1      1194 2.10155E-03 6.50023E-04-1.09021E-15
 -1      1195 2.42436E-03 7.05887E-04-1.60184E-15
 -1      1196 2.75022E-03 7.72560E-04-2.21329E-15
 -1      1197 3.07372E-03 8.51470E-04-2.93189E-15
 -1      1198 3.38793E-03 9.39497E-04-3.76095E-15
 -1      1199 3.68624E-03 1.02763E-03-4.69770E-15
 -1      1200 3.96507E-03 1.10140E-03-5.74763E-15
 -1      1201 4.22656E-03 1.14435E-03-6.92019E-15
 -1      1202 4.47924E-03 1.14398E-03-8.21717E-15
 -1      1203 4.73545E-03 1.09728E-03-9.64249E-15
 -1      1204 5.00647E-03 1.01226E-03-1.11904E-14
 -1      1205 5.29834E-03 9.04446E-04-1.28539E-14
 -1      1206 5.61063E-03 7.90713E-04-1.46352E-14
 -1      1207 5.93819E-03 6.84196E-04-1.65305E-14
 -1      1208 6.27404E-03 5.92289E-04-1.85406E-14
 -1      1209 6.61175E-03 5.17237E-04-2.06652E-14
 -1      1210 6.94657E-03 4.57888E-04-2.28980E-14
 -1      1211 7.27572E-03 4.11444E-04-2.52393E-14
 -1      1212 7.59797E-03 3.74689E-04-2.76869E-14
 -1      1213 7.91322E-03 3.44666E-04-3.02207E-14
 -1      1214 8.22202E-03 3.18956E-04-3.28496E-14
 -1      1215 8.52523E-03 2.95728E-04-3.55781E-14
 -1      1216 8.82383E-03 2.73677E-04-3.83926E-14
 -1      1217 9.11873E-03 2.51928E-04-4.12883E-14
 -1      1218 9.41078E-03 2.29927E-04-4.42611E-14
 -1      1219 9.70066E-03 2.07358E-04-4.73172E-14
 -1      1220 9.98897E-03 1.84070E-04-5.04481E-14
 -1      1221 1.02761E-02 1.60017E-04-5.36525E-14
 -1      1222 1.05625E-02 1.35224E-04-5.69436E-14
 -1      1223 1.08484E-02 1.09755E-04-6.03153E-14
 -1      1224 1.11340E-02 8.36911E-05-6.37629E-14
 -1      1225 1.14194E-02 5.71220E-05-6.72812E-14
 -1      1226 1.17047E-02 3.01338E-05-7.08514E-14
 -1      1227 1.19899E-02 2.80619E-06-7.44762E-14
 -1      1228 1.22752E-02-2.47902E-05-7.81435E-14
 -1      1229 1.25606E-02-5.25945E-05-8.18493E-14
 -1      1230 1.28460E-02-8.05551E-05-8.55761E-14
 -1      1231 1.31314E-02-1.08629E-04-8.93165E-14
 -1      1232 1.34169E-02-1.36781E-04-9.30749E-14
 -1      1233 1.37025E-02-1.64980E-04-9.68675E-14
 -1      1234 1.39881E-02-1.93200E-04-1.00683E-13
 -1      1235 1.42738E-02-2.21421E-04-1.04517E-13
 -1      1236 1.45595E-02-2.49625E-04-1.08351E-13
 -1      1237 1.48380E-02-2.77101E-04-1.12085E-13
 -1      1238 1.49876E-02-3.32624E-04-1.14033E-13
 -1      1239 1.50153E-02-4.16910E-04-1.14325E-13
 -1      1240 1.50430E-02-5.01212E-04-1.14606E-13
 -1      1241 1.50706E-02-5.85543E-04-1.14875E-13
 -1      1242 1.50983E-02-6.69908E-04-1.15136E-13
 -1      1243 1.51257E-02-7.53593E-04-1.15387E-13
 -1      1244 1.51532E-02-8.37307E-04-1.15658E-13
 -1      1245 1.51810E-02-9.21758E-04-1.15950E-13
 -1      1246 1.52088E-02-1.00622E-03-1.16272E-13
 -1      1247 1.52367E-02-1.09068E-03-1.16587E-13
 -1      1248 1.52647E-02-1.17513E-03-1.16872E-13
 -1      1249 1.52924E-02-1.25885E-03-1.17162E-13
 -1      1250 1.53203E-02-1.34253E-03-1.17453E-13
 -1      1251 1.53483E-02-1.42690E-03-1.17709E-13
 -1      1252 1.53764E-02-1.51123E-03-1.17936E-13
 -1      1253 1.54045E-02-1.59553E-03-1.18170E-13
 -1      1254 1.54323E-02-1.67910E-03-1.18400E-13
 -1      1255 6.76122E-03-1.14871E-04-1.30048E-14
 -1      1256 6.63264E-03 4.06035E-05-1.27714E-14
 -1      1257 6.38305E-03 2.08874E-04-1.23513E-14
 -1      1258 6.05299E-03 3.71081E-04-1.18120E-14
 -1      1259 5.66558E-03 5.18713E-04-1.11738E-14
 -1      1260 5.24381E-03 6.37546E-04-1.04731E-14
 -1      1261 4.80280E-03 7.10968E-04-9.75037E-15
 -1      1262 4.34852E-03 7.28387E-04-9.03116E-15
 -1      1263 3.90522E-03 6.87050E-04-8.36486E-15
 -1      1264 3.47000E-03 5.91869E-04-7.75836E-15
 -1      1265 3.07733E-03 4.64078E-04-7.25887E-15
 -1      1266 2.75736E-03 3.24848E-04-6.88968E-15
 -1      1267 2.49063E-03 1.69175E-04-6.61320E-15
 -1      1268 2.32365E-03 1.26199E-05-6.46756E-15
 -1      1269 2.28054E-03-1.43717E-04-6.45728E-15
 -1      1270 2.36198E-03-3.02122E-04-6.58669E-15
 -1      1271 2.55934E-03-4.64238E-04-6.84865E-15
 -1      1272 2.85012E-03-6.29691E-04-7.22945E-15
 -1      1273 3.19838E-03-7.84728E-04-7.69415E-15
 -1      1274 3.60310E-03-9.23939E-04-8.26279E-15
 -1      1275 4.05606E-03-1.02781E-03-8.93808E-15
 -1      1276 4.53141E-03-1.07524E-03-9.67718E-15
 -1      1277 4.98220E-03-1.05549E-03-1.03956E-14
 -1      1278 5.40384E-03-9.80990E-04-1.10705E-14
 -1      1279 5.80511E-03-8.63335E-04-1.17029E-14
 -1      1280 6.16584E-03-7.18820E-04-1.22482E-14
 -1      1281 6.45429E-03-5.68340E-04-1.26610E-14
 -1      1282 6.66019E-03-4.17802E-04-1.29415E-14
 -1      1283 6.76883E-03-2.63981E-04-1.30628E-14
 -1      1284 1.72806E-04-1.03246E-04-4.17418E-18
 -1      1285 1.18122E-04-4.68434E-05-2.13452E-17
 -1      1286 1.23503E-04-5.89307E-05-1.64934E-17
 -1      1287 1.12216E-04-3.11261E-05-2.91786E-17
 -1      1288 1.15037E-04-3.80194E-05-2.68069E-17
 -1      1289 2.37399E-04-8.63546E-05-6.32632E-17
 -1      1290 1.08247E-04-2.06675E-05-3.34747E-17
 -1      1291 1.10311E-04-2.54067E-05-3.22550E-17
 -1      1292 2.25762E-04-5.83033E-05-7.72765E-17
 -1      1293 1.05003E-04-1.34105E-05-3.57651E-17
 -1      1294 1.06657E-04-1.67592E-05-3.52095E-17
 -1      1295 2.17223E-04-3.90891E-05-8.50963E-17
 -1      1296 1.02456E-04-8.47498E-06-3.67951E-17
 -1      1297 1.03714E-04-1.07932E-05-3.66325E-17
 -1      1298 2.10379E-04-2.56926E-05-8.92840E-17
 -1      1299 1.00618E-04-5.02487E-06-3.68629E-17
 -1      1300 1.01473E-04-6.70688E-06-3.69984E-17
 -1      1301 2.05065E-04-1.62858E-05-9.08426E-17
 -1      1302 9.96549E-05-2.50024E-06-3.62530E-17
 -1      1303 1.00041E-04-3.82094E-06-3.64970E-17
 -1      1304 2.01481E-04-9.51962E-06-9.03954E-17
 -1      1305 9.96147E-05-2.39268E-07-3.53043E-17
 -1      1306 9.95206E-05-1.51419E-06-3.57245E-17
 -1      1307 1.99877E-04-4.20676E-06-8.89181E-17
 -1      1308 1.00462E-04 2.39230E-06-3.37593E-17
 -1      1309 9.99161E-05 8.66039E-07-3.42879E-17
 -1      1310 2.00299E-04 9.18712E-07-8.62212E-17
 -1      1311 1.02089E-04 5.96346E-06-3.18078E-17
 -1      1312 1.01152E-04 3.92229E-06-3.25125E-17
 -1      1313 2.02620E-04 7.04697E-06-8.22367E-17
 -1      1314 1.04315E-04 1.08682E-05-2.88940E-17
 -1      1315 1.03077E-04 8.13948E-06-2.97478E-17
 -1      1316 2.06536E-04 1.51550E-05-7.68564E-17
 -1      1317 1.07104E-04 1.77341E-05-2.49909E-17
 -1      1318 1.05558E-04 1.39882E-05-2.63597E-17
 -1      1319 2.11766E-04 2.62063E-05-6.94703E-17
 -1      1320 1.10433E-04 2.70743E-05-1.93530E-17
 -1      1321 1.08535E-04 2.20375E-05-2.14808E-17
 -1      1322 2.18180E-04 4.12924E-05-5.95905E-17
 -1      1323 1.14756E-04 4.00274E-05-1.11131E-17
 -1      1324 1.12120E-04 3.30135E-05-1.46232E-17
 -1      1325 2.25932E-04 6.17276E-05-4.56178E-17
 -1      1326 1.22316E-04 6.01135E-05 8.67362E-19
 -1      1327 1.17364E-04 4.88380E-05-4.89246E-18
 -1      1328 2.36668E-04 9.05631E-05-2.64003E-17
 -1      1329 1.62260E-04 1.04674E-04 1.92175E-17
 -1      1330 1.41642E-04 7.92423E-05 8.49743E-18
 -1      1331 2.68554E-04 1.36432E-04-3.65918E-18
 -1      1332 3.46642E-04 2.07345E-04 2.77149E-17
 -1      1333 4.39625E-04-2.39970E-04-4.16063E-17
 -1      1334 6.02944E-04-3.04807E-04-8.68581E-17
 -1      1335 7.62129E-04-3.56045E-04-1.60652E-16
 -1      1336 9.19132E-04-3.97157E-04-2.60398E-16
 -1      1337 6.47925E-04-2.90966E-04-1.51070E-16
 -1      1338 1.07497E-03-4.31566E-04-3.85475E-16
 -1      1339 1.23066E-03-4.60688E-04-5.36504E-16
 -1      1340 9.66508E-04-3.74634E-04-3.57841E-16
 -1      1341 1.38716E-03-4.86643E-04-7.12849E-16
 -1      1342 1.54504E-03-5.10302E-04-9.15202E-16
 -1      1343 1.28082E-03-4.33415E-04-6.64901E-16
 -1      1344 1.70484E-03-5.33153E-04-1.14221E-15
 -1      1345 1.86686E-03-5.56039E-04-1.39460E-15
 -1      1346 1.59705E-03-4.80433E-04-1.07226E-15
 -1      1347 2.03136E-03-5.80252E-04-1.67231E-15
 -1      1348 2.19835E-03-6.06692E-04-1.97563E-15
 -1      1349 1.91903E-03-5.25424E-04-1.57945E-15
 -1      1350 2.36782E-03-6.36653E-04-2.30472E-15
 -1      1351 2.53949E-03-6.70993E-04-2.66010E-15
 -1      1352 2.24875E-03-5.77356E-04-2.18758E-15
 -1      1353 2.71300E-03-7.10941E-04-3.04109E-15
 -1      1354 2.88770E-03-7.57088E-04-3.44756E-15
 -1      1355 2.58631E-03-6.45182E-04-2.89722E-15
 -1      1356 3.06288E-03-8.10236E-04-3.88115E-15
 -1      1357 3.23749E-03-8.70290E-04-4.34182E-15
 -1      1358 2.92984E-03-7.36984E-04-3.70957E-15
 -1      1359 3.41051E-03-9.36959E-04-4.82901E-15
 -1      1360 3.58069E-03-1.00891E-03-5.34325E-15
 -1      1361 3.27516E-03-8.57237E-04-4.62728E-15
 -1      1362 3.74700E-03-1.08406E-03-5.88485E-15
 -1      1363 3.90844E-03-1.15946E-03-6.45427E-15
 -1      1364 3.61605E-03-1.00214E-03-5.65262E-15
 -1      1365 4.06449E-03-1.23118E-03-7.05321E-15
 -1      1366 4.21510E-03-1.29514E-03-7.68148E-15
 -1      1367 3.94568E-03-1.15477E-03-6.78857E-15
 -1      1368 4.36075E-03-1.34684E-03-8.33936E-15
 -1      1369 4.50283E-03-1.38282E-03-9.02674E-15
 -1      1370 4.25992E-03-1.28474E-03-8.04151E-15
 -1      1371 4.64283E-03-1.40039E-03-9.74451E-15
 -1      1372 4.78303E-03-1.39866E-03-1.04924E-14
 -1      1373 4.56139E-03-1.35788E-03-9.41359E-15
 -1      1374 4.92524E-03-1.37847E-03-1.12693E-14
 -1      1375 5.07145E-03-1.34213E-03-1.20759E-14
 -1      1376 4.86004E-03-1.35393E-03-1.09064E-14
 -1      1377 5.22278E-03-1.29350E-03-1.29102E-14
 -1      1378 5.37995E-03-1.23665E-03-1.37724E-14
 -1      1379 5.16795E-03-1.27939E-03-1.25171E-14
 -1      1380 5.54298E-03-1.17616E-03-1.46618E-14
 -1      1381 5.71132E-03-1.11583E-03-1.55776E-14
 -1      1382 5.49211E-03-1.16345E-03-1.42413E-14
 -1      1383 5.88413E-03-1.05895E-03-1.65222E-14
 -1      1384 6.06025E-03-1.00784E-03-1.74941E-14
 -1      1385 5.83178E-03-1.04113E-03-1.60743E-14
 -1      1386 6.23856E-03-9.63850E-04-1.84933E-14
 -1      1387 6.41789E-03-9.27811E-04-1.95196E-14
 -1      1388 6.18109E-03-9.38148E-04-1.80173E-14
 -1      1389 6.59728E-03-8.99576E-04-2.05738E-14
 -1      1390 6.77587E-03-8.79031E-04-2.16571E-14
 -1      1391 6.53306E-03-8.66099E-04-2.00698E-14
 -1      1392 6.95304E-03-8.65310E-04-2.27658E-14
 -1      1393 7.12830E-03-8.57853E-04-2.39005E-14
 -1      1394 6.88209E-03-8.25596E-04-2.22312E-14
 -1      1395 7.30134E-03-8.55649E-04-2.50627E-14
 -1      1396 7.47196E-03-8.58028E-04-2.62486E-14
 -1      1397 7.22466E-03-8.11591E-04-2.44987E-14
 -1      1398 7.64011E-03-8.64121E-04-2.74596E-14
 -1      1399 7.80579E-03-8.73307E-04-2.86981E-14
 -1      1400 7.55912E-03-8.17395E-04-2.68696E-14
 -1      1401 7.96908E-03-8.84943E-04-2.99598E-14
 -1      1402 8.13008E-03-8.98515E-04-3.12447E-14
 -1      1403 7.88512E-03-8.36817E-04-2.93404E-14
 -1      1404 8.28896E-03-9.13592E-04-3.25515E-14
 -1      1405 8.44586E-03-9.29778E-04-3.38788E-14
 -1      1406 8.20316E-03-8.64934E-04-3.19049E-14
 -1      1407 8.60096E-03-9.46803E-04-3.52287E-14
 -1      1408 8.75442E-03-9.64375E-04-3.66011E-14
 -1      1409 8.51417E-03-8.98155E-04-3.45585E-14
 -1      1410 8.90642E-03-9.82340E-04-3.79941E-14
 -1      1411 9.05711E-03-1.00049E-03-3.94101E-14
 -1      1412 8.81925E-03-9.34014E-04-3.72995E-14
 -1      1413 9.20665E-03-1.01875E-03-4.08467E-14
 -1      1414 9.35516E-03-1.03697E-03-4.23056E-14
 -1      1415 9.11947E-03-9.70895E-04-4.01258E-14
 -1      1416 9.50277E-03-1.05512E-03-4.37868E-14
 -1      1417 9.64960E-03-1.07310E-03-4.52897E-14
 -1      1418 9.41583E-03-1.00779E-03-4.30389E-14
 -1      1419 9.79576E-03-1.09093E-03-4.68114E-14
 -1      1420 9.94133E-03-1.10853E-03-4.83527E-14
 -1      1421 9.70917E-03-1.04413E-03-4.60395E-14
 -1      1422 1.00864E-02-1.12591E-03-4.99132E-14
 -1      1423 1.02310E-02-1.14306E-03-5.14898E-14
 -1      1424 1.00002E-02-1.07960E-03-4.91159E-14
 -1      1425 1.03753E-02-1.15997E-03-5.30860E-14
 -1      1426 1.05193E-02-1.17665E-03-5.46997E-14
 -1      1427 1.02895E-02-1.11408E-03-5.22676E-14
 -1      1428 1.06630E-02-1.19311E-03-5.63329E-14
 -1      1429 1.08065E-02-1.20934E-03-5.79862E-14
 -1      1430 1.05776E-02-1.14758E-03-5.54926E-14
 -1      1431 1.09498E-02-1.22537E-03-5.96571E-14
 -1      1432 1.10929E-02-1.24121E-03-6.13442E-14
 -1      1433 1.08647E-02-1.18015E-03-5.87915E-14
 -1      1434 1.12360E-02-1.25687E-03-6.30481E-14
 -1      1435 1.13789E-02-1.27236E-03-6.47679E-14
 -1      1436 1.11512E-02-1.21190E-03-6.21606E-14
 -1      1437 1.15218E-02-1.28769E-03-6.65052E-14
 -1      1438 1.16646E-02-1.30289E-03-6.82572E-14
 -1      1439 1.14373E-02-1.24292E-03-6.55968E-14
 -1      1440 1.18074E-02-1.31796E-03-7.00231E-14
 -1      1441 1.19501E-02-1.33291E-03-7.18031E-14
 -1      1442 1.17231E-02-1.27334E-03-6.90964E-14
 -1      1443 1.20929E-02-1.34776E-03-7.35945E-14
 -1      1444 1.22356E-02-1.36252E-03-7.54003E-14
 -1      1445 1.20087E-02-1.30327E-03-7.26503E-14
 -1      1446 1.23783E-02-1.37720E-03-7.72191E-14
 -1      1447 1.25209E-02-1.39180E-03-7.90482E-14
 -1      1448 1.22942E-02-1.33279E-03-7.62561E-14
 -1      1449 1.26636E-02-1.40633E-03-8.08880E-14
 -1      1450 1.28063E-02-1.42082E-03-8.27399E-14
 -1      1451 1.25797E-02-1.36200E-03-7.99110E-14
 -1      1452 1.29490E-02-1.43525E-03-8.46061E-14
 -1      1453 1.30917E-02-1.44964E-03-8.64834E-14
 -1      1454 1.28651E-02-1.39096E-03-8.36156E-14
 -1      1455 1.32345E-02-1.46399E-03-8.83717E-14
 -1      1456 1.33772E-02-1.47831E-03-9.02724E-14
 -1      1457 1.31506E-02-1.41973E-03-8.73654E-14
 -1      1458 1.35199E-02-1.49261E-03-9.21838E-14
 -1      1459 1.36627E-02-1.50688E-03-9.41030E-14
 -1      1460 1.34361E-02-1.44837E-03-9.11589E-14
 -1      1461 1.38055E-02-1.52114E-03-9.60340E-14
 -1      1462 1.39482E-02-1.53538E-03-9.79798E-14
 -1      1463 1.37217E-02-1.47692E-03-9.49970E-14
 -1      1464 1.40910E-02-1.54962E-03-9.99307E-14
 -1      1465 1.42338E-02-1.56384E-03-1.01882E-13
 -1      1466 1.40073E-02-1.50540E-03-9.88746E-14
 -1      1467 1.43767E-02-1.57807E-03-1.03837E-13
 -1      1468 1.45195E-02-1.59229E-03-1.05796E-13
 -1      1469 1.42929E-02-1.53385E-03-1.02775E-13
 -1      1470 1.46623E-02-1.60651E-03-1.07759E-13
 -1      1471 1.48052E-02-1.62074E-03-1.09722E-13
 -1      1472 1.45786E-02-1.56229E-03-1.06689E-13
 -1      1473 1.49480E-02-1.63497E-03-1.11690E-13
 -1      1474 1.50909E-02-1.64921E-03-1.13663E-13
 -1      1475 1.48642E-02-1.59074E-03-1.10614E-13
 -1      1476 1.52966E-02-1.66556E-03-1.16517E-13
 -1      1477 1.52128E-02-1.62132E-03-1.15434E-13
 -1      1478 6.72639E-04 3.41209E-04 7.33192E-18
 -1      1479 5.12700E-04 2.81342E-04 2.72812E-17
 -1      1480 4.65962E-04 2.42256E-04 4.13352E-18
 -1      1481 9.82703E-04 4.27628E-04-9.42443E-17
 -1      1482 8.28787E-04 3.88244E-04-3.31766E-17
 -1      1483 7.85917E-04 3.50490E-04-6.40086E-17
 -1      1484 1.28844E-03 4.89955E-04-2.80348E-16
 -1      1485 1.13555E-03 4.60893E-04-1.76169E-16
 -1      1486 1.09724E-03 4.24455E-04-2.13900E-16
 -1      1487 1.59606E-03 5.40615E-04-5.55843E-16
 -1      1488 1.44170E-03 5.16216E-04-4.06766E-16
 -1      1489 1.40588E-03 4.80156E-04-4.49781E-16
 -1      1490 1.90848E-03 5.88039E-04-9.24946E-16
 -1      1491 1.75153E-03 5.64340E-04-7.28164E-16
 -1      1492 1.71623E-03 5.27972E-04-7.75828E-16
 -1      1493 2.22627E-03 6.38993E-04-1.39045E-15
 -1      1494 2.06671E-03 6.12776E-04-1.14550E-15
 -1      1495 2.03041E-03 5.75667E-04-1.19609E-15
 -1      1496 2.54799E-03 6.98957E-04-1.95377E-15
 -1      1497 2.38678E-03 6.67683E-04-1.65985E-15
 -1      1498 2.34857E-03 6.29665E-04-1.71320E-15
 -1      1499 2.87035E-03 7.71350E-04-2.61958E-15
 -1      1500 2.70936E-03 7.33648E-04-2.27357E-15
 -1      1501 2.66917E-03 6.94860E-04-2.32934E-15
 -1      1502 3.18850E-03 8.55959E-04-3.39362E-15
 -1      1503 3.03031E-03 8.12485E-04-2.99308E-15
 -1      1504 2.98913E-03 7.73434E-04-3.04933E-15
 -1      1505 3.49707E-03 9.47128E-04-4.27567E-15
 -1      1506 3.34434E-03 9.01437E-04-3.82111E-15
 -1      1507 3.30434E-03 8.63012E-04-3.87644E-15
 -1      1508 3.79187E-03 1.03288E-03-5.26818E-15
 -1      1509 3.64639E-03 9.91669E-04-4.75755E-15
 -1      1510 3.61068E-03 9.54993E-04-4.81291E-15
 -1      1511 4.07208E-03 1.09660E-03-6.37832E-15
 -1      1512 3.93370E-03 1.06849E-03-5.80823E-15
 -1      1513 3.90565E-03 1.03456E-03-5.86297E-15
 -1      1514 4.34168E-03 1.12207E-03-7.61182E-15
 -1      1515 4.20776E-03 1.11474E-03-6.97878E-15
 -1      1516 4.19005E-03 1.08392E-03-7.03264E-15
 -1      1517 4.60883E-03 1.10006E-03-8.96916E-15
 -1      1518 4.47492E-03 1.11694E-03-8.27460E-15
 -1      1519 4.46868E-03 1.08869E-03-8.32511E-15
 -1      1520 4.88295E-03 1.03282E-03-1.04532E-14
 -1      1521 4.74443E-03 1.07136E-03-9.69567E-15
 -1      1522 4.74891E-03 1.04439E-03-9.74451E-15
 -1      1523 5.17109E-03 9.33045E-04-1.20582E-14
 -1      1524 5.02496E-03 9.85879E-04-1.12410E-14
 -1      1525 5.03774E-03 9.58756E-04-1.12865E-14
 -1      1526 5.47563E-03 8.18411E-04-1.37771E-14
 -1      1527 5.32133E-03 8.76507E-04-1.29030E-14
 -1      1528 5.33904E-03 8.48194E-04-1.29471E-14
 -1      1529 5.79446E-03 7.05062E-04-1.56147E-14
 -1      1530 5.63352E-03 7.60821E-04-1.46819E-14
 -1      1531 5.65269E-03 7.30910E-04-1.47241E-14
 -1      1532 6.12277E-03 6.03772E-04-1.75647E-14
 -1      1533 5.95779E-03 6.52547E-04-1.65750E-14
 -1      1534 5.97563E-03 6.21150E-04-1.66150E-14
 -1      1535 6.45514E-03 5.19335E-04-1.96279E-14
 -1      1536 6.28879E-03 5.59395E-04-1.85820E-14
 -1      1537 6.30351E-03 5.26905E-04-1.86192E-14
 -1      1538 6.78698E-03 4.52022E-04-2.18056E-14
 -1      1539 6.62139E-03 4.83669E-04-2.07027E-14
 -1      1540 6.63224E-03 4.50550E-04-2.07367E-14
 -1      1541 7.11508E-03 3.99538E-04-2.40861E-14
 -1      1542 6.95166E-03 4.24132E-04-2.29335E-14
 -1      1543 6.95865E-03 3.90794E-04-2.29631E-14
 -1      1544 7.43770E-03 3.58616E-04-2.64756E-14
 -1      1545 7.27715E-03 3.77844E-04-2.52688E-14
 -1      1546 7.28076E-03 3.44590E-04-2.52945E-14
 -1      1547 7.75418E-03 3.25990E-04-2.89641E-14
 -1      1548 7.59672E-03 3.41451E-04-2.77075E-14
 -1      1549 7.59761E-03 3.08476E-04-2.77263E-14
 -1      1550 8.06466E-03 2.98866E-04-3.15390E-14
 -1      1551 7.91015E-03 3.11887E-04-3.02390E-14
 -1      1552 7.90902E-03 2.79292E-04-3.02530E-14
 -1      1553 8.36971E-03 2.75062E-04-3.42138E-14
 -1      1554 8.21782E-03 2.86657E-04-3.28642E-14
 -1      1555 8.21528E-03 2.54479E-04-3.28751E-14
 -1      1556 8.67008E-03 2.52989E-04-3.69813E-14
 -1      1557 8.52042E-03 2.63886E-04-3.55866E-14
 -1      1558 8.51697E-03 2.32113E-04-3.55928E-14
 -1      1559 8.96661E-03 2.31553E-04-3.98343E-14
 -1      1560 8.81877E-03 2.42242E-04-3.83973E-14
 -1      1561 8.81479E-03 2.10840E-04-3.83989E-14
 -1      1562 9.26006E-03 2.10047E-04-4.27611E-14
 -1      1563 9.11367E-03 2.20840E-04-4.12878E-14
 -1      1564 9.10944E-03 1.89760E-04-4.12849E-14
 -1      1565 9.55114E-03 1.88047E-04-4.57740E-14
 -1      1566 9.40586E-03 1.99126E-04-4.42587E-14
 -1      1567 9.40156E-03 1.68317E-04-4.42517E-14
 -1      1568 9.84042E-03 1.65333E-04-4.88642E-14
 -1      1569 9.69597E-03 1.76787E-04-4.73087E-14
 -1      1570 9.69173E-03 1.46199E-04-4.72984E-14
 -1      1571 1.01284E-02 1.41821E-04-5.20279E-14
 -1      1572 9.98453E-03 1.53679E-04-5.04373E-14
 -1      1573 9.98042E-03 1.23267E-04-5.04217E-14
 -1      1574 1.04154E-02 1.17512E-04-5.52731E-14
 -1      1575 1.02720E-02 1.29764E-04-5.36398E-14
 -1      1576 1.02680E-02 9.94885E-05-5.36236E-14
 -1      1577 1.07017E-02 9.24600E-05-5.86012E-14
 -1      1578 1.05586E-02 1.05074E-04-5.69274E-14
 -1      1579 1.05548E-02 7.49031E-05-5.69065E-14
 -1      1580 1.09876E-02 6.67466E-05-6.20019E-14
 -1      1581 1.08447E-02 7.96806E-05-6.02923E-14
 -1      1582 1.08411E-02 4.95866E-05-6.02661E-14
 -1      1583 1.12733E-02 4.04640E-05-6.54797E-14
 -1      1584 1.11305E-02 5.36708E-05-6.37327E-14
 -1      1585 1.11270E-02 2.36331E-05-6.36996E-14
 -1      1586 1.15587E-02 1.37053E-05-6.90170E-14
 -1      1587 1.14160E-02 2.71388E-05-6.72409E-14
 -1      1588 1.14127E-02-2.85933E-06-6.72001E-14
 -1      1589 1.18441E-02-1.34425E-05-7.26072E-14
 -1      1590 1.17015E-02 1.75069E-07-7.08053E-14
 -1      1591 1.16982E-02-2.97960E-05-7.07561E-14
 -1      1592 1.21295E-02-4.09011E-05-7.62502E-14
 -1      1593 1.19868E-02-2.71373E-05-7.44242E-14
 -1      1594 1.19837E-02-5.70908E-05-7.43696E-14
 -1      1595 1.24149E-02-6.86024E-05-7.99320E-14
 -1      1596 1.22722E-02-5.47252E-05-7.80863E-14
 -1      1597 1.22692E-02-8.46680E-05-7.80287E-14
 -1      1598 1.27003E-02-9.64888E-05-8.36480E-14
 -1      1599 1.25576E-02-8.25256E-05-8.17868E-14
 -1      1600 1.25546E-02-1.12463E-04-8.17259E-14
 -1      1601 1.29858E-02-1.24512E-04-8.73828E-14
 -1      1602 1.28430E-02-1.10486E-04-8.55126E-14
 -1      1603 1.28401E-02-1.40421E-04-8.54503E-14
 -1      1604 1.32713E-02-1.52631E-04-9.11327E-14
 -1      1605 1.31285E-02-1.38562E-04-8.92571E-14
 -1      1606 1.31256E-02-1.68497E-04-8.91945E-14
 -1      1607 1.35568E-02-1.80813E-04-9.49078E-14
 -1      1608 1.34140E-02-1.66716E-04-9.30180E-14
 -1      1609 1.34112E-02-1.96654E-04-9.29573E-14
 -1      1610 1.38424E-02-2.09030E-04-9.87104E-14
 -1      1611 1.36996E-02-1.94919E-04-9.68067E-14
 -1      1612 1.36968E-02-2.24860E-04-9.67435E-14
 -1      1613 1.41281E-02-2.37258E-04-1.02531E-13
 -1      1614 1.39853E-02-2.23144E-04-1.00616E-13
 -1      1615 1.39824E-02-2.53089E-04-1.00551E-13
 -1      1616 1.44138E-02-2.65477E-04-1.06359E-13
 -1      1617 1.42709E-02-2.51370E-04-1.04445E-13
 -1      1618 1.42680E-02-2.81318E-04-1.04373E-13
 -1      1619 1.46995E-02-2.93672E-04-1.10192E-13
 -1      1620 1.45566E-02-2.79578E-04-1.08277E-13
 -1      1621 1.45537E-02-3.09530E-04-1.08203E-13
 -1      1622 1.48519E-02-3.19245E-04-1.12220E-13
 -1      1623 1.48985E-02-4.25793E-04-1.12735E-13
 -1      1624 1.48847E-02-3.83645E-04-1.12592E-13
 -1      1625 1.49262E-02-5.10105E-04-1.13013E-13
 -1      1626 1.49123E-02-4.67947E-04-1.12876E-13
 -1      1627 1.47817E-02-4.34671E-04-1.11146E-13
 -1      1628 1.49538E-02-5.94443E-04-1.13284E-13
 -1      1629 1.49400E-02-5.52271E-04-1.13147E-13
 -1      1630 1.48094E-02-5.18989E-04-1.11423E-13
 -1      1631 1.49815E-02-6.78810E-04-1.13550E-13
 -1      1632 1.49676E-02-6.36623E-04-1.13419E-13
 -1      1633 1.48370E-02-6.03330E-04-1.11697E-13
 -1      1634 1.50087E-02-7.61773E-04-1.13812E-13
 -1      1635 1.49951E-02-7.20288E-04-1.13680E-13
 -1      1636 1.48644E-02-6.86980E-04-1.11967E-13
 -1      1637 1.50364E-02-8.46189E-04-1.14091E-13
 -1      1638 1.50225E-02-8.03978E-04-1.13949E-13
 -1      1639 1.48919E-02-7.70651E-04-1.12238E-13
 -1      1640 1.50642E-02-9.30621E-04-1.14381E-13
 -1      1641 1.50503E-02-8.88403E-04-1.14234E-13
 -1      1642 1.49196E-02-8.55055E-04-1.12516E-13
 -1      1643 1.50921E-02-1.01506E-03-1.14691E-13
 -1      1644 1.50781E-02-9.72840E-04-1.14536E-13
 -1      1645 1.49474E-02-9.39470E-04-1.12806E-13
 -1      1646 1.51200E-02-1.09950E-03-1.14984E-13
 -1      1647 1.51060E-02-1.05728E-03-1.14842E-13
 -1      1648 1.49753E-02-1.02389E-03-1.13101E-13
 -1      1649 1.51479E-02-1.18392E-03-1.15268E-13
 -1      1650 1.51339E-02-1.14171E-03-1.15125E-13
 -1      1651 1.50032E-02-1.10830E-03-1.13383E-13
 -1      1652 1.51755E-02-1.26690E-03-1.15540E-13
 -1      1653 1.51617E-02-1.22541E-03-1.15407E-13
 -1      1654 1.50310E-02-1.19199E-03-1.13653E-13
 -1      1655 1.52035E-02-1.35128E-03-1.15819E-13
 -1      1656 1.51895E-02-1.30909E-03-1.15680E-13
 -1      1657 1.50588E-02-1.27566E-03-1.13921E-13
 -1      1658 1.52316E-02-1.43563E-03-1.16059E-13
 -1      1659 1.52176E-02-1.39346E-03-1.15946E-13
 -1      1660 1.50868E-02-1.36003E-03-1.14179E-13
 -1      1661 1.52597E-02-1.51995E-03-1.16289E-13
 -1      1662 1.52457E-02-1.47779E-03-1.16173E-13
 -1      1663 1.51149E-02-1.44437E-03-1.14414E-13
 -1      1664 1.52433E-02-1.59171E-03-1.15921E-13
 -1      1665 1.52292E-02-1.54956E-03-1.15806E-13
 -1      1666 1.50985E-02-1.51615E-03-1.14043E-13
 -1      1667 1.50376E-02-1.57537E-03-1.13073E-13
 -1      1668 6.75399E-03-1.19383E-04-1.33398E-14
 -1      1669 6.78888E-03-1.63720E-04-1.34076E-14
 -1      1670 6.55981E-03-1.01332E-05-1.31157E-14
 -1      1671 6.67016E-03-6.94095E-05-1.32944E-14
 -1      1672 6.24263E-03 1.50846E-04-1.25743E-14
 -1      1673 6.39894E-03 7.52751E-05-1.28255E-14
 -1      1674 5.86752E-03 3.37438E-04-1.19168E-14
 -1      1675 6.04520E-03 2.51803E-04-1.22195E-14
 -1      1676 5.45185E-03 5.20983E-04-1.11974E-14
 -1      1677 5.63778E-03 4.34911E-04-1.15468E-14
 -1      1678 5.06560E-03 6.77054E-04-1.03845E-14
 -1      1679 5.24737E-03 6.13625E-04-1.07433E-14
 -1      1680 4.67127E-03 7.62873E-04-9.58879E-15
 -1      1681 4.85498E-03 7.32181E-04-9.95346E-15
 -1      1682 4.27312E-03 7.65048E-04-8.81942E-15
 -1      1683 4.45698E-03 7.75157E-04-9.16921E-15
 -1      1684 3.88626E-03 6.85540E-04-8.12352E-15
 -1      1685 4.06381E-03 7.32349E-04-8.42921E-15
 -1      1686 3.48683E-03 5.30156E-04-7.46618E-15
 -1      1687 3.67851E-03 6.09768E-04-7.74833E-15
 -1      1688 3.08430E-03 3.69047E-04-7.01435E-15
 -1      1689 3.25226E-03 4.45405E-04-7.21759E-15
 -1      1690 2.74876E-03 2.11766E-04-6.65619E-15
 -1      1691 2.89806E-03 2.82775E-04-6.80854E-15
 -1      1692 2.45920E-03 5.23090E-05-6.35929E-15
 -1      1693 2.58849E-03 1.17770E-04-6.46664E-15
 -1      1694 2.29201E-03-5.21592E-05-6.27928E-15
 -1      1695 2.34890E-03-4.35424E-06-6.31392E-15
 -1      1696 2.27116E-03-1.56902E-04-6.25476E-15
 -1      1697 2.25942E-03-1.10802E-04-6.22506E-15
 -1      1698 2.40288E-03-2.73044E-04-6.46380E-15
 -1      1699 2.32820E-03-2.21585E-04-6.37544E-15
 -1      1700 2.67351E-03-4.10798E-04-6.75009E-15
 -1      1701 2.53131E-03-3.37935E-04-6.58629E-15
 -1      1702 3.00631E-03-5.88727E-04-7.18238E-15
 -1      1703 2.84738E-03-5.09849E-04-6.98526E-15
 -1      1704 3.38989E-03-7.74299E-04-7.69893E-15
 -1      1705 3.20650E-03-6.86617E-04-7.44499E-15
 -1      1706 3.79842E-03-9.48933E-04-8.31578E-15
 -1      1707 3.61295E-03-8.70331E-04-8.01580E-15
 -1      1708 4.22965E-03-1.08671E-03-9.05829E-15
 -1      1709 4.03773E-03-1.03145E-03-8.69598E-15
 -1      1710 4.63216E-03-1.12477E-03-9.86995E-15
 -1      1711 4.44782E-03-1.11800E-03-9.50290E-15
 -1      1712 5.02278E-03-1.07138E-03-1.06412E-14
 -1      1713 4.84538E-03-1.10557E-03-1.02913E-14
 -1      1714 5.40597E-03-9.50566E-04-1.13711E-14
 -1      1715 5.22942E-03-1.01371E-03-1.10419E-14
 -1      1716 5.79905E-03-7.83727E-04-1.20582E-14
 -1      1717 5.61657E-03-8.65411E-04-1.17483E-14
 -1      1718 6.16670E-03-6.09041E-04-1.26370E-14
 -1      1719 6.00224E-03-6.88632E-04-1.23886E-14
 -1      1720 6.47161E-03-4.55840E-04-1.30675E-14
 -1      1721 6.34005E-03-5.23037E-04-1.28891E-14
 -1      1722 6.69180E-03-3.28660E-04-1.33475E-14
 -1      1723 6.60230E-03-3.84433E-04-1.32389E-14
 -1      1724 6.79486E-03-2.17247E-04-1.34919E-14
 -1      1725 6.76417E-03-2.63997E-04-1.34756E-14
 -1      1726 5.68371E-03 3.46533E-04-1.19553E-14
 -1      1727 6.09657E-03 1.42761E-04-1.26977E-14
 -1      1728 1.48490E-02-3.49199E-04-1.12148E-13
 -1      1729 1.47322E-02-3.58072E-04-1.10561E-13
 -1      1730 6.71033E-03-1.25324E-04-1.37102E-14
 -1      1731 6.45914E-03-2.62594E-05-1.33606E-14
 -1      1732 6.80210E-03-1.95648E-04-1.38430E-14
 -1      1733 5.28836E-03 5.55505E-04-1.11130E-14
 -1      1734 4.91843E-03 7.18931E-04-1.02197E-14
 -1      1735 4.55536E-03 7.94819E-04-9.36631E-15
 -1      1736 4.19588E-03 7.69843E-04-8.56056E-15
 -1      1737 3.83107E-03 6.46649E-04-7.80528E-15
 -1      1738 3.44152E-03 4.62426E-04-7.20013E-15
 -1      1739 3.04211E-03 2.79447E-04-6.75873E-15
 -1      1740 2.69271E-03 1.07573E-04-6.37451E-15
 -1      1741 2.41270E-03-1.30560E-05-6.15103E-15
 -1      1742 2.26529E-03-9.64651E-05-6.05475E-15
 -1      1743 2.29104E-03-1.60539E-04-6.11735E-15
 -1      1744 2.48255E-03-2.58445E-04-6.35285E-15
 -1      1745 2.79296E-03-3.98611E-04-6.69510E-15
 -1      1746 3.16684E-03-5.91028E-04-7.17948E-15
 -1      1747 3.56930E-03-7.97169E-04-7.74584E-15
 -1      1748 3.98361E-03-9.94483E-04-8.43049E-15
 -1      1749 4.35936E-03-1.12650E-03-9.24586E-15
 -1      1750 4.72261E-03-1.14122E-03-1.01124E-14
 -1      1751 5.08197E-03-1.05371E-03-1.09410E-14
 -1      1752 5.45367E-03-8.93789E-04-1.17298E-14
 -1      1753 5.84185E-03-6.99038E-04-1.24515E-14
 -1      1754 6.21117E-03-5.15383E-04-1.30500E-14
 -1      1755 6.51996E-03-3.71738E-04-1.34876E-14
 -1      1756 6.73150E-03-2.65711E-04-1.37954E-14
 -1      1757 2.99144E-04-1.59615E-04-3.76760E-17
 -1      1758 3.40338E-04-8.23882E-05-1.22745E-16
 -1      1759 3.48528E-04-9.93686E-05-1.15264E-16
 -1      1760 3.58107E-04-1.19899E-04-1.06049E-16
 -1      1761 3.70467E-04-1.44293E-04-9.30110E-17
 -1      1762 4.77815E-04-1.45884E-04-1.67577E-16
 -1      1763 3.15926E-04-3.70982E-05-1.37409E-16
 -1      1764 3.20954E-04-4.56138E-05-1.35430E-16
 -1      1765 3.07776E-04-2.34059E-05-1.38846E-16
 -1      1766 3.11486E-04-2.96764E-05-1.38480E-16
 -1      1767 4.20963E-04-4.62862E-05-2.03532E-16
 -1      1768 3.02703E-04-1.31712E-05-1.37639E-16
 -1      1769 3.04833E-04-1.79550E-05-1.38520E-16
 -1      1770 4.10327E-04-2.89023E-05-2.04494E-16
 -1      1771 3.00956E-04-4.55319E-06-1.34915E-16
 -1      1772 3.01409E-04-8.76132E-06-1.36488E-16
 -1      1773 4.04265E-04-1.53068E-05-2.02312E-16
 -1      1774 3.02522E-04 4.23826E-06-1.30538E-16
 -1      1775 3.01339E-04-2.74785E-07-1.33113E-16
 -1      1776 4.03037E-04-3.16814E-06-1.97935E-16
 -1      1777 3.07115E-04 1.48597E-05-1.24033E-16
 -1      1778 3.04470E-04 9.23858E-06-1.27556E-16
 -1      1779 4.06508E-04 9.76094E-06-1.90860E-16
 -1      1780 3.14138E-04 2.85067E-05-1.15332E-16
 -1      1781 3.10347E-04 2.12249E-05-1.20238E-16
 -1      1782 4.14092E-04 2.53765E-05-1.81008E-16
 -1      1783 3.23398E-04 4.69785E-05-1.03650E-16
 -1      1784 3.18518E-04 3.71167E-05-1.10060E-16
 -1      1785 4.25130E-04 4.55425E-05-1.67970E-16
 -1      1786 3.34664E-04 7.15890E-05-8.77120E-17
 -1      1787 3.28762E-04 5.84688E-05-9.65211E-17
 -1      1788 4.39220E-04 7.21703E-05-1.50298E-16
 -1      1789 3.48728E-04 1.04712E-04-6.56484E-17
 -1      1790 3.41208E-04 8.70047E-05-7.79406E-17
 -1      1791 4.56325E-04 1.07117E-04-1.26743E-16
 -1      1792 3.69672E-04 1.51372E-04-3.48842E-17
 -1      1793 3.57945E-04 1.26126E-04-5.17029E-17
 -1      1794 4.78334E-04 1.53649E-04-9.44476E-17
 -1      1795 4.28209E-04 2.09319E-04-1.07472E-17
 -1      1796 3.97347E-04 1.76984E-04-2.58311E-17
 -1      1797 5.21391E-04 2.08970E-04-6.41712E-17
 -1      1798 5.88180E-04 2.69123E-04-3.73372E-17
 -1      1799 3.59053E-04-1.66400E-04-6.70444E-17
 -1      1800 9.04239E-04 3.58760E-04-1.51056E-16
 -1      1801 7.46765E-04 3.17932E-04-8.40257E-17
 -1      1802 7.10566E-04 2.86255E-04-1.01373E-16
 -1      1803 4.85242E-04-2.01499E-04-1.20929E-16
 -1      1804 8.58520E-04-3.17651E-04-3.27321E-16
 -1      1805 1.01631E-03-3.51430E-04-4.59065E-16
 -1      1806 1.17300E-03-3.80428E-04-6.15149E-16
 -1      1807 1.33001E-03-4.05562E-04-7.96089E-16
 -1      1808 1.06622E-03-3.27989E-04-5.64043E-16
 -1      1809 1.48732E-03-4.28649E-04-1.00129E-15
 -1      1810 1.64561E-03-4.50351E-04-1.23156E-15
 -1      1811 1.37753E-03-3.77874E-04-9.29920E-16
 -1      1812 1.80514E-03-4.72202E-04-1.48655E-15
 -1      1813 1.96616E-03-4.94975E-04-1.76606E-15
 -1      1814 1.69097E-03-4.20601E-04-1.39315E-15
 -1      1815 2.12900E-03-5.20093E-04-2.07058E-15
 -1      1816 2.29352E-03-5.48453E-04-2.40018E-15
 -1      1817 2.00909E-03-4.64972E-04-1.95440E-15
 -1      1818 2.46020E-03-5.81393E-04-2.75501E-15
 -1      1819 2.62835E-03-6.19854E-04-3.13477E-15
 -1      1820 2.33400E-03-5.19978E-04-2.61396E-15
 -1      1821 2.79869E-03-6.64864E-04-3.54008E-15
 -1      1822 2.96983E-03-7.17134E-04-3.97111E-15
 -1      1823 2.66723E-03-5.94743E-04-3.37252E-15
 -1      1824 3.14269E-03-7.76897E-04-4.42869E-15
 -1      1825 3.31516E-03-8.44019E-04-4.91241E-15
 -1      1826 3.00918E-03-6.97181E-04-4.23262E-15
 -1      1827 3.48807E-03-9.17275E-04-5.42302E-15
 -1      1828 3.65905E-03-9.94815E-04-5.96060E-15
 -1      1829 3.35796E-03-8.30529E-04-5.19640E-15
 -1      1830 3.82841E-03-1.07350E-03-6.52634E-15
 -1      1831 3.99466E-03-1.14924E-03-7.12127E-15
 -1      1832 3.70803E-03-9.87370E-04-6.26762E-15
 -1      1833 4.15727E-03-1.21750E-03-7.74584E-15
 -1      1834 4.31718E-03-1.27296E-03-8.40010E-15
 -1      1835 4.05094E-03-1.14360E-03-7.45266E-15
 -1      1836 4.47309E-03-1.31157E-03-9.08431E-15
 -1      1837 4.62904E-03-1.33010E-03-9.79933E-15
 -1      1838 4.38066E-03-1.25968E-03-8.75690E-15
 -1      1839 4.78340E-03-1.32744E-03-1.05444E-14
 -1      1840 4.94094E-03-1.30463E-03-1.13200E-14
 -1      1841 4.70116E-03-1.29812E-03-1.01830E-14
 -1      1842 5.10014E-03-1.26442E-03-1.21239E-14
 -1      1843 5.26376E-03-1.21142E-03-1.29575E-14
 -1      1844 5.02519E-03-1.24893E-03-1.17316E-14
 -1      1845 5.43080E-03-1.15033E-03-1.38211E-14
 -1      1846 5.60096E-03-1.08622E-03-1.47104E-14
 -1      1847 5.36240E-03-1.13740E-03-1.33999E-14
 -1      1848 5.77410E-03-1.02327E-03-1.56266E-14
 -1      1849 5.94813E-03-9.64720E-04-1.65706E-14
 -1      1850 5.71178E-03-1.00553E-03-1.51799E-14
 -1      1851 6.12361E-03-9.12953E-04-1.75435E-14
 -1      1852 6.29822E-03-8.69027E-04-1.85420E-14
 -1      1853 6.06520E-03-8.87893E-04-1.70686E-14
 -1      1854 6.47280E-03-8.33596E-04-1.95672E-14
 -1      1855 6.64556E-03-8.06435E-04-2.06195E-14
 -1      1856 6.41500E-03-8.01588E-04-1.90666E-14
 -1      1857 6.81726E-03-7.87094E-04-2.16988E-14
 -1      1858 6.98684E-03-7.74831E-04-2.28054E-14
 -1      1859 6.75715E-03-7.49457E-04-2.11694E-14
 -1      1860 7.15477E-03-7.68733E-04-2.39383E-14
 -1      1861 7.32061E-03-7.68008E-04-2.50974E-14
 -1      1862 7.09059E-03-7.26936E-04-2.33805E-14
 -1      1863 7.48458E-03-7.71696E-04-2.62809E-14
 -1      1864 7.64661E-03-7.79123E-04-2.74887E-14
 -1      1865 7.41579E-03-7.27052E-04-2.56937E-14
 -1      1866 7.80679E-03-7.89481E-04-2.87228E-14
 -1      1867 7.96525E-03-8.02251E-04-2.99807E-14
 -1      1868 7.73369E-03-7.43064E-04-2.81092E-14
 -1      1869 8.12200E-03-8.16831E-04-3.12611E-14
 -1      1870 8.27728E-03-8.32839E-04-3.25637E-14
 -1      1871 8.04531E-03-7.69456E-04-3.06203E-14
 -1      1872 8.43106E-03-8.49864E-04-3.38901E-14
 -1      1873 8.58361E-03-8.67635E-04-3.52368E-14
 -1      1874 8.35158E-03-8.02109E-04-3.32224E-14
 -1      1875 8.73489E-03-8.85891E-04-3.66049E-14
 -1      1876 8.88516E-03-9.04443E-04-3.79952E-14
 -1      1877 8.65339E-03-8.38138E-04-3.59136E-14
 -1      1878 9.03439E-03-9.23137E-04-3.94061E-14
 -1      1879 9.18281E-03-9.41847E-04-4.08387E-14
 -1      1880 8.95150E-03-8.75618E-04-3.86881E-14
 -1      1881 9.33040E-03-9.60491E-04-4.22942E-14
 -1      1882 9.47735E-03-9.78987E-04-4.37715E-14
 -1      1883 9.24662E-03-9.13329E-04-4.15511E-14
 -1      1884 9.62365E-03-9.97302E-04-4.52679E-14
 -1      1885 9.76945E-03-1.01538E-03-4.67840E-14
 -1      1886 9.53933E-03-9.50547E-04-4.44992E-14
 -1      1887 9.91475E-03-1.03323E-03-4.83211E-14
 -1      1888 1.00597E-02-1.05080E-03-4.98748E-14
 -1      1889 9.83015E-03-9.86883E-04-4.75271E-14
 -1      1890 1.02042E-02-1.06813E-03-5.14508E-14
 -1      1891 1.03485E-02-1.08518E-03-5.30433E-14
 -1      1892 1.01195E-02-1.02217E-03-5.06342E-14
 -1      1893 1.04925E-02-1.10199E-03-5.46524E-14
 -1      1894 1.06362E-02-1.11854E-03-5.62820E-14
 -1      1895 1.04078E-02-1.05637E-03-5.38154E-14
 -1      1896 1.07798E-02-1.13487E-03-5.79284E-14
 -1      1897 1.09232E-02-1.15097E-03-5.95930E-14
 -1      1898 1.06952E-02-1.08955E-03-5.70687E-14
 -1      1899 1.10665E-02-1.16686E-03-6.12757E-14
 -1      1900 1.12097E-02-1.18257E-03-6.29738E-14
 -1      1901 1.09820E-02-1.12180E-03-6.03921E-14
 -1      1902 1.13528E-02-1.19810E-03-6.46903E-14
 -1      1903 1.14958E-02-1.21346E-03-6.64238E-14
 -1      1904 1.12683E-02-1.15324E-03-6.37868E-14
 -1      1905 1.16387E-02-1.22868E-03-6.81714E-14
 -1      1906 1.17816E-02-1.24377E-03-6.99327E-14
 -1      1907 1.15544E-02-1.18399E-03-6.72475E-14
 -1      1908 1.19245E-02-1.25874E-03-7.17084E-14
 -1      1909 1.20673E-02-1.27359E-03-7.34965E-14
 -1      1910 1.18403E-02-1.21418E-03-7.07674E-14
 -1      1911 1.22101E-02-1.28836E-03-7.52971E-14
 -1      1912 1.23529E-02-1.30303E-03-7.71116E-14
 -1      1913 1.21260E-02-1.24390E-03-7.43421E-14
 -1      1914 1.24957E-02-1.31764E-03-7.89402E-14
 -1      1915 1.26384E-02-1.33217E-03-8.07767E-14
 -1      1916 1.24117E-02-1.27326E-03-7.79671E-14
 -1      1917 1.27812E-02-1.34665E-03-8.26258E-14
 -1      1918 1.29240E-02-1.36108E-03-8.44878E-14
 -1      1919 1.26973E-02-1.30233E-03-8.16407E-14
 -1      1920 1.30668E-02-1.37547E-03-8.63610E-14
 -1      1921 1.32095E-02-1.38981E-03-8.82459E-14
 -1      1922 1.29829E-02-1.33119E-03-8.53586E-14
 -1      1923 1.33523E-02-1.40413E-03-9.01408E-14
 -1      1924 1.34951E-02-1.41842E-03-9.20453E-14
 -1      1925 1.32685E-02-1.35988E-03-8.91241E-14
 -1      1926 1.36379E-02-1.43269E-03-9.39654E-14
 -1      1927 1.37807E-02-1.44694E-03-9.58903E-14
 -1      1928 1.35541E-02-1.38846E-03-9.29304E-14
 -1      1929 1.39235E-02-1.46118E-03-9.78220E-14
 -1      1930 1.40663E-02-1.47541E-03-9.97665E-14
 -1      1931 1.38397E-02-1.41696E-03-9.67780E-14
 -1      1932 1.42091E-02-1.48963E-03-1.01714E-13
 -1      1933 1.43519E-02-1.50385E-03-1.03665E-13
 -1      1934 1.41253E-02-1.44542E-03-1.00653E-13
 -1      1935 1.44948E-02-1.51807E-03-1.05621E-13
 -1      1936 1.46376E-02-1.53229E-03-1.07580E-13
 -1      1937 1.44110E-02-1.47385E-03-1.04554E-13
 -1      1938 1.47662E-02-1.54671E-03-1.09341E-13
 -1      1939 1.49090E-02-1.56094E-03-1.11304E-13
 -1      1940 1.49395E-02-1.53133E-03-1.11792E-13
 -1      1941 1.46824E-02-1.50248E-03-1.08268E-13
 -1      1942 1.21489E-03 4.22820E-04-3.46348E-16
 -1      1943 1.05972E-03 3.93158E-04-2.37915E-16
 -1      1944 1.02294E-03 3.61979E-04-2.58935E-16
 -1      1945 1.52450E-03 4.73634E-04-6.29691E-16
 -1      1946 1.36947E-03 4.49366E-04-4.76886E-16
 -1      1947 1.33281E-03 4.18617E-04-5.00671E-16
 -1      1948 1.83624E-03 5.20046E-04-1.00415E-15
 -1      1949 1.67994E-03 4.96996E-04-8.05196E-16
 -1      1950 1.64298E-03 4.66071E-04-8.31353E-16
 -1      1951 2.15150E-03 5.69266E-04-1.47301E-15
 -1      1952 1.99341E-03 5.43984E-04-1.22641E-15
 -1      1953 1.95568E-03 5.12317E-04-1.25383E-15
 -1      1954 2.47012E-03 6.27279E-04-2.03894E-15
 -1      1955 2.31051E-03 5.96950E-04-1.74364E-15
 -1      1956 2.27188E-03 5.64147E-04-1.77115E-15
 -1      1957 2.79050E-03 6.98178E-04-2.70561E-15
 -1      1958 2.63034E-03 6.61069E-04-2.35962E-15
 -1      1959 2.59130E-03 6.27016E-04-2.38675E-15
 -1      1960 3.10972E-03 7.82597E-04-3.47732E-15
 -1      1961 2.95061E-03 7.38933E-04-3.07800E-15
 -1      1962 2.91237E-03 7.03955E-04-3.10384E-15
 -1      1963 3.42409E-03 8.75714E-04-4.35620E-15
 -1      1964 3.26789E-03 8.28677E-04-3.90283E-15
 -1      1965 3.23223E-03 7.93685E-04-3.92640E-15
 -1      1966 3.73011E-03 9.65910E-04-5.34594E-15
 -1      1967 3.57839E-03 9.22130E-04-4.83718E-15
 -1      1968 3.54725E-03 8.88565E-04-4.85786E-15
 -1      1969 4.02624E-03 1.03595E-03-6.45243E-15
 -1      1970 3.87936E-03 1.00451E-03-5.88434E-15
 -1      1971 3.85420E-03 9.73899E-04-5.90215E-15
 -1      1972 4.31441E-03 1.06787E-03-7.67907E-15
 -1      1973 4.17088E-03 1.05741E-03-7.05000E-15
 -1      1974 4.15229E-03 1.03061E-03-7.06367E-15
 -1      1975 4.60018E-03 1.05048E-03-9.03090E-15
 -1      1976 4.45694E-03 1.06538E-03-8.33930E-15
 -1      1977 4.44468E-03 1.04200E-03-8.34819E-15
 -1      1978 4.89038E-03 9.84910E-04-1.05071E-14
 -1      1979 4.74410E-03 1.02303E-03-9.75352E-15
 -1      1980 4.73762E-03 1.00158E-03-9.75913E-15
 -1      1981 5.19018E-03 8.84070E-04-1.21061E-14
 -1      1982 5.03877E-03 9.37776E-04-1.12915E-14
 -1      1983 5.03735E-03 9.16562E-04-1.12934E-14
 -1      1984 5.50097E-03 7.66817E-04-1.38206E-14
 -1      1985 5.34423E-03 8.26424E-04-1.29492E-14
 -1      1986 5.34693E-03 8.04253E-04-1.29471E-14
 -1      1987 5.82084E-03 6.50501E-04-1.56507E-14
 -1      1988 5.66004E-03 7.07812E-04-1.47214E-14
 -1      1989 5.66548E-03 6.84282E-04-1.47158E-14
 -1      1990 6.14613E-03 5.46699E-04-1.75951E-14
 -1      1991 5.98316E-03 5.96709E-04-1.66087E-14
 -1      1992 5.98970E-03 5.71942E-04-1.65995E-14
 -1      1993 6.47303E-03 4.60535E-04-1.96520E-14
 -1      1994 6.30970E-03 5.01390E-04-1.86094E-14
 -1      1995 6.31581E-03 4.75725E-04-1.85967E-14
 -1      1996 6.79845E-03 3.92291E-04-2.18205E-14
 -1      1997 6.63616E-03 4.24321E-04-2.07225E-14
 -1      1998 6.64072E-03 3.98107E-04-2.07056E-14
 -1      1999 7.12032E-03 3.39533E-04-2.40930E-14
 -1      2000 6.95997E-03 3.64186E-04-2.29443E-14
 -1      2001 6.96237E-03 3.37709E-04-2.29220E-14
 -1      2002 7.43753E-03 2.98803E-04-2.64691E-14
 -1      2003 7.27957E-03 3.17872E-04-2.52694E-14
 -1      2004 7.27966E-03 2.91340E-04-2.52425E-14
 -1      2005 7.74970E-03 2.66661E-04-2.89443E-14
 -1      2006 7.59426E-03 2.81834E-04-2.76937E-14
 -1      2007 7.59220E-03 2.55391E-04-2.76609E-14
 -1      2008 8.05697E-03 2.40170E-04-3.15118E-14
 -1      2009 7.90393E-03 2.52844E-04-3.02160E-14
 -1      2010 7.90004E-03 2.26579E-04-3.01768E-14
 -1      2011 8.35978E-03 2.17048E-04-3.41772E-14
 -1      2012 8.20890E-03 2.28284E-04-3.28328E-14
 -1      2013 8.20357E-03 2.02246E-04-3.27879E-14
 -1      2014 8.65871E-03 1.95637E-04-3.69333E-14
 -1      2015 8.50968E-03 2.06194E-04-3.55436E-14
 -1      2016 8.50328E-03 1.80398E-04-3.54943E-14
 -1      2017 8.95440E-03 1.74804E-04-3.97784E-14
 -1      2018 8.80692E-03 1.85190E-04-3.83459E-14
 -1      2019 8.79975E-03 1.59632E-04-3.82902E-14
 -1      2020 9.24745E-03 1.53824E-04-4.26971E-14
 -1      2021 9.10121E-03 1.64357E-04-4.12283E-14
 -1      2022 9.09354E-03 1.39020E-04-4.11681E-14
 -1      2023 9.53842E-03 1.32268E-04-4.57012E-14
 -1      2024 9.39316E-03 1.43130E-04-4.41889E-14
 -1      2025 9.38519E-03 1.17989E-04-4.41261E-14
 -1      2026 9.82779E-03 1.09918E-04-4.87812E-14
 -1      2027 9.68327E-03 1.21196E-04-4.72319E-14
 -1      2028 9.67514E-03 9.62226E-05-4.71626E-14
 -1      2029 1.01159E-02 8.66969E-05-5.19398E-14
 -1      2030 9.97199E-03 9.84153E-05-5.03512E-14
 -1      2031 9.96379E-03 7.35815E-05-5.02775E-14
 -1      2032 1.04032E-02 6.26155E-05-5.51762E-14
 -1      2033 1.02597E-02 7.47596E-05-5.35473E-14
 -1      2034 1.02515E-02 5.00396E-05-5.34699E-14
 -1      2035 1.06898E-02 3.77380E-05-5.84948E-14
 -1      2036 1.05466E-02 5.02706E-05-5.68270E-14
 -1      2037 1.05384E-02 2.56413E-05-5.67448E-14
 -1      2038 1.09760E-02 1.21553E-05-6.18855E-14
 -1      2039 1.08329E-02 2.50287E-05-6.01821E-14
 -1      2040 1.08248E-02 4.70210E-07-6.00934E-14
 -1      2041 1.12619E-02-1.40314E-05-6.53454E-14
 -1      2042 1.11189E-02-8.68532E-07-6.36060E-14
 -1      2043 1.11109E-02-2.53728E-05-6.35133E-14
 -1      2044 1.15475E-02-4.07218E-05-6.88680E-14
 -1      2045 1.14047E-02-2.73192E-05-6.71007E-14
 -1      2046 1.13968E-02-5.17830E-05-6.69991E-14
 -1      2047 1.18331E-02-6.78224E-05-7.24472E-14
 -1      2048 1.16903E-02-5.42258E-05-7.06505E-14
 -1      2049 1.16825E-02-7.86598E-05-7.05443E-14
 -1      2050 1.21186E-02-9.52497E-05-7.60798E-14
 -1      2051 1.19759E-02-8.14995E-05-7.42577E-14
 -1      2052 1.19681E-02-1.05912E-04-7.41464E-14
 -1      2053 1.24041E-02-1.22932E-04-7.97549E-14
 -1      2054 1.22614E-02-1.09062E-04-7.79127E-14
 -1      2055 1.22536E-02-1.33461E-04-7.77959E-14
 -1      2056 1.26897E-02-1.50807E-04-8.34659E-14
 -1      2057 1.25469E-02-1.36848E-04-8.16055E-14
 -1      2058 1.25392E-02-1.61237E-04-8.14882E-14
 -1      2059 1.29752E-02-1.78826E-04-8.72011E-14
 -1      2060 1.28324E-02-1.64801E-04-8.53310E-14
 -1      2061 1.28247E-02-1.89184E-04-8.52102E-14
 -1      2062 1.32607E-02-2.06945E-04-9.09515E-14
 -1      2063 1.31180E-02-1.92875E-04-8.90757E-14
 -1      2064 1.31103E-02-2.17255E-04-8.89548E-14
 -1      2065 1.35463E-02-2.35131E-04-9.47254E-14
 -1      2066 1.34035E-02-2.21032E-04-9.28370E-14
 -1      2067 1.33959E-02-2.45411E-04-9.27154E-14
 -1      2068 1.38320E-02-2.63354E-04-9.85202E-14
 -1      2069 1.36891E-02-2.49239E-04-9.66184E-14
 -1      2070 1.36815E-02-2.73620E-04-9.64956E-14
 -1      2071 1.41176E-02-2.91588E-04-1.02335E-13
 -1      2072 1.39748E-02-2.77471E-04-1.00426E-13
 -1      2073 1.39672E-02-3.01853E-04-1.00298E-13
 -1      2074 1.44033E-02-3.19815E-04-1.06157E-13
 -1      2075 1.42604E-02-3.05704E-04-1.04246E-13
 -1      2076 1.42528E-02-3.30090E-04-1.04118E-13
 -1      2077 1.46392E-02-3.45997E-04-1.09318E-13
 -1      2078 1.44963E-02-3.31897E-04-1.07402E-13
 -1      2079 1.44887E-02-3.56286E-04-1.07274E-13
 -1      2080 1.46748E-02-3.80445E-04-1.09761E-13
 -1      2081 1.47202E-02-6.12204E-04-1.10116E-13
 -1      2082 1.47064E-02-5.70031E-04-1.09977E-13
 -1      2083 1.46925E-02-5.27863E-04-1.09836E-13
 -1      2084 1.46787E-02-4.85700E-04-1.09698E-13
 -1      2085 1.45757E-02-5.36727E-04-1.08252E-13
 -1      2086 1.46837E-02-4.54147E-04-1.09801E-13
 -1      2087 1.46699E-02-4.11992E-04-1.09658E-13
 -1      2088 1.45768E-02-3.99913E-04-1.08415E-13
 -1      2089 1.45669E-02-4.63011E-04-1.08212E-13
 -1      2090 1.47474E-02-6.95136E-04-1.10386E-13
 -1      2091 1.47338E-02-6.53668E-04-1.10252E-13
 -1      2092 1.46031E-02-6.20353E-04-1.08531E-13
 -1      2093 1.47751E-02-7.79515E-04-1.10662E-13
 -1      2094 1.47612E-02-7.37324E-04-1.10523E-13
 -1      2095 1.46306E-02-7.03996E-04-1.08804E-13
 -1      2096 1.48028E-02-8.63908E-04-1.10940E-13
 -1      2097 1.47890E-02-8.21710E-04-1.10800E-13
 -1      2098 1.46583E-02-7.88368E-04-1.09080E-13
 -1      2099 1.48307E-02-9.48309E-04-1.11225E-13
 -1      2100 1.48167E-02-9.06108E-04-1.11081E-13
 -1      2101 1.46861E-02-8.72751E-04-1.09356E-13
 -1      2102 1.48585E-02-1.03271E-03-1.11509E-13
 -1      2103 1.48446E-02-9.90510E-04-1.11368E-13
 -1      2104 1.47139E-02-9.57139E-04-1.09635E-13
 -1      2105 1.48865E-02-1.11711E-03-1.11780E-13
 -1      2106 1.48725E-02-1.07491E-03-1.11647E-13
 -1      2107 1.47418E-02-1.04153E-03-1.09908E-13
 -1      2108 1.49140E-02-1.20006E-03-1.12038E-13
 -1      2109 1.49002E-02-1.15859E-03-1.11909E-13
 -1      2110 1.47695E-02-1.12520E-03-1.10170E-13
 -1      2111 1.49421E-02-1.28444E-03-1.12297E-13
 -1      2112 1.49280E-02-1.24225E-03-1.12168E-13
 -1      2113 1.47973E-02-1.20885E-03-1.10420E-13
 -1      2114 1.49701E-02-1.36879E-03-1.12539E-13
 -1      2115 1.49561E-02-1.32661E-03-1.12418E-13
 -1      2116 1.48254E-02-1.29321E-03-1.10665E-13
 -1      2117 1.49982E-02-1.45312E-03-1.12768E-13
 -1      2118 1.49842E-02-1.41096E-03-1.12656E-13
 -1      2119 1.48534E-02-1.37755E-03-1.10899E-13
 -1      2120 6.35646E-03-3.02616E-05-1.36250E-14
 -1      2121 6.51783E-03-9.10089E-05-1.39297E-14
 -1      2122 6.80112E-03-1.87903E-04-1.42436E-14
 -1      2123 6.80754E-03-2.05382E-04-1.43273E-14
 -1      2124 6.67069E-03-1.41063E-04-1.41331E-14
 -1      2125 6.75553E-03-1.63888E-04-1.41861E-14
 -1      2126 6.78617E-03-1.85446E-04-1.46676E-14
 -1      2127 5.96265E-03 1.56297E-04-1.28114E-14
 -1      2128 6.15291E-03 6.34126E-05-1.31831E-14
 -1      2129 5.55766E-03 3.67150E-04-1.20333E-14
 -1      2130 5.75438E-03 2.60094E-04-1.24206E-14
 -1      2131 3.26674E-04-5.59014E-05-1.32354E-16
 -1      2132 3.33077E-04-6.79694E-05-1.28071E-16
 -1      2133 4.54195E-04-1.01802E-04-1.86754E-16
 -1      2134 4.35644E-04-6.97377E-05-1.97962E-16
 -1      2135 4.80073E-03 7.62213E-04-1.00513E-14
 -1      2136 4.95744E-03 6.97245E-04-1.04873E-14
 -1      2137 4.47268E-03 8.21459E-04-9.14286E-15
 -1      2138 4.62108E-03 8.07627E-04-9.56169E-15
 -1      2139 4.14440E-03 7.64194E-04-8.30886E-15
 -1      2140 4.29692E-03 8.04690E-04-8.69246E-15
 -1      2141 3.79885E-03 6.11078E-04-7.52794E-15
 -1      2142 3.96674E-03 6.96953E-04-7.89150E-15
 -1      2143 3.35951E-03 3.79581E-04-6.86471E-15
 -1      2144 3.54997E-03 4.78932E-04-7.09757E-15
 -1      2145 2.99183E-03 2.04125E-04-6.48835E-15
 -1      2146 3.16700E-03 2.90631E-04-6.68232E-15
 -1      2147 2.65155E-03 4.23112E-05-6.07867E-15
 -1      2148 2.81579E-03 1.14273E-04-6.25722E-15
 -1      2149 2.35409E-03-6.11289E-05-5.89139E-15
 -1      2150 2.46330E-03-2.87317E-05-5.92929E-15
 -1      2151 2.24833E-03-1.08460E-04-5.77981E-15
 -1      2152 2.28249E-03-9.10407E-05-5.83381E-15
 -1      2153 2.30822E-03-8.53625E-05-5.61393E-15
 -1      2154 2.33040E-03-1.61290E-04-5.97754E-15
 -1      2155 2.26883E-03-1.35535E-04-5.86206E-15
 -1      2156 2.55279E-03-2.40343E-04-6.19375E-15
 -1      2157 2.42349E-03-1.97807E-04-6.08291E-15
 -1      2158 2.37545E-03-1.61758E-04-5.82117E-15
 -1      2159 2.92010E-03-4.05930E-04-6.64301E-15
 -1      2160 2.74483E-03-3.22677E-04-6.42084E-15
 -1      2161 3.30486E-03-6.06278E-04-7.14912E-15
 -1      2162 3.11808E-03-5.06309E-04-6.89931E-15
 -1      2163 3.70541E-03-8.27841E-04-7.75302E-15
 -1      2164 3.51757E-03-7.19972E-04-7.44882E-15
 -1      2165 4.09106E-03-1.03141E-03-8.46870E-15
 -1      2166 3.91429E-03-9.36721E-04-8.10029E-15
 -1      2167 4.47323E-03-1.16213E-03-9.48514E-15
 -1      2168 4.31622E-03-1.12393E-03-9.04309E-15
 -1      2169 4.79741E-03-1.14505E-03-1.03838E-14
 -1      2170 4.64521E-03-1.16709E-03-9.95886E-15
 -1      2171 5.13118E-03-1.02658E-03-1.12629E-14
 -1      2172 4.97393E-03-1.09451E-03-1.08540E-14
 -1      2173 5.49530E-03-8.34829E-04-1.21422E-14
 -1      2174 5.32191E-03-9.31716E-04-1.17522E-14
 -1      2175 5.88431E-03-6.18420E-04-1.29596E-14
 -1      2176 5.70192E-03-7.18416E-04-1.26126E-14
 -1      2177 6.26014E-03-4.36050E-04-1.35796E-14
 -1      2178 6.09247E-03-5.14848E-04-1.33115E-14
 -1      2179 6.57072E-03-3.12753E-04-1.39594E-14
 -1      2180 6.43784E-03-3.64503E-04-1.37772E-14
 -1      2181 6.76239E-03-2.34432E-04-1.43456E-14
 -1      2182 6.68495E-03-2.62867E-04-1.42113E-14
 -1      2183 5.14300E-03 6.07462E-04-1.09798E-14
 -1      2184 5.31577E-03 5.06134E-04-1.14440E-14
 -1      2185 5.41646E-03 4.29425E-04-1.18930E-14
 -1      2186 5.51748E-03 3.57864E-04-1.23512E-14
 -1      2187 5.29990E-03 4.91185E-04-1.17496E-14
 -1      2188 6.43820E-04-2.52616E-04-1.97542E-16
 -1      2189 5.02152E-03 6.58929E-04-1.08028E-14
 -1      2190 7.00128E-04-2.39735E-04-2.66334E-16
 -1      2191 6.59868E-03-1.31368E-04-1.43988E-14
 -1      2192 6.24721E-03-4.01009E-06-1.37379E-14
 -1      2193 1.49678E-02-1.48274E-03-1.12286E-13
 -1      2194 6.79530E-03-2.17531E-04-1.47431E-14
 -1      2195 5.84470E-03 1.87912E-04-1.28917E-14
 -1      2196 6.62953E-03-2.71907E-04-1.45026E-14
 -1      2197 6.34173E-03-3.80938E-04-1.40428E-14
 -1      2198 5.97277E-03-5.49867E-04-1.34760E-14
 -1      2199 5.58187E-03-7.66989E-04-1.26352E-14
 -1      2200 5.21202E-03-9.80503E-04-1.16612E-14
 -1      2201 4.87785E-03-1.12960E-03-1.06936E-14
 -1      2202 4.56696E-03-1.17728E-03-9.74489E-15
 -1      2203 4.21724E-03-1.08738E-03-8.69503E-15
 -1      2204 4.12562E-03-1.03943E-03-8.35427E-15
 -1      2205 4.31706E-03-1.13019E-03-8.92217E-15
 -1      2206 3.82713E-03-8.72872E-04-7.78991E-15
 -1      2207 3.43443E-03-6.46117E-04-7.15615E-15
 -1      2208 2.65123E-03-2.59591E-04-6.14121E-15
 -1      2209 2.24344E-03-1.17300E-04-5.63677E-15
 -1      2210 2.23388E-03-1.08139E-04-5.41625E-15
 -1      2211 2.25578E-03-1.19516E-04-5.49557E-15
 -1      2212 2.55343E-03-7.75368E-06-5.81252E-15
 -1      2213 2.91845E-03 1.40309E-04-6.18098E-15
 -1      2214 3.27578E-03 3.16327E-04-6.58473E-15
 -1      2215 3.68735E-03 5.42130E-04-7.17791E-15
 -1      2216 3.79650E-03 6.02024E-04-7.25455E-15
 -1      2217 3.57665E-03 4.74702E-04-6.83751E-15
 -1      2218 4.07391E-03 7.40293E-04-8.01510E-15
 -1      2219 4.69518E-03 7.96300E-04-9.81612E-15
 -1      2220 4.39131E-03 8.25735E-04-8.87747E-15
 -1      2221 3.03879E-03-4.33709E-04-6.61286E-15
 -1      2222 1.07445E-03 3.39211E-04-3.55984E-16
 -1      2223 9.19892E-04 3.07937E-04-2.50884E-16
 -1      2224 5.12913E-04-3.27250E-05-2.90133E-16
 -1      2225 5.18516E-04-4.23852E-05-2.90566E-16
 -1      2226 5.25683E-04-5.33743E-05-2.89807E-16
 -1      2227 5.34200E-04-6.59605E-05-2.87829E-16
 -1      2228 6.29598E-04-5.83246E-05-3.93281E-16
 -1      2229 5.06482E-04-2.41461E-08-2.79385E-16
 -1      2230 5.05658E-04-7.97171E-06-2.83275E-16
 -1      2231 5.12698E-04 1.74358E-05-2.68706E-16
 -1      2232 5.08875E-04 8.36359E-06-2.74601E-16
 -1      2233 6.11452E-04 5.01845E-06-3.76123E-16
 -1      2234 5.24062E-04 3.84655E-05-2.54571E-16
 -1      2235 5.17811E-04 2.73622E-05-2.62174E-16
 -1      2236 6.21213E-04 2.71725E-05-3.61297E-16
 -1      2237 5.40043E-04 6.58005E-05-2.35638E-16
 -1      2238 5.31581E-04 5.12930E-05-2.45856E-16
 -1      2239 6.37385E-04 5.44231E-05-3.41497E-16
 -1      2240 5.59886E-04 1.01039E-04-2.10349E-16
 -1      2241 5.49544E-04 8.23432E-05-2.23928E-16
 -1      2242 6.59004E-04 8.91962E-05-3.15557E-16
 -1      2243 5.83958E-04 1.46438E-04-1.77403E-16
 -1      2244 5.71401E-04 1.22339E-04-1.95224E-16
 -1      2245 6.85316E-04 1.33237E-04-2.81581E-16
 -1      2246 1.38285E-03 3.91626E-04-6.30260E-16
 -1      2247 1.22858E-03 3.66932E-04-4.81847E-16
 -1      2248 1.12603E-03 3.16224E-04-4.59254E-16
 -1      2249 9.62627E-04-2.77592E-04-5.11649E-16
 -1      2250 1.11603E-03-3.04768E-04-6.73018E-16
 -1      2251 4.93018E-03 7.04112E-04-1.06439E-14
 -1      2252 5.08509E-03 6.17375E-04-1.11428E-14
 -1      2253 1.26940E-03-3.28837E-04-8.57861E-16
 -1      2254 1.42338E-03-3.50461E-04-1.06695E-15
 -1      2255 1.16419E-03-2.81839E-04-7.85681E-16
 -1      2256 1.57787E-03-3.70978E-04-1.29996E-15
 -1      2257 1.73333E-03-3.91120E-04-1.55742E-15
 -1      2258 1.46682E-03-3.23531E-04-1.20718E-15
 -1      2259 1.89000E-03-4.12173E-04-1.83871E-15
 -1      2260 2.04814E-03-4.35055E-04-2.14421E-15
 -1      2261 1.77245E-03-3.62027E-04-1.72352E-15
 -1      2262 2.20828E-03-4.60973E-04-2.47384E-15
 -1      2263 2.37041E-03-4.91097E-04-2.82813E-15
 -1      2264 2.08346E-03-4.05139E-04-2.33529E-15
 -1      2265 2.53539E-03-5.26457E-04-3.20641E-15
 -1      2266 2.70276E-03-5.68427E-04-3.61020E-15
 -1      2267 2.40319E-03-4.61521E-04-3.04243E-15
 -1      2268 2.87373E-03-6.17607E-04-4.03871E-15
 -1      2269 3.04703E-03-6.75209E-04-4.49281E-15
 -1      2270 2.73565E-03-5.40600E-04-3.84762E-15
 -1      2271 3.22398E-03-7.40992E-04-4.97288E-15
 -1      2272 3.40215E-03-8.14899E-04-5.47887E-15
 -1      2273 3.08408E-03-6.51414E-04-4.75219E-15
 -1      2274 3.58239E-03-8.95229E-04-6.01208E-15
 -1      2275 3.76150E-03-9.78964E-04-6.57285E-15
 -1      2276 3.44772E-03-7.98519E-04-5.75992E-15
 -1      2277 3.93925E-03-1.06253E-03-7.16261E-15
 -1      2278 4.11366E-03-1.13889E-03-7.78190E-15
 -1      2279 3.81768E-03-9.72296E-04-6.87627E-15
 -1      2280 4.28327E-03-1.20353E-03-8.43176E-15
 -1      2281 4.45047E-03-1.24782E-03-9.11222E-15
 -1      2282 4.17860E-03-1.13740E-03-8.10917E-15
 -1      2283 4.61300E-03-1.26859E-03-9.82364E-15
 -1      2284 4.77809E-03-1.26409E-03-1.05668E-14
 -1      2285 4.52199E-03-1.23521E-03-9.46546E-15
 -1      2286 4.94341E-03-1.23514E-03-1.13413E-14
 -1      2287 5.11398E-03-1.18728E-03-1.21446E-14
 -1      2288 4.85963E-03-1.22288E-03-1.09492E-14
 -1      2289 5.28809E-03-1.12485E-03-1.29780E-14
 -1      2290 5.46589E-03-1.05642E-03-1.38423E-14
 -1      2291 5.21118E-03-1.11537E-03-1.25577E-14
 -1      2292 5.64647E-03-9.86444E-04-1.47327E-14
 -1      2293 5.82677E-03-9.20336E-04-1.56501E-14
 -1      2294 5.57892E-03-9.68138E-04-1.42839E-14
 -1      2295 6.00709E-03-8.60990E-04-1.65948E-14
 -1      2296 6.18456E-03-8.09954E-04-1.75677E-14
 -1      2297 5.94893E-03-8.32953E-04-1.61223E-14
 -1      2298 6.36023E-03-7.68324E-04-1.85665E-14
 -1      2299 6.53219E-03-7.35510E-04-1.95908E-14
 -1      2300 6.30769E-03-7.33621E-04-1.80667E-14
 -1      2301 6.70170E-03-7.11530E-04-2.06422E-14
 -1      2302 6.86790E-03-6.95079E-04-2.17201E-14
 -1      2303 6.65023E-03-6.72834E-04-2.01167E-14
 -1      2304 7.03177E-03-6.85613E-04-2.28239E-14
 -1      2305 7.19305E-03-6.81939E-04-2.39547E-14
 -1      2306 6.97780E-03-6.44385E-04-2.22709E-14
 -1      2307 7.35236E-03-6.83300E-04-2.51114E-14
 -1      2308 7.50975E-03-6.88788E-04-2.62914E-14
 -1      2309 7.29396E-03-6.40242E-04-2.45290E-14
 -1      2310 7.66552E-03-6.97663E-04-2.74980E-14
 -1      2311 7.81986E-03-7.09285E-04-2.87287E-14
 -1      2312 7.60208E-03-6.53232E-04-2.68891E-14
 -1      2313 7.97288E-03-7.23038E-04-2.99828E-14
 -1      2314 8.12481E-03-7.38485E-04-3.12598E-14
 -1      2315 7.90464E-03-6.77628E-04-2.93475E-14
 -1      2316 8.27565E-03-7.55165E-04-3.25587E-14
 -1      2317 8.42564E-03-7.72786E-04-3.38807E-14
 -1      2318 8.20327E-03-7.09135E-04-3.18976E-14
 -1      2319 8.57474E-03-7.91026E-04-3.52245E-14
 -1      2320 8.72316E-03-8.09692E-04-3.65890E-14
 -1      2321 8.49901E-03-7.44676E-04-3.45362E-14
 -1      2322 8.87085E-03-8.28578E-04-3.79745E-14
 -1      2323 9.01799E-03-8.47559E-04-3.93824E-14
 -1      2324 8.79252E-03-7.82141E-04-3.72627E-14
 -1      2325 9.16454E-03-8.66511E-04-4.08112E-14
 -1      2326 9.31066E-03-8.85355E-04-4.22631E-14
 -1      2327 9.08428E-03-8.20149E-04-4.00737E-14
 -1      2328 9.45629E-03-9.04028E-04-4.37358E-14
 -1      2329 9.60158E-03-9.22483E-04-4.52265E-14
 -1      2330 9.37463E-03-8.57844E-04-4.29716E-14
 -1      2331 9.74649E-03-9.40693E-04-4.67386E-14
 -1      2332 9.89113E-03-9.58634E-04-4.82691E-14
 -1      2333 9.66386E-03-8.94740E-04-4.59524E-14
 -1      2334 1.00355E-02-9.76304E-04-4.98195E-14
 -1      2335 1.01796E-02-9.93692E-04-5.13908E-14
 -1      2336 9.95220E-03-9.30602E-04-4.90094E-14
 -1      2337 1.03235E-02-1.01081E-03-5.29795E-14
 -1      2338 1.04673E-02-1.02766E-03-5.45859E-14
 -1      2339 1.02398E-02-9.65357E-04-5.21440E-14
 -1      2340 1.06108E-02-1.04426E-03-5.62098E-14
 -1      2341 1.07543E-02-1.06061E-03-5.78520E-14
 -1      2342 1.05269E-02-9.99034E-04-5.53535E-14
 -1      2343 1.08976E-02-1.07674E-03-5.95144E-14
 -1      2344 1.10409E-02-1.09265E-03-6.11910E-14
 -1      2345 1.08136E-02-1.03172E-03-5.86358E-14
 -1      2346 1.11840E-02-1.10838E-03-6.28858E-14
 -1      2347 1.13271E-02-1.12391E-03-6.45985E-14
 -1      2348 1.10999E-02-1.06353E-03-6.19877E-14
 -1      2349 1.14702E-02-1.13929E-03-6.63248E-14
 -1      2350 1.16132E-02-1.15451E-03-6.80690E-14
 -1      2351 1.13860E-02-1.09459E-03-6.54056E-14
 -1      2352 1.17561E-02-1.16960E-03-6.98296E-14
 -1      2353 1.18990E-02-1.18457E-03-7.16021E-14
 -1      2354 1.16720E-02-1.12503E-03-6.88910E-14
 -1      2355 1.20419E-02-1.19943E-03-7.33875E-14
 -1      2356 1.21848E-02-1.21419E-03-7.51855E-14
 -1      2357 1.19578E-02-1.15495E-03-7.24342E-14
 -1      2358 1.23276E-02-1.22887E-03-7.69965E-14
 -1      2359 1.24705E-02-1.24346E-03-7.88226E-14
 -1      2360 1.22436E-02-1.18446E-03-7.60297E-14
 -1      2361 1.26133E-02-1.25800E-03-8.06563E-14
 -1      2362 1.27561E-02-1.27247E-03-8.24999E-14
 -1      2363 1.25293E-02-1.21365E-03-7.96728E-14
 -1      2364 1.28989E-02-1.28690E-03-8.43600E-14
 -1      2365 1.30418E-02-1.30128E-03-8.62297E-14
 -1      2366 1.28150E-02-1.24260E-03-8.33609E-14
 -1      2367 1.31846E-02-1.31562E-03-8.81076E-14
 -1      2368 1.33274E-02-1.32993E-03-8.99986E-14
 -1      2369 1.31007E-02-1.27136E-03-8.70958E-14
 -1      2370 1.34702E-02-1.34422E-03-9.18996E-14
 -1      2371 1.36130E-02-1.35849E-03-9.38123E-14
 -1      2372 1.33863E-02-1.29998E-03-9.08717E-14
 -1      2373 1.37559E-02-1.37273E-03-9.57346E-14
 -1      2374 1.38987E-02-1.38697E-03-9.76606E-14
 -1      2375 1.36720E-02-1.32850E-03-9.46903E-14
 -1      2376 1.40415E-02-1.40119E-03-9.95977E-14
 -1      2377 1.41844E-02-1.41541E-03-1.01540E-13
 -1      2378 1.39577E-02-1.35697E-03-9.85430E-14
 -1      2379 1.43272E-02-1.42963E-03-1.03488E-13
 -1      2380 1.44700E-02-1.44384E-03-1.05441E-13
 -1      2381 1.42434E-02-1.38540E-03-1.02424E-13
 -1      2382 2.00477E-03 4.82799E-04-1.44801E-15
 -1      2383 1.84817E-03 4.59476E-04-1.20905E-15
 -1      2384 2.32114E-03 5.35586E-04-1.99778E-15
 -1      2385 2.16253E-03 5.07982E-04-1.71110E-15
 -1      2386 2.05265E-03 4.52924E-04-1.64763E-15
 -1      2387 2.64163E-03 6.00646E-04-2.64572E-15
 -1      2388 2.48107E-03 5.66345E-04-2.30926E-15
 -1      2389 2.36973E-03 5.06429E-04-2.22936E-15
 -1      2390 2.96512E-03 6.80660E-04-3.39510E-15
 -1      2391 2.80332E-03 6.38766E-04-3.00739E-15
 -1      2392 2.69245E-03 5.73467E-04-2.90886E-15
 -1      2393 3.28891E-03 7.73596E-04-4.24960E-15
 -1      2394 3.12739E-03 7.25888E-04-3.80840E-15
 -1      2395 3.01993E-03 6.56551E-04-3.68921E-15
 -1      2396 3.60902E-03 8.70376E-04-5.21293E-15
 -1      2397 3.44981E-03 8.22397E-04-4.71757E-15
 -1      2398 3.34920E-03 7.52998E-04-4.57596E-15
 -1      2399 3.92157E-03 9.54228E-04-6.29020E-15
 -1      2400 3.76634E-03 9.15242E-04-5.73676E-15
 -1      2401 3.67525E-03 8.52137E-04-5.57044E-15
 -1      2402 4.22549E-03 1.00419E-03-7.48616E-15
 -1      2403 4.07422E-03 9.84762E-04-6.87318E-15
 -1      2404 3.99318E-03 9.34505E-04-6.68028E-15
 -1      2405 4.52457E-03 1.00338E-03-8.80661E-15
 -1      2406 4.37484E-03 1.01069E-03-8.13058E-15
 -1      2407 4.30206E-03 9.76553E-04-7.91094E-15
 -1      2408 4.82580E-03 9.48419E-04-1.02519E-14
 -1      2409 4.67410E-03 9.82286E-04-9.51343E-15
 -1      2410 4.60704E-03 9.61870E-04-9.26578E-15
 -1      2411 5.13519E-03 8.50708E-04-1.18212E-14
 -1      2412 4.97912E-03 9.03630E-04-1.10209E-14
 -1      2413 4.91655E-03 8.90823E-04-1.07473E-14
 -1      2414 5.45393E-03 7.31206E-04-1.35085E-14
 -1      2415 5.29353E-03 7.92304E-04-1.26508E-14
 -1      2416 5.23573E-03 7.80520E-04-1.23518E-14
 -1      2417 5.77913E-03 6.10075E-04-1.53107E-14
 -1      2418 5.61613E-03 6.69826E-04-1.43953E-14
 -1      2419 5.56342E-03 6.55160E-04-1.40730E-14
 -1      2420 6.10647E-03 5.01000E-04-1.72273E-14
 -1      2421 5.94296E-03 5.53503E-04-1.62546E-14
 -1      2422 5.89462E-03 5.34639E-04-1.59094E-14
 -1      2423 6.43234E-03 4.10221E-04-1.92568E-14
 -1      2424 6.26992E-03 4.53194E-04-1.82287E-14
 -1      2425 6.22426E-03 4.30318E-04-1.78593E-14
 -1      2426 6.75452E-03 3.38401E-04-2.13963E-14
 -1      2427 6.59409E-03 3.72040E-04-2.03126E-14
 -1      2428 6.54917E-03 3.45895E-04-1.99200E-14
 -1      2429 7.07202E-03 2.83135E-04-2.36393E-14
 -1      2430 6.91395E-03 3.08897E-04-2.25054E-14
 -1      2431 6.86817E-03 2.80281E-04-2.20888E-14
 -1      2432 7.38465E-03 2.40832E-04-2.59850E-14
 -1      2433 7.22897E-03 2.60578E-04-2.47991E-14
 -1      2434 7.18133E-03 2.30199E-04-2.43594E-14
 -1      2435 7.69263E-03 2.07864E-04-2.84287E-14
 -1      2436 7.53920E-03 2.23375E-04-2.71943E-14
 -1      2437 7.48928E-03 1.91822E-04-2.67297E-14
 -1      2438 7.99639E-03 1.81103E-04-3.09662E-14
 -1      2439 7.84500E-03 1.93865E-04-2.96849E-14
 -1      2440 7.79280E-03 1.61613E-04-2.91953E-14
 -1      2441 8.29647E-03 1.58092E-04-3.36037E-14
 -1      2442 8.14685E-03 1.69248E-04-3.22744E-14
 -1      2443 8.09262E-03 1.36661E-04-3.17597E-14
 -1      2444 8.59341E-03 1.37031E-04-3.63301E-14
 -1      2445 8.44529E-03 1.47404E-04-3.49554E-14
 -1      2446 8.38938E-03 1.14747E-04-3.44188E-14
 -1      2447 8.88774E-03 1.16677E-04-3.91489E-14
 -1      2448 8.74086E-03 1.26825E-04-3.77289E-14
 -1      2449 8.68365E-03 9.42768E-05-3.71704E-14
 -1      2450 9.17992E-03 9.62256E-05-4.20464E-14
 -1      2451 9.03406E-03 1.06502E-04-4.05884E-14
 -1      2452 8.97588E-03 7.41726E-05-4.00070E-14
 -1      2453 9.47040E-03 7.51951E-05-4.50254E-14
 -1      2454 9.32534E-03 8.58058E-05-4.35255E-14
 -1      2455 9.26650E-03 5.37520E-05-4.29265E-14
 -1      2456 9.75954E-03 5.33352E-05-4.80797E-14
 -1      2457 9.61511E-03 6.43812E-05-4.65416E-14
 -1      2458 9.55583E-03 3.26221E-05-4.59241E-14
 -1      2459 1.00476E-02 3.05505E-05-5.12154E-14
 -1      2460 9.90370E-03 4.20635E-05-4.96381E-14
 -1      2461 9.84415E-03 1.05929E-05-4.89985E-14
 -1      2462 1.03350E-02 6.84514E-06-5.44272E-14
 -1      2463 1.01914E-02 1.88132E-05-5.28121E-14
 -1      2464 1.01317E-02-1.23907E-05-5.21537E-14
 -1      2465 1.06217E-02-1.77174E-05-5.77197E-14
 -1      2466 1.04784E-02-5.33156E-06-5.60628E-14
 -1      2467 1.04187E-02-3.62989E-05-5.53854E-14
 -1      2468 1.09081E-02-4.30424E-05-6.10842E-14
 -1      2469 1.07649E-02-3.02887E-05-5.93922E-14
 -1      2470 1.07052E-02-6.10529E-05-5.86934E-14
 -1      2471 1.11941E-02-6.90229E-05-6.45156E-14
 -1      2472 1.10511E-02-5.59555E-05-6.27923E-14
 -1      2473 1.09914E-02-8.65497E-05-6.20728E-14
 -1      2474 1.14800E-02-9.55516E-05-6.80157E-14
 -1      2475 1.13371E-02-8.22236E-05-6.62578E-14
 -1      2476 1.12774E-02-1.12679E-04-6.55194E-14
 -1      2477 1.17657E-02-1.22528E-04-7.15744E-14
 -1      2478 1.16229E-02-1.08988E-04-6.97894E-14
 -1      2479 1.15633E-02-1.39332E-04-6.90330E-14
 -1      2480 1.20514E-02-1.49862E-04-7.51863E-14
 -1      2481 1.19086E-02-1.36154E-04-7.33732E-14
 -1      2482 1.18490E-02-1.66411E-04-7.26040E-14
 -1      2483 1.23370E-02-1.77475E-04-7.88467E-14
 -1      2484 1.21942E-02-1.63637E-04-7.70105E-14
 -1      2485 1.21347E-02-1.93827E-04-7.62285E-14
 -1      2486 1.26226E-02-2.05303E-04-8.25470E-14
 -1      2487 1.24798E-02-1.91366E-04-8.06919E-14
 -1      2488 1.24204E-02-2.21505E-04-7.98973E-14
 -1      2489 1.29082E-02-2.33289E-04-8.62734E-14
 -1      2490 1.27654E-02-2.19279E-04-8.44055E-14
 -1      2491 1.27060E-02-2.49382E-04-8.36040E-14
 -1      2492 1.31938E-02-2.61388E-04-9.00201E-14
 -1      2493 1.30510E-02-2.47327E-04-8.81454E-14
 -1      2494 1.29917E-02-2.77405E-04-8.73355E-14
 -1      2495 1.34794E-02-2.89564E-04-9.37886E-14
 -1      2496 1.33366E-02-2.75468E-04-9.19031E-14
 -1      2497 1.32773E-02-3.05531E-04-9.10902E-14
 -1      2498 1.37651E-02-3.17785E-04-9.75750E-14
 -1      2499 1.36223E-02-3.03670E-04-9.56797E-14
 -1      2500 1.35630E-02-3.33724E-04-9.48620E-14
 -1      2501 1.40507E-02-3.46025E-04-1.01382E-13
 -1      2502 1.39079E-02-3.31904E-04-9.94747E-14
 -1      2503 1.38486E-02-3.61956E-04-9.86538E-14
 -1      2504 1.43364E-02-3.74263E-04-1.05198E-13
 -1      2505 1.41936E-02-3.60145E-04-1.03287E-13
 -1      2506 1.41343E-02-3.90202E-04-1.02460E-13
 -1      2507 1.44838E-02-3.87830E-04-1.07172E-13
 -1      2508 1.45138E-02-7.12847E-04-1.07223E-13
 -1      2509 1.44999E-02-6.70668E-04-1.07086E-13
 -1      2510 1.45415E-02-7.97213E-04-1.07497E-13
 -1      2511 1.45276E-02-7.55029E-04-1.07359E-13
 -1      2512 1.43970E-02-7.21691E-04-1.05640E-13
 -1      2513 1.44589E-02-5.45583E-04-1.06668E-13
 -1      2514 1.44451E-02-5.03420E-04-1.06528E-13
 -1      2515 1.44862E-02-6.28850E-04-1.06948E-13
 -1      2516 1.44726E-02-5.87393E-04-1.06809E-13
 -1      2517 1.43420E-02-5.54076E-04-1.05084E-13
 -1      2518 1.43694E-02-6.37698E-04-1.05364E-13
 -1      2519 1.45693E-02-8.81586E-04-1.07769E-13
 -1      2520 1.45554E-02-8.39399E-04-1.07634E-13
 -1      2521 1.44247E-02-8.06050E-04-1.05911E-13
 -1      2522 1.45971E-02-9.65963E-04-1.08041E-13
 -1      2523 1.45832E-02-9.23775E-04-1.07905E-13
 -1      2524 1.44525E-02-8.90415E-04-1.06179E-13
 -1      2525 1.46250E-02-1.05034E-03-1.08305E-13
 -1      2526 1.46111E-02-1.00815E-03-1.08173E-13
 -1      2527 1.44804E-02-9.74783E-04-1.06442E-13
 -1      2528 1.46525E-02-1.13328E-03-1.08552E-13
 -1      2529 1.46388E-02-1.09181E-03-1.08430E-13
 -1      2530 1.45081E-02-1.05843E-03-1.06693E-13
 -1      2531 1.46806E-02-1.21764E-03-1.08796E-13
 -1      2532 1.46666E-02-1.17546E-03-1.08674E-13
 -1      2533 1.45358E-02-1.14208E-03-1.06934E-13
 -1      2534 1.47087E-02-1.30199E-03-1.09033E-13
 -1      2535 1.46946E-02-1.25982E-03-1.08917E-13
 -1      2536 1.45639E-02-1.22643E-03-1.07171E-13
 -1      2537 1.47368E-02-1.38632E-03-1.09261E-13
 -1      2538 1.47227E-02-1.34416E-03-1.09146E-13
 -1      2539 1.45920E-02-1.31076E-03-1.07400E-13
 -1      2540 6.13467E-03 2.88921E-05-1.39042E-14
 -1      2541 6.32531E-03-5.03217E-05-1.43607E-14
 -1      2542 1.48392E-02-1.46831E-03-1.10523E-13
 -1      2543 6.82436E-03-2.10648E-04-1.52892E-14
 -1      2544 6.78478E-03-2.22177E-04-1.53046E-14
 -1      2545 1.69236E-03 4.37002E-04-9.93549E-16
 -1      2546 1.53735E-03 4.14795E-04-8.00616E-16
 -1      2547 1.74061E-03 4.07748E-04-1.16068E-15
 -1      2548 6.77432E-03-1.88963E-04-1.51322E-14
 -1      2549 6.81565E-03-1.97792E-04-1.51929E-14
 -1      2550 6.67594E-03-2.54383E-04-1.51296E-14
 -1      2551 6.56303E-03-2.86921E-04-1.48682E-14
 -1      2552 6.14881E-04-1.87025E-04-2.44962E-16
 -1      2553 8.19335E-04-2.42511E-04-3.89716E-16
 -1      2554 8.72825E-04-2.26377E-04-4.75206E-16
 -1      2555 5.98077E-04-1.58130E-04-2.59260E-16
 -1      2556 5.77513E-03 2.09758E-04-1.30811E-14
 -1      2557 5.95828E-03 1.13292E-04-1.34879E-14
 -1      2558 6.06776E-03 6.00648E-05-1.40981E-14
 -1      2559 2.46220E-03-4.17323E-05-5.46407E-15
 -1      2560 2.63448E-03 1.33533E-05-5.60209E-15
 -1      2561 5.06441E-04-1.58631E-05-2.86284E-16
 -1      2562 5.08853E-04-2.39792E-05-2.88601E-16
 -1      2563 6.15325E-04-3.47723E-05-3.92291E-16
 -1      2564 6.09241E-04-1.47090E-05-3.86423E-16
 -1      2565 4.30870E-03 8.21947E-04-8.55997E-15
 -1      2566 4.44494E-03 8.38599E-04-9.00498E-15
 -1      2567 3.14610E-03-4.63888E-04-6.52203E-15
 -1      2568 2.96437E-03-3.73086E-04-6.27903E-15
 -1      2569 4.62603E-03 8.20442E-04-9.61972E-15
 -1      2570 4.76689E-03 7.75833E-04-1.01120E-14
 -1      2571 4.01925E-03 7.18334E-04-7.72516E-15
 -1      2572 4.16497E-03 7.81876E-04-8.13564E-15
 -1      2573 4.23348E-03 8.09729E-04-8.25284E-15
 -1      2574 3.16018E-03 2.45415E-04-6.19280E-15
 -1      2575 3.31930E-03 3.31832E-04-6.36038E-15
 -1      2576 2.83021E-03 9.10815E-05-5.75291E-15
 -1      2577 2.99304E-03 1.63569E-04-5.96985E-15
 -1      2578 3.03476E-03 1.96064E-04-5.75542E-15
 -1      2579 2.26866E-03-9.16787E-05-5.32833E-15
 -1      2580 2.33581E-03-7.81951E-05-5.38214E-15
 -1      2581 2.41641E-03-1.61675E-04-5.63990E-15
 -1      2582 2.32754E-03-1.39894E-04-5.54213E-15
 -1      2583 2.75064E-03-2.77299E-04-5.98956E-15
 -1      2584 2.57045E-03-2.10739E-04-5.77672E-15
 -1      2585 3.51614E-03-6.74462E-04-7.08355E-15
 -1      2586 3.33053E-03-5.64672E-04-6.79802E-15
 -1      2587 3.22622E-03-5.02622E-04-6.45164E-15
 -1      2588 3.89182E-03-9.05381E-04-7.75295E-15
 -1      2589 3.72086E-03-7.96959E-04-7.42027E-15
 -1      2590 4.65828E-03-1.18538E-03-1.00587E-14
 -1      2591 4.52236E-03-1.18228E-03-9.58099E-15
 -1      2592 4.94925E-03-1.10933E-03-1.10298E-14
 -1      2593 4.80735E-03-1.15974E-03-1.05537E-14
 -1      2594 5.27641E-03-9.41280E-04-1.20650E-14
 -1      2595 5.11502E-03-1.03337E-03-1.15651E-14
 -1      2596 5.65687E-03-7.15844E-04-1.31440E-14
 -1      2597 5.47535E-03-8.25362E-04-1.26588E-14
 -1      2598 6.06906E-03-4.91998E-04-1.40304E-14
 -1      2599 5.88454E-03-5.87883E-04-1.36627E-14
 -1      2600 6.42557E-03-3.36754E-04-1.46531E-14
 -1      2601 6.26727E-03-3.99859E-04-1.44416E-14
 -1      2602 6.50376E-03-3.13467E-04-1.52747E-14
 -1      2603 6.54345E-03-1.27866E-04-1.48143E-14
 -1      2604 6.68119E-03-1.64928E-04-1.50295E-14
 -1      2605 7.98765E-04 2.84288E-04-1.76359E-16
 -1      2606 6.43386E-04 2.42600E-04-1.08407E-16
 -1      2607 6.13157E-04 2.15128E-04-1.19316E-16
 -1      2608 8.53466E-04 2.67292E-04-2.51183E-16
 -1      2609 4.53049E-03 8.38114E-04-9.28167E-15
 -1      2610 6.51272E-04-8.83895E-05-3.88212E-16
 -1      2611 5.44085E-04-8.05022E-05-2.84251E-16
 -1      2612 5.55124E-04-9.73247E-05-2.78843E-16
 -1      2613 1.43226E-03 3.64510E-04-7.65731E-16
 -1      2614 5.95658E-04 1.82727E-04-1.44592E-16
 -1      2615 5.65266E-03 2.75824E-04-1.29286E-14
 -1      2616 5.78458E-03 2.07690E-04-1.35193E-14
 -1      2617 5.54561E-03 3.43236E-04-1.27754E-14
 -1      2618 5.11006E-03 6.07581E-04-1.14131E-14
 -1      2619 5.19433E-03 5.52461E-04-1.15826E-14
 -1      2620 5.30307E-03 4.88537E-04-1.20313E-14
 -1      2621 6.75198E-03-2.37900E-04-1.56757E-14
 -1      2622 1.44245E-02-4.17895E-04-1.06340E-13
 -1      2623 1.44195E-02-4.49443E-04-1.06240E-13
 -1      2624 6.18600E-03-4.43093E-04-1.46321E-14
 -1      2625 6.36864E-03-6.38344E-05-1.51474E-14
 -1      2626 6.45345E-03-9.97887E-05-1.49829E-14
 -1      2627 6.56637E-03-1.31423E-04-1.56160E-14
 -1      2628 2.69601E-03 4.82883E-05-5.39917E-15
 -1      2629 1.46954E-02-1.46870E-03-1.08521E-13
 -1      2630 1.47237E-02-1.42011E-03-1.09013E-13
 -1      2631 1.45930E-02-1.38672E-03-1.07263E-13
 -1      2632 1.45669E-02-1.45429E-03-1.06764E-13
 -1      2633 5.77834E-03-6.54691E-04-1.36841E-14
 -1      2634 6.83907E-03-2.08687E-04-1.57574E-14
 -1      2635 7.14917E-04 1.98447E-04-2.22668E-16
 -1      2636 6.74388E-03-1.82052E-04-1.55543E-14
 -1      2637 5.37671E-03-8.91603E-04-1.25558E-14
 -1      2638 5.03528E-03-1.07900E-03-1.14165E-14
 -1      2639 2.38832E-03-5.53681E-05-5.17791E-15
 -1      2640 4.74256E-03-1.18033E-03-1.03800E-14
 -1      2641 3.59581E-03-7.20272E-04-7.04844E-15
 -1      2642 2.84291E-03-3.14434E-04-5.90105E-15
 -1      2643 2.48959E-03-1.82382E-04-5.49310E-15
 -1      2644 3.90398E-03 6.65166E-04-7.36557E-15
 -1      2645 3.98729E-03 7.18315E-04-7.47399E-15
 -1      2646 3.78966E-03 6.09178E-04-7.01589E-15
 -1      2647 4.42157E-03-1.16831E-03-9.21846E-15
 -1      2648 4.32785E-03-1.14070E-03-8.86197E-15
 -1      2649 4.51082E-03-1.19098E-03-9.51759E-15
 -1      2650 5.82976E-04-1.33263E-04-2.70278E-16
 -1      2651 2.27116E-03-1.23618E-04-5.31870E-15
 -1      2652 3.43829E-03 4.00836E-04-6.42879E-15
 -1      2653 3.53938E-03 4.69438E-04-6.49647E-15
 -1      2654 3.30150E-03 3.41236E-04-6.03508E-15
 -1      2655 4.84600E-03 7.45019E-04-1.04354E-14
 -1      2656 2.23078E-03-9.92768E-05-5.18670E-15
 -1      2657 2.23325E-03-8.95659E-05-4.96019E-15
 -1      2658 2.20794E-03-1.00748E-04-5.04650E-15
 -1      2659 4.00927E-03-9.75811E-04-7.96337E-15
 -1      2660 3.89363E-03-9.11344E-04-7.58311E-15
 -1      2661 4.10764E-03-1.03760E-03-8.17577E-15
 -1      2662 1.43027E-02-4.58293E-04-1.04657E-13
 -1      2663 1.44831E-02-1.41006E-03-1.05692E-13
 -1      2664 7.32514E-04 3.90257E-05-4.67698E-16
 -1      2665 7.24423E-04 2.48670E-05-4.78445E-16
 -1      2666 7.18214E-04 1.17514E-05-4.87728E-16
 -1      2667 7.14338E-04-3.98983E-07-4.95738E-16
 -1      2668 8.27079E-04 2.02627E-05-6.13577E-16
 -1      2669 7.82295E-04 1.15160E-04-4.07050E-16
 -1      2670 7.67691E-04 9.28006E-05-4.25509E-16
 -1      2671 8.15597E-04 1.67783E-04-3.63059E-16
 -1      2672 7.98350E-04 1.40097E-04-3.86640E-16
 -1      2673 9.09947E-04 1.43547E-04-5.10171E-16
 -1      2674 1.17762E-03 2.93055E-04-5.69138E-16
 -1      2675 1.02661E-03 2.67845E-04-4.32502E-16
 -1      2676 6.72944E-03-1.78172E-04-1.60512E-14
 -1      2677 6.80890E-03-1.96073E-04-1.61607E-14
 -1      2678 1.48107E-03 3.37101E-04-9.07599E-16
 -1      2679 1.32897E-03 3.15934E-04-7.27215E-16
 -1      2680 1.22821E-03 2.69526E-04-6.85799E-16
 -1      2681 8.31983E-04 2.19559E-04-3.02438E-16
 -1      2682 1.35902E-03-2.78900E-04-1.11478E-15
 -1      2683 1.50796E-03-2.97108E-04-1.35033E-15
 -1      2684 1.65760E-03-3.14947E-04-1.60925E-15
 -1      2685 1.80840E-03-3.33192E-04-1.89176E-15
 -1      2686 1.54637E-03-2.71130E-04-1.49619E-15
 -1      2687 1.96063E-03-3.52796E-04-2.19788E-15
 -1      2688 2.11480E-03-3.74866E-04-2.52741E-15
 -1      2689 1.84093E-03-3.04469E-04-2.06187E-15
 -1      2690 2.27160E-03-4.00255E-04-2.88070E-15
 -1      2691 2.43145E-03-4.30565E-04-3.25789E-15
 -1      2692 2.14206E-03-3.43919E-04-2.72090E-15
 -1      2693 2.59554E-03-4.66442E-04-3.65899E-15
 -1      2694 2.76390E-03-5.10126E-04-4.08481E-15
 -1      2695 2.45511E-03-3.97731E-04-3.47331E-15
 -1      2696 2.93822E-03-5.61829E-04-4.53472E-15
 -1      2697 3.11726E-03-6.24078E-04-5.01023E-15
 -1      2698 2.78756E-03-4.76636E-04-4.32122E-15
 -1      2699 3.30304E-03-6.96437E-04-5.51154E-15
 -1      2700 3.49170E-03-7.79553E-04-6.03846E-15
 -1      2701 3.14666E-03-5.94068E-04-5.26677E-15
 -1      2702 4.38552E-03-1.18550E-03-8.96729E-15
 -1      2703 4.56268E-03-1.21766E-03-9.66829E-15
 -1      2704 4.77123E-03-1.21758E-03-1.05611E-14
 -1      2705 4.94838E-03-1.17914E-03-1.13341E-14
 -1      2706 5.12966E-03-1.11220E-03-1.21371E-14
 -1      2707 5.31713E-03-1.03566E-03-1.29717E-14
 -1      2708 5.50907E-03-9.53535E-04-1.38356E-14
 -1      2709 5.70016E-03-8.76189E-04-1.47283E-14
 -1      2710 5.44043E-03-9.43219E-04-1.33887E-14
 -1      2711 5.89079E-03-8.07290E-04-1.56478E-14
 -1      2712 6.07578E-03-7.48341E-04-1.65953E-14
 -1      2713 5.83468E-03-7.80884E-04-1.51752E-14
 -1      2714 6.25659E-03-7.00848E-04-1.75687E-14
 -1      2715 6.43116E-03-6.63674E-04-1.85680E-14
 -1      2716 6.20926E-03-6.66176E-04-1.70717E-14
 -1      2717 6.60097E-03-6.36753E-04-1.95936E-14
 -1      2718 6.76565E-03-6.17803E-04-2.06443E-14
 -1      2719 6.55615E-03-5.98847E-04-1.90721E-14
 -1      2720 6.92649E-03-6.06515E-04-2.17213E-14
 -1      2721 7.08380E-03-6.01103E-04-2.28230E-14
 -1      2722 6.87974E-03-5.67875E-04-2.11737E-14
 -1      2723 7.23846E-03-6.01064E-04-2.39515E-14
 -1      2724 7.39091E-03-6.05191E-04-2.51058E-14
 -1      2725 7.18727E-03-5.62044E-04-2.33772E-14
 -1      2726 7.54164E-03-6.12926E-04-2.62834E-14
 -1      2727 7.69106E-03-6.23497E-04-2.74864E-14
 -1      2728 7.48510E-03-5.73342E-04-2.56812E-14
 -1      2729 7.83937E-03-6.36383E-04-2.87150E-14
 -1      2730 7.98691E-03-6.51086E-04-2.99661E-14
 -1      2731 7.77752E-03-5.96098E-04-2.80852E-14
 -1      2732 8.13373E-03-6.67177E-04-3.12390E-14
 -1      2733 8.28007E-03-6.84340E-04-3.25342E-14
 -1      2734 8.06710E-03-6.26212E-04-3.05836E-14
 -1      2735 8.42592E-03-7.02246E-04-3.38519E-14
 -1      2736 8.57145E-03-7.20695E-04-3.51919E-14
 -1      2737 8.35525E-03-6.60724E-04-3.31707E-14
 -1      2738 8.71661E-03-7.39457E-04-3.65529E-14
 -1      2739 8.86155E-03-7.58402E-04-3.79353E-14
 -1      2740 8.64269E-03-6.97545E-04-3.58460E-14
 -1      2741 9.00621E-03-7.77381E-04-3.93399E-14
 -1      2742 9.15070E-03-7.96316E-04-4.07656E-14
 -1      2743 8.92973E-03-7.35241E-04-3.86080E-14
 -1      2744 9.29496E-03-8.15117E-04-4.22138E-14
 -1      2745 9.43909E-03-8.33737E-04-4.36822E-14
 -1      2746 9.21654E-03-7.72881E-04-4.14577E-14
 -1      2747 9.58303E-03-8.52132E-04-4.51696E-14
 -1      2748 9.72686E-03-8.70277E-04-4.66764E-14
 -1      2749 9.50316E-03-8.09899E-04-4.43901E-14
 -1      2750 9.87054E-03-8.88156E-04-4.82040E-14
 -1      2751 1.00141E-02-9.05761E-04-4.97499E-14
 -1      2752 9.78962E-03-8.45991E-04-4.74009E-14
 -1      2753 1.01576E-02-9.23091E-04-5.13165E-14
 -1      2754 1.03010E-02-9.40150E-04-5.29016E-14
 -1      2755 1.00759E-02-8.81029E-04-5.04904E-14
 -1      2756 1.04443E-02-9.56948E-04-5.45040E-14
 -1      2757 1.05876E-02-9.73492E-04-5.61240E-14
 -1      2758 1.03621E-02-9.15006E-04-5.36575E-14
 -1      2759 1.07308E-02-9.89802E-04-5.77634E-14
 -1      2760 1.08739E-02-1.00588E-03-5.94219E-14
 -1      2761 1.06482E-02-9.47983E-04-5.68968E-14
 -1      2762 1.10170E-02-1.02176E-03-6.10974E-14
 -1      2763 1.11600E-02-1.03744E-03-6.27877E-14
 -1      2764 1.09342E-02-9.80060E-04-6.02077E-14
 -1      2765 1.13030E-02-1.05295E-03-6.44944E-14
 -1      2766 1.14460E-02-1.06830E-03-6.62184E-14
 -1      2767 1.12202E-02-1.01136E-03-6.35865E-14
 -1      2768 1.15890E-02-1.08350E-03-6.79585E-14
 -1      2769 1.17319E-02-1.09856E-03-6.97170E-14
 -1      2770 1.15060E-02-1.04199E-03-6.70317E-14
 -1      2771 1.18748E-02-1.11351E-03-7.14886E-14
 -1      2772 1.20177E-02-1.12835E-03-7.32715E-14
 -1      2773 1.17919E-02-1.07208E-03-7.05423E-14
 -1      2774 1.21606E-02-1.14309E-03-7.50678E-14
 -1      2775 1.23035E-02-1.15776E-03-7.68774E-14
 -1      2776 1.20777E-02-1.10173E-03-7.41081E-14
 -1      2777 1.24464E-02-1.17234E-03-7.86980E-14
 -1      2778 1.25892E-02-1.18686E-03-8.05284E-14
 -1      2779 1.23634E-02-1.13103E-03-7.77242E-14
 -1      2780 1.27321E-02-1.20133E-03-8.23725E-14
 -1      2781 1.28749E-02-1.21574E-03-8.42273E-14
 -1      2782 1.26492E-02-1.16006E-03-8.13856E-14
 -1      2783 1.30178E-02-1.23012E-03-8.60929E-14
 -1      2784 1.31606E-02-1.24446E-03-8.79669E-14
 -1      2785 1.29349E-02-1.18888E-03-8.50909E-14
 -1      2786 1.33035E-02-1.25876E-03-8.98520E-14
 -1      2787 1.34463E-02-1.27305E-03-9.17515E-14
 -1      2788 1.32206E-02-1.21755E-03-8.88386E-14
 -1      2789 1.35892E-02-1.28731E-03-9.36577E-14
 -1      2790 1.37320E-02-1.30155E-03-9.55736E-14
 -1      2791 1.35063E-02-1.24610E-03-9.26283E-14
 -1      2792 1.38749E-02-1.31578E-03-9.74998E-14
 -1      2793 1.40177E-02-1.33000E-03-9.94303E-14
 -1      2794 1.37921E-02-1.27459E-03-9.64560E-14
 -1      2795 1.41606E-02-1.34422E-03-1.01368E-13
 -1      2796 1.43034E-02-1.35843E-03-1.03312E-13
 -1      2797 1.40778E-02-1.30303E-03-1.00317E-13
 -1      2798 2.41737E-03 4.75844E-04-2.46492E-15
 -1      2799 2.25750E-03 4.47381E-04-2.14656E-15
 -1      2800 5.90392E-03-5.98743E-04-1.43175E-14
 -1      2801 5.70273E-03-7.15001E-04-1.37816E-14
 -1      2802 6.58968E-03-2.96511E-04-1.59006E-14
 -1      2803 6.46835E-03-3.38638E-04-1.56749E-14
 -1      2804 2.09925E-03 4.22110E-04-1.85236E-15
 -1      2805 1.94282E-03 3.99219E-04-1.58153E-15
 -1      2806 2.14455E-03 3.90222E-04-2.06183E-15
 -1      2807 3.07603E-03 6.30695E-04-3.98740E-15
 -1      2808 2.90910E-03 5.85386E-04-3.56850E-15
 -1      2809 3.41232E-03 7.31403E-04-4.90375E-15
 -1      2810 3.24434E-03 6.79784E-04-4.43218E-15
 -1      2811 3.13343E-03 6.03718E-04-4.28841E-15
 -1      2812 3.74546E-03 8.34226E-04-5.93033E-15
 -1      2813 3.57988E-03 7.83951E-04-5.40353E-15
 -1      2814 3.47770E-03 7.10167E-04-5.23485E-15
 -1      2815 4.06895E-03 9.15993E-04-7.07267E-15
 -1      2816 3.90848E-03 8.79768E-04-6.48640E-15
 -1      2817 3.81800E-03 8.18188E-04-6.29225E-15
 -1      2818 4.38238E-03 9.49330E-04-8.33714E-15
 -1      2819 4.22627E-03 9.40335E-04-7.68926E-15
 -1      2820 4.14671E-03 8.98951E-04-7.46645E-15
 -1      2821 4.69238E-03 9.18322E-04-9.72844E-15
 -1      2822 4.53613E-03 9.42056E-04-9.01715E-15
 -1      2823 4.46387E-03 9.21145E-04-8.76549E-15
 -1      2824 5.01065E-03 8.28733E-04-1.12466E-14
 -1      2825 4.84982E-03 8.79328E-04-1.04722E-14
 -1      2826 4.78117E-03 8.69644E-04-1.01941E-14
 -1      2827 5.34015E-03 7.05378E-04-1.28866E-14
 -1      2828 5.17410E-03 7.69212E-04-1.20516E-14
 -1      2829 5.11028E-03 7.59872E-04-1.17493E-14
 -1      2830 5.67665E-03 5.75480E-04-1.46428E-14
 -1      2831 5.50816E-03 6.39720E-04-1.37504E-14
 -1      2832 5.45096E-03 6.24815E-04-1.34252E-14
 -1      2833 6.01294E-03 4.57626E-04-1.65125E-14
 -1      2834 5.84548E-03 5.14371E-04-1.55630E-14
 -1      2835 5.79548E-03 4.93195E-04-1.52160E-14
 -1      2836 6.34359E-03 3.59762E-04-1.84948E-14
 -1      2837 6.17936E-03 4.06068E-04-1.74896E-14
 -1      2838 6.13501E-03 3.80470E-04-1.71191E-14
 -1      2839 6.66646E-03 2.82745E-04-2.05861E-14
 -1      2840 6.50617E-03 3.18829E-04-1.95267E-14
 -1      2841 6.46485E-03 2.90619E-04-1.91331E-14
 -1      2842 6.98157E-03 2.23804E-04-2.27829E-14
 -1      2843 6.82500E-03 2.51294E-04-2.16718E-14
 -1      2844 6.78425E-03 2.21671E-04-2.12544E-14
 -1      2845 7.29006E-03 1.78975E-04-2.50792E-14
 -1      2846 7.13660E-03 1.99894E-04-2.39192E-14
 -1      2847 7.09462E-03 1.69463E-04-2.34782E-14
 -1      2848 7.59329E-03 1.44381E-04-2.74757E-14
 -1      2849 7.44227E-03 1.60626E-04-2.62658E-14
 -1      2850 7.39804E-03 1.29671E-04-2.58026E-14
 -1      2851 7.89243E-03 1.16697E-04-2.99645E-14
 -1      2852 7.74330E-03 1.29853E-04-2.87079E-14
 -1      2853 7.69643E-03 9.85396E-05-2.82214E-14
 -1      2854 8.18845E-03 9.33001E-05-3.25539E-14
 -1      2855 8.04077E-03 1.04594E-04-3.12458E-14
 -1      2856 7.99128E-03 7.30532E-05-3.07364E-14
 -1      2857 8.48204E-03 7.22437E-05-3.52352E-14
 -1      2858 8.33549E-03 8.25721E-05-3.38838E-14
 -1      2859 8.28364E-03 5.09200E-05-3.33478E-14
 -1      2860 8.77377E-03 5.21580E-05-3.80088E-14
 -1      2861 8.62810E-03 6.21423E-05-3.66113E-14
 -1      2862 8.57424E-03 3.04785E-05-3.60553E-14
 -1      2863 9.06402E-03 3.21334E-05-4.08672E-14
 -1      2864 8.91904E-03 4.21783E-05-3.94277E-14
 -1      2865 8.86357E-03 1.05818E-05-3.88496E-14
 -1      2866 9.35313E-03 1.16089E-05-4.38055E-14
 -1      2867 9.20869E-03 2.19575E-05-4.23260E-14
 -1      2868 9.15197E-03-9.51625E-06-4.17271E-14
 -1      2869 9.64135E-03-9.72437E-06-4.68230E-14
 -1      2870 9.49733E-03 1.05565E-06-4.53059E-14
 -1      2871 9.43967E-03-3.02619E-05-4.46866E-14
 -1      2872 9.92888E-03-3.20010E-05-4.99194E-14
 -1      2873 9.78518E-03-2.07403E-05-4.83607E-14
 -1      2874 9.72685E-03-5.18868E-05-4.77255E-14
 -1      2875 1.02159E-02-5.52405E-05-5.30921E-14
 -1      2876 1.00724E-02-4.35008E-05-5.14959E-14
 -1      2877 1.00136E-02-7.44757E-05-5.08398E-14
 -1      2878 1.05025E-02-7.93920E-05-5.63416E-14
 -1      2879 1.03592E-02-6.72057E-05-5.47083E-14
 -1      2880 1.03001E-02-9.80179E-05-5.40318E-14
 -1      2881 1.07888E-02-1.04365E-04-5.96680E-14
 -1      2882 1.06457E-02-9.17808E-05-5.79963E-14
 -1      2883 1.05864E-02-1.22445E-04-5.73009E-14
 -1      2884 1.10749E-02-1.30052E-04-6.30618E-14
 -1      2885 1.09319E-02-1.17125E-04-6.13561E-14
 -1      2886 1.08724E-02-1.47660E-04-6.06421E-14
 -1      2887 1.13608E-02-1.56341E-04-6.65235E-14
 -1      2888 1.12179E-02-1.43127E-04-6.47859E-14
 -1      2889 1.11584E-02-1.73551E-04-6.40531E-14
 -1      2890 1.16467E-02-1.83126E-04-7.00508E-14
 -1      2891 1.15038E-02-1.69677E-04-6.82788E-14
 -1      2892 1.14443E-02-2.00009E-04-6.75288E-14
 -1      2893 1.19324E-02-2.10310E-04-7.36334E-14
 -1      2894 1.17895E-02-1.96673E-04-7.18349E-14
 -1      2895 1.17301E-02-2.26930E-04-7.10674E-14
 -1      2896 1.22181E-02-2.37809E-04-7.72671E-14
 -1      2897 1.20753E-02-2.24024E-04-7.54442E-14
 -1      2898 1.20158E-02-2.54222E-04-7.46629E-14
 -1      2899 1.25038E-02-2.65551E-04-8.09492E-14
 -1      2900 1.23610E-02-2.51653E-04-7.91041E-14
 -1      2901 1.23016E-02-2.81804E-04-7.83098E-14
 -1      2902 1.27895E-02-2.93475E-04-8.46590E-14
 -1      2903 1.26467E-02-2.79493E-04-8.27998E-14
 -1      2904 1.25873E-02-3.09609E-04-8.19970E-14
 -1      2905 1.30752E-02-3.21533E-04-8.83987E-14
 -1      2906 1.29323E-02-3.07490E-04-8.65276E-14
 -1      2907 1.28730E-02-3.37580E-04-8.57172E-14
 -1      2908 1.33608E-02-3.49683E-04-9.21575E-14
 -1      2909 1.32180E-02-3.35598E-04-9.02750E-14
 -1      2910 1.31587E-02-3.65671E-04-8.94622E-14
 -1      2911 1.36465E-02-3.77893E-04-9.59358E-14
 -1      2912 1.35037E-02-3.63782E-04-9.40449E-14
 -1      2913 1.34444E-02-3.93844E-04-9.32260E-14
 -1      2914 1.39322E-02-4.06134E-04-9.97298E-14
 -1      2915 1.37894E-02-3.92011E-04-9.78309E-14
 -1      2916 1.37301E-02-4.22068E-04-9.70091E-14
 -1      2917 1.41889E-02-4.39276E-04-1.03146E-13
 -1      2918 1.40460E-02-4.25151E-04-1.01241E-13
 -1      2919 1.39868E-02-4.55209E-04-1.00414E-13
 -1      2920 1.42145E-02-4.93250E-04-1.03435E-13
 -1      2921 1.43357E-02-8.99239E-04-1.04585E-13
 -1      2922 1.43218E-02-8.57060E-04-1.04455E-13
 -1      2923 1.43998E-02-1.36735E-03-1.04628E-13
 -1      2924 1.44966E-02-1.37779E-03-1.05947E-13
 -1      2925 1.45097E-02-1.34400E-03-1.06194E-13
 -1      2926 1.43170E-02-1.32616E-03-1.03567E-13
 -1      2927 1.42802E-02-7.30529E-04-1.04053E-13
 -1      2928 1.42663E-02-6.88355E-04-1.03917E-13
 -1      2929 1.43636E-02-9.83597E-04-1.04838E-13
 -1      2930 1.43496E-02-9.41418E-04-1.04712E-13
 -1      2931 1.42189E-02-9.08059E-04-1.02988E-13
 -1      2932 1.43079E-02-8.14882E-04-1.04323E-13
 -1      2933 1.42940E-02-7.72705E-04-1.04189E-13
 -1      2934 1.41634E-02-7.39363E-04-1.02468E-13
 -1      2935 1.41911E-02-8.23710E-04-1.02734E-13
 -1      2936 1.78773E-03 3.77946E-04-1.33391E-15
 -1      2937 1.63391E-03 3.57547E-04-1.10963E-15
 -1      2938 1.52867E-03 3.09377E-04-1.05496E-15
 -1      2939 1.83346E-03 3.47537E-04-1.51299E-15
 -1      2940 1.43911E-02-1.06652E-03-1.05078E-13
 -1      2941 1.43773E-02-1.02506E-03-1.04961E-13
 -1      2942 1.42466E-02-9.91693E-04-1.03233E-13
 -1      2943 1.44191E-02-1.15087E-03-1.05314E-13
 -1      2944 1.44051E-02-1.10870E-03-1.05197E-13
 -1      2945 1.42743E-02-1.07532E-03-1.03467E-13
 -1      2946 1.44472E-02-1.23521E-03-1.05545E-13
 -1      2947 1.44331E-02-1.19304E-03-1.05429E-13
 -1      2948 1.43024E-02-1.15967E-03-1.03694E-13
 -1      2949 1.44854E-02-1.31069E-03-1.05925E-13
 -1      2950 1.44714E-02-1.26853E-03-1.05817E-13
 -1      2951 1.43406E-02-1.23515E-03-1.04076E-13
 -1      2952 1.43891E-02-1.30177E-03-1.04613E-13
 -1      2953 5.37782E-03-9.17095E-04-1.28540E-14
 -1      2954 5.20912E-03-1.01379E-03-1.22537E-14
 -1      2955 8.08245E-04-1.87485E-04-4.50256E-16
 -1      2956 9.45083E-04-2.16762E-04-5.82488E-16
 -1      2957 6.82206E-03-2.33137E-04-1.64223E-14
 -1      2958 6.72479E-03-2.56265E-04-1.62390E-14
 -1      2959 6.29482E-03-4.12637E-04-1.53614E-14
 -1      2960 6.11926E-03-4.92588E-04-1.49332E-14
 -1      2961 2.74320E-03 5.44488E-04-3.17601E-15
 -1      2962 2.57949E-03 5.08001E-04-2.80819E-15
 -1      2963 2.46419E-03 4.43727E-04-2.70546E-15
 -1      2964 2.79404E-03 5.13852E-04-3.44652E-15
 -1      2965 1.07744E-03-2.39000E-04-7.33097E-16
 -1      2966 1.22518E-03-2.60135E-04-9.24445E-16
 -1      2967 1.26929E-03-2.37818E-04-1.04640E-15
 -1      2968 1.00910E-03-2.00762E-04-6.98145E-16
 -1      2969 7.54387E-04 7.28536E-05-4.41297E-16
 -1      2970 7.42631E-04 5.49747E-05-4.55311E-16
 -1      2971 8.47012E-04 5.31872E-05-5.87285E-16
 -1      2972 8.75202E-04 9.36106E-05-5.53377E-16
 -1      2973 2.93750E-03-3.60028E-04-5.82610E-15
 -1      2974 2.74354E-03-2.77219E-04-5.55266E-15
 -1      2975 6.00364E-03 1.01293E-04-1.43265E-14
 -1      2976 6.16025E-03 2.78343E-05-1.47573E-14
 -1      2977 2.28341E-03-1.25081E-04-5.10466E-15
 -1      2978 2.22328E-03-1.12017E-04-5.06280E-15
 -1      2979 7.32785E-04-6.11561E-05-5.13519E-16
 -1      2980 7.43900E-04-7.63908E-05-5.12435E-16
 -1      2981 4.78857E-03 7.76697E-04-1.02680E-14
 -1      2982 4.93008E-03 7.09386E-04-1.08068E-14
 -1      2983 2.52477E-03-1.96274E-04-5.25002E-15
 -1      2984 2.38928E-03-1.55185E-04-5.12557E-15
 -1      2985 4.16494E-03 7.96442E-04-7.95650E-15
 -1      2986 4.28876E-03 8.32098E-04-8.37470E-15
 -1      2987 4.86702E-03-1.16343E-03-1.09115E-14
 -1      2988 4.74084E-03-1.19457E-03-1.04043E-14
 -1      2989 2.95126E-03 1.76414E-04-5.44249E-15
 -1      2990 3.09904E-03 2.45672E-04-5.65112E-15
 -1      2991 4.45155E-03 8.49539E-04-8.95784E-15
 -1      2992 4.60843E-03 8.32583E-04-9.57166E-15
 -1      2993 3.30300E-03-5.49673E-04-6.39738E-15
 -1      2994 3.13785E-03-4.59227E-04-6.13459E-15
 -1      2995 6.57877E-04-1.31966E-04-3.47026E-16
 -1      2996 3.66675E-03-7.73439E-04-7.02957E-15
 -1      2997 3.48941E-03-6.59572E-04-6.70827E-15
 -1      2998 3.38335E-03-6.10702E-04-6.37819E-15
 -1      2999 2.30218E-03-6.31918E-05-4.83748E-15
 -1      3000 2.41411E-03-3.34441E-05-4.91196E-15
 -1      3001 6.85259E-03-2.08619E-04-1.62649E-14
 -1      3002 6.86204E-03-2.15369E-04-1.63626E-14
 -1      3003 2.57110E-03 2.02833E-05-5.02960E-15
 -1      3004 2.73747E-03 8.58597E-05-5.16662E-15
 -1      3005 7.57256E-04-9.35472E-05-5.09792E-16
 -1      3006 7.72531E-04-1.13024E-04-5.04466E-16
 -1      3007 8.61642E-04-9.64286E-05-6.47824E-16
 -1      3008 8.17573E-04-7.68132E-06-6.32727E-16
 -1      3009 7.12890E-04-1.19845E-05-5.01999E-16
 -1      3010 7.14009E-04-2.34234E-05-5.07122E-16
 -1      3011 8.87398E-04 2.03855E-04-3.83916E-16
 -1      3012 6.86009E-03-2.05353E-04-1.67697E-14
 -1      3013 5.44152E-03 4.10933E-04-1.25965E-14
 -1      3014 5.57916E-03 3.40901E-04-1.31749E-14
 -1      3015 5.35416E-03 4.75384E-04-1.24167E-14
 -1      3016 5.03495E-03 6.58656E-04-1.12362E-14
 -1      3017 5.13994E-03 6.05350E-04-1.16754E-14
 -1      3018 4.97520E-03 7.02672E-04-1.10570E-14
 -1      3019 2.67489E-03-2.73224E-04-5.10249E-15
 -1      3020 2.60260E-03-2.31618E-04-5.17784E-15
 -1      3021 2.47529E-03-2.01690E-04-4.81674E-15
 -1      3022 2.44792E-03 1.33341E-06-4.69132E-15
 -1      3023 4.64420E-03-1.20649E-03-1.00188E-14
 -1      3024 4.23998E-03-1.13962E-03-8.39720E-15
 -1      3025 4.26495E-03-1.12872E-03-8.58076E-15
 -1      3026 4.16988E-03-1.07737E-03-8.30308E-15
 -1      3027 4.05728E-03-1.06081E-03-7.75411E-15
 -1      3028 3.68518E-03-8.72128E-04-6.59366E-15
 -1      3029 3.87615E-03-9.67144E-04-7.17666E-15
 -1      3030 3.92602E-03-9.68025E-04-7.44111E-15
 -1      3031 5.04940E-03-1.11790E-03-1.17189E-14
 -1      3032 1.41358E-02-6.55380E-04-1.02197E-13
 -1      3033 1.42526E-02-6.46541E-04-1.03779E-13
 -1      3034 1.42389E-02-6.04730E-04-1.03641E-13
 -1      3035 6.40749E-03-3.86582E-04-1.59842E-14
 -1      3036 5.00491E-03-1.10684E-03-1.14446E-14
 -1      3037 1.42335E-02-5.69890E-04-1.03610E-13
 -1      3038 1.42198E-02-5.28085E-04-1.03469E-13
 -1      3039 1.41060E-02-5.09061E-04-1.01960E-13
 -1      3040 1.41167E-02-5.78732E-04-1.02027E-13
 -1      3041 6.30480E-03-2.25615E-05-1.53824E-14
 -1      3042 5.58653E-03-8.15347E-04-1.37187E-14
 -1      3043 4.37653E-03 8.50715E-04-8.64154E-15
 -1      3044 3.01207E-03-4.08467E-04-5.77278E-15
 -1      3045 2.79825E-03 1.33933E-04-5.06703E-15
 -1      3046 4.05708E-03 7.61175E-04-7.58601E-15
 -1      3047 4.11454E-03 7.96171E-04-7.69648E-15
 -1      3048 3.94891E-03 7.19989E-04-7.22600E-15
 -1      3049 4.69665E-03 8.13877E-04-9.91966E-15
 -1      3050 6.70317E-03-2.79638E-04-1.66488E-14
 -1      3051 6.04116E-03-5.55651E-04-1.50319E-14
 -1      3052 1.00276E-03 2.08145E-04-5.10402E-16
 -1      3053 3.64726E-03 5.42866E-04-6.59493E-15
 -1      3054 3.73533E-03 6.10219E-04-6.69182E-15
 -1      3055 3.50479E-03 4.83053E-04-6.18838E-15
 -1      3056 7.69137E-04-1.40634E-04-4.64242E-16
 -1      3057 3.20016E-03 3.11491E-04-5.70927E-15
 -1      3058 7.17723E-04-3.51038E-05-5.10510E-16
 -1      3059 7.23996E-04-4.75713E-05-5.12746E-16
 -1      3060 8.35104E-04-6.22128E-05-6.49857E-16
 -1      3061 8.20133E-04-3.38976E-05-6.44761E-16
 -1      3062 2.30270E-03-1.36698E-04-4.87245E-15
 -1      3063 6.67248E-03-1.58170E-04-1.62210E-14
 -1      3064 6.76411E-03-1.75044E-04-1.68338E-14
 -1      3065 6.61251E-03-1.31699E-04-1.63880E-14
 -1      3066 2.18990E-03-1.02681E-04-4.83844E-15
 -1      3067 5.90026E-03 1.62994E-04-1.41618E-14
 -1      3068 5.72263E-03-7.62579E-04-1.43445E-14
 -1      3069 2.18910E-03-7.88129E-05-4.56671E-15
 -1      3070 2.23941E-03-7.40973E-05-4.70123E-15
 -1      3071 2.24353E-03-5.36338E-05-4.44653E-15
 -1      3072 3.53415E-03-7.62285E-04-6.31527E-15
 -1      3073 3.76550E-03-8.47494E-04-7.13367E-15
 -1      3074 3.65326E-03-7.92417E-04-6.78494E-15
 -1      3075 6.87429E-03-2.02586E-04-1.73358E-14
 -1      3076 6.91283E-03-2.13955E-04-1.74441E-14
 -1      3077 1.04186E-03 1.73736E-04-6.24067E-16
 -1      3078 1.02025E-03 1.43703E-04-6.52486E-16
 -1      3079 1.43968E-03-2.30989E-04-1.38453E-15
 -1      3080 1.58224E-03-2.45711E-04-1.64456E-15
 -1      3081 1.72545E-03-2.60444E-04-1.92791E-15
 -1      3082 1.86993E-03-2.75951E-04-2.23392E-15
 -1      3083 1.61534E-03-2.20703E-04-1.79583E-15
 -1      3084 2.01592E-03-2.92838E-04-2.56332E-15
 -1      3085 2.16438E-03-3.12390E-04-2.91556E-15
 -1      3086 1.89515E-03-2.47396E-04-2.40808E-15
 -1      3087 2.31601E-03-3.35066E-04-3.29080E-15
 -1      3088 2.47201E-03-3.63090E-04-3.68954E-15
 -1      3089 2.18143E-03-2.79853E-04-3.11101E-15
 -1      3090 2.63387E-03-3.96603E-04-4.11139E-15
 -1      3091 2.80255E-03-4.39776E-04-4.55717E-15
 -1      3092 2.48166E-03-3.25833E-04-3.90543E-15
 -1      3093 5.92135E-03-6.86785E-04-1.52577E-14
 -1      3094 6.17454E-03-6.22558E-04-1.65739E-14
 -1      3095 6.35243E-03-5.81721E-04-1.75502E-14
 -1      3096 6.52280E-03-5.54227E-04-1.85506E-14
 -1      3097 6.68540E-03-5.35162E-04-1.95766E-14
 -1      3098 6.49815E-03-5.06402E-04-1.80301E-14
 -1      3099 6.84232E-03-5.24597E-04-2.06279E-14
 -1      3100 6.99463E-03-5.19562E-04-2.17027E-14
 -1      3101 6.81189E-03-4.79717E-04-2.00823E-14
 -1      3102 7.14342E-03-5.19910E-04-2.28031E-14
 -1      3103 7.28980E-03-5.23997E-04-2.39298E-14
 -1      3104 7.10497E-03-4.77646E-04-2.22314E-14
 -1      3105 7.43429E-03-5.31548E-04-2.50814E-14
 -1      3106 7.57765E-03-5.41684E-04-2.62562E-14
 -1      3107 7.38769E-03-4.90514E-04-2.44812E-14
 -1      3108 7.72011E-03-5.54051E-04-2.74563E-14
 -1      3109 7.86216E-03-5.68141E-04-2.86813E-14
 -1      3110 7.66608E-03-5.13192E-04-2.68306E-14
 -1      3111 8.00387E-03-5.83611E-04-2.99296E-14
 -1      3112 8.14553E-03-6.00167E-04-3.11991E-14
 -1      3113 7.94340E-03-5.42334E-04-2.92759E-14
 -1      3114 8.28712E-03-6.17509E-04-3.24907E-14
 -1      3115 8.42882E-03-6.35462E-04-3.38055E-14
 -1      3116 8.22127E-03-5.75577E-04-3.18127E-14
 -1      3117 8.57056E-03-6.53789E-04-3.51425E-14
 -1      3118 8.71247E-03-6.72382E-04-3.64996E-14
 -1      3119 8.50033E-03-6.11184E-04-3.44387E-14
 -1      3120 8.85445E-03-6.91072E-04-3.78768E-14
 -1      3121 8.99659E-03-7.09793E-04-3.92783E-14
 -1      3122 8.78072E-03-6.47885E-04-3.71505E-14
 -1      3123 9.13880E-03-7.28430E-04-4.07024E-14
 -1      3124 9.28115E-03-7.46950E-04-4.21453E-14
 -1      3125 9.06233E-03-6.84790E-04-3.99477E-14
 -1      3126 9.42357E-03-7.65281E-04-4.36095E-14
 -1      3127 9.56609E-03-7.83407E-04-4.50932E-14
 -1      3128 9.34499E-03-7.21313E-04-4.28307E-14
 -1      3129 9.70866E-03-8.01292E-04-4.65967E-14
 -1      3130 9.85130E-03-8.18932E-04-4.81196E-14
 -1      3131 9.62849E-03-7.57105E-04-4.57950E-14
 -1      3132 9.99398E-03-8.36314E-04-4.96632E-14
 -1      3133 1.01367E-02-8.53440E-04-5.12274E-14
 -1      3134 9.91263E-03-7.91991E-04-4.88381E-14
 -1      3135 1.02795E-02-8.70313E-04-5.28089E-14
 -1      3136 1.04223E-02-8.86942E-04-5.44089E-14
 -1      3137 1.01973E-02-8.25917E-04-5.19622E-14
 -1      3138 1.05651E-02-9.03336E-04-5.60249E-14
 -1      3139 1.07079E-02-9.19507E-04-5.76607E-14
 -1      3140 1.04823E-02-8.58909E-04-5.51583E-14
 -1      3141 1.08508E-02-9.35471E-04-5.93173E-14
 -1      3142 1.09936E-02-9.51239E-04-6.09888E-14
 -1      3143 1.07675E-02-8.91042E-04-5.84275E-14
 -1      3144 1.11365E-02-9.66828E-04-6.26766E-14
 -1      3145 1.12793E-02-9.82249E-04-6.43808E-14
 -1      3146 1.10529E-02-9.22412E-04-6.17674E-14
 -1      3147 1.14222E-02-9.97522E-04-6.61022E-14
 -1      3148 1.15651E-02-1.01265E-03-6.78414E-14
 -1      3149 1.13385E-02-9.53130E-04-6.51751E-14
 -1      3150 1.17080E-02-1.02767E-03-6.95933E-14
 -1      3151 1.18509E-02-1.04256E-03-7.13629E-14
 -1      3152 1.16242E-02-9.83301E-04-6.86504E-14
 -1      3153 1.19937E-02-1.05736E-03-7.31451E-14
 -1      3154 1.21366E-02-1.07207E-03-7.49385E-14
 -1      3155 1.19099E-02-1.01302E-03-7.21810E-14
 -1      3156 1.22795E-02-1.08670E-03-7.67455E-14
 -1      3157 1.24224E-02-1.10126E-03-7.85640E-14
 -1      3158 1.21956E-02-1.04239E-03-7.57682E-14
 -1      3159 1.25652E-02-1.11576E-03-8.03930E-14
 -1      3160 1.27081E-02-1.13020E-03-8.22341E-14
 -1      3161 1.24813E-02-1.07147E-03-7.94027E-14
 -1      3162 1.28510E-02-1.14461E-03-8.40842E-14
 -1      3163 1.29939E-02-1.15897E-03-8.59456E-14
 -1      3164 1.27671E-02-1.10034E-03-8.30797E-14
 -1      3165 1.31367E-02-1.17329E-03-8.78199E-14
 -1      3166 1.32796E-02-1.18759E-03-8.97025E-14
 -1      3167 1.30529E-02-1.12904E-03-8.68007E-14
 -1      3168 1.34225E-02-1.20186E-03-9.15943E-14
 -1      3169 1.35653E-02-1.21612E-03-9.34988E-14
 -1      3170 1.33386E-02-1.15762E-03-9.05645E-14
 -1      3171 1.37082E-02-1.23036E-03-9.54115E-14
 -1      3172 1.38511E-02-1.24458E-03-9.73322E-14
 -1      3173 1.36244E-02-1.18612E-03-9.43693E-14
 -1      3174 1.39939E-02-1.25880E-03-9.92598E-14
 -1      3175 1.41368E-02-1.27301E-03-1.01193E-13
 -1      3176 1.39101E-02-1.21457E-03-9.82059E-14
 -1      3177 1.41297E-02-1.00014E-03-1.01628E-13
 -1      3178 1.41160E-02-9.58687E-04-1.01510E-13
 -1      3179 3.54460E-03 6.88675E-04-5.56808E-15
 -1      3180 3.36787E-03 6.29995E-04-5.06617E-15
 -1      3181 3.19059E-03 5.74642E-04-4.59112E-15
 -1      3182 3.01599E-03 5.24647E-04-4.14333E-15
 -1      3183 3.24736E-03 5.44902E-04-4.89759E-15
 -1      3184 4.22735E-03 8.85149E-04-7.86060E-15
 -1      3185 4.06195E-03 8.52786E-04-7.24147E-15
 -1      3186 4.57720E-03 8.72923E-04-9.36305E-15
 -1      3187 4.41236E-03 8.83757E-04-8.67318E-15
 -1      3188 5.21657E-03 6.83370E-04-1.22556E-14
 -1      3189 5.04380E-03 7.52733E-04-1.14438E-14
 -1      3190 5.56918E-03 5.38068E-04-1.39672E-14
 -1      3191 5.39256E-03 6.09816E-04-1.30957E-14
 -1      3192 5.33427E-03 5.97348E-04-1.27656E-14
 -1      3193 5.92045E-03 4.08051E-04-1.57928E-14
 -1      3194 5.74607E-03 4.70151E-04-1.48666E-14
 -1      3195 5.69764E-03 4.46679E-04-1.45139E-14
 -1      3196 6.26108E-03 3.03449E-04-1.77309E-14
 -1      3197 6.09276E-03 3.52706E-04-1.67484E-14
 -1      3198 6.05246E-03 3.22831E-04-1.63762E-14
 -1      3199 6.58786E-03 2.23169E-04-1.97765E-14
 -1      3200 6.42631E-03 2.60586E-04-1.87399E-14
 -1      3201 6.39062E-03 2.28616E-04-1.83463E-14
 -1      3202 6.90220E-03 1.62891E-04-2.19264E-14
 -1      3203 6.74650E-03 1.90977E-04-2.08387E-14
 -1      3204 6.71182E-03 1.58884E-04-2.04233E-14
 -1      3205 7.20693E-03 1.17404E-04-2.41773E-14
 -1      3206 7.05561E-03 1.38650E-04-2.30399E-14
 -1      3207 7.01960E-03 1.07193E-04-2.26015E-14
 -1      3208 7.50490E-03 8.23663E-05-2.65263E-14
 -1      3209 7.35661E-03 9.88435E-05-2.53389E-14
 -1      3210 7.31796E-03 6.79741E-05-2.48785E-14
 -1      3211 7.79842E-03 5.43356E-05-2.89701E-14
 -1      3212 7.65210E-03 6.76663E-05-2.77368E-14
 -1      3213 7.61026E-03 3.71438E-05-2.72515E-14
 -1      3214 8.08909E-03 3.06950E-05-3.15097E-14
 -1      3215 7.94402E-03 4.21015E-05-3.02277E-14
 -1      3216 7.89895E-03 1.17102E-05-2.97211E-14
 -1      3217 8.37799E-03 9.51945E-06-3.41466E-14
 -1      3218 8.23369E-03 1.98924E-05-3.28162E-14
 -1      3219 8.18563E-03-1.04989E-05-3.22854E-14
 -1      3220 8.66579E-03-1.05586E-05-3.68748E-14
 -1      3221 8.52198E-03-5.94410E-07-3.54998E-14
 -1      3222 8.47131E-03-3.10404E-05-3.49467E-14
 -1      3223 8.95292E-03-3.04659E-05-3.96908E-14
 -1      3224 8.80941E-03-2.04939E-05-3.82719E-14
 -1      3225 8.75655E-03-5.10002E-05-3.76962E-14
 -1      3226 9.23961E-03-5.07918E-05-4.25888E-14
 -1      3227 9.09629E-03-4.05533E-05-4.11295E-14
 -1      3228 9.04168E-03-7.11004E-05-4.05324E-14
 -1      3229 9.52603E-03-7.18755E-05-4.55685E-14
 -1      3230 9.38284E-03-6.12271E-05-4.40681E-14
 -1      3231 9.32684E-03-9.17877E-05-4.34523E-14
 -1      3232 9.81225E-03-9.38789E-05-4.86255E-14
 -1      3233 9.66915E-03-8.27582E-05-4.70863E-14
 -1      3234 9.61210E-03-1.13306E-04-4.64501E-14
 -1      3235 1.00983E-02-1.16843E-04-5.17615E-14
 -1      3236 9.95531E-03-1.05242E-04-5.01843E-14
 -1      3237 9.89748E-03-1.35757E-04-4.95286E-14
 -1      3238 1.03843E-02-1.40733E-04-5.49735E-14
 -1      3239 1.02413E-02-1.28676E-04-5.33586E-14
 -1      3240 1.01830E-02-1.59145E-04-5.26857E-14
 -1      3241 1.06703E-02-1.65467E-04-5.82597E-14
 -1      3242 1.05273E-02-1.53000E-04-5.66070E-14
 -1      3243 1.04685E-02-1.83414E-04-5.59164E-14
 -1      3244 1.09561E-02-1.90944E-04-6.16163E-14
 -1      3245 1.08132E-02-1.78119E-04-5.99292E-14
 -1      3246 1.07542E-02-2.08478E-04-5.92188E-14
 -1      3247 1.12420E-02-2.17053E-04-6.50442E-14
 -1      3248 1.10991E-02-2.03926E-04-6.33217E-14
 -1      3249 1.10398E-02-2.34230E-04-6.25932E-14
 -1      3250 1.15278E-02-2.43687E-04-6.85331E-14
 -1      3251 1.13849E-02-2.30310E-04-6.67799E-14
 -1      3252 1.13256E-02-2.60564E-04-6.60345E-14
 -1      3253 1.18135E-02-2.70748E-04-7.20862E-14
 -1      3254 1.16707E-02-2.57169E-04-7.03025E-14
 -1      3255 1.16113E-02-2.87379E-04-6.95382E-14
 -1      3256 1.20993E-02-2.98149E-04-7.56932E-14
 -1      3257 1.19564E-02-2.84410E-04-7.38831E-14
 -1      3258 1.18970E-02-3.14581E-04-7.31048E-14
 -1      3259 1.23850E-02-3.25814E-04-7.93525E-14
 -1      3260 1.22422E-02-3.11952E-04-7.75157E-14
 -1      3261 1.21828E-02-3.42090E-04-7.67251E-14
 -1      3262 1.26708E-02-3.53680E-04-8.30451E-14
 -1      3263 1.25279E-02-3.39725E-04-8.11965E-14
 -1      3264 1.24685E-02-3.69837E-04-8.03914E-14
 -1      3265 1.29565E-02-3.81696E-04-8.67749E-14
 -1      3266 1.28136E-02-3.67672E-04-8.49064E-14
 -1      3267 1.27543E-02-3.97764E-04-8.40968E-14
 -1      3268 1.32422E-02-4.09818E-04-9.05237E-14
 -1      3269 1.30994E-02-3.95746E-04-8.86455E-14
 -1      3270 1.30400E-02-4.25822E-04-8.78300E-14
 -1      3271 1.35279E-02-4.38012E-04-9.42948E-14
 -1      3272 1.33851E-02-4.23908E-04-9.24046E-14
 -1      3273 1.33258E-02-4.53974E-04-9.15872E-14
 -1      3274 1.38137E-02-4.66250E-04-9.80800E-14
 -1      3275 1.36708E-02-4.52127E-04-9.61863E-14
 -1      3276 1.36115E-02-4.82188E-04-9.53616E-14
 -1      3277 1.40167E-02-4.97165E-04-1.00774E-13
 -1      3278 1.39029E-02-4.78144E-04-9.92659E-14
 -1      3279 1.38436E-02-5.08204E-04-9.84394E-14
 -1      3280 1.40221E-02-5.31997E-04-1.00809E-13
 -1      3281 1.42927E-02-1.29285E-03-1.03300E-13
 -1      3282 9.38403E-04 3.05114E-05-7.53019E-16
 -1      3283 9.29366E-04 1.37226E-05-7.66436E-16
 -1      3284 1.41577E-02-1.08448E-03-1.01855E-13
 -1      3285 1.41437E-02-1.04231E-03-1.01742E-13
 -1      3286 1.40131E-02-1.00930E-03-1.00022E-13
 -1      3287 1.41020E-02-9.16516E-04-1.01389E-13
 -1      3288 1.40881E-02-8.74346E-04-1.01268E-13
 -1      3289 1.39852E-02-9.24969E-04-9.97909E-14
 -1      3290 6.87264E-03-2.29979E-04-1.69368E-14
 -1      3291 2.32815E-03-9.22143E-06-4.32576E-15
 -1      3292 2.46196E-03 3.74125E-05-4.43227E-15
 -1      3293 3.89331E-03 8.04468E-04-6.65558E-15
 -1      3294 3.72048E-03 7.48841E-04-6.09747E-15
 -1      3295 3.61153E-03 6.69818E-04-5.90240E-15
 -1      3296 2.18789E-03 3.56793E-04-2.27638E-15
 -1      3297 2.03159E-03 3.35358E-04-1.97513E-15
 -1      3298 6.27743E-03-4.98164E-04-1.63504E-14
 -1      3299 6.09123E-03-5.81662E-04-1.57034E-14
 -1      3300 1.17162E-03 2.38440E-04-6.71948E-16
 -1      3301 1.09451E-03 2.00555E-04-6.42701E-16
 -1      3302 1.20669E-03 1.98936E-04-8.05223E-16
 -1      3303 1.31947E-03 2.58036E-04-8.43618E-16
 -1      3304 4.18033E-03 8.32622E-04-7.84916E-15
 -1      3305 4.33050E-03 8.61099E-04-8.40887E-15
 -1      3306 6.28415E-03 1.15559E-05-1.58232E-14
 -1      3307 6.46263E-03-6.84256E-05-1.62306E-14
 -1      3308 4.05822E-03-1.02456E-03-7.90863E-15
 -1      3309 1.41858E-02-1.16881E-03-1.02078E-13
 -1      3310 1.41717E-02-1.12665E-03-1.01967E-13
 -1      3311 1.40411E-02-1.09363E-03-1.00245E-13
 -1      3312 6.56776E-03-3.61657E-04-1.70115E-14
 -1      3313 6.42319E-03-4.24181E-04-1.66810E-14
 -1      3314 6.46187E-03-4.63685E-04-1.73824E-14
 -1      3315 4.75661E-03 8.48731E-04-1.01301E-14
 -1      3316 4.72046E-03 8.23382E-04-1.00071E-14
 -1      3317 4.88643E-03 7.59798E-04-1.07259E-14
 -1      3318 4.92348E-03 7.96642E-04-1.08879E-14
 -1      3319 5.75939E-03 2.54857E-04-1.39431E-14
 -1      3320 5.96815E-03 1.58057E-04-1.47604E-14
 -1      3321 2.28589E-03-1.43000E-04-4.55129E-15
 -1      3322 2.20509E-03-1.17987E-04-4.53623E-15
 -1      3323 3.07966E-03-4.65224E-04-5.66300E-15
 -1      3324 2.89905E-03-3.77135E-04-5.37138E-15
 -1      3325 3.86346E-03-9.18216E-04-7.32727E-15
 -1      3326 6.81823E-03-2.81004E-04-1.77190E-14
 -1      3327 6.70170E-03-3.13319E-04-1.73651E-14
 -1      3328 6.71940E-03-3.52578E-04-1.80871E-14
 -1      3329 8.78585E-04-1.46203E-04-5.99510E-16
 -1      3330 3.44863E-03-6.88748E-04-6.22751E-15
 -1      3331 2.67469E-03 1.13831E-04-4.70173E-15
 -1      3332 2.86833E-03 1.93248E-04-4.96088E-15
 -1      3333 3.11625E-03 3.03204E-04-5.36835E-15
 -1      3334 3.30677E-03 3.89835E-04-5.74134E-15
 -1      3335 2.16087E-03-1.02483E-04-4.52485E-15
 -1      3336 2.14812E-03-9.35823E-05-4.51101E-15
 -1      3337 2.12943E-03-1.06705E-04-4.21844E-15
 -1      3338 3.28949E-03-5.92638E-04-5.93445E-15
 -1      3339 6.93062E-03-2.28720E-04-1.76436E-14
 -1      3340 6.90031E-03-2.45027E-04-1.77031E-14
 -1      3341 3.15399E-03-5.49932E-04-5.51732E-15
 -1      3342 9.23525E-04-1.81103E-06-7.77942E-16
 -1      3343 9.21233E-04-1.66189E-05-7.87158E-16
 -1      3344 1.03116E-03 5.44653E-06-9.36886E-16
 -1      3345 1.12902E-03 1.41274E-04-8.13409E-16
 -1      3346 1.00002E-03 1.16386E-04-6.77599E-16
 -1      3347 9.81531E-04 9.15753E-05-6.99961E-16
 -1      3348 2.79504E-03-3.89923E-04-4.78818E-15
 -1      3349 2.96832E-03-4.82835E-04-5.02324E-15
 -1      3350 5.27233E-03 5.37848E-04-1.22279E-14
 -1      3351 5.40553E-03 4.71958E-04-1.27941E-14
 -1      3352 5.20484E-03 5.94361E-04-1.20372E-14
 -1      3353 4.98388E-03 7.20504E-04-1.11505E-14
 -1      3354 2.74203E-03-3.25280E-04-4.99909E-15
 -1      3355 9.64507E-04-9.71331E-05-8.02648E-16
 -1      3356 9.83069E-04-1.18126E-04-7.99084E-16
 -1      3357 1.42089E-02-1.24862E-03-1.02238E-13
 -1      3358 1.40189E-02-6.64038E-04-1.00617E-13
 -1      3359 1.40052E-02-6.22230E-04-1.00480E-13
 -1      3360 1.18380E-03-2.00416E-04-9.76893E-16
 -1      3361 1.31149E-03-2.16083E-04-1.17175E-15
 -1      3362 1.35151E-03-1.94715E-04-1.30020E-15
 -1      3363 1.39573E-02-8.40638E-04-9.95475E-14
 -1      3364 1.40742E-02-8.32176E-04-1.01141E-13
 -1      3365 1.40603E-02-7.90006E-04-1.01012E-13
 -1      3366 1.00273E-03-1.63539E-04-7.52030E-16
 -1      3367 2.18308E-03-3.80141E-05-4.07222E-15
 -1      3368 2.25139E-03-2.63186E-05-4.19840E-15
 -1      3369 2.25263E-03 5.37037E-06-3.95405E-15
 -1      3370 3.96883E-03 7.95734E-04-7.01861E-15
 -1      3371 2.89130E-03 4.45185E-04-3.99790E-15
 -1      3372 2.84337E-03 4.80730E-04-3.72055E-15
 -1      3373 2.67470E-03 4.42301E-04-3.32305E-15
 -1      3374 5.02808E-03 7.28031E-04-1.13656E-14
 -1      3375 6.02890E-03 1.68822E-04-1.53538E-14
 -1      3376 6.15134E-03 8.72234E-05-1.55891E-14
 -1      3377 6.32399E-03 3.28878E-05-1.64392E-14
 -1      3378 1.40465E-02-7.48105E-04-1.00883E-13
 -1      3379 1.40327E-02-7.05937E-04-1.00749E-13
 -1      3380 1.39021E-02-6.72783E-04-9.90351E-14
 -1      3381 1.39296E-02-7.56575E-04-9.92945E-14
 -1      3382 9.50357E-04 4.88210E-05-7.37732E-16
 -1      3383 1.05254E-03 4.23655E-05-9.05919E-16
 -1      3384 9.64758E-04 6.90668E-05-7.19883E-16
 -1      3385 5.66909E-03 3.20195E-04-1.37499E-14
 -1      3386 6.84758E-03-1.89080E-04-1.75080E-14
 -1      3387 6.92280E-03-1.99632E-04-1.81932E-14
 -1      3388 6.81346E-03-1.71615E-04-1.76803E-14
 -1      3389 1.41847E-02-1.21531E-03-1.01970E-13
 -1      3390 6.92059E-03-2.72146E-04-1.84410E-14
 -1      3391 6.96972E-03-2.27191E-04-1.82217E-14
 -1      3392 2.34702E-03 3.81040E-04-2.60127E-15
 -1      3393 2.22901E-03 3.21569E-04-2.49627E-15
 -1      3394 2.50904E-03 4.09375E-04-2.95036E-15
 -1      3395 3.40399E-03 4.62239E-04-5.82684E-15
 -1      3396 6.58574E-03-1.00839E-04-1.68437E-14
 -1      3397 1.87750E-03 3.16200E-04-1.69702E-15
 -1      3398 1.72542E-03 2.98347E-04-1.44160E-15
 -1      3399 1.91953E-03 2.83721E-04-1.88666E-15
 -1      3400 1.40541E-02-1.18229E-03-1.00245E-13
 -1      3401 2.33462E-03-1.66644E-04-4.48151E-15
 -1      3402 2.21249E-03-1.43471E-04-4.15916E-15
 -1      3403 2.38480E-03-1.95968E-04-4.40994E-15
 -1      3404 2.12327E-03-8.03907E-05-4.26366E-15
 -1      3405 9.36536E-04-6.14658E-05-8.02608E-16
 -1      3406 9.48816E-04-7.84241E-05-8.03787E-16
 -1      3407 1.06558E-03-9.61871E-05-9.73641E-16
 -1      3408 2.97162E-03 2.62811E-04-4.98635E-15
 -1      3409 3.06472E-03 3.34962E-04-5.00977E-15
 -1      3410 2.83254E-03 2.33889E-04-4.61977E-15
 -1      3411 2.52339E-03 8.46074E-05-4.33333E-15
 -1      3412 2.57848E-03 1.36238E-04-4.23241E-15
 -1      3413 2.38300E-03 6.67629E-05-3.98110E-15
 -1      3414 3.70750E-03 6.50998E-04-6.36711E-15
 -1      3415 3.84236E-03 7.00191E-04-6.78799E-15
 -1      3416 1.59654E-03 2.87542E-04-1.23050E-15
 -1      3417 1.44696E-03 2.70030E-04-1.01732E-15
 -1      3418 1.38804E-03 2.38767E-04-9.96707E-16
 -1      3419 1.64100E-03 2.58368E-04-1.39195E-15
 -1      3420 4.08054E-03 8.07079E-04-7.47701E-15
 -1      3421 2.59885E-03-2.96834E-04-4.54279E-15
 -1      3422 5.11302E-03 6.64364E-04-1.17156E-14
 -1      3423 1.78076E-03-2.07624E-04-2.25529E-15
 -1      3424 1.91647E-03-2.19441E-04-2.58360E-15
 -1      3425 2.05296E-03-2.32250E-04-2.93401E-15
 -1      3426 2.19196E-03-2.47379E-04-3.30710E-15
 -1      3427 1.93373E-03-1.91846E-04-2.76031E-15
 -1      3428 6.61876E-03-4.46196E-04-1.83814E-14
 -1      3429 7.01557E-03-2.64659E-04-1.91921E-14
 -1      3430 6.95461E-03-2.98371E-04-1.92060E-14
 -1      3431 6.79069E-03-4.34542E-04-1.95371E-14
 -1      3432 6.93355E-03-4.33003E-04-2.05872E-14
 -1      3433 7.07244E-03-4.36140E-04-2.16621E-14
 -1      3434 7.20964E-03-4.42008E-04-2.27605E-14
 -1      3435 7.04606E-03-3.94938E-04-2.10930E-14
 -1      3436 7.34515E-03-4.50700E-04-2.38844E-14
 -1      3437 7.48027E-03-4.61368E-04-2.50327E-14
 -1      3438 7.30660E-03-4.12009E-04-2.32898E-14
 -1      3439 7.61499E-03-4.73807E-04-2.62068E-14
 -1      3440 7.75000E-03-4.87626E-04-2.74039E-14
 -1      3441 7.56663E-03-4.35849E-04-2.55841E-14
 -1      3442 7.88522E-03-5.02576E-04-2.86237E-14
 -1      3443 8.02102E-03-5.18483E-04-2.98688E-14
 -1      3444 7.82907E-03-4.64338E-04-2.79761E-14
 -1      3445 8.15728E-03-5.35087E-04-3.11362E-14
 -1      3446 8.29420E-03-5.52295E-04-3.24243E-14
 -1      3447 8.09490E-03-4.96064E-04-3.04598E-14
 -1      3448 8.43164E-03-5.69876E-04-3.37366E-14
 -1      3449 8.56971E-03-5.87779E-04-3.50710E-14
 -1      3450 8.36429E-03-5.29902E-04-3.30359E-14
 -1      3451 8.70827E-03-6.05818E-04-3.64245E-14
 -1      3452 8.84738E-03-6.23967E-04-3.77989E-14
 -1      3453 8.63695E-03-5.64919E-04-3.56996E-14
 -1      3454 8.98693E-03-6.42087E-04-3.91964E-14
 -1      3455 9.12693E-03-6.60167E-04-4.06162E-14
 -1      3456 8.91246E-03-6.00374E-04-3.84476E-14
 -1      3457 9.26728E-03-6.78111E-04-4.20549E-14
 -1      3458 9.40801E-03-6.95919E-04-4.35141E-14
 -1      3459 9.19036E-03-6.35727E-04-4.12808E-14
 -1      3460 9.54902E-03-7.13530E-04-4.49949E-14
 -1      3461 9.69032E-03-7.30951E-04-4.64944E-14
 -1      3462 9.47020E-03-6.70618E-04-4.41977E-14
 -1      3463 9.83184E-03-7.48149E-04-4.80157E-14
 -1      3464 9.97358E-03-7.65134E-04-4.95572E-14
 -1      3465 9.75157E-03-7.04833E-04-4.71951E-14
 -1      3466 1.01155E-02-7.81891E-04-5.11168E-14
 -1      3467 1.02576E-02-7.98435E-04-5.26959E-14
 -1      3468 1.00341E-02-7.38277E-04-5.02740E-14
 -1      3469 1.03998E-02-8.14763E-04-5.42928E-14
 -1      3470 1.05421E-02-8.30890E-04-5.59066E-14
 -1      3471 1.03176E-02-7.70934E-04-5.34288E-14
 -1      3472 1.06845E-02-8.46821E-04-5.75408E-14
 -1      3473 1.08270E-02-8.62571E-04-5.91930E-14
 -1      3474 1.06018E-02-8.02839E-04-5.66587E-14
 -1      3475 1.09696E-02-8.78150E-04-6.08614E-14
 -1      3476 1.11122E-02-8.93571E-04-6.25473E-14
 -1      3477 1.08865E-02-8.34064E-04-5.99557E-14
 -1      3478 1.12549E-02-9.08847E-04-6.42481E-14
 -1      3479 1.13977E-02-9.23990E-04-6.59679E-14
 -1      3480 1.11715E-02-8.64693E-04-6.33252E-14
 -1      3481 1.15404E-02-9.39012E-04-6.77031E-14
 -1      3482 1.16832E-02-9.53924E-04-6.94526E-14
 -1      3483 1.14568E-02-8.94815E-04-6.67596E-14
 -1      3484 1.18260E-02-9.68738E-04-7.12207E-14
 -1      3485 1.19689E-02-9.83463E-04-7.29997E-14
 -1      3486 1.17423E-02-9.24516E-04-7.02605E-14
 -1      3487 1.21117E-02-9.98110E-04-7.47905E-14
 -1      3488 1.22546E-02-1.01269E-03-7.65955E-14
 -1      3489 1.20279E-02-9.53875E-04-7.38155E-14
 -1      3490 1.23975E-02-1.02720E-03-7.84121E-14
 -1      3491 1.25403E-02-1.04166E-03-8.02400E-14
 -1      3492 1.23136E-02-9.82963E-04-7.74221E-14
 -1      3493 1.26832E-02-1.05608E-03-8.20776E-14
 -1      3494 1.28261E-02-1.07045E-03-8.39263E-14
 -1      3495 1.25994E-02-1.01184E-03-8.10762E-14
 -1      3496 1.29690E-02-1.08479E-03-8.57839E-14
 -1      3497 1.31119E-02-1.09910E-03-8.76558E-14
 -1      3498 1.28851E-02-1.04055E-03-8.47716E-14
 -1      3499 1.32548E-02-1.11338E-03-8.95392E-14
 -1      3500 1.33976E-02-1.12765E-03-9.14281E-14
 -1      3501 1.31709E-02-1.06915E-03-8.85109E-14
 -1      3502 1.35405E-02-1.14189E-03-9.33280E-14
 -1      3503 1.36834E-02-1.15612E-03-9.52386E-14
 -1      3504 1.34567E-02-1.09766E-03-9.22926E-14
 -1      3505 1.37973E-02-1.16210E-03-9.67753E-14
 -1      3506 1.39402E-02-1.17632E-03-9.86974E-14
 -1      3507 1.39413E-02-1.12982E-03-9.88085E-14
 -1      3508 1.37135E-02-1.11787E-03-9.57285E-14
 -1      3509 6.52288E-03 1.56599E-04-1.89666E-14
 -1      3510 6.35981E-03 1.94116E-04-1.79522E-14
 -1      3511 6.83596E-03 9.81481E-05-2.10710E-14
 -1      3512 6.68146E-03 1.25262E-04-2.00056E-14
 -1      3513 6.65585E-03 8.97256E-05-1.95891E-14
 -1      3514 7.13581E-03 5.47654E-05-2.32783E-14
 -1      3515 6.98722E-03 7.50562E-05-2.21622E-14
 -1      3516 6.95870E-03 4.19508E-05-2.17238E-14
 -1      3517 7.42722E-03 2.12323E-05-2.55801E-14
 -1      3518 7.28231E-03 3.70814E-05-2.44176E-14
 -1      3519 7.24975E-03 5.97891E-06-2.39566E-14
 -1      3520 7.71375E-03-6.00379E-06-2.79798E-14
 -1      3521 7.57090E-03 7.02410E-06-2.67676E-14
 -1      3522 7.53404E-03-2.27917E-05-2.62855E-14
 -1      3523 7.99776E-03-2.93720E-05-3.04736E-14
 -1      3524 7.85594E-03-1.80452E-05-2.92147E-14
 -1      3525 7.81496E-03-4.72021E-05-2.87092E-14
 -1      3526 8.28072E-03-5.05732E-05-3.30649E-14
 -1      3527 8.13929E-03-4.01609E-05-3.17574E-14
 -1      3528 8.09462E-03-6.90932E-05-3.12295E-14
 -1      3529 8.56346E-03-7.08045E-05-3.57470E-14
 -1      3530 8.42207E-03-6.07566E-05-3.43947E-14
 -1      3531 8.37421E-03-8.97189E-05-3.38445E-14
 -1      3532 8.84642E-03-9.08878E-05-3.85188E-14
 -1      3533 8.70488E-03-8.08313E-05-3.71220E-14
 -1      3534 8.65435E-03-1.09950E-04-3.65502E-14
 -1      3535 9.12978E-03-1.11358E-04-4.13753E-14
 -1      3536 8.98803E-03-1.01056E-04-3.99362E-14
 -1      3537 8.93531E-03-1.30375E-04-3.93417E-14
 -1      3538 9.41360E-03-1.32536E-04-4.43145E-14
 -1      3539 9.27162E-03-1.21850E-04-4.28352E-14
 -1      3540 9.21716E-03-1.51367E-04-4.22196E-14
 -1      3541 9.69786E-03-1.54580E-04-4.73356E-14
 -1      3542 9.55567E-03-1.43447E-04-4.58165E-14
 -1      3543 9.49984E-03-1.73137E-04-4.51810E-14
 -1      3544 9.98250E-03-1.77542E-04-5.04355E-14
 -1      3545 9.84013E-03-1.65949E-04-4.88743E-14
 -1      3546 9.78326E-03-1.95776E-04-4.82238E-14
 -1      3547 1.02675E-02-2.01397E-04-5.36108E-14
 -1      3548 1.01249E-02-1.89363E-04-5.20134E-14
 -1      3549 1.00673E-02-2.19294E-04-5.13430E-14
 -1      3550 1.05527E-02-2.26076E-04-5.68605E-14
 -1      3551 1.04100E-02-2.13640E-04-5.52275E-14
 -1      3552 1.03518E-02-2.43645E-04-5.45372E-14
 -1      3553 1.08380E-02-2.51487E-04-6.01790E-14
 -1      3554 1.06953E-02-2.38697E-04-5.85115E-14
 -1      3555 1.06367E-02-2.68750E-04-5.78051E-14
 -1      3556 1.11236E-02-2.77526E-04-6.35706E-14
 -1      3557 1.09808E-02-2.64434E-04-6.18660E-14
 -1      3558 1.09219E-02-2.94516E-04-6.11416E-14
 -1      3559 1.14092E-02-3.04091E-04-6.70276E-14
 -1      3560 1.12663E-02-2.90748E-04-6.52916E-14
 -1      3561 1.12072E-02-3.20846E-04-6.45499E-14
 -1      3562 1.16948E-02-3.31089E-04-7.05465E-14
 -1      3563 1.15520E-02-3.17541E-04-6.87786E-14
 -1      3564 1.14928E-02-3.47643E-04-6.80215E-14
 -1      3565 1.19806E-02-3.58433E-04-7.41248E-14
 -1      3566 1.18377E-02-3.44722E-04-7.23293E-14
 -1      3567 1.17784E-02-3.74822E-04-7.15543E-14
 -1      3568 1.22663E-02-3.86049E-04-7.77578E-14
 -1      3569 1.21234E-02-3.72211E-04-7.59362E-14
 -1      3570 1.20641E-02-4.02305E-04-7.51474E-14
 -1      3571 1.25521E-02-4.13876E-04-8.14335E-14
 -1      3572 1.24092E-02-3.99939E-04-7.95898E-14
 -1      3573 1.23499E-02-4.30026E-04-7.87900E-14
 -1      3574 1.28378E-02-4.41860E-04-8.51466E-14
 -1      3575 1.26949E-02-4.27851E-04-8.32859E-14
 -1      3576 1.26356E-02-4.57929E-04-8.24755E-14
 -1      3577 1.31236E-02-4.69960E-04-8.88875E-14
 -1      3578 1.29807E-02-4.55898E-04-8.70131E-14
 -1      3579 1.29214E-02-4.85969E-04-8.61970E-14
 -1      3580 1.34093E-02-4.98139E-04-9.26506E-14
 -1      3581 1.32665E-02-4.84041E-04-9.07659E-14
 -1      3582 1.32072E-02-5.14107E-04-8.99468E-14
 -1      3583 1.36951E-02-5.26371E-04-9.64310E-14
 -1      3584 1.35522E-02-5.12250E-04-9.45386E-14
 -1      3585 1.34929E-02-5.42312E-04-9.37149E-14
 -1      3586 5.23742E-03 6.08274E-04-1.22665E-14
 -1      3587 1.38964E-02-1.01809E-03-9.84163E-14
 -1      3588 1.38824E-02-9.75935E-04-9.83051E-14
 -1      3589 1.40163E-02-5.94531E-04-1.00660E-13
 -1      3590 1.40110E-02-5.59695E-04-1.00627E-13
 -1      3591 1.39217E-02-5.47796E-04-9.94439E-14
 -1      3592 1.38994E-02-6.03191E-04-9.90831E-14
 -1      3593 1.38684E-02-9.33774E-04-9.81913E-14
 -1      3594 1.38544E-02-8.91614E-04-9.80755E-14
 -1      3595 1.37516E-02-9.42573E-04-9.65943E-14
 -1      3596 1.04967E-03-1.48037E-04-8.53999E-16
 -1      3597 3.51740E-03 5.76357E-04-5.83107E-15
 -1      3598 5.58120E-03 3.87028E-04-1.35484E-14
 -1      3599 5.75511E-03 3.10829E-04-1.43236E-14
 -1      3600 5.50506E-03 4.51050E-04-1.33447E-14
 -1      3601 1.33051E-03 2.09229E-04-9.73952E-16
 -1      3602 1.27462E-03 1.81462E-04-9.49205E-16
 -1      3603 1.45482E-03 2.18360E-04-1.16026E-15
 -1      3604 3.33694E-03 4.97738E-04-5.39670E-15
 -1      3605 9.22620E-04-3.11072E-05-7.94395E-16
 -1      3606 9.27709E-04-4.59028E-05-7.99572E-16
 -1      3607 1.03709E-03-5.93694E-05-9.70944E-16
 -1      3608 5.77508E-03 3.75967E-04-1.47691E-14
 -1      3609 5.59028E-03 4.49295E-04-1.38706E-14
 -1      3610 3.14905E-03 4.36019E-04-4.91182E-15
 -1      3611 1.15333E-03-1.47197E-04-1.03360E-15
 -1      3612 2.06022E-03-7.93287E-05-3.95484E-15
 -1      3613 2.10112E-03-6.42064E-05-4.00736E-15
 -1      3614 1.51128E-03-1.85353E-04-1.66586E-15
 -1      3615 1.64600E-03-1.96458E-04-1.94938E-15
 -1      3616 1.67421E-03-1.72844E-04-2.10510E-15
 -1      3617 7.00179E-03-2.22361E-04-1.87485E-14
 -1      3618 7.02317E-03-2.38663E-04-1.89531E-14
 -1      3619 2.09789E-03-1.10993E-04-3.96111E-15
 -1      3620 2.06520E-03-9.59692E-05-3.95274E-15
 -1      3621 1.39258E-02-1.09504E-03-9.86681E-14
 -1      3622 1.39118E-02-1.05288E-03-9.85592E-14
 -1      3623 1.37810E-02-1.01951E-03-9.68471E-14
 -1      3624 1.38119E-02-1.08907E-03-9.71284E-14
 -1      3625 6.86818E-03-3.51723E-04-1.92361E-14
 -1      3626 6.75679E-03-3.91758E-04-1.88624E-14
 -1      3627 6.60926E-03-8.06056E-05-1.74852E-14
 -1      3628 6.73111E-03-1.36301E-04-1.76515E-14
 -1      3629 2.46527E-03-2.87443E-04-4.06271E-15
 -1      3630 2.42142E-03-2.31723E-04-4.25819E-15
 -1      3631 2.27835E-03-1.96631E-04-3.94436E-15
 -1      3632 2.31840E-03-2.65083E-04-3.64765E-15
 -1      3633 1.24813E-03 1.48615E-04-9.83249E-16
 -1      3634 7.07650E-03-2.58710E-04-1.97350E-14
 -1      3635 1.08624E-03 8.69898E-05-8.64990E-16
 -1      3636 2.18163E-03-2.15023E-04-3.45064E-15
 -1      3637 2.08714E-03-4.22598E-05-3.77324E-15
 -1      3638 1.27106E-03-1.60796E-04-1.22462E-15
 -1      3639 1.39215E-03-1.72400E-04-1.44131E-15
 -1      3640 1.42870E-03-1.52287E-04-1.57628E-15
 -1      3641 1.19930E-03-1.29383E-04-1.15660E-15
 -1      3642 1.38405E-02-8.49453E-04-9.79572E-14
 -1      3643 1.38266E-02-8.07293E-04-9.78344E-14
 -1      3644 1.37237E-02-8.58263E-04-9.63665E-14
 -1      3645 3.00507E-03 3.98600E-04-4.54197E-15
 -1      3646 2.82735E-03 3.54958E-04-4.10381E-15
 -1      3647 5.93840E-03 2.30617E-04-1.51389E-14
 -1      3648 6.11728E-03 1.62133E-04-1.59760E-14
 -1      3649 5.85595E-03 2.93197E-04-1.49235E-14
 -1      3650 5.42428E-03 5.23416E-04-1.31095E-14
 -1      3651 1.37620E-02-5.93656E-04-9.72522E-14
 -1      3652 1.37732E-02-5.65960E-04-9.74323E-14
 -1      3653 1.38325E-02-5.35899E-04-9.82579E-14
 -1      3654 6.99539E-03-3.33064E-04-2.00078E-14
 -1      3655 6.83340E-03-1.54650E-04-1.83396E-14
 -1      3656 2.55169E-03 3.72716E-04-3.19894E-15
 -1      3657 3.90126E-03 7.46625E-04-6.88425E-15
 -1      3658 1.17610E-03-1.06409E-04-1.15916E-15
 -1      3659 1.28706E-03-1.16412E-04-1.36112E-15
 -1      3660 1.15707E-03-8.56146E-05-1.15896E-15
 -1      3661 1.37625E-02-6.35189E-04-9.72103E-14
 -1      3662 1.36363E-02-5.97960E-04-9.55649E-14
 -1      3663 2.11924E-03-1.26206E-04-3.89641E-15
 -1      3664 2.03601E-03-1.12861E-04-3.64236E-15
 -1      3665 2.14692E-03-1.45045E-04-3.83011E-15
 -1      3666 1.37763E-02-6.77079E-04-9.73411E-14
 -1      3667 1.95885E-03 2.50011E-04-2.08149E-15
 -1      3668 1.80929E-03 2.35794E-04-1.79618E-15
 -1      3669 1.02545E-03-2.70344E-05-9.58597E-16
 -1      3670 2.22081E-03 2.22660E-05-3.74249E-15
 -1      3671 2.29931E-03 4.19287E-05-3.86078E-15
 -1      3672 2.34421E-03 8.34790E-05-3.76634E-15
 -1      3673 5.94831E-03 3.02445E-04-1.55960E-14
 -1      3674 6.38584E-03 4.88223E-05-1.71279E-14
 -1      3675 6.49600E-03-1.47861E-05-1.73769E-14
 -1      3676 6.12471E-03 2.47032E-04-1.65468E-14
 -1      3677 1.14072E-03 1.39307E-05-1.10978E-15
 -1      3678 1.13238E-03-4.51736E-06-1.12498E-15
 -1      3679 2.01011E-03-8.18990E-05-3.70892E-15
 -1      3680 6.99888E-03-2.11492E-04-1.89273E-14
 -1      3681 7.07052E-03-2.23221E-04-1.96729E-14
 -1      3682 6.98739E-03-1.98626E-04-1.91058E-14
 -1      3683 2.66916E-03 1.92334E-04-4.25274E-15
 -1      3684 2.75516E-03 2.52939E-04-4.27070E-15
 -1      3685 2.51384E-03 1.61757E-04-3.90255E-15
 -1      3686 6.65549E-03-6.02331E-05-1.81986E-14
 -1      3687 1.16981E-03 5.57263E-05-1.07177E-15
 -1      3688 1.15343E-03 3.37984E-05-1.09208E-15
 -1      3689 1.25282E-03 2.35982E-05-1.29616E-15
 -1      3690 2.26674E-03 2.84434E-04-2.72049E-15
 -1      3691 2.11113E-03 2.65797E-04-2.38951E-15
 -1      3692 1.99502E-03 2.14828E-04-2.28188E-15
 -1      3693 6.27134E-03 1.62821E-04-1.71309E-14
 -1      3694 1.82456E-03-1.58210E-04-2.58962E-15
 -1      3695 1.94778E-03-1.65873E-04-2.93827E-15
 -1      3696 7.13982E-03-2.50804E-04-2.03769E-14
 -1      3697 7.14425E-03-2.78465E-04-2.06224E-14
 -1      3698 1.38938E-03 1.54008E-04-1.21084E-15
 -1      3699 1.24459E-03 1.17580E-04-1.05117E-15
 -1      3700 1.22087E-03 8.94764E-05-1.07927E-15
 -1      3701 2.66718E-03 3.12134E-04-3.75809E-15
 -1      3702 7.27141E-03-3.75360E-04-2.26979E-14
 -1      3703 7.39536E-03-3.87125E-04-2.38192E-14
 -1      3704 7.52016E-03-3.99793E-04-2.49649E-14
 -1      3705 7.64660E-03-4.13467E-04-2.61355E-14
 -1      3706 7.47514E-03-3.65649E-04-2.43482E-14
 -1      3707 7.77419E-03-4.27844E-04-2.73298E-14
 -1      3708 7.90325E-03-4.42987E-04-2.85465E-14
 -1      3709 7.72014E-03-3.93112E-04-2.66841E-14
 -1      3710 8.03350E-03-4.58634E-04-2.97864E-14
 -1      3711 8.16508E-03-4.74833E-04-3.10511E-14
 -1      3712 7.97269E-03-4.22809E-04-2.91166E-14
 -1      3713 8.29775E-03-4.91352E-04-3.23374E-14
 -1      3714 8.43157E-03-5.08228E-04-3.36459E-14
 -1      3715 8.23172E-03-4.54239E-04-3.16402E-14
 -1      3716 8.56635E-03-5.25263E-04-3.49765E-14
 -1      3717 8.70209E-03-5.42482E-04-3.63273E-14
 -1      3718 8.49622E-03-4.86873E-04-3.42535E-14
 -1      3719 8.83864E-03-5.59726E-04-3.76991E-14
 -1      3720 8.97599E-03-5.77017E-04-3.90936E-14
 -1      3721 8.76527E-03-5.20169E-04-3.69535E-14
 -1      3722 9.11400E-03-5.94237E-04-4.05091E-14
 -1      3723 9.25266E-03-6.11405E-04-4.19450E-14
 -1      3724 9.03806E-03-5.53669E-04-3.97387E-14
 -1      3725 9.39186E-03-6.28439E-04-4.34016E-14
 -1      3726 9.53157E-03-6.45359E-04-4.48790E-14
 -1      3727 9.31390E-03-5.87027E-04-4.26084E-14
 -1      3728 9.67170E-03-6.62110E-04-4.63763E-14
 -1      3729 9.81224E-03-6.78712E-04-4.78948E-14
 -1      3730 9.59218E-03-6.20013E-04-4.55604E-14
 -1      3731 9.95311E-03-6.95133E-04-4.94345E-14
 -1      3732 1.00943E-02-7.11391E-04-5.09918E-14
 -1      3733 9.87237E-03-6.52491E-04-4.85947E-14
 -1      3734 1.02357E-02-7.27470E-04-5.25678E-14
 -1      3735 1.03774E-02-7.43388E-04-5.41624E-14
 -1      3736 1.01541E-02-6.84403E-04-5.17090E-14
 -1      3737 1.05193E-02-7.59139E-04-5.57767E-14
 -1      3738 1.06613E-02-7.74739E-04-5.74079E-14
 -1      3739 1.04369E-02-7.15746E-04-5.48978E-14
 -1      3740 1.08035E-02-7.90191E-04-5.90552E-14
 -1      3741 1.09458E-02-8.05508E-04-6.07224E-14
 -1      3742 1.07206E-02-7.46552E-04-5.81583E-14
 -1      3743 1.10882E-02-8.20696E-04-6.24042E-14
 -1      3744 1.12307E-02-8.35768E-04-6.41041E-14
 -1      3745 1.10050E-02-7.76876E-04-6.14860E-14
 -1      3746 1.13733E-02-8.50732E-04-6.58218E-14
 -1      3747 1.15159E-02-8.65598E-04-6.75539E-14
 -1      3748 1.12899E-02-8.06779E-04-6.48845E-14
 -1      3749 1.16586E-02-8.80374E-04-6.93017E-14
 -1      3750 1.18014E-02-8.95071E-04-7.10666E-14
 -1      3751 1.15750E-02-8.36327E-04-6.83486E-14
 -1      3752 1.19442E-02-9.09696E-04-7.28437E-14
 -1      3753 1.20870E-02-9.24256E-04-7.46315E-14
 -1      3754 1.18605E-02-8.65583E-04-7.18708E-14
 -1      3755 1.22298E-02-9.38760E-04-7.64336E-14
 -1      3756 1.23727E-02-9.53214E-04-7.82499E-14
 -1      3757 1.21460E-02-8.94603E-04-7.54480E-14
 -1      3758 1.25155E-02-9.67623E-04-8.00765E-14
 -1      3759 1.26584E-02-9.81994E-04-8.19129E-14
 -1      3760 1.24317E-02-9.23437E-04-7.90773E-14
 -1      3761 1.28013E-02-9.96331E-04-8.37607E-14
 -1      3762 1.29442E-02-1.01064E-03-8.56181E-14
 -1      3763 1.27175E-02-9.52127E-04-8.27497E-14
 -1      3764 1.30871E-02-1.02492E-03-8.74870E-14
 -1      3765 1.32300E-02-1.03919E-03-8.93674E-14
 -1      3766 1.30033E-02-9.80709E-04-8.64667E-14
 -1      3767 1.33729E-02-1.05343E-03-9.12575E-14
 -1      3768 1.35158E-02-1.06766E-03-9.31570E-14
 -1      3769 1.32890E-02-1.00921E-03-9.02230E-14
 -1      3770 1.36069E-02-1.07538E-03-9.43701E-14
 -1      3771 1.37208E-02-1.08136E-03-9.59031E-14
 -1      3772 1.37053E-02-1.04658E-03-9.57654E-14
 -1      3773 1.35231E-02-1.03116E-03-9.33300E-14
 -1      3774 7.36074E-03-3.91816E-05-2.46387E-14
 -1      3775 7.22062E-03-2.50321E-05-2.34976E-14
 -1      3776 1.39800E-03-1.26177E-04-1.57941E-15
 -1      3777 1.50928E-03-1.35817E-04-1.81384E-15
 -1      3778 1.37227E-03-1.02617E-04-1.57907E-15
 -1      3779 1.38128E-02-7.65400E-04-9.77091E-14
 -1      3780 1.37990E-02-7.23508E-04-9.75840E-14
 -1      3781 1.36960E-02-7.74222E-04-9.61280E-14
 -1      3782 6.78809E-03 2.84153E-05-2.02157E-14
 -1      3783 6.63692E-03 5.27552E-05-1.91727E-14
 -1      3784 7.63799E-03-6.41969E-05-2.69926E-14
 -1      3785 7.49965E-03-5.20913E-05-2.58030E-14
 -1      3786 7.46779E-03-8.09574E-05-2.53228E-14
 -1      3787 7.91365E-03-8.65695E-05-2.94420E-14
 -1      3788 7.77586E-03-7.56142E-05-2.82060E-14
 -1      3789 7.73856E-03-1.03300E-04-2.77030E-14
 -1      3790 8.18936E-03-1.07564E-04-3.19874E-14
 -1      3791 8.05140E-03-9.71824E-05-3.07022E-14
 -1      3792 8.00955E-03-1.24420E-04-3.01781E-14
 -1      3793 8.46599E-03-1.28031E-04-3.46258E-14
 -1      3794 8.32751E-03-1.17830E-04-3.32959E-14
 -1      3795 8.28187E-03-1.45067E-04-3.27470E-14
 -1      3796 8.74390E-03-1.48554E-04-3.73539E-14
 -1      3797 8.60476E-03-1.38266E-04-3.59785E-14
 -1      3798 8.55602E-03-1.65748E-04-3.54103E-14
 -1      3799 9.02319E-03-1.69524E-04-4.01682E-14
 -1      3800 8.88336E-03-1.58974E-04-3.87512E-14
 -1      3801 8.83211E-03-1.86816E-04-3.81600E-14
 -1      3802 9.30379E-03-1.91176E-04-4.30674E-14
 -1      3803 9.16332E-03-1.80261E-04-4.16073E-14
 -1      3804 9.11006E-03-2.08495E-04-4.09968E-14
 -1      3805 9.58554E-03-2.13631E-04-4.60520E-14
 -1      3806 9.44452E-03-2.02304E-04-4.45491E-14
 -1      3807 9.38967E-03-2.30912E-04-4.39187E-14
 -1      3808 9.86828E-03-2.36926E-04-4.91133E-14
 -1      3809 9.72679E-03-2.25178E-04-4.75727E-14
 -1      3810 9.67071E-03-2.54117E-04-4.69240E-14
 -1      3811 1.01518E-02-2.61039E-04-5.22532E-14
 -1      3812 1.00100E-02-2.48886E-04-5.06733E-14
 -1      3813 9.95292E-03-2.78105E-04-5.00058E-14
 -1      3814 1.04360E-02-2.85907E-04-5.54671E-14
 -1      3815 1.02938E-02-2.73385E-04-5.38507E-14
 -1      3816 1.02361E-02-3.02830E-04-5.31653E-14
 -1      3817 1.07206E-02-3.11450E-04-5.87519E-14
 -1      3818 1.05782E-02-2.98601E-04-5.71008E-14
 -1      3819 1.05200E-02-3.28224E-04-5.63980E-14
 -1      3820 1.10056E-02-3.37578E-04-6.21066E-14
 -1      3821 1.08631E-02-3.24447E-04-6.04202E-14
 -1      3822 1.08045E-02-3.54205E-04-5.97009E-14
 -1      3823 1.12909E-02-3.64198E-04-6.55304E-14
 -1      3824 1.11483E-02-3.50832E-04-6.38091E-14
 -1      3825 1.10894E-02-3.80690E-04-6.30720E-14
 -1      3826 1.15764E-02-3.91226E-04-6.90150E-14
 -1      3827 1.14336E-02-3.77666E-04-6.72664E-14
 -1      3828 1.13746E-02-4.07596E-04-6.65111E-14
 -1      3829 1.18620E-02-4.18583E-04-7.25636E-14
 -1      3830 1.17192E-02-4.04867E-04-7.07826E-14
 -1      3831 1.16600E-02-4.34847E-04-7.00112E-14
 -1      3832 1.21477E-02-4.46201E-04-7.61687E-14
 -1      3833 1.20048E-02-4.32363E-04-7.43583E-14
 -1      3834 1.19456E-02-4.62376E-04-7.35722E-14
 -1      3835 1.24334E-02-4.74023E-04-7.98193E-14
 -1      3836 1.22905E-02-4.60089E-04-7.79884E-14
 -1      3837 1.22313E-02-4.90123E-04-7.71878E-14
 -1      3838 1.27192E-02-5.01999E-04-8.35171E-14
 -1      3839 1.25763E-02-4.87994E-04-8.16643E-14
 -1      3840 1.25170E-02-5.18040E-04-8.08528E-14
 -1      3841 1.30050E-02-5.30090E-04-8.72481E-14
 -1      3842 1.28621E-02-5.16032E-04-8.53782E-14
 -1      3843 1.28028E-02-5.46085E-04-8.45586E-14
 -1      3844 1.32907E-02-5.58264E-04-9.10046E-14
 -1      3845 1.31479E-02-5.44168E-04-8.91235E-14
 -1      3846 1.30886E-02-5.74224E-04-8.82988E-14
 -1      3847 1.34934E-02-5.83836E-04-9.36745E-14
 -1      3848 1.36349E-02-9.51363E-04-9.50001E-14
 -1      3849 1.36209E-02-9.09215E-04-9.48907E-14
 -1      3850 6.87082E-03-1.39625E-04-1.90473E-14
 -1      3851 6.93519E-03-1.72620E-04-1.90785E-14
 -1      3852 7.02874E-03-1.87593E-04-1.98291E-14
 -1      3853 7.13362E-03-3.07260E-04-2.08500E-14
 -1      3854 7.07562E-03-3.52114E-04-2.08835E-14
 -1      3855 7.19682E-03-3.62274E-04-2.19647E-14
 -1      3856 7.22037E-03-2.96197E-04-2.15145E-14
 -1      3857 1.98543E-03-4.36123E-05-3.43412E-15
 -1      3858 2.05958E-03-1.71971E-05-3.49317E-15
 -1      3859 1.54198E-03 2.17790E-04-1.31789E-15
 -1      3860 1.48265E-03 1.88497E-04-1.28782E-15
 -1      3861 1.47307E-03 1.51590E-04-1.37065E-15
 -1      3862 1.66677E-03 2.25293E-04-1.53538E-15
 -1      3863 1.12879E-03-2.18194E-05-1.13761E-15
 -1      3864 1.13022E-03-3.88203E-05-1.14740E-15
 -1      3865 1.23312E-03-1.57132E-05-1.33041E-15
 -1      3866 1.13475E-03-5.24925E-05-1.15263E-15
 -1      3867 1.14535E-03-7.03834E-05-1.15760E-15
 -1      3868 1.25101E-03-7.79761E-05-1.35937E-15
 -1      3869 1.23424E-03-4.81045E-05-1.35054E-15
 -1      3870 7.07902E-03-9.49025E-06-2.23794E-14
 -1      3871 6.93502E-03 8.28952E-06-2.12851E-14
 -1      3872 7.19511E-03-5.61159E-05-2.30378E-14
 -1      3873 1.94341E-03-8.45556E-05-3.39772E-15
 -1      3874 1.94436E-03-6.68678E-05-3.40030E-15
 -1      3875 1.60498E-03-1.43221E-04-2.03196E-15
 -1      3876 1.72951E-03-1.50786E-04-2.34259E-15
 -1      3877 1.75371E-03-1.29574E-04-2.50394E-15
 -1      3878 1.57154E-03-1.17287E-04-2.03128E-15
 -1      3879 1.36595E-02-6.85912E-04-9.57640E-14
 -1      3880 2.54570E-03 3.08905E-04-3.40762E-15
 -1      3881 2.38320E-03 2.83893E-04-3.03365E-15
 -1      3882 2.25715E-03 2.24646E-04-2.90814E-15
 -1      3883 2.48194E-03 2.17232E-04-3.56563E-15
 -1      3884 2.17529E-03-1.92671E-04-3.57065E-15
 -1      3885 2.15747E-03-1.63751E-04-3.71185E-15
 -1      3886 2.05656E-03-1.44617E-04-3.46487E-15
 -1      3887 2.06285E-03-1.81909E-04-3.23592E-15
 -1      3888 1.34341E-02-6.13893E-04-9.28478E-14
 -1      3889 1.96435E-03 2.91040E-06-3.08827E-15
 -1      3890 2.08756E-03 1.01495E-05-3.40801E-15
 -1      3891 2.11972E-03 4.18856E-05-3.32109E-15
 -1      3892 1.32240E-03 8.02667E-05-1.28424E-15
 -1      3893 1.95052E-03-1.48217E-04-3.04754E-15
 -1      3894 1.70697E-03 1.94735E-04-1.70691E-15
 -1      3895 1.36789E-03 3.43998E-05-1.49564E-15
 -1      3896 1.35047E-03 1.17561E-05-1.51803E-15
 -1      3897 7.28288E-03-3.39611E-04-2.24741E-14
 -1      3898 1.34795E-02-7.06716E-04-9.33232E-14
 -1      3899 1.34568E-02-6.60305E-04-9.30870E-14
 -1      3900 1.32541E-02-6.34717E-04-9.04165E-14
 -1      3901 6.34873E-03 1.11133E-04-1.73632E-14
 -1      3902 6.91655E-03-2.62251E-05-2.08479E-14
 -1      3903 1.44642E-03-1.28045E-06-1.75722E-15
 -1      3904 1.33870E-03-8.86258E-06-1.53705E-15
 -1      3905 1.33323E-03-2.81803E-05-1.55309E-15
 -1      3906 6.52069E-03 6.25027E-05-1.83250E-14
 -1      3907 1.94757E-03-1.09838E-04-3.27979E-15
 -1      3908 1.94149E-03-9.64844E-05-3.33946E-15
 -1      3909 1.85551E-03-8.14128E-05-3.04905E-15
 -1      3910 2.02696E-03 1.78525E-04-2.48719E-15
 -1      3911 1.88196E-03 1.69213E-04-2.17316E-15
 -1      3912 1.36069E-02-8.67066E-04-9.47749E-14
 -1      3913 1.35930E-02-8.24919E-04-9.46608E-14
 -1      3914 1.34902E-02-8.75862E-04-9.31889E-14
 -1      3915 1.77887E-03 1.31557E-04-2.06679E-15
 -1      3916 1.74446E-03 1.63521E-04-1.88421E-15
 -1      3917 1.60815E-03 1.57745E-04-1.61663E-15
 -1      3918 2.33130E-03 1.21599E-04-3.53630E-15
 -1      3919 2.40756E-03 1.67949E-04-3.55228E-15
 -1      3920 2.30014E-03 1.74649E-04-3.21799E-15
 -1      3921 6.66439E-03-2.66176E-06-1.89281E-14
 -1      3922 2.25003E-03 9.54036E-05-3.42547E-15
 -1      3923 6.83116E-03-4.36841E-05-1.99398E-14
 -1      3924 6.72752E-03-4.07891E-05-1.90755E-14
 -1      3925 6.81673E-03-9.65585E-05-1.91907E-14
 -1      3926 6.96927E-03-5.90210E-05-2.10020E-14
 -1      3927 7.16224E-03-2.28214E-04-2.07535E-14
 -1      3928 7.15502E-03-2.39697E-04-2.05656E-14
 -1      3929 7.23767E-03-2.57938E-04-2.14740E-14
 -1      3930 1.36899E-02-1.01180E-03-9.56246E-14
 -1      3931 1.89345E-03-4.77444E-05-3.13914E-15
 -1      3932 1.35591E-02-9.78434E-04-9.39228E-14
 -1      3933 6.93286E-03-1.20629E-04-1.99469E-14
 -1      3934 7.42997E-03-3.33910E-04-2.37330E-14
 -1      3935 7.54647E-03-3.47053E-04-2.48763E-14
 -1      3936 1.44891E-03 8.18828E-05-1.52341E-15
 -1      3937 1.54662E-03 6.89641E-05-1.76646E-15
 -1      3938 7.28757E-03-3.08219E-04-2.22433E-14
 -1      3939 7.35759E-03-3.21069E-04-2.29823E-14
 -1      3940 7.28249E-03-2.80830E-04-2.20059E-14
 -1      3941 1.79957E-03-5.15597E-05-2.83851E-15
 -1      3942 1.83834E-03-2.73346E-05-2.86935E-15
 -1      3943 7.66566E-03-3.60279E-04-2.60424E-14
 -1      3944 7.78754E-03-3.74296E-04-2.72330E-14
 -1      3945 7.61006E-03-3.29458E-04-2.54032E-14
 -1      3946 7.91155E-03-3.88633E-04-2.84472E-14
 -1      3947 8.03765E-03-4.03470E-04-2.96841E-14
 -1      3948 7.84948E-03-3.56056E-04-2.77799E-14
 -1      3949 8.16551E-03-4.18563E-04-3.09441E-14
 -1      3950 8.29505E-03-4.34064E-04-3.22278E-14
 -1      3951 8.09866E-03-3.84299E-04-3.02513E-14
 -1      3952 8.42604E-03-4.49742E-04-3.35340E-14
 -1      3953 8.55840E-03-4.65684E-04-3.48607E-14
 -1      3954 8.35547E-03-4.13855E-04-3.28143E-14
 -1      3955 8.69195E-03-4.81709E-04-3.62095E-14
 -1      3956 8.82661E-03-4.97873E-04-3.75795E-14
 -1      3957 8.61841E-03-4.44337E-04-3.54668E-14
 -1      3958 8.96224E-03-5.14041E-04-3.89715E-14
 -1      3959 9.09878E-03-5.30253E-04-4.03839E-14
 -1      3960 8.88634E-03-4.75355E-04-3.82055E-14
 -1      3961 9.23610E-03-5.46408E-04-4.18177E-14
 -1      3962 9.37415E-03-5.62539E-04-4.32722E-14
 -1      3963 9.15831E-03-5.06592E-04-4.10290E-14
 -1      3964 9.51282E-03-5.78573E-04-4.47480E-14
 -1      3965 9.65207E-03-5.94537E-04-4.62433E-14
 -1      3966 9.43352E-03-5.37805E-04-4.39367E-14
 -1      3967 9.79181E-03-6.10384E-04-4.77579E-14
 -1      3968 9.93200E-03-6.26137E-04-4.92951E-14
 -1      3969 9.71133E-03-5.68831E-04-4.69256E-14
 -1      3970 1.00726E-02-6.41765E-04-5.08515E-14
 -1      3971 1.02135E-02-6.57289E-04-5.24257E-14
 -1      3972 9.99119E-03-5.99575E-04-4.99954E-14
 -1      3973 1.03547E-02-6.72691E-04-5.40203E-14
 -1      3974 1.04962E-02-6.87990E-04-5.56325E-14
 -1      3975 1.02726E-02-6.29994E-04-5.31452E-14
 -1      3976 1.06379E-02-7.03176E-04-5.72606E-14
 -1      3977 1.07799E-02-7.18265E-04-5.89079E-14
 -1      3978 1.05553E-02-6.60079E-04-5.63673E-14
 -1      3979 1.09219E-02-7.33255E-04-6.05724E-14
 -1      3980 1.10642E-02-7.48158E-04-6.22512E-14
 -1      3981 1.08389E-02-6.89849E-04-5.96576E-14
 -1      3982 1.12065E-02-7.62975E-04-6.39493E-14
 -1      3983 1.13490E-02-7.77718E-04-6.56642E-14
 -1      3984 1.11232E-02-7.19334E-04-6.30171E-14
 -1      3985 1.14915E-02-7.92389E-04-6.73959E-14
 -1      3986 1.16341E-02-8.06998E-04-6.91408E-14
 -1      3987 1.14080E-02-7.48572E-04-6.64442E-14
 -1      3988 1.17768E-02-8.21548E-04-7.08996E-14
 -1      3989 1.19195E-02-8.36048E-04-7.26741E-14
 -1      3990 1.16932E-02-7.77602E-04-6.99328E-14
 -1      3991 1.20623E-02-8.50500E-04-7.44637E-14
 -1      3992 1.22051E-02-8.64912E-04-7.62638E-14
 -1      3993 1.19786E-02-8.06461E-04-7.34779E-14
 -1      3994 1.23480E-02-8.79288E-04-7.80775E-14
 -1      3995 1.24908E-02-8.93631E-04-7.99034E-14
 -1      3996 1.22642E-02-8.35182E-04-7.70811E-14
 -1      3997 1.26337E-02-9.07947E-04-8.17396E-14
 -1      3998 1.27766E-02-9.22239E-04-8.35876E-14
 -1      3999 1.25499E-02-8.63797E-04-8.07299E-14
 -1      4000 1.29194E-02-9.36509E-04-8.54440E-14
 -1      4001 1.30623E-02-9.50762E-04-8.73129E-14
 -1      4002 1.28357E-02-8.92329E-04-8.44257E-14
 -1      4003 1.35601E-03-8.55371E-05-1.57732E-15
 -1      4004 1.46042E-03-9.29347E-05-1.81159E-15
 -1      4005 1.34385E-03-6.94553E-05-1.57357E-15
 -1      4006 1.35431E-02-7.86753E-04-9.40536E-14
 -1      4007 1.35293E-02-7.44876E-04-9.39334E-14
 -1      4008 1.33267E-02-7.19258E-04-9.12598E-14
 -1      4009 1.34263E-02-7.95563E-04-9.24715E-14
 -1      4010 7.57048E-03-1.19558E-04-2.60089E-14
 -1      4011 7.43824E-03-1.08939E-04-2.48425E-14
 -1      4012 8.37212E-03-1.81759E-04-3.35113E-14
 -1      4013 8.23700E-03-1.71331E-04-3.22014E-14
 -1      4014 8.64430E-03-2.02993E-04-3.61953E-14
 -1      4015 8.50787E-03-1.92322E-04-3.48420E-14
 -1      4016 8.46016E-03-2.17960E-04-3.42754E-14
 -1      4017 8.91899E-03-2.24828E-04-3.89705E-14
 -1      4018 8.78133E-03-2.13840E-04-3.75724E-14
 -1      4019 8.73091E-03-2.40016E-04-3.69858E-14
 -1      4020 9.19593E-03-2.47359E-04-4.18267E-14
 -1      4021 9.05719E-03-2.36012E-04-4.03880E-14
 -1      4022 9.00461E-03-2.62783E-04-3.97810E-14
 -1      4023 9.47483E-03-2.70629E-04-4.47710E-14
 -1      4024 9.33515E-03-2.58909E-04-4.32876E-14
 -1      4025 9.28088E-03-2.86264E-04-4.26598E-14
 -1      4026 9.75535E-03-2.94635E-04-4.77968E-14
 -1      4027 9.61490E-03-2.82547E-04-4.62743E-14
 -1      4028 9.55930E-03-3.10440E-04-4.56252E-14
 -1      4029 1.00372E-02-3.19342E-04-5.09000E-14
 -1      4030 9.89612E-03-3.06909E-04-4.93396E-14
 -1      4031 9.83951E-03-3.35270E-04-4.86731E-14
 -1      4032 1.03201E-02-3.44691E-04-5.40799E-14
 -1      4033 1.01785E-02-3.31944E-04-5.24796E-14
 -1      4034 1.01212E-02-3.60702E-04-5.17968E-14
 -1      4035 1.06039E-02-3.70612E-04-5.73291E-14
 -1      4036 1.04619E-02-3.57587E-04-5.56951E-14
 -1      4037 1.04039E-02-3.86669E-04-5.49938E-14
 -1      4038 1.08882E-02-3.97028E-04-6.06503E-14
 -1      4039 1.07460E-02-3.83764E-04-5.89822E-14
 -1      4040 1.06876E-02-4.13105E-04-5.82633E-14
 -1      4041 1.11731E-02-4.23863E-04-6.40383E-14
 -1      4042 1.10306E-02-4.10399E-04-6.23361E-14
 -1      4043 1.09719E-02-4.39941E-04-6.16022E-14
 -1      4044 1.14582E-02-4.51046E-04-6.74927E-14
 -1      4045 1.13156E-02-4.37416E-04-6.57579E-14
 -1      4046 1.12567E-02-4.67112E-04-6.50066E-14
 -1      4047 1.17436E-02-4.78512E-04-7.10070E-14
 -1      4048 1.16009E-02-4.64747E-04-6.92414E-14
 -1      4049 1.15418E-02-4.94557E-04-6.84745E-14
 -1      4050 1.20292E-02-5.06204E-04-7.45824E-14
 -1      4051 1.18864E-02-4.92333E-04-7.27878E-14
 -1      4052 1.18272E-02-5.22225E-04-7.20040E-14
 -1      4053 1.23149E-02-5.34073E-04-7.82102E-14
 -1      4054 1.21720E-02-5.20119E-04-7.63902E-14
 -1      4055 1.21128E-02-5.50070E-04-7.55930E-14
 -1      4056 1.26006E-02-5.62079E-04-8.18858E-14
 -1      4057 1.24577E-02-5.48061E-04-8.00410E-14
 -1      4058 1.23985E-02-5.78052E-04-7.92324E-14
 -1      4059 1.28864E-02-5.90187E-04-8.56015E-14
 -1      4060 1.27435E-02-5.76122E-04-8.37389E-14
 -1      4061 1.26842E-02-6.06139E-04-8.29170E-14
 -1      4062 1.31417E-02-6.19489E-04-8.89440E-14
 -1      4063 1.29988E-02-6.05391E-04-8.70688E-14
 -1      4064 1.29396E-02-6.35423E-04-8.62407E-14
 -1      4065 1.31644E-02-6.65874E-04-8.91780E-14
 -1      4066 7.02832E-03-1.16000E-04-2.09189E-14
 -1      4067 7.06425E-03-1.53964E-04-2.07699E-14
 -1      4068 7.10346E-03-1.82645E-04-2.07528E-14
 -1      4069 7.14182E-03-2.07822E-04-2.07806E-14
 -1      4070 7.24160E-03-2.25998E-04-2.16978E-14
 -1      4071 7.19229E-03-1.78387E-04-2.17443E-14
 -1      4072 1.51383E-03 1.24865E-04-1.52576E-15
 -1      4073 7.83554E-03-1.40336E-04-2.84162E-14
 -1      4074 7.70276E-03-1.30001E-04-2.72012E-14
 -1      4075 7.66831E-03-1.55708E-04-2.66998E-14
 -1      4076 7.27288E-03-9.13807E-05-2.34484E-14
 -1      4077 7.13934E-03-7.94574E-05-2.23328E-14
 -1      4078 7.05492E-03-9.65274E-05-2.13940E-14
 -1      4079 7.37909E-03-1.30056E-04-2.41084E-14
 -1      4080 2.13366E-03 1.71733E-04-2.78204E-15
 -1      4081 8.10257E-03-1.60955E-04-3.09156E-14
 -1      4082 7.96872E-03-1.50654E-04-2.96541E-14
 -1      4083 7.92876E-03-1.75851E-04-2.91318E-14
 -1      4084 8.19270E-03-1.96592E-04-3.16571E-14
 -1      4085 2.10252E-03 7.52530E-05-3.10785E-15
 -1      4086 1.95295E-03-1.32131E-04-3.15662E-15
 -1      4087 7.42172E-03-3.04418E-04-2.34912E-14
 -1      4088 1.77900E-03-6.36418E-05-2.78859E-15
 -1      4089 1.70828E-03-4.54116E-05-2.53776E-15
 -1      4090 1.76582E-03-7.54236E-05-2.73657E-15
 -1      4091 7.18652E-03-1.31750E-04-2.22459E-14
 -1      4092 1.54998E-03-9.85679E-05-2.02908E-15
 -1      4093 1.32052E-02-9.64999E-04-8.91921E-14
 -1      4094 1.33481E-02-9.79224E-04-9.10807E-14
 -1      4095 1.34680E-02-9.70726E-04-9.27127E-14
 -1      4096 1.55670E-03 7.08952E-06-1.98996E-15
 -1      4097 1.54018E-03-1.54843E-05-2.01330E-15
 -1      4098 1.79881E-03-1.41580E-05-2.69678E-15
 -1      4099 1.80777E-03 7.61680E-06-2.62389E-15
 -1      4100 1.84433E-03-1.13120E-04-2.87696E-15
 -1      4101 1.33842E-02-9.26517E-04-9.16712E-14
 -1      4102 1.31215E-02-9.20799E-04-8.81620E-14
 -1      4103 1.74768E-03-1.10249E-04-2.56736E-15
 -1      4104 1.75922E-03-9.07900E-05-2.67826E-15
 -1      4105 1.67177E-03-7.25774E-05-2.43670E-15
 -1      4106 1.66083E-03-1.04954E-04-2.32216E-15
 -1      4107 1.33703E-02-8.84386E-04-9.15628E-14
 -1      4108 1.33563E-02-8.42257E-04-9.14532E-14
 -1      4109 1.32504E-02-8.92897E-04-8.99409E-14
 -1      4110 7.30512E-03-2.68592E-04-2.22044E-14
 -1      4111 1.33288E-03-4.11707E-05-1.56106E-15
 -1      4112 1.33692E-03-5.61734E-05-1.56871E-15
 -1      4113 1.43757E-03-6.24651E-05-1.80220E-15
 -1      4114 1.43258E-03-3.56585E-05-1.78679E-15
 -1      4115 1.70651E-03 8.98406E-05-2.04964E-15
 -1      4116 1.60922E-03 3.46519E-05-2.02075E-15
 -1      4117 1.69901E-03 1.86411E-05-2.29744E-15
 -1      4118 1.83420E-03 8.94696E-05-2.35081E-15
 -1      4119 7.78529E-03-3.24961E-04-2.71164E-14
 -1      4120 7.90661E-03-3.37997E-04-2.83267E-14
 -1      4121 8.03031E-03-3.51288E-04-2.95608E-14
 -1      4122 8.15616E-03-3.65060E-04-3.08176E-14
 -1      4123 7.95985E-03-3.19420E-04-2.88723E-14
 -1      4124 8.28386E-03-3.79080E-04-3.20994E-14
 -1      4125 8.41327E-03-3.93456E-04-3.34026E-14
 -1      4126 8.21080E-03-3.45370E-04-3.13862E-14
 -1      4127 8.54419E-03-4.07963E-04-3.47263E-14
 -1      4128 8.67649E-03-4.22718E-04-3.60725E-14
 -1      4129 8.46895E-03-3.72545E-04-3.39885E-14
 -1      4130 8.81000E-03-4.37553E-04-3.74402E-14
 -1      4131 8.94464E-03-4.52537E-04-3.88305E-14
 -1      4132 8.73299E-03-4.00608E-04-3.66786E-14
 -1      4133 9.08026E-03-4.67545E-04-4.02412E-14
 -1      4134 9.21678E-03-4.82629E-04-4.16724E-14
 -1      4135 9.00176E-03-4.29256E-04-3.94555E-14
 -1      4136 9.35409E-03-4.97696E-04-4.31275E-14
 -1      4137 9.49213E-03-5.12785E-04-4.46010E-14
 -1      4138 9.27438E-03-4.58242E-04-4.23183E-14
 -1      4139 9.63080E-03-5.27831E-04-4.60942E-14
 -1      4140 9.77005E-03-5.42865E-04-4.76080E-14
 -1      4141 9.55011E-03-4.87388E-04-4.52648E-14
 -1      4142 9.90979E-03-5.57841E-04-4.91432E-14
 -1      4143 1.00500E-02-5.72785E-04-5.06978E-14
 -1      4144 9.82831E-03-5.16570E-04-4.82926E-14
 -1      4145 1.01906E-02-5.87664E-04-5.22713E-14
 -1      4146 1.03315E-02-6.02501E-04-5.38641E-14
 -1      4147 1.01085E-02-5.45714E-04-5.14003E-14
 -1      4148 1.04728E-02-6.17275E-04-5.54747E-14
 -1      4149 1.06143E-02-6.32003E-04-5.71028E-14
 -1      4150 1.03902E-02-5.74775E-04-5.45827E-14
 -1      4151 1.07560E-02-6.46672E-04-5.87462E-14
 -1      4152 1.08979E-02-6.61296E-04-6.04085E-14
 -1      4153 1.06731E-02-6.03734E-04-5.78376E-14
 -1      4154 1.10400E-02-6.75869E-04-6.20887E-14
 -1      4155 1.11823E-02-6.90400E-04-6.37838E-14
 -1      4156 1.09568E-02-6.32589E-04-6.11601E-14
 -1      4157 1.13246E-02-7.04887E-04-6.54957E-14
 -1      4158 1.14671E-02-7.19339E-04-6.72238E-14
 -1      4159 1.12412E-02-6.61343E-04-6.45496E-14
 -1      4160 1.16097E-02-7.33753E-04-6.89675E-14
 -1      4161 1.17523E-02-7.48137E-04-7.07243E-14
 -1      4162 1.15261E-02-6.90009E-04-6.80028E-14
 -1      4163 1.18950E-02-7.62491E-04-7.24957E-14
 -1      4164 1.20377E-02-7.76821E-04-7.42837E-14
 -1      4165 1.18114E-02-7.18599E-04-7.15166E-14
 -1      4166 1.21805E-02-7.91127E-04-7.60828E-14
 -1      4167 1.23233E-02-8.05413E-04-7.78955E-14
 -1      4168 1.20968E-02-7.47126E-04-7.50866E-14
 -1      4169 1.24662E-02-8.19680E-04-7.97223E-14
 -1      4170 1.26090E-02-8.33933E-04-8.15587E-14
 -1      4171 1.23824E-02-7.75602E-04-7.87132E-14
 -1      4172 1.27519E-02-8.48171E-04-8.34063E-14
 -1      4173 1.28948E-02-8.62397E-04-8.52642E-14
 -1      4174 1.26682E-02-8.04039E-04-8.23869E-14
 -1      4175 8.81592E-03-2.76945E-04-3.77773E-14
 -1      4176 8.68053E-03-2.65312E-04-3.63988E-14
 -1      4177 1.87574E-03 4.07055E-05-2.65602E-15
 -1      4178 1.98395E-03 8.33968E-05-2.74969E-15
 -1      4179 8.54607E-03-2.53848E-04-3.50445E-14
 -1      4180 8.41251E-03-2.42610E-04-3.37121E-14
 -1      4181 8.63003E-03-2.89707E-04-3.58162E-14
 -1      4182 9.36495E-03-3.25280E-04-4.34949E-14
 -1      4183 9.22668E-03-3.12955E-04-4.20336E-14
 -1      4184 9.64316E-03-3.50395E-04-4.64835E-14
 -1      4185 9.50379E-03-3.37770E-04-4.49784E-14
 -1      4186 9.44827E-03-3.64520E-04-4.43329E-14
 -1      4187 9.92323E-03-3.76060E-04-4.95505E-14
 -1      4188 9.78298E-03-3.63167E-04-4.80070E-14
 -1      4189 9.72647E-03-3.90579E-04-4.73425E-14
 -1      4190 1.02048E-02-4.02210E-04-5.26941E-14
 -1      4191 1.00639E-02-3.89081E-04-5.11133E-14
 -1      4192 1.00066E-02-4.17065E-04-5.04295E-14
 -1      4193 1.04875E-02-4.28783E-04-5.59107E-14
 -1      4194 1.03460E-02-4.15449E-04-5.42945E-14
 -1      4195 1.02882E-02-4.43912E-04-5.35939E-14
 -1      4196 1.07712E-02-4.55716E-04-5.91991E-14
 -1      4197 1.06293E-02-4.42209E-04-5.75460E-14
 -1      4198 1.05710E-02-4.71063E-04-5.68304E-14
 -1      4199 1.10555E-02-4.82954E-04-6.25533E-14
 -1      4200 1.09133E-02-4.69301E-04-6.08677E-14
 -1      4201 1.08547E-02-4.98467E-04-6.01339E-14
 -1      4202 1.13403E-02-5.10442E-04-6.59736E-14
 -1      4203 1.11978E-02-4.96670E-04-6.42555E-14
 -1      4204 1.11390E-02-5.26080E-04-6.35053E-14
 -1      4205 1.16255E-02-5.38134E-04-6.94569E-14
 -1      4206 1.14828E-02-5.24265E-04-6.77077E-14
 -1      4207 1.14239E-02-5.53863E-04-6.69418E-14
 -1      4208 1.19109E-02-5.65991E-04-7.30018E-14
 -1      4209 1.17681E-02-5.52044E-04-7.12227E-14
 -1      4210 1.17091E-02-5.81782E-04-7.04421E-14
 -1      4211 1.21964E-02-5.93976E-04-7.66037E-14
 -1      4212 1.20536E-02-5.79969E-04-7.47967E-14
 -1      4213 1.19945E-02-6.09810E-04-7.40004E-14
 -1      4214 1.24821E-02-6.22061E-04-8.02549E-14
 -1      4215 1.23393E-02-6.08007E-04-7.84228E-14
 -1      4216 1.22801E-02-6.37923E-04-7.76151E-14
 -1      4217 1.27679E-02-6.50222E-04-8.39522E-14
 -1      4218 1.26250E-02-6.36133E-04-8.20980E-14
 -1      4219 1.25658E-02-6.66100E-04-8.12779E-14
 -1      4220 1.55586E-03-8.21340E-05-2.08428E-15
 -1      4221 7.48455E-03-1.67011E-04-2.48132E-14
 -1      4222 7.32948E-03-1.52429E-04-2.34219E-14
 -1      4223 7.34785E-03-2.55138E-04-2.26786E-14
 -1      4224 7.40213E-03-2.78762E-04-2.32268E-14
 -1      4225 2.07137E-03 1.33080E-04-2.77087E-15
 -1      4226 1.30011E-02-8.70550E-04-8.66571E-14
 -1      4227 1.31440E-02-8.84758E-04-8.85354E-14
 -1      4228 1.31301E-02-8.42652E-04-8.84286E-14
 -1      4229 1.29174E-02-8.26386E-04-8.56316E-14
 -1      4230 7.29604E-03-1.68638E-04-2.29239E-14
 -1      4231 9.08905E-03-3.00777E-04-4.05931E-14
 -1      4232 8.95209E-03-2.88782E-04-3.91750E-14
 -1      4233 9.17243E-03-3.38961E-04-4.14081E-14
 -1      4234 7.47493E-03-2.90301E-04-2.39833E-14
 -1      4235 7.76128E-03-1.89777E-04-2.73923E-14
 -1      4236 7.63455E-03-1.80072E-04-2.61978E-14
 -1      4237 1.69111E-03-2.03902E-05-2.42082E-15
 -1      4238 7.58788E-03-3.02113E-04-2.51306E-14
 -1      4239 8.89949E-03-3.13989E-04-3.85689E-14
 -1      4240 7.63779E-03-2.85072E-04-2.56481E-14
 -1      4241 1.33064E-02-8.04104E-04-9.08536E-14
 -1      4242 1.32566E-02-7.65958E-04-9.02518E-14
 -1      4243 1.31865E-02-8.12634E-04-8.92369E-14
 -1      4244 8.36471E-03-2.66250E-04-3.31481E-14
 -1      4245 8.28003E-03-2.31556E-04-3.24018E-14
 -1      4246 8.14856E-03-2.20769E-04-3.11145E-14
 -1      4247 1.54601E-03-6.79211E-05-2.07829E-15
 -1      4248 1.28803E-02-6.65439E-04-8.54129E-14
 -1      4249 1.28211E-02-6.95436E-04-8.45846E-14
 -1      4250 1.29927E-02-6.80666E-04-8.68783E-14
 -1      4251 7.33925E-03-2.34484E-04-2.27113E-14
 -1      4252 7.57722E-03-1.99611E-04-2.54805E-14
 -1      4253 7.32327E-03-1.95690E-04-2.29056E-14
 -1      4254 1.56273E-03-3.94074E-05-2.11871E-15
 -1      4255 1.56238E-03-5.31290E-05-2.12875E-15
 -1      4256 8.01828E-03-2.10130E-04-2.98498E-14
 -1      4257 7.88912E-03-1.99831E-04-2.86100E-14
 -1      4258 7.84948E-03-2.22593E-04-2.80871E-14
 -1      4259 8.10430E-03-2.43808E-04-3.05724E-14
 -1      4260 1.66133E-03-3.38405E-05-2.37745E-15
 -1      4261 7.88622E-03-2.88298E-04-2.81876E-14
 -1      4262 8.00974E-03-3.00177E-04-2.94187E-14
 -1      4263 8.16175E-03-2.94977E-04-3.09855E-14
 -1      4264 8.29011E-03-3.07177E-04-3.22703E-14
 -1      4265 8.42005E-03-3.19564E-04-3.35752E-14
 -1      4266 8.55133E-03-3.32314E-04-3.49038E-14
 -1      4267 8.68392E-03-3.45198E-04-3.62542E-14
 -1      4268 8.81763E-03-3.58346E-04-3.76251E-14
 -1      4269 8.95242E-03-3.71589E-04-3.90186E-14
 -1      4270 9.08813E-03-3.85026E-04-4.04327E-14
 -1      4271 9.22473E-03-3.98529E-04-4.18684E-14
 -1      4272 9.36208E-03-4.12173E-04-4.33276E-14
 -1      4273 9.50014E-03-4.25863E-04-4.48062E-14
 -1      4274 9.63882E-03-4.39656E-04-4.63041E-14
 -1      4275 9.77807E-03-4.53481E-04-4.78223E-14
 -1      4276 9.91781E-03-4.67380E-04-4.93620E-14
 -1      4277 1.00580E-02-4.81301E-04-5.09212E-14
 -1      4278 1.01986E-02-4.95275E-04-5.24989E-14
 -1      4279 1.03395E-02-5.09264E-04-5.40946E-14
 -1      4280 1.04807E-02-5.23292E-04-5.57087E-14
 -1      4281 1.06222E-02-5.37331E-04-5.73406E-14
 -1      4282 1.07639E-02-5.51398E-04-5.89876E-14
 -1      4283 1.09059E-02-5.65473E-04-6.06519E-14
 -1      4284 1.10480E-02-5.79567E-04-6.23350E-14
 -1      4285 1.11902E-02-5.93668E-04-6.40325E-14
 -1      4286 1.13326E-02-6.07782E-04-6.57449E-14
 -1      4287 1.14750E-02-6.21902E-04-6.74768E-14
 -1      4288 1.16176E-02-6.36031E-04-6.92225E-14
 -1      4289 1.17602E-02-6.50165E-04-7.09838E-14
 -1      4290 1.19029E-02-6.64305E-04-7.27584E-14
 -1      4291 1.20456E-02-6.78449E-04-7.45478E-14
 -1      4292 1.21884E-02-6.92597E-04-7.63505E-14
 -1      4293 1.23312E-02-7.06748E-04-7.81657E-14
 -1      4294 1.24741E-02-7.20902E-04-7.99968E-14
 -1      4295 1.26170E-02-7.35059E-04-8.18366E-14
 -1      4296 1.27598E-02-7.49218E-04-8.36885E-14
 -1      4297 7.44780E-03-2.28591E-04-2.39193E-14
 -1      4298 1.32170E-02-7.08734E-04-8.98130E-14
 -1      4299 1.31046E-02-6.93490E-04-8.83428E-14
 -1      4300 1.30453E-02-7.23505E-04-8.75085E-14
 -1      4301 1.32668E-02-7.46875E-04-9.04198E-14
 -1      4302 1.28553E-02-7.21980E-04-8.49925E-14
 -1      4303 1.29065E-02-7.91033E-04-8.55518E-14
 -1      4304 1.30802E-02-8.04517E-04-8.78345E-14
 -1      4305 7.67016E-03-2.31583E-04-2.62099E-14
 -1      4306 7.52756E-03-2.18936E-04-2.48259E-14
 -1      4307 7.95474E-03-2.51118E-04-2.90212E-14
 -1      4308 7.82979E-03-2.40558E-04-2.77961E-14
 -1      4309 7.53053E-03-2.57501E-04-2.46197E-14
 -1      4310 7.72736E-03-2.77640E-04-2.65895E-14
 -1      4311 7.77132E-03-2.58605E-04-2.71122E-14
 -1      4312 1.31469E-02-7.55421E-04-8.88071E-14
 -1      4313 8.08152E-03-2.62157E-04-3.02701E-14
 -1      4314 1.30128E-02-7.99154E-04-8.69471E-14
 -1      4315 1.30796E-02-7.50071E-04-8.79189E-14
 -1      4316 1.29677E-02-7.37228E-04-8.64561E-14
 -1      4317 1.30693E-02-7.69142E-04-8.77508E-14
 -3
    1PSTEP                         2           1           1          
  100CL  101 1.000000000        4317                     0    1           1
 -4  STRESS      6    1
 -5  SXX         1    4    1    1
 -5  SYY         1    4    2    2
 -5  SZZ         1    4    3    3
 -5  SXY         1    4    1    2
 -5  SYZ         1    4    2    3
 -5  SZX         1    4    3    1
 -1         1 6.61503E+01 1.29384E+00 3.64432E+00-5.56675E+00-4.26430E-14 8.45365E-13
 -1         2-7.17792E-01-2.46417E+01-3.36964E+00 1.73572E-01-2.46561E-13 1.16403E-13
 -1         3 1.99999E+01 1.01690E-04-1.51942E-04 9.99463E-05-4.66105E-13-4.84193E-13
 -1         4 1.99999E+01 8.93470E-05-1.62782E-04-8.96132E-05 1.78309E-13 1.64483E-13
 -1         5 3.29701E+01 6.20341E+00 2.61121E+00 6.12037E+00-3.87745E-14 2.51076E-12
 -1         6 3.57007E+01 1.21730E+01 4.87574E+00-8.43212E+00-1.30063E-13 1.97597E-12
 -1         7 2.18366E+01 6.37090E+00-3.61234E-02-4.29299E+00-2.02199E-14 3.37258E-13
 -1         8 2.05341E+01 6.18115E+00 9.31166E-02-2.60447E+00-2.39531E-14-1.55499E-13
 -1         9 1.96841E+01 5.92991E+00 6.54847E-02-1.73637E+00-1.65597E-14-4.25644E-13
 -1        10 1.90379E+01 5.73205E+00 4.68521E-02-1.15072E+00-1.17927E-14-5.56859E-13
 -1        11 1.85087E+01 5.57088E+00 2.98828E-02-7.42561E-01-6.25194E-15-6.12553E-13
 -1        12 1.81014E+01 5.44704E+00 1.62547E-02-4.65998E-01-2.68709E-15-6.29175E-13
 -1        13 1.78219E+01 5.36243E+00 7.18125E-03-2.71740E-01 1.58207E-15-6.08346E-13
 -1        14 1.76943E+01 5.32382E+00 3.78002E-03-1.24169E-01 5.37808E-15-5.83853E-13
 -1        15 1.77231E+01 5.33250E+00 6.21063E-03 1.76082E-02 9.78037E-15-5.42337E-13
 -1        16 1.78992E+01 5.38573E+00 1.38085E-02 1.92137E-01 1.70228E-14-4.96986E-13
 -1        17 1.82030E+01 5.47750E+00 2.53168E-02 4.33628E-01 1.36505E-14-4.29372E-13
 -1        18 1.86024E+01 5.59920E+00 3.89585E-02 7.64138E-01 2.13059E-14-3.44511E-13
 -1        19 1.90954E+01 5.75002E+00 5.34103E-02 1.22388E+00 2.66800E-14-2.03246E-13
 -1        20 1.96866E+01 5.93279E+00 6.68261E-02 1.84602E+00 3.24255E-14 2.37015E-14
 -1        21 2.04762E+01 6.18016E+00 8.44105E-02 2.71592E+00 3.28002E-14 4.17096E-13
 -1        22 2.20516E+01 6.60367E+00 1.86440E-01 4.15048E+00 2.19269E-15 1.11684E-12
 -1        23 2.40217E+01-1.44480E+00-9.74578E-01-5.82364E-01-8.58862E-14 1.53165E-12
 -1        24 2.11231E+01-1.00880E-01-3.00605E-01 8.49316E-02-2.25783E-14 1.14207E-12
 -1        25 2.10891E+01-5.85929E-02-6.77099E-02 7.33712E-02-1.59347E-14 7.33809E-13
 -1        26 2.15625E+01-2.55531E-02-1.26016E-02 4.87690E-02-1.16211E-14 4.20948E-13
 -1        27 2.23205E+01-1.36820E-02-4.95076E-03 4.38701E-02 4.33616E-15 2.67418E-13
 -1        28 2.32364E+01-3.07953E-03 2.11809E-03 4.27554E-02-1.61505E-14 1.85175E-13
 -1        29 2.41696E+01 9.09339E-03 1.79491E-02 3.97106E-02-2.22581E-15-7.84095E-16
 -1        30 2.49184E+01 2.33005E-02 4.39119E-02 2.76428E-02 1.74231E-14-2.76472E-14
 -1        31 2.52051E+01 3.66157E-02 7.48899E-02-1.65981E-03-7.66769E-15-8.16300E-14
 -1        32 2.47246E+01 4.19198E-02 9.45216E-02-5.26274E-02-1.12020E-14-1.62176E-13
 -1        33 2.33006E+01 3.02264E-02 7.66965E-02-1.15078E-01 3.68709E-14-1.74992E-13
 -1        34 2.11302E+01-1.50585E-03 4.37490E-03-1.55631E-01-1.61199E-14-2.83149E-13
 -1        35 1.89345E+01-4.18854E-02-1.00199E-01-1.31330E-01 4.35155E-15-3.94351E-13
 -1        36 1.77275E+01-6.70095E-02-1.68978E-01-3.31655E-02-8.00228E-15-3.55665E-13
 -1        37 1.81722E+01-5.93523E-02-1.47587E-01 8.64857E-02-3.46702E-14-3.49464E-13
 -1        38 2.00644E+01-2.44156E-02-5.39949E-02 1.55090E-01-1.31577E-14-4.52929E-13
 -1        39 2.25005E+01 1.46942E-02 4.23856E-02 1.47051E-01-9.18688E-15-4.00520E-13
 -1        40 2.45363E+01 3.81575E-02 9.03725E-02 9.20734E-02-1.12072E-14-4.42542E-13
 -1        41 2.56808E+01 4.17144E-02 8.80171E-02 3.29264E-02-8.79505E-16-6.69454E-13
 -1        42 2.59311E+01 3.24065E-02 6.04081E-02-7.12141E-03-3.22437E-14-8.93308E-13
 -1        43 2.55429E+01 1.91932E-02 3.03172E-02-2.57929E-02-2.39571E-14-7.49253E-13
 -1        44 2.48121E+01 7.70904E-03 8.40294E-03-2.99176E-02-2.72178E-15-5.43449E-13
 -1        45 2.39668E+01-1.45947E-04-4.09559E-03-2.67859E-02-2.80079E-14-4.90363E-13
 -1        46 2.31469E+01-4.57861E-03-9.63149E-03-2.11919E-02 1.07581E-14-5.49705E-13
 -1        47 2.24219E+01-6.52882E-03-1.10426E-02-1.55593E-02 9.18845E-15-1.12554E-13
 -1        48 2.18165E+01-6.93862E-03-1.03996E-02-1.08290E-02 2.31579E-14-5.05099E-14
 -1        49 2.13300E+01-6.51294E-03-8.93640E-03-7.19685E-03 1.06370E-14-1.37637E-13
 -1        50 2.09502E+01-5.70694E-03-7.29236E-03-4.55258E-03-2.08211E-14-1.86435E-13
 -1        51 2.06606E+01-4.78631E-03-5.75745E-03-2.69744E-03-3.25425E-14-3.30532E-13
 -1        52 2.04444E+01-3.89221E-03-4.43888E-03-1.43562E-03 1.08567E-13-1.59093E-13
 -1        53 2.02862E+01-3.09079E-03-3.35666E-03-6.04343E-04-2.20468E-14-2.39142E-14
 -1        54 2.01730E+01-2.40600E-03-2.49353E-03-7.80494E-05 2.86083E-14-1.79520E-13
 -1        55 2.00941E+01-1.83941E-03-1.81912E-03 2.36499E-04-1.07953E-14-5.49418E-13
 -1        56 2.00407E+01-1.38175E-03-1.30095E-03 4.07056E-04-9.95696E-15-6.93524E-13
 -1        57 2.00061E+01-1.01929E-03-9.08960E-04 4.82188E-04 9.35791E-15-3.27331E-13
 -1        58 1.99850E+01-7.37241E-04-6.17118E-04 4.96318E-04 1.54272E-14-7.01898E-13
 -1        59 1.99734E+01-5.21411E-04-4.03608E-04 4.73550E-04 4.75128E-14-3.65680E-13
 -1        60 1.99682E+01-3.59041E-04-2.50539E-04 4.30508E-04-9.26900E-14-5.61947E-13
 -1        61 1.99673E+01-2.39053E-04-1.43454E-04 3.78423E-04 2.30234E-13-2.53489E-13
 -1        62 1.99691E+01-1.52062E-04-7.07929E-05 3.24662E-04-1.39094E-13 1.17778E-13
 -1        63 1.99725E+01-9.02471E-05-2.33772E-05 2.73847E-04 5.08139E-14 1.59783E-13
 -1        64 1.99766E+01-4.71458E-05 6.08308E-06 2.28663E-04-2.88806E-14-1.57626E-13
 -1        65 1.99811E+01-1.74213E-05 2.34925E-05 1.90403E-04-6.08204E-14 9.72432E-14
 -1        66 1.99855E+01 3.37583E-06 3.39554E-05 1.59264E-04-1.22971E-13-2.63077E-13
 -1        67 1.99897E+01 1.90142E-05 4.25736E-05 1.34327E-04 7.26711E-14-7.30651E-13
 -1        68 1.99934E+01 3.26693E-05 5.52977E-05 1.12956E-04 2.05897E-14 3.80477E-14
 -1        69 1.99965E+01 4.59704E-05 7.77044E-05 8.86211E-05 1.52191E-14-1.72918E-13
 -1        70 1.99988E+01 4.96053E-05 9.88200E-05 4.01450E-05-8.02328E-14-8.31347E-14
 -1        71 1.99999E+01-9.64965E-06 3.99031E-05-3.48848E-05 3.52115E-14-5.69371E-14
 -1        72 2.19877E+01-4.11008E-01-1.00138E+00-3.58416E-01 1.82666E-14 2.41263E-12
 -1        73 2.09281E+01-6.48299E-02-2.81122E-01-6.74720E-02 1.63485E-14 2.00972E-12
 -1        74 2.08140E+01-1.98024E-02-5.93378E-02-2.95314E-02 1.39814E-14 1.72352E-12
 -1        75 2.11150E+01-8.16708E-03-7.83452E-03-2.57089E-02-3.55185E-15 1.49714E-12
 -1        76 2.16179E+01-8.83938E-04 4.20421E-03-2.60482E-02 1.72844E-14 1.33217E-12
 -1        77 2.21752E+01 5.62497E-03 1.26106E-02-2.75402E-02 2.14467E-14 1.16120E-12
 -1        78 2.26484E+01 1.17488E-02 2.46629E-02-2.73403E-02-7.11676E-15 1.10373E-12
 -1        79 2.28827E+01 1.63238E-02 3.90304E-02-2.16424E-02 5.86976E-15 1.10359E-12
 -1        80 2.27193E+01 1.70135E-02 5.00124E-02-6.45954E-03-1.19872E-14 9.46984E-13
 -1        81 2.20454E+01 1.13713E-02 4.86296E-02 1.97867E-02 1.02615E-14 8.55729E-13
 -1        82 2.08777E+01-9.18641E-04 2.65390E-02 5.21698E-02-2.62961E-14 9.21669E-13
 -1        83 1.94418E+01-1.60185E-02-1.59362E-02 7.69620E-02 3.07818E-14 9.00977E-13
 -1        84 1.81673E+01-2.68450E-02-6.32030E-02 7.70537E-02 3.37360E-14 7.70769E-13
 -1        85 1.75338E+01-2.76276E-02-9.01777E-02 4.53129E-02-1.34101E-14 6.41461E-13
 -1        86 1.78202E+01-1.83387E-02-8.02854E-02-5.90020E-03 9.58088E-15 4.41076E-13
 -1        87 1.89353E+01-4.24116E-03-3.94847E-02-5.17782E-02-5.35845E-15 2.61756E-13
 -1        88 2.04751E+01 8.14552E-03 7.75080E-03-7.32310E-02-2.52948E-14 3.40374E-13
 -1        89 2.19571E+01 1.51387E-02 4.01929E-02-6.85497E-02 4.66071E-14 2.36890E-13
 -1        90 2.30417E+01 1.63627E-02 5.06161E-02-4.85575E-02-2.98546E-14 8.59226E-14
 -1        91 2.36086E+01 1.36623E-02 4.42974E-02-2.55948E-02 6.88088E-14 6.84418E-14
 -1        92 2.37096E+01 9.32419E-03 3.05228E-02-7.17516E-03-2.32169E-14 7.28480E-14
 -1        93 2.34777E+01 5.03971E-03 1.65197E-02 4.49519E-03-5.69657E-14 1.58598E-13
 -1        94 2.30546E+01 1.65600E-03 5.77828E-03 1.02965E-02 2.28347E-14-1.13888E-13
 -1        95 2.25544E+01-6.25142E-04-1.06154E-03 1.20903E-02 9.58061E-15-3.51172E-13
 -1        96 2.20540E+01-1.93929E-03-4.69197E-03 1.15911E-02-2.53344E-14 2.05358E-13
 -1        97 2.15974E+01-2.53725E-03-6.13257E-03 1.00155E-02 4.48965E-14 5.08627E-13
 -1        98 2.12052E+01-2.66407E-03-6.26734E-03 8.10328E-03-1.87081E-14 2.10896E-13
 -1        99 2.08828E+01-2.51360E-03-5.72173E-03 6.24892E-03-6.59744E-14 2.14885E-13
 -1       100 2.06266E+01-2.22221E-03-4.88850E-03 4.63115E-03-2.70055E-14 4.73813E-13
 -1       101 2.04290E+01-1.87800E-03-3.99274E-03 3.30663E-03 1.56871E-14 3.21139E-13
 -1       102 2.02807E+01-1.53364E-03-3.15159E-03 2.26936E-03 4.86409E-14 2.80863E-13
 -1       103 2.01723E+01-1.21763E-03-2.41755E-03 1.48529E-03-2.64789E-14 3.14474E-13
 -1       104 2.00955E+01-9.43054E-04-1.80660E-03 9.11096E-04-5.38357E-15 4.64669E-13
 -1       105 2.00427E+01-7.13588E-04-1.31541E-03 5.03723E-04-7.84149E-15 9.25258E-14
 -1       106 2.00081E+01-5.27583E-04-9.31456E-04 2.24714E-04-9.27761E-14-1.01968E-13
 -1       107 1.99867E+01-3.80649E-04-6.38747E-04 4.17125E-05 1.52603E-14-3.36696E-13
 -1       108 1.99747E+01-2.67260E-04-4.20934E-04-7.14424E-05-8.32776E-15-6.54542E-13
 -1       109 1.99692E+01-1.81692E-04-2.62887E-04-1.35283E-04 6.04490E-14-5.67093E-13
 -1       110 1.99681E+01-1.18545E-04-1.51381E-04-1.65539E-04 1.37166E-14-8.75214E-13
 -1       111 1.99697E+01-7.29872E-05-7.52682E-05-1.74014E-04-1.60351E-14-8.11241E-13
 -1       112 1.99729E+01-4.08321E-05-2.53811E-05-1.69398E-04-1.59663E-14-8.89040E-13
 -1       113 1.99769E+01-1.85150E-05 5.73388E-06-1.57976E-04-8.32596E-14-2.84119E-13
 -1       114 1.99813E+01-3.00891E-06 2.41901E-05-1.44207E-04-8.13433E-14 2.42577E-13
 -1       115 1.99857E+01 8.29163E-06 3.53139E-05-1.31160E-04 1.59601E-13-1.91165E-13
 -1       116 1.99898E+01 1.75968E-05 4.44903E-05-1.20639E-04 8.33314E-16-7.67502E-13
 -1       117 1.99935E+01 2.67603E-05 5.81018E-05-1.12851E-04-8.07145E-15-1.34606E-12
 -1       118 1.99966E+01 3.62229E-05 8.18565E-05-1.04855E-04-2.97138E-14-1.21193E-12
 -1       119 1.99988E+01 4.03235E-05 1.05041E-04-7.99093E-05-7.20823E-15-9.11464E-13
 -1       120 1.99999E+01-3.50340E-05 2.60962E-05 6.93432E-06 2.25400E-13-9.18453E-13
 -1       121 1.99998E+01-8.14887E-06 2.70616E-05 3.24268E-05-9.92685E-13 5.30822E-14
 -1       122 1.99998E+01-1.03797E-03 8.95078E-05-5.47582E-05-1.05320E-13 1.02847E-13
 -1       123 1.99998E+01-3.13743E-03 4.56297E-05-9.37982E-05 5.68831E-13 9.31716E-16
 -1       124 1.99998E+01-5.68186E-03-5.57870E-07-9.92220E-05 8.49504E-13 1.88003E-13
 -1       125 1.99998E+01-8.20219E-03-3.33956E-05-8.67526E-05 1.39988E-12-2.85432E-13
 -1       126 1.99998E+01-1.03282E-02-5.46429E-05-6.68776E-05 5.60173E-13-1.63865E-13
 -1       127 1.99998E+01-1.18924E-02-6.68158E-05-4.15285E-05-2.35479E-13-7.39346E-14
 -1       128 1.99998E+01-1.27087E-02-7.25662E-05-1.40002E-05-1.31059E-12-1.13630E-14
 -1       129 1.99998E+01-1.27059E-02-7.26266E-05 1.41700E-05-1.21633E-12 3.91376E-13
 -1       130 1.99998E+01-1.18837E-02-6.69861E-05 4.16999E-05-2.87585E-13-2.48661E-13
 -1       131 1.99998E+01-1.03127E-02-5.43508E-05 6.79084E-05-1.02965E-12 7.80261E-15
 -1       132 1.99998E+01-8.17988E-03-3.36381E-05 8.73229E-05-1.19750E-12 1.65744E-13
 -1       133 1.99998E+01-5.65182E-03-4.81892E-07 9.94047E-05-4.42148E-13 3.18325E-13
 -1       134 1.99998E+01-3.09798E-03 5.00988E-05 1.00709E-04-3.09054E-14-2.63211E-13
 -1       135 1.99998E+01-1.04745E-03 7.78176E-05 7.63999E-05-1.11012E-13-6.07407E-14
 -1       136 1.99998E+01-4.05207E-05 2.26360E-05-7.75424E-05-2.78344E-13-1.46403E-13
 -1       137-1.47003E+00-1.99365E+01-3.06596E+00-3.80385E+00 1.40435E-12 3.41827E-13
 -1       138-1.25217E+00-7.53535E+00-2.16424E+00-2.35375E+00 2.78427E-12 1.39716E-12
 -1       139 4.55613E+00 4.79038E+00-8.48401E-01 4.95518E+00 3.31302E-12 2.63334E-12
 -1       140 1.85829E+01 1.06440E+01 6.23886E-01 1.38084E+01 2.42700E-12 2.87154E-12
 -1       141 3.82323E+01 9.37492E+00 2.01322E+00 1.82633E+01 1.26049E-12 2.45998E-12
 -1       142 5.66974E+01 4.26207E+00 3.07058E+00 1.41684E+01 4.21378E-13 1.34842E-12
 -1       143 6.61297E+01 8.25285E-01 3.55392E+00 2.28976E+00 7.21229E-14-2.73136E-13
 -1       144 6.12679E+01 2.72705E+00 3.31793E+00-1.09788E+01 3.74836E-13-1.73786E-12
 -1       145 4.50885E+01 7.92896E+00 2.44130E+00-1.79620E+01 1.13146E-12-2.64860E-12
 -1       146 2.40923E+01 1.10441E+01 1.08258E+00-1.59607E+01 2.00828E-12-2.77262E-12
 -1       147 8.27211E+00 8.07397E+00-3.42133E-01-8.24204E+00 2.50555E-12-2.33380E-12
 -1       148 1.87712E-01-1.82950E+00-1.67983E+00-2.24221E-02 2.29861E-12-1.42930E-12
 -1       149-1.83923E+00-1.54709E+01-2.79970E+00 4.24507E+00 1.45844E-12-4.56302E-13
 -1       150-9.09099E-01-2.38538E+01-3.33786E+00 1.66290E+00 2.68757E-13-6.56246E-14
 -1       151-1.10075E+00-2.27840E+01-3.29069E+00-2.70988E+00-1.40529E-12-2.51310E-13
 -1       152-1.96920E+00-1.31971E+01-2.69074E+00-4.21540E+00-2.56500E-12-9.80507E-13
 -1       153 1.05504E+00 2.25276E-01-1.51906E+00 1.19011E+00-2.88458E-12-1.89992E-12
 -1       154 1.06830E+01 9.05123E+00-1.39685E-01 9.88703E+00-2.40213E-12-2.35206E-12
 -1       155 2.84424E+01 1.09494E+01 1.37522E+00 1.72617E+01-1.64235E-12-2.58937E-12
 -1       156 4.90962E+01 6.93384E+00 2.69970E+00 1.72281E+01-8.84792E-13-2.18464E-12
 -1       157 6.45940E+01 2.07574E+00 3.57332E+00 8.31084E+00-1.53511E-13-6.43902E-13
 -1       158 5.39854E+01 5.34573E+00 2.96187E+00-1.58762E+01-7.26960E-13 2.14945E-12
 -1       159 3.47230E+01 1.00279E+01 1.78244E+00-1.81769E+01-1.63200E-12 2.95591E-12
 -1       160 1.52492E+01 1.02590E+01 2.85598E-01-1.24541E+01-2.94803E-12 3.27094E-12
 -1       161 2.87553E+00 3.33111E+00-1.14729E+00-3.38644E+00-3.54078E-12 2.70084E-12
 -1       162-1.62643E+00-8.33227E+00-2.30924E+00 3.13364E+00-2.87315E-12 1.48104E-12
 -1       163-1.48188E+00-1.98170E+01-3.10868E+00 3.95086E+00-2.11967E-12 4.36737E-13
 -1       164 2.21360E+01 3.66248E+00-4.95274E-02-2.96423E+00-2.88852E-13 8.35408E-14
 -1       165 2.07989E+01 4.26276E+00-4.12057E-02-2.06151E+00-2.46738E-13-2.26871E-13
 -1       166 1.98571E+01 4.59006E+00-2.95245E-02-1.41361E+00-1.87273E-13-3.92698E-13
 -1       167 1.91248E+01 4.76497E+00-2.16403E-02-9.43648E-01-1.21986E-13-4.87386E-13
 -1       168 1.85491E+01 4.87203E+00-1.65014E-02-6.14279E-01-6.79010E-14-5.15379E-13
 -1       169 1.81237E+01 4.93521E+00-1.36148E-02-3.79119E-01-2.76584E-14-5.18550E-13
 -1       170 1.78786E+01 4.96315E+00-1.21237E-02-2.07132E-01 3.62983E-14-4.89015E-13
 -1       171 1.78248E+01 4.96015E+00-1.17766E-02-5.91286E-02 8.42670E-14-4.64392E-13
 -1       172 1.79577E+01 4.93010E+00-1.24673E-02 1.03448E-01 1.29941E-13-4.29152E-13
 -1       173 1.82583E+01 4.87632E+00-1.42302E-02 3.15273E-01 1.83234E-13-3.76508E-13
 -1       174 1.86910E+01 4.80047E+00-1.73278E-02 5.99536E-01 2.31425E-13-2.99998E-13
 -1       175 1.92485E+01 4.69169E+00-2.24730E-02 9.90195E-01 2.86067E-13-1.95313E-13
 -1       176 1.99254E+01 4.52266E+00-3.13985E-02 1.50878E+00 3.14959E-13-4.02265E-14
 -1       177 2.07953E+01 4.21312E+00-4.39204E-02 2.18363E+00 3.29971E-13 2.35791E-13
 -1       178 2.21604E+01 3.44013E+00-5.39658E-02 2.98821E+00 2.95932E-13 6.80407E-13
 -1       179 2.34958E+01 1.08119E+00-3.31134E-01 2.61321E+00 1.79934E-13 1.23530E-12
 -1       180 2.33153E+01 8.18859E-01 2.27180E-03-1.46566E+00-2.54276E-13 4.53460E-13
 -1       181 2.22000E+01 1.88278E-01-7.64645E-03-2.65545E-01-2.31166E-13 3.40159E-13
 -1       182 2.19012E+01 1.20148E-01 1.45105E-02 2.41110E-01-1.75238E-13 2.46453E-13
 -1       183 2.20858E+01 6.93041E-02 9.66021E-03 5.10753E-01-1.15335E-13 1.34093E-13
 -1       184 2.25212E+01 3.11502E-02 3.59821E-03 6.55700E-01-7.63844E-14 5.52666E-14
 -1       185 2.30793E+01-1.78198E-02-6.46446E-04 6.84526E-01-8.38497E-14 5.17511E-14
 -1       186 2.36353E+01-8.84050E-02-3.39199E-03 5.62648E-01-6.34518E-15 7.11146E-14
 -1       187 2.40471E+01-1.78844E-01-4.53370E-03 2.43510E-01-3.02440E-14 9.46211E-14
 -1       188 2.41563E+01-2.62328E-01-3.54285E-03-2.86826E-01-4.40039E-14 1.12688E-13
 -1       189 2.38286E+01-2.76671E-01-9.07102E-04-9.38563E-01-3.63858E-14 8.67852E-14
 -1       190 2.30430E+01-1.47061E-01 1.16746E-03-1.45835E+00-4.61436E-14 1.04621E-14
 -1       191 2.20026E+01 1.34349E-01 2.01079E-04-1.48766E+00-1.06548E-13-7.44352E-14
 -1       192 2.11534E+01 4.25864E-01-4.25526E-03-8.19174E-01-5.45996E-14-1.82286E-13
 -1       193 2.09700E+01 5.07825E-01-5.70053E-03 3.10346E-01-9.71775E-14-2.80154E-13
 -1       194 2.15859E+01 3.11131E-01-2.22479E-03 1.29688E+00-7.48863E-14-3.53388E-13
 -1       195 2.26784E+01-1.84688E-03 1.43952E-03 1.65779E+00 3.10826E-14-3.96815E-13
 -1       196 2.37425E+01-2.24238E-01 8.67274E-04 1.37142E+00-9.26642E-14-5.06873E-13
 -1       197 2.44261E+01-2.83514E-01-2.24852E-03 7.52054E-01-5.10451E-14-5.41804E-13
 -1       198 2.46330E+01-2.29827E-01-4.63931E-03 1.30917E-01-1.27974E-13-4.45764E-13
 -1       199 2.44417E+01-1.39908E-01-5.10692E-03-3.16499E-01 3.51988E-14-4.16929E-13
 -1       200 2.39936E+01-6.09164E-02-3.92886E-03-5.60788E-01 1.37214E-13-4.60528E-13
 -1       201 2.34218E+01-7.95442E-03-2.18479E-03-6.45453E-01 2.05586E-14-2.49175E-13
 -1       202 2.28247E+01 2.11443E-02-6.10923E-04-6.29521E-01 1.50681E-13-1.44271E-13
 -1       203 2.22630E+01 3.36494E-02 4.90684E-04-5.61503E-01 2.26441E-13 2.46363E-15
 -1       204 2.17679E+01 3.63391E-02 1.11086E-03-4.73635E-01 2.58181E-15 9.41792E-16
 -1       205 2.13506E+01 3.39829E-02 1.36199E-03-3.84471E-01 6.47637E-15-5.59248E-14
 -1       206 2.10101E+01 2.94852E-02 1.37693E-03-3.03268E-01-6.49268E-14-9.16153E-14
 -1       207 2.07395E+01 2.44397E-02 1.26281E-03-2.33699E-01-6.83026E-14-6.19674E-14
 -1       208 2.05290E+01 1.96354E-02 1.09199E-03-1.76401E-01 8.96052E-14 2.08253E-13
 -1       209 2.03685E+01 1.54084E-02 9.07681E-04-1.30518E-01 2.63632E-14 1.17857E-13
 -1       210 2.02485E+01 1.18565E-02 7.32970E-04-9.45755E-02-2.80121E-13 1.72260E-14
 -1       211 2.01605E+01 8.96139E-03 5.78465E-04-6.69498E-02-2.60682E-13-2.69375E-13
 -1       212 2.00974E+01 6.65404E-03 4.47632E-04-4.60892E-02 2.42200E-14-2.39533E-13
 -1       213 2.00533E+01 4.84886E-03 3.40149E-04-3.06151E-02 9.37010E-14-2.93669E-13
 -1       214 2.00234E+01 3.46005E-03 2.53875E-04-1.93524E-02-1.34402E-13-5.23937E-13
 -1       215 2.00040E+01 2.40902E-03 1.85959E-04-1.13277E-02 7.36983E-14-5.03169E-13
 -1       216 1.99922E+01 1.62720E-03 1.33422E-04-5.75137E-03 3.45558E-14-4.43012E-13
 -1       217 1.99857E+01 1.05653E-03 9.34565E-05-1.99427E-03 1.97963E-13-1.18735E-14
 -1       218 1.99829E+01 6.48792E-04 6.35495E-05 4.36632E-04 1.27373E-13-2.38328E-13
 -1       219 1.99825E+01 3.64523E-04 4.15236E-05 1.92106E-03 5.43718E-14-9.70142E-14
 -1       220 1.99836E+01 1.71687E-04 2.55262E-05 2.74565E-03-9.91191E-14-1.11290E-13
 -1       221 1.99856E+01 4.42655E-05 1.39989E-05 3.12104E-03 2.79274E-13 4.25492E-14
 -1       222 1.99881E+01-3.91829E-05 5.66060E-06 3.19553E-03-1.88001E-13 2.35923E-13
 -1       223 1.99907E+01-9.70465E-05-4.55451E-07 3.06534E-03-1.32001E-13 8.41384E-14
 -1       224 1.99933E+01-1.46238E-04-4.82886E-06 2.78145E-03 2.78831E-13 1.27362E-13
 -1       225 1.99955E+01-2.03987E-04-7.05410E-06 2.35360E-03 3.33766E-14 8.71498E-14
 -1       226 1.99974E+01-2.88444E-04-7.64219E-06 1.75624E-03 1.31643E-14 8.05787E-14
 -1       227 1.99988E+01-3.98089E-04-4.72181E-06 9.66473E-04 4.02951E-14 5.23156E-14
 -1       228 2.23513E+01 2.59903E-01-4.70338E-02 8.00936E-01 2.13170E-13 1.09304E-12
 -1       229 2.16385E+01 1.22417E-01 9.52193E-03 1.03204E-01 1.62548E-13 9.14244E-13
 -1       230 2.15227E+01 5.70464E-02 1.22024E-02-1.83412E-01 1.21278E-13 7.58745E-13
 -1       231 2.16973E+01 2.09144E-02 6.45586E-03-3.09681E-01 9.88058E-14 6.71036E-13
 -1       232 2.19961E+01-9.31890E-03 2.57736E-03-3.32404E-01 6.27796E-14 6.11124E-13
 -1       233 2.22920E+01-4.22753E-02 1.09934E-03-2.57689E-01 2.27813E-14 6.15352E-13
 -1       234 2.24683E+01-7.76320E-02 1.26461E-03-8.03749E-02 4.52307E-14 5.42941E-13
 -1       235 2.24185E+01-1.06638E-01 2.34003E-03 1.91530E-01 6.17098E-14 4.45270E-13
 -1       236 2.20695E+01-1.12175E-01 3.31136E-03 5.12576E-01 4.95294E-14 3.66157E-13
 -1       237 2.14242E+01-7.47490E-02 2.80197E-03 7.84456E-01-3.71959E-14 4.47718E-13
 -1       238 2.06044E+01 1.13003E-02-1.95433E-05 8.72254E-01 7.56736E-14 4.58478E-13
 -1       239 1.98526E+01 1.19239E-01-4.17289E-03 6.72232E-01 7.02802E-14 4.49933E-13
 -1       240 1.94524E+01 1.94229E-01-6.69010E-03 2.02872E-01 1.00588E-13 3.36046E-13
 -1       241 1.95839E+01 1.90296E-01-5.10616E-03-3.65975E-01 1.34465E-13 2.51788E-13
 -1       242 2.02137E+01 1.10669E-01-3.74944E-04-8.02606E-01 5.09503E-14 2.19674E-13
 -1       243 2.11142E+01 4.13224E-03 3.42892E-03-9.57753E-01-2.41394E-14 1.44228E-13
 -1       244 2.19993E+01-7.65031E-02 4.43300E-03-8.36793E-01 7.93257E-14 8.44715E-14
 -1       245 2.26568E+01-1.09579E-01 2.99107E-03-5.52913E-01 7.22295E-14-5.41112E-14
 -1       246 2.30005E+01-1.02982E-01 7.51975E-04-2.35300E-01-1.18352E-15-7.83346E-14
 -1       247 2.30480E+01-7.61383E-02-9.64987E-04 2.95148E-02-1.57116E-13 1.05640E-13
 -1       248 2.28719E+01-4.55558E-02-1.70942E-03 2.08063E-01 3.05357E-14 8.11389E-14
 -1       249 2.25575E+01-2.01095E-02-1.65555E-03 3.03446E-01 1.36716E-13-2.88500E-14
 -1       250 2.21793E+01-2.46622E-03-1.19903E-03 3.35091E-01-3.44240E-15-1.15518E-13
 -1       251 2.17912E+01 8.03140E-03-6.53281E-04 3.25093E-01-2.76083E-13-3.02612E-15
 -1       252 2.14276E+01 1.31884E-02-1.88159E-04 2.91886E-01-4.03968E-14 2.35018E-13
 -1       253 2.11068E+01 1.48340E-02 1.38727E-04 2.48580E-01 1.86559E-14 2.38609E-13
 -1       254 2.08358E+01 1.44100E-02 3.32428E-04 2.03489E-01-4.25575E-14 3.26372E-13
 -1       255 2.06148E+01 1.29155E-02 4.22521E-04 1.61329E-01-9.59564E-14 2.83478E-13
 -1       256 2.04395E+01 1.09858E-02 4.42049E-04 1.24384E-01 7.32329E-14 2.06882E-13
 -1       257 2.03041E+01 8.99537E-03 4.18718E-04 9.34254E-02 1.61426E-14 1.40424E-13
 -1       258 2.02021E+01 7.14555E-03 3.72784E-04 6.83492E-02-1.02085E-13 2.27006E-13
 -1       259 2.01271E+01 5.52968E-03 3.17766E-04 4.85997E-02 1.21034E-13 1.58607E-14
 -1       260 2.00735E+01 4.17679E-03 2.62006E-04 3.34284E-02 8.45799E-14 1.63831E-15
 -1       261 2.00363E+01 3.08010E-03 2.10205E-04 2.20468E-02-1.49647E-15-1.78490E-14
 -1       262 2.00115E+01 2.21463E-03 1.64654E-04 1.37106E-02 1.22354E-13-1.91741E-13
 -1       263 1.99959E+01 1.54789E-03 1.26130E-04 7.76010E-03 1.55149E-13-2.50098E-13
 -1       264 1.99868E+01 1.04598E-03 9.45159E-05 3.63547E-03 1.12827E-14-3.81588E-13
 -1       265 1.99823E+01 6.76956E-04 6.92017E-05 8.76603E-04 8.16846E-14-4.15605E-13
 -1       266 1.99809E+01 4.12357E-04 4.93473E-05-8.84377E-04-2.73048E-14-3.27467E-13
 -1       267 1.99815E+01 2.27760E-04 3.40388E-05-1.93421E-03 2.42165E-14-1.30300E-13
 -1       268 1.99834E+01 1.02631E-04 2.23802E-05-2.49036E-03-3.35060E-13-5.11430E-13
 -1       269 1.99859E+01 1.98443E-05 1.35541E-05-2.71205E-03-2.70940E-13-2.64730E-13
 -1       270 1.99887E+01-3.51066E-05 6.90298E-06-2.70959E-03 4.08198E-13-5.20847E-14
 -1       271 1.99915E+01-7.52052E-05 2.12831E-06-2.55125E-03 2.91396E-13-3.83650E-13
 -1       272 1.99941E+01-1.12822E-04-1.95211E-07-2.26714E-03 1.57705E-13-2.80622E-13
 -1       273 1.99964E+01-1.60337E-04 1.39616E-06-1.85265E-03-1.70653E-13-3.11264E-13
 -1       274 1.99981E+01-2.36790E-04 2.01855E-06-1.27190E-03-3.31756E-14-3.17013E-13
 -1       275 1.99993E+01-2.89689E-04-3.99988E-06-5.26234E-04 1.25342E-13-4.39418E-13
 -1       276 1.99994E+01-1.00304E-03-5.48556E-06-9.78785E-04-6.33476E-14 4.98849E-13
 -1       277 1.99996E+01-2.30800E-03-2.47392E-06-1.62818E-03-1.31128E-13 2.97715E-13
 -1       278 1.99997E+01-3.92459E-03-1.17791E-06-1.93873E-03 4.80676E-14 4.63839E-13
 -1       279 1.99999E+01-5.62835E-03 1.28640E-06-1.91963E-03 1.89218E-13 3.54783E-13
 -1       280 2.00000E+01-7.17191E-03 4.68462E-06-1.65041E-03 1.78520E-13-5.22104E-13
 -1       281 2.00000E+01-8.42771E-03 7.50366E-06-1.19575E-03 1.46164E-13-6.44561E-13
 -1       282 2.00000E+01-9.23222E-03 9.36417E-06-6.24880E-04-2.96726E-14-4.85038E-13
 -1       283 2.00001E+01-9.50803E-03 9.99711E-06 2.00642E-06 6.41555E-14-9.09221E-14
 -1       284 2.00000E+01-9.22900E-03 9.38153E-06 6.29218E-04-3.12430E-13 3.69095E-13
 -1       285 2.00000E+01-8.42063E-03 7.50693E-06 1.20112E-03-2.66404E-13-4.93164E-13
 -1       286 2.00000E+01-7.18612E-03 4.52536E-06 1.65055E-03-2.67379E-13-2.39448E-14
 -1       287 1.99999E+01-5.61273E-03 1.26775E-06 1.92469E-03 9.09655E-14 2.62055E-13
 -1       288 1.99997E+01-3.90659E-03-1.66184E-06 1.94081E-03-9.62042E-14 1.52115E-13
 -1       289 1.99996E+01-2.29447E-03-6.10350E-06 1.60723E-03-1.51753E-13 8.32197E-14
 -1       290 1.99992E+01-1.25908E-03-8.28099E-06 1.47831E-03-2.32222E-13-2.07983E-13
 -1       291-8.90193E-01-1.08110E+01-9.57016E-01 1.17341E+00 3.11140E-14 7.83956E-13
 -1       292 3.62193E+00-7.49548E+00-5.25113E-01 4.45740E+00 5.13256E-13 1.15273E-12
 -1       293 1.12833E+01-4.87263E+00-3.44020E-01 6.25309E+00 9.38249E-13 1.09927E-12
 -1       294 2.06864E+01-1.05139E+00-3.54162E-02 7.12232E+00 1.24947E-12 9.69502E-13
 -1       295 3.08767E+01 1.64085E+00 2.41005E-01 5.80400E+00 1.06558E-12 7.48374E-13
 -1       296 3.94886E+01 5.18701E+00 6.88088E-01 5.40371E+00 1.00317E-12 6.12427E-13
 -1       297 4.59208E+01 6.45890E+00 1.03266E+00 2.67801E+00 8.11601E-13 1.83117E-13
 -1       298 4.68834E+01 6.62801E+00 1.07608E+00-1.46013E+00 7.15789E-13-3.45592E-13
 -1       299 4.18345E+01 5.82671E+00 7.82275E-01-4.61506E+00 8.60229E-13-7.39436E-13
 -1       300 3.36013E+01 2.78566E+00 3.42544E-01-5.41685E+00 7.66123E-13-8.93147E-13
 -1       301 2.34632E+01 8.96865E-01 1.07640E-01-7.73506E+00 9.85489E-13-1.12488E-12
 -1       302 1.37334E+01-2.85581E+00-3.19923E-01-6.52662E+00 8.72746E-13-1.04070E-12
 -1       303 6.33484E+00-6.73968E+00-5.28167E-01-5.24059E+00 5.13922E-13-8.27144E-13
 -1       304 1.93570E-01-1.00867E+01-9.09918E-01-2.17950E+00 2.67592E-13-6.76903E-13
 -1       305-9.43107E-01-8.96583E+00-6.54022E-01 2.78417E-01-1.19611E-13-8.41577E-13
 -1       306 9.83451E-01-9.72820E+00-9.05701E-01 2.43836E+00-6.91475E-13-8.30586E-13
 -1       307 7.49135E+00-6.38342E+00-5.59280E-01 5.21288E+00-9.12409E-13-8.08031E-13
 -1       308 1.56209E+01-2.30487E+00-2.69283E-01 6.70301E+00-1.15855E-12-9.17516E-13
 -1       309 2.58825E+01 1.38334E+00 1.83321E-01 7.67748E+00-1.03378E-12-1.07264E-12
 -1       310 3.60776E+01 3.92095E+00 5.56832E-01 6.39677E+00-8.31855E-13-7.67719E-13
 -1       311 4.16514E+01 6.17039E+00 6.11552E-01 2.64944E+00-8.72774E-13-2.89352E-13
 -1       312 4.68450E+01 6.89590E+00 1.01248E+00 4.27882E-01-7.01050E-13-2.57711E-14
 -1       313 4.55892E+01 6.19139E+00 1.03046E+00-3.37895E+00-8.18873E-13 5.68046E-13
 -1       314 3.88357E+01 4.73007E+00 7.29719E-01-6.20755E+00-1.11007E-12 1.06112E-12
 -1       315 2.91042E+01 2.23310E+00 3.12354E-01-7.45576E+00-1.38914E-12 1.32067E-12
 -1       316 1.84868E+01-1.26195E+00-1.44604E-01-6.99527E+00-1.51434E-12 1.29577E-12
 -1       317 9.30215E+00-5.11982E+00-5.41146E-01-5.33310E+00-1.31151E-12 1.42274E-12
 -1       318 2.66080E+00-8.74069E+00-8.42885E-01-3.15284E+00-1.22446E-12 9.04492E-13
 -1       319-7.47827E-01-9.96172E+00-8.39728E-01-1.19915E+00-5.48284E-13 1.02751E-12
 -1       320 2.07592E+01 3.12909E+00-1.80517E-02-1.25390E+00-2.44854E-13-2.04112E-13
 -1       321 2.18561E+01 2.21338E+00-1.59928E-02-1.58552E+00-2.88709E-13-2.40658E-14
 -1       322 1.90864E+01 4.04876E+00-1.29158E-02-5.83190E-01-1.14430E-13-3.67474E-13
 -1       323 1.84971E+01 4.30032E+00-9.56299E-03-3.70532E-01-5.96413E-14-4.06453E-13
 -1       324 1.81075E+01 4.44823E+00-7.65846E-03-2.31239E-01 4.07221E-15-3.77642E-13
 -1       325 1.79399E+01 4.49982E+00-6.90069E-03-1.30581E-01 7.73566E-14-3.65681E-13
 -1       326 1.79982E+01 4.46164E+00-7.16174E-03-2.88638E-02 1.29349E-13-3.29367E-13
 -1       327 1.82657E+01 4.34258E+00-8.37733E-03 1.11276E-01 1.85601E-13-2.79147E-13
 -1       328 1.87014E+01 4.15469E+00-1.05454E-02 3.13883E-01 2.44515E-13-2.32561E-13
 -1       329 1.92865E+01 3.88992E+00-1.37907E-02 6.00518E-01 2.96367E-13-1.45253E-13
 -1       330 1.99930E+01 3.52444E+00-1.82628E-02 9.66859E-01 3.43879E-13-4.18537E-14
 -1       331 2.08340E+01 2.98499E+00-2.23765E-02 1.37985E+00 3.62335E-13 1.23812E-13
 -1       332 2.17850E+01 2.10030E+00-2.96136E-02 1.66828E+00 3.42959E-13 4.39057E-13
 -1       333 2.23240E+01 1.14954E+00-2.24544E-02 1.37721E+00 2.98119E-13 6.99883E-13
 -1       334 2.18747E+01 4.78259E-01 8.73381E-03 3.82425E-01 2.43370E-13 5.93071E-13
 -1       335 2.19524E+01 7.37865E-01 1.34822E-02-1.89744E-01-2.47766E-13 2.94846E-14
 -1       336 2.18518E+01 4.24795E-01 7.61684E-03 4.71912E-01-2.04677E-13 3.37692E-14
 -1       337 2.19742E+01 2.41870E-01 3.90271E-03 8.71860E-01-1.10326E-13 1.91631E-14
 -1       338 2.22684E+01 6.67575E-02 3.56393E-04 1.08008E+00-5.10291E-14 9.30950E-15
 -1       339 2.26886E+01-1.58290E-01-2.74712E-03 1.08337E+00-7.56058E-15 2.43369E-14
 -1       340 2.31872E+01-4.55175E-01-5.63567E-03 8.26980E-01 1.77896E-15 1.97000E-14
 -1       341 2.36978E+01-7.84548E-01-7.69533E-03 2.53238E-01 2.97718E-14 7.30191E-14
 -1       342 2.41077E+01-1.00043E+00-7.69315E-03-6.24413E-01-1.69344E-14 1.49350E-13
 -1       343 2.42463E+01-8.45120E-01-6.40843E-03-1.60160E+00-6.49277E-14 2.05400E-13
 -1       344 2.39758E+01-1.14615E-01-6.57059E-03-2.19989E+00-1.34437E-13 1.57703E-13
 -1       345 2.34042E+01 1.00276E+00-9.13561E-03-1.84367E+00-1.70020E-13 1.15860E-13
 -1       346 2.29895E+01 1.77020E+00-1.67371E-02-4.19004E-01-1.89741E-13-1.91852E-14
 -1       347 2.31613E+01 1.52684E+00-1.48504E-02 1.31644E+00-2.31879E-13-1.51281E-13
 -1       348 2.37732E+01 5.02025E-01-7.30636E-03 2.31209E+00-1.75270E-13-3.72290E-13
 -1       349 2.43076E+01-5.06440E-01-4.21800E-03 2.18933E+00-1.42284E-13-5.58838E-13
 -1       350 2.44416E+01-9.78088E-01-6.25430E-03 1.34609E+00 2.23519E-15-5.09154E-13
 -1       351 2.42027E+01-9.39223E-01-7.78713E-03 3.61338E-01 3.15459E-14-3.69817E-13
 -1       352 2.37574E+01-6.56398E-01-7.39805E-03-4.11482E-01 4.53023E-15-2.70767E-13
 -1       353 2.32439E+01-3.47970E-01-5.08643E-03-8.76627E-01 5.39310E-14-1.84029E-13
 -1       354 2.27356E+01-1.12640E-01-2.59730E-03-1.07735E+00 2.42375E-13-1.19608E-13
 -1       355 2.22642E+01 3.34228E-02-6.85939E-04-1.09738E+00 1.55221E-13 1.23501E-13
 -1       356 2.18422E+01 1.08333E-01 5.11099E-04-1.01335E+00 1.63381E-13 6.56017E-14
 -1       357 2.14739E+01 1.36437E-01 1.12841E-03-8.80701E-01 1.24445E-13-1.76795E-13
 -1       358 2.11596E+01 1.37618E-01 1.34769E-03-7.34331E-01 8.67801E-15-2.30054E-13
 -1       359 2.08969E+01 1.25304E-01 1.33250E-03-5.93795E-01-6.73793E-14-1.62008E-13
 -1       360 2.06818E+01 1.07578E-01 1.19899E-03-4.68565E-01 2.03412E-14-6.52836E-14
 -1       361 2.05088E+01 8.88833E-02 1.01972E-03-3.62076E-01 9.26825E-14-2.00190E-14
 -1       362 2.03722E+01 7.14345E-02 8.35123E-04-2.74425E-01-3.28380E-14-7.35769E-14
 -1       363 2.02662E+01 5.61701E-02 6.65278E-04-2.04047E-01-3.19705E-13-1.86467E-13
 -1       364 2.01854E+01 4.33429E-02 5.18369E-04-1.48683E-01-3.45169E-13-2.38152E-13
 -1       365 2.01250E+01 3.28614E-02 3.96175E-04-1.05916E-01-6.09509E-14-8.76554E-15
 -1       366 2.00806E+01 2.44799E-02 2.97309E-04-7.34486E-02 1.01460E-14-9.01356E-14
 -1       367 2.00488E+01 1.78993E-02 2.19023E-04-4.92296E-02-2.40558E-13-2.93036E-13
 -1       368 2.00266E+01 1.28192E-02 1.58169E-04-3.14974E-02-6.66809E-14-3.80996E-13
 -1       369 2.00116E+01 8.96217E-03 1.11671E-04-1.87806E-02 1.06731E-13-1.41684E-13
 -1       370 2.00019E+01 6.08405E-03 7.67472E-05-9.87724E-03 2.38527E-13-9.61763E-14
 -1       371 1.99960E+01 3.97615E-03 5.09787E-05-3.82351E-03 1.84613E-13-3.18991E-13
 -1       372 1.99928E+01 2.46380E-03 3.23203E-05 1.39838E-04 2.67832E-13-6.61489E-14
 -1       373 1.99916E+01 1.40281E-03 1.90681E-05 2.59965E-03-2.56479E-16-1.80177E-14
 -1       374 1.99915E+01 6.75042E-04 9.81137E-06 3.99964E-03-3.25765E-15-8.24994E-14
 -1       375 1.99922E+01 1.83558E-04 3.38518E-06 4.66547E-03 7.05657E-14-3.41645E-13
 -1       376 1.99933E+01-1.52351E-04-1.15372E-06 4.82535E-03-3.05126E-14 8.27732E-14
 -1       377 1.99947E+01-4.01843E-04-4.56843E-06 4.62660E-03 9.79149E-14 4.53008E-13
 -1       378 1.99961E+01-6.25399E-04-7.15779E-06 4.14924E-03 5.90366E-14 4.05143E-13
 -1       379 1.99973E+01-8.77524E-04-1.09631E-05 3.42498E-03-7.78430E-14 3.05303E-13
 -1       380 1.99983E+01-1.07852E-03-1.16546E-05 2.53119E-03-1.58641E-13 1.17917E-13
 -1       381 2.16696E+01 2.24191E-01 1.01445E-02-1.49035E-01 2.02759E-13 5.16157E-13
 -1       382 2.16964E+01 9.13643E-02 4.89818E-03-4.12969E-01 1.43516E-13 4.16759E-13
 -1       383 2.18723E+01-1.61105E-02 7.05807E-04-4.96218E-01 7.86158E-14 3.85900E-13
 -1       384 2.21054E+01-1.26655E-01-1.89880E-03-4.18256E-01 3.52171E-14 3.51628E-13
 -1       385 2.23102E+01-2.41437E-01-3.37927E-03-1.77698E-01 8.54449E-14 3.10402E-13
 -1       386 2.24025E+01-3.35200E-01-3.78440E-03 2.13276E-01 8.91739E-14 2.83124E-13
 -1       387 2.23078E+01-3.56807E-01-2.89448E-03 6.92386E-01 9.48044E-14 3.10159E-13
 -1       388 2.19864E+01-2.46348E-01-9.11838E-04 1.12078E+00-9.21392E-14 3.58298E-13
 -1       389 2.14778E+01 1.79202E-02 1.29199E-03 1.29648E+00 3.86203E-14 3.40781E-13
 -1       390 2.09361E+01 3.60267E-01 3.05925E-03 1.04620E+00 1.29442E-13 3.97631E-13
 -1       391 2.05952E+01 6.10001E-01 3.38178E-03 3.69992E-01 2.01287E-13 3.16227E-13
 -1       392 2.06395E+01 6.14173E-01 4.12581E-03-4.90695E-01 1.89139E-13 1.91830E-13
 -1       393 2.10657E+01 3.70731E-01 5.07196E-03-1.17340E+00 9.59541E-14 1.12214E-13
 -1       394 2.16840E+01 2.86285E-02 2.91482E-03-1.43093E+00 1.69570E-14 7.45350E-14
 -1       395 2.22577E+01-2.38384E-01-2.82718E-04-1.26048E+00 1.83545E-13-3.07291E-14
 -1       396 2.26336E+01-3.54185E-01-3.17370E-03-8.32978E-01 1.66170E-13-1.14664E-13
 -1       397 2.27711E+01-3.39524E-01-4.62438E-03-3.46995E-01-2.38407E-14-1.40190E-13
 -1       398 2.27040E+01-2.55432E-01-4.57057E-03 6.32972E-02-5.00197E-14-1.46511E-13
 -1       399 2.24940E+01-1.55930E-01-3.55796E-03 3.44259E-01-4.52496E-14-1.56999E-13
 -1       400 2.22021E+01-7.11949E-02-2.20206E-03 4.98030E-01 1.90696E-13-1.21830E-13
 -1       401 2.18769E+01-1.11976E-02-9.80732E-04 5.52330E-01 4.00900E-15-9.79882E-14
 -1       402 2.15528E+01 2.53505E-02-7.96070E-05 5.40012E-01-3.10460E-13-7.63664E-14
 -1       403 2.12514E+01 4.39356E-02 4.85503E-04 4.89273E-01-2.17007E-13 9.46053E-14
 -1       404 2.09845E+01 5.04405E-02 7.77101E-04 4.20740E-01-1.73874E-14 3.20194E-13
 -1       405 2.07570E+01 4.96478E-02 8.77253E-04 3.47907E-01 2.05589E-14 3.36902E-13
 -1       406 2.05689E+01 4.49550E-02 8.58573E-04 2.78721E-01-1.04641E-13 2.70737E-13
 -1       407 2.04174E+01 3.85716E-02 7.75353E-04 2.17265E-01 1.67642E-13 3.05197E-13
 -1       408 2.02982E+01 3.18310E-02 6.64035E-04 1.65128E-01-3.74388E-14 1.54145E-13
 -1       409 2.02066E+01 2.54726E-02 5.47059E-04 1.22405E-01 1.89323E-14-6.30591E-14
 -1       410 2.01377E+01 1.98560E-02 4.36992E-04 8.83743E-02 1.30214E-13-2.04623E-13
 -1       411 2.00871E+01 1.51101E-02 3.39959E-04 6.19316E-02 6.51366E-14-1.73439E-13
 -1       412 2.00509E+01 1.12316E-02 2.58130E-04 4.18556E-02-3.96834E-14-6.41783E-14
 -1       413 2.00257E+01 8.14772E-03 1.91395E-04 2.69593E-02 1.80241E-13 2.07531E-13
 -1       414 2.00089E+01 5.75425E-03 1.38447E-04 1.61688E-02 3.31759E-13-2.03423E-15
 -1       415 1.99983E+01 3.93868E-03 9.74451E-05 8.55784E-03 4.44735E-14-8.33774E-14
 -1       416 1.99921E+01 2.59262E-03 6.64058E-05 3.35468E-03 2.96738E-14-1.02110E-13
 -1       417 1.99890E+01 1.61820E-03 4.34197E-05-6.52871E-05-2.02551E-13 5.50286E-14
 -1       418 1.99880E+01 9.30483E-04 2.67556E-05-2.19461E-03 6.47668E-15 1.18425E-13
 -1       419 1.99884E+01 4.57507E-04 1.48988E-05-3.41134E-03-2.04182E-13 2.82710E-14
 -1       420 1.99896E+01 1.38987E-04 6.54616E-06-3.99630E-03-2.34834E-13-6.90517E-14
 -1       421 1.99913E+01-7.58795E-05 6.09565E-07-4.14848E-03 1.30881E-13-2.43097E-13
 -1       422 1.99931E+01-2.31302E-04-3.76918E-06-3.99760E-03 3.66521E-13 3.58379E-14
 -1       423 1.99950E+01-3.67828E-04-6.86444E-06-3.61353E-03 5.75813E-14 5.15413E-14
 -1       424 1.99966E+01-5.18264E-04-8.25203E-06-3.01611E-03-9.70648E-14 7.83855E-14
 -1       425 1.99981E+01-7.06539E-04-7.99691E-06-2.19723E-03-1.11945E-13 2.33457E-14
 -1       426 1.99988E+01-8.84986E-04-7.35796E-06-1.62672E-03 1.32215E-13 1.89223E-13
 -1       427 1.99998E+01-3.90492E-03-6.64490E-07-3.24078E-03-3.64680E-14 5.64220E-13
 -1       428 1.99994E+01-2.67277E-03-6.99451E-06-3.07366E-03-1.01113E-13 4.57750E-13
 -1       429 1.99990E+01-1.75798E-03-1.04253E-05-2.47726E-03-2.69304E-13 3.85383E-13
 -1       430 2.00002E+01-5.03505E-03 3.62273E-06-2.97179E-03-1.38886E-13-4.08534E-13
 -1       431 2.00005E+01-6.00058E-03 6.68350E-06-2.35897E-03-7.00734E-14-1.28295E-13
 -1       432 2.00007E+01-6.69324E-03 8.83954E-06-1.50714E-03 2.91135E-13-6.59210E-13
 -1       433 2.00008E+01-7.05452E-03 9.92978E-06-5.15890E-04 1.43242E-13-1.43373E-13
 -1       434 2.00008E+01-7.05457E-03 9.96756E-06 5.21340E-04 1.06943E-13-8.59510E-14
 -1       435 2.00007E+01-6.69299E-03 8.89632E-06 1.51385E-03-2.00689E-13-4.32316E-13
 -1       436 2.00005E+01-6.01361E-03 6.62684E-06 2.35495E-03 2.25128E-14-1.11829E-13
 -1       437 2.00002E+01-5.04956E-03 3.54954E-06 2.97374E-03-1.10328E-13 5.98738E-13
 -1       438 1.99998E+01-3.89657E-03-6.15718E-07 3.24932E-03 6.62746E-14 2.86513E-13
 -1       439 1.99993E+01-2.66610E-03-7.24305E-06 3.09894E-03-6.52634E-14-2.64853E-13
 -1       440 1.18882E+01-5.36353E+00 3.51034E-02 7.20715E+00-8.09908E-14 6.74322E-13
 -1       441 1.09815E+00-4.47188E+00-6.22819E-02 3.22484E-01-2.06004E-13 1.18486E-12
 -1       442 3.59984E+00-4.55089E+00-3.72263E-02 4.32871E+00-1.01336E-13 1.29369E-12
 -1       443 2.02419E+01-5.22267E+00-7.43842E-03 6.43599E+00 1.84144E-13 2.64976E-13
 -1       444 2.72889E+01-3.17470E+00-1.17450E-02 3.84848E+00 4.53824E-13 1.14297E-13
 -1       445 1.98527E+01 3.67250E+00-1.62596E-02-8.97258E-01-1.75214E-13-3.27067E-13
 -1       446 3.51752E+01 5.99525E+00 4.83295E-02-1.25980E-01 9.35918E-13-6.06182E-14
 -1       447 3.52232E+01 8.13859E+00 2.17452E-02-1.84440E-01 9.25787E-13-8.95325E-14
 -1       448 3.59207E+01 7.05854E+00 7.69351E-02-8.22311E-03 8.01165E-13-4.73510E-14
 -1       449 3.33938E+01 3.39761E+00-1.76874E-02-2.80735E-01 6.29025E-13 4.61714E-14
 -1       450 2.89236E+01-2.27776E+00-1.72212E-02-3.11740E+00 2.26805E-13-2.24945E-13
 -1       451 2.26765E+01-4.38129E+00-2.10622E-02-6.02098E+00 1.86781E-13-3.90438E-13
 -1       452 1.57508E+01-5.66654E+00 9.50571E-03-7.26084E+00-3.15442E-14-4.83897E-13
 -1       453 6.22798E+00-4.81184E+00-1.74554E-02-5.85429E+00-5.37764E-14-7.53481E-13
 -1       454 2.53164E+00-3.53870E+00 6.19289E-02-2.41050E+00-5.06123E-14-7.91395E-13
 -1       455 2.76429E+00-4.46479E+00-3.61255E-02 3.33024E+00 5.29438E-15-8.61644E-13
 -1       456 7.59442E+00-5.40711E+00-6.96343E-02 6.20202E+00-7.71050E-14-6.75696E-13
 -1       457 1.65947E+01-5.71227E+00-4.38359E-02 6.95948E+00-2.81608E-13-3.93321E-13
 -1       458 2.45492E+01-4.09179E+00-1.42823E-02 5.41180E+00-4.26367E-13-3.48693E-13
 -1       459 3.10282E+01-9.14509E-01 2.91578E-02 2.60970E+00-5.01037E-13-1.13576E-13
 -1       460 3.35858E+01 2.96001E+00-4.68788E-02-3.65638E-01-6.05266E-13 5.03764E-14
 -1       461 3.52865E+01 7.50201E+00-1.05364E-02-2.53138E-01-8.54178E-13-2.39461E-14
 -1       462 3.72038E+01 7.67432E+00 1.53665E-01 2.53223E-01-9.04526E-13 1.96648E-14
 -1       463 3.60360E+01 4.96926E+00 1.25815E-01-1.71959E-01-8.50250E-13 1.88738E-14
 -1       464 3.24402E+01 4.06614E-01 1.97471E-02-1.44065E+00-8.53141E-13-1.59595E-14
 -1       465 2.70475E+01-3.77464E+00-1.48904E-02-3.93610E+00-6.05363E-13 2.77556E-13
 -1       466 1.92488E+01-5.62013E+00-1.39344E-02-6.48530E+00-3.18939E-13 5.09898E-13
 -1       467 1.01738E+01-5.83616E+00-8.30158E-02-6.61164E+00-2.81469E-13 9.10480E-13
 -1       468 4.33016E+00-4.63028E+00-2.24154E-02-4.60145E+00-2.00437E-13 7.08072E-13
 -1       469 3.26495E+01 1.93191E+00-6.28566E-03 9.40882E-01 8.54063E-13-6.16451E-14
 -1       470 2.95434E+01-1.84486E+00-6.70768E-02 5.81513E-01 4.58045E-13-3.42081E-13
 -1       471 3.10610E+01 4.77970E+00-1.67351E-01-1.81115E+00-6.27762E-13 5.97855E-14
 -1       472 4.06879E+00-1.66787E+00 1.55675E-01 6.79906E-01 3.17394E-14-8.28740E-13
 -1       473 3.02232E+01-6.10712E-01-8.82382E-02 1.53569E-01 1.71630E-13 3.22693E-13
 -1       474 2.15650E+01 8.41373E-01 3.80205E-03 2.09262E-01 2.58891E-13 2.88471E-13
 -1       475 1.83539E+01 3.82110E+00-3.25572E-03-1.28924E-01-1.94114E-14-3.50493E-13
 -1       476 1.89084E+01 3.52611E+00-4.09188E-03-1.88988E-01-7.95762E-14-3.54923E-13
 -1       477 1.79915E+01 3.98015E+00-2.67171E-03-1.25762E-01 9.10417E-14-3.06871E-13
 -1       478 1.81970E+01 3.85600E+00-3.00317E-03-9.98683E-02 1.41874E-13-2.63282E-13
 -1       479 1.86116E+01 3.62227E+00-3.74522E-03-1.05478E-02 1.92397E-13-2.14682E-13
 -1       480 1.91984E+01 3.28613E+00-4.86670E-03 1.57601E-01 2.59947E-13-1.48795E-13
 -1       481 1.99015E+01 2.85041E+00-6.00822E-03 3.90609E-01 2.85930E-13-7.72368E-14
 -1       482 2.06893E+01 2.28114E+00-5.64171E-03 6.44989E-01 3.19826E-13 3.83866E-14
 -1       483 2.15212E+01 4.37879E-01 4.55311E-03-3.22004E-01 2.09354E-13 2.55905E-13
 -1       484 2.13490E+01 1.16049E+00 2.87108E-03 1.45663E-01-2.12249E-13-7.06960E-14
 -1       485 3.06500E+01 3.15361E+00-1.54547E-01-1.58105E+00 7.19383E-13-2.83530E-13
 -1       486 2.13694E+01 7.32944E-01 2.49248E-03 7.70971E-01-1.41624E-13-2.92751E-14
 -1       487 2.14863E+01 3.94919E-01 8.67363E-04 1.20414E+00-9.23893E-14 1.73243E-14
 -1       488 2.17520E+01 1.92635E-02-5.37697E-04 1.44482E+00-5.67785E-14-2.20514E-14
 -1       489 2.22076E+01-4.73513E-01-1.88033E-03 1.45481E+00-5.78140E-15-5.24230E-14
 -1       490 2.28922E+01-1.09606E+00-3.34977E-03 1.15438E+00 2.40093E-14-5.04944E-14
 -1       491 2.37977E+01-1.72125E+00-4.98052E-03 4.48974E-01 6.88951E-14-6.22733E-14
 -1       492 2.47836E+01-1.98618E+00-7.19980E-03-6.80693E-01 3.02304E-14 8.07585E-14
 -1       493 2.54758E+01-1.30109E+00-1.92227E-02-1.94663E+00-8.31848E-14 2.50775E-13
 -1       494 2.55053E+01 6.25657E-01-4.48384E-02-2.55956E+00-1.67489E-13 2.54435E-13
 -1       495 2.50688E+01 2.85789E+00-5.96237E-02-1.60300E+00-3.20298E-13 1.20170E-13
 -1       496 2.48624E+01 3.59427E+00-7.71656E-02 6.21114E-01-4.57037E-13-8.68642E-14
 -1       497 2.53054E+01 1.97121E+00-5.66073E-02 2.44172E+00-4.27281E-13-3.92195E-13
 -1       498 2.56507E+01-3.66379E-01-2.82373E-02 2.63352E+00-2.62057E-13-5.26963E-13
 -1       499 2.53109E+01-1.75837E+00-9.73462E-03 1.60069E+00-1.01324E-13-4.47610E-13
 -1       500 2.44460E+01-1.96226E+00-4.56353E-03 3.13364E-01 1.07114E-13-4.54298E-13
 -1       501 2.34654E+01-1.49294E+00-4.91906E-03-6.62788E-01 7.42611E-14-2.25519E-13
 -1       502 2.26336E+01-8.72310E-01-3.34571E-03-1.22490E+00 1.91560E-13-1.07614E-13
 -1       503 2.20093E+01-3.57698E-01-1.72818E-03-1.45735E+00 1.62332E-13-2.01073E-13
 -1       504 2.15597E+01-1.53727E-02-5.71437E-04-1.47479E+00 2.52431E-13-1.92777E-13
 -1       505 2.12314E+01 1.76706E-01 1.01829E-04-1.36939E+00 1.41386E-13-3.24160E-13
 -1       506 2.09821E+01 2.63119E-01 4.57894E-04-1.20434E+00 1.48933E-14-3.09905E-13
 -1       507 2.07846E+01 2.84465E-01 5.95980E-04-1.01964E+00-3.98957E-14-3.70978E-13
 -1       508 2.06237E+01 2.70179E-01 6.07913E-04-8.38680E-01-6.69609E-14-3.63293E-13
 -1       509 2.04909E+01 2.39130E-01 5.55209E-04-6.73822E-01-5.09693E-14-3.40258E-13
 -1       510 2.03813E+01 2.02416E-01 4.76381E-04-5.30481E-01 7.97315E-14-4.60428E-13
 -1       511 2.02916E+01 1.66059E-01 3.92514E-04-4.09921E-01 9.34429E-14-2.70157E-13
 -1       512 2.02192E+01 1.33001E-01 3.14149E-04-3.11088E-01-1.86424E-13-1.95761E-13
 -1       513 2.01616E+01 1.04416E-01 2.45759E-04-2.31762E-01-2.78597E-13-1.63610E-13
 -1       514 2.01165E+01 8.05149E-02 1.88534E-04-1.69270E-01-1.54205E-13-7.99350E-14
 -1       515 2.00819E+01 6.10228E-02 1.42023E-04-1.20886E-01-1.25966E-13-1.68360E-13
 -1       516 2.00558E+01 4.54444E-02 1.05050E-04-8.40570E-02-1.48374E-13-2.19067E-13
 -1       517 2.00365E+01 3.32139E-02 7.62046E-05-5.65077E-02-1.52454E-13-1.09169E-13
 -1       518 2.00226E+01 2.37717E-02 5.40849E-05-3.62791E-02 1.27637E-13-1.05690E-13
 -1       519 2.00127E+01 1.66035E-02 3.74086E-05-2.17287E-02 6.05724E-14-2.69538E-13
 -1       520 2.00060E+01 1.12558E-02 2.50567E-05-1.15086E-02 1.96306E-13-2.72764E-13
 -1       521 2.00017E+01 7.33999E-03 1.60805E-05-4.53440E-03 2.56447E-13-2.53055E-13
 -1       522 1.99990E+01 4.52974E-03 9.68827E-06 5.04239E-05 3.10373E-13-1.63334E-13
 -1       523 1.99976E+01 2.55439E-03 5.22660E-06 2.90871E-03-2.05721E-13-2.24334E-13
 -1       524 1.99969E+01 1.19104E-03 2.15127E-06 4.54143E-03-8.50156E-14-2.08966E-13
 -1       525 1.99968E+01 2.55781E-04 2.19906E-08 5.31550E-03 2.32810E-13-8.92944E-14
 -1       526 1.99971E+01-4.04649E-04-1.47808E-06 5.48757E-03 1.60003E-13-7.72234E-14
 -1       527 1.99976E+01-9.18967E-04-2.64132E-06 5.22385E-03 5.24935E-14-2.40624E-14
 -1       528 1.99981E+01-1.39643E-03-4.22837E-06 4.62008E-03-1.45882E-13-1.50691E-13
 -1       529 2.17864E+01-1.25518E-01-6.85084E-04-6.76604E-01 1.00092E-13 1.89161E-13
 -1       530 2.20612E+01-4.05977E-01-2.08832E-03-5.31843E-01 7.22187E-14 1.26659E-13
 -1       531 2.23772E+01-6.74205E-01-2.71375E-03-1.64815E-01 6.96077E-14 1.49964E-13
 -1       532 2.26607E+01-8.43287E-01-2.35722E-03 4.00258E-01 2.98078E-14 2.30915E-13
 -1       533 2.28100E+01-7.75307E-01-1.01614E-03 1.05601E+00-5.34503E-14 3.25205E-13
 -1       534 2.27231E+01-3.41532E-01 1.87178E-04 1.57308E+00-4.17396E-15 2.52237E-13
 -1       535 2.23943E+01 4.25546E-01 4.75273E-04 1.63273E+00 1.28169E-13 1.68143E-13
 -1       536 2.20025E+01 1.21017E+00-6.80854E-04 1.02525E+00 2.15148E-13 1.66148E-13
 -1       537 2.18308E+01 1.55336E+00-4.94299E-03-9.89541E-02 2.48216E-13 1.36171E-13
 -1       538 2.20468E+01 1.20585E+00-3.36435E-05-1.21658E+00 1.94757E-13 9.19955E-14
 -1       539 2.24789E+01 4.14056E-01-1.33083E-04-1.81436E+00 1.25496E-13-9.70578E-15
 -1       540 2.28374E+01-3.48102E-01-7.90430E-04-1.74349E+00 1.61019E-13-1.42178E-13
 -1       541 2.29480E+01-7.79113E-01-1.86454E-03-1.21950E+00 1.69994E-13-1.13275E-14
 -1       542 2.28146E+01-8.53836E-01-2.88484E-03-5.52065E-01 1.87842E-14-4.93202E-14
 -1       543 2.25309E+01-7.02785E-01-3.18863E-03 3.89810E-02-6.89379E-14-1.17292E-13
 -1       544 2.21893E+01-4.70291E-01-2.72774E-03 4.59480E-01-3.07965E-14-8.97012E-14
 -1       545 2.18479E+01-2.49843E-01-1.77182E-03 7.03205E-01-2.53299E-15-1.74733E-13
 -1       546 2.15333E+01-8.12043E-02-8.67439E-04 8.03965E-01 3.26118E-14 1.42314E-14
 -1       547 2.12546E+01 2.98277E-02-1.85008E-04 8.05101E-01-1.61241E-13 7.91836E-14
 -1       548 2.10128E+01 9.27390E-02 2.52339E-04 7.45337E-01-2.53920E-13 1.52097E-14
 -1       549 2.08062E+01 1.21012E-01 4.86686E-04 6.54155E-01-1.31584E-13-7.42436E-14
 -1       550 2.06323E+01 1.26884E-01 5.77891E-04 5.51777E-01-3.94010E-14-1.13690E-14
 -1       551 2.04880E+01 1.19695E-01 5.78990E-04 4.50882E-01 3.37963E-14-5.98402E-14
 -1       552 2.03702E+01 1.05894E-01 5.29920E-04 3.58619E-01-1.78503E-14-2.15257E-13
 -1       553 2.02755E+01 8.96140E-02 4.57680E-04 2.78364E-01 7.50471E-14-7.40963E-14
 -1       554 2.02008E+01 7.33164E-02 3.79198E-04 2.11092E-01 7.89567E-14 1.53652E-14
 -1       555 2.01428E+01 5.83389E-02 3.04122E-04 1.56343E-01 1.69838E-13 9.68903E-15
 -1       556 2.00986E+01 4.52987E-02 2.37296E-04 1.12898E-01 1.43205E-14 2.43808E-13
 -1       557 2.00655E+01 3.43754E-02 1.80589E-04 7.92003E-02 3.13957E-14 3.21693E-13
 -1       558 2.00414E+01 2.54981E-02 1.34145E-04 5.36283E-02 3.34579E-14 1.80288E-13
 -1       559 2.00242E+01 1.84658E-02 9.71812E-05 3.46437E-02 3.16368E-13 1.17706E-13
 -1       560 2.00123E+01 1.30225E-02 6.84892E-05 2.08727E-02 4.10506E-13 1.08614E-13
 -1       561 2.00044E+01 8.90156E-03 4.67312E-05 1.11378E-02 9.63489E-14 2.71368E-14
 -1       562 1.99994E+01 5.85028E-03 3.06040E-05 4.46175E-03-2.25723E-13 9.28447E-14
 -1       563 1.99965E+01 3.64220E-03 1.89210E-05 5.52965E-05-2.65762E-13 3.64382E-15
 -1       564 1.99951E+01 2.08124E-03 1.06442E-05-2.70251E-03 2.13285E-14 2.69586E-13
 -1       565 1.99947E+01 1.00108E-03 4.89275E-06-4.28680E-03-1.78818E-13-6.23747E-14
 -1       566 1.99950E+01 2.61918E-04 9.08848E-07-5.04878E-03-3.86009E-14-1.37836E-13
 -1       567 1.99956E+01-2.54181E-04-1.92773E-06-5.23587E-03 3.06580E-14 1.48725E-13
 -1       568 1.99964E+01-6.48385E-04-4.26488E-06-5.01007E-03 1.16578E-13 6.15745E-13
 -1       569 1.99973E+01-1.01160E-03-7.91080E-06-4.47080E-03 4.56440E-14 6.63647E-13
 -1       570 1.99982E+01-1.39437E-03-8.88928E-06-3.65058E-03-7.94901E-14 5.45497E-13
 -1       571 2.00010E+01-4.20784E-03 2.42614E-06-3.40508E-03 1.59834E-14-4.17182E-13
 -1       572 2.00015E+01-4.75398E-03 3.40946E-06-2.45419E-03-4.22293E-14-1.09721E-13
 -1       573 1.99995E+01-2.62415E-03-1.49152E-06-4.17776E-03-9.99295E-17 7.60207E-13
 -1       574 2.00004E+01-3.48578E-03 1.35147E-06-4.01277E-03-1.47004E-13-9.93234E-15
 -1       575 2.00017E+01-5.09148E-03 4.21126E-06-1.28069E-03 2.16523E-13-6.49336E-13
 -1       576 2.00018E+01-5.20678E-03 4.49849E-06 1.70156E-06 1.08186E-13-1.53528E-13
 -1       577 2.00017E+01-5.09526E-03 4.33984E-06 1.28509E-03-7.34153E-14-3.70203E-13
 -1       578 2.00015E+01-4.76825E-03 3.60662E-06 2.44333E-03 7.02232E-14-1.74437E-13
 -1       579 2.00010E+01-4.22566E-03 2.34321E-06 3.40225E-03 1.63967E-13 1.88422E-14
 -1       580 2.00004E+01-3.49699E-03 1.26636E-06 4.02059E-03 9.61997E-14 3.99316E-13
 -1       581 1.99995E+01-2.61968E-03-1.47485E-06 4.17378E-03-2.76222E-13-1.21344E-13
 -1       582 1.88410E+01-5.24160E+00 7.45338E-02 6.28810E+00-3.19640E-13 1.34087E-13
 -1       583 5.21229E+00-1.48980E+00 1.67063E-01-2.23777E+00-4.72261E-14 9.11715E-13
 -1       584 2.15976E+01 1.44835E-01 1.44124E-03-6.06751E-01 1.47678E-13 2.21907E-13
 -1       585 4.95509E+00-1.64325E+00 1.72184E-01 2.37217E+00-1.61239E-13 1.10655E-12
 -1       586 1.11034E+01-3.66995E+00 1.50361E-01-6.30124E+00 2.03816E-13 6.07715E-13
 -1       587 2.11675E+01 1.91412E+00-6.14703E-03-5.65635E-01-2.40090E-13-1.33757E-13
 -1       588 2.42183E+01-5.27454E+00 1.17753E-02 4.33632E+00-1.41019E-13-1.12889E-13
 -1       589 1.38862E+01-4.03972E+00 1.28873E-01-6.87479E+00-2.88054E-13-3.83631E-13
 -1       590 1.80410E+01 3.97183E+00-2.75956E-03-1.20608E-01 3.69943E-14-3.35713E-13
 -1       591 2.99509E+01 7.10899E+00-1.68239E-01 6.69276E-01 6.67452E-13 2.39694E-13
 -1       592 2.30440E+01-5.73920E+00 4.20982E-02 5.15834E+00 8.45712E-14 4.98317E-14
 -1       593 3.01552E+01 6.52414E+00-1.58618E-01-1.33175E+00 8.63448E-13-3.88405E-14
 -1       594 3.01600E+01 4.66018E+00-1.69725E-01 1.65402E+00 6.00700E-13 4.09811E-13
 -1       595 2.57649E+01-4.95473E+00-2.02375E-02-3.36711E+00-2.26708E-13 1.41026E-13
 -1       596 2.15552E+01-5.44452E+00 7.99461E-02-5.66428E+00-3.27918E-13-9.32696E-14
 -1       597 7.65531E+00-1.85602E+00 1.79076E-01-4.51475E+00-1.83367E-13-6.88449E-13
 -1       598 8.06135E+00-2.70641E+00 1.53139E-01 5.25249E+00 2.07542E-13-7.49581E-13
 -1       599 1.56831E+01-4.76860E+00 1.24466E-01 6.83526E+00 2.27436E-13-2.27183E-13
 -1       600 2.77489E+01-4.35373E+00-3.34182E-02 2.38193E+00-9.60204E-14 2.11969E-13
 -1       601 3.02659E+01-9.67148E-01-9.87602E-02-8.88126E-01-2.58620E-13 2.03074E-13
 -1       602 3.05242E+01 7.18593E+00-1.68450E-01 2.12380E-01-7.83970E-13-2.14923E-13
 -1       603 3.18247E+01 5.65487E+00-1.26453E-01 1.68063E+00-8.22412E-13-2.79020E-13
 -1       604 3.13549E+01 1.89831E+00-8.77301E-02 1.82180E+00-6.84917E-13-2.41446E-13
 -1       605 2.94574E+01-2.86718E+00-5.13920E-02-2.13725E-01-4.34858E-13-5.24580E-13
 -1       606 2.44886E+01-5.61192E+00 7.12889E-03-4.20775E+00-3.43406E-14 3.05277E-14
 -1       607 1.75839E+01-5.33563E+00 7.82214E-02-6.45935E+00 2.61055E-13 3.29081E-13
 -1       608 9.99358E+00-2.92515E+00 1.64543E-01 5.97740E+00-5.52024E-13 8.57113E-13
 -1       609 2.16951E+01 1.29626E+00-1.57268E-03 8.39926E-01 3.08016E-13 3.43789E-13
 -1       610 1.96497E+01 3.08389E+00-7.14182E-03-3.15197E-01-1.14655E-13-3.13409E-13
 -1       611 2.68126E+01-4.30379E+00-1.81092E-02 1.73294E+00-3.84120E-14-3.64150E-13
 -1       612 2.89862E+01-1.92162E-02-1.05992E-01-1.50840E+00 5.33972E-13-4.84578E-13
 -1       613 1.57317E+01-3.70098E+00 9.05967E-02 6.17214E+00-6.45036E-13 3.50719E-13
 -1       614 1.99985E+01-1.71688E-03-5.73715E-06 4.03388E-03-3.38618E-13-1.56796E-13
 -1       615 2.88454E+01 1.47990E+00-1.15095E-01 1.96416E+00 2.29192E-13 5.48860E-13
 -1       616 2.83997E+01 5.62914E+00-1.63655E-01-1.22153E+00-6.33334E-13-5.42344E-14
 -1       617 2.76063E+01-3.58662E+00-4.32451E-02-7.74729E-01-2.02216E-13 4.10800E-13
 -1       618 7.19279E+00-3.69640E-01 1.64373E-01-1.90319E+00-8.25347E-14-6.11886E-13
 -1       619 2.92160E+01 1.35370E+00-1.22712E-01-2.27442E+00-3.85122E-13 1.91173E-13
 -1       620 1.84179E+01 3.16909E+00-9.96247E-04-3.05266E-01 1.30560E-13-1.87066E-13
 -1       621 1.80309E+01 3.40991E+00-8.43356E-04-2.47734E-01 8.17739E-14-2.44754E-13
 -1       622 1.97092E+01 2.36109E+00-1.26389E-03-1.43915E-01 2.28691E-13-1.00947E-13
 -1       623 2.04554E+01 1.83134E+00-1.72852E-03 1.10371E-02 2.47055E-13-7.24763E-15
 -1       624 2.10968E+01 1.08654E+00 2.60015E-03-1.03614E-01 2.31846E-13 9.33200E-14
 -1       625 9.41874E+00-8.47978E-01 1.51795E-01 3.75402E+00-4.18179E-13 6.33389E-13
 -1       626 2.11719E+01 5.71774E-01 9.17339E-04-5.73384E-01 1.93925E-13 9.82058E-14
 -1       627 2.06515E+01 9.77082E-01 8.41132E-04 1.08120E+00-8.62523E-14-9.87147E-14
 -1       628 2.07459E+01 4.92710E-01 2.26884E-04 1.53860E+00-8.69885E-14-9.04475E-14
 -1       629 2.10131E+01-1.05443E-01 1.86804E-06 1.85727E+00-3.19887E-14-4.83694E-14
 -1       630 2.15747E+01-9.09177E-01 4.84202E-04 1.98775E+00 9.99916E-15-6.10828E-14
 -1       631 2.25762E+01-1.92053E+00 1.22403E-03 1.80678E+00 9.51305E-14-1.21674E-14
 -1       632 2.40945E+01-2.88983E+00-2.34412E-03 1.10076E+00 1.54806E-13 7.89503E-14
 -1       633 2.59645E+01-3.13681E+00-2.09234E-02-3.05619E-01 1.14277E-13 1.29224E-13
 -1       634 2.72114E+01 4.47908E+00-2.01516E-01 2.08847E+00-6.65148E-13-4.10453E-13
 -1       635 2.76094E+01 6.73429E-01-1.20330E-01 2.87383E+00-4.30489E-13-5.60703E-13
 -1       636 2.67853E+01-2.32994E+00-3.64190E-02 1.59570E+00-1.68936E-13-5.28850E-13
 -1       637 2.51032E+01-3.14512E+00-1.09248E-02-9.90780E-02 9.16047E-14-4.89670E-13
 -1       638 2.33984E+01-2.49347E+00-3.58267E-03-1.23135E+00 2.30640E-13-2.86480E-13
 -1       639 2.21091E+01-1.52998E+00-2.46093E-03-1.75270E+00 2.32348E-13-1.33715E-13
 -1       640 2.12808E+01-6.94271E-01-1.09762E-03-1.88426E+00 9.70202E-14-1.31163E-13
 -1       641 2.07995E+01-1.20966E-01-2.76930E-04-1.81155E+00 2.12664E-13-1.54632E-13
 -1       642 2.05338E+01 2.16582E-01 2.26220E-05-1.64235E+00 1.75631E-13-3.21459E-13
 -1       643 2.03890E+01 3.82951E-01 1.97932E-04-1.43358E+00 5.45181E-14-3.54066E-13
 -1       644 2.03060E+01 4.39564E-01 2.60450E-04-1.21680E+00-7.72550E-14-2.83234E-13
 -1       645 2.02522E+01 4.32661E-01 2.64352E-04-1.00945E+00-3.48671E-15-4.38794E-13
 -1       646 2.02118E+01 3.93095E-01 2.38721E-04-8.20863E-01-4.79531E-14-3.92396E-13
 -1       647 2.01776E+01 3.39882E-01 2.03400E-04-6.55431E-01 7.67078E-15-3.38129E-13
 -1       648 2.01472E+01 2.83975E-01 1.67130E-04-5.14358E-01 7.44854E-14-3.44367E-13
 -1       649 2.01201E+01 2.31206E-01 1.33769E-04-3.96850E-01 1.04629E-13-4.62118E-13
 -1       650 2.00961E+01 1.84311E-01 1.04827E-04-3.00949E-01-2.75672E-13-3.74494E-13
 -1       651 2.00754E+01 1.44235E-01 8.06391E-05-2.24110E-01-1.71705E-13-2.88774E-13
 -1       652 2.00580E+01 1.10939E-01 6.09554E-05-1.63599E-01 1.53627E-14-1.40421E-13
 -1       653 2.00438E+01 8.38846E-02 4.52701E-05-1.16740E-01-1.33714E-13-9.86692E-14
 -1       654 2.00323E+01 6.23164E-02 3.29940E-05-8.10586E-02-1.72704E-13-3.11590E-14
 -1       655 2.00233E+01 4.54175E-02 2.35458E-05-5.43606E-02-7.17842E-15 2.19971E-14
 -1       656 2.00163E+01 3.23971E-02 1.63941E-05-3.47557E-02 9.39357E-14-1.83009E-13
 -1       657 2.00111E+01 2.25333E-02 1.10740E-05-2.06570E-02 1.46662E-13-1.53008E-13
 -1       658 2.00072E+01 1.51917E-02 7.19047E-06-1.07604E-02 1.05553E-13-3.87591E-13
 -1       659 2.00044E+01 9.82866E-03 4.41411E-06-4.01526E-03 1.05784E-13-6.57777E-13
 -1       660 2.00025E+01 5.98709E-03 2.46865E-06 4.07922E-04 2.19079E-14-1.09276E-12
 -1       661 2.00011E+01 3.28729E-03 1.12696E-06 3.15060E-03 7.86722E-14-5.37695E-13
 -1       662 2.00003E+01 1.41576E-03 1.71272E-07 4.69638E-03 1.45781E-13 3.15998E-14
 -1       663 1.99998E+01 1.13228E-04-4.50102E-07 5.39845E-03 1.91276E-13-1.38640E-13
 -1       664 1.99995E+01-8.34162E-04-9.26012E-07 5.50230E-03-1.31151E-14-1.98552E-13
 -1       665 1.99994E+01-1.60626E-03-1.67346E-06 5.16021E-03 7.30979E-15-4.48137E-13
 -1       666 2.20856E+01-8.43712E-01-1.21895E-03-7.37259E-01 3.69399E-14 1.50064E-13
 -1       667 2.66494E+01-4.49861E+00-1.15010E-02-1.27687E+00-3.05945E-14-4.96750E-13
 -1       668 1.60171E+01-3.58539E+00 9.80560E-02-5.80921E+00 3.51864E-13 3.98476E-13
 -1       669 2.16403E+01-3.52992E-01-6.34527E-04-9.11001E-01 1.00105E-13 1.21669E-13
 -1       670 2.32649E+01-1.49351E+00-4.46617E-05 4.24344E-01-5.20893E-14 2.95307E-13
 -1       671 2.37150E+01-1.18902E+00-2.03054E-03 1.27340E+00 2.24771E-14 2.23378E-13
 -1       672 2.37877E+01-1.52635E-01-6.78069E-03 1.89320E+00 1.23738E-13 2.03871E-13
 -1       673 2.34630E+01 1.38736E+00-1.25400E-02 1.76632E+00 1.56290E-13 1.75017E-13
 -1       674 2.30453E+01 2.58208E+00-1.81751E-02 6.64978E-01 2.19047E-13 1.60009E-13
 -1       675 2.30726E+01 2.56444E+00-1.64463E-02-8.85587E-01 2.27022E-13 5.09245E-14
 -1       676 2.34924E+01 1.35340E+00-1.80584E-02-1.97785E+00 2.92112E-13-4.18781E-14
 -1       677 2.38076E+01-1.71226E-01-8.30592E-03-2.07783E+00 2.12844E-13-1.18040E-13
 -1       678 2.37318E+01-1.19736E+00-3.11394E-03-1.44680E+00-3.88447E-15-3.29062E-14
 -1       679 2.32748E+01-1.50999E+00 1.59277E-04-5.84349E-01 5.12359E-14 9.92434E-14
 -1       680 2.26531E+01-1.33195E+00-5.71676E-04 1.59068E-01-2.25053E-14 6.32135E-14
 -1       681 2.20484E+01-9.43685E-01-1.27696E-03 6.63931E-01-1.22565E-13 8.07634E-14
 -1       682 2.15482E+01-5.43713E-01-8.99604E-04 9.41850E-01 2.20978E-14 2.27462E-13
 -1       683 2.11663E+01-2.21873E-01-4.94154E-04 1.04806E+00 7.02585E-14 1.59134E-13
 -1       684 2.08849E+01 5.63259E-04-1.75892E-04 1.03953E+00 3.06149E-15 2.02541E-13
 -1       685 2.06785E+01 1.34881E-01 2.93846E-05 9.62183E-01-2.04341E-13 2.37973E-13
 -1       686 2.05251E+01 2.02815E-01 1.39447E-04 8.49184E-01-1.32264E-13 1.12787E-13
 -1       687 2.04084E+01 2.25795E-01 1.87524E-04 7.22965E-01-2.10869E-13 3.47981E-14
 -1       688 2.03177E+01 2.21035E-01 1.97896E-04 5.97789E-01 6.15727E-14-1.78379E-14
 -1       689 2.02461E+01 2.00959E-01 1.87035E-04 4.82026E-01 6.37382E-14 4.29548E-14
 -1       690 2.01892E+01 1.73896E-01 1.65188E-04 3.79949E-01 4.33684E-14-8.44098E-14
 -1       691 2.01437E+01 1.45073E-01 1.39269E-04 2.93100E-01 1.15290E-13-1.49094E-13
 -1       692 2.01077E+01 1.17535E-01 1.13362E-04 2.21306E-01 1.70466E-14-4.13533E-14
 -1       693 2.00794E+01 9.28638E-02 8.96545E-05 1.63401E-01-3.12814E-14 8.11932E-14
 -1       694 2.00574E+01 7.17150E-02 6.91257E-05 1.17722E-01-4.92372E-14 2.59393E-14
 -1       695 2.00405E+01 5.41792E-02 5.20359E-05 8.24301E-02 1.48376E-13 1.44732E-13
 -1       696 2.00277E+01 4.00300E-02 3.82409E-05 5.57172E-02 3.89382E-13-9.91790E-15
 -1       697 2.00183E+01 2.88821E-02 2.73930E-05 3.59185E-02 2.74240E-13-1.21678E-13
 -1       698 2.00115E+01 2.02905E-02 1.90628E-05 2.15714E-02 1.63424E-13 2.60935E-13
 -1       699 2.00066E+01 1.38095E-02 1.28100E-05 1.14346E-02-6.74210E-14 2.87257E-13
 -1       700 2.00033E+01 9.02495E-03 8.22146E-06 4.48486E-03-1.79132E-13 2.63465E-13
 -1       701 2.00011E+01 5.56941E-03 4.92753E-06-1.00418E-04-1.27902E-13 1.26427E-13
 -1       702 1.99998E+01 3.12627E-03 2.61309E-06-2.96564E-03 1.82029E-13-3.68339E-14
 -1       703 1.99990E+01 1.42734E-03 1.03849E-06-4.60148E-03 1.58263E-13-4.48401E-13
 -1       704 1.99987E+01 2.47776E-04-1.01650E-07-5.36877E-03-2.66821E-13-5.36453E-13
 -1       705 1.99986E+01-6.00658E-04-8.21646E-07-5.52172E-03-2.40792E-13-1.53769E-13
 -1       706 1.99987E+01-1.28257E-03-6.57510E-07-5.22771E-03 9.12484E-15 3.89646E-13
 -1       707 1.99992E+01-1.91473E-03-1.84506E-06-4.79749E-03-1.15281E-13 5.77744E-13
 -1       708 2.00030E+01-3.51752E-03 1.47649E-06-7.22962E-04 1.29870E-13-5.09919E-13
 -1       709 1.99994E+01-2.11125E-03-3.00271E-06 4.73925E-03-1.31629E-13-1.22124E-13
 -1       710 2.00022E+01-3.16185E-03 4.45502E-07-3.33744E-03-6.76671E-14-3.83373E-13
 -1       711 2.00030E+01-3.52201E-03 1.46190E-06 7.21185E-04-2.78156E-15-4.29215E-13
 -1       712 2.00027E+01-3.40128E-03 9.50480E-07-2.11317E-03 3.34082E-15-2.98524E-13
 -1       713 2.13414E+01 1.15411E-01-8.58022E-06-8.46252E-01 1.34020E-13 1.05541E-13
 -1       714 2.00028E+01-3.41604E-03 1.52670E-06 2.09200E-03 2.16053E-13-1.29579E-13
 -1       715 2.00022E+01-3.18533E-03 1.45131E-06 3.32797E-03 3.19456E-13-3.02383E-14
 -1       716 2.00013E+01-2.81769E-03-9.73575E-07 4.27273E-03 1.31425E-13 1.49973E-13
 -1       717 2.00004E+01-2.52219E-03 5.00185E-07 4.66685E-03 7.48350E-14 1.73228E-13
 -1       718 2.05326E+01 2.01395E+00-4.05347E-04-2.80499E-02-1.57851E-13-1.88726E-13
 -1       719 1.05936E+01-1.08574E+00 1.32695E-01-4.18978E+00 9.29604E-14 3.86163E-13
 -1       720 2.22118E+01-5.02346E+00 4.90681E-02-4.31584E+00 3.01471E-13-2.80123E-14
 -1       721 2.26599E+01-1.28831E+00-9.27599E-04-2.88723E-01-8.74092E-15 2.22571E-13
 -1       722 2.05958E+01 1.43776E+00 1.83429E-04 5.69077E-01-1.43004E-13-1.20164E-13
 -1       723 1.90016E+01 2.81051E+00-1.42429E-03-2.66252E-01 1.97930E-13-1.31565E-13
 -1       724 2.07884E+01-4.86144E+00 4.41958E-02 5.15820E+00 2.47670E-13 9.93788E-14
 -1       725 2.25647E+01-4.97046E+00 4.29740E-02 4.27107E+00-3.33452E-13-1.19588E-13
 -1       726 7.96521E+00-5.66493E-01 1.62249E-01 2.75040E+00 1.21868E-13-7.04520E-13
 -1       727 1.85977E+01 3.12948E+00-1.01981E-03 1.37694E-01-3.03951E-14-2.99832E-13
 -1       728 2.78221E+01 3.80096E+00-1.60908E-01-2.18154E+00 6.17506E-13-2.69090E-13
 -1       729 1.37746E+01-2.22243E+00 1.31206E-01 5.48353E+00 3.50470E-13-3.19744E-13
 -1       730 2.73407E+01 4.89601E+00-1.64917E-01 1.51597E+00 5.03916E-13 2.98372E-13
 -1       731 2.42455E+01-4.94295E+00 1.68821E-02-3.42446E+00-3.05521E-13 1.87097E-13
 -1       732 2.65764E+01 5.93144E+00-1.31067E-01-4.67781E-01 6.16431E-13 5.31957E-14
 -1       733 2.57511E+01-5.03900E+00 3.13177E-03 2.65963E+00 1.43162E-13 2.49935E-13
 -1       734 2.82006E+01-3.07668E+00-4.29980E-02-2.24440E-01-1.01299E-14 2.25944E-13
 -1       735 1.29766E+01-1.70508E+00 1.11737E-01-5.18374E+00-2.83322E-13-3.90896E-13
 -1       736 7.52362E+00-4.91512E-02 1.53894E-01 2.26360E-01-1.36272E-13 1.06438E-12
 -1       737 1.88129E+01-3.96229E+00 6.75318E-02-5.57344E+00-3.11296E-13-1.03296E-13
 -1       738 1.93147E+01 2.70265E+00-8.75060E-04 1.72187E-01-6.71544E-14-2.97096E-13
 -1       739 1.79180E+01 3.49411E+00-8.49947E-04-1.17991E-01 3.60647E-14-2.81498E-13
 -1       740 2.73839E+01-2.69365E+00-5.32374E-02-4.06670E-01 1.20870E-13-4.45404E-13
 -1       741 2.72008E+01 1.37516E+00-9.25948E-02-2.36928E+00 4.02896E-13-3.15723E-13
 -1       742 1.81904E+01-3.07753E+00 5.11732E-02 5.02301E+00 3.16519E-13-6.00110E-14
 -1       743 2.74630E+01 2.13385E+00-1.08290E-01-2.56368E+00-3.65350E-13 1.47406E-13
 -1       744 2.73163E+01-1.38759E+00-7.22161E-02-2.02129E+00-9.99947E-14 2.63614E-13
 -1       745 2.00013E+01-2.79228E-03 1.07578E-06-4.26625E-03-3.58244E-13-1.19549E-13
 -1       746 2.00003E+01-2.41592E-03-9.15104E-08-4.71670E-03-3.17049E-13 1.82722E-13
 -1       747 2.68116E+01 2.70291E+00-1.09752E-01 2.12713E+00 3.25070E-13 5.46686E-13
 -1       748 2.75173E+01-1.53662E+00-4.97416E-02 1.26934E+00-5.20729E-14 4.80293E-13
 -1       749 1.81118E+01 3.40030E+00-1.02455E-03 2.89711E-02 9.13918E-15-2.90199E-13
 -1       750 1.34759E+01-1.72386E+00 7.87481E-02 4.95609E+00-5.88626E-13 5.76154E-13
 -1       751 1.13795E+01-2.52172E-01 9.93710E-02-3.57325E+00-1.93319E-13-4.92485E-13
 -1       752 1.05586E+01 3.67357E-01 8.93424E-02 1.73658E+00-2.50218E-13 7.13027E-13
 -1       753 2.02061E+01 1.47459E+00-2.89660E-04-5.14400E-01 1.91052E-13-4.43408E-14
 -1       754 1.97481E+01 1.17514E+00 6.01675E-05 1.35075E+00-7.25489E-14-1.52775E-13
 -1       755 1.97465E+01 5.74029E-01 2.28403E-04 1.86990E+00-1.74369E-14-1.18407E-13
 -1       756 1.99334E+01-2.17333E-01 1.60829E-03 2.35893E+00-1.25405E-16-5.60625E-14
 -1       757 2.05036E+01-1.31706E+00 7.67707E-03 2.78955E+00 1.01661E-13 2.85700E-14
 -1       758 2.17737E+01-2.77410E+00 6.81722E-03 2.99623E+00 2.02577E-13 9.74654E-14
 -1       759 2.29301E+01-3.66266E+00 2.71023E-02-2.56313E+00 3.53064E-13-2.82206E-13
 -1       760 2.11318E+01-2.22316E+00 3.94530E-03-2.73413E+00 3.09888E-13-8.55576E-14
 -1       761 2.01464E+01-1.00630E+00 1.36608E-03-2.52505E+00 1.09432E-13-1.19770E-13
 -1       762 1.97165E+01-2.00673E-01 8.39900E-04-2.19918E+00 1.38349E-13-1.04718E-13
 -1       763 1.95748E+01 2.81490E-01 4.69285E-05-1.87793E+00 1.11691E-13-1.46600E-14
 -1       764 1.95815E+01 5.28134E-01 6.59600E-05-1.58617E+00-1.51618E-14-1.10800E-13
 -1       765 1.96484E+01 6.22431E-01 8.92667E-05-1.32769E+00-7.89716E-14-1.64729E-13
 -1       766 1.97307E+01 6.25714E-01 9.48050E-05-1.09962E+00-1.82731E-13-9.81470E-14
 -1       767 1.98072E+01 5.79401E-01 7.86737E-05-8.99542E-01-3.73105E-14-1.17041E-13
 -1       768 1.98703E+01 5.09852E-01 6.11561E-05-7.25842E-01 9.14356E-14-7.87138E-14
 -1       769 1.99185E+01 4.33025E-01 4.69083E-05-5.77183E-01 3.59265E-14-2.96986E-13
 -1       770 1.99533E+01 3.58033E-01 3.59317E-05-4.52006E-01-9.97807E-16-2.13202E-13
 -1       771 1.99773E+01 2.89631E-01 2.74166E-05-3.48363E-01-9.62380E-14-3.57641E-13
 -1       772 1.99930E+01 2.29895E-01 2.07508E-05-2.63986E-01-4.07200E-14-2.92776E-13
 -1       773 2.00026E+01 1.79324E-01 1.55278E-05-1.96430E-01-9.62820E-14-9.82397E-14
 -1       774 2.00081E+01 1.37538E-01 1.14562E-05-1.43229E-01 7.99392E-15-2.46845E-13
 -1       775 2.00107E+01 1.03705E-01 8.30989E-06-1.02023E-01-2.06731E-13-1.69518E-13
 -1       776 2.00115E+01 7.68050E-02 5.90607E-06-7.06454E-02-7.58242E-14-1.22835E-13
 -1       777 2.00112E+01 5.57789E-02 4.09445E-06-4.71730E-02 9.28943E-14 1.88602E-13
 -1       778 2.00102E+01 3.96183E-02 2.75095E-06-2.99480E-02-4.41804E-14 7.86468E-14
 -1       779 2.00089E+01 2.74081E-02 1.77307E-06-1.75753E-02-6.63203E-14-2.19301E-14
 -1       780 2.00075E+01 1.83459E-02 1.07571E-06-8.90641E-03-2.25296E-13-2.30304E-13
 -1       781 2.00061E+01 1.17446E-02 5.90430E-07-3.01568E-03-4.57312E-14-4.36729E-13
 -1       782 2.00048E+01 7.02606E-03 2.43601E-07 8.27935E-04 1.89346E-13-3.86783E-13
 -1       783 2.00037E+01 3.70960E-03-3.19380E-08 3.18880E-03 3.78588E-13-3.72771E-13
 -1       784 2.00027E+01 1.39806E-03-1.23252E-07 4.49072E-03 7.18572E-14-1.81424E-13
 -1       785 2.00018E+01-2.34675E-04-2.22242E-07 5.04684E-03 4.73297E-14-3.60297E-13
 -1       786 2.00011E+01-1.47118E-03-5.27293E-07 5.07052E-03-1.91646E-14 2.52872E-14
 -1       787 2.00042E+01-1.83536E-03-9.75372E-08 1.46212E-03 1.37037E-13-4.49280E-14
 -1       788 2.49777E+01-1.50433E+00-2.06702E-02 1.40755E+00 7.20526E-14 2.84001E-13
 -1       789 2.41433E+01-2.25549E+00-6.14577E-03 2.52565E-01 1.82714E-14 2.68128E-13
 -1       790 2.47492E+01 3.07755E+00-8.52774E-02 1.74365E+00 2.38136E-13 3.36946E-13
 -1       791 2.51953E+01 4.82960E-01-3.04889E-02-2.33141E+00 2.48120E-13-3.52017E-13
 -1       792 2.49052E+01-1.54534E+00-1.34226E-02-1.52819E+00 3.99930E-14-2.68126E-13
 -1       793 2.40233E+01-2.29152E+00-5.47486E-03-3.69186E-01-5.45330E-14-2.80960E-13
 -1       794 2.29419E+01-2.11719E+00-2.99321E-04 5.41165E-01-1.24359E-13-6.47139E-14
 -1       795 2.19669E+01-1.53401E+00-5.39732E-04 1.08125E+00-1.53477E-13 6.60906E-14
 -1       796 2.12359E+01-9.14713E-01-5.06471E-04 1.31235E+00-1.27605E-13 1.01782E-13
 -1       797 2.07453E+01-4.08222E-01-3.07057E-04 1.35102E+00-1.24987E-14 3.72791E-13
 -1       798 2.04391E+01-5.11090E-02-1.11495E-04 1.28141E+00-1.32346E-14 4.10842E-13
 -1       799 2.02583E+01 1.71618E-01 1.70059E-05 1.15647E+00-1.02328E-13 4.62046E-13
 -1       800 2.01563E+01 2.91308E-01 5.98408E-05 1.00796E+00-9.45173E-14 2.77327E-13
 -1       801 2.01006E+01 3.39471E-01 6.76625E-05 8.54778E-01-1.27800E-13 1.03482E-13
 -1       802 2.00709E+01 3.41885E-01 6.41008E-05 7.08150E-01-5.92670E-14 1.57552E-14
 -1       803 2.00548E+01 3.17629E-01 5.82348E-05 5.74472E-01 1.67746E-13-1.50603E-14
 -1       804 2.00454E+01 2.79919E-01 5.03320E-05 4.56937E-01 8.07238E-14 3.71399E-14
 -1       805 2.00391E+01 2.37380E-01 4.19321E-05 3.56567E-01 2.27944E-13 5.94434E-14
 -1       806 2.00341E+01 1.95290E-01 3.39245E-05 2.72962E-01-4.73860E-14-5.78359E-14
 -1       807 2.00297E+01 1.56608E-01 2.67627E-05 2.04844E-01-1.02483E-13 4.46364E-16
 -1       808 2.00255E+01 1.22753E-01 2.06307E-05 1.50464E-01-3.60113E-14 7.49947E-14
 -1       809 2.00216E+01 9.41741E-02 1.55515E-05 1.07885E-01-2.70567E-14-1.26261E-14
 -1       810 2.00179E+01 7.07329E-02 1.14577E-05 7.51752E-02 2.88840E-13-5.38048E-14
 -1       811 2.00147E+01 5.19734E-02 8.23657E-06 5.05279E-02 1.67114E-13 1.11325E-13
 -1       812 2.00118E+01 3.72905E-02 5.75875E-06 3.23289E-02-9.22241E-14 4.09891E-13
 -1       813 2.00093E+01 2.60379E-02 3.89406E-06 1.91853E-02-1.38616E-13 6.40495E-13
 -1       814 2.00071E+01 1.75916E-02 2.51873E-06 9.92981E-03-3.09605E-14 5.29313E-13
 -1       815 2.00054E+01 1.13830E-02 1.52049E-06 3.60814E-03 1.80429E-13-2.02990E-13
 -1       816 2.00039E+01 6.91383E-03 7.96588E-07-5.41527E-04 1.45260E-13-3.43954E-13
 -1       817 2.00028E+01 3.75685E-03 3.07015E-07-3.11283E-03 2.44719E-13-3.33943E-13
 -1       818 2.00019E+01 1.55119E-03 2.46567E-07-4.55415E-03-1.13219E-13 2.76436E-14
 -1       819 2.00011E+01-5.09292E-07-1.88075E-07-5.19028E-03-3.34980E-13-1.62882E-13
 -1       820 2.00006E+01-1.14909E-03 5.85741E-08-5.25237E-03-3.31411E-13-3.04875E-13
 -1       821 2.00004E+01-1.78164E-03-1.95071E-06-5.04894E-03-4.46813E-13-3.73488E-14
 -1       822 1.80857E+01 2.78190E+00-3.68703E-04-5.28507E-01 8.99629E-14-1.88034E-13
 -1       823 2.00036E+01-1.83453E-03 2.70650E-07 2.85780E-03 2.99886E-13 9.48125E-14
 -1       824 2.00044E+01-1.82415E-03 7.10032E-07-1.93945E-05 4.73938E-14-4.07910E-13
 -1       825 1.69626E+01-1.89285E+00 4.67457E-02-4.58174E+00-2.88675E-13-1.83858E-13
 -1       826 2.51566E+01 5.09989E-01-4.77935E-02 2.21764E+00 1.23544E-13 4.14975E-13
 -1       827 2.14174E+01-6.77812E-01 8.13030E-06-1.29293E+00 3.06843E-14 7.78477E-14
 -1       828 2.07291E+01 9.88193E-01-2.77690E-06-5.47794E-01 1.75965E-13 4.04185E-14
 -1       829 1.93484E+01-3.40342E+00 5.02999E-02 4.64123E+00-4.23856E-13 1.81197E-13
 -1       830 2.00027E+01-1.78659E-03-1.74670E-06 4.06658E-03 1.93635E-13-5.24139E-14
 -1       831 1.94638E+01-2.93516E+00 3.77966E-02-4.13116E+00 4.35797E-13-2.03934E-14
 -1       832 2.50038E+01 2.43520E+00-7.51449E-02-2.24450E+00 4.66224E-13-3.36481E-13
 -1       833 2.51462E+01-4.08268E+00-1.13262E-02 1.36479E+00-1.69785E-13-3.61480E-13
 -1       834 1.24092E+01-7.10766E-02 8.79473E-02 3.26189E+00 2.08838E-13-3.98636E-13
 -1       835 2.37688E+01-4.29783E+00 2.54261E-02 2.91125E+00 2.02630E-13 1.39237E-13
 -1       836 1.54716E+01-1.21669E+00 5.47372E-02-4.16668E+00 3.25486E-13 7.74849E-14
 -1       837 2.19783E+01-3.93181E+00 7.99324E-03-3.73747E+00-2.37535E-13 4.98768E-14
 -1       838 2.58502E+01-3.74078E+00-2.00729E-02-8.40687E-01-1.32610E-13 2.60137E-13
 -1       839 1.01144E+01 7.65500E-01 1.01640E-01 4.33799E-01 1.38936E-14-5.17052E-13
 -1       840 1.10094E+01 4.79895E-01 7.26491E-02-1.63073E+00 2.91429E-14 6.10303E-13
 -1       841 1.77492E+01 2.99778E+00-3.16720E-04-2.78260E-01 5.02293E-14-2.06623E-13
 -1       842 1.94339E+01 1.95772E+00-4.58190E-05-6.27693E-01 1.74378E-13-9.00548E-14
 -1       843 2.66555E+01-1.07518E+00-4.53767E-02-1.75583E+00 1.83803E-13-4.17680E-13
 -1       844 1.88467E+01 2.41303E+00-4.87747E-04 5.67913E-01-3.66762E-14-2.54271E-13
 -1       845 2.00027E+01-1.75115E-03-1.12647E-06-4.04781E-03-2.67615E-13 1.26232E-13
 -1       846 1.97607E+01 1.67971E+00-6.70617E-04 8.54147E-01-9.10904E-14-1.80881E-13
 -1       847 2.00042E+01-1.82025E-03 5.79109E-07-1.49738E-03-1.28853E-13-4.49163E-13
 -1       848 1.52293E+01-7.09388E-01 4.39644E-02-3.98704E+00-2.40476E-13-2.47557E-13
 -1       849 2.31241E+01-2.07739E+00-4.29792E-05-6.52875E-01-1.01748E-13 2.02485E-13
 -1       850 2.25683E+01-3.81135E+00 7.08087E-03 2.81817E+00-2.58042E-13-1.94387E-13
 -1       851 2.00036E+01-1.81100E-03-7.83299E-08-2.87650E-03-3.99624E-14-7.92136E-14
 -1       852 1.86801E+01 2.41933E+00 2.85763E-04-6.39614E-01 1.04821E-13-1.18670E-13
 -1       853 1.29644E+01-2.22631E-01 5.03633E-02 3.26826E+00-1.67631E-13 3.90752E-13
 -1       854 2.21087E+01-1.40337E+00-2.27098E-03-1.15470E+00-5.76410E-14 1.45887E-13
 -1       855 2.09729E+01-1.12178E-04-4.87367E-04-1.18464E+00 9.00019E-14 4.61664E-14
 -1       856 1.55234E+01-8.91137E-01 4.52930E-02 3.99769E+00 2.46940E-13-1.84327E-13
 -1       857 1.81566E+01 2.80346E+00-5.47929E-04 3.51919E-01-1.54898E-14-2.93126E-13
 -1       858 2.40159E+01-3.66275E+00 2.59297E-03-1.79016E+00-1.40855E-13 1.36421E-13
 -1       859 1.99204E+01-2.51007E+00 1.76572E-02-3.78789E+00-1.87842E-13-5.46069E-14
 -1       860 2.08059E+01 5.13792E-01-2.87825E-04-9.12969E-01 1.44458E-13 2.27806E-14
 -1       861 1.84038E+01 7.19880E-01 6.58036E-04 2.11516E+00 4.01597E-14-1.40536E-13
 -1       862 1.82555E+01-1.73929E-01 3.08268E-03 2.85016E+00 1.17601E-13-8.74927E-14
 -1       863 1.42188E+01 3.37813E-01 2.77120E-02-2.49853E+00 1.11242E-13 8.92090E-14
 -1       864 1.82656E+01-1.09337E+00 1.30501E-02-3.32128E+00 1.77798E-13 2.26674E-14
 -1       865 1.81734E+01-1.51075E-01-1.62662E-03-2.56625E+00 7.88406E-14-4.70281E-14
 -1       866 1.83464E+01 4.23804E-01-3.31824E-04-2.00529E+00 2.13624E-13-1.21408E-13
 -1       867 1.86071E+01 7.06763E-01-1.38005E-04-1.60917E+00 3.54376E-15-2.15861E-13
 -1       868 1.88756E+01 8.19149E-01-6.17720E-05-1.31093E+00-2.75682E-14-2.18495E-13
 -1       869 1.91215E+01 8.25778E-01 3.31976E-05-1.07447E+00 5.72355E-14-1.24002E-13
 -1       870 1.93310E+01 7.72348E-01 3.72036E-05-8.79648E-01-9.67222E-14 3.62659E-14
 -1       871 1.95020E+01 6.88424E-01 2.36729E-05-7.15146E-01-5.15277E-15 1.01623E-13
 -1       872 1.96373E+01 5.92774E-01 1.31408E-05-5.75235E-01-6.35987E-14 4.55574E-14
 -1       873 1.97418E+01 4.96937E-01 7.43266E-06-4.56709E-01-1.01714E-14 3.46888E-15
 -1       874 1.98208E+01 4.07497E-01 4.37518E-06-3.57337E-01 1.52236E-14-1.90506E-13
 -1       875 1.98794E+01 3.27782E-01 2.60661E-06-2.75173E-01-2.87519E-14 9.07996E-15
 -1       876 1.99219E+01 2.59053E-01 1.51453E-06-2.08288E-01 3.43899E-14-3.61093E-14
 -1       877 1.99523E+01 2.01314E-01 8.20598E-07-1.54724E-01-2.50479E-14 1.44710E-14
 -1       878 1.99734E+01 1.53845E-01 3.78509E-07-1.12536E-01-3.94407E-14-4.02403E-14
 -1       879 1.99876E+01 1.15558E-01 1.01095E-07-7.98683E-02 6.17454E-14 2.58545E-13
 -1       880 1.99969E+01 8.52190E-02-6.69068E-08-5.50123E-02 7.78806E-14 3.13027E-13
 -1       881 2.00025E+01 6.15829E-02-1.61521E-07-3.64449E-02 1.93234E-14 8.52656E-14
 -1       882 2.00057E+01 4.34793E-02-2.06734E-07-2.28484E-02-7.56332E-14-7.22878E-14
 -1       883 2.00072E+01 2.98519E-02-2.19747E-07-1.31112E-02-2.25747E-13-5.90325E-14
 -1       884 2.00075E+01 1.97775E-02-2.17439E-07-6.31763E-03-2.50871E-13 3.42568E-15
 -1       885 2.00071E+01 1.24672E-02-2.06389E-07-1.72915E-03-1.28569E-14 1.21112E-13
 -1       886 2.00063E+01 7.25739E-03-1.94499E-07 1.23692E-03 4.64865E-13 1.01375E-13
 -1       887 2.00052E+01 3.59541E-03 1.04686E-07 3.02766E-03 1.65705E-13-1.16061E-13
 -1       888 2.00041E+01 1.03222E-03 2.11269E-06 3.97445E-03 1.44734E-13-6.69216E-14
 -1       889 2.00034E+01-4.96798E-04 1.04440E-06 4.16420E-03 1.74873E-13-6.36205E-15
 -1       890 2.17318E+01-2.17744E+00 5.11527E-03 1.83206E+00-2.36065E-13-1.38626E-13
 -1       891 2.07540E+01-1.29271E+00 3.90186E-04 1.89001E+00-1.78827E-13 2.88334E-14
 -1       892 2.01707E+01-5.84232E-01-5.37707E-04 1.75575E+00-1.24539E-13 5.18195E-14
 -1       893 1.98645E+01-8.79773E-02-2.68047E-04 1.55265E+00 2.14782E-14 1.34567E-15
 -1       894 1.97316E+01 2.22426E-01 7.28305E-06 1.33678E+00-7.89759E-14 6.71185E-14
 -1       895 1.96976E+01 3.93431E-01 5.01844E-05 1.13012E+00-4.52958E-14 1.76279E-14
 -1       896 1.97158E+01 4.67261E-01 3.52577E-05 9.41223E-01-7.37380E-14 5.80836E-14
 -1       897 1.97574E+01 4.77813E-01 1.48680E-05 7.72728E-01 4.85613E-15 5.15371E-14
 -1       898 1.98059E+01 4.50138E-01 9.27887E-06 6.25229E-01 5.49166E-14 4.12517E-15
 -1       899 1.98525E+01 4.01980E-01 6.21009E-06 4.98366E-01 3.08376E-14 1.59033E-13
 -1       900 1.98931E+01 3.45286E-01 4.31246E-06 3.91112E-01 9.59496E-14 8.91904E-15
 -1       901 1.99263E+01 2.87652E-01 3.06258E-06 3.01979E-01 1.37036E-13 1.46483E-13
 -1       902 1.99521E+01 2.33572E-01 2.19542E-06 2.29161E-01-1.71164E-13 9.81362E-14
 -1       903 1.99714E+01 1.85407E-01 1.57348E-06 1.70675E-01-1.77952E-13-2.47417E-14
 -1       904 1.99853E+01 1.44109E-01 1.11999E-06 1.24490E-01-5.15083E-15 1.61041E-13
 -1       905 1.99948E+01 1.09746E-01 7.87703E-07 8.86370E-02 5.56785E-14 2.07350E-13
 -1       906 2.00009E+01 8.18647E-02 5.44981E-07 6.12887E-02 4.15518E-15 4.29854E-13
 -1       907 2.00046E+01 5.97450E-02 3.69588E-07 4.08072E-02-2.07029E-13 6.18222E-13
 -1       908 2.00065E+01 4.25591E-02 2.45412E-07 2.57685E-02-1.66378E-13 3.82414E-13
 -1       909 2.00072E+01 2.94741E-02 1.58185E-07 1.49670E-02 6.23663E-14-3.62159E-15
 -1       910 2.00071E+01 1.97106E-02 8.31096E-08 7.40559E-03 1.67001E-13 4.19046E-15
 -1       911 2.00065E+01 1.25721E-02-1.23852E-09 2.27772E-03 2.98706E-13 3.87903E-13
 -1       912 2.00056E+01 7.45545E-03-2.29399E-07-1.05547E-03 1.44586E-13 2.78884E-13
 -1       913 2.00046E+01 3.84253E-03-7.17129E-07-3.08917E-03-2.56595E-13 5.52711E-13
 -1       914 2.00036E+01 1.28904E-03-4.13319E-06-4.19385E-03-1.93498E-13 4.21456E-13
 -1       915 2.00026E+01-4.86112E-04 1.85577E-06-4.63885E-03-6.33356E-14 4.89397E-13
 -1       916 2.00052E+01 9.71179E-06 1.21972E-06 2.08098E-03 3.56290E-14 7.21642E-14
 -1       917 2.00016E+01-1.83120E-03 3.53260E-07-4.66999E-03-6.29960E-13 7.54002E-14
 -1       918 2.00056E+01 1.41506E-04-4.23897E-07 6.83582E-04-2.20152E-14-2.26970E-13
 -1       919 2.55412E+01-2.92320E+00-1.24587E-02-3.24281E-01-5.69767E-14-3.26981E-13
 -1       920 2.02573E+01 9.34759E-01-7.00030E-06-9.39857E-01 1.39821E-13-3.52143E-14
 -1       921 1.77696E+01 3.00814E+00-5.94192E-04 4.36156E-02 6.08261E-15-2.71912E-13
 -1       922 1.23467E+01 9.36376E-01 4.39746E-02-1.59027E+00-7.04922E-14-3.88047E-13
 -1       923 1.86592E+01 1.36878E+00 5.66107E-04 1.50694E+00-1.88840E-14-1.83473E-13
 -1       924 1.22523E+01 8.88899E-01 3.58403E-02 2.30651E-01-4.35439E-14 6.67324E-13
 -1       925 1.27016E+01 9.72152E-01 4.62500E-02 1.44167E+00 1.20725E-13-3.45505E-13
 -1       926 2.00044E+01-2.27806E-04 1.06207E-06 3.18240E-03-1.13167E-13 1.98180E-14
 -1       927 1.66069E+01-1.54274E+00 3.46433E-02 4.12565E+00-3.08137E-13 4.64907E-13
 -1       928 1.86105E+01-1.32359E+00 1.70582E-02 3.61572E+00 1.89646E-13-7.36894E-14
 -1       929 1.87665E+01 1.89400E+00-2.66643E-04 1.01850E+00-3.80380E-14-2.33367E-13
 -1       930 2.00056E+01 1.46798E-04-8.29807E-07-7.52077E-04 7.42241E-14-4.81957E-13
 -1       931 2.38233E+01-3.43122E+00-2.26660E-03 1.30537E+00-2.15208E-13-1.90309E-13
 -1       932 1.79226E+01 2.33459E+00-1.04199E-03 6.87357E-01-2.52800E-14-2.84288E-13
 -1       933 2.00043E+01-1.50090E-04-8.26049E-07-3.53485E-03-2.84980E-14 8.28175E-14
 -1       934 1.46545E+01 4.53981E-01 2.65012E-02 2.63360E+00 1.87264E-13-2.97062E-13
 -1       935 2.04200E+01-1.44073E-01-8.20119E-04-1.64762E+00 4.36229E-16 6.27297E-14
 -1       936 1.81135E+01-1.50919E+00 2.42205E-02-3.86368E+00-2.03383E-13-1.72905E-13
 -1       937 2.02277E+01-2.50751E+00 1.77542E-02 3.28493E+00-3.54775E-13-4.62534E-14
 -1       938 1.75799E+01 2.44969E+00-2.32479E-04-6.36052E-01 5.22278E-14-1.73050E-13
 -1       939 1.34215E+01 6.50397E-01 2.27833E-02 1.70792E+00-9.73789E-14 6.32141E-13
 -1       940 2.20087E+01-2.90408E+00 1.31387E-02-2.67694E+00-1.56611E-13 6.79387E-14
 -1       941 1.82004E+01 2.08252E+00 1.62125E-03-9.65064E-01 7.41041E-14-1.40349E-13
 -1       942 2.09882E+01-1.03405E+00 2.27706E-03-1.89814E+00-4.95279E-14 9.51419E-14
 -1       943 1.66409E+01 9.95774E-01 2.00230E-03 2.04802E+00 1.01274E-13-2.35626E-13
 -1       944 1.42653E+01 1.02258E+00 1.21280E-02-7.77052E-01 8.58116E-14 4.08726E-13
 -1       945 1.93485E+01 1.30495E+00 9.38918E-05-1.16115E+00 7.72271E-14-3.02069E-14
 -1       946 1.68197E+01 6.71745E-01 3.93104E-03-1.87118E+00 6.27243E-14 8.10604E-14
 -1       947 1.74783E+01 9.24628E-01-1.26612E-03-1.41883E+00 2.31570E-14-1.77113E-14
 -1       948 1.80224E+01 1.02195E+00-4.24434E-04-1.11957E+00-7.07703E-14-3.02038E-14
 -1       949 1.84655E+01 1.01718E+00-3.79409E-05-9.05762E-01 2.32571E-14-4.05222E-14
 -1       950 1.88215E+01 9.53915E-01 1.15206E-05-7.42360E-01-1.02020E-14-2.04790E-13
 -1       951 1.91057E+01 8.58116E-01-4.05894E-06-6.08928E-01-3.80674E-14-4.95378E-14
 -1       952 1.93307E+01 7.47632E-01-1.33531E-05-4.96364E-01 1.68667E-14 3.74027E-14
 -1       953 1.95066E+01 6.34784E-01-1.45969E-05-4.00293E-01-3.77012E-14 1.03868E-13
 -1       954 1.96425E+01 5.27299E-01-1.28509E-05-3.18432E-01-3.35024E-14 1.20601E-13
 -1       955 1.97462E+01 4.29594E-01-1.06099E-05-2.49405E-01 8.26032E-14-7.87148E-14
 -1       956 1.98242E+01 3.43798E-01-8.56990E-06-1.92062E-01 5.67272E-14-5.18588E-14
 -1       957 1.98819E+01 2.70500E-01-6.82293E-06-1.45223E-01 3.82135E-14-9.45083E-14
 -1       958 1.99240E+01 2.09305E-01-5.34993E-06-1.07632E-01-1.92594E-14-4.57173E-14
 -1       959 1.99539E+01 1.59238E-01-4.12529E-06-7.79995E-02 2.52373E-13 1.72368E-13
 -1       960 1.99748E+01 1.19027E-01-3.12495E-06-5.50590E-02-1.74333E-14 1.05024E-13
 -1       961 1.99888E+01 8.72918E-02-2.32343E-06-3.76261E-02 3.27627E-14 7.51432E-14
 -1       962 1.99979E+01 6.26726E-02-1.69311E-06-2.46338E-02-1.19758E-13-1.30759E-13
 -1       963 2.00034E+01 4.39004E-02-1.20584E-06-1.51521E-02-6.66147E-14-1.57642E-13
 -1       964 2.00063E+01 2.98375E-02-8.37123E-07-8.39366E-03-9.28236E-14-9.71861E-14
 -1       965 2.00076E+01 1.94929E-02-5.51027E-07-3.70924E-03 1.45733E-14-4.94895E-14
 -1       966 2.00077E+01 1.20232E-02-5.73531E-07-5.76014E-04 2.54969E-13 2.56639E-13
 -1       967 2.00070E+01 6.71361E-03-6.14945E-07 1.42238E-03 1.86879E-13 7.73007E-14
 -1       968 2.00060E+01 3.00295E-03-1.77335E-06 2.58770E-03 1.47864E-13 4.32418E-13
 -1       969 2.00053E+01 1.22817E-03-1.88958E-06 2.98085E-03 2.91020E-14 2.42444E-13
 -1       970 1.90705E+01-5.17150E-02-8.31673E-04 1.83445E+00-8.60014E-14 3.92542E-14
 -1       971 1.75804E+01 1.87517E+00 1.46635E-03 1.09062E+00 2.19392E-14-2.87503E-13
 -1       972 2.00052E+01-1.73173E-06-9.74765E-07-2.13910E-03 9.08532E-14-1.76546E-13
 -1       973 1.98261E+01-1.57978E+00-3.97151E-04 2.69207E+00-2.74491E-13-4.05571E-14
 -1       974 1.90557E+01 3.20438E-01-2.56912E-04 1.48740E+00-1.38544E-13 2.05129E-13
 -1       975 1.91361E+01 5.25296E-01 5.09271E-05 1.20166E+00-1.67159E-13 2.77728E-13
 -1       976 1.92565E+01 6.13964E-01 4.77546E-07 9.70024E-01-3.50764E-14 2.60318E-13
 -1       977 1.93868E+01 6.27316E-01-5.47992E-05 7.80306E-01 2.65738E-14 1.50788E-14
 -1       978 1.95113E+01 5.93831E-01-4.88206E-05 6.23754E-01 1.71222E-14 1.09094E-14
 -1       979 1.96219E+01 5.34277E-01-3.98754E-05 4.94348E-01-2.23756E-14 1.00474E-13
 -1       980 1.97156E+01 4.63005E-01-3.17980E-05 3.87609E-01 4.75929E-14 1.93360E-13
 -1       981 1.97921E+01 3.89447E-01-2.49357E-05 3.00130E-01-2.48881E-14 2.91043E-13
 -1       982 1.98527E+01 3.19438E-01-1.92619E-05 2.29120E-01-5.52536E-14 5.81771E-13
 -1       983 1.98994E+01 2.56248E-01-1.46395E-05 1.72151E-01 2.24995E-14 3.78726E-13
 -1       984 1.99344E+01 2.01375E-01-1.09228E-05 1.27046E-01-2.90918E-13 3.36807E-13
 -1       985 1.99600E+01 1.55157E-01-7.97692E-06 9.18404E-02-1.36314E-13 3.91292E-13
 -1       986 1.99781E+01 1.17211E-01-5.67986E-06 6.47766E-02-1.19883E-13 5.12577E-13
 -1       987 1.99905E+01 8.67502E-02-3.92103E-06 4.43076E-02-1.17668E-13 3.94788E-13
 -1       988 1.99985E+01 6.28004E-02-2.60018E-06 2.90968E-02-1.19747E-13 2.64279E-13
 -1       989 2.00035E+01 4.43404E-02-1.62758E-06 1.80113E-02 1.39470E-13 3.97774E-13
 -1       990 2.00061E+01 3.03877E-02-9.28828E-07 1.01100E-02 1.49709E-13 2.99821E-13
 -1       991 2.00072E+01 2.00470E-02-4.74860E-07 4.62635E-03 2.24139E-13 2.54485E-14
 -1       992 2.00073E+01 1.25331E-02-2.14482E-07 9.48046E-04 1.10468E-13 5.86256E-14
 -1       993 2.00067E+01 7.18254E-03 1.29137E-06-1.40069E-03-3.02295E-13 5.35731E-13
 -1       994 2.00057E+01 3.38763E-03 4.12388E-06-2.81688E-03-9.18159E-15 4.86264E-13
 -1       995 2.00067E+01 2.55300E-03-1.02244E-06 1.19109E-03-6.19410E-14-1.97809E-13
 -1       996 1.55908E+01-2.63186E-01 1.60093E-02 3.05854E+00-1.60656E-13 3.81395E-13
 -1       997 1.59624E+01 5.15117E-01 1.12938E-02-2.17055E+00 1.52428E-13-1.25838E-15
 -1       998 1.50805E+01 7.10227E-01 1.56241E-02-2.38844E+00-8.99238E-14-2.49013E-13
 -1       999 2.01772E+01 5.89088E-01-1.41106E-04-1.26382E+00 6.52169E-14 1.05283E-15
 -1      1000 1.73391E+01 2.61329E+00 3.38537E-04-1.39423E-01 2.82033E-14-1.88736E-13
 -1      1001 1.74879E+01 2.55286E+00-7.25723E-04 2.98357E-01-1.76851E-14-2.51018E-13
 -1      1002 1.92764E+01-6.58303E-01-1.10609E-03 2.23940E+00-1.63910E-13-4.35109E-14
 -1      1003 1.40129E+01 1.50202E+00 1.65436E-02-1.40452E-01 2.17172E-14-2.85058E-13
 -1      1004 1.71280E+01 1.47473E+00-2.60784E-04 1.50780E+00 6.30750E-14-2.67104E-13
 -1      1005 2.13518E+01-1.90085E+00-3.71947E-03-2.30550E+00-1.30116E-13 9.84346E-14
 -1      1006 1.66057E+01 7.98863E-02 4.54712E-03 2.95306E+00 1.61082E-13-1.50062E-13
 -1      1007 1.70175E+01 2.41420E-02 8.01516E-03-2.88470E+00-8.55437E-14-1.84232E-13
 -1      1008 1.74853E+01 1.80248E+00 9.12819E-05-1.21603E+00 2.48029E-14-1.32794E-13
 -1      1009 2.00068E+01 4.08457E-03-1.82666E-06-1.71680E-03 1.24755E-13 1.11198E-13
 -1      1010 1.68603E+01 2.16540E+00-9.32005E-04-5.82466E-01 3.85245E-14-1.62858E-13
 -1      1011 1.47829E+01 1.40992E+00 1.01528E-02 1.08322E+00 8.81842E-14-2.30778E-13
 -1      1012 1.95198E+01-2.25076E-01 3.65895E-03-2.21879E+00-6.32212E-14-2.54540E-14
 -1      1013 2.00068E+01 2.69505E-03-1.98806E-07-3.48807E-05 2.81107E-13-4.54165E-13
 -1      1014 1.93619E+01 6.10944E-01-2.43202E-03-1.68971E+00 8.22281E-15-5.38742E-14
 -1      1015 1.97807E+01-1.44501E+00 3.84426E-03-3.02525E+00-1.22641E-13-5.73070E-14
 -1      1016 1.83533E+01-1.07357E+00 5.23286E-03 3.01724E+00-2.54786E-13 1.09318E-13
 -1      1017 1.45240E+01 1.09035E+00 9.15663E-03 3.46322E-01-3.30550E-14 5.16190E-13
 -1      1018 1.63290E+01 1.13921E+00 1.00790E-02-8.90054E-01 1.69754E-14 2.17073E-13
 -1      1019 1.53910E+01 1.11798E+00 7.61677E-03-8.62169E-01 1.22233E-13 2.26968E-13
 -1      1020 1.55257E+01 1.55185E+00-3.87089E-03-1.09427E+00-1.81871E-14-2.02212E-13
 -1      1021 1.71798E+01 1.19716E+00-5.98611E-07-6.94253E-01-4.32261E-15 1.50299E-13
 -1      1022 1.78327E+01 1.16952E+00 2.04612E-04-5.60839E-01-6.21018E-14 1.60211E-13
 -1      1023 1.83348E+01 1.09779E+00 7.49804E-06-4.71126E-01-1.05209E-13 6.51384E-15
 -1      1024 1.87254E+01 9.97484E-01-1.41257E-04-3.97069E-01-5.27228E-14-9.47530E-14
 -1      1025 1.90336E+01 8.79356E-01-1.18431E-04-3.33303E-01-3.37087E-14-1.00171E-13
 -1      1026 1.92751E+01 7.56355E-01-1.05159E-04-2.76696E-01 1.06112E-13-1.38332E-13
 -1      1027 1.94635E+01 6.36576E-01-8.72844E-05-2.26103E-01 2.45646E-14-1.92870E-14
 -1      1028 1.96095E+01 5.25306E-01-7.12807E-05-1.81497E-01-3.69270E-14-2.37305E-14
 -1      1029 1.97212E+01 4.25630E-01-5.79188E-05-1.42967E-01 9.16323E-14 5.28274E-15
 -1      1030 1.98058E+01 3.38930E-01-4.67404E-05-1.10422E-01 1.11626E-13-1.04434E-14
 -1      1031 1.98687E+01 2.65366E-01-3.73309E-05-8.35426E-02 1.81787E-14-3.53355E-14
 -1      1032 1.99148E+01 2.04291E-01-2.94329E-05-6.18176E-02 1.97659E-13-1.11412E-13
 -1      1033 1.99479E+01 1.54572E-01-2.28707E-05-4.46236E-02 1.20205E-13-1.21960E-13
 -1      1034 1.99710E+01 1.14833E-01-1.74948E-05-3.12923E-02 3.74140E-14-7.70375E-14
 -1      1035 1.99866E+01 8.36274E-02-1.31595E-05-2.11665E-02-2.42741E-13-3.05817E-13
 -1      1036 1.99968E+01 5.95455E-02-9.71950E-06-1.36370E-02-7.77241E-14-5.15936E-13
 -1      1037 2.00030E+01 4.12861E-02-7.03382E-06-8.16398E-03 4.94933E-14-5.55411E-13
 -1      1038 2.00064E+01 2.76889E-02-5.02938E-06-4.28567E-03 1.45608E-14-1.38401E-13
 -1      1039 2.00078E+01 1.77449E-02-3.35182E-06-1.61920E-03 1.67898E-13-2.20532E-13
 -1      1040 2.00080E+01 1.06323E-02 3.75686E-07 1.27862E-04 3.67639E-13-3.83229E-13
 -1      1041 1.69685E+01 2.16247E+00-1.01067E-04 5.35353E-01 2.97336E-14-2.41272E-13
 -1      1042 2.00070E+01 3.51118E-03-5.33586E-06-9.31739E-04 3.40388E-13-3.95853E-13
 -1      1043 1.81856E+01 5.04268E-01-4.66983E-04 1.54358E+00-2.23039E-13 1.70059E-13
 -1      1044 1.89719E+01 7.88838E-01-2.68593E-04 7.14032E-01 1.64022E-14 1.94423E-13
 -1      1045 1.91865E+01 7.43698E-01-1.89242E-04 5.57786E-01 1.13839E-14 2.10408E-13
 -1      1046 1.93688E+01 6.70357E-01-1.48534E-04 4.35312E-01-6.84408E-14 2.34307E-13
 -1      1047 1.95201E+01 5.83836E-01-1.19240E-04 3.38109E-01-1.47034E-13 4.42314E-13
 -1      1048 1.96428E+01 4.94396E-01-9.68154E-05 2.60581E-01-9.52291E-14 4.31367E-13
 -1      1049 1.97403E+01 4.08686E-01-7.84370E-05 1.98782E-01-9.70767E-14 4.18364E-13
 -1      1050 1.98163E+01 3.30638E-01-6.29606E-05 1.49757E-01-2.55402E-14 4.30889E-13
 -1      1051 1.98742E+01 2.62213E-01-4.98772E-05 1.11167E-01-1.53123E-14 4.25818E-13
 -1      1052 1.99173E+01 2.04014E-01-3.89058E-05 8.10981E-02-1.81527E-13 2.06949E-13
 -1      1053 1.99488E+01 1.55756E-01-2.98333E-05 5.79453E-02-1.78218E-13 1.78558E-13
 -1      1054 1.99711E+01 1.16629E-01-2.24549E-05 4.03569E-02-1.74368E-13 1.07998E-13
 -1      1055 1.99863E+01 8.55511E-02-1.65596E-05 2.71956E-02-4.72860E-14 3.29487E-13
 -1      1056 1.99964E+01 6.13428E-02-1.19313E-05 1.75126E-02-1.39889E-13 2.12295E-13
 -1      1057 2.00026E+01 4.28431E-02-8.35328E-06 1.05252E-02 2.06052E-13 2.63930E-13
 -1      1058 2.00060E+01 2.89737E-02-5.71003E-06 5.59522E-03 2.96299E-13 3.15945E-13
 -1      1059 2.00075E+01 1.87693E-02-3.07462E-06 2.21407E-03 1.85930E-13 5.80124E-13
 -1      1060 2.00078E+01 1.14422E-02 7.31816E-08-3.57793E-06-2.24945E-13 4.37985E-13
 -1      1061 2.00075E+01 7.34450E-03-6.05542E-07-1.07280E-03-1.28691E-13 9.48300E-14
 -1      1062 1.69357E+01 8.17153E-02 6.73118E-03 2.35857E+00-1.54487E-13 2.56089E-13
 -1      1063 1.53687E+01 7.22295E-01 3.40532E-03 1.65180E+00-2.01804E-13 4.36783E-13
 -1      1064 1.84619E+01 7.01751E-01 1.83673E-04 1.18463E+00-1.75212E-13 1.86956E-13
 -1      1065 1.80549E+01-4.77648E-02-5.75625E-04 2.17883E+00-9.27988E-14 1.06423E-13
 -1      1066 1.87286E+01 7.83648E-01-8.77958E-05 9.16023E-01-1.28814E-13 1.01001E-13
 -1      1067 1.55213E+01 1.80301E+00 2.70941E-03-1.73644E-01 4.45305E-14-1.91989E-13
 -1      1068 2.00074E+01 5.55866E-03 7.84031E-07 1.22618E-03 4.35558E-13-1.73341E-13
 -1      1069 1.64452E+01 1.60212E+00 1.03598E-02-1.32922E+00 4.86265E-16-1.92257E-13
 -1      1070 1.60885E+01 1.76199E+00 1.74552E-03 8.35825E-01 8.67900E-14-2.26448E-13
 -1      1071 2.00077E+01 6.16845E-03 1.43378E-06 3.62228E-04 3.34648E-13-5.83698E-13
 -1      1072 1.67671E+01 2.24907E+00 9.58616E-04-3.06184E-02 3.36627E-14-1.56649E-13
 -1      1073 1.77439E+01 7.24054E-01 3.32586E-03-2.13662E+00-5.18635E-14-1.31632E-13
 -1      1074 1.73583E+01 1.22023E+00-4.83009E-04-2.30551E-02-1.06419E-14 2.03439E-13
 -1      1075 1.79462E+01 1.16986E+00 6.89626E-04-4.96354E-02-1.55279E-13 9.06870E-14
 -1      1076 1.84105E+01 1.08226E+00 6.15547E-05-7.10436E-02-1.60347E-13 3.62328E-14
 -1      1077 1.87820E+01 9.68638E-01-2.23767E-04-8.31127E-02 4.28804E-14 6.24130E-14
 -1      1078 1.90741E+01 8.46748E-01-1.78320E-04-8.39465E-02 3.16054E-14 1.94578E-13
 -1      1079 1.93043E+01 7.23577E-01-1.27220E-04-7.82842E-02 4.15426E-14 8.02710E-14
 -1      1080 1.94848E+01 6.05596E-01-8.70875E-05-6.90951E-02 3.56353E-14 3.38531E-14
 -1      1081 1.96250E+01 4.97180E-01-5.75326E-05-5.84472E-02 6.01765E-14 1.63679E-13
 -1      1082 1.97327E+01 4.00827E-01-3.62046E-05-4.77212E-02 1.69377E-13 1.47445E-13
 -1      1083 1.98143E+01 3.17553E-01-2.10855E-05-3.77637E-02 6.64690E-14 2.88833E-13
 -1      1084 1.98751E+01 2.47295E-01-1.06238E-05-2.90229E-02 3.69394E-14 3.17320E-13
 -1      1085 1.99196E+01 1.89275E-01-3.62420E-06-2.16691E-02 3.59544E-14 1.47496E-13
 -1      1086 1.99515E+01 1.42293E-01 8.41593E-07-1.56928E-02 4.57289E-14 1.00561E-13
 -1      1087 1.99737E+01 1.04947E-01 3.49105E-06-1.09793E-02-2.95754E-13 1.06526E-13
 -1      1088 1.99886E+01 7.57887E-02 4.86941E-06-7.36238E-03-1.88073E-13 1.22551E-13
 -1      1089 1.99982E+01 5.34247E-02 5.37571E-06-4.65962E-03-1.03403E-13 2.78464E-16
 -1      1090 2.00040E+01 3.65784E-02 5.28474E-06-2.69468E-03 3.76177E-14-2.30490E-13
 -1      1091 2.00070E+01 2.41189E-02 4.91991E-06-1.30939E-03 1.89495E-13-3.38729E-13
 -1      1092 2.00082E+01 1.50589E-02 7.16354E-06-3.75679E-04 2.53230E-13-9.39712E-14
 -1      1093 1.91071E+01 8.04514E-01 1.82829E-04 3.16566E-01-6.48506E-14 3.58241E-13
 -1      1094 1.88463E+01 8.94260E-01 1.27740E-04 4.18811E-01-2.30642E-14 2.79737E-13
 -1      1095 1.94890E+01 5.97292E-01 1.13801E-04 1.80980E-01-7.62872E-14 2.83014E-13
 -1      1096 1.96238E+01 4.96688E-01 8.45741E-05 1.36087E-01-2.08287E-14 1.67813E-13
 -1      1097 1.97291E+01 4.04615E-01 6.26889E-05 1.01581E-01 2.23113E-14 6.98297E-14
 -1      1098 1.98099E+01 3.23338E-01 4.64475E-05 7.50677E-02-7.53752E-15 5.79247E-14
 -1      1099 1.98709E+01 2.53667E-01 3.43089E-05 5.47645E-02-1.21823E-14-1.36498E-14
 -1      1100 1.99159E+01 1.95420E-01 2.51618E-05 3.93110E-02-2.51531E-13-1.94608E-14
 -1      1101 1.99485E+01 1.47789E-01 1.82383E-05 2.76478E-02-2.90261E-14-1.83272E-14
 -1      1102 1.99714E+01 1.09620E-01 1.29985E-05 1.89390E-02-2.08240E-13-2.03507E-13
 -1      1103 1.99869E+01 7.96143E-02 9.04982E-06 1.25202E-02-1.27501E-13-1.33056E-13
 -1      1104 1.99971E+01 5.64620E-02 6.10280E-06 7.86245E-03-7.61721E-14-1.06003E-14
 -1      1105 2.00032E+01 3.89279E-02 3.98850E-06 4.54572E-03 1.26144E-13 2.91173E-13
 -1      1106 2.00066E+01 2.59005E-02 3.11269E-06 2.23959E-03 9.58764E-14 4.04859E-13
 -1      1107 2.00080E+01 1.63487E-02-5.53442E-06 6.24242E-04 1.19345E-13 1.18892E-13
 -1      1108 1.70526E+01 7.03960E-01-1.26154E-03 1.53741E+00-1.82700E-13 3.70810E-13
 -1      1109 1.57861E+01 1.22394E+00 4.63616E-03 1.92033E-01-5.75286E-14 3.90547E-13
 -1      1110 2.00082E+01 1.00500E-02 9.03507E-06 7.48732E-05 5.01448E-13-3.99879E-13
 -1      1111 1.93189E+01 7.02174E-01 1.50231E-04 2.39573E-01-1.81137E-13 3.61587E-13
 -1      1112 1.76923E+01 9.20685E-01-8.87316E-04 1.00980E+00-2.09561E-13 1.75267E-13
 -1      1113 2.00079E+01 7.49004E-03-2.04537E-06-2.61548E-04 9.97490E-14-5.50483E-13
 -1      1114 1.85335E+01 9.58145E-01-7.85498E-05 5.58461E-01-1.39108E-13 1.83330E-13
 -1      1115 2.00081E+01 1.10263E-02 2.14995E-05-1.78736E-04 1.55444E-15-1.01615E-13
 -1      1116 1.81661E+01 9.68270E-01 1.09848E-03 7.42983E-01-1.73792E-13 1.06469E-13
 -1      1117 1.77749E+01 1.10509E+00-2.51511E-03 4.57687E-01-1.66129E-13 1.37494E-13
 -1      1118 2.00077E+01 6.76228E-03 7.09866E-06-6.35942E-04 3.28741E-14-1.17834E-13
 -1      1119 2.00081E+01 1.00924E-02-1.40684E-05-1.20405E-04 3.52591E-14-4.04352E-13
 -1      1120 1.68176E+01 1.11631E+00-3.69376E-03 6.21844E-01-5.88622E-14 3.15965E-13
 -1      1121 2.85054E+01 9.23765E+00 2.28663E+00-6.40844E+00-3.65818E-14 1.13320E-12
 -1      1122 2.14657E+01 6.52129E+00 2.71849E-01-3.33941E+00-1.91513E-14 1.43760E-13
 -1      1123 2.01464E+01 6.07731E+00 1.11248E-01-2.15001E+00-1.21847E-14-2.74667E-13
 -1      1124 1.93742E+01 5.83295E+00 6.90005E-02-1.43332E+00-8.64586E-15-4.80806E-13
 -1      1125 1.87784E+01 5.64682E+00 4.42776E-02-9.39113E-01-4.99600E-15-5.71339E-13
 -1      1126 1.83070E+01 5.49973E+00 2.54530E-02-5.98737E-01-2.25514E-15-6.11205E-13
 -1      1127 1.79619E+01 5.39225E+00 1.22010E-02-3.65373E-01-5.34295E-16-6.07625E-13
 -1      1128 1.77574E+01 5.32867E+00 4.81170E-03-1.96613E-01 1.64105E-15-5.85253E-13
 -1      1129 1.77077E+01 5.31353E+00 4.07641E-03-5.40666E-02 2.35575E-15-5.49801E-13
 -1      1130 1.78103E+01 5.34601E+00 9.67654E-03 1.02168E-01 4.98906E-15-5.07882E-13
 -1      1131 1.80510E+01 5.42149E+00 2.06073E-02 3.08491E-01 6.47399E-15-4.57021E-13
 -1      1132 1.84052E+01 5.53226E+00 3.56446E-02 5.93476E-01 8.56953E-15-3.72373E-13
 -1      1133 1.88544E+01 5.67220E+00 5.29372E-02 9.87161E-01 1.12618E-14-2.64403E-13
 -1      1134 1.94036E+01 5.84297E+00 7.29308E-02 1.52621E+00 1.35586E-14-7.46209E-14
 -1      1135 2.01147E+01 6.06565E+00 1.04115E-01 2.26663E+00 1.73472E-14 2.29141E-13
 -1      1136 2.13039E+01 6.45433E+00 2.10481E-01 3.38817E+00 1.50435E-14 7.72240E-13
 -1      1137 2.58417E+01 8.18175E+00 1.43065E+00 5.58248E+00 2.00395E-14 1.77250E-12
 -1      1138 2.92395E+01 3.48683E+00 1.11072E+00-4.03162E+00-1.48492E-13 1.76587E-12
 -1      1139 2.15821E+01-1.90383E-01-6.31727E-01-4.98306E-02-5.09107E-14 1.42450E-12
 -1      1140 2.09172E+01-1.01035E-01-2.32683E-01 7.95791E-02-1.80776E-14 9.37375E-13
 -1      1141 2.12372E+01-5.50337E-02-6.61395E-02 5.53266E-02-1.90143E-14 5.70669E-13
 -1      1142 2.18921E+01-3.15583E-02-2.55640E-02 4.56757E-02-6.82700E-15 3.34802E-13
 -1      1143 2.27575E+01-1.48704E-02-9.24017E-03 4.29558E-02-7.22165E-15 2.49079E-13
 -1      1144 2.37152E+01 3.53288E-03 1.24976E-02 4.07429E-02-1.67559E-14 9.26342E-14
 -1      1145 2.46009E+01 2.71658E-02 4.69409E-02 3.28521E-02 6.78711E-16-1.42039E-14
 -1      1146 2.51723E+01 5.52088E-02 9.18316E-02 1.18873E-02 1.37043E-16-5.74853E-14
 -1      1147 2.51206E+01 7.95328E-02 1.31648E-01-2.82674E-02-1.08464E-14-1.30809E-13
 -1      1148 2.41691E+01 8.23607E-02 1.34419E-01-8.48053E-02 1.67193E-14-1.90237E-13
 -1      1149 2.22906E+01 4.32068E-02 6.60796E-02-1.36312E-01 4.35069E-15-1.85560E-13
 -1      1150 1.99484E+01-3.88500E-02-7.14894E-02-1.44628E-01 2.67191E-15-3.81056E-13
 -1      1151 1.80901E+01-1.23742E-01-2.08840E-01-8.30611E-02 3.72966E-15-3.79932E-13
 -1      1152 1.76655E+01-1.47379E-01-2.46614E-01 2.69955E-02 8.36137E-16-3.79762E-13
 -1      1153 1.89385E+01-9.02690E-02-1.55077E-01 1.21951E-01-2.36269E-14-4.04246E-13
 -1      1154 2.12745E+01 1.00275E-03-5.57575E-03 1.52253E-01 1.93189E-15-4.47073E-13
 -1      1155 2.36405E+01 6.66495E-02 1.05816E-01 1.20585E-01-1.03051E-14-3.77406E-13
 -1      1156 2.52730E+01 8.56233E-02 1.39750E-01 6.36249E-02-1.71217E-14-5.59712E-13
 -1      1157 2.59456E+01 7.13189E-02 1.16003E-01 1.41322E-02-1.10667E-14-7.48086E-13
 -1      1158 2.58259E+01 4.50209E-02 7.14695E-02-1.54024E-02-1.30846E-14-8.98729E-13
 -1      1159 2.52189E+01 2.07668E-02 3.12294E-02-2.72072E-02-8.56585E-15-5.99527E-13
 -1      1160 2.43973E+01 3.62908E-03 4.12695E-03-2.81350E-02-5.54916E-15-4.78791E-13
 -1      1161 2.35454E+01-6.38921E-03-1.05765E-02-2.40957E-02-3.94524E-14-5.51219E-13
 -1      1162 2.27641E+01-1.11214E-02-1.66728E-02-1.86661E-02 3.53770E-14-3.66200E-13
 -1      1163 2.20965E+01-1.25151E-02-1.77803E-02-1.35554E-02 2.29561E-14-2.92179E-14
 -1      1164 2.15516E+01-1.20577E-02-1.64178E-02-9.37305E-03-1.74567E-14-1.25566E-13
 -1      1165 2.11211E+01-1.07196E-02-1.40768E-02-6.19647E-03 9.09255E-15-2.05435E-13
 -1      1166 2.07895E+01-9.07307E-03-1.15431E-02-3.89405E-03-1.96620E-14-2.36909E-13
 -1      1167 2.05396E+01-7.42601E-03-9.18443E-03-2.28164E-03 3.52603E-14-3.22525E-13
 -1      1168 2.03551E+01-5.92698E-03-7.14375E-03-1.18636E-03 4.49136E-15-5.94249E-14
 -1      1169 2.02217E+01-4.63417E-03-5.45164E-03-4.66449E-04 3.52878E-14-1.25857E-14
 -1      1170 2.01276E+01-3.55767E-03-4.08742E-03-1.28016E-05 3.88155E-15-4.33404E-13
 -1      1171 2.00629E+01-2.68383E-03-3.01031E-03 2.55777E-04 2.24769E-15-6.66221E-13
 -1      1172 2.00201E+01-1.98880E-03-2.17460E-03 3.98523E-04 3.32298E-14-5.63997E-13
 -1      1173 1.99932E+01-1.44575E-03-1.53662E-03 4.58059E-04-1.98949E-14-4.16280E-13
 -1      1174 1.99775E+01-1.02851E-03-1.05745E-03 4.64686E-04 7.41130E-14-6.73253E-13
 -1      1175 1.99697E+01-7.13292E-04-7.03804E-04 4.39659E-04-3.03132E-14-4.44648E-13
 -1      1176 1.99670E+01-4.79315E-04-4.47873E-04 3.97638E-04 6.56922E-14-4.72299E-13
 -1      1177 1.99678E+01-3.08923E-04-2.66832E-04 3.48509E-04 6.10438E-14-4.70761E-14
 -1      1178 1.99705E+01-1.87384E-04-1.42168E-04 2.98724E-04-4.53306E-14 1.34128E-13
 -1      1179 1.99744E+01-1.02542E-04-5.89599E-05 2.52286E-04-7.49055E-15-4.44663E-14
 -1      1180 1.99788E+01-4.44145E-05-5.13735E-06 2.11440E-04-1.20126E-15-6.16614E-14
 -1      1181 1.99833E+01-4.75234E-06 2.93194E-05 1.77110E-04-5.42143E-14 6.76162E-14
 -1      1182 1.99876E+01 2.33787E-05 5.33172E-05 1.49052E-04-9.64915E-14-6.24369E-13
 -1      1183 1.99916E+01 4.59324E-05 7.56926E-05 1.25562E-04 6.40610E-14-3.47704E-13
 -1      1184 1.99951E+01 6.78394E-05 1.05169E-04 1.02321E-04-4.66200E-14 2.11596E-15
 -1      1185 1.99978E+01 9.05291E-05 1.42487E-04 6.81145E-05 3.85470E-14-7.24057E-14
 -1      1186 1.99995E+01 1.18546E-04 1.47434E-04 9.57806E-08-1.11686E-14-3.15067E-13
 -1      1187 1.99999E+01-3.81809E-05-6.93319E-05-4.34164E-05 1.05196E-13 1.13136E-13
 -1      1188 2.82213E+01 5.18940E-01 2.54583E-01 1.92379E+00-3.35218E-14 2.56406E-12
 -1      1189 2.13583E+01-7.10298E-02-5.78556E-01 1.07699E-01 6.29358E-15 2.23795E-12
 -1      1190 2.07632E+01-4.35937E-02-1.88456E-01 9.01194E-03 9.02577E-15 1.87329E-12
 -1      1191 2.08987E+01-2.28911E-02-4.97840E-02-6.78242E-03 4.48426E-15 1.62465E-12
 -1      1192 2.13283E+01-9.89537E-03-1.16594E-02-1.43819E-02 1.79262E-15 1.43963E-12
 -1      1193 2.18815E+01 2.40366E-03 5.42497E-03-2.02394E-02 1.24368E-14 1.25579E-12
 -1      1194 2.24226E+01 1.59331E-02 2.37207E-02-2.53170E-02 1.65263E-14 1.13205E-12
 -1      1195 2.28067E+01 2.97082E-02 4.61445E-02-2.76030E-02-7.29278E-15 1.13776E-12
 -1      1196 2.28735E+01 3.97763E-02 6.75557E-02-2.33582E-02-9.15414E-15 1.06210E-12
 -1      1197 2.24763E+01 3.98085E-02 7.71511E-02-8.67638E-03 4.53977E-15 8.79078E-13
 -1      1198 2.15520E+01 2.41824E-02 6.19322E-02 1.72755E-02-4.99167E-15 8.87297E-13
 -1      1199 2.02106E+01-6.14176E-03 1.56012E-02 4.82203E-02-2.81773E-15 9.43370E-13
 -1      1200 1.87857E+01-3.96558E-02-5.04785E-02 7.01556E-02 1.93851E-14 8.18054E-13
 -1      1201 1.77599E+01-5.91248E-02-1.06605E-01 6.84254E-02-7.21471E-15 7.34607E-13
 -1      1202 1.75481E+01-5.43734E-02-1.22385E-01 3.93991E-02-3.08607E-15 5.51214E-13
 -1      1203 1.82610E+01-3.05354E-02-8.99352E-02-4.26257E-03 2.13718E-14 3.32498E-13
 -1      1204 1.96375E+01-2.63341E-03-3.05427E-02-4.22545E-02-9.69819E-15 3.05006E-13
 -1      1205 2.12044E+01 1.71482E-02 2.42369E-02-6.03850E-02 1.65681E-14 3.30624E-13
 -1      1206 2.25274E+01 2.51692E-02 5.49804E-02-5.79044E-02 4.22318E-15 1.30548E-13
 -1      1207 2.33702E+01 2.41243E-02 6.01732E-02-4.28991E-02 2.73952E-14 1.36457E-13
 -1      1208 2.37036E+01 1.84999E-02 4.91047E-02-2.46818E-02 4.13935E-14 6.64191E-14
 -1      1209 2.36287E+01 1.18360E-02 3.23393E-02-9.23659E-03-4.52654E-14 1.75865E-13
 -1      1210 2.32895E+01 6.04493E-03 1.68174E-02 1.28772E-03-1.85427E-14 8.39415E-14
 -1      1211 2.28175E+01 1.78207E-03 5.36901E-03 7.16078E-03 2.80455E-14-2.72952E-13
 -1      1212 2.23095E+01-9.78242E-04-1.80761E-03 9.60198E-03-2.66197E-14-2.20551E-13
 -1      1213 2.18259E+01-2.53639E-03-5.61208E-03 9.88994E-03 3.78335E-15 4.66049E-13
 -1      1214 2.13985E+01-3.24051E-03-7.13787E-03 9.01880E-03 1.16882E-14 3.66197E-13
 -1      1215 2.10397E+01-3.39063E-03-7.29218E-03 7.64857E-03-2.77533E-14 1.52009E-13
 -1      1216 2.07499E+01-3.21289E-03-6.71306E-03 6.16965E-03-5.37431E-14 3.33351E-13
 -1      1217 2.05231E+01-2.86430E-03-5.80678E-03 4.78774E-03 3.94492E-15 3.98290E-13
 -1      1218 2.03505E+01-2.44710E-03-4.81286E-03 3.59409E-03 5.33991E-15 3.25510E-13
 -1      1219 2.02228E+01-2.02380E-03-3.86164E-03 2.61449E-03 4.03643E-14 1.64795E-13
 -1      1220 2.01307E+01-1.62967E-03-3.01606E-03 1.84035E-03-4.05547E-14 5.25924E-13
 -1      1221 2.00665E+01-1.28212E-03-2.29938E-03 1.24726E-03-1.33161E-14 2.45562E-13
 -1      1222 2.00234E+01-9.87308E-04-1.71270E-03 8.05459E-04-3.92511E-14-1.80284E-14
 -1      1223 1.99958E+01-7.44731E-04-1.24571E-03 4.85384E-04-1.22370E-14-1.58553E-13
 -1      1224 1.99795E+01-5.50189E-04-8.82969E-04 2.60343E-04 9.32953E-15-5.69972E-13
 -1      1225 1.99711E+01-3.97719E-04-6.07654E-04 1.07542E-04-2.83627E-15-6.54699E-13
 -1      1226 1.99680E+01-2.80792E-04-4.03503E-04 8.23559E-06 5.76395E-14-6.42940E-13
 -1      1227 1.99684E+01-1.92994E-04-2.55821E-04-5.25669E-05-5.47100E-14-8.63088E-13
 -1      1228 1.99709E+01-1.28378E-04-1.51842E-04-8.66019E-05 3.13613E-14-9.30192E-13
 -1      1229 1.99747E+01-8.15938E-05-8.07195E-05-1.02908E-04-6.32862E-14-5.05011E-13
 -1      1230 1.99790E+01-4.78519E-05-3.32653E-05-1.08367E-04-7.04555E-14-1.00497E-13
 -1      1231 1.99834E+01-2.27715E-05-1.44816E-06-1.08186E-04 8.26729E-14 9.88033E-14
 -1      1232 1.99877E+01-2.14051E-06 2.24255E-05-1.06237E-04-2.77961E-14-3.49389E-13
 -1      1233 1.99916E+01 1.81739E-05 4.66995E-05-1.05066E-04 2.36790E-14-1.11463E-12
 -1      1234 1.99951E+01 4.23687E-05 8.03694E-05-1.05242E-04 4.41504E-14-1.36006E-12
 -1      1235 1.99978E+01 7.04574E-05 1.24313E-04-1.00610E-04 2.48095E-15-1.02140E-12
 -1      1236 1.99995E+01 7.68906E-05 1.30650E-04-6.44547E-05 9.47522E-14-9.23502E-13
 -1      1237 1.99999E+01-3.53217E-05-7.19016E-05 3.72952E-05-2.74559E-14-7.08008E-13
 -1      1238 1.99998E+01 1.03816E-04-6.84022E-05 3.22833E-05-7.52721E-13-1.25004E-13
 -1      1239 1.99999E+01-2.97353E-04 1.28517E-04-6.76573E-07-7.71171E-13 7.96998E-15
 -1      1240 1.99999E+01-1.96101E-03 1.04718E-04-7.50067E-05 3.29602E-13-1.05127E-14
 -1      1241 1.99998E+01-4.37273E-03 3.28019E-05-9.66500E-05 6.94489E-13-4.99477E-14
 -1      1242 1.99998E+01-6.98178E-03-2.99143E-05-9.31454E-05 1.29912E-12 3.08433E-14
 -1      1243 1.99997E+01-9.35996E-03-7.44049E-05-7.62614E-05 8.78173E-13-2.17253E-13
 -1      1244 1.99997E+01-1.12425E-02-1.02274E-04-5.44576E-05 3.44420E-13-8.19239E-14
 -1      1245 1.99997E+01-1.24548E-02-1.18258E-04-2.78907E-05-7.53042E-13-7.97644E-14
 -1      1246 1.99997E+01-1.28687E-02-1.23409E-04 8.83318E-08-1.65696E-12 3.26004E-14
 -1      1247 1.99997E+01-1.24492E-02-1.18398E-04 2.81200E-05-4.96896E-13 1.06864E-13
 -1      1248 1.99997E+01-1.12305E-02-1.02305E-04 5.47467E-05-7.75021E-13-1.26519E-13
 -1      1249 1.99997E+01-9.33949E-03-7.39993E-05 7.78953E-05-1.01728E-12 7.13573E-14
 -1      1250 1.99998E+01-6.95487E-03-2.98292E-05 9.36153E-05-1.19795E-12 1.16374E-13
 -1      1251 1.99998E+01-4.33775E-03 3.45676E-05 9.83130E-05 5.23514E-14 1.17501E-14
 -1      1252 1.99999E+01-1.89227E-03 1.18034E-04 8.95355E-05-1.48395E-13-5.08993E-14
 -1      1253 1.99999E+01-3.24494E-04 1.24370E-04-2.00327E-05-1.28834E-13-2.02508E-13
 -1      1254 1.99998E+01 1.13224E-04-7.33363E-05-3.39462E-05-6.62043E-14 1.00899E-13
 -1      1255-1.05925E+00-2.42904E+01-3.76276E+00-2.14011E+00 6.96332E-13 2.27013E-13
 -1      1256-1.74512E+00-1.48938E+01-3.00776E+00-3.80969E+00 2.11520E-12 8.79130E-13
 -1      1257 9.35149E-01-1.54411E+00-1.74892E+00 6.75889E-01 3.26450E-12 2.13929E-12
 -1      1258 1.11752E+01 8.47487E+00-8.84464E-04 9.50421E+00 3.04379E-12 2.99516E-12
 -1      1259 2.87886E+01 1.09163E+01 1.67598E+00 1.66613E+01 1.85474E-12 2.77089E-12
 -1      1260 4.89004E+01 7.36900E+00 3.08843E+00 1.71374E+01 8.32612E-13 1.98819E-12
 -1      1261 6.36437E+01 2.63736E+00 3.95010E+00 8.72765E+00 2.20921E-13 5.87197E-13
 -1      1262 6.61031E+01 1.77987E+00 4.09444E+00-4.61630E+00 1.92187E-13-1.01874E-12
 -1      1263 5.50315E+01 5.75188E+00 3.50955E+00-1.53337E+01 7.51899E-13-2.35301E-12
 -1      1264 3.52918E+01 1.03644E+01 2.19784E+00-1.76958E+01 1.58673E-12-2.78888E-12
 -1      1265 1.60930E+01 1.04035E+01 6.04346E-01-1.24474E+01 2.36011E-12-2.70695E-12
 -1      1266 3.61666E+00 3.30045E+00-1.13944E+00-3.79506E+00 2.50822E-12-1.95843E-12
 -1      1267-1.33992E+00-9.29980E+00-2.53638E+00 2.79969E+00 1.91935E-12-9.76885E-13
 -1      1268-1.41901E+00-2.15577E+01-3.60710E+00 3.55850E+00 8.87401E-13-2.64039E-13
 -1      1269-1.11527E+00-2.51300E+01-3.80516E+00-6.00621E-01-5.46591E-13-1.72654E-13
 -1      1270-1.69823E+00-1.96784E+01-3.50762E+00-4.14861E+00-2.10310E-12-6.14786E-13
 -1      1271-1.01205E+00-6.97952E+00-2.37339E+00-2.17954E+00-2.83973E-12-1.51523E-12
 -1      1272 5.30160E+00 4.92958E+00-9.08206E-01 5.29036E+00-2.70761E-12-2.24842E-12
 -1      1273 1.94862E+01 1.07826E+01 8.23518E-01 1.39806E+01-2.03082E-12-2.50289E-12
 -1      1274 3.99136E+01 9.76001E+00 2.60180E+00 1.81970E+01-1.31117E-12-2.55174E-12
 -1      1275 5.89235E+01 5.04321E+00 3.85015E+00 1.35112E+01-5.25385E-13-1.47526E-12
 -1      1276 6.82427E+01 1.70890E+00 4.40649E+00 1.46557E+00-5.83145E-14 7.65499E-14
 -1      1277 6.22019E+01 3.55277E+00 3.96267E+00-1.13456E+01-4.00124E-13 1.58329E-12
 -1      1278 4.55141E+01 8.26362E+00 2.85659E+00-1.78336E+01-1.20226E-12 2.65432E-12
 -1      1279 2.51353E+01 1.08980E+01 1.28571E+00-1.58852E+01-2.30371E-12 3.18146E-12
 -1      1280 8.58460E+00 7.27824E+00-4.19684E-01-7.83600E+00-3.39107E-12 3.15170E-12
 -1      1281 8.89771E-02-2.70107E+00-1.92308E+00 4.17781E-01-3.33711E-12 2.21489E-12
 -1      1282-1.86262E+00-1.52218E+01-3.10576E+00 4.25005E+00-2.45515E-12 8.51985E-13
 -1      1283-1.18490E+00-2.39186E+01-3.70387E+00 2.34172E+00-1.33943E-12 3.15220E-13
 -1      1284 2.32356E+01 1.89649E+00-7.10463E-01-2.50965E+00-5.61495E-14 9.15934E-13
 -1      1285 2.13271E+01 4.77535E+00-3.66031E-02-2.67216E+00-1.44787E-13-4.94257E-14
 -1      1286 2.19275E+01 4.89395E+00-7.94172E-02-3.60239E+00-1.93318E-13 1.70711E-13
 -1      1287 2.01939E+01 5.08544E+00-1.76147E-02-1.89207E+00-1.32130E-13-3.67612E-13
 -1      1288 2.06734E+01 5.23044E+00 2.31761E-02-2.33225E+00-1.59928E-13-2.30815E-13
 -1      1289 2.14947E+01 3.98655E+00-1.53595E-02-2.38673E+00-2.49443E-13-4.41036E-14
 -1      1290 1.94182E+01 5.15380E+00-9.84827E-03-1.28225E+00-1.01530E-13-5.19258E-13
 -1      1291 1.97917E+01 5.27349E+00 2.31178E-02-1.57648E+00-1.18121E-13-4.51226E-13
 -1      1292 2.03354E+01 4.45925E+00-1.86601E-02-1.72163E+00-2.04992E-13-3.04048E-13
 -1      1293 1.87962E+01 5.16472E+00-8.26879E-03-8.42514E-01-6.58223E-14-5.93890E-13
 -1      1294 1.90981E+01 5.26005E+00 1.71248E-02-1.04966E+00-7.71189E-14-5.63397E-13
 -1      1295 1.94951E+01 4.68842E+00-1.75020E-02-1.17221E+00-1.45392E-13-4.34826E-13
 -1      1296 1.83121E+01 5.16018E+00-7.95467E-03-5.38659E-01-3.45973E-14-6.17150E-13
 -1      1297 1.85427E+01 5.23245E+00 1.08476E-02-6.81624E-01-4.34930E-14-6.06038E-13
 -1      1298 1.88385E+01 4.82117E+00-1.46532E-02-7.73523E-01-9.13315E-14-4.94001E-13
 -1      1299 1.79660E+01 5.15287E+00-7.31703E-03-3.22869E-01-1.11595E-14-6.06543E-13
 -1      1300 1.81225E+01 5.20145E+00 4.64225E-03-4.25964E-01-1.70766E-14-6.19388E-13
 -1      1301 1.83361E+01 4.90151E+00-1.26963E-02-4.93105E-01-4.42025E-14-5.18502E-13
 -1      1302 1.77856E+01 5.15038E+00-5.17511E-03-1.62342E-01 2.74832E-14-5.78902E-13
 -1      1303 1.78558E+01 5.17209E+00-6.02857E-04-2.42887E-01 1.48197E-14-5.89217E-13
 -1      1304 1.79998E+01 4.94443E+00-1.16598E-02-2.91265E-01-2.90653E-15-4.95080E-13
 -1      1305 1.77781E+01 5.15499E+00-1.53201E-03-1.70529E-02 5.38215E-14-5.45962E-13
 -1      1306 1.77602E+01 5.14936E+00-4.26226E-03-9.48181E-02 4.26881E-14-5.67803E-13
 -1      1307 1.78498E+01 4.95564E+00-1.13113E-02-1.33019E-01 5.89984E-14-4.72740E-13
 -1      1308 1.79366E+01 5.16726E+00 3.25720E-03 1.51498E-01 8.41202E-14-5.00743E-13
 -1      1309 1.78359E+01 5.13595E+00-6.06030E-03 5.78946E-02 7.17976E-14-5.28662E-13
 -1      1310 1.78893E+01 4.93912E+00-1.15499E-02 2.06354E-02 1.02054E-13-4.43555E-13
 -1      1311 1.82413E+01 5.18594E+00 8.50977E-03 3.77660E-01 1.08073E-13-4.42930E-13
 -1      1312 1.80691E+01 5.13253E+00-6.15776E-03 2.51737E-01 1.04292E-13-4.77885E-13
 -1      1313 1.81064E+01 4.89855E+00-1.23169E-02 2.06422E-01 1.50234E-13-3.96939E-13
 -1      1314 1.86596E+01 5.20859E+00 1.38233E-02 6.84468E-01 1.43288E-13-3.59008E-13
 -1      1315 1.84327E+01 5.13694E+00-5.29672E-03 5.15573E-01 1.28751E-13-4.06168E-13
 -1      1316 1.84749E+01 4.83661E+00-1.34390E-02 4.53551E-01 1.94702E-13-3.34760E-13
 -1      1317 1.91871E+01 5.23065E+00 1.86300E-02 1.10898E+00 1.75519E-13-2.32103E-13
 -1      1318 1.89052E+01 5.14060E+00-4.93118E-03 8.76704E-01 1.59386E-13-3.06442E-13
 -1      1319 1.89713E+01 4.74909E+00-1.54663E-02 7.89699E-01 2.42934E-13-2.42511E-13
 -1      1320 1.98239E+01 5.24181E+00 2.17594E-02 1.67861E+00 1.98605E-13-3.56104E-14
 -1      1321 1.94815E+01 5.12963E+00-7.49141E-03 1.36568E+00 1.79842E-13-1.56077E-13
 -1      1322 1.95917E+01 4.61905E+00-1.82834E-02 1.24265E+00 2.85258E-13-1.13336E-13
 -1      1323 2.06553E+01 5.21847E+00 2.51619E-02 2.45137E+00 2.06724E-13 2.97269E-13
 -1      1324 2.01945E+01 5.06574E+00-1.68966E-02 2.01124E+00 1.91049E-13 1.00621E-13
 -1      1325 2.03685E+01 4.40099E+00-2.02127E-02 1.83532E+00 3.08586E-13 1.09059E-13
 -1      1326 2.20486E+01 4.97866E+00 2.79983E-02 3.58643E+00 1.63758E-13 8.62269E-13
 -1      1327 2.12407E+01 4.81195E+00-3.58753E-02 2.85508E+00 1.67560E-13 5.22062E-13
 -1      1328 2.14762E+01 3.93667E+00-1.29831E-02 2.57072E+00 3.00471E-13 4.65072E-13
 -1      1329 2.78807E+01 3.19250E+00 8.76461E-01 4.33055E+00 5.54834E-14 1.82926E-12
 -1      1330 2.29561E+01 3.56196E+00-1.71251E-01 3.51329E+00 6.56974E-14 1.17351E-12
 -1      1331 2.31673E+01 2.54547E+00-1.94202E-02 2.96968E+00 2.48480E-13 9.73832E-13
 -1      1332 2.24577E+01 3.34286E-01-7.60735E-01 9.42998E-01 1.17233E-13 1.80528E-12
 -1      1333 2.32358E+01 1.11205E-01-3.96626E-01-9.87660E-01-1.59109E-13 9.74609E-13
 -1      1334 2.22403E+01 2.88435E-01-1.52379E-01-5.48546E-01-1.46813E-13 7.88272E-13
 -1      1335 2.18406E+01 1.53659E-01-6.89930E-02-1.44039E-01-1.20640E-13 7.19872E-13
 -1      1336 2.16923E+01 9.34557E-02-1.03135E-02-7.51422E-02-1.22201E-13 5.33445E-13
 -1      1337 2.25115E+01 3.49715E-01-1.03117E-01-7.76368E-01-2.56267E-13 4.07667E-13
 -1      1338 2.15790E+01 7.30955E-02 3.72101E-03 1.31960E-01-9.97032E-14 4.74953E-13
 -1      1339 2.17586E+01 5.00116E-02 1.38488E-02 1.55156E-01-9.59753E-14 3.33816E-13
 -1      1340 2.19022E+01 1.37949E-01-3.78935E-02 6.62872E-03-2.08101E-13 2.96908E-13
 -1      1341 2.18676E+01 4.31901E-02 1.11560E-02 2.66075E-01-5.98506E-14 2.72636E-13
 -1      1342 2.22118E+01 2.73574E-02 9.65200E-03 2.82034E-01-5.45970E-14 1.90632E-13
 -1      1343 2.19261E+01 7.09130E-02-1.20848E-02 3.82616E-01-1.47403E-13 1.98763E-13
 -1      1344 2.24466E+01 2.34668E-02 5.66659E-03 3.41054E-01-3.14046E-14 1.65413E-13
 -1      1345 2.28729E+01 8.01856E-03 4.31157E-03 3.49173E-01-4.78530E-14 1.17548E-13
 -1      1346 2.22661E+01 3.60240E-02-6.93697E-03 5.88272E-01-9.36438E-14 1.01879E-13
 -1      1347 2.31678E+01 1.22969E-03 2.20822E-03 3.59706E-01-5.76973E-14 1.07810E-13
 -1      1348 2.36004E+01-1.72419E-02 2.21449E-03 3.56263E-01-5.14274E-14 2.29435E-14
 -1      1349 2.27882E+01 9.52824E-04-3.16919E-03 6.76395E-01-8.74916E-14 5.19862E-14
 -1      1350 2.38917E+01-3.01041E-02 3.09178E-03 3.03433E-01 7.55472E-16 3.16934E-14
 -1      1351 2.42310E+01-5.18416E-02 3.72704E-03 2.82113E-01-1.92815E-15 2.95840E-14
 -1      1352 2.33724E+01-4.84339E-02 3.29974E-03 6.32228E-01-4.21802E-14 5.16340E-14
 -1      1353 2.44442E+01-7.17723E-02 8.45115E-03 1.46253E-01 9.87925E-16 3.51351E-14
 -1      1354 2.45608E+01-9.21544E-02 8.60080E-03 1.00663E-01-2.28003E-14 1.47562E-14
 -1      1355 2.38872E+01-1.15551E-01 1.32569E-02 4.13829E-01-1.76543E-14 9.22786E-14
 -1      1356 2.46113E+01-1.14828E-01 1.68525E-02-1.23593E-01-1.85824E-14 5.77403E-15
 -1      1357 2.43716E+01-1.21986E-01 1.46534E-02-1.93374E-01-4.18970E-14-2.22530E-14
 -1      1358 2.41777E+01-1.87376E-01 2.54711E-02-1.19531E-02-3.12337E-14 8.66967E-14
 -1      1359 2.41866E+01-1.34152E-01 2.30448E-02-4.67001E-01-2.96881E-14-3.16899E-14
 -1      1360 2.35252E+01-1.11142E-01 1.61173E-02-5.43833E-01-1.05471E-14-6.14092E-14
 -1      1361 2.40840E+01-2.24802E-01 3.48621E-02-6.11555E-01-5.47201E-14 1.16997E-13
 -1      1362 2.30921E+01-9.39985E-02 1.84229E-02-7.59342E-01 5.56933E-15-7.91381E-14
 -1      1363 2.21137E+01-3.20522E-02 5.78515E-03-8.03395E-01-4.05266E-14-1.31728E-13
 -1      1364 2.35082E+01-1.70814E-01 3.12549E-02-1.21539E+00-2.97002E-14 2.99934E-14
 -1      1365 2.15423E+01 2.07393E-02-1.94692E-03-8.11558E-01-6.39948E-14-1.71779E-13
 -1      1366 2.05723E+01 1.02089E-01-1.72030E-02-7.77754E-01-6.62907E-14-2.38379E-13
 -1      1367 2.25292E+01 4.13422E-03 5.39652E-03-1.50960E+00-8.22556E-14-2.30024E-14
 -1      1368 2.01059E+01 1.61933E-01-2.97425E-02-4.95609E-01 1.01481E-15-2.69909E-13
 -1      1369 1.95805E+01 2.13899E-01-3.89972E-02-3.78466E-01-3.56694E-14-2.69864E-13
 -1      1370 2.14914E+01 2.38801E-01-3.72167E-02-1.19184E+00-6.35117E-14-1.44121E-13
 -1      1371 1.94784E+01 2.31432E-01-4.30130E-02 9.36473E-02-3.40873E-14-3.08095E-13
 -1      1372 1.96762E+01 2.15202E-01-3.98814E-02 2.34592E-01-4.90753E-14-3.34351E-13
 -1      1373 2.09134E+01 3.86484E-01-6.82109E-02-2.65284E-01-9.22144E-14-2.37076E-13
 -1      1374 2.00118E+01 1.74194E-01-3.10440E-02 6.48045E-01-5.99017E-14-3.47680E-13
 -1      1375 2.08475E+01 1.02380E-01-1.77213E-02 7.32136E-01-5.01387E-14-4.12129E-13
 -1      1376 2.11490E+01 3.41677E-01-5.83248E-02 8.29724E-01-8.87693E-14-3.35018E-13
 -1      1377 2.14440E+01 4.04576E-02-6.19779E-03 8.86779E-01 1.33435E-14-4.12712E-13
 -1      1378 2.25347E+01-3.75030E-02 8.99375E-03 8.82407E-01 1.08802E-14-4.09214E-13
 -1      1379 2.20869E+01 1.37084E-01-1.76376E-02 1.51847E+00-1.73906E-14-3.87732E-13
 -1      1380 2.31166E+01-7.52831E-02 1.19074E-02 7.66158E-01-5.47201E-14-4.65322E-13
 -1      1381 2.40491E+01-1.21040E-01 2.24074E-02 7.01880E-01-5.27156E-14-4.83037E-13
 -1      1382 2.32518E+01-8.51685E-02 2.02689E-02 1.54357E+00-5.00823E-14-4.48776E-13
 -1      1383 2.44250E+01-1.22697E-01 1.60048E-02 4.43478E-01-3.99229E-14-5.18925E-13
 -1      1384 2.49687E+01-1.31220E-01 2.07154E-02 3.66306E-01-4.56111E-14-6.02938E-13
 -1      1385 2.41716E+01-2.08253E-01 3.56061E-02 1.06988E+00-7.80157E-14-5.43270E-13
 -1      1386 2.50875E+01-1.11686E-01 1.10979E-02 1.04823E-01-5.28709E-14-5.72334E-13
 -1      1387 2.52238E+01-9.79704E-02 1.21137E-02 4.49014E-02-9.02403E-14-6.69969E-13
 -1      1388 2.46191E+01-2.15312E-01 3.20481E-02 4.35602E-01-8.24497E-14-5.02291E-13
 -1      1389 2.51294E+01-7.51342E-02 4.50111E-03-1.44459E-01-2.22218E-15-6.62030E-13
 -1      1390 2.49630E+01-5.50140E-02 3.90864E-03-1.79206E-01 1.41423E-14-6.17621E-13
 -1      1391 2.46047E+01-1.57053E-01 2.06664E-02-1.03202E-01-7.30058E-14-4.00508E-13
 -1      1392 2.47322E+01-3.80072E-02 7.41631E-05-2.83083E-01 5.27920E-14-5.52875E-13
 -1      1393 2.43955E+01-2.03141E-02-9.32645E-04-2.97001E-01 5.65368E-14-5.02232E-13
 -1      1394 2.42566E+01-8.62106E-02 9.61441E-03-4.47963E-01 1.06422E-13-4.42696E-13
 -1      1395 2.40999E+01-1.07978E-02-1.67278E-03-3.33393E-01 2.04207E-14-4.32283E-13
 -1      1396 2.37002E+01 1.72452E-03-2.75138E-03-3.34009E-01 1.05100E-14-3.74426E-13
 -1      1397 2.37227E+01-3.04505E-02 1.87171E-03-6.09564E-01 7.25487E-14-4.03451E-13
 -1      1398 2.33919E+01 5.46698E-03-1.71673E-03-3.27812E-01 4.35586E-14-3.51951E-13
 -1      1399 2.29979E+01 1.31627E-02-2.80679E-03-3.21481E-01 6.71375E-14-3.58286E-13
 -1      1400 2.31218E+01 4.24105E-03-2.53279E-03-6.41245E-01 6.33731E-14-1.68908E-13
 -1      1401 2.27089E+01 1.34025E-02-1.07011E-03-2.93231E-01 1.24439E-13-2.51150E-13
 -1      1402 2.23565E+01 1.75601E-02-2.15284E-03-2.84145E-01 1.18708E-13-8.39120E-14
 -1      1403 2.25330E+01 2.17594E-02-4.54045E-03-5.97359E-01 1.95893E-13-2.70127E-14
 -1      1404 2.21025E+01 1.60606E-02-3.48100E-04-2.47491E-01 2.29680E-14-2.78631E-14
 -1      1405 2.18056E+01 1.79368E-02-1.38404E-03-2.38020E-01 3.07675E-14 2.31256E-14
 -1      1406 2.20003E+01 2.81118E-02-5.10196E-03-5.18241E-01 1.07893E-13-4.06637E-14
 -1      1407 2.15923E+01 1.57994E-02 1.96856E-04-2.00806E-01 1.69435E-14-1.05728E-13
 -1      1408 2.13521E+01 1.63312E-02-7.46729E-04-1.92115E-01 2.66534E-14-8.92481E-14
 -1      1409 2.15432E+01 2.82336E-02-4.90125E-03-4.29079E-01-8.70831E-15-7.42749E-14
 -1      1410 2.11786E+01 1.41485E-02 5.21017E-04-1.58241E-01-1.52799E-14-1.07699E-13
 -1      1411 2.09900E+01 1.39522E-02-2.96941E-04-1.50788E-01-4.62317E-14-1.18319E-13
 -1      1412 2.11651E+01 2.53858E-02-4.35598E-03-3.43581E-01-2.49440E-14-4.48170E-14
 -1      1413 2.08525E+01 1.19961E-02 6.66203E-04-1.21795E-01-2.67399E-14-1.34626E-13
 -1      1414 2.07079E+01 1.14478E-02-1.24718E-05-1.15665E-01-5.37218E-14-1.52006E-13
 -1      1415 2.08613E+01 2.14597E-02-3.69681E-03-2.68072E-01-3.78063E-14-1.26158E-13
 -1      1416 2.06013E+01 9.81191E-03 6.92016E-04-9.18121E-02-8.65638E-15-1.26216E-13
 -1      1417 2.04928E+01 9.12911E-03 1.49479E-04-8.69144E-02 1.16053E-13-1.82376E-14
 -1      1418 2.06228E+01 1.74417E-02-3.04150E-03-2.04617E-01-3.91449E-14 5.03897E-14
 -1      1419 2.04118E+01 7.81813E-03 6.49019E-04-6.78354E-02 9.30237E-14-2.34680E-14
 -1      1420 2.03321E+01 7.12027E-03 2.28869E-04-6.40081E-02-1.46838E-14 2.36095E-14
 -1      1421 2.04394E+01 1.37870E-02-2.44479E-03-1.53054E-01 9.52836E-14 1.80144E-13
 -1      1422 2.02717E+01 6.10032E-03 5.72612E-04-4.90807E-02-8.64085E-14 3.01445E-14
 -1      1423 2.02143E+01 5.44881E-03 2.56267E-04-4.61456E-02-1.21196E-13 2.25568E-14
 -1      1424 2.03010E+01 1.06627E-02-1.92774E-03-1.12190E-01-1.07505E-13 1.18458E-13
 -1      1425 2.01702E+01 4.67330E-03 4.84918E-04-3.46859E-02-1.08530E-13-2.64010E-13
 -1      1426 2.01299E+01 4.09603E-03 2.52957E-04-3.24741E-02-1.08931E-13-3.99732E-13
 -1      1427 2.01986E+01 8.09160E-03-1.49405E-03-8.04607E-02-3.32264E-13-1.13836E-13
 -1      1428 2.00984E+01 3.51806E-03 3.98525E-04-2.38314E-02-1.27930E-14-3.62943E-13
 -1      1429 2.00709E+01 3.02407E-03 2.32959E-04-2.21938E-02-7.40917E-15-4.72000E-13
 -1      1430 2.01244E+01 6.03076E-03-1.13888E-03-5.62708E-02-1.08553E-13-2.74711E-13
 -1      1431 2.00490E+01 2.60164E-03 3.19848E-04-1.57911E-02 3.21485E-14-4.27939E-13
 -1      1432 2.00310E+01 2.18972E-03 2.05148E-04-1.46013E-02 7.71171E-14-3.29776E-13
 -1      1433 2.00719E+01 4.41212E-03-8.53632E-04-3.81514E-02 3.52627E-14-3.23936E-13
 -1      1434 2.00162E+01 1.88736E-03 2.51567E-04-9.94774E-03-1.13632E-13-3.92005E-13
 -1      1435 2.00051E+01 1.55100E-03 1.74932E-04-9.10153E-03-1.36470E-13-5.59013E-13
 -1      1436 2.00358E+01 3.16282E-03-6.28460E-04-2.48246E-02 1.37044E-14-4.54012E-13
 -1      1437 1.99956E+01 1.33979E-03 1.94235E-04-5.79121E-03 1.33732E-13-5.92798E-13
 -1      1438 1.99893E+01 1.07011E-03 1.45457E-04-5.20439E-03 1.52810E-13-3.81328E-13
 -1      1439 2.00118E+01 2.21442E-03-4.53588E-04-1.52160E-02-5.21950E-14-5.57174E-13
 -1      1440 1.99836E+01 9.26990E-04 1.47266E-04-2.90846E-03 3.34890E-14-3.55043E-13
 -1      1441 1.99806E+01 7.14364E-04 1.18412E-04-2.51410E-03-1.67380E-15-4.07134E-13
 -1      1442 1.99968E+01 1.50651E-03-3.19976E-04-8.44437E-03 3.02544E-14-5.20978E-13
 -1      1443 1.99775E+01 6.21278E-04 1.09532E-04-9.70884E-04 6.29766E-16-2.59513E-13
 -1      1444 1.99767E+01 4.56264E-04 9.45671E-05-7.16599E-04 1.98803E-13-1.70578E-13
 -1      1445 1.99880E+01 9.87720E-04-2.19607E-04-3.80101E-03 1.27854E-13-1.87328E-13
 -1      1446 1.99755E+01 3.99264E-04 7.97026E-05 2.78667E-04 1.84451E-13-2.44469E-13
 -1      1447 1.99761E+01 2.73095E-04 7.41241E-05 4.33215E-04-4.94606E-15-7.19168E-14
 -1      1448 1.99837E+01 6.15305E-04-1.45572E-04-7.25552E-04 1.77998E-13-2.10258E-13
 -1      1449 1.99760E+01 2.41529E-04 5.64339E-05 1.03807E-03-3.58995E-14 2.05396E-14
 -1      1450 1.99775E+01 1.46332E-04 5.69419E-05 1.12339E-03 6.93489E-14 3.10472E-14
 -1      1451 1.99823E+01 3.54307E-04-9.20388E-05 1.21767E-03 1.26564E-13-1.59761E-13
 -1      1452 1.99782E+01 1.32132E-04 3.84702E-05 1.45662E-03-6.38806E-14 2.96131E-14
 -1      1453 1.99801E+01 6.09698E-05 4.26883E-05 1.49528E-03-1.22697E-13-1.33130E-13
 -1      1454 1.99828E+01 1.76405E-04-5.41589E-05 2.36117E-03-3.20084E-14-1.08486E-13
 -1      1455 1.99812E+01 5.80233E-05 2.47055E-05 1.64403E-03 1.09562E-13-4.75573E-14
 -1      1456 1.99833E+01 4.83861E-06 3.09610E-05 1.65213E-03 9.99014E-14 3.34891E-14
 -1      1457 1.99845E+01 5.87234E-05-2.79406E-05 2.95304E-03 6.35877E-14-1.97224E-14
 -1      1458 1.99846E+01 8.42403E-06 1.42524E-05 1.67768E-03-1.22243E-13 2.24540E-13
 -1      1459 1.99868E+01-3.20959E-05 2.14355E-05 1.66603E-03-1.17848E-13 9.98024E-14
 -1      1460 1.99868E+01-1.73874E-05-1.00923E-05 3.17229E-03 8.79407E-14 1.45447E-13
 -1      1461 1.99881E+01-2.58498E-05 6.58765E-06 1.60793E-03-1.26357E-13-1.50104E-13
 -1      1462 1.99901E+01-5.84247E-05 1.41381E-05 1.58282E-03 4.49768E-15-2.93390E-13
 -1      1463 1.99894E+01-6.76246E-05 2.16787E-06 3.14088E-03-1.59697E-13 9.74864E-14
 -1      1464 1.99914E+01-5.30894E-05 1.89358E-06 1.46174E-03 1.66598E-13-3.45598E-13
 -1      1465 1.99932E+01-8.19756E-05 9.83344E-06 1.42516E-03 1.59816E-13 3.63205E-14
 -1      1466 1.99920E+01-1.06087E-04 1.13476E-05 2.93222E-03 6.41442E-14 1.03221E-13
 -1      1467 1.99944E+01-8.13172E-05 1.54654E-06 1.24441E-03 4.60717E-15 3.65601E-15
 -1      1468 1.99959E+01-1.09973E-04 1.00744E-05 1.19375E-03-5.56387E-14-5.34984E-14
 -1      1469 1.99945E+01-1.46800E-04 1.98458E-05 2.57671E-03 1.87739E-13 6.10064E-14
 -1      1470 1.99969E+01-1.18031E-04 7.37755E-06 9.42250E-04 1.03355E-13-6.42759E-14
 -1      1471 1.99980E+01-1.47017E-04 1.26340E-05 8.69226E-04 5.05352E-15 2.69616E-14
 -1      1472 1.99966E+01-2.04423E-04 2.86498E-05 2.06519E-03-1.32985E-14 8.81210E-14
 -1      1473 1.99987E+01-1.75947E-04 1.27633E-05 5.28403E-04-4.92708E-14-3.72969E-15
 -1      1474 1.99993E+01-1.72953E-04 3.39861E-06 4.32571E-04 4.54057E-14 5.56906E-14
 -1      1475 1.99982E+01-2.92512E-04 3.50584E-05 1.37269E-03 9.64267E-15 5.28420E-14
 -1      1476 1.99998E+01-7.16888E-05-7.50636E-07-9.61641E-07-8.62791E-14 6.10973E-14
 -1      1477 1.99995E+01-3.08672E-04 1.85199E-05 4.24992E-04-6.25015E-14-5.75939E-14
 -1      1478 2.17555E+01 6.97164E-02-1.42219E-01 2.92353E-01 1.26822E-13 1.53705E-12
 -1      1479 2.27295E+01 2.17101E-01-2.27453E-01 5.16886E-01 1.08275E-13 1.71074E-12
 -1      1480 2.29166E+01 8.35890E-01-9.48680E-02 1.68603E+00 1.98744E-13 1.20848E-12
 -1      1481 2.12801E+01 3.11919E-02-1.67331E-02 9.40773E-03 9.17391E-14 1.30406E-12
 -1      1482 2.14432E+01 1.13659E-01-5.68882E-02 6.05000E-02 8.35929E-14 1.42997E-12
 -1      1483 2.18692E+01 1.71582E-01-5.71178E-02 4.37672E-01 1.82389E-13 1.01448E-12
 -1      1484 2.13444E+01 1.44011E-02 7.04298E-03-1.19498E-01 6.27901E-14 1.11505E-12
 -1      1485 2.12376E+01 5.31532E-02 3.69269E-03-9.11122E-02 6.90836E-14 1.22803E-12
 -1      1486 2.15151E+01 6.67003E-02-1.40318E-02-3.60698E-02 1.43838E-13 8.56686E-13
 -1      1487 2.16689E+01 3.50904E-03 8.05611E-03-1.74959E-01 7.07169E-14 9.99489E-13
 -1      1488 2.14464E+01 2.48237E-02 1.17159E-02-1.59720E-01 4.45744E-14 1.06749E-12
 -1      1489 2.15710E+01 2.65327E-02-4.01213E-03-2.43261E-01 9.90154E-14 7.19053E-13
 -1      1490 2.20855E+01-6.77184E-03 7.86455E-03-1.79847E-01 4.33749E-14 8.70626E-13
 -1      1491 2.18306E+01 4.77418E-03 8.64015E-03-1.76276E-01 3.98303E-14 9.41431E-13
 -1      1492 2.18274E+01 9.02566E-04-1.11223E-03-3.20348E-01 8.71540E-14 6.47893E-13
 -1      1493 2.24585E+01-1.83619E-02 1.02633E-02-1.34646E-01 1.94191E-14 8.39924E-13
 -1      1494 2.22421E+01-1.56076E-02 6.13335E-03-1.44666E-01 2.63765E-14 8.65667E-13
 -1      1495 2.21438E+01-2.38422E-02 2.88547E-03-2.97430E-01 3.94342E-14 6.26622E-13
 -1      1496 2.26523E+01-3.03211E-02 1.45300E-02-3.52850E-02 3.21557E-14 8.03400E-13
 -1      1497 2.25492E+01-3.78417E-02 5.76933E-03-6.15035E-02 9.62858E-15 8.11290E-13
 -1      1498 2.24001E+01-5.09857E-02 8.98632E-03-1.74617E-01 3.11860E-14 6.04460E-13
 -1      1499 2.25373E+01-3.87730E-02 1.83122E-02 1.14136E-01 3.12918E-14 6.86857E-13
 -1      1500 2.26210E+01-5.83928E-02 6.73138E-03 7.16040E-02 2.52168E-14 7.57602E-13
 -1      1501 2.24833E+01-7.70220E-02 1.59141E-02 4.75873E-02 4.74516E-14 4.99438E-13
 -1      1502 2.20250E+01-3.72759E-02 1.78594E-02 2.88327E-01 1.90256E-14 6.16396E-13
 -1      1503 2.23449E+01-6.86311E-02 7.41751E-03 2.35777E-01 1.41016E-14 6.54430E-13
 -1      1504 2.22981E+01-9.13729E-02 2.08944E-02 3.43950E-01 6.59039E-14 4.21589E-13
 -1      1505 2.11299E+01-1.97200E-02 9.19318E-03 4.32824E-01-1.68867E-14 6.94104E-13
 -1      1506 2.16740E+01-5.72916E-02 5.61632E-03 3.85689E-01-1.28951E-14 6.55313E-13
 -1      1507 2.18017E+01-7.84570E-02 2.01291E-02 6.43939E-01-2.38611E-15 3.73939E-13
 -1      1508 2.00252E+01 1.33966E-02-8.49410E-03 4.73985E-01 6.97666E-14 6.63164E-13
 -1      1509 2.06866E+01-1.80369E-02-4.48235E-04 4.54059E-01 2.06408E-14 6.70998E-13
 -1      1510 2.10504E+01-2.62803E-02 1.09739E-02 8.30549E-01 1.03912E-14 4.82869E-13
 -1      1511 1.90392E+01 4.97949E-02-2.90414E-02 3.57161E-01 5.30140E-14 5.97741E-13
 -1      1512 1.96210E+01 4.03023E-02-9.94455E-03 3.81258E-01 3.40457E-14 6.34895E-13
 -1      1513 2.02291E+01 5.85310E-02-4.66052E-03 7.81172E-01 6.98200E-14 4.48279E-13
 -1      1514 1.85404E+01 6.98133E-02-4.07821E-02 9.60747E-02 4.34063E-14 4.75641E-13
 -1      1515 1.88263E+01 9.18772E-02-1.81631E-02 1.61693E-01 6.37580E-14 5.32178E-13
 -1      1516 1.96146E+01 1.41221E-01-1.97952E-02 4.48660E-01 8.61620E-14 4.13190E-13
 -1      1517 1.87493E+01 6.09221E-02-3.49854E-02-2.13626E-01 4.49450E-14 3.54054E-13
 -1      1518 1.86145E+01 1.08704E-01-1.91286E-02-1.31738E-01 5.74384E-14 4.27954E-13
 -1      1519 1.94563E+01 1.75431E-01-2.62103E-02-7.41342E-02 1.10094E-13 2.97115E-13
 -1      1520 1.96048E+01 2.91011E-02-1.41226E-02-4.45565E-01 1.53627E-14 2.24744E-13
 -1      1521 1.90906E+01 8.25290E-02-1.10628E-02-3.80620E-01 5.43680E-14 3.16122E-13
 -1      1522 1.98361E+01 1.37494E-01-2.16717E-02-5.83007E-01 1.07735E-13 2.40785E-13
 -1      1523 2.08016E+01-7.04605E-03 9.01224E-03-5.21533E-01-2.55171E-14 2.32710E-13
 -1      1524 2.00902E+01 3.10547E-02 1.41698E-03-4.94241E-01-9.46248E-15 1.97571E-13
 -1      1525 2.06192E+01 4.93132E-02-1.11781E-02-8.82994E-01 3.49156E-15 1.66200E-13
 -1      1526 2.19661E+01-3.10582E-02 2.36353E-02-4.48618E-01 5.95843E-14 1.52905E-13
 -1      1527 2.12768E+01-1.78752E-02 1.11886E-02-4.57926E-01 2.36408E-14 2.09867E-13
 -1      1528 2.15367E+01-3.99616E-02-1.22102E-03-9.00566E-01 1.18169E-14 1.27082E-13
 -1      1529 2.28273E+01-3.84185E-02 2.65862E-02-2.91169E-01 6.41327E-15-1.75658E-14
 -1      1530 2.23180E+01-4.64866E-02 1.47312E-02-3.22188E-01 5.33245E-14 7.62723E-14
 -1      1531 2.23295E+01-9.31989E-02 4.89718E-03-6.96830E-01 9.33559E-14 3.53502E-14
 -1      1532 2.32816E+01-3.35499E-02 2.13693E-02-1.19639E-01 4.56874E-14-1.52222E-14
 -1      1533 2.30111E+01-5.29172E-02 1.26858E-02-1.55949E-01-2.15626E-15-9.78384E-15
 -1      1534 2.28434E+01-1.03672E-01 6.98731E-03-3.94751E-01 3.75724E-14-8.08763E-14
 -1      1535 2.33601E+01-2.33665E-02 1.32220E-02 2.05032E-02-1.13987E-13 9.78250E-14
 -1      1536 2.33081E+01-4.47213E-02 7.99638E-03-1.03961E-02-4.92540E-14 6.99501E-14
 -1      1537 2.30441E+01-8.54055E-02 6.46525E-03-1.02904E-01-5.96077E-14 3.60607E-14
 -1      1538 2.31621E+01-1.30051E-02 5.84815E-03 1.13004E-01 6.40200E-15 1.11132E-13
 -1      1539 2.32690E+01-3.07975E-02 3.33282E-03 9.16169E-02 4.34939E-15 1.01208E-13
 -1      1540 2.29789E+01-5.64089E-02 4.85602E-03 1.18868E-01-7.82456E-14 1.55773E-13
 -1      1541 2.27992E+01-4.89149E-03 7.43440E-04 1.60935E-01 8.35575E-14-7.56548E-14
 -1      1542 2.29992E+01-1.71836E-02 4.24852E-05 1.48817E-01 2.26373E-14 4.75054E-14
 -1      1543 2.27297E+01-2.90280E-02 3.14715E-03 2.55731E-01 6.63766E-14 5.66543E-14
 -1      1544 2.23644E+01 4.67461E-04-2.11096E-03 1.75470E-01 5.81441E-15-2.18556E-13
 -1      1545 2.26037E+01-6.59297E-03-1.68777E-03 1.70504E-01 3.59032E-14-1.19200E-13
 -1      1546 2.23786E+01-8.55227E-03 1.76034E-03 3.19162E-01 1.09406E-13-5.65303E-14
 -1      1547 2.19231E+01 3.48932E-03-3.31544E-03 1.68663E-01-1.63802E-13 7.32409E-14
 -1      1548 2.21645E+01 4.75036E-04-2.25271E-03 1.68443E-01-1.50629E-13-1.35513E-13
 -1      1549 2.19910E+01 4.40742E-03 7.76264E-04 3.29982E-01-1.49067E-13-8.40539E-14
 -1      1550 2.15148E+01 4.84433E-03-3.51641E-03 1.50287E-01 1.73678E-14 3.84562E-13
 -1      1551 2.17364E+01 4.55814E-03-2.14207E-03 1.52808E-01-3.48955E-14 2.71692E-13
 -1      1552 2.16117E+01 1.12994E-02 1.38533E-04 3.08436E-01-1.79774E-13 1.24280E-13
 -1      1553 2.11591E+01 5.14473E-03-3.20256E-03 1.27139E-01-5.60034E-15 2.40172E-13
 -1      1554 2.13505E+01 6.48107E-03-1.73547E-03 1.30973E-01 2.49584E-14 3.48196E-13
 -1      1555 2.12670E+01 1.40158E-02-2.42959E-04 2.70257E-01 4.61198E-15 2.47987E-13
 -1      1556 2.08626E+01 4.84864E-03-2.68227E-03 1.03442E-01-6.49669E-14 2.95223E-13
 -1      1557 2.10208E+01 7.00269E-03-1.26285E-03 1.07669E-01-2.10788E-14 2.50537E-13
 -1      1558 2.09697E+01 1.41832E-02-4.48525E-04 2.26132E-01 1.60616E-14 2.95430E-13
 -1      1559 2.06238E+01 4.26261E-03-2.12627E-03 8.15305E-02-5.88093E-14 3.68822E-13
 -1      1560 2.07501E+01 6.70262E-03-8.36922E-04 8.56140E-02-1.02861E-13 2.62916E-13
 -1      1561 2.07228E+01 1.29769E-02-5.38524E-04 1.82561E-01-1.26903E-13 2.91561E-13
 -1      1562 2.04371E+01 3.57583E-03-1.61721E-03 6.24913E-02 6.50483E-14 3.06055E-13
 -1      1563 2.05349E+01 5.97967E-03-4.98315E-04 6.61545E-02 6.35964E-14 3.95576E-13
 -1      1564 2.05244E+01 1.11610E-02-5.55458E-04 1.43040E-01 2.15639E-14 2.76827E-13
 -1      1565 2.02948E+01 2.89633E-03-1.18732E-03 4.66489E-02 5.16770E-14 2.50957E-13
 -1      1566 2.03686E+01 5.08836E-03-2.50387E-04 4.97784E-02 5.20981E-15 2.33613E-13
 -1      1567 2.03691E+01 9.19295E-03-5.28517E-04 1.09100E-01 8.45591E-15 1.18269E-13
 -1      1568 2.01892E+01 2.27974E-03-8.42412E-04 3.38971E-02-7.48698E-14 2.63709E-13
 -1      1569 2.02434E+01 4.18022E-03-8.07017E-05 3.64764E-02 3.47471E-15 2.32409E-13
 -1      1570 2.02506E+01 7.32309E-03-4.77481E-04 8.10787E-02 1.74966E-14 1.96681E-13
 -1      1571 2.01129E+01 1.74965E-03-5.75848E-04 2.39130E-02 4.22565E-14 3.26210E-13
 -1      1572 2.01515E+01 3.33789E-03 2.76573E-05 2.59789E-02-5.46969E-15 2.78018E-13
 -1      1573 2.01624E+01 5.67166E-03-4.15531E-04 5.86522E-02-4.39963E-14 1.26785E-13
 -1      1574 2.00594E+01 1.31108E-03-3.76121E-04 1.62877E-02 5.53703E-14 5.62494E-14
 -1      1575 2.00860E+01 2.60033E-03 9.08866E-05 1.79021E-02 7.51739E-14 1.62737E-13
 -1      1576 2.00984E+01 4.28133E-03-3.51198E-04 4.11725E-02 1.56551E-13-1.36821E-14
 -1      1577 2.00232E+01 9.58964E-04-2.30737E-04 1.06015E-02-3.93449E-14-3.52211E-14
 -1      1578 2.00408E+01 1.98004E-03 1.22538E-04 1.18349E-02-9.62907E-16 5.78081E-14
 -1      1579 2.00533E+01 3.15140E-03-2.89728E-04 2.78743E-02 7.00850E-15 3.25654E-14
 -1      1580 1.99998E+01 6.83408E-04-1.28038E-04 6.46389E-03 8.06260E-14-2.27988E-13
 -1      1581 2.00109E+01 1.47435E-03 1.33150E-04 7.38568E-03 2.23957E-14-1.19473E-13
 -1      1582 2.00226E+01 2.25895E-03-2.34080E-04 1.79935E-02 6.03981E-14-1.30440E-13
 -1      1583 1.99858E+01 4.72781E-04-5.79468E-05 3.53234E-03 9.65996E-14-4.51135E-13
 -1      1584 1.99922E+01 1.07273E-03 1.30526E-04 4.20602E-03 9.86156E-14-3.15795E-13
 -1      1585 2.00027E+01 1.57158E-03-1.85650E-04 1.08297E-02 1.67996E-13-2.14664E-13
 -1      1586 1.99784E+01 3.15454E-04-1.21447E-05 1.51850E-03 3.65824E-14-5.21446E-13
 -1      1587 1.99814E+01 7.61161E-04 1.20223E-04 1.99918E-03-2.89155E-14-5.15806E-13
 -1      1588 1.99905E+01 1.05464E-03-1.44804E-04 5.77386E-03 6.53027E-14-2.86864E-13
 -1      1589 1.99755E+01 2.00712E-04 1.60133E-05 1.86952E-04 7.47332E-14-5.92178E-13
 -1      1590 1.99763E+01 5.24828E-04 1.06056E-04 5.20875E-04 8.44131E-14-4.58796E-13
 -1      1591 1.99839E+01 6.75154E-04-1.11269E-04 2.31637E-03 7.18486E-14-4.10457E-13
 -1      1592 1.99755E+01 1.19157E-04 3.17024E-05-6.49414E-04-4.73671E-14-5.30031E-13
 -1      1593 1.99749E+01 3.49563E-04 9.05350E-05-4.24577E-04-3.47906E-14-6.23432E-13
 -1      1594 1.99811E+01 4.03701E-04-8.43934E-05 4.32700E-05 1.65747E-15-4.28637E-13
 -1      1595 1.99773E+01 6.27879E-05 3.88720E-05-1.13561E-03-3.61070E-14-5.36632E-13
 -1      1596 1.99759E+01 2.22566E-04 7.52178E-05-9.89964E-04 2.94761E-14-5.00423E-13
 -1      1597 1.99809E+01 2.15082E-04-6.33311E-05-1.37291E-03 5.10148E-14-1.97209E-13
 -1      1598 1.99802E+01 2.49157E-05 4.04929E-05-1.38097E-03-1.92183E-13-3.35511E-13
 -1      1599 1.99784E+01 1.32648E-04 6.09924E-05-1.29144E-03-1.67267E-13-5.74967E-13
 -1      1600 1.99822E+01 8.82757E-05-4.71458E-05-2.18459E-03-1.84614E-13-3.16021E-13
 -1      1601 1.99836E+01-4.35528E-08 3.88099E-05-1.46495E-03-2.01380E-13-5.96911E-14
 -1      1602 1.99816E+01 7.01587E-05 4.82934E-05-1.41441E-03-1.83621E-13-2.45495E-13
 -1      1603 1.99844E+01 6.00024E-06-3.48582E-05-2.58051E-03-2.83910E-13-4.05838E-13
 -1      1604 1.99872E+01-1.68526E-05 3.56528E-05-1.44200E-03 3.57951E-13-1.12648E-13
 -1      1605 1.99851E+01 2.67003E-05 3.73014E-05-1.41854E-03 1.97831E-13 1.14012E-13
 -1      1606 1.99872E+01-4.59695E-05-2.54158E-05-2.69593E-03 4.39730E-14-1.76611E-13
 -1      1607 1.99906E+01-2.98411E-05 3.29260E-05-1.34486E-03 1.31387E-13-5.55617E-13
 -1      1608 1.99887E+01-5.38897E-06 2.82136E-05-1.34150E-03 1.75603E-13-2.81880E-13
 -1      1609 1.99900E+01-7.97051E-05-1.75365E-05-2.62075E-03 3.12707E-13-1.47666E-13
 -1      1610 1.99938E+01-4.30754E-05 3.32223E-05-1.18645E-03 2.06757E-14-7.57464E-13
 -1      1611 1.99920E+01-3.35707E-05 2.17215E-05-1.20118E-03 1.19131E-13-5.99680E-13
 -1      1612 1.99928E+01-1.06156E-04-9.36749E-06-2.40494E-03 2.99420E-13-4.03830E-13
 -1      1613 1.99964E+01-6.07040E-05 3.88314E-05-9.60876E-04-1.16520E-13-7.85463E-13
 -1      1614 1.99950E+01-6.54830E-05 1.92519E-05-9.97275E-04-6.35262E-14-8.50597E-13
 -1      1615 1.99952E+01-1.36200E-04 1.53687E-06-2.06202E-03-3.90396E-14-2.52372E-13
 -1      1616 1.99984E+01-8.65929E-05 4.37212E-05-6.43122E-04-1.48094E-14-5.68948E-13
 -1      1617 1.99973E+01-1.09011E-04 2.05283E-05-7.13838E-04-3.17213E-14-6.77875E-13
 -1      1618 1.99973E+01-1.82798E-04 1.54103E-05-1.57363E-03-1.21251E-13-3.06898E-13
 -1      1619 1.99995E+01-1.16403E-04 5.85474E-06-2.40557E-04 4.86300E-14-6.56291E-13
 -1      1620 1.99990E+01-1.51249E-04 1.66039E-05-3.39030E-04 5.87423E-14-6.72581E-13
 -1      1621 1.99988E+01-2.44814E-04 2.51940E-05-9.09702E-04 1.25041E-13-3.80259E-13
 -1      1622 1.99998E+01-8.18889E-05-6.32121E-06-1.82141E-05-3.22401E-13-4.04269E-13
 -1      1623 1.99997E+01-1.08725E-03 2.13623E-05-5.39604E-04-6.86293E-14 3.28603E-13
 -1      1624 1.99996E+01-5.47997E-04-2.17641E-06-4.33129E-04-5.41844E-13 2.29355E-13
 -1      1625 1.99997E+01-2.75013E-03 9.18461E-06-8.70056E-04 2.11199E-13 1.15293E-13
 -1      1626 1.99997E+01-1.76145E-03 1.36619E-05-8.18070E-04-8.92605E-14 2.85142E-13
 -1      1627 1.99995E+01-1.57647E-03 2.46900E-05-1.31532E-03-9.80184E-14 4.62614E-13
 -1      1628 1.99998E+01-4.78539E-03-4.79662E-07-1.01316E-03 4.32232E-13 1.70134E-13
 -1      1629 1.99998E+01-3.58789E-03 6.77553E-06-1.00066E-03 3.01139E-13 2.42707E-13
 -1      1630 1.99997E+01-3.07353E-03 1.50509E-05-1.80192E-03 8.19478E-15 3.23031E-13
 -1      1631 1.99998E+01-6.86587E-03-4.75985E-06-9.88081E-04 7.65506E-13 6.38682E-14
 -1      1632 1.99998E+01-5.67235E-03 9.61841E-07-1.00648E-03 5.12876E-13 4.15384E-13
 -1      1633 1.99998E+01-4.78047E-03-2.07145E-06-1.94481E-03 1.63855E-13 3.90433E-13
 -1      1634 1.99999E+01-8.67975E-03-5.33274E-06-8.37021E-04 3.54482E-13-4.00625E-13
 -1      1635 1.99999E+01-7.66797E-03-1.01966E-06-8.75757E-04 7.20646E-13-4.76031E-13
 -1      1636 1.99999E+01-6.44871E-03-1.62089E-05-1.79583E-03 1.62447E-13-1.79272E-13
 -1      1637 1.99999E+01-1.00800E-02-4.49703E-06-5.93329E-04-4.59875E-14-3.81311E-13
 -1      1638 1.99999E+01-9.33330E-03-1.81597E-06-6.47053E-04 3.80200E-13-3.64645E-13
 -1      1639 1.99999E+01-7.88239E-03-2.55626E-05-1.43114E-03 2.38177E-13-4.79411E-13
 -1      1640 1.99999E+01-1.08883E-02-3.28074E-06-2.93080E-04-5.41831E-13-2.37519E-13
 -1      1641 1.99999E+01-1.04980E-02-1.91995E-06-3.54739E-04-1.86411E-13-2.99831E-13
 -1      1642 2.00000E+01-8.93477E-03-3.16398E-05-9.14896E-04 9.20152E-15-5.61330E-13
 -1      1643 1.99999E+01-1.10302E-02-2.36811E-06 3.31761E-05-5.38672E-13 1.60201E-13
 -1      1644 1.99999E+01-1.10316E-02-2.37885E-06-3.10793E-05-6.33948E-13-8.99381E-14
 -1      1645 2.00000E+01-9.48610E-03-3.45193E-05-3.12938E-04-7.16471E-14-3.04852E-13
 -1      1646 1.99999E+01-1.04919E-02-1.87518E-06 3.57036E-04-3.45579E-13 9.78922E-14
 -1      1647 1.99999E+01-1.08853E-02-3.32451E-06 2.95325E-04-6.41438E-13 4.87252E-13
 -1      1648 2.00000E+01-9.48455E-03-3.45345E-05 3.17112E-04-6.35195E-14 2.40302E-13
 -1      1649 1.99999E+01-9.32195E-03-1.63746E-06 6.49718E-04-6.63883E-13-2.51091E-13
 -1      1650 1.99999E+01-1.00721E-02-4.72421E-06 5.96051E-04-3.20946E-13-4.17672E-13
 -1      1651 2.00000E+01-8.92993E-03-3.16237E-05 9.19770E-04-3.44231E-13-1.48314E-13
 -1      1652 1.99999E+01-7.66576E-03-1.31024E-06 8.76440E-04-6.16456E-13 1.01631E-13
 -1      1653 1.99999E+01-8.68009E-03-5.56820E-06 8.37886E-04-5.13100E-13-6.60455E-14
 -1      1654 1.99999E+01-7.88469E-03-2.58020E-05 1.43354E-03-2.95246E-13-2.59082E-13
 -1      1655 1.99998E+01-5.64961E-03 8.97201E-07 1.00891E-03-2.76663E-13 2.13517E-13
 -1      1656 1.99998E+01-6.84692E-03-4.94223E-06 9.90707E-04-5.38598E-13 2.43056E-13
 -1      1657 1.99999E+01-6.44802E-03-1.60383E-05 1.79921E-03-1.62852E-13 2.63982E-13
 -1      1658 1.99998E+01-3.56394E-03 6.53060E-06 1.00421E-03-1.45163E-13-9.75645E-14
 -1      1659 1.99998E+01-4.76195E-03-6.55850E-07 1.01461E-03-2.36089E-13 3.07642E-13
 -1      1660 1.99998E+01-4.76312E-03-2.01920E-06 1.94825E-03-4.04561E-14 1.23433E-13
 -1      1661 1.99997E+01-1.76873E-03 2.98317E-06 8.15984E-04-2.00706E-13 6.22709E-14
 -1      1662 1.99997E+01-2.73281E-03 8.43960E-06 8.68661E-04-7.71672E-14-9.71327E-14
 -1      1663 1.99997E+01-3.05399E-03 1.42896E-05 1.80085E-03-9.59461E-14-5.36539E-15
 -1      1664 1.99995E+01-7.12651E-04-1.52006E-05 6.31409E-04-3.02899E-13-2.84294E-13
 -1      1665 1.99996E+01-1.25563E-03 7.00676E-06 7.87248E-04-9.64285E-14-1.58839E-13
 -1      1666 1.99995E+01-1.70612E-03 2.82229E-05 1.54352E-03-1.94954E-13 1.05246E-13
 -1      1667 1.99990E+01-7.96484E-04 1.72665E-06 1.22689E-03-1.09326E-13-2.09856E-13
 -1      1668-6.94940E-01-1.48030E+01-1.68062E+00-1.02596E+00 6.88172E-13 5.05873E-13
 -1      1669-6.48559E-01-1.69179E+01-1.87808E+00 3.76654E-01-6.60860E-14 4.20997E-13
 -1      1670 1.95238E+00-7.39239E+00-1.02048E+00 1.25775E+00 1.54832E-12 1.15460E-12
 -1      1671 9.78609E-01-1.27161E+01-1.55296E+00 4.78112E-01 9.31255E-13 7.29153E-13
 -1      1672 8.43258E+00-5.41788E-02-3.88795E-01 5.35803E+00 2.09432E-12 1.72662E-12
 -1      1673 4.90976E+00-5.53917E+00-1.14208E+00 2.34743E+00 1.82876E-12 1.26621E-12
 -1      1674 1.93779E+01 4.80707E+00 2.77538E-01 1.00014E+01 1.89193E-12 1.83065E-12
 -1      1675 1.24778E+01 1.83060E+00-5.51921E-01 6.46559E+00 2.18614E-12 1.80278E-12
 -1      1676 3.37055E+01 5.57093E+00 9.44891E-01 1.15320E+01 1.18450E-12 1.54965E-12
 -1      1677 2.48332E+01 5.44554E+00 1.79611E-01 1.00368E+01 1.62415E-12 1.71552E-12
 -1      1678 4.69912E+01 4.93055E+00 1.63824E+00 9.79486E+00 7.45910E-13 9.65228E-13
 -1      1679 3.85284E+01 6.45887E+00 9.63347E-01 1.16928E+01 1.07964E-12 1.44795E-12
 -1      1680 5.50037E+01 3.46223E+00 1.93856E+00 2.91553E+00 4.39371E-13 8.82627E-15
 -1      1681 5.07218E+01 4.61172E+00 1.62745E+00 8.03415E+00 5.89848E-13 6.96998E-13
 -1      1682 5.33596E+01 4.03680E+00 1.77324E+00-5.78944E+00 5.04263E-13-9.79716E-13
 -1      1683 5.55650E+01 3.40283E+00 1.93270E+00-8.36891E-02 3.95184E-13-3.60347E-13
 -1      1684 4.29849E+01 6.02167E+00 1.17630E+00-1.10054E+01 9.48380E-13-1.62448E-12
 -1      1685 5.03894E+01 4.39677E+00 1.75843E+00-7.92138E+00 6.55392E-13-1.23412E-12
 -1      1686 2.89549E+01 6.08559E+00 4.18562E-01-1.07909E+01 1.30407E-12-1.75371E-12
 -1      1687 3.82683E+01 5.45346E+00 1.14457E+00-1.13118E+01 9.80771E-13-1.72640E-12
 -1      1688 1.56214E+01 4.25614E+00-3.01928E-01-8.30867E+00 1.67488E-12-1.75193E-12
 -1      1689 2.31999E+01 6.04848E+00 4.97073E-01-1.14182E+01 1.52955E-12-1.91647E-12
 -1      1690 6.74854E+00-1.91702E+00-9.85389E-01-3.62426E+00 1.56053E-12-1.24123E-12
 -1      1691 1.12370E+01 2.73303E+00-1.81401E-01-7.06267E+00 1.68932E-12-1.62159E-12
 -1      1692 2.13835E+00-1.02697E+01-1.48883E+00-7.64639E-01 9.76441E-13-6.66980E-13
 -1      1693 4.00866E+00-4.33069E+00-8.34089E-01-2.63897E+00 1.35536E-12-1.06593E-12
 -1      1694-3.09174E-01-1.60371E+01-1.84292E+00-4.12566E-03 2.79832E-13-3.49720E-13
 -1      1695-2.49356E-01-1.23684E+01-1.53529E+00 8.25941E-01 8.47211E-13-5.15359E-13
 -1      1696-6.45361E-01-1.51461E+01-1.60548E+00-8.09430E-01-7.03881E-13-5.33934E-13
 -1      1697-6.50622E-01-1.56128E+01-1.64530E+00 5.83424E-01 3.46112E-14-4.64795E-13
 -1      1698 1.07892E-01-1.10851E+01-1.47817E+00-6.86667E-01-1.61104E-12-8.38607E-13
 -1      1699-7.61590E-02-1.52868E+01-1.83158E+00-2.84892E-01-1.04777E-12-5.29007E-13
 -1      1700 4.93642E+00-3.12249E+00-7.97084E-01 3.12449E+00-1.88694E-12-1.26965E-12
 -1      1701 2.62976E+00-9.05616E+00-1.48749E+00 8.03239E-01-1.68920E-12-9.34253E-13
 -1      1702 1.33386E+01 3.46523E+00-7.43346E-02 7.93996E+00-1.78924E-12-1.56142E-12
 -1      1703 8.18319E+00-7.76248E-01-9.11273E-01 4.34544E+00-1.95199E-12-1.41021E-12
 -1      1704 2.66431E+01 6.29411E+00 7.12558E-01 1.20655E+01-1.34792E-12-1.75460E-12
 -1      1705 1.81654E+01 4.86900E+00-1.66389E-01 9.11081E+00-1.66511E-12-1.67777E-12
 -1      1706 4.12898E+01 5.48570E+00 1.30212E+00 1.16337E+01-8.83127E-13-1.50369E-12
 -1      1707 3.20484E+01 6.64721E+00 6.19476E-01 1.18446E+01-1.19432E-12-1.70131E-12
 -1      1708 5.16703E+01 4.09674E+00 1.65673E+00 5.69686E+00-5.69322E-13-5.09426E-13
 -1      1709 4.49905E+01 5.62158E+00 1.19707E+00 9.49843E+00-8.52499E-13-1.10889E-12
 -1      1710 5.55032E+01 3.73075E+00 1.91059E+00-2.08994E+00-3.60212E-13 3.62571E-13
 -1      1711 5.46290E+01 3.89991E+00 1.77889E+00 3.84901E+00-3.91853E-13-2.85993E-13
 -1      1712 4.92404E+01 5.03424E+00 1.58626E+00-9.23873E+00-7.29923E-13 1.28964E-12
 -1      1713 5.46509E+01 3.61726E+00 1.95021E+00-4.77272E+00-4.26326E-13 7.72882E-13
 -1      1714 3.65856E+01 6.54037E+00 9.03504E-01-1.20803E+01-1.31656E-12 1.97042E-12
 -1      1715 4.53771E+01 5.16548E+00 1.60719E+00-1.09568E+01-9.48130E-13 1.60816E-12
 -1      1716 2.20599E+01 5.72630E+00 5.48980E-02-1.02157E+01-2.09410E-12 2.21223E-12
 -1      1717 3.13111E+01 6.33391E+00 9.72202E-01-1.24881E+01-1.53466E-12 2.10898E-12
 -1      1718 1.04859E+01 1.05788E+00-7.44495E-01-5.58173E+00-2.45715E-12 2.03071E-12
 -1      1719 1.68567E+01 4.64027E+00 1.63143E-01-9.33263E+00-2.25953E-12 2.22855E-12
 -1      1720 3.63121E+00-6.21158E+00-1.37100E+00-1.38869E+00-2.08389E-12 1.49397E-12
 -1      1721 6.56810E+00-8.26832E-01-6.32701E-01-4.17496E+00-2.41629E-12 1.97553E-12
 -1      1722 4.69387E-01-1.33850E+01-1.76891E+00 4.51535E-01-1.64679E-12 6.27793E-13
 -1      1723 1.13918E+00-8.31314E+00-1.28972E+00-9.53154E-02-2.02083E-12 1.13107E-12
 -1      1724-5.63184E-01-1.64320E+01-1.79514E+00-2.55938E-01-4.21413E-13 5.93414E-13
 -1      1725-5.82628E-01-1.43563E+01-1.63167E+00 9.82734E-01-1.28875E-12 7.49345E-13
 -1      1726 2.63762E+01 6.89933E-01 3.60752E-01 6.79987E+00 1.23312E-12 8.80185E-13
 -1      1727 1.58701E+01-3.10584E+00-2.45976E-01 6.63512E+00 1.13753E-12 1.13998E-12
 -1      1728 1.99996E+01-2.12423E-04 1.92855E-05-2.36518E-04-3.95798E-13-1.66654E-13
 -1      1729 1.99994E+01-6.20373E-04 1.12172E-05-7.43634E-04 7.50187E-15-2.86250E-15
 -1      1730 8.28065E-01-9.76061E+00-1.05699E+00 2.77580E+00 3.29847E-13 9.75497E-13
 -1      1731 7.13501E+00-6.80543E+00-6.72007E-01 5.27837E+00 7.57172E-13 1.20155E-12
 -1      1732-1.31933E+00-1.13348E+01-1.28452E+00-2.60336E-03-2.60778E-13 9.57900E-13
 -1      1733 3.55846E+01 3.85427E+00 7.08978E-01 5.65924E+00 1.06980E-12 7.48512E-13
 -1      1734 4.38735E+01 6.45605E+00 1.35739E+00 4.20376E+00 9.01085E-13 4.21219E-13
 -1      1735 4.78122E+01 7.26177E+00 1.63676E+00 6.35956E-01 7.61613E-13-6.63497E-14
 -1      1736 4.56538E+01 6.85994E+00 1.45832E+00-3.18159E+00 7.97140E-13-5.86919E-13
 -1      1737 3.82888E+01 4.84646E+00 8.75846E-01-5.11060E+00 8.28990E-13-9.11826E-13
 -1      1738 2.94419E+01 2.33499E+00 5.84549E-01-7.02147E+00 9.20819E-13-1.05560E-12
 -1      1739 1.86123E+01-8.60099E-01-6.19052E-02-7.19021E+00 9.58789E-13-1.13853E-12
 -1      1740 9.76056E+00-5.36671E+00-6.27580E-01-5.67984E+00 7.07323E-13-9.51877E-13
 -1      1741 2.79285E+00-8.97194E+00-1.00749E+00-3.70101E+00 4.43978E-13-7.83124E-13
 -1      1742-9.45035E-01-1.06080E+01-1.20116E+00-9.47159E-01 3.33900E-14-7.78433E-13
 -1      1743-5.24108E-01-1.03916E+01-1.17749E+00 1.32151E+00-3.89799E-13-8.37108E-13
 -1      1744 3.79981E+00-8.56792E+00-9.96932E-01 3.80733E+00-8.61422E-13-8.95020E-13
 -1      1745 1.13298E+01-4.74767E+00-5.63447E-01 5.80228E+00-1.07736E-12-9.10994E-13
 -1      1746 2.08411E+01-3.46615E-01 1.76997E-02 7.25826E+00-1.13731E-12-1.03828E-12
 -1      1747 3.17108E+01 3.11924E+00 7.05468E-01 7.28249E+00-9.23484E-13-9.80105E-13
 -1      1748 4.03182E+01 5.66338E+00 1.13212E+00 4.76298E+00-8.71817E-13-5.09814E-13
 -1      1749 4.54515E+01 7.23861E+00 1.32270E+00 1.68399E+00-8.02358E-13-2.59903E-13
 -1      1750 4.76511E+01 7.20869E+00 1.59619E+00-1.49604E+00-7.59171E-13 3.28015E-13
 -1      1751 4.33007E+01 6.05140E+00 1.34587E+00-4.96457E+00-9.78523E-13 8.23785E-13
 -1      1752 3.46786E+01 3.95607E+00 8.48348E-01-7.01484E+00-1.25636E-12 1.29274E-12
 -1      1753 2.40447E+01 6.92352E-01 2.15347E-01-7.31672E+00-1.52189E-12 1.30518E-12
 -1      1754 1.37652E+01-3.32410E+00-4.04695E-01-6.13680E+00-1.47582E-12 1.43507E-12
 -1      1755 5.62338E+00-7.44727E+00-9.24504E-01-4.13064E+00-1.28320E-12 1.24484E-12
 -1      1756 4.81900E-01-1.02361E+01-1.19686E+00-2.09949E+00-9.09772E-13 9.38583E-13
 -1      1757 2.39464E+01 1.95380E+00-2.71977E-02-2.31271E+00-1.94400E-13 7.46736E-13
 -1      1758 2.02936E+01 3.82051E+00-3.95832E-02-1.33836E+00-2.07265E-13-2.61836E-13
 -1      1759 2.07809E+01 3.64954E+00-3.32004E-02-1.64276E+00-2.52003E-13-1.82455E-13
 -1      1760 2.13042E+01 3.20154E+00-4.82412E-02-1.83342E+00-2.61053E-13-7.71466E-14
 -1      1761 2.17214E+01 2.80342E+00-1.28947E-01-2.14820E+00-2.89791E-13 6.21170E-14
 -1      1762 2.12939E+01 2.75674E+00-8.34321E-04-1.40950E+00-2.69154E-13-1.07383E-13
 -1      1763 1.88036E+01 4.45194E+00-2.20120E-02-6.02546E-01-9.07928E-14-3.99993E-13
 -1      1764 1.91178E+01 4.40754E+00-1.09845E-02-7.65215E-01-1.21549E-13-3.88483E-13
 -1      1765 1.83012E+01 4.61322E+00-1.63225E-02-3.77029E-01-4.33967E-14-4.20674E-13
 -1      1766 1.85335E+01 4.58926E+00-7.62465E-03-4.94781E-01-6.65735E-14-4.20476E-13
 -1      1767 1.87962E+01 4.18538E+00-5.56310E-03-4.72779E-01-8.65198E-14-3.86238E-13
 -1      1768 1.79892E+01 4.70460E+00-1.19018E-02-2.19628E-01 2.14160E-14-3.90963E-13
 -1      1769 1.81220E+01 4.69474E+00-7.30661E-03-3.07223E-01-1.32299E-14-4.02898E-13
 -1      1770 1.83050E+01 4.38074E+00-4.35111E-03-2.98371E-01-2.82959E-14-3.94343E-13
 -1      1771 1.78839E+01 4.73188E+00-8.59864E-03-9.37472E-02 8.32724E-14-3.68102E-13
 -1      1772 1.79108E+01 4.73325E+00-8.56661E-03-1.70028E-01 5.63564E-14-3.85401E-13
 -1      1773 1.80256E+01 4.47809E+00-3.73677E-03-1.80120E-01 3.90226E-14-3.72181E-13
 -1      1774 1.79842E+01 4.69998E+00-6.55563E-03 3.96335E-02 1.32277E-13-3.37376E-13
 -1      1775 1.79082E+01 4.71087E+00-1.08295E-02-4.40790E-02 1.10503E-13-3.57277E-13
 -1      1776 1.79705E+01 4.48355E+00-3.99201E-03-8.07202E-02 1.01854E-13-3.48672E-13
 -1      1777 1.82715E+01 4.61441E+00-6.14646E-03 2.16289E-01 1.89169E-13-2.87987E-13
 -1      1778 1.81041E+01 4.63436E+00-1.37425E-02 1.08421E-01 1.57121E-13-3.16898E-13
 -1      1779 1.81329E+01 4.40474E+00-5.09442E-03 3.87087E-02 1.50251E-13-3.02034E-13
 -1      1780 1.87076E+01 4.48188E+00-7.55717E-03 4.59586E-01 2.39649E-13-2.27051E-13
 -1      1781 1.84692E+01 4.51096E+00-1.73671E-02 3.16994E-01 2.13623E-13-2.67286E-13
 -1      1782 1.84854E+01 4.25263E+00-6.48768E-03 2.09299E-01 2.13131E-13-2.55844E-13
 -1      1783 1.92793E+01 4.29140E+00-1.15409E-02 7.97236E-01 2.96750E-13-1.38266E-13
 -1      1784 1.89747E+01 4.33764E+00-2.23065E-02 6.03839E-01 2.63459E-13-1.88788E-13
 -1      1785 1.89964E+01 4.03089E+00-8.04399E-03 4.53307E-01 2.62245E-13-1.87657E-13
 -1      1786 1.99680E+01 4.01283E+00-2.05210E-02 1.23656E+00 3.31027E-13-1.27398E-14
 -1      1787 1.96040E+01 4.09431E+00-2.97527E-02 9.84599E-01 3.14236E-13-8.81933E-14
 -1      1788 1.96453E+01 3.72601E+00-8.58321E-03 7.80077E-01 3.15990E-13-9.24209E-14
 -1      1789 2.08006E+01 3.55281E+00-4.06321E-02 1.76757E+00 3.49946E-13 2.03403E-13
 -1      1790 2.03558E+01 3.72419E+00-4.23565E-02 1.45382E+00 3.34604E-13 7.40588E-14
 -1      1791 2.04225E+01 3.29542E+00-5.56986E-03 1.17212E+00 3.46504E-13 4.72504E-14
 -1      1792 2.19553E+01 2.65792E+00-5.29791E-02 2.25787E+00 3.25200E-13 5.76865E-13
 -1      1793 2.13144E+01 3.09031E+00-5.11719E-02 1.96076E+00 3.28482E-13 3.60073E-13
 -1      1794 2.13607E+01 2.61341E+00 3.44517E-03 1.54209E+00 3.44169E-13 2.81213E-13
 -1      1795 2.28813E+01 1.17566E+00-1.19125E-01 1.86393E+00 2.47136E-13 9.82228E-13
 -1      1796 2.23799E+01 2.22618E+00-1.12104E-03 2.19861E+00 2.93392E-13 7.20840E-13
 -1      1797 2.20771E+01 1.65634E+00-1.77901E-02 1.53717E+00 3.26583E-13 5.69378E-13
 -1      1798 2.22703E+01 7.53001E-01-5.51438E-02 1.06159E+00 2.58980E-13 9.05418E-13
 -1      1799 2.29974E+01 2.40912E+00 8.38476E-02-2.46847E+00-2.60403E-13 3.10404E-13
 -1      1800 2.17360E+01 2.91365E-01-4.82417E-03 2.11046E-01 2.08941E-13 7.55142E-13
 -1      1801 2.20956E+01 4.27168E-01-1.03030E-02 5.85437E-01 2.17999E-13 8.34970E-13
 -1      1802 2.20862E+01 8.17267E-01-1.11649E-03 8.72492E-01 2.64226E-13 6.55273E-13
 -1      1803 2.27250E+01 1.72512E+00 7.70371E-02-1.68979E+00-2.66741E-13 2.10873E-13
 -1      1804 2.21522E+01 5.28883E-01 3.35555E-02-2.59021E-01-2.28925E-13 1.81816E-13
 -1      1805 2.19619E+01 3.97670E-01 1.42983E-02 5.24723E-02-2.00862E-13 1.31183E-13
 -1      1806 2.19225E+01 3.10815E-01 2.72608E-02 3.34786E-01-1.87566E-13 1.37211E-13
 -1      1807 2.19932E+01 2.34138E-01 1.41102E-02 5.03195E-01-1.59633E-13 7.80695E-14
 -1      1808 2.18434E+01 5.54118E-01-9.90529E-03 1.58383E-01-2.28508E-13 3.51329E-14
 -1      1809 2.20587E+01 1.81345E-01 1.63236E-02 6.77573E-01-1.18424E-13 7.80825E-14
 -1      1810 2.22597E+01 1.24219E-01 7.08833E-03 7.70046E-01-8.86270E-14 3.24116E-14
 -1      1811 2.18691E+01 3.16913E-01-9.11553E-03 6.80600E-01-1.65232E-13 2.91243E-14
 -1      1812 2.24119E+01 7.20234E-02 8.61142E-03 8.59586E-01-6.71478E-14 4.63709E-14
 -1      1813 2.26740E+01 5.48230E-03-1.44910E-03 8.82987E-01-5.32488E-14 3.96037E-14
 -1      1814 2.20921E+01 1.43226E-01-8.23984E-03 9.84185E-01-8.37598E-14 1.34992E-14
 -1      1815 2.28922E+01-6.25382E-02 4.49094E-03 8.79818E-01-4.21035E-14 5.01916E-14
 -1      1816 2.31495E+01-1.52956E-01-1.11340E-02 8.17383E-01-2.88311E-15 3.79904E-14
 -1      1817 2.24619E+01-5.21104E-02-7.38319E-03 1.09199E+00-3.95452E-14 1.08498E-14
 -1      1818 2.34113E+01-2.43016E-01 2.49832E-03 6.94970E-01 3.11470E-15 5.51443E-14
 -1      1819 2.35919E+01-3.56006E-01-2.10048E-02 5.22706E-01-8.31973E-15 5.29776E-14
 -1      1820 2.29329E+01-3.08516E-01-6.04448E-03 9.68895E-01-2.33147E-15 2.98737E-14
 -1      1821 2.38631E+01-4.55849E-01 9.83939E-04 2.54049E-01-1.48510E-14 8.53948E-14
 -1      1822 2.38927E+01-5.60401E-01-2.72358E-02-3.53807E-02-2.21004E-15 9.87713E-14
 -1      1823 2.34503E+01-6.16507E-01-3.09483E-03 5.56418E-01 5.10876E-15 3.20614E-14
 -1      1824 2.41115E+01-6.24910E-01-2.37537E-03-4.42235E-01-2.94278E-14 1.55147E-13
 -1      1825 2.39363E+01-6.47792E-01-2.33978E-02-8.02025E-01-3.32373E-14 1.31502E-13
 -1      1826 2.39264E+01-8.82596E-01 3.20330E-03-1.72217E-01 2.24950E-14 1.10363E-13
 -1      1827 2.40061E+01-5.97007E-01-1.03321E-02-1.24797E+00-4.34019E-14 1.58826E-13
 -1      1828 2.36347E+01-4.47952E-01-5.91299E-03-1.54238E+00-6.53401E-14 1.11661E-13
 -1      1829 2.42178E+01-9.03068E-01 1.24146E-02-1.11594E+00-5.82529E-14 1.89972E-13
 -1      1830 2.34769E+01-2.18006E-01-2.07851E-02-1.80501E+00-8.25432E-14 9.25232E-14
 -1      1831 2.30164E+01 1.15619E-01 1.71675E-02-1.83445E+00-1.11999E-13 3.85386E-14
 -1      1832 2.41555E+01-4.55032E-01 1.48844E-02-1.93533E+00-8.92781E-14 1.70374E-13
 -1      1833 2.26917E+01 4.65960E-01-2.27258E-02-1.65876E+00-1.26104E-13-9.65547E-15
 -1      1834 2.23327E+01 8.16408E-01 2.45062E-02-1.29689E+00-1.22385E-13-4.16325E-14
 -1      1835 2.37059E+01 4.53359E-01-2.05082E-03-2.08467E+00-1.50734E-13 1.31507E-13
 -1      1836 2.20974E+01 1.05665E+00-9.01436E-03-6.43368E-01-1.31891E-13-1.25445E-13
 -1      1837 2.20260E+01 1.15613E+00 5.72955E-03-1.65339E-02-1.56056E-13-1.24347E-13
 -1      1838 2.31630E+01 1.36921E+00-3.21036E-02-1.17885E+00-1.83225E-13 3.59246E-14
 -1      1839 2.21199E+01 1.07965E+00 1.53757E-02 7.73338E-01-1.87413E-13-1.99434E-13
 -1      1840 2.23826E+01 8.42411E-01-1.70018E-02 1.31671E+00-1.44502E-13-1.97516E-13
 -1      1841 2.30234E+01 1.61237E+00-4.70279E-02 4.63895E-01-2.06193E-13-9.96658E-14
 -1      1842 2.27243E+01 5.21041E-01 2.38606E-02 1.77945E+00-1.35147E-13-3.51179E-13
 -1      1843 2.32015E+01 1.46551E-01-2.29886E-02 1.96715E+00-4.61601E-14-3.96337E-13
 -1      1844 2.34539E+01 1.00639E+00-2.05918E-02 1.87522E+00-2.12380E-13-2.55379E-13
 -1      1845 2.35026E+01-1.70392E-01 7.84811E-03 1.92553E+00-6.70067E-14-5.04045E-13
 -1      1846 2.39904E+01-4.31839E-01-1.51539E-02 1.75543E+00-1.24877E-13-5.06529E-13
 -1      1847 2.40744E+01 1.85883E-02 1.00128E-02 2.30401E+00-1.35895E-13-5.13932E-13
 -1      1848 2.40694E+01-5.81364E-01-1.53190E-02 1.37671E+00-5.88973E-14-5.13752E-13
 -1      1849 2.44057E+01-6.46452E-01-5.87440E-03 1.03020E+00-2.02598E-14-5.09594E-13
 -1      1850 2.44224E+01-7.18145E-01 1.73618E-02 1.78728E+00-8.71798E-14-5.53048E-13
 -1      1851 2.42784E+01-6.36789E-01-2.75393E-02 5.77723E-01 2.33355E-14-4.64908E-13
 -1      1852 2.44004E+01-5.68282E-01-8.39950E-04 2.35640E-01-1.32377E-14-4.10997E-13
 -1      1853 2.43589E+01-9.42329E-01 9.85150E-03 8.47813E-01 2.20527E-14-4.40242E-13
 -1      1854 2.41622E+01-4.82909E-01-2.67367E-02-1.23157E-01-7.82031E-14-3.14310E-13
 -1      1855 2.40909E+01-3.72260E-01 2.94731E-04-3.68525E-01 2.06710E-14-3.03146E-13
 -1      1856 2.40008E+01-7.89478E-01 1.27024E-03-4.01751E-02-1.72917E-14-3.17350E-13
 -1      1857 2.38198E+01-2.78601E-01-1.88977E-02-5.85555E-01 4.05873E-14-2.87528E-13
 -1      1858 2.36162E+01-1.81386E-01 3.26634E-04-7.19567E-01 9.57012E-14-3.07227E-13
 -1      1859 2.35097E+01-4.98583E-01-2.88709E-03-6.58512E-01 5.62692E-14-2.35046E-13
 -1      1860 2.33524E+01-1.09771E-01-9.87611E-03-8.13796E-01 1.85624E-13-2.70713E-13
 -1      1861 2.30801E+01-4.39675E-02 3.45307E-04-8.60068E-01 1.36273E-13-1.50449E-13
 -1      1862 2.29911E+01-2.30037E-01-3.91111E-03-9.87454E-01 1.44226E-13-1.46039E-13
 -1      1863 2.28395E+01 7.20081E-04-2.68889E-03-8.70467E-01 3.16481E-14-3.18886E-15
 -1      1864 2.25484E+01 3.73368E-02 6.00903E-04-8.60863E-01 1.45110E-13 3.38160E-14
 -1      1865 2.24960E+01-4.16263E-02-3.75185E-03-1.09375E+00 2.04019E-13-1.11031E-14
 -1      1866 2.23357E+01 6.06059E-02 1.96213E-03-8.23255E-01 1.79498E-13-2.20822E-14
 -1      1867 2.20579E+01 7.65155E-02 9.55871E-04-7.84240E-01 2.20773E-13 4.77994E-14
 -1      1868 2.20458E+01 6.73626E-02-3.38296E-03-1.05867E+00 1.65111E-13 9.24767E-14
 -1      1869 2.18740E+01 8.57028E-02 4.43667E-03-7.24391E-01 1.66104E-13-1.29004E-13
 -1      1870 2.16267E+01 8.90621E-02 1.25552E-03-6.73830E-01 4.15093E-14-1.18741E-13
 -1      1871 2.16486E+01 1.18080E-01-3.05702E-03-9.48318E-01 1.56630E-13-6.78562E-14
 -1      1872 2.14708E+01 9.01222E-02 5.38215E-03-6.07831E-01-2.33765E-14-1.41524E-13
 -1      1873 2.12608E+01 8.68448E-02 1.42369E-03-5.56205E-01-2.56514E-14-1.17439E-13
 -1      1874 2.13064E+01 1.32482E-01-2.78632E-03-8.07636E-01 6.48389E-14-2.22428E-13
 -1      1875 2.11310E+01 8.37820E-02 5.39525E-03-4.92973E-01-2.93916E-14-7.53039E-14
 -1      1876 2.09588E+01 7.75820E-02 1.45861E-03-4.45643E-01-6.57853E-14-1.13690E-13
 -1      1877 2.10180E+01 1.27059E-01-2.53301E-03-6.63578E-01-2.62941E-14-2.08674E-13
 -1      1878 2.08528E+01 7.28040E-02 4.91634E-03-3.89439E-01-5.57937E-14-6.53042E-14
 -1      1879 2.07152E+01 6.57882E-02 1.39184E-03-3.48627E-01-3.27093E-14-1.03117E-14
 -1      1880 2.07798E+01 1.12417E-01-2.27134E-03-5.30436E-01-5.43569E-14-9.85935E-14
 -1      1881 2.06301E+01 6.06232E-02 4.22957E-03-3.00954E-01 1.92394E-14-2.13582E-15
 -1      1882 2.05228E+01 5.38757E-02 1.26165E-03-2.67132E-01 1.17565E-13 1.52841E-13
 -1      1883 2.05868E+01 9.47008E-02-1.99670E-03-4.14512E-01 7.94425E-14-6.20640E-14
 -1      1884 2.04557E+01 4.89922E-02 3.50044E-03-2.27987E-01 2.13855E-14 1.53959E-13
 -1      1885 2.03736E+01 4.29998E-02 1.10037E-03-2.00744E-01-2.23154E-14 2.22630E-14
 -1      1886 2.04332E+01 7.71598E-02-1.71747E-03-3.17480E-01 2.00680E-14-1.07383E-14
 -1      1887 2.03216E+01 3.86900E-02 2.81561E-03-1.69384E-01-1.77587E-13 6.44854E-15
 -1      1888 2.02600E+01 3.36131E-02 9.31165E-04-1.47925E-01-3.34563E-13-1.43911E-13
 -1      1889 2.03131E+01 6.13182E-02-1.44590E-03-2.38551E-01-1.41618E-13-1.02970E-13
 -1      1890 2.02204E+01 2.99660E-02 2.21384E-03-1.23308E-01-3.46997E-13-2.62718E-13
 -1      1891 2.01750E+01 2.57980E-02 7.68764E-04-1.06724E-01-3.13165E-13-2.02208E-13
 -1      1892 2.02208E+01 4.77428E-02-1.19276E-03-1.75780E-01-3.54987E-13-3.09659E-13
 -1      1893 2.01454E+01 2.27995E-02 1.70679E-03-8.77486E-02-1.68207E-13-1.77854E-13
 -1      1894 2.01128E+01 1.94568E-02 6.21441E-04-7.51569E-02 4.38751E-14-1.10139E-13
 -1      1895 2.01512E+01 3.65007E-02-9.65344E-04-1.26815E-01-2.26915E-13-9.74866E-14
 -1      1896 2.00911E+01 1.70454E-02 1.29197E-03-6.07820E-02 2.67621E-14-1.06067E-13
 -1      1897 2.00682E+01 1.44156E-02 4.93005E-04-5.13884E-02 2.74339E-14-1.57998E-13
 -1      1898 2.00996E+01 2.74194E-02-7.67290E-04-8.92899E-02 1.19334E-14-2.54280E-14
 -1      1899 2.00526E+01 1.25117E-02 9.60216E-04-4.06890E-02-9.00715E-14-2.79880E-13
 -1      1900 2.00370E+01 1.04783E-02 3.84379E-04-3.38100E-02-1.28663E-13-4.07878E-13
 -1      1901 2.00623E+01 2.02287E-02-5.99321E-04-6.10274E-02-1.22146E-13-2.07158E-13
 -1      1902 2.00262E+01 9.00023E-03 6.99895E-04-2.59947E-02-5.32840E-14-4.88634E-13
 -1      1903 2.00160E+01 7.45391E-03 2.94748E-04-2.10596E-02-4.70368E-14-4.58625E-13
 -1      1904 2.00358E+01 1.46339E-02-4.60104E-04-4.01201E-02-1.52794E-13-3.83567E-13
 -1      1905 2.00086E+01 6.32522E-03 4.99129E-04-1.54697E-02-1.05333E-14-3.56531E-13
 -1      1906 2.00024E+01 5.16942E-03 2.22344E-04-1.20123E-02 3.13104E-14-3.24317E-13
 -1      1907 2.00177E+01 1.03531E-02-3.47055E-04-2.49519E-02 3.07179E-14-2.60926E-13
 -1      1908 1.99976E+01 4.32197E-03 3.46867E-04-8.11083E-03 1.83432E-13-3.00409E-13
 -1      1909 1.99941E+01 3.47398E-03 1.64956E-04-5.75778E-03 2.83767E-13-4.83556E-14
 -1      1910 2.00057E+01 7.13243E-03-2.56958E-04-1.41876E-02 1.91872E-13-8.22835E-14
 -1      1911 1.99913E+01 2.84905E-03 2.33347E-04-3.11516E-03 1.92731E-13-1.35365E-13
 -1      1912 1.99897E+01 2.23965E-03 1.20240E-04-1.57212E-03 1.48059E-13-1.82740E-13
 -1      1913 1.99982E+01 4.75249E-03-1.86405E-04-6.74552E-03 1.41240E-13-2.59557E-13
 -1      1914 1.99882E+01 1.78771E-03 1.50233E-04 1.49232E-04 2.39700E-13-1.01326E-13
 -1      1915 1.99878E+01 1.35991E-03 8.59051E-05 1.11003E-03 2.05309E-13-2.59034E-14
 -1      1916 1.99939E+01 3.02794E-03-1.32079E-04-1.76546E-03 2.67871E-13-2.47998E-13
 -1      1917 1.99872E+01 1.03978E-03 9.05669E-05 2.17059E-03 7.91905E-16-9.88294E-14
 -1      1918 1.99877E+01 7.47085E-04 5.97953E-05 2.72198E-03 5.23787E-14-9.09632E-14
 -1      1919 1.99919E+01 1.80497E-03-9.09190E-05 1.42429E-03 8.57634E-14-3.58151E-14
 -1      1920 1.99877E+01 5.24822E-04 4.86515E-05 3.31829E-03-5.10865E-14-9.13970E-14
 -1      1921 1.99886E+01 3.29426E-04 3.99175E-05 3.58796E-03 1.05113E-13 4.66732E-15
 -1      1922 1.99913E+01 9.57276E-04-6.02139E-05 3.33787E-03 1.93903E-14 7.12328E-16
 -1      1923 1.99890E+01 1.76964E-04 1.99017E-05 3.86391E-03 2.94758E-13-1.38699E-13
 -1      1924 1.99902E+01 4.78599E-05 2.44496E-05 3.94249E-03 4.44164E-14-1.13552E-13
 -1      1925 1.99917E+01 3.81424E-04-3.76337E-05 4.35904E-03 2.40762E-14-1.79913E-13
 -1      1926 1.99908E+01-5.83352E-05 7.30330E-07 3.99857E-03-1.79240E-13 1.38763E-13
 -1      1927 1.99920E+01-1.47222E-04 1.17775E-05 3.94577E-03-8.05360E-14 2.23637E-13
 -1      1928 1.99927E+01-7.99205E-06-2.12332E-05 4.76395E-03-2.09804E-15-2.26014E-13
 -1      1929 1.99927E+01-2.27545E-04-1.15140E-05 3.84626E-03-8.12724E-14 3.48011E-13
 -1      1930 1.99940E+01-2.98977E-04 6.39729E-07 3.69529E-03 1.74892E-13 3.52426E-13
 -1      1931 1.99940E+01-2.83104E-04-9.44902E-06 4.73978E-03 6.09258E-14 3.38606E-13
 -1      1932 1.99946E+01-3.71584E-04-1.84502E-05 3.47427E-03 1.40852E-13 2.85009E-13
 -1      1933 1.99958E+01-4.45031E-04-8.81867E-06 3.23507E-03 9.26716E-14 2.62611E-13
 -1      1934 1.99954E+01-5.06626E-04-1.09494E-06 4.39988E-03 8.78058E-14 4.12440E-13
 -1      1935 1.99964E+01-5.28224E-04-2.10722E-05 2.90574E-03 1.98616E-14 1.89453E-13
 -1      1936 1.99973E+01-6.16102E-04-1.61687E-05 2.56819E-03-8.37996E-14 1.67004E-13
 -1      1937 1.99967E+01-7.30209E-04 4.11115E-06 3.79839E-03 1.90415E-14 2.98512E-13
 -1      1938 1.99979E+01-6.84396E-04-1.89239E-05 2.15314E-03-4.29246E-14 7.09786E-14
 -1      1939 1.99985E+01-7.79556E-04-2.34156E-05 1.72381E-03 2.27033E-14 8.55835E-14
 -1      1940 1.99988E+01-1.12289E-03 7.57712E-06 2.01248E-03-2.11971E-13 2.24886E-14
 -1      1941 1.99979E+01-9.61125E-04 1.10909E-05 2.98036E-03-1.34163E-13 1.39716E-13
 -1      1942 2.15932E+01 1.39010E-01 8.89328E-03-1.82983E-01 1.72870E-13 6.35710E-13
 -1      1943 2.16706E+01 2.01732E-01 1.68971E-02-7.52470E-03 1.87092E-13 7.14914E-13
 -1      1944 2.17269E+01 3.39551E-01-4.44727E-03 1.09242E-01 2.23706E-13 5.63185E-13
 -1      1945 2.16966E+01 5.38120E-02 5.50229E-03-3.70619E-01 1.20933E-13 5.42396E-13
 -1      1946 2.16227E+01 9.22860E-02 1.33263E-02-2.86110E-01 1.24938E-13 5.75101E-13
 -1      1947 2.16447E+01 1.48979E-01-4.38202E-03-2.85046E-01 1.70346E-13 4.67980E-13
 -1      1948 2.19305E+01-1.71483E-02 4.84954E-04-4.17557E-01 7.62226E-14 5.13686E-13
 -1      1949 2.17926E+01 1.54003E-02 6.22708E-03-3.95881E-01 8.72006E-14 5.22284E-13
 -1      1950 2.17624E+01 3.15190E-02-4.37409E-03-4.58994E-01 1.14947E-13 4.10133E-13
 -1      1951 2.21891E+01-9.10490E-02-3.57341E-03-3.35196E-01 2.64849E-14 4.91230E-13
 -1      1952 2.20524E+01-5.89951E-02 7.59168E-04-3.73867E-01 4.69516E-14 4.98676E-13
 -1      1953 2.19817E+01-7.31216E-02-3.01617E-03-4.63144E-01 5.83140E-14 3.79085E-13
 -1      1954 2.23737E+01-1.66735E-01-6.11371E-03-1.19951E-01 7.10109E-14 4.47153E-13
 -1      1955 2.22951E+01-1.37619E-01-3.02476E-03-2.22750E-01 3.96757E-14 4.72227E-13
 -1      1956 2.22147E+01-1.80537E-01-2.53383E-04-3.05704E-01 5.05646E-14 3.35552E-13
 -1      1957 2.23920E+01-2.25442E-01-6.27311E-03 2.17088E-01 7.92569E-14 3.68502E-13
 -1      1958 2.24212E+01-2.09420E-01-5.46317E-03 5.43498E-02 6.98469E-14 4.08186E-13
 -1      1959 2.23763E+01-2.78890E-01 3.67094E-03 9.54356E-03 9.59198E-14 2.93661E-13
 -1      1960 2.21735E+01-2.32037E-01-3.37875E-03 6.19839E-01 7.89048E-14 3.28691E-13
 -1      1961 2.23419E+01-2.45025E-01-6.39396E-03 4.24044E-01 7.76506E-14 3.64252E-13
 -1      1962 2.23848E+01-3.31309E-01 7.93514E-03 4.47355E-01 9.00113E-14 2.94346E-13
 -1      1963 2.17007E+01-1.48500E-01 1.57031E-03 9.66849E-01-7.10135E-14 3.78701E-13
 -1      1964 2.20042E+01-2.03764E-01-5.46152E-03 7.97304E-01-1.80862E-14 3.29214E-13
 -1      1965 2.21789E+01-2.84574E-01 1.08030E-02 9.08626E-01 5.25621E-16 3.43986E-13
 -1      1966 2.10494E+01 3.30990E-02 5.14577E-03 1.08860E+00 6.56294E-14 4.05349E-13
 -1      1967 2.14323E+01-5.87826E-02-2.39316E-03 1.02726E+00-1.35733E-14 3.82229E-13
 -1      1968 2.17539E+01-1.01846E-01 9.22528E-03 1.22147E+00-3.27438E-14 3.55025E-13
 -1      1969 2.04090E+01 2.55055E-01 3.84189E-03 8.50082E-01 1.10808E-13 4.42288E-13
 -1      1970 2.07648E+01 1.62729E-01 2.74212E-03 9.59461E-01 8.63129E-14 4.33317E-13
 -1      1971 2.12067E+01 1.88024E-01 1.78357E-03 1.19159E+00 8.20689E-14 3.80322E-13
 -1      1972 2.00338E+01 4.04284E-01-2.04751E-03 2.67469E-01 1.75485E-13 3.46990E-13
 -1      1973 2.02353E+01 3.63588E-01 8.24878E-03 5.35438E-01 1.57617E-13 3.92667E-13
 -1      1974 2.07406E+01 4.68214E-01-8.00353E-03 7.24602E-01 1.82365E-13 3.47501E-13
 -1      1975 2.01113E+01 3.89668E-01-6.40205E-03-4.48248E-01 1.60705E-13 2.14501E-13
 -1      1976 2.00706E+01 4.29202E-01 1.21425E-02-1.23243E-01 1.25604E-13 2.66962E-13
 -1      1977 2.05795E+01 5.86629E-01-1.32322E-02-5.87746E-02 1.77955E-13 2.70416E-13
 -1      1978 2.06341E+01 2.21707E-01-4.53744E-03-1.00197E+00 5.35197E-14 1.81969E-13
 -1      1979 2.03524E+01 3.18720E-01 1.18462E-02-7.52855E-01 1.34533E-13 1.91883E-13
 -1      1980 2.08212E+01 4.76110E-01-7.60917E-03-8.45377E-01 1.64764E-13 1.49380E-13
 -1      1981 2.13973E+01 1.63546E-03 8.77641E-04-1.20017E+00-1.06870E-14 1.05398E-13
 -1      1982 2.09704E+01 1.02194E-01 6.43436E-03-1.10855E+00 3.88838E-15 1.51646E-13
 -1      1983 2.13612E+01 1.97960E-01 7.03242E-04-1.32019E+00 4.33915E-14 8.38166E-14
 -1      1984 2.21347E+01-1.63113E-01 5.97932E-03-1.04773E+00 9.40081E-14 2.24577E-14
 -1      1985 2.16970E+01-1.02105E-01-1.20373E-03-1.10722E+00 5.08695E-14 6.46601E-14
 -1      1986 2.19730E+01-9.66422E-02 4.85781E-03-1.35772E+00 1.15299E-13 2.69342E-14
 -1      1987 2.26572E+01-2.29972E-01 7.73939E-03-6.87920E-01 1.29152E-13-7.57523E-14
 -1      1988 2.23181E+01-2.17321E-01-7.15900E-03-8.36029E-01 1.64015E-13 6.35776E-16
 -1      1989 2.24564E+01-2.85795E-01 4.34295E-03-1.04985E+00 1.85845E-13-6.30156E-14
 -1      1990 2.28986E+01-2.15684E-01 6.40376E-03-2.84510E-01-2.41187E-14-1.01000E-13
 -1      1991 2.27098E+01-2.36419E-01-9.80621E-03-4.52145E-01 2.59220E-14-8.75671E-14
 -1      1992 2.27157E+01-3.38773E-01 1.75027E-03-5.86850E-01 6.02175E-14-1.33559E-13
 -1      1993 2.28859E+01-1.59860E-01 3.71923E-03 5.27990E-02-6.98486E-14-6.12045E-14
 -1      1994 2.28458E+01-1.93690E-01-9.46773E-03-8.85335E-02-4.84578E-14-4.48106E-14
 -1      1995 2.27502E+01-2.92632E-01-3.21914E-04-1.36340E-01-5.56135E-14-8.99224E-14
 -1      1996 2.26887E+01-9.60922E-02 1.22282E-03 2.81255E-01-9.14980E-15-8.04469E-14
 -1      1997 2.27644E+01-1.28618E-01-7.36516E-03 1.84308E-01-9.17773E-14-6.62899E-14
 -1      1998 2.26092E+01-2.03354E-01-1.18609E-03 2.08995E-01-4.04373E-14-2.15911E-13
 -1      1999 2.23818E+01-4.26082E-02-4.02431E-04 4.04166E-01 1.49994E-13-7.49704E-14
 -1      2000 2.25314E+01-6.73305E-02-4.68189E-03 3.50699E-01 7.28037E-14-2.20878E-14
 -1      2001 2.23553E+01-1.12823E-01-1.17617E-03 4.24982E-01 6.38161E-14-9.21264E-14
 -1      2002 2.20275E+01-5.11487E-03-1.17527E-03 4.45567E-01-1.17799E-14-1.22039E-13
 -1      2003 2.22131E+01-2.09633E-02-2.20575E-03 4.26009E-01 9.14154E-14-1.13635E-13
 -1      2004 2.20436E+01-4.14308E-02-8.62030E-04 5.27538E-01 1.29268E-13-1.56711E-13
 -1      2005 2.16699E+01 1.75114E-02-1.35529E-03 4.33159E-01-2.94344E-13-8.97884E-14
 -1      2006 2.18633E+01 9.04796E-03-3.05638E-04 4.36264E-01-2.05277E-13-1.32859E-13
 -1      2007 2.17161E+01 6.24991E-03-5.78056E-04 5.47357E-01-1.71768E-13-7.94653E-14
 -1      2008 2.13369E+01 2.88571E-02-1.21410E-03 3.90313E-01-1.51227E-13 1.72357E-13
 -1      2009 2.15198E+01 2.56170E-02 9.53094E-04 4.06485E-01-2.47626E-13 3.04938E-14
 -1      2010 2.14012E+01 3.34635E-02-4.19943E-04 5.15042E-01-2.56093E-13-9.49002E-16
 -1      2011 2.10431E+01 3.26645E-02-9.46266E-04 3.33859E-01 4.75162E-15 2.81929E-13
 -1      2012 2.12054E+01 3.26972E-02 1.65818E-03 3.56114E-01-3.95083E-15 2.80667E-13
 -1      2013 2.11156E+01 4.58222E-02-3.69778E-04 4.54941E-01-1.16640E-13 2.12196E-13
 -1      2014 2.07941E+01 3.19439E-02-6.63496E-04 2.74625E-01 1.15637E-14 3.30758E-13
 -1      2015 2.09319E+01 3.37860E-02 1.95077E-03 2.98417E-01 5.95986E-15 2.85088E-13
 -1      2016 2.08675E+01 4.86170E-02-3.78059E-04 3.84022E-01-4.03367E-15 3.38589E-13
 -1      2017 2.05899E+01 2.88219E-02-4.17945E-04 2.18865E-01-1.01095E-13 2.63833E-13
 -1      2018 2.07027E+01 3.14886E-02 1.96918E-03 2.41523E-01-8.78629E-14 2.88139E-13
 -1      2019 2.06593E+01 4.59058E-02-4.02778E-04 3.12920E-01-3.02856E-14 3.08659E-13
 -1      2020 2.04270E+01 2.46763E-02-2.26603E-04 1.69696E-01 8.41094E-14 2.15534E-13
 -1      2021 2.05166E+01 2.75586E-02 1.82536E-03 1.89851E-01 3.26386E-14 3.07539E-13
 -1      2022 2.04895E+01 4.04635E-02-4.19524E-04 2.47591E-01 1.06130E-14 2.84528E-13
 -1      2023 2.03001E+01 2.03361E-02-8.87528E-05 1.28247E-01-1.99921E-14 1.03027E-13
 -1      2024 2.03695E+01 2.30886E-02 1.60010E-03 1.45363E-01-5.17381E-15 1.18757E-13
 -1      2025 2.03544E+01 3.40364E-02-4.18799E-04 1.90829E-01 8.86752E-14 2.65807E-13
 -1      2026 2.02036E+01 1.62591E-02 3.69812E-06 9.44790E-02-5.58592E-14 9.16622E-14
 -1      2027 2.02560E+01 1.87087E-02 1.34682E-03 1.08517E-01-2.65126E-14 5.19642E-14
 -1      2028 2.02494E+01 2.76403E-02-4.00261E-04 1.43452E-01-2.47278E-14-2.66766E-14
 -1      2029 2.01319E+01 1.26662E-02 6.07804E-05 6.77298E-02 1.35209E-13-2.25580E-13
 -1      2030 2.01705E+01 1.47463E-02 1.09802E-03 7.89218E-02 2.42966E-14-6.34888E-14
 -1      2031 2.01695E+01 2.18093E-02-3.67905E-04 1.05133E-01 1.31356E-13-1.24008E-13
 -1      2032 2.00799E+01 9.63472E-03 9.19454E-05 4.70590E-02 6.38699E-14-6.71732E-14
 -1      2033 2.01077E+01 1.13405E-02 8.71453E-04 5.57646E-02 1.41515E-13-1.33456E-13
 -1      2034 2.01102E+01 1.67772E-02-3.26970E-04 7.49502E-02 7.70953E-14-2.12389E-13
 -1      2035 2.00434E+01 7.15964E-03 1.05108E-04 3.14538E-02-1.19884E-14-4.63232E-14
 -1      2036 2.00627E+01 8.51962E-03 6.75209E-04 3.80716E-02-4.61011E-14-2.80185E-14
 -1      2037 2.00672E+01 1.26005E-02-2.82307E-04 5.17385E-02-8.93345E-15-1.50839E-13
 -1      2038 2.00185E+01 5.19291E-03 1.06453E-04 1.99448E-02 9.61284E-14 1.08870E-14
 -1      2039 2.00314E+01 6.25075E-03 5.11362E-04 2.48630E-02 4.64212E-14-3.45017E-14
 -1      2040 2.00369E+01 9.23771E-03-2.37700E-04 3.42921E-02 6.62934E-14 1.57355E-14
 -1      2041 2.00024E+01 3.66725E-03 1.00581E-04 1.16645E-02 1.92742E-13-1.16233E-13
 -1      2042 2.00106E+01 4.47133E-03 3.78513E-04 1.52344E-02 2.09806E-13-1.12471E-13
 -1      2043 2.00162E+01 6.59951E-03-1.95752E-04 2.14807E-02 3.03952E-13 1.89615E-13
 -1      2044 1.99925E+01 2.51042E-03 9.07667E-05 5.87036E-03 2.65248E-14-2.04074E-13
 -1      2045 1.99973E+01 3.10776E-03 2.73459E-04 8.39544E-03 9.47531E-14-1.90537E-13
 -1      2046 2.00028E+01 4.57811E-03-1.58019E-04 1.23051E-02 1.98675E-13-2.87299E-14
 -1      2047 1.99872E+01 1.65303E-03 7.92380E-05 1.94815E-03 7.06623E-14-1.79246E-13
 -1      2048 1.99896E+01 2.08627E-03 1.92245E-04 3.68150E-03 2.98829E-14-2.40522E-13
 -1      2049 1.99946E+01 3.06449E-03-1.25235E-04 5.91720E-03 5.45512E-15-1.42463E-13
 -1      2050 1.99850E+01 1.03250E-03 6.74172E-05-5.96387E-04-1.11247E-13-1.81150E-13
 -1      2051 1.99858E+01 1.33860E-03 1.30789E-04 5.50294E-04-5.55902E-14-2.28368E-13
 -1      2052 1.99901E+01 1.95747E-03-9.75482E-05 1.61991E-03-4.37042E-14 5.40640E-15
 -1      2053 1.99848E+01 5.94536E-04 5.61198E-05-2.15077E-03 2.11636E-14 3.31372E-14
 -1      2054 1.99846E+01 8.04568E-04 8.52379E-05-1.42892E-03-1.64125E-14-9.93547E-14
 -1      2055 1.99882E+01 1.16777E-03-7.47187E-05-1.14441E-03-1.58520E-13 7.25715E-14
 -1      2056 1.99859E+01 2.93087E-04 4.57054E-05-3.01066E-03-3.09549E-13-2.89032E-13
 -1      2057 1.99850E+01 4.32675E-04 5.21332E-05-2.58943E-03-8.08248E-14-1.08337E-13
 -1      2058 1.99880E+01 6.19041E-04-5.62737E-05-2.81029E-03-3.99231E-14-1.01675E-14
 -1      2059 1.99878E+01 8.94738E-05 3.61890E-05-3.39414E-03-2.56089E-13-2.47747E-13
 -1      2060 1.99866E+01 1.79542E-04 2.84703E-05-3.18145E-03-3.73236E-13-3.82038E-13
 -1      2061 1.99888E+01 2.47184E-04-4.16183E-05-3.70654E-03-2.91547E-13 1.52260E-14
 -1      2062 1.99900E+01-4.90942E-05 2.73428E-05-3.45404E-03 2.39748E-13-2.39707E-13
 -1      2063 1.99886E+01 8.65340E-06 1.17141E-05-3.38528E-03-5.46138E-14-3.32386E-13
 -1      2064 1.99903E+01-1.49221E-06-3.01134E-05-4.07264E-03 5.71619E-16-1.38744E-13
 -1      2065 1.99923E+01-1.51492E-04 1.88522E-05-3.28761E-03 3.51840E-13-2.40602E-13
 -1      2066 1.99909E+01-1.11439E-04-1.75489E-07-3.32216E-03 3.90174E-13-3.66935E-14
 -1      2067 1.99921E+01-1.72765E-04-2.10976E-05-4.07271E-03 2.71501E-13-4.00246E-14
 -1      2068 1.99946E+01-2.44151E-04 1.10053E-05-2.94307E-03 1.22228E-13-1.58347E-13
 -1      2069 1.99932E+01-2.09217E-04-8.55971E-06-3.06248E-03 1.70698E-13-2.08452E-13
 -1      2070 1.99940E+01-3.07375E-04-1.37820E-05-3.80664E-03 1.90356E-13-1.56676E-14
 -1      2071 1.99965E+01-3.50076E-04 4.71568E-06-2.42734E-03-1.55138E-13-1.25834E-13
 -1      2072 1.99954E+01-3.09481E-04-1.35483E-05-2.63257E-03 1.85599E-15-7.81805E-14
 -1      2073 1.99958E+01-4.40195E-04-6.61714E-06-3.31833E-03-1.52523E-14 6.74575E-14
 -1      2074 1.99981E+01-4.88046E-04-4.22574E-06-1.71790E-03-8.20289E-14-2.19615E-13
 -1      2075 1.99972E+01-4.29850E-04-1.34335E-05-2.02809E-03-1.36986E-13-1.08726E-13
 -1      2076 1.99974E+01-6.02721E-04-5.17056E-07-2.61688E-03-1.26169E-13 1.16798E-13
 -1      2077 1.99990E+01-6.12064E-04-1.42445E-05-1.05148E-03 2.03801E-13-1.35449E-13
 -1      2078 1.99984E+01-5.63171E-04-1.12798E-05-1.45094E-03 3.72848E-14-1.12825E-13
 -1      2079 1.99985E+01-7.73708E-04 5.66612E-06-1.91193E-03 1.37919E-14 6.39103E-14
 -1      2080 1.99991E+01-9.32424E-04 3.19636E-06-1.29910E-03-4.69606E-15 3.57432E-13
 -1      2081 1.99999E+01-4.74783E-03 7.58673E-06-2.57074E-03 8.63292E-14 3.39694E-13
 -1      2082 1.99998E+01-3.92767E-03-6.94673E-06-2.58397E-03-3.87760E-14 5.90342E-13
 -1      2083 1.99996E+01-3.28964E-03 2.33106E-06-2.50968E-03-1.00602E-13 4.21825E-13
 -1      2084 1.99994E+01-2.51292E-03-1.39861E-05-2.33223E-03-1.48631E-13 3.46248E-13
 -1      2085 1.99996E+01-3.28586E-03-2.78064E-06-3.18663E-03-4.86423E-14 4.93486E-13
 -1      2086 1.99993E+01-2.04370E-03-1.84198E-06-2.05133E-03-2.49455E-13 2.82140E-13
 -1      2087 1.99992E+01-1.39186E-03-1.51658E-05-1.69809E-03-1.77182E-13 4.99523E-13
 -1      2088 1.99989E+01-1.32323E-03-1.16959E-05-2.04437E-03-5.13634E-14 3.44482E-13
 -1      2089 1.99992E+01-2.21465E-03 6.31222E-07-2.78144E-03-2.23546E-13 4.43168E-13
 -1      2090 2.00001E+01-6.07243E-03 1.36425E-05-2.29440E-03-3.58808E-14-4.00039E-13
 -1      2091 2.00000E+01-5.32415E-03 5.17280E-06-2.44988E-03-9.97017E-15 1.37481E-14
 -1      2092 2.00000E+01-4.49212E-03-7.47696E-06-3.12390E-03-1.29574E-13 8.27377E-14
 -1      2093 2.00003E+01-7.17322E-03 1.92766E-05-1.75530E-03 8.77230E-14-4.35911E-13
 -1      2094 2.00002E+01-6.56346E-03 1.46057E-05-2.01855E-03 1.07386E-14-2.08104E-13
 -1      2095 2.00004E+01-5.56237E-03-1.23684E-05-2.67911E-03-1.11479E-13-2.68733E-13
 -1      2096 2.00004E+01-7.91608E-03 2.33581E-05-1.04089E-03 1.05427E-13-6.01096E-13
 -1      2097 2.00004E+01-7.52406E-03 2.13422E-05-1.37174E-03 2.38103E-13-6.35950E-13
 -1      2098 2.00006E+01-6.40849E-03-1.61786E-05-1.94179E-03 1.43581E-13-3.79700E-13
 -1      2099 2.00004E+01-8.23330E-03 2.53978E-05-2.31029E-04 3.73421E-14-1.62130E-13
 -1      2100 2.00004E+01-8.09878E-03 2.48167E-05-5.94714E-04 9.69600E-14-3.35957E-13
 -1      2101 2.00007E+01-6.94607E-03-1.83962E-05-1.01576E-03 2.41920E-13-4.72986E-13
 -1      2102 2.00004E+01-8.09709E-03 2.49651E-05 5.99669E-04-4.84359E-14 7.05327E-14
 -1      2103 2.00004E+01-8.23340E-03 2.53241E-05 2.35791E-04 1.32102E-13-7.94817E-14
 -1      2104 2.00008E+01-7.13032E-03-1.91192E-05 2.71842E-06 1.05756E-13-6.11213E-14
 -1      2105 2.00004E+01-7.52035E-03 2.16431E-05 1.37766E-03-2.19238E-13-3.46944E-13
 -1      2106 2.00004E+01-7.91454E-03 2.31802E-05 1.04645E-03-2.84165E-13-4.33492E-14
 -1      2107 2.00007E+01-6.94624E-03-1.83401E-05 1.02185E-03-1.16516E-13-3.40109E-13
 -1      2108 2.00002E+01-6.57610E-03 1.47593E-05 2.01611E-03-1.55321E-13-6.74774E-14
 -1      2109 2.00003E+01-7.17655E-03 1.91490E-05 1.75641E-03-1.67956E-13-1.94864E-13
 -1      2110 2.00006E+01-6.41429E-03-1.63396E-05 1.94282E-03-8.19445E-14-1.76229E-13
 -1      2111 2.00000E+01-5.32486E-03 4.82021E-06 2.45374E-03 1.77753E-14 5.24200E-13
 -1      2112 2.00001E+01-6.08639E-03 1.37090E-05 2.29504E-03-2.11972E-13 3.62708E-13
 -1      2113 2.00004E+01-5.57652E-03-1.25772E-05 2.67788E-03-3.09866E-14 1.60456E-13
 -1      2114 1.99997E+01-3.91309E-03-7.22266E-06 2.58808E-03 1.33158E-13 2.15337E-13
 -1      2115 1.99999E+01-4.73561E-03 7.75895E-06 2.57682E-03 9.31412E-14 1.96804E-13
 -1      2116 2.00000E+01-4.49530E-03-7.47039E-06 3.12977E-03-6.89205E-14 4.42467E-13
 -1      2117 1.99994E+01-2.47846E-03-1.01981E-05 2.34962E-03-1.02910E-13-8.23917E-14
 -1      2118 1.99996E+01-3.27580E-03 4.89258E-06 2.51173E-03 1.74068E-14-8.33036E-14
 -1      2119 1.99996E+01-3.27747E-03-1.49838E-06 3.18750E-03 4.14871E-14-4.57961E-15
 -1      2120 1.17018E+01-5.10991E+00-7.43600E-02 6.85086E+00 4.43645E-13 8.49029E-13
 -1      2121 7.75576E+00-6.21436E+00-2.34822E-01 5.70811E+00 2.04170E-13 9.69252E-13
 -1      2122 2.55372E-01-7.43290E+00-4.24573E-01 1.00374E+00-7.34413E-14 9.44134E-13
 -1      2123 2.44352E-01-6.92193E+00-3.53022E-01-6.18903E-01-3.91132E-13 1.05144E-12
 -1      2124 3.66672E+00-5.83204E+00-1.97710E-01 4.47719E+00 2.27929E-13 1.20609E-12
 -1      2125 1.39382E+00-7.44152E+00-4.59416E-01 2.59153E+00-5.72875E-14 1.00381E-12
 -1      2126 2.15832E+00-4.78603E+00-1.66357E-01 2.34254E+00-1.45578E-13 1.19538E-12
 -1      2127 2.04588E+01-3.13027E+00 2.65299E-02 6.79369E+00 7.15650E-13 5.88640E-13
 -1      2128 1.56589E+01-4.98227E+00-2.48516E-01 6.28841E+00 5.32796E-13 6.67411E-13
 -1      2129 2.85845E+01-8.19488E-01 1.19684E-02 4.75304E+00 8.19622E-13 4.28213E-13
 -1      2130 2.40571E+01-2.31992E+00-1.32262E-01 5.35304E+00 8.10407E-13 5.57887E-13
 -1      2131 1.94693E+01 4.20686E+00-2.84267E-02-9.17763E-01-1.45313E-13-3.63766E-13
 -1      2132 1.98612E+01 4.12211E+00-1.85506E-02-1.14824E+00-1.89347E-13-3.13860E-13
 -1      2133 2.02962E+01 3.41606E+00-1.74470E-02-1.07434E+00-2.02605E-13-2.67364E-13
 -1      2134 1.94732E+01 3.88700E+00-4.72966E-03-7.29584E-01-1.36021E-13-3.49196E-13
 -1      2135 3.98965E+01 6.23024E+00 3.94727E-01 1.43991E+00 8.89511E-13 6.43929E-14
 -1      2136 3.70730E+01 5.22787E+00 1.61376E-01 2.34922E+00 9.33115E-13 2.82219E-13
 -1      2137 4.04073E+01 7.21780E+00 3.33197E-01-4.20607E-01 8.31557E-13-1.85858E-13
 -1      2138 3.99804E+01 7.06523E+00 2.96268E-01 8.09742E-01 8.80573E-13-4.30211E-15
 -1      2139 3.85563E+01 6.10460E+00 2.18930E-01-2.03393E+00 7.97029E-13-3.66540E-13
 -1      2140 4.08094E+01 6.81572E+00 4.24861E-01-9.71272E-01 7.65610E-13-2.12580E-13
 -1      2141 3.35548E+01 2.98158E+00 1.01275E-01-2.79639E+00 6.84411E-13-4.03455E-13
 -1      2142 3.74921E+01 4.76266E+00 4.36100E-01-2.66231E+00 7.70273E-13-3.78919E-13
 -1      2143 2.64266E+01-1.03580E+00-4.99367E-02-5.25634E+00 5.67324E-13-6.69353E-13
 -1      2144 3.05848E+01 1.43415E-01-5.19402E-03-4.18179E+00 5.12257E-13-5.54889E-13
 -1      2145 1.80939E+01-3.61710E+00-2.63183E-01-6.28920E+00 5.01821E-13-7.15539E-13
 -1      2146 2.29233E+01-1.71914E+00 5.23235E-02-6.81464E+00 6.05016E-13-7.06268E-13
 -1      2147 1.10613E+01-5.95651E+00-2.45645E-01-6.23213E+00 2.27207E-13-6.57349E-13
 -1      2148 1.50672E+01-4.34507E+00-4.97139E-02-7.00402E+00 4.32765E-13-7.33746E-13
 -1      2149 3.26735E+00-7.13527E+00-4.12799E-01-3.92282E+00 8.51541E-14-7.20368E-13
 -1      2150 6.33543E+00-5.58079E+00-1.66739E-01-5.68968E+00 2.47802E-13-7.41351E-13
 -1      2151 8.22946E-01-5.88192E+00-1.98212E-01-9.62572E-01-4.33889E-14-7.85039E-13
 -1      2152 1.46040E+00-6.69768E+00-3.46993E-01-2.59874E+00 1.00808E-13-7.47957E-13
 -1      2153 4.10144E+00-4.52379E+00-1.18838E-01-4.11822E+00-6.51146E-14-8.09020E-13
 -1      2154 2.04754E+00-7.10140E+00-4.18390E-01 3.14643E+00-3.40838E-13-8.13405E-13
 -1      2155 9.00587E-01-6.46597E+00-3.01494E-01 1.74692E+00-8.70831E-14-8.14238E-13
 -1      2156 7.67516E+00-5.76486E+00-2.04656E-01 5.84654E+00-4.96714E-13-7.01494E-13
 -1      2157 4.31452E+00-7.31090E+00-4.62246E-01 4.25210E+00-3.63432E-13-7.74464E-13
 -1      2158 5.03158E+00-5.21993E+00-1.52620E-01 4.75521E+00-4.70179E-14-8.27227E-13
 -1      2159 1.62980E+01-4.00445E+00-6.31548E-02 6.87908E+00-7.54730E-13-6.27304E-13
 -1      2160 1.19509E+01-5.89280E+00-3.36210E-01 6.01679E+00-5.75984E-13-5.84033E-13
 -1      2161 2.51159E+01-1.33787E+00 1.11623E-01 6.50712E+00-7.52953E-13-6.97942E-13
 -1      2162 2.00274E+01-3.31091E+00-2.50976E-01 6.04875E+00-7.61058E-13-6.38156E-13
 -1      2163 3.30417E+01 1.42312E+00 1.79382E-01 4.48872E+00-6.76792E-13-4.06897E-13
 -1      2164 2.84352E+01-1.00033E-01-4.60435E-02 4.98123E+00-7.25559E-13-6.04294E-13
 -1      2165 3.68468E+01 4.48354E+00 9.02554E-02 1.22741E+00-7.29861E-13-1.41664E-13
 -1      2166 3.49121E+01 3.16173E+00 1.53966E-01 2.59749E+00-6.91336E-13-2.89546E-13
 -1      2167 4.09754E+01 7.25237E+00 5.08566E-01 4.70346E-01-8.25284E-13-6.61277E-14
 -1      2168 3.83355E+01 6.67997E+00 1.98094E-01 9.82044E-01-8.45268E-13-1.84464E-13
 -1      2169 4.11004E+01 6.74386E+00 4.49915E-01-1.19064E+00-8.66196E-13 2.78000E-13
 -1      2170 4.15046E+01 7.04836E+00 3.81911E-01 4.44860E-02-8.00360E-13 2.85882E-14
 -1      2171 3.71780E+01 4.51146E+00 2.31839E-01-2.90522E+00-9.45188E-13 4.94049E-13
 -1      2172 4.02926E+01 5.54531E+00 4.57190E-01-1.96452E+00-8.54594E-13 2.73781E-13
 -1      2173 3.07062E+01 9.35613E-01-1.19399E-02-4.24506E+00-1.05616E-12 6.94667E-13
 -1      2174 3.52410E+01 2.60101E+00 3.26372E-01-3.82871E+00-9.86607E-13 5.23470E-13
 -1      2175 2.28736E+01-2.80139E+00-1.97874E-01-5.44434E+00-1.01374E-12 7.31970E-13
 -1      2176 2.79399E+01-8.69914E-01 1.52139E-01-5.58997E+00-1.01125E-12 7.58338E-13
 -1      2177 1.42950E+01-5.39201E+00-3.43047E-01-5.95597E+00-7.59282E-13 9.54320E-13
 -1      2178 1.89806E+01-3.53962E+00-2.02648E-02-6.72292E+00-9.08718E-13 8.64087E-13
 -1      2179 6.33768E+00-7.03106E+00-4.52751E-01-4.83806E+00-7.22977E-13 9.02445E-13
 -1      2180 9.89724E+00-5.38076E+00-2.04306E-01-6.05920E+00-8.02913E-13 1.10550E-12
 -1      2181 1.83611E+00-6.91336E+00-3.46190E-01-2.78449E+00-4.25993E-13 8.64142E-13
 -1      2182 3.80102E+00-6.56518E+00-3.08507E-01-4.16207E+00-6.74572E-13 7.79987E-13
 -1      2183 3.59512E+01 3.69210E+00 3.91036E-01 3.34060E+00 9.49338E-13 3.26295E-13
 -1      2184 3.18592E+01 1.75406E+00 8.65792E-02 3.40028E+00 9.22609E-13 3.87301E-13
 -1      2185 3.02804E+01-3.02559E-01 7.56859E-02 2.90880E+00 7.41934E-13 2.14495E-13
 -1      2186 2.88390E+01-2.25948E+00 1.19931E-01 2.25659E+00 4.80893E-13-1.27343E-13
 -1      2187 3.07695E+01-2.18230E-01-1.74190E-01 6.60464E-01 6.62387E-13-2.06390E-13
 -1      2188 2.21548E+01 1.10823E+00-1.64751E-02-9.59179E-01-2.55490E-13 1.51568E-13
 -1      2189 3.44325E+01 4.16120E+00 1.93320E-01 4.35212E-01 9.10411E-13-1.96509E-14
 -1      2190 2.18939E+01 1.36217E+00-2.23600E-02-8.68479E-01-2.70653E-13 1.56247E-14
 -1      2191 7.56251E+00-5.10923E+00-4.66913E-02 5.90388E+00-6.02296E-14 1.06054E-12
 -1      2192 1.59553E+01-5.59057E+00-5.83890E-02 6.82713E+00 6.17284E-14 5.21076E-13
 -1      2193 1.99992E+01-1.97324E-03-1.17982E-05 2.29790E-03-1.66184E-13-9.94349E-14
 -1      2194 2.40374E+00-4.86477E+00-1.58305E-01-2.19278E+00-2.62776E-13 1.06332E-12
 -1      2195 2.40514E+01-4.11134E+00 7.84787E-02 5.22713E+00 3.44114E-13 2.38448E-13
 -1      2196 7.08469E+00-5.60223E+00-1.69880E-01-5.55120E+00-2.01783E-13 8.19650E-13
 -1      2197 1.47251E+01-5.82359E+00-6.84317E-02-6.67093E+00-3.15303E-13 7.32813E-13
 -1      2198 2.33702E+01-4.72908E+00 4.10092E-02-5.29313E+00-5.09981E-13 4.21468E-13
 -1      2199 3.00856E+01-1.59558E+00 1.31240E-01-2.65592E+00-7.45001E-13 1.84519E-13
 -1      2200 3.47024E+01 2.96033E+00 2.69335E-01-8.09358E-01-8.58702E-13 2.09832E-14
 -1      2201 3.72980E+01 6.69947E+00 4.06860E-01 3.14516E-02-8.81850E-13 4.57134E-14
 -1      2202 3.68814E+01 7.97340E+00 3.12218E-01 1.24596E-04-8.92564E-13 2.48898E-14
 -1      2203 3.58007E+01 5.48083E+00 1.48071E-01 1.03973E-01-7.32747E-13-1.26121E-13
 -1      2204 3.26096E+01 4.11552E+00 2.80947E-02-1.08071E+00-6.37657E-13 4.94327E-14
 -1      2205 3.29613E+01 6.08457E+00-1.46284E-01-1.12265E+00-7.36355E-13-3.36398E-14
 -1      2206 3.30152E+01 1.37790E+00 2.40803E-01 1.17873E+00-5.52371E-13-1.92069E-14
 -1      2207 2.81515E+01-2.36610E+00 1.39094E-01 4.11563E+00-4.79394E-13-2.78277E-13
 -1      2208 1.19939E+01-5.84788E+00-1.15035E-01 6.63691E+00-1.85629E-13-5.46937E-13
 -1      2209 1.86234E+00-4.81835E+00-1.23688E-01 4.59497E-01-1.80862E-14-8.47322E-13
 -1      2210 3.25807E+00-2.68169E+00 5.71416E-02-7.58076E-01-4.41799E-14-7.90035E-13
 -1      2211 3.26799E+00-3.07282E+00 1.46925E-02 1.94355E+00 4.69486E-14-8.52207E-13
 -1      2212 1.08238E+01-5.51592E+00-7.29014E-02-6.70098E+00-7.99361E-15-6.45525E-13
 -1      2213 1.91971E+01-5.25429E+00-5.33189E-02-6.57071E+00 6.91114E-14-4.52693E-13
 -1      2214 2.63023E+01-3.06676E+00 1.59472E-01-4.71867E+00 2.39669E-13-3.58935E-13
 -1      2215 3.18732E+01 9.01614E-01 1.09807E-01-2.29453E+00 4.48998E-13-2.47635E-13
 -1      2216 3.15268E+01 1.16407E+00-1.72661E-01 3.41006E-02 3.91687E-13 1.87517E-13
 -1      2217 3.00035E+01-1.17441E+00 1.16511E-01-1.55364E+00 2.26531E-13 4.72677E-14
 -1      2218 3.51889E+01 5.49617E+00 2.26889E-01-1.48563E-01 7.30804E-13-3.31402E-14
 -1      2219 3.58970E+01 7.46643E+00 3.18218E-01-1.70612E-01 9.17211E-13-1.12826E-13
 -1      2220 3.63034E+01 8.02817E+00 3.46277E-01-8.49441E-02 8.66196E-13-7.19841E-14
 -1      2221 2.06559E+01-4.99239E+00-2.52317E-02 6.19040E+00-3.80140E-13-3.87718E-13
 -1      2222 2.16332E+01 5.08703E-01 4.83616E-03 2.01875E-02 2.25304E-13 4.07895E-13
 -1      2223 2.17548E+01 7.02024E-01 2.07406E-02 3.17373E-01 2.49578E-13 4.44140E-13
 -1      2224 1.82232E+01 4.12695E+00-1.07053E-02-1.83405E-01-8.74301E-15-3.62051E-13
 -1      2225 1.84317E+01 4.05806E+00-5.24055E-03-2.48590E-01-4.30899E-14-3.81276E-13
 -1      2226 1.86911E+01 3.90150E+00-1.43839E-02-2.84469E-01-6.24622E-14-3.81137E-13
 -1      2227 1.90053E+01 3.78189E+00-6.85257E-03-3.84145E-01-9.67590E-14-3.61733E-13
 -1      2228 1.86370E+01 3.68909E+00 3.47931E-03-1.55903E-01-5.21959E-14-3.56283E-13
 -1      2229 1.79983E+01 4.21938E+00-4.86528E-03-7.80156E-02 1.13375E-13-3.19615E-13
 -1      2230 1.79626E+01 4.23548E+00-7.56423E-03-1.26119E-01 8.04588E-14-3.40273E-13
 -1      2231 1.82386E+01 4.09948E+00-3.62557E-03 5.95454E-03 1.67219E-13-2.70701E-13
 -1      2232 1.80901E+01 4.15270E+00-9.72360E-03-6.17898E-02 1.32424E-13-3.00047E-13
 -1      2233 1.80986E+01 3.92792E+00 2.73050E-03-1.15184E-01 1.15345E-13-2.89816E-13
 -1      2234 1.86653E+01 3.88851E+00-4.12453E-03 1.51871E-01 2.24366E-13-2.25113E-13
 -1      2235 1.84286E+01 3.97449E+00-1.19591E-02 5.32618E-02 1.87285E-13-2.50654E-13
 -1      2236 1.84083E+01 3.74798E+00 1.42221E-03-5.86078E-02 1.61416E-13-2.40486E-13
 -1      2237 1.92496E+01 3.58460E+00-6.98571E-03 3.77971E-01 2.78606E-13-1.45472E-13
 -1      2238 1.89385E+01 3.71065E+00-1.44321E-02 2.39403E-01 2.48508E-13-1.93373E-13
 -1      2239 1.89084E+01 3.46503E+00 4.03709E-04 6.99082E-02 2.25134E-13-1.84547E-13
 -1      2240 1.99475E+01 3.17470E+00-1.33303E-02 6.73881E-01 3.21974E-13-6.12262E-14
 -1      2241 1.95844E+01 3.35639E+00-1.71887E-02 5.00705E-01 2.86786E-13-1.12937E-13
 -1      2242 1.95553E+01 3.08460E+00 6.66230E-04 2.71758E-01 2.65570E-13-1.06704E-13
 -1      2243 2.07339E+01 2.60941E+00-2.48851E-02 9.95371E-01 3.48951E-13 7.70252E-14
 -1      2244 2.03301E+01 2.88509E+00-1.95799E-02 8.09808E-01 3.30743E-13-6.78450E-15
 -1      2245 2.02980E+01 2.59770E+00 3.78814E-03 5.14625E-01 3.01642E-13-2.01289E-14
 -1      2246 2.16207E+01 2.43012E-01 3.51969E-03-3.74715E-01 1.79270E-13 3.32932E-13
 -1      2247 2.16274E+01 3.62418E-01 2.04303E-02-2.23537E-01 1.94821E-13 3.91010E-13
 -1      2248 2.15041E+01 6.28736E-01-5.66671E-03-7.10885E-02 2.32002E-13 2.79901E-13
 -1      2249 2.16608E+01 9.82708E-01 1.51834E-02-4.12686E-02-2.29452E-13-1.80424E-14
 -1      2250 2.16064E+01 7.67342E-01 3.19974E-04 3.17612E-01-2.04729E-13-1.97721E-14
 -1      2251 3.27553E+01 4.49614E+00-9.22879E-02-7.29159E-01 8.43048E-13-1.40804E-13
 -1      2252 3.17221E+01 2.56173E+00-8.56828E-02-4.14922E-01 7.66553E-13-1.78579E-13
 -1      2253 2.16349E+01 6.10343E-01 1.66037E-02 6.06842E-01-1.74687E-13 1.21370E-14
 -1      2254 2.16817E+01 4.68837E-01 2.86664E-03 8.27342E-01-1.21944E-13-7.58942E-18
 -1      2255 2.13359E+01 9.33312E-01-4.92338E-03 4.68086E-01-1.85340E-13-5.33809E-14
 -1      2256 2.17530E+01 3.47038E-01 1.29873E-02 1.02628E+00-9.99569E-14 2.46048E-14
 -1      2257 2.18848E+01 2.11799E-01 1.72318E-04 1.14566E+00-7.16619E-14 5.06680E-15
 -1      2258 2.14002E+01 5.52290E-01-7.92685E-03 9.95861E-01-1.12689E-13-2.55828E-15
 -1      2259 2.20320E+01 7.41964E-02 1.14835E-02 1.25171E+00-5.21325E-14-8.95811E-15
 -1      2260 2.22239E+01-9.56436E-02-5.10338E-03 1.26597E+00-2.42973E-14-3.21856E-15
 -1      2261 2.15900E+01 1.96491E-01-1.04210E-02 1.33331E+00-8.03512E-14-2.69110E-15
 -1      2262 2.24717E+01-2.77082E-01 1.28325E-02 1.25746E+00 3.44928E-15-1.02980E-14
 -1      2263 2.26962E+01-5.01090E-01-1.26449E-02 1.14169E+00-4.35329E-15-2.00304E-14
 -1      2264 2.19457E+01-2.39517E-01-1.38230E-02 1.46143E+00-2.82480E-14-3.04414E-14
 -1      2265 2.30653E+01-7.28263E-01 1.52771E-02 9.77424E-01 8.46502E-15-1.55232E-14
 -1      2266 2.32875E+01-9.85047E-01-2.12605E-02 7.03585E-01 4.02135E-14 1.22320E-15
 -1      2267 2.25079E+01-8.01338E-01-1.77913E-02 1.32107E+00-1.18872E-15-4.91723E-14
 -1      2268 2.37692E+01-1.20641E+00 1.46562E-02 3.39109E-01 7.06145E-14 1.03754E-14
 -1      2269 2.39381E+01-1.39719E+00-2.66999E-02-9.00283E-02 4.42719E-14 4.35996E-14
 -1      2270 2.32992E+01-1.42924E+00-1.94815E-02 8.23241E-01 5.20718E-14-6.59290E-14
 -1      2271 2.44461E+01-1.47528E+00 3.70490E-03-6.53076E-01-7.86350E-15 1.08291E-13
 -1      2272 2.44992E+01-1.40141E+00-2.01855E-02-1.14857E+00-3.82945E-14 1.44292E-13
 -1      2273 2.42584E+01-1.87323E+00-1.42742E-02-9.40945E-02 5.14684E-14 2.83459E-15
 -1      2274 2.48257E+01-1.12997E+00-2.63873E-02-1.74967E+00-5.40733E-14 2.04362E-13
 -1      2275 2.47293E+01-6.03889E-01-1.02657E-03-2.07974E+00-1.12094E-13 2.02817E-13
 -1      2276 2.51430E+01-1.63800E+00-1.06057E-04-1.31963E+00-3.07805E-14 1.81344E-13
 -1      2277 2.46806E+01 1.05761E-01-6.33792E-02-2.33486E+00-1.52557E-13 2.07533E-13
 -1      2278 2.44809E+01 9.76429E-01 1.18626E-02-2.19188E+00-1.70718E-13 2.07537E-13
 -1      2279 2.55564E+01-3.18971E-01-2.90132E-03-2.31369E+00-1.23557E-13 2.45540E-13
 -1      2280 2.41858E+01 1.78798E+00-7.07750E-02-1.70140E+00-2.36394E-13 1.39411E-13
 -1      2281 2.40477E+01 2.41439E+00-1.02625E-02-9.99303E-01-2.61867E-13 8.51090E-14
 -1      2282 2.53536E+01 1.78781E+00-3.22009E-02-2.17166E+00-2.45935E-13 1.74128E-13
 -1      2283 2.39163E+01 2.65506E+00-4.84395E-02 9.94912E-02-3.30812E-13-4.05214E-14
 -1      2284 2.40034E+01 2.45718E+00-5.93150E-02 9.79810E-01-3.37466E-13-1.47765E-13
 -1      2285 2.49905E+01 3.27803E+00-6.41010E-02-5.50461E-01-3.91305E-13 4.35034E-14
 -1      2286 2.42596E+01 1.88607E+00 1.90128E-03 1.85729E+00-3.35010E-13-2.87551E-13
 -1      2287 2.44773E+01 1.07026E+00-7.31019E-02 2.34141E+00-2.93363E-13-3.63092E-13
 -1      2288 2.51508E+01 2.78600E+00-5.95346E-02 1.60576E+00-4.33251E-13-2.58144E-13
 -1      2289 2.47294E+01 2.20572E-01 1.05678E-02 2.47615E+00-2.37707E-13-4.57934E-13
 -1      2290 2.49240E+01-5.44386E-01-4.58670E-02 2.37457E+00-1.85557E-13-4.97680E-13
 -1      2291 2.55486E+01 8.35698E-01-1.55558E-02 2.63229E+00-3.61960E-13-5.08014E-13
 -1      2292 2.48047E+01-1.07131E+00-8.74798E-03 1.90608E+00-1.20324E-13-4.71184E-13
 -1      2293 2.48565E+01-1.39005E+00-1.06685E-02 1.46194E+00-1.85438E-14-4.56601E-13
 -1      2294 2.55281E+01-1.05042E+00 3.53124E-03 2.14867E+00-1.71807E-13-4.92717E-13
 -1      2295 2.44305E+01-1.48493E+00-2.40103E-02 8.38113E-01 6.81981E-14-4.73168E-13
 -1      2296 2.43348E+01-1.41952E+00 9.33827E-03 3.45021E-01 6.91209E-14-3.99657E-13
 -1      2297 2.48785E+01-1.86439E+00-3.38699E-04 9.47665E-01-1.81235E-15-4.68815E-13
 -1      2298 2.38244E+01-1.25892E+00-2.53603E-02-1.47174E-01 2.60902E-14-3.23665E-13
 -1      2299 2.36330E+01-1.03077E+00 1.32562E-02-5.25046E-01 3.69294E-14-2.58218E-13
 -1      2300 2.39240E+01-1.74443E+00-1.38614E-02-1.96382E-01 9.68373E-14-3.55614E-13
 -1      2301 2.31904E+01-8.05086E-01-1.83669E-02-8.16674E-01 1.08885E-13-1.89417E-13
 -1      2302 2.29585E+01-5.72802E-01 1.10399E-02-1.04078E+00 1.11325E-13-1.55217E-13
 -1      2303 2.30142E+01-1.19702E+00-1.63226E-02-9.61653E-01 1.25089E-13-1.03069E-13
 -1      2304 2.26249E+01-3.81817E-01-1.00453E-02-1.16640E+00 1.11574E-13-1.72451E-13
 -1      2305 2.23866E+01-2.09547E-01 7.24656E-03-1.26073E+00 2.06171E-13-1.88356E-13
 -1      2306 2.22942E+01-6.24724E-01-1.27867E-02-1.35305E+00 1.55067E-13-1.59040E-13
 -1      2307 2.21481E+01-8.10591E-02-3.55585E-03-1.27623E+00 2.36259E-13-1.71233E-13
 -1      2308 2.19211E+01 2.43318E-02 4.07682E-03-1.28197E+00 2.36970E-13-1.11961E-13
 -1      2309 2.17668E+01-1.92374E-01-8.26145E-03-1.47312E+00 2.28908E-13-1.84213E-13
 -1      2310 2.17499E+01 9.70444E-02 6.57728E-04-1.23437E+00 1.76897E-13-1.50031E-13
 -1      2311 2.15426E+01 1.50476E-01 2.00925E-03-1.18872E+00 1.41236E-13-1.24812E-13
 -1      2312 2.13845E+01 7.69310E-02-4.95828E-03-1.42583E+00 2.01398E-13-3.03009E-13
 -1      2313 2.14154E+01 1.83681E-01 3.05388E-03-1.11055E+00 1.20409E-13-1.28001E-13
 -1      2314 2.12320E+01 2.03085E-01 8.71297E-04-1.04063E+00 1.13795E-13-1.99162E-13
 -1      2315 2.10993E+01 2.17197E-01-2.97529E-03-1.28847E+00 8.10616E-14-3.24326E-13
 -1      2316 2.11334E+01 2.11936E-01 4.16535E-03-9.52343E-01 4.02674E-14-2.91126E-13
 -1      2317 2.09752E+01 2.11674E-01 3.23924E-04-8.75485E-01 1.17857E-14-3.34068E-13
 -1      2318 2.08776E+01 2.71483E-01-1.94124E-03-1.11230E+00-4.06169E-14-3.36633E-13
 -1      2319 2.08962E+01 2.07201E-01 4.44884E-03-7.88893E-01-8.87148E-15-3.35600E-13
 -1      2320 2.07629E+01 1.96986E-01 1.02653E-04-7.14954E-01-6.23132E-14-3.10173E-13
 -1      2321 2.06991E+01 2.75181E-01-1.45495E-03-9.28755E-01-4.71373E-14-3.79191E-13
 -1      2322 2.06985E+01 1.86241E-01 4.24950E-03-6.36197E-01-4.06022E-14-2.84193E-13
 -1      2323 2.05886E+01 1.71983E-01 3.84918E-05-5.70065E-01-3.58567E-15-2.34489E-13
 -1      2324 2.05526E+01 2.52629E-01-1.23190E-03-7.55494E-01-4.14252E-15-3.74968E-13
 -1      2325 2.05358E+01 1.59090E-01 3.80324E-03-5.01763E-01 7.95328E-14-3.39904E-13
 -1      2326 2.04470E+01 1.44099E-01 3.84894E-05-4.45288E-01 8.76163E-14-3.09570E-13
 -1      2327 2.04317E+01 2.18887E-01-1.10985E-03-6.01266E-01-5.74054E-14-3.70039E-13
 -1      2328 2.04041E+01 1.31280E-01 3.25983E-03-3.88004E-01 4.19666E-14-1.99535E-13
 -1      2329 2.03336E+01 1.17243E-01 5.68278E-05-3.41317E-01 3.02588E-14-1.56331E-13
 -1      2330 2.03324E+01 1.82528E-01-1.01239E-03-4.69315E-01 1.15698E-13-3.68990E-13
 -1      2331 2.02991E+01 1.05577E-01 2.70763E-03-2.94488E-01-1.02630E-13-1.63768E-13
 -1      2332 2.02442E+01 9.32351E-02 7.40286E-05-2.56842E-01-2.13995E-13-1.93690E-13
 -1      2333 2.02518E+01 1.48024E-01-9.11692E-04-3.59686E-01-5.66797E-14-1.63886E-13
 -1      2334 2.02168E+01 8.31493E-02 2.19432E-03-2.19359E-01-3.16422E-13-1.87624E-13
 -1      2335 2.01747E+01 7.27208E-02 8.38531E-05-1.89620E-01-3.37281E-13-1.65035E-13
 -1      2336 2.01873E+01 1.17416E-01-8.02967E-04-2.70705E-01-2.40266E-13-1.90824E-13
 -1      2337 2.01534E+01 6.42924E-02 1.74203E-03-1.60169E-01-2.69876E-13-1.17277E-13
 -1      2338 2.01218E+01 5.57248E-02 8.59730E-05-1.37102E-01-1.27186E-13-4.56623E-15
 -1      2339 2.01364E+01 9.13826E-02-6.90316E-04-1.99904E-01-2.17112E-13-1.60515E-13
 -1      2340 2.01054E+01 4.88553E-02 1.35769E-03-1.14360E-01-9.41895E-14-3.05993E-14
 -1      2341 2.00821E+01 4.19687E-02 8.22027E-05-9.67757E-02-4.13449E-14-1.72902E-13
 -1      2342 2.00970E+01 6.98812E-02-5.79792E-04-1.44571E-01-1.24151E-13-7.55361E-14
 -1      2343 2.00698E+01 3.64816E-02 1.03978E-03-7.95094E-02-6.19287E-14-1.95320E-13
 -1      2344 2.00530E+01 3.10481E-02 7.47406E-05-6.63364E-02-1.84471E-13-2.46178E-13
 -1      2345 2.00671E+01 5.25201E-02-4.76512E-04-1.02060E-01-1.54549E-13-2.38016E-13
 -1      2346 2.00439E+01 2.67424E-02 7.82462E-04-5.34552E-02-2.26667E-13-2.21008E-13
 -1      2347 2.00321E+01 2.25280E-02 6.54644E-05-4.37661E-02-1.35206E-13-2.53036E-13
 -1      2348 2.00447E+01 3.87661E-02-3.83816E-04-6.99546E-02-1.52136E-13-1.27899E-13
 -1      2349 2.00255E+01 1.92053E-02 5.78035E-04-3.43350E-02 6.55537E-15-2.04127E-13
 -1      2350 2.00174E+01 1.59906E-02 5.57350E-05-2.73510E-02 1.52371E-13-1.22912E-13
 -1      2351 2.00284E+01 2.80563E-02-3.03331E-04-4.61367E-02-3.08770E-14-6.52603E-14
 -1      2352 2.00128E+01 1.34690E-02 4.18395E-04-2.05889E-02 1.06430E-13-1.57793E-13
 -1      2353 2.00076E+01 1.10587E-02 4.64165E-05-1.56702E-02 1.15200E-13-1.15298E-13
 -1      2354 2.00168E+01 1.98553E-02-2.35352E-04-2.88063E-02 1.10041E-13-2.38616E-13
 -1      2355 2.00045E+01 9.17809E-03 2.95785E-04-1.09382E-02 1.45699E-13-2.31643E-13
 -1      2356 2.00012E+01 7.40369E-03 3.79706E-05-7.56950E-03 2.08062E-13-2.79480E-13
 -1      2357 2.00088E+01 1.36812E-02-1.79270E-04-1.64690E-02 8.62363E-14-3.16619E-13
 -1      2358 1.99992E+01 6.02705E-03 2.03192E-04-4.35513E-03 2.78301E-13-3.34896E-13
 -1      2359 1.99974E+01 4.74661E-03 3.05570E-05-2.12873E-03 2.65644E-13-2.26781E-13
 -1      2360 2.00034E+01 9.11587E-03-1.33940E-04-7.91021E-03 2.51364E-13-1.71504E-13
 -1      2361 1.99962E+01 3.75888E-03 1.34511E-04-2.82055E-05 1.87083E-13-1.86860E-13
 -1      2362 1.99954E+01 2.85454E-03 2.41161E-05 1.37218E-03 8.99885E-14-1.22519E-13
 -1      2363 2.00000E+01 5.80456E-03-9.79637E-05-2.16069E-03 2.51151E-13-2.16484E-13
 -1      2364 1.99947E+01 2.16036E-03 8.45737E-05 2.67056E-03-8.27344E-14-1.49937E-13
 -1      2365 1.99946E+01 1.53519E-03 1.84296E-05 3.48508E-03-1.64258E-14-1.90158E-13
 -1      2366 1.99980E+01 3.45141E-03-6.98807E-05 1.53788E-03 6.32631E-14-2.08968E-13
 -1      2367 1.99943E+01 1.05595E-03 4.91124E-05 4.21625E-03 7.02083E-16-1.77166E-13
 -1      2368 1.99946E+01 6.30344E-04 1.31680E-05 4.62201E-03-8.16809E-14-2.48634E-13
 -1      2369 1.99971E+01 1.81205E-03-4.83042E-05 3.76626E-03-1.58685E-13-1.45190E-13
 -1      2370 1.99946E+01 3.01045E-04 2.46943E-05 4.95744E-03 4.30851E-14-2.02589E-13
 -1      2371 1.99951E+01 9.11822E-06 7.96344E-06 5.07949E-03 1.21955E-13-1.48988E-13
 -1      2372 1.99968E+01 6.85171E-04-3.20110E-05 4.95738E-03 6.46004E-14-1.24167E-13
 -1      2373 1.99953E+01-2.24775E-04 8.66482E-06 5.13841E-03 5.78564E-14-2.71278E-14
 -1      2374 1.99959E+01-4.38506E-04 2.46773E-06 5.05875E-03 1.22990E-13 1.68814E-13
 -1      2375 1.99969E+01-9.60847E-05-1.99772E-05 5.42216E-03 1.71960E-13-6.52780E-14
 -1      2376 1.99961E+01-6.23547E-04-1.10581E-06 4.91743E-03 1.16545E-13 2.58128E-13
 -1      2377 1.99968E+01-8.04849E-04-2.91624E-06 4.68259E-03 9.08481E-14 3.23413E-13
 -1      2378 1.99973E+01-6.71530E-04-1.14290E-05 5.37157E-03 1.20505E-13-1.36037E-13
 -1      2379 1.99971E+01-9.84791E-04-7.53300E-06 4.38516E-03-2.35727E-14 1.45753E-13
 -1      2380 1.99977E+01-1.16144E-03-8.25826E-06 4.01219E-03-9.00156E-14 1.75447E-13
 -1      2381 1.99978E+01-1.15374E-03-5.62026E-06 4.93714E-03-6.66986E-14-4.75211E-14
 -1      2382 2.19407E+01-1.47716E-01-6.73896E-03-5.45425E-01 6.41776E-14 2.61142E-13
 -1      2383 2.18410E+01-4.72155E-02 8.31061E-03-5.80532E-01 8.70353E-14 2.82731E-13
 -1      2384 2.21737E+01-3.46628E-01-1.17069E-02-3.47702E-01 7.53412E-14 2.08040E-13
 -1      2385 2.20875E+01-2.43394E-01 5.31526E-03-4.70318E-01 4.92076E-14 2.29365E-13
 -1      2386 2.19109E+01-2.70725E-01-5.83859E-03-6.13986E-01 8.97300E-14 1.56565E-13
 -1      2387 2.23737E+01-5.23284E-01-1.45582E-02 3.58597E-02 7.38112E-14 2.34327E-13
 -1      2388 2.23409E+01-4.38141E-01 2.86983E-03-1.67757E-01 7.09602E-14 2.26564E-13
 -1      2389 2.22146E+01-5.42140E-01-3.56987E-03-3.58420E-01 6.74723E-14 1.30547E-13
 -1      2390 2.24691E+01-6.03646E-01-1.27453E-02 5.60064E-01 6.72075E-14 2.86639E-13
 -1      2391 2.25216E+01-5.80119E-01-4.98551E-04 3.07693E-01 5.51187E-14 2.71501E-13
 -1      2392 2.25252E+01-7.56130E-01 1.12726E-03 1.09905E-01 5.58969E-14 1.96435E-13
 -1      2393 2.23925E+01-4.86565E-01-4.10892E-03 1.09950E+00-6.71138E-14 3.39375E-13
 -1      2394 2.25421E+01-5.77557E-01-5.54360E-03 8.70394E-01 2.26581E-14 3.29411E-13
 -1      2395 2.27538E+01-8.00579E-01 7.72691E-03 7.27438E-01-1.01781E-14 2.90475E-13
 -1      2396 2.21128E+01-1.06418E-01 9.34938E-03 1.43580E+00 1.32963E-14 2.97912E-13
 -1      2397 2.23354E+01-3.33581E-01-1.14742E-02 1.33728E+00-4.99735E-14 3.10983E-13
 -1      2398 2.27938E+01-5.43635E-01 1.31370E-02 1.32812E+00-1.90247E-14 2.97451E-13
 -1      2399 2.16965E+01 4.59181E-01 1.98449E-02 1.32566E+00 1.35017E-13 2.87867E-13
 -1      2400 2.19240E+01 1.61372E-01-1.39587E-02 1.45310E+00 8.00660E-14 2.80942E-13
 -1      2401 2.25805E+01 5.54877E-02 1.06579E-02 1.63296E+00 5.38519E-14 2.07483E-13
 -1      2402 2.13361E+01 9.48012E-01 1.75367E-02 6.74775E-01 2.08217E-13 2.40515E-13
 -1      2403 2.14765E+01 7.32444E-01-7.88253E-03 1.03096E+00 1.88795E-13 2.61489E-13
 -1      2404 2.21971E+01 8.17224E-01-2.59041E-03 1.36358E+00 1.79529E-13 1.44722E-13
 -1      2405 2.12584E+01 1.06328E+00 2.57888E-03-3.11834E-01 2.18251E-13 1.66710E-13
 -1      2406 2.12435E+01 1.06744E+00 4.34641E-03 1.42675E-01 2.03960E-13 2.23560E-13
 -1      2407 2.18936E+01 1.36412E+00-1.81051E-02 4.80092E-01 2.28645E-13 1.70035E-13
 -1      2408 2.15525E+01 7.26364E-01-8.71795E-03-1.19571E+00 1.65518E-13 1.07231E-13
 -1      2409 2.13803E+01 9.45814E-01 1.84492E-02-8.42284E-01 2.26021E-13 1.55554E-13
 -1      2410 2.19176E+01 1.36556E+00-1.59682E-02-6.75767E-01 2.16230E-13 1.05392E-13
 -1      2411 2.20583E+01 1.55407E-01-1.37872E-02-1.61033E+00 6.32040E-14 3.77771E-14
 -1      2412 2.17964E+01 4.51510E-01 1.91843E-02-1.48707E+00 1.07407E-13 5.23115E-14
 -1      2413 2.22637E+01 8.11594E-01-1.34475E-03-1.55099E+00 1.60170E-13 4.18456E-14
 -1      2414 2.25181E+01-3.33391E-01-1.04472E-02-1.48874E+00 2.12713E-13-7.18557E-14
 -1      2415 2.22606E+01-1.12440E-01 7.42898E-03-1.58690E+00 1.14710E-13-6.82180E-15
 -1      2416 2.26816E+01 4.58344E-02 1.01185E-02-1.80821E+00 1.43041E-13-7.54550E-14
 -1      2417 2.27658E+01-5.75928E-01-4.47861E-03-1.01860E+00 1.67065E-13-1.03318E-13
 -1      2418 2.25838E+01-4.87978E-01-5.71480E-03-1.24428E+00 2.27152E-13-2.32765E-14
 -1      2419 2.29209E+01-5.48854E-01 1.23032E-02-1.49472E+00 1.72159E-13-5.32792E-14
 -1      2420 2.27764E+01-5.85284E-01-1.46395E-04-4.47320E-01 1.03832E-14-1.43401E-13
 -1      2421 2.26976E+01-6.05958E-01-1.36949E-02-6.98075E-01 9.00295E-14-8.39921E-14
 -1      2422 2.29015E+01-8.07133E-01 7.46859E-03-8.85388E-01 9.59684E-14-3.06192E-14
 -1      2423 2.26088E+01-4.59629E-01 1.71717E-03 5.03425E-02-6.37962E-14-1.27481E-13
 -1      2424 2.26266E+01-5.34926E-01-1.52276E-02-1.59124E-01-4.02334E-14-1.53493E-13
 -1      2425 2.26827E+01-7.74374E-01 1.70821E-03-2.49467E-01-3.24307E-14-1.16277E-13
 -1      2426 2.23388E+01-2.94111E-01 2.00258E-03 4.00167E-01-7.85652E-14-1.36241E-13
 -1      2427 2.24288E+01-3.79413E-01-1.26219E-02 2.57450E-01-4.19239E-14-1.72634E-13
 -1      2428 2.23628E+01-5.85889E-01-1.85352E-03 2.57688E-01-2.72414E-14-1.12905E-13
 -1      2429 2.20259E+01-1.45710E-01 1.74565E-03 5.98953E-01 8.85934E-14-1.56230E-13
 -1      2430 2.21603E+01-2.17254E-01-8.44013E-03 5.21173E-01-3.07814E-14-1.45091E-13
 -1      2431 2.20175E+01-3.60867E-01-3.01050E-03 5.88592E-01-3.94160E-14-1.29608E-13
 -1      2432 2.17082E+01-3.62201E-02 1.37977E-03 6.76739E-01 1.52432E-14-2.49574E-14
 -1      2433 2.18631E+01-8.66216E-02-4.40628E-03 6.49740E-01 1.27922E-13-1.00023E-13
 -1      2434 2.16876E+01-1.67072E-01-2.94164E-03 7.58868E-01 3.56282E-14-1.14131E-13
 -1      2435 2.14080E+01 3.34972E-02 1.09375E-03 6.71343E-01-2.30267E-13-7.24735E-16
 -1      2436 2.15656E+01 2.82668E-03-1.27035E-03 6.78527E-01-1.08652E-13 5.13619E-15
 -1      2437 2.13898E+01-2.76453E-02-2.51102E-03 8.07938E-01-6.92225E-14 7.26797E-14
 -1      2438 2.11369E+01 7.12983E-02 9.09539E-04 6.16191E-01-2.29139E-13 6.60607E-14
 -1      2439 2.12855E+01 5.57397E-02 8.39582E-04 6.43256E-01-2.89481E-13 5.30908E-14
 -1      2440 2.11289E+01 5.90824E-02-2.09088E-03 7.77140E-01-2.42184E-13 6.61900E-14
 -1      2441 2.09002E+01 8.67673E-02 7.94328E-04 5.36380E-01-1.06911E-13 1.35894E-13
 -1      2442 2.10332E+01 8.14398E-02 2.06526E-03 5.72775E-01-1.43824E-13 3.64207E-14
 -1      2443 2.09043E+01 1.04557E-01-1.77857E-03 7.00615E-01-1.53068E-13-5.43327E-14
 -1      2444 2.06991E+01 8.81693E-02 7.13155E-04 4.48810E-01-1.71044E-14 1.46129E-13
 -1      2445 2.08135E+01 8.90883E-02 2.63230E-03 4.87560E-01-4.66002E-14 1.78177E-13
 -1      2446 2.07140E+01 1.21629E-01-1.55736E-03 6.03152E-01-1.01734E-13-1.91087E-14
 -1      2447 2.05325E+01 8.16285E-02 6.43404E-04 3.63822E-01-3.89138E-14 9.22539E-14
 -1      2448 2.06276E+01 8.59312E-02 2.75746E-03 4.00759E-01 2.77176E-14 1.05910E-13
 -1      2449 2.05550E+01 1.21072E-01-1.38680E-03 5.01109E-01 1.61031E-14-6.50924E-14
 -1      2450 2.03972E+01 7.12798E-02 5.74781E-04 2.87036E-01 5.83151E-14 6.63806E-14
 -1      2451 2.04743E+01 7.70762E-02 2.61455E-03 3.19980E-01-9.10699E-14 2.44822E-14
 -1      2452 2.04242E+01 1.10755E-01-1.23657E-03 4.04317E-01-4.56400E-15-1.67343E-13
 -1      2453 2.02897E+01 5.97171E-02 5.04736E-04 2.20933E-01-8.34234E-15 1.49294E-13
 -1      2454 2.03507E+01 6.58469E-02 2.32930E-03 2.49001E-01 1.28249E-13 1.18165E-13
 -1      2455 2.03185E+01 9.59404E-02-1.09188E-03 3.17972E-01 3.80982E-14-1.35657E-13
 -1      2456 2.02060E+01 4.84491E-02 4.34551E-04 1.66037E-01 9.39969E-14-1.06398E-14
 -1      2457 2.02531E+01 5.42554E-02 1.98598E-03 1.89140E-01 2.63548E-14 1.20615E-13
 -1      2458 2.02343E+01 7.98986E-02-9.48825E-04 2.44200E-01 7.61449E-14 4.27331E-14
 -1      2459 2.01421E+01 3.82657E-02 3.66698E-04 1.21753E-01 1.42112E-13-1.97367E-14
 -1      2460 2.01777E+01 4.34205E-02 1.63700E-03 1.40240E-01 1.19871E-13-3.61797E-14
 -1      2461 2.01685E+01 6.45088E-02-8.09247E-04 1.83225E-01 1.14606E-13-5.23037E-14
 -1      2462 2.00943E+01 2.95049E-02 3.03510E-04 8.69098E-02 3.58423E-14 1.35971E-14
 -1      2463 2.01206E+01 3.38837E-02 1.31220E-03 1.01343E-01 5.58247E-14 3.09699E-14
 -1      2464 2.01179E+01 5.07337E-02-6.76932E-04 1.34186E-01 1.03985E-13 1.10968E-13
 -1      2465 2.00593E+01 2.22350E-02 2.46650E-04 6.01164E-02 3.69756E-15 1.14450E-13
 -1      2466 2.00782E+01 2.58327E-02 1.02629E-03 7.11303E-02 4.53139E-14 9.37326E-14
 -1      2467 2.00798E+01 3.89630E-02-5.55475E-04 9.56807E-02 7.37488E-15 2.95951E-13
 -1      2468 2.00344E+01 1.63737E-02 1.97011E-04 3.99646E-02 7.71142E-14 1.56810E-13
 -1      2469 2.00476E+01 1.92499E-02 7.84442E-04 4.81825E-02-3.17260E-14 1.00098E-13
 -1      2470 2.00517E+01 2.92465E-02-4.47357E-04 6.61113E-02 5.35168E-14 2.85292E-13
 -1      2471 2.00172E+01 1.17639E-02 1.54814E-04 2.51477E-02 3.71722E-13 8.60395E-14
 -1      2472 2.00261E+01 1.40087E-02 5.86105E-04 3.11382E-02 3.03290E-13 2.20540E-13
 -1      2473 2.00314E+01 2.14472E-02-3.53750E-04 4.38930E-02 1.68784E-13 7.57663E-14
 -1      2474 2.00057E+01 8.22024E-03 1.19776E-04 1.45158E-02 2.15261E-13 3.98495E-14
 -1      2475 2.00114E+01 9.93308E-03 4.27617E-04 1.87727E-02 3.71227E-13 7.28912E-14
 -1      2476 2.00172E+01 1.53377E-02-2.74700E-04 2.75676E-02 3.58336E-13 1.81904E-13
 -1      2477 1.99985E+01 5.55595E-03 9.12750E-05 7.09497E-03-1.80317E-14-7.89349E-14
 -1      2478 2.00019E+01 6.83402E-03 3.03862E-04 1.00321E-02 2.27571E-14-3.71604E-14
 -1      2479 2.00076E+01 1.06592E-02-2.09415E-04 1.58590E-02 2.82882E-13 1.90635E-14
 -1      2480 1.99944E+01 3.59741E-03 6.84865E-05 2.08556E-03-2.17872E-13 7.96978E-14
 -1      2481 1.99962E+01 4.52939E-03 2.09303E-04 4.03965E-03-7.61316E-14-7.70318E-14
 -1      2482 2.00013E+01 7.15512E-03-1.56577E-04 7.68986E-03-8.84188E-14 9.75346E-14
 -1      2483 1.99924E+01 2.19089E-03 5.04749E-05-1.15193E-03-9.51340E-14 1.25595E-13
 -1      2484 1.99930E+01 2.85436E-03 1.38583E-04 8.59752E-05-2.94424E-13 1.55165E-13
 -1      2485 1.99975E+01 4.58914E-03-1.14596E-04 2.17761E-03-3.05904E-13 9.85679E-14
 -1      2486 1.99918E+01 1.20426E-03 3.62549E-05-3.11552E-03-7.80146E-14 1.55932E-13
 -1      2487 1.99917E+01 1.66540E-03 8.68477E-05-2.38798E-03 5.78320E-14 1.72634E-13
 -1      2488 1.99955E+01 2.75327E-03-8.18070E-05-1.38196E-03-7.01060E-14 7.24248E-14
 -1      2489 1.99922E+01 5.25923E-04 2.48324E-05-4.18173E-03-2.00778E-13-7.45955E-14
 -1      2490 1.99917E+01 8.40377E-04 4.98900E-05-3.81088E-03-2.00828E-13 3.94512E-14
 -1      2491 1.99947E+01 1.46929E-03-5.65959E-05-3.53600E-03-7.53113E-14 1.53322E-13
 -1      2492 1.99931E+01 6.19768E-05 1.52453E-05-4.62427E-03 5.40424E-14-7.45424E-14
 -1      2493 1.99923E+01 2.76532E-04 2.41770E-05-4.50051E-03-3.31492E-14-2.71037E-15
 -1      2494 1.99947E+01 5.86847E-04-3.74877E-05-4.69683E-03-1.13272E-13-1.48519E-13
 -1      2495 1.99943E+01-2.67511E-04 6.63341E-06-4.63051E-03 2.13023E-13 1.96271E-13
 -1      2496 1.99935E+01-1.12869E-04 6.87119E-06-4.68150E-03 4.88306E-14 3.68470E-14
 -1      2497 1.99952E+01-2.07021E-05-2.32593E-05-5.16299E-03-4.57132E-14-2.32122E-14
 -1      2498 1.99957E+01-5.32022E-04-1.26460E-06-4.31508E-03 7.45605E-14 2.99534E-13
 -1      2499 1.99948E+01-4.02855E-04-4.30781E-06-4.50063E-03 1.86273E-13 3.57157E-13
 -1      2500 1.99960E+01-4.60960E-04-1.29230E-05-5.13852E-03 1.29113E-13 3.67531E-13
 -1      2501 1.99969E+01-7.92221E-04-7.88631E-06-3.73243E-03-4.90377E-14 3.31860E-13
 -1      2502 1.99961E+01-6.62251E-04-1.17146E-05-4.04019E-03 2.69105E-14 3.78102E-13
 -1      2503 1.99968E+01-8.22388E-04-4.36368E-06-4.75178E-03 7.50724E-14 6.34870E-13
 -1      2504 1.99981E+01-1.07921E-03-1.47458E-05-2.90528E-03-1.53118E-13 1.65981E-13
 -1      2505 1.99974E+01-9.28005E-04-1.30398E-05-3.32593E-03-6.66564E-14 3.00557E-13
 -1      2506 1.99977E+01-1.19183E-03 3.95868E-06-4.06864E-03 1.68389E-14 6.78879E-13
 -1      2507 1.99985E+01-1.20921E-03-1.13302E-05-2.34308E-03-1.43885E-13 1.56176E-13
 -1      2508 2.00008E+01-5.07611E-03 1.71556E-05-2.86670E-03-4.92328E-14-2.73173E-13
 -1      2509 2.00006E+01-4.61903E-03 1.71707E-06-3.18952E-03-5.28206E-15-4.69637E-13
 -1      2510 2.00011E+01-5.69433E-03 1.79104E-05-1.96472E-03 1.28528E-13-3.78111E-13
 -1      2511 2.00010E+01-5.36477E-03 8.52050E-06-2.41304E-03-9.95226E-15-1.03911E-13
 -1      2512 2.00012E+01-4.51033E-03-9.64195E-06-2.94260E-03-3.97927E-14-2.33778E-13
 -1      2513 1.99997E+01-3.24384E-03 1.38485E-05-3.69237E-03 4.57049E-14 6.49819E-13
 -1      2514 1.99994E+01-2.66015E-03-1.81795E-05-3.62500E-03 1.99147E-14 5.72622E-13
 -1      2515 2.00003E+01-4.23590E-03 1.54012E-05-3.47833E-03-1.83370E-13-2.95933E-13
 -1      2516 2.00001E+01-3.70079E-03-6.58639E-06-3.62199E-03-1.26601E-13 3.27535E-13
 -1      2517 1.99999E+01-3.07037E-03-7.32798E-06-4.10909E-03-6.05313E-14 3.87965E-13
 -1      2518 2.00007E+01-3.86922E-03-7.62342E-06-3.72589E-03-2.77244E-14-2.60002E-13
 -1      2519 2.00013E+01-6.04450E-03 1.78839E-05-8.82911E-04 1.83665E-13-3.56701E-13
 -1      2520 2.00012E+01-5.87203E-03 1.35949E-05-1.40464E-03 2.48631E-13-6.30287E-13
 -1      2521 2.00016E+01-4.95763E-03-1.07378E-05-1.87485E-03 7.41329E-14-4.39932E-13
 -1      2522 2.00013E+01-6.10494E-03 1.67279E-05 2.75225E-04 1.04619E-13-8.82963E-14
 -1      2523 2.00013E+01-6.10508E-03 1.65454E-05-2.70729E-04 6.25868E-14-4.51981E-14
 -1      2524 2.00018E+01-5.18691E-03-1.11424E-05-6.41908E-04 1.58698E-13-3.25104E-13
 -1      2525 2.00012E+01-5.87357E-03 1.40504E-05 1.41018E-03-1.25820E-13-4.95972E-13
 -1      2526 2.00013E+01-6.04661E-03 1.77377E-05 8.87921E-04-8.54794E-14-1.67061E-13
 -1      2527 2.00018E+01-5.18901E-03-1.11042E-05 6.45827E-04-3.23851E-15-3.53359E-13
 -1      2528 2.00010E+01-5.37810E-03 8.80606E-06 2.40555E-03 6.53260E-14-7.02732E-14
 -1      2529 2.00011E+01-5.70167E-03 1.78307E-05 1.96294E-03-4.51796E-14-3.30172E-13
 -1      2530 2.00016E+01-4.96635E-03-1.07147E-05 1.87115E-03 4.90450E-14-3.45800E-13
 -1      2531 2.00006E+01-4.63491E-03 1.56895E-06 3.18899E-03 2.60486E-14 2.39001E-13
 -1      2532 2.00008E+01-5.09138E-03 1.71132E-05 2.86306E-03 1.36543E-13-1.12183E-13
 -1      2533 2.00012E+01-4.52680E-03-9.73458E-06 2.93564E-03 9.71502E-14-6.85047E-14
 -1      2534 2.00001E+01-3.70288E-03-6.74875E-06 3.62986E-03 2.56554E-14 4.21484E-13
 -1      2535 2.00004E+01-4.24856E-03 1.54071E-05 3.48372E-03-2.90657E-14 5.02534E-13
 -1      2536 2.00007E+01-3.88492E-03-8.00377E-06 3.72938E-03 1.10012E-13 1.84408E-13
 -1      2537 1.99994E+01-2.65408E-03-1.53670E-05 3.61123E-03-2.20677E-13-2.30997E-13
 -1      2538 1.99997E+01-3.24014E-03 1.07859E-05 3.70111E-03-1.76634E-13 5.51326E-14
 -1      2539 1.99999E+01-3.07409E-03-6.56644E-06 4.12068E-03-4.56407E-14 1.84077E-13
 -1      2540 1.94304E+01-5.32182E+00 1.90949E-02 6.46035E+00-5.44564E-14 2.17409E-13
 -1      2541 1.54851E+01-5.17097E+00 6.90988E-02 6.78983E+00-2.15217E-13 3.76213E-13
 -1      2542 1.99988E+01-1.84325E-03-8.22779E-06 2.84440E-03-1.86499E-13 6.91126E-15
 -1      2543 3.22755E+00-2.85423E+00 7.86829E-02-8.98135E-01-1.31667E-13 1.14464E-12
 -1      2544 4.64534E+00-3.02581E+00 5.14175E-02-3.46515E+00-1.44884E-13 7.69829E-13
 -1      2545 2.17377E+01 4.45391E-02-1.35582E-03-5.54344E-01 1.12687E-13 2.95048E-13
 -1      2546 2.16676E+01 1.43701E-01 1.32168E-02-5.01931E-01 1.43308E-13 3.19978E-13
 -1      2547 2.16715E+01 1.59161E-03-6.76932E-03-6.50823E-01 1.28043E-13 2.05482E-13
 -1      2548 4.18865E+00-3.05312E+00 4.59392E-02 3.41803E+00-1.16740E-13 1.19454E-12
 -1      2549 3.10491E+00-2.96099E+00 6.97397E-02 1.25414E+00-1.95864E-13 1.13276E-12
 -1      2550 7.81166E+00-4.00942E+00 9.27905E-02-5.42288E+00 3.32789E-14 6.36297E-13
 -1      2551 1.06975E+01-4.81080E+00 2.82997E-02-6.54484E+00-3.46390E-14 7.97196E-13
 -1      2552 2.14987E+01 2.04240E+00-9.42740E-03-1.03110E+00-2.57504E-13-8.38721E-14
 -1      2553 2.15500E+01 1.31998E+00-4.69004E-03-3.75853E-01-2.49099E-13-5.69127E-14
 -1      2554 2.12531E+01 1.54829E+00 2.16820E-03-2.09070E-01-2.26993E-13-9.11554E-14
 -1      2555 2.09768E+01 2.53310E+00-2.32305E-03-9.24500E-01-2.42157E-13-1.64504E-13
 -1      2556 2.54869E+01-4.32069E+00-5.33847E-02 4.07971E+00 1.29896E-13 1.36835E-14
 -1      2557 2.23839E+01-5.23924E+00 1.36415E-03 5.24826E+00-2.55351E-15 9.59094E-14
 -1      2558 2.17541E+01-5.37313E+00 8.23354E-02 5.31732E+00-2.07667E-13 5.25725E-14
 -1      2559 1.02099E+01-4.26447E+00 9.57182E-02-6.34579E+00-1.76414E-13-5.84283E-13
 -1      2560 1.45720E+01-4.93072E+00 1.37356E-02-7.14428E+00-1.54071E-13-4.04690E-13
 -1      2561 1.79884E+01 4.23142E+00-7.44258E-03-1.27573E-01 6.01351E-14-3.60211E-13
 -1      2562 1.80763E+01 4.20702E+00-5.80959E-03-1.74490E-01 1.51689E-14-3.60492E-13
 -1      2563 1.82029E+01 3.90938E+00 3.73191E-03-1.23100E-01 8.96852E-15-3.35108E-13
 -1      2564 1.80213E+01 3.98727E+00 3.58663E-03-1.23546E-01 5.91617E-14-3.24718E-13
 -1      2565 3.27620E+01 6.98069E+00-1.04426E-01 5.09242E-01 7.50788E-13 1.09496E-13
 -1      2566 3.23607E+01 7.54583E+00-1.45438E-01 1.25917E-01 7.89147E-13 8.51003E-14
 -1      2567 2.36352E+01-5.04175E+00-2.72724E-02 5.33416E+00-1.66034E-13-1.32533E-13
 -1      2568 1.99602E+01-5.63581E+00 5.42334E-03 5.99663E+00-5.83700E-14-1.84741E-13
 -1      2569 3.24617E+01 7.21738E+00-1.39945E-01-6.24646E-01 8.79019E-13-3.85178E-14
 -1      2570 3.25739E+01 6.20029E+00-8.87854E-02-8.94629E-01 8.97116E-13-8.03801E-14
 -1      2571 3.17586E+01 4.02749E+00-1.33458E-01 8.01693E-01 6.06626E-13 2.26541E-13
 -1      2572 3.28434E+01 5.78499E+00-8.59774E-02 7.25091E-01 7.21700E-13 1.89682E-13
 -1      2573 3.03561E+01 6.01949E+00-6.55964E-02 1.19055E+00 6.55420E-13 3.59476E-13
 -1      2574 2.44345E+01-4.77040E+00-2.96143E-02-4.56125E+00-3.16136E-14-1.32477E-13
 -1      2575 2.70009E+01-3.73165E+00-9.39266E-02-3.21152E+00 6.43929E-15-2.42306E-14
 -1      2576 1.88632E+01-5.43743E+00 7.56897E-02-6.34861E+00-2.10609E-13-2.75516E-13
 -1      2577 2.20118E+01-5.16384E+00-9.85151E-03-5.86129E+00-8.93174E-14-2.21489E-13
 -1      2578 2.38294E+01-5.23121E+00 7.62954E-02-4.46807E+00-2.76904E-13 2.41335E-14
 -1      2579 5.10684E+00-2.58636E+00 1.37064E-01-3.38577E+00-1.13590E-13-7.27363E-13
 -1      2580 6.86899E+00-3.28366E+00 7.55118E-02-5.26977E+00-1.15491E-13-7.15539E-13
 -1      2581 7.75496E+00-4.05789E+00 9.11135E-03 5.80276E+00 5.54001E-14-6.94556E-13
 -1      2582 5.52771E+00-3.47424E+00 1.02374E-01 4.17317E+00 1.16324E-13-8.27949E-13
 -1      2583 1.60010E+01-5.35404E+00 1.12965E-02 7.00679E+00-6.27276E-15-3.08475E-13
 -1      2584 1.18010E+01-4.89662E+00 7.80744E-02 6.52098E+00 8.73746E-14-4.18138E-13
 -1      2585 2.90208E+01-2.80461E+00-9.74791E-02 2.53969E+00-3.03799E-13 5.71487E-14
 -1      2586 2.62335E+01-4.23386E+00-3.35684E-02 3.77102E+00-2.29039E-13-3.62765E-14
 -1      2587 2.55662E+01-5.05407E+00 5.83580E-02 3.77803E+00-1.36002E-15 1.20903E-13
 -1      2588 3.15091E+01 8.76841E-01-1.91239E-01-5.63996E-01-4.37123E-13 1.52545E-13
 -1      2589 3.08134E+01-9.49119E-01-1.72681E-02 6.74059E-01-3.59480E-13 7.65499E-14
 -1      2590 3.37733E+01 7.36824E+00-2.52462E-02 3.99633E-01-8.55482E-13-1.13527E-13
 -1      2591 3.27638E+01 7.26027E+00-1.54446E-01-1.20579E-01-8.15292E-13-8.42937E-14
 -1      2592 3.37789E+01 5.31830E+00-4.60882E-02 9.41548E-01-8.39828E-13-1.35836E-13
 -1      2593 3.42005E+01 6.56983E+00-7.17623E-02 8.36939E-01-8.67473E-13-1.21569E-13
 -1      2594 3.18068E+01 1.11699E+00-8.79893E-02 2.87773E-01-7.56728E-13-1.59928E-13
 -1      2595 3.33858E+01 3.23225E+00-6.53655E-02 6.77421E-01-7.75546E-13-1.16240E-13
 -1      2596 2.83181E+01-3.20503E+00-1.79493E-02-2.01679E+00-4.77562E-13-1.05083E-13
 -1      2597 3.06349E+01-1.40579E+00-9.41728E-02-1.01402E+00-6.68555E-13-2.91100E-13
 -1      2598 2.19781E+01-5.50920E+00 1.81838E-02-5.20590E+00-2.03032E-13 2.55004E-13
 -1      2599 2.54692E+01-4.80939E+00-8.64660E-02-4.16952E+00-3.38812E-13 1.52073E-13
 -1      2600 1.40815E+01-5.46489E+00 2.53094E-02-6.53708E+00 3.66374E-15 6.48634E-13
 -1      2601 1.81893E+01-5.54637E+00-1.60555E-02-6.53824E+00-4.91274E-14 4.04135E-13
 -1      2602 1.44451E+01-4.57723E+00 1.22763E-01-6.39695E+00 2.22877E-13 4.93536E-13
 -1      2603 1.06849E+01-4.21476E+00 3.93079E-02 6.57332E+00-3.45834E-13 7.15372E-13
 -1      2604 6.96939E+00-3.66458E+00 1.02369E-01 5.13509E+00-3.16885E-13 1.13204E-12
 -1      2605 2.17933E+01 8.67142E-01-4.04017E-03 5.99338E-01 2.80172E-13 4.69688E-13
 -1      2606 2.20146E+01 1.23756E+00-4.96658E-03 1.10604E+00 2.97495E-13 5.14781E-13
 -1      2607 2.17147E+01 1.69864E+00-1.66484E-02 1.24215E+00 3.22783E-13 3.92037E-13
 -1      2608 2.15977E+01 1.05653E+00-1.10386E-02 5.07249E-01 2.89980E-13 3.21305E-13
 -1      2609 3.03515E+01 7.02302E+00-7.24763E-02-3.39260E-01 7.51510E-13 9.55347E-14
 -1      2610 1.92899E+01 3.32471E+00 3.41551E-03-2.48481E-01-9.26398E-14-3.31234E-13
 -1      2611 1.93585E+01 3.54610E+00-1.90704E-02-4.56805E-01-1.10454E-13-3.39357E-13
 -1      2612 1.97502E+01 3.35298E+00-1.53524E-02-6.01040E-01-1.44651E-13-3.27065E-13
 -1      2613 2.15317E+01 2.79797E-01-6.44144E-03-4.74126E-01 1.80579E-13 2.34673E-13
 -1      2614 2.12983E+01 2.12552E+00-1.30124E-02 1.14348E+00 3.31635E-13 2.27192E-13
 -1      2615 2.71852E+01-3.82959E+00 5.74092E-03 2.71319E+00 1.50047E-13-1.79690E-13
 -1      2616 2.56447E+01-4.67157E+00 5.24736E-02 3.05613E+00-7.83679E-14-2.93043E-13
 -1      2617 2.78826E+01-3.20483E+00-1.43318E-01 1.09765E+00 1.75845E-13-3.43503E-13
 -1      2618 2.97592E+01 1.50022E+00-1.47439E-01-1.60100E+00 6.06792E-13-3.70121E-13
 -1      2619 3.07934E+01 7.83805E-01-6.96874E-02-4.38884E-01 6.94889E-13-3.12694E-13
 -1      2620 2.94046E+01-7.38850E-01-2.01680E-02-3.64294E-01 5.39575E-13-4.20219E-13
 -1      2621 7.98249E+00-2.64685E+00 1.58904E-01-4.39638E+00 6.53644E-14 6.65662E-13
 -1      2622 1.99986E+01-1.56452E-03-8.29182E-06-3.06516E-03-1.90615E-13 3.75559E-13
 -1      2623 1.99988E+01-2.00076E-03 3.87751E-06-3.35866E-03-6.65029E-14 5.93174E-13
 -1      2624 2.11769E+01-5.55657E+00 8.61617E-02-5.39156E+00 9.83658E-14 2.10835E-13
 -1      2625 1.70130E+01-4.66171E+00-3.24961E-02 6.24171E+00-5.04374E-13 2.28817E-13
 -1      2626 1.41328E+01-4.43443E+00 1.27002E-01 6.64799E+00-3.96211E-13 4.58480E-13
 -1      2627 1.29429E+01-3.20533E+00 1.54942E-01 6.15955E+00-6.11025E-13 5.63827E-13
 -1      2628 1.78656E+01-4.88108E+00 1.10898E-01-6.40547E+00-3.00787E-13-2.61416E-13
 -1      2629 1.99984E+01-1.42511E-03-1.78476E-05 3.27339E-03-3.12914E-13-3.61444E-14
 -1      2630 1.99990E+01-2.17036E-03 6.31567E-06 3.57579E-03-1.90401E-13-1.87017E-13
 -1      2631 1.99990E+01-2.15544E-03-4.27505E-06 4.11708E-03-3.13968E-13-1.13629E-13
 -1      2632 1.99979E+01-1.28992E-03-1.61732E-05 3.72499E-03-2.64950E-13 8.23996E-14
 -1      2633 2.72582E+01-4.29472E+00 3.69068E-02-2.30835E+00-2.22405E-13-2.46220E-13
 -1      2634 5.05522E+00-1.61131E+00 1.75150E-01 5.41966E-02-1.17475E-13 1.12682E-12
 -1      2635 2.12234E+01 1.84628E+00 1.17073E-02 7.73370E-01 3.08860E-13 1.92291E-13
 -1      2636 7.39878E+00-2.34535E+00 1.71503E-01 4.29174E+00-3.16538E-13 1.03945E-12
 -1      2637 3.06452E+01-4.18103E-01 1.94581E-02 9.42577E-01-5.70849E-13-3.33317E-13
 -1      2638 3.18754E+01 4.03246E+00 2.75976E-02 1.83020E+00-7.72632E-13-2.75835E-13
 -1      2639 1.06559E+01-3.01990E+00 1.45909E-01-5.79580E+00-2.36450E-13-5.75651E-13
 -1      2640 3.14354E+01 6.52905E+00-6.38687E-02 8.51116E-01-7.97640E-13-2.42591E-13
 -1      2641 2.93908E+01-2.56012E+00 3.41437E-02 7.68036E-01-2.00080E-13 1.79051E-13
 -1      2642 1.93838E+01-5.44087E+00 7.34784E-02 6.07897E+00 1.50491E-13-1.18653E-13
 -1      2643 1.19020E+01-3.80312E+00 1.48386E-01 6.15644E+00 2.13246E-13-4.70235E-13
 -1      2644 3.10870E+01 2.30160E+00-7.10610E-02 9.61759E-01 4.30017E-13 3.18134E-13
 -1      2645 2.94803E+01 3.02636E+00-1.56271E-01 1.87086E+00 4.08035E-13 4.62630E-13
 -1      2646 2.96449E+01 6.21909E-01-5.71962E-02 9.45030E-01 2.25903E-13 4.27519E-13
 -1      2647 3.16790E+01 6.35598E+00-1.18224E-01-8.43467E-01-7.23366E-13-7.75074E-14
 -1      2648 2.98158E+01 5.25915E+00-1.38711E-01-1.45849E+00-6.40266E-13-9.79772E-15
 -1      2649 2.94697E+01 6.47027E+00-1.53330E-01-5.01095E-01-7.23865E-13-1.55889E-13
 -1      2650 2.05204E+01 2.81829E+00-8.23465E-03-7.63354E-01-2.04214E-13-2.36425E-13
 -1      2651 5.88988E+00-2.24511E+00 1.55497E-01 3.03955E+00 1.01474E-13-8.25340E-13
 -1      2652 2.83164E+01-3.05918E+00-2.89189E-02-1.84485E+00-7.09849E-15 1.34642E-13
 -1      2653 2.85799E+01-2.25246E+00-1.75688E-01-2.43972E-01-2.67529E-14 3.65263E-13
 -1      2654 2.69042E+01-4.10674E+00 6.01039E-02-2.10216E+00-1.91305E-13 2.91114E-13
 -1      2655 3.07180E+01 4.94919E+00-7.26182E-02-1.48083E+00 8.27199E-13-1.78579E-13
 -1      2656 5.15348E+00-1.91561E+00 1.41289E-01-2.16296E+00-6.88061E-14-7.06074E-13
 -1      2657 7.38622E+00-1.16053E+00 1.43299E-01-3.08324E+00-1.44690E-13-6.52478E-13
 -1      2658 5.54838E+00-9.98787E-01 1.31349E-01-7.04470E-01-2.87131E-14-6.97720E-13
 -1      2659 3.14558E+01 2.07792E+00-4.71539E-02-1.35611E+00-4.74176E-13 1.20737E-13
 -1      2660 2.98867E+01 3.20672E-01-4.45581E-02-1.52323E+00-3.42559E-13 2.21642E-13
 -1      2661 3.00081E+01 2.90460E+00-2.24699E-01-2.10365E+00-4.63352E-13 1.24512E-13
 -1      2662 1.99988E+01-2.01151E-03-9.41191E-06-3.95405E-03-8.39196E-14 7.25177E-13
 -1      2663 1.99983E+01-1.54939E-03 1.32260E-06 4.32124E-03-2.19262E-13-1.73490E-13
 -1      2664 1.85236E+01 3.39447E+00-5.34874E-04-1.58067E-01 1.62109E-13-2.02797E-13
 -1      2665 1.82954E+01 3.50222E+00-8.99658E-03-1.98211E-01 1.36059E-13-2.28072E-13
 -1      2666 1.81201E+01 3.63034E+00-1.60956E-03-1.75325E-01 1.14656E-13-2.58105E-13
 -1      2667 1.80029E+01 3.68565E+00-7.56028E-03-1.82523E-01 8.97469E-14-2.75382E-13
 -1      2668 1.82300E+01 3.30243E+00 5.76334E-03-2.80819E-01 1.07762E-13-2.23685E-13
 -1      2669 1.98057E+01 2.59825E+00-4.93104E-03 1.20079E-01 2.59777E-13-9.20839E-14
 -1      2670 1.94446E+01 2.81260E+00-9.02271E-03 1.11959E-02 2.44863E-13-1.25879E-13
 -1      2671 2.05638E+01 2.04373E+00-6.09007E-03 3.15542E-01 2.84002E-13 1.15754E-14
 -1      2672 2.01789E+01 2.33136E+00-6.74605E-03 2.09865E-01 2.63554E-13-4.44592E-14
 -1      2673 2.00886E+01 2.11117E+00 3.17683E-03-6.47269E-02 2.33920E-13-4.83578E-14
 -1      2674 2.13111E+01 7.39899E-01-2.52675E-03-2.17787E-01 2.23103E-13 1.78227E-13
 -1      2675 2.13467E+01 9.85086E-01 1.13912E-02 5.98320E-02 2.44052E-13 1.91552E-13
 -1      2676 9.48827E+00-1.95723E+00 9.55034E-02 4.84379E+00-4.97963E-13 7.93005E-13
 -1      2677 7.28224E+00-1.20303E+00 1.82217E-01 3.07450E+00-2.86007E-13 8.56037E-13
 -1      2678 2.13909E+01 3.34848E-01-2.81476E-03-5.92919E-01 1.73940E-13 1.70862E-13
 -1      2679 2.13659E+01 5.31801E-01 1.33133E-02-4.37605E-01 1.94970E-13 1.82006E-13
 -1      2680 2.11182E+01 8.24209E-01-2.44552E-03-3.47550E-01 2.12441E-13 9.38882E-14
 -1      2681 2.11586E+01 1.54717E+00-1.88012E-03 4.48448E-01 2.90195E-13 1.58587E-13
 -1      2682 2.10255E+01 8.75725E-01 8.90035E-03 9.17017E-01-1.03488E-13-6.06577E-14
 -1      2683 2.10748E+01 6.71385E-01 5.52237E-04 1.14608E+00-8.04160E-14-4.75038E-14
 -1      2684 2.11370E+01 4.68759E-01 1.04205E-02 1.36118E+00-9.16540E-14-3.66116E-14
 -1      2685 2.12595E+01 2.39448E-01 8.37407E-04 1.49624E+00-7.71921E-14-7.08734E-14
 -1      2686 2.06772E+01 7.27060E-01-7.16175E-03 1.31574E+00-9.25917E-14-8.87724E-14
 -1      2687 2.14116E+01-1.06617E-02 1.39484E-02 1.63727E+00-4.60793E-14-4.03905E-14
 -1      2688 2.16257E+01-3.12409E-01-5.57673E-04 1.66338E+00-2.10463E-14-5.07948E-14
 -1      2689 2.08440E+01 1.81754E-01-1.30026E-02 1.70447E+00-5.87891E-14-7.46378E-14
 -1      2690 2.19330E+01-6.44344E-01 2.11876E-02 1.70025E+00 1.31152E-14-4.73679E-14
 -1      2691 2.22526E+01-1.03859E+00-5.17839E-03 1.58302E+00 2.04663E-14-6.10284E-14
 -1      2692 2.12349E+01-5.27757E-01-2.13011E-02 1.93209E+00-1.37019E-14-4.33351E-14
 -1      2693 2.27877E+01-1.44018E+00 3.04125E-02 1.45028E+00 4.44036E-14-3.71968E-14
 -1      2694 2.32034E+01-1.87074E+00-1.40835E-02 1.14433E+00 6.52915E-14-4.21828E-14
 -1      2695 2.19829E+01-1.44920E+00-3.14509E-02 1.91548E+00 4.23101E-14-4.77890E-14
 -1      2696 2.39941E+01-2.22324E+00 3.34340E-02 7.46129E-01 1.06492E-13 5.12437E-15
 -1      2697 2.44409E+01-2.48365E+00-2.46788E-02 2.34526E-01 1.06590E-13 6.48388E-14
 -1      2698 2.32055E+01-2.45881E+00-4.27163E-02 1.48494E+00 1.26842E-13 3.77211E-14
 -1      2699 2.53723E+01-2.50445E+00 9.66644E-03-4.91917E-01 9.28396E-14 9.46430E-14
 -1      2700 2.57275E+01-2.16460E+00-1.93599E-02-1.10735E+00 3.78343E-15 1.96170E-13
 -1      2701 2.48745E+01-3.07996E+00-5.78416E-02 4.43206E-01 1.22681E-13 1.02419E-13
 -1      2702 2.66009E+01 4.06762E+00-1.41002E-01-1.38208E+00-4.51028E-13 4.22613E-14
 -1      2703 2.65157E+01 4.69479E+00-1.29586E-01-2.84140E-01-5.32963E-13-5.68955E-14
 -1      2704 2.60363E+01 4.13772E+00-1.00855E-01 1.31177E+00-5.55958E-13-2.40426E-13
 -1      2705 2.62025E+01 2.97421E+00-1.63888E-01 2.15642E+00-5.11563E-13-3.54872E-13
 -1      2706 2.64736E+01 1.54699E+00-3.38010E-02 2.64983E+00-4.76050E-13-4.85435E-13
 -1      2707 2.65553E+01-5.50467E-02-1.08425E-01 2.67330E+00-3.54987E-13-5.12985E-13
 -1      2708 2.62025E+01-1.24085E+00-2.67009E-02 2.08914E+00-2.13083E-13-5.01463E-13
 -1      2709 2.60112E+01-2.07001E+00-2.65522E-02 1.56305E+00-1.35617E-13-5.05547E-13
 -1      2710 2.72444E+01-8.86726E-01-6.23050E-02 2.30509E+00-2.90074E-13-5.11806E-13
 -1      2711 2.52061E+01-2.44131E+00-2.34716E-02 7.27838E-01-5.23418E-14-4.59568E-13
 -1      2712 2.48025E+01-2.47231E+00 2.27189E-02 1.15729E-01 7.58915E-14-4.94816E-13
 -1      2713 2.58824E+01-2.77733E+00-3.64482E-02 7.67385E-01-4.62078E-14-5.38781E-13
 -1      2714 2.39185E+01-2.27596E+00-2.35908E-02-4.79532E-01 1.81361E-13-3.28780E-13
 -1      2715 2.34791E+01-1.92049E+00 2.94434E-02-9.20689E-01 1.68869E-13-2.95276E-13
 -1      2716 2.41272E+01-2.85829E+00-4.60020E-02-7.03042E-01 1.75969E-13-3.83018E-13
 -1      2717 2.27936E+01-1.55270E+00-1.41115E-02-1.22301E+00 1.53924E-13-1.62348E-13
 -1      2718 2.24112E+01-1.14744E+00 2.20288E-02-1.46750E+00 2.28020E-13-1.36338E-13
 -1      2719 2.26574E+01-2.05336E+00-3.67476E-02-1.51562E+00 2.34536E-13-2.39283E-13
 -1      2720 2.19661E+01-8.08942E-01-5.28589E-03-1.56357E+00 1.49049E-13-1.07789E-13
 -1      2721 2.16705E+01-4.93083E-01 1.31678E-02-1.65750E+00 1.06695E-13-1.45313E-13
 -1      2722 2.16298E+01-1.13719E+00-2.57944E-02-1.83010E+00 1.55592E-13-1.19965E-13
 -1      2723 2.14118E+01-2.53078E-01-3.49276E-04-1.63830E+00 2.20204E-13-1.27460E-13
 -1      2724 2.11935E+01-5.01262E-02 6.58354E-03-1.63562E+00 2.64186E-13-1.13331E-13
 -1      2725 2.10032E+01-4.19835E-01-1.48248E-02-1.85317E+00 1.62629E-13-1.22158E-13
 -1      2726 2.10521E+01 9.40929E-02 1.89387E-03-1.55975E+00 2.20362E-13-1.82124E-13
 -1      2727 2.08890E+01 2.05340E-01 2.41904E-03-1.50173E+00 1.59559E-13-2.69840E-13
 -1      2728 2.06483E+01 4.19969E-02-7.70786E-03-1.72942E+00 1.93594E-13-2.41003E-13
 -1      2729 2.08141E+01 2.77835E-01 2.93039E-03-1.40155E+00 9.72766E-14-2.86486E-13
 -1      2730 2.06878E+01 3.26172E-01 1.35317E-04-1.31663E+00-8.14155E-16-3.09942E-13
 -1      2731 2.04535E+01 2.97558E-01-3.47799E-03-1.53885E+00 1.22980E-13-3.37592E-13
 -1      2732 2.06473E+01 3.52115E-01 3.34559E-03-1.21040E+00-9.70520E-14-2.87329E-13
 -1      2733 2.05455E+01 3.62044E-01-9.73339E-04-1.11678E+00-7.98497E-14-2.86904E-13
 -1      2734 2.03447E+01 4.10600E-01-1.28884E-03-1.32519E+00-2.92845E-14-3.42297E-13
 -1      2735 2.05215E+01 3.60956E-01 3.40734E-03-1.01452E+00 3.75513E-16-3.09230E-13
 -1      2736 2.04373E+01 3.49850E-01-1.39709E-03-9.23041E-01-4.78460E-14-3.02365E-13
 -1      2737 2.02783E+01 4.35996E-01-3.20314E-04-1.11261E+00-3.32095E-14-3.39277E-13
 -1      2738 2.04206E+01 3.34867E-01 3.25500E-03-8.29996E-01-9.08598E-14-2.58071E-13
 -1      2739 2.03504E+01 3.13840E-01-1.45506E-03-7.46526E-01-6.04527E-14-3.24329E-13
 -1      2740 2.02317E+01 4.12834E-01 5.14445E-06-9.14360E-01-3.65629E-14-3.69085E-13
 -1      2741 2.03370E+01 2.93042E-01 2.97414E-03-6.65069E-01-6.99411E-14-2.98767E-13
 -1      2742 2.02786E+01 2.68690E-01-1.33549E-03-5.92260E-01-2.02982E-14-3.55514E-13
 -1      2743 2.01943E+01 3.66351E-01 3.96219E-05-7.37230E-01-4.68890E-16-3.99251E-13
 -1      2744 2.02669E+01 2.46692E-01 2.62537E-03-5.23005E-01 9.63585E-14-4.12772E-13
 -1      2745 2.02187E+01 2.22653E-01-1.14525E-03-4.61534E-01 1.47059E-13-3.54795E-13
 -1      2746 2.01618E+01 3.11671E-01-2.90236E-05-5.83960E-01 5.69853E-15-2.97961E-13
 -1      2747 2.02082E+01 2.01881E-01 2.25279E-03-4.04037E-01 9.62439E-14-3.68960E-13
 -1      2748 2.01691E+01 1.79974E-01-9.41135E-04-3.53446E-01-4.05859E-14-2.72382E-13
 -1      2749 2.01328E+01 2.57242E-01-1.12954E-04-4.54717E-01 9.79146E-14-3.93125E-13
 -1      2750 2.01597E+01 1.61546E-01 1.88721E-03-3.06675E-01-2.02766E-13-2.75317E-13
 -1      2751 2.01285E+01 1.42523E-01-7.50728E-04-2.65911E-01-2.31733E-13-2.09509E-13
 -1      2752 2.01071E+01 2.07363E-01-1.77547E-04-3.48098E-01-8.79312E-14-4.27307E-13
 -1      2753 2.01203E+01 1.26815E-01 1.54809E-03-2.28556E-01-1.80360E-13-2.83797E-13
 -1      2754 2.00957E+01 1.10830E-01-5.85311E-04-1.96319E-01-1.17161E-13-2.09225E-13
 -1      2755 2.00847E+01 1.63867E-01-2.14372E-04-2.61830E-01-2.34402E-13-3.14214E-13
 -1      2756 2.00888E+01 9.78158E-02 1.24604E-03-1.66993E-01-7.36961E-14-1.56120E-13
 -1      2757 2.00698E+01 8.47144E-02-4.47606E-04-1.41940E-01-4.61864E-14-1.96202E-13
 -1      2758 2.00657E+01 1.27199E-01-2.26309E-04-1.93261E-01-6.50661E-14-2.38393E-13
 -1      2759 2.00641E+01 7.41689E-02 9.85300E-04-1.19299E-01-1.52525E-13-1.44399E-13
 -1      2760 2.00497E+01 6.36463E-02-3.36206E-04-1.00157E-01-1.38732E-13-1.67679E-13
 -1      2761 2.00500E+01 9.70596E-02-2.19913E-04-1.39677E-01-7.39297E-14-6.73693E-14
 -1      2762 2.00450E+01 5.52616E-02 7.65858E-04-8.29691E-02-1.53990E-13-1.15844E-13
 -1      2763 2.00344E+01 4.69606E-02-2.47977E-04-6.85941E-02-1.18414E-13-9.54785E-14
 -1      2764 2.00372E+01 7.27928E-02-2.01879E-04-9.84985E-02-1.41066E-13-1.02421E-13
 -1      2765 2.00307E+01 4.04081E-02 5.85124E-04-5.57737E-02-5.03284E-14-8.05793E-14
 -1      2766 2.00229E+01 3.39694E-02-1.79305E-04-4.51747E-02 6.51422E-14-3.07593E-14
 -1      2767 2.00271E+01 5.36061E-02-1.77690E-04-6.73897E-02-5.36100E-14-2.23921E-15
 -1      2768 2.00200E+01 2.89335E-02 4.39101E-04-3.57920E-02 7.70519E-14-2.16736E-13
 -1      2769 2.00145E+01 2.40224E-02-1.26694E-04-2.81329E-02 6.28331E-14-2.50288E-13
 -1      2770 2.00192E+01 3.86918E-02-1.51323E-04-4.43071E-02-1.22688E-15-1.34085E-13
 -1      2771 2.00124E+01 2.02172E-02 3.23201E-04-2.14107E-02 1.08340E-13-2.27912E-13
 -1      2772 2.00086E+01 1.65354E-02-8.70299E-05-1.60024E-02 1.69681E-13-1.94763E-13
 -1      2773 2.00132E+01 2.72912E-02-1.25392E-04-2.75127E-02 1.14826E-13-1.69716E-13
 -1      2774 2.00070E+01 1.37107E-02 2.32780E-04-1.13042E-02 1.89627E-13-3.06487E-13
 -1      2775 2.00045E+01 1.10006E-02-5.76611E-05-7.58971E-03 2.31863E-13-3.15208E-13
 -1      2776 2.00088E+01 1.87249E-02-1.01447E-04-1.55618E-02 1.11037E-13-2.60449E-13
 -1      2777 2.00033E+01 8.94319E-03 1.63458E-04-4.40476E-03 1.19591E-13-4.39352E-13
 -1      2778 2.00017E+01 6.98672E-03-3.64057E-05-1.94246E-03 2.42511E-13-3.86560E-13
 -1      2779 2.00055E+01 1.24035E-02-8.02709E-05-7.27838E-03 9.20116E-14-4.90443E-13
 -1      2780 2.00009E+01 5.51780E-03 1.11302E-04 1.31538E-04 2.48089E-13-5.98997E-13
 -1      2781 2.00000E+01 4.13333E-03-2.15174E-05 1.68463E-03-8.08775E-14-6.06385E-13
 -1      2782 2.00032E+01 7.82697E-03-6.21412E-05-1.72354E-03 7.23873E-14-9.75238E-13
 -1      2783 1.99995E+01 3.10473E-03 7.29070E-05 2.95770E-03-1.46465E-13-3.52290E-13
 -1      2784 1.99990E+01 2.14212E-03-1.16307E-05 3.86189E-03-5.58970E-14-2.58468E-13
 -1      2785 2.00016E+01 4.57729E-03-4.70318E-05 1.83697E-03 5.92341E-14-8.26036E-13
 -1      2786 1.99987E+01 1.43159E-03 4.54062E-05 4.56699E-03 5.67214E-14-1.75674E-13
 -1      2787 1.99986E+01 7.66982E-04-5.69001E-06 5.01384E-03 2.62274E-13-6.71879E-14
 -1      2788 2.00006E+01 2.30847E-03-3.47577E-05 3.96450E-03 1.04096E-13-1.85392E-13
 -1      2789 1.99984E+01 2.73313E-04 2.64906E-05 5.32031E-03 2.10121E-13-1.62678E-13
 -1      2790 1.99984E+01-1.96007E-04-2.78972E-06 5.44490E-03 1.44460E-13-1.07707E-13
 -1      2791 1.99999E+01 7.34886E-04-2.50732E-05 5.07651E-03 1.75536E-13-3.22995E-14
 -1      2792 1.99983E+01-5.57233E-04 1.43793E-05 5.46965E-03 1.08917E-13-1.64941E-13
 -1      2793 1.99985E+01-9.16622E-04-2.43301E-06 5.36120E-03 7.52561E-14-2.53823E-13
 -1      2794 1.99996E+01-3.80270E-04-1.77205E-05 5.47107E-03 4.82569E-14-1.12758E-13
 -1      2795 1.99985E+01-1.21916E-03 6.39851E-06 5.17789E-03-2.63022E-14-2.40946E-13
 -1      2796 1.99987E+01-1.52457E-03-1.74968E-06 4.88643E-03-1.50734E-13-3.10346E-13
 -1      2797 1.99994E+01-1.23380E-03-1.30387E-05 5.35266E-03 4.75086E-14-3.13246E-13
 -1      2798 2.22274E+01-7.87136E-01-1.21385E-02-4.51633E-01 6.51588E-14 1.34069E-13
 -1      2799 2.20935E+01-5.91043E-01 1.29345E-02-6.24178E-01 5.68842E-14 1.60778E-13
 -1      2800 2.57783E+01-4.87487E+00 6.15969E-02-2.61385E+00 9.40914E-15-2.58182E-13
 -1      2801 2.78503E+01-3.81076E+00-8.91586E-02-7.37709E-01-2.33234E-13-5.42275E-13
 -1      2802 1.37093E+01-3.55590E+00 1.54424E-01-5.93027E+00 2.88908E-13 4.76813E-13
 -1      2803 1.65635E+01-4.57557E+00-1.41371E-03-6.17514E+00 2.81913E-13 3.21784E-13
 -1      2804 2.18511E+01-4.05208E-01-8.15281E-03-7.22807E-01 8.99095E-14 1.26799E-13
 -1      2805 2.17346E+01-2.07575E-01 1.27168E-02-7.83368E-01 1.07494E-13 1.57073E-13
 -1      2806 2.18329E+01-6.09872E-01-1.13620E-02-8.35504E-01 5.94421E-14 1.45185E-13
 -1      2807 2.30268E+01-1.13642E+00-1.07302E-02 7.44398E-01-6.07899E-14 2.83825E-13
 -1      2808 2.29666E+01-1.15347E+00 6.52750E-03 4.14515E-01-2.42176E-14 2.61504E-13
 -1      2809 2.32151E+01-7.22925E-01 5.72587E-04 1.42812E+00 2.62132E-14 2.49630E-13
 -1      2810 2.32456E+01-1.00252E+00-7.09500E-03 1.15359E+00-1.94749E-14 2.83393E-13
 -1      2811 2.34981E+01-1.33982E+00 5.90038E-03 8.45982E-01-1.42900E-14 2.50685E-13
 -1      2812 2.31047E+01 2.24819E-01 1.61160E-02 1.76132E+00 1.28227E-13 1.72235E-13
 -1      2813 2.32177E+01-3.18236E-01-2.60302E-02 1.70847E+00 6.09534E-14 2.12872E-13
 -1      2814 2.37868E+01-6.52230E-01 1.35531E-02 1.60629E+00 7.06765E-14 2.21738E-13
 -1      2815 2.27594E+01 1.38609E+00 2.03241E-02 1.38303E+00 1.82522E-13 1.59955E-13
 -1      2816 2.28885E+01 8.04435E-01-3.65243E-02 1.67572E+00 1.39800E-13 1.73906E-13
 -1      2817 2.36692E+01 6.41068E-01 7.67554E-03 1.88182E+00 1.38220E-13 1.89044E-13
 -1      2818 2.24548E+01 2.08956E+00-1.10594E-02 2.87155E-01 2.64705E-13 1.64190E-13
 -1      2819 2.25306E+01 1.82687E+00-2.92660E-02 8.47877E-01 2.27533E-13 1.85924E-13
 -1      2820 2.33087E+01 1.99464E+00-1.34534E-02 1.26221E+00 1.97205E-13 1.72446E-13
 -1      2821 2.25465E+01 1.81097E+00-3.41637E-02-1.04332E+00 1.91551E-13 7.53364E-14
 -1      2822 2.24783E+01 2.08311E+00-5.41991E-03-4.95906E-01 2.52897E-13 1.05564E-13
 -1      2823 2.30754E+01 2.56379E+00-1.44056E-02-1.30990E-01 2.33289E-13 9.47844E-14
 -1      2824 2.29472E+01 7.81578E-01-3.71414E-02-1.87303E+00 2.02231E-13-4.93874E-14
 -1      2825 2.27951E+01 1.37531E+00 2.03149E-02-1.59286E+00 2.29277E-13 4.06084E-14
 -1      2826 2.33310E+01 2.04454E+00-4.98653E-04-1.48765E+00 2.44622E-13 3.73774E-14
 -1      2827 2.32863E+01-3.31172E-01-2.65200E-02-1.88564E+00 1.78679E-13-1.52901E-13
 -1      2828 2.31552E+01 2.05476E-01 1.30176E-02-1.94345E+00 2.03438E-13-9.02885E-14
 -1      2829 2.36990E+01 6.05763E-01 4.99309E-03-2.07176E+00 2.53400E-13-1.18572E-13
 -1      2830 2.33220E+01-1.01014E+00-8.11317E-03-1.32114E+00 5.54405E-14-1.89787E-14
 -1      2831 2.32805E+01-7.31942E-01-1.07538E-03-1.59981E+00 6.37337E-14-1.07377E-13
 -1      2832 2.38097E+01-6.66369E-01 1.35287E-02-1.78582E+00 9.59415E-14-7.21966E-14
 -1      2833 2.30455E+01-1.16946E+00 5.46052E-03-5.69187E-01 4.29129E-14 5.28254E-14
 -1      2834 2.30996E+01-1.14578E+00-1.14956E-02-9.06355E-01 1.03657E-13 5.44768E-14
 -1      2835 2.35157E+01-1.34949E+00 7.28384E-03-1.01415E+00 2.59275E-14 4.71125E-14
 -1      2836 2.26035E+01-9.90682E-01 1.02506E-02 9.25214E-02-4.73527E-14 5.25957E-15
 -1      2837 2.27235E+01-1.11397E+00-1.44220E-02-1.99083E-01 1.76855E-15 5.02442E-14
 -1      2838 2.29524E+01-1.42730E+00-1.87268E-03-2.02063E-01 2.93181E-14 7.86740E-14
 -1      2839 2.21326E+01-6.80135E-01 9.72799E-03 5.54550E-01-5.09108E-14 1.87590E-14
 -1      2840 2.22834E+01-8.47767E-01-1.22680E-02 3.50520E-01-8.76905E-14-5.81042E-14
 -1      2841 2.23290E+01-1.14854E+00-8.42249E-03 4.23222E-01-7.37067E-14 6.30691E-15
 -1      2842 2.17098E+01-3.75469E-01 7.52203E-03 8.16633E-01-5.60430E-15 5.32146E-14
 -1      2843 2.18659E+01-5.27388E-01-8.19489E-03 7.00338E-01-7.95327E-15 7.85935E-14
 -1      2844 2.17770E+01-7.52744E-01-9.05415E-03 8.11979E-01-5.90350E-14 1.40272E-13
 -1      2845 2.13584E+01-1.36794E-01 5.03385E-03 9.21734E-01 1.81164E-14 1.04888E-13
 -1      2846 2.15065E+01-2.50219E-01-4.36413E-03 8.75596E-01 4.37170E-14 3.18523E-14
 -1      2847 2.13406E+01-3.89435E-01-7.31274E-03 1.00120E+00 8.63799E-14 1.97984E-13
 -1      2848 2.10756E+01 2.43311E-02 2.99156E-03 9.19359E-01-4.46888E-14 1.13333E-13
 -1      2849 2.12098E+01-4.91273E-02-1.48692E-03 9.21993E-01 2.90146E-14 1.13303E-13
 -1      2850 2.10139E+01-1.15165E-01-5.20429E-03 1.04769E+00 1.53516E-14 1.90235E-13
 -1      2851 2.08495E+01 1.18794E-01 1.55507E-03 8.51711E-01-2.16599E-13 5.72497E-14
 -1      2852 2.09682E+01 7.78778E-02 4.38517E-04 8.84192E-01-1.53050E-13 1.69945E-13
 -1      2853 2.07737E+01 6.46779E-02-3.49184E-03 1.00304E+00-1.02020E-13 2.21188E-13
 -1      2854 2.06682E+01 1.64090E-01 6.45557E-04 7.50199E-01-1.33807E-13-4.55306E-14
 -1      2855 2.07712E+01 1.46360E-01 1.59567E-03 7.98099E-01-1.60288E-13 6.32888E-15
 -1      2856 2.05963E+01 1.66690E-01-2.32684E-03 9.06681E-01-1.83691E-13 1.66844E-13
 -1      2857 2.05221E+01 1.76758E-01 1.22982E-04 6.36262E-01-1.36421E-13 1.28873E-14
 -1      2858 2.06100E+01 1.73975E-01 2.19119E-03 6.89618E-01-1.64285E-13-1.58213E-14
 -1      2859 2.04626E+01 2.12651E-01-1.60763E-03 7.86301E-01-1.65116E-13 8.31473E-14
 -1      2860 2.04042E+01 1.69772E-01-1.44369E-04 5.23461E-01 7.74123E-14-2.46149E-14
 -1      2861 2.04778E+01 1.75699E-01 2.40113E-03 5.75967E-01 5.70826E-14-1.83424E-14
 -1      2862 2.03597E+01 2.22048E-01-1.18346E-03 6.60131E-01-6.86425E-14 1.32856E-14
 -1      2863 2.03092E+01 1.52324E-01-2.56158E-04 4.19611E-01 3.42595E-14-9.04349E-14
 -1      2864 2.03699E+01 1.62646E-01 2.36182E-03 4.67674E-01 4.40650E-14 2.24217E-14
 -1      2865 2.02791E+01 2.09810E-01-9.31835E-04 5.39400E-01 6.68246E-14-5.19889E-14
 -1      2866 2.02332E+01 1.30461E-01-2.80452E-04 3.28570E-01 8.09929E-14-1.20365E-13
 -1      2867 2.02823E+01 1.42397E-01 2.17461E-03 3.70463E-01 4.52130E-14-1.25659E-13
 -1      2868 2.02151E+01 1.86377E-01-7.72929E-04 4.30363E-01 5.91513E-14-3.50898E-15
 -1      2869 2.01729E+01 1.07900E-01-2.60093E-04 2.51610E-01 4.11706E-14-8.69068E-14
 -1      2870 2.02120E+01 1.19778E-01 1.91192E-03 2.86820E-01 9.72670E-14-1.34739E-13
 -1      2871 2.01642E+01 1.58555E-01-6.60058E-04 3.35876E-01 9.23798E-14-1.42948E-13
 -1      2872 2.01258E+01 8.67447E-02-2.20590E-04 1.88425E-01 9.72656E-14-1.32270E-14
 -1      2873 2.01563E+01 9.76487E-02 1.62284E-03 2.17164E-01 1.76598E-15-4.42385E-14
 -1      2874 2.01237E+01 1.30492E-01-5.68802E-04 2.56586E-01 4.01390E-14-6.25635E-14
 -1      2875 2.00894E+01 6.80412E-02-1.76197E-04 1.37824E-01-1.40737E-14 1.96714E-13
 -1      2876 2.01129E+01 7.75439E-02 1.33853E-03 1.60703E-01 7.57151E-14 1.31558E-13
 -1      2877 2.00918E+01 1.04501E-01-4.88149E-04 1.91799E-01 1.12944E-14 3.00694E-14
 -1      2878 2.00618E+01 5.21720E-02-1.34233E-04 9.81999E-02-1.31721E-14 2.07387E-13
 -1      2879 2.00795E+01 6.01480E-02 1.07704E-03 1.16006E-01-9.46473E-15 2.33902E-13
 -1      2880 2.00669E+01 8.17004E-02-4.14182E-04 1.40083E-01-1.37917E-14 4.04227E-14
 -1      2881 2.00413E+01 3.91274E-02-9.79448E-05 6.78226E-02 1.21201E-13 2.49698E-13
 -1      2882 2.00542E+01 4.56260E-02 8.47408E-04 8.13848E-02 8.01501E-14 2.55560E-13
 -1      2883 2.00477E+01 6.24594E-02-3.46219E-04 9.96759E-02 8.29748E-15 5.37179E-14
 -1      2884 2.00262E+01 2.86833E-02-6.83045E-05 4.50196E-02 2.97844E-13 1.51998E-14
 -1      2885 2.00355E+01 3.38463E-02 6.52644E-04 5.51291E-02 2.01432E-13 1.15899E-13
 -1      2886 2.00331E+01 4.67081E-02-2.84701E-04 6.87477E-02 2.73927E-13 1.38431E-13
 -1      2887 2.00155E+01 2.05144E-02-4.51066E-05 2.82724E-02 3.44460E-13-9.05650E-14
 -1      2888 2.00220E+01 2.45237E-02 4.92050E-04 3.56394E-02 3.11606E-13-1.60310E-14
 -1      2889 2.00222E+01 3.41396E-02-2.30183E-04 4.55583E-02 3.60949E-13-8.01857E-14
 -1      2890 2.00081E+01 1.42639E-02-2.76096E-05 1.62620E-02 2.28822E-13 1.14202E-13
 -1      2891 2.00125E+01 1.73101E-02 3.62795E-04 2.14979E-02 3.58683E-13 1.41316E-13
 -1      2892 2.00142E+01 2.43382E-02-1.82931E-04 2.85425E-02 1.88123E-13 5.57994E-14
 -1      2893 2.00031E+01 9.58342E-03-1.48998E-05 7.87997E-03-1.47022E-13 1.99712E-13
 -1      2894 2.00059E+01 1.18480E-02 2.61018E-04 1.14945E-02 5.68974E-14 2.22103E-13
 -1      2895 2.00085E+01 1.68590E-02-1.42840E-04 1.63483E-02 3.22367E-14 2.62892E-13
 -1      2896 2.00000E+01 6.15460E-03-6.08932E-06 2.22111E-03-2.35981E-13 6.61816E-14
 -1      2897 2.00017E+01 7.80088E-03 1.82533E-04 4.62731E-03-1.87890E-13 2.27063E-13
 -1      2898 2.00046E+01 1.12729E-02-1.09488E-04 7.84389E-03-1.21398E-13 2.83567E-13
 -1      2899 1.99982E+01 3.69798E-03-4.22670E-07-1.43540E-03-8.18206E-14 1.80416E-13
 -1      2900 1.99991E+01 4.86798E-03 1.23274E-04 8.86969E-05-2.31741E-13 1.24680E-14
 -1      2901 2.00019E+01 7.19054E-03-8.22430E-05 2.10717E-03-1.89936E-13 1.62043E-13
 -1      2902 1.99973E+01 1.97437E-03 2.68550E-06-3.64844E-03-8.85806E-15-1.26128E-14
 -1      2903 1.99976E+01 2.78878E-03 7.95558E-05-2.75582E-03 8.84606E-14 1.58580E-13
 -1      2904 2.00002E+01 4.27102E-03-6.03798E-05-1.59428E-03 3.99721E-14 1.07888E-13
 -1      2905 1.99970E+01 7.81943E-04 3.69055E-06-4.83816E-03-1.89082E-16-3.61252E-13
 -1      2906 1.99970E+01 1.34210E-03 4.81906E-05-4.39088E-03-1.14307E-14-2.67124E-13
 -1      2907 1.99993E+01 2.22322E-03-4.31247E-05-3.82703E-03 1.66203E-13-2.67379E-13
 -1      2908 1.99971E+01-4.86806E-05 2.92901E-06-5.30816E-03-9.55665E-14-2.15499E-13
 -1      2909 1.99969E+01 3.42073E-04 2.64442E-05-5.17407E-03-1.40724E-13-4.02421E-13
 -1      2910 1.99987E+01 8.02102E-04-2.96955E-05-5.01583E-03-6.21786E-14-5.09151E-13
 -1      2911 1.99975E+01-6.60173E-04 5.13254E-07-5.26587E-03-6.18765E-14 2.37545E-13
 -1      2912 1.99971E+01-3.67754E-04 1.20850E-05-5.35724E-03-9.25896E-14 2.84382E-14
 -1      2913 1.99986E+01-1.98274E-04-1.96375E-05-5.46732E-03-2.11280E-13-3.74454E-13
 -1      2914 1.99980E+01-1.16783E-03-3.54655E-06-4.83491E-03 8.58235E-14 5.34331E-13
 -1      2915 1.99976E+01-9.26163E-04 5.57250E-07-5.10400E-03 6.45819E-14 5.71056E-13
 -1      2916 1.99986E+01-9.45844E-04-9.73921E-06-5.39302E-03-1.66128E-13 1.72407E-13
 -1      2917 1.99986E+01-1.69067E-03-1.07786E-05-4.23054E-03-1.18922E-13 5.73646E-13
 -1      2918 1.99982E+01-1.44623E-03-1.08844E-05-4.64566E-03-4.19199E-14 4.87331E-13
 -1      2919 1.99990E+01-1.58837E-03 5.93655E-06-5.01295E-03-1.55001E-14 3.75359E-13
 -1      2920 1.99994E+01-2.25066E-03 1.47242E-05-4.48654E-03-1.22658E-13 7.92805E-13
 -1      2921 2.00024E+01-4.35071E-03 8.33331E-06-3.54948E-04 1.36123E-13-2.86607E-13
 -1      2922 2.00024E+01-4.29750E-03 5.65852E-06-1.00518E-03 2.20303E-13-5.22754E-13
 -1      2923 1.99988E+01-1.74540E-03-5.68592E-06 4.67289E-03-1.57431E-13-1.78323E-13
 -1      2924 1.99989E+01-1.92841E-03-1.73877E-06 4.38027E-03-2.11524E-13-1.18657E-13
 -1      2925 1.99994E+01-2.35996E-03 5.25303E-06 4.45646E-03-1.74583E-13-1.19489E-13
 -1      2926 1.99994E+01-1.85609E-03-7.70582E-06 4.94936E-03-8.40434E-14-3.07987E-13
 -1      2927 2.00019E+01-3.93916E-03 1.23439E-05-2.88624E-03-8.94088E-14-2.45494E-13
 -1      2928 2.00016E+01-3.68831E-03-1.82997E-06-3.36902E-03-1.60133E-14-3.67878E-13
 -1      2929 2.00024E+01-4.30123E-03 6.14158E-06 1.00663E-03-6.45997E-14-4.16597E-13
 -1      2930 2.00024E+01-4.35326E-03 8.02772E-06 3.55847E-04 7.65825E-14-3.64976E-13
 -1      2931 2.00030E+01-3.52531E-03-2.95683E-06-9.88663E-07 7.03626E-14-4.87951E-13
 -1      2932 2.00023E+01-4.23114E-03 1.02776E-05-1.68916E-03 9.70854E-14-5.67807E-13
 -1      2933 2.00021E+01-4.07552E-03 2.12751E-06-2.28457E-03-2.12573E-14-1.92299E-13
 -1      2934 2.00025E+01-3.28889E-03-4.73304E-06-2.73591E-03-5.36675E-14-2.62586E-13
 -1      2935 2.00029E+01-3.46530E-03-3.35402E-06-1.42286E-03 8.44867E-14-5.09613E-13
 -1      2936 2.15678E+01-2.93177E-02-4.97382E-03-7.64311E-01 1.10692E-13 1.56514E-13
 -1      2937 2.14902E+01 1.58453E-01 1.25099E-02-7.17037E-01 1.36529E-13 1.80413E-13
 -1      2938 2.12361E+01 3.35651E-01-6.21496E-03-7.17414E-01 1.65860E-13 1.00910E-13
 -1      2939 2.14652E+01-1.30613E-01-9.77506E-03-8.88174E-01 1.20678E-13 1.00435E-13
 -1      2940 2.00021E+01-4.08948E-03 2.95792E-06 2.26842E-03 1.70277E-13-2.33360E-13
 -1      2941 2.00023E+01-4.24088E-03 1.02576E-05 1.68094E-03 1.33923E-13-2.22793E-13
 -1      2942 2.00029E+01-3.47484E-03-3.32907E-06 1.41100E-03 8.06942E-14-1.62893E-13
 -1      2943 2.00016E+01-3.70874E-03-1.71460E-06 3.36326E-03 2.01566E-13-3.64896E-14
 -1      2944 2.00019E+01-3.95783E-03 1.27669E-05 2.87565E-03 2.07259E-13-1.84177E-13
 -1      2945 2.00025E+01-3.30812E-03-3.61920E-06 2.71956E-03 2.80890E-13-1.30504E-13
 -1      2946 2.00008E+01-3.16527E-03-4.45460E-06 4.14027E-03 9.35574E-14 2.29380E-13
 -1      2947 2.00012E+01-3.49542E-03 1.42286E-05 3.82883E-03 1.94956E-13 1.98705E-13
 -1      2948 2.00018E+01-3.00699E-03-4.41868E-06 3.82082E-03 1.92284E-13 2.06343E-13
 -1      2949 1.99999E+01-2.59910E-03-3.30150E-06 4.42016E-03-4.52671E-14 2.71174E-14
 -1      2950 2.00004E+01-2.99674E-03 1.32689E-05 4.33406E-03 1.09936E-13 2.42266E-13
 -1      2951 2.00009E+01-2.68554E-03-7.30295E-06 4.48990E-03 9.64621E-14 1.91306E-13
 -1      2952 1.99999E+01-2.32895E-03-4.94577E-06 4.70206E-03-3.77415E-14 3.33772E-15
 -1      2953 2.86771E+01-8.96193E-01-8.88193E-02 1.50331E+00-4.21052E-13-5.09773E-13
 -1      2954 2.93470E+01 1.08904E+00-1.80514E-01 2.31982E+00-5.20778E-13-3.95697E-13
 -1      2955 2.08403E+01 1.95891E+00-8.19654E-03-2.96529E-01-1.96082E-13-1.64848E-13
 -1      2956 2.09313E+01 1.59138E+00-1.77998E-03 6.39345E-02-1.90472E-13-1.34902E-13
 -1      2957 8.00920E+00-1.20427E+00 1.77078E-01-3.24291E+00 3.72688E-14 5.59691E-13
 -1      2958 1.06103E+01-2.44925E+00 6.34263E-02-5.25665E+00 1.21264E-13 4.64156E-13
 -1      2959 2.01269E+01-5.02857E+00 1.27022E-01-5.29469E+00 2.98289E-13 1.25089E-13
 -1      2960 2.30986E+01-5.50145E+00-6.82225E-02-4.36033E+00 1.35780E-13-4.22752E-15
 -1      2961 2.26515E+01-1.08847E+00-1.40914E-02 5.74708E-02 1.63697E-14 1.95131E-13
 -1      2962 2.25347E+01-9.50388E-01 1.20723E-02-2.18501E-01 5.06049E-14 1.74094E-13
 -1      2963 2.23443E+01-1.08045E+00-1.09816E-02-5.26557E-01 2.24838E-14 1.74257E-13
 -1      2964 2.29460E+01-1.39963E+00-4.02963E-03 5.60563E-02-3.40455E-14 2.91501E-13
 -1      2965 2.09807E+01 1.31260E+00 4.94288E-03 3.52293E-01-1.66920E-13-9.98027E-14
 -1      2966 2.09853E+01 1.07385E+00-1.00609E-03 6.72419E-01-1.39367E-13-8.08037E-14
 -1      2967 2.06120E+01 1.20375E+00-2.85588E-03 8.29546E-01-1.18671E-13-1.00232E-13
 -1      2968 2.05564E+01 1.73391E+00 9.59044E-04 2.80588E-01-1.55642E-13-1.52425E-13
 -1      2969 1.91073E+01 3.04591E+00-1.62939E-03-5.53526E-02 2.37055E-13-1.47436E-13
 -1      2970 1.87942E+01 3.20603E+00-9.49280E-03-1.33999E-01 1.97755E-13-1.74883E-13
 -1      2971 1.87138E+01 3.00036E+00 3.74289E-03-2.90177E-01 1.58354E-13-1.56827E-13
 -1      2972 1.93584E+01 2.59701E+00 2.79619E-03-2.08566E-01 2.14944E-13-1.17264E-13
 -1      2973 2.17148E+01-5.39727E+00-1.17714E-02 5.25270E+00 1.44773E-13 8.98673E-14
 -1      2974 1.83487E+01-4.72866E+00 1.02511E-01 5.99258E+00 2.25389E-13-9.10105E-14
 -1      2975 2.32501E+01-5.24407E+00-2.60605E-02 4.38450E+00-2.21156E-13-1.16974E-13
 -1      2976 2.10089E+01-4.98267E+00 1.45350E-01 5.21070E+00-3.32359E-13-1.12237E-15
 -1      2977 7.72991E+00-1.73573E+00 5.62559E-02 4.01274E+00 1.64063E-13-7.21867E-13
 -1      2978 6.12343E+00-1.09362E+00 1.97432E-01 1.66855E+00 7.64389E-14-7.55562E-13
 -1      2979 1.84651E+01 3.46326E+00-9.31408E-03-1.19732E-03-2.12510E-14-3.31962E-13
 -1      2980 1.87588E+01 3.32246E+00-2.68425E-03-2.28907E-02-6.50548E-14-3.30617E-13
 -1      2981 2.88931E+01 5.13571E+00-1.78017E-01-1.68100E+00 7.32997E-13-1.46466E-13
 -1      2982 2.92597E+01 3.49752E+00-1.52244E-01-1.94781E+00 6.70269E-13-3.20341E-13
 -1      2983 1.44553E+01-3.53192E+00 5.71629E-02 6.11657E+00 2.86576E-13-2.44874E-13
 -1      2984 1.12220E+01-2.40118E+00 2.07145E-01 5.34368E+00 3.02702E-13-5.25469E-13
 -1      2985 2.87481E+01 4.80285E+00-1.65483E-01 1.64111E+00 5.50615E-13 3.80959E-13
 -1      2986 2.85741E+01 5.98216E+00-1.72226E-01 1.00204E+00 5.72820E-13 2.42695E-13
 -1      2987 2.93294E+01 4.88882E+00-2.45620E-01 1.89310E+00-7.49067E-13-3.47125E-13
 -1      2988 2.87920E+01 5.81870E+00-1.94948E-01 1.07497E+00-7.09321E-13-2.97234E-13
 -1      2989 2.29986E+01-5.02307E+00 9.81362E-02-4.44008E+00-3.16358E-13 8.65488E-14
 -1      2990 2.48852E+01-5.04267E+00-5.09364E-02-3.51671E+00-2.64247E-13 1.79717E-13
 -1      2991 2.82145E+01 6.47672E+00-1.89646E-01 1.78553E-01 6.33216E-13 1.63869E-13
 -1      2992 2.83489E+01 6.21378E+00-1.70886E-01-9.92568E-01 7.29250E-13 1.51545E-14
 -1      2993 2.64391E+01-4.83770E+00-1.15644E-01 2.63132E+00 4.31599E-15 2.23377E-13
 -1      2994 2.44849E+01-5.24353E+00 6.18115E-02 3.83856E+00 1.01141E-13 1.79828E-13
 -1      2995 2.02221E+01 2.82085E+00-3.52077E-03-4.84687E-01-1.63997E-13-2.57763E-13
 -1      2996 2.90243E+01-2.12857E+00-1.39304E-01-5.34464E-01-1.24144E-13 1.76317E-13
 -1      2997 2.81513E+01-3.60341E+00 5.32501E-03 9.49057E-01-5.79849E-14 2.10082E-13
 -1      2998 2.72226E+01-4.06798E+00 3.50702E-02 1.14307E+00 5.66595E-14 2.46067E-13
 -1      2999 1.04083E+01-1.73433E+00 1.59921E-01-4.83969E+00-2.26152E-13-5.49505E-13
 -1      3000 1.31552E+01-2.90493E+00 5.22534E-02-6.04980E+00-2.73642E-13-3.84859E-13
 -1      3001 6.23734E+00-8.57736E-01 1.39931E-01 1.32489E+00-1.43288E-13 1.07273E-12
 -1      3002 6.27397E+00-8.12424E-01 1.03526E-01-1.00739E+00-8.54178E-14 1.03792E-12
 -1      3003 1.65933E+01-3.87684E+00 1.59986E-01-6.13001E+00-2.99913E-13-2.40287E-13
 -1      3004 1.98368E+01-4.83134E+00-3.54061E-02-5.69852E+00-3.07601E-13-1.11675E-13
 -1      3005 1.90988E+01 3.10084E+00-1.04957E-02-1.44208E-02-7.48026E-14-3.20938E-13
 -1      3006 1.94893E+01 2.90086E+00-5.13776E-04-6.45369E-02-9.39858E-14-3.02884E-13
 -1      3007 1.89644E+01 2.93296E+00 6.90201E-03 1.58349E-01-5.42282E-14-2.94826E-13
 -1      3008 1.79816E+01 3.46787E+00 7.46292E-03-1.85066E-01 6.22898E-14-2.56010E-13
 -1      3009 1.79551E+01 3.73138E+00-4.15194E-03-1.25041E-01 6.85711E-14-2.93212E-13
 -1      3010 1.79771E+01 3.72537E+00-5.43646E-03-1.15785E-01 3.44155E-14-3.14910E-13
 -1      3011 2.08923E+01 1.65857E+00-4.46555E-03 2.66832E-01 2.76572E-13 7.46053E-14
 -1      3012 8.49152E+00-4.31708E-01 1.92490E-01 2.05313E+00-2.57554E-13 8.38274E-13
 -1      3013 2.84495E+01-2.30553E+00-5.58185E-02 1.08465E-01 2.68476E-13-4.10824E-13
 -1      3014 2.71494E+01-3.35921E+00-7.40395E-03 7.27555E-01 8.59703E-14-3.66075E-13
 -1      3015 2.81200E+01-1.41966E+00-1.09522E-01-1.01219E+00 3.10807E-13-4.92245E-13
 -1      3016 2.88631E+01 2.11631E+00-1.34276E-01-1.98923E+00 5.67518E-13-3.40006E-13
 -1      3017 2.81064E+01 7.78566E-01-8.44880E-02-1.90603E+00 4.66446E-13-4.18637E-13
 -1      3018 2.75403E+01 2.59123E+00-1.03961E-01-2.34166E+00 5.30631E-13-2.98706E-13
 -1      3019 1.92622E+01-4.08084E+00-3.40923E-02 5.11316E+00 2.92336E-13 1.81383E-14
 -1      3020 1.71137E+01-3.85361E+00 1.13454E-01 5.80164E+00 2.91045E-13-1.60053E-13
 -1      3021 1.59921E+01-2.64527E+00 7.91882E-02 5.27908E+00 3.12771E-13-1.90639E-13
 -1      3022 1.58874E+01-2.84737E+00 1.14850E-01-5.51968E+00-2.95708E-13-2.58599E-13
 -1      3023 2.79711E+01 5.35028E+00-1.37900E-01 4.50424E-01-6.83925E-13-2.13631E-13
 -1      3024 2.62306E+01 2.71595E+00-5.52213E-02-2.05137E+00-3.69454E-13 1.38459E-13
 -1      3025 2.79614E+01 3.88349E+00-1.23792E-01-2.02669E+00-4.74787E-13 9.26897E-14
 -1      3026 2.92116E+01 3.25290E+00-1.67626E-01-2.10641E+00-4.58855E-13 1.02557E-13
 -1      3027 2.63972E+01 1.21162E+00-1.36173E-01-2.51857E+00-2.70256E-13 2.18849E-13
 -1      3028 2.63570E+01-1.42647E+00-6.96755E-02-1.94227E+00-8.38270E-14 2.60628E-13
 -1      3029 2.64578E+01-1.87192E-01-3.03687E-02-2.28664E+00-1.28328E-13 2.55174E-13
 -1      3030 2.75454E+01 3.74805E-01-5.84668E-02-2.35234E+00-2.42618E-13 1.87822E-13
 -1      3031 2.76217E+01 2.67897E+00-7.97387E-02 2.61534E+00-5.45508E-13-5.43440E-13
 -1      3032 2.00018E+01-2.98727E-03-5.27121E-06-3.81949E-03-1.49048E-13-2.47828E-13
 -1      3033 2.00012E+01-3.47847E-03 1.36772E-05-3.82739E-03-8.67984E-14-2.92835E-13
 -1      3034 2.00008E+01-3.14398E-03-3.05658E-06-4.13320E-03-1.80960E-13-5.69878E-14
 -1      3035 1.92481E+01-4.35597E+00 9.51281E-02-5.17081E+00 3.22631E-13 1.86611E-13
 -1      3036 2.93279E+01 3.45279E+00-1.38023E-01 2.05690E+00-6.91697E-13-3.92575E-13
 -1      3037 2.00004E+01-2.93142E-03 1.36387E-05-4.35673E-03-1.62581E-13 1.22410E-13
 -1      3038 1.99999E+01-2.53169E-03-5.65759E-06-4.43359E-03-1.49274E-13 5.12453E-13
 -1      3039 1.99997E+01-2.17401E-03-1.33314E-05-4.76230E-03-2.20789E-13 5.46970E-13
 -1      3040 2.00008E+01-2.61551E-03-8.06612E-06-4.50468E-03-3.52136E-13-1.75264E-16
 -1      3041 1.92836E+01-4.40141E+00 9.12299E-02 5.37025E+00-4.69375E-13 1.27887E-13
 -1      3042 2.80985E+01-2.64818E+00-5.01914E-02 8.30550E-01-2.90061E-13-5.10814E-13
 -1      3043 2.71249E+01 5.64981E+00-8.81927E-02 5.48274E-01 5.79009E-13 1.74165E-13
 -1      3044 2.34816E+01-5.03599E+00 8.30985E-02 3.98565E+00 1.98855E-13 1.69191E-13
 -1      3045 2.15642E+01-4.56473E+00 5.10550E-02-4.62639E+00-3.18121E-13 4.37636E-14
 -1      3046 2.85106E+01 3.53204E+00-1.34982E-01 1.89066E+00 4.57523E-13 4.51389E-13
 -1      3047 2.71204E+01 3.79341E+00-1.24499E-01 1.91914E+00 4.17846E-13 4.65267E-13
 -1      3048 2.78720E+01 2.12857E+00-9.83411E-02 1.99564E+00 2.68910E-13 5.46077E-13
 -1      3049 2.73953E+01 5.06172E+00-9.93774E-02-1.37843E+00 6.32439E-13-9.24608E-14
 -1      3050 1.33655E+01-2.36576E+00 1.56547E-01-5.05544E+00 2.21212E-13 4.24286E-13
 -1      3051 2.45639E+01-4.96835E+00 1.33900E-02-2.86850E+00 1.26926E-13-2.54331E-13
 -1      3052 2.07738E+01 1.46069E+00-1.47406E-04-4.32251E-02 2.44074E-13 3.63550E-14
 -1      3053 2.88254E+01-1.16515E+00-8.08487E-02 7.12658E-01 3.49304E-14 4.24202E-13
 -1      3054 2.80973E+01-8.28091E-02-1.12657E-01 1.68171E+00 9.10660E-14 5.28425E-13
 -1      3055 2.76384E+01-2.39148E+00-3.97806E-05 1.74082E-01-1.10210E-13 4.41203E-13
 -1      3056 2.00967E+01 2.55949E+00 1.16131E-04-1.85609E-01-1.32455E-13-2.55546E-13
 -1      3057 2.59310E+01-4.36190E+00-2.36460E-02-2.10127E+00-2.44783E-13 2.83717E-13
 -1      3058 1.80704E+01 3.67691E+00-7.05306E-03-5.04095E-02 2.70023E-14-3.03299E-13
 -1      3059 1.82360E+01 3.60486E+00-3.50835E-03-4.71245E-02-7.23140E-15-3.12197E-13
 -1      3060 1.83622E+01 3.28222E+00 7.40838E-03 8.60240E-02-1.43701E-14-2.96499E-13
 -1      3061 1.80226E+01 3.46439E+00 7.87151E-03-4.40668E-02 2.25979E-14-2.91386E-13
 -1      3062 1.08702E+01-1.42704E+00 1.60225E-01 4.29248E+00 2.49537E-13-5.34295E-13
 -1      3063 1.20410E+01-2.25444E+00 1.87970E-01 5.41044E+00-5.93955E-13 6.89865E-13
 -1      3064 1.14787E+01-1.25690E+00 1.26586E-01 4.42024E+00-5.05394E-13 6.71518E-13
 -1      3065 1.42587E+01-2.80105E+00-2.49950E-02 5.52682E+00-6.41112E-13 4.23730E-13
 -1      3066 7.48315E+00-4.40661E-01 2.00673E-01 4.14702E-01 2.72699E-15-6.78679E-13
 -1      3067 2.46108E+01-4.77116E+00-9.60674E-03 2.99988E+00-1.78906E-13-2.16258E-13
 -1      3068 2.68271E+01-3.34317E+00-2.57425E-02 1.68660E-01-1.29046E-13-4.96976E-13
 -1      3069 9.25281E+00-3.27188E-01 1.01225E-01-2.79946E+00-1.28824E-13-5.34683E-13
 -1      3070 9.74378E+00-1.06223E+00 1.47225E-01-4.05795E+00-1.80592E-13-5.87586E-13
 -1      3071 1.21919E+01-9.84984E-01 1.02595E-01-4.25543E+00-2.45338E-13-4.58591E-13
 -1      3072 2.66423E+01-2.32233E+00-3.21505E-02-1.16973E+00 1.19783E-14 1.90188E-13
 -1      3073 2.87591E+01-1.20967E+00-7.03569E-02-1.48206E+00-1.78246E-13 2.38115E-13
 -1      3074 2.77627E+01-2.11087E+00-3.23158E-02-1.07336E+00-6.95416E-14 2.28116E-13
 -1      3075 9.90053E+00-2.91726E-01 8.03710E-02 2.72375E+00-3.23283E-13 6.01935E-13
 -1      3076 9.01972E+00 1.33126E-01 9.28168E-02 1.00512E+00-2.03365E-13 8.62893E-13
 -1      3077 2.03306E+01 1.65425E+00-5.27976E-04-2.55278E-01 2.11983E-13-2.70067E-14
 -1      3078 1.99547E+01 1.91388E+00-2.19538E-03-3.25172E-01 2.07365E-13-7.71879E-14
 -1      3079 2.02092E+01 1.08668E+00 3.71301E-03 1.21065E+00-8.56236E-14-1.23196E-13
 -1      3080 2.02546E+01 8.28500E-01 3.41037E-03 1.44670E+00-7.56128E-14-1.25467E-13
 -1      3081 2.02647E+01 5.48622E-01 6.69699E-03 1.69598E+00-4.31353E-14-8.69223E-14
 -1      3082 2.03983E+01 2.29345E-01 7.30235E-03 1.87039E+00-1.95122E-14-8.13019E-14
 -1      3083 1.97312E+01 8.69920E-01-6.05038E-03 1.61165E+00-4.20556E-14-1.37669E-13
 -1      3084 2.05076E+01-1.37136E-01 1.33421E-02 2.09243E+00-1.71818E-14-4.70782E-14
 -1      3085 2.07884E+01-5.72234E-01 1.18490E-02 2.18734E+00-5.44118E-15-6.00597E-14
 -1      3086 1.98010E+01 1.67123E-01-1.35448E-02 2.11535E+00-8.71579E-15-9.98862E-14
 -1      3087 2.11029E+01-1.07053E+00 2.73851E-02 2.35696E+00 3.54169E-14-1.16556E-14
 -1      3088 2.15994E+01-1.64792E+00 1.48299E-02 2.32079E+00 9.76120E-14-4.14939E-15
 -1      3089 2.01412E+01-7.91486E-01-2.39320E-02 2.57638E+00 4.30205E-14-5.11743E-16
 -1      3090 2.22722E+01-2.26274E+00 4.91684E-02 2.35344E+00 1.69586E-13 5.83476E-14
 -1      3091 2.30497E+01-2.88295E+00 1.97642E-02 2.08169E+00 1.84236E-13 8.70107E-14
 -1      3092 2.09832E+01-2.07659E+00-3.49983E-02 2.91303E+00 1.59356E-13 4.73701E-14
 -1      3093 2.59378E+01-3.77966E+00 2.85124E-02-6.33329E-01 3.92368E-14-4.66941E-13
 -1      3094 2.40942E+01-3.48912E+00-2.18209E-04-1.37864E+00 2.57183E-13-3.90717E-13
 -1      3095 2.32965E+01-2.96137E+00 6.05648E-02-1.82540E+00 2.93163E-13-3.18225E-13
 -1      3096 2.23250E+01-2.40249E+00 4.16161E-03-2.01488E+00 2.51311E-13-2.07602E-13
 -1      3097 2.17017E+01-1.80977E+00 3.59800E-02-2.20303E+00 2.67604E-13-1.50890E-13
 -1      3098 2.18513E+01-3.00163E+00-5.44031E-02-2.66548E+00 3.27836E-13-1.60589E-13
 -1      3099 2.11724E+01-1.28923E+00 8.94597E-03-2.15945E+00 1.70771E-13-1.27500E-13
 -1      3100 2.07596E+01-8.22947E-01 1.67113E-02-2.18369E+00 1.14863E-13-1.52547E-13
 -1      3101 2.05302E+01-1.66099E+00-3.80372E-02-2.64333E+00 1.97578E-13-1.08684E-13
 -1      3102 2.05255E+01-4.50280E-01 1.01099E-02-2.05124E+00 1.21798E-13-1.78563E-13
 -1      3103 2.02794E+01-1.49597E-01 6.57916E-03-1.99644E+00 1.46441E-13-2.10592E-13
 -1      3104 1.98781E+01-6.18102E-01-1.83410E-02-2.35958E+00 1.16284E-13-1.04908E-13
 -1      3105 2.02011E+01 8.11365E-02 7.42847E-03-1.84943E+00 1.25417E-13-1.69696E-13
 -1      3106 2.00631E+01 2.51877E-01 1.15479E-03-1.75740E+00 1.50902E-13-2.68144E-13
 -1      3107 1.96219E+01 3.38177E-02-9.29129E-03-2.03736E+00 1.05446E-13-2.86574E-14
 -1      3108 2.00641E+01 3.74507E-01 5.34476E-03-1.61605E+00 7.37585E-14-2.48255E-13
 -1      3109 1.99873E+01 4.54481E-01-1.30317E-03-1.50996E+00 2.63453E-14-2.92100E-13
 -1      3110 1.95716E+01 4.04018E-01-3.26819E-03-1.73053E+00 5.52963E-14-5.68814E-14
 -1      3111 2.00213E+01 5.05153E-01 3.90241E-03-1.38114E+00-1.57058E-14-3.07814E-13
 -1      3112 1.99762E+01 5.28207E-01-2.30933E-03-1.27342E+00-5.61296E-14-2.55973E-13
 -1      3113 1.96163E+01 5.76584E-01-2.03175E-04-1.45565E+00-2.48944E-14-2.03171E-13
 -1      3114 2.00193E+01 5.35319E-01 3.03235E-03-1.15830E+00-9.16435E-14-2.33620E-13
 -1      3115 1.99894E+01 5.25695E-01-2.57530E-03-1.05597E+00-1.04983E-13-3.48430E-13
 -1      3116 1.96937E+01 6.26087E-01 1.10973E-03-1.21251E+00-1.15069E-13-1.16908E-13
 -1      3117 2.00302E+01 5.08898E-01 2.51150E-03-9.54574E-01-3.88237E-14-3.77497E-13
 -1      3118 2.00072E+01 4.82582E-01-2.48247E-03-8.61548E-01-6.56032E-15-3.30822E-13
 -1      3119 1.97736E+01 6.04518E-01 1.46667E-03-9.98510E-01-1.36159E-13-9.48339E-14
 -1      3120 2.00416E+01 4.54448E-01 2.17180E-03-7.73558E-01 7.97646E-14-3.29271E-13
 -1      3121 2.00219E+01 4.21319E-01-2.22253E-03-6.91755E-01 1.08025E-13-2.85343E-13
 -1      3122 1.98428E+01 5.46250E-01 1.38110E-03-8.11662E-01 5.66935E-14-9.19819E-14
 -1      3123 2.00488E+01 3.89414E-01 1.91035E-03-6.16650E-01 1.90446E-14-3.47547E-13
 -1      3124 2.00312E+01 3.55237E-01-1.90092E-03-5.46642E-01 1.49847E-14-3.32574E-13
 -1      3125 1.98975E+01 4.72659E-01 1.13117E-03-6.50525E-01 4.32895E-14-1.89987E-13
 -1      3126 2.00512E+01 3.23830E-01 1.67652E-03-4.83624E-01 9.37675E-15-3.10783E-13
 -1      3127 2.00354E+01 2.91726E-01-1.57495E-03-4.25078E-01 4.77960E-14-3.68306E-13
 -1      3128 1.99381E+01 3.96379E-01 8.50733E-04-5.13670E-01 2.65736E-14-2.52845E-13
 -1      3129 2.00497E+01 2.63018E-01 1.45290E-03-3.73098E-01-1.77670E-14-4.43338E-13
 -1      3130 2.00358E+01 2.34477E-01-1.27379E-03-3.25124E-01-2.19011E-13-4.69887E-13
 -1      3131 1.99667E+01 3.24381E-01 5.99169E-04-3.99342E-01-6.86924E-14-2.42146E-13
 -1      3132 2.00456E+01 2.09418E-01 1.23774E-03-2.82965E-01-1.75455E-13-3.36987E-13
 -1      3133 2.00335E+01 1.84966E-01-1.01007E-03-2.44374E-01-1.10253E-13-2.35466E-13
 -1      3134 1.99860E+01 2.60087E-01 3.96762E-04-3.05427E-01-4.99756E-14-3.72384E-13
 -1      3135 2.00400E+01 1.63784E-01 1.03505E-03-2.10742E-01-1.42326E-13-1.38476E-13
 -1      3136 2.00299E+01 1.43400E-01-7.87121E-04-1.80235E-01-1.94668E-14-8.45209E-14
 -1      3137 1.99982E+01 2.04774E-01 2.44765E-04-2.29562E-01-6.24129E-14-2.01665E-13
 -1      3138 2.00340E+01 1.25933E-01 8.49553E-04-1.53842E-01-2.15056E-14-1.28049E-13
 -1      3139 2.00256E+01 1.09309E-01-6.03376E-04-1.30128E-01-8.48787E-14-1.83315E-13
 -1      3140 2.00055E+01 1.58489E-01 1.36470E-04-1.69283E-01-6.27714E-14-1.46877E-13
 -1      3141 2.00280E+01 9.51962E-02 6.84677E-04-1.09755E-01-1.22954E-13-1.57018E-13
 -1      3142 2.00213E+01 8.18945E-02-4.54967E-04-9.16301E-02-1.49459E-13-5.46797E-14
 -1      3143 2.00094E+01 1.20613E-01 6.28797E-05-1.22174E-01-8.62544E-14-2.63179E-13
 -1      3144 2.00226E+01 7.06970E-02 5.42002E-04-7.61686E-02-1.18755E-13-1.33429E-14
 -1      3145 2.00173E+01 6.02372E-02-3.37149E-04-6.25542E-02-1.57683E-14 2.66932E-14
 -1      3146 2.00110E+01 9.02076E-02 1.53407E-05-8.59670E-02-1.19212E-13-1.93246E-13
 -1      3147 2.00178E+01 5.15027E-02 4.21472E-04-5.10285E-02 4.55125E-15 9.55455E-14
 -1      3148 2.00137E+01 4.34149E-02-2.45091E-04-4.09899E-02 1.40582E-13 6.79237E-14
 -1      3149 2.00112E+01 6.62250E-02-1.34522E-05-5.86162E-02-2.27241E-15-1.39753E-14
 -1      3150 2.00137E+01 3.67150E-02 3.21839E-04-3.25636E-02 7.97616E-14 1.22670E-15
 -1      3151 2.00106E+01 3.05662E-02-1.74279E-04-2.53114E-02 5.15074E-14-5.67362E-14
 -1      3152 2.00105E+01 4.76250E-02-2.92362E-05-3.83309E-02 1.61419E-14 1.80311E-13
 -1      3153 2.00104E+01 2.55143E-02 2.41109E-04-1.92840E-02 4.57920E-14-9.32949E-14
 -1      3154 2.00081E+01 2.09208E-02-1.20697E-04-1.41664E-02 3.06888E-16-2.30621E-13
 -1      3155 2.00094E+01 3.34409E-02-3.63134E-05-2.35848E-02-4.85617E-14 6.42182E-15
 -1      3156 2.00076E+01 1.71791E-02 1.76930E-04-9.96384E-03-1.21027E-13-3.75653E-13
 -1      3157 2.00060E+01 1.38104E-02-8.08902E-05-6.45367E-03-3.09561E-14-5.24291E-13
 -1      3158 2.00080E+01 2.28106E-02-3.78028E-05-1.31070E-02-1.37714E-13-1.64142E-13
 -1      3159 2.00055E+01 1.10907E-02 1.26874E-04-3.61487E-03 4.29164E-14-6.19769E-13
 -1      3160 2.00043E+01 8.66737E-03-5.19636E-05-1.29402E-03-4.42302E-14-7.87444E-13
 -1      3161 2.00067E+01 1.49870E-02-3.59071E-05-5.86157E-03-1.26917E-13-3.37687E-13
 -1      3162 2.00038E+01 6.72791E-03 8.86164E-05 5.43741E-04 5.03278E-14-6.73900E-13
 -1      3163 2.00030E+01 5.01698E-03-3.15500E-05 1.99970E-03 1.77323E-13-5.12739E-13
 -1      3164 2.00054E+01 9.33620E-03-3.21727E-05-1.02120E-03 5.64754E-14-3.85935E-13
 -1      3165 2.00025E+01 3.65685E-03 6.00624E-05 3.11551E-03 2.38389E-13-4.35187E-13
 -1      3166 2.00020E+01 2.46564E-03-1.77717E-05 3.95220E-03 1.74837E-13-1.24416E-13
 -1      3167 2.00042E+01 5.32771E-03-2.76702E-05 2.06061E-03 3.19086E-13-3.81405E-13
 -1      3168 2.00016E+01 1.51889E-03 3.93292E-05 4.55496E-03 5.73532E-14-6.03748E-14
 -1      3169 2.00012E+01 6.89193E-04-8.51092E-06 4.95244E-03 1.59509E-13-1.35436E-13
 -1      3170 2.00031E+01 2.52209E-03-2.30529E-05 3.87714E-03 2.20714E-13-3.17505E-13
 -1      3171 2.00009E+01 1.66111E-05 2.43524E-05 5.19587E-03 1.71815E-13-2.61091E-13
 -1      3172 2.00007E+01-5.84141E-04-3.41323E-06 5.28092E-03 3.03863E-15-2.99304E-13
 -1      3173 2.00022E+01 5.59421E-04-1.87825E-05 4.79338E-03 4.49402E-14-2.32195E-13
 -1      3174 2.00003E+01-1.08910E-03 1.69429E-05 5.26117E-03-8.44294E-14-1.92014E-13
 -1      3175 2.00003E+01-1.57372E-03-3.18643E-06 5.12302E-03 7.01271E-14-2.85972E-13
 -1      3176 2.00014E+01-8.80311E-04-1.62963E-05 5.08054E-03-1.86906E-15-2.36456E-13
 -1      3177 2.00035E+01-2.63386E-03-1.50895E-06 1.77174E-03 1.78768E-13-3.79713E-14
 -1      3178 2.00036E+01-2.68073E-03 1.77822E-06 1.09338E-03 5.80124E-14-1.28681E-13
 -1      3179 2.43888E+01-7.58628E-01-4.37893E-03 1.63996E+00 9.58764E-14 2.32026E-13
 -1      3180 2.43293E+01-1.37971E+00-1.65749E-02 1.31345E+00 3.40893E-14 2.38566E-13
 -1      3181 2.39127E+01-1.73091E+00-1.69956E-02 7.45322E-01 1.41198E-14 2.40101E-13
 -1      3182 2.37155E+01-1.84822E+00 1.31584E-02 3.32885E-01-2.19297E-14 2.72990E-13
 -1      3183 2.45628E+01-1.88435E+00-6.33149E-03 8.41006E-01 3.98154E-14 2.98944E-13
 -1      3184 2.38708E+01 2.95376E+00-2.02169E-02 1.17504E+00 2.26943E-13 2.22310E-13
 -1      3185 2.40812E+01 2.09199E+00-7.93986E-02 1.69845E+00 1.97297E-13 2.49876E-13
 -1      3186 2.46225E+01 4.02130E+00-9.10871E-02-6.94168E-01 4.03455E-13 6.90116E-15
 -1      3187 2.46080E+01 4.10292E+00-8.48899E-02 1.67802E-01 3.61627E-13 8.69838E-14
 -1      3188 2.44374E+01 5.57318E-02-5.31064E-02-2.18145E+00 1.98223E-13-2.09573E-13
 -1      3189 2.43247E+01 1.02600E+00-1.29221E-02-2.13675E+00 3.01759E-13-2.17191E-13
 -1      3190 2.42965E+01-1.40280E+00-2.05424E-02-1.47610E+00 1.56541E-14-1.08505E-13
 -1      3191 2.43696E+01-7.88836E-01-5.44438E-03-1.81278E+00 1.15762E-13-1.27462E-13
 -1      3192 2.51269E+01-5.55630E-01-1.30400E-03-1.97869E+00 1.22799E-13-2.90188E-13
 -1      3193 2.36677E+01-1.87845E+00 9.33921E-03-4.79778E-01-3.50421E-14-8.29790E-14
 -1      3194 2.38890E+01-1.74800E+00-1.35965E-02-9.10748E-01-1.94098E-14-1.18808E-13
 -1      3195 2.44943E+01-1.92454E+00 7.03979E-03-9.54436E-01-1.94848E-14-2.80147E-13
 -1      3196 2.28265E+01-1.68007E+00 1.98078E-02 3.37026E-01-7.43984E-14 1.03997E-15
 -1      3197 2.31094E+01-1.83838E+00-1.28640E-02-1.67220E-02-4.01580E-14-1.18399E-14
 -1      3198 2.34648E+01-2.18388E+00 1.68641E-03 8.77578E-02-7.70477E-14-2.07880E-13
 -1      3199 2.20366E+01-1.19979E+00 1.76489E-02 8.57060E-01-1.49751E-13 5.20582E-14
 -1      3200 2.23135E+01-1.46227E+00-9.96692E-03 6.27214E-01-8.57795E-14 4.88775E-14
 -1      3201 2.23952E+01-1.85301E+00-2.17342E-02 8.30409E-01-1.43573E-13 2.93023E-14
 -1      3202 2.14152E+01-7.01617E-01 1.26454E-02 1.11539E+00-4.96917E-14 1.09556E-13
 -1      3203 2.16496E+01-9.50533E-01-4.99465E-03 9.93952E-01-1.37969E-13 1.66337E-13
 -1      3204 2.15520E+01-1.24428E+00-1.83192E-02 1.20803E+00-1.49492E-13 1.05694E-13
 -1      3205 2.09714E+01-2.97528E-01 7.87956E-03 1.19202E+00 4.68538E-14 2.28098E-13
 -1      3206 2.11540E+01-4.89091E-01-1.34825E-03 1.15050E+00 3.97563E-14 2.91215E-13
 -1      3207 2.09558E+01-6.74822E-01-1.35919E-02 1.33780E+00-5.10712E-14 1.61288E-13
 -1      3208 2.06714E+01-1.51796E-02 4.29929E-03 1.15605E+00-1.13012E-14 3.52028E-13
 -1      3209 2.08084E+01-1.43700E-01 6.07114E-04 1.16728E+00 4.36823E-14 2.75578E-13
 -1      3210 2.05702E+01-2.37733E-01-8.91959E-03 1.31944E+00-3.61419E-15 4.17144E-13
 -1      3211 2.04736E+01 1.58343E-01 1.90206E-03 1.05691E+00-1.92895E-13 4.11105E-13
 -1      3212 2.05757E+01 8.27817E-02 1.56144E-03 1.09953E+00-7.47493E-14 3.43034E-13
 -1      3213 2.03360E+01 5.57746E-02-5.32450E-03 1.22047E+00-3.82797E-14 3.99036E-13
 -1      3214 2.03432E+01 2.48968E-01 4.17446E-04 9.27339E-01-1.10004E-13 2.10087E-13
 -1      3215 2.04204E+01 2.12302E-01 1.97250E-03 9.86039E-01-1.53943E-13 2.89655E-13
 -1      3216 2.02005E+01 2.29122E-01-2.96360E-03 1.08275E+00-1.17178E-13 4.23742E-13
 -1      3217 2.02555E+01 2.82602E-01-4.19198E-04 7.88295E-01-1.89862E-13 4.69766E-14
 -1      3218 2.03153E+01 2.71945E-01 2.10497E-03 8.52707E-01-1.00141E-13 1.38447E-13
 -1      3219 2.01251E+01 3.14243E-01-1.55132E-03 9.31304E-01-9.93448E-14 1.70568E-13
 -1      3220 2.01945E+01 2.80331E-01-8.29116E-04 6.52731E-01-3.29864E-14 1.76792E-14
 -1      3221 2.02417E+01 2.85603E-01 2.08765E-03 7.16206E-01-1.38299E-13 2.47387E-15
 -1      3222 2.00842E+01 3.40136E-01-7.66498E-04 7.81043E-01-1.17016E-13 1.00160E-14
 -1      3223 2.01503E+01 2.57620E-01-9.73747E-04 5.28169E-01 9.42675E-14 1.04605E-16
 -1      3224 2.01881E+01 2.71607E-01 1.97872E-03 5.86767E-01 1.05105E-13-2.01123E-15
 -1      3225 2.00621E+01 3.29493E-01-3.59138E-04 6.40692E-01 9.84728E-14 1.98167E-14
 -1      3226 2.01169E+01 2.25044E-01-9.65513E-04 4.18427E-01 5.23866E-14-2.49821E-14
 -1      3227 2.01475E+01 2.42905E-01 1.81013E-03 4.70119E-01 9.36881E-14 3.02563E-14
 -1      3228 2.00497E+01 2.98612E-01-1.68623E-04 5.14999E-01 9.77342E-14-3.06901E-14
 -1      3229 2.00911E+01 1.89390E-01-8.76940E-04 3.24836E-01 1.89190E-13-1.11410E-13
 -1      3230 2.01157E+01 2.08078E-01 1.60659E-03 3.68884E-01 1.21030E-13-6.63147E-14
 -1      3231 2.00419E+01 2.58509E-01-9.36128E-05 4.06035E-01 1.58655E-13 8.20513E-14
 -1      3232 2.00706E+01 1.54726E-01-7.53331E-04 2.47134E-01-4.10508E-14-4.51720E-14
 -1      3233 2.00904E+01 1.72457E-01 1.38851E-03 2.83625E-01 4.00743E-14-9.19782E-14
 -1      3234 2.00362E+01 2.16187E-01-7.37355E-05 3.14084E-01 8.27289E-14-1.98375E-14
 -1      3235 2.00543E+01 1.23258E-01-6.21608E-04 1.84114E-01-1.75836E-14-7.86790E-15
 -1      3236 2.00700E+01 1.39103E-01 1.17159E-03 2.13621E-01 1.08277E-14 1.50358E-14
 -1      3237 2.00315E+01 1.75788E-01-7.58617E-05 2.38287E-01-8.87144E-14 1.52141E-14
 -1      3238 2.00413E+01 9.59843E-02-4.96717E-04 1.34076E-01-6.63210E-14 8.33658E-16
 -1      3239 2.00536E+01 1.09563E-01 9.67063E-04 1.57419E-01-5.89166E-14 2.08157E-14
 -1      3240 2.00272E+01 1.39512E-01-8.33579E-05 1.77117E-01-4.76465E-14-2.86216E-14
 -1      3241 2.00309E+01 7.31492E-02-3.86034E-04 9.51340E-02 7.73031E-14-4.94589E-14
 -1      3242 2.00404E+01 8.44184E-02 7.81999E-04 1.13225E-01-9.49318E-15-7.84503E-14
 -1      3243 2.00231E+01 1.08296E-01-8.89311E-05 1.28720E-01-3.14791E-14 1.08431E-13
 -1      3244 2.00228E+01 5.45574E-02-2.92324E-04 6.54191E-02 4.11410E-13-7.31474E-14
 -1      3245 2.00300E+01 6.36647E-02 6.20050E-04 7.91592E-02 2.66596E-13-5.59766E-15
 -1      3246 2.00194E+01 8.22937E-02-9.02171E-05 9.11545E-02 1.05981E-13 2.38153E-14
 -1      3247 2.00165E+01 3.97813E-02-2.15679E-04 4.31950E-02 2.14731E-13 9.90484E-14
 -1      3248 2.00219E+01 4.69715E-02 4.82252E-04 5.34174E-02 3.46983E-13 3.47139E-14
 -1      3249 2.00159E+01 6.12067E-02-8.72151E-05 6.25482E-02 2.57083E-13-6.84790E-14
 -1      3250 2.00116E+01 2.82939E-02-1.54763E-04 2.69227E-02 3.02642E-15 3.61117E-13
 -1      3251 2.00156E+01 3.38489E-02 3.67834E-04 3.43625E-02 8.24969E-14 2.60938E-13
 -1      3252 2.00129E+01 4.45020E-02-8.08771E-05 4.11884E-02 4.46050E-14 3.05985E-13
 -1      3253 2.00079E+01 1.95500E-02-1.07587E-04 1.52848E-02-6.76007E-14 4.79541E-13
 -1      3254 2.00108E+01 2.37523E-02 2.74893E-04 2.05680E-02-8.44320E-15 4.51816E-13
 -1      3255 2.00102E+01 3.15522E-02-7.23837E-05 2.55708E-02-1.44179E-13 4.63967E-13
 -1      3256 2.00052E+01 1.30328E-02-7.19749E-05 7.18518E-03-1.32650E-13 3.98402E-13
 -1      3257 2.00072E+01 1.61452E-02 2.00929E-04 1.08299E-02-8.42386E-14 4.29545E-13
 -1      3258 2.00079E+01 2.17207E-02-6.28097E-05 1.44158E-02-6.89718E-14 6.51437E-13
 -1      3259 2.00033E+01 8.27738E-03-4.58257E-05 1.73520E-03 2.28750E-14-1.15736E-13
 -1      3260 2.00046E+01 1.05336E-02 1.43232E-04 4.15935E-03-3.22370E-14 3.23871E-14
 -1      3261 2.00060E+01 1.44102E-02-5.30001E-05 6.66305E-03 8.54263E-14 2.16848E-13
 -1      3262 2.00019E+01 4.87928E-03-2.72838E-05-1.76858E-03 1.80250E-13-1.68798E-13
 -1      3263 2.00027E+01 6.48110E-03 9.91663E-05-2.36509E-04 3.35650E-14-6.45187E-14
 -1      3264 2.00045E+01 9.08682E-03-4.35839E-05 1.45569E-03 1.18569E-13-3.23465E-13
 -1      3265 2.00009E+01 2.49365E-03-1.47958E-05-3.86848E-03 2.08114E-13-3.67130E-13
 -1      3266 2.00014E+01 3.61226E-03 6.63613E-05-2.97729E-03 2.52113E-13-2.58215E-13
 -1      3267 2.00032E+01 5.28721E-03-3.50434E-05-1.88304E-03 2.66074E-13-3.85230E-13
 -1      3268 2.00003E+01 8.30732E-04-6.82352E-06-4.96889E-03-1.76840E-13-2.45568E-13
 -1      3269 2.00005E+01 1.60910E-03 4.27380E-05-4.53317E-03 1.38416E-13-2.33454E-13
 -1      3270 2.00022E+01 2.61743E-03-2.73925E-05-3.87331E-03 5.88399E-14-1.66604E-13
 -1      3271 1.99999E+01-3.49320E-04-2.48419E-06-5.36139E-03-2.55584E-13-2.31925E-13
 -1      3272 2.00000E+01 2.06781E-04 2.60442E-05-5.24895E-03-3.64754E-13-3.45553E-13
 -1      3273 2.00014E+01 7.50579E-04-2.00347E-05-4.90019E-03-2.50014E-13 1.18428E-14
 -1      3274 1.99996E+01-1.24382E-03-1.17161E-08-5.24434E-03-2.17809E-13 5.89140E-14
 -1      3275 1.99996E+01-8.20930E-04 1.34998E-05-5.36850E-03-3.40155E-13-1.21675E-13
 -1      3276 2.00008E+01-5.94744E-04-1.58525E-05-5.24679E-03-3.15501E-13-2.51100E-13
 -1      3277 1.99998E+01-1.85821E-03-8.01633E-07-4.91458E-03-1.79582E-13 3.84559E-13
 -1      3278 1.99996E+01-1.52167E-03-3.65692E-06-5.14394E-03-1.50952E-13 1.93503E-13
 -1      3279 2.00005E+01-1.46403E-03-6.13562E-06-5.14990E-03-3.70060E-13-1.87958E-13
 -1      3280 2.00004E+01-2.09190E-03 8.22375E-06-4.87566E-03-4.69725E-13 5.19353E-14
 -1      3281 1.99999E+01-2.02582E-03 8.55533E-06 4.89549E-03 5.25846E-14-2.35959E-13
 -1      3282 1.82644E+01 2.97490E+00 1.76018E-03-4.17224E-01 1.16482E-13-1.89706E-13
 -1      3283 1.80430E+01 3.08296E+00-9.18376E-03-3.81750E-01 7.99724E-14-2.20866E-13
 -1      3284 2.00029E+01-2.51823E-03-2.41754E-06 3.08598E-03 3.42585E-13 5.78063E-14
 -1      3285 2.00032E+01-2.62187E-03 5.02906E-06 2.47389E-03 2.17540E-13-3.11892E-14
 -1      3286 2.00039E+01-1.81464E-03 4.35575E-06 2.16665E-03 1.91858E-13-3.10323E-14
 -1      3287 2.00037E+01-2.67875E-03 4.92874E-07 3.47536E-04 5.06269E-14-4.35013E-13
 -1      3288 2.00037E+01-2.67681E-03-8.66620E-09-3.67034E-04 7.18276E-14-4.46725E-13
 -1      3289 2.00043E+01-1.80376E-03 6.43044E-06 7.23148E-04 9.03450E-14-3.10168E-13
 -1      3290 8.94982E+00-4.63445E-01 1.88935E-01-2.08472E+00-1.45717E-15 7.40685E-13
 -1      3291 1.51017E+01-1.79274E+00 9.77441E-02-4.89906E+00-2.97394E-13-2.59071E-13
 -1      3292 1.76888E+01-2.91797E+00 2.04608E-02-5.06934E+00-2.88089E-13-1.48853E-13
 -1      3293 2.43607E+01 1.10274E+00 7.41473E-03 1.96141E+00 1.41484E-13 2.82723E-13
 -1      3294 2.44371E+01 7.20411E-02-6.03888E-02 1.99036E+00 1.15638E-13 2.88544E-13
 -1      3295 2.51511E+01-4.92608E-01-7.82009E-03 1.85918E+00 9.10851E-14 3.35813E-13
 -1      3296 2.17605E+01-7.85507E-01-5.19978E-03-1.02162E+00 2.88325E-14 1.11674E-13
 -1      3297 2.15578E+01-4.79242E-01 1.63681E-02-1.08729E+00 6.26477E-14 1.25884E-13
 -1      3298 2.26893E+01-4.19546E+00 1.09237E-01-3.32070E+00 3.11142E-13-1.42704E-13
 -1      3299 2.45225E+01-4.25396E+00-3.48027E-02-2.01339E+00 1.67052E-13-3.75422E-13
 -1      3300 2.09142E+01 1.04748E+00 3.82963E-03-3.23450E-01 1.98254E-13 5.14299E-14
 -1      3301 2.05907E+01 1.40829E+00 6.50074E-04-2.71334E-01 2.13205E-13 1.28348E-14
 -1      3302 2.04702E+01 1.22813E+00-4.76510E-04-5.29694E-01 1.83290E-13 4.22327E-15
 -1      3303 2.09451E+01 7.69924E-01-4.26054E-03-5.62946E-01 1.87758E-13 6.18849E-14
 -1      3304 2.59630E+01 3.82931E+00-1.75712E-01 1.66200E+00 3.68150E-13 3.55278E-13
 -1      3305 2.56436E+01 4.57932E+00-1.06970E-01 7.77587E-01 4.34264E-13 2.19373E-13
 -1      3306 2.06607E+01-4.25746E+00-3.21736E-02 4.49117E+00-3.91673E-13-2.57780E-15
 -1      3307 1.78434E+01-3.39407E+00 1.78275E-01 5.34501E+00-5.11646E-13 2.82128E-13
 -1      3308 2.84024E+01 1.86503E+00-6.61618E-02-2.39369E+00-3.85220E-13 1.19793E-13
 -1      3309 2.00020E+01-2.30647E-03-6.53046E-06 4.16191E-03 1.48222E-13 1.00298E-14
 -1      3310 2.00025E+01-2.47746E-03 7.68719E-06 3.69132E-03 2.76272E-13 3.65738E-14
 -1      3311 2.00032E+01-1.79553E-03 3.78564E-06 3.46798E-03 3.07701E-13 1.65356E-14
 -1      3312 1.79416E+01-3.15724E+00 1.15682E-01-4.88226E+00 4.04322E-13 1.68341E-13
 -1      3313 2.05395E+01-4.00455E+00-2.23819E-02-4.25584E+00 3.64670E-13-3.93609E-14
 -1      3314 2.12620E+01-3.37361E+00 2.45589E-02-3.40841E+00 3.63744E-13-1.36353E-13
 -1      3315 2.40102E+01 2.64848E+00-2.29235E-02-1.52809E+00 3.22804E-13-1.53011E-13
 -1      3316 2.57826E+01 4.21743E+00-9.15845E-02-1.53619E+00 5.50116E-13-1.66311E-13
 -1      3317 2.63494E+01 2.97180E+00-1.54118E-01-2.24737E+00 5.49463E-13-2.66336E-13
 -1      3318 2.42133E+01 1.76483E+00-8.51875E-02-2.05449E+00 3.59497E-13-1.92935E-13
 -1      3319 2.59576E+01-4.22961E+00-2.00924E-02 1.58942E+00-8.69027E-14-3.50858E-13
 -1      3320 2.39378E+01-4.51378E+00 7.70935E-03 2.77547E+00-2.28161E-13-2.48608E-13
 -1      3321 1.28501E+01-1.19254E+00 4.97624E-02 4.34656E+00 2.88488E-13-3.80862E-13
 -1      3322 1.04041E+01-2.36795E-01 1.72945E-01 3.02307E+00 1.85376E-13-5.48353E-13
 -1      3323 2.45045E+01-4.81738E+00-8.19033E-02 2.83092E+00 1.80113E-13 1.94162E-13
 -1      3324 2.25128E+01-4.48566E+00 1.10599E-01 3.96285E+00 2.36505E-13 1.49060E-13
 -1      3325 2.80837E+01-1.84806E-01-1.69094E-01-2.10785E+00-2.76452E-13 2.54324E-13
 -1      3326 1.32786E+01-1.08995E+00 1.41584E-01-4.15429E+00 2.10550E-13 2.67189E-13
 -1      3327 1.55211E+01-2.42835E+00 2.32033E-03-4.97514E+00 3.45973E-13 2.81275E-13
 -1      3328 1.75788E+01-2.13244E+00 6.76871E-02-4.16146E+00 4.05599E-13 5.91176E-14
 -1      3329 1.99178E+01 2.37180E+00-5.71612E-04 7.65057E-02-1.05432E-13-2.45939E-13
 -1      3330 2.68856E+01-3.26922E+00-9.91525E-02-2.06762E-01 5.61157E-14 1.84748E-13
 -1      3331 2.05233E+01-3.92018E+00 5.84415E-02-4.62810E+00-2.63952E-13 4.35763E-15
 -1      3332 2.29714E+01-4.48694E+00-2.02532E-02-3.63444E+00-2.71713E-13 1.08522E-13
 -1      3333 2.51062E+01-4.26936E+00 1.19149E-02-2.14924E+00-2.01276E-13 2.14002E-13
 -1      3334 2.66343E+01-3.74254E+00-6.27478E-02-9.45150E-01-1.49707E-13 3.37591E-13
 -1      3335 8.91645E+00 6.70867E-02 6.53615E-02 1.54322E+00 5.15178E-14-6.04738E-13
 -1      3336 8.63506E+00 2.24115E-01 1.31772E-01-6.96000E-01-3.13048E-14-5.55417E-13
 -1      3337 1.13392E+01 3.50618E-01 1.31042E-01 1.92744E+00 1.15930E-13-4.56225E-13
 -1      3338 2.60563E+01-3.91400E+00 4.38547E-02 1.01704E+00 1.39238E-13 1.97758E-13
 -1      3339 9.36846E+00 2.62835E-01 1.34669E-01-7.18388E-01-3.84400E-14 8.43436E-13
 -1      3340 1.05528E+01-3.87055E-01 4.88195E-03-2.88416E+00 8.44290E-14 5.37098E-13
 -1      3341 2.50759E+01-3.73858E+00 1.91427E-02 1.27692E+00 1.50786E-13 1.13527E-13
 -1      3342 1.78962E+01 3.19930E+00-1.23804E-03-2.65778E-01 6.62557E-14-2.19152E-13
 -1      3343 1.78245E+01 3.23441E+00-7.36754E-03-1.92520E-01 4.02907E-14-2.39405E-13
 -1      3344 1.79254E+01 2.90659E+00 8.60164E-03-4.08365E-01 6.67979E-14-1.95690E-13
 -1      3345 1.98239E+01 1.72106E+00 1.95236E-03-5.71466E-01 1.88915E-13-7.64917E-14
 -1      3346 1.95781E+01 2.15818E+00 1.83059E-04-3.86090E-01 2.04135E-13-1.02911E-13
 -1      3347 1.92036E+01 2.37524E+00-7.37511E-03-4.44365E-01 1.79968E-13-1.09989E-13
 -1      3348 2.25307E+01-3.63935E+00-6.47084E-02 2.99741E+00 1.92211E-13 1.12913E-13
 -1      3349 2.40726E+01-3.47744E+00 6.50748E-02 1.89585E+00 1.80695E-13 1.04102E-13
 -1      3350 2.77736E+01-6.22734E-01-8.85911E-02-1.59281E+00 3.32685E-13-4.74523E-13
 -1      3351 2.70424E+01-1.76716E+00-3.04131E-02-1.06742E+00 1.82236E-13-4.61846E-13
 -1      3352 2.69685E+01 1.52970E-01-5.76542E-02-2.11051E+00 2.59001E-13-3.78253E-13
 -1      3353 2.61240E+01 2.00764E+00-6.54877E-02-2.26283E+00 4.47378E-13-2.75797E-13
 -1      3354 2.11204E+01-3.74479E+00 8.15055E-02 4.10502E+00 2.50112E-13 5.85330E-14
 -1      3355 1.87088E+01 2.76022E+00-7.55050E-03 3.45361E-01-2.95767E-14-2.69707E-13
 -1      3356 1.90881E+01 2.54786E+00-1.55878E-03 3.68027E-01-4.84771E-14-2.81145E-13
 -1      3357 2.00007E+01-1.99798E-03-1.03872E-05 4.87442E-03 4.83935E-14 1.70841E-13
 -1      3358 2.00025E+01-2.44301E-03 7.84907E-06-3.69247E-03-1.85897E-13-2.33217E-13
 -1      3359 2.00020E+01-2.28560E-03-3.92926E-06-4.15455E-03-3.50962E-13 5.32759E-14
 -1      3360 2.01808E+01 1.56248E+00 2.89295E-04 7.06852E-01-1.20471E-13-1.54675E-13
 -1      3361 2.02115E+01 1.32444E+00 1.52605E-03 9.66976E-01-9.65990E-14-1.50806E-13
 -1      3362 1.97491E+01 1.42483E+00-2.80046E-03 1.10437E+00-8.62639E-14-1.57946E-13
 -1      3363 2.00043E+01-1.79495E-03 7.51586E-06-7.60357E-04-3.53761E-14-4.35263E-13
 -1      3364 2.00036E+01-2.67015E-03 2.40079E-06-1.11138E-03-3.62739E-14-5.38069E-13
 -1      3365 2.00034E+01-2.61907E-03-2.01424E-06-1.79946E-03-7.59183E-14-4.09604E-13
 -1      3366 1.99485E+01 2.07157E+00-6.93068E-04 3.65944E-01-1.08023E-13-2.14388E-13
 -1      3367 1.33211E+01-5.08817E-01 5.49705E-02-3.80685E+00-2.28737E-13-3.62509E-13
 -1      3368 1.42318E+01-1.22056E+00 7.96904E-02-4.57759E+00-2.57523E-13-3.11189E-13
 -1      3369 1.60744E+01-1.34105E+00 2.98726E-02-4.23864E+00-2.79134E-13-2.11279E-13
 -1      3370 2.51177E+01 1.81227E+00-2.83395E-02 2.00463E+00 1.82600E-13 3.75072E-13
 -1      3371 2.35608E+01-2.16985E+00-1.43436E-02-2.02678E-01-4.00440E-14 2.41580E-13
 -1      3372 2.31602E+01-1.80195E+00-1.39067E-02-1.33611E-01-6.58727E-14 2.53186E-13
 -1      3373 2.28946E+01-1.61977E+00 2.37821E-02-4.60675E-01-7.14901E-14 2.29248E-13
 -1      3374 2.52143E+01 1.50289E+00-1.01693E-02-2.30341E+00 3.85955E-13-3.79651E-13
 -1      3375 2.38317E+01-3.94661E+00 1.39696E-03 2.09695E+00-2.28151E-13-3.07825E-13
 -1      3376 2.26791E+01-4.30317E+00 6.53669E-02 3.45539E+00-3.15546E-13-1.68676E-13
 -1      3377 2.09395E+01-3.70319E+00-1.38647E-02 3.77277E+00-3.51996E-13-1.84627E-14
 -1      3378 2.00032E+01-2.60147E-03 4.70012E-06-2.49222E-03-4.85881E-14-4.03179E-14
 -1      3379 2.00029E+01-2.49848E-03-5.42462E-06-3.10057E-03-9.01724E-14-1.77400E-13
 -1      3380 2.00032E+01-1.76506E-03 1.58980E-06-3.48125E-03-1.64079E-13-9.10747E-14
 -1      3381 2.00039E+01-1.79025E-03 6.35808E-06-2.19254E-03-7.04364E-14-2.77683E-13
 -1      3382 1.85360E+01 2.77981E+00-8.84921E-03-4.67938E-01 1.12326E-13-1.47337E-13
 -1      3383 1.83915E+01 2.60750E+00 5.00849E-03-5.92213E-01 9.85998E-14-1.60565E-13
 -1      3384 1.88551E+01 2.61646E+00 2.94441E-03-4.51814E-01 1.51361E-13-1.17496E-13
 -1      3385 2.62388E+01-3.44381E+00-3.35963E-02 4.53516E-01-3.08523E-14-3.83533E-13
 -1      3386 1.14085E+01-4.98058E-01 1.36125E-01 3.46651E+00-3.18103E-13 4.61409E-13
 -1      3387 1.18065E+01 6.63393E-02 7.99485E-02 2.57740E+00-1.87152E-13 4.97720E-13
 -1      3388 1.29753E+01-1.01861E+00-1.20355E-02 4.04729E+00-3.82985E-13 4.98143E-13
 -1      3389 2.00013E+01-2.11525E-03 8.52835E-06 4.65869E-03 4.12282E-14 9.87270E-14
 -1      3390 1.31918E+01-3.29092E-01 8.92174E-02-3.04546E+00 1.72501E-13 3.48360E-13
 -1      3391 1.07643E+01 4.99310E-01 1.24844E-01 5.00353E-02-1.12896E-13 7.02681E-13
 -1      3392 2.21250E+01-1.07955E+00 1.86119E-02-9.32783E-01-1.05048E-14 1.50200E-13
 -1      3393 2.16981E+01-1.05939E+00-2.13635E-02-1.23499E+00-1.26134E-14 9.87459E-14
 -1      3394 2.23875E+01-1.38325E+00-1.17542E-02-7.37810E-01-4.51702E-14 1.88107E-13
 -1      3395 2.67656E+01-2.70931E+00-1.97481E-02 2.54642E-01-9.62563E-14 3.74686E-13
 -1      3396 1.64806E+01-2.63126E+00 6.78964E-02 4.93676E+00-4.86576E-13 4.26367E-13
 -1      3397 2.13136E+01-1.97270E-01-3.49477E-03-1.05425E+00 9.37331E-14 8.76781E-14
 -1      3398 2.11779E+01 8.53261E-02 1.14550E-02-1.00386E+00 1.17186E-13 7.36951E-14
 -1      3399 2.11550E+01-3.55674E-01-1.48072E-02-1.24931E+00 6.99947E-14 7.20846E-14
 -1      3400 2.00019E+01-1.59984E-03 5.23551E-06 4.57921E-03 7.70940E-14 1.03476E-13
 -1      3401 1.48185E+01-1.50846E+00 1.31429E-01 4.68334E+00 3.03584E-13-2.72636E-13
 -1      3402 1.39098E+01-5.22236E-01 3.81477E-02 3.69826E+00 2.15543E-13-3.11799E-13
 -1      3403 1.67260E+01-1.92669E+00 5.33081E-02 4.46740E+00 2.94622E-13-1.30118E-13
 -1      3404 1.05967E+01 3.37816E-01 1.33323E-01-1.60391E+00-8.61707E-14-5.06803E-13
 -1      3405 1.81243E+01 3.09231E+00-6.67950E-03 1.83273E-01 4.69947E-16-2.97535E-13
 -1      3406 1.83827E+01 2.95849E+00-2.27580E-03 2.44521E-01-2.12292E-14-2.98782E-13
 -1      3407 1.85078E+01 2.62466E+00 7.16678E-03 4.62500E-01-3.42805E-14-2.70439E-13
 -1      3408 2.41875E+01-4.23730E+00 2.64888E-02-2.52483E+00-2.35067E-13 1.61208E-13
 -1      3409 2.48496E+01-3.69617E+00-1.35126E-02-1.31920E+00-1.49487E-13 1.90205E-13
 -1      3410 2.30441E+01-3.86339E+00-8.22516E-03-2.81791E+00-2.04715E-13 7.62324E-14
 -1      3411 1.94651E+01-3.18042E+00 5.41501E-02-4.58062E+00-2.56385E-13-6.94757E-14
 -1      3412 2.08775E+01-3.19598E+00 1.23130E-02-3.73743E+00-2.04582E-13 2.57086E-15
 -1      3413 1.84949E+01-2.23348E+00 2.93710E-02-4.24186E+00-2.32750E-13-1.32193E-13
 -1      3414 2.63388E+01-3.32033E-01-3.17862E-02 1.73276E+00 4.86139E-14 4.35291E-13
 -1      3415 2.68933E+01 9.27687E-01-8.51451E-02 2.09297E+00 1.53488E-13 4.94375E-13
 -1      3416 2.10779E+01 2.99100E-01-2.74253E-03-8.82710E-01 1.39431E-13 5.50071E-14
 -1      3417 2.10004E+01 5.62857E-01 7.84487E-03-7.36200E-01 1.61536E-13 5.48946E-14
 -1      3418 2.07547E+01 7.54214E-01-2.51403E-03-7.33067E-01 1.58621E-13 3.95457E-14
 -1      3419 2.08669E+01 2.47611E-01-8.91646E-03-1.05344E+00 1.16474E-13 3.29670E-14
 -1      3420 2.58061E+01 3.03670E+00-5.88098E-02 1.93999E+00 2.76112E-13 4.50074E-13
 -1      3421 2.01649E+01-2.88986E+00 5.44711E-02 3.97755E+00 2.34712E-13 3.16899E-14
 -1      3422 2.61443E+01 8.38051E-01-9.00554E-02-2.30629E+00 3.07365E-13-3.11119E-13
 -1      3423 1.90831E+01 6.44621E-01-1.13170E-03 1.98730E+00 6.18667E-15-1.44258E-13
 -1      3424 1.91898E+01 2.66665E-01 1.68005E-02 2.24458E+00 3.07497E-14-1.14199E-13
 -1      3425 1.91292E+01-1.94506E-01 5.40146E-03 2.59494E+00 6.30495E-14-5.71721E-14
 -1      3426 1.94195E+01-7.31166E-01 2.65595E-02 2.84106E+00 1.19863E-13-2.19812E-14
 -1      3427 1.83084E+01 2.68451E-01-8.35280E-03 2.47602E+00 8.75795E-14-1.12804E-13
 -1      3428 2.04088E+01-2.47974E+00 6.48628E-02-3.36090E+00 3.69463E-13-3.66712E-14
 -1      3429 1.28469E+01 4.89028E-01 1.24454E-01-2.08010E+00 5.35405E-14 3.34996E-13
 -1      3430 1.45737E+01-5.51378E-01-5.78958E-02-3.34571E+00 2.24437E-13 4.25458E-14
 -1      3431 1.97484E+01-1.68252E+00 2.07960E-02-3.04166E+00 2.58170E-13-6.81779E-15
 -1      3432 1.92713E+01-1.03599E+00 1.81348E-02-2.87710E+00 1.62120E-13-3.11530E-14
 -1      3433 1.92149E+01-5.56701E-01 2.53786E-02-2.54033E+00 9.77356E-14-5.81466E-14
 -1      3434 1.89735E+01-1.84020E-01-6.18544E-04-2.36789E+00 1.22983E-13-4.49278E-14
 -1      3435 1.82336E+01-5.93601E-01 1.67820E-02-2.91190E+00 1.18570E-13 1.59456E-14
 -1      3436 1.90511E+01 1.26762E-01 1.48758E-02-2.10697E+00 1.92961E-13-1.02618E-13
 -1      3437 1.89646E+01 3.41731E-01-4.56611E-03-1.94192E+00 1.84735E-13-2.19982E-14
 -1      3438 1.82629E+01 1.46331E-01-7.12457E-04-2.27665E+00 1.33769E-13-1.11685E-13
 -1      3439 1.90977E+01 5.04693E-01 8.39663E-03-1.74409E+00 5.54164E-14-6.79800E-14
 -1      3440 1.90906E+01 6.08476E-01-5.30570E-03-1.60016E+00-2.40478E-14-1.15574E-13
 -1      3441 1.84844E+01 5.69450E-01 1.06588E-03-1.80161E+00 1.34549E-13-1.59558E-13
 -1      3442 1.92296E+01 6.79846E-01 4.75926E-03-1.44740E+00-3.03911E-14-1.35825E-13
 -1      3443 1.92563E+01 7.13308E-01-4.96760E-03-1.32230E+00-5.75372E-14-1.82488E-13
 -1      3444 1.87529E+01 7.68080E-01 3.02741E-03-1.45699E+00-2.84388E-14-2.22905E-13
 -1      3445 1.93837E+01 7.28052E-01 2.87673E-03-1.19937E+00-5.40602E-14-1.03784E-13
 -1      3446 1.94202E+01 7.19573E-01-4.34679E-03-1.08991E+00-8.07292E-14-5.79075E-14
 -1      3447 1.90108E+01 8.27597E-01 3.73189E-03-1.19067E+00 1.09927E-14-2.00884E-13
 -1      3448 1.95290E+01 7.01850E-01 1.88896E-03-9.88003E-01-1.49932E-13-1.55663E-14
 -1      3449 1.95637E+01 6.70667E-01-3.73690E-03-8.92069E-01-8.75449E-14 4.40299E-14
 -1      3450 1.92373E+01 8.03494E-01 3.59510E-03-9.75687E-01 2.08869E-15-9.06157E-14
 -1      3451 1.96529E+01 6.36281E-01 1.40451E-03-8.06033E-01 1.70837E-14 5.73134E-14
 -1      3452 1.96816E+01 5.94650E-01-3.17301E-03-7.22525E-01 5.44369E-14 4.12000E-14
 -1      3453 1.94257E+01 7.34031E-01 3.12259E-03-7.96330E-01-6.01628E-14 1.40457E-13
 -1      3454 1.97526E+01 5.53524E-01 1.16745E-03-6.49593E-01-1.76017E-14-3.19077E-15
 -1      3455 1.97742E+01 5.09003E-01-2.65837E-03-5.77822E-01-2.62445E-15-8.15895E-14
 -1      3456 1.95770E+01 6.43487E-01 2.56724E-03-6.44272E-01-2.96381E-14 2.06170E-14
 -1      3457 1.98294E+01 4.67107E-01 1.03330E-03-5.16333E-01 3.02458E-14-1.34464E-13
 -1      3458 1.98446E+01 4.24116E-01-2.19604E-03-4.55607E-01 4.30821E-14-1.24372E-13
 -1      3459 1.96952E+01 5.47067E-01 2.03166E-03-5.15146E-01-6.62408E-14 6.93381E-14
 -1      3460 1.98867E+01 3.84791E-01 9.32894E-04-4.04324E-01-3.58598E-14-2.27193E-13
 -1      3461 1.98967E+01 3.45682E-01-1.78882E-03-3.53800E-01-7.37380E-14-2.44829E-13
 -1      3462 1.97855E+01 4.53866E-01 1.56263E-03-4.06273E-01 6.07329E-15-1.08182E-13
 -1      3463 1.99283E+01 3.10590E-01 8.37044E-04-3.11614E-01-4.10429E-14-1.40939E-13
 -1      3464 1.99344E+01 2.76407E-01-1.43676E-03-2.70290E-01-5.09267E-14-1.65324E-13
 -1      3465 1.98532E+01 3.68841E-01 1.17404E-03-3.15580E-01 6.75486E-15-1.06674E-13
 -1      3466 1.99576E+01 2.46176E-01 7.37643E-04-2.36115E-01-1.42411E-14-2.39396E-13
 -1      3467 1.99610E+01 2.17169E-01-1.13770E-03-2.02882E-01-7.40876E-16-1.22304E-13
 -1      3468 1.99028E+01 2.94272E-01 8.63649E-04-2.41134E-01-2.20662E-14-4.18601E-14
 -1      3469 1.99777E+01 1.91814E-01 6.35941E-04-1.75637E-01-1.10288E-13-2.72565E-14
 -1      3470 1.99792E+01 1.67775E-01-8.87880E-04-1.49354E-01-2.48008E-14-9.37386E-14
 -1      3471 1.99386E+01 2.30776E-01 6.22325E-04-1.80990E-01 4.45466E-14 7.61440E-15
 -1      3472 1.99911E+01 1.46972E-01 5.36121E-04-1.27988E-01 1.36391E-14-1.52860E-13
 -1      3473 1.99913E+01 1.27448E-01-6.82549E-04-1.07547E-01-1.69683E-13-1.36032E-13
 -1      3474 1.99638E+01 1.77978E-01 4.38715E-04-1.33193E-01-6.39683E-14-2.06539E-14
 -1      3475 1.99995E+01 1.10703E-01 4.42303E-04-9.10717E-02-1.78507E-13-2.59143E-14
 -1      3476 1.99991E+01 9.51319E-02-5.16410E-04-7.54426E-02-2.84857E-14-4.25192E-14
 -1      3477 1.99811E+01 1.34961E-01 3.01631E-04-9.58404E-02-8.17862E-15 7.17458E-14
 -1      3478 2.00045E+01 8.18889E-02 3.57451E-04-6.29583E-02-7.76107E-15 1.36728E-13
 -1      3479 2.00037E+01 6.96822E-02-3.84036E-04-5.12178E-02 1.24739E-13 2.07062E-13
 -1      3480 1.99926E+01 1.00548E-01 2.01106E-04-6.71466E-02 7.20915E-14 2.85294E-13
 -1      3481 2.00072E+01 5.93850E-02 2.83188E-04-4.19317E-02-4.57794E-14 1.36205E-13
 -1      3482 2.00061E+01 4.99758E-02-2.80182E-04-3.32777E-02-8.48799E-14 3.88862E-14
 -1      3483 1.99999E+01 7.34911E-02 1.28751E-04-4.54944E-02 4.91486E-14 1.91668E-13
 -1      3484 2.00082E+01 4.21035E-02 2.20000E-04-2.65086E-02-5.25990E-14 5.38790E-14
 -1      3485 2.00071E+01 3.49740E-02-1.99989E-04-2.02619E-02-7.95181E-14 4.67753E-15
 -1      3486 2.00042E+01 5.25747E-02 7.77463E-05-2.94633E-02-1.45244E-14 8.17284E-15
 -1      3487 2.00082E+01 2.90592E-02 1.67557E-04-1.54388E-02-2.04160E-13 1.07718E-14
 -1      3488 2.00072E+01 2.37522E-02-1.39109E-04-1.10373E-02-2.56773E-13-1.27254E-13
 -1      3489 2.00065E+01 3.66790E-02 4.26780E-05-1.78388E-02-1.29895E-13-4.84338E-14
 -1      3490 2.00077E+01 1.93878E-02 1.25007E-04-7.69222E-03-2.20346E-13-8.00749E-14
 -1      3491 2.00067E+01 1.55100E-02-9.37382E-05-4.68076E-03-1.17697E-13-1.99003E-13
 -1      3492 2.00073E+01 2.48097E-02 1.93209E-05-9.60793E-03-2.52054E-13-1.10513E-13
 -1      3493 2.00067E+01 1.23492E-02 9.12395E-05-2.43797E-03-5.56451E-14-1.90950E-13
 -1      3494 2.00059E+01 9.56851E-03-6.06578E-05-4.55538E-04 6.69276E-14-1.84684E-13
 -1      3495 2.00072E+01 1.61071E-02 4.43453E-06-3.94438E-03-1.23624E-13 9.01269E-14
 -1      3496 2.00057E+01 7.32014E-03 6.50688E-05 9.79961E-04 3.11165E-13-1.62499E-13
 -1      3497 2.00050E+01 5.35938E-03-3.72409E-05 2.21324E-03 4.22097E-13-1.84392E-13
 -1      3498 2.00066E+01 9.84215E-03-4.56427E-06-1.88572E-04 2.23361E-13 1.29831E-13
 -1      3499 2.00045E+01 3.78162E-03 4.53417E-05 3.06736E-03 3.24542E-13-2.74158E-13
 -1      3500 2.00040E+01 2.41240E-03-2.06624E-05 3.76244E-03 1.83767E-13-1.48312E-13
 -1      3501 2.00057E+01 5.40536E-03-9.29117E-06 2.17402E-03 3.33769E-13 2.45533E-14
 -1      3502 2.00035E+01 1.30029E-03 2.96290E-05 4.20476E-03 8.07760E-14-1.64662E-13
 -1      3503 2.00030E+01 3.50338E-04-5.31239E-06 4.50769E-03 9.42293E-14-1.55948E-13
 -1      3504 2.00046E+01 2.29234E-03-1.15587E-05 3.53307E-03 1.02815E-13-1.59572E-13
 -1      3505 2.00027E+01-3.02938E-04 1.72155E-05 4.58706E-03 4.09083E-14-1.12146E-13
 -1      3506 2.00023E+01-1.03205E-03-2.87448E-06 4.62666E-03 2.46661E-14 2.88030E-14
 -1      3507 2.00030E+01-1.16712E-03-9.27148E-06 4.13041E-03 1.51186E-13-4.12242E-14
 -1      3508 2.00037E+01 2.41237E-04-1.74836E-05 4.09049E-03 1.88500E-13 2.79176E-14
 -1      3509 2.19049E+01-1.80014E+00 2.89078E-02 1.43143E+00-2.06272E-13-3.35582E-14
 -1      3510 2.23576E+01-2.19419E+00-4.62074E-03 1.21650E+00-1.81363E-13-8.08837E-14
 -1      3511 2.10318E+01-1.07110E+00 1.71857E-02 1.58210E+00-1.53401E-13 7.74878E-14
 -1      3512 2.13866E+01-1.43333E+00 2.00768E-03 1.49878E+00-1.43653E-13 7.14355E-14
 -1      3513 2.11559E+01-1.76121E+00-2.79438E-02 1.87243E+00-2.11185E-13-3.39399E-14
 -1      3514 2.04807E+01-4.78717E-01 9.15482E-03 1.54273E+00-1.19086E-13 2.40013E-13
 -1      3515 2.07221E+01-7.57444E-01 4.02203E-03 1.54311E+00-1.55256E-13 7.08016E-14
 -1      3516 2.04070E+01-9.58781E-01-2.06198E-02 1.82753E+00-1.60147E-13 1.69185E-14
 -1      3517 2.01642E+01-6.16095E-02 4.18204E-03 1.41155E+00 8.64071E-15 2.20724E-13
 -1      3518 2.03178E+01-2.50050E-01 4.56635E-03 1.45745E+00 1.49716E-14 2.29395E-13
 -1      3519 1.99858E+01-3.47657E-01-1.29257E-02 1.65567E+00-6.31388E-14 3.94839E-14
 -1      3520 2.00007E+01 1.99790E-01 1.32005E-03 1.24410E+00-5.65276E-14 2.20140E-13
 -1      3521 2.00933E+01 8.63450E-02 4.11660E-03 1.31205E+00-4.24067E-14 2.51715E-13
 -1      3522 1.97819E+01 6.17948E-02-6.82077E-03 1.44451E+00-1.29823E-14 6.17806E-14
 -1      3523 1.99290E+01 3.42332E-01-3.01888E-04 1.06821E+00-5.54257E-14 1.11236E-13
 -1      3524 1.99827E+01 2.84244E-01 3.36170E-03 1.14473E+00-5.97048E-14 2.29758E-13
 -1      3525 1.97075E+01 3.05770E-01-3.23229E-03 1.23278E+00-8.40441E-14 5.19005E-14
 -1      3526 1.99082E+01 4.01856E-01-1.14942E-03 8.98039E-01-1.22843E-13 7.73387E-14
 -1      3527 1.99388E+01 3.81420E-01 2.67845E-03 9.75215E-01-8.28065E-14 1.34488E-13
 -1      3528 1.97047E+01 4.29908E-01-1.21389E-03 1.03485E+00-4.47812E-14 2.75707E-14
 -1      3529 1.99131E+01 4.07603E-01-1.52332E-03 7.40880E-01-3.48454E-14 5.81074E-14
 -1      3530 1.99306E+01 4.10961E-01 2.16766E-03 8.14008E-01-4.41592E-14 1.13142E-13
 -1      3531 1.97371E+01 4.72918E-01-1.56770E-04 8.56123E-01-1.48403E-14 2.80959E-14
 -1      3532 1.99289E+01 3.81348E-01-1.60898E-03 6.00432E-01 1.42782E-13-4.51441E-15
 -1      3533 1.99395E+01 3.98405E-01 1.80592E-03 6.66811E-01 1.14333E-14 4.98281E-14
 -1      3534 1.97832E+01 4.64702E-01 3.61941E-04 6.98120E-01-6.16782E-15 1.99358E-14
 -1      3535 1.99475E+01 3.38400E-01-1.53402E-03 4.78235E-01 1.50547E-14 1.25436E-13
 -1      3536 1.99545E+01 3.62179E-01 1.53493E-03 5.36524E-01 8.93525E-14 6.82597E-14
 -1      3537 1.98311E+01 4.26847E-01 5.63812E-04 5.60964E-01 6.21269E-14 6.28103E-14
 -1      3538 1.99647E+01 2.88934E-01-1.37589E-03 3.74361E-01 2.08790E-13 1.09762E-13
 -1      3539 1.99700E+01 3.14876E-01 1.31513E-03 4.24159E-01 1.01744E-13 7.08702E-14
 -1      3540 1.98745E+01 3.74347E-01 5.91364E-04 4.43955E-01 3.85469E-14 1.13296E-13
 -1      3541 1.99790E+01 2.39314E-01-1.18285E-03 2.87904E-01 4.98713E-14 4.13939E-14
 -1      3542 1.99834E+01 2.64624E-01 1.12485E-03 3.29445E-01 1.88279E-13 1.35286E-13
 -1      3543 1.99111E+01 3.17056E-01 5.33446E-04 3.45827E-01 1.42045E-13 7.49148E-14
 -1      3544 1.99900E+01 1.93217E-01-9.84243E-04 2.17346E-01-1.60179E-13 2.45833E-15
 -1      3545 1.99938E+01 2.16328E-01 9.53794E-04 2.51261E-01-6.33242E-14-5.62336E-15
 -1      3546 1.99403E+01 2.61063E-01 4.41551E-04 2.64930E-01-2.34846E-14 1.22716E-13
 -1      3547 1.99977E+01 1.52500E-01-7.97038E-04 1.60832E-01-6.80108E-14 6.38592E-14
 -1      3548 2.00012E+01 1.72669E-01 7.98455E-04 1.87973E-01-1.86488E-13 4.42108E-14
 -1      3549 1.99626E+01 2.09816E-01 3.43818E-04 1.99362E-01-1.77619E-13 2.75210E-14
 -1      3550 2.00029E+01 1.17840E-01-6.30095E-04 1.16380E-01-3.75993E-14 1.29623E-13
 -1      3551 2.00060E+01 1.34851E-01 6.58455E-04 1.37690E-01 3.74530E-14 1.56514E-13
 -1      3552 1.99789E+01 1.64980E-01 2.54317E-04 1.47110E-01-7.11650E-14 3.03617E-14
 -1      3553 2.00059E+01 8.91904E-02-4.87036E-04 8.20428E-02 1.25866E-13 1.46353E-13
 -1      3554 2.00087E+01 1.03146E-01 5.34327E-04 9.84636E-02 1.45991E-14 9.12402E-14
 -1      3555 1.99904E+01 1.27068E-01 1.78928E-04 1.06170E-01 1.64103E-14 1.90251E-13
 -1      3556 2.00075E+01 6.60908E-02-3.68218E-04 5.60014E-02 9.35092E-14 2.37047E-13
 -1      3557 2.00099E+01 7.72700E-02 4.26422E-04 6.84166E-02 1.61815E-13 1.33231E-13
 -1      3558 1.99980E+01 9.58843E-02 1.18988E-04 7.46425E-02 4.58259E-14 3.27047E-13
 -1      3559 2.00080E+01 4.78765E-02-2.72102E-04 3.66282E-02-1.55040E-13 4.58882E-13
 -1      3560 2.00100E+01 5.66387E-02 3.34516E-04 4.58302E-02-3.04197E-14 3.50837E-13
 -1      3561 2.00028E+01 7.08404E-02 7.35041E-05 5.07918E-02-1.06037E-13 5.12213E-13
 -1      3562 2.00078E+01 3.38117E-02-1.96169E-04 2.25133E-02-2.24485E-13 3.82479E-13
 -1      3563 2.00095E+01 4.05389E-02 2.57790E-04 2.91881E-02-1.69970E-13 4.04851E-13
 -1      3564 2.00056E+01 5.11583E-02 4.04494E-05 3.30867E-02-1.88053E-13 6.21476E-13
 -1      3565 2.00071E+01 2.31704E-02-1.37531E-04 1.24681E-02 4.40967E-14 2.56535E-13
 -1      3566 2.00085E+01 2.82310E-02 1.94971E-04 1.71926E-02-5.26239E-14 3.27880E-13
 -1      3567 2.00068E+01 3.60045E-02 1.74943E-05 2.02127E-02-7.32472E-14 8.83516E-14
 -1      3568 2.00062E+01 1.52824E-02-9.32786E-05 5.51536E-03 2.20611E-13 2.91262E-14
 -1      3569 2.00073E+01 1.90118E-02 1.44500E-04 8.76280E-03 1.32272E-13 2.72843E-13
 -1      3570 2.00071E+01 2.45700E-02 2.39067E-06 1.10688E-02 1.33192E-13 4.62031E-15
 -1      3571 2.00052E+01 9.55409E-03-6.06757E-05 8.69662E-04 1.60195E-13 8.21282E-14
 -1      3572 2.00061E+01 1.22464E-02 1.04706E-04 3.01891E-03 2.30279E-13 9.92280E-14
 -1      3573 2.00067E+01 1.61144E-02-6.81841E-06 4.75425E-03 2.22915E-13 1.91195E-13
 -1      3574 2.00042E+01 5.47396E-03-3.74709E-05-2.08685E-03 1.59093E-13 1.85034E-14
 -1      3575 2.00049E+01 7.38154E-03 7.40162E-05-7.39280E-04 2.19121E-13-5.89440E-14
 -1      3576 2.00060E+01 9.98600E-03-1.19336E-05 5.47277E-04 2.95043E-13 3.45192E-13
 -1      3577 2.00032E+01 2.60724E-03-2.12362E-05-3.82609E-03-2.46902E-13 3.13631E-13
 -1      3578 2.00038E+01 3.94286E-03 5.11212E-05-3.05624E-03-3.86290E-14 1.46113E-13
 -1      3579 2.00051E+01 5.62152E-03-1.53129E-05-2.11951E-03-1.38471E-13 3.85238E-13
 -1      3580 2.00024E+01 5.87247E-04-8.97226E-06-4.69260E-03-2.65257E-13 1.35220E-13
 -1      3581 2.00028E+01 1.52440E-03 3.31511E-05-4.34155E-03-2.24214E-13 2.17560E-13
 -1      3582 2.00041E+01 2.54727E-03-1.66164E-05-3.67904E-03-1.98596E-13 4.74171E-13
 -1      3583 2.00016E+01-8.63379E-04-2.42262E-06-4.95407E-03-1.68912E-13-5.51697E-14
 -1      3584 2.00019E+01-1.77652E-04 2.01396E-05-4.88466E-03-2.16596E-13 6.27119E-14
 -1      3585 2.00031E+01 4.03398E-04-1.06086E-05-4.42285E-03-1.72022E-13 5.25404E-13
 -1      3586 2.59259E+01-1.97943E-01-2.87468E-02-2.04371E+00 1.97852E-13-3.53439E-13
 -1      3587 2.00044E+01-9.45665E-04-5.81623E-06 2.46279E-03 1.74034E-13 6.35897E-14
 -1      3588 2.00047E+01-9.32007E-04-3.50336E-06 1.78442E-03 9.71366E-14-2.06604E-14
 -1      3589 2.00015E+01-2.30565E-03 9.21961E-06-4.45902E-03-6.05710E-13 3.04775E-14
 -1      3590 2.00009E+01-2.13960E-03 6.83023E-07-4.68901E-03-5.39498E-13-2.78909E-16
 -1      3591 2.00010E+01-1.81926E-03-4.40153E-06-4.85432E-03-6.17696E-13-1.90280E-13
 -1      3592 2.00021E+01-1.80025E-03-5.63147E-06-4.37458E-03-3.88935E-13 3.35680E-13
 -1      3593 2.00049E+01-8.68031E-04-6.35332E-06 1.06146E-03 5.87679E-14-2.30325E-13
 -1      3594 2.00050E+01-8.61035E-04-5.81993E-06 3.43989E-04 4.06021E-14-3.65383E-13
 -1      3595 2.00054E+01 1.27821E-04 1.44604E-05 1.38987E-03-2.81554E-14-8.89730E-14
 -1      3596 1.95312E+01 2.18434E+00-2.62634E-03 5.07726E-01-7.69082E-14-2.34935E-13
 -1      3597 2.61667E+01-1.59694E+00-6.18562E-02 1.28593E+00 4.17548E-15 3.56999E-13
 -1      3598 2.64084E+01-2.88009E+00-5.15452E-02-3.27365E-01 3.25744E-14-3.82690E-13
 -1      3599 2.53437E+01-3.43574E+00-6.47002E-03 5.14529E-01-1.02846E-13-3.14186E-13
 -1      3600 2.61508E+01-2.04331E+00-1.78929E-02-1.07176E+00 8.88786E-14-3.76199E-13
 -1      3601 2.04999E+01 9.72128E-01 2.81445E-03-7.38422E-01 1.62584E-13 7.67012E-15
 -1      3602 2.02278E+01 1.20815E+00 2.03201E-04-7.29628E-01 1.69525E-13-3.32680E-14
 -1      3603 2.05385E+01 7.21462E-01 8.10101E-04-9.22939E-01 1.50321E-13-2.52656E-15
 -1      3604 2.54989E+01-2.54821E+00-1.80329E-02 3.63093E-01-2.24699E-14 2.80705E-13
 -1      3605 1.78417E+01 3.24306E+00-4.45249E-03-4.21880E-02 2.19355E-14-2.73901E-13
 -1      3606 1.79397E+01 3.19458E+00-4.80333E-03 3.90594E-02 6.38682E-15-2.87341E-13
 -1      3607 1.79656E+01 2.92631E+00 8.19450E-03 1.99124E-01-5.39824E-15-2.79095E-13
 -1      3608 2.47428E+01-2.63725E+00-2.04158E-02-3.21367E-01-7.59985E-14-3.08297E-13
 -1      3609 2.52108E+01-2.16244E+00-1.04174E-02-9.25402E-01 4.39319E-15-3.37223E-13
 -1      3610 2.50175E+01-2.96911E+00-3.86837E-03-2.34747E-01-5.92122E-14 2.39866E-13
 -1      3611 1.93096E+01 2.05480E+00 5.11824E-03 7.10123E-01-5.86214E-14-2.16402E-13
 -1      3612 1.11181E+01 7.93516E-01 2.18149E-02-6.20639E-01-2.69403E-14-4.36526E-13
 -1      3613 1.17957E+01 3.35209E-01 5.86323E-02-2.55281E+00-1.30208E-13-4.42368E-13
 -1      3614 1.92014E+01 1.26984E+00-2.28167E-03 1.42454E+00-4.11951E-14-1.70721E-13
 -1      3615 1.92075E+01 9.79389E-01 8.28725E-03 1.68838E+00-2.42461E-14-1.66977E-13
 -1      3616 1.85241E+01 1.04171E+00-3.93665E-03 1.80684E+00-2.95142E-15-1.62184E-13
 -1      3617 1.14422E+01 6.15011E-01 6.69011E-02 9.66128E-01-1.59043E-13 7.05477E-13
 -1      3618 1.14545E+01 6.10911E-01-1.55281E-02-6.54026E-01-3.10004E-14 6.12725E-13
 -1      3619 1.24263E+01 3.79598E-01 1.34940E-02 2.33223E+00 1.77093E-13-3.59698E-13
 -1      3620 1.15201E+01 8.82847E-01 9.95559E-02 9.66562E-01 8.22246E-14-4.39648E-13
 -1      3621 2.00036E+01-1.04482E-03-3.44585E-07 3.61567E-03 4.56012E-14 1.97013E-15
 -1      3622 2.00041E+01-1.05450E-03-2.10416E-06 3.02735E-03 1.15901E-13 9.89781E-14
 -1      3623 2.00048E+01-8.71556E-05 5.25188E-06 2.64219E-03-6.43506E-14 5.17577E-14
 -1      3624 2.00039E+01-3.26337E-04 1.17364E-05 3.65636E-03 1.20159E-13-5.33161E-15
 -1      3625 1.71167E+01-1.08446E+00 1.04756E-01-3.65791E+00 2.60993E-13 1.59577E-14
 -1      3626 1.86793E+01-2.04875E+00-3.64009E-02-3.71088E+00 3.04515E-13 5.23748E-14
 -1      3627 1.77240E+01-2.54408E+00-2.99904E-02 4.39765E+00-3.64890E-13 3.24962E-13
 -1      3628 1.52691E+01-1.51574E+00 1.39281E-01 4.52364E+00-4.48537E-13 5.31224E-13
 -1      3629 2.02689E+01-2.03096E+00 4.73561E-02 3.32077E+00 1.97849E-13 9.36415E-15
 -1      3630 1.83460E+01-2.17628E+00 1.33421E-02 4.28456E+00 2.43031E-13-8.34471E-14
 -1      3631 1.70279E+01-1.14421E+00-6.13017E-04 3.82675E+00 2.08460E-13-1.17611E-13
 -1      3632 1.96095E+01-1.31161E+00 2.57738E-02 3.17472E+00 1.64870E-13-1.54885E-14
 -1      3633 1.98405E+01 1.44347E+00 1.59087E-04-7.84874E-01 1.55336E-13-6.70101E-14
 -1      3634 1.31675E+01 6.88085E-01 5.82113E-02-1.18783E+00 1.13572E-14 4.32505E-13
 -1      3635 1.90463E+01 2.19403E+00-7.33934E-04-6.40367E-01 1.36357E-13-8.93591E-14
 -1      3636 1.83761E+01-7.65517E-01-8.47895E-03 3.22822E+00 1.46855E-13-7.97166E-14
 -1      3637 1.37321E+01 1.81545E-01 7.83155E-02-2.86420E+00-1.64511E-13-3.46344E-13
 -1      3638 1.92601E+01 1.78476E+00-3.60238E-03 9.38114E-01-6.06210E-14-2.02416E-13
 -1      3639 1.92578E+01 1.53940E+00 4.27980E-03 1.18549E+00-5.47052E-14-1.88325E-13
 -1      3640 1.87061E+01 1.62386E+00-3.91976E-03 1.26050E+00-1.94022E-14-1.97663E-13
 -1      3641 1.88074E+01 2.14976E+00-1.50895E-03 7.90144E-01-3.83139E-14-2.44294E-13
 -1      3642 2.00050E+01-8.48724E-04-3.83242E-06-3.91218E-04 2.80753E-14-4.06464E-13
 -1      3643 2.00049E+01-8.55002E-04-6.65769E-06-1.10264E-03-2.13799E-15-4.14652E-13
 -1      3644 2.00056E+01 2.19493E-04 2.12350E-05-3.63589E-05 7.46879E-14-3.62506E-13
 -1      3645 2.41275E+01-2.94953E+00-8.91794E-03-7.59060E-01-3.63659E-14 1.92940E-13
 -1      3646 2.35940E+01-2.83337E+00 1.18829E-02-1.17849E+00-1.08647E-13 1.64077E-13
 -1      3647 2.44807E+01-3.75616E+00-1.03002E-03 1.37098E+00-1.96062E-13-2.51723E-13
 -1      3648 2.31582E+01-3.62413E+00-1.01932E-02 2.09299E+00-2.22204E-13-2.06617E-13
 -1      3649 2.47457E+01-3.19243E+00 1.04377E-02 4.79581E-01-1.57218E-13-2.44239E-13
 -1      3650 2.57186E+01-1.40985E+00-5.68641E-02-1.60299E+00 1.10201E-13-3.53351E-13
 -1      3651 2.00027E+01-1.10881E-03 7.52315E-06-4.32780E-03-1.13904E-13 4.46928E-13
 -1      3652 2.00021E+01-1.17927E-03-8.73775E-06-4.66217E-03-2.55237E-13 3.22559E-13
 -1      3653 2.00011E+01-1.45160E-03 9.58067E-06-4.94244E-03-4.26515E-13-2.43681E-13
 -1      3654 1.62104E+01-4.57384E-01-4.08378E-03-3.02501E+00 1.63012E-13-2.72386E-14
 -1      3655 1.48093E+01-8.91684E-01 5.68277E-02 3.77998E+00-2.49956E-13 4.91964E-13
 -1      3656 2.25163E+01-1.78361E+00-3.26252E-02-9.35559E-01-8.85290E-14 1.80818E-13
 -1      3657 2.58411E+01 1.48382E+00-1.23542E-01 2.17725E+00 2.27492E-13 4.97196E-13
 -1      3658 1.83821E+01 2.36989E+00-4.38595E-03 6.38103E-01-3.42761E-14-2.70777E-13
 -1      3659 1.83509E+01 2.12840E+00 7.11028E-03 8.55601E-01-3.61875E-14-2.68259E-13
 -1      3660 1.80451E+01 2.56088E+00-2.32630E-03 5.18019E-01-2.04674E-14-2.85839E-13
 -1      3661 2.00034E+01-9.48264E-04-1.27244E-05-3.77615E-03-7.37633E-14 2.91189E-14
 -1      3662 2.00035E+01-2.79724E-04 2.15930E-06-4.10020E-03-1.43353E-14 3.67880E-13
 -1      3663 1.36884E+01 2.32966E-01 9.95023E-02 2.90786E+00 1.93397E-13-3.41279E-13
 -1      3664 1.36438E+01 6.80933E-01 1.89027E-02 2.10282E+00 1.49272E-13-3.17510E-13
 -1      3665 1.50096E+01-2.28714E-01 2.03440E-02 3.28893E+00 2.21506E-13-2.38934E-13
 -1      3666 2.00040E+01-9.72022E-04-5.44053E-06-3.21280E-03-4.27303E-14-6.98967E-14
 -1      3667 2.09378E+01-4.26959E-01 1.81033E-03-1.48105E+00 2.10044E-14 7.59811E-14
 -1      3668 2.07230E+01-4.86812E-02 1.11665E-02-1.40428E+00 5.09549E-14 5.36239E-14
 -1      3669 1.77658E+01 3.02366E+00 9.53458E-03-1.18668E-01 2.77680E-14-2.43408E-13
 -1      3670 1.66833E+01-1.15057E+00 2.39245E-02-3.96620E+00-2.19845E-13-2.06654E-13
 -1      3671 1.76296E+01-1.67971E+00 6.41397E-02-4.22291E+00-2.48173E-13-1.92128E-13
 -1      3672 1.90050E+01-2.03676E+00 1.28473E-02-3.78726E+00-2.05334E-13-1.16509E-13
 -1      3673 2.39581E+01-2.85857E+00-1.42835E-02 4.35298E-01-1.31362E-13-2.49914E-13
 -1      3674 2.13062E+01-3.15541E+00-2.27997E-03 3.04088E+00-2.78790E-13-6.40391E-14
 -1      3675 1.99537E+01-2.85882E+00 9.81945E-02 3.89588E+00-4.06735E-13 8.62331E-14
 -1      3676 2.33990E+01-2.72516E+00 1.49612E-02 8.84206E-01-1.79881E-13-1.36673E-13
 -1      3677 1.78483E+01 2.61716E+00 2.89161E-03-5.83434E-01 6.71241E-14-1.72926E-13
 -1      3678 1.76453E+01 2.70853E+00-1.08455E-02-4.50052E-01 5.02363E-14-1.97075E-13
 -1      3679 1.24917E+01 1.03348E+00 8.30267E-02-3.96615E-02 2.19366E-14-3.60257E-13
 -1      3680 1.21352E+01 5.26811E-01 7.67342E-02 1.69793E+00-1.63813E-13 6.79026E-13
 -1      3681 1.28817E+01 7.55123E-01 3.71783E-02 1.04181E+00-6.43947E-14 7.01980E-13
 -1      3682 1.30453E+01 1.61068E-01-1.72340E-02 2.45631E+00-1.08199E-13 4.58408E-13
 -1      3683 2.20892E+01-3.37382E+00 4.68567E-02-3.18579E+00-2.07072E-13 3.04270E-14
 -1      3684 2.29449E+01-3.27975E+00 1.34463E-03-2.23344E+00-1.49978E-13 9.59094E-14
 -1      3685 2.09338E+01-2.73747E+00 3.49770E-03-3.28111E+00-1.57470E-13 1.68442E-15
 -1      3686 1.84227E+01-2.11708E+00-1.59186E-03 3.78111E+00-3.32172E-13 1.74426E-13
 -1      3687 1.84726E+01 2.26213E+00 1.08678E-02-7.94396E-01 9.57544E-14-1.37469E-13
 -1      3688 1.81276E+01 2.41223E+00-1.15309E-02-7.39190E-01 7.96564E-14-1.63176E-13
 -1      3689 1.79088E+01 2.27513E+00 8.39894E-03-8.12392E-01 5.38572E-14-1.47388E-13
 -1      3690 2.16069E+01-1.21692E+00 1.43382E-02-1.51595E+00-5.37040E-14 1.20568E-13
 -1      3691 2.12517E+01-8.24926E-01 2.02190E-02-1.57364E+00-1.86520E-14 9.24616E-14
 -1      3692 2.06512E+01-6.15199E-01-1.97736E-02-1.78480E+00-1.95408E-14 8.27532E-14
 -1      3693 2.26532E+01-2.80710E+00-1.02655E-02 1.59414E+00-1.88688E-13-1.70967E-13
 -1      3694 1.75125E+01 8.34947E-01-9.86605E-03 2.09475E+00 7.05990E-14-1.71445E-13
 -1      3695 1.74284E+01 4.35247E-01 1.47983E-02 2.45981E+00 1.11520E-13-1.64944E-13
 -1      3696 1.33387E+01 9.97123E-01 4.95178E-02-3.25925E-01 1.46749E-14 5.38451E-13
 -1      3697 1.40849E+01 6.49214E-01-2.91894E-02-1.58696E+00 8.72527E-14 2.67075E-13
 -1      3698 1.98105E+01 1.11569E+00-1.11284E-03-1.04975E+00 9.79294E-14-3.46930E-14
 -1      3699 1.94054E+01 1.63632E+00 4.71880E-03-8.90560E-01 1.28045E-13-4.92073E-14
 -1      3700 1.89788E+01 1.85508E+00-9.00949E-03-9.02105E-01 9.19873E-14-6.93809E-14
 -1      3701 2.26753E+01-2.49429E+00 7.90078E-03-1.62287E+00-1.19818E-13 1.39274E-13
 -1      3702 1.74536E+01 2.78870E-01 3.28047E-04-2.22163E+00 9.13745E-14 2.75502E-14
 -1      3703 1.75629E+01 5.23863E-01-1.51421E-02-1.93636E+00 1.25085E-13-2.22080E-15
 -1      3704 1.79070E+01 6.89560E-01 6.36025E-03-1.70876E+00 1.18128E-13-7.36202E-14
 -1      3705 1.80276E+01 7.95898E-01-1.20172E-02-1.52163E+00 2.64250E-14-1.38100E-13
 -1      3706 1.71996E+01 8.11635E-01 1.42751E-02-1.63490E+00 4.44978E-14 3.76652E-14
 -1      3707 1.83098E+01 8.72926E-01 3.84810E-03-1.36045E+00-7.61888E-14-1.38481E-13
 -1      3708 1.84358E+01 9.06872E-01-8.76721E-03-1.22168E+00-6.32112E-14-1.60160E-13
 -1      3709 1.77820E+01 9.85495E-01 9.24600E-03-1.26439E+00-4.90223E-14 2.47695E-14
 -1      3710 1.86646E+01 9.22681E-01 1.74622E-03-1.10441E+00 3.03820E-14-1.66521E-13
 -1      3711 1.87826E+01 9.12173E-01-6.41300E-03-9.95345E-01 7.13032E-14-8.87682E-14
 -1      3712 1.82691E+01 1.02925E+00 7.93282E-03-1.00979E+00 8.77803E-15-9.15949E-14
 -1      3713 1.89659E+01 8.91996E-01 6.78796E-04-9.05046E-01 4.20902E-14-1.72068E-13
 -1      3714 1.90675E+01 8.56400E-01-4.90869E-03-8.15103E-01-2.64974E-14-1.03278E-13
 -1      3715 1.86630E+01 9.92995E-01 6.43227E-03-8.22613E-01-3.22503E-14-9.95344E-14
 -1      3716 1.92137E+01 8.16462E-01 2.50535E-04-7.41560E-01-7.91972E-14-6.97591E-15
 -1      3717 1.92969E+01 7.68056E-01-3.89862E-03-6.65275E-01-6.23891E-14 5.80652E-14
 -1      3718 1.89789E+01 9.11848E-01 5.13191E-03-6.74709E-01-3.85190E-15-1.26034E-13
 -1      3719 1.94127E+01 7.19008E-01 1.33962E-04-6.03631E-01-6.05678E-14 7.09751E-14
 -1      3720 1.94785E+01 6.65973E-01-3.15262E-03-5.38343E-01-1.57537E-14 4.21759E-14
 -1      3721 1.92301E+01 8.07479E-01 4.09130E-03-5.51926E-01-4.10034E-14 3.51367E-14
 -1      3722 1.95692E+01 6.14753E-01 1.47080E-04-4.86181E-01-5.66539E-14 1.27786E-13
 -1      3723 1.96198E+01 5.62334E-01-2.56517E-03-4.30483E-01-5.92564E-14 8.59267E-14
 -1      3724 1.94279E+01 6.94776E-01 3.22612E-03-4.47723E-01 3.76688E-14 8.98009E-14
 -1      3725 1.96902E+01 5.13153E-01 2.02543E-04-3.86434E-01-4.98543E-14 4.28755E-14
 -1      3726 1.97282E+01 4.64423E-01-2.08562E-03-3.39416E-01 1.54611E-14 1.78464E-15
 -1      3727 1.95816E+01 5.83780E-01 2.52064E-03-3.58815E-01-6.96068E-14 7.78242E-14
 -1      3728 1.97822E+01 4.19623E-01 2.53052E-04-3.02585E-01 1.06395E-13-1.07987E-13
 -1      3729 1.98101E+01 3.76181E-01-1.68570E-03-2.63461E-01 5.18763E-14-9.30290E-15
 -1      3730 1.96997E+01 4.80525E-01 1.94954E-03-2.83414E-01 3.90359E-14 3.47768E-14
 -1      3731 1.98509E+01 3.36861E-01 2.81829E-04-2.33096E-01-1.89279E-14 1.68036E-14
 -1      3732 1.98710E+01 2.99330E-01-1.34950E-03-2.01063E-01-1.77352E-15 7.16958E-14
 -1      3733 1.97892E+01 3.88254E-01 1.49053E-03-2.20272E-01 4.08167E-14-1.01692E-13
 -1      3734 1.99014E+01 2.65793E-01 2.87532E-04-1.76428E-01 3.24829E-14 3.59352E-14
 -1      3735 1.99156E+01 2.34179E-01-1.06748E-03-1.50637E-01 6.92075E-14-5.97452E-14
 -1      3736 1.98560E+01 3.08299E-01 1.12514E-03-1.68230E-01 6.19572E-14-2.02853E-14
 -1      3737 1.99378E+01 2.06236E-01 2.74908E-04-1.30987E-01-5.13488E-14-1.46680E-14
 -1      3738 1.99475E+01 1.80171E-01-8.32969E-04-1.10573E-01-6.42116E-14-1.62150E-15
 -1      3739 1.99051E+01 2.40738E-01 8.37454E-04-1.26068E-01 3.68439E-15-1.40741E-13
 -1      3740 1.99635E+01 1.57358E-01 2.50162E-04-9.51706E-02 1.20437E-13 1.01436E-13
 -1      3741 1.99699E+01 1.36276E-01-6.40337E-04-7.92879E-02 2.12011E-13 2.82153E-13
 -1      3742 1.99405E+01 1.84868E-01 6.13631E-04-9.25103E-02 8.96308E-14 9.16716E-14
 -1      3743 1.99812E+01 1.17991E-01 2.18914E-04-6.74285E-02 6.51509E-14 2.59164E-13
 -1      3744 1.99852E+01 1.01241E-01-4.84334E-04-5.52868E-02 4.72544E-15 1.87109E-13
 -1      3745 1.99654E+01 1.39548E-01 4.41665E-04-6.62750E-02 1.50647E-13 1.30098E-13
 -1      3746 1.99929E+01 8.68373E-02 1.85502E-04-4.63227E-02 1.34407E-14 1.79690E-13
 -1      3747 1.99952E+01 7.37554E-02-3.59895E-04-3.72094E-02 8.59570E-14 9.60652E-14
 -1      3748 1.99825E+01 1.03441E-01 3.11300E-04-4.61356E-02-5.17548E-15 7.93471E-14
 -1      3749 2.00003E+01 6.26018E-02 1.52911E-04-3.05653E-02-1.39281E-14 1.14351E-14
 -1      3750 2.00015E+01 5.25580E-02-2.62194E-04-2.38578E-02-1.14406E-13-1.32609E-13
 -1      3751 1.99938E+01 7.51664E-02 2.13908E-04-3.09648E-02-5.10703E-14-3.02994E-14
 -1      3752 2.00046E+01 4.40680E-02 1.22980E-04-1.90376E-02-6.44644E-14-1.73044E-13
 -1      3753 2.00051E+01 3.64899E-02-1.86752E-04-1.42069E-02-7.18664E-14-1.27682E-13
 -1      3754 2.00009E+01 5.34009E-02 1.42330E-04-1.97637E-02-8.39007E-14-1.41684E-13
 -1      3755 2.00068E+01 3.01406E-02 9.66815E-05-1.07938E-02-7.64410E-14-1.26169E-13
 -1      3756 2.00068E+01 2.45250E-02-1.29551E-04-7.40147E-03-1.68733E-13 6.11454E-15
 -1      3757 2.00050E+01 3.69347E-02 9.06908E-05-1.16737E-02-6.17107E-14-1.57834E-13
 -1      3758 2.00076E+01 1.98624E-02 7.43636E-05-5.05418E-03-1.32398E-13 9.68115E-14
 -1      3759 2.00072E+01 1.57777E-02-8.69548E-05-2.74486E-03 3.00162E-14 9.24147E-14
 -1      3760 2.00070E+01 2.46978E-02 5.42225E-05-5.97661E-03-8.49354E-14-1.88532E-14
 -1      3761 2.00074E+01 1.24166E-02 5.60220E-05-1.18954E-03 1.11139E-13 2.67089E-13
 -1      3762 2.00069E+01 9.49858E-03-5.61540E-05 3.18778E-04 3.98495E-13 2.19586E-13
 -1      3763 2.00076E+01 1.57692E-02 2.91568E-05-2.08722E-03 1.16056E-13 6.08436E-14
 -1      3764 2.00067E+01 7.11441E-03 4.15549E-05 1.29733E-03 3.59956E-13 1.52745E-13
 -1      3765 2.00061E+01 5.05943E-03-3.34686E-05 2.22092E-03 1.36891E-13-1.85299E-14
 -1      3766 2.00073E+01 9.36396E-03 1.07762E-05 4.65287E-04 2.61646E-13 1.72053E-13
 -1      3767 2.00057E+01 3.38012E-03 2.93101E-05 2.78782E-03 7.06098E-14 5.90431E-14
 -1      3768 2.00051E+01 1.95887E-03-1.25707E-05 3.28076E-03 1.36687E-13 1.62304E-13
 -1      3769 2.00065E+01 4.84116E-03 3.05887E-07 2.03999E-03 1.64791E-13 1.58132E-13
 -1      3770 2.00047E+01 1.19277E-03 2.05694E-05 3.44851E-03 1.81904E-13 1.35396E-13
 -1      3771 2.00043E+01 3.38285E-04 1.32779E-06 3.55931E-03 2.16854E-13 1.31022E-13
 -1      3772 2.00048E+01 4.80310E-04-1.20058E-05 3.08364E-03-7.47452E-14 6.74592E-14
 -1      3773 2.00056E+01 2.11425E-03-1.23181E-05 2.79952E-03 1.23051E-13 4.41566E-13
 -1      3774 1.94804E+01-6.67013E-02 2.38182E-03 1.68899E+00-4.22499E-14-1.79923E-15
 -1      3775 1.96371E+01-3.11474E-01 8.88929E-03 1.80644E+00-4.58727E-14 3.08130E-14
 -1      3776 1.81751E+01 1.87973E+00-4.21663E-03 1.06171E+00-8.59789E-15-2.61358E-13
 -1      3777 1.81271E+01 1.63517E+00 8.61823E-03 1.30279E+00 7.06900E-16-2.38871E-13
 -1      3778 1.77489E+01 2.09471E+00-4.93255E-03 8.89092E-01 2.42157E-15-2.76341E-13
 -1      3779 2.00047E+01-9.09181E-04-4.44477E-06-1.81942E-03-4.42653E-14-3.03125E-13
 -1      3780 2.00044E+01-9.10584E-04-6.78702E-06-2.47713E-03 1.24717E-14-2.60080E-13
 -1      3781 2.00054E+01 1.65716E-04 3.02241E-05-1.44383E-03 6.37160E-14-2.52722E-13
 -1      3782 2.03444E+01-1.41217E+00 1.73307E-02 2.26814E+00-2.51195E-13-2.31869E-14
 -1      3783 2.08405E+01-1.89291E+00 1.34271E-02 2.27273E+00-2.85817E-13-5.24992E-14
 -1      3784 1.93979E+01 2.68671E-01-1.02610E-03 1.41054E+00-1.02123E-13 1.30536E-13
 -1      3785 1.94716E+01 1.23072E-01 7.20709E-03 1.52420E+00-3.73885E-14 1.04684E-13
 -1      3786 1.90492E+01 1.27102E-01-7.20202E-03 1.65836E+00-1.11126E-13 1.35636E-13
 -1      3787 1.94168E+01 4.55229E-01-2.09233E-03 1.16618E+00-1.01745E-13 2.02685E-13
 -1      3788 1.94399E+01 3.79871E-01 5.30238E-03 1.27085E+00-1.19602E-13 1.90533E-13
 -1      3789 1.90926E+01 4.22480E-01-2.13272E-03 1.34174E+00-1.48420E-13 2.50478E-13
 -1      3790 1.94841E+01 5.36380E-01-2.47498E-03 9.56693E-01-4.46866E-14 1.89158E-13
 -1      3791 1.94798E+01 5.08281E-01 3.56928E-03 1.05042E+00-6.01551E-14 1.85852E-13
 -1      3792 1.91981E+01 5.70759E-01 1.87951E-05 1.08383E+00-1.06235E-13 2.74205E-13
 -1      3793 1.95693E+01 5.48518E-01-2.51802E-03 7.77867E-01-8.28841E-15 1.53291E-14
 -1      3794 1.95523E+01 5.50782E-01 2.40940E-03 8.60548E-01-9.79830E-15 9.16342E-14
 -1      3795 1.93256E+01 6.22364E-01 9.23980E-04 8.73659E-01 2.33676E-14 1.09349E-13
 -1      3796 1.96556E+01 5.18254E-01-2.35741E-03 6.25859E-01 4.93967E-14 8.75894E-15
 -1      3797 1.96345E+01 5.38646E-01 1.70333E-03 6.97792E-01 1.51025E-14 7.32432E-14
 -1      3798 1.94537E+01 6.12561E-01 1.34877E-03 7.00800E-01-8.25823E-17-1.91814E-15
 -1      3799 1.97344E+01 4.64775E-01-2.11171E-03 4.97608E-01 2.79971E-14 1.06051E-13
 -1      3800 1.97137E+01 4.94589E-01 1.26633E-03 5.59313E-01 3.90298E-14 1.09394E-13
 -1      3801 1.95712E+01 5.65936E-01 1.44566E-03 5.58036E-01-9.67177E-15 3.78867E-14
 -1      3802 1.98019E+01 4.01186E-01-1.83383E-03 3.90440E-01 6.31603E-14 1.03657E-13
 -1      3803 1.97838E+01 4.34568E-01 9.88716E-04 4.42580E-01 7.90346E-14 1.73569E-13
 -1      3804 1.96729E+01 5.00297E-01 1.36602E-03 4.40119E-01 1.02570E-14 1.13445E-13
 -1      3805 1.98571E+01 3.35986E-01-1.55287E-03 3.01949E-01 4.72226E-14 2.28903E-13
 -1      3806 1.98424E+01 3.69201E-01 8.01524E-04 3.45315E-01 1.65379E-14 1.10349E-13
 -1      3807 1.97573E+01 4.27611E-01 1.20230E-03 3.43133E-01 1.89417E-14 2.31771E-13
 -1      3808 1.99007E+01 2.74325E-01-1.28595E-03 2.29858E-01-1.28447E-13 3.11806E-13
 -1      3809 1.98894E+01 3.05165E-01 6.64240E-04 2.65345E-01 5.85497E-14 3.31257E-13
 -1      3810 1.98252E+01 3.55558E-01 1.00845E-03 2.63993E-01-4.24493E-14 5.15091E-13
 -1      3811 1.99341E+01 2.19008E-01-1.04318E-03 1.71973E-01-8.90122E-14 1.06818E-13
 -1      3812 1.99257E+01 2.46326E-01 5.55104E-04 2.00538E-01-1.11367E-13 2.63321E-13
 -1      3813 1.98782E+01 2.88712E-01 8.15115E-04 2.00097E-01-2.97698E-14 4.43203E-13
 -1      3814 1.99588E+01 1.71251E-01-8.29767E-04 1.26195E-01-1.86907E-13 1.73448E-13
 -1      3815 1.99530E+01 1.94611E-01 4.63252E-04 1.48810E-01-2.06742E-13 6.35561E-14
 -1      3816 1.99185E+01 2.29468E-01 6.38576E-04 1.49146E-01-9.42810E-14 2.93659E-13
 -1      3817 1.99766E+01 1.31250E-01-6.47445E-04 9.05555E-02-3.17083E-14 2.91931E-13
 -1      3818 1.99727E+01 1.50666E-01 3.83652E-04 1.08163E-01-6.77407E-14 2.99459E-13
 -1      3819 1.99484E+01 1.78748E-01 4.86220E-04 1.09067E-01-2.47255E-13 4.06949E-13
 -1      3820 1.99889E+01 9.85876E-02-4.95522E-04 6.32618E-02-7.14081E-14 4.88574E-13
 -1      3821 1.99866E+01 1.14337E-01 3.14129E-04 7.67372E-02-3.43359E-14 3.69269E-13
 -1      3822 1.99699E+01 1.36527E-01 3.60047E-04 7.80016E-02-1.24957E-13 4.80140E-13
 -1      3823 1.99971E+01 7.25089E-02-3.71743E-04 4.27184E-02-2.03570E-13 4.26396E-13
 -1      3824 1.99959E+01 8.50095E-02 2.53724E-04 5.28474E-02-1.27465E-13 4.37249E-13
 -1      3825 1.99849E+01 1.02215E-01 2.58976E-04 5.42955E-02-9.66499E-14 4.74445E-13
 -1      3826 2.00023E+01 5.21158E-02-2.72984E-04 2.75419E-02-9.17482E-14 3.83406E-13
 -1      3827 2.00017E+01 6.18366E-02 2.01872E-04 3.50101E-02-1.25932E-13 4.57326E-13
 -1      3828 1.99949E+01 7.49290E-02 1.80337E-04 3.65071E-02-1.22031E-13 3.18604E-13
 -1      3829 2.00051E+01 3.64845E-02-1.95769E-04 1.65602E-02 7.35570E-14 1.65169E-13
 -1      3830 2.00051E+01 4.38949E-02 1.58049E-04 2.19500E-02 1.37658E-14 3.22107E-13
 -1      3831 2.00012E+01 5.36650E-02 1.20799E-04 2.34022E-02 2.41398E-14 2.40313E-13
 -1      3832 2.00065E+01 2.47382E-02-1.36662E-04 8.80138E-03 1.03619E-13 6.38587E-14
 -1      3833 2.00068E+01 3.02765E-02 1.21648E-04 1.25961E-02 1.09519E-13 8.94508E-14
 -1      3834 2.00049E+01 3.74168E-02 7.69280E-05 1.39445E-02 1.46850E-13 3.52883E-13
 -1      3835 2.00068E+01 1.60854E-02-9.23780E-05 3.47662E-03 2.37061E-13 1.07103E-13
 -1      3836 2.00073E+01 2.01425E-02 9.19350E-05 6.06823E-03 1.49216E-13-1.24301E-14
 -1      3837 2.00067E+01 2.52414E-02 4.54672E-05 7.28071E-03 1.53879E-13 2.79384E-13
 -1      3838 2.00064E+01 9.83560E-03-6.02829E-05-4.24322E-05 1.82648E-13 1.96142E-13
 -1      3839 2.00070E+01 1.27508E-02 6.81857E-05 1.65836E-03 3.32998E-13 1.33136E-13
 -1      3840 2.00072E+01 1.62959E-02 2.37068E-05 2.72271E-03 2.35373E-13-5.71024E-14
 -1      3841 2.00056E+01 5.39907E-03-3.84586E-05-2.25249E-03-2.61420E-13 5.54254E-13
 -1      3842 2.00062E+01 7.46828E-03 5.16689E-05-1.19217E-03-9.34517E-14 4.20969E-13
 -1      3843 2.00069E+01 9.84212E-03 6.18100E-06-2.71996E-04-1.83689E-13 3.74476E-13
 -1      3844 2.00046E+01 2.26431E-03-2.39418E-05-3.53403E-03-1.15309E-13 4.35609E-13
 -1      3845 2.00052E+01 3.74276E-03 4.14638E-05-2.91223E-03-9.76827E-14 5.26959E-13
 -1      3846 2.00061E+01 5.23650E-03-1.62664E-05-2.14056E-03-1.10895E-13 5.68294E-13
 -1      3847 2.00040E+01 6.68696E-04 2.52893E-05-3.84358E-03-1.11549E-13 3.41219E-13
 -1      3848 2.00059E+01 1.24462E-03-9.71044E-06 1.62342E-03-6.18016E-14 3.53657E-15
 -1      3849 2.00061E+01 1.30044E-03-1.17531E-05 9.58423E-04-1.00597E-13-2.09901E-13
 -1      3850 1.59442E+01-9.53617E-01-2.84351E-02 3.57329E+00-2.43362E-13 4.23439E-13
 -1      3851 1.44259E+01-1.77805E-01 8.60947E-02 3.16184E+00-1.43794E-13 3.92474E-13
 -1      3852 1.44896E+01 1.91154E-01 2.73177E-02 2.44387E+00-1.09709E-13 4.06015E-13
 -1      3853 1.52627E+01 5.07906E-01 7.90975E-02-2.31011E+00 1.54149E-13-1.24610E-14
 -1      3854 1.69589E+01-3.01180E-01-1.38707E-02-2.78549E+00 1.31710E-13-2.91329E-14
 -1      3855 1.69919E+01 1.37349E-01-2.68518E-02-2.39313E+00 9.79620E-14-1.29445E-14
 -1      3856 1.50480E+01 7.47979E-01-8.43941E-03-1.53446E+00 1.60567E-13 1.71255E-13
 -1      3857 1.37232E+01 7.93121E-01 1.42125E-02-2.03730E+00-8.25798E-14-3.21299E-13
 -1      3858 1.50314E+01-6.00435E-03 1.40203E-03-3.17210E+00-1.64809E-13-2.62436E-13
 -1      3859 2.05048E+01 5.61304E-01 4.59963E-03-1.08291E+00 1.09892E-13 1.39753E-14
 -1      3860 2.02115E+01 7.58583E-01-3.36994E-03-1.10024E+00 1.00895E-13-1.97876E-14
 -1      3861 1.97748E+01 9.51439E-01 4.72128E-03-1.20516E+00 6.66483E-14-2.39255E-14
 -1      3862 2.05865E+01 2.87263E-01 2.34582E-03-1.22903E+00 7.47820E-14 2.18761E-14
 -1      3863 1.75494E+01 2.80050E+00-9.21946E-04-2.14662E-01 4.31014E-14-2.07134E-13
 -1      3864 1.75453E+01 2.79608E+00-8.27857E-03-4.41651E-02 1.87315E-14-2.37293E-13
 -1      3865 1.74647E+01 2.55377E+00 1.09747E-02-3.93697E-01 4.30812E-14-1.85947E-13
 -1      3866 1.76318E+01 2.77293E+00-2.73797E-03 1.67942E-01-6.01613E-15-2.59941E-13
 -1      3867 1.78134E+01 2.66843E+00-7.13096E-03 3.31865E-01-1.51622E-14-2.81319E-13
 -1      3868 1.77119E+01 2.45966E+00 7.68505E-03 4.89125E-01-2.05158E-14-2.75308E-13
 -1      3869 1.74221E+01 2.59892E+00 8.96854E-03 7.72737E-02 2.14347E-16-2.09809E-13
 -1      3870 1.97522E+01-6.08928E-01 9.10851E-03 1.98977E+00-1.14515E-13-2.76352E-14
 -1      3871 2.00404E+01-9.72240E-01 1.17883E-02 2.08500E+00-1.91562E-13-2.53202E-14
 -1      3872 1.91340E+01-3.77330E-01-1.85763E-02 2.03902E+00-1.22738E-13-1.04685E-14
 -1      3873 1.33009E+01 1.20401E+00 3.08299E-03 6.21609E-01 5.63588E-14-3.01564E-13
 -1      3874 1.31788E+01 1.22742E+00 2.44466E-02-8.20523E-01-2.10726E-14-3.28831E-13
 -1      3875 1.79066E+01 1.40949E+00-5.62682E-03 1.52270E+00 2.24551E-14-2.23799E-13
 -1      3876 1.77815E+01 1.10691E+00 1.05845E-02 1.81505E+00 4.30465E-14-1.90976E-13
 -1      3877 1.69170E+01 1.24965E+00 1.52868E-02 1.76780E+00 7.19160E-14-2.39842E-13
 -1      3878 1.73676E+01 1.67945E+00 4.49390E-03 1.28938E+00 4.58116E-14-2.84927E-13
 -1      3879 2.00048E+01 1.96695E-05 3.53009E-05-2.82736E-03-4.28089E-14 2.72346E-15
 -1      3880 2.23650E+01-2.04000E+00 1.12105E-02-1.48289E+00-1.28435E-13 1.55674E-13
 -1      3881 2.18372E+01-1.63524E+00 1.82921E-02-1.69964E+00-1.02451E-13 1.25512E-13
 -1      3882 2.11288E+01-1.44480E+00-5.14729E-03-2.10930E+00-9.49089E-14 9.00492E-14
 -1      3883 2.16529E+01-2.40914E+00-4.68519E-03-2.47005E+00-1.38021E-13 9.08527E-14
 -1      3884 1.75891E+01-5.84382E-01 2.82441E-02 3.28708E+00 1.74082E-13-1.04009E-13
 -1      3885 1.61238E+01-3.80699E-01 3.93079E-02 3.44733E+00 1.91802E-13-1.56805E-13
 -1      3886 1.56318E+01 2.35974E-01 3.05563E-03 2.82677E+00 1.77462E-13-2.32536E-13
 -1      3887 1.74107E+01-6.12938E-02-4.72346E-03 2.88880E+00 1.36864E-13-1.16794E-13
 -1      3888 2.00049E+01 1.50566E-03-2.91769E-05-3.24261E-03-5.78752E-14 3.01444E-13
 -1      3889 1.60299E+01 3.43131E-01-5.95561E-03-2.67290E+00-9.07382E-14-2.09928E-13
 -1      3890 1.62722E+01-3.16681E-01 5.57641E-02-3.34411E+00-1.56584E-13-2.14934E-13
 -1      3891 1.74708E+01-7.94491E-01-2.03563E-02-3.40136E+00-1.39408E-13-1.75610E-13
 -1      3892 1.87332E+01 1.69091E+00-7.77536E-03-1.07869E+00 8.00321E-14-7.79155E-14
 -1      3893 1.65959E+01 5.33413E-01-8.46290E-03 2.47613E+00 1.39708E-13-1.88126E-13
 -1      3894 2.02679E+01 2.14172E-01-1.09644E-02-1.45924E+00 3.59827E-14 3.10555E-14
 -1      3895 1.78852E+01 1.96190E+00 1.60644E-02-1.09634E+00 4.98185E-14-1.40506E-13
 -1      3896 1.74907E+01 2.10131E+00-2.10411E-02-9.07804E-01 3.85500E-14-1.54563E-13
 -1      3897 1.65058E+01 6.39009E-01 4.88346E-02-1.99557E+00 1.00284E-13 7.80253E-14
 -1      3898 2.00060E+01 1.90962E-03-2.52751E-05-1.97212E-03 1.79468E-13-3.32908E-14
 -1      3899 2.00055E+01 1.80375E-03-1.74649E-05-2.61639E-03 1.08969E-13 6.34493E-14
 -1      3900 2.00063E+01 3.87169E-03 4.74953E-05-2.23814E-03 1.41153E-13 2.80387E-13
 -1      3901 2.21475E+01-2.94071E+00 2.22781E-02 2.27912E+00-2.25075E-13-1.75013E-13
 -1      3902 1.94800E+01-1.12717E+00-2.38839E-02 2.46699E+00-2.20759E-13-5.25116E-14
 -1      3903 1.71894E+01 2.00235E+00 1.24720E-02-9.00664E-01 3.15273E-14-1.61226E-13
 -1      3904 1.72396E+01 2.30766E+00 4.08766E-03-6.13204E-01 5.10823E-14-1.82587E-13
 -1      3905 1.70793E+01 2.37359E+00-1.10513E-02-3.46971E-01 3.14368E-14-1.79232E-13
 -1      3906 2.10090E+01-2.35119E+00 8.78438E-04 2.52986E+00-2.78160E-13-1.17544E-13
 -1      3907 1.46274E+01 9.22301E-01-5.84954E-03 1.83568E+00 1.30535E-13-2.59577E-13
 -1      3908 1.38977E+01 1.21311E+00 6.18997E-02 1.22201E+00 8.90882E-14-2.82569E-13
 -1      3909 1.43816E+01 1.42724E+00 1.06448E-03 5.14436E-01 4.52659E-14-2.37495E-13
 -1      3910 2.02267E+01-6.52952E-01-7.21660E-03-2.07812E+00-4.44506E-14 3.44724E-14
 -1      3911 1.99994E+01-1.66645E-01 8.24994E-03-1.90932E+00-3.42625E-14 1.54350E-14
 -1      3912 2.00062E+01 1.38595E-03-1.08926E-05 3.04265E-04 9.70719E-14-3.53481E-13
 -1      3913 2.00062E+01 1.34364E-03-2.70574E-05-3.80196E-04 2.06339E-13-4.69013E-13
 -1      3914 2.00068E+01 2.73358E-03 3.34033E-05 5.74237E-04 8.53928E-14-4.86387E-13
 -1      3915 1.94212E+01 1.59235E-01-2.14051E-02-1.94885E+00-3.80721E-14-5.14594E-14
 -1      3916 1.99154E+01 2.31371E-01 5.25566E-03-1.65983E+00-5.78953E-15-8.12664E-15
 -1      3917 1.97861E+01 6.03977E-01 6.00579E-04-1.45957E+00 3.45735E-14-2.18285E-14
 -1      3918 1.98769E+01-1.94063E+00 2.57856E-02-3.37805E+00-1.52408E-13-4.31937E-14
 -1      3919 2.08728E+01-2.19273E+00 1.31637E-02-2.86821E+00-1.45196E-13 1.36332E-14
 -1      3920 2.04916E+01-1.70985E+00-3.09512E-02-2.67111E+00-1.10294E-13 2.15002E-14
 -1      3921 2.00166E+01-2.03092E+00 1.19202E-02 2.97289E+00-3.09616E-13-4.48738E-14
 -1      3922 1.90353E+01-1.45530E+00 3.25372E-02-3.41214E+00-1.62031E-13-1.07290E-13
 -1      3923 1.90490E+01-1.34039E+00-8.66880E-03 2.86550E+00-2.16375E-13 8.13542E-15
 -1      3924 1.91884E+01-1.82786E+00-1.47898E-02 3.17419E+00-3.03294E-13 3.01287E-14
 -1      3925 1.76459E+01-1.25422E+00 6.55015E-02 3.52073E+00-2.73790E-13 2.81642E-13
 -1      3926 1.88496E+01-8.30708E-01 1.40918E-02 2.57752E+00-2.00031E-13 2.19349E-14
 -1      3927 1.38915E+01 8.49721E-01-1.50967E-02 1.00192E+00-5.63232E-14 6.35351E-13
 -1      3928 1.34903E+01 9.99703E-01 3.11738E-02 2.82685E-01-3.44633E-14 5.89299E-13
 -1      3929 1.44010E+01 1.02928E+00 3.00330E-03-1.85901E-01-5.23279E-15 4.68370E-13
 -1      3930 2.00053E+01 6.24316E-04-4.54716E-09 2.52837E-03-6.40575E-14 9.73610E-14
 -1      3931 1.44994E+01 1.17468E+00 4.45710E-02-1.28736E+00-2.75257E-14-2.82344E-13
 -1      3932 2.00060E+01 1.91917E-03 5.11734E-07 2.08839E-03-1.14270E-13 7.68789E-14
 -1      3933 1.70048E+01-7.28442E-01-2.99994E-03 3.10671E+00-2.60983E-13 2.85896E-13
 -1      3934 1.65088E+01 9.07992E-01-5.44844E-03-1.37843E+00 2.54760E-14 9.19181E-14
 -1      3935 1.68529E+01 1.01486E+00-1.61409E-02-1.16366E+00 1.09036E-14 9.58734E-14
 -1      3936 1.87001E+01 1.34134E+00-1.42098E-02-1.33865E+00 5.27547E-14-8.82397E-14
 -1      3937 1.83915E+01 1.20753E+00-2.05386E-03-1.50800E+00 1.94098E-14-8.91036E-14
 -1      3938 1.55879E+01 7.77741E-01-2.21377E-02-1.50602E+00 1.59666E-13 1.03019E-13
 -1      3939 1.60369E+01 8.53428E-01-2.06555E-02-1.40345E+00 1.10575E-13 9.79945E-14
 -1      3940 1.49336E+01 1.13028E+00 5.43400E-02-8.21148E-01 1.05725E-13 2.94763E-13
 -1      3941 1.47673E+01 1.52484E+00 4.45352E-03-6.69260E-01 4.57176E-15-2.61256E-13
 -1      3942 1.53304E+01 1.15785E+00 2.29427E-02-1.68040E+00-5.06279E-14-2.34160E-13
 -1      3943 1.73062E+01 1.05961E+00-2.95720E-03-1.04299E+00 2.07855E-14 6.50592E-14
 -1      3944 1.75759E+01 1.08712E+00-1.29165E-02-9.14926E-01-5.73830E-15 7.60681E-14
 -1      3945 1.67937E+01 1.17041E+00 1.20662E-02-7.96135E-01-7.23943E-15 2.22226E-13
 -1      3946 1.79137E+01 1.09791E+00-1.23892E-03-8.32226E-01-4.62855E-14 1.23198E-13
 -1      3947 1.81320E+01 1.08145E+00-8.31551E-03-7.41242E-01-5.28083E-14 7.67685E-14
 -1      3948 1.75509E+01 1.19997E+00 1.62693E-02-6.23954E-01-1.66324E-14 1.88182E-13
 -1      3949 1.83891E+01 1.05737E+00-1.61175E-03-6.82676E-01-6.04033E-14 3.70117E-14
 -1      3950 1.85655E+01 1.01857E+00-5.81832E-03-6.12446E-01-8.69014E-14-8.34060E-14
 -1      3951 1.81136E+01 1.14504E+00 1.02254E-02-5.14770E-01-9.26476E-14 5.41551E-14
 -1      3952 1.87651E+01 9.74667E-01-1.56368E-03-5.65375E-01-1.02527E-14-1.47093E-13
 -1      3953 1.89064E+01 9.22314E-01-4.38286E-03-5.07385E-01-6.80893E-15-7.87430E-14
 -1      3954 1.85515E+01 1.05597E+00 7.24276E-03-4.33918E-01-9.85840E-14-3.30414E-14
 -1      3955 1.90632E+01 8.67817E-01-1.29584E-03-4.67719E-01-2.82799E-14-1.27815E-13
 -1      3956 1.91750E+01 8.09320E-01-3.41796E-03-4.18198E-01 9.92281E-15-6.36097E-14
 -1      3957 1.88962E+01 9.44715E-01 5.58362E-03-3.64878E-01-5.53213E-14-9.86619E-14
 -1      3958 1.92980E+01 7.51324E-01-1.01487E-03-3.83946E-01 6.24027E-14-6.01584E-14
 -1      3959 1.93853E+01 6.92227E-01-2.72602E-03-3.41091E-01 5.96264E-14-3.14126E-14
 -1      3960 1.91670E+01 8.22690E-01 4.31561E-03-3.04785E-01 1.31179E-14-1.26099E-13
 -1      3961 1.94814E+01 6.35345E-01-7.32190E-04-3.11258E-01 3.88128E-15 5.52251E-14
 -1      3962 1.95487E+01 5.79169E-01-2.20178E-03-2.74282E-01-1.43799E-14 9.39363E-14
 -1      3963 1.93790E+01 7.00209E-01 3.35895E-03-2.51178E-01 1.04209E-13-8.42460E-14
 -1      3964 1.96233E+01 5.26264E-01-4.95120E-04-2.48530E-01-2.46427E-14 7.38583E-14
 -1      3965 1.96745E+01 4.75128E-01-1.78353E-03-2.17010E-01 3.25465E-14-8.25686E-15
 -1      3966 1.95439E+01 5.83827E-01 2.61667E-03-2.03565E-01-4.65682E-14-5.51626E-15
 -1      3967 1.97318E+01 4.27791E-01-3.12450E-04-1.95142E-01 6.39295E-14-4.70625E-14
 -1      3968 1.97701E+01 3.82770E-01-1.43830E-03-1.68713E-01 1.03790E-13-4.97978E-14
 -1      3969 1.96710E+01 4.77676E-01 2.02829E-03-1.61990E-01 7.21453E-14-2.74530E-14
 -1      3970 1.98136E+01 3.41680E-01-1.79665E-04-1.50498E-01 1.21249E-13-1.03764E-13
 -1      3971 1.98418E+01 3.03103E-01-1.14914E-03-1.28735E-01 5.24362E-14-8.04425E-14
 -1      3972 1.97677E+01 3.83951E-01 1.55850E-03-1.26459E-01 1.01805E-13 2.05719E-14
 -1      3973 1.98744E+01 2.68319E-01-8.79673E-05-1.13865E-01 1.30088E-14-1.10147E-13
 -1      3974 1.98948E+01 2.36018E-01-9.06802E-04-9.62733E-02 5.35476E-14-2.61673E-14
 -1      3975 1.98404E+01 3.03396E-01 1.18400E-03-9.67634E-02 4.08900E-14-7.01776E-14
 -1      3976 1.99187E+01 2.07204E-01-2.79546E-05-8.43744E-02 1.81799E-13-2.87275E-14
 -1      3977 1.99332E+01 1.80704E-01-7.05340E-04-7.04163E-02 2.34862E-13 6.20297E-14
 -1      3978 1.98941E+01 2.35747E-01 8.87427E-04-7.24843E-02 1.34666E-13-7.46782E-14
 -1      3979 1.99505E+01 1.57297E-01 8.81454E-06-6.10828E-02 1.50311E-13 2.91920E-14
 -1      3980 1.99605E+01 1.35961E-01-5.39969E-04-5.02107E-02 3.42891E-14-3.77039E-15
 -1      3981 1.99330E+01 1.80095E-01 6.54854E-04-5.30516E-02 1.43107E-13-3.25685E-14
 -1      3982 1.99726E+01 1.17287E-01 2.92621E-05-4.30338E-02 1.65385E-14 1.29462E-14
 -1      3983 1.99793E+01 1.00411E-01-4.06254E-04-3.47224E-02 4.94936E-14 2.63599E-14
 -1      3984 1.99606E+01 1.35171E-01 4.74617E-04-3.78163E-02 8.86915E-14-1.54707E-13
 -1      3985 1.99876E+01 8.57710E-02 3.87353E-05-2.93151E-02-1.18298E-13-5.85689E-14
 -1      3986 1.99918E+01 7.26528E-02-2.99879E-04-2.30830E-02-1.93289E-13-1.37423E-13
 -1      3987 1.99796E+01 9.95530E-02 3.36821E-04-2.61138E-02-1.02645E-13-1.58714E-13
 -1      3988 1.99973E+01 6.13723E-02 4.11852E-05-1.90953E-02-1.11687E-13-2.42071E-13
 -1      3989 1.99998E+01 5.13509E-02-2.16682E-04-1.45177E-02-1.12846E-13-3.29141E-13
 -1      3990 1.99923E+01 7.18012E-02 2.33059E-04-1.73095E-02-1.81175E-13-3.25422E-13
 -1      3991 2.00032E+01 4.28098E-02 3.94307E-05-1.16447E-02-5.22802E-14-3.79115E-13
 -1      3992 2.00045E+01 3.52890E-02-1.52744E-04-8.35858E-03-4.25330E-14-3.40219E-13
 -1      3993 2.00003E+01 5.05525E-02 1.56246E-04-1.08286E-02 9.87214E-16-6.36550E-13
 -1      3994 2.00064E+01 2.89372E-02 3.54387E-05-6.34293E-03-8.77866E-14-1.44226E-13
 -1      3995 2.00069E+01 2.33949E-02-1.04652E-04-4.04617E-03-2.37727E-14-1.21911E-13
 -1      3996 2.00049E+01 3.45691E-02 1.00433E-04-6.16995E-03 7.52385E-14-3.35958E-13
 -1      3997 2.00077E+01 1.87567E-02 3.06388E-05-2.67766E-03 1.18396E-13-1.70384E-13
 -1      3998 2.00077E+01 1.47452E-02-6.98068E-05-1.12508E-03 2.70821E-13-1.25989E-14
 -1      3999 2.00072E+01 2.27605E-02 6.04693E-05-2.91159E-03 2.83048E-14-9.71145E-14
 -1      4000 2.00079E+01 1.14348E-02 2.93983E-05-2.40292E-04 3.22302E-13-8.49982E-14
 -1      4001 2.00075E+01 8.57165E-03-4.52885E-05 7.75484E-04 2.82489E-13-1.48663E-13
 -1      4002 2.00080E+01 1.41902E-02 3.16235E-05-7.19297E-04 3.11525E-13-3.26335E-13
 -1      4003 1.74426E+01 2.24219E+00-6.11550E-03 6.19141E-01-7.48750E-16-2.68255E-13
 -1      4004 1.72405E+01 2.02472E+00-3.54108E-03 8.13414E-01 2.87601E-14-2.72012E-13
 -1      4005 1.72448E+01 2.34348E+00-2.33356E-03 4.23739E-01 9.36455E-15-2.42999E-13
 -1      4006 2.00063E+01 1.76086E-03-1.30377E-05-8.77521E-04 2.10461E-13-5.09640E-13
 -1      4007 2.00061E+01 1.63877E-03-2.65675E-05-1.53821E-03 2.78144E-13-3.10607E-13
 -1      4008 2.00070E+01 3.93647E-03 4.13009E-05-1.30126E-03 1.52382E-13-1.46961E-13
 -1      4009 2.00070E+01 3.21506E-03 3.95797E-05-4.85593E-04 3.26939E-13-3.13767E-13
 -1      4010 1.86194E+01 4.01263E-01-4.90411E-03 1.51899E+00-2.06391E-13 1.67974E-13
 -1      4011 1.86391E+01 2.37923E-01 9.44775E-03 1.69588E+00-1.40146E-13 1.40686E-13
 -1      4012 1.91738E+01 7.01456E-01-4.02054E-03 7.49820E-01 5.49561E-14 1.04263E-13
 -1      4013 1.91136E+01 7.06001E-01 2.34340E-03 8.41061E-01-5.13074E-15 2.26172E-13
 -1      4014 1.93439E+01 6.63417E-01-3.37282E-03 5.93102E-01-1.57713E-14 9.57152E-14
 -1      4015 1.92853E+01 6.88740E-01 1.41446E-03 6.67804E-01 3.08006E-14 1.08072E-13
 -1      4016 1.90887E+01 7.70154E-01 2.85637E-03 6.34135E-01 3.29902E-14 1.75941E-13
 -1      4017 1.94910E+01 5.97968E-01-2.80680E-03 4.66823E-01-7.62528E-14 1.24831E-13
 -1      4018 1.94385E+01 6.34397E-01 8.50561E-04 5.28351E-01-5.53189E-14 5.52475E-14
 -1      4019 1.92859E+01 7.10365E-01 2.61614E-03 4.95268E-01-3.25966E-14 2.12339E-13
 -1      4020 1.96142E+01 5.19850E-01-2.32667E-03 3.64523E-01-6.54810E-14 3.03559E-13
 -1      4021 1.95696E+01 5.60818E-01 5.41330E-04 4.15201E-01-6.94834E-14 2.27720E-13
 -1      4022 1.94514E+01 6.29904E-01 2.28542E-03 3.85724E-01-9.98299E-14 3.39653E-13
 -1      4023 1.97144E+01 4.38982E-01-1.91526E-03 2.81715E-01-3.93562E-14 3.62931E-13
 -1      4024 1.96780E+01 4.80127E-01 3.70939E-04 3.23253E-01-2.74211E-14 3.43933E-13
 -1      4025 1.95871E+01 5.41423E-01 1.93593E-03 2.98563E-01-1.36712E-13 4.69152E-13
 -1      4026 1.97941E+01 3.61650E-01-1.56055E-03 2.15040E-01-8.37174E-14 5.91391E-13
 -1      4027 1.97652E+01 4.00268E-01 2.76222E-04 2.48798E-01-8.64079E-14 4.14308E-13
 -1      4028 1.96962E+01 4.53396E-01 1.59825E-03 2.29049E-01-1.09205E-13 4.21208E-13
 -1      4029 1.98559E+01 2.91477E-01-1.25564E-03 1.61809E-01-3.12681E-14 4.65421E-13
 -1      4030 1.98337E+01 3.26069E-01 2.21255E-04 1.88944E-01-4.42888E-14 5.29319E-13
 -1      4031 1.97819E+01 3.71123E-01 1.28907E-03 1.73753E-01-1.20553E-14 4.43061E-13
 -1      4032 1.99028E+01 2.30210E-01-9.96105E-04 1.19765E-01-1.54698E-13 4.38987E-13
 -1      4033 1.98862E+01 2.60118E-01 1.86236E-04 1.41303E-01 1.07555E-14 4.70261E-13
 -1      4034 1.98480E+01 2.97552E-01 1.01701E-03 1.30040E-01-2.69005E-14 4.24247E-13
 -1      4035 1.99375E+01 1.78325E-01-7.78203E-04 8.69658E-02-2.10403E-13 2.29863E-13
 -1      4036 1.99255E+01 2.03454E-01 1.60727E-04 1.03827E-01-2.50222E-13 3.37317E-13
 -1      4037 1.98978E+01 2.33964E-01 7.85235E-04 9.57893E-02-8.42864E-14 3.80041E-13
 -1      4038 1.99626E+01 1.35494E-01-5.98122E-04 6.17279E-02-2.00504E-13 3.51399E-13
 -1      4039 1.99541E+01 1.56100E-01 1.39596E-04 7.47339E-02-1.79977E-13 2.39388E-13
 -1      4040 1.99346E+01 1.80512E-01 5.93209E-04 6.92447E-02-1.76838E-13 1.70655E-13
 -1      4041 1.99801E+01 1.00924E-01-4.51761E-04 4.25971E-02-1.19115E-13 3.05546E-13
 -1      4042 1.99744E+01 1.17458E-01 1.20595E-04 5.24715E-02-1.72583E-13 2.94984E-13
 -1      4043 1.99610E+01 1.36644E-01 4.38042E-04 4.89300E-02-2.01333E-13 1.31131E-13
 -1      4044 1.99920E+01 7.35932E-02-3.34821E-04 2.83324E-02-1.50193E-13 2.83623E-13
 -1      4045 1.99883E+01 8.65930E-02 1.02943E-04 3.57019E-02-5.75786E-14 3.50697E-13
 -1      4046 1.99795E+01 1.01406E-01 3.15548E-04 3.36020E-02-9.59716E-14 2.27607E-13
 -1      4047 1.99996E+01 5.24057E-02-2.42992E-04 1.78889E-02 1.25853E-14 3.01327E-13
 -1      4048 1.99974E+01 6.24299E-02 8.65308E-05 2.32861E-02-1.30639E-13 2.41411E-13
 -1      4049 1.99919E+01 7.36601E-02 2.21004E-04 2.22186E-02-8.02372E-14 2.82762E-13
 -1      4050 2.00041E+01 3.62952E-02-1.72113E-04 1.04008E-02 1.79315E-13 3.35132E-13
 -1      4051 2.00030E+01 4.38773E-02 7.15052E-05 1.42698E-02 1.39691E-13 4.08788E-13
 -1      4052 1.99998E+01 5.22306E-02 1.49677E-04 1.39150E-02 7.10599E-15 1.68182E-13
 -1      4053 2.00065E+01 2.42793E-02-1.18671E-04 5.16238E-03 2.57584E-13 2.22021E-13
 -1      4054 2.00061E+01 2.99048E-02 5.80891E-05 7.86631E-03 2.12165E-13 3.69411E-13
 -1      4055 2.00045E+01 3.59920E-02 9.71004E-05 7.98200E-03 2.26863E-13 3.15229E-13
 -1      4056 2.00073E+01 1.54896E-02-7.81043E-05 1.61170E-03 1.46015E-13 2.25518E-13
 -1      4057 2.00074E+01 1.95824E-02 4.65461E-05 3.44050E-03 3.26575E-13 2.42921E-13
 -1      4058 2.00069E+01 2.39171E-02 5.90201E-05 3.84566E-03 2.92969E-13 4.52501E-13
 -1      4059 2.00072E+01 9.20276E-03-4.28612E-05-6.83491E-04-3.03604E-13 3.36475E-13
 -1      4060 2.00076E+01 1.21103E-02 3.92611E-05 4.85166E-04-1.51953E-13 2.67852E-13
 -1      4061 2.00077E+01 1.51126E-02 3.24478E-05 1.06195E-03-5.14127E-14 5.48312E-13
 -1      4062 2.00066E+01 5.27220E-03-1.61253E-05-1.89822E-03-4.38282E-14 2.56878E-13
 -1      4063 2.00071E+01 7.38512E-03 4.22629E-05-1.20216E-03-1.77473E-13 2.70755E-13
 -1      4064 2.00076E+01 9.39311E-03-2.92667E-06-5.83160E-04-1.54695E-13 2.85240E-13
 -1      4065 2.00071E+01 5.68391E-03-2.45176E-05-1.43126E-03-1.97782E-14 1.19266E-13
 -1      4066 1.75887E+01-4.98230E-01-7.68796E-04 2.70004E+00-2.52845E-13 1.78847E-13
 -1      4067 1.63583E+01-4.87500E-02 4.21290E-02 2.68666E+00-1.92036E-13 3.38117E-13
 -1      4068 1.53704E+01 2.02296E-01-2.33534E-02 2.32152E+00-1.46675E-13 3.93062E-13
 -1      4069 1.44971E+01 7.42183E-01 5.15118E-02 1.67352E+00-1.76270E-13 5.62418E-13
 -1      4070 1.48828E+01 9.06734E-01-3.59611E-03 1.04294E+00-1.38701E-13 4.82238E-13
 -1      4071 1.61717E+01 3.79960E-01 5.94445E-03 2.05815E+00-1.32401E-13 3.18670E-13
 -1      4072 1.93686E+01 9.79664E-01 9.06263E-03-1.41338E+00 5.44775E-14-4.10707E-14
 -1      4073 1.87937E+01 6.03385E-01-5.19851E-03 1.19568E+00-1.82177E-13 1.81229E-13
 -1      4074 1.87634E+01 5.21852E-01 6.69621E-03 1.33628E+00-1.49688E-13 1.48785E-13
 -1      4075 1.83325E+01 6.03536E-01 1.23240E-03 1.35897E+00-2.20610E-13 1.77167E-13
 -1      4076 1.85842E+01-4.51921E-02 1.98153E-03 1.99404E+00-1.03942E-13 1.09914E-13
 -1      4077 1.86916E+01-3.54696E-01 8.00345E-03 2.22307E+00-1.29730E-13 4.40858E-14
 -1      4078 1.81580E+01-5.43056E-01-3.63778E-03 2.58649E+00-2.01448E-13 1.15552E-13
 -1      4079 1.81028E+01 2.26734E-01-7.87844E-03 1.85485E+00-1.16900E-13 1.15886E-13
 -1      4080 2.03690E+01-1.02778E+00 7.48091E-03-2.28497E+00-9.27108E-14 3.98405E-14
 -1      4081 1.89868E+01 6.90744E-01-4.57803E-03 9.45909E-01-7.85890E-14 1.60380E-13
 -1      4082 1.89333E+01 6.61946E-01 4.11581E-03 1.05821E+00-1.57959E-13 1.73144E-13
 -1      4083 1.86051E+01 7.47059E-01 2.83518E-03 1.04687E+00-1.49553E-13 1.41301E-13
 -1      4084 1.88602E+01 7.89627E-01 2.67330E-03 8.13044E-01-8.49377E-14 1.81055E-13
 -1      4085 1.83446E+01-8.04738E-01-2.72777E-02-3.04570E+00-1.02629E-13-1.32259E-13
 -1      4086 1.57659E+01 7.47575E-01 3.57814E-02 2.30743E+00 1.47442E-13-2.71395E-13
 -1      4087 1.59323E+01 1.15651E+00 3.55375E-02-8.65759E-01 8.54996E-14 2.15437E-13
 -1      4088 1.48775E+01 1.66335E+00 3.49331E-02-1.75239E-01 3.57498E-14-2.37942E-13
 -1      4089 1.54853E+01 1.65982E+00-1.18423E-02-6.21906E-01 8.43423E-15-1.93148E-13
 -1      4090 1.50950E+01 1.58723E+00-1.20988E-02 4.28295E-01 7.11696E-14-2.13074E-13
 -1      4091 1.74799E+01 1.01718E-02-3.12529E-03 2.25097E+00-1.40095E-13 2.01508E-13
 -1      4092 1.70035E+01 1.82896E+00-4.93461E-03 1.00011E+00 5.24010E-14-2.60706E-13
 -1      4093 2.00072E+01 6.22090E-03 2.59377E-05 1.30525E-03 3.27145E-13-5.22829E-14
 -1      4094 2.00067E+01 4.23111E-03-2.08755E-05 1.90716E-03 3.11557E-13 1.33120E-13
 -1      4095 2.00064E+01 2.88250E-03 1.75437E-05 1.87274E-03 3.47594E-14 1.69211E-13
 -1      4096 1.70427E+01 1.71137E+00 2.54766E-02-1.24340E+00 1.58200E-14-1.67862E-13
 -1      4097 1.66176E+01 1.84919E+00-1.70264E-02-9.47085E-01 1.53827E-14-1.70745E-13
 -1      4098 1.58624E+01 1.18669E+00 3.38547E-02-1.79772E+00-4.20024E-14-2.19139E-13
 -1      4099 1.66251E+01 8.48586E-01-1.53826E-03-2.05737E+00-4.31153E-14-1.95465E-13
 -1      4100 1.56715E+01 1.17891E+00-1.08019E-02 1.62319E+00 1.06323E-13-2.42090E-13
 -1      4101 2.00070E+01 4.01973E-03-1.80443E-05 1.25635E-03 2.14260E-13-2.07023E-13
 -1      4102 2.00077E+01 8.05843E-03 3.15219E-06 7.10985E-04 3.92411E-13-2.74480E-13
 -1      4103 1.62953E+01 1.37228E+00-1.00978E-02 1.44067E+00 9.47911E-14-2.40996E-13
 -1      4104 1.55213E+01 1.63089E+00 3.91714E-02 9.58391E-01 9.26096E-14-2.31756E-13
 -1      4105 1.57705E+01 1.78620E+00-3.77117E-03 3.68290E-01 6.74400E-14-2.06046E-13
 -1      4106 1.65468E+01 1.59760E+00-1.93315E-02 1.18627E+00 8.12221E-14-2.56095E-13
 -1      4107 2.00072E+01 4.27679E-03-1.29194E-05 7.39717E-04 2.28366E-13-3.84315E-13
 -1      4108 2.00072E+01 4.33340E-03-2.84185E-05 1.82210E-04 3.29914E-13-5.81623E-13
 -1      4109 2.00076E+01 5.97149E-03 2.98944E-05 7.70113E-04 3.71235E-13-3.24454E-13
 -1      4110 1.49293E+01 1.09082E+00 5.75592E-05-2.87488E-01 1.70441E-14 3.71982E-13
 -1      4111 1.70686E+01 2.41737E+00 9.09708E-05-7.61290E-02 3.15723E-14-1.56764E-13
 -1      4112 1.71160E+01 2.39548E+00-5.22341E-03 1.46593E-01 7.08807E-15-1.95303E-13
 -1      4113 1.68520E+01 2.21274E+00 3.35097E-04 2.61133E-01 2.69300E-14-2.04540E-13
 -1      4114 1.68438E+01 2.21213E+00 1.11542E-02-2.97090E-01 3.49477E-14-1.46270E-13
 -1      4115 1.86491E+01 6.84839E-01 2.08327E-02-1.89570E+00-2.88320E-14-8.12414E-14
 -1      4116 1.75619E+01 1.21785E+00-2.70304E-02-1.67679E+00-1.48117E-14-1.17100E-13
 -1      4117 1.70325E+01 1.10898E+00-2.14722E-02-1.76972E+00-1.49290E-14-1.61862E-13
 -1      4118 1.86187E+01 2.11362E-01-1.02889E-02-2.20773E+00-6.23473E-14-8.00854E-14
 -1      4119 1.72494E+01 1.20829E+00-4.63606E-03-3.40401E-01-8.67947E-15 2.07465E-13
 -1      4120 1.75597E+01 1.18201E+00-1.06611E-02-3.01245E-01-6.03120E-15 1.86327E-13
 -1      4121 1.78763E+01 1.16126E+00-4.69107E-03-3.02683E-01-9.84919E-14 7.54828E-14
 -1      4122 1.81246E+01 1.12359E+00-7.10470E-03-2.75663E-01-8.82035E-14 4.52149E-14
 -1      4123 1.76905E+01 1.21159E+00 1.62165E-02-3.59792E-02-8.60121E-14 7.97305E-14
 -1      4124 1.83632E+01 1.08366E+00-4.56457E-03-2.67768E-01-1.11634E-13-4.76543E-14
 -1      4125 1.85623E+01 1.03363E+00-4.24387E-03-2.43216E-01-1.32394E-13-3.15945E-14
 -1      4126 1.82084E+01 1.14230E+00 1.20980E-02-6.06794E-02-1.26102E-13 1.19014E-13
 -1      4127 1.87471E+01 9.77147E-01-3.95399E-03-2.36665E-01-5.02624E-14-2.48823E-14
 -1      4128 1.89042E+01 9.19092E-01-3.33401E-03-2.14468E-01-7.12050E-17 2.01018E-14
 -1      4129 1.86294E+01 1.03652E+00 1.08749E-02-7.75991E-02-1.02255E-13 4.49370E-14
 -1      4130 1.90492E+01 8.58439E-01-2.95400E-03-2.05958E-01-1.37183E-14 6.37132E-14
 -1      4131 1.91720E+01 7.97516E-01-2.63914E-03-1.85012E-01 5.67279E-14 1.85194E-14
 -1      4132 1.89538E+01 9.17098E-01 8.63412E-03-8.36937E-02 5.96055E-14 9.83045E-14
 -1      4133 1.92863E+01 7.36465E-01-2.21205E-03-1.75446E-01 1.27324E-13-2.60908E-15
 -1      4134 1.93819E+01 6.76697E-01-2.12144E-03-1.55760E-01 6.55873E-14-2.82197E-14
 -1      4135 1.92092E+01 7.92573E-01 6.82995E-03-8.12124E-02 3.53050E-14 1.51966E-13
 -1      4136 1.94716E+01 6.18476E-01-1.65063E-03-1.46062E-01 2.95363E-14-3.81210E-14
 -1      4137 1.95455E+01 5.62608E-01-1.71259E-03-1.28013E-01-1.06944E-14 3.99511E-14
 -1      4138 1.94101E+01 6.70361E-01 5.39789E-03-7.37543E-02 3.00875E-14 2.41347E-14
 -1      4139 1.96153E+01 5.09331E-01-1.22312E-03-1.18838E-01 1.75681E-14 1.80248E-14
 -1      4140 1.96718E+01 4.59026E-01-1.37673E-03-1.02768E-01 9.27084E-14 5.68180E-14
 -1      4141 1.95669E+01 5.55837E-01 4.24381E-03-6.38198E-02 3.31515E-14 1.73742E-13
 -1      4142 1.97255E+01 4.11855E-01-8.97795E-04-9.45265E-02 1.23853E-13 9.18903E-14
 -1      4143 1.97682E+01 3.67913E-01-1.09575E-03-8.06213E-02 1.58884E-13 1.58029E-13
 -1      4144 1.96881E+01 4.52386E-01 3.30578E-03-5.31256E-02 1.01590E-13 1.52989E-13
 -1      4145 1.98090E+01 3.27275E-01-6.51443E-04-7.35196E-02 6.74962E-14 1.93886E-13
 -1      4146 1.98407E+01 2.89861E-01-8.60210E-04-6.18039E-02 4.99712E-15 1.76863E-13
 -1      4147 1.97805E+01 3.61718E-01 2.54353E-03-4.27815E-02 1.22011E-13 2.06490E-13
 -1      4148 1.98711E+01 2.55666E-01-4.66288E-04-5.58939E-02 2.11146E-15 1.30283E-13
 -1      4149 1.98943E+01 2.24516E-01-6.64389E-04-4.62620E-02 4.05592E-14 3.82713E-14
 -1      4150 1.98499E+01 2.84277E-01 1.92827E-03-3.34322E-02 5.25908E-14 3.28782E-13
 -1      4151 1.99166E+01 1.96340E-01-3.28400E-04-4.14914E-02 1.36676E-13 1.89706E-14
 -1      4152 1.99333E+01 1.70922E-01-5.03866E-04-3.37507E-02 1.95311E-13 2.87194E-14
 -1      4153 1.99012E+01 2.19612E-01 1.43710E-03-2.53855E-02 3.66908E-14 2.48590E-13
 -1      4154 1.99492E+01 1.48147E-01-2.26798E-04-3.00052E-02 8.84678E-14-7.46529E-14
 -1      4155 1.99609E+01 1.27794E-01-3.74500E-04-2.39168E-02 2.14141E-14-2.25750E-14
 -1      4156 1.99383E+01 1.66708E-01 1.05039E-03-1.87205E-02 5.14202E-14 1.17932E-13
 -1      4157 1.99720E+01 1.09716E-01-1.52842E-04-2.10524E-02-1.47863E-13 2.34698E-14
 -1      4158 1.99799E+01 9.37088E-02-2.72165E-04-1.63624E-02-2.47806E-13-1.56066E-13
 -1      4159 1.99645E+01 1.24242E-01 7.50695E-04-1.33747E-02-1.24540E-13 1.32623E-13
 -1      4160 1.99874E+01 7.96100E-02-9.97694E-05-1.42282E-02-2.42693E-13-1.83493E-13
 -1      4161 1.99925E+01 6.72415E-02-1.92789E-04-1.06903E-02-1.58271E-13-1.83898E-13
 -1      4162 1.99824E+01 9.07670E-02 5.22441E-04-9.20749E-03-2.29387E-13 9.70365E-14
 -1      4163 1.99974E+01 5.64378E-02-6.23233E-05-9.14259E-03-7.05346E-14-2.53786E-13
 -1      4164 2.00005E+01 4.70498E-02-1.32497E-04-6.53113E-03-4.46595E-14-2.68351E-13
 -1      4165 1.99943E+01 6.48462E-02 3.51870E-04-6.04468E-03-1.30236E-13 1.74544E-13
 -1      4166 2.00034E+01 3.89177E-02-3.64241E-05-5.44178E-03 2.81992E-14-3.43059E-13
 -1      4167 2.00051E+01 3.19205E-02-8.76902E-05-3.55922E-03 6.53310E-14-2.65497E-13
 -1      4168 2.00016E+01 4.51298E-02 2.26925E-04-3.70716E-03-3.91138E-14-9.86183E-14
 -1      4169 2.00066E+01 2.59111E-02-1.87979E-05-2.81809E-03 7.28698E-14-2.73841E-13
 -1      4170 2.00074E+01 2.07913E-02-5.38119E-05-1.49768E-03 9.53407E-14-2.46642E-13
 -1      4171 2.00058E+01 3.04017E-02 1.36631E-04-2.02811E-03 1.13308E-13-4.05941E-13
 -1      4172 2.00080E+01 1.64223E-02-8.00523E-06-1.00737E-03 1.35424E-13-2.09351E-13
 -1      4173 2.00081E+01 1.27625E-02-2.82691E-05-1.44055E-04 3.07444E-13-2.98087E-13
 -1      4174 2.00077E+01 1.95906E-02 6.68368E-05-8.58266E-04 2.08250E-13-1.19502E-13
 -1      4175 1.92344E+01 7.29553E-01-4.16886E-03 3.76890E-01-6.69748E-14 2.88914E-13
 -1      4176 1.91482E+01 7.74382E-01 3.88590E-04 4.32249E-01-4.49873E-14 2.59827E-13
 -1      4177 1.74486E+01 4.67122E-01 5.19528E-02-2.49317E+00-6.96231E-14-1.68529E-13
 -1      4178 1.86578E+01-3.29587E-01 3.36120E-03-2.59416E+00-9.20154E-14-1.19464E-13
 -1      4179 1.90119E+01 8.08961E-01-5.35422E-03 4.89426E-01-2.61089E-14 2.38125E-13
 -1      4180 1.89113E+01 8.42711E-01 8.64432E-04 5.60368E-01-1.62766E-14 1.61516E-13
 -1      4181 1.90015E+01 8.59165E-01 8.93041E-03 3.66837E-01-5.60508E-14 3.25715E-13
 -1      4182 1.95635E+01 5.40900E-01-2.61186E-03 2.21431E-01-9.07340E-14 3.23664E-13
 -1      4183 1.95050E+01 5.90295E-01-1.79060E-05 2.56474E-01-9.93467E-14 4.19466E-13
 -1      4184 1.96801E+01 4.48751E-01-2.07407E-03 1.67930E-01-7.41542E-14 2.32056E-13
 -1      4185 1.96336E+01 4.95264E-01-6.55133E-05 1.95945E-01-8.15952E-14 2.80334E-13
 -1      4186 1.95688E+01 5.51867E-01 4.65317E-03 1.58121E-01-6.57536E-14 1.86022E-13
 -1      4187 1.97711E+01 3.64503E-01-1.63852E-03 1.26025E-01-1.10114E-14 2.47495E-13
 -1      4188 1.97349E+01 4.06424E-01-6.88271E-05 1.48345E-01-1.78103E-14 1.95347E-13
 -1      4189 1.96861E+01 4.54431E-01 3.66292E-03 1.18458E-01 6.37175E-15 1.23601E-13
 -1      4190 1.98407E+01 2.90314E-01-1.28317E-03 9.33573E-02-3.00274E-14 2.10289E-13
 -1      4191 1.98132E+01 3.26833E-01-5.19971E-05 1.11020E-01-3.52721E-14 2.28034E-13
 -1      4192 1.97769E+01 3.66862E-01 2.84574E-03 8.79776E-02 5.57948E-15 9.71911E-14
 -1      4193 1.98931E+01 2.26920E-01-9.93544E-04 6.80795E-02-1.03582E-13 1.55465E-13
 -1      4194 1.98726E+01 2.57857E-01-2.89449E-05 8.19288E-02-3.52333E-14 1.97458E-13
 -1      4195 1.98460E+01 2.90667E-01 2.17699E-03 6.45977E-02 7.87829E-15 2.39195E-14
 -1      4196 1.99315E+01 1.74107E-01-7.59077E-04 4.87079E-02-2.03728E-13 1.15091E-13
 -1      4197 1.99167E+01 1.99693E-01-6.96029E-06 5.94472E-02-1.98414E-13 6.90118E-14
 -1      4198 1.98975E+01 2.26135E-01 1.63640E-03 4.67495E-02-1.14814E-13-3.18823E-15
 -1      4199 1.99591E+01 1.31084E-01-5.71202E-04 3.40337E-02-9.91596E-14 2.13600E-14
 -1      4200 1.99487E+01 1.51795E-01 1.07068E-05 4.22563E-02-7.13982E-14 1.33481E-13
 -1      4201 1.99352E+01 1.72748E-01 1.20591E-03 3.32231E-02-1.59158E-13 6.25618E-14
 -1      4202 1.99784E+01 9.67433E-02-4.22543E-04 2.30663E-02-1.35664E-13 1.10671E-13
 -1      4203 1.99713E+01 1.13178E-01 2.31208E-05 2.92733E-02-2.05786E-13-4.38039E-14
 -1      4204 1.99620E+01 1.29503E-01 8.68816E-04 2.30698E-02-1.27459E-13-1.10275E-13
 -1      4205 1.99913E+01 6.98592E-02-3.06570E-04 1.49955E-02-1.05934E-13 1.03885E-13
 -1      4206 1.99867E+01 8.26536E-02 3.05648E-05 1.96072E-02-3.43290E-14 1.79805E-13
 -1      4207 1.99806E+01 9.51561E-02 6.09628E-04 1.55382E-02-1.43695E-13-1.90977E-13
 -1      4208 1.99995E+01 4.92063E-02-2.17490E-04 9.16207E-03 1.14302E-13 1.10145E-13
 -1      4209 1.99968E+01 5.89815E-02 3.38739E-05 1.25275E-02-9.42950E-14 1.05360E-13
 -1      4210 1.99930E+01 6.83859E-02 4.14234E-04 1.00305E-02-9.14552E-14-9.64307E-14
 -1      4211 2.00044E+01 3.36369E-02-1.50177E-04 5.03447E-03 2.35807E-13 3.78142E-13
 -1      4212 2.00029E+01 4.09655E-02 3.40590E-05 7.43994E-03 2.33672E-13 3.16364E-13
 -1      4213 2.00007E+01 4.79054E-02 2.70059E-04 6.07133E-03 3.29019E-15 1.58069E-13
 -1      4214 2.00069E+01 2.21228E-02-9.81466E-05 2.18839E-03 9.88804E-14 5.07075E-13
 -1      4215 2.00063E+01 2.75129E-02 3.22928E-05 3.86489E-03 2.27124E-13 3.36104E-13
 -1      4216 2.00052E+01 3.25273E-02 1.65962E-04 3.28453E-03 1.32344E-13 3.19022E-13
 -1      4217 2.00078E+01 1.37881E-02-4.14466E-05 3.14876E-04-1.00273E-13 2.86898E-13
 -1      4218 2.00078E+01 1.76350E-02 2.55688E-05 1.41142E-03 7.53672E-14 4.06673E-13
 -1      4219 2.00074E+01 2.11945E-02 8.78125E-05 1.36677E-03 1.48483E-13 2.89433E-13
 -1      4220 1.65886E+01 1.97041E+00 1.64835E-02 6.65109E-01 5.94067E-14-2.27692E-13
 -1      4221 1.76310E+01 5.91449E-01-4.79482E-03 1.53065E+00-1.99543E-13 2.75811E-13
 -1      4222 1.75471E+01 3.42770E-01 7.62490E-03 1.85616E+00-9.96054E-14 2.28542E-13
 -1      4223 1.52547E+01 1.19707E+00 4.65436E-02 2.62687E-01-9.22873E-16 4.58015E-13
 -1      4224 1.55458E+01 1.14287E+00-1.26834E-02-3.07206E-01 6.90290E-15 3.41724E-13
 -1      4225 1.96793E+01-7.66478E-01 3.26029E-02-2.59625E+00-1.01235E-13-3.41626E-14
 -1      4226 2.00081E+01 1.04196E-02 1.81984E-05 6.55595E-05 4.64853E-13-3.74813E-13
 -1      4227 2.00078E+01 7.71763E-03-1.68351E-05 5.97693E-04 5.01774E-13-2.61919E-13
 -1      4228 2.00079E+01 8.06936E-03-2.60406E-06 2.31755E-04 3.95749E-13-4.66425E-13
 -1      4229 2.00082E+01 1.25196E-02 1.95780E-05-1.31293E-04 3.90579E-13-2.27581E-13
 -1      4230 1.69339E+01 3.72006E-01-2.35740E-02 1.93733E+00-1.13424E-13 3.18957E-13
 -1      4231 1.94165E+01 6.36782E-01-3.28877E-03 2.89647E-01-1.96945E-13 3.73416E-13
 -1      4232 1.93446E+01 6.86137E-01 1.12778E-04 3.33533E-01-1.15764E-13 3.24071E-13
 -1      4233 1.94197E+01 6.55952E-01 5.84829E-03 2.09804E-01-1.34373E-13 3.48004E-13
 -1      4234 1.60237E+01 1.15297E+00-5.81507E-03-3.67767E-01-2.74123E-14 2.91067E-13
 -1      4235 1.80650E+01 7.92556E-01-9.11132E-03 1.10526E+00-2.17058E-13 2.44102E-13
 -1      4236 1.79433E+01 7.23089E-01 6.66380E-03 1.27202E+00-2.64896E-13 2.38295E-13
 -1      4237 1.60258E+01 1.59028E+00 1.51752E-02-1.24089E+00-9.67911E-15-1.85868E-13
 -1      4238 1.64833E+01 1.20673E+00-6.07684E-03-3.07292E-01-7.93421E-14 2.47063E-13
 -1      4239 1.92329E+01 7.61191E-01 7.28316E-03 2.77482E-01-9.05871E-14 3.63522E-13
 -1      4240 1.66603E+01 1.22758E+00 1.03900E-02 7.08978E-02-8.86481E-14 2.78098E-13
 -1      4241 2.00074E+01 5.01115E-03-6.96468E-06-1.81500E-04 2.39224E-13-4.42371E-13
 -1      4242 2.00074E+01 5.42073E-03-2.44022E-05-5.75554E-04 2.61377E-13-4.01217E-13
 -1      4243 2.00078E+01 6.88619E-03 1.51588E-05 4.93393E-05 1.65383E-13-6.01347E-13
 -1      4244 1.87167E+01 9.37242E-01 1.02291E-02 4.85729E-01-7.04936E-14 2.08771E-13
 -1      4245 1.87440E+01 8.62267E-01-6.45634E-03 6.37095E-01-7.45999E-14 1.70921E-13
 -1      4246 1.86282E+01 8.72955E-01 8.24406E-04 7.31635E-01-1.36760E-13 1.30237E-13
 -1      4247 1.64008E+01 1.99745E+00-9.91754E-03 3.73352E-01 5.65208E-14-1.96715E-13
 -1      4248 2.00079E+01 1.13182E-02 1.84607E-05-4.04644E-05-4.55793E-14 2.01232E-13
 -1      4249 2.00080E+01 1.35698E-02-7.45725E-06 1.61135E-04 1.77894E-14-2.76221E-14
 -1      4250 2.00077E+01 9.11838E-03-2.34403E-05-6.04109E-04-3.92323E-14 4.67419E-14
 -1      4251 1.54704E+01 9.55675E-01-2.33324E-02 8.99892E-01-8.94796E-14 4.20646E-13
 -1      4252 1.74147E+01 8.16785E-01 8.40041E-03 1.26326E+00-2.33349E-13 2.89501E-13
 -1      4253 1.63138E+01 7.49029E-01 3.10384E-02 1.59038E+00-1.76761E-13 3.93387E-13
 -1      4254 1.62253E+01 1.98451E+00 3.44576E-03-3.94696E-01 3.85631E-14-1.57719E-13
 -1      4255 1.61958E+01 2.02737E+00 8.48525E-03-1.05712E-01 3.94660E-14-1.77899E-13
 -1      4256 1.84323E+01 8.66359E-01-6.44142E-03 8.33238E-01-1.71759E-13 1.20363E-13
 -1      4257 1.83061E+01 8.46695E-01 4.15503E-03 9.60155E-01-1.74350E-13 1.66454E-13
 -1      4258 1.79488E+01 9.53385E-01 7.02099E-03 8.69093E-01-1.55751E-13 1.00816E-13
 -1      4259 1.83624E+01 9.61331E-01 5.38416E-04 6.47823E-01-1.86239E-13 1.75106E-13
 -1      4260 1.59573E+01 1.70454E+00 8.18256E-03-7.81695E-01 1.04070E-14-1.77347E-13
 -1      4261 1.75378E+01 1.15377E+00-9.21186E-03 2.32744E-01-9.66890E-14 1.94897E-13
 -1      4262 1.78294E+01 1.13418E+00-8.46224E-03 2.05297E-01-1.84605E-13 7.59338E-14
 -1      4263 1.82086E+01 1.05800E+00-7.37451E-03 2.74159E-01-1.66552E-13 1.47166E-13
 -1      4264 1.84342E+01 1.02115E+00-5.22289E-03 2.43330E-01-1.28623E-13 1.20696E-13
 -1      4265 1.85960E+01 9.79284E-01-9.15354E-03 1.85953E-01-9.62492E-14 1.76302E-13
 -1      4266 1.87839E+01 9.33043E-01-4.81027E-03 1.67538E-01 3.92924E-14 2.21410E-13
 -1      4267 1.89177E+01 8.79957E-01-7.55074E-03 1.25642E-01 2.09122E-14 2.68744E-13
 -1      4268 1.90664E+01 8.26855E-01-4.02248E-03 1.15870E-01 1.67542E-14 3.34642E-13
 -1      4269 1.91753E+01 7.69438E-01-5.98033E-03 8.46806E-02-5.94681E-14 3.38148E-13
 -1      4270 1.92926E+01 7.13972E-01-3.25452E-03 8.01612E-02-7.79088E-14 2.36701E-13
 -1      4271 1.93800E+01 6.56601E-01-4.71705E-03 5.67400E-02-5.28167E-14 1.79727E-13
 -1      4272 1.94721E+01 6.02475E-01-2.59953E-03 5.54996E-02-2.57434E-14 8.96409E-14
 -1      4273 1.95414E+01 5.48210E-01-3.71003E-03 3.77639E-02 1.85807E-14 8.15354E-14
 -1      4274 1.96130E+01 4.97913E-01-2.05048E-03 3.84578E-02 7.41154E-14 1.90350E-13
 -1      4275 1.96672E+01 4.48658E-01-2.90019E-03 2.49492E-02 5.33201E-14 9.13581E-14
 -1      4276 1.97222E+01 4.03641E-01-1.59324E-03 2.66605E-02 9.95859E-14 4.51587E-14
 -1      4277 1.97638E+01 3.60379E-01-2.24574E-03 1.63435E-02 8.42272E-14 3.62637E-14
 -1      4278 1.98056E+01 3.21293E-01-1.21627E-03 1.84703E-02 7.79179E-14 1.18575E-13
 -1      4279 1.98370E+01 2.84323E-01-1.71779E-03 1.05934E-02 7.41412E-14 6.70791E-14
 -1      4280 1.98682E+01 2.51245E-01-9.09917E-04 1.27636E-02 6.24195E-14 1.19748E-13
 -1      4281 1.98915E+01 2.20393E-01-1.29488E-03 6.76866E-03-7.38280E-14 1.48511E-13
 -1      4282 1.99143E+01 1.93023E-01-6.65234E-04 8.77218E-03-1.89062E-13 3.89062E-14
 -1      4283 1.99311E+01 1.67818E-01-9.59778E-04 4.23577E-03-8.31360E-14 1.56107E-14
 -1      4284 1.99475E+01 1.45625E-01-4.73568E-04 5.97148E-03 3.96825E-14-2.76606E-14
 -1      4285 1.99594E+01 1.25435E-01-6.97770E-04 2.56674E-03-5.33443E-14-1.83372E-14
 -1      4286 1.99708E+01 1.07780E-01-3.26555E-04 4.00270E-03-2.00520E-13-6.86109E-14
 -1      4287 1.99790E+01 9.19054E-02-4.96013E-04 1.47418E-03-2.26207E-13-6.00529E-14
 -1      4288 1.99867E+01 7.81148E-02-2.16330E-04 2.61929E-03-1.60176E-13-3.84788E-14
 -1      4289 1.99920E+01 6.58604E-02-3.43235E-04 7.65937E-04-1.30083E-13 3.21743E-14
 -1      4290 1.99970E+01 5.52814E-02-1.35701E-04 1.65049E-03-9.46139E-14-3.19322E-14
 -1      4291 2.00002E+01 4.59936E-02-2.29546E-04 3.13893E-04-3.31552E-14-6.00306E-15
 -1      4292 2.00032E+01 3.80246E-02-7.80997E-05 9.76926E-04 6.81020E-14 9.84960E-15
 -1      4293 2.00050E+01 3.11166E-02-1.45868E-04 3.32478E-05 4.72981E-14 6.61564E-14
 -1      4294 2.00066E+01 2.52235E-02-3.67043E-05 5.16245E-04 1.53955E-13 4.94843E-14
 -1      4295 2.00074E+01 2.01934E-02-8.05619E-05-1.31659E-04 2.41191E-13-6.62489E-14
 -1      4296 2.00080E+01 1.59359E-02-1.05288E-06 1.51892E-04 2.51272E-13 7.42330E-15
 -1      4297 1.63544E+01 9.68682E-01-1.30897E-03 9.22730E-01-1.17271E-13 4.06728E-13
 -1      4298 2.00073E+01 5.39223E-03-2.57837E-05-1.17315E-03-1.90624E-14 9.76169E-15
 -1      4299 2.00076E+01 7.14671E-03 2.52938E-05-8.33016E-04-5.67206E-14-9.90533E-15
 -1      4300 2.00079E+01 8.84832E-03 1.02817E-05-4.38629E-04 1.76476E-14-1.00745E-13
 -1      4301 2.00073E+01 5.08768E-03-2.36810E-05-8.12949E-04 1.53428E-13-2.20936E-13
 -1      4302 2.00081E+01 1.32197E-02 1.19409E-05 1.17283E-04 1.00588E-13-1.72227E-13
 -1      4303 2.00081E+01 1.25038E-02-3.62157E-05-2.03725E-04 1.83971E-13-1.97647E-13
 -1      4304 2.00080E+01 8.77374E-03-8.90371E-06-7.50888E-05 2.33651E-13-5.03507E-13
 -1      4305 1.72286E+01 1.00642E+00-1.34115E-02 8.34083E-01-1.15018E-13 1.97994E-13
 -1      4306 1.68724E+01 8.99448E-01-1.42818E-02 1.08838E+00-1.60375E-13 3.73523E-13
 -1      4307 1.79740E+01 1.02571E+00-2.52500E-03 6.04433E-01-1.41452E-13 1.13225E-13
 -1      4308 1.77251E+01 1.01939E+00-1.39081E-03 7.20185E-01-1.40178E-13 1.02473E-13
 -1      4309 1.63443E+01 1.19076E+00 1.66915E-02 4.42668E-01-8.27699E-14 4.02855E-13
 -1      4310 1.70997E+01 1.16915E+00-1.68604E-03 2.75047E-01-3.60844E-14 2.42945E-13
 -1      4311 1.73455E+01 1.12787E+00 9.81141E-03 5.37984E-01-1.00907E-13 2.12409E-13
 -1      4312 2.00079E+01 7.23223E-03 4.72003E-05-4.16980E-04 9.10738E-14-3.25781E-13
 -1      4313 1.81899E+01 1.03950E+00 8.04665E-03 5.13051E-01-1.81507E-13 1.57107E-13
 -1      4314 2.00081E+01 1.01830E-02 1.30376E-05 1.25891E-05 2.19777E-13-4.15513E-13
 -1      4315 2.00079E+01 8.36692E-03-2.39774E-05-3.38338E-04 3.26571E-14-2.89307E-13
 -1      4316 2.00082E+01 1.06279E-02 4.71256E-05-1.72363E-04-2.78409E-14-3.23285E-13
 -1      4317 2.00079E+01 8.79135E-03-3.43175E-05-1.97980E-04 3.79162E-14-4.63622E-13
 -3
    1PSTEP                         3           1           1          
  100CL  101 1.000000000        4317                     0    1           1
 -4  TOSTRAIN    6    1
 -5  EXX         1    4    1    1
 -5  EYY         1    4    2    2
 -5  EZZ         1    4    3    3
 -5  EXY         1    4    1    2
 -5  EYZ         1    4    2    3
 -5  EZX         1    4    3    1
 -1         1 3.07947E-04-9.35454E-05-7.89948E-05-3.44609E-05-2.63904E-19 5.23371E-18
 -1         2 3.65982E-05-1.11502E-04 2.01820E-05 1.07449E-06-1.52637E-18 7.20481E-19
 -1         3 9.52377E-05-2.85706E-05-2.85721E-05 6.18715E-10-2.88541E-18-2.99739E-18
 -1         4 9.52377E-05-2.85706E-05-2.85722E-05-5.54748E-10 1.10382E-18 1.01823E-18
 -1         5 1.44408E-04-2.12904E-05-4.35278E-05 3.78880E-05-2.40081E-19 1.55428E-17
 -1         6 1.45648E-04 2.67536E-10-4.51731E-05-5.21988E-05-8.04046E-19 1.22324E-17
 -1         7 9.49340E-05-8.05849E-07-4.04684E-05-2.65757E-05-1.25361E-19 2.08796E-18
 -1         8 8.88184E-05-3.34603E-08-3.77213E-05-1.61229E-05-1.48337E-19-9.62607E-19
 -1         9 8.51690E-05 2.39883E-08-3.62796E-05-1.07490E-05-1.02412E-19-2.63495E-18
 -1        10 8.24009E-05 3.15772E-08-3.51625E-05-7.12353E-06-7.30037E-20-3.44723E-18
 -1        11 8.01354E-05 4.43303E-08-3.42570E-05-4.59681E-06-3.87253E-20-3.79200E-18
 -1        12 7.83926E-05 5.58539E-08-3.35633E-05-2.88475E-06-1.66098E-20-3.89489E-18
 -1        13 7.71955E-05 6.52233E-08-3.30863E-05-1.68220E-06 9.82029E-21-3.76596E-18
 -1        14 7.66479E-05 6.84972E-08-3.28651E-05-7.68666E-07 3.32907E-20-3.61433E-18
 -1        15 7.67692E-05 6.52007E-08-3.29070E-05 1.09003E-07 6.05463E-20-3.35733E-18
 -1        16 7.75207E-05 5.63186E-08-3.31984E-05 1.18942E-06 1.05389E-19-3.07658E-18
 -1        17 7.88198E-05 4.28927E-08-3.37087E-05 2.68436E-06 8.44518E-20-2.65802E-18
 -1        18 8.05284E-05 3.23384E-08-3.43882E-05 4.73038E-06 1.31912E-19-2.13269E-18
 -1        19 8.26399E-05 2.56083E-08-3.52391E-05 7.57637E-06 1.65224E-19-1.25817E-18
 -1        20 8.51746E-05 3.22513E-08-3.62808E-05 1.14278E-05 2.00694E-19 1.46719E-19
 -1        21 8.85565E-05 5.69741E-08-3.76786E-05 1.68128E-05 2.03261E-19 2.58202E-18
 -1        22 9.53072E-05-3.22522E-07-4.00482E-05 2.56934E-05 1.34466E-20 6.91384E-18
 -1        23 1.17846E-04-3.98045E-05-3.68936E-05-3.60511E-06-5.31566E-19 9.48190E-18
 -1        24 1.01160E-04-3.02267E-05-3.14631E-05 5.25767E-07-1.39731E-19 7.06996E-18
 -1        25 1.00605E-04-3.03096E-05-3.03661E-05 4.54203E-07-9.86446E-20 4.54266E-18
 -1        26 1.02733E-04-3.09073E-05-3.08271E-05 3.01903E-07-7.19449E-20 2.60586E-18
 -1        27 1.06315E-04-3.19445E-05-3.18905E-05 2.71577E-07 2.68428E-20 1.65549E-18
 -1        28 1.10651E-04-3.32126E-05-3.31804E-05 2.64676E-07-9.99795E-20 1.14631E-18
 -1        29 1.15055E-04-3.45104E-05-3.44555E-05 2.45828E-07-1.37771E-20-4.83073E-21
 -1        30 1.18563E-04-3.55495E-05-3.54219E-05 1.71122E-07 1.07852E-19-1.71160E-19
 -1        31 1.19865E-04-3.59399E-05-3.57030E-05-1.02750E-08-4.74554E-20-5.05315E-19
 -1        32 1.17541E-04-3.52562E-05-3.49306E-05-3.25788E-07-6.93525E-20-1.00396E-18
 -1        33 1.10802E-04-3.32522E-05-3.29645E-05-7.12386E-07 2.28242E-19-1.08325E-18
 -1        34 1.00616E-04-3.01994E-05-3.01630E-05-9.63431E-07-9.97878E-20-1.75299E-18
 -1        35 9.03674E-05-2.71056E-05-2.74666E-05-8.12993E-07 2.69462E-20-2.44131E-18
 -1        36 8.47536E-05-2.54026E-05-2.60339E-05-2.05310E-07-4.95283E-20-2.20177E-18
 -1        37 8.68299E-05-2.60321E-05-2.65783E-05 5.35388E-07-2.14630E-19-2.16343E-18
 -1        38 9.56569E-05-2.87026E-05-2.88857E-05 9.60082E-07-8.14483E-20-2.80389E-18
 -1        39 1.07064E-04-3.21342E-05-3.19628E-05 9.10314E-07-5.68695E-20-2.47948E-18
 -1        40 1.16656E-04-3.49992E-05-3.46760E-05 5.69978E-07-6.93955E-20-2.73941E-18
 -1        41 1.22104E-04-3.66139E-05-3.63273E-05 2.03830E-07-5.44450E-21-4.14421E-18
 -1        42 1.23349E-04-3.69763E-05-3.68030E-05-4.40849E-08-1.99612E-19-5.53001E-18
 -1        43 1.21562E-04-3.64417E-05-3.63729E-05-1.59670E-07-1.48304E-19-4.63823E-18
 -1        44 1.18130E-04-3.54212E-05-3.54169E-05-1.85204E-07-1.68513E-20-3.36422E-18
 -1        45 1.14134E-04-3.42332E-05-3.42576E-05-1.65818E-07-1.73382E-19-3.03559E-18
 -1        46 1.10244E-04-3.30750E-05-3.31063E-05-1.31188E-07 6.65963E-20-3.40289E-18
 -1        47 1.06796E-04-3.20466E-05-3.20746E-05-9.63197E-08 5.68807E-20-6.96757E-19
 -1        48 1.03913E-04-3.11845E-05-3.12060E-05-6.70367E-08 1.43357E-19-3.12697E-19
 -1        49 1.01593E-04-3.04897E-05-3.05047E-05-4.45519E-08 6.58483E-20-8.52039E-19
 -1        50 9.97815E-05-2.99456E-05-2.99555E-05-2.81826E-08-1.28892E-19-1.15412E-18
 -1        51 9.83990E-05-2.95298E-05-2.95358E-05-1.66984E-08-2.01452E-19-2.04615E-18
 -1        52 9.73661E-05-2.92185E-05-2.92218E-05-8.88715E-09 6.72084E-19-9.84861E-19
 -1        53 9.66102E-05-2.89902E-05-2.89919E-05-3.74117E-09-1.36480E-19-1.48041E-19
 -1        54 9.60691E-05-2.88265E-05-2.88271E-05-4.83163E-10 1.77100E-19-1.11132E-18
 -1        55 9.56914E-05-2.87120E-05-2.87119E-05 1.46404E-09-6.68283E-20-3.40116E-18
 -1        56 9.54359E-05-2.86343E-05-2.86338E-05 2.51987E-09-6.16387E-20-4.29324E-18
 -1        57 9.52700E-05-2.85837E-05-2.85830E-05 2.98498E-09 5.79297E-20-2.02633E-18
 -1        58 9.51686E-05-2.85526E-05-2.85519E-05 3.07245E-09 9.55018E-20-4.34508E-18
 -1        59 9.51126E-05-2.85353E-05-2.85346E-05 2.93150E-09 2.94127E-19-2.26373E-18
 -1        60 9.50876E-05-2.85274E-05-2.85267E-05 2.66505E-09-5.73795E-19-3.47872E-18
 -1        61 9.50830E-05-2.85257E-05-2.85251E-05 2.34262E-09 1.42526E-18-1.56922E-18
 -1        62 9.50914E-05-2.85279E-05-2.85274E-05 2.00981E-09-8.61059E-19 7.29099E-19
 -1        63 9.51072E-05-2.85325E-05-2.85321E-05 1.69524E-09 3.14562E-19 9.89135E-19
 -1        64 9.51269E-05-2.85383E-05-2.85380E-05 1.41553E-09-1.78785E-19-9.75783E-19
 -1        65 9.51480E-05-2.85445E-05-2.85443E-05 1.17869E-09-3.76507E-19 6.01982E-19
 -1        66 9.51690E-05-2.85507E-05-2.85506E-05 9.85922E-10-7.61249E-19-1.62857E-18
 -1        67 9.51887E-05-2.85566E-05-2.85565E-05 8.31548E-10 4.49869E-19-4.52307E-18
 -1        68 9.52064E-05-2.85619E-05-2.85617E-05 6.99254E-10 1.27460E-19 2.35533E-19
 -1        69 9.52213E-05-2.85663E-05-2.85661E-05 5.48607E-10 9.42134E-20-1.07044E-18
 -1        70 9.52321E-05-2.85696E-05-2.85693E-05 2.48516E-10-4.96679E-19-5.14643E-19
 -1        71 9.52374E-05-2.85714E-05-2.85710E-05-2.15953E-10 2.17976E-19-3.52468E-19
 -1        72 1.06721E-04-3.19377E-05-3.55924E-05-2.21876E-06 1.12947E-19 1.49351E-17
 -1        73 1.00152E-04-2.98044E-05-3.11434E-05-4.17684E-07 1.01207E-19 1.24411E-17
 -1        74 9.92275E-05-2.97439E-05-2.99886E-05-1.82813E-07 8.65587E-20 1.06694E-17
 -1        75 1.00571E-04-3.01920E-05-3.01900E-05-1.59151E-07-2.19848E-20 9.26798E-18
 -1        76 1.02938E-04-3.08929E-05-3.08614E-05-1.61251E-07 1.06998E-19 8.24675E-18
 -1        77 1.05570E-04-3.16702E-05-3.16269E-05-1.70487E-07 1.32765E-19 7.18837E-18
 -1        78 1.07797E-04-3.23341E-05-3.22542E-05-1.69249E-07-4.40544E-20 6.83262E-18
 -1        79 1.08886E-04-3.26676E-05-3.25270E-05-1.33977E-07 3.63347E-20 6.83176E-18
 -1        80 1.08091E-04-3.24466E-05-3.22423E-05-3.99876E-08-7.42055E-20 5.86227E-18
 -1        81 1.04892E-04-3.15087E-05-3.12780E-05 1.22489E-07 6.35209E-20 5.29733E-18
 -1        82 9.93809E-05-2.98675E-05-2.96976E-05 3.22956E-07-1.62785E-19 5.70564E-18
 -1        83 9.26258E-05-2.78275E-05-2.78270E-05 4.76431E-07 1.90548E-19 5.57739E-18
 -1        84 8.66397E-05-2.59909E-05-2.62159E-05 4.76999E-07 2.08832E-19 4.77144E-18
 -1        85 8.36625E-05-2.50510E-05-2.54382E-05 2.80508E-07-8.30175E-20 3.97097E-18
 -1        86 8.49990E-05-2.54301E-05-2.58135E-05-3.65251E-08 5.93022E-20 2.73048E-18
 -1        87 9.02307E-05-2.70143E-05-2.72324E-05-3.20532E-07-3.31699E-20 1.62043E-18
 -1        88 9.74776E-05-2.92224E-05-2.92248E-05-4.53335E-07-1.56589E-19 2.10705E-18
 -1        89 1.04479E-04-3.13527E-05-3.11976E-05-4.24355E-07 2.88519E-19 1.46640E-18
 -1        90 1.09627E-04-3.29111E-05-3.26990E-05-3.00594E-07-1.84813E-19 5.31871E-19
 -1        91 1.12339E-04-3.37248E-05-3.35352E-05-1.58444E-07 4.25957E-19 4.23675E-19
 -1        92 1.12846E-04-3.38701E-05-3.37389E-05-4.44177E-08-1.43726E-19 4.50969E-19
 -1        93 1.11768E-04-3.35392E-05-3.34681E-05 2.78274E-08-3.52644E-19 9.81787E-19
 -1        94 1.09773E-04-3.29355E-05-3.29100E-05 6.37402E-08 1.41357E-19-7.05049E-19
 -1        95 1.07405E-04-3.22221E-05-3.22248E-05 7.48447E-08 5.93084E-20-2.17393E-18
 -1        96 1.05028E-04-3.15082E-05-3.15252E-05 7.17546E-08-1.56832E-19 1.27124E-18
 -1        97 1.02857E-04-3.08568E-05-3.08790E-05 6.20010E-08 2.77930E-19 3.14864E-18
 -1        98 1.00990E-04-3.02969E-05-3.03192E-05 5.01631E-08-1.15812E-19 1.30554E-18
 -1        99 9.94536E-05-2.98363E-05-2.98562E-05 3.86838E-08-4.08413E-19 1.33024E-18
 -1       100 9.82322E-05-2.94702E-05-2.94867E-05 2.86690E-08-1.67176E-19 2.93314E-18
 -1       101 9.72895E-05-2.91876E-05-2.92007E-05 2.04696E-08 9.71113E-20 1.98800E-18
 -1       102 9.65815E-05-2.89752E-05-2.89852E-05 1.40484E-08 3.01110E-19 1.73867E-18
 -1       103 9.60640E-05-2.88200E-05-2.88274E-05 9.19467E-09-1.63917E-19 1.94674E-18
 -1       104 9.56966E-05-2.87097E-05-2.87151E-05 5.64012E-09-3.33267E-20 2.87652E-18
 -1       105 9.54445E-05-2.86340E-05-2.86377E-05 3.11829E-09-4.85428E-20 5.72778E-19
 -1       106 9.52788E-05-2.85842E-05-2.85867E-05 1.39109E-09-5.74328E-19-6.31229E-19
 -1       107 9.51762E-05-2.85533E-05-2.85549E-05 2.58220E-10 9.44685E-20-2.08431E-18
 -1       108 9.51187E-05-2.85360E-05-2.85369E-05-4.42262E-10-5.15529E-20-4.05192E-18
 -1       109 9.50923E-05-2.85280E-05-2.85285E-05-8.37463E-10 3.74208E-19-3.51057E-18
 -1       110 9.50865E-05-2.85262E-05-2.85264E-05-1.02476E-09 8.49123E-20-5.41799E-18
 -1       111 9.50939E-05-2.85284E-05-2.85284E-05-1.07723E-09-9.92648E-20-5.02197E-18
 -1       112 9.51091E-05-2.85329E-05-2.85328E-05-1.04866E-09-9.88392E-20-5.50358E-18
 -1       113 9.51283E-05-2.85386E-05-2.85384E-05-9.77948E-10-5.15417E-19-1.75883E-18
 -1       114 9.51491E-05-2.85448E-05-2.85446E-05-8.92713E-10-5.03554E-19 1.50167E-18
 -1       115 9.51698E-05-2.85510E-05-2.85508E-05-8.11941E-10 9.88004E-19-1.18340E-18
 -1       116 9.51894E-05-2.85568E-05-2.85567E-05-7.46815E-10 5.15861E-21-4.75120E-18
 -1       117 9.52070E-05-2.85621E-05-2.85619E-05-6.98601E-10-4.99661E-20-8.33276E-18
 -1       118 9.52217E-05-2.85665E-05-2.85662E-05-6.49102E-10-1.83943E-19-7.50242E-18
 -1       119 9.52324E-05-2.85697E-05-2.85693E-05-4.94677E-10-4.46224E-20-5.64240E-18
 -1       120 9.52374E-05-2.85714E-05-2.85710E-05 4.29268E-11 1.39533E-18-5.68566E-18
 -1       121 9.52371E-05-2.85712E-05-2.85710E-05 2.00737E-10-6.14519E-18 3.28604E-19
 -1       122 9.52387E-05-2.85763E-05-2.85693E-05-3.38979E-10-6.51983E-19 6.36670E-19
 -1       123 9.52417E-05-2.85862E-05-2.85665E-05-5.80655E-10 3.52134E-18 5.76776E-21
 -1       124 9.52453E-05-2.85982E-05-2.85630E-05-6.14231E-10 5.25884E-18 1.16383E-18
 -1       125 9.52488E-05-2.86101E-05-2.85596E-05-5.37040E-10 8.66595E-18-1.76696E-18
 -1       126 9.52518E-05-2.86202E-05-2.85566E-05-4.14004E-10 3.46774E-18-1.01440E-18
 -1       127 9.52540E-05-2.86276E-05-2.85544E-05-2.57081E-10-1.45773E-18-4.57690E-19
 -1       128 9.52552E-05-2.86315E-05-2.85533E-05-8.66682E-11-8.11315E-18-7.03425E-20
 -1       129 9.52552E-05-2.86315E-05-2.85533E-05 8.77188E-11-7.52965E-18 2.42281E-18
 -1       130 9.52540E-05-2.86276E-05-2.85544E-05 2.58142E-10-1.78029E-18-1.53933E-18
 -1       131 9.52518E-05-2.86201E-05-2.85566E-05 4.20385E-10-6.37402E-18 4.83018E-20
 -1       132 9.52488E-05-2.86100E-05-2.85596E-05 5.40570E-10-7.41307E-18 1.02604E-18
 -1       133 9.52452E-05-2.85981E-05-2.85631E-05 6.15363E-10-2.73711E-18 1.97059E-18
 -1       134 9.52416E-05-2.85860E-05-2.85665E-05 6.23436E-10-1.91320E-19-1.62940E-18
 -1       135 9.52387E-05-2.85763E-05-2.85693E-05 4.72952E-10-6.87214E-19-3.76014E-19
 -1       136 9.52374E-05-2.85714E-05-2.85710E-05-4.80024E-10-1.72308E-18-9.06306E-19
 -1       137 2.58605E-05-8.84556E-05 1.59809E-05-2.35477E-05 8.69289E-18 2.11610E-18
 -1       138 7.89386E-06-3.10020E-05 2.24767E-06-1.45708E-05 1.72346E-17 8.64948E-18
 -1       139 1.60644E-05 1.75146E-05-1.73922E-05 3.06749E-05 2.05092E-17 1.63011E-17
 -1       140 7.23929E-05 2.32473E-05-3.87817E-05 8.54804E-05 1.50230E-17 1.77780E-17
 -1       141 1.65790E-04-1.28512E-05-5.84236E-05 1.13058E-04 7.80393E-18 1.52288E-17
 -1       142 2.59512E-04-6.50872E-05-7.24632E-05 8.77093E-05 2.60865E-18 8.34751E-18
 -1       143 3.08647E-04-9.56181E-05-7.87265E-05 1.41747E-05 4.46466E-19-1.69089E-18
 -1       144 2.83116E-04-7.92795E-05-7.56217E-05-6.79641E-05 2.32038E-18-1.07577E-17
 -1       145 1.99892E-04-3.01427E-05-6.41139E-05-1.11193E-04 7.00390E-18-1.63964E-17
 -1       146 9.74014E-05 1.66268E-05-4.50397E-05-9.88044E-05 1.24315E-17-1.71647E-17
 -1       147 2.83455E-05 2.71189E-05-2.49807E-05-5.10221E-05 1.55087E-17-1.44453E-17
 -1       148 5.90720E-06-6.58032E-06-5.65379E-06-1.38804E-07 1.42285E-17-8.84789E-18
 -1       149 1.73427E-05-6.70441E-05 1.13969E-05 2.62790E-05 9.02895E-18-2.82464E-18
 -1       150 3.45162E-05-1.07522E-04 1.94810E-05 1.02941E-05 1.66294E-18-4.06218E-19
 -1       151 3.20079E-05-1.02222E-04 1.84512E-05-1.67755E-05-8.70009E-18-1.55580E-18
 -1       152 1.33197E-05-5.61861E-05 8.85303E-06-2.60954E-05-1.58789E-17-6.07005E-18
 -1       153 6.87226E-06 1.73562E-06-9.06263E-06 7.36734E-06-1.78571E-17-1.17611E-17
 -1       154 3.81404E-05 2.80393E-05-2.88569E-05 6.12054E-05-1.48705E-17-1.45592E-17
 -1       155 1.17834E-04 9.54347E-06-4.97254E-05 1.06858E-04-1.01680E-17-1.60309E-17
 -1       156 2.20029E-04-4.09758E-05-6.71871E-05 1.06650E-04-5.47681E-18-1.35225E-17
 -1       157 2.99520E-04-8.74974E-05-7.82266E-05 5.14481E-05-9.50292E-19-3.98571E-18
 -1       158 2.45205E-04-5.58973E-05-7.06546E-05-9.82811E-05-4.50018E-18 1.33052E-17
 -1       159 1.48476E-04-4.39881E-06-5.54420E-05-1.12524E-04-1.01019E-17 1.82993E-17
 -1       160 5.75517E-05 2.66599E-05-3.50804E-05-7.70967E-05-1.82502E-17 2.02487E-17
 -1       161 1.05733E-05 1.33935E-05-1.43299E-05-2.09637E-05-2.19208E-17 1.67187E-17
 -1       162 7.45728E-06-3.40551E-05 3.23033E-06 1.93987E-05-1.77885E-17 9.16828E-18
 -1       163 2.56944E-05-8.78088E-05 1.56237E-05 2.44577E-05-1.31227E-17 2.70370E-18
 -1       164 1.00248E-04-1.41117E-05-3.70908E-05-1.83500E-05-1.78819E-18 5.17061E-19
 -1       165 9.30115E-05-9.35495E-06-3.59986E-05-1.27617E-05-1.52743E-18-1.40445E-18
 -1       166 8.80424E-05-6.46763E-06-3.50651E-05-8.75093E-06-1.15931E-18-2.43096E-18
 -1       167 8.42943E-05-4.59990E-06-3.42313E-05-5.84163E-06-7.55156E-19-3.01716E-18
 -1       168 8.13924E-05-3.27496E-06-3.35373E-05-3.80268E-06-4.20343E-19-3.19043E-18
 -1       169 7.92724E-05-2.37052E-06-3.30061E-05-2.34693E-06-1.71216E-19-3.21008E-18
 -1       170 7.80634E-05-1.88954E-06-3.26888E-05-1.28225E-06 2.24702E-19-3.02723E-18
 -1       171 7.78108E-05-1.82739E-06-3.26060E-05-3.66034E-07 5.21653E-19-2.87481E-18
 -1       172 7.84875E-05-2.15936E-06-3.27562E-05 6.40390E-07 8.04401E-19-2.65665E-18
 -1       173 7.99985E-05-2.84242E-06-3.31172E-05 1.95169E-06 1.13429E-18-2.33077E-18
 -1       174 8.21718E-05-3.81732E-06-3.36418E-05 3.71141E-06 1.43262E-18-1.85713E-18
 -1       175 8.49890E-05-5.12431E-06-3.43072E-05 6.12978E-06 1.77089E-18-1.20905E-18
 -1       176 8.84668E-05-6.88354E-06-3.50753E-05 9.34005E-06 1.94973E-18-2.49028E-19
 -1       177 9.30690E-05-9.58230E-06-3.59354E-05 1.35177E-05 2.04266E-18 1.45969E-18
 -1       178 1.00688E-04-1.51990E-05-3.68291E-05 1.84985E-05 1.83197E-18 4.21203E-18
 -1       179 1.10813E-04-2.79439E-05-3.66868E-05 1.61770E-05 1.11388E-18 7.64733E-18
 -1       180 1.09852E-04-2.94115E-05-3.44666E-05-9.07312E-06-1.57395E-18 2.80709E-18
 -1       181 1.05456E-04-3.08068E-05-3.20197E-05-1.64385E-06-1.43102E-18 2.10575E-18
 -1       182 1.04099E-04-3.07360E-05-3.13900E-05 1.49258E-06-1.08480E-18 1.52565E-18
 -1       183 1.05057E-04-3.12349E-05-3.16041E-05 3.16180E-06-7.13976E-19 8.30086E-19
 -1       184 1.07194E-04-3.20300E-05-3.22005E-05 4.05910E-06-4.72854E-19 3.42132E-19
 -1       185 1.09928E-04-3.30543E-05-3.29480E-05 4.23754E-06-5.19070E-19 3.20365E-19
 -1       186 1.12680E-04-3.41809E-05-3.36546E-05 3.48306E-06-3.92762E-20 4.40235E-19
 -1       187 1.14772E-04-3.51982E-05-3.41191E-05 1.50744E-06-1.87234E-19 5.85746E-19
 -1       188 1.15410E-04-3.57532E-05-3.41512E-05-1.77559E-06-2.72391E-19 6.97590E-19
 -1       189 1.13866E-04-3.53571E-05-3.36500E-05-5.81015E-06-2.25245E-19 5.37244E-19
 -1       190 1.09937E-04-3.36205E-05-3.27029E-05-9.02791E-06-2.85655E-19 6.47782E-20
 -1       191 1.04582E-04-3.07928E-05-3.16233E-05-9.20933E-06-6.59584E-19-4.60806E-19
 -1       192 1.00128E-04-2.81851E-05-3.08478E-05-5.07108E-06-3.37999E-19-1.12845E-18
 -1       193 9.91399E-05-2.75308E-05-3.07098E-05 1.92119E-06-6.01572E-19-1.73429E-18
 -1       194 1.02349E-04-2.93523E-05-3.12921E-05 8.02832E-06-4.63585E-19-2.18767E-18
 -1       195 1.07993E-04-3.24086E-05-3.23882E-05 1.02625E-05 1.92416E-19-2.45649E-18
 -1       196 1.13378E-04-3.49869E-05-3.35933E-05 8.48972E-06-5.73623E-19-3.13776E-18
 -1       197 1.16723E-04-3.62413E-05-3.45001E-05 4.65557E-06-3.15983E-19-3.35403E-18
 -1       198 1.17635E-04-3.62778E-05-3.48838E-05 8.10437E-07-7.92221E-19-2.75949E-18
 -1       199 1.16596E-04-3.55757E-05-3.47412E-05-1.95928E-06 2.17893E-19-2.58099E-18
 -1       200 1.14348E-04-3.45610E-05-3.42082E-05-3.47154E-06 8.49412E-19-2.85088E-18
 -1       201 1.11547E-04-3.34944E-05-3.34587E-05-3.99566E-06 1.27268E-19-1.54252E-18
 -1       202 1.08660E-04-3.25051E-05-3.26398E-05-3.89704E-06 9.32786E-19-8.93111E-19
 -1       203 1.05965E-04-3.16447E-05-3.18500E-05-3.47597E-06 1.40178E-18 1.52516E-20
 -1       204 1.03603E-04-3.09256E-05-3.11437E-05-2.93203E-06 1.59828E-20 5.83121E-21
 -1       205 1.01619E-04-3.03410E-05-3.05429E-05-2.38006E-06 4.00926E-20-3.46202E-19
 -1       206 1.00004E-04-2.98760E-05-3.00500E-05-1.87737E-06-4.01928E-19-5.67143E-19
 -1       207 9.87226E-05-2.95132E-05-2.96567E-05-1.44671E-06-4.22824E-19-3.83608E-19
 -1       208 9.77274E-05-2.92352E-05-2.93500E-05-1.09201E-06 5.54701E-19 1.28919E-18
 -1       209 9.69695E-05-2.90258E-05-2.91155E-05-8.07966E-07 1.63201E-19 7.29589E-19
 -1       210 9.64033E-05-2.88710E-05-2.89398E-05-5.85468E-07-1.73408E-18 1.06637E-19
 -1       211 9.59887E-05-2.87589E-05-2.88107E-05-4.14451E-07-1.61375E-18-1.66756E-18
 -1       212 9.56917E-05-2.86795E-05-2.87179E-05-2.85314E-07 1.49933E-19-1.48283E-18
 -1       213 9.54843E-05-2.86249E-05-2.86528E-05-1.89522E-07 5.80053E-19-1.81795E-18
 -1       214 9.53442E-05-2.85887E-05-2.86086E-05-1.19800E-07-8.32013E-19-3.24342E-18
 -1       215 9.52534E-05-2.85659E-05-2.85797E-05-7.01238E-08 4.56228E-19-3.11486E-18
 -1       216 9.51983E-05-2.85527E-05-2.85619E-05-3.56037E-08 2.13917E-19-2.74245E-18
 -1       217 9.51683E-05-2.85461E-05-2.85521E-05-1.23455E-08 1.22549E-18-7.35024E-20
 -1       218 9.51555E-05-2.85440E-05-2.85476E-05 2.70296E-09 7.88501E-19-1.47536E-18
 -1       219 9.51540E-05-2.85447E-05-2.85467E-05 1.18923E-08 3.36587E-19-6.00564E-19
 -1       220 9.51597E-05-2.85472E-05-2.85481E-05 1.69969E-08-6.13595E-19-6.88937E-19
 -1       221 9.51696E-05-2.85507E-05-2.85509E-05 1.93207E-08 1.72884E-18 2.63400E-19
 -1       222 9.51815E-05-2.85546E-05-2.85544E-05 1.97818E-08-1.16381E-18 1.46048E-18
 -1       223 9.51941E-05-2.85587E-05-2.85581E-05 1.89759E-08-8.17147E-19 5.20857E-19
 -1       224 9.52062E-05-2.85625E-05-2.85616E-05 1.72185E-08 1.72609E-18 7.88430E-19
 -1       225 9.52172E-05-2.85660E-05-2.85648E-05 1.45699E-08 2.06617E-19 5.39499E-19
 -1       226 9.52263E-05-2.85691E-05-2.85674E-05 1.08719E-08 8.14930E-20 4.98821E-19
 -1       227 9.52332E-05-2.85717E-05-2.85692E-05 5.98293E-09 2.49446E-19 3.23859E-19
 -1       228 1.06131E-04-3.06256E-05-3.25257E-05 4.95817E-06 1.31961E-18 6.76645E-18
 -1       229 1.02852E-04-3.03428E-05-3.10417E-05 6.38883E-07 1.00626E-18 5.65958E-18
 -1       230 1.02390E-04-3.04924E-05-3.07701E-05-1.13541E-06 7.50776E-19 4.69699E-18
 -1       231 1.03281E-04-3.09058E-05-3.09953E-05-1.91707E-06 6.11653E-19 4.15403E-18
 -1       232 1.04753E-04-3.14711E-05-3.13975E-05-2.05774E-06 3.88634E-19 3.78316E-18
 -1       233 1.06211E-04-3.20485E-05-3.17800E-05-1.59522E-06 1.41026E-19 3.80932E-18
 -1       234 1.07101E-04-3.24690E-05-3.19806E-05-4.97559E-07 2.80006E-19 3.36106E-18
 -1       235 1.06904E-04-3.25376E-05-3.18630E-05 1.18566E-06 3.82015E-19 2.75644E-18
 -1       236 1.05248E-04-3.20667E-05-3.13518E-05 3.17309E-06 3.06611E-19 2.26667E-18
 -1       237 1.02123E-04-3.09659E-05-3.04858E-05 4.85616E-06-2.30259E-19 2.77160E-18
 -1       238 9.80999E-05-2.93810E-05-2.94510E-05 5.39967E-06 4.68460E-19 2.83819E-18
 -1       239 9.43717E-05-2.77870E-05-2.85510E-05 4.16144E-06 4.35074E-19 2.78531E-18
 -1       240 9.23626E-05-2.68547E-05-2.80985E-05 1.25588E-06 6.22692E-19 2.08028E-18
 -1       241 9.29923E-05-2.70636E-05-2.82732E-05-2.26556E-06 8.32405E-19 1.55870E-18
 -1       242 9.60979E-05-2.83491E-05-2.90365E-05-4.96851E-06 3.15411E-19 1.35988E-18
 -1       243 1.00533E-04-3.01484E-05-3.01528E-05-5.92895E-06-1.49435E-19 8.92859E-19
 -1       244 1.04861E-04-3.17982E-05-3.12971E-05-5.18015E-06 4.91067E-19 5.22907E-19
 -1       245 1.08042E-04-3.28930E-05-3.21961E-05-3.42279E-06 4.47128E-19-3.34985E-19
 -1       246 1.09672E-04-3.33494E-05-3.27072E-05-1.45662E-06-7.32882E-21-4.84930E-19
 -1       247 1.09863E-04-3.32869E-05-3.28216E-05 1.82710E-07-9.72624E-19 6.53961E-19
 -1       248 1.08981E-04-3.28886E-05-3.26171E-05 1.28801E-06 1.89030E-19 5.02289E-19
 -1       249 1.07448E-04-3.23185E-05-3.22042E-05 1.87848E-06 8.46341E-19-1.78597E-19
 -1       250 1.05621E-04-3.16947E-05-3.16869E-05 2.07437E-06-2.13095E-20-7.15112E-19
 -1       251 1.03757E-04-3.10911E-05-3.11449E-05 2.01248E-06-1.70909E-18-1.87315E-20
 -1       252 1.02018E-04-3.05478E-05-3.06306E-05 1.80691E-06-2.50075E-19 1.45487E-18
 -1       253 1.00487E-04-3.00821E-05-3.01731E-05 1.53883E-06 1.15489E-19 1.47710E-18
 -1       254 9.91972E-05-2.96973E-05-2.97845E-05 1.25970E-06-2.63452E-19 2.02040E-18
 -1       255 9.81464E-05-2.93887E-05-2.94661E-05 9.98704E-07-5.94015E-19 1.75486E-18
 -1       256 9.73147E-05-2.91476E-05-2.92129E-05 7.69999E-07 4.53347E-19 1.28070E-18
 -1       257 9.66729E-05-2.89637E-05-2.90168E-05 5.78348E-07 9.99302E-20 8.69291E-19
 -1       258 9.61898E-05-2.88267E-05-2.88686E-05 4.23114E-07-6.31955E-19 1.40528E-18
 -1       259 9.58351E-05-2.87272E-05-2.87594E-05 3.00855E-07 7.49254E-19 9.81850E-20
 -1       260 9.55817E-05-2.86569E-05-2.86811E-05 2.06938E-07 5.23590E-19 1.01419E-20
 -1       261 9.54062E-05-2.86089E-05-2.86267E-05 1.36480E-07-9.26380E-21-1.10494E-19
 -1       262 9.52895E-05-2.85776E-05-2.85902E-05 8.48750E-08 7.57429E-19-1.18697E-18
 -1       263 9.52160E-05-2.85583E-05-2.85671E-05 4.80387E-08 9.60448E-19-1.54822E-18
 -1       264 9.51735E-05-2.85477E-05-2.85536E-05 2.25053E-08 6.98457E-20-2.36221E-18
 -1       265 9.51526E-05-2.85430E-05-2.85467E-05 5.42659E-09 5.05667E-19-2.57279E-18
 -1       266 9.51464E-05-2.85422E-05-2.85445E-05-5.47471E-09-1.69030E-19-2.02718E-18
 -1       267 9.51497E-05-2.85440E-05-2.85452E-05-1.19737E-08 1.49912E-19-8.06619E-19
 -1       268 9.51587E-05-2.85472E-05-2.85477E-05-1.54165E-08-2.07418E-18-3.16600E-18
 -1       269 9.51708E-05-2.85512E-05-2.85512E-05-1.67889E-08-1.67725E-18-1.63880E-18
 -1       270 9.51842E-05-2.85554E-05-2.85552E-05-1.67736E-08 2.52694E-18-3.22429E-19
 -1       271 9.51976E-05-2.85596E-05-2.85591E-05-1.57934E-08 1.80388E-18-2.37498E-18
 -1       272 9.52102E-05-2.85635E-05-2.85628E-05-1.40347E-08 9.76269E-19-1.73718E-18
 -1       273 9.52210E-05-2.85670E-05-2.85660E-05-1.14688E-08-1.05642E-18-1.92687E-18
 -1       274 9.52295E-05-2.85699E-05-2.85684E-05-7.87365E-09-2.05372E-19-1.96246E-18
 -1       275 9.52351E-05-2.85718E-05-2.85700E-05-3.25764E-09 7.75926E-19-2.72021E-18
 -1       276 9.52368E-05-2.85754E-05-2.85692E-05-6.05915E-09-3.92152E-19 3.08811E-18
 -1       277 9.52394E-05-2.85818E-05-2.85675E-05-1.00792E-08-8.11745E-19 1.84300E-18
 -1       278 9.52425E-05-2.85898E-05-2.85655E-05-1.20017E-08 2.97561E-19 2.87138E-18
 -1       279 9.52455E-05-2.85980E-05-2.85632E-05-1.18834E-08 1.17135E-18 2.19627E-18
 -1       280 9.52481E-05-2.86055E-05-2.85611E-05-1.02168E-08 1.10512E-18-3.23207E-18
 -1       281 9.52502E-05-2.86116E-05-2.85594E-05-7.40226E-09 9.04825E-19-3.99014E-18
 -1       282 9.52515E-05-2.86155E-05-2.85583E-05-3.86830E-09-1.83687E-19-3.00262E-18
 -1       283 9.52519E-05-2.86168E-05-2.85579E-05 1.24207E-11 3.97153E-19-5.62851E-19
 -1       284 9.52515E-05-2.86155E-05-2.85583E-05 3.89516E-09-1.93409E-18 2.28487E-18
 -1       285 9.52502E-05-2.86116E-05-2.85594E-05 7.43548E-09-1.64917E-18-3.05292E-18
 -1       286 9.52481E-05-2.86056E-05-2.85611E-05 1.02177E-08-1.65520E-18-1.48230E-19
 -1       287 9.52455E-05-2.85980E-05-2.85632E-05 1.19148E-08 5.63119E-19 1.62224E-18
 -1       288 9.52425E-05-2.85897E-05-2.85655E-05 1.20145E-08-5.95550E-19 9.41662E-19
 -1       289 9.52393E-05-2.85817E-05-2.85676E-05 9.94951E-09-9.39421E-19 5.15170E-19
 -1       290 9.52363E-05-2.85763E-05-2.85686E-05 9.15141E-09-1.43757E-18-1.28751E-18
 -1       291 1.25725E-05-4.88422E-05 1.21588E-05 7.26394E-06 1.92647E-19 4.85329E-18
 -1       292 2.87053E-05-4.01168E-05 3.03312E-06 2.75934E-05 3.17701E-18 7.13588E-18
 -1       293 6.11825E-05-3.88306E-05-1.07963E-05 3.87096E-05 5.80832E-18 6.80527E-18
 -1       294 1.00059E-04-3.45081E-05-2.82187E-05 4.40905E-05 7.73489E-18 6.00186E-18
 -1       295 1.44343E-04-3.66402E-05-4.53060E-05 3.59295E-05 6.59637E-18 4.63306E-18
 -1       296 1.79648E-04-3.26953E-05-6.05457E-05 3.34516E-05 6.21002E-18 3.79111E-18
 -1       297 2.07968E-04-3.63198E-05-6.99108E-05 1.65782E-05 5.02386E-18 1.13354E-18
 -1       298 2.12248E-04-3.69516E-05-7.13206E-05-9.03889E-06 4.43125E-18-2.13961E-18
 -1       299 1.89771E-04-3.31349E-05-6.43623E-05-2.85694E-05 5.32508E-18-4.57758E-18
 -1       300 1.55537E-04-3.52261E-05-5.03502E-05-3.35329E-05 4.74272E-18-5.52858E-18
 -1       301 1.10294E-04-2.94018E-05-3.42875E-05-4.78837E-05 6.10033E-18-6.96282E-18
 -1       302 6.99337E-05-3.27612E-05-1.70628E-05-4.04029E-05 5.40259E-18-6.44232E-18
 -1       303 4.05486E-05-4.03890E-05-1.93674E-06-3.24418E-05 3.18188E-18-5.12042E-18
 -1       304 1.66312E-05-4.70085E-05 9.80010E-06-1.34921E-05 1.65680E-18-4.19027E-18
 -1       305 9.25166E-06-4.04128E-05 1.10412E-05 1.72354E-06-7.40466E-19-5.21031E-18
 -1       306 1.98744E-05-4.64358E-05 8.17964E-06 1.50946E-05-4.28090E-18-5.14191E-18
 -1       307 4.55913E-05-4.03002E-05-4.24599E-06 3.22702E-05-5.64780E-18-5.00210E-18
 -1       308 7.80626E-05-3.29065E-05-2.03052E-05 4.14948E-05-7.17162E-18-5.67957E-18
 -1       309 1.21012E-04-3.06495E-05-3.80782E-05 4.75272E-05-6.39955E-18-6.64053E-18
 -1       310 1.65401E-04-3.36637E-05-5.44892E-05 3.95990E-05-5.14951E-18-4.75334E-18
 -1       311 1.88652E-04-3.09929E-05-6.54047E-05 1.64013E-05-5.40280E-18-1.79137E-18
 -1       312 2.11774E-04-3.55302E-05-7.19515E-05 2.64879E-06-4.33977E-18-1.59586E-19
 -1       313 2.06774E-04-3.71166E-05-6.90653E-05-2.09173E-05-5.06907E-18 3.51635E-18
 -1       314 1.77132E-04-3.39979E-05-5.87620E-05-3.84277E-05-6.87193E-18 6.56895E-18
 -1       315 1.34955E-04-3.13898E-05-4.32801E-05-4.61547E-05-8.59908E-18 8.17471E-18
 -1       316 9.00415E-05-3.22124E-05-2.52954E-05-4.33040E-05-9.37411E-18 8.02140E-18
 -1       317 5.23831E-05-3.68958E-05-8.55164E-06-3.30144E-05-8.11796E-18 8.80713E-18
 -1       318 2.63613E-05-4.42193E-05 4.67182E-06-1.95176E-05-7.57989E-18 5.59910E-18
 -1       319 1.18696E-05-4.51688E-05 1.13007E-05-7.42329E-06-3.39422E-18 6.36090E-18
 -1       320 9.44091E-05-1.47298E-05-3.42121E-05-7.76223E-06-1.51577E-18-1.26355E-18
 -1       321 1.00938E-04-2.06603E-05-3.44612E-05-9.81512E-06-1.78724E-18-1.49005E-19
 -1       322 8.51222E-05-7.96807E-06-3.31118E-05-3.61022E-06-7.08369E-19-2.27484E-18
 -1       323 8.19519E-05-5.93310E-06-3.26133E-05-2.29377E-06-3.69207E-19-2.51613E-18
 -1       324 7.98823E-05-4.67481E-06-3.22589E-05-1.43148E-06 2.52092E-20-2.33778E-18
 -1       325 7.90095E-05-4.19081E-06-3.20896E-05-8.08361E-07 4.78875E-19-2.26374E-18
 -1       326 7.93421E-05-4.45555E-06-3.21196E-05-1.78681E-07 8.00733E-19-2.03893E-18
 -1       327 8.07877E-05-5.40289E-06-3.23374E-05 6.88850E-07 1.14896E-18-1.72805E-18
 -1       328 8.31342E-05-6.91701E-06-3.27018E-05 1.94309E-06 1.51366E-18-1.43966E-18
 -1       329 8.63030E-05-9.00896E-06-3.31748E-05 3.71749E-06 1.83465E-18-8.99185E-19
 -1       330 9.01959E-05-1.17523E-05-3.36833E-05 5.98532E-06 2.12877E-18-2.59096E-19
 -1       331 9.49773E-05-1.55167E-05-3.41337E-05 8.54192E-06 2.24303E-18 7.66452E-19
 -1       332 1.00780E-04-2.10776E-05-3.42628E-05 1.03275E-05 2.12308E-18 2.71798E-18
 -1       333 1.04694E-04-2.63853E-05-3.36405E-05 8.52561E-06 1.84549E-18 4.33260E-18
 -1       334 1.03470E-04-2.89847E-05-3.18913E-05 2.36739E-06 1.50655E-18 3.67139E-18
 -1       335 1.03462E-04-2.78661E-05-3.23504E-05-1.17461E-06-1.53379E-18 1.82525E-19
 -1       336 1.03438E-04-2.92049E-05-3.17874E-05 2.92136E-06-1.26704E-18 2.09042E-19
 -1       337 1.04288E-04-3.02455E-05-3.17186E-05 5.39723E-06-6.82973E-19 1.18626E-19
 -1       338 1.05944E-04-3.14946E-05-3.19056E-05 6.68618E-06-3.15894E-19 5.76305E-20
 -1       339 1.08271E-04-3.31622E-05-3.21993E-05 6.70659E-06-4.68048E-20 1.50655E-19
 -1       340 1.11074E-04-3.52840E-05-3.25012E-05 5.11940E-06 1.10106E-20 1.21950E-19
 -1       341 1.13978E-04-3.75789E-05-3.27698E-05 1.56767E-06 1.84294E-19 4.52020E-19
 -1       342 1.16239E-04-3.91925E-05-3.30470E-05-3.86541E-06-1.04829E-19 9.24550E-19
 -1       343 1.16675E-04-3.86527E-05-3.34607E-05-9.91464E-06-4.01932E-19 1.27152E-18
 -1       344 1.14344E-04-3.47876E-05-3.41187E-05-1.36184E-05-8.32231E-19 9.76262E-19
 -1       345 1.10029E-04-2.86465E-05-3.49106E-05-1.14132E-05-1.05251E-18 7.17228E-19
 -1       346 1.06969E-04-2.43887E-05-3.54507E-05-2.59384E-06-1.17454E-18-1.18770E-19
 -1       347 1.08132E-04-2.57957E-05-3.53395E-05 8.14939E-06-1.43544E-18-9.36500E-19
 -1       348 1.12499E-04-3.15607E-05-3.47137E-05 1.43129E-05-1.08499E-18-2.30466E-18
 -1       349 1.16480E-04-3.71307E-05-3.40217E-05 1.35530E-05-8.80807E-19-3.45947E-18
 -1       350 1.17795E-04-3.95652E-05-3.35491E-05 8.33295E-06 1.38288E-20-3.15191E-18
 -1       351 1.16604E-04-3.90367E-05-3.32707E-05 2.23686E-06 1.95281E-19-2.28934E-18
 -1       352 1.14079E-04-3.70542E-05-3.30366E-05-2.54727E-06 2.80513E-20-1.67618E-18
 -1       353 1.11190E-04-3.48553E-05-3.27327E-05-5.42674E-06 3.33860E-19-1.13923E-18
 -1       354 1.08429E-04-3.30121E-05-3.23309E-05-6.66931E-06 1.50042E-18-7.40432E-19
 -1       355 1.05973E-04-3.16459E-05-3.18570E-05-6.79329E-06 9.60893E-19 7.64533E-19
 -1       356 1.03855E-04-3.06879E-05-3.13554E-05-6.27315E-06 1.01141E-18 4.06105E-19
 -1       357 1.02060E-04-3.00288E-05-3.08665E-05-5.45196E-06 7.70375E-19-1.09445E-18
 -1       358 1.00561E-04-2.95745E-05-3.04181E-05-4.54586E-06 5.37204E-20-1.42414E-18
 -1       359 9.93282E-05-2.92580E-05-3.00254E-05-3.67587E-06-4.17111E-19-1.00291E-18
 -1       360 9.83292E-05-2.90348E-05-2.96933E-05-2.90064E-06 1.25922E-19-4.04137E-19
 -1       361 9.75324E-05-2.88764E-05-2.94204E-05-2.24142E-06 5.73749E-19-1.23927E-19
 -1       362 9.69071E-05-2.87641E-05-2.92012E-05-1.69882E-06-2.03283E-19-4.55476E-19
 -1       363 9.64246E-05-2.86852E-05-2.90288E-05-1.26315E-06-1.97912E-18-1.15432E-18
 -1       364 9.60584E-05-2.86307E-05-2.88958E-05-9.20417E-07-2.13676E-18-1.47428E-18
 -1       365 9.57857E-05-2.85941E-05-2.87950E-05-6.55669E-07-3.77315E-19-5.42629E-20
 -1       366 9.55867E-05-2.85705E-05-2.87202E-05-4.54682E-07 6.28083E-20-5.57982E-19
 -1       367 9.54447E-05-2.85562E-05-2.86657E-05-3.04755E-07-1.48917E-18-1.81403E-18
 -1       368 9.53462E-05-2.85486E-05-2.86270E-05-1.94984E-07-4.12786E-19-2.35855E-18
 -1       369 9.52802E-05-2.85454E-05-2.86002E-05-1.16261E-07 6.60719E-19-8.77092E-19
 -1       370 9.52381E-05-2.85452E-05-2.85824E-05-6.11448E-08 1.47660E-18-5.95377E-19
 -1       371 9.52133E-05-2.85468E-05-2.85711E-05-2.36693E-08 1.14284E-18-1.97470E-18
 -1       372 9.52004E-05-2.85495E-05-2.85646E-05 8.65665E-10 1.65800E-18-4.09493E-19
 -1       373 9.51958E-05-2.85527E-05-2.85613E-05 1.60930E-08-1.58772E-21-1.11538E-19
 -1       374 9.51966E-05-2.85561E-05-2.85602E-05 2.47597E-08-2.01664E-20-5.10711E-19
 -1       375 9.52007E-05-2.85594E-05-2.85605E-05 2.88815E-08 4.36835E-19-2.11495E-18
 -1       376 9.52066E-05-2.85626E-05-2.85617E-05 2.98712E-08-1.88888E-19 5.12406E-19
 -1       377 9.52134E-05-2.85657E-05-2.85633E-05 2.86409E-08 6.06140E-19 2.80434E-18
 -1       378 9.52202E-05-2.85688E-05-2.85649E-05 2.56858E-08 3.65465E-19 2.50803E-18
 -1       379 9.52266E-05-2.85718E-05-2.85664E-05 2.12023E-08-4.81885E-19 1.88997E-18
 -1       380 9.52317E-05-2.85741E-05-2.85675E-05 1.56693E-08-9.82061E-19 7.29962E-19
 -1       381 1.02854E-04-2.99035E-05-3.12285E-05-9.22601E-07 1.25516E-18 3.19526E-18
 -1       382 1.03179E-04-3.05668E-05-3.11020E-05-2.55647E-06 8.88433E-19 2.57993E-18
 -1       383 1.04176E-04-3.13238E-05-3.12197E-05-3.07182E-06 4.86669E-19 2.38891E-18
 -1       384 1.05447E-04-3.21796E-05-3.14073E-05-2.58920E-06 2.18013E-19 2.17674E-18
 -1       385 1.06589E-04-3.30166E-05-3.15429E-05-1.10004E-06 5.28942E-19 1.92154E-18
 -1       386 1.07163E-04-3.35944E-05-3.15428E-05 1.32028E-06 5.52031E-19 1.75267E-18
 -1       387 1.06741E-04-3.35632E-05-3.13723E-05 4.28620E-06 5.86888E-19 1.92003E-18
 -1       388 1.05051E-04-3.25810E-05-3.10616E-05 6.93817E-06-5.70381E-19 2.21804E-18
 -1       389 1.02248E-04-3.05991E-05-3.07021E-05 8.02585E-06 2.39079E-19 2.10960E-18
 -1       390 9.91769E-05-2.81976E-05-3.04089E-05 6.47650E-06 8.01308E-19 2.46153E-18
 -1       391 9.71963E-05-2.65218E-05-3.02771E-05 2.29043E-06 1.24606E-18 1.95760E-18
 -1       392 9.74000E-05-2.65662E-05-3.03427E-05-3.03764E-06 1.17085E-18 1.18752E-18
 -1       393 9.97760E-05-2.83357E-05-3.05993E-05-7.26390E-06 5.94000E-19 6.94660E-19
 -1       394 1.03212E-04-3.08451E-05-3.10042E-05-8.85815E-06 1.04973E-19 4.61411E-19
 -1       395 1.06330E-04-3.29314E-05-3.14575E-05-7.80296E-06 1.13623E-18-1.90230E-19
 -1       396 1.08289E-04-3.40157E-05-3.18428E-05-5.15653E-06 1.02867E-18-7.09824E-19
 -1       397 1.08926E-04-3.41404E-05-3.20672E-05-2.14807E-06-1.47586E-19-8.67843E-19
 -1       398 1.08486E-04-3.36442E-05-3.20912E-05 3.91840E-07-3.09645E-19-9.06975E-19
 -1       399 1.07342E-04-3.28718E-05-3.19285E-05 2.13113E-06-2.80114E-19-9.71896E-19
 -1       400 1.05829E-04-3.20532E-05-3.16261E-05 3.08304E-06 1.18050E-18-7.54182E-19
 -1       401 1.04193E-04-3.13047E-05-3.12414E-05 3.41919E-06 2.48177E-20-6.06594E-19
 -1       402 1.02596E-04-3.06688E-05-3.08263E-05 3.34293E-06-1.92190E-18-4.72744E-19
 -1       403 1.01134E-04-3.01506E-05-3.04195E-05 3.02883E-06-1.34337E-18 5.85652E-19
 -1       404 9.98532E-05-2.97388E-05-3.00463E-05 2.60458E-06-1.07636E-19 1.98216E-18
 -1       405 9.87707E-05-2.94177E-05-2.97196E-05 2.15371E-06 1.27270E-19 2.08559E-18
 -1       406 9.78816E-05-2.91713E-05-2.94443E-05 1.72542E-06-6.47775E-19 1.67599E-18
 -1       407 9.71694E-05-2.89851E-05-2.92191E-05 1.34498E-06 1.03778E-18 1.88931E-18
 -1       408 9.66117E-05-2.88468E-05-2.90398E-05 1.02222E-06-2.31764E-19 9.54229E-19
 -1       409 9.61847E-05-2.87460E-05-2.89003E-05 7.57747E-07 1.17199E-19-3.90366E-19
 -1       410 9.58648E-05-2.86742E-05-2.87944E-05 5.47079E-07 8.06090E-19-1.26671E-18
 -1       411 9.56307E-05-2.86244E-05-2.87158E-05 3.83386E-07 4.03227E-19-1.07367E-18
 -1       412 9.54639E-05-2.85910E-05-2.86589E-05 2.59106E-07-2.45659E-19-3.97294E-19
 -1       413 9.53487E-05-2.85697E-05-2.86189E-05 1.66891E-07 1.11578E-18 1.28472E-18
 -1       414 9.52722E-05-2.85570E-05-2.85918E-05 1.00093E-07 2.05375E-18-1.25929E-20
 -1       415 9.52242E-05-2.85504E-05-2.85742E-05 5.29771E-08 2.75312E-19-5.16146E-19
 -1       416 9.51966E-05-2.85479E-05-2.85635E-05 2.07671E-08 1.83695E-19-6.32111E-19
 -1       417 9.51833E-05-2.85481E-05-2.85578E-05-4.04158E-10-1.25389E-18 3.40653E-19
 -1       418 9.51796E-05-2.85499E-05-2.85555E-05-1.35857E-08 4.00937E-20 7.33107E-19
 -1       419 9.51821E-05-2.85527E-05-2.85554E-05-2.11178E-08-1.26399E-18 1.75011E-19
 -1       420 9.51884E-05-2.85559E-05-2.85567E-05-2.47390E-08-1.45374E-18-4.27463E-19
 -1       421 9.51967E-05-2.85593E-05-2.85589E-05-2.56810E-08 8.10217E-19-1.50488E-18
 -1       422 9.52057E-05-2.85627E-05-2.85613E-05-2.47470E-08 2.26894E-18 2.21854E-19
 -1       423 9.52147E-05-2.85660E-05-2.85638E-05-2.23694E-08 3.56456E-19 3.19065E-19
 -1       424 9.52229E-05-2.85691E-05-2.85659E-05-1.86712E-08-6.00877E-19 4.85243E-19
 -1       425 9.52299E-05-2.85720E-05-2.85677E-05-1.36019E-08-6.92991E-19 1.44521E-19
 -1       426 9.52338E-05-2.85739E-05-2.85685E-05-1.00702E-08 8.18475E-19 1.17138E-18
 -1       427 9.52430E-05-2.85898E-05-2.85656E-05-2.00620E-08-2.25754E-19 3.49279E-18
 -1       428 9.52389E-05-2.85832E-05-2.85667E-05-1.90274E-08-6.25940E-19 2.83369E-18
 -1       429 9.52359E-05-2.85784E-05-2.85676E-05-1.53354E-08-1.66712E-18 2.38571E-18
 -1       430 9.52464E-05-2.85957E-05-2.85646E-05-1.83968E-08-8.59772E-19-2.52902E-18
 -1       431 9.52491E-05-2.86008E-05-2.85636E-05-1.46032E-08-4.33788E-19-7.94208E-19
 -1       432 9.52510E-05-2.86043E-05-2.85628E-05-9.32992E-09 1.80226E-18-4.08082E-18
 -1       433 9.52519E-05-2.86062E-05-2.85624E-05-3.19360E-09 8.86736E-19-8.87548E-19
 -1       434 9.52519E-05-2.86062E-05-2.85624E-05 3.22734E-09 6.62027E-19-5.32078E-19
 -1       435 9.52510E-05-2.86043E-05-2.85628E-05 9.37143E-09-1.24236E-18-2.67624E-18
 -1       436 9.52492E-05-2.86008E-05-2.85636E-05 1.45782E-08 1.39365E-19-6.92278E-19
 -1       437 9.52464E-05-2.85958E-05-2.85645E-05 1.84088E-08-6.82984E-19 3.70647E-18
 -1       438 9.52429E-05-2.85898E-05-2.85656E-05 2.01149E-08 4.10272E-19 1.77365E-18
 -1       439 9.52388E-05-2.85832E-05-2.85667E-05 1.91839E-08-4.04012E-19-1.63957E-18
 -1       440 6.42227E-05-4.25739E-05-9.15385E-06 4.46157E-05-5.01655E-19 4.17442E-18
 -1       441 1.17067E-05-2.27745E-05 4.52303E-06 1.99633E-06-1.27523E-18 7.33499E-18
 -1       442 2.36966E-05-2.67604E-05 1.18137E-06 2.67968E-05-6.27175E-19 8.00817E-18
 -1       443 1.03861E-04-5.37762E-05-2.14914E-05 3.98419E-05 1.14011E-18 1.64017E-18
 -1       444 1.34499E-04-5.40850E-05-3.45048E-05 2.38239E-05 2.80950E-18 7.07484E-19
 -1       445 8.93133E-05-1.08496E-05-3.36848E-05-5.55445E-06-1.08465E-18-2.02471E-18
 -1       446 1.58867E-04-2.17705E-05-5.85848E-05-7.79873E-07 5.79392E-18-3.75024E-19
 -1       447 1.56072E-04-1.15948E-05-6.18419E-05-1.14177E-06 5.73092E-18-5.54237E-19
 -1       448 1.60857E-04-1.78131E-05-6.10326E-05-5.09050E-08 4.95959E-18-2.93232E-19
 -1       449 1.54190E-04-3.15011E-05-5.26434E-05-1.73788E-06 3.89392E-18 2.85874E-19
 -1       450 1.41010E-04-5.21413E-05-3.81475E-05-1.92982E-05 1.40404E-18-1.39220E-18
 -1       451 1.14273E-04-5.32283E-05-2.62364E-05-3.72728E-05 1.15609E-18-2.41680E-18
 -1       452 8.30854E-05-4.94983E-05-1.43609E-05-4.49480E-05-1.95029E-19-2.99557E-18
 -1       453 3.65560E-05-3.17857E-05-2.10617E-06-3.62408E-05-3.32990E-19-4.66461E-18
 -1       454 1.70222E-05-2.05560E-05 1.73356E-06-1.49222E-05-3.13137E-19-4.89913E-18
 -1       455 1.95932E-05-2.51583E-05 2.25725E-06 2.06158E-05 3.28755E-20-5.33355E-18
 -1       456 4.39878E-05-3.64978E-05-3.45633E-06 3.83934E-05-4.77621E-19-4.18275E-18
 -1       457 8.72454E-05-5.08454E-05-1.57551E-05 4.30825E-05-1.74362E-18-2.43496E-18
 -1       458 1.22767E-04-5.45346E-05-2.92929E-05 3.35016E-05-2.63957E-18-2.15824E-18
 -1       459 1.49018E-04-4.87225E-05-4.28807E-05 1.61553E-05-3.10178E-18-7.02720E-19
 -1       460 1.55771E-04-3.38175E-05-5.24316E-05-2.26348E-06-3.74711E-18 3.12026E-19
 -1       461 1.57329E-04-1.46704E-05-6.11766E-05-1.56705E-06-5.28760E-18-1.48284E-19
 -1       462 1.65978E-04-1.68234E-05-6.33798E-05 1.56757E-06-5.59921E-18 1.21708E-19
 -1       463 1.64321E-04-2.79966E-05-5.79798E-05-1.06451E-06-5.26315E-18 1.16467E-19
 -1       464 1.53868E-04-4.44351E-05-4.68300E-05-8.91831E-06-5.28132E-18-9.87852E-20
 -1       465 1.34211E-04-5.65925E-05-3.33179E-05-2.43664E-05-3.74780E-18 1.71778E-18
 -1       466 9.97094E-05-5.42408E-05-1.95358E-05-4.01471E-05-1.97465E-18 3.15660E-18
 -1       467 5.69025E-05-4.22066E-05-6.59191E-06-4.09292E-05-1.74245E-18 5.63637E-18
 -1       468 2.72665E-05-2.82029E-05 3.22008E-07-2.84851E-05-1.24090E-18 4.38361E-18
 -1       469 1.52723E-04-3.74336E-05-4.94320E-05 5.82451E-06 5.28710E-18-3.81800E-19
 -1       470 1.43414E-04-5.08941E-05-3.98887E-05 3.59984E-06 2.83553E-18-2.11753E-18
 -1       471 1.41321E-04-2.13734E-05-5.19980E-05-1.12119E-05-3.88640E-18 3.70100E-19
 -1       472 2.15355E-05-1.39772E-05-2.68858E-06 4.20894E-06 1.96472E-19-5.13006E-18
 -1       473 1.44919E-04-4.59581E-05-4.27237E-05 9.50667E-07 1.06244E-18 1.99773E-18
 -1       474 1.01483E-04-2.68061E-05-3.19911E-05 1.29543E-06 1.60265E-18 1.78577E-18
 -1       475 8.19457E-05-8.01957E-06-3.16941E-05-7.98099E-07-1.20165E-19-2.16972E-18
 -1       476 8.50083E-05-1.02151E-05-3.20687E-05-1.16993E-06-4.92614E-19-2.19714E-18
 -1       477 7.99915E-05-6.74517E-06-3.14007E-05-7.78526E-07 5.63591E-19-1.89968E-18
 -1       478 8.11481E-05-7.62950E-06-3.15186E-05-6.18232E-07 8.78265E-19-1.62984E-18
 -1       479 8.34572E-05-9.33370E-06-3.17804E-05-6.52958E-08 1.19103E-18-1.32899E-18
 -1       480 8.67333E-05-1.17710E-05-3.21439E-05 9.75626E-07 1.60919E-18-9.21105E-19
 -1       481 9.07056E-05-1.48488E-05-3.25313E-05 2.41806E-06 1.77004E-18-4.78132E-19
 -1       482 9.52699E-05-1.86856E-05-3.28418E-05 3.99279E-06 1.97988E-18 2.37629E-19
 -1       483 1.01850E-04-2.86659E-05-3.13484E-05-1.99336E-06 1.29600E-18 1.58418E-18
 -1       484 9.99999E-05-2.49765E-05-3.21427E-05 9.01724E-07-1.31392E-18-4.37642E-19
 -1       485 1.41668E-04-2.85477E-05-4.90268E-05-9.78748E-06 4.45343E-18-1.75516E-18
 -1       486 1.00709E-04-2.70411E-05-3.15630E-05 4.77268E-06-8.76718E-19-1.81226E-19
 -1       487 1.01750E-04-2.88154E-05-3.12547E-05 7.45420E-06-5.71934E-19 1.07246E-19
 -1       488 1.03554E-04-3.09817E-05-3.11043E-05 8.94415E-06-3.51487E-19-1.36509E-19
 -1       489 1.06430E-04-3.39773E-05-3.10577E-05 9.00600E-06-3.57905E-20-3.24522E-19
 -1       490 1.10581E-04-3.79176E-05-3.11532E-05 7.14619E-06 1.48628E-19-3.12586E-19
 -1       491 1.15789E-04-4.21861E-05-3.15616E-05 2.77936E-06 4.26492E-19-3.85500E-19
 -1       492 1.20865E-04-4.48528E-05-3.26020E-05-4.21381E-06 1.87141E-19 4.99935E-19
 -1       493 1.23199E-04-4.25622E-05-3.46268E-05-1.20506E-05-5.14956E-19 1.55242E-18
 -1       494 1.20624E-04-3.33928E-05-3.75435E-05-1.58449E-05-1.03682E-18 1.57508E-18
 -1       495 1.15378E-04-2.21184E-05-4.01792E-05-9.92331E-06-1.98282E-18 7.43903E-19
 -1       496 1.13368E-04-1.82919E-05-4.10198E-05 3.84499E-06-2.82925E-18-5.37727E-19
 -1       497 1.17767E-04-2.66830E-05-3.92361E-05 1.51154E-05-2.64513E-18-2.42787E-18
 -1       498 1.22710E-04-3.83482E-05-3.62549E-05 1.63027E-05-1.62226E-18-3.26217E-18
 -1       499 1.23054E-04-4.45177E-05-3.36928E-05 9.90901E-06-6.27249E-19-2.77092E-18
 -1       500 1.19219E-04-4.42604E-05-3.21414E-05 1.93987E-06 6.63092E-19-2.81232E-18
 -1       501 1.13880E-04-4.06242E-05-3.14126E-05-4.10297E-06 4.59712E-19-1.39607E-18
 -1       502 1.09030E-04-3.64828E-05-3.11035E-05-7.58273E-06 1.18585E-18-6.66179E-19
 -1       503 1.05320E-04-3.31427E-05-3.09391E-05-9.02166E-06 1.00491E-18-1.24474E-18
 -1       504 1.02688E-04-3.08720E-05-3.07803E-05-9.12962E-06 1.56267E-18-1.19338E-18
 -1       505 1.00849E-04-2.94893E-05-3.05826E-05-8.47716E-06 8.75248E-19-2.00671E-18
 -1       506 9.95381E-05-2.87221E-05-3.03481E-05-7.45545E-06 9.21969E-20-1.91846E-18
 -1       507 9.85672E-05-2.83386E-05-3.00959E-05-6.31206E-06-2.46973E-19-2.29653E-18
 -1       508 9.78213E-05-2.81767E-05-2.98455E-05-5.19183E-06-4.14519E-19-2.24895E-18
 -1       509 9.72332E-05-2.81347E-05-2.96116E-05-4.17128E-06-3.15524E-19-2.10636E-18
 -1       510 9.67638E-05-2.81529E-05-2.94030E-05-3.28393E-06 4.93576E-19-2.85027E-18
 -1       511 9.63888E-05-2.81978E-05-2.92233E-05-2.53761E-06 5.78456E-19-1.67240E-18
 -1       512 9.60913E-05-2.82516E-05-2.90730E-05-1.92578E-06-1.15405E-18-1.21185E-18
 -1       513 9.58580E-05-2.83054E-05-2.89502E-05-1.43472E-06-1.72465E-18-1.01282E-18
 -1       514 9.56777E-05-2.83548E-05-2.88520E-05-1.04786E-06-9.54604E-19-4.94836E-19
 -1       515 9.55408E-05-2.83981E-05-2.87750E-05-7.48340E-07-7.79791E-19-1.04223E-18
 -1       516 9.54388E-05-2.84349E-05-2.87156E-05-5.20353E-07-9.18507E-19-1.35613E-18
 -1       517 9.53644E-05-2.84655E-05-2.86707E-05-3.49810E-07-9.43760E-19-6.75810E-19
 -1       518 9.53115E-05-2.84905E-05-2.86374E-05-2.24585E-07 7.90134E-19-6.54273E-19
 -1       519 9.52750E-05-2.85106E-05-2.86132E-05-1.34511E-07 3.74972E-19-1.66857E-18
 -1       520 9.52508E-05-2.85265E-05-2.85960E-05-7.12438E-08 1.21523E-18-1.68854E-18
 -1       521 9.52356E-05-2.85389E-05-2.85842E-05-2.80701E-08 1.58753E-18-1.56653E-18
 -1       522 9.52269E-05-2.85485E-05-2.85764E-05 3.12148E-10 1.92136E-18-1.01111E-18
 -1       523 9.52228E-05-2.85558E-05-2.85716E-05 1.80063E-08-1.27351E-18-1.38874E-18
 -1       524 9.52217E-05-2.85614E-05-2.85687E-05 2.81136E-08-5.26287E-19-1.29360E-18
 -1       525 9.52226E-05-2.85657E-05-2.85673E-05 3.29055E-08 1.44120E-18-5.52775E-19
 -1       526 9.52248E-05-2.85692E-05-2.85667E-05 3.39707E-08 9.90493E-19-4.78049E-19
 -1       527 9.52278E-05-2.85723E-05-2.85666E-05 3.23381E-08 3.24960E-19-1.48958E-19
 -1       528 9.52311E-05-2.85754E-05-2.85668E-05 2.86005E-08-9.03076E-19-9.32846E-19
 -1       529 1.03925E-04-3.17202E-05-3.09474E-05-4.18850E-06 6.19616E-19 1.17100E-18
 -1       530 1.05636E-04-3.34462E-05-3.09460E-05-3.29236E-06 4.47068E-19 7.84081E-19
 -1       531 1.07525E-04-3.51740E-05-3.10172E-05-1.02028E-06 4.30907E-19 9.28346E-19
 -1       532 1.09116E-04-3.63848E-05-3.11790E-05 2.47778E-06 1.84527E-19 1.42947E-18
 -1       533 1.09728E-04-3.62762E-05-3.14829E-05 6.53722E-06-3.30881E-19 2.01317E-18
 -1       534 1.08693E-04-3.40881E-05-3.19727E-05 9.73809E-06-2.58411E-20 1.56147E-18
 -1       535 1.06031E-04-2.99661E-05-3.25975E-05 1.01073E-05 7.93426E-19 1.04089E-18
 -1       536 1.03046E-04-2.56684E-05-3.31642E-05 6.34680E-06 1.33187E-18 1.02853E-18
 -1       537 1.01744E-04-2.37829E-05-3.34295E-05-6.12573E-07 1.53659E-18 8.42966E-19
 -1       538 1.03262E-04-2.57532E-05-3.32182E-05-7.53119E-06 1.20564E-18 5.69499E-19
 -1       539 1.06451E-04-3.01409E-05-3.27049E-05-1.12317E-05 7.76881E-19-6.00847E-20
 -1       540 1.09248E-04-3.42814E-05-3.21314E-05-1.07930E-05 9.96782E-19-8.80150E-19
 -1       541 1.10392E-04-3.64903E-05-3.16787E-05-7.54928E-06 1.05234E-18-7.01212E-20
 -1       542 1.09865E-04-3.66540E-05-3.13862E-05-3.41754E-06 1.16282E-19-3.05316E-19
 -1       543 1.08299E-04-3.55290E-05-3.11982E-05 2.41311E-07-4.26760E-19-7.26093E-19
 -1       544 1.06339E-04-3.39346E-05-3.10402E-05 2.84440E-06-1.90645E-19-5.55295E-19
 -1       545 1.04397E-04-3.23985E-05-3.08629E-05 4.35317E-06-1.56809E-20-1.08168E-18
 -1       546 1.02657E-04-3.11474E-05-3.06500E-05 4.97692E-06 2.01883E-19 8.80989E-20
 -1       547 1.01170E-04-3.02214E-05-3.04072E-05 4.98396E-06-9.98160E-19 4.90185E-19
 -1       548 9.99279E-05-2.95770E-05-3.01495E-05 4.61399E-06-1.57188E-18 9.41555E-20
 -1       549 9.89037E-05-2.91476E-05-2.98937E-05 4.04953E-06-8.14570E-19-4.59603E-19
 -1       550 9.80670E-05-2.88713E-05-2.96532E-05 3.41576E-06-2.43911E-19-7.03794E-20
 -1       551 9.73902E-05-2.86994E-05-2.94368E-05 2.79118E-06 2.09215E-19-3.70439E-19
 -1       552 9.68488E-05-2.85968E-05-2.92490E-05 2.22002E-06-1.10502E-19-1.33255E-18
 -1       553 9.64214E-05-2.85390E-05-2.90909E-05 1.72321E-06 4.64577E-19-4.58691E-19
 -1       554 9.60889E-05-2.85097E-05-2.89612E-05 1.30676E-06 4.88779E-19 9.51181E-20
 -1       555 9.58341E-05-2.84980E-05-2.88573E-05 9.67838E-07 1.05138E-18 5.99797E-20
 -1       556 9.56424E-05-2.84969E-05-2.87758E-05 6.98890E-07 8.86505E-20 1.50929E-18
 -1       557 9.55008E-05-2.85016E-05-2.87133E-05 4.90288E-07 1.94355E-19 1.99143E-18
 -1       558 9.53987E-05-2.85094E-05-2.86664E-05 3.31985E-07 2.07120E-19 1.11607E-18
 -1       559 9.53268E-05-2.85182E-05-2.86319E-05 2.14461E-07 1.95847E-18 7.28657E-19
 -1       560 9.52780E-05-2.85271E-05-2.86073E-05 1.29212E-07 2.54123E-18 6.72375E-19
 -1       561 9.52462E-05-2.85354E-05-2.85902E-05 6.89484E-08 5.96446E-19 1.67990E-19
 -1       562 9.52268E-05-2.85428E-05-2.85788E-05 2.76203E-08-1.39734E-18 5.74753E-19
 -1       563 9.52163E-05-2.85491E-05-2.85716E-05 3.42312E-10-1.64519E-18 2.25570E-20
 -1       564 9.52118E-05-2.85546E-05-2.85674E-05-1.67298E-08 1.32033E-19 1.66886E-18
 -1       565 9.52115E-05-2.85591E-05-2.85653E-05-2.65374E-08-1.10697E-18-3.86129E-19
 -1       566 9.52137E-05-2.85630E-05-2.85646E-05-3.12543E-08-2.38958E-19-8.53271E-19
 -1       567 9.52174E-05-2.85663E-05-2.85647E-05-3.24125E-08 1.89788E-19 9.20676E-19
 -1       568 9.52218E-05-2.85694E-05-2.85654E-05-3.10147E-08 7.21675E-19 3.81176E-18
 -1       569 9.52266E-05-2.85723E-05-2.85661E-05-2.76764E-08 2.82558E-19 4.10829E-18
 -1       570 9.52314E-05-2.85754E-05-2.85669E-05-2.25988E-08-4.92082E-19 3.37689E-18
 -1       571 9.52489E-05-2.85929E-05-2.85669E-05-2.10791E-08 9.89446E-20-2.58255E-18
 -1       572 9.52519E-05-2.85962E-05-2.85667E-05-1.51926E-08-2.61419E-19-6.79226E-19
 -1       573 9.52394E-05-2.85832E-05-2.85670E-05-2.58623E-08-6.18611E-22 4.70604E-18
 -1       574 9.52447E-05-2.85885E-05-2.85669E-05-2.48410E-08-9.10026E-19-6.14859E-20
 -1       575 9.52537E-05-2.85982E-05-2.85666E-05-7.92809E-09 1.34038E-18-4.01970E-18
 -1       576 9.52543E-05-2.85988E-05-2.85666E-05 1.05335E-11 6.69725E-19-9.50410E-19
 -1       577 9.52537E-05-2.85982E-05-2.85666E-05 7.95531E-09-4.54475E-19-2.29173E-18
 -1       578 9.52520E-05-2.85963E-05-2.85667E-05 1.51254E-08 4.34715E-19-1.07985E-18
 -1       579 9.52490E-05-2.85930E-05-2.85669E-05 2.10615E-08 1.01503E-18 1.16642E-19
 -1       580 9.52448E-05-2.85886E-05-2.85669E-05 2.48894E-08 5.95522E-19 2.47195E-18
 -1       581 9.52393E-05-2.85831E-05-2.85669E-05 2.58377E-08-1.70995E-18-7.51174E-19
 -1       582 9.71004E-05-5.19821E-05-1.90727E-05 3.89263E-05-1.97877E-18 8.30066E-19
 -1       583 2.67101E-05-1.47791E-05-4.52231E-06-1.38529E-05-2.92266E-19 5.64378E-18
 -1       584 1.02637E-04-3.01661E-05-3.10538E-05-3.75608E-06 9.14194E-19 1.37371E-18
 -1       585 2.56972E-05-1.51497E-05-3.91129E-06 1.46849E-05-9.98228E-19 6.84974E-18
 -1       586 5.79011E-05-3.35527E-05-9.90316E-06-3.90077E-05 1.26160E-18 3.76215E-18
 -1       587 9.80722E-05-2.11157E-05-3.30031E-05-3.50155E-06-1.48627E-18-8.28019E-19
 -1       588 1.22844E-04-5.97313E-05-2.70065E-05 2.68439E-05-8.72920E-19-6.98789E-19
 -1       589 7.17116E-05-3.92583E-05-1.34527E-05-4.25582E-05-1.78332E-18-2.37492E-18
 -1       590 8.02394E-05-6.85541E-06-3.14600E-05-7.46623E-07 2.29013E-19-2.07823E-18
 -1       591 1.32708E-04-8.69435E-06-5.37438E-05 4.14313E-06 4.13161E-18 1.48379E-18
 -1       592 1.17872E-04-6.03097E-05-2.45207E-05 3.19326E-05 5.23625E-19 3.08558E-19
 -1       593 1.34502E-04-1.17849E-05-5.31543E-05-8.24417E-06 5.34541E-18-2.40399E-19
 -1       594 1.37204E-04-2.06520E-05-5.05513E-05 1.02392E-05 3.71863E-18 2.53686E-18
 -1       595 1.29797E-04-6.03720E-05-2.98251E-05-2.08440E-05-1.40345E-18 8.72947E-19
 -1       596 1.10307E-04-5.68336E-05-2.26345E-05-3.50646E-05-2.02989E-18-5.77418E-19
 -1       597 3.88495E-05-2.00302E-05-7.43196E-06-2.79484E-05-1.13508E-18-4.26201E-18
 -1       598 4.20349E-05-2.46226E-05-6.92068E-06 3.25154E-05 1.28479E-18-4.64042E-18
 -1       599 8.13160E-05-4.52899E-05-1.49995E-05 4.23135E-05 1.40798E-18-1.40639E-18
 -1       600 1.38405E-04-6.03256E-05-3.35808E-05 1.47453E-05-5.94379E-19 1.31221E-18
 -1       601 1.45646E-04-4.77014E-05-4.23256E-05-5.49792E-06-1.60097E-18 1.25721E-18
 -1       602 1.35328E-04-9.14660E-06-5.46737E-05 1.31473E-06-4.85329E-18-1.33048E-18
 -1       603 1.43649E-04-1.83553E-05-5.41444E-05 1.04039E-05-5.09120E-18-1.72726E-18
 -1       604 1.46722E-04-3.56278E-05-4.79223E-05 1.12778E-05-4.23998E-18-1.49475E-18
 -1       605 1.44443E-04-5.56618E-05-3.82307E-05-1.32306E-06-2.69197E-18-3.24731E-18
 -1       606 1.24619E-04-6.17173E-05-2.69327E-05-2.60480E-05-2.12552E-19 1.88888E-19
 -1       607 9.12433E-05-5.06393E-05-1.71250E-05-3.99864E-05 1.61598E-18 2.03721E-18
 -1       608 5.15322E-05-2.84409E-05-9.31422E-06 3.70029E-05-3.41720E-18 5.30581E-18
 -1       609 1.01460E-04-2.48181E-05-3.28523E-05 5.19954E-06 1.90677E-18 2.12823E-18
 -1       610 8.91748E-05-1.33756E-05-3.25106E-05-1.95122E-06-7.09768E-19-1.94015E-18
 -1       611 1.33853E-04-5.87722E-05-3.22417E-05 1.07277E-05-2.37771E-19-2.25425E-18
 -1       612 1.38208E-04-4.13489E-05-4.18861E-05-9.33773E-06 3.30549E-18-2.99979E-18
 -1       613 8.00703E-05-4.02269E-05-1.67553E-05 3.82085E-05-3.99318E-18 2.17110E-18
 -1       614 9.52334E-05-2.85774E-05-2.85669E-05 2.49717E-08-2.09621E-18-9.70644E-19
 -1       615 1.35410E-04-3.39962E-05-4.38700E-05 1.21591E-05 1.41883E-18 3.39766E-18
 -1       616 1.27429E-04-1.35318E-05-4.93919E-05-7.56187E-06-3.92065E-18-3.35690E-19
 -1       617 1.36644E-04-5.64549E-05-3.45197E-05-4.79594E-06-1.25182E-18 2.54303E-18
 -1       618 3.45446E-05-1.22704E-05-8.96464E-06-1.17816E-05-5.10933E-19-3.78783E-18
 -1       619 1.37365E-04-3.51157E-05-4.42553E-05-1.40797E-05-2.38403E-18 1.18352E-18
 -1       620 8.31782E-05-1.12189E-05-3.08432E-05-1.88974E-06 8.08231E-19-1.15803E-18
 -1       621 8.09915E-05-9.51961E-06-3.06338E-05-1.53359E-06 5.06220E-19-1.51515E-18
 -1       622 9.04824E-05-1.69110E-05-3.15351E-05-8.90900E-07 1.41570E-18-6.24910E-19
 -1       623 9.47928E-05-2.04988E-05-3.18464E-05 6.83251E-08 1.52939E-18-4.48661E-20
 -1       624 9.89052E-05-2.49680E-05-3.16781E-05-6.41420E-07 1.43523E-18 5.77695E-19
 -1       625 4.58457E-05-1.77102E-05-1.15211E-05 2.32391E-05-2.58872E-18 3.92102E-18
 -1       626 1.00000E-04-2.75241E-05-3.10580E-05-3.54952E-06 1.20049E-18 6.07940E-19
 -1       627 9.69436E-05-2.48506E-05-3.08940E-05 6.69315E-06-5.33943E-19-6.11091E-19
 -1       628 9.80857E-05-2.72910E-05-3.03397E-05 9.52466E-06-5.38500E-19-5.59913E-19
 -1       629 1.00213E-04-3.05208E-05-2.98681E-05 1.14974E-05-1.98025E-19-2.99429E-19
 -1       630 1.04035E-04-3.51512E-05-2.95199E-05 1.23051E-05 6.19022E-20-3.78131E-19
 -1       631 1.10248E-04-4.13989E-05-2.95023E-05 1.11848E-05 5.88904E-19-7.53295E-20
 -1       632 1.18868E-04-4.81785E-05-3.03036E-05 6.81420E-06 9.58317E-19 4.88744E-19
 -1       633 1.28151E-04-5.19994E-05-3.27106E-05-1.89193E-06 7.07426E-19 7.99973E-19
 -1       634 1.23467E-04-1.72566E-05-4.62318E-05 1.29286E-05-4.11769E-18-2.54089E-18
 -1       635 1.30683E-04-3.60633E-05-4.09770E-05 1.77903E-05-2.66495E-18-3.47094E-18
 -1       636 1.30930E-04-4.93077E-05-3.51097E-05 9.87815E-06-1.04581E-18-3.27385E-18
 -1       637 1.24048E-04-5.08228E-05-3.14207E-05-6.13340E-07 5.67085E-19-3.03130E-18
 -1       638 1.14988E-04-4.52949E-05-2.98813E-05-7.62263E-06 1.42777E-18-1.77345E-18
 -1       639 1.07471E-04-3.88666E-05-2.94105E-05-1.08500E-05 1.43835E-18-8.27761E-19
 -1       640 1.02330E-04-3.37056E-05-2.94145E-05-1.16645E-05 6.00601E-19-8.11960E-19
 -1       641 9.92182E-05-3.02891E-05-2.95420E-05-1.12143E-05 1.31649E-18-9.57247E-19
 -1       642 9.74705E-05-2.83027E-05-2.96433E-05-1.01669E-05 1.08724E-18-1.98999E-18
 -1       643 9.65430E-05-2.73038E-05-2.96732E-05-8.87452E-06 3.37493E-19-2.19184E-18
 -1       644 9.60668E-05-2.69157E-05-2.96352E-05-7.53259E-06-4.78246E-19-1.75335E-18
 -1       645 9.58207E-05-2.68719E-05-2.95486E-05-6.24896E-06-2.15845E-20-2.71635E-18
 -1       646 9.56846E-05-2.70024E-05-2.94344E-05-5.08153E-06-2.96852E-19-2.42912E-18
 -1       647 9.55980E-05-2.72069E-05-2.93097E-05-4.05743E-06 4.74856E-20-2.09318E-18
 -1       648 9.55333E-05-2.74297E-05-2.91866E-05-3.18412E-06 4.61100E-19-2.13180E-18
 -1       649 9.54793E-05-2.76421E-05-2.90726E-05-2.45669E-06 6.47705E-19-2.86073E-18
 -1       650 9.54322E-05-2.78312E-05-2.89715E-05-1.86302E-06-1.70654E-18-2.31830E-18
 -1       651 9.53911E-05-2.79925E-05-2.88849E-05-1.38735E-06-1.06294E-18-1.78765E-18
 -1       652 9.53559E-05-2.81262E-05-2.88125E-05-1.01276E-06 9.51025E-20-8.69276E-19
 -1       653 9.53266E-05-2.82346E-05-2.87536E-05-7.22674E-07-8.27755E-19-6.10810E-19
 -1       654 9.53028E-05-2.83209E-05-2.87064E-05-5.01791E-07-1.06912E-18-1.92889E-19
 -1       655 9.52840E-05-2.83884E-05-2.86694E-05-3.36518E-07-4.44378E-20 1.36173E-19
 -1       656 9.52695E-05-2.84405E-05-2.86409E-05-2.15154E-07 5.81507E-19-1.13291E-18
 -1       657 9.52586E-05-2.84800E-05-2.86194E-05-1.27877E-07 9.07909E-19-9.47190E-19
 -1       658 9.52507E-05-2.85094E-05-2.86034E-05-6.66117E-08 6.53421E-19-2.39937E-18
 -1       659 9.52451E-05-2.85309E-05-2.85918E-05-2.48564E-08 6.54851E-19-4.07195E-18
 -1       660 9.52413E-05-2.85464E-05-2.85835E-05 2.52523E-09 1.35620E-19-6.76469E-18
 -1       661 9.52388E-05-2.85574E-05-2.85777E-05 1.95037E-08 4.87019E-19-3.32859E-18
 -1       662 9.52374E-05-2.85651E-05-2.85738E-05 2.90728E-08 9.02456E-19 1.95618E-19
 -1       663 9.52368E-05-2.85705E-05-2.85712E-05 3.34190E-08 1.18409E-18-8.58249E-19
 -1       664 9.52368E-05-2.85746E-05-2.85695E-05 3.40619E-08-8.11886E-20-1.22913E-18
 -1       665 9.52374E-05-2.85782E-05-2.85683E-05 3.19441E-08 4.52511E-20-2.77418E-18
 -1       666 1.06376E-04-3.55668E-05-3.03513E-05-4.56398E-06 2.28675E-19 9.28970E-19
 -1       667 1.33345E-04-5.94761E-05-3.16987E-05-7.90445E-06-1.89414E-19-3.07514E-18
 -1       668 8.12539E-05-4.00950E-05-1.72927E-05-3.59618E-05 2.17828E-18 2.46677E-18
 -1       669 1.03554E-04-3.25948E-05-3.04135E-05-5.63953E-06 6.19698E-19 7.53192E-19
 -1       670 1.12919E-04-4.03475E-05-3.11023E-05 2.62689E-06-3.22459E-19 1.82809E-18
 -1       671 1.14630E-04-3.95377E-05-3.21897E-05 7.88293E-06 1.39143E-19 1.38281E-18
 -1       672 1.13503E-04-3.46996E-05-3.37967E-05 1.17198E-05 7.66004E-19 1.26206E-18
 -1       673 1.09765E-04-2.68942E-05-3.55602E-05 1.09344E-05 9.67504E-19 1.08343E-18
 -1       674 1.06077E-04-2.06003E-05-3.66971E-05 4.11653E-06 1.35598E-18 9.90516E-19
 -1       675 1.06230E-04-2.07258E-05-3.67027E-05-5.48220E-06 1.40537E-18 3.15268E-19
 -1       676 1.09961E-04-2.70900E-05-3.55799E-05-1.22438E-05 1.80831E-18-2.59245E-19
 -1       677 1.13626E-04-3.48143E-05-3.38058E-05-1.28628E-05 1.31761E-18-7.30731E-19
 -1       678 1.14724E-04-3.95999E-05-3.22070E-05-8.95639E-06-2.40461E-20-2.03704E-19
 -1       679 1.12989E-04-4.04403E-05-3.10918E-05-3.61740E-06 3.17177E-19 6.14363E-19
 -1       680 1.09775E-04-3.87034E-05-3.04615E-05 9.84706E-07-1.39318E-19 3.91323E-19
 -1       681 1.06342E-04-3.59896E-05-3.01557E-05 4.11005E-06-7.58733E-19 4.99964E-19
 -1       682 1.03389E-04-3.33710E-05-3.00107E-05 5.83050E-06 1.36796E-19 1.40810E-18
 -1       683 1.01109E-04-3.12934E-05-2.99229E-05 6.48799E-06 4.34933E-19 9.85113E-19
 -1       684 9.94512E-05-2.98326E-05-2.98372E-05 6.43521E-06 1.89520E-20 1.25382E-18
 -1       685 9.82765E-05-2.88985E-05-2.97333E-05 5.95637E-06-1.26497E-18 1.47317E-18
 -1       686 9.74486E-05-2.83560E-05-2.96106E-05 5.25686E-06-8.18778E-19 6.98204E-19
 -1       687 9.68601E-05-2.80799E-05-2.94766E-05 4.47550E-06-1.30538E-18 2.15417E-19
 -1       688 9.64351E-05-2.79731E-05-2.93402E-05 3.70060E-06 3.81165E-19-1.10425E-19
 -1       689 9.61229E-05-2.79664E-05-2.92093E-05 2.98397E-06 3.94570E-19 2.65911E-19
 -1       690 9.58902E-05-2.80138E-05-2.90893E-05 2.35206E-06 2.68471E-19-5.22537E-19
 -1       691 9.57151E-05-2.80861E-05-2.89834E-05 1.81443E-06 7.13701E-19-9.22965E-19
 -1       692 9.55830E-05-2.81658E-05-2.88927E-05 1.36999E-06 1.05527E-19-2.55997E-19
 -1       693 9.54833E-05-2.82428E-05-2.88171E-05 1.01153E-06-1.93647E-19 5.02625E-19
 -1       694 9.54087E-05-2.83120E-05-2.87555E-05 7.28753E-07-3.04802E-19 1.60577E-19
 -1       695 9.53534E-05-2.83713E-05-2.87064E-05 5.10282E-07 9.18521E-19 8.95962E-19
 -1       696 9.53129E-05-2.84205E-05-2.86681E-05 3.44916E-07 2.41046E-18-6.13965E-20
 -1       697 9.52840E-05-2.84601E-05-2.86387E-05 2.22353E-07 1.69768E-18-7.53243E-19
 -1       698 9.52637E-05-2.84912E-05-2.86167E-05 1.33537E-07 1.01167E-18 1.61531E-18
 -1       699 9.52499E-05-2.85151E-05-2.86006E-05 7.07858E-08-4.17368E-19 1.77826E-18
 -1       700 9.52409E-05-2.85332E-05-2.85890E-05 2.77634E-08-1.10891E-18 1.63097E-18
 -1       701 9.52355E-05-2.85465E-05-2.85810E-05-6.21634E-10-7.91775E-19 7.82642E-19
 -1       702 9.52326E-05-2.85562E-05-2.85756E-05-1.83587E-08 1.12685E-18-2.28019E-19
 -1       703 9.52314E-05-2.85632E-05-2.85721E-05-2.84853E-08 9.79726E-19-2.77581E-18
 -1       704 9.52314E-05-2.85684E-05-2.85699E-05-3.32353E-08-1.65175E-18-3.32090E-18
 -1       705 9.52323E-05-2.85723E-05-2.85686E-05-3.41821E-08-1.49062E-18-9.51904E-19
 -1       706 9.52338E-05-2.85757E-05-2.85678E-05-3.23620E-08 5.64871E-20 2.41209E-18
 -1       707 9.52368E-05-2.85793E-05-2.85675E-05-2.96987E-08-7.13647E-19 3.57651E-18
 -1       708 9.52575E-05-2.85925E-05-2.85707E-05-4.47548E-09 8.03959E-19-3.15664E-18
 -1       709 9.52382E-05-2.85806E-05-2.85676E-05 2.93382E-08-8.14844E-19-7.56005E-19
 -1       710 9.52530E-05-2.85896E-05-2.85700E-05-2.06603E-08-4.18892E-19-2.37326E-18
 -1       711 9.52575E-05-2.85925E-05-2.85707E-05 4.46448E-09-1.72192E-20-2.65704E-18
 -1       712 9.52560E-05-2.85915E-05-2.85705E-05-1.30816E-08 2.06813E-20-1.84800E-18
 -1       713 1.01461E-04-2.99382E-05-3.06527E-05-5.23870E-06 8.29649E-19 6.53347E-19
 -1       714 9.52561E-05-2.85916E-05-2.85705E-05 1.29505E-08 1.33747E-18-8.02154E-19
 -1       715 9.52531E-05-2.85897E-05-2.85700E-05 2.06017E-08 1.97758E-18-1.87189E-19
 -1       716 9.52485E-05-2.85868E-05-2.85693E-05 2.64502E-08 8.13583E-19 9.28405E-19
 -1       717 9.52436E-05-2.85840E-05-2.85684E-05 2.88900E-08 4.63264E-19 1.07237E-18
 -1       718 9.48976E-05-1.97414E-05-3.22112E-05-1.73642E-07-9.77175E-19-1.16830E-18
 -1       719 5.18070E-05-2.04934E-05-1.29507E-05-2.59367E-05 5.75453E-19 2.39059E-18
 -1       720 1.12877E-04-5.57225E-05-2.43212E-05-2.67171E-05 1.86628E-18-1.73396E-19
 -1       721 1.09746E-04-3.85048E-05-3.05353E-05-1.78734E-06-5.41102E-20 1.37782E-18
 -1       722 9.60212E-05-2.25764E-05-3.14757E-05 3.52286E-06-8.85265E-19-7.43869E-19
 -1       723 8.64708E-05-1.37597E-05-3.11669E-05-1.64822E-06 1.22528E-18-8.14452E-19
 -1       724 1.05874E-04-5.29106E-05-2.25424E-05 3.19317E-05 1.53321E-18 6.15224E-19
 -1       725 1.14490E-04-5.59655E-05-2.49300E-05 2.64400E-05-2.06427E-18-7.40310E-19
 -1       726 3.85071E-05-1.43082E-05-9.79698E-06 1.70263E-05 7.54336E-19-4.36132E-18
 -1       727 8.40911E-05-1.16644E-05-3.10436E-05 8.52389E-07-1.88159E-19-1.85610E-18
 -1       728 1.27286E-04-2.14161E-05-4.59420E-05-1.35047E-05 3.82266E-18-1.66577E-18
 -1       729 6.85806E-05-3.04484E-05-1.58783E-05 3.39457E-05 2.16960E-18-1.97946E-18
 -1       730 1.23435E-04-1.55082E-05-4.68377E-05 9.38459E-06 3.11957E-18 1.84711E-18
 -1       731 1.22492E-04-5.81984E-05-2.74947E-05-2.11991E-05-1.89133E-18 1.15822E-18
 -1       732 1.18268E-04-9.53405E-06-4.70639E-05-2.89579E-06 3.81599E-18 3.29304E-19
 -1       733 1.29818E-04-6.07870E-05-2.95738E-05 1.64644E-05 8.86235E-19 1.54722E-18
 -1       734 1.38745E-04-5.48759E-05-3.60960E-05-1.38939E-06-6.27135E-20 1.39872E-18
 -1       735 6.40697E-05-2.68171E-05-1.55701E-05-3.20898E-05-1.75394E-18-2.41979E-18
 -1       736 3.56771E-05-1.12019E-05-9.94498E-06 1.40128E-06-8.43555E-19 6.58907E-18
 -1       737 9.51493E-05-4.58401E-05-2.08936E-05-3.45022E-05-1.92705E-18-6.39450E-19
 -1       738 8.81153E-05-1.47215E-05-3.14576E-05 1.06592E-06-4.15718E-19-1.83917E-18
 -1       739 8.03335E-05-8.95734E-06-3.05928E-05-7.30418E-07 2.23257E-19-1.74261E-18
 -1       740 1.34324E-04-5.18707E-05-3.55253E-05-2.51748E-06 7.48248E-19-2.75726E-18
 -1       741 1.27695E-04-3.21776E-05-4.12638E-05-1.46670E-05 2.49411E-18-1.95448E-18
 -1       742 9.09442E-05-4.07143E-05-2.13461E-05 3.10948E-05 1.95943E-18-3.71477E-19
 -1       743 1.27883E-04-2.89170E-05-4.27969E-05-1.58704E-05-2.26163E-18 9.12546E-19
 -1       744 1.32163E-04-4.55277E-05-3.73849E-05-1.25127E-05-6.19049E-19 1.63191E-18
 -1       745 9.52483E-05-2.85866E-05-2.85693E-05-2.64101E-08-2.21770E-18-7.40068E-19
 -1       746 9.52430E-05-2.85834E-05-2.85684E-05-2.91986E-08-1.96269E-18 1.13114E-18
 -1       747 1.23970E-04-2.52745E-05-4.26863E-05 1.31680E-05 2.01234E-18 3.38421E-18
 -1       748 1.33301E-04-4.65566E-05-3.73521E-05 7.85783E-06-3.22342E-19 2.97317E-18
 -1       749 8.13908E-05-9.68069E-06-3.07365E-05 1.79345E-07 5.65765E-20-1.79647E-18
 -1       750 6.65213E-05-2.75727E-05-1.64137E-05 3.06805E-05-3.64387E-18 3.56675E-18
 -1       751 5.44062E-05-1.75992E-05-1.54229E-05-2.21201E-05-1.19678E-18-3.04874E-18
 -1       752 4.96267E-05-1.34620E-05-1.51831E-05 1.07502E-05-1.54898E-18 4.41399E-18
 -1       753 9.41132E-05-2.18435E-05-3.09737E-05-3.18438E-06 1.18270E-18-2.74491E-19
 -1       754 9.23596E-05-2.26157E-05-2.98900E-05 8.36180E-06-4.49112E-19-9.45751E-19
 -1       755 9.32107E-05-2.54762E-05-2.90283E-05 1.15756E-05-1.07944E-19-7.32997E-19
 -1       756 9.52290E-05-2.95135E-05-2.81581E-05 1.46029E-05-7.78377E-22-3.47053E-19
 -1       757 9.95067E-05-3.55735E-05-2.73728E-05 1.72687E-05 6.29333E-19 1.76859E-19
 -1       758 1.07637E-04-4.43250E-05-2.71098E-05 1.85481E-05 1.25406E-18 6.03362E-19
 -1       759 1.14385E-04-5.02372E-05-2.73959E-05-1.58670E-05 2.18562E-18-1.74699E-18
 -1       760 1.03798E-04-4.07804E-05-2.69935E-05-1.69256E-05 1.91836E-18-5.29648E-19
 -1       761 9.73710E-05-3.35745E-05-2.73365E-05-1.56313E-05 6.77442E-19-7.41430E-19
 -1       762 9.41735E-05-2.91232E-05-2.78757E-05-1.36140E-05 8.56448E-19-6.48255E-19
 -1       763 9.28112E-05-2.66237E-05-2.83659E-05-1.16253E-05 6.91423E-19-9.07525E-20
 -1       764 9.24906E-05-2.54587E-05-2.87277E-05-9.81918E-06-9.38587E-20-6.85907E-19
 -1       765 9.26746E-05-2.51053E-05-2.89579E-05-8.21901E-06-4.88872E-19-1.01975E-18
 -1       766 9.30615E-05-2.52072E-05-2.90801E-05-6.80715E-06-1.13119E-18-6.07577E-19
 -1       767 9.34923E-05-2.55371E-05-2.91234E-05-5.56859E-06-2.30970E-19-7.24541E-19
 -1       768 9.38920E-05-2.59584E-05-2.91142E-05-4.49331E-06 5.66030E-19-4.87276E-19
 -1       769 9.42312E-05-2.63930E-05-2.90733E-05-3.57304E-06 2.22402E-19-1.83849E-18
 -1       770 9.45041E-05-2.67998E-05-2.90160E-05-2.79813E-06-6.17687E-21-1.31982E-18
 -1       771 9.47160E-05-2.71598E-05-2.89526E-05-2.15653E-06-5.95759E-19-2.21397E-18
 -1       772 9.48761E-05-2.74667E-05-2.88897E-05-1.63420E-06-2.52076E-19-1.81242E-18
 -1       773 9.49945E-05-2.77213E-05-2.88313E-05-1.21600E-06-5.96032E-19-6.08151E-19
 -1       774 9.50803E-05-2.79281E-05-2.87795E-05-8.86658E-07 4.94862E-20-1.52809E-18
 -1       775 9.51411E-05-2.80930E-05-2.87349E-05-6.31573E-07-1.27976E-18-1.04940E-18
 -1       776 9.51833E-05-2.82222E-05-2.86976E-05-4.37329E-07-4.69388E-19-7.60406E-19
 -1       777 9.52117E-05-2.83218E-05-2.86671E-05-2.92023E-07 5.75060E-19 1.16754E-18
 -1       778 9.52301E-05-2.83974E-05-2.86426E-05-1.85392E-07-2.73498E-19 4.86861E-19
 -1       779 9.52414E-05-2.84536E-05-2.86233E-05-1.08799E-07-4.10554E-19-1.35758E-19
 -1       780 9.52476E-05-2.84948E-05-2.86084E-05-5.51349E-08-1.39469E-18-1.42569E-18
 -1       781 9.52505E-05-2.85243E-05-2.85970E-05-1.86685E-08-2.83098E-19-2.70356E-18
 -1       782 9.52511E-05-2.85449E-05-2.85884E-05 5.12531E-09 1.17214E-18-2.39437E-18
 -1       783 9.52504E-05-2.85590E-05-2.85820E-05 1.97402E-08 2.34364E-18-2.30763E-18
 -1       784 9.52489E-05-2.85686E-05-2.85773E-05 2.77997E-08 4.44830E-19-1.12310E-18
 -1       785 9.52471E-05-2.85752E-05-2.85737E-05 3.12423E-08 2.92993E-19-2.23041E-18
 -1       786 9.52456E-05-2.85801E-05-2.85710E-05 3.13889E-08-1.18638E-19 1.56540E-19
 -1       787 9.52606E-05-2.85861E-05-2.85748E-05 9.05121E-09 8.48327E-19-2.78126E-19
 -1       788 1.21120E-04-4.28164E-05-3.36319E-05 8.71339E-06 4.46039E-19 1.75811E-18
 -1       789 1.18199E-04-4.52220E-05-3.12975E-05 1.56350E-06 1.13110E-19 1.65984E-18
 -1       790 1.13579E-04-2.05791E-05-4.01586E-05 1.07940E-05 1.47419E-18 2.08586E-18
 -1       791 1.19331E-04-3.36499E-05-3.68284E-05-1.44326E-05 1.53598E-18-2.17917E-18
 -1       792 1.20823E-04-4.29184E-05-3.34351E-05-9.46023E-06 2.47570E-19-1.65984E-18
 -1       793 1.17678E-04-4.52232E-05-3.10715E-05-2.28544E-06-3.37586E-19-1.73928E-18
 -1       794 1.12272E-04-4.28555E-05-2.97509E-05 3.35007E-06-7.69842E-19-4.00617E-19
 -1       795 1.06797E-04-3.86854E-05-2.91924E-05 6.69342E-06-9.50099E-19 4.09132E-19
 -1       796 1.02431E-04-3.46920E-05-2.90327E-05 8.12406E-06-7.89936E-19 6.30081E-19
 -1       797 9.93707E-05-3.15796E-05-2.90544E-05 8.36348E-06-7.73724E-20 2.30775E-18
 -1       798 9.74020E-05-2.94419E-05-2.91262E-05 7.93251E-06-8.19291E-20 2.54331E-18
 -1       799 9.62229E-05-2.81232E-05-2.91855E-05 7.15910E-06-6.33459E-19 2.86028E-18
 -1       800 9.55660E-05-2.74076E-05-2.92106E-05 6.23973E-06-5.85107E-19 1.71679E-18
 -1       801 9.52323E-05-2.70988E-05-2.91998E-05 5.29149E-06-7.91142E-19 6.40605E-19
 -1       802 9.50871E-05-2.70448E-05-2.91608E-05 4.38379E-06-3.66891E-19 9.75318E-20
 -1       803 9.50450E-05-2.71372E-05-2.91031E-05 3.55625E-06 1.03843E-18-9.32301E-20
 -1       804 9.50542E-05-2.73034E-05-2.90359E-05 2.82865E-06 4.99719E-19 2.29914E-19
 -1       805 9.50850E-05-2.74969E-05-2.89662E-05 2.20732E-06 1.41108E-18 3.67983E-19
 -1       806 9.51214E-05-2.76902E-05-2.88990E-05 1.68976E-06-2.93342E-19-3.58032E-19
 -1       807 9.51556E-05-2.78681E-05-2.88374E-05 1.26808E-06-6.34416E-19 2.76325E-21
 -1       808 9.51841E-05-2.80233E-05-2.87831E-05 9.31442E-07-2.22927E-19 4.64253E-19
 -1       809 9.52063E-05-2.81538E-05-2.87367E-05 6.67859E-07-1.67494E-19-7.81618E-20
 -1       810 9.52225E-05-2.82603E-05-2.86981E-05 4.65370E-07 1.78806E-18-3.33078E-19
 -1       811 9.52336E-05-2.83449E-05-2.86666E-05 3.12792E-07 1.03451E-18 6.89152E-19
 -1       812 9.52408E-05-2.84107E-05-2.86415E-05 2.00131E-07-5.70911E-19 2.53742E-18
 -1       813 9.52449E-05-2.84607E-05-2.86218E-05 1.18766E-07-8.58097E-19 3.96497E-18
 -1       814 9.52469E-05-2.84979E-05-2.86067E-05 6.14703E-08-1.91660E-19 3.27670E-18
 -1       815 9.52474E-05-2.85249E-05-2.85954E-05 2.23361E-08 1.11694E-18-1.25660E-18
 -1       816 9.52469E-05-2.85441E-05-2.85869E-05-3.35231E-09 8.99226E-19-2.12924E-18
 -1       817 9.52459E-05-2.85575E-05-2.85808E-05-1.92699E-08 1.51493E-18-2.06726E-18
 -1       818 9.52447E-05-2.85667E-05-2.85763E-05-2.81923E-08-7.00882E-19 1.71127E-19
 -1       819 9.52435E-05-2.85731E-05-2.85731E-05-3.21303E-08-2.07368E-18-1.00832E-18
 -1       820 9.52426E-05-2.85777E-05-2.85706E-05-3.25147E-08-2.05159E-18-1.88732E-18
 -1       821 9.52427E-05-2.85805E-05-2.85695E-05-3.12553E-08-2.76598E-18-2.31207E-19
 -1       822 8.21487E-05-1.25890E-05-2.98126E-05-3.27171E-06 5.56914E-19-1.16402E-18
 -1       823 9.52580E-05-2.85854E-05-2.85740E-05 1.76912E-08 1.85643E-18 5.86935E-19
 -1       824 9.52614E-05-2.85863E-05-2.85750E-05-1.20061E-10 2.93390E-19-2.52515E-18
 -1       825 8.34117E-05-3.33127E-05-2.13056E-05-2.83631E-05-1.78704E-18-1.13819E-18
 -1       826 1.19133E-04-3.34412E-05-3.68941E-05 1.37283E-05 7.64785E-19 2.56890E-18
 -1       827 1.02956E-04-3.38239E-05-2.96279E-05-8.00382E-06 1.89951E-19 4.81915E-19
 -1       828 9.72985E-05-2.49074E-05-3.10248E-05-3.39110E-06 1.08931E-18 2.50209E-19
 -1       829 9.69254E-05-4.39192E-05-2.25390E-05 2.87314E-05-2.62383E-18 1.12168E-18
 -1       830 9.52534E-05-2.85838E-05-2.85727E-05 2.51741E-08 1.19869E-18-3.24467E-19
 -1       831 9.68241E-05-4.18364E-05-2.34324E-05-2.55738E-05 2.69779E-18-1.26254E-19
 -1       832 1.15694E-04-2.40162E-05-3.95564E-05-1.38945E-05 2.88621E-18-2.08297E-18
 -1       833 1.25592E-04-5.53483E-05-3.01447E-05 8.44870E-06-1.05104E-18-2.23773E-18
 -1       834 5.90672E-05-1.81915E-05-1.72071E-05 2.01926E-05 1.29281E-18-2.46778E-18
 -1       835 1.19288E-04-5.44576E-05-2.76946E-05 1.80221E-05 1.25434E-18 8.61928E-19
 -1       836 7.53343E-05-2.79743E-05-2.01035E-05-2.57938E-05 2.01491E-18 4.79659E-19
 -1       837 1.10264E-04-5.01319E-05-2.57427E-05-2.31367E-05-1.47047E-18 3.08750E-19
 -1       838 1.28469E-04-5.47134E-05-3.16804E-05-5.20425E-06-8.20926E-19 1.61037E-18
 -1       839 4.69252E-05-1.09492E-05-1.50588E-05 2.68542E-06 8.60135E-20-3.20075E-18
 -1       840 5.16363E-05-1.35463E-05-1.60673E-05-1.00950E-05 1.80401E-19 3.77808E-18
 -1       841 8.02381E-05-1.10805E-05-2.96401E-05-1.72256E-06 3.10943E-19-1.27910E-18
 -1       842 8.97455E-05-1.84401E-05-3.05596E-05-3.88572E-06 1.07948E-18-5.57482E-19
 -1       843 1.28532E-04-4.31344E-05-3.67594E-05-1.08694E-05 1.13782E-18-2.58559E-18
 -1       844 8.62999E-05-1.54326E-05-3.03734E-05 3.51565E-06-2.27044E-19-1.57406E-18
 -1       845 9.52533E-05-2.85836E-05-2.85727E-05-2.50579E-08-1.65667E-18 7.81435E-19
 -1       846 9.17002E-05-2.02301E-05-3.06324E-05 5.28758E-06-5.63893E-19-1.11974E-18
 -1       847 9.52606E-05-2.85861E-05-2.85748E-05-9.26947E-09-7.97660E-19-2.78053E-18
 -1       848 7.34711E-05-2.51970E-05-2.05334E-05-2.46817E-05-1.48866E-18-1.53249E-18
 -1       849 1.13083E-04-4.29267E-05-3.00669E-05-4.04161E-06-6.29870E-19 1.25348E-18
 -1       850 1.12903E-04-5.03998E-05-2.67619E-05 1.74458E-05-1.59741E-18-1.20335E-18
 -1       851 9.52580E-05-2.85852E-05-2.85740E-05-1.78069E-08-2.47386E-19-4.90370E-19
 -1       852 8.54963E-05-1.51657E-05-3.01407E-05-3.95952E-06 6.48890E-19-7.34623E-19
 -1       853 6.19813E-05-1.96527E-05-1.79627E-05 2.02321E-05-1.03772E-18 2.41890E-18
 -1       854 1.07288E-04-3.82634E-05-2.95899E-05-7.14813E-06-3.56828E-19 9.03111E-19
 -1       855 9.98716E-05-2.99611E-05-2.99634E-05-7.33351E-06 5.57156E-19 2.85792E-19
 -1       856 7.51295E-05-2.64846E-05-2.06876E-05 2.47476E-05 1.52868E-18-1.14106E-18
 -1       857 8.24559E-05-1.25874E-05-2.99456E-05 2.17854E-06-9.58892E-20-1.81459E-18
 -1       858 1.19590E-04-5.17537E-05-2.90635E-05-1.10820E-05-8.71956E-19 8.44511E-19
 -1       859 9.84196E-05-4.04356E-05-2.47878E-05-2.34489E-05-1.16283E-18-3.38047E-19
 -1       860 9.83420E-05-2.72756E-05-3.04580E-05-5.65172E-06 8.94262E-19 1.41023E-19
 -1       861 8.66077E-05-2.28640E-05-2.73164E-05 1.30939E-05 2.48609E-19-8.69983E-19
 -1       862 8.71751E-05-2.69119E-05-2.58161E-05 1.76439E-05 7.28007E-19-5.41623E-19
 -1       863 6.71864E-05-1.87435E-05-2.06632E-05-1.54671E-05 6.88636E-19 5.52246E-19
 -1       864 8.85225E-05-3.13189E-05-2.44697E-05-2.05603E-05 1.10065E-18 1.40318E-19
 -1       865 8.67581E-05-2.66791E-05-2.57539E-05-1.58863E-05 4.88061E-19-2.91130E-19
 -1       866 8.67587E-05-2.41905E-05-2.68161E-05-1.24137E-05 1.32244E-18-7.51570E-19
 -1       867 8.75958E-05-2.32158E-05-2.75919E-05-9.96155E-06 2.19374E-20-1.33628E-18
 -1       868 8.87137E-05-2.30644E-05-2.81357E-05-8.11526E-06-1.70661E-19-1.35259E-18
 -1       869 8.98749E-05-2.33842E-05-2.84959E-05-6.65151E-06 3.54315E-19-7.67632E-19
 -1       870 9.09488E-05-2.39379E-05-2.87188E-05-5.44544E-06-5.98757E-19 2.24502E-19
 -1       871 9.18830E-05-2.45818E-05-2.88433E-05-4.42710E-06-3.18978E-20 6.29094E-19
 -1       872 9.26641E-05-2.52306E-05-2.89000E-05-3.56098E-06-3.93706E-19 2.82022E-19
 -1       873 9.32986E-05-2.58362E-05-2.89124E-05-2.82725E-06-6.29657E-20 2.14739E-20
 -1       874 9.38026E-05-2.63750E-05-2.88975E-05-2.21209E-06 9.42416E-20-1.17932E-18
 -1       875 9.41953E-05-2.68382E-05-2.88673E-05-1.70345E-06-1.77988E-19 5.62092E-20
 -1       876 9.44963E-05-2.72263E-05-2.88300E-05-1.28940E-06 2.12890E-19-2.23534E-19
 -1       877 9.47233E-05-2.75446E-05-2.87908E-05-9.57812E-07-1.55058E-19 8.95824E-20
 -1       878 9.48915E-05-2.78008E-05-2.87532E-05-6.96649E-07-2.44157E-19-2.49107E-19
 -1       879 9.50141E-05-2.80035E-05-2.87188E-05-4.94423E-07 3.82234E-19 1.60051E-18
 -1       880 9.51014E-05-2.81612E-05-2.86887E-05-3.40552E-07 4.82118E-19 1.93778E-18
 -1       881 9.51622E-05-2.82818E-05-2.86630E-05-2.25611E-07 1.19621E-19 5.27835E-19
 -1       882 9.52031E-05-2.83725E-05-2.86417E-05-1.41442E-07-4.68206E-19-4.47496E-19
 -1       883 9.52295E-05-2.84395E-05-2.86243E-05-8.11649E-08-1.39748E-18-3.65440E-19
 -1       884 9.52454E-05-2.84879E-05-2.86104E-05-3.91091E-08-1.55301E-18 2.12066E-20
 -1       885 9.52540E-05-2.85222E-05-2.85993E-05-1.07043E-08-7.95903E-20 7.49743E-19
 -1       886 9.52575E-05-2.85458E-05-2.85907E-05 7.65715E-09 2.87774E-18 6.27558E-19
 -1       887 9.52578E-05-2.85618E-05-2.85840E-05 1.87426E-08 1.02579E-18-7.18473E-19
 -1       888 9.52562E-05-2.85724E-05-2.85788E-05 2.46037E-08 8.95972E-19-4.14277E-19
 -1       889 9.52551E-05-2.85787E-05-2.85756E-05 2.57784E-08 1.08255E-18-3.93841E-20
 -1       890 1.06588E-04-4.14216E-05-2.79105E-05 1.13413E-05-1.46135E-18-8.58157E-19
 -1       891 1.00675E-04-3.58049E-05-2.78000E-05 1.17000E-05-1.10703E-18 1.78491E-19
 -1       892 9.68861E-05-3.15965E-05-2.79832E-05 1.08689E-05-7.70955E-19 3.20787E-19
 -1       893 9.47190E-05-2.87964E-05-2.82535E-05 9.61164E-06 1.32960E-19 8.33002E-21
 -1       894 9.36421E-05-2.71288E-05-2.85057E-05 8.27529E-06-4.88898E-19 4.15495E-19
 -1       895 9.32362E-05-2.62661E-05-2.87013E-05 6.99595E-06-2.80403E-19 1.09125E-19
 -1       896 9.32173E-05-2.59405E-05-2.88328E-05 5.82662E-06-4.56474E-19 3.59565E-19
 -1       897 9.34002E-05-2.59496E-05-2.89074E-05 4.78356E-06 3.00617E-20 3.19039E-19
 -1       898 9.36707E-05-2.61506E-05-2.89371E-05 3.87047E-06 3.39960E-19 2.55367E-20
 -1       899 9.39614E-05-2.64465E-05-2.89349E-05 3.08512E-06 1.90899E-19 9.84489E-19
 -1       900 9.42358E-05-2.67745E-05-2.89120E-05 2.42117E-06 5.93974E-19 5.52132E-20
 -1       901 9.44761E-05-2.70963E-05-2.88770E-05 1.86939E-06 8.48318E-19 9.06801E-19
 -1       902 9.46764E-05-2.73908E-05-2.88367E-05 1.41862E-06-1.05959E-18 6.07510E-19
 -1       903 9.48371E-05-2.76477E-05-2.87955E-05 1.05656E-06-1.10161E-18-1.53163E-19
 -1       904 9.49621E-05-2.78641E-05-2.87562E-05 7.70650E-07-3.18861E-20 9.96923E-19
 -1       905 9.50564E-05-2.80414E-05-2.87207E-05 5.48705E-07 3.44676E-19 1.28359E-18
 -1       906 9.51255E-05-2.81829E-05-2.86897E-05 3.79406E-07 2.57226E-20 2.66100E-18
 -1       907 9.51747E-05-2.82935E-05-2.86634E-05 2.52616E-07-1.28161E-18 3.82709E-18
 -1       908 9.52084E-05-2.83781E-05-2.86416E-05 1.59519E-07-1.02996E-18 2.36732E-18
 -1       909 9.52304E-05-2.84414E-05-2.86239E-05 9.26531E-08 3.86077E-19-2.24194E-20
 -1       910 9.52439E-05-2.84877E-05-2.86098E-05 4.58441E-08 1.03382E-18 2.59410E-20
 -1       911 9.52512E-05-2.85209E-05-2.85987E-05 1.41002E-08 1.84913E-18 2.40130E-18
 -1       912 9.52543E-05-2.85440E-05-2.85901E-05-6.53388E-09 8.95054E-19 1.72643E-18
 -1       913 9.52547E-05-2.85598E-05-2.85835E-05-1.91234E-08-1.58845E-18 3.42154E-18
 -1       914 9.52535E-05-2.85705E-05-2.85785E-05-2.59619E-08-1.19785E-18 2.60901E-18
 -1       915 9.52513E-05-2.85775E-05-2.85745E-05-2.87167E-08-3.92077E-19 3.02960E-18
 -1       916 9.52628E-05-2.85788E-05-2.85789E-05 1.28822E-08 2.20560E-19 4.46731E-19
 -1       917 9.52484E-05-2.85825E-05-2.85711E-05-2.89095E-08-3.89975E-18 4.66763E-19
 -1       918 9.52646E-05-2.85788E-05-2.85796E-05 4.23170E-09-1.36285E-19-1.40505E-18
 -1       919 1.25818E-04-5.03896E-05-3.23707E-05-2.00745E-06-3.52716E-19-2.02419E-18
 -1       920 9.51279E-05-2.44877E-05-3.02744E-05-5.81816E-06 8.65558E-19-2.17994E-19
 -1       921 8.03207E-05-1.10598E-05-2.96853E-05 2.70001E-07 3.76546E-20-1.68326E-18
 -1       922 5.73934E-05-1.32421E-05-1.87665E-05-9.84455E-06-4.36374E-19-2.40213E-18
 -1       923 8.68973E-05-2.01389E-05-2.86088E-05 9.32868E-06-1.16900E-19-1.13579E-18
 -1       924 5.70231E-05-1.33216E-05-1.86024E-05 1.42784E-06-2.69565E-19 4.13106E-18
 -1       925 5.90288E-05-1.35819E-05-1.93136E-05 8.92462E-06 7.47348E-19-2.13885E-18
 -1       926 9.52596E-05-2.85789E-05-2.85775E-05 1.97006E-08-7.00559E-19 1.22683E-19
 -1       927 8.12350E-05-3.11201E-05-2.13553E-05 2.55398E-05-1.90752E-18 2.87800E-18
 -1       928 9.04879E-05-3.29136E-05-2.46144E-05 2.23830E-05 1.17398E-18-4.56174E-19
 -1       929 8.66588E-05-1.77898E-05-2.95162E-05 6.30500E-06-2.35474E-19-1.44465E-18
 -1       930 9.52645E-05-2.85787E-05-2.85796E-05-4.65571E-09 4.59483E-19-2.98354E-18
 -1       931 1.18349E-04-5.03692E-05-2.91423E-05 8.08088E-06-1.33225E-18-1.17810E-18
 -1       932 8.20121E-05-1.44851E-05-2.89438E-05 4.25506E-06-1.56495E-19-1.75988E-18
 -1       933 9.52586E-05-2.85782E-05-2.85773E-05-2.18824E-08-1.76416E-19 5.12680E-19
 -1       934 6.90968E-05-1.88110E-05-2.14573E-05 1.63032E-05 1.15925E-18-1.83896E-18
 -1       935 9.74452E-05-2.98563E-05-2.89695E-05-1.01996E-05 2.69950E-21 3.88328E-19
 -1       936 8.83763E-05-3.30977E-05-2.36051E-05-2.39180E-05-1.25904E-18-1.07035E-18
 -1       937 9.98792E-05-4.08626E-05-2.52300E-05 2.03353E-05-2.19623E-18-2.86343E-19
 -1       938 8.02145E-05-1.34486E-05-2.86148E-05-3.93747E-06 3.23316E-19-1.07126E-18
 -1       939 6.29501E-05-1.61090E-05-1.99942E-05 1.05728E-05-6.02819E-19 3.91326E-18
 -1       940 1.08933E-04-4.52887E-05-2.72297E-05-1.65716E-05-9.69489E-19 4.20575E-19
 -1       941 8.36914E-05-1.60862E-05-2.89679E-05-5.97421E-06 4.58739E-19-8.68824E-19
 -1       942 1.01418E-04-3.49104E-05-2.84950E-05-1.17504E-05-3.06604E-19 5.88976E-19
 -1       943 7.78169E-05-1.90338E-05-2.51857E-05 1.26782E-05 6.26936E-19-1.45864E-18
 -1       944 6.64518E-05-1.55269E-05-2.17820E-05-4.81032E-06 5.31214E-19 2.53023E-18
 -1       945 9.02712E-05-2.14267E-05-2.95044E-05-7.18808E-06 4.78072E-19-1.86995E-19
 -1       946 7.91287E-05-2.08350E-05-2.49691E-05-1.15835E-05 3.88296E-19 5.01804E-19
 -1       947 8.19108E-05-2.05642E-05-2.62959E-05-8.78320E-06 1.43352E-19-1.09642E-19
 -1       948 8.43618E-05-2.08793E-05-2.72083E-05-6.93070E-06-4.38102E-19-1.86975E-19
 -1       949 8.64781E-05-2.15356E-05-2.78327E-05-5.60710E-06 1.43973E-19-2.50851E-19
 -1       950 8.82634E-05-2.23454E-05-2.82505E-05-4.59556E-06-6.31548E-20-1.26775E-18
 -1       951 8.97538E-05-2.32076E-05-2.85198E-05-3.76955E-06-2.35655E-19-3.06662E-19
 -1       952 9.09829E-05-2.40551E-05-2.86834E-05-3.07273E-06 1.04413E-19 2.31541E-19
 -1       953 9.19818E-05-2.48438E-05-2.87735E-05-2.47800E-06-2.33388E-19 6.42996E-19
 -1       954 9.27826E-05-2.55498E-05-2.88141E-05-1.97125E-06-2.07395E-19 7.46580E-19
 -1       955 9.34159E-05-2.61632E-05-2.88226E-05-1.54394E-06 5.11353E-19-4.87282E-19
 -1       956 9.39098E-05-2.66831E-05-2.88115E-05-1.18895E-06 3.51168E-19-3.21031E-19
 -1       957 9.42895E-05-2.71147E-05-2.87892E-05-8.98998E-07 2.36560E-19-5.85052E-19
 -1       958 9.45770E-05-2.74661E-05-2.87618E-05-6.66296E-07-1.19225E-19-2.83012E-19
 -1       959 9.47913E-05-2.77473E-05-2.87331E-05-4.82854E-07 1.56231E-18 1.06704E-18
 -1       960 9.49480E-05-2.79686E-05-2.87054E-05-3.40841E-07-1.07920E-19 6.50151E-19
 -1       961 9.50602E-05-2.81398E-05-2.86802E-05-2.32924E-07 2.02816E-19 4.65172E-19
 -1       962 9.51385E-05-2.82700E-05-2.86580E-05-1.52495E-07-7.41360E-19-8.09463E-19
 -1       963 9.51914E-05-2.83672E-05-2.86390E-05-9.37987E-08-4.12377E-19-9.75877E-19
 -1       964 9.52256E-05-2.84384E-05-2.86231E-05-5.19608E-08-5.74622E-19-6.01628E-19
 -1       965 9.52463E-05-2.84894E-05-2.86101E-05-2.29620E-08 9.02156E-20-3.06364E-19
 -1       966 9.52574E-05-2.85251E-05-2.85995E-05-3.56580E-09 1.57838E-18 1.58872E-18
 -1       967 9.52620E-05-2.85495E-05-2.85911E-05 8.80518E-09 1.15687E-18 4.78528E-19
 -1       968 9.52624E-05-2.85657E-05-2.85843E-05 1.60191E-08 9.15351E-19 2.67688E-18
 -1       969 9.52614E-05-2.85731E-05-2.85807E-05 1.84529E-08 1.80155E-19 1.50084E-18
 -1       970 9.08869E-05-2.74886E-05-2.71736E-05 1.13561E-05-5.32391E-19 2.43002E-19
 -1       971 8.10351E-05-1.61875E-05-2.77866E-05 6.75148E-06 1.35814E-19-1.77978E-18
 -1       972 9.52627E-05-2.85788E-05-2.85788E-05-1.32421E-08 5.62424E-19-1.09290E-18
 -1       973 9.66676E-05-3.58453E-05-2.60681E-05 1.66652E-05-1.69923E-18-2.51066E-19
 -1       974 9.02841E-05-2.56962E-05-2.76815E-05 9.20771E-06-8.57655E-19 1.26985E-18
 -1       975 9.03739E-05-2.48360E-05-2.80875E-05 7.43885E-06-1.03480E-18 1.71927E-18
 -1       976 9.08204E-05-2.45856E-05-2.83863E-05 6.00491E-06-2.17140E-19 1.61149E-18
 -1       977 9.14218E-05-2.47081E-05-2.85918E-05 4.83047E-06 1.64504E-19 9.33451E-20
 -1       978 9.20626E-05-2.50454E-05-2.87218E-05 3.86134E-06 1.05994E-19 6.75347E-20
 -1       979 9.26745E-05-2.54871E-05-2.87948E-05 3.06025E-06-1.38516E-19 6.21982E-19
 -1       980 9.32224E-05-2.59603E-05-2.88267E-05 2.39948E-06 2.94623E-19 1.19699E-18
 -1       981 9.36918E-05-2.64199E-05-2.88309E-05 1.85795E-06-1.54069E-19 1.80170E-18
 -1       982 9.40803E-05-2.68398E-05-2.88174E-05 1.41836E-06-3.42046E-19 3.60144E-18
 -1       983 9.43929E-05-2.72074E-05-2.87938E-05 1.06570E-06 1.39283E-19 2.34450E-18
 -1       984 9.46381E-05-2.75188E-05-2.87655E-05 7.86475E-07-1.80092E-18 2.08500E-18
 -1       985 9.48259E-05-2.77754E-05-2.87360E-05 5.68536E-07-8.43848E-19 2.42229E-18
 -1       986 9.49664E-05-2.79820E-05-2.87076E-05 4.00998E-07-7.42132E-19 3.17310E-18
 -1       987 9.50689E-05-2.81447E-05-2.86818E-05 2.74285E-07-7.28421E-19 2.44392E-18
 -1       988 9.51415E-05-2.82703E-05-2.86591E-05 1.80123E-07-7.41289E-19 1.63601E-18
 -1       989 9.51912E-05-2.83652E-05-2.86397E-05 1.11498E-07 8.63384E-19 2.46241E-18
 -1       990 9.52238E-05-2.84354E-05-2.86236E-05 6.25855E-08 9.26768E-19 1.85604E-18
 -1       991 9.52438E-05-2.84863E-05-2.86104E-05 2.86393E-08 1.38753E-18 1.57538E-19
 -1       992 9.52548E-05-2.85221E-05-2.85997E-05 5.86886E-09 6.83847E-19 3.62920E-19
 -1       993 9.52596E-05-2.85468E-05-2.85912E-05-8.67096E-09-1.87135E-18 3.31643E-18
 -1       994 9.52605E-05-2.85635E-05-2.85844E-05-1.74378E-08-5.68384E-20 3.01020E-18
 -1       995 9.52661E-05-2.85688E-05-2.85846E-05 7.37339E-09-3.83444E-19-1.22453E-18
 -1       996 7.45950E-05-2.35487E-05-2.18203E-05 1.89338E-05-9.94543E-19 2.36103E-18
 -1       997 7.52593E-05-2.03666E-05-2.34855E-05-1.34368E-05 9.43600E-19-7.79121E-21
 -1       998 7.07749E-05-1.81838E-05-2.24838E-05-1.47856E-05-5.56674E-19-1.54149E-18
 -1       999 9.52406E-05-2.60192E-05-2.96668E-05-7.82364E-06 4.03723E-19 6.51681E-21
 -1      1000 7.88335E-05-1.23264E-05-2.85018E-05-8.63093E-07 1.74591E-19-1.16836E-18
 -1      1001 7.96298E-05-1.28252E-05-2.86331E-05 1.84697E-06-1.09479E-19-1.55392E-18
 -1      1002 9.27344E-05-3.06709E-05-2.66026E-05 1.38629E-05-1.01468E-18-2.69352E-19
 -1      1003 6.45589E-05-1.28896E-05-2.20854E-05-8.69466E-07 1.34444E-19-1.76464E-18
 -1      1004 7.94556E-05-1.74457E-05-2.65766E-05 9.33403E-06 3.90464E-19-1.65350E-18
 -1      1005 1.04396E-04-3.95489E-05-2.78048E-05-1.42721E-05-8.05479E-19 6.09354E-19
 -1      1006 7.89544E-05-2.33486E-05-2.38150E-05 1.82808E-05 9.97175E-19-9.28942E-19
 -1      1007 8.09899E-05-2.42072E-05-2.43071E-05-1.78577E-05-5.29564E-19-1.14049E-18
 -1      1008 8.06881E-05-1.63958E-05-2.75535E-05-7.52778E-06 1.53543E-19-8.22054E-19
 -1      1009 9.52648E-05-2.85617E-05-2.85870E-05-1.06278E-08 7.72296E-19 6.88367E-19
 -1      1010 7.71949E-05-1.37733E-05-2.71840E-05-3.60574E-06 2.38485E-19-1.00817E-18
 -1      1011 6.83659E-05-1.44190E-05-2.30842E-05 6.70567E-06 5.45905E-19-1.42864E-18
 -1      1012 9.32678E-05-2.89625E-05-2.75465E-05-1.37353E-05-3.91369E-19-1.57570E-19
 -1      1013 9.52668E-05-2.85684E-05-2.85850E-05-2.15928E-10 1.74019E-18-2.81150E-18
 -1      1014 9.13303E-05-2.47472E-05-2.85442E-05-1.04601E-05 5.09014E-20-3.33508E-19
 -1      1015 9.62526E-05-3.51446E-05-2.61755E-05-1.87277E-05-7.59204E-19-3.54752E-19
 -1      1016 8.89230E-05-3.13387E-05-2.46605E-05 1.86781E-05-1.57725E-18 6.76734E-19
 -1      1017 6.75912E-05-1.55695E-05-2.22626E-05 2.14390E-06-2.04630E-19 3.19546E-18
 -1      1018 7.61153E-05-1.79167E-05-2.49066E-05-5.50986E-06 1.05083E-19 1.34378E-18
 -1      1019 7.16825E-05-1.66743E-05-2.35480E-05-5.33724E-06 7.56681E-19 1.40504E-18
 -1      1020 7.17207E-05-1.47843E-05-2.44150E-05-6.77404E-06-1.12588E-19-1.25179E-18
 -1      1021 8.00985E-05-1.88419E-05-2.62529E-05-4.29776E-06-2.67593E-20 9.30422E-19
 -1      1022 8.32468E-05-1.99065E-05-2.71451E-05-3.47186E-06-3.84441E-19 9.91785E-19
 -1      1023 8.57401E-05-2.09649E-05-2.77607E-05-2.91650E-06-6.51291E-19 4.03238E-20
 -1      1024 8.77440E-05-2.20005E-05-2.81763E-05-2.45805E-06-3.26379E-19-5.86567E-19
 -1      1025 8.93802E-05-2.30033E-05-2.84477E-05-2.06331E-06-2.08673E-19-6.20107E-19
 -1      1026 9.07057E-05-2.39340E-05-2.86168E-05-1.71288E-06 6.56881E-19-8.56343E-19
 -1      1027 9.17742E-05-2.47736E-05-2.87149E-05-1.39969E-06 1.52067E-19-1.19396E-19
 -1      1028 9.26280E-05-2.55119E-05-2.87643E-05-1.12355E-06-2.28596E-19-1.46903E-19
 -1      1029 9.33027E-05-2.61463E-05-2.87815E-05-8.85033E-07 5.67247E-19 3.27028E-20
 -1      1030 9.38290E-05-2.66799E-05-2.87783E-05-6.83568E-07 6.91020E-19-6.46494E-20
 -1      1031 9.42339E-05-2.71202E-05-2.87632E-05-5.17168E-07 1.12535E-19-2.18744E-19
 -1      1032 9.45406E-05-2.74769E-05-2.87417E-05-3.82681E-07 1.22360E-18-6.89691E-19
 -1      1033 9.47690E-05-2.77609E-05-2.87179E-05-2.76242E-07 7.44127E-19-7.54991E-19
 -1      1034 9.49359E-05-2.79831E-05-2.86941E-05-1.93715E-07 2.31610E-19-4.76899E-19
 -1      1035 9.50551E-05-2.81541E-05-2.86719E-05-1.31031E-07-1.50268E-18-1.89316E-18
 -1      1036 9.51379E-05-2.82833E-05-2.86520E-05-8.44194E-08-4.81149E-19-3.19389E-18
 -1      1037 9.51935E-05-2.83791E-05-2.86348E-05-5.05389E-08 3.06387E-19-3.43826E-18
 -1      1038 9.52290E-05-2.84487E-05-2.86202E-05-2.65303E-08 9.01384E-20-8.56765E-19
 -1      1039 9.52501E-05-2.84981E-05-2.86080E-05-1.00236E-08 1.03937E-18-1.36520E-18
 -1      1040 9.52610E-05-2.85322E-05-2.85980E-05 7.91527E-10 2.27586E-18-2.37237E-18
 -1      1041 7.77132E-05-1.39431E-05-2.73304E-05 3.31409E-06 1.84068E-19-1.49359E-18
 -1      1042 9.52663E-05-2.85647E-05-2.85864E-05-5.76791E-09 2.10716E-18-2.45052E-18
 -1      1043 8.58786E-05-2.35775E-05-2.67021E-05 9.55547E-06-1.38072E-18 1.05275E-18
 -1      1044 8.92157E-05-2.33459E-05-2.82309E-05 4.42020E-06 1.01538E-19 1.20357E-18
 -1      1045 9.03019E-05-2.38675E-05-2.84726E-05 3.45296E-06 7.04719E-20 1.30252E-18
 -1      1046 9.12749E-05-2.44773E-05-2.86281E-05 2.69479E-06-4.23681E-19 1.45047E-18
 -1      1047 9.21188E-05-2.51055E-05-2.87204E-05 2.09306E-06-9.10210E-19 2.73814E-18
 -1      1048 9.28310E-05-2.57067E-05-2.87679E-05 1.61312E-06-5.89514E-19 2.67037E-18
 -1      1049 9.34179E-05-2.62543E-05-2.87847E-05 1.23056E-06-6.00951E-19 2.58987E-18
 -1      1050 9.38909E-05-2.67344E-05-2.87816E-05 9.27065E-07-1.58106E-19 2.66741E-18
 -1      1051 9.42643E-05-2.71429E-05-2.87665E-05 6.88178E-07-9.47906E-20 2.63602E-18
 -1      1052 9.45530E-05-2.74818E-05-2.87450E-05 5.02036E-07-1.12374E-18 1.28111E-18
 -1      1053 9.47717E-05-2.77565E-05-2.87209E-05 3.58709E-07-1.10326E-18 1.10536E-18
 -1      1054 9.49337E-05-2.79747E-05-2.86968E-05 2.49828E-07-1.07942E-18 6.68556E-19
 -1      1055 9.50508E-05-2.81445E-05-2.86742E-05 1.68354E-07-2.92723E-19 2.03968E-18
 -1      1056 9.51332E-05-2.82741E-05-2.86539E-05 1.08412E-07-8.65980E-19 1.31421E-18
 -1      1057 9.51890E-05-2.83710E-05-2.86363E-05 6.51557E-08 1.27556E-18 1.63385E-18
 -1      1058 9.52252E-05-2.84420E-05-2.86214E-05 3.46371E-08 1.83423E-18 1.95585E-18
 -1      1059 9.52471E-05-2.84928E-05-2.86090E-05 1.37062E-08 1.15099E-18 3.59124E-18
 -1      1060 9.52587E-05-2.85280E-05-2.85989E-05-2.21491E-11-1.39252E-18 2.71134E-18
 -1      1061 9.52631E-05-2.85471E-05-2.85926E-05-6.64117E-09-7.96660E-19 5.87043E-19
 -1      1062 8.05198E-05-2.38144E-05-2.42785E-05 1.46007E-05-9.56353E-19 1.58531E-18
 -1      1063 7.21474E-05-1.85206E-05-2.29709E-05 1.02254E-05-1.24926E-18 2.70389E-18
 -1      1064 8.69112E-05-2.30328E-05-2.73758E-05 7.33345E-06-1.08465E-18 1.15735E-18
 -1      1065 8.60450E-05-2.60194E-05-2.57273E-05 1.34880E-05-5.74470E-19 6.58809E-19
 -1      1066 8.80645E-05-2.30234E-05-2.78751E-05 5.67062E-06-7.97423E-19 6.25242E-19
 -1      1067 7.13316E-05-1.35915E-05-2.47362E-05-1.07494E-06 2.75667E-19-1.18850E-18
 -1      1068 9.52652E-05-2.85555E-05-2.85899E-05 7.59066E-09 2.69631E-18-1.07306E-18
 -1      1069 7.60069E-05-1.58788E-05-2.57326E-05-8.22850E-06 3.00825E-21-1.19016E-18
 -1      1070 7.40925E-05-1.45957E-05-2.54924E-05 5.17416E-06 5.37269E-19-1.40182E-18
 -1      1071 9.52660E-05-2.85531E-05-2.85912E-05 2.24236E-09 2.07163E-18-3.61337E-18
 -1      1072 7.66291E-05-1.32445E-05-2.71614E-05-1.89542E-07 2.08386E-19-9.69731E-19
 -1      1073 8.34556E-05-2.19053E-05-2.63669E-05-1.32267E-05-3.21063E-19-8.14869E-19
 -1      1074 8.09160E-05-1.89863E-05-2.65430E-05-1.42722E-07-6.58787E-20 1.25939E-18
 -1      1075 8.37858E-05-2.00676E-05-2.73054E-05-3.07267E-07-9.61250E-19 5.61396E-19
 -1      1076 8.61228E-05-2.11472E-05-2.78465E-05-4.39794E-07-9.92625E-19 2.24299E-19
 -1      1077 8.80549E-05-2.22186E-05-2.82163E-05-5.14507E-07 2.65450E-19 3.86367E-19
 -1      1078 8.96199E-05-2.32164E-05-2.84593E-05-5.19669E-07 1.95652E-19 1.20453E-18
 -1      1079 9.08918E-05-2.41318E-05-2.86119E-05-4.84617E-07 2.57168E-19 4.96916E-19
 -1      1080 9.19196E-05-2.49515E-05-2.87009E-05-4.27731E-07 2.20599E-19 2.09567E-19
 -1      1081 9.27422E-05-2.56681E-05-2.87462E-05-3.61816E-07 3.72521E-19 1.01325E-18
 -1      1082 9.33927E-05-2.62808E-05-2.87624E-05-2.95417E-07 1.04853E-18 9.12756E-19
 -1      1083 9.39002E-05-2.67940E-05-2.87599E-05-2.33775E-07 4.11475E-19 1.78802E-18
 -1      1084 9.42901E-05-2.72154E-05-2.87463E-05-1.79665E-07 2.28673E-19 1.96436E-18
 -1      1085 9.45849E-05-2.75553E-05-2.87270E-05-1.34142E-07 2.22575E-19 9.13071E-19
 -1      1086 9.48037E-05-2.78245E-05-2.87054E-05-9.71462E-08 2.83083E-19 6.22518E-19
 -1      1087 9.49627E-05-2.80341E-05-2.86837E-05-6.79673E-08-1.83086E-18 6.59446E-19
 -1      1088 9.50756E-05-2.81943E-05-2.86634E-05-4.55767E-08-1.16426E-18 7.58649E-19
 -1      1089 9.51533E-05-2.83145E-05-2.86452E-05-2.88453E-08-6.40113E-19 1.72384E-21
 -1      1090 9.52048E-05-2.84029E-05-2.86293E-05-1.66814E-08 2.32872E-19-1.42684E-18
 -1      1091 9.52370E-05-2.84666E-05-2.86159E-05-8.10575E-09 1.17307E-18-2.09689E-18
 -1      1092 9.52554E-05-2.85114E-05-2.86046E-05-2.32563E-09 1.56762E-18-5.81727E-19
 -1      1093 8.98366E-05-2.34651E-05-2.84443E-05 1.95969E-06-4.01458E-19 2.21768E-18
 -1      1094 8.84666E-05-2.26651E-05-2.82002E-05 2.59264E-06-1.42778E-19 1.73171E-18
 -1      1095 9.19513E-05-2.49973E-05-2.86941E-05 1.12035E-06-4.72254E-19 1.75199E-18
 -1      1096 9.27371E-05-2.56690E-05-2.87432E-05 8.42441E-07-1.28940E-19 1.03884E-18
 -1      1097 9.33699E-05-2.62578E-05-2.87621E-05 6.28835E-07 1.38118E-19 4.32279E-19
 -1      1098 9.38710E-05-2.67602E-05-2.87616E-05 4.64705E-07-4.66608E-20 3.58581E-19
 -1      1099 9.42608E-05-2.71791E-05-2.87492E-05 3.39018E-07-7.54141E-20-8.44989E-20
 -1      1100 9.45585E-05-2.75208E-05-2.87304E-05 2.43354E-07-1.55710E-18-1.20472E-19
 -1      1101 9.47816E-05-2.77941E-05-2.87089E-05 1.71153E-07-1.79685E-19-1.13454E-19
 -1      1102 9.49451E-05-2.80085E-05-2.86871E-05 1.17241E-07-1.28910E-18-1.25980E-18
 -1      1103 9.50621E-05-2.81737E-05-2.86665E-05 7.75062E-08-7.89289E-19-8.23678E-19
 -1      1104 9.51434E-05-2.82984E-05-2.86479E-05 4.86723E-08-4.71542E-19-6.56211E-20
 -1      1105 9.51978E-05-2.83907E-05-2.86316E-05 2.81402E-08 7.80890E-19 1.80250E-18
 -1      1106 9.52323E-05-2.84575E-05-2.86178E-05 1.38641E-08 5.93521E-19 2.50627E-18
 -1      1107 9.52526E-05-2.85049E-05-2.86062E-05 3.86436E-09 7.38804E-19 7.36000E-19
 -1      1108 8.01988E-05-2.10068E-05-2.53725E-05 9.51731E-06-1.13100E-18 2.29549E-18
 -1      1109 7.34166E-05-1.67299E-05-2.42779E-05 1.18878E-06-3.56129E-19 2.41767E-18
 -1      1110 9.52627E-05-2.85353E-05-2.85974E-05 4.63501E-10 3.10420E-18-2.47544E-18
 -1      1111 9.09913E-05-2.42549E-05-2.86008E-05 1.48307E-06-1.12132E-18 2.23840E-18
 -1      1112 8.29350E-05-2.08892E-05-2.65942E-05 6.25113E-06-1.29728E-18 1.08499E-18
 -1      1113 9.52651E-05-2.85471E-05-2.85935E-05-1.61911E-09 6.17494E-19-3.40775E-18
 -1      1114 8.68861E-05-2.19137E-05-2.78456E-05 3.45714E-06-8.61146E-19 1.13490E-18
 -1      1115 9.52609E-05-2.85305E-05-2.85987E-05-1.10646E-09 9.62274E-21-6.29046E-19
 -1      1116 8.51203E-05-2.13423E-05-2.73295E-05 4.59942E-06-1.07586E-18 6.59096E-19
 -1      1117 8.30672E-05-2.01268E-05-2.69834E-05 2.83330E-06-1.02842E-18 8.51151E-19
 -1      1118 9.52653E-05-2.85503E-05-2.85921E-05-3.93679E-09 2.03506E-19-7.29451E-19
 -1      1119 9.52624E-05-2.85350E-05-2.85975E-05-7.45365E-10 2.18271E-19-2.50313E-18
 -1      1120 7.84943E-05-1.87041E-05-2.56374E-05 3.84951E-06-3.64382E-19 1.95598E-18
 -1      1121 1.19277E-04 2.67536E-10-4.30299E-05-3.96713E-05-2.25734E-19 7.01534E-18
 -1      1122 9.25133E-05 8.19477E-11-3.86870E-05-2.06725E-05-1.18690E-19 8.90073E-19
 -1      1123 8.70945E-05 4.67344E-11-3.69327E-05-1.33096E-05-7.53859E-20-1.70031E-18
 -1      1124 8.38265E-05 3.21299E-11-3.56816E-05-8.87292E-06-5.36278E-20-2.97643E-18
 -1      1125 8.12910E-05 2.27032E-11-3.46824E-05-5.81356E-06-3.09696E-20-3.53687E-18
 -1      1126 7.92829E-05 1.59881E-11-3.38883E-05-3.70647E-06-1.40819E-20-3.78366E-18
 -1      1127 7.78124E-05 1.14034E-11-3.33050E-05-2.26183E-06-3.25578E-21-3.76149E-18
 -1      1128 7.69399E-05 8.95394E-12-3.29572E-05-1.21713E-06 1.01644E-20-3.62300E-18
 -1      1129 7.67257E-05 8.64355E-12-3.28680E-05-3.34698E-07 1.45882E-20-3.40353E-18
 -1      1130 7.71602E-05 1.03475E-11-3.30344E-05 6.32469E-07 3.08638E-20-3.14404E-18
 -1      1131 7.81828E-05 1.38385E-11-3.34340E-05 1.90971E-06 4.00752E-20-2.82918E-18
 -1      1132 7.96897E-05 1.88188E-11-3.40266E-05 3.67390E-06 5.30454E-20-2.30517E-18
 -1      1133 8.16040E-05 2.53958E-11-3.47859E-05 6.11099E-06 6.97743E-20-1.63678E-18
 -1      1134 8.39468E-05 3.41476E-11-3.57192E-05 9.44795E-06 8.39621E-20-4.61937E-19
 -1      1135 8.69703E-05 4.75522E-11-3.69047E-05 1.40315E-05 1.07467E-19 1.41852E-18
 -1      1136 9.19260E-05 7.64441E-11-3.86523E-05 2.09744E-05 9.29619E-20 4.78057E-18
 -1      1137 1.09324E-04 1.75393E-10-4.17924E-05 3.45582E-05 1.24090E-19 1.09723E-17
 -1      1138 1.32668E-04-2.67535E-05-4.14627E-05-2.49577E-05-9.18395E-19 1.09318E-17
 -1      1139 1.03946E-04-3.08356E-05-3.35678E-05-3.08475E-07-3.15149E-19 8.81825E-18
 -1      1140 1.00082E-04-3.00304E-05-3.08453E-05 4.92633E-07-1.11875E-19 5.80278E-18
 -1      1141 1.01303E-04-3.05064E-05-3.05752E-05 3.42498E-07-1.17718E-19 3.53271E-18
 -1      1142 1.04330E-04-3.13881E-05-3.13510E-05 2.82754E-07-4.22607E-20 2.07248E-18
 -1      1143 1.08403E-04-3.25683E-05-3.25335E-05 2.65917E-07-4.47066E-20 1.54197E-18
 -1      1144 1.12907E-04-3.38799E-05-3.38244E-05 2.52218E-07-1.03726E-19 5.73441E-19
 -1      1145 1.17041E-04-3.50818E-05-3.49594E-05 2.03370E-07 4.20373E-21-8.79591E-20
 -1      1146 1.19658E-04-3.58288E-05-3.56021E-05 7.35878E-08 8.47033E-22-3.55860E-19
 -1      1147 1.19320E-04-3.56959E-05-3.53733E-05-1.74988E-07-6.71472E-20-8.09763E-19
 -1      1148 1.14781E-04-3.43271E-05-3.40049E-05-5.24985E-07 1.03484E-19-1.17759E-18
 -1      1149 1.05990E-04-3.17324E-05-3.15908E-05-8.43837E-07 2.69330E-20-1.14868E-18
 -1      1150 9.51502E-05-2.85806E-05-2.87827E-05-8.95314E-07 1.65337E-20-2.35899E-18
 -1      1151 8.66183E-05-2.61339E-05-2.66607E-05-5.14188E-07 2.31015E-20-2.35200E-18
 -1      1152 8.46844E-05-2.55860E-05-2.62003E-05 1.67115E-07 5.14837E-21-2.35089E-18
 -1      1153 9.05339E-05-2.72633E-05-2.76645E-05 7.54936E-07-1.46265E-19-2.50235E-18
 -1      1154 1.01313E-04-3.03793E-05-3.04201E-05 9.42520E-07 1.19598E-20-2.76789E-18
 -1      1155 1.12328E-04-3.36060E-05-3.33635E-05 7.46479E-07-6.37988E-20-2.33622E-18
 -1      1156 1.20026E-04-3.58962E-05-3.55611E-05 3.93869E-07-1.05998E-19-3.46479E-18
 -1      1157 1.23283E-04-3.68912E-05-3.66146E-05 8.74848E-08-6.85104E-20-4.63101E-18
 -1      1158 1.22814E-04-3.67819E-05-3.66182E-05-9.53479E-08-8.09975E-20-5.56356E-18
 -1      1159 1.20016E-04-3.59727E-05-3.59079E-05-1.68425E-07-5.30256E-20-3.71141E-18
 -1      1160 1.16167E-04-3.48420E-05-3.48389E-05-1.74169E-07-3.43524E-20-2.96395E-18
 -1      1161 1.12145E-04-3.36517E-05-3.36776E-05-1.49164E-07-2.44230E-19-3.41230E-18
 -1      1162 1.08440E-04-3.25493E-05-3.25837E-05-1.15552E-07 2.18999E-19-2.26694E-18
 -1      1163 1.05265E-04-3.16006E-05-3.16332E-05-8.39142E-08 1.42110E-19-1.80868E-19
 -1      1164 1.02667E-04-3.08219E-05-3.08489E-05-5.80236E-08-1.08066E-19-7.77325E-19
 -1      1165 1.00612E-04-3.02039E-05-3.02247E-05-3.83591E-08 5.62872E-20-1.27174E-18
 -1      1166 9.90270E-05-2.97260E-05-2.97413E-05-2.41060E-08-1.21717E-19-1.46658E-18
 -1      1167 9.78314E-05-2.93645E-05-2.93754E-05-1.41245E-08 2.18278E-19-1.99659E-18
 -1      1168 9.69477E-05-2.90967E-05-2.91043E-05-7.34414E-09 2.78028E-20-3.67869E-19
 -1      1169 9.63084E-05-2.89025E-05-2.89075E-05-2.88754E-09 2.18448E-19-7.79121E-20
 -1      1170 9.58565E-05-2.87648E-05-2.87680E-05-7.92482E-11 2.40290E-20-2.68298E-18
 -1      1171 9.55459E-05-2.86698E-05-2.86718E-05 1.58338E-09 1.39142E-20-4.12423E-18
 -1      1172 9.53399E-05-2.86066E-05-2.86077E-05 2.46705E-09 2.05708E-19-3.49141E-18
 -1      1173 9.52100E-05-2.85664E-05-2.85670E-05 2.83560E-09-1.23159E-19-2.57697E-18
 -1      1174 9.51341E-05-2.85427E-05-2.85429E-05 2.87663E-09 4.58795E-19-4.16776E-18
 -1      1175 9.50956E-05-2.85305E-05-2.85304E-05 2.72170E-09-1.87653E-19-2.75258E-18
 -1      1176 9.50824E-05-2.85260E-05-2.85258E-05 2.46157E-09 4.06666E-19-2.92376E-18
 -1      1177 9.50854E-05-2.85265E-05-2.85262E-05 2.15744E-09 3.77890E-19-2.91424E-19
 -1      1178 9.50982E-05-2.85300E-05-2.85297E-05 1.84924E-09-2.80618E-19 8.30314E-19
 -1      1179 9.51165E-05-2.85353E-05-2.85350E-05 1.56177E-09-4.63701E-20-2.75268E-19
 -1      1180 9.51373E-05-2.85414E-05-2.85411E-05 1.30891E-09-7.43635E-21-3.81714E-19
 -1      1181 9.51586E-05-2.85476E-05-2.85474E-05 1.09640E-09-3.35612E-19 4.18576E-19
 -1      1182 9.51791E-05-2.85537E-05-2.85535E-05 9.22703E-10-5.97328E-19-3.86514E-18
 -1      1183 9.51979E-05-2.85593E-05-2.85591E-05 7.77291E-10 3.96568E-19-2.15245E-18
 -1      1184 9.52144E-05-2.85642E-05-2.85640E-05 6.33413E-10-2.88600E-19 1.30988E-20
 -1      1185 9.52274E-05-2.85681E-05-2.85678E-05 4.21661E-10 2.38625E-19-4.48225E-19
 -1      1186 9.52355E-05-2.85704E-05-2.85702E-05 5.92927E-13-6.91392E-20-1.95042E-18
 -1      1187 9.52379E-05-2.85714E-05-2.85716E-05-2.68768E-10 6.51214E-19 7.00365E-19
 -1      1188 1.33282E-04-3.82086E-05-3.98451E-05 1.19092E-05-2.07523E-19 1.58730E-17
 -1      1189 1.02634E-04-3.00237E-05-3.31655E-05 6.66706E-07 3.89900E-20 1.38539E-17
 -1      1190 9.92037E-05-2.96000E-05-3.04968E-05 5.57882E-08 5.58843E-20 1.15966E-17
 -1      1191 9.96213E-05-2.98931E-05-3.00596E-05-4.19864E-08 2.77668E-20 1.00573E-17
 -1      1192 1.01594E-04-3.04995E-05-3.05104E-05-8.90308E-08 1.10991E-20 8.91200E-18
 -1      1193 1.04187E-04-3.12556E-05-3.12369E-05-1.25291E-07 7.69902E-20 7.77391E-18
 -1      1194 1.06717E-04-3.19902E-05-3.19420E-05-1.56724E-07 1.02306E-19 7.00793E-18
 -1      1195 1.08495E-04-3.25055E-05-3.24037E-05-1.70876E-07-4.51409E-20 7.04329E-18
 -1      1196 1.08768E-04-3.25835E-05-3.24115E-05-1.44598E-07-5.66718E-20 6.57491E-18
 -1      1197 1.06863E-04-3.20297E-05-3.17985E-05-5.37109E-08 2.80977E-20 5.44184E-18
 -1      1198 1.02506E-04-3.07619E-05-3.05282E-05 1.06944E-07-3.09068E-20 5.49280E-18
 -1      1199 9.62277E-05-2.89239E-05-2.87893E-05 2.98507E-07-1.74436E-20 5.83982E-18
 -1      1200 8.95846E-05-2.69535E-05-2.70205E-05 4.34296E-07 1.19997E-19 5.06409E-18
 -1      1201 8.48079E-05-2.55006E-05-2.57945E-05 4.23586E-07-4.46711E-20 4.54759E-18
 -1      1202 8.38149E-05-2.51528E-05-2.55738E-05 2.43899E-07-1.91046E-20 3.41229E-18
 -1      1203 8.71293E-05-2.61041E-05-2.64718E-05-2.63873E-08 1.32303E-19 2.05824E-18
 -1      1204 9.35593E-05-2.80225E-05-2.81953E-05-2.61576E-07-6.00351E-20 1.88820E-18
 -1      1205 1.00914E-04-3.02450E-05-3.02011E-05-3.73812E-07 1.02560E-19 2.04670E-18
 -1      1206 1.07159E-04-3.21407E-05-3.19562E-05-3.58456E-07 2.61439E-20 8.08122E-19
 -1      1207 1.11166E-04-3.33570E-05-3.31339E-05-2.65566E-07 1.69585E-19 8.44704E-19
 -1      1208 1.12778E-04-3.38444E-05-3.36549E-05-1.52792E-07 2.56241E-19 4.11162E-19
 -1      1209 1.12455E-04-3.37451E-05-3.36182E-05-5.71789E-08-2.80217E-19 1.08868E-18
 -1      1210 1.10870E-04-3.32660E-05-3.31993E-05 7.97159E-09-1.14787E-19 5.19641E-19
 -1      1211 1.08645E-04-3.25957E-05-3.25735E-05 4.43286E-08 1.73616E-19-1.68971E-18
 -1      1212 1.06240E-04-3.18728E-05-3.18779E-05 5.94408E-08-1.64789E-19-1.36535E-18
 -1      1213 1.03945E-04-3.11839E-05-3.12030E-05 6.12234E-08 2.34208E-20 2.88505E-18
 -1      1214 1.01913E-04-3.05746E-05-3.05987E-05 5.58306E-08 7.23551E-20 2.26692E-18
 -1      1215 1.00204E-04-3.00625E-05-3.00866E-05 4.73483E-08-1.71807E-19 9.41007E-19
 -1      1216 9.88232E-05-2.96484E-05-2.96701E-05 3.81931E-08-3.32695E-19 2.06360E-18
 -1      1217 9.77414E-05-2.93241E-05-2.93423E-05 2.96384E-08 2.44209E-20 2.46561E-18
 -1      1218 9.69178E-05-2.90770E-05-2.90916E-05 2.22491E-08 3.30577E-20 2.01506E-18
 -1      1219 9.63073E-05-2.88938E-05-2.89052E-05 1.61849E-08 2.49874E-19 1.02016E-18
 -1      1220 9.58673E-05-2.87617E-05-2.87702E-05 1.13927E-08-2.51053E-19 3.25572E-18
 -1      1221 9.55600E-05-2.86693E-05-2.86756E-05 7.72115E-09-8.24334E-20 1.52015E-18
 -1      1222 9.53532E-05-2.86071E-05-2.86116E-05 4.98617E-09-2.42983E-19-1.11604E-19
 -1      1223 9.52210E-05-2.85672E-05-2.85703E-05 3.00476E-09-7.57528E-20-9.81518E-19
 -1      1224 9.51425E-05-2.85435E-05-2.85455E-05 1.61165E-09 5.77542E-20-3.52840E-18
 -1      1225 9.51017E-05-2.85311E-05-2.85324E-05 6.65736E-10-1.75578E-20-4.05290E-18
 -1      1226 9.50866E-05-2.85265E-05-2.85272E-05 5.09822E-11 3.56816E-19-3.98010E-18
 -1      1227 9.50882E-05-2.85268E-05-2.85272E-05-3.25414E-10-3.38681E-19-5.34293E-18
 -1      1228 9.51001E-05-2.85303E-05-2.85304E-05-5.36107E-10 1.94141E-19-5.75833E-18
 -1      1229 9.51177E-05-2.85355E-05-2.85355E-05-6.37050E-10-3.91771E-19-3.12626E-18
 -1      1230 9.51380E-05-2.85416E-05-2.85415E-05-6.70844E-10-4.36153E-19-6.22123E-19
 -1      1231 9.51590E-05-2.85478E-05-2.85477E-05-6.69723E-10 5.11785E-19 6.11639E-19
 -1      1232 9.51793E-05-2.85539E-05-2.85537E-05-6.57656E-10-1.72071E-19-2.16288E-18
 -1      1233 9.51981E-05-2.85594E-05-2.85593E-05-6.50408E-10 1.46584E-19-6.90010E-18
 -1      1234 9.52144E-05-2.85643E-05-2.85641E-05-6.51500E-10 2.73312E-19-8.41939E-18
 -1      1235 9.52274E-05-2.85681E-05-2.85678E-05-6.22824E-10 1.53583E-20-6.32295E-18
 -1      1236 9.52356E-05-2.85706E-05-2.85703E-05-3.99005E-10 5.86561E-19-5.71692E-18
 -1      1237 9.52378E-05-2.85714E-05-2.85716E-05 2.30875E-10-1.69965E-19-4.38291E-18
 -1      1238 9.52369E-05-2.85705E-05-2.85716E-05 1.99849E-10-4.65970E-18-7.73837E-19
 -1      1239 9.52378E-05-2.85729E-05-2.85702E-05-4.18831E-12-4.77392E-18 4.93380E-20
 -1      1240 9.52401E-05-2.85807E-05-2.85679E-05-4.64327E-10 2.04039E-18-6.50785E-20
 -1      1241 9.52434E-05-2.85920E-05-2.85648E-05-5.98310E-10 4.29921E-18-3.09200E-19
 -1      1242 9.52471E-05-2.86043E-05-2.85613E-05-5.76615E-10 8.04218E-18 1.90935E-19
 -1      1243 9.52504E-05-2.86155E-05-2.85580E-05-4.72095E-10 5.43631E-18-1.34490E-18
 -1      1244 9.52530E-05-2.86244E-05-2.85555E-05-3.37118E-10 2.13213E-18-5.07148E-19
 -1      1245 9.52547E-05-2.86302E-05-2.85538E-05-1.72657E-10-4.66169E-18-4.93780E-19
 -1      1246 9.52553E-05-2.86321E-05-2.85532E-05 5.46816E-13-1.02574E-17 2.01812E-19
 -1      1247 9.52547E-05-2.86301E-05-2.85538E-05 1.74076E-10-3.07602E-18 6.61541E-19
 -1      1248 9.52530E-05-2.86244E-05-2.85555E-05 3.38908E-10-4.79775E-18-7.83210E-19
 -1      1249 9.52503E-05-2.86154E-05-2.85581E-05 4.82209E-10-6.29748E-18 4.41735E-19
 -1      1250 9.52470E-05-2.86042E-05-2.85613E-05 5.79523E-10-7.41590E-18 7.20410E-19
 -1      1251 9.52434E-05-2.85919E-05-2.85648E-05 6.08604E-10 3.24080E-19 7.27388E-20
 -1      1252 9.52400E-05-2.85804E-05-2.85680E-05 5.54268E-10-9.18634E-19-3.15091E-19
 -1      1253 9.52380E-05-2.85730E-05-2.85702E-05-1.24012E-10-7.97547E-19-1.25362E-18
 -1      1254 9.52369E-05-2.85704E-05-2.85716E-05-2.10143E-10-4.09836E-19 6.24613E-19
 -1      1255 3.50319E-05-1.08780E-04 1.82959E-05-1.32483E-05 4.31013E-18 1.40528E-18
 -1      1256 1.72635E-05-6.41328E-05 9.44718E-06-2.35838E-05 1.30917E-17 5.44219E-18
 -1      1257 9.15742E-06-6.19038E-06-7.45824E-06 4.18407E-06 2.02068E-17 1.32434E-17
 -1      1258 4.11096E-05 2.43932E-05-2.80758E-05 5.88356E-05 1.88431E-17 1.85416E-17
 -1      1259 1.19100E-04 8.46143E-06-4.87404E-05 1.03142E-04 1.14824E-17 1.71541E-17
 -1      1260 2.17920E-04-3.91793E-05-6.56781E-05 1.06089E-04 5.15420E-18 1.23082E-17
 -1      1261 2.93654E-04-8.40037E-05-7.58772E-05 5.40283E-05 1.36764E-18 3.63462E-18
 -1      1262 3.06385E-04-9.18066E-05-7.74783E-05-2.85771E-05 1.18971E-18-6.30658E-18
 -1      1263 2.48824E-04-5.62401E-05-7.01212E-05-9.49227E-05 4.65508E-18-1.45639E-17
 -1      1264 1.50110E-04-4.20240E-06-5.47572E-05-1.09545E-04 9.82050E-18-1.72659E-17
 -1      1265 6.09078E-05 2.56873E-05-3.49744E-05-7.70552E-05 1.46113E-17-1.67577E-17
 -1      1266 1.41350E-05 1.21775E-05-1.53075E-05-2.34933E-05 1.55278E-17-1.21236E-17
 -1      1267 1.05283E-05-3.87472E-05 3.12159E-06 1.73314E-05 1.18822E-17-6.04697E-18
 -1      1268 2.91925E-05-9.54755E-05 1.56472E-05 2.20288E-05 5.49386E-18-1.63456E-18
 -1      1269 3.60251E-05-1.12637E-04 1.93734E-05-3.71813E-06-3.38390E-18-1.06896E-18
 -1      1270 2.50360E-05-8.62697E-05 1.38351E-05-2.56819E-05-1.30189E-17-3.80593E-18
 -1      1271 8.54202E-06-2.83995E-05 1.14658E-07-1.34924E-05-1.75810E-17-9.38089E-18
 -1      1272 1.95009E-05 1.71979E-05-1.89408E-05 3.27499E-05-1.67628E-17-1.39193E-17
 -1      1273 7.62112E-05 2.23320E-05-3.93197E-05 8.65468E-05-1.25734E-17-1.54905E-17
 -1      1274 1.72405E-04-1.42600E-05-5.85727E-05 1.12648E-04-8.11542E-18-1.57972E-17
 -1      1275 2.67883E-04-6.56614E-05-7.30470E-05 8.36406E-05-3.25239E-18-9.13356E-18
 -1      1276 3.16229E-04-9.56469E-05-7.89475E-05 9.07256E-06-3.60889E-19 4.74338E-19
 -1      1277 2.85463E-04-7.76029E-05-7.50654E-05-7.02346E-05-2.47704E-18 9.80102E-18
 -1      1278 2.00848E-04-2.97504E-05-6.32225E-05-1.10398E-04-7.44161E-18 1.64324E-17
 -1      1279 1.02286E-04 1.41512E-05-4.53537E-05-9.83367E-05-1.42606E-17 1.96952E-17
 -1      1280 3.10811E-05 2.29941E-05-2.46597E-05-4.85086E-05-2.09929E-17 1.95089E-17
 -1      1281 7.02964E-06-1.02421E-05-5.42598E-06 2.58626E-06-2.06608E-17 1.37118E-17
 -1      1282 1.73127E-05-6.53872E-05 9.61699E-06 2.63098E-05-1.52017E-17 5.27405E-18
 -1      1283 3.38183E-05-1.06914E-04 1.82247E-05 1.44963E-05-8.29203E-18 1.95141E-18
 -1      1284 1.08951E-04-2.31478E-05-3.92861E-05-1.55359E-05-3.47601E-19 5.67067E-18
 -1      1285 9.47878E-05-7.67518E-06-3.74635E-05-1.65419E-05-8.96478E-19-3.05938E-19
 -1      1286 9.75388E-05-7.90703E-06-3.86945E-05-2.23005E-05-1.19696E-18 1.05678E-18
 -1      1287 8.89218E-05-4.60695E-06-3.61973E-05-1.17128E-05-8.17916E-19-2.27571E-18
 -1      1288 9.09398E-05-4.65975E-06-3.68952E-05-1.44378E-05-9.90023E-19-1.42889E-18
 -1      1289 9.66825E-05-1.17012E-05-3.64749E-05-1.47750E-05-1.54419E-18-2.72956E-19
 -1      1290 8.51192E-05-3.18437E-06-3.51498E-05-7.93774E-06-6.28498E-19-3.21446E-18
 -1      1291 8.66796E-05-3.19501E-06-3.56973E-05-9.75918E-06-7.31201E-19-2.79336E-18
 -1      1292 9.04914E-05-7.78937E-06-3.55098E-05-1.06577E-05-1.26901E-18-1.88216E-18
 -1      1293 8.21394E-05-2.24601E-06-3.42693E-05-5.21556E-06-4.07449E-19-3.67645E-18
 -1      1294 8.34044E-05-2.25958E-06-3.47158E-05-6.49788E-06-4.77409E-19-3.48770E-18
 -1      1295 8.61609E-05-5.49927E-06-3.46312E-05-7.25654E-06-9.00065E-19-2.69176E-18
 -1      1296 7.98403E-05-1.57654E-06-3.35697E-05-3.33456E-06-2.14193E-19-3.82045E-18
 -1      1297 8.08083E-05-1.58871E-06-3.39129E-05-4.21958E-06-2.69277E-19-3.75168E-18
 -1      1298 8.28407E-05-3.93327E-06-3.38693E-05-4.78848E-06-5.65381E-19-3.05808E-18
 -1      1299 7.82016E-05-1.11777E-06-3.30618E-05-1.99872E-06-6.90464E-20-3.75479E-18
 -1      1300 7.88605E-05-1.12714E-06-3.32979E-05-2.63692E-06-1.05694E-19-3.83429E-18
 -1      1301 8.03306E-05-2.83573E-06-3.32570E-05-3.05256E-06-2.73631E-19-3.20979E-18
 -1      1302 7.73429E-05-8.74951E-07-3.27903E-05-1.00498E-06 1.70131E-19-3.58368E-18
 -1      1303 7.76400E-05-8.78486E-07-3.28999E-05-1.50358E-06 9.17443E-20-3.64754E-18
 -1      1304 7.86665E-05-2.15242E-06-3.28330E-05-1.80307E-06-1.79862E-20-3.06480E-18
 -1      1305 7.72956E-05-8.47531E-07-3.27689E-05-1.05565E-07 3.33182E-19-3.37976E-18
 -1      1306 7.72220E-05-8.44812E-07-3.27482E-05-5.86969E-07 2.64261E-19-3.51497E-18
 -1      1307 7.79357E-05-1.88525E-06-3.26331E-05-8.23451E-07 3.65228E-19-2.92649E-18
 -1      1308 7.80258E-05-1.02232E-06-3.29899E-05 9.37842E-07 5.20740E-19-3.09984E-18
 -1      1309 7.76042E-05-1.01423E-06-3.28457E-05 3.58395E-07 4.44467E-19-3.27268E-18
 -1      1310 7.81476E-05-2.02000E-06-3.26670E-05 1.27743E-07 6.31764E-19-2.74580E-18
 -1      1311 7.94429E-05-1.37628E-06-3.34270E-05 2.33789E-06 6.68997E-19-2.74196E-18
 -1      1312 7.87202E-05-1.36366E-06-3.31746E-05 1.55837E-06 6.45598E-19-2.95834E-18
 -1      1313 7.92407E-05-2.52230E-06-3.29229E-05 1.27785E-06 9.30019E-19-2.45724E-18
 -1      1314 8.13946E-05-1.87349E-06-3.40316E-05 4.23718E-06 8.87002E-19-2.22243E-18
 -1      1315 8.04439E-05-1.86328E-06-3.36961E-05 3.19164E-06 7.97005E-19-2.51439E-18
 -1      1316 8.10854E-05-3.34204E-06-3.33661E-05 2.80770E-06 1.20529E-18-2.07231E-18
 -1      1317 8.38683E-05-2.52892E-06-3.47938E-05 6.86513E-06 1.08656E-18-1.43682E-18
 -1      1318 8.26879E-05-2.52128E-06-3.43746E-05 5.42722E-06 9.86688E-19-1.89702E-18
 -1      1319 8.35771E-05-4.46505E-06-3.39599E-05 4.88861E-06 1.50389E-18-1.50126E-18
 -1      1320 8.68803E-05-3.39000E-06-3.57046E-05 1.03914E-05 1.22942E-18-2.20440E-19
 -1      1321 8.54516E-05-3.39318E-06-3.51944E-05 8.45424E-06 1.11327E-18-9.66200E-19
 -1      1322 8.67215E-05-5.96663E-06-3.46739E-05 7.69257E-06 1.76588E-18-7.01608E-19
 -1      1323 9.08678E-05-4.69370E-06-3.68428E-05 1.51751E-05 1.27976E-18 1.84023E-18
 -1      1324 8.89517E-05-4.70259E-06-3.61665E-05 1.24506E-05 1.18267E-18 6.22913E-19
 -1      1325 9.07345E-05-8.11187E-06-3.54812E-05 1.13615E-05 1.91026E-18 6.75085E-19
 -1      1326 9.78409E-05-7.83005E-06-3.84770E-05 2.22017E-05 1.01379E-18 5.33784E-18
 -1      1327 9.43231E-05-7.37855E-06-3.73889E-05 1.76743E-05 1.03730E-18 3.23170E-18
 -1      1328 9.66622E-05-1.19157E-05-3.63659E-05 1.59140E-05 1.86006E-18 2.87896E-18
 -1      1329 1.26953E-04-2.58793E-05-4.02167E-05 2.68082E-05 3.43366E-19 1.13242E-17
 -1      1330 1.04471E-04-1.55881E-05-3.86985E-05 2.17489E-05 4.06893E-19 7.26447E-18
 -1      1331 1.06712E-04-2.09471E-05-3.68249E-05 1.83838E-05 1.53821E-18 6.02855E-18
 -1      1332 1.07551E-04-2.94039E-05-3.61826E-05 5.83760E-06 7.25695E-19 1.11751E-17
 -1      1333 1.11055E-04-3.20979E-05-3.52416E-05-6.11409E-06-9.84676E-19 6.03310E-18
 -1      1334 1.05712E-04-3.01807E-05-3.29096E-05-3.39576E-06-9.08813E-19 4.87986E-18
 -1      1335 1.03882E-04-3.03706E-05-3.17489E-05-8.91669E-07-7.46792E-19 4.45636E-18
 -1      1336 1.03178E-04-3.05293E-05-3.11717E-05-4.65166E-07-7.56506E-19 3.30226E-18
 -1      1337 1.06846E-04-3.03467E-05-3.31500E-05-4.80609E-06-1.58639E-18 2.52371E-18
 -1      1338 1.02647E-04-3.04843E-05-3.09138E-05 8.16896E-07-6.17229E-19 2.94021E-18
 -1      1339 1.03521E-04-3.08653E-05-3.10892E-05 9.60492E-07-5.94141E-19 2.06650E-18
 -1      1340 1.04153E-04-3.05778E-05-3.16664E-05 4.10349E-08-1.28823E-18 1.83797E-18
 -1      1341 1.04054E-04-3.10497E-05-3.12480E-05 1.64713E-06-3.70504E-19 1.68771E-18
 -1      1342 1.05718E-04-3.16147E-05-3.17243E-05 1.74592E-06-3.37979E-19 1.18013E-18
 -1      1343 1.04326E-04-3.09681E-05-3.14819E-05 2.36858E-06-9.12466E-19 1.23041E-18
 -1      1344 1.06847E-04-3.19629E-05-3.20731E-05 2.11129E-06-1.94411E-19 1.02401E-18
 -1      1345 1.08901E-04-3.26436E-05-3.26665E-05 2.16155E-06-2.96232E-19 7.27734E-19
 -1      1346 1.05987E-04-3.16272E-05-3.18932E-05 3.64168E-06-5.79691E-19 6.30676E-19
 -1      1347 1.10318E-04-3.30941E-05-3.30880E-05 2.22675E-06-3.57175E-19 6.67383E-19
 -1      1348 1.12404E-04-3.38001E-05-3.36797E-05 2.20544E-06-3.18359E-19 1.42063E-19
 -1      1349 1.08518E-04-3.25455E-05-3.25710E-05 4.18721E-06-5.41617E-19 3.21826E-19
 -1      1350 1.13809E-04-3.42788E-05-3.40733E-05 1.87840E-06 4.68184E-21 1.96194E-19
 -1      1351 1.15455E-04-3.48680E-05-3.45240E-05 1.74641E-06-1.19379E-20 1.83131E-19
 -1      1352 1.11362E-04-3.36245E-05-3.33042E-05 3.91379E-06-2.61118E-19 3.19636E-19
 -1      1353 1.16491E-04-3.52742E-05-3.47775E-05 9.05378E-07 6.11452E-21 2.17476E-19
 -1      1354 1.17075E-04-3.55380E-05-3.49142E-05 6.23151E-07-1.41143E-19 9.13555E-20
 -1      1355 1.13895E-04-3.46938E-05-3.38964E-05 2.56180E-06-1.09294E-19 5.71244E-19
 -1      1356 1.17337E-04-3.57299E-05-3.49147E-05-7.65098E-07-1.15031E-19 3.57474E-20
 -1      1357 1.16209E-04-3.54185E-05-3.45726E-05-1.19708E-06-2.59377E-19-1.37802E-19
 -1      1358 1.15363E-04-3.54682E-05-3.41506E-05-7.39952E-08-1.93349E-19 5.36698E-19
 -1      1359 1.15333E-04-3.52240E-05-3.42508E-05-2.89096E-06-1.83793E-19-1.96168E-19
 -1      1360 1.12161E-04-3.41598E-05-3.33720E-05-3.36659E-06-6.52943E-20-3.80106E-19
 -1      1361 1.14957E-04-3.55259E-05-3.39185E-05-3.78582E-06-3.38721E-19 7.24273E-19
 -1      1362 1.10070E-04-3.34626E-05-3.27667E-05-4.70069E-06 3.44835E-20-4.89797E-19
 -1      1363 1.05341E-04-3.17519E-05-3.15177E-05-4.97340E-06-2.50877E-19-8.15587E-19
 -1      1364 1.12143E-04-3.44412E-05-3.31903E-05-7.52382E-06-1.83852E-19 1.85699E-19
 -1      1365 1.02555E-04-3.06731E-05-3.08136E-05-5.02393E-06-3.96157E-19-1.06350E-18
 -1      1366 9.78419E-05-2.88782E-05-2.96167E-05-4.81467E-06-4.10361E-19-1.47574E-18
 -1      1367 1.07268E-04-3.21726E-05-3.21647E-05-9.34517E-06-5.09199E-19-1.42460E-19
 -1      1368 9.55535E-05-2.79091E-05-2.90957E-05-3.06806E-06 6.29981E-21-1.67093E-18
 -1      1369 9.29907E-05-2.68979E-05-2.84635E-05-2.34289E-06-2.20784E-19-1.67061E-18
 -1      1370 1.02052E-04-2.95117E-05-3.12204E-05-7.37804E-06-3.93169E-19-8.92190E-19
 -1      1371 9.24849E-05-2.66627E-05-2.83617E-05 5.79721E-07-2.11004E-19-1.90725E-18
 -1      1372 9.34456E-05-2.70271E-05-2.86062E-05 1.45224E-06-3.03794E-19-2.06980E-18
 -1      1373 9.91331E-05-2.79385E-05-3.07533E-05-1.64223E-06-5.70847E-19-1.46761E-18
 -1      1374 9.50898E-05-2.77145E-05-2.89850E-05 4.01171E-06-3.70842E-19-2.15236E-18
 -1      1375 9.91527E-05-2.92693E-05-3.00127E-05 4.53227E-06-3.10385E-19-2.55126E-18
 -1      1376 1.00305E-04-2.85025E-05-3.09787E-05 5.13639E-06-5.49592E-19-2.07395E-18
 -1      1377 1.02066E-04-3.04328E-05-3.07217E-05 5.48958E-06 8.26006E-20-2.55486E-18
 -1      1378 1.07349E-04-3.23839E-05-3.20961E-05 5.46252E-06 6.73540E-20-2.53321E-18
 -1      1379 1.05005E-04-3.08747E-05-3.18325E-05 9.40006E-06-1.07653E-19-2.40028E-18
 -1      1380 1.10170E-04-3.33993E-05-3.28595E-05 4.74289E-06-3.38734E-19-2.88049E-18
 -1      1381 1.14661E-04-3.49643E-05-3.40763E-05 4.34497E-06-3.26353E-19-2.99024E-18
 -1      1382 1.10816E-04-3.36514E-05-3.29987E-05 9.55541E-06-3.10034E-19-2.77814E-18
 -1      1383 1.16462E-04-3.55000E-05-3.46414E-05 2.74534E-06-2.47148E-19-3.21227E-18
 -1      1384 1.19056E-04-3.63240E-05-3.53834E-05 2.26761E-06-2.82353E-19-3.73248E-18
 -1      1385 1.15349E-04-3.55734E-05-3.40638E-05 6.62305E-06-4.82954E-19-3.36309E-18
 -1      1386 1.19608E-04-3.63870E-05-3.56269E-05 6.48904E-07-3.27305E-19-3.54301E-18
 -1      1387 1.20236E-04-3.65178E-05-3.58364E-05 2.77961E-07-5.58651E-19-4.14743E-18
 -1      1388 1.17496E-04-3.62413E-05-3.47100E-05 2.69658E-06-5.10404E-19-3.10942E-18
 -1      1389 1.19765E-04-3.62634E-05-3.57704E-05-8.94270E-07-1.37643E-20-4.09829E-18
 -1      1390 1.18944E-04-3.59290E-05-3.55642E-05-1.10937E-06 8.75488E-20-3.82337E-18
 -1      1391 1.17360E-04-3.59269E-05-3.48268E-05-6.38873E-07-4.51932E-19-2.47933E-18
 -1      1392 1.17826E-04-3.55128E-05-3.52770E-05-1.75242E-06 3.26809E-19-3.42254E-18
 -1      1393 1.16199E-04-3.49461E-05-3.48261E-05-1.83858E-06 3.49990E-19-3.10905E-18
 -1      1394 1.15617E-04-3.50766E-05-3.44834E-05-2.77310E-06 6.58800E-19-2.74050E-18
 -1      1395 1.14779E-04-3.44774E-05-3.44209E-05-2.06386E-06 1.26414E-19-2.67604E-18
 -1      1396 1.12859E-04-3.38452E-05-3.38729E-05-2.06768E-06 6.50611E-20-2.31789E-18
 -1      1397 1.13006E-04-3.40372E-05-3.38371E-05-3.77349E-06 4.49113E-19-2.49756E-18
 -1      1398 1.11385E-04-3.33886E-05-3.34330E-05-2.02931E-06 2.69649E-19-2.17875E-18
 -1      1399 1.09499E-04-3.27875E-05-3.28863E-05-1.99012E-06 4.15612E-19-2.21796E-18
 -1      1400 1.10101E-04-3.30073E-05-3.30492E-05-3.96961E-06 3.92309E-19-1.04563E-18
 -1      1401 1.08120E-04-3.23759E-05-3.24655E-05-1.81524E-06 7.70338E-19-1.55473E-18
 -1      1402 1.06437E-04-3.18511E-05-3.19732E-05-1.75899E-06 7.34856E-19-5.19463E-19
 -1      1403 1.07275E-04-3.20798E-05-3.22426E-05-3.69794E-06 1.21267E-18-1.67223E-19
 -1      1404 1.05228E-04-3.14981E-05-3.15997E-05-1.53209E-06 1.42184E-19-1.72477E-19
 -1      1405 1.03813E-04-3.10635E-05-3.11831E-05-1.47346E-06 1.90467E-19 1.43149E-19
 -1      1406 1.04731E-04-3.12879E-05-3.14935E-05-3.20816E-06 6.67910E-19-2.51726E-19
 -1      1407 1.02798E-04-3.07712E-05-3.08678E-05-1.24309E-06 1.04888E-19-6.54512E-19
 -1      1408 1.01654E-04-3.04241E-05-3.05299E-05-1.18928E-06 1.64996E-19-5.52490E-19
 -1      1409 1.02553E-04-3.06345E-05-3.08396E-05-2.65620E-06-5.39107E-20-4.59797E-19
 -1      1410 1.00830E-04-3.01885E-05-3.02729E-05-9.79589E-07-9.45881E-20-6.66714E-19
 -1      1411 9.99327E-05-2.99188E-05-3.00070E-05-9.33448E-07-2.86195E-19-7.32452E-19
 -1      1412 1.00756E-04-3.01088E-05-3.02929E-05-2.12693E-06-1.54416E-19-2.77438E-19
 -1      1413 9.92796E-05-2.97331E-05-2.98033E-05-7.53969E-07-1.65531E-19-8.33398E-19
 -1      1414 9.85927E-05-2.95282E-05-2.95991E-05-7.16021E-07-3.32562E-19-9.40991E-19
 -1      1415 9.93143E-05-2.96944E-05-2.98502E-05-1.65949E-06-2.34038E-19-7.80982E-19
 -1      1416 9.80866E-05-2.93847E-05-2.94412E-05-5.68361E-07-5.35864E-20-7.81338E-19
 -1      1417 9.75716E-05-2.92322E-05-2.92878E-05-5.38042E-07 7.18423E-19-1.12899E-19
 -1      1418 9.81834E-05-2.93738E-05-2.95006E-05-1.26668E-06-2.42328E-19 3.11937E-19
 -1      1419 9.71870E-05-2.91234E-05-2.91678E-05-4.19933E-07 5.75861E-19-1.45278E-19
 -1      1420 9.68088E-05-2.90122E-05-2.90549E-05-3.96240E-07-9.08989E-20 1.46153E-19
 -1      1421 9.73143E-05-2.91300E-05-2.92305E-05-9.47476E-07 5.89851E-19 1.11518E-18
 -1      1422 9.65221E-05-2.89313E-05-2.89655E-05-3.03833E-07-5.34910E-19 1.86608E-19
 -1      1423 9.62503E-05-2.88520E-05-2.88841E-05-2.85663E-07-7.50258E-19 1.39638E-19
 -1      1424 9.66590E-05-2.89479E-05-2.90259E-05-6.94508E-07-6.65506E-19 7.33311E-19
 -1      1425 9.60410E-05-2.87929E-05-2.88189E-05-2.14722E-07-6.71854E-19-1.63435E-18
 -1      1426 9.58504E-05-2.87378E-05-2.87616E-05-2.01030E-07-6.74338E-19-2.47453E-18
 -1      1427 9.61745E-05-2.88145E-05-2.88738E-05-4.98090E-07-2.05687E-18-7.04698E-19
 -1      1428 9.57009E-05-2.86958E-05-2.87151E-05-1.47528E-07-7.91955E-20-2.24679E-18
 -1      1429 9.55712E-05-2.86587E-05-2.86760E-05-1.37390E-07-4.58655E-20-2.92191E-18
 -1      1430 9.58236E-05-2.87188E-05-2.87632E-05-3.48343E-07-6.71994E-19-1.70059E-18
 -1      1431 9.54672E-05-2.86295E-05-2.86436E-05-9.77543E-08 1.99014E-19-2.64915E-18
 -1      1432 9.53824E-05-2.86056E-05-2.86179E-05-9.03887E-08 4.77392E-19-2.04147E-18
 -1      1433 9.55754E-05-2.86519E-05-2.86845E-05-2.36176E-07 2.18293E-19-2.00532E-18
 -1      1434 9.53124E-05-2.85860E-05-2.85961E-05-6.15812E-08-7.03434E-19-2.42670E-18
 -1      1435 9.52599E-05-2.85716E-05-2.85801E-05-5.63428E-08-8.44812E-19-3.46055E-18
 -1      1436 9.54049E-05-2.86066E-05-2.86301E-05-1.53676E-07 8.48363E-20-2.81055E-18
 -1      1437 9.52149E-05-2.85590E-05-2.85661E-05-3.58504E-08 8.27863E-19-3.66970E-18
 -1      1438 9.51853E-05-2.85512E-05-2.85570E-05-3.22177E-08 9.45969E-19-2.36060E-18
 -1      1439 9.52919E-05-2.85771E-05-2.85937E-05-9.41943E-08-3.23112E-19-3.44917E-18
 -1      1440 9.51582E-05-2.85437E-05-2.85486E-05-1.80047E-08 2.07313E-19-2.19789E-18
 -1      1441 9.51444E-05-2.85404E-05-2.85441E-05-1.55634E-08-1.03617E-20-2.52035E-18
 -1      1442 9.52210E-05-2.85592E-05-2.85705E-05-5.22747E-08 1.87289E-19-3.22510E-18
 -1      1443 9.51299E-05-2.85365E-05-2.85396E-05-6.01023E-09 3.89855E-21-1.60651E-18
 -1      1444 9.51265E-05-2.85361E-05-2.85384E-05-4.43609E-09 1.23069E-18-1.05596E-18
 -1      1445 9.51799E-05-2.85493E-05-2.85568E-05-2.35301E-08 7.91477E-19-1.15965E-18
 -1      1446 9.51206E-05-2.85346E-05-2.85366E-05 1.72508E-09 1.14184E-18-1.51338E-18
 -1      1447 9.51238E-05-2.85361E-05-2.85373E-05 2.68181E-09-3.06185E-20-4.45200E-19
 -1      1448 9.51596E-05-2.85449E-05-2.85496E-05-4.49151E-09 1.10189E-18-1.30160E-18
 -1      1449 9.51236E-05-2.85361E-05-2.85373E-05 6.42616E-09-2.22235E-19 1.27150E-19
 -1      1450 9.51307E-05-2.85387E-05-2.85392E-05 6.95435E-09 4.29303E-19 1.92197E-19
 -1      1451 9.51533E-05-2.85443E-05-2.85470E-05 7.53794E-09 7.83493E-19-9.88999E-19
 -1      1452 9.51340E-05-2.85397E-05-2.85403E-05 9.01718E-09-3.95452E-19 1.83319E-19
 -1      1453 9.51433E-05-2.85428E-05-2.85429E-05 9.25647E-09-7.59551E-19-8.24141E-19
 -1      1454 9.51560E-05-2.85459E-05-2.85474E-05 1.46168E-08-1.98147E-19-6.71580E-19
 -1      1455 9.51486E-05-2.85444E-05-2.85446E-05 1.01774E-08 6.78238E-19-2.94403E-19
 -1      1456 9.51587E-05-2.85476E-05-2.85475E-05 1.02275E-08 6.18438E-19 2.07313E-19
 -1      1457 9.51642E-05-2.85489E-05-2.85495E-05 1.82807E-08 3.93638E-19-1.22091E-19
 -1      1458 9.51650E-05-2.85495E-05-2.85494E-05 1.03856E-08-7.56743E-19 1.39001E-18
 -1      1459 9.51750E-05-2.85527E-05-2.85524E-05 1.03135E-08-7.29533E-19 6.17824E-19
 -1      1460 9.51753E-05-2.85527E-05-2.85526E-05 1.96380E-08 5.44395E-19 9.00384E-19
 -1      1461 9.51816E-05-2.85546E-05-2.85544E-05 9.95387E-09-7.82213E-19-9.29218E-19
 -1      1462 9.51911E-05-2.85576E-05-2.85572E-05 9.79838E-09 2.78428E-20-1.81622E-18
 -1      1463 9.51878E-05-2.85566E-05-2.85562E-05 1.94436E-08-9.88602E-19 6.03487E-19
 -1      1464 9.51974E-05-2.85595E-05-2.85591E-05 9.04887E-09 1.03132E-18-2.13941E-18
 -1      1465 9.52060E-05-2.85622E-05-2.85616E-05 8.82240E-09 9.89339E-19 2.24841E-19
 -1      1466 9.52003E-05-2.85606E-05-2.85598E-05 1.81518E-08 3.97083E-19 6.38988E-19
 -1      1467 9.52117E-05-2.85639E-05-2.85633E-05 7.70347E-09 2.85206E-20 2.26324E-20
 -1      1468 9.52188E-05-2.85661E-05-2.85654E-05 7.38986E-09-3.44430E-19-3.31180E-19
 -1      1469 9.52120E-05-2.85643E-05-2.85632E-05 1.59511E-08 1.16219E-18 3.77659E-19
 -1      1470 9.52235E-05-2.85676E-05-2.85668E-05 5.83298E-09 6.39819E-19-3.97898E-19
 -1      1471 9.52288E-05-2.85693E-05-2.85683E-05 5.38092E-09 3.12837E-20 1.66905E-19
 -1      1472 9.52221E-05-2.85676E-05-2.85661E-05 1.27845E-08-8.23242E-20 5.45511E-19
 -1      1473 9.52322E-05-2.85705E-05-2.85693E-05 3.27107E-09-3.05010E-19-2.30886E-20
 -1      1474 9.52349E-05-2.85712E-05-2.85701E-05 2.67782E-09 2.81083E-19 3.44751E-19
 -1      1475 9.52301E-05-2.85704E-05-2.85683E-05 8.49763E-09 5.96927E-20 3.27117E-19
 -1      1476 9.52371E-05-2.85715E-05-2.85710E-05-5.95301E-12-5.34109E-19 3.78221E-19
 -1      1477 9.52359E-05-2.85722E-05-2.85701E-05 2.63090E-09-3.86914E-19-3.56534E-19
 -1      1478 1.03701E-04-3.05442E-05-3.18562E-05 1.80980E-06 7.85094E-19 9.51505E-18
 -1      1479 1.08251E-04-3.11120E-05-3.38640E-05 3.19977E-06 6.70162E-19 1.05902E-17
 -1      1480 1.08068E-04-2.86220E-05-3.43839E-05 1.04373E-05 1.23026E-18 7.48105E-18
 -1      1481 1.01313E-04-3.02277E-05-3.05244E-05 5.82384E-08 5.67922E-19 8.07275E-18
 -1      1482 1.02029E-04-3.00106E-05-3.10664E-05 3.74524E-07 5.17484E-19 8.85215E-18
 -1      1483 1.03976E-04-3.03431E-05-3.17589E-05 2.70940E-06 1.12904E-18 6.28014E-18
 -1      1484 1.01609E-04-3.04335E-05-3.04791E-05-7.39749E-07 3.88715E-19 6.90263E-18
 -1      1485 1.01050E-04-3.00916E-05-3.03978E-05-5.64028E-07 4.27666E-19 7.60212E-18
 -1      1486 1.02378E-04-3.03982E-05-3.08980E-05-2.23290E-07 8.90417E-19 5.30330E-18
 -1      1487 1.03169E-04-3.09504E-05-3.09222E-05-1.08308E-06 4.37770E-19 6.18728E-18
 -1      1488 1.02073E-04-3.05362E-05-3.06173E-05-9.88741E-07 2.75936E-19 6.60823E-18
 -1      1489 1.02687E-04-3.06836E-05-3.08727E-05-1.50590E-06 6.12954E-19 4.45129E-18
 -1      1490 1.05168E-04-3.15942E-05-3.15036E-05-1.11334E-06 2.68512E-19 5.38958E-18
 -1      1491 1.03936E-04-3.11762E-05-3.11523E-05-1.09123E-06 2.46568E-19 5.82793E-18
 -1      1492 1.03940E-04-3.11762E-05-3.11886E-05-1.98310E-06 5.39522E-19 4.01077E-18
 -1      1493 1.06957E-04-3.21856E-05-3.20084E-05-8.33522E-07 1.20214E-19 5.19954E-18
 -1      1494 1.05928E-04-3.18575E-05-3.17230E-05-8.95550E-07 1.63285E-19 5.35887E-18
 -1      1495 1.05477E-04-3.17516E-05-3.15862E-05-1.84123E-06 2.44118E-19 3.87909E-18
 -1      1496 1.07891E-04-3.25256E-05-3.22480E-05-2.18431E-07 1.99063E-19 4.97343E-18
 -1      1497 1.07423E-04-3.24016E-05-3.21317E-05-3.80736E-07 5.96099E-20 5.02229E-18
 -1      1498 1.06727E-04-3.22558E-05-3.18845E-05-1.08096E-06 1.93071E-19 3.74190E-18
 -1      1499 1.07349E-04-3.24069E-05-3.20535E-05 7.06556E-07 1.93716E-19 4.25199E-18
 -1      1500 1.07793E-04-3.26033E-05-3.22002E-05 4.43263E-07 1.56112E-19 4.68992E-18
 -1      1501 1.07151E-04-3.25085E-05-3.19332E-05 2.94588E-07 2.93755E-19 3.09176E-18
 -1      1502 1.04909E-04-3.16673E-05-3.13260E-05 1.78488E-06 1.17781E-19 3.81578E-18
 -1      1503 1.06492E-04-3.22587E-05-3.17880E-05 1.45957E-06 8.72973E-20 4.05125E-18
 -1      1504 1.06282E-04-3.23194E-05-3.16244E-05 2.12921E-06 4.07972E-19 2.60983E-18
 -1      1505 1.00633E-04-3.02926E-05-3.01136E-05 2.67938E-06-1.04536E-19 4.29684E-18
 -1      1506 1.03283E-04-3.12437E-05-3.08542E-05 2.38760E-06-7.98329E-20 4.05671E-18
 -1      1507 1.03901E-04-3.15476E-05-3.09373E-05 3.98629E-06-1.47701E-20 2.31485E-18
 -1      1508 9.53512E-05-2.85315E-05-2.86671E-05 2.93419E-06 4.31888E-19 4.10525E-18
 -1      1509 9.85341E-05-2.96376E-05-2.95287E-05 2.81084E-06 1.27777E-19 4.15385E-18
 -1      1510 1.00262E-04-3.02128E-05-2.99821E-05 5.14149E-06 6.43265E-20 2.98919E-18
 -1      1511 9.06331E-05-2.69202E-05-2.74083E-05 2.21100E-06 3.28179E-19 3.70029E-18
 -1      1512 9.33902E-05-2.78239E-05-2.81350E-05 2.36017E-06 2.10752E-19 3.93034E-18
 -1      1513 9.62522E-05-2.86134E-05-2.90046E-05 4.83583E-06 4.32212E-19 2.77505E-18
 -1      1514 8.82460E-05-2.60955E-05-2.67802E-05 5.94748E-07 2.68701E-19 2.94445E-18
 -1      1515 8.95438E-05-2.64313E-05-2.71125E-05 1.00096E-06 3.94684E-19 3.29446E-18
 -1      1516 9.32295E-05-2.73201E-05-2.83169E-05 2.77742E-06 5.33393E-19 2.55784E-18
 -1      1517 8.92452E-05-2.64446E-05-2.70383E-05-1.32244E-06 2.78224E-19 2.19180E-18
 -1      1518 8.85126E-05-2.60472E-05-2.68385E-05-8.15523E-07 3.55569E-19 2.64923E-18
 -1      1519 9.24360E-05-2.69219E-05-2.81702E-05-4.58926E-07 6.81544E-19 1.83928E-18
 -1      1520 9.33350E-05-2.78482E-05-2.81157E-05-2.75826E-06 9.50993E-20 1.39130E-18
 -1      1521 9.08054E-05-2.68634E-05-2.74428E-05-2.35622E-06 3.36563E-19 1.95694E-18
 -1      1522 9.42924E-05-2.76517E-05-2.86370E-05-3.60909E-06 6.66933E-19 1.49057E-18
 -1      1523 9.90526E-05-2.97630E-05-2.96636E-05-3.22854E-06-1.57963E-19 1.44054E-18
 -1      1524 9.56210E-05-2.85544E-05-2.87378E-05-3.05959E-06-5.85760E-20 1.22312E-18
 -1      1525 9.81323E-05-2.92052E-05-2.95797E-05-5.46615E-06 2.16159E-20 1.02881E-18
 -1      1526 1.04611E-04-3.15617E-05-3.12232E-05-2.77716E-06 3.68853E-19 9.46612E-19
 -1      1527 1.01328E-04-3.04965E-05-3.03166E-05-2.83478E-06 1.46351E-19 1.29924E-18
 -1      1528 1.02615E-04-3.09553E-05-3.07155E-05-5.57493E-06 7.31525E-20 7.86708E-19
 -1      1529 1.08719E-04-3.28314E-05-3.24290E-05-1.80248E-06 3.96981E-20-1.08791E-19
 -1      1530 1.06321E-04-3.21252E-05-3.17463E-05-1.99450E-06 3.30091E-19 4.72168E-19
 -1      1531 1.06457E-04-3.23500E-05-3.17428E-05-4.31371E-06 5.77915E-19 2.18839E-19
 -1      1532 1.10882E-04-3.34497E-05-3.31097E-05-7.40623E-07 2.82833E-19-9.42390E-20
 -1      1533 1.09634E-04-3.31432E-05-3.27370E-05-9.65397E-07-1.33540E-20-6.05893E-20
 -1      1534 1.08916E-04-3.31371E-05-3.24520E-05-2.44370E-06 2.32603E-19-5.00666E-19
 -1      1535 1.11253E-04-3.35017E-05-3.32752E-05 1.26925E-07-7.05631E-19 6.05586E-19
 -1      1536 1.11044E-04-3.35217E-05-3.31954E-05-6.43569E-08-3.04909E-19 4.33026E-19
 -1      1537 1.09846E-04-3.33360E-05-3.27673E-05-6.37022E-07-3.68995E-19 2.23233E-19
 -1      1538 1.10306E-04-3.31590E-05-3.30423E-05 6.99550E-07 3.96286E-20 6.87956E-19
 -1      1539 1.10844E-04-3.33929E-05-3.31816E-05 5.67152E-07 2.69264E-20 6.26533E-19
 -1      1540 1.09497E-04-3.31025E-05-3.27233E-05 7.35848E-07-4.84377E-19 9.64307E-19
 -1      1541 1.08573E-04-3.25946E-05-3.25597E-05 9.96265E-07 5.17259E-19-4.68343E-19
 -1      1542 1.09545E-04-3.29380E-05-3.28313E-05 9.21248E-07 1.40136E-19 2.94092E-19
 -1      1543 1.08274E-04-3.26138E-05-3.24146E-05 1.58310E-06 4.10904E-19 3.50718E-19
 -1      1544 1.06499E-04-3.19439E-05-3.19598E-05 1.08624E-06 3.59939E-20-1.35295E-18
 -1      1545 1.07648E-04-3.23199E-05-3.22896E-05 1.05550E-06 2.22258E-19-7.37931E-19
 -1      1546 1.06574E-04-3.20127E-05-3.19488E-05 1.97577E-06 6.77275E-19-3.49950E-19
 -1      1547 1.04395E-04-3.12974E-05-3.13395E-05 1.04411E-06-1.01402E-18 4.53388E-19
 -1      1548 1.05548E-04-3.16580E-05-3.16749E-05 1.04274E-06-9.32467E-19-8.38893E-19
 -1      1549 1.04712E-04-3.13958E-05-3.14183E-05 2.04275E-06-9.22795E-19-5.20330E-19
 -1      1550 1.02449E-04-3.07073E-05-3.07590E-05 9.30347E-07 1.07516E-19 2.38062E-18
 -1      1551 1.03503E-04-3.10272E-05-3.10687E-05 9.45955E-07-2.16018E-19 1.68190E-18
 -1      1552 1.02896E-04-3.08202E-05-3.08893E-05 1.90936E-06-1.11289E-18 7.69359E-19
 -1      1553 1.00755E-04-3.01982E-05-3.02499E-05 7.87053E-07-3.46680E-20 1.48677E-18
 -1      1554 1.01662E-04-3.04674E-05-3.05182E-05 8.10783E-07 1.54505E-19 2.15550E-18
 -1      1555 1.01252E-04-3.03144E-05-3.04027E-05 1.67302E-06 2.85493E-20 1.53516E-18
 -1      1556 9.93427E-05-2.97768E-05-2.98234E-05 6.40357E-07-4.02175E-19 1.82757E-18
 -1      1557 1.00091E-04-2.99945E-05-3.00457E-05 6.66521E-07-1.30488E-19 1.55093E-18
 -1      1558 9.98359E-05-2.98885E-05-2.99791E-05 1.39987E-06 9.94288E-20 1.82885E-18
 -1      1559 9.82057E-05-2.94393E-05-2.94789E-05 5.04712E-07-3.64059E-19 2.28318E-18
 -1      1560 9.88016E-05-2.96099E-05-2.96565E-05 5.29991E-07-6.36760E-19 1.62758E-18
 -1      1561 9.86625E-05-2.95415E-05-2.96252E-05 1.13014E-06-7.85591E-19 1.80490E-18
 -1      1562 9.73167E-05-2.91765E-05-2.92087E-05 3.86851E-07 4.02681E-19 1.89462E-18
 -1      1563 9.77775E-05-2.93064E-05-2.93465E-05 4.09528E-07 3.93692E-19 2.44881E-18
 -1      1564 9.77200E-05-2.92666E-05-2.93391E-05 8.85487E-07 1.33493E-19 1.71369E-18
 -1      1565 9.66396E-05-2.89771E-05-2.90024E-05 2.88779E-07 3.19905E-19 1.55355E-18
 -1      1566 9.69864E-05-2.90734E-05-2.91065E-05 3.08152E-07 3.22522E-20 1.44617E-18
 -1      1567 9.69833E-05-2.90542E-05-2.91143E-05 6.75380E-07 5.23465E-20 7.32142E-19
 -1      1568 9.61371E-05-2.88297E-05-2.88490E-05 2.09839E-07-4.63480E-19 1.63248E-18
 -1      1569 9.63912E-05-2.88991E-05-2.89255E-05 2.25806E-07 2.15100E-20 1.43872E-18
 -1      1570 9.64216E-05-2.88939E-05-2.89421E-05 5.01916E-07 1.08313E-19 1.21755E-18
 -1      1571 9.57740E-05-2.87236E-05-2.87380E-05 1.48033E-07 2.61588E-19 2.01939E-18
 -1      1572 9.59549E-05-2.87721E-05-2.87926E-05 1.60822E-07-3.38598E-20 1.72106E-18
 -1      1573 9.60038E-05-2.87758E-05-2.88135E-05 3.63085E-07-2.72357E-19 7.84860E-19
 -1      1574 9.55195E-05-2.86495E-05-2.86599E-05 1.00829E-07 3.42768E-19 3.48211E-19
 -1      1575 9.56440E-05-2.86821E-05-2.86976E-05 1.10822E-07 4.65362E-19 1.00742E-18
 -1      1576 9.57010E-05-2.86911E-05-2.87198E-05 2.54877E-07 9.69126E-19-8.46985E-20
 -1      1577 9.53474E-05-2.85996E-05-2.86070E-05 6.56285E-08-2.43564E-19-2.18036E-19
 -1      1578 9.54296E-05-2.86205E-05-2.86320E-05 7.32635E-08-5.96108E-21 3.57859E-19
 -1      1579 9.54879E-05-2.86322E-05-2.86535E-05 1.72555E-07 4.33865E-20 2.01595E-19
 -1      1580 9.52365E-05-2.85678E-05-2.85728E-05 4.00145E-08 4.99113E-19-1.41136E-18
 -1      1581 9.52877E-05-2.85802E-05-2.85885E-05 4.57209E-08 1.38640E-19-7.39597E-19
 -1      1582 9.53429E-05-2.85927E-05-2.86081E-05 1.11388E-07 3.73893E-19-8.07484E-19
 -1      1583 9.51700E-05-2.85488E-05-2.85521E-05 2.18669E-08 5.97998E-19-2.79274E-18
 -1      1584 9.51991E-05-2.85553E-05-2.85611E-05 2.60372E-08 6.10477E-19-1.95492E-18
 -1      1585 9.52488E-05-2.85675E-05-2.85784E-05 6.70410E-08 1.03997E-18-1.32887E-18
 -1      1586 9.51348E-05-2.85390E-05-2.85411E-05 9.40024E-09 2.26463E-19-3.22800E-18
 -1      1587 9.51485E-05-2.85415E-05-2.85454E-05 1.23759E-08-1.79001E-19-3.19308E-18
 -1      1588 9.51917E-05-2.85527E-05-2.85601E-05 3.57429E-08 4.04255E-19-1.77583E-18
 -1      1589 9.51209E-05-2.85354E-05-2.85366E-05 1.15732E-09 4.62634E-19-3.66586E-18
 -1      1590 9.51243E-05-2.85352E-05-2.85378E-05 3.22446E-09 5.22557E-19-2.84017E-18
 -1      1591 9.51608E-05-2.85451E-05-2.85500E-05 1.43394E-08 4.44777E-19-2.54092E-18
 -1      1592 9.51210E-05-2.85359E-05-2.85364E-05-4.02018E-09-2.93225E-19-3.28115E-18
 -1      1593 9.51179E-05-2.85340E-05-2.85356E-05-2.62833E-09-2.15370E-19-3.85934E-18
 -1      1594 9.51478E-05-2.85424E-05-2.85455E-05 2.67862E-10 1.02606E-20-2.65347E-18
 -1      1595 9.51299E-05-2.85388E-05-2.85389E-05-7.03000E-09-2.23520E-19-3.32201E-18
 -1      1596 9.51229E-05-2.85361E-05-2.85370E-05-6.12835E-09 1.82471E-19-3.09786E-18
 -1      1597 9.51468E-05-2.85430E-05-2.85447E-05-8.49899E-09 3.15806E-19-1.22082E-18
 -1      1598 9.51438E-05-2.85431E-05-2.85430E-05-8.54887E-09-1.18970E-18-2.07697E-18
 -1      1599 9.51347E-05-2.85400E-05-2.85404E-05-7.99464E-09-1.03547E-18-3.55932E-18
 -1      1600 9.51532E-05-2.85455E-05-2.85463E-05-1.35237E-08-1.14285E-18-1.95632E-18
 -1      1601 9.51601E-05-2.85481E-05-2.85479E-05-9.06876E-09-1.24664E-18-3.69516E-19
 -1      1602 9.51502E-05-2.85448E-05-2.85450E-05-8.75589E-09-1.13670E-18-1.51973E-18
 -1      1603 9.51641E-05-2.85491E-05-2.85494E-05-1.59746E-08-1.75754E-18-2.51233E-18
 -1      1604 9.51771E-05-2.85533E-05-2.85529E-05-8.92665E-09 2.21589E-18-6.97343E-19
 -1      1605 9.51671E-05-2.85501E-05-2.85500E-05-8.78144E-09 1.22467E-18 7.05790E-19
 -1      1606 9.51770E-05-2.85533E-05-2.85531E-05-1.66891E-08 2.72214E-19-1.09330E-18
 -1      1607 9.51935E-05-2.85582E-05-2.85578E-05-8.32534E-09 8.13350E-19-3.43953E-18
 -1      1608 9.51841E-05-2.85553E-05-2.85551E-05-8.30450E-09 1.08707E-18-1.74497E-18
 -1      1609 9.51906E-05-2.85575E-05-2.85571E-05-1.62237E-08 1.93580E-18-9.14122E-19
 -1      1610 9.52085E-05-2.85628E-05-2.85623E-05-7.34471E-09 1.27992E-19-4.68906E-18
 -1      1611 9.52000E-05-2.85602E-05-2.85598E-05-7.43589E-09 7.37475E-19-3.71230E-18
 -1      1612 9.52037E-05-2.85616E-05-2.85610E-05-1.48877E-08 1.85355E-18-2.49990E-18
 -1      1613 9.52212E-05-2.85667E-05-2.85661E-05-5.94828E-09-7.21315E-19-4.86239E-18
 -1      1614 9.52141E-05-2.85646E-05-2.85640E-05-6.17361E-09-3.93257E-19-5.26560E-18
 -1      1615 9.52156E-05-2.85653E-05-2.85644E-05-1.27649E-08-2.41674E-19-1.56230E-18
 -1      1616 9.52307E-05-2.85697E-05-2.85688E-05-3.98123E-09-9.16774E-20-3.52206E-18
 -1      1617 9.52256E-05-2.85682E-05-2.85674E-05-4.41900E-09-1.96370E-19-4.19637E-18
 -1      1618 9.52254E-05-2.85684E-05-2.85672E-05-9.74152E-09-7.50601E-19-1.89984E-18
 -1      1619 9.52359E-05-2.85713E-05-2.85705E-05-1.48916E-09 3.01043E-19-4.06275E-18
 -1      1620 9.52335E-05-2.85707E-05-2.85697E-05-2.09876E-09 3.63643E-19-4.16360E-18
 -1      1621 9.52326E-05-2.85709E-05-2.85692E-05-5.63149E-09 7.74064E-19-2.35398E-18
 -1      1622 9.52371E-05-2.85715E-05-2.85710E-05-1.12754E-10-1.99582E-18-2.50262E-18
 -1      1623 9.52380E-05-2.85761E-05-2.85693E-05-3.34041E-09-4.24848E-19 2.03421E-18
 -1      1624 9.52371E-05-2.85735E-05-2.85701E-05-2.68127E-09-3.35427E-18 1.41982E-18
 -1      1625 9.52407E-05-2.85841E-05-2.85671E-05-5.38606E-09 1.30742E-18 7.13719E-19
 -1      1626 9.52391E-05-2.85794E-05-2.85684E-05-5.06424E-09-5.52565E-19 1.76516E-18
 -1      1627 9.52381E-05-2.85783E-05-2.85684E-05-8.14244E-09-6.06780E-19 2.86380E-18
 -1      1628 9.52440E-05-2.85939E-05-2.85643E-05-6.27193E-09 2.67572E-18 1.05321E-18
 -1      1629 9.52420E-05-2.85882E-05-2.85659E-05-6.19457E-09 1.86419E-18 1.50247E-18
 -1      1630 9.52410E-05-2.85856E-05-2.85665E-05-1.11548E-08 5.07296E-20 1.99972E-18
 -1      1631 9.52472E-05-2.86039E-05-2.85614E-05-6.11669E-09 4.73885E-18 3.95375E-19
 -1      1632 9.52453E-05-2.85982E-05-2.85631E-05-6.23061E-09 3.17495E-18 2.57143E-18
 -1      1633 9.52440E-05-2.85939E-05-2.85643E-05-1.20393E-08 1.01434E-18 2.41696E-18
 -1      1634 9.52499E-05-2.86126E-05-2.85589E-05-5.18156E-09 2.19441E-18-2.48006E-18
 -1      1635 9.52484E-05-2.86077E-05-2.85603E-05-5.42135E-09 4.46114E-18-2.94686E-18
 -1      1636 9.52468E-05-2.86020E-05-2.85621E-05-1.11170E-08 1.00562E-18-1.10978E-18
 -1      1637 9.52521E-05-2.86193E-05-2.85569E-05-3.67299E-09-2.84684E-19-2.36050E-18
 -1      1638 9.52509E-05-2.86157E-05-2.85579E-05-4.00556E-09 2.35362E-18-2.25732E-18
 -1      1639 9.52491E-05-2.86089E-05-2.85602E-05-8.85945E-09 1.47443E-18-2.96778E-18
 -1      1640 9.52533E-05-2.86232E-05-2.85558E-05-1.81430E-09-3.35419E-18-1.47036E-18
 -1      1641 9.52527E-05-2.86213E-05-2.85563E-05-2.19600E-09-1.15397E-18-1.85610E-18
 -1      1642 9.52508E-05-2.86139E-05-2.85588E-05-5.66364E-09 5.69618E-20-3.47490E-18
 -1      1643 9.52535E-05-2.86238E-05-2.85556E-05 2.05376E-10-3.33464E-18 9.91718E-19
 -1      1644 9.52535E-05-2.86238E-05-2.85556E-05-1.92396E-10-3.92444E-18-5.56760E-19
 -1      1645 9.52517E-05-2.86166E-05-2.85580E-05-1.93724E-09-4.43530E-19-1.88718E-18
 -1      1646 9.52527E-05-2.86213E-05-2.85563E-05 2.21022E-09-2.13930E-18 6.05999E-19
 -1      1647 9.52533E-05-2.86231E-05-2.85558E-05 1.82820E-09-3.97080E-18 3.01632E-18
 -1      1648 9.52517E-05-2.86165E-05-2.85580E-05 1.96307E-09-3.93216E-19 1.48759E-18
 -1      1649 9.52509E-05-2.86157E-05-2.85580E-05 4.02206E-09-4.10975E-18-1.55437E-18
 -1      1650 9.52520E-05-2.86193E-05-2.85569E-05 3.68984E-09-1.98681E-18-2.58559E-18
 -1      1651 9.52508E-05-2.86139E-05-2.85588E-05 5.69381E-09-2.13096E-18-9.18132E-19
 -1      1652 9.52484E-05-2.86077E-05-2.85603E-05 5.42558E-09-3.81616E-18 6.29145E-19
 -1      1653 9.52500E-05-2.86126E-05-2.85589E-05 5.18691E-09-3.17633E-18-4.08853E-19
 -1      1654 9.52491E-05-2.86089E-05-2.85602E-05 8.87429E-09-1.82771E-18-1.60384E-18
 -1      1655 9.52453E-05-2.85981E-05-2.85631E-05 6.24563E-09-1.71268E-18 1.32177E-18
 -1      1656 9.52472E-05-2.86038E-05-2.85615E-05 6.13295E-09-3.33418E-18 1.50463E-18
 -1      1657 9.52468E-05-2.86020E-05-2.85621E-05 1.11380E-08-1.00813E-18 1.63417E-18
 -1      1658 9.52420E-05-2.85881E-05-2.85660E-05 6.21653E-09-8.98631E-19-6.03971E-19
 -1      1659 9.52439E-05-2.85938E-05-2.85643E-05 6.28093E-09-1.46150E-18 1.90445E-18
 -1      1660 9.52440E-05-2.85938E-05-2.85644E-05 1.20606E-08-2.50442E-19 7.64108E-19
 -1      1661 9.52391E-05-2.85794E-05-2.85684E-05 5.05133E-09-1.24247E-18 3.85486E-19
 -1      1662 9.52407E-05-2.85841E-05-2.85671E-05 5.37743E-09-4.77702E-19-6.01298E-19
 -1      1663 9.52409E-05-2.85855E-05-2.85665E-05 1.11481E-08-5.93952E-19-3.32143E-20
 -1      1664 9.52369E-05-2.85741E-05-2.85698E-05 3.90872E-09-1.87509E-18-1.75992E-18
 -1      1665 9.52378E-05-2.85768E-05-2.85690E-05 4.87344E-09-5.96938E-19-9.83286E-19
 -1      1666 9.52379E-05-2.85788E-05-2.85681E-05 9.55513E-09-1.20686E-18 6.51523E-19
 -1      1667 9.52346E-05-2.85738E-05-2.85689E-05 7.59502E-09-6.76781E-19-1.29911E-18
 -1      1668 2.02388E-05-6.70970E-05 1.41370E-05-6.35121E-06 4.26058E-18 3.13190E-18
 -1      1669 2.37630E-05-7.69520E-05 1.61517E-05 2.33167E-06-4.09223E-19 2.60632E-18
 -1      1670 2.13154E-05-3.65332E-05 2.91203E-06 7.78605E-06 9.58418E-18 7.14769E-18
 -1      1671 2.50444E-05-5.97324E-05 9.37282E-06 2.95974E-06 5.76491E-18 4.51373E-18
 -1      1672 4.07879E-05-1.17491E-05-1.38205E-05 3.31688E-05 1.29655E-17 1.06870E-17
 -1      1673 3.29245E-05-3.17594E-05-4.53931E-06 1.45317E-05 1.13197E-17 7.83929E-18
 -1      1674 8.50122E-05-5.18847E-06-3.32284E-05 6.19133E-05 1.17102E-17 1.13325E-17
 -1      1675 5.75914E-05-8.31983E-06-2.30688E-05 4.00251E-05 1.35330E-17 1.11597E-17
 -1      1676 1.51194E-04-2.29724E-05-5.16097E-05 7.13887E-05 7.33403E-18 9.59180E-18
 -1      1677 1.10217E-04-9.80147E-06-4.24001E-05 6.21326E-05 1.00534E-17 1.06209E-17
 -1      1678 2.14384E-04-4.59918E-05-6.63728E-05 6.06348E-05 4.61771E-18 5.97497E-18
 -1      1679 1.72865E-04-2.56603E-05-5.96801E-05 7.23843E-05 6.68373E-18 8.96500E-18
 -1      1680 2.54207E-04-6.48592E-05-7.42915E-05 1.80485E-05 2.71982E-18 5.44219E-20
 -1      1681 2.32619E-04-5.28240E-05-7.12981E-05 4.97352E-05 3.65145E-18 4.31521E-18
 -1      1682 2.45793E-04-5.95383E-05-7.35508E-05-3.58394E-05 3.12153E-18-6.06476E-18
 -1      1683 2.56973E-04-6.59357E-05-7.50364E-05-5.18076E-07 2.44665E-18-2.23082E-18
 -1      1684 1.94407E-04-3.44128E-05-6.44079E-05-6.81286E-05 5.87142E-18-1.00560E-17
 -1      1685 2.31157E-04-5.35600E-05-6.98925E-05-4.90371E-05 4.05729E-18-7.64024E-18
 -1      1686 1.28589E-04-1.29831E-05-4.80647E-05-6.68010E-05 8.07222E-18-1.08581E-17
 -1      1687 1.72804E-04-3.03352E-05-5.70093E-05-7.00254E-05 6.07196E-18-1.06879E-17
 -1      1688 6.87388E-05-1.61763E-06-2.98342E-05-5.14346E-05 1.03685E-17-1.08446E-17
 -1      1689 1.01125E-04-5.05053E-06-3.94164E-05-7.06838E-05 9.46898E-18-1.18652E-17
 -1      1690 3.62822E-05-1.73617E-05-1.15945E-05-2.24359E-05 9.65872E-18-7.68386E-18
 -1      1691 4.98643E-05-2.77927E-06-2.08210E-05-4.37213E-05 1.04549E-17-1.00373E-17
 -1      1692 2.69805E-05-4.98311E-05 4.52654E-06-4.73348E-06 6.04527E-18-4.12897E-18
 -1      1693 2.64671E-05-2.51574E-05-3.51181E-06-1.63365E-05 8.39071E-18-6.59881E-18
 -1      1694 2.40706E-05-7.32927E-05 1.45760E-05-2.55398E-08 1.73261E-18-2.16480E-18
 -1      1695 1.86750E-05-5.63475E-05 1.07144E-05 5.11297E-06 5.24483E-18-3.19061E-18
 -1      1696 2.08576E-05-6.89087E-05 1.49140E-05-5.01076E-06-4.35735E-18-3.30555E-18
 -1      1697 2.15562E-05-7.10668E-05 1.53987E-05 3.61167E-06 2.14088E-19-2.87779E-18
 -1      1698 1.84613E-05-5.08286E-05 8.64280E-06-4.25079E-06-9.97297E-18-5.19152E-18
 -1      1699 2.40922E-05-7.00689E-05 1.32253E-05-1.76362E-06-6.48700E-18-3.27495E-18
 -1      1700 2.91061E-05-2.07823E-05-6.38696E-06 1.93421E-05-1.16814E-17-7.85962E-18
 -1      1701 2.75850E-05-4.47564E-05 2.09727E-06 4.97243E-06-1.04592E-17-5.78375E-18
 -1      1702 5.86732E-05-2.44793E-06-2.43595E-05 4.91521E-05-1.10741E-17-9.66803E-18
 -1      1703 4.13783E-05-1.40849E-05-1.49207E-05 2.69003E-05-1.20838E-17-8.73037E-18
 -1      1704 1.16862E-04-9.10749E-06-4.36600E-05 7.46910E-05-8.34582E-18-1.08632E-17
 -1      1705 7.97837E-05-2.52708E-06-3.36986E-05 5.64003E-05-1.03075E-17-1.03846E-17
 -1      1706 1.86921E-04-3.47232E-05-6.06215E-05 7.20179E-05-5.46696E-18-9.30889E-18
 -1      1707 1.42230E-04-1.50150E-05-5.23295E-05 7.33240E-05-7.39375E-18-1.05329E-17
 -1      1708 2.37830E-04-5.66732E-05-7.17780E-05 3.52663E-05-3.52450E-18-3.15393E-18
 -1      1709 2.04500E-04-3.92128E-05-6.66026E-05 5.87998E-05-5.27744E-18-6.86436E-18
 -1      1710 2.56242E-04-6.42542E-05-7.55218E-05-1.29378E-05-2.22981E-18 2.24485E-18
 -1      1711 2.52025E-04-6.20117E-05-7.51418E-05 2.38272E-05-2.42569E-18-1.76988E-18
 -1      1712 2.25020E-04-4.86369E-05-6.99816E-05-5.71921E-05-4.51823E-18 7.98329E-18
 -1      1713 2.52289E-04-6.36337E-05-7.39536E-05-2.95454E-05-2.63914E-18 4.78447E-18
 -1      1714 1.63583E-04-2.24112E-05-5.73061E-05-7.47826E-05-8.15015E-18 1.21981E-17
 -1      1715 2.06406E-04-4.25229E-05-6.45504E-05-6.78280E-05-5.86951E-18 9.95518E-18
 -1      1716 9.67882E-05-4.32444E-06-3.94331E-05-6.32400E-05-1.29638E-17 1.36940E-17
 -1      1717 1.38663E-04-1.59576E-05-4.91491E-05-7.73074E-05-9.49990E-18 1.30562E-17
 -1      1718 4.94850E-05-8.87874E-06-2.00363E-05-3.45536E-05-1.52110E-17 1.25700E-17
 -1      1719 7.34078E-05-2.21749E-06-2.99330E-05-5.77734E-05-1.39862E-17 1.37956E-17
 -1      1720 2.81237E-05-3.28078E-05-2.84232E-06-8.59668E-06-1.29003E-17 9.24791E-18
 -1      1721 3.33617E-05-1.24164E-05-1.12147E-05-2.58450E-05-1.49586E-17 1.22286E-17
 -1      1722 2.38836E-05-6.18815E-05 1.00275E-05 2.79522E-06-1.01949E-17 3.88629E-18
 -1      1723 1.91430E-05-3.93713E-05 4.10701E-06-5.90048E-07-1.25107E-17 7.00200E-18
 -1      1724 2.33569E-05-7.48784E-05 1.57305E-05-1.58438E-06-2.60876E-18 3.67337E-18
 -1      1725 2.00656E-05-6.52002E-05 1.35715E-05 6.08359E-06-7.97820E-18 4.63856E-18
 -1      1726 1.24100E-04-3.49102E-05-3.69480E-05 4.20944E-05 7.63431E-18 5.44981E-18
 -1      1727 8.03603E-05-3.71099E-05-1.94060E-05 4.10745E-05 7.04223E-18 7.05706E-18
 -1      1728 9.52365E-05-2.85719E-05-2.85705E-05-1.46416E-09-2.45018E-18-1.03167E-18
 -1      1729 9.52360E-05-2.85735E-05-2.85696E-05-4.60345E-09 4.64402E-20-1.77203E-20
 -1      1730 1.93969E-05-4.61521E-05 7.72749E-06 1.71835E-05 2.04177E-18 6.03871E-18
 -1      1731 4.46583E-05-4.16397E-05-3.67087E-06 3.26756E-05 4.68621E-18 7.43841E-18
 -1      1732 1.17450E-05-5.02554E-05 1.19605E-05-1.61161E-08-1.61413E-18 5.92965E-18
 -1      1733 1.62932E-04-3.34944E-05-5.29652E-05 3.50334E-05 6.62274E-18 4.63242E-18
 -1      1734 1.97759E-04-3.38725E-05-6.54356E-05 2.60233E-05 5.57792E-18 2.60759E-18
 -1      1735 2.14965E-04-3.60615E-05-7.08830E-05 3.93687E-06 4.71543E-18-4.10705E-19
 -1      1736 2.05516E-04-3.46366E-05-6.80752E-05-1.96956E-05 4.93460E-18-3.63377E-18
 -1      1737 1.74153E-04-3.28711E-05-5.74511E-05-3.16370E-05 5.13187E-18-5.64463E-18
 -1      1738 1.36029E-04-3.17759E-05-4.26120E-05-4.34663E-05 5.70011E-18-6.53486E-18
 -1      1739 8.99474E-05-3.05963E-05-2.56551E-05-4.45108E-05 5.93516E-18-7.04689E-18
 -1      1740 5.50421E-05-3.86029E-05-9.26539E-06-3.51609E-05 4.37831E-18-5.89217E-18
 -1      1741 2.75556E-05-4.52740E-05 4.02969E-06-2.29110E-05 2.74947E-18-4.84820E-18
 -1      1742 1.23701E-05-4.74485E-05 1.07846E-05-5.86336E-06 2.06888E-19-4.81919E-18
 -1      1743 1.40315E-05-4.70528E-05 9.98674E-06 8.18080E-06-2.41320E-18-5.18257E-18
 -1      1744 3.17584E-05-4.48037E-05 2.06430E-06 2.35692E-05-5.33334E-18-5.54065E-18
 -1      1745 6.15390E-05-3.79885E-05-1.20862E-05 3.59189E-05-6.66869E-18-5.63997E-18
 -1      1746 9.97133E-05-3.14488E-05-2.91936E-05 4.49321E-05-7.03969E-18-6.42729E-18
 -1      1747 1.45540E-04-3.14554E-05-4.63978E-05 4.50821E-05-5.71578E-18-6.06730E-18
 -1      1748 1.82283E-04-3.22462E-05-6.02969E-05 2.94851E-05-5.39719E-18-3.15689E-18
 -1      1749 2.04205E-04-3.23507E-05-6.89730E-05 1.04247E-05-4.96742E-18-1.60873E-18
 -1      1750 2.14332E-04-3.60262E-05-7.07702E-05-9.26123E-06-4.69976E-18 2.03097E-18
 -1      1751 1.95626E-04-3.49646E-05-6.40941E-05-3.07330E-05-6.05756E-18 5.09914E-18
 -1      1752 1.58273E-04-3.19143E-05-5.11526E-05-4.34252E-05-7.77767E-18 8.00277E-18
 -1      1753 1.13202E-04-3.13603E-05-3.43131E-05-4.52940E-05-9.42028E-18 8.07815E-18
 -1      1754 7.08754E-05-3.49155E-05-1.68430E-05-3.79897E-05-9.13610E-18 8.88241E-18
 -1      1755 3.87377E-05-4.21759E-05-1.79684E-06-2.55706E-05-7.94347E-18 7.70594E-18
 -1      1756 1.86276E-05-4.77220E-05 8.23526E-06-1.29969E-05-5.63235E-18 5.80980E-18
 -1      1757 1.11278E-04-2.48665E-05-3.71298E-05-1.43168E-05-1.20342E-18 4.62247E-18
 -1      1758 9.12347E-05-1.07414E-05-3.46372E-05-8.28510E-06-1.28307E-18-1.62090E-18
 -1      1759 9.37905E-05-1.22608E-05-3.50587E-05-1.01695E-05-1.56002E-18-1.12949E-18
 -1      1760 9.69437E-05-1.51202E-05-3.52379E-05-1.13497E-05-1.61607E-18-4.77621E-19
 -1      1761 9.96144E-05-1.74967E-05-3.56494E-05-1.32984E-05-1.79395E-18 3.84500E-19
 -1      1762 9.74627E-05-1.72914E-05-3.43621E-05-8.72547E-06-1.66619E-18-6.64789E-19
 -1      1763 8.32125E-05-5.63113E-06-3.33270E-05-3.73005E-06-5.62053E-19-2.47614E-18
 -1      1764 8.47562E-05-6.30712E-06-3.36599E-05-4.73704E-06-7.52437E-19-2.40490E-18
 -1      1765 8.05814E-05-4.15348E-06-3.28125E-05-2.33399E-06-2.68648E-19-2.60416E-18
 -1      1766 8.17095E-05-4.61193E-06-3.30688E-05-3.06293E-06-4.12121E-19-2.60295E-18
 -1      1767 8.35344E-05-6.91332E-06-3.28573E-05-2.92673E-06-5.35596E-19-2.39100E-18
 -1      1768 7.89592E-05-3.27904E-06-3.24765E-05-1.35960E-06 1.32576E-19-2.42025E-18
 -1      1769 7.95988E-05-3.52218E-06-3.26301E-05-1.90186E-06-8.18975E-20-2.49413E-18
 -1      1770 8.09146E-05-5.28309E-06-3.24289E-05-1.84706E-06-1.75165E-19-2.44118E-18
 -1      1771 7.84139E-05-3.00337E-06-3.23492E-05-5.80340E-07 5.15496E-19-2.27874E-18
 -1      1772 7.85401E-05-3.03536E-06-3.23895E-05-1.05255E-06 3.48873E-19-2.38582E-18
 -1      1773 7.94444E-05-4.42131E-06-3.21660E-05-1.11503E-06 2.41569E-19-2.30398E-18
 -1      1774 7.89341E-05-3.30145E-06-3.24372E-05 2.45350E-07 8.18858E-19-2.08851E-18
 -1      1775 7.85626E-05-3.13492E-06-3.23645E-05-2.72870E-07 6.84068E-19-2.21172E-18
 -1      1776 7.91744E-05-4.31619E-06-3.20962E-05-4.99696E-07 6.30527E-19-2.15845E-18
 -1      1777 8.04240E-05-4.12000E-06-3.27234E-05 1.33893E-06 1.17105E-18-1.78277E-18
 -1      1778 7.96089E-05-3.77491E-06-3.25489E-05 6.71179E-07 9.72650E-19-1.96175E-18
 -1      1779 8.00619E-05-4.92191E-06-3.22209E-05 2.39626E-07 9.30126E-19-1.86972E-18
 -1      1780 8.26920E-05-5.37209E-06-3.31638E-05 2.84505E-06 1.48355E-18-1.40555E-18
 -1      1781 8.15289E-05-4.87891E-06-3.29114E-05 1.96234E-06 1.32242E-18-1.65464E-18
 -1      1782 8.19600E-05-6.14790E-06-3.25139E-05 1.29566E-06 1.31938E-18-1.58379E-18
 -1      1783 8.56920E-05-7.09008E-06-3.37274E-05 4.93527E-06 1.83703E-18-8.55927E-19
 -1      1784 8.41909E-05-6.41941E-06-3.34095E-05 3.73805E-06 1.63094E-18-1.16868E-18
 -1      1785 8.47121E-05-7.93147E-06-3.29344E-05 2.80619E-06 1.62342E-18-1.16169E-18
 -1      1786 8.93823E-05-9.38763E-06-3.43560E-05 7.65488E-06 2.04920E-18-7.88799E-20
 -1      1787 8.75457E-05-8.46647E-06-3.39964E-05 6.09514E-06 1.94528E-18-5.45939E-19
 -1      1788 8.82383E-05-1.03095E-05-3.34284E-05 4.82905E-06 1.95613E-18-5.72118E-19
 -1      1789 9.40331E-05-1.27390E-05-3.49841E-05 1.09421E-05 2.16633E-18 1.25914E-18
 -1      1790 9.16725E-05-1.12849E-05-3.46016E-05 8.99981E-06 2.07135E-18 4.58457E-19
 -1      1791 9.25503E-05-1.34746E-05-3.39093E-05 7.25599E-06 2.14502E-18 2.92504E-19
 -1      1792 1.00828E-04-1.86323E-05-3.54141E-05 1.39773E-05 2.01315E-18 3.57104E-18
 -1      1793 9.71556E-05-1.56603E-05-3.51076E-05 1.21380E-05 2.03347E-18 2.22902E-18
 -1      1794 9.79790E-05-1.80753E-05-3.42323E-05 9.54627E-06 2.13057E-18 1.74084E-18
 -1      1795 1.07449E-04-2.69190E-05-3.49343E-05 1.15386E-05 1.52985E-18 6.08032E-18
 -1      1796 1.03392E-04-2.13688E-05-3.51569E-05 1.36105E-05 1.81622E-18 4.46249E-18
 -1      1797 1.02788E-04-2.36259E-05-3.39896E-05 9.51582E-06 2.02171E-18 3.52477E-18
 -1      1798 1.05052E-04-2.81503E-05-3.31531E-05 6.57176E-06 1.60320E-18 5.60498E-18
 -1      1799 1.05950E-04-2.15012E-05-3.58957E-05-1.52810E-05-1.61194E-18 1.92139E-18
 -1      1800 1.03095E-04-2.96570E-05-3.14906E-05 1.30648E-06 1.29342E-18 4.67467E-18
 -1      1801 1.04622E-04-2.95163E-05-3.22245E-05 3.62413E-06 1.34954E-18 5.16886E-18
 -1      1802 1.04007E-04-2.76584E-05-3.27246E-05 5.40114E-06 1.63567E-18 4.05643E-18
 -1      1803 1.05640E-04-2.43596E-05-3.45620E-05-1.04606E-05-1.65121E-18 1.30538E-18
 -1      1804 1.04683E-04-2.91754E-05-3.22418E-05-1.60346E-06-1.41714E-18 1.12553E-18
 -1      1805 1.03992E-04-2.95009E-05-3.18742E-05 3.24829E-07-1.24339E-18 8.12093E-19
 -1      1806 1.03910E-04-2.98767E-05-3.16320E-05 2.07249E-06-1.16111E-18 8.49409E-19
 -1      1807 1.04375E-04-3.03241E-05-3.16861E-05 3.11502E-06-9.88196E-19 4.83285E-19
 -1      1808 1.03239E-04-2.85521E-05-3.20437E-05 9.80465E-07-1.41456E-18 2.17482E-19
 -1      1809 1.04759E-04-3.06723E-05-3.16938E-05 4.19450E-06-7.33100E-19 4.83365E-19
 -1      1810 1.05811E-04-3.12181E-05-3.19432E-05 4.76695E-06-5.48642E-19 2.00641E-19
 -1      1811 1.03699E-04-2.97194E-05-3.17377E-05 4.21324E-06-1.02286E-18 1.80296E-19
 -1      1812 1.06608E-04-3.16864E-05-3.20789E-05 5.32125E-06-4.15676E-19 2.87058E-19
 -1      1813 1.07965E-04-3.23632E-05-3.24061E-05 5.46611E-06-3.29637E-19 2.45163E-19
 -1      1814 1.05007E-04-3.08663E-05-3.18039E-05 6.09257E-06-5.18510E-19 8.35651E-20
 -1      1815 1.09094E-04-3.30074E-05-3.25925E-05 5.44649E-06-2.60640E-19 3.10716E-19
 -1      1816 1.10470E-04-3.37831E-05-3.29052E-05 5.05999E-06-1.78506E-20 2.35184E-19
 -1      1817 1.07046E-04-3.23260E-05-3.20491E-05 6.75996E-06-2.44804E-19 6.71638E-20
 -1      1818 1.11826E-04-3.46055E-05-3.30856E-05 4.30220E-06 1.92799E-20 3.41368E-19
 -1      1819 1.12881E-04-3.53679E-05-3.32941E-05 3.23580E-06-5.15102E-20 3.27951E-19
 -1      1820 1.09654E-04-3.42218E-05-3.23494E-05 5.99792E-06-1.44326E-20 1.84929E-19
 -1      1821 1.14284E-04-3.62622E-05-3.34342E-05 1.57268E-06-9.19428E-20 5.28635E-19
 -1      1822 1.14614E-04-3.67622E-05-3.34616E-05-2.19023E-07-1.36716E-20 6.11443E-19
 -1      1823 1.12553E-04-3.64318E-05-3.26345E-05 3.44449E-06 3.16281E-20 1.98474E-19
 -1      1824 1.15713E-04-3.74173E-05-3.35635E-05-2.73764E-06-1.82172E-19 9.60430E-19
 -1      1825 1.14941E-04-3.72460E-05-3.33807E-05-4.96492E-06-2.05763E-19 8.14065E-19
 -1      1826 1.15192E-04-3.83880E-05-3.29045E-05-1.06611E-06 1.39258E-19 6.83202E-19
 -1      1827 1.15183E-04-3.71226E-05-3.34908E-05-7.72554E-06-2.68675E-19 9.83207E-19
 -1      1828 1.13195E-04-3.58885E-05-3.31521E-05-9.54807E-06-4.04498E-19 6.91219E-19
 -1      1829 1.16595E-04-3.89149E-05-3.32476E-05-6.90817E-06-3.60614E-19 1.17602E-18
 -1      1830 1.12136E-04-3.45469E-05-3.33260E-05-1.11739E-05-5.10982E-19 5.72753E-19
 -1      1831 1.09412E-04-3.23545E-05-3.29640E-05-1.13561E-05-6.93323E-19 2.38572E-19
 -1      1832 1.15655E-04-3.66960E-05-3.37870E-05-1.19806E-05-5.52678E-19 1.05470E-18
 -1      1833 1.07422E-04-3.01653E-05-3.31905E-05-1.02685E-05-7.80634E-19-5.97952E-20
 -1      1834 1.05145E-04-2.80512E-05-3.29535E-05-8.02834E-06-7.57631E-19-2.57716E-19
 -1      1835 1.12240E-04-3.17038E-05-3.45230E-05-1.29051E-05-9.33113E-19 8.14091E-19
 -1      1836 1.03729E-04-2.65232E-05-3.31202E-05-3.98276E-06-8.16460E-19-7.76577E-19
 -1      1837 1.03226E-04-2.59686E-05-3.30901E-05-1.02353E-07-9.66015E-19-7.69764E-19
 -1      1838 1.08390E-04-2.65241E-05-3.51989E-05-7.29765E-06-1.13426E-18 2.22386E-19
 -1      1839 1.03769E-04-2.64807E-05-3.30691E-05 4.78733E-06-1.16020E-18-1.23459E-18
 -1      1840 1.05405E-04-2.79394E-05-3.32596E-05 8.15106E-06-8.94520E-19-1.22272E-18
 -1      1841 1.07399E-04-2.51455E-05-3.54179E-05 2.87173E-06-1.27640E-18-6.16980E-19
 -1      1842 1.07433E-04-3.00163E-05-3.30940E-05 1.10157E-05-8.36617E-19-2.17398E-18
 -1      1843 1.10307E-04-3.24143E-05-3.34638E-05 1.21776E-05-2.85748E-19-2.45354E-18
 -1      1844 1.10277E-04-2.86838E-05-3.50413E-05 1.16085E-05-1.31473E-18-1.58092E-18
 -1      1845 1.12149E-04-3.43977E-05-3.32943E-05 1.19199E-05-4.14805E-19-3.12028E-18
 -1      1846 1.14878E-04-3.63067E-05-3.37272E-05 1.08670E-05-7.73037E-19-3.13566E-18
 -1      1847 1.14599E-04-3.43178E-05-3.43709E-05 1.42629E-05-8.41249E-19-3.18148E-18
 -1      1848 1.15468E-04-3.71313E-05-3.36272E-05 8.52251E-06-3.64608E-19-3.18036E-18
 -1      1849 1.17150E-04-3.79352E-05-3.39698E-05 6.37741E-06-1.25414E-19-3.15463E-18
 -1      1850 1.17298E-04-3.83337E-05-3.37806E-05 1.10641E-05-5.39686E-19-3.42363E-18
 -1      1851 1.16560E-04-3.76764E-05-3.39048E-05 3.57638E-06 1.44472E-19-2.87800E-18
 -1      1852 1.17005E-04-3.75625E-05-3.40498E-05 1.45873E-06-8.19637E-20-2.54427E-18
 -1      1853 1.17327E-04-3.92997E-05-3.34053E-05 5.24837E-06 1.36505E-19-2.72531E-18
 -1      1854 1.15786E-04-3.67787E-05-3.39548E-05-7.62400E-07-4.84099E-19-1.94573E-18
 -1      1855 1.15250E-04-3.61886E-05-3.38823E-05-2.28134E-06 1.27968E-19-1.87661E-18
 -1      1856 1.15416E-04-3.80482E-05-3.31530E-05-2.48703E-07-1.07044E-19-1.96455E-18
 -1      1857 1.13853E-04-3.53280E-05-3.37203E-05-3.62487E-06 2.51251E-19-1.77994E-18
 -1      1858 1.12717E-04-3.46016E-05-3.34767E-05-4.45447E-06 5.92433E-19-1.90188E-18
 -1      1859 1.12668E-04-3.59554E-05-3.28868E-05-4.07650E-06 3.48336E-19-1.45505E-18
 -1      1860 1.11373E-04-3.38692E-05-3.32508E-05-5.03779E-06 1.14910E-18-1.67584E-18
 -1      1861 1.09968E-04-3.31815E-05-3.29072E-05-5.32423E-06 8.43594E-19-9.31349E-19
 -1      1862 1.09816E-04-3.39343E-05-3.25345E-05-6.11281E-06 8.92826E-19-9.04055E-19
 -1      1863 1.08762E-04-3.26206E-05-3.26417E-05-5.38860E-06 1.95916E-19-1.97398E-20
 -1      1864 1.07319E-04-3.20351E-05-3.22625E-05-5.32915E-06 8.98299E-19 2.09336E-19
 -1      1865 1.07189E-04-3.23300E-05-3.20956E-05-6.77084E-06 1.26298E-18-6.87337E-20
 -1      1866 1.06271E-04-3.16224E-05-3.19854E-05-5.09634E-06 1.11118E-18-1.36698E-19
 -1      1867 1.04927E-04-3.11483E-05-3.16160E-05-4.85482E-06 1.36669E-18 2.95902E-19
 -1      1868 1.04889E-04-3.11684E-05-3.16063E-05-6.55366E-06 1.02211E-18 5.72475E-19
 -1      1869 1.04033E-04-3.08469E-05-3.13499E-05-4.48433E-06 1.02826E-18-7.98594E-19
 -1      1870 1.02855E-04-3.04730E-05-3.10165E-05-4.17133E-06 2.56962E-19-7.35060E-19
 -1      1871 1.02924E-04-3.03599E-05-3.11098E-05-5.87054E-06 9.69615E-19-4.20063E-19
 -1      1872 1.02105E-04-3.02511E-05-3.07757E-05-3.76276E-06-1.44712E-19-8.76097E-19
 -1      1873 1.01116E-04-2.99610E-05-3.04898E-05-3.44317E-06-1.58791E-19-7.27004E-19
 -1      1874 1.01274E-04-2.98029E-05-3.06403E-05-4.99965E-06 4.01383E-19-1.37694E-18
 -1      1875 1.00497E-04-2.97959E-05-3.02812E-05-3.05174E-06-1.81950E-19-4.66167E-19
 -1      1876 9.96908E-05-2.95737E-05-3.00450E-05-2.75874E-06-4.07247E-19-7.03797E-19
 -1      1877 9.99079E-05-2.94171E-05-3.02193E-05-4.10786E-06-1.62773E-19-1.29179E-18
 -1      1878 9.91878E-05-2.94500E-05-2.98703E-05-2.41081E-06-3.45389E-19-4.04264E-19
 -1      1879 9.85480E-05-2.92819E-05-2.96805E-05-2.15817E-06-2.02486E-19-6.38346E-20
 -1      1880 9.87941E-05-2.91469E-05-2.98568E-05-3.28365E-06-3.36495E-19-6.10341E-19
 -1      1881 9.81462E-05-2.91890E-05-2.95381E-05-1.86305E-06 1.19103E-19-1.32216E-20
 -1      1882 9.76488E-05-2.90635E-05-2.93892E-05-1.65368E-06 7.27785E-19 9.46160E-19
 -1      1883 9.78998E-05-2.89559E-05-2.95545E-05-2.56603E-06 4.91787E-19-3.84206E-19
 -1      1884 9.73331E-05-2.89941E-05-2.92757E-05-1.41135E-06 1.32387E-19 9.53082E-19
 -1      1885 9.69540E-05-2.89019E-05-2.91613E-05-1.24270E-06-1.38142E-19 1.37819E-19
 -1      1886 9.71930E-05-2.88203E-05-2.93086E-05-1.96535E-06 1.24232E-19-6.64752E-20
 -1      1887 9.67101E-05-2.88506E-05-2.90727E-05-1.04857E-06-1.09935E-18 3.99193E-20
 -1      1888 9.64266E-05-2.87841E-05-2.89864E-05-9.15724E-07-2.07110E-18-8.90877E-19
 -1      1889 9.66434E-05-2.87246E-05-2.91132E-05-1.47674E-06-8.76684E-19-6.37432E-19
 -1      1890 9.62414E-05-2.87467E-05-2.89185E-05-7.63336E-07-2.14808E-18-1.62635E-18
 -1      1891 9.60336E-05-2.86997E-05-2.88547E-05-6.60672E-07-1.93864E-18-1.25176E-18
 -1      1892 9.62231E-05-2.86578E-05-2.89608E-05-1.08816E-06-2.19754E-18-1.91694E-18
 -1      1893 9.58955E-05-2.86730E-05-2.88036E-05-5.43206E-07-1.04128E-18-1.10100E-18
 -1      1894 9.57465E-05-2.86408E-05-2.87574E-05-4.65257E-07 2.71608E-19-6.81816E-19
 -1      1895 9.59073E-05-2.86122E-05-2.88442E-05-7.85045E-07-1.40471E-18-6.03488E-19
 -1      1896 9.56456E-05-2.86222E-05-2.87197E-05-3.76270E-07 1.65670E-19-6.56603E-19
 -1      1897 9.55415E-05-2.86009E-05-2.86871E-05-3.18119E-07 1.69829E-19-9.78085E-19
 -1      1898 9.56745E-05-2.85821E-05-2.87566E-05-5.52747E-07 7.38738E-20-1.57412E-19
 -1      1899 9.54694E-05-2.85884E-05-2.86599E-05-2.51884E-07-5.57585E-19-1.73259E-18
 -1      1900 9.53989E-05-2.85750E-05-2.86375E-05-2.09300E-07-7.96488E-19-2.52496E-18
 -1      1901 9.55066E-05-2.85632E-05-2.86922E-05-3.77789E-07-7.56142E-19-1.28241E-18
 -1      1902 9.53489E-05-2.85670E-05-2.86183E-05-1.60920E-07-3.29853E-19-3.02487E-18
 -1      1903 9.53031E-05-2.85592E-05-2.86035E-05-1.30369E-07-2.91180E-19-2.83911E-18
 -1      1904 9.53885E-05-2.85523E-05-2.86457E-05-2.48362E-07-9.45869E-19-2.37446E-18
 -1      1905 9.52695E-05-2.85544E-05-2.85904E-05-9.57646E-08-6.52061E-20-2.20710E-18
 -1      1906 9.52416E-05-2.85505E-05-2.85811E-05-7.43622E-08 1.93826E-19-2.00768E-18
 -1      1907 9.53080E-05-2.85469E-05-2.86131E-05-1.54464E-07 1.90158E-19-1.61526E-18
 -1      1908 9.52202E-05-2.85480E-05-2.85726E-05-5.02099E-08 1.13553E-18-1.85968E-18
 -1      1909 9.52049E-05-2.85467E-05-2.85672E-05-3.56434E-08 1.75665E-18-2.99344E-19
 -1      1910 9.52554E-05-2.85452E-05-2.85910E-05-8.78282E-08 1.18778E-18-5.09374E-19
 -1      1911 9.51922E-05-2.85457E-05-2.85619E-05-1.92843E-08 1.19310E-18-8.37974E-19
 -1      1912 9.51855E-05-2.85462E-05-2.85593E-05-9.73220E-09 9.16555E-19-1.13125E-18
 -1      1913 9.52230E-05-2.85460E-05-2.85765E-05-4.17580E-08 8.74346E-19-1.60678E-18
 -1      1914 9.51789E-05-2.85462E-05-2.85563E-05 9.23818E-10 1.48386E-18-6.27255E-19
 -1      1915 9.51780E-05-2.85477E-05-2.85556E-05 6.87163E-09 1.27096E-18-1.60355E-19
 -1      1916 9.52049E-05-2.85481E-05-2.85677E-05-1.09291E-08 1.65825E-18-1.53522E-18
 -1      1917 9.51756E-05-2.85483E-05-2.85542E-05 1.34370E-08 4.90226E-21-6.11801E-19
 -1      1918 9.51783E-05-2.85504E-05-2.85546E-05 1.68503E-08 3.24249E-19-5.63106E-19
 -1      1919 9.51968E-05-2.85511E-05-2.85628E-05 8.81700E-09 5.30916E-19-2.21712E-19
 -1      1920 9.51786E-05-2.85514E-05-2.85543E-05 2.05418E-08-3.16250E-19-5.65791E-19
 -1      1921 9.51834E-05-2.85537E-05-2.85555E-05 2.22112E-08 6.50702E-19 2.88929E-20
 -1      1922 9.51954E-05-2.85544E-05-2.85607E-05 2.06630E-08 1.20035E-19 4.40964E-21
 -1      1923 9.51854E-05-2.85549E-05-2.85559E-05 2.39195E-08 1.82469E-18-8.58611E-19
 -1      1924 9.51913E-05-2.85572E-05-2.85574E-05 2.44059E-08 2.74959E-19-7.02940E-19
 -1      1925 9.51981E-05-2.85577E-05-2.85603E-05 2.69845E-08 1.49043E-19-1.11375E-18
 -1      1926 9.51942E-05-2.85585E-05-2.85581E-05 2.47530E-08-1.10958E-18 8.59007E-19
 -1      1927 9.52004E-05-2.85608E-05-2.85598E-05 2.44262E-08-4.98556E-19 1.38442E-18
 -1      1928 9.52034E-05-2.85610E-05-2.85611E-05 2.94911E-08-1.29879E-20-1.39913E-18
 -1      1929 9.52037E-05-2.85621E-05-2.85607E-05 2.38102E-08-5.03115E-19 2.15435E-18
 -1      1930 9.52098E-05-2.85642E-05-2.85624E-05 2.28756E-08 1.08266E-18 2.18168E-18
 -1      1931 9.52099E-05-2.85642E-05-2.85625E-05 2.93415E-08 3.77160E-19 2.09613E-18
 -1      1932 9.52132E-05-2.85655E-05-2.85633E-05 2.15074E-08 8.71943E-19 1.76434E-18
 -1      1933 9.52186E-05-2.85675E-05-2.85648E-05 2.00266E-08 5.73681E-19 1.62569E-18
 -1      1934 9.52168E-05-2.85672E-05-2.85641E-05 2.72374E-08 5.43560E-19 2.55320E-18
 -1      1935 9.52218E-05-2.85688E-05-2.85657E-05 1.79879E-08 1.22953E-19 1.17280E-18
 -1      1936 9.52264E-05-2.85706E-05-2.85668E-05 1.58983E-08-5.18760E-19 1.03384E-18
 -1      1937 9.52235E-05-2.85702E-05-2.85657E-05 2.35138E-08 1.17876E-19 1.84793E-18
 -1      1938 9.52289E-05-2.85716E-05-2.85675E-05 1.33289E-08-2.65724E-19 4.39391E-19
 -1      1939 9.52323E-05-2.85730E-05-2.85684E-05 1.06712E-08 1.40544E-19 5.29802E-19
 -1      1940 9.52340E-05-2.85751E-05-2.85681E-05 1.24582E-08-1.31220E-18 1.39215E-19
 -1      1941 9.52294E-05-2.85730E-05-2.85670E-05 1.84498E-08-8.30534E-19 8.64908E-19
 -1      1942 1.02614E-04-3.01982E-05-3.10037E-05-1.13275E-06 1.07015E-18 3.93535E-18
 -1      1943 1.02881E-04-3.00215E-05-3.11657E-05-4.65815E-08 1.15816E-18 4.42564E-18
 -1      1944 1.02983E-04-2.94152E-05-3.15447E-05 6.76263E-07 1.38483E-18 3.48638E-18
 -1      1945 1.03232E-04-3.07467E-05-3.10458E-05-2.29431E-06 7.48635E-19 3.35768E-18
 -1      1946 1.02815E-04-3.04692E-05-3.09580E-05-1.77115E-06 7.73440E-19 3.56015E-18
 -1      1947 1.02864E-04-3.02054E-05-3.11547E-05-1.76457E-06 1.05452E-18 2.89702E-18
 -1      1948 1.04455E-04-3.14116E-05-3.13025E-05-2.58488E-06 4.71854E-19 3.17997E-18
 -1      1949 1.03743E-04-3.10679E-05-3.11246E-05-2.45069E-06 5.39812E-19 3.23318E-18
 -1      1950 1.03592E-04-3.09328E-05-3.11550E-05-2.84139E-06 7.11580E-19 2.53892E-18
 -1      1951 1.05797E-04-3.21272E-05-3.15856E-05-2.07502E-06 1.63954E-19 3.04095E-18
 -1      1952 1.05094E-04-3.17854E-05-3.14155E-05-2.31442E-06 2.90648E-19 3.08704E-18
 -1      1953 1.04784E-04-3.17463E-05-3.13123E-05-2.86708E-06 3.60992E-19 2.34672E-18
 -1      1954 1.06788E-04-3.27476E-05-3.17533E-05-7.42551E-07 4.39594E-19 2.76809E-18
 -1      1955 1.06368E-04-3.25012E-05-3.16680E-05-1.37893E-06 2.45606E-19 2.92331E-18
 -1      1956 1.06043E-04-3.25946E-05-3.14786E-05-1.89245E-06 3.13018E-19 2.07722E-18
 -1      1957 1.06960E-04-3.30532E-05-3.16964E-05 1.34388E-06 4.90644E-19 2.28121E-18
 -1      1958 1.07075E-04-3.30198E-05-3.17572E-05 3.36451E-07 4.32384E-19 2.52687E-18
 -1      1959 1.06947E-04-3.32995E-05-3.15503E-05 5.90792E-08 5.93777E-19 1.81790E-18
 -1      1960 1.05924E-04-3.27766E-05-3.13611E-05 3.83710E-06 4.88453E-19 2.03475E-18
 -1      1961 1.06749E-04-3.30747E-05-3.15975E-05 2.62504E-06 4.80691E-19 2.25489E-18
 -1      1962 1.07056E-04-3.35673E-05-3.14672E-05 2.76934E-06 5.57215E-19 1.82214E-18
 -1      1963 1.03547E-04-3.17104E-05-3.07814E-05 5.98525E-06-4.39607E-19 2.34434E-18
 -1      1964 1.05081E-04-3.23970E-05-3.11694E-05 4.93569E-06-1.11967E-19 2.03797E-18
 -1      1965 1.06005E-04-3.30547E-05-3.12262E-05 5.62483E-06 3.26240E-21 2.12943E-18
 -1      1966 1.00181E-04-2.99203E-05-3.00933E-05 6.73898E-06 4.06276E-19 2.50931E-18
 -1      1967 1.02146E-04-3.08940E-05-3.05450E-05 6.35923E-06-8.40250E-20 2.36619E-18
 -1      1968 1.03722E-04-3.15751E-05-3.08876E-05 7.56148E-06-2.02699E-19 2.19779E-18
 -1      1969 9.68159E-05-2.79467E-05-2.95018E-05 5.26241E-06 6.85958E-19 2.73798E-18
 -1      1970 9.86435E-05-2.88930E-05-2.98834E-05 5.93952E-06 5.34312E-19 2.68243E-18
 -1      1971 1.00713E-04-2.94024E-05-3.05553E-05 7.37653E-06 5.08048E-19 2.35437E-18
 -1      1972 9.48246E-05-2.66917E-05-2.92071E-05 1.65576E-06 1.08633E-18 2.14804E-18
 -1      1973 9.58275E-05-2.71880E-05-2.93877E-05 3.31461E-06 9.75729E-19 2.43080E-18
 -1      1974 9.81075E-05-2.73885E-05-3.03365E-05 4.48563E-06 1.12892E-18 2.15119E-18
 -1      1975 9.52207E-05-2.68657E-05-2.93176E-05-2.77487E-06 9.94834E-19 1.32787E-18
 -1      1976 9.49438E-05-2.66458E-05-2.92276E-05-7.62934E-07 7.77550E-19 1.65262E-18
 -1      1977 9.71783E-05-2.65869E-05-3.03003E-05-3.63842E-07 1.10161E-18 1.67400E-18
 -1      1978 9.79473E-05-2.84150E-05-2.98156E-05-6.20268E-06 3.31302E-19 1.12649E-18
 -1      1979 9.64441E-05-2.75741E-05-2.94738E-05-4.66053E-06 8.32819E-19 1.18786E-18
 -1      1980 9.84792E-05-2.74665E-05-3.04609E-05-5.23329E-06 1.01997E-18 9.24728E-19
 -1      1981 1.01888E-04-3.05611E-05-3.05658E-05-7.42964E-06-6.61565E-20 6.52480E-19
 -1      1982 9.97038E-05-2.94803E-05-3.00731E-05-6.86245E-06 2.40710E-20 9.38751E-19
 -1      1983 1.01436E-04-2.95743E-05-3.07955E-05-8.17260E-06 2.68615E-19 5.18854E-19
 -1      1984 1.05628E-04-3.24062E-05-3.13595E-05-6.48592E-06 5.81955E-19 1.39019E-19
 -1      1985 1.03467E-04-3.14802E-05-3.08556E-05-6.85420E-06 3.14908E-19 4.00302E-19
 -1      1986 1.04764E-04-3.18571E-05-3.12287E-05-8.40492E-06 7.13751E-19 1.66746E-19
 -1      1987 1.08209E-04-3.34735E-05-3.20020E-05-4.25855E-06 7.99513E-19-4.68945E-19
 -1      1988 1.06597E-04-3.29076E-05-3.16066E-05-5.17542E-06 1.01532E-18 3.94400E-21
 -1      1989 1.07337E-04-3.34477E-05-3.16516E-05-6.49905E-06 1.15046E-18-3.90092E-19
 -1      1990 1.09340E-04-3.37485E-05-3.23737E-05-1.76125E-06-1.49303E-19-6.25237E-19
 -1      1991 1.08494E-04-3.35544E-05-3.21516E-05-2.79899E-06 1.60473E-19-5.42085E-19
 -1      1992 1.08652E-04-3.40667E-05-3.19587E-05-3.63288E-06 3.72774E-19-8.26793E-19
 -1      1993 1.09204E-04-3.34607E-05-3.24481E-05 3.26851E-07-4.32390E-19-3.78878E-19
 -1      1994 1.09080E-04-3.35456E-05-3.24052E-05-5.48065E-07-2.99975E-19-2.77398E-19
 -1      1995 1.08753E-04-3.38933E-05-3.20837E-05-8.44012E-07-3.44279E-19-5.56663E-19
 -1      1996 1.08177E-04-3.28717E-05-3.22693E-05 1.74110E-06-5.66387E-20-4.98006E-19
 -1      1997 1.08596E-04-3.31225E-05-3.23719E-05 1.14095E-06-5.68141E-19-4.10368E-19
 -1      1998 1.07955E-04-3.32656E-05-3.20141E-05 1.29378E-06-2.50325E-19-1.33659E-18
 -1      1999 1.06641E-04-3.21763E-05-3.19151E-05 2.50198E-06 9.28535E-19-4.64101E-19
 -1      2000 1.07395E-04-3.25017E-05-3.21139E-05 2.17099E-06 4.50691E-19-1.36736E-19
 -1      2001 1.06617E-04-3.24717E-05-3.17805E-05 2.63084E-06 3.95047E-19-5.70306E-19
 -1      2002 1.04902E-04-3.14905E-05-3.14661E-05 2.75827E-06-7.29226E-20-7.55484E-19
 -1      2003 1.05810E-04-3.18297E-05-3.17136E-05 2.63720E-06 5.65904E-19-7.03454E-19
 -1      2004 1.05030E-04-3.16869E-05-3.14358E-05 3.26571E-06 8.00232E-19-9.70117E-19
 -1      2005 1.03167E-04-3.08717E-05-3.09885E-05 2.68146E-06-1.82213E-18-5.55836E-19
 -1      2006 1.04099E-04-3.11898E-05-3.12477E-05 2.70068E-06-1.27076E-18-8.22462E-19
 -1      2007 1.03402E-04-3.09925E-05-3.10347E-05 3.38840E-06-1.06332E-18-4.91928E-19
 -1      2008 1.01565E-04-3.03421E-05-3.05283E-05 2.41622E-06-9.36169E-19 1.06697E-18
 -1      2009 1.02437E-04-3.06219E-05-3.07746E-05 2.51633E-06-1.53292E-18 1.88774E-19
 -1      2010 1.01863E-04-3.04132E-05-3.06229E-05 3.18835E-06-1.58534E-18-5.87464E-21
 -1      2011 1.00160E-04-2.99046E-05-3.01127E-05 2.06675E-06 2.94137E-20 1.74527E-18
 -1      2012 1.00929E-04-3.01402E-05-3.03323E-05 2.20452E-06-2.44572E-20 1.73746E-18
 -1      2013 1.00485E-04-2.99464E-05-3.02323E-05 2.81630E-06-7.22057E-19 1.31360E-18
 -1      2014 9.89749E-05-2.95528E-05-2.97547E-05 1.70006E-06 7.15859E-20 2.04755E-18
 -1      2015 9.96246E-05-2.97446E-05-2.99417E-05 1.84734E-06 3.68939E-20 1.76483E-18
 -1      2016 9.93002E-05-2.95787E-05-2.98820E-05 2.37728E-06-2.49709E-20 2.09603E-18
 -1      2017 9.80067E-05-2.92763E-05-2.94573E-05 1.35488E-06-6.25827E-19 1.63325E-18
 -1      2018 9.85366E-05-2.94282E-05-2.96109E-05 1.49514E-06-5.43911E-19 1.78372E-18
 -1      2019 9.83127E-05-2.92941E-05-2.95808E-05 1.93712E-06-1.87482E-19 1.91075E-18
 -1      2020 9.72363E-05-2.90635E-05-2.92177E-05 1.05050E-06 5.20677E-19 1.33426E-18
 -1      2021 9.76563E-05-2.91808E-05-2.93401E-05 1.17527E-06 2.02049E-19 1.90381E-18
 -1      2022 9.75118E-05-2.90774E-05-2.93305E-05 1.53270E-06 6.56996E-20 1.76136E-18
 -1      2023 9.66381E-05-2.89031E-05-2.90296E-05 7.93910E-07-1.23761E-19 6.37789E-19
 -1      2024 9.69624E-05-2.89916E-05-2.91247E-05 8.99865E-07-3.20276E-20 7.35162E-19
 -1      2025 9.68776E-05-2.89150E-05-2.91283E-05 1.18132E-06 5.48942E-19 1.64547E-18
 -1      2026 9.61842E-05-2.87848E-05-2.88854E-05 5.84870E-07-3.45795E-19 5.67433E-19
 -1      2027 9.64286E-05-2.88500E-05-2.89575E-05 6.71770E-07-1.64126E-19 3.21683E-19
 -1      2028 9.63866E-05-2.87955E-05-2.89690E-05 8.88038E-07-1.53077E-19-1.65141E-19
 -1      2029 9.58479E-05-2.86996E-05-2.87776E-05 4.19280E-07 8.37009E-19-1.39645E-18
 -1      2030 9.60275E-05-2.87464E-05-2.88309E-05 4.88564E-07 1.50408E-19-3.93026E-19
 -1      2031 9.60147E-05-2.87092E-05-2.88465E-05 6.50822E-07 8.13156E-19-7.67668E-19
 -1      2032 9.56049E-05-2.86399E-05-2.86990E-05 2.91318E-07 3.95386E-19-4.15834E-19
 -1      2033 9.57333E-05-2.86725E-05-2.87373E-05 3.45209E-07 8.76047E-19-8.26155E-19
 -1      2034 9.57394E-05-2.86485E-05-2.87544E-05 4.63978E-07 4.77257E-19-1.31479E-18
 -1      2035 9.54343E-05-2.85995E-05-2.86431E-05 1.94714E-07-7.42138E-20-2.86763E-19
 -1      2036 9.55233E-05-2.86213E-05-2.86699E-05 2.35681E-07-2.85388E-19-1.73448E-19
 -1      2037 9.55405E-05-2.86070E-05-2.86868E-05 3.20286E-07-5.53018E-20-9.33765E-19
 -1      2038 9.53187E-05-2.85733E-05-2.86048E-05 1.23468E-07 5.95080E-19 6.73957E-20
 -1      2039 9.53780E-05-2.85873E-05-2.86228E-05 1.53914E-07 2.87369E-19-2.13582E-19
 -1      2040 9.54009E-05-2.85798E-05-2.86384E-05 2.12284E-07 4.10388E-19 9.74103E-20
 -1      2041 9.52440E-05-2.85575E-05-2.85796E-05 7.22088E-08 1.19317E-18-7.19540E-19
 -1      2042 9.52814E-05-2.85658E-05-2.85911E-05 9.43080E-08 1.29880E-18-6.96248E-19
 -1      2043 9.53062E-05-2.85629E-05-2.86050E-05 1.32976E-07 1.88161E-18 1.17380E-18
 -1      2044 9.51989E-05-2.85490E-05-2.85639E-05 3.63403E-08 1.64201E-19-1.26332E-18
 -1      2045 9.52206E-05-2.85532E-05-2.85708E-05 5.19718E-08 5.86566E-19-1.17952E-18
 -1      2046 9.52449E-05-2.85534E-05-2.85827E-05 7.61744E-08 1.22990E-18-1.77852E-19
 -1      2047 9.51748E-05-2.85454E-05-2.85552E-05 1.20600E-08 4.37433E-19-1.10962E-18
 -1      2048 9.51855E-05-2.85470E-05-2.85587E-05 2.27902E-08 1.84989E-19-1.48895E-18
 -1      2049 9.52079E-05-2.85489E-05-2.85686E-05 3.66303E-08 3.37698E-20-8.81913E-19
 -1      2050 9.51651E-05-2.85452E-05-2.85511E-05-3.69192E-09-6.88675E-19-1.12140E-18
 -1      2051 9.51684E-05-2.85449E-05-2.85524E-05 3.40658E-09-3.44130E-19-1.41370E-18
 -1      2052 9.51881E-05-2.85478E-05-2.85605E-05 1.00280E-08-2.70550E-19 3.34682E-20
 -1      2053 9.51649E-05-2.85470E-05-2.85503E-05-1.33143E-08 1.31013E-19 2.05135E-19
 -1      2054 9.51633E-05-2.85457E-05-2.85501E-05-8.84570E-09-1.01601E-19-6.15053E-19
 -1      2055 9.51801E-05-2.85488E-05-2.85565E-05-7.08446E-09-9.81315E-19 4.49252E-19
 -1      2056 9.51706E-05-2.85500E-05-2.85515E-05-1.86374E-08-1.91625E-18-1.78924E-18
 -1      2057 9.51662E-05-2.85481E-05-2.85504E-05-1.60298E-08-5.00344E-19-6.70659E-19
 -1      2058 9.51799E-05-2.85512E-05-2.85554E-05-1.73970E-08-2.47143E-19-6.29418E-20
 -1      2059 9.51798E-05-2.85536E-05-2.85539E-05-2.10114E-08-1.58531E-18-1.53367E-18
 -1      2060 9.51738E-05-2.85514E-05-2.85523E-05-1.96947E-08-2.31051E-18-2.36500E-18
 -1      2061 9.51846E-05-2.85542E-05-2.85560E-05-2.29452E-08-1.80482E-18 9.42564E-20
 -1      2062 9.51906E-05-2.85575E-05-2.85570E-05-2.13821E-08 1.48415E-18-1.48390E-18
 -1      2063 9.51839E-05-2.85552E-05-2.85551E-05-2.09565E-08-3.38086E-19-2.05763E-18
 -1      2064 9.51921E-05-2.85576E-05-2.85578E-05-2.52116E-08 3.53860E-21-8.58894E-19
 -1      2065 9.52018E-05-2.85612E-05-2.85602E-05-2.03519E-08 2.17806E-18-1.48944E-18
 -1      2066 9.51951E-05-2.85590E-05-2.85583E-05-2.05658E-08 2.41536E-18-2.27150E-19
 -1      2067 9.52010E-05-2.85610E-05-2.85601E-05-2.52120E-08 1.68072E-18-2.47771E-19
 -1      2068 9.52125E-05-2.85648E-05-2.85633E-05-1.82190E-08 7.56648E-19-9.80243E-19
 -1      2069 9.52063E-05-2.85628E-05-2.85615E-05-1.89582E-08 1.05670E-18-1.29041E-18
 -1      2070 9.52101E-05-2.85643E-05-2.85625E-05-2.35649E-08 1.17840E-18-9.69900E-20
 -1      2071 9.52220E-05-2.85681E-05-2.85659E-05-1.50264E-08-9.60376E-19-7.78971E-19
 -1      2072 9.52166E-05-2.85663E-05-2.85645E-05-1.62969E-08 1.14895E-20-4.83975E-19
 -1      2073 9.52188E-05-2.85675E-05-2.85648E-05-2.05421E-08-9.44190E-20 4.17594E-19
 -1      2074 9.52297E-05-2.85710E-05-2.85680E-05-1.06346E-08-5.07798E-19-1.35952E-18
 -1      2075 9.52255E-05-2.85695E-05-2.85669E-05-1.25549E-08-8.48010E-19-6.73068E-19
 -1      2076 9.52265E-05-2.85706E-05-2.85668E-05-1.61997E-08-7.81049E-19 7.23038E-19
 -1      2077 9.52344E-05-2.85729E-05-2.85692E-05-6.50915E-09 1.26162E-18-8.38495E-19
 -1      2078 9.52315E-05-2.85719E-05-2.85685E-05-8.98204E-09 2.30811E-19-6.98438E-19
 -1      2079 9.52319E-05-2.85729E-05-2.85681E-05-1.18358E-08 8.53787E-20 3.95635E-19
 -1      2080 9.52353E-05-2.85746E-05-2.85688E-05-8.04202E-09-2.90708E-20 2.21268E-18
 -1      2081 9.52444E-05-2.85939E-05-2.85645E-05-1.59141E-08 5.34419E-19 2.10287E-18
 -1      2082 9.52425E-05-2.85898E-05-2.85655E-05-1.59960E-08-2.40042E-19 3.65450E-18
 -1      2083 9.52408E-05-2.85865E-05-2.85661E-05-1.55361E-08-6.22774E-19 2.61130E-18
 -1      2084 9.52389E-05-2.85825E-05-2.85671E-05-1.44376E-08-9.20096E-19 2.14344E-18
 -1      2085 9.52409E-05-2.85865E-05-2.85662E-05-1.97267E-08-3.01119E-19 3.05491E-18
 -1      2086 9.52378E-05-2.85802E-05-2.85676E-05-1.26987E-08-1.54424E-18 1.74658E-18
 -1      2087 9.52362E-05-2.85769E-05-2.85683E-05-1.05120E-08-1.09684E-18 3.09228E-18
 -1      2088 9.52348E-05-2.85761E-05-2.85680E-05-1.26556E-08-3.17964E-19 2.13251E-18
 -1      2089 9.52375E-05-2.85809E-05-2.85671E-05-1.72184E-08-1.38385E-18 2.74342E-18
 -1      2090 9.52474E-05-2.86006E-05-2.85629E-05-1.42034E-08-2.22119E-19-2.47643E-18
 -1      2091 9.52458E-05-2.85968E-05-2.85638E-05-1.51659E-08-6.17201E-20 8.51070E-20
 -1      2092 9.52447E-05-2.85929E-05-2.85651E-05-1.93384E-08-8.02123E-19 5.12186E-19
 -1      2093 9.52497E-05-2.86060E-05-2.85615E-05-1.08661E-08 5.43047E-19-2.69850E-18
 -1      2094 9.52485E-05-2.86030E-05-2.85623E-05-1.24958E-08 6.64774E-20-1.28826E-18
 -1      2095 9.52478E-05-2.85984E-05-2.85641E-05-1.65850E-08-6.90107E-19-1.66359E-18
 -1      2096 9.52513E-05-2.86097E-05-2.85606E-05-6.44358E-09 6.52645E-19-3.72107E-18
 -1      2097 9.52505E-05-2.86078E-05-2.85611E-05-8.49171E-09 1.47397E-18-3.93683E-18
 -1      2098 9.52500E-05-2.86028E-05-2.85632E-05-1.20206E-08 8.88835E-19-2.35053E-18
 -1      2099 9.52519E-05-2.86113E-05-2.85602E-05-1.43018E-09 2.31165E-19-1.00366E-18
 -1      2100 9.52517E-05-2.86106E-05-2.85603E-05-3.68156E-09 6.00229E-19-2.07973E-18
 -1      2101 9.52514E-05-2.86055E-05-2.85626E-05-6.28801E-09 1.49760E-18-2.92801E-18
 -1      2102 9.52517E-05-2.86106E-05-2.85604E-05 3.71224E-09-2.99841E-19 4.36631E-19
 -1      2103 9.52519E-05-2.86113E-05-2.85602E-05 1.45966E-09 8.17773E-19-4.92030E-19
 -1      2104 9.52519E-05-2.86064E-05-2.85624E-05 1.68283E-11 6.54681E-19-3.78370E-19
 -1      2105 9.52505E-05-2.86078E-05-2.85611E-05 8.52836E-09-1.35719E-18-2.14775E-18
 -1      2106 9.52513E-05-2.86097E-05-2.85606E-05 6.47803E-09-1.75912E-18-2.68352E-19
 -1      2107 9.52514E-05-2.86055E-05-2.85626E-05 6.32574E-09-7.21292E-19-2.10543E-18
 -1      2108 9.52485E-05-2.86031E-05-2.85623E-05 1.24807E-08-9.61512E-19-4.17717E-19
 -1      2109 9.52498E-05-2.86061E-05-2.85615E-05 1.08730E-08-1.03973E-18-1.20630E-18
 -1      2110 9.52501E-05-2.86028E-05-2.85632E-05 1.20270E-08-5.07276E-19-1.09094E-18
 -1      2111 9.52458E-05-2.85968E-05-2.85638E-05 1.51898E-08 1.10038E-19 3.24505E-18
 -1      2112 9.52474E-05-2.86006E-05-2.85629E-05 1.42074E-08-1.31221E-18 2.24533E-18
 -1      2113 9.52478E-05-2.85985E-05-2.85640E-05 1.65773E-08-1.91822E-19 9.93301E-19
 -1      2114 9.52425E-05-2.85897E-05-2.85655E-05 1.60214E-08 8.24313E-19 1.33304E-18
 -1      2115 9.52444E-05-2.85938E-05-2.85645E-05 1.59518E-08 5.76589E-19 1.21831E-18
 -1      2116 9.52447E-05-2.85929E-05-2.85651E-05 1.93748E-08-4.26651E-19 2.73908E-18
 -1      2117 9.52388E-05-2.85824E-05-2.85671E-05 1.45453E-08-6.37064E-19-5.10044E-19
 -1      2118 9.52409E-05-2.85865E-05-2.85662E-05 1.55488E-08 1.07756E-19-5.15689E-19
 -1      2119 9.52409E-05-2.85865E-05-2.85662E-05 1.97321E-08 2.56825E-19-2.83500E-20
 -1      2120 6.31290E-05-4.09435E-05-9.77110E-06 4.24101E-05 2.74566E-18 5.25595E-18
 -1      2121 4.61453E-05-4.03364E-05-3.32020E-06 3.53359E-05 1.26377E-18 6.00017E-18
 -1      2122 1.24410E-05-3.51530E-05 8.23183E-06 6.21363E-06-4.54539E-19 5.84537E-18
 -1      2123 1.15564E-05-3.28063E-05 7.85834E-06-3.83130E-06-2.42103E-18 6.50902E-18
 -1      2124 2.60745E-05-3.27273E-05 2.15183E-06 2.77159E-05 1.41116E-18 7.46575E-18
 -1      2125 1.79243E-05-3.67707E-05 6.45188E-06 1.60428E-05-3.54907E-19 6.21468E-18
 -1      2126 1.73526E-05-2.56363E-05 2.96170E-06 1.45014E-05-9.01243E-19 7.40053E-18
 -1      2127 1.01857E-04-4.41708E-05-2.46287E-05 4.20562E-05 4.43083E-18 3.64309E-18
 -1      2128 8.20386E-05-4.57399E-05-1.64357E-05 3.89282E-05 3.29919E-18 4.13183E-18
 -1      2129 1.37270E-04-4.47544E-05-3.96072E-05 2.94236E-05 5.07415E-18 2.65164E-18
 -1      2130 1.18061E-04-4.52256E-05-3.16830E-05 3.31379E-05 5.01698E-18 3.45378E-18
 -1      2131 8.67417E-05-7.73997E-06-3.39584E-05-5.68139E-06-8.99549E-19-2.25189E-18
 -1      2132 8.87147E-05-8.71746E-06-3.43502E-05-7.10813E-06-1.17215E-18-1.94292E-18
 -1      2133 9.17936E-05-1.27027E-05-3.39578E-05-6.65069E-06-1.25422E-18-1.65513E-18
 -1      2134 8.71833E-05-9.30251E-06-3.33942E-05-4.51647E-06-8.42037E-19-2.16169E-18
 -1      2135 1.80519E-04-2.78911E-05-6.40157E-05 8.91370E-06 5.50656E-18 3.98529E-19
 -1      2136 1.68839E-04-2.82973E-05-5.96613E-05 1.45428E-05 5.77634E-18 1.74743E-18
 -1      2137 1.81628E-04-2.38302E-05-6.64491E-05-2.60376E-06 5.14700E-18-1.15054E-18
 -1      2138 1.79866E-04-2.38942E-05-6.57972E-05 5.01269E-06 5.45066E-18-2.64698E-20
 -1      2139 1.74568E-04-2.63236E-05-6.27587E-05-1.25910E-05 4.93354E-18-2.26920E-18
 -1      2140 1.83987E-04-2.64503E-05-6.60128E-05-6.01263E-06 4.74000E-18-1.31587E-18
 -1      2141 1.55381E-04-3.38821E-05-5.17125E-05-1.73110E-05 4.23686E-18-2.49663E-18
 -1      2142 1.71107E-04-3.15038E-05-5.82873E-05-1.64810E-05 4.76837E-18-2.34459E-18
 -1      2143 1.27392E-04-4.26134E-05-3.65104E-05-3.25392E-05 3.51201E-18-4.14369E-18
 -1      2144 1.45445E-04-4.30023E-05-4.39222E-05-2.58873E-05 3.17108E-18-3.43472E-18
 -1      2145 9.17048E-05-4.26967E-05-2.19344E-05-3.89332E-05 3.10522E-18-4.42914E-18
 -1      2146 1.11540E-04-4.10087E-05-3.00425E-05-4.21859E-05 3.74558E-18-4.37154E-18
 -1      2147 6.15329E-05-4.38152E-05-8.46226E-06-3.85799E-05 1.40692E-18-4.06925E-18
 -1      2148 7.80266E-05-4.21443E-05-1.55540E-05-4.33582E-05 2.67917E-18-4.54221E-18
 -1      2149 2.63418E-05-3.80554E-05 3.55989E-06-2.42841E-05 5.27278E-19-4.45920E-18
 -1      2150 3.83795E-05-3.53876E-05-1.87206E-06-3.52218E-05 1.53355E-18-4.58965E-18
 -1      2151 1.26047E-05-2.89016E-05 6.28324E-06-5.95878E-06-2.68536E-19-4.86028E-18
 -1      2152 1.70181E-05-3.34843E-05 5.82948E-06-1.60875E-05 6.23840E-19-4.62946E-18
 -1      2153 2.61630E-05-2.72313E-05 3.74680E-08-2.54937E-05-4.02764E-19-5.00808E-18
 -1      2154 2.04927E-05-3.61436E-05 5.22748E-06 1.94779E-05-2.10996E-18-5.03561E-18
 -1      2155 1.39563E-05-3.16462E-05 6.51486E-06 1.08143E-05-5.39136E-19-5.03985E-18
 -1      2156 4.50763E-05-3.81239E-05-3.70356E-06 3.61929E-05-3.07473E-18-4.34242E-18
 -1      2157 3.16498E-05-4.03170E-05 2.07937E-06 2.63225E-05-2.25014E-18-4.79421E-18
 -1      2158 3.16350E-05-3.18267E-05-4.57694E-07 2.94370E-05-2.91168E-19-5.12158E-18
 -1      2159 8.34205E-05-4.22615E-05-1.78630E-05 4.25848E-05-4.67308E-18-3.88301E-18
 -1      2160 6.58075E-05-4.46533E-05-1.02554E-05 3.72468E-05-3.56516E-18-3.61535E-18
 -1      2161 1.21351E-04-4.24102E-05-3.34371E-05 4.02822E-05-4.66122E-18-4.32072E-18
 -1      2162 1.00457E-04-4.40182E-05-2.50758E-05 3.74446E-05-4.71120E-18-3.95014E-18
 -1      2163 1.55052E-04-4.06819E-05-4.83812E-05 2.77873E-05-4.18974E-18-2.51908E-18
 -1      2164 1.35614E-04-4.10323E-05-4.06980E-05 3.08362E-05-4.49160E-18-3.74050E-18
 -1      2165 1.68927E-04-3.14170E-05-5.86136E-05 7.59827E-06-4.51807E-18-8.77103E-19
 -1      2166 1.61511E-04-3.50385E-05-5.36580E-05 1.60797E-05-4.27974E-18-1.79317E-18
 -1      2167 1.84034E-04-2.47277E-05-6.64750E-05 2.91167E-06-5.10930E-18-4.09593E-19
 -1      2168 1.72724E-04-2.32387E-05-6.33646E-05 6.07932E-06-5.23255E-18-1.14222E-18
 -1      2169 1.85439E-04-2.72439E-05-6.62065E-05-7.37060E-06-5.36257E-18 1.72117E-18
 -1      2170 1.87026E-04-2.62742E-05-6.75427E-05 2.75390E-07-4.95472E-18 1.77136E-19
 -1      2171 1.70262E-04-3.19595E-05-5.84524E-05-1.79847E-05-5.85067E-18 3.05864E-18
 -1      2172 1.83294E-04-3.18077E-05-6.33056E-05-1.21613E-05-5.29057E-18 1.69534E-18
 -1      2173 1.44901E-04-3.93937E-05-4.52595E-05-2.62789E-05-6.53814E-18 4.30039E-18
 -1      2174 1.63632E-04-3.84247E-05-5.25058E-05-2.37016E-05-6.10762E-18 3.24075E-18
 -1      2175 1.13206E-04-4.57338E-05-2.96168E-05-3.37030E-05-6.27567E-18 4.53078E-18
 -1      2176 1.34072E-04-4.42739E-05-3.79469E-05-3.46046E-05-6.26042E-18 4.69383E-18
 -1      2177 7.62644E-05-4.56076E-05-1.43521E-05-3.68703E-05-4.69976E-18 5.90784E-18
 -1      2178 9.54695E-05-4.39416E-05-2.21551E-05-4.16181E-05-5.62557E-18 5.34901E-18
 -1      2179 4.08706E-05-4.18883E-05-1.16542E-06-2.99499E-05-4.47572E-18 5.58682E-18
 -1      2180 5.51084E-05-3.94697E-05-7.42501E-06-3.75094E-05-4.97124E-18 6.84368E-18
 -1      2181 1.91141E-05-3.50492E-05 5.60470E-06-1.72373E-05-2.63724E-18 5.34986E-18
 -1      2182 2.79197E-05-3.62521E-05 2.47972E-06-2.57652E-05-4.17503E-18 4.82872E-18
 -1      2183 1.65363E-04-3.43360E-05-5.47712E-05 2.06799E-05 5.87682E-18 2.01975E-18
 -1      2184 1.49081E-04-3.72842E-05-4.76067E-05 2.10493E-05 5.71136E-18 2.39668E-18
 -1      2185 1.44517E-04-4.48066E-05-4.24651E-05 1.80068E-05 4.59304E-18 1.32772E-18
 -1      2186 1.40385E-04-5.21294E-05-3.73997E-05 1.39694E-05 2.97700E-18-7.88376E-19
 -1      2187 1.47082E-04-4.47467E-05-4.44741E-05 4.08859E-06 4.10049E-18-1.27775E-18
 -1      2188 1.03939E-04-2.63488E-05-3.33113E-05-5.93778E-06-1.58160E-18 9.38274E-19
 -1      2189 1.57744E-04-2.96503E-05-5.42133E-05 2.69417E-06 5.63616E-18-1.21549E-19
 -1      2190 1.02343E-04-2.47585E-05-3.33294E-05-5.37630E-06-1.67547E-18 9.67470E-20
 -1      2191 4.33775E-05-3.50666E-05-3.72701E-06 3.65478E-05-3.72906E-19 6.56535E-18
 -1      2192 8.40476E-05-4.93316E-05-1.50848E-05 4.22632E-05 3.82435E-19 3.22566E-18
 -1      2193 9.52373E-05-2.85797E-05-2.85676E-05 1.42251E-08-1.02876E-18-6.15549E-19
 -1      2194 1.86222E-05-2.63733E-05 2.76192E-06-1.35744E-05-1.62652E-18 6.58229E-18
 -1      2195 1.20292E-04-5.40490E-05-2.81120E-05 3.23584E-05 2.12965E-18 1.47553E-18
 -1      2196 4.19825E-05-3.65556E-05-2.92676E-06-3.43646E-05-1.24895E-18 5.07394E-18
 -1      2197 7.85369E-05-4.86695E-05-1.30424E-05-4.12962E-05-1.95241E-18 4.53658E-18
 -1      2198 1.17984E-04-5.59640E-05-2.64349E-05-3.27670E-05-3.15753E-18 2.60865E-18
 -1      2199 1.45357E-04-5.07649E-05-4.00751E-05-1.64414E-05-4.61199E-18 1.14222E-18
 -1      2200 1.60636E-04-3.58628E-05-5.25213E-05-5.01031E-06-5.31577E-18 1.29173E-19
 -1      2201 1.67457E-04-2.19618E-05-6.09160E-05 1.94700E-07-5.45913E-18 2.83121E-19
 -1      2202 1.63789E-04-1.51652E-05-6.25915E-05 7.71310E-10-5.52520E-18 1.54107E-19
 -1      2203 1.62438E-04-2.52563E-05-5.82686E-05 6.43643E-07-4.53607E-18-7.80753E-19
 -1      2204 1.49365E-04-2.70276E-05-5.23307E-05-6.69010E-06-3.94739E-18 3.06202E-19
 -1      2205 1.48475E-04-1.79045E-05-5.64764E-05-6.94975E-06-4.55873E-18-2.08158E-19
 -1      2206 1.54903E-04-4.09471E-05-4.79863E-05 7.29690E-06-3.41952E-18-1.18585E-19
 -1      2207 1.37236E-04-5.16822E-05-3.61739E-05 2.54777E-05-2.96800E-18-1.72244E-18
 -1      2208 6.56325E-05-4.48169E-05-9.32788E-06 4.10856E-05-1.14942E-18-3.38580E-18
 -1      2209 1.59283E-05-2.54283E-05 3.63388E-06 2.84450E-06-1.11967E-19-5.24483E-18
 -1      2210 1.92640E-05-1.75060E-05-5.51299E-07-4.69285E-06-2.73433E-19-4.89077E-18
 -1      2211 1.99306E-05-1.93220E-05-2.08851E-07 1.20315E-05 2.90691E-19-5.27574E-18
 -1      2212 5.95261E-05-4.16248E-05-7.92990E-06-4.14823E-05-4.99749E-20-3.99609E-18
 -1      2213 9.89969E-05-5.23687E-05-2.01722E-05-4.06758E-05 4.27752E-19-2.80230E-18
 -1      2214 1.29402E-04-5.24061E-05-3.24342E-05-2.92108E-05 1.48358E-18-2.22177E-18
 -1      2215 1.50332E-04-4.13966E-05-4.62983E-05-1.42042E-05 2.77954E-18-1.53228E-18
 -1      2216 1.48711E-04-3.92484E-05-4.75235E-05 2.11099E-07 2.42463E-18 1.16001E-18
 -1      2217 1.44385E-04-4.86210E-05-4.06296E-05-9.61777E-06 1.40230E-18 2.92650E-19
 -1      2218 1.59390E-04-2.44217E-05-5.70411E-05-9.19675E-07 4.52400E-18-2.04982E-19
 -1      2219 1.59817E-04-1.61816E-05-6.04325E-05-1.05617E-06 5.67809E-18-6.98379E-19
 -1      2220 1.60910E-04-1.41273E-05-6.16818E-05-5.25845E-07 5.36172E-18-4.45751E-19
 -1      2221 1.05530E-04-5.32457E-05-2.24966E-05 3.83216E-05-2.35390E-18-2.40007E-18
 -1      2222 1.02281E-04-2.84890E-05-3.16082E-05 1.24970E-07 1.39475E-18 2.52506E-18
 -1      2223 1.02562E-04-2.77650E-05-3.19825E-05 1.96469E-06 1.54503E-18 2.74944E-18
 -1      2224 8.08970E-05-6.36575E-06-3.19798E-05-1.13536E-06-5.41241E-20-2.24127E-18
 -1      2225 8.19801E-05-6.99936E-06-3.21531E-05-1.53889E-06-2.66748E-19-2.36028E-18
 -1      2226 8.34524E-05-8.10253E-06-3.23437E-05-1.76100E-06-3.86670E-19-2.35942E-18
 -1      2227 8.51083E-05-9.13157E-06-3.25857E-05-2.37804E-06-5.98984E-19-2.23930E-18
 -1      2228 8.34723E-05-9.06211E-06-3.18778E-05-9.65113E-07-3.23117E-19-2.20556E-18
 -1      2229 7.96855E-05-5.61260E-06-3.17627E-05-4.82954E-07 7.01848E-19-1.97858E-18
 -1      2230 7.94965E-05-5.48113E-06-3.17476E-05-7.80739E-07 4.98079E-19-2.10645E-18
 -1      2231 8.09994E-05-6.52866E-06-3.19289E-05 3.68614E-08 1.03517E-18-1.67577E-18
 -1      2232 8.02246E-05-6.05428E-06-3.18217E-05-3.82508E-07 8.19768E-19-1.85743E-18
 -1      2233 8.05684E-05-7.15462E-06-3.14534E-05-7.13043E-07 7.14038E-19-1.79410E-18
 -1      2234 8.33332E-05-8.14207E-06-3.22393E-05 9.40151E-07 1.38893E-18-1.39355E-18
 -1      2235 8.20946E-05-7.38340E-06-3.20614E-05 3.29716E-07 1.15938E-18-1.55167E-18
 -1      2236 8.23023E-05-8.45208E-06-3.16451E-05-3.62810E-07 9.99246E-19-1.48873E-18
 -1      2237 8.65540E-05-1.04200E-05-3.26536E-05 2.33982E-06 1.72470E-18-9.00542E-19
 -1      2238 8.49032E-05-9.36468E-06-3.24247E-05 1.48202E-06 1.53838E-18-1.19707E-18
 -1      2239 8.50892E-05-1.05124E-05-3.19601E-05 4.32765E-07 1.39369E-18-1.14243E-18
 -1      2240 9.04717E-05-1.33597E-05-3.30951E-05 4.17165E-06 1.99317E-18-3.79027E-19
 -1      2241 8.84886E-05-1.19703E-05-3.28544E-05 3.09960E-06 1.77534E-18-6.99126E-19
 -1      2242 8.87128E-05-1.32485E-05-3.23395E-05 1.68231E-06 1.64400E-18-6.60547E-19
 -1      2243 9.50409E-05-1.71586E-05-3.34661E-05 6.16182E-06 2.16017E-18 4.76833E-19
 -1      2244 9.27166E-05-1.52766E-05-3.32579E-05 5.01310E-06 2.04745E-18-4.20075E-20
 -1      2245 9.29406E-05-1.66325E-05-3.26901E-05 3.18577E-06 1.86731E-18-1.24613E-19
 -1      2246 1.02603E-04-2.97345E-05-3.12171E-05-2.31966E-06 1.10976E-18 2.06101E-18
 -1      2247 1.02441E-04-2.91997E-05-3.13167E-05-1.38380E-06 1.20604E-18 2.42054E-18
 -1      2248 1.01510E-04-2.77181E-05-3.16453E-05-4.40072E-07 1.43620E-18 1.73272E-18
 -1      2249 1.01721E-04-2.62862E-05-3.22756E-05-2.55472E-07-1.42041E-18-1.11691E-19
 -1      2250 1.01791E-04-2.72128E-05-3.19610E-05 1.96617E-06-1.26735E-18-1.22405E-19
 -1      2251 1.49686E-04-2.52512E-05-5.36558E-05-4.51384E-06 5.21899E-18-8.71809E-19
 -1      2252 1.47521E-04-3.29962E-05-4.93850E-05-2.56857E-06 4.74550E-18-1.10580E-18
 -1      2253 1.02128E-04-2.80243E-05-3.16998E-05 3.75664E-06-1.08139E-18 7.51336E-20
 -1      2254 1.02572E-04-2.87454E-05-3.16300E-05 5.12164E-06-7.54892E-19-4.63221E-23
 -1      2255 1.00273E-04-2.60285E-05-3.18366E-05 2.89767E-06-1.14734E-18-3.30453E-19
 -1      2256 1.03072E-04-2.94418E-05-3.15097E-05 6.35319E-06-6.18780E-19 1.52315E-19
 -1      2257 1.03910E-04-3.02557E-05-3.15657E-05 7.09218E-06-4.43620E-19 3.13659E-20
 -1      2258 1.01128E-04-2.79304E-05-3.13984E-05 6.16485E-06-6.97600E-19-1.58372E-20
 -1      2259 1.04792E-04-3.11374E-05-3.15256E-05 7.74871E-06-3.22727E-19-5.54550E-20
 -1      2260 1.05972E-04-3.21966E-05-3.16361E-05 7.83695E-06-1.50414E-19-1.99268E-20
 -1      2261 1.02544E-04-2.98924E-05-3.11732E-05 8.25385E-06-4.97413E-19-1.66611E-20
 -1      2262 1.07386E-04-3.34403E-05-3.16455E-05 7.78428E-06 2.13528E-20-6.37525E-20
 -1      2263 1.08811E-04-3.47913E-05-3.17676E-05 7.06760E-06-2.69462E-20-1.23999E-19
 -1      2264 1.04865E-04-3.24719E-05-3.10747E-05 9.04697E-06-1.74869E-19-1.88447E-19
 -1      2265 1.10854E-04-3.64402E-05-3.18374E-05 6.05072E-06 5.24052E-20-9.61002E-20
 -1      2266 1.12330E-04-3.79282E-05-3.19619E-05 4.35553E-06 2.48935E-19 7.56870E-21
 -1      2267 1.08351E-04-3.59447E-05-3.10942E-05 8.17805E-06-7.35860E-21-3.04400E-19
 -1      2268 1.14889E-04-3.97217E-05-3.21627E-05 2.09924E-06 4.37135E-19 6.42223E-20
 -1      2269 1.16025E-04-4.08125E-05-3.23285E-05-5.57318E-07 2.74068E-19 2.69903E-19
 -1      2270 1.13018E-04-4.00626E-05-3.13355E-05 5.09626E-06 3.22350E-19-4.08133E-19
 -1      2271 1.18512E-04-4.19535E-05-3.27979E-05-4.04285E-06-4.86713E-20 6.70369E-19
 -1      2272 1.18694E-04-4.16434E-05-3.30930E-05-7.11022E-06-2.37060E-19 8.93238E-19
 -1      2273 1.18213E-04-4.35547E-05-3.20468E-05-5.82490E-07 3.18615E-19 1.75472E-20
 -1      2274 1.19870E-04-4.08084E-05-3.39767E-05-1.08313E-05-3.34740E-19 1.26509E-18
 -1      2275 1.18623E-04-3.82017E-05-3.44697E-05-1.28746E-05-6.93912E-19 1.25554E-18
 -1      2276 1.22069E-04-4.37184E-05-3.35790E-05-8.16913E-06-1.90549E-19 1.12261E-18
 -1      2277 1.17466E-04-3.46639E-05-3.57110E-05-1.44539E-05-9.44389E-19 1.28474E-18
 -1      2278 1.15164E-04-3.03401E-05-3.63112E-05-1.35688E-05-1.05678E-18 1.28474E-18
 -1      2279 1.22157E-04-3.80240E-05-3.60674E-05-1.43229E-05-7.64910E-19 1.52001E-18
 -1      2280 1.12717E-04-2.59359E-05-3.74424E-05-1.05325E-05-1.46341E-18 8.63014E-19
 -1      2281 1.11078E-04-2.28421E-05-3.78518E-05-6.18616E-06-1.62104E-18 5.26854E-19
 -1      2282 1.18223E-04-2.76600E-05-3.89267E-05-1.34436E-05-1.52249E-18 1.07794E-18
 -1      2283 1.10163E-04-2.14537E-05-3.81897E-05 6.15898E-07-2.04791E-18-2.50843E-19
 -1      2284 1.10876E-04-2.25049E-05-3.80832E-05 6.06549E-06-2.08905E-18-9.14729E-19
 -1      2285 1.14411E-04-1.99995E-05-4.06889E-05-3.40762E-06-2.42241E-18 2.69317E-19
 -1      2286 1.12825E-04-2.56780E-05-3.73419E-05 1.14975E-05-2.07388E-18-1.78007E-18
 -1      2287 1.15134E-04-2.97667E-05-3.68447E-05 1.44945E-05-1.81608E-18-2.24772E-18
 -1      2288 1.15871E-04-2.25780E-05-4.01932E-05 9.94042E-06-2.68192E-18-1.59803E-18
 -1      2289 1.17429E-04-3.42925E-05-3.55925E-05 1.53286E-05-1.47152E-18-2.83485E-18
 -1      2290 1.19529E-04-3.81324E-05-3.50464E-05 1.46997E-05-1.14869E-18-3.08087E-18
 -1      2291 1.20488E-04-3.24962E-05-3.77659E-05 1.62951E-05-2.24075E-18-3.14486E-18
 -1      2292 1.19661E-04-4.05243E-05-3.39465E-05 1.17995E-05-7.44863E-19-2.91686E-18
 -1      2293 1.20365E-04-4.21133E-05-3.35743E-05 9.05010E-06-1.14790E-19-2.82658E-18
 -1      2294 1.23058E-04-4.14758E-05-3.49514E-05 1.33013E-05-1.06359E-18-3.05017E-18
 -1      2295 1.18492E-04-4.19376E-05-3.28938E-05 5.18832E-06 4.22173E-19-2.92914E-18
 -1      2296 1.17895E-04-4.15369E-05-3.26916E-05 2.13584E-06 4.27894E-19-2.47406E-18
 -1      2297 1.21133E-04-4.44183E-05-3.28789E-05 5.86650E-06-1.12215E-20-2.90219E-18
 -1      2298 1.15284E-04-3.99935E-05-3.23572E-05-9.11075E-07 1.61512E-19-2.00364E-18
 -1      2299 1.13992E-04-3.86887E-05-3.22257E-05-3.25028E-06 2.28610E-19-1.59849E-18
 -1      2300 1.16436E-04-4.24642E-05-3.17512E-05-1.21570E-06 5.99468E-19-2.20142E-18
 -1      2301 1.11607E-04-3.69367E-05-3.20665E-05-5.05560E-06 6.74053E-19-1.17258E-18
 -1      2302 1.10129E-04-3.55413E-05-3.19270E-05-6.44290E-06 6.89156E-19-9.60868E-19
 -1      2303 1.11325E-04-3.85542E-05-3.12451E-05-5.95309E-06 7.74359E-19-6.38047E-19
 -1      2304 1.08297E-04-3.41250E-05-3.18236E-05-7.22056E-06 6.90699E-19-1.06756E-18
 -1      2305 1.06892E-04-3.29891E-05-3.16470E-05-7.80451E-06 1.27629E-18-1.16601E-18
 -1      2306 1.07074E-04-3.48055E-05-3.10173E-05-8.37604E-06 9.59940E-19-9.84533E-19
 -1      2307 1.05588E-04-3.20210E-05-3.15413E-05-7.90049E-06 1.46255E-18-1.06001E-18
 -1      2308 1.04346E-04-3.12058E-05-3.13312E-05-7.93599E-06 1.46696E-18-6.93093E-19
 -1      2309 1.03938E-04-3.19997E-05-3.08600E-05-9.11934E-06 1.41705E-18-1.14037E-18
 -1      2310 1.03431E-04-3.06101E-05-3.12067E-05-7.64136E-06 1.09508E-18-9.28765E-19
 -1      2311 1.02366E-04-3.00615E-05-3.09806E-05-7.35875E-06 8.74317E-19-7.72646E-19
 -1      2312 1.01728E-04-3.01759E-05-3.06828E-05-8.82658E-06 1.24675E-18-1.87577E-18
 -1      2313 1.01711E-04-2.97231E-05-3.08413E-05-6.87482E-06 7.45387E-19-7.92387E-19
 -1      2314 1.00813E-04-2.93656E-05-3.06174E-05-6.44202E-06 7.04443E-19-1.23291E-18
 -1      2315 1.00167E-04-2.91033E-05-3.04663E-05-7.97622E-06 5.01810E-19-2.00773E-18
 -1      2316 1.00326E-04-2.91873E-05-3.04735E-05-5.89546E-06 2.49274E-19-1.80221E-18
 -1      2317 9.95789E-05-2.89570E-05-3.02654E-05-5.41967E-06 7.29590E-20-2.06804E-18
 -1      2318 9.90321E-05-2.85296E-05-3.02222E-05-6.88568E-06-2.51438E-19-2.08392E-18
 -1      2319 9.92032E-05-2.88713E-05-3.01265E-05-4.88362E-06-5.49190E-20-2.07752E-18
 -1      2320 9.85893E-05-2.87234E-05-2.99422E-05-4.42591E-06-3.85749E-19-1.92012E-18
 -1      2321 9.81762E-05-2.82577E-05-2.99702E-05-5.74944E-06-2.91802E-19-2.34738E-18
 -1      2322 9.82920E-05-2.86884E-05-2.98150E-05-3.93836E-06-2.51346E-19-1.75929E-18
 -1      2323 9.77950E-05-2.85933E-05-2.96577E-05-3.52898E-06-2.21957E-20-1.45160E-18
 -1      2324 9.75104E-05-2.81561E-05-2.97276E-05-4.67687E-06-2.56438E-20-2.32123E-18
 -1      2325 9.75570E-05-2.85848E-05-2.95461E-05-3.10615E-06 4.92347E-19-2.10417E-18
 -1      2326 9.71608E-05-2.85239E-05-2.94157E-05-2.75655E-06 5.42386E-19-1.91639E-18
 -1      2327 9.69827E-05-2.81442E-05-2.95061E-05-3.72212E-06-3.55366E-19-2.29072E-18
 -1      2328 9.69701E-05-2.85282E-05-2.93207E-05-2.40193E-06 2.59794E-19-1.23522E-18
 -1      2329 9.66592E-05-2.84898E-05-2.92152E-05-2.11292E-06 1.87316E-19-9.67763E-19
 -1      2330 9.65618E-05-2.81757E-05-2.93119E-05-2.90529E-06 7.16228E-19-2.28422E-18
 -1      2331 9.65076E-05-2.84998E-05-2.91366E-05-1.82302E-06-6.35330E-19-1.01380E-18
 -1      2332 9.62675E-05-2.84764E-05-2.90531E-05-1.58997E-06-1.32473E-18-1.19903E-18
 -1      2333 9.62270E-05-2.82250E-05-2.91470E-05-2.22663E-06-3.50874E-19-1.01454E-18
 -1      2334 9.61485E-05-2.84883E-05-2.89895E-05-1.35794E-06-1.95880E-18-1.16148E-18
 -1      2335 9.59662E-05-2.84749E-05-2.89246E-05-1.17384E-06-2.08793E-18-1.02165E-18
 -1      2336 9.59633E-05-2.82787E-05-2.90105E-05-1.67579E-06-1.48736E-18-1.18129E-18
 -1      2337 9.58741E-05-2.84869E-05-2.88741E-05-9.91524E-07-1.67066E-18-7.26002E-19
 -1      2338 9.57383E-05-2.84802E-05-2.88246E-05-8.48729E-07-7.87344E-19-2.82670E-20
 -1      2339 9.57582E-05-2.83302E-05-2.89002E-05-1.23750E-06-1.34403E-18-9.93667E-19
 -1      2340 9.56682E-05-2.84913E-05-2.87853E-05-7.07941E-07-5.83078E-19-1.89424E-19
 -1      2341 9.55690E-05-2.84890E-05-2.87483E-05-5.99087E-07-2.55944E-19-1.07035E-18
 -1      2342 9.56012E-05-2.83765E-05-2.88127E-05-8.94961E-07-7.68557E-19-4.67605E-19
 -1      2343 9.55167E-05-2.84989E-05-2.87183E-05-4.92201E-07-3.83368E-19-1.20912E-18
 -1      2344 9.54458E-05-2.84994E-05-2.86911E-05-4.10654E-07-1.14196E-18-1.52396E-18
 -1      2345 9.54833E-05-2.84165E-05-2.87446E-05-6.31799E-07-9.56733E-19-1.47343E-18
 -1      2346 9.54077E-05-2.85079E-05-2.86686E-05-3.30913E-07-1.40317E-18-1.36815E-18
 -1      2347 9.53585E-05-2.85100E-05-2.86491E-05-2.70933E-07-8.36988E-19-1.56642E-18
 -1      2348 9.53964E-05-2.84502E-05-2.86926E-05-4.33052E-07-9.41794E-19-7.91754E-19
 -1      2349 9.53312E-05-2.85172E-05-2.86325E-05-2.12550E-07 4.05808E-20-1.26364E-18
 -1      2350 9.52982E-05-2.85203E-05-2.86189E-05-1.69316E-07 9.43251E-19-7.60884E-19
 -1      2351 9.53338E-05-2.84780E-05-2.86536E-05-2.85608E-07-1.91143E-19-4.03992E-19
 -1      2352 9.52794E-05-2.85262E-05-2.86070E-05-1.27455E-07 6.58854E-19-9.76815E-19
 -1      2353 9.52583E-05-2.85297E-05-2.85978E-05-9.70060E-08 7.13144E-19-7.13751E-19
 -1      2354 9.52901E-05-2.85005E-05-2.86249E-05-1.78324E-07 6.81205E-19-1.47715E-18
 -1      2355 9.52458E-05-2.85345E-05-2.85895E-05-6.77129E-08 9.01946E-19-1.43398E-18
 -1      2356 9.52333E-05-2.85380E-05-2.85836E-05-4.68588E-08 1.28800E-18-1.73012E-18
 -1      2357 9.52605E-05-2.85185E-05-2.86043E-05-1.01951E-07 5.33844E-19-1.96002E-18
 -1      2358 9.52254E-05-2.85419E-05-2.85779E-05-2.69603E-08 1.72282E-18-2.07317E-18
 -1      2359 9.52190E-05-2.85452E-05-2.85744E-05-1.31778E-08 1.64446E-18-1.40388E-18
 -1      2360 9.52414E-05-2.85327E-05-2.85899E-05-4.89679E-08 1.55606E-18-1.06169E-18
 -1      2361 9.52144E-05-2.85483E-05-2.85707E-05-1.74606E-10 1.15813E-18-1.15675E-18
 -1      2362 9.52120E-05-2.85513E-05-2.85688E-05 8.49447E-09 5.57071E-19-7.58452E-19
 -1      2363 9.52300E-05-2.85437E-05-2.85802E-05-1.33757E-08 1.55474E-18-1.34014E-18
 -1      2364 9.52098E-05-2.85537E-05-2.85666E-05 1.65320E-08-5.12166E-19-9.28183E-19
 -1      2365 9.52101E-05-2.85564E-05-2.85658E-05 2.15743E-08-1.01684E-19-1.17717E-18
 -1      2366 9.52239E-05-2.85521E-05-2.85739E-05 9.52024E-09 3.91629E-19-1.29361E-18
 -1      2367 9.52095E-05-2.85584E-05-2.85646E-05 2.61006E-08 4.34624E-21-1.09674E-18
 -1      2368 9.52115E-05-2.85607E-05-2.85646E-05 2.86124E-08-5.05643E-19-1.53916E-18
 -1      2369 9.52216E-05-2.85585E-05-2.85701E-05 2.33149E-08-9.82336E-19-8.98794E-19
 -1      2370 9.52119E-05-2.85623E-05-2.85640E-05 3.06889E-08 2.66717E-19-1.25412E-18
 -1      2371 9.52148E-05-2.85644E-05-2.85644E-05 3.14445E-08 7.54962E-19-9.22306E-19
 -1      2372 9.52218E-05-2.85635E-05-2.85679E-05 3.06885E-08 3.99907E-19-7.68651E-19
 -1      2373 9.52158E-05-2.85657E-05-2.85643E-05 3.18092E-08 3.58158E-19-1.67934E-19
 -1      2374 9.52192E-05-2.85677E-05-2.85649E-05 3.13161E-08 7.61366E-19 1.04504E-18
 -1      2375 9.52235E-05-2.85674E-05-2.85670E-05 3.35658E-08 1.06452E-18-4.04102E-19
 -1      2376 9.52206E-05-2.85689E-05-2.85650E-05 3.04412E-08 7.21467E-19 1.59794E-18
 -1      2377 9.52240E-05-2.85707E-05-2.85657E-05 2.89874E-08 5.62393E-19 2.00208E-18
 -1      2378 9.52262E-05-2.85707E-05-2.85667E-05 3.32526E-08 7.45982E-19-8.42137E-19
 -1      2379 9.52257E-05-2.85720E-05-2.85659E-05 2.71462E-08-1.45926E-19 9.02278E-19
 -1      2380 9.52288E-05-2.85737E-05-2.85665E-05 2.48374E-08-5.57240E-19 1.08610E-18
 -1      2381 9.52294E-05-2.85738E-05-2.85667E-05 3.05632E-08-4.12896E-19-2.94178E-19
 -1      2382 1.04700E-04-3.20376E-05-3.11649E-05-3.37644E-06 3.97292E-19 1.61659E-18
 -1      2383 1.04060E-04-3.14382E-05-3.10944E-05-3.59377E-06 5.38789E-19 1.75024E-18
 -1      2384 1.06101E-04-3.33106E-05-3.12372E-05-2.15244E-06 4.66398E-19 1.28786E-18
 -1      2385 1.05519E-04-3.27202E-05-3.11805E-05-2.91149E-06 3.04621E-19 1.41988E-18
 -1      2386 1.04733E-04-3.25821E-05-3.09424E-05-3.80087E-06 5.55472E-19 9.69211E-19
 -1      2387 1.07310E-04-3.44334E-05-3.12842E-05 2.21989E-07 4.56925E-19 1.45060E-18
 -1      2388 1.07007E-04-3.40060E-05-3.12760E-05-1.03849E-06 4.39279E-19 1.40254E-18
 -1      2389 1.06563E-04-3.43117E-05-3.09777E-05-2.21879E-06 4.17687E-19 8.08145E-19
 -1      2390 1.07876E-04-3.49551E-05-3.12971E-05 3.46706E-06 4.16059E-19 1.77443E-18
 -1      2391 1.08075E-04-3.49355E-05-3.13474E-05 1.90476E-06 3.41212E-19 1.68072E-18
 -1      2392 1.08341E-04-3.57810E-05-3.10932E-05 6.80367E-07 3.46030E-19 1.21602E-18
 -1      2393 1.07332E-04-3.43004E-05-3.13138E-05 6.80643E-06-4.15470E-19 2.10089E-18
 -1      2394 1.08176E-04-3.49454E-05-3.14043E-05 5.38816E-06 1.40263E-19 2.03921E-18
 -1      2395 1.09484E-04-3.63288E-05-3.13250E-05 4.50319E-06-6.29997E-20 1.79818E-18
 -1      2396 1.05438E-04-3.21099E-05-3.13932E-05 8.88829E-06 8.23103E-20 1.84422E-18
 -1      2397 1.06852E-04-3.34798E-05-3.14858E-05 8.27839E-06-3.09362E-19 1.92514E-18
 -1      2398 1.09300E-04-3.51701E-05-3.17234E-05 8.22167E-06-1.17769E-19 1.84136E-18
 -1      2399 1.02632E-04-2.88368E-05-3.15565E-05 8.20647E-06 8.35823E-19 1.78204E-18
 -1      2400 1.04189E-04-3.05316E-05-3.16170E-05 8.99537E-06 4.95647E-19 1.73917E-18
 -1      2401 1.07432E-04-3.20089E-05-3.22864E-05 1.01088E-05 3.33365E-19 1.28442E-18
 -1      2402 1.00221E-04-2.59909E-05-3.17510E-05 4.17718E-06 1.28896E-18 1.48890E-18
 -1      2403 1.01234E-04-2.71817E-05-3.17646E-05 6.38216E-06 1.16874E-18 1.61875E-18
 -1      2404 1.04537E-04-2.78148E-05-3.28899E-05 8.44121E-06 1.11137E-18 8.95897E-19
 -1      2405 9.97078E-05-2.53096E-05-3.18758E-05-1.93040E-06 1.35108E-18 1.03201E-18
 -1      2406 9.96282E-05-2.52709E-05-3.18520E-05 8.83229E-07 1.26261E-18 1.38394E-18
 -1      2407 1.02332E-04-2.47549E-05-3.33115E-05 2.97200E-06 1.41543E-18 1.05260E-18
 -1      2408 1.01606E-04-2.73179E-05-3.18684E-05-7.40199E-06 1.02464E-18 6.63816E-19
 -1      2409 1.00433E-04-2.60657E-05-3.18065E-05-5.21414E-06 1.39917E-18 9.62951E-19
 -1      2410 1.02442E-04-2.47854E-05-3.33377E-05-4.18332E-06 1.33856E-18 6.52426E-19
 -1      2411 1.04837E-04-3.07522E-05-3.17995E-05-9.96871E-06 3.91262E-19 2.33851E-19
 -1      2412 1.03120E-04-2.90151E-05-3.16914E-05-9.20566E-06 6.64901E-19 3.23831E-19
 -1      2413 1.04860E-04-2.79387E-05-3.29711E-05-9.60134E-06 9.91531E-19 2.59045E-19
 -1      2414 1.07720E-04-3.37414E-05-3.17422E-05-9.21603E-06 1.31679E-18-4.44815E-19
 -1      2415 1.06153E-04-3.23468E-05-3.16048E-05-9.82369E-06 7.10108E-19-4.22259E-20
 -1      2416 1.07928E-04-3.21984E-05-3.24195E-05-1.11937E-05 8.85491E-19-4.67101E-19
 -1      2417 1.09238E-04-3.52587E-05-3.17212E-05-6.30564E-06 1.03421E-18-6.39584E-19
 -1      2418 1.08247E-04-3.45781E-05-3.15926E-05-7.70267E-06 1.40618E-18-1.44088E-19
 -1      2419 1.09914E-04-3.53754E-05-3.19015E-05-9.25304E-06 1.06574E-18-3.29825E-19
 -1      2420 1.09295E-04-3.53245E-05-3.17023E-05-2.76913E-06 6.42819E-20-8.87718E-19
 -1      2421 1.08969E-04-3.52911E-05-3.16247E-05-4.32141E-06 5.57321E-19-5.19949E-19
 -1      2422 1.10197E-04-3.65706E-05-3.15278E-05-5.48098E-06 5.94093E-19-1.89547E-19
 -1      2423 1.08315E-04-3.44895E-05-3.16335E-05 3.11644E-07-3.94929E-19-7.89167E-19
 -1      2424 1.08532E-04-3.48492E-05-3.16320E-05-9.85054E-07-2.49061E-19-9.50194E-19
 -1      2425 1.09117E-04-3.60938E-05-3.12895E-05-1.54432E-06-2.00760E-19-7.19813E-19
 -1      2426 1.06792E-04-3.33159E-05-3.14829E-05 2.47723E-06-4.86354E-19-8.43396E-19
 -1      2427 1.07364E-04-3.38298E-05-3.15592E-05 1.59374E-06-2.59530E-19-1.06869E-18
 -1      2428 1.07329E-04-3.47342E-05-3.11187E-05 1.59521E-06-1.68637E-19-6.98937E-19
 -1      2429 1.05091E-04-3.21619E-05-3.12491E-05 3.70781E-06 5.48437E-19-9.67139E-19
 -1      2430 1.05847E-04-3.26800E-05-3.13873E-05 3.22631E-06-1.90549E-19-8.98178E-19
 -1      2431 1.05365E-04-3.31677E-05-3.09524E-05 3.64367E-06-2.44000E-19-8.02335E-19
 -1      2432 1.03422E-04-3.11862E-05-3.09535E-05 4.18933E-06 9.43639E-20-1.54497E-19
 -1      2433 1.04240E-04-3.16392E-05-3.11302E-05 4.02220E-06 7.91895E-19-6.19190E-19
 -1      2434 1.03517E-04-3.17736E-05-3.07576E-05 4.69775E-06 2.20554E-19-7.06526E-19
 -1      2435 1.01893E-04-3.04249E-05-3.06255E-05 4.15593E-06-1.42546E-18-4.48621E-21
 -1      2436 1.02691E-04-3.07927E-05-3.08181E-05 4.20040E-06-6.72606E-19 3.17968E-20
 -1      2437 1.01899E-04-3.06849E-05-3.05294E-05 5.00152E-06-4.28519E-19 4.49922E-19
 -1      2438 1.00549E-04-2.98573E-05-3.02930E-05 3.81452E-06-1.41848E-18 4.08947E-19
 -1      2439 1.01279E-04-3.01437E-05-3.04835E-05 3.98206E-06-1.79203E-18 3.28657E-19
 -1      2440 1.00532E-04-2.98998E-05-3.02785E-05 4.81087E-06-1.49923E-18 4.09748E-19
 -1      2441 9.93995E-05-2.94453E-05-2.99776E-05 3.32044E-06-6.61829E-19 8.41251E-19
 -1      2442 1.00039E-04-2.96625E-05-3.01539E-05 3.54575E-06-8.90341E-19 2.25462E-19
 -1      2443 9.93975E-05-2.93629E-05-3.00211E-05 4.33714E-06-9.47561E-19-3.36346E-19
 -1      2444 9.84404E-05-2.91514E-05-2.96928E-05 2.77835E-06-1.05885E-19 9.04611E-19
 -1      2445 9.89808E-05-2.93131E-05-2.98483E-05 3.01823E-06-2.88478E-19 1.10300E-18
 -1      2446 9.84664E-05-2.90100E-05-2.97725E-05 3.73380E-06-6.29781E-19-1.18292E-19
 -1      2447 9.76561E-05-2.89443E-05-2.94456E-05 2.25223E-06-2.40895E-19 5.71095E-19
 -1      2448 9.81002E-05-2.90628E-05-2.95777E-05 2.48089E-06 1.71587E-19 6.55634E-19
 -1      2449 9.77099E-05-2.87857E-05-2.95438E-05 3.10211E-06 9.96856E-20-4.02953E-19
 -1      2450 9.70270E-05-2.88003E-05-2.92380E-05 1.77689E-06 3.60998E-19 4.10927E-19
 -1      2451 9.73830E-05-2.88858E-05-2.93467E-05 1.98083E-06-5.63767E-19 1.51557E-19
 -1      2452 9.71019E-05-2.86483E-05-2.93416E-05 2.50292E-06-2.82536E-20-1.03594E-18
 -1      2453 9.65318E-05-2.87017E-05-2.90683E-05 1.36768E-06-5.16434E-20 9.24204E-19
 -1      2454 9.68108E-05-2.87622E-05-2.91554E-05 1.54144E-06 7.93922E-19 7.31495E-19
 -1      2455 9.66191E-05-2.85680E-05-2.91686E-05 1.96840E-06 2.35846E-19-8.39780E-19
 -1      2456 9.61493E-05-2.86357E-05-2.89329E-05 1.02785E-06 5.81885E-19-6.58651E-20
 -1      2457 9.63632E-05-2.86775E-05-2.90011E-05 1.17087E-06 1.63148E-19 7.46667E-19
 -1      2458 9.62411E-05-2.85243E-05-2.90248E-05 1.51171E-06 4.71373E-19 2.64538E-19
 -1      2459 9.58595E-05-2.85927E-05-2.88273E-05 7.53707E-07 8.79743E-19-1.22179E-19
 -1      2460 9.60199E-05-2.86208E-05-2.88795E-05 8.68150E-07 7.42058E-19-2.23970E-19
 -1      2461 9.59494E-05-2.85038E-05-2.89081E-05 1.13425E-06 7.09466E-19-3.23785E-19
 -1      2462 9.56445E-05-2.85660E-05-2.87468E-05 5.38013E-07 2.21881E-19 8.41722E-20
 -1      2463 9.57619E-05-2.85842E-05-2.87858E-05 6.27363E-07 3.45582E-19 1.91718E-19
 -1      2464 9.57282E-05-2.84974E-05-2.88156E-05 8.30677E-07 6.43715E-19 6.86948E-19
 -1      2465 9.54885E-05-2.85506E-05-2.86868E-05 3.72149E-07 2.28897E-20 7.08501E-19
 -1      2466 9.55723E-05-2.85616E-05-2.87152E-05 4.40330E-07 2.80515E-19 5.80250E-19
 -1      2467 9.55634E-05-2.84992E-05-2.87438E-05 5.92309E-07 4.56540E-20 1.83208E-18
 -1      2468 9.53782E-05-2.85429E-05-2.86430E-05 2.47400E-07 4.77374E-19 9.70732E-19
 -1      2469 9.54362E-05-2.85489E-05-2.86632E-05 2.98273E-07-1.96399E-19 6.19654E-19
 -1      2470 9.54432E-05-2.85054E-05-2.86892E-05 4.09261E-07 3.31295E-19 1.76609E-18
 -1      2471 9.53029E-05-2.85402E-05-2.86120E-05 1.55676E-07 2.30113E-18 5.32626E-19
 -1      2472 9.53415E-05-2.85428E-05-2.86259E-05 1.92760E-07 1.87751E-18 1.36525E-18
 -1      2473 9.53576E-05-2.85137E-05-2.86487E-05 2.71718E-07 1.04485E-18 4.69030E-19
 -1      2474 9.52535E-05-2.85406E-05-2.85908E-05 8.98596E-08 1.33257E-18 2.46687E-19
 -1      2475 9.52778E-05-2.85411E-05-2.85999E-05 1.16212E-07 2.29807E-18 4.51231E-19
 -1      2476 9.52985E-05-2.85226E-05-2.86192E-05 1.70657E-07 2.21827E-18 1.12607E-18
 -1      2477 9.52231E-05-2.85430E-05-2.85768E-05 4.39212E-08-1.11625E-19-4.88644E-19
 -1      2478 9.52371E-05-2.85421E-05-2.85825E-05 6.21035E-08 1.40877E-19-2.30040E-19
 -1      2479 9.52591E-05-2.85312E-05-2.85984E-05 9.81748E-08 1.75118E-18 1.18012E-19
 -1      2480 9.52062E-05-2.85464E-05-2.85682E-05 1.29106E-08-1.34873E-18 4.93368E-19
 -1      2481 9.52130E-05-2.85447E-05-2.85714E-05 2.50074E-08-4.71291E-19-4.76863E-19
 -1      2482 9.52343E-05-2.85390E-05-2.85843E-05 4.76039E-08-5.47354E-19 6.03786E-19
 -1      2483 9.51986E-05-2.85502E-05-2.85634E-05-7.13098E-09-5.88925E-19 7.77490E-19
 -1      2484 9.52007E-05-2.85481E-05-2.85649E-05 5.32227E-10-1.82262E-18 9.60544E-19
 -1      2485 9.52200E-05-2.85459E-05-2.85750E-05 1.34804E-08-1.89369E-18 6.10182E-19
 -1      2486 9.51974E-05-2.85541E-05-2.85613E-05-1.92865E-08-4.82947E-19 9.65292E-19
 -1      2487 9.51963E-05-2.85518E-05-2.85616E-05-1.47828E-08 3.58008E-19 1.06869E-18
 -1      2488 9.52130E-05-2.85518E-05-2.85694E-05-8.55499E-09-4.33990E-19 4.48344E-19
 -1      2489 9.52001E-05-2.85578E-05-2.85609E-05-2.58869E-08-1.24291E-18-4.61781E-19
 -1      2490 9.51971E-05-2.85556E-05-2.85605E-05-2.35912E-08-1.24322E-18 2.44222E-19
 -1      2491 9.52109E-05-2.85568E-05-2.85662E-05-2.18895E-08-4.66213E-19 9.49135E-19
 -1      2492 9.52052E-05-2.85613E-05-2.85616E-05-2.86265E-08 3.34548E-19-4.61453E-19
 -1      2493 9.52012E-05-2.85592E-05-2.85608E-05-2.78603E-08-2.05209E-19-1.67785E-20
 -1      2494 9.52121E-05-2.85610E-05-2.85649E-05-2.90756E-08-7.01208E-19-9.19406E-19
 -1      2495 9.52115E-05-2.85646E-05-2.85629E-05-2.86651E-08 1.31872E-18 1.21501E-18
 -1      2496 9.52071E-05-2.85626E-05-2.85619E-05-2.89807E-08 3.02285E-19 2.28101E-19
 -1      2497 9.52153E-05-2.85646E-05-2.85646E-05-3.19614E-08-2.82986E-19-1.43694E-19
 -1      2498 9.52182E-05-2.85678E-05-2.85645E-05-2.67124E-08 4.61565E-19 1.85426E-18
 -1      2499 9.52137E-05-2.85659E-05-2.85634E-05-2.78610E-08 1.15312E-18 2.21097E-18
 -1      2500 9.52195E-05-2.85678E-05-2.85650E-05-3.18099E-08 7.99272E-19 2.27519E-18
 -1      2501 9.52246E-05-2.85708E-05-2.85660E-05-2.31055E-08-3.03567E-19 2.05437E-18
 -1      2502 9.52205E-05-2.85690E-05-2.85650E-05-2.50107E-08 1.66589E-19 2.34063E-18
 -1      2503 9.52242E-05-2.85708E-05-2.85658E-05-2.94158E-08 4.64734E-19 3.93015E-18
 -1      2504 9.52305E-05-2.85738E-05-2.85672E-05-1.79851E-08-9.47875E-19 1.02750E-18
 -1      2505 9.52270E-05-2.85721E-05-2.85664E-05-2.05891E-08-4.12635E-19 1.86059E-18
 -1      2506 9.52291E-05-2.85739E-05-2.85665E-05-2.51868E-08 1.04241E-19 4.20258E-18
 -1      2507 9.52328E-05-2.85751E-05-2.85677E-05-1.45048E-08-8.90718E-19 9.66805E-19
 -1      2508 9.52492E-05-2.85968E-05-2.85653E-05-1.77462E-08-3.04775E-19-1.69107E-18
 -1      2509 9.52475E-05-2.85943E-05-2.85657E-05-1.97446E-08-3.26984E-20-2.90728E-18
 -1      2510 9.52515E-05-2.86002E-05-2.85648E-05-1.21625E-08 7.95649E-19-2.34068E-18
 -1      2511 9.52504E-05-2.85984E-05-2.85651E-05-1.49379E-08-6.16092E-20-6.43260E-19
 -1      2512 9.52504E-05-2.85947E-05-2.85668E-05-1.82161E-08-2.46336E-19-1.44720E-18
 -1      2513 9.52415E-05-2.85865E-05-2.85664E-05-2.28576E-08 2.82935E-19 4.02269E-18
 -1      2514 9.52389E-05-2.85832E-05-2.85668E-05-2.24405E-08 1.23281E-19 3.54480E-18
 -1      2515 9.52458E-05-2.85921E-05-2.85658E-05-2.15325E-08-1.13515E-18-1.83196E-18
 -1      2516 9.52436E-05-2.85891E-05-2.85662E-05-2.24218E-08-7.83720E-19 2.02760E-18
 -1      2517 9.52421E-05-2.85859E-05-2.85670E-05-2.54372E-08-3.74718E-19 2.40169E-18
 -1      2518 9.52469E-05-2.85908E-05-2.85669E-05-2.30650E-08-1.71627E-19-1.60954E-18
 -1      2519 9.52528E-05-2.86021E-05-2.85645E-05-5.46564E-09 1.13697E-18-2.20815E-18
 -1      2520 9.52523E-05-2.86011E-05-2.85647E-05-8.69538E-09 1.53915E-18-3.90177E-18
 -1      2521 9.52528E-05-2.85973E-05-2.85667E-05-1.16062E-08 4.58918E-19-2.72339E-18
 -1      2522 9.52531E-05-2.86024E-05-2.85645E-05 1.70377E-09 6.47640E-19-5.46596E-19
 -1      2523 9.52531E-05-2.86024E-05-2.85645E-05-1.67594E-09 3.87442E-19-2.79798E-19
 -1      2524 9.52540E-05-2.85986E-05-2.85666E-05-3.97372E-09 9.82413E-19-2.01255E-18
 -1      2525 9.52523E-05-2.86012E-05-2.85647E-05 8.72971E-09-7.78889E-19-3.07030E-18
 -1      2526 9.52528E-05-2.86021E-05-2.85645E-05 5.49665E-09-5.29159E-19-1.03419E-18
 -1      2527 9.52540E-05-2.85987E-05-2.85666E-05 3.99798E-09-2.00479E-20-2.18746E-18
 -1      2528 9.52505E-05-2.85985E-05-2.85651E-05 1.48915E-08 4.04399E-19-4.35025E-19
 -1      2529 9.52516E-05-2.86002E-05-2.85648E-05 1.21515E-08-2.79683E-19-2.04392E-18
 -1      2530 9.52528E-05-2.85974E-05-2.85667E-05 1.15833E-08 3.03612E-19-2.14067E-18
 -1      2531 9.52476E-05-2.85944E-05-2.85657E-05 1.97414E-08 1.61253E-19 1.47953E-18
 -1      2532 9.52492E-05-2.85969E-05-2.85652E-05 1.77237E-08 8.45268E-19-6.94465E-19
 -1      2533 9.52505E-05-2.85947E-05-2.85668E-05 1.81730E-08 6.01406E-19-4.24077E-19
 -1      2534 9.52436E-05-2.85891E-05-2.85662E-05 2.24706E-08 1.58819E-19 2.60919E-18
 -1      2535 9.52458E-05-2.85922E-05-2.85658E-05 2.15659E-08-1.79931E-19 3.11092E-18
 -1      2536 9.52469E-05-2.85909E-05-2.85669E-05 2.30866E-08 6.81024E-19 1.14157E-18
 -1      2537 9.52388E-05-2.85831E-05-2.85668E-05 2.23552E-08-1.36609E-18-1.42998E-18
 -1      2538 9.52414E-05-2.85865E-05-2.85663E-05 2.29116E-08-1.09345E-18 3.41297E-19
 -1      2539 9.52421E-05-2.85859E-05-2.85669E-05 2.55090E-08-2.82537E-19 1.13952E-18
 -1      2540 1.00101E-04-5.31270E-05-2.00642E-05 3.99926E-05-3.37543E-19 1.34583E-18
 -1      2541 8.10269E-05-4.68439E-05-1.44054E-05 4.20323E-05-1.33238E-18 2.32892E-18
 -1      2542 9.52352E-05-2.85785E-05-2.85672E-05 1.76082E-08-1.15452E-18 4.27840E-20
 -1      2543 1.93344E-05-1.83148E-05-1.58628E-07-5.55988E-06-8.15110E-19 7.08543E-18
 -1      2544 2.63698E-05-2.11183E-05-2.06877E-06-2.14510E-05-8.96796E-19 4.76541E-18
 -1      2545 1.03451E-04-3.08399E-05-3.11240E-05-3.43165E-06 6.97590E-19 1.82648E-18
 -1      2546 1.02955E-04-3.02883E-05-3.10960E-05-3.10719E-06 8.87149E-19 1.98082E-18
 -1      2547 1.03205E-04-3.09421E-05-3.09938E-05-4.02890E-06 7.92646E-19 1.27203E-18
 -1      2548 2.42419E-05-2.05881E-05-1.40342E-06 2.11593E-05-7.22837E-19 7.39460E-18
 -1      2549 1.89157E-05-1.86352E-05 1.26497E-07 7.76375E-06-1.21253E-18 7.01216E-18
 -1      2550 4.27936E-05-3.03845E-05-4.98992E-06-3.35702E-05 2.06041E-19 3.93913E-18
 -1      2551 5.77726E-05-3.82311E-05-8.27480E-06-4.05157E-05-2.14511E-19 4.93513E-18
 -1      2552 9.94706E-05-2.09733E-05-3.36751E-05-6.38299E-06-1.59406E-18-5.19218E-19
 -1      2553 1.00740E-04-2.44934E-05-3.26937E-05-2.32671E-06-1.54205E-18-3.52318E-19
 -1      2554 9.89902E-05-2.29918E-05-3.25631E-05-1.29425E-06-1.40520E-18-5.64294E-19
 -1      2555 9.62741E-05-1.79012E-05-3.35966E-05-5.72309E-06-1.49906E-18-1.01836E-18
 -1      2556 1.27615E-04-5.69083E-05-3.04916E-05 2.52554E-05 8.04152E-19 8.47033E-20
 -1      2557 1.14073E-04-5.69277E-05-2.44858E-05 3.24892E-05-1.56701E-20 5.93770E-19
 -1      2558 1.11149E-04-5.67812E-05-2.30092E-05 3.29168E-05-1.28580E-18 3.25499E-19
 -1      2559 5.45741E-05-3.50294E-05-8.03770E-06-3.92834E-05-1.09204E-18-3.61725E-18
 -1      2560 7.64149E-05-4.43164E-05-1.37079E-05-4.42265E-05-9.53759E-19-2.50531E-18
 -1      2561 7.96250E-05-5.53752E-06-3.17781E-05-7.89735E-07 3.72265E-19-2.22987E-18
 -1      2562 8.00758E-05-5.78152E-06-3.18610E-05-1.08018E-06 9.39032E-20-2.23161E-18
 -1      2563 8.10903E-05-7.39340E-06-3.15712E-05-7.62048E-07 5.55191E-20-2.07447E-18
 -1      2564 8.01143E-05-6.76280E-06-3.14237E-05-7.64806E-07 3.66239E-19-2.01016E-18
 -1      2565 1.46186E-04-1.34123E-05-5.72726E-05 3.15245E-06 4.64746E-18 6.77732E-19
 -1      2566 1.43527E-04-1.00894E-05-5.77020E-05 7.79485E-07 4.88484E-18 5.26802E-19
 -1      2567 1.19790E-04-5.77339E-05-2.66919E-05 3.30210E-05-1.02830E-18-8.20563E-19
 -1      2568 1.03092E-04-5.53595E-05-2.04376E-05 3.71220E-05-3.61683E-19-1.14376E-18
 -1      2569 1.44469E-04-1.18055E-05-5.73508E-05-3.86685E-06 5.44176E-18-2.38334E-19
 -1      2570 1.46383E-04-1.68821E-05-5.58145E-05-5.53818E-06 5.55336E-18-4.97632E-19
 -1      2571 1.45669E-04-2.60003E-05-5.17585E-05 4.96286E-06 3.75532E-18 1.40226E-18
 -1      2572 1.48256E-04-1.92488E-05-5.55929E-05 4.48866E-06 4.46768E-18 1.17420E-18
 -1      2573 1.36047E-04-1.46078E-05-5.22774E-05 7.37008E-06 4.05729E-18 2.22526E-18
 -1      2574 1.23212E-04-5.75804E-05-2.82326E-05-2.82363E-05-1.95665E-19-8.20140E-19
 -1      2575 1.34041E-04-5.62083E-05-3.36891E-05-1.98808E-05 4.00223E-20-1.49925E-19
 -1      2576 9.74842E-05-5.29480E-05-1.88192E-05-3.93009E-05-1.30337E-18-1.70558E-18
 -1      2577 1.12209E-04-5.60211E-05-2.41155E-05-3.62842E-05-5.53113E-19-1.37124E-18
 -1      2578 1.20838E-04-5.90615E-05-2.62056E-05-2.76595E-05-1.71408E-18 1.49395E-19
 -1      2579 2.78173E-05-1.98073E-05-2.94800E-06-2.09595E-05-7.03249E-19-4.50325E-18
 -1      2580 3.72925E-05-2.55572E-05-4.76231E-06-3.26224E-05-7.14684E-19-4.42956E-18
 -1      2581 4.27123E-05-3.04148E-05-5.23814E-06 3.59219E-05 3.42837E-19-4.29996E-18
 -1      2582 3.11394E-05-2.45870E-05-2.44603E-06 2.58339E-05 7.19978E-19-5.12540E-18
 -1      2583 8.38275E-05-4.83701E-05-1.51561E-05 4.33754E-05-3.89635E-20-1.90964E-18
 -1      2584 6.30790E-05-4.02874E-05-9.49164E-06 4.03680E-05 5.40831E-19-2.58853E-18
 -1      2585 1.42340E-04-5.46744E-05-3.79159E-05 1.57219E-05-1.88062E-18 3.54272E-19
 -1      2586 1.31018E-04-5.75897E-05-3.15879E-05 2.33444E-05-1.41793E-18-2.24464E-19
 -1      2587 1.28880E-04-6.06735E-05-2.90251E-05 2.33878E-05-8.47033E-21 7.48565E-19
 -1      2588 1.49064E-04-4.05644E-05-4.71763E-05-3.49141E-06-2.70595E-18 9.44230E-19
 -1      2589 1.48111E-04-4.85140E-05-4.27454E-05 4.17275E-06-2.22538E-18 4.74338E-19
 -1      2590 1.50335E-04-1.31246E-05-5.88938E-05 2.47392E-06-5.29565E-18-7.02826E-19
 -1      2591 1.45867E-04-1.20121E-05-5.79127E-05-7.46438E-07-5.04662E-18-5.21772E-19
 -1      2592 1.53320E-04-2.28645E-05-5.60726E-05 5.82863E-06-5.19909E-18-8.40892E-19
 -1      2593 1.53576E-04-1.74704E-05-5.85850E-05 5.18105E-06-5.37019E-18-7.52589E-19
 -1      2594 1.49991E-04-3.99935E-05-4.74529E-05 1.78145E-06-4.68441E-18-9.90605E-19
 -1      2595 1.54456E-04-3.22090E-05-5.26228E-05 4.19356E-06-4.80077E-18-7.19554E-19
 -1      2596 1.39452E-04-5.56909E-05-3.59613E-05-1.24849E-05-2.95646E-18-6.50945E-19
 -1      2597 1.48023E-04-5.03239E-05-4.22043E-05-6.27728E-06-4.13871E-18-1.80206E-18
 -1      2598 1.12502E-04-5.76575E-05-2.34404E-05-3.22270E-05-1.25700E-18 1.57855E-18
 -1      2599 1.28276E-04-5.91629E-05-2.99258E-05-2.58113E-05-2.09768E-18 9.41054E-19
 -1      2600 7.48258E-05-4.61759E-05-1.21890E-05-4.04676E-05 2.26581E-20 4.01541E-18
 -1      2601 9.45619E-05-5.23730E-05-1.81377E-05-4.04748E-05-3.04297E-19 2.50179E-18
 -1      2602 7.51496E-05-4.26075E-05-1.35123E-05-3.96001E-05 1.37982E-18 3.05525E-18
 -1      2603 5.68452E-05-3.53905E-05-9.05581E-06 4.06920E-05-2.14109E-18 4.42850E-18
 -1      2604 3.82764E-05-2.75529E-05-4.23369E-06 3.17887E-05-1.96173E-18 7.00750E-18
 -1      2605 1.02545E-04-2.69983E-05-3.23914E-05 3.71019E-06 1.73439E-18 2.90758E-18
 -1      2606 1.03071E-04-2.55492E-05-3.32410E-05 6.84690E-06 1.84161E-18 3.18675E-18
 -1      2607 1.01000E-04-2.29084E-05-3.35269E-05 7.68949E-06 1.99818E-18 2.42691E-18
 -1      2608 1.01352E-04-2.58070E-05-3.24157E-05 3.14011E-06 1.79511E-18 1.98903E-18
 -1      2609 1.34602E-04-9.81280E-06-5.37373E-05-2.10018E-06 4.65233E-18 5.91454E-19
 -1      2610 8.71022E-05-1.17299E-05-3.22903E-05-1.53821E-06-5.73484E-19-2.05050E-18
 -1      2611 8.71450E-05-1.07417E-05-3.28117E-05-2.82784E-06-6.83759E-19-2.10079E-18
 -1      2612 8.92806E-05-1.22261E-05-3.30777E-05-3.72073E-06-8.95454E-19-2.02469E-18
 -1      2613 1.02141E-04-2.94180E-05-3.11900E-05-2.93506E-06 1.11787E-18 1.45274E-18
 -1      2614 9.84028E-05-2.02861E-05-3.35246E-05 7.07866E-06 2.05298E-18 1.40645E-18
 -1      2615 1.34916E-04-5.70804E-05-3.33379E-05 1.67959E-05 9.28878E-19-1.11237E-18
 -1      2616 1.28716E-04-5.89558E-05-2.97117E-05 1.89189E-05-4.85032E-19-1.81408E-18
 -1      2617 1.37557E-04-5.48886E-05-3.59364E-05 6.79495E-06 1.08860E-18-2.12616E-18
 -1      2618 1.39778E-04-3.51586E-05-4.53583E-05-9.91096E-06 3.75638E-18-2.29101E-18
 -1      2619 1.45615E-04-4.01586E-05-4.54421E-05-2.71690E-06 4.30166E-18-1.93589E-18
 -1      2620 1.41106E-04-4.54961E-05-4.10472E-05-2.25515E-06 3.34027E-18-2.60145E-18
 -1      2621 4.15661E-05-2.42346E-05-6.86566E-06-2.72157E-05 4.04670E-19 4.12039E-18
 -1      2622 9.52337E-05-2.85769E-05-2.85672E-05-1.89748E-08-1.18000E-18 2.32489E-18
 -1      2623 9.52354E-05-2.85793E-05-2.85669E-05-2.07917E-08-4.11684E-19 3.67203E-18
 -1      2624 1.08657E-04-5.68356E-05-2.19045E-05-3.33763E-05 6.09017E-19 1.30512E-18
 -1      2625 8.77203E-05-4.64565E-05-1.77994E-05 3.86392E-05-3.12238E-18 1.41661E-18
 -1      2626 7.34526E-05-4.14875E-05-1.32501E-05 4.11542E-05-2.45280E-18 2.83809E-18
 -1      2627 6.59907E-05-3.39747E-05-1.31730E-05 3.81306E-05-3.78253E-18 3.49020E-18
 -1      2628 9.18886E-05-4.89239E-05-1.80212E-05-3.96529E-05-1.86220E-18-1.61831E-18
 -1      2629 9.52324E-05-2.85759E-05-2.85671E-05 2.02638E-08-1.93709E-18-2.23751E-19
 -1      2630 9.52363E-05-2.85803E-05-2.85668E-05 2.21358E-08-1.17867E-18-1.15773E-18
 -1      2631 9.52364E-05-2.85802E-05-2.85669E-05 2.54867E-08-1.94361E-18-7.03419E-19
 -1      2632 9.52299E-05-2.85745E-05-2.85666E-05 2.30594E-08-1.64017E-18 5.10093E-19
 -1      2633 1.35884E-04-5.94441E-05-3.26293E-05-1.42898E-05-1.37675E-18-1.52424E-18
 -1      2634 2.61241E-05-1.51448E-05-4.08584E-06 3.35503E-07-7.27284E-19 6.97553E-18
 -1      2635 9.84094E-05-2.15440E-05-3.29009E-05 4.78753E-06 1.91199E-18 1.19038E-18
 -1      2636 3.83378E-05-2.19830E-05-6.40250E-06 2.65679E-05-1.95961E-18 6.43470E-18
 -1      2637 1.46499E-04-4.57977E-05-4.30890E-05 5.83500E-06-3.53382E-18-2.06380E-18
 -1      2638 1.45988E-04-2.63736E-05-5.11656E-05 1.13298E-05-4.78320E-18-1.70741E-18
 -1      2639 5.48481E-05-2.98116E-05-1.02138E-05-3.58788E-05-1.46388E-18-3.56368E-18
 -1      2640 1.40457E-04-1.37258E-05-5.45391E-05 5.26882E-06-4.93799E-18-1.50163E-18
 -1      2641 1.43565E-04-5.42266E-05-3.81669E-05 4.75451E-06-1.23860E-18 1.10834E-18
 -1      2642 9.99714E-05-5.37050E-05-1.95685E-05 3.76317E-05 9.31524E-19-7.34530E-19
 -1      2643 6.18973E-05-3.53250E-05-1.08632E-05 3.81113E-05 1.32031E-18-2.91125E-18
 -1      2644 1.44847E-04-3.33485E-05-4.80364E-05 5.95374E-06 2.66201E-18 1.96893E-18
 -1      2645 1.36282E-04-2.74802E-05-4.71822E-05 1.15815E-05 2.52585E-18 2.86382E-18
 -1      2646 1.40359E-04-3.93066E-05-4.35106E-05 5.85019E-06 1.39845E-18 2.64645E-18
 -1      2647 1.41941E-04-1.48203E-05-5.48987E-05-5.22146E-06-4.47784E-18-4.79738E-19
 -1      2648 1.34665E-04-1.73523E-05-5.07676E-05-9.02874E-06-3.96348E-18-6.06158E-20
 -1      2649 1.31308E-04-1.10697E-05-5.20729E-05-3.10202E-06-4.48123E-18-9.65009E-19
 -1      2650 9.37020E-05-1.58827E-05-3.33802E-05-4.72552E-06-1.26418E-18-1.46359E-18
 -1      2651 3.10322E-05-1.93272E-05-4.46636E-06 1.88163E-05 6.28075E-19-5.10930E-18
 -1      2652 1.39251E-04-5.49782E-05-3.62194E-05-1.14205E-05-4.39398E-20 8.33904E-19
 -1      2653 1.39563E-04-5.13034E-05-3.84472E-05-1.51030E-06-1.65648E-19 2.26094E-18
 -1      2654 1.33896E-04-5.80764E-05-3.22816E-05-1.30134E-05-1.18431E-18 1.80212E-18
 -1      2655 1.39310E-04-2.02116E-05-5.12990E-05-9.16705E-06 5.12095E-18-1.10538E-18
 -1      2656 2.70751E-05-1.66859E-05-3.95273E-06-1.33897E-05-4.25899E-19-4.37111E-18
 -1      2657 3.66257E-05-1.62828E-05-8.21146E-06-1.90867E-05-8.95737E-19-4.03929E-18
 -1      2658 2.76601E-05-1.28700E-05-5.87395E-06-4.36101E-06-1.77745E-19-4.31923E-18
 -1      2659 1.46888E-04-3.49746E-05-4.81299E-05-8.39498E-06-2.93560E-18 7.47718E-19
 -1      2660 1.41923E-04-4.11047E-05-4.33656E-05-9.42953E-06-2.12044E-18 1.37219E-18
 -1      2661 1.39067E-04-2.87163E-05-4.80881E-05-1.30226E-05-2.86848E-18 7.70906E-19
 -1      2662 9.52354E-05-2.85793E-05-2.85669E-05-2.44774E-08-5.19502E-19 4.48919E-18
 -1      2663 9.52323E-05-2.85764E-05-2.85668E-05 2.67505E-08-1.35733E-18-1.07399E-18
 -1      2664 8.33593E-05-1.02974E-05-3.13141E-05-9.78511E-07 1.00353E-18-1.25541E-18
 -1      2665 8.21305E-05-9.44615E-06-3.11823E-05-1.22702E-06 8.42269E-19-1.41188E-18
 -1      2666 8.11024E-05-8.59627E-06-3.10798E-05-1.08534E-06 7.09777E-19-1.59779E-18
 -1      2667 8.04736E-05-8.15689E-06-3.10196E-05-1.12990E-06 5.55576E-19-1.70475E-18
 -1      2668 8.20833E-05-1.03252E-05-3.07331E-05-1.73840E-06 6.67098E-19-1.38471E-18
 -1      2669 9.06082E-05-1.59142E-05-3.20292E-05 7.43346E-07 1.60814E-18-5.70042E-19
 -1      2670 8.85882E-05-1.43718E-05-3.18390E-05 6.93081E-08 1.51582E-18-7.79252E-19
 -1      2671 9.50120E-05-1.96361E-05-3.23255E-05 1.95335E-06 1.75811E-18 7.16603E-20
 -1      2672 9.27690E-05-1.77156E-05-3.21896E-05 1.29916E-06 1.63152E-18-2.75216E-19
 -1      2673 9.26397E-05-1.86494E-05-3.16989E-05-4.00691E-07 1.44808E-18-2.99357E-19
 -1      2674 1.00428E-04-2.69176E-05-3.15135E-05-1.34821E-06 1.38111E-18 1.10331E-18
 -1      2675 1.00227E-04-2.58206E-05-3.18483E-05 3.70389E-07 1.51080E-18 1.18580E-18
 -1      2676 4.78418E-05-2.30112E-05-1.03039E-05 2.99854E-05-3.08267E-18 4.90940E-18
 -1      2677 3.61356E-05-1.63922E-05-7.81688E-06 1.90326E-05-1.77056E-18 5.29925E-18
 -1      2678 1.01387E-04-2.89599E-05-3.10502E-05-3.67045E-06 1.07677E-18 1.05772E-18
 -1      2679 1.00963E-04-2.80093E-05-3.12190E-05-2.70898E-06 1.20696E-18 1.12670E-18
 -1      2680 9.93889E-05-2.62406E-05-3.13579E-05-2.15150E-06 1.31511E-18 5.81212E-19
 -1      2681 9.85475E-05-2.28563E-05-3.24457E-05 2.77611E-06 1.79644E-18 9.81728E-19
 -1      2682 9.88577E-05-2.58790E-05-3.12451E-05 5.67677E-06-6.40641E-19-3.75501E-19
 -1      2683 9.93962E-05-2.69105E-05-3.10633E-05 7.09481E-06-4.97814E-19-2.94072E-19
 -1      2684 9.99680E-05-2.79785E-05-3.08158E-05 8.42634E-06-5.67381E-19-2.26643E-19
 -1      2685 1.00892E-04-2.92316E-05-3.07088E-05 9.26243E-06-4.77856E-19-4.38741E-19
 -1      2686 9.74342E-05-2.60664E-05-3.06116E-05 8.14506E-06-5.73186E-19-5.49544E-19
 -1      2687 1.01955E-04-3.06588E-05-3.05064E-05 1.01355E-05-2.85253E-19-2.50036E-19
 -1      2688 1.03427E-04-3.23808E-05-3.04503E-05 1.02971E-05-1.30288E-19-3.14441E-19
 -1      2689 9.90160E-05-2.88930E-05-3.00987E-05 1.05515E-05-3.63933E-19-4.62043E-19
 -1      2690 1.05333E-04-3.44314E-05-3.03115E-05 1.05254E-05 8.11907E-20-2.93230E-19
 -1      2691 1.07456E-04-3.67277E-05-3.03304E-05 9.79962E-06 1.26704E-19-3.77798E-19
 -1      2692 1.01903E-04-3.28182E-05-2.96830E-05 1.19606E-05-8.48203E-20-2.68263E-19
 -1      2693 1.10527E-04-3.94553E-05-3.03516E-05 8.97793E-06 2.74882E-19-2.30267E-19
 -1      2694 1.13185E-04-4.20359E-05-3.05423E-05 7.08392E-06 4.04184E-19-2.61134E-19
 -1      2695 1.06795E-04-3.82601E-05-2.94836E-05 1.18578E-05 2.61918E-19-2.95836E-19
 -1      2696 1.17386E-04-4.49118E-05-3.09420E-05 4.61889E-06 6.59236E-19 3.17273E-20
 -1      2697 1.19968E-04-4.67072E-05-3.14850E-05 1.45183E-06 6.59842E-19 4.01386E-19
 -1      2698 1.14076E-04-4.47984E-05-2.98416E-05 9.19248E-06 7.85219E-19 2.33506E-19
 -1      2699 1.24385E-04-4.81859E-05-3.26224E-05-3.04520E-06 5.74719E-19 5.85869E-19
 -1      2700 1.25632E-04-4.70336E-05-3.37535E-05-6.85501E-06 2.34191E-20 1.21438E-18
 -1      2701 1.22933E-04-5.01189E-05-3.14105E-05 2.74365E-06 7.59454E-19 6.34019E-19
 -1      2702 1.21061E-04-1.84302E-05-4.44835E-05-8.55573E-06-2.79203E-18 2.61601E-19
 -1      2703 1.19743E-04-1.53383E-05-4.52034E-05-1.75896E-06-3.29930E-18-3.52233E-19
 -1      2704 1.18215E-04-1.73472E-05-4.35860E-05 8.12049E-06-3.44171E-18-1.48834E-18
 -1      2705 1.20759E-04-2.30352E-05-4.24615E-05 1.33493E-05-3.16706E-18-2.19682E-18
 -1      2706 1.23903E-04-3.04045E-05-4.01904E-05 1.64037E-05-2.94704E-18-3.00509E-18
 -1      2707 1.26688E-04-3.80434E-05-3.83739E-05 1.65490E-05-2.19752E-18-3.17563E-18
 -1      2708 1.26585E-04-4.33028E-05-3.57867E-05 1.29328E-05-1.31909E-18-3.10430E-18
 -1      2709 1.26858E-04-4.69782E-05-3.43282E-05 9.67602E-06-8.39555E-19-3.12955E-18
 -1      2710 1.31091E-04-4.30540E-05-3.79505E-05 1.42696E-05-1.79571E-18-3.16833E-18
 -1      2711 1.23550E-04-4.76005E-05-3.26329E-05 4.50566E-06-3.24017E-19-2.84496E-18
 -1      2712 1.21606E-04-4.72374E-05-3.17920E-05 7.16419E-07 4.69812E-19-3.06314E-18
 -1      2713 1.27269E-04-5.01482E-05-3.31809E-05 4.75048E-06-2.86059E-19-3.33532E-18
 -1      2714 1.17183E-04-4.49734E-05-3.10302E-05-2.96853E-06 1.12272E-18-2.03531E-18
 -1      2715 1.14507E-04-4.27288E-05-3.06578E-05-5.69950E-06 1.04538E-18-1.82790E-18
 -1      2716 1.19040E-04-4.80126E-05-3.06032E-05-4.35216E-06 1.08932E-18-2.37107E-18
 -1      2717 1.10779E-04-3.99358E-05-3.04113E-05-7.57101E-06 9.52866E-19-1.00501E-18
 -1      2718 1.08328E-04-3.75114E-05-3.02719E-05-9.08452E-06 1.41155E-18-8.44001E-19
 -1      2719 1.10878E-04-4.20931E-05-2.96093E-05-9.38242E-06 1.45190E-18-1.48127E-18
 -1      2720 1.05764E-04-3.52247E-05-3.02497E-05-9.67922E-06 9.22684E-19-6.67271E-19
 -1      2721 1.03879E-04-3.33247E-05-3.01908E-05-1.02607E-05 6.60490E-19-8.99555E-19
 -1      2722 1.04660E-04-3.62780E-05-2.93980E-05-1.13292E-05 9.63187E-19-7.42644E-19
 -1      2723 1.02323E-04-3.17929E-05-3.02284E-05-1.01418E-05 1.36316E-18-7.89038E-19
 -1      2724 1.00983E-04-3.05245E-05-3.01734E-05-1.01253E-05 1.63544E-18-7.01570E-19
 -1      2725 1.00636E-04-3.19826E-05-2.94753E-05-1.14720E-05 1.00675E-18-7.56213E-19
 -1      2726 1.00111E-04-2.96290E-05-3.01998E-05-9.65561E-06 1.36415E-18-1.12744E-18
 -1      2727 9.91746E-05-2.88671E-05-3.01233E-05-9.29640E-06 9.87747E-19-1.67044E-18
 -1      2728 9.82761E-05-2.92865E-05-2.95942E-05-1.07059E-05 1.19844E-18-1.49192E-18
 -1      2729 9.87139E-05-2.84156E-05-3.01174E-05-8.67624E-06 6.02189E-19-1.77348E-18
 -1      2730 9.80470E-05-2.80009E-05-3.00192E-05-8.15054E-06-5.04011E-21-1.91869E-18
 -1      2731 9.69774E-05-2.77973E-05-2.96609E-05-9.52621E-06 7.61306E-19-2.08986E-18
 -1      2732 9.78127E-05-2.78242E-05-2.99832E-05-7.49294E-06-6.00799E-19-1.77870E-18
 -1      2733 9.73198E-05-2.76253E-05-2.98725E-05-6.91339E-06-4.94308E-19-1.77607E-18
 -1      2734 9.62946E-05-2.71067E-05-2.96565E-05-8.20353E-06-1.81285E-19-2.11898E-18
 -1      2735 9.72007E-05-2.76024E-05-2.98158E-05-6.28035E-06 2.32479E-21-1.91428E-18
 -1      2736 9.68227E-05-2.75282E-05-2.97026E-05-5.71406E-06-2.96189E-19-1.87179E-18
 -1      2737 9.59410E-05-2.68924E-05-2.95934E-05-6.88757E-06-2.05583E-19-2.10028E-18
 -1      2738 9.67581E-05-2.75824E-05-2.96352E-05-5.13807E-06-5.62465E-19-1.59758E-18
 -1      2739 9.64605E-05-2.75755E-05-2.95273E-05-4.62135E-06-3.74231E-19-2.00775E-18
 -1      2740 9.57518E-05-2.69366E-05-2.94922E-05-5.66032E-06-2.26342E-19-2.28481E-18
 -1      2741 9.64201E-05-2.76617E-05-2.94574E-05-4.11710E-06-4.32968E-19-1.84951E-18
 -1      2742 9.61828E-05-2.76880E-05-2.93596E-05-3.66637E-06-1.25656E-19-2.20080E-18
 -1      2743 9.56400E-05-2.71045E-05-2.93722E-05-4.56380E-06-2.90258E-21-2.47155E-18
 -1      2744 9.61527E-05-2.77817E-05-2.92926E-05-3.23765E-06 5.96506E-19-2.55526E-18
 -1      2745 9.59633E-05-2.78220E-05-2.92074E-05-2.85712E-06 9.10367E-19-2.19635E-18
 -1      2746 9.55633E-05-2.73184E-05-2.92479E-05-3.61499E-06 3.52765E-20-1.84452E-18
 -1      2747 9.59379E-05-2.79107E-05-2.91465E-05-2.50118E-06 5.95796E-19-2.28404E-18
 -1      2748 9.57876E-05-2.79546E-05-2.90746E-05-2.18800E-06-2.51246E-19-1.68617E-18
 -1      2749 9.55030E-05-2.75360E-05-2.91291E-05-2.81492E-06 6.06138E-19-2.43363E-18
 -1      2750 9.57652E-05-2.80330E-05-2.90214E-05-1.89846E-06-1.25522E-18-1.70434E-18
 -1      2751 9.56474E-05-2.80752E-05-2.89621E-05-1.64611E-06-1.43454E-18-1.29696E-18
 -1      2752 9.54520E-05-2.77367E-05-2.90215E-05-2.15489E-06-5.44336E-19-2.64523E-18
 -1      2753 9.56276E-05-2.81416E-05-2.89171E-05-1.41487E-06-1.11652E-18-1.75684E-18
 -1      2754 9.55365E-05-2.81796E-05-2.88693E-05-1.21531E-06-7.25285E-19-1.29520E-18
 -1      2755 9.54077E-05-2.79118E-05-2.89276E-05-1.62085E-06-1.45106E-18-1.94513E-18
 -1      2756 9.55194E-05-2.82343E-05-2.88321E-05-1.03377E-06-4.56214E-19-9.66454E-19
 -1      2757 9.54503E-05-2.82671E-05-2.87943E-05-8.78678E-07-2.85916E-19-1.21458E-18
 -1      2758 9.53697E-05-2.80593E-05-2.88481E-05-1.19638E-06-4.02790E-19-1.47577E-18
 -1      2759 9.54359E-05-2.83112E-05-2.87642E-05-7.38518E-07-9.44204E-19-8.93899E-19
 -1      2760 9.53843E-05-2.83389E-05-2.87350E-05-6.20019E-07-8.58816E-19-1.03801E-18
 -1      2761 9.53377E-05-2.81803E-05-2.87825E-05-8.64665E-07-4.57660E-19-4.17048E-19
 -1      2762 9.53726E-05-2.83737E-05-2.87111E-05-5.13618E-07-9.53270E-19-7.17129E-19
 -1      2763 9.53349E-05-2.83965E-05-2.86888E-05-4.24630E-07-7.33039E-19-5.91058E-19
 -1      2764 9.53116E-05-2.82777E-05-2.87295E-05-6.09753E-07-8.73266E-19-6.34037E-19
 -1      2765 9.53256E-05-2.84237E-05-2.86702E-05-3.45266E-07-3.11557E-19-4.98824E-19
 -1      2766 9.52988E-05-2.84421E-05-2.86535E-05-2.79653E-07 4.03261E-19-1.90415E-19
 -1      2767 9.52907E-05-2.83546E-05-2.86875E-05-4.17175E-07-3.31871E-19-1.38618E-20
 -1      2768 9.52916E-05-2.84629E-05-2.86393E-05-2.21570E-07 4.76988E-19-1.34170E-18
 -1      2769 9.52731E-05-2.84776E-05-2.86271E-05-1.74156E-07 3.88967E-19-1.54940E-18
 -1      2770 9.52745E-05-2.84144E-05-2.86549E-05-2.74282E-07-7.59493E-21-8.30051E-19
 -1      2771 9.52677E-05-2.84933E-05-2.86164E-05-1.32542E-07 6.70677E-19-1.41088E-18
 -1      2772 9.52554E-05-2.85048E-05-2.86077E-05-9.90623E-08 1.05040E-18-1.20568E-18
 -1      2773 9.52623E-05-2.84602E-05-2.86299E-05-1.70317E-07 7.10827E-19-1.05063E-18
 -1      2774 9.52514E-05-2.85164E-05-2.85999E-05-6.99786E-08 1.17388E-18-1.89730E-18
 -1      2775 9.52437E-05-2.85253E-05-2.85938E-05-4.69839E-08 1.43534E-18-1.95129E-18
 -1      2776 9.52532E-05-2.84946E-05-2.86112E-05-9.63352E-08 6.87373E-19-1.61230E-18
 -1      2777 9.52408E-05-2.85338E-05-2.85882E-05-2.72675E-08 7.40328E-19-2.71980E-18
 -1      2778 9.52364E-05-2.85406E-05-2.85841E-05-1.20248E-08 1.50126E-18-2.39299E-18
 -1      2779 9.52468E-05-2.85201E-05-2.85974E-05-4.50566E-08 5.69596E-19-3.03607E-18
 -1      2780 9.52345E-05-2.85466E-05-2.85801E-05 8.14281E-10 1.53579E-18-3.70808E-18
 -1      2781 9.52323E-05-2.85518E-05-2.85775E-05 1.04287E-08-5.00671E-19-3.75381E-18
 -1      2782 9.52423E-05-2.85387E-05-2.85875E-05-1.06695E-08 4.48112E-19-6.03719E-18
 -1      2783 9.52311E-05-2.85560E-05-2.85748E-05 1.83096E-08-9.06686E-19-2.18085E-18
 -1      2784 9.52305E-05-2.85598E-05-2.85732E-05 2.39069E-08-3.46029E-19-1.60004E-18
 -1      2785 9.52394E-05-2.85519E-05-2.85805E-05 1.13717E-08 3.66687E-19-5.11356E-18
 -1      2786 9.52297E-05-2.85628E-05-2.85714E-05 2.82719E-08 3.51133E-19-1.08751E-18
 -1      2787 9.52302E-05-2.85657E-05-2.85705E-05 3.10381E-08 1.62360E-18-4.15925E-19
 -1      2788 9.52377E-05-2.85612E-05-2.85757E-05 2.45422E-08 6.44406E-19-1.14767E-18
 -1      2789 9.52298E-05-2.85678E-05-2.85693E-05 3.29353E-08 1.30075E-18-1.00705E-18
 -1      2790 9.52309E-05-2.85701E-05-2.85689E-05 3.37065E-08 8.94273E-19-6.66758E-19
 -1      2791 9.52368E-05-2.85678E-05-2.85725E-05 3.14260E-08 1.08665E-18-1.99949E-19
 -1      2792 9.52309E-05-2.85717E-05-2.85682E-05 3.38598E-08 6.74247E-19-1.02106E-18
 -1      2793 9.52323E-05-2.85737E-05-2.85680E-05 3.31884E-08 4.65871E-19-1.57128E-18
 -1      2794 9.52366E-05-2.85726E-05-2.85703E-05 3.38685E-08 2.98733E-19-6.98028E-19
 -1      2795 9.52326E-05-2.85751E-05-2.85675E-05 3.20536E-08-1.62823E-19-1.49157E-18
 -1      2796 9.52343E-05-2.85769E-05-2.85675E-05 3.02493E-08-9.33112E-19-1.92119E-18
 -1      2797 9.52370E-05-2.85764E-05-2.85689E-05 3.31355E-08 2.94101E-19-1.93914E-18
 -1      2798 1.06986E-04-3.54843E-05-3.06867E-05-2.79583E-06 4.03365E-19 8.29953E-19
 -1      2799 1.06033E-04-3.43951E-05-3.06562E-05-3.86396E-06 3.52139E-19 9.95292E-19
 -1      2800 1.29630E-04-6.01278E-05-2.95687E-05-1.61810E-05 5.83394E-20-1.59825E-18
 -1      2801 1.38192E-04-5.78053E-05-3.47668E-05-4.56677E-06-1.44378E-18-3.35690E-18
 -1      2802 7.01414E-05-3.67381E-05-1.37694E-05-3.67112E-05 1.78830E-18 2.95170E-18
 -1      2803 8.54124E-05-4.54486E-05-1.71324E-05-3.82270E-05 1.74531E-18 1.99201E-18
 -1      2804 1.04643E-04-3.31338E-05-3.06758E-05-4.47452E-06 5.56583E-19 7.84950E-19
 -1      2805 1.03776E-04-3.20560E-05-3.06923E-05-4.84942E-06 6.65437E-19 9.72358E-19
 -1      2806 1.04854E-04-3.40778E-05-3.03727E-05-5.17217E-06 3.67975E-19 8.98764E-19
 -1      2807 1.11290E-04-3.82916E-05-3.13230E-05 4.60818E-06-3.76321E-19 1.75701E-18
 -1      2808 1.11003E-04-3.83114E-05-3.11305E-05 2.56605E-06-1.49917E-19 1.61883E-18
 -1      2809 1.11580E-04-3.66077E-05-3.21289E-05 8.84074E-06 1.62271E-19 1.54533E-18
 -1      2810 1.12136E-04-3.79718E-05-3.18096E-05 7.14128E-06-1.20558E-19 1.75434E-18
 -1      2811 1.13801E-04-3.99572E-05-3.16266E-05 5.23703E-06-8.84620E-20 1.55186E-18
 -1      2812 1.09678E-04-3.19591E-05-3.32511E-05 1.09034E-05 7.93789E-19 1.06621E-18
 -1      2813 1.11052E-04-3.46464E-05-3.28375E-05 1.05763E-05 3.77328E-19 1.31778E-18
 -1      2814 1.14183E-04-3.71063E-05-3.29848E-05 9.94371E-06 4.37525E-19 1.37266E-18
 -1      2815 1.06369E-04-2.59420E-05-3.43967E-05 8.56159E-06 1.12990E-18 9.90188E-19
 -1      2816 1.07896E-04-2.88150E-05-3.40209E-05 1.03735E-05 8.65428E-19 1.07656E-18
 -1      2817 1.11784E-04-3.07715E-05-3.46925E-05 1.16493E-05 8.55649E-19 1.17028E-18
 -1      2818 1.03959E-04-2.21123E-05-3.51161E-05 1.77762E-06 1.63866E-18 1.01641E-18
 -1      2819 1.04721E-04-2.34454E-05-3.49357E-05 5.24876E-06 1.40854E-18 1.15095E-18
 -1      2820 1.08164E-04-2.37807E-05-3.62117E-05 7.81367E-06 1.22077E-18 1.06752E-18
 -1      2821 1.04826E-04-2.35369E-05-3.49591E-05-6.45864E-06 1.18578E-18 4.66371E-19
 -1      2822 1.04071E-04-2.21845E-05-3.51135E-05-3.06989E-06 1.56556E-18 6.53490E-19
 -1      2823 1.06241E-04-2.07357E-05-3.66960E-05-8.10888E-07 1.44418E-18 5.86752E-19
 -1      2824 1.08209E-04-2.90068E-05-3.40751E-05-1.15950E-05 1.25191E-18-3.05734E-19
 -1      2825 1.06554E-04-2.60443E-05-3.44324E-05-9.86053E-06 1.41932E-18 2.51387E-19
 -1      2826 1.08180E-04-2.35934E-05-3.62532E-05-9.20928E-06 1.51432E-18 2.31386E-19
 -1      2827 1.11398E-04-3.48053E-05-3.29193E-05-1.16730E-05 1.10611E-18-9.46531E-19
 -1      2828 1.09951E-04-3.21191E-05-3.33105E-05-1.20309E-05 1.25939E-18-5.58929E-19
 -1      2829 1.11980E-04-3.09783E-05-3.46973E-05-1.28252E-05 1.56865E-18-7.34020E-19
 -1      2830 1.12512E-04-3.81158E-05-3.19128E-05-8.17850E-06 3.43199E-19-1.17488E-19
 -1      2831 1.11907E-04-3.67417E-05-3.22173E-05-9.90357E-06 3.94541E-19-6.64712E-19
 -1      2832 1.14312E-04-3.72064E-05-3.29975E-05-1.10550E-05 5.93926E-19-4.46936E-19
 -1      2833 1.11403E-04-3.84988E-05-3.12255E-05-3.52354E-06 2.65651E-19 3.27013E-19
 -1      2834 1.11651E-04-3.84391E-05-3.14173E-05-5.61077E-06 6.41684E-19 3.37238E-19
 -1      2835 1.13897E-04-4.00305E-05-3.16314E-05-6.27807E-06 1.60504E-19 2.91647E-19
 -1      2836 1.09037E-04-3.70230E-05-3.08267E-05 5.72752E-07-2.93138E-19 3.25587E-20
 -1      2837 1.09819E-04-3.77461E-05-3.09394E-05-1.23242E-06 1.09486E-20 3.11035E-19
 -1      2838 1.11339E-04-3.95831E-05-3.07590E-05-1.25087E-06 1.81493E-19 4.87029E-19
 -1      2839 1.06351E-04-3.48706E-05-3.06000E-05 3.43293E-06-3.15162E-19 1.16125E-19
 -1      2840 1.07340E-04-3.58529E-05-3.06808E-05 2.16989E-06-5.42844E-19-3.59693E-19
 -1      2841 1.07982E-04-3.73558E-05-3.02980E-05 2.61995E-06-4.56279E-19 3.90404E-20
 -1      2842 1.03906E-04-3.28127E-05-3.04418E-05 5.05535E-06-3.46936E-20 3.29424E-19
 -1      2843 1.04888E-04-3.37367E-05-3.05226E-05 4.33543E-06-4.92346E-20 4.86529E-19
 -1      2844 1.04788E-04-3.46816E-05-3.00778E-05 5.02654E-06-3.65453E-19 8.68349E-19
 -1      2845 1.01895E-04-3.11706E-05-3.02927E-05 5.70597E-06 1.12149E-19 6.49307E-19
 -1      2846 1.02775E-04-3.19088E-05-3.03868E-05 5.42036E-06 2.70630E-19 1.97181E-19
 -1      2847 1.02189E-04-3.23306E-05-2.99650E-05 6.19788E-06 5.34733E-19 1.22562E-18
 -1      2848 1.00321E-04-2.99964E-05-3.01285E-05 5.69127E-06-2.76645E-19 7.01588E-19
 -1      2849 1.01071E-04-3.05316E-05-3.02367E-05 5.70757E-06 1.79614E-19 7.01401E-19
 -1      2850 1.00238E-04-3.05608E-05-2.98801E-05 6.48573E-06 9.50335E-20 1.17765E-18
 -1      2851 9.91115E-05-2.92216E-05-2.99473E-05 5.27249E-06-1.34085E-18 3.54403E-19
 -1      2852 9.97366E-05-2.95843E-05-3.00637E-05 5.47357E-06-9.47453E-19 1.05204E-18
 -1      2853 9.88352E-05-2.93638E-05-2.97858E-05 6.20928E-06-6.31550E-19 1.36926E-18
 -1      2854 9.81848E-05-2.87456E-05-2.97574E-05 4.64409E-06-8.28327E-19-2.81856E-19
 -1      2855 9.86990E-05-2.89784E-05-2.98746E-05 4.94061E-06-9.92261E-19 3.91790E-20
 -1      2856 9.78427E-05-2.86262E-05-2.96725E-05 5.61279E-06-1.13714E-18 1.03285E-18
 -1      2857 9.74718E-05-2.84758E-05-2.95693E-05 3.93876E-06-8.44511E-19 7.97785E-20
 -1      2858 9.78910E-05-2.86175E-05-2.96809E-05 4.26906E-06-1.01700E-18-9.79411E-20
 -1      2859 9.71396E-05-2.82174E-05-2.95438E-05 4.86758E-06-1.02215E-18 5.14721E-19
 -1      2860 9.69204E-05-2.83402E-05-2.93920E-05 3.24047E-06 4.79218E-19-1.52378E-19
 -1      2861 9.72590E-05-2.84208E-05-2.94936E-05 3.56551E-06 3.53368E-19-1.13548E-19
 -1      2862 9.66357E-05-2.80263E-05-2.94082E-05 4.08652E-06-4.24929E-19 8.22443E-20
 -1      2863 9.64931E-05-2.82874E-05-2.92319E-05 2.59759E-06 2.12082E-19-5.59835E-19
 -1      2864 9.67636E-05-2.83287E-05-2.93209E-05 2.89512E-06 2.72783E-19 1.38801E-19
 -1      2865 9.62687E-05-2.79697E-05-2.92743E-05 3.33914E-06 4.13676E-19-3.21836E-19
 -1      2866 9.61624E-05-2.82829E-05-2.90922E-05 2.03400E-06 5.01384E-19-7.45119E-19
 -1      2867 9.63759E-05-2.82997E-05-2.91678E-05 2.29334E-06 2.79890E-19-7.77889E-19
 -1      2868 9.59973E-05-2.79901E-05-2.91487E-05 2.66415E-06 3.66175E-19-2.17222E-20
 -1      2869 9.59078E-05-2.83043E-05-2.89739E-05 1.55758E-06 2.54865E-19-5.37994E-19
 -1      2870 9.60739E-05-2.83067E-05-2.90363E-05 1.77555E-06 6.02129E-19-8.34098E-19
 -1      2871 9.57944E-05-2.80500E-05-2.90356E-05 2.07923E-06 5.71875E-19-8.84918E-19
 -1      2872 9.57136E-05-2.83378E-05-2.88761E-05 1.16644E-06 6.02120E-19-8.18815E-20
 -1      2873 9.58408E-05-2.83321E-05-2.89265E-05 1.34435E-06 1.09319E-20-2.73857E-19
 -1      2874 9.56417E-05-2.81260E-05-2.89373E-05 1.58839E-06 2.48479E-19-3.87298E-19
 -1      2875 9.55671E-05-2.83750E-05-2.87972E-05 8.53197E-07-8.71229E-20 1.21776E-18
 -1      2876 9.56629E-05-2.83653E-05-2.88371E-05 9.94827E-07 4.68712E-19 8.14409E-19
 -1      2877 9.55268E-05-2.82043E-05-2.88542E-05 1.18733E-06 6.99180E-20 1.86144E-19
 -1      2878 9.54582E-05-2.84111E-05-2.87349E-05 6.07904E-07-8.15417E-20 1.28383E-18
 -1      2879 9.55290E-05-2.84001E-05-2.87657E-05 7.18130E-07-5.85913E-20 1.44797E-18
 -1      2880 9.54405E-05-2.82774E-05-2.87857E-05 8.67182E-07-8.53776E-20 2.50236E-19
 -1      2881 9.53788E-05-2.84439E-05-2.86867E-05 4.19854E-07 7.50293E-19 1.54575E-18
 -1      2882 9.54299E-05-2.84328E-05-2.87100E-05 5.03811E-07 4.96167E-19 1.58204E-18
 -1      2883 9.53764E-05-2.83416E-05-2.87304E-05 6.17042E-07 5.13654E-20 3.32539E-19
 -1      2884 9.53221E-05-2.84722E-05-2.86502E-05 2.78693E-07 1.84380E-18 9.40941E-20
 -1      2885 9.53581E-05-2.84620E-05-2.86674E-05 3.41275E-07 1.24696E-18 7.17471E-19
 -1      2886 9.53294E-05-2.83959E-05-2.86868E-05 4.25581E-07 1.69574E-18 8.56953E-19
 -1      2887 9.52827E-05-2.84958E-05-2.86231E-05 1.75020E-07 2.13237E-18-5.60641E-19
 -1      2888 9.53072E-05-2.84868E-05-2.86356E-05 2.20625E-07 1.92899E-18-9.92397E-20
 -1      2889 9.52954E-05-2.84403E-05-2.86530E-05 2.82027E-07 2.23445E-18-4.96388E-19
 -1      2890 9.52562E-05-2.85150E-05-2.86035E-05 1.00669E-07 1.41652E-18 7.06965E-19
 -1      2891 9.52722E-05-2.85073E-05-2.86122E-05 1.33083E-07 2.22042E-18 8.74813E-19
 -1      2892 9.52714E-05-2.84756E-05-2.86274E-05 1.76692E-07 1.16457E-18 3.45425E-19
 -1      2893 9.52393E-05-2.85302E-05-2.85897E-05 4.87808E-08-9.10138E-19 1.23631E-18
 -1      2894 9.52491E-05-2.85239E-05-2.85956E-05 7.11565E-08 3.52222E-19 1.37492E-18
 -1      2895 9.52549E-05-2.85031E-05-2.86084E-05 1.01204E-07 1.99561E-19 1.62743E-18
 -1      2896 9.52293E-05-2.85421E-05-2.85803E-05 1.37497E-08-1.46084E-18 4.09696E-19
 -1      2897 9.52347E-05-2.85369E-05-2.85841E-05 2.86452E-08-1.16313E-18 1.40563E-18
 -1      2898 9.52440E-05-2.85241E-05-2.85946E-05 4.85574E-08-7.51510E-19 1.75542E-18
 -1      2899 9.52242E-05-2.85512E-05-2.85741E-05-8.88580E-09-5.06508E-19 1.11686E-18
 -1      2900 9.52265E-05-2.85471E-05-2.85764E-05 5.49076E-10-1.43458E-18 7.71828E-20
 -1      2901 9.52371E-05-2.85398E-05-2.85849E-05 1.30444E-08-1.17580E-18 1.00312E-18
 -1      2902 9.52224E-05-2.85582E-05-2.85704E-05-2.25856E-08-5.48356E-20-7.80791E-20
 -1      2903 9.52226E-05-2.85548E-05-2.85716E-05-1.70599E-08 5.47613E-19 9.81685E-19
 -1      2904 9.52333E-05-2.85514E-05-2.85782E-05-9.86937E-09 2.47447E-19 6.67879E-19
 -1      2905 9.52228E-05-2.85634E-05-2.85683E-05-2.99505E-08-1.17051E-21-2.23632E-18
 -1      2906 9.52217E-05-2.85608E-05-2.85688E-05-2.71816E-08-7.07612E-20-1.65362E-18
 -1      2907 9.52314E-05-2.85597E-05-2.85737E-05-2.36911E-08 1.02888E-18-1.65520E-18
 -1      2908 9.52245E-05-2.85676E-05-2.85673E-05-3.28600E-08-5.91602E-19-1.33404E-18
 -1      2909 9.52227E-05-2.85654E-05-2.85673E-05-3.20300E-08-8.71151E-19-2.49118E-18
 -1      2910 9.52310E-05-2.85658E-05-2.85709E-05-3.10503E-08-3.84915E-19-3.15188E-18
 -1      2911 9.52271E-05-2.85710E-05-2.85669E-05-3.25982E-08-3.83045E-19 1.47051E-18
 -1      2912 9.52249E-05-2.85691E-05-2.85667E-05-3.31639E-08-5.73174E-19 1.76046E-19
 -1      2913 9.52316E-05-2.85703E-05-2.85692E-05-3.38453E-08-1.30792E-18-2.31805E-18
 -1      2914 9.52302E-05-2.85741E-05-2.85669E-05-2.99304E-08 5.31288E-19 3.30776E-18
 -1      2915 9.52279E-05-2.85724E-05-2.85666E-05-3.15962E-08 3.99793E-19 3.53511E-18
 -1      2916 9.52329E-05-2.85740E-05-2.85682E-05-3.33854E-08-1.02841E-18 1.06728E-18
 -1      2917 9.52339E-05-2.85775E-05-2.85671E-05-2.61890E-08-7.36182E-19 3.55114E-18
 -1      2918 9.52317E-05-2.85757E-05-2.85669E-05-2.87589E-08-2.59504E-19 3.01681E-18
 -1      2919 9.52355E-05-2.85775E-05-2.85677E-05-3.10326E-08-9.59528E-20 2.32365E-18
 -1      2920 9.52383E-05-2.85813E-05-2.85672E-05-2.77738E-08-7.59310E-19 4.90784E-18
 -1      2921 9.52559E-05-2.85956E-05-2.85686E-05-2.19730E-09 8.42668E-19-1.77423E-18
 -1      2922 9.52555E-05-2.85953E-05-2.85687E-05-6.22257E-09 1.36378E-18-3.23610E-18
 -1      2923 9.52346E-05-2.85779E-05-2.85672E-05 2.89274E-08-9.74571E-19-1.10391E-18
 -1      2924 9.52358E-05-2.85791E-05-2.85672E-05 2.71160E-08-1.30943E-18-7.34541E-19
 -1      2925 9.52388E-05-2.85819E-05-2.85672E-05 2.75876E-08-1.08075E-18-7.39696E-19
 -1      2926 9.52378E-05-2.85794E-05-2.85679E-05 3.06389E-08-5.20269E-19-1.90658E-18
 -1      2927 9.52526E-05-2.85929E-05-2.85684E-05-1.78672E-08-5.53483E-19-1.51973E-18
 -1      2928 9.52508E-05-2.85912E-05-2.85684E-05-2.08558E-08-9.91299E-20-2.27734E-18
 -1      2929 9.52556E-05-2.85953E-05-2.85687E-05 6.23152E-09-3.99903E-19-2.57893E-18
 -1      2930 9.52559E-05-2.85956E-05-2.85686E-05 2.20286E-09 4.74082E-19-2.25938E-18
 -1      2931 9.52575E-05-2.85925E-05-2.85707E-05-6.12030E-12 4.35578E-19-3.02065E-18
 -1      2932 9.52549E-05-2.85948E-05-2.85686E-05-1.04567E-08 6.01005E-19-3.51500E-18
 -1      2933 9.52539E-05-2.85938E-05-2.85686E-05-1.41426E-08-1.31593E-19-1.19043E-18
 -1      2934 9.52545E-05-2.85906E-05-2.85703E-05-1.69366E-08-3.32227E-19-1.62553E-18
 -1      2935 9.52567E-05-2.85920E-05-2.85706E-05-8.80818E-09 5.23013E-19-3.15475E-18
 -1      2936 1.02753E-04-3.09437E-05-3.07930E-05-4.73145E-06 6.85233E-19 9.68895E-19
 -1      2937 1.02090E-04-2.99637E-05-3.08671E-05-4.43880E-06 8.45179E-19 1.11684E-18
 -1      2938 1.00654E-04-2.87300E-05-3.08464E-05-4.44114E-06 1.02675E-18 6.24679E-19
 -1      2939 1.02416E-04-3.12725E-05-3.05245E-05-5.49822E-06 7.47053E-19 6.21741E-19
 -1      2940 9.52540E-05-2.85939E-05-2.85686E-05 1.40426E-08 1.05410E-18-1.44461E-18
 -1      2941 9.52550E-05-2.85949E-05-2.85686E-05 1.04058E-08 8.29049E-19-1.37920E-18
 -1      2942 9.52568E-05-2.85921E-05-2.85706E-05 8.73473E-09 4.99535E-19-1.00839E-18
 -1      2943 9.52509E-05-2.85913E-05-2.85684E-05 2.08202E-08 1.24779E-18-2.25888E-19
 -1      2944 9.52527E-05-2.85930E-05-2.85684E-05 1.78017E-08 1.28303E-18-1.14014E-18
 -1      2945 9.52546E-05-2.85907E-05-2.85703E-05 1.68354E-08 1.73884E-18-8.07880E-19
 -1      2946 9.52464E-05-2.85876E-05-2.85681E-05 2.56302E-08 5.79165E-19 1.41997E-18
 -1      2947 9.52489E-05-2.85898E-05-2.85681E-05 2.37023E-08 1.20687E-18 1.23008E-18
 -1      2948 9.52508E-05-2.85883E-05-2.85697E-05 2.36527E-08 1.19033E-18 1.27736E-18
 -1      2949 9.52413E-05-2.85837E-05-2.85676E-05 2.73629E-08-2.80225E-19 1.67869E-19
 -1      2950 9.52443E-05-2.85863E-05-2.85677E-05 2.68299E-08 6.80558E-19 1.49974E-18
 -1      2951 9.52461E-05-2.85854E-05-2.85689E-05 2.77946E-08 5.97146E-19 1.18428E-18
 -1      2952 9.52410E-05-2.85824E-05-2.85680E-05 2.91080E-08-2.33638E-19 2.06621E-20
 -1      2953 1.37965E-04-4.51079E-05-4.01099E-05 9.30619E-06-2.60653E-18-3.15583E-18
 -1      2954 1.38449E-04-3.64804E-05-4.43396E-05 1.43608E-05-3.22381E-18-2.44973E-18
 -1      2955 9.64530E-05-2.04321E-05-3.26094E-05-1.83566E-06-1.21383E-18-1.02049E-18
 -1      2956 9.74020E-05-2.23213E-05-3.21837E-05 3.95785E-07-1.17911E-18-8.35109E-19
 -1      2957 3.96065E-05-1.74293E-05-8.87811E-06-2.00752E-05 2.30816E-19 3.46458E-18
 -1      2958 5.39336E-05-2.69113E-05-1.13566E-05-3.25411E-05 7.50577E-19 2.87314E-18
 -1      2959 1.02845E-04-5.28798E-05-2.09642E-05-3.27767E-05 1.84664E-18 7.74360E-19
 -1      2960 1.17950E-04-5.90979E-05-2.54637E-05-2.69925E-05 8.40786E-19-2.62316E-20
 -1      2961 1.09439E-04-3.75224E-05-3.08714E-05 3.55772E-07 1.01335E-19 1.20795E-18
 -1      2962 1.08649E-04-3.67353E-05-3.07772E-05-1.35263E-06 3.13267E-19 1.07772E-18
 -1      2963 1.07961E-04-3.70498E-05-3.04293E-05-3.25964E-06 1.39185E-19 1.07873E-18
 -1      2964 1.11272E-04-3.94391E-05-3.07997E-05 3.47015E-07-2.10761E-19 1.80453E-18
 -1      2965 9.80259E-05-2.37290E-05-3.18240E-05 2.18086E-06-1.03331E-18-6.17826E-19
 -1      2966 9.83975E-05-2.48640E-05-3.15179E-05 4.16259E-06-8.62749E-19-5.00213E-19
 -1      2967 9.64367E-05-2.37095E-05-3.11789E-05 5.13529E-06-7.34633E-19-6.20486E-19
 -1      2968 9.54091E-05-2.11109E-05-3.18387E-05 1.73698E-06-9.63497E-19-9.43582E-19
 -1      2969 8.66382E-05-1.27895E-05-3.16552E-05-3.42659E-07 1.46749E-18-9.12699E-19
 -1      2970 8.49299E-05-1.15686E-05-3.14742E-05-8.29518E-07 1.22420E-18-1.08261E-18
 -1      2971 8.48216E-05-1.24518E-05-3.10024E-05-1.79633E-06 9.80285E-19-9.70832E-19
 -1      2972 8.84689E-05-1.52921E-05-3.13516E-05-1.29112E-06 1.33060E-18-7.25921E-19
 -1      2973 1.11131E-04-5.67056E-05-2.33668E-05 3.25167E-05 8.95949E-19 5.56342E-19
 -1      2974 9.39835E-05-4.88763E-05-1.89690E-05 3.70969E-05 1.39538E-18-5.63330E-19
 -1      2975 1.18243E-04-5.81489E-05-2.58470E-05 2.71421E-05-1.36902E-18-7.24134E-19
 -1      2976 1.06953E-04-5.39474E-05-2.22025E-05 3.22567E-05-2.05744E-18-6.98802E-21
 -1      2977 3.92083E-05-1.93885E-05-8.29522E-06 2.48408E-05 1.01559E-18-4.46852E-18
 -1      2978 3.04394E-05-1.42375E-05-6.24529E-06 1.03291E-05 4.73174E-19-4.67710E-18
 -1      2979 8.29950E-05-9.87375E-06-3.13706E-05-7.41198E-09-1.31554E-19-2.05500E-18
 -1      2980 8.45849E-05-1.09732E-05-3.15574E-05-1.41704E-07-4.02720E-19-2.04668E-18
 -1      2981 1.30504E-04-1.65658E-05-4.94603E-05-1.04062E-05 4.53734E-18-9.06802E-19
 -1      2982 1.34553E-04-2.49272E-05-4.75210E-05-1.20579E-05 4.14919E-18-1.98269E-18
 -1      2983 7.37989E-05-3.75508E-05-1.53327E-05 3.78645E-05 1.77400E-18-1.51598E-18
 -1      2984 5.65723E-05-2.77615E-05-1.16147E-05 3.30799E-05 1.87395E-18-3.25303E-18
 -1      2985 1.30271E-04-1.79616E-05-4.87179E-05 1.01593E-05 3.40888E-18 2.35840E-18
 -1      2986 1.27767E-04-1.20876E-05-5.01861E-05 6.20311E-06 3.54632E-18 1.50240E-18
 -1      2987 1.33031E-04-1.82682E-05-5.00528E-05 1.17192E-05-4.63708E-18-2.14882E-18
 -1      2988 1.29071E-04-1.31448E-05-5.03721E-05 6.65457E-06-4.39102E-18-1.83997E-18
 -1      2989 1.16553E-04-5.69146E-05-2.52120E-05-2.74862E-05-1.95839E-18 5.35801E-19
 -1      2990 1.25777E-04-5.94901E-05-2.85890E-05-2.17701E-05-1.63589E-18 1.11258E-18
 -1      2991 1.25373E-04-9.19398E-06-5.04620E-05 1.10533E-06 3.92007E-18 1.01437E-18
 -1      2992 1.26362E-04-1.06649E-05-5.01890E-05-6.14447E-06 4.51405E-18 9.38089E-20
 -1      2993 1.32977E-04-6.06417E-05-3.14099E-05 1.62891E-05 2.66815E-20 1.38278E-18
 -1      2994 1.23997E-04-6.00360E-05-2.71934E-05 2.37625E-05 6.26169E-19 1.11332E-18
 -1      2995 9.22710E-05-1.54511E-05-3.29353E-05-3.00044E-06-1.01522E-18-1.59568E-18
 -1      2996 1.41451E-04-5.14003E-05-3.90858E-05-3.30858E-06-7.68497E-19 1.09151E-18
 -1      2997 1.39194E-04-5.73829E-05-3.50431E-05 5.87512E-06-3.58970E-19 1.30062E-18
 -1      2998 1.35393E-04-5.83108E-05-3.29110E-05 7.07613E-06 3.50751E-19 1.52323E-18
 -1      2999 5.18123E-05-2.33561E-05-1.16298E-05-2.99600E-05-1.40004E-18-3.40190E-18
 -1      3000 6.67190E-05-3.27008E-05-1.43944E-05-3.74511E-05-1.69428E-18-2.38239E-18
 -1      3001 3.07271E-05-1.31948E-05-7.01882E-06 8.20172E-06-8.87002E-19 6.64053E-18
 -1      3002 3.08888E-05-1.29794E-05-7.30923E-06-6.23625E-06-5.28787E-19 6.42517E-18
 -1      3003 8.43254E-05-4.23944E-05-1.74045E-05-3.79477E-05-1.85670E-18-1.48765E-18
 -1      3004 1.01413E-04-5.12941E-05-2.16050E-05-3.52766E-05-1.90434E-18-6.91391E-19
 -1      3005 8.65321E-05-1.25032E-05-3.17638E-05-8.92716E-08-4.63063E-19-1.98676E-18
 -1      3006 8.86631E-05-1.40276E-05-3.19885E-05-3.99514E-07-5.81817E-19-1.87499E-18
 -1      3007 8.61069E-05-1.31354E-05-3.12491E-05 9.80256E-07-3.35698E-19-1.82511E-18
 -1      3008 8.06621E-05-9.18504E-06-3.06066E-05-1.14565E-06 3.85603E-19-1.58482E-18
 -1      3009 8.01757E-05-7.87572E-06-3.10004E-05-7.74066E-07 4.24488E-19-1.81512E-18
 -1      3010 8.02909E-05-7.93391E-06-3.10294E-05-7.16766E-07 2.13048E-19-1.94944E-18
 -1      3011 9.71243E-05-2.19419E-05-3.22369E-05 1.65182E-06 1.71211E-18 4.61845E-19
 -1      3012 4.07775E-05-1.44615E-05-1.05974E-05 1.27099E-05-1.59438E-18 5.18935E-18
 -1      3013 1.38847E-04-5.15412E-05-3.76144E-05 6.71451E-07 1.66199E-18-2.54322E-18
 -1      3014 1.34092E-04-5.47705E-05-3.40212E-05 4.50391E-06 5.32211E-19-2.26629E-18
 -1      3015 1.36089E-04-4.67753E-05-3.86649E-05-6.26593E-06 1.92404E-18-3.04731E-18
 -1      3016 1.34612E-04-3.09635E-05-4.48957E-05-1.23143E-05 3.51328E-18-2.10477E-18
 -1      3017 1.32848E-04-3.63238E-05-4.16665E-05-1.17992E-05 2.88775E-18-2.59150E-18
 -1      3018 1.27591E-04-2.68555E-05-4.35401E-05-1.44960E-05 3.28458E-18-1.84902E-18
 -1      3019 9.76031E-05-4.69013E-05-2.18500E-05 3.16529E-05 1.80984E-18 1.12338E-19
 -1      3020 8.68370E-05-4.29608E-05-1.84028E-05 3.59149E-05 1.80174E-18-9.90764E-19
 -1      3021 7.98187E-05-3.55555E-05-1.86898E-05 3.26800E-05 1.93626E-18-1.18013E-18
 -1      3022 7.95577E-05-3.64192E-05-1.80817E-05-3.41695E-05-1.83065E-18-1.60084E-18
 -1      3023 1.25749E-04-1.42842E-05-4.82586E-05 2.78834E-06-4.23411E-18-1.32243E-18
 -1      3024 1.21107E-04-2.44604E-05-4.16152E-05-1.26989E-05-2.28699E-18 8.57118E-19
 -1      3025 1.27779E-04-2.12752E-05-4.60823E-05-1.25462E-05-2.93899E-18 5.73759E-19
 -1      3026 1.34695E-04-2.60015E-05-4.71761E-05-1.30397E-05-2.84042E-18 6.34851E-19
 -1      3027 1.24164E-04-3.17461E-05-4.00896E-05-1.55911E-05-1.67305E-18 1.35475E-18
 -1      3028 1.27647E-04-4.43460E-05-3.59468E-05-1.20235E-05-5.18966E-19 1.61344E-18
 -1      3029 1.26300E-04-3.86448E-05-3.76740E-05-1.41554E-05-7.94464E-19 1.57961E-18
 -1      3030 1.30717E-04-3.74822E-05-4.01644E-05-1.45621E-05-1.50190E-18 1.16282E-18
 -1      3031 1.27819E-04-2.65887E-05-4.36664E-05 1.61902E-05-3.37701E-18-3.36404E-18
 -1      3032 9.52507E-05-2.85881E-05-2.85697E-05-2.36445E-08-9.22677E-19-1.53417E-18
 -1      3033 9.52488E-05-2.85897E-05-2.85681E-05-2.36934E-08-5.37323E-19-1.81279E-18
 -1      3034 9.52464E-05-2.85875E-05-2.85681E-05-2.55865E-08-1.12023E-18-3.52781E-19
 -1      3035 9.77446E-05-4.83759E-05-2.08215E-05-3.20098E-05 1.99730E-18 1.15525E-18
 -1      3036 1.34921E-04-2.52580E-05-4.74868E-05 1.27332E-05-4.28218E-18-2.43024E-18
 -1      3037 9.52441E-05-2.85859E-05-2.85677E-05-2.69703E-08-1.00645E-18 7.57776E-19
 -1      3038 9.52410E-05-2.85833E-05-2.85676E-05-2.74460E-08-9.24079E-19 3.17233E-18
 -1      3039 9.52398E-05-2.85813E-05-2.85680E-05-2.94809E-08-1.36679E-18 3.38601E-18
 -1      3040 9.52457E-05-2.85850E-05-2.85689E-05-2.78861E-08-2.17989E-18-1.08497E-21
 -1      3041 9.79843E-05-4.86375E-05-2.08259E-05 3.32444E-05-2.90585E-18 7.91658E-19
 -1      3042 1.37657E-04-5.26794E-05-3.65966E-05 5.14150E-06-1.79562E-18-3.16224E-18
 -1      3043 1.21221E-04-1.17201E-05-4.72410E-05 3.39408E-06 3.58422E-18 1.07818E-18
 -1      3044 1.18893E-04-5.76448E-05-2.59552E-05 2.46730E-05 1.23095E-18 1.04740E-18
 -1      3045 1.09135E-04-5.26158E-05-2.40419E-05-2.86396E-05-1.96925E-18 2.70898E-19
 -1      3046 1.30912E-04-2.37174E-05-4.64180E-05 1.17041E-05 2.83227E-18 2.79426E-18
 -1      3047 1.23903E-04-2.05017E-05-4.47554E-05 1.18804E-05 2.58684E-18 2.88023E-18
 -1      3048 1.29824E-04-2.95407E-05-4.33263E-05 1.23540E-05 1.66463E-18 3.38051E-18
 -1      3049 1.23365E-04-1.48908E-05-4.68404E-05-8.53314E-06 3.91520E-18-5.72330E-19
 -1      3050 6.68014E-05-3.05828E-05-1.49685E-05-3.12956E-05 1.36949E-18 2.62644E-18
 -1      3051 1.24049E-04-5.87692E-05-2.79299E-05-1.77574E-05 7.85676E-19-1.57448E-18
 -1      3052 9.68363E-05-2.27210E-05-3.17642E-05-2.67584E-07 1.51094E-18 2.25054E-19
 -1      3053 1.39044E-04-4.66119E-05-3.98996E-05 4.41169E-06 2.16232E-19 2.62612E-18
 -1      3054 1.34076E-04-4.03724E-05-4.05572E-05 1.04106E-05 5.63753E-19 3.27124E-18
 -1      3055 1.35028E-04-5.08714E-05-3.60672E-05 1.07765E-06-6.82259E-19 2.73131E-18
 -1      3056 9.20419E-05-1.65216E-05-3.23654E-05-1.14901E-06-8.19959E-19-1.58195E-18
 -1      3057 1.29746E-04-5.77814E-05-3.09256E-05-1.30079E-05-1.51534E-18 1.75638E-18
 -1      3058 8.08069E-05-8.29568E-06-3.11012E-05-3.12059E-07 1.67157E-19-1.87757E-18
 -1      3059 8.16934E-05-8.88044E-06-3.12179E-05-2.91723E-07-4.47654E-20-1.93265E-18
 -1      3060 8.27397E-05-1.06127E-05-3.08853E-05 5.32529E-07-8.89571E-20-1.83547E-18
 -1      3061 8.08616E-05-9.26074E-06-3.06582E-05-2.72794E-07 1.39891E-19-1.80382E-18
 -1      3062 5.35725E-05-2.25532E-05-1.27272E-05 2.65725E-05 1.54467E-18-3.30756E-18
 -1      3063 6.02901E-05-2.82054E-05-1.30857E-05 3.34932E-05-3.67686E-18 4.27053E-18
 -1      3064 5.62750E-05-2.25641E-05-1.39997E-05 2.73634E-05-3.12868E-18 4.15713E-18
 -1      3065 7.19356E-05-3.36721E-05-1.64871E-05 3.42136E-05-3.96877E-18 2.62310E-18
 -1      3066 3.59769E-05-1.30753E-05-9.10512E-06 2.56720E-06 1.68546E-20-4.20128E-18
 -1      3067 1.24024E-04-5.78643E-05-2.83880E-05 1.85707E-05-1.10739E-18-1.33863E-18
 -1      3068 1.32561E-04-5.42075E-05-3.36711E-05 1.04409E-06-7.98858E-19-3.07652E-18
 -1      3069 4.43838E-05-1.49210E-05-1.22689E-05-1.73300E-05-7.97534E-19-3.30999E-18
 -1      3070 4.77061E-05-1.91883E-05-1.17011E-05-2.51206E-05-1.11798E-18-3.63758E-18
 -1      3071 5.93173E-05-2.22540E-05-1.55214E-05-2.63432E-05-1.51876E-18-2.83888E-18
 -1      3072 1.30231E-04-4.90732E-05-3.48958E-05-7.24120E-06 7.41286E-20 1.17748E-18
 -1      3073 1.38777E-04-4.67442E-05-3.96913E-05-9.17466E-06-1.10337E-18 1.47426E-18
 -1      3074 1.35265E-04-4.96666E-05-3.67994E-05-6.64462E-06-4.30452E-19 1.41216E-18
 -1      3075 4.74473E-05-1.56476E-05-1.33441E-05 1.68613E-05-2.00123E-18 3.72620E-18
 -1      3076 4.26283E-05-1.23840E-05-1.26335E-05 6.22215E-06-1.25892E-18 5.34192E-18
 -1      3077 9.44499E-05-2.11656E-05-3.14094E-05-1.58029E-06 1.31227E-18-1.67184E-19
 -1      3078 9.22916E-05-1.93899E-05-3.12513E-05-2.01297E-06 1.28369E-18-4.77830E-19
 -1      3079 9.46764E-05-2.37009E-05-3.04049E-05 7.49447E-06-5.30051E-19-7.62643E-19
 -1      3080 9.52622E-05-2.49948E-05-3.01025E-05 8.95576E-06-4.68079E-19-7.76701E-19
 -1      3081 9.57053E-05-2.63467E-05-2.97014E-05 1.04989E-05-2.67028E-19-5.38090E-19
 -1      3082 9.67966E-05-2.80587E-05-2.94333E-05 1.15786E-05-1.20791E-19-5.03297E-19
 -1      3083 9.27241E-05-2.40363E-05-2.94590E-05 9.97689E-06-2.60345E-19-8.52239E-19
 -1      3084 9.78323E-05-2.99687E-05-2.90372E-05 1.29532E-05-1.06363E-19-2.91437E-19
 -1      3085 9.97927E-05-3.24395E-05-2.88238E-05 1.35407E-05-3.36861E-20-3.71795E-19
 -1      3086 9.40709E-05-2.74719E-05-2.85903E-05 1.30950E-05-5.39558E-20-6.18344E-19
 -1      3087 1.01980E-04-3.52839E-05-2.84873E-05 1.45907E-05 2.19250E-19-7.21550E-20
 -1      3088 1.05187E-04-3.87247E-05-2.84314E-05 1.43668E-05 6.04259E-19-2.56982E-20
 -1      3089 9.70753E-05-3.25079E-05-2.77564E-05 1.59490E-05 2.66316E-19-3.16976E-21
 -1      3090 1.09220E-04-4.26626E-05-2.83508E-05 1.45689E-05 1.04983E-18 3.61183E-19
 -1      3091 1.13851E-04-4.66847E-05-2.87155E-05 1.28866E-05 1.14052E-18 5.38628E-19
 -1      3092 1.02937E-04-3.98145E-05-2.71761E-05 1.80331E-05 9.86489E-19 2.93232E-19
 -1      3093 1.28872E-04-5.50932E-05-3.15188E-05-3.92061E-06 2.42900E-19-2.89059E-18
 -1      3094 1.19719E-04-5.10348E-05-2.94369E-05-8.53441E-06 1.59205E-18-2.41875E-18
 -1      3095 1.15080E-04-4.74691E-05-2.87618E-05-1.13001E-05 1.81481E-18-1.96997E-18
 -1      3096 1.09736E-04-4.33392E-05-2.84409E-05-1.24731E-05 1.55574E-18-1.28517E-18
 -1      3097 1.05875E-04-3.96718E-05-2.82457E-05-1.36378E-05 1.65659E-18-9.34080E-19
 -1      3098 1.08420E-04-4.54319E-05-2.71872E-05-1.65006E-05 2.02945E-18-9.94126E-19
 -1      3099 1.02650E-04-3.63983E-05-2.83620E-05-1.33680E-05 1.05716E-18-7.89289E-19
 -1      3100 1.00007E-04-3.35992E-05-2.84014E-05-1.35181E-05 7.11058E-19-9.44332E-19
 -1      3101 1.00190E-04-3.71840E-05-2.71371E-05-1.63634E-05 1.22311E-18-6.72796E-19
 -1      3102 9.83694E-05-3.14808E-05-2.86308E-05-1.26982E-05 7.53985E-19-1.10539E-18
 -1      3103 9.67728E-05-2.96923E-05-2.87255E-05-1.23589E-05 9.06538E-19-1.30366E-18
 -1      3104 9.55668E-05-3.13144E-05-2.76016E-05-1.46069E-05 7.19851E-19-6.49429E-19
 -1      3105 9.60691E-05-2.84829E-05-2.89392E-05-1.14489E-05 7.76394E-19-1.05050E-18
 -1      3106 9.51770E-05-2.74638E-05-2.90159E-05-1.08792E-05 9.34157E-19-1.65994E-18
 -1      3107 9.34025E-05-2.78569E-05-2.81238E-05-1.26123E-05 6.52764E-19-1.77404E-19
 -1      3108 9.50005E-05-2.68872E-05-2.91725E-05-1.00041E-05 4.56601E-19-1.53682E-18
 -1      3109 9.45303E-05-2.63872E-05-2.92088E-05-9.34738E-06 1.63090E-19-1.80824E-18
 -1      3110 9.26255E-05-2.60308E-05-2.85521E-05-1.07128E-05 3.42310E-19-3.52123E-19
 -1      3111 9.46121E-05-2.62019E-05-2.93049E-05-8.54990E-06-9.72262E-20-1.90551E-18
 -1      3112 9.43735E-05-2.60189E-05-2.93030E-05-7.88309E-06-3.47469E-19-1.58459E-18
 -1      3113 9.25874E-05-2.52773E-05-2.88479E-05-9.01114E-06-1.54108E-19-1.25772E-18
 -1      3114 9.45608E-05-2.60541E-05-2.93493E-05-7.17044E-06-5.67317E-19-1.44622E-18
 -1      3115 9.44401E-05-2.60492E-05-2.93195E-05-6.53699E-06-6.49898E-19-2.15695E-18
 -1      3116 9.28837E-05-2.51541E-05-2.90230E-05-7.50600E-06-7.12329E-19-7.23713E-19
 -1      3117 9.46515E-05-2.61949E-05-2.93297E-05-5.90927E-06-2.40337E-19-2.33689E-18
 -1      3118 9.45868E-05-2.62802E-05-2.92830E-05-5.33339E-06-4.06116E-20-2.04795E-18
 -1      3119 9.32942E-05-2.53714E-05-2.91046E-05-6.18126E-06-8.42889E-19-5.87067E-19
 -1      3120 9.47838E-05-2.64699E-05-2.92697E-05-4.78869E-06 4.93781E-19-2.03835E-18
 -1      3121 9.47439E-05-2.65933E-05-2.92152E-05-4.28229E-06 6.68727E-19-1.76641E-18
 -1      3122 9.37072E-05-2.57476E-05-2.91206E-05-5.02458E-06 3.50960E-19-5.69412E-19
 -1      3123 9.49113E-05-2.67895E-05-2.91883E-05-3.81736E-06 1.17895E-19-2.15148E-18
 -1      3124 9.48820E-05-2.69217E-05-2.91326E-05-3.38397E-06 9.27622E-20-2.05879E-18
 -1      3125 9.40732E-05-2.61759E-05-2.90948E-05-4.02706E-06 2.67983E-19-1.17611E-18
 -1      3126 9.50168E-05-2.71049E-05-2.90992E-05-2.99386E-06 5.80466E-20-1.92389E-18
 -1      3127 9.49923E-05-2.72306E-05-2.90463E-05-2.63143E-06 2.95880E-19-2.27999E-18
 -1      3128 9.43758E-05-2.65967E-05-2.90452E-05-3.17986E-06 1.64504E-19-1.56523E-18
 -1      3129 9.50968E-05-2.73920E-05-2.90112E-05-2.30965E-06-1.09986E-19-2.74447E-18
 -1      3130 9.50752E-05-2.75041E-05-2.89635E-05-2.01267E-06-1.35578E-18-2.90882E-18
 -1      3131 9.46154E-05-2.69801E-05-2.89844E-05-2.47212E-06-4.25239E-19-1.49900E-18
 -1      3132 9.51541E-05-2.76410E-05-2.89298E-05-1.75169E-06-1.08615E-18-2.08611E-18
 -1      3133 9.51350E-05-2.77371E-05-2.88884E-05-1.51279E-06-6.82517E-19-1.45764E-18
 -1      3134 9.47992E-05-2.73134E-05-2.89210E-05-1.89074E-06-3.09373E-19-2.30523E-18
 -1      3135 9.51932E-05-2.78502E-05-2.88577E-05-1.30459E-06-8.81067E-19-8.57235E-19
 -1      3136 9.51767E-05-2.79302E-05-2.88227E-05-1.11574E-06-1.20509E-19-5.23225E-19
 -1      3137 9.49368E-05-2.75942E-05-2.88603E-05-1.42110E-06-3.86365E-19-1.24841E-18
 -1      3138 9.52188E-05-2.80215E-05-2.87958E-05-9.52353E-07-1.33130E-19-7.92682E-19
 -1      3139 9.52049E-05-2.80867E-05-2.87671E-05-8.05556E-07-5.25440E-19-1.13480E-18
 -1      3140 9.50379E-05-2.78248E-05-2.88051E-05-1.04794E-06-3.88585E-19-9.09241E-19
 -1      3141 9.52347E-05-2.81592E-05-2.87442E-05-6.79435E-07-7.61142E-19-9.72018E-19
 -1      3142 9.52233E-05-2.82113E-05-2.87211E-05-5.67234E-07-9.25221E-19-3.38493E-19
 -1      3143 9.51105E-05-2.80106E-05-2.87569E-05-7.56315E-07-5.33956E-19-1.62920E-18
 -1      3144 9.52439E-05-2.82678E-05-2.87021E-05-4.71520E-07-7.35150E-19-8.25989E-20
 -1      3145 9.52348E-05-2.83088E-05-2.86838E-05-3.87240E-07-9.76131E-20 1.65243E-19
 -1      3146 9.51616E-05-2.81576E-05-2.87160E-05-5.32176E-07-7.37978E-19-1.19628E-18
 -1      3147 9.52486E-05-2.83522E-05-2.86684E-05-3.15891E-07 2.81743E-20 5.91472E-19
 -1      3148 9.52416E-05-2.83839E-05-2.86542E-05-2.53747E-07 8.70270E-19 4.20480E-19
 -1      3149 9.51968E-05-2.82720E-05-2.86821E-05-3.62862E-07-1.40673E-20-8.65136E-20
 -1      3150 9.52505E-05-2.84167E-05-2.86419E-05-2.01584E-07 4.93762E-19 7.59387E-21
 -1      3151 9.52452E-05-2.84408E-05-2.86311E-05-1.56690E-07 3.18855E-19-3.51224E-19
 -1      3152 9.52201E-05-2.83596E-05-2.86546E-05-2.37286E-07 9.99261E-20 1.11621E-18
 -1      3153 9.52506E-05-2.84651E-05-2.86215E-05-1.19377E-07 2.83475E-19-5.77540E-19
 -1      3154 9.52467E-05-2.84831E-05-2.86134E-05-8.76969E-08 1.89978E-21-1.42765E-18
 -1      3155 9.52350E-05-2.84255E-05-2.86327E-05-1.46001E-07-3.00620E-19 3.97541E-20
 -1      3156 9.52497E-05-2.85008E-05-2.86060E-05-6.16809E-08-7.49214E-19-2.32547E-18
 -1      3157 9.52469E-05-2.85141E-05-2.86001E-05-3.99513E-08-1.91633E-19-3.24561E-18
 -1      3158 9.52438E-05-2.84742E-05-2.86157E-05-8.11388E-08-8.52512E-19-1.01612E-18
 -1      3159 9.52482E-05-2.85266E-05-2.85945E-05-2.23778E-08 2.65673E-19-3.83666E-18
 -1      3160 9.52463E-05-2.85362E-05-2.85902E-05-8.01063E-09-2.73806E-19-4.87466E-18
 -1      3161 9.52484E-05-2.85095E-05-2.86025E-05-3.62859E-08-7.85677E-19-2.09044E-18
 -1      3162 9.52465E-05-2.85450E-05-2.85861E-05 3.36601E-09 3.11553E-19-4.17176E-18
 -1      3163 9.52453E-05-2.85518E-05-2.85830E-05 1.23791E-08 1.09771E-18-3.17410E-18
 -1      3164 9.52503E-05-2.85346E-05-2.85926E-05-6.32172E-09 3.49610E-19-2.38912E-18
 -1      3165 9.52449E-05-2.85577E-05-2.85800E-05 1.92865E-08 1.47574E-18-2.69401E-18
 -1      3166 9.52441E-05-2.85625E-05-2.85779E-05 2.44660E-08 1.08233E-18-7.70193E-19
 -1      3167 9.52503E-05-2.85520E-05-2.85851E-05 1.27561E-08 1.97529E-18-2.36108E-18
 -1      3168 9.52433E-05-2.85665E-05-2.85757E-05 2.81974E-08 3.55043E-19-3.73749E-19
 -1      3169 9.52430E-05-2.85699E-05-2.85742E-05 3.06580E-08 9.87436E-19-8.38412E-19
 -1      3170 9.52493E-05-2.85638E-05-2.85796E-05 2.40014E-08 1.36633E-18-1.96551E-18
 -1      3171 9.52421E-05-2.85726E-05-2.85726E-05 3.21649E-08 1.06362E-18-1.61628E-18
 -1      3172 9.52421E-05-2.85752E-05-2.85716E-05 3.26914E-08 1.88106E-20-1.85283E-18
 -1      3173 9.52477E-05-2.85719E-05-2.85754E-05 2.96733E-08 2.78201E-19-1.43740E-18
 -1      3174 9.52413E-05-2.85771E-05-2.85703E-05 3.25692E-08-5.22658E-19-1.18866E-18
 -1      3175 9.52415E-05-2.85793E-05-2.85696E-05 3.17139E-08 4.34120E-19-1.77030E-18
 -1      3176 9.52462E-05-2.85776E-05-2.85723E-05 3.14510E-08-1.15704E-20-1.46378E-18
 -1      3177 9.52583E-05-2.85889E-05-2.85726E-05 1.09679E-08 1.10666E-18-2.35060E-19
 -1      3178 9.52591E-05-2.85894E-05-2.85727E-05 6.76853E-09 3.59124E-19-7.96594E-19
 -1      3179 1.17227E-04-3.84474E-05-3.37782E-05 1.01522E-05 5.93525E-19 1.43634E-18
 -1      3180 1.17848E-04-4.13025E-05-3.28640E-05 8.13086E-06 2.11032E-19 1.47684E-18
 -1      3181 1.16367E-04-4.23791E-05-3.17692E-05 4.61390E-06 8.74115E-20 1.48635E-18
 -1      3182 1.15553E-04-4.26992E-05-3.11763E-05 2.06072E-06-1.35754E-19 1.68995E-18
 -1      3183 1.19667E-04-4.40538E-05-3.24280E-05 5.20623E-06 2.46487E-19 1.85061E-18
 -1      3184 1.09480E-04-2.00067E-05-3.84171E-05 7.27408E-06 1.40491E-18 1.37618E-18
 -1      3185 1.11797E-04-2.43265E-05-3.77684E-05 1.05142E-05 1.22137E-18 1.54685E-18
 -1      3186 1.11635E-04-1.58958E-05-4.13534E-05-4.29723E-06 2.49753E-18 4.27685E-20
 -1      3187 1.11441E-04-1.54953E-05-4.14198E-05 1.03878E-06 2.23866E-18 5.38440E-19
 -1      3188 1.16365E-04-3.45693E-05-3.52430E-05-1.35042E-05 1.22710E-18-1.29736E-18
 -1      3189 1.14385E-04-2.98454E-05-3.62768E-05-1.32275E-05 1.86804E-18-1.34452E-18
 -1      3190 1.17731E-04-4.13599E-05-3.28030E-05-9.13778E-06 9.69092E-20-6.71700E-19
 -1      3191 1.17181E-04-3.85624E-05-3.37128E-05-1.12220E-05 7.16636E-19-7.89067E-19
 -1      3192 1.20447E-04-3.85395E-05-3.51080E-05-1.22491E-05 7.60199E-19-1.79642E-18
 -1      3193 1.15373E-04-4.27693E-05-3.10830E-05-2.97006E-06-2.16925E-19-5.13679E-19
 -1      3194 1.16273E-04-4.24315E-05-3.16947E-05-5.63796E-06-1.20155E-19-7.35477E-19
 -1      3195 1.19379E-04-4.41665E-05-3.22090E-05-5.90842E-06-1.20623E-19-1.73424E-18
 -1      3196 1.11069E-04-4.06379E-05-3.01148E-05 2.08635E-06-4.60564E-19 6.43877E-21
 -1      3197 1.12689E-04-4.17492E-05-3.04484E-05-1.03517E-07-2.48591E-19-7.32915E-20
 -1      3198 1.14855E-04-4.39230E-05-3.03934E-05 5.43263E-07-4.76959E-19-1.28688E-18
 -1      3199 1.06625E-04-3.72193E-05-2.96828E-05 5.30561E-06-9.27030E-19 3.22264E-19
 -1      3200 1.08358E-04-3.88253E-05-2.98349E-05 3.88275E-06-5.31012E-19 3.02576E-19
 -1      3201 1.09322E-04-4.07859E-05-2.94495E-05 5.14063E-06-8.88789E-19 1.81397E-19
 -1      3202 1.02961E-04-3.39522E-05-2.95306E-05 6.90479E-06-3.07614E-19 6.78208E-19
 -1      3203 1.04458E-04-3.54472E-05-2.95939E-05 6.15304E-06-8.54093E-19 1.02971E-18
 -1      3204 1.04432E-04-3.66875E-05-2.90983E-05 7.47829E-06-9.25425E-19 6.54296E-19
 -1      3205 1.00278E-04-3.13872E-05-2.94966E-05 7.37914E-06 2.90047E-19 1.41204E-18
 -1      3206 1.01434E-04-3.25471E-05-2.95277E-05 7.12212E-06 2.46110E-19 1.80276E-18
 -1      3207 1.00773E-04-3.31309E-05-2.90376E-05 8.28162E-06-3.16155E-19 9.98450E-19
 -1      3208 9.84508E-05-2.96090E-05-2.94884E-05 7.15653E-06-6.99597E-20 2.17922E-18
 -1      3209 9.92918E-05-3.04114E-05-2.95180E-05 7.22599E-06 2.70414E-19 1.70596E-18
 -1      3210 9.83058E-05-3.05053E-05-2.90889E-05 8.16796E-06-2.23740E-20 2.58232E-18
 -1      3211 9.72644E-05-2.84967E-05-2.94651E-05 6.54277E-06-1.19411E-18 2.54494E-18
 -1      3212 9.78591E-05-2.90019E-05-2.95047E-05 6.80659E-06-4.62734E-19 2.12354E-18
 -1      3213 9.67661E-05-2.87783E-05-2.91565E-05 7.55529E-06-2.36970E-19 2.47022E-18
 -1      3214 9.65161E-05-2.78767E-05-2.94154E-05 5.74067E-06-6.80979E-19 1.30054E-18
 -1      3215 9.69341E-05-2.81639E-05-2.94660E-05 6.10405E-06-9.52981E-19 1.79310E-18
 -1      3216 9.58699E-05-2.77626E-05-2.91993E-05 6.70272E-06-7.25386E-19 2.62317E-18
 -1      3217 9.60516E-05-2.75901E-05-2.93421E-05 4.87992E-06-1.17534E-18 2.90808E-19
 -1      3218 9.63479E-05-2.77298E-05-2.94003E-05 5.27866E-06-6.19923E-19 8.57055E-19
 -1      3219 9.53871E-05-2.72515E-05-2.92064E-05 5.76521E-06-6.14992E-19 1.05589E-18
 -1      3220 9.57649E-05-2.75132E-05-2.92537E-05 4.04071E-06-2.04201E-19 1.09443E-19
 -1      3221 9.59781E-05-2.75597E-05-2.93148E-05 4.43366E-06-8.56135E-19 1.53144E-20
 -1      3222 9.51542E-05-2.70709E-05-2.91812E-05 4.83503E-06-7.24384E-19 6.20040E-20
 -1      3223 9.55869E-05-2.75579E-05-2.91587E-05 3.26962E-06 5.83561E-19 6.47708E-22
 -1      3224 9.57431E-05-2.75496E-05-2.92188E-05 3.63237E-06 6.50648E-19-1.24504E-20
 -1      3225 9.50635E-05-2.70906E-05-2.91325E-05 3.96619E-06 6.09594E-19 1.22675E-19
 -1      3226 9.54748E-05-2.76655E-05-2.90646E-05 2.59026E-06 3.24298E-19-1.54651E-19
 -1      3227 9.55909E-05-2.76280E-05-2.91205E-05 2.91026E-06 5.79974E-19 1.87301E-19
 -1      3228 9.50482E-05-2.72202E-05-2.90697E-05 3.18809E-06 6.05021E-19-1.89987E-19
 -1      3229 9.54025E-05-2.77984E-05-2.89763E-05 2.01089E-06 1.17117E-18-6.89680E-19
 -1      3230 9.54896E-05-2.77482E-05-2.90264E-05 2.28357E-06 7.49230E-19-4.10520E-19
 -1      3231 9.50684E-05-2.74001E-05-2.90010E-05 2.51355E-06 9.82147E-19 5.07937E-19
 -1      3232 9.53545E-05-2.79345E-05-2.88969E-05 1.52988E-06-2.54124E-19-2.79636E-19
 -1      3233 9.54202E-05-2.78813E-05-2.89403E-05 1.75578E-06 2.48079E-19-5.69389E-19
 -1      3234 9.51019E-05-2.75936E-05-2.89324E-05 1.94433E-06 5.12132E-19-1.22803E-19
 -1      3235 9.53215E-05-2.80612E-05-2.88280E-05 1.13975E-06-1.08851E-19-4.87061E-20
 -1      3236 9.53710E-05-2.80107E-05-2.88646E-05 1.32242E-06 6.70286E-20 9.30789E-20
 -1      3237 9.51370E-05-2.77792E-05-2.88679E-05 1.47511E-06-5.49185E-19 9.41826E-20
 -1      3238 9.52982E-05-2.81726E-05-2.87699E-05 8.29992E-07-4.10559E-19 5.16073E-21
 -1      3239 9.53353E-05-2.81276E-05-2.87999E-05 9.74499E-07-3.64722E-19 1.28859E-19
 -1      3240 9.51682E-05-2.79458E-05-2.88099E-05 1.09644E-06-2.94954E-19-1.77181E-19
 -1      3241 9.52814E-05-2.82667E-05-2.87220E-05 5.88925E-07 4.78543E-19-3.06174E-19
 -1      3242 9.53089E-05-2.82283E-05-2.87461E-05 7.00917E-07-5.87673E-20-4.85645E-19
 -1      3243 9.51936E-05-2.80886E-05-2.87596E-05 7.96836E-07-1.94871E-19 6.71241E-19
 -1      3244 9.52691E-05-2.83438E-05-2.86833E-05 4.04975E-07 2.54682E-18-4.52817E-19
 -1      3245 9.52892E-05-2.83120E-05-2.87023E-05 4.90033E-07 1.65035E-18-3.46522E-20
 -1      3246 9.52128E-05-2.82071E-05-2.87171E-05 5.64290E-07 6.56075E-19 1.47428E-19
 -1      3247 9.52599E-05-2.84052E-05-2.86528E-05 2.67398E-07 1.32929E-18 6.13157E-19
 -1      3248 9.52744E-05-2.83797E-05-2.86675E-05 3.30679E-07 2.14799E-18 2.14895E-19
 -1      3249 9.52266E-05-2.83026E-05-2.86820E-05 3.87203E-07 1.59146E-18-4.23918E-19
 -1      3250 9.52532E-05-2.84531E-05-2.86292E-05 1.66665E-07 1.87350E-20 2.23548E-18
 -1      3251 9.52633E-05-2.84330E-05-2.86403E-05 2.12720E-07 5.10695E-19 1.61533E-18
 -1      3252 9.52359E-05-2.83778E-05-2.86538E-05 2.54976E-07 2.76126E-19 1.89419E-18
 -1      3253 9.52482E-05-2.84895E-05-2.86112E-05 9.46201E-08-4.18481E-19 2.96858E-18
 -1      3254 9.52550E-05-2.84741E-05-2.86194E-05 1.27326E-07-5.22674E-20 2.79696E-18
 -1      3255 9.52417E-05-2.84357E-05-2.86314E-05 1.58296E-07-8.92536E-19 2.87218E-18
 -1      3256 9.52445E-05-2.85167E-05-2.85979E-05 4.44797E-08-8.21170E-19 2.46630E-18
 -1      3257 9.52490E-05-2.85051E-05-2.86038E-05 6.70425E-08-5.21477E-19 2.65909E-18
 -1      3258 9.52450E-05-2.84793E-05-2.86141E-05 8.92404E-08-4.26968E-19 4.03271E-18
 -1      3259 9.52419E-05-2.85366E-05-2.85881E-05 1.07417E-08 1.41607E-19-7.16459E-19
 -1      3260 9.52446E-05-2.85280E-05-2.85923E-05 2.57483E-08-1.99563E-19 2.00492E-19
 -1      3261 9.52464E-05-2.85114E-05-2.86009E-05 4.12475E-08 5.28829E-19 1.34239E-18
 -1      3262 9.52401E-05-2.85508E-05-2.85812E-05-1.09484E-08 1.11583E-18-1.04494E-18
 -1      3263 9.52416E-05-2.85446E-05-2.85841E-05-1.46410E-09 2.07783E-19-3.99401E-19
 -1      3264 9.52465E-05-2.85345E-05-2.85910E-05 9.01144E-09 7.34002E-19-2.00240E-18
 -1      3265 9.52389E-05-2.85608E-05-2.85764E-05-2.39477E-08 1.28833E-18-2.27271E-18
 -1      3266 9.52395E-05-2.85563E-05-2.85783E-05-1.84308E-08 1.56070E-18-1.59848E-18
 -1      3267 9.52459E-05-2.85508E-05-2.85838E-05-1.16569E-08 1.64713E-18-2.38476E-18
 -1      3268 9.52382E-05-2.85679E-05-2.85730E-05-3.07598E-08-1.09473E-18-1.52018E-18
 -1      3269 9.52382E-05-2.85646E-05-2.85743E-05-2.80625E-08 8.56863E-19-1.44519E-18
 -1      3270 9.52449E-05-2.85621E-05-2.85785E-05-2.39776E-08 3.64247E-19-1.03136E-18
 -1      3271 9.52380E-05-2.85729E-05-2.85708E-05-3.31896E-08-1.58219E-18-1.43573E-18
 -1      3272 9.52376E-05-2.85704E-05-2.85716E-05-3.24935E-08-2.25800E-18-2.13914E-18
 -1      3273 9.52438E-05-2.85699E-05-2.85746E-05-3.03345E-08-1.54771E-18 7.33123E-20
 -1      3274 9.52382E-05-2.85768E-05-2.85691E-05-3.24649E-08-1.34834E-18 3.64705E-19
 -1      3275 9.52375E-05-2.85748E-05-2.85697E-05-3.32336E-08-2.10572E-18-7.53224E-19
 -1      3276 9.52428E-05-2.85754E-05-2.85718E-05-3.24801E-08-1.95310E-18-1.55443E-18
 -1      3277 9.52397E-05-2.85800E-05-2.85685E-05-3.04236E-08-1.11170E-18 2.38060E-18
 -1      3278 9.52383E-05-2.85781E-05-2.85687E-05-3.18435E-08-9.34463E-19 1.19788E-18
 -1      3279 9.52426E-05-2.85791E-05-2.85701E-05-3.18804E-08-2.29085E-18-1.16355E-18
 -1      3280 9.52429E-05-2.85820E-05-2.85690E-05-3.01827E-08-2.90782E-18 3.21504E-19
 -1      3281 9.52406E-05-2.85810E-05-2.85684E-05 3.03054E-08 3.25524E-19-1.46070E-18
 -1      3282 8.27211E-05-1.19284E-05-3.03335E-05-2.58281E-06 7.21077E-19-1.17437E-18
 -1      3283 8.15279E-05-1.10818E-05-3.02237E-05-2.36322E-06 4.95067E-19-1.36726E-18
 -1      3284 9.52555E-05-2.85876E-05-2.85720E-05 1.91037E-08 2.12077E-18 3.57849E-19
 -1      3285 9.52572E-05-2.85885E-05-2.85723E-05 1.53146E-08 1.34668E-18-1.93076E-19
 -1      3286 9.52594E-05-2.85857E-05-2.85744E-05 1.34126E-08 1.18769E-18-1.92105E-19
 -1      3287 9.52595E-05-2.85894E-05-2.85729E-05 2.15141E-09 3.13405E-19-2.69294E-18
 -1      3288 9.52594E-05-2.85894E-05-2.85729E-05-2.27211E-09 4.44647E-19-2.76544E-18
 -1      3289 9.52610E-05-2.85861E-05-2.85749E-05 4.47663E-09 5.59279E-19-1.92009E-18
 -1      3290 4.30104E-05-1.52622E-05-1.12237E-05-1.29054E-05-9.02619E-21 4.58541E-18
 -1      3291 7.43345E-05-3.02504E-05-1.85474E-05-3.03275E-05-1.84105E-18-1.60386E-18
 -1      3292 8.83718E-05-3.91941E-05-2.10038E-05-3.13816E-05-1.78340E-18-9.21492E-19
 -1      3293 1.14417E-04-2.95605E-05-3.63410E-05 1.21421E-05 8.75819E-19 1.75020E-18
 -1      3294 1.16350E-04-3.44808E-05-3.53006E-05 1.23213E-05 7.15855E-19 1.78623E-18
 -1      3295 1.20482E-04-3.82648E-05-3.52637E-05 1.15092E-05 5.63859E-19 2.07886E-18
 -1      3296 1.04751E-04-3.48195E-05-2.99890E-05-6.32434E-06 1.78487E-19 6.91315E-19
 -1      3297 1.03318E-04-3.31024E-05-3.00343E-05-6.73083E-06 3.87819E-19 7.79283E-19
 -1      3298 1.13882E-04-5.25477E-05-2.58995E-05-2.05567E-05 1.92613E-18-8.83402E-19
 -1      3299 1.22900E-04-5.52393E-05-2.91207E-05-1.24639E-05 1.03407E-18-2.32409E-18
 -1      3300 9.80897E-05-2.48950E-05-3.13556E-05-2.00231E-06 1.22729E-18 3.18375E-19
 -1      3301 9.60383E-05-2.27101E-05-3.14241E-05-1.67969E-06 1.31984E-18 7.94532E-20
 -1      3302 9.57235E-05-2.33943E-05-3.09999E-05-3.27906E-06 1.13465E-18 2.61435E-20
 -1      3303 9.86448E-05-2.62492E-05-3.10418E-05-3.48490E-06 1.16231E-18 3.83097E-19
 -1      3304 1.18414E-04-1.86041E-05-4.33971E-05 1.02886E-05 2.27905E-18 2.19943E-18
 -1      3305 1.15723E-04-1.46746E-05-4.36850E-05 4.81363E-06 2.68838E-18 1.35801E-18
 -1      3306 1.04512E-04-4.97429E-05-2.35864E-05 2.78025E-05-2.42466E-18-1.59613E-20
 -1      3307 8.95627E-05-4.19075E-05-1.97930E-05 3.30882E-05-3.16727E-18 1.74648E-18
 -1      3308 1.32680E-04-3.15992E-05-4.35542E-05-1.48181E-05-2.38472E-18 7.41577E-19
 -1      3309 9.52508E-05-2.85852E-05-2.85710E-05 2.57642E-08 9.17566E-19 6.20893E-20
 -1      3310 9.52534E-05-2.85868E-05-2.85714E-05 2.28510E-08 1.71025E-18 2.26409E-19
 -1      3311 9.52558E-05-2.85845E-05-2.85734E-05 2.14685E-08 1.90482E-18 1.02363E-19
 -1      3312 8.97811E-05-4.08305E-05-2.05696E-05-3.02235E-05 2.50298E-18 1.04217E-18
 -1      3313 1.03560E-04-4.83795E-05-2.37280E-05-2.63457E-05 2.25748E-18-2.43654E-19
 -1      3314 1.06032E-04-4.64742E-05-2.54379E-05-2.10997E-05 2.25168E-18-8.44108E-19
 -1      3315 1.10584E-04-2.16557E-05-3.81930E-05-9.45963E-06 1.99834E-18-9.47188E-19
 -1      3316 1.16880E-04-1.66184E-05-4.32933E-05-9.50973E-06 3.40539E-18-1.02952E-18
 -1      3317 1.21448E-04-2.32704E-05-4.26214E-05-1.39123E-05 3.40153E-18-1.64870E-18
 -1      3318 1.12902E-04-2.60647E-05-3.75172E-05-1.27183E-05 2.22547E-18-1.19437E-18
 -1      3319 1.29679E-04-5.71947E-05-3.11357E-05 9.83928E-06-5.37945E-19-2.17195E-18
 -1      3320 1.20427E-04-5.57021E-05-2.77119E-05 1.71815E-05-1.41243E-18-1.53900E-18
 -1      3321 6.28234E-05-2.41071E-05-1.64167E-05 2.69073E-05 1.78594E-18-2.35772E-18
 -1      3322 4.96344E-05-1.62376E-05-1.37011E-05 1.87142E-05 1.14752E-18-3.39448E-18
 -1      3323 1.23687E-04-5.78294E-05-2.85145E-05 1.75248E-05 1.11499E-18 1.20195E-18
 -1      3324 1.13454E-04-5.36795E-05-2.52265E-05 2.45319E-05 1.46404E-18 9.22717E-19
 -1      3325 1.34238E-04-4.07581E-05-4.06608E-05-1.30486E-05-1.71138E-18 1.57437E-18
 -1      3326 6.45862E-05-2.43619E-05-1.67381E-05-2.57170E-05 1.30337E-18 1.65415E-18
 -1      3327 7.73757E-05-3.37399E-05-1.86928E-05-3.07985E-05 2.14178E-18 1.74129E-18
 -1      3328 8.66581E-05-3.53637E-05-2.17439E-05-2.57614E-05 2.51084E-18 3.65984E-19
 -1      3329 9.14594E-05-1.71590E-05-3.18451E-05 4.73607E-07-6.52673E-19-1.52248E-18
 -1      3330 1.32839E-04-5.38341E-05-3.42098E-05-1.27995E-06 3.47379E-19 1.14365E-18
 -1      3331 1.03247E-04-4.80700E-05-2.34404E-05-2.86501E-05-1.63398E-18 2.69462E-20
 -1      3332 1.15826E-04-5.41537E-05-2.65028E-05-2.24989E-05-1.68202E-18 6.71783E-19
 -1      3333 1.25636E-04-5.62133E-05-2.97102E-05-1.33048E-05-1.24596E-18 1.32476E-18
 -1      3334 1.32266E-04-5.57809E-05-3.30013E-05-5.85093E-06-9.26760E-19 2.08979E-18
 -1      3335 4.22701E-05-1.25117E-05-1.25224E-05 9.55329E-06 3.18908E-19-3.74367E-18
 -1      3336 4.06109E-05-1.14568E-05-1.20285E-05-4.30857E-06-1.93798E-19-3.43832E-18
 -1      3337 5.33083E-05-1.47165E-05-1.60758E-05 1.19317E-05 7.17688E-19-2.82433E-18
 -1      3338 1.29606E-04-5.59240E-05-3.14230E-05 6.29597E-06 8.61922E-19 1.22425E-18
 -1      3339 4.40438E-05-1.23243E-05-1.31177E-05-4.44717E-06-2.37967E-19 5.22143E-18
 -1      3340 5.07972E-05-1.69255E-05-1.44992E-05-1.78543E-05 5.22672E-19 3.32492E-18
 -1      3341 1.24722E-04-5.36528E-05-3.03907E-05 7.90476E-06 9.33404E-19 7.02799E-19
 -1      3342 8.06514E-05-1.03295E-05-3.01424E-05-1.64529E-06 4.10155E-19-1.35666E-18
 -1      3343 8.02685E-05-1.00511E-05-3.01193E-05-1.19179E-06 2.49419E-19-1.48203E-18
 -1      3344 8.11944E-05-1.17791E-05-2.97190E-05-2.52798E-06 4.13511E-19-1.21141E-18
 -1      3345 9.19382E-05-2.01272E-05-3.07693E-05-3.53764E-06 1.16948E-18-4.73521E-19
 -1      3346 9.01459E-05-1.76920E-05-3.10510E-05-2.39008E-06 1.26369E-18-6.37069E-19
 -1      3347 8.80629E-05-1.61125E-05-3.08620E-05-2.75083E-06 1.11408E-18-6.80885E-19
 -1      3348 1.12581E-04-4.94246E-05-2.72958E-05 1.85554E-05 1.18990E-18 6.98987E-19
 -1      3349 1.19506E-04-5.10417E-05-2.91118E-05 1.17362E-05 1.11857E-18 6.44446E-19
 -1      3350 1.33271E-04-4.25154E-05-3.92088E-05-9.86023E-06 2.05945E-18-2.93746E-18
 -1      3351 1.31341E-04-4.70037E-05-3.62523E-05-6.60783E-06 1.12809E-18-2.85903E-18
 -1      3352 1.28285E-04-3.77156E-05-3.90195E-05-1.30650E-05 1.60333E-18-2.34152E-18
 -1      3353 1.21626E-04-2.76663E-05-4.04999E-05-1.40080E-05 2.76959E-18-1.70727E-18
 -1      3354 1.05806E-04-4.81207E-05-2.44341E-05 2.54120E-05 1.54838E-18 3.62320E-19
 -1      3355 8.51571E-05-1.35722E-05-3.07060E-05 2.13795E-06-1.83094E-19-1.66961E-18
 -1      3356 8.72580E-05-1.51338E-05-3.09159E-05 2.27826E-06-3.00096E-19-1.74042E-18
 -1      3357 9.52444E-05-2.85820E-05-2.85697E-05 3.01750E-08 2.99579E-19 1.05759E-18
 -1      3358 9.52533E-05-2.85866E-05-2.85714E-05-2.28581E-08-1.15079E-18-1.44372E-18
 -1      3359 9.52507E-05-2.85851E-05-2.85710E-05-2.57186E-08-2.17262E-18 3.29803E-19
 -1      3360 9.38665E-05-2.13897E-05-3.10604E-05 4.37575E-06-7.45775E-19-9.57508E-19
 -1      3361 9.43508E-05-2.25688E-05-3.07583E-05 5.98604E-06-5.97994E-19-9.33562E-19
 -1      3362 9.20120E-05-2.14242E-05-3.02618E-05 6.83657E-06-5.34015E-19-9.77758E-19
 -1      3363 9.52610E-05-2.85861E-05-2.85749E-05-4.70697E-09-2.18995E-19-2.69448E-18
 -1      3364 9.52591E-05-2.85893E-05-2.85727E-05-6.87999E-09-2.24553E-19-3.33091E-18
 -1      3365 9.52582E-05-2.85888E-05-2.85726E-05-1.11395E-08-4.69970E-19-2.53564E-18
 -1      3366 9.20343E-05-1.86322E-05-3.14605E-05 2.26537E-06-6.68714E-19-1.32716E-18
 -1      3367 6.40823E-05-2.15317E-05-1.80415E-05-2.35662E-05-1.41600E-18-2.24405E-18
 -1      3368 6.94004E-05-2.62572E-05-1.82081E-05-2.83375E-05-1.59422E-18-1.92636E-18
 -1      3369 7.84179E-05-2.93921E-05-2.09054E-05-2.62392E-05-1.72801E-18-1.30790E-18
 -1      3370 1.17060E-04-2.72121E-05-3.86063E-05 1.24096E-05 1.13034E-18 2.32188E-18
 -1      3371 1.15314E-04-4.39704E-05-3.06268E-05-1.25467E-06-2.47893E-19 1.49551E-18
 -1      3372 1.12881E-04-4.16469E-05-3.05780E-05-8.27113E-07-4.07780E-19 1.56735E-18
 -1      3373 1.11302E-04-4.04538E-05-3.02794E-05-2.85180E-06-4.42558E-19 1.41915E-18
 -1      3374 1.17936E-04-2.88492E-05-3.82158E-05-1.42592E-05 2.38922E-18-2.35023E-18
 -1      3375 1.19120E-04-5.28407E-05-2.84007E-05 1.29811E-05-1.41237E-18-1.90559E-18
 -1      3376 1.14050E-04-5.29834E-05-2.59401E-05 2.13905E-05-1.95339E-18-1.04419E-18
 -1      3377 1.05022E-04-4.75280E-05-2.46893E-05 2.33552E-05-2.17899E-18-1.14283E-19
 -1      3378 9.52571E-05-2.85884E-05-2.85723E-05-1.54280E-08-3.00784E-19-2.49587E-19
 -1      3379 9.52554E-05-2.85874E-05-2.85720E-05-1.91940E-08-5.58210E-19-1.09819E-18
 -1      3380 9.52557E-05-2.85843E-05-2.85734E-05-2.15506E-08-1.01573E-18-5.63796E-19
 -1      3381 9.52593E-05-2.85855E-05-2.85744E-05-1.35729E-08-4.36035E-19-1.71899E-18
 -1      3382 8.43079E-05-1.32301E-05-3.04932E-05-2.89676E-06 6.95353E-19-9.12085E-19
 -1      3383 8.38466E-05-1.38641E-05-2.99748E-05-3.66608E-06 6.10380E-19-9.93972E-19
 -1      3384 8.60444E-05-1.44808E-05-3.06597E-05-2.79694E-06 9.36995E-19-7.27357E-19
 -1      3385 1.29914E-04-5.38351E-05-3.27243E-05 2.80748E-06-1.90983E-19-2.37429E-18
 -1      3386 5.48430E-05-1.88640E-05-1.49381E-05 2.14593E-05-1.96919E-18 2.85630E-18
 -1      3387 5.60124E-05-1.66647E-05-1.65805E-05 1.59554E-05-1.15858E-18 3.08114E-18
 -1      3388 6.32596E-05-2.33695E-05-1.71383E-05 2.50546E-05-2.37086E-18 3.08384E-18
 -1      3389 9.52473E-05-2.85834E-05-2.85702E-05 2.88395E-08 2.55222E-19 6.11167E-19
 -1      3390 6.31607E-05-2.05400E-05-1.79504E-05-1.88528E-05 1.06787E-18 2.15644E-18
 -1      3391 5.03668E-05-1.31782E-05-1.54963E-05 3.09742E-07-6.98875E-19 4.34983E-18
 -1      3392 1.06873E-04-3.67745E-05-2.99763E-05-5.77437E-06-6.50296E-20 9.29811E-19
 -1      3393 1.04868E-04-3.60115E-05-2.95856E-05-7.64519E-06-7.80825E-20 6.11283E-19
 -1      3394 1.08600E-04-3.85522E-05-3.00620E-05-4.56740E-06-2.79623E-19 1.16447E-18
 -1      3395 1.31354E-04-5.11098E-05-3.44601E-05 1.57636E-06-5.95874E-19 2.31949E-18
 -1      3396 8.21411E-05-3.61706E-05-1.94615E-05 3.05609E-05-3.01216E-18 2.63943E-18
 -1      3397 1.01780E-04-3.13823E-05-3.01828E-05-6.52632E-06 5.80254E-19 5.42769E-19
 -1      3398 1.00709E-04-2.98641E-05-3.03214E-05-6.21439E-06 7.25436E-19 4.56209E-19
 -1      3399 1.01267E-04-3.18939E-05-2.97838E-05-7.73383E-06 4.33302E-19 4.46236E-19
 -1      3400 9.52496E-05-2.85818E-05-2.85719E-05 2.83475E-08 4.77249E-19 6.40563E-19
 -1      3401 7.25317E-05-2.85403E-05-1.83886E-05 2.89921E-05 1.87933E-18-1.68766E-18
 -1      3402 6.69287E-05-2.24125E-05-1.89434E-05 2.28940E-05 1.33433E-18-1.93023E-18
 -1      3403 8.23240E-05-3.31452E-05-2.08881E-05 2.76553E-05 1.82382E-18-8.05422E-19
 -1      3404 4.97874E-05-1.37199E-05-1.49859E-05-9.92899E-06-5.33459E-19-3.13741E-18
 -1      3405 8.18980E-05-1.11570E-05-3.03412E-05 1.13454E-06 2.90981E-21-1.84189E-18
 -1      3406 8.33137E-05-1.21698E-05-3.04983E-05 1.51370E-06-1.31418E-19-1.84960E-18
 -1      3407 8.43726E-05-1.39516E-05-3.01551E-05 2.86309E-06-2.12213E-19-1.67415E-18
 -1      3408 1.21194E-04-5.47690E-05-2.83741E-05-1.56299E-05-1.45519E-18 9.97937E-19
 -1      3409 1.23631E-04-5.30809E-05-3.02835E-05-8.16648E-06-9.25397E-19 1.17746E-18
 -1      3410 1.15265E-04-5.13055E-05-2.74402E-05-1.74442E-05-1.26727E-18 4.71910E-19
 -1      3411 9.71570E-05-4.30295E-05-2.30059E-05-2.83562E-05-1.58710E-18-4.30107E-19
 -1      3412 1.03965E-04-4.50615E-05-2.52007E-05-2.31365E-05-1.26647E-18 1.59083E-20
 -1      3413 9.12196E-05-3.70988E-05-2.30907E-05-2.62591E-05-1.44082E-18-8.18366E-19
 -1      3414 1.25943E-04-3.91626E-05-3.73039E-05 1.07266E-05 3.00988E-19 2.69465E-18
 -1      3415 1.26860E-04-3.38799E-05-4.01498E-05 1.29565E-05 9.50159E-19 3.06049E-18
 -1      3416 9.99478E-05-2.86831E-05-3.05517E-05-5.46439E-06 8.63143E-19 3.40520E-19
 -1      3417 9.91866E-05-2.73315E-05-3.07673E-05-4.55743E-06 9.99984E-19 3.39825E-19
 -1      3418 9.77582E-05-2.60545E-05-3.07390E-05-4.53803E-06 9.81938E-19 2.44807E-19
 -1      3419 9.90250E-05-2.86179E-05-3.02060E-05-6.52132E-06 7.21032E-19 2.04081E-19
 -1      3420 1.18632E-04-2.23214E-05-4.14841E-05 1.20095E-05 1.70937E-18 2.78618E-18
 -1      3421 1.00074E-04-4.26461E-05-2.44193E-05 2.46229E-05 1.45299E-18 1.96194E-19
 -1      3422 1.23428E-04-3.32296E-05-3.89750E-05-1.42771E-05 1.90275E-18-1.92599E-18
 -1      3423 8.99526E-05-2.41903E-05-2.81878E-05 1.23023E-05 3.82987E-20-8.93025E-19
 -1      3424 9.09750E-05-2.61681E-05-2.77149E-05 1.38950E-05 1.90355E-19-7.06949E-19
 -1      3425 9.13616E-05-2.82614E-05-2.70239E-05 1.60639E-05 3.90308E-19-3.53926E-19
 -1      3426 9.34802E-05-3.12618E-05-2.65711E-05 1.75875E-05 7.42011E-19-1.36078E-19
 -1      3427 8.68112E-05-2.48645E-05-2.65781E-05 1.53277E-05 5.42158E-19-6.98311E-19
 -1      3428 1.00635E-04-4.10564E-05-2.53041E-05-2.08056E-05 2.28715E-18-2.27025E-19
 -1      3429 6.02991E-05-1.62018E-05-1.84586E-05-1.28768E-05 3.31421E-19 2.07377E-18
 -1      3430 7.02690E-05-2.33625E-05-2.03076E-05-2.07115E-05 1.38937E-18 2.63374E-19
 -1      3431 9.64140E-05-3.62537E-05-2.57094E-05-1.88293E-05 1.59819E-18-4.22061E-20
 -1      3432 9.32223E-05-3.24896E-05-2.59641E-05-1.78106E-05 1.00361E-18-1.92849E-19
 -1      3433 9.22588E-05-3.01371E-05-2.65338E-05-1.57258E-05 6.05030E-19-3.59956E-19
 -1      3434 9.06139E-05-2.79804E-05-2.68451E-05-1.46583E-05 7.61324E-19-2.78125E-19
 -1      3435 8.76507E-05-2.88986E-05-2.51201E-05-1.80261E-05 7.34007E-19 9.87025E-20
 -1      3436 9.05172E-05-2.66335E-05-2.73261E-05-1.30431E-05 1.19452E-18-6.35254E-19
 -1      3437 8.98261E-05-2.54585E-05-2.76022E-05-1.20214E-05 1.14360E-18-1.36179E-19
 -1      3438 8.67583E-05-2.53921E-05-2.63023E-05-1.40935E-05 8.28094E-19-6.91386E-19
 -1      3439 9.02085E-05-2.48911E-05-2.79634E-05-1.07967E-05 3.43054E-19-4.20829E-19
 -1      3440 9.00458E-05-2.43671E-05-2.81667E-05-9.90574E-06-1.48867E-19-7.15456E-19
 -1      3441 8.72059E-05-2.36961E-05-2.72147E-05-1.11528E-05 8.32923E-19-9.87739E-19
 -1      3442 9.05916E-05-2.42403E-05-2.84194E-05-8.96009E-06-1.88135E-19-8.40821E-19
 -1      3443 9.06848E-05-2.41052E-05-2.85517E-05-8.18566E-06-3.56183E-19-1.12969E-18
 -1      3444 8.81977E-05-2.31366E-05-2.78726E-05-9.01945E-06-1.76050E-19-1.37989E-18
 -1      3445 9.12593E-05-2.42282E-05-2.87174E-05-7.42470E-06-3.34658E-19-6.42473E-19
 -1      3446 9.14552E-05-2.43103E-05-2.87917E-05-6.74708E-06-4.99752E-19-3.58474E-19
 -1      3447 8.93400E-05-2.32227E-05-2.83228E-05-7.37079E-06 6.80497E-20-1.24357E-18
 -1      3448 9.19898E-05-2.45591E-05-2.88922E-05-6.11621E-06-9.28148E-19-9.63622E-20
 -1      3449 9.22080E-05-2.47492E-05-2.89241E-05-5.52233E-06-5.41945E-19 2.72567E-19
 -1      3450 9.04532E-05-2.36608E-05-2.86126E-05-6.03997E-06 1.29296E-20-5.60955E-19
 -1      3451 9.26744E-05-2.50477E-05-2.89779E-05-4.98973E-06 1.05757E-19 3.54798E-19
 -1      3452 9.28769E-05-2.52804E-05-2.89812E-05-4.47277E-06 3.36990E-19 2.55048E-19
 -1      3453 9.14503E-05-2.42601E-05-2.87848E-05-4.92966E-06-3.72436E-19 8.69498E-19
 -1      3454 9.32675E-05-2.55838E-05-2.90032E-05-4.02129E-06-1.08963E-19-1.97520E-20
 -1      3455 9.34394E-05-2.58212E-05-2.89886E-05-3.57699E-06-1.62464E-20-5.05078E-19
 -1      3456 9.23009E-05-2.49066E-05-2.88742E-05-3.98835E-06-1.83474E-19 1.27629E-19
 -1      3457 9.37569E-05-2.61049E-05-2.89901E-05-3.19635E-06 1.87236E-19-8.32396E-19
 -1      3458 9.38953E-05-2.63267E-05-2.89658E-05-2.82043E-06 2.66698E-19-7.69924E-19
 -1      3459 9.30024E-05-2.55339E-05-2.89079E-05-3.18900E-06-4.10062E-19 4.29236E-19
 -1      3460 9.41475E-05-2.65786E-05-2.89548E-05-2.50296E-06-2.21989E-19-1.40643E-18
 -1      3461 9.42550E-05-2.67752E-05-2.89262E-05-2.19019E-06-4.56473E-19-1.51561E-18
 -1      3462 9.35662E-05-2.61060E-05-2.89060E-05-2.51502E-06 3.75965E-20-6.69700E-19
 -1      3463 9.44516E-05-2.69911E-05-2.89087E-05-1.92904E-06-2.54075E-19-8.72480E-19
 -1      3464 9.45329E-05-2.71594E-05-2.88794E-05-1.67322E-06-3.15261E-19-1.02343E-18
 -1      3465 9.40102E-05-2.66069E-05-2.88830E-05-1.95359E-06 4.18158E-20-6.60365E-19
 -1      3466 9.46835E-05-2.73396E-05-2.88590E-05-1.46167E-06-8.81591E-20-1.48197E-18
 -1      3467 9.47436E-05-2.74799E-05-2.88313E-05-1.25593E-06-4.58637E-21-7.57117E-19
 -1      3468 9.43538E-05-2.70326E-05-2.88489E-05-1.49273E-06-1.36600E-19-2.59134E-19
 -1      3469 9.48571E-05-2.76271E-05-2.88106E-05-1.08728E-06-6.82735E-19-1.68731E-19
 -1      3470 9.49007E-05-2.77415E-05-2.87856E-05-9.24573E-07-1.53529E-19-5.80287E-19
 -1      3471 9.46153E-05-2.73857E-05-2.88105E-05-1.12042E-06 2.75765E-19 4.71367E-20
 -1      3472 9.49848E-05-2.78596E-05-2.87661E-05-7.92308E-07 8.44327E-20-9.46278E-19
 -1      3473 9.50158E-05-2.79512E-05-2.87444E-05-6.65770E-07-1.05042E-18-8.42104E-19
 -1      3474 9.48110E-05-2.76729E-05-2.87719E-05-8.24530E-07-3.95994E-19-1.27857E-19
 -1      3475 9.50770E-05-2.80442E-05-2.87268E-05-5.63777E-07-1.10504E-18-1.60422E-19
 -1      3476 9.50985E-05-2.81164E-05-2.87085E-05-4.67026E-07-1.76340E-19-2.63214E-19
 -1      3477 9.49551E-05-2.79023E-05-2.87359E-05-5.93298E-07-5.06295E-20 4.44141E-19
 -1      3478 9.51421E-05-2.81884E-05-2.86932E-05-3.89742E-07-4.80447E-20 8.46410E-19
 -1      3479 9.51566E-05-2.82443E-05-2.86781E-05-3.17063E-07 7.72195E-19 1.28181E-18
 -1      3480 9.50591E-05-2.80824E-05-2.87036E-05-4.15669E-07 4.46281E-19 1.76610E-18
 -1      3481 9.51869E-05-2.82993E-05-2.86651E-05-2.59577E-07-2.83396E-19 8.43176E-19
 -1      3482 9.51963E-05-2.83418E-05-2.86529E-05-2.06005E-07-5.25447E-19 2.40724E-19
 -1      3483 9.51325E-05-2.82215E-05-2.86757E-05-2.81632E-07 3.04253E-19 1.18652E-18
 -1      3484 9.52167E-05-2.83830E-05-2.86422E-05-1.64101E-07-3.25613E-19 3.33537E-19
 -1      3485 9.52225E-05-2.84148E-05-2.86326E-05-1.25431E-07-4.92255E-19 2.89561E-20
 -1      3486 9.51830E-05-2.83272E-05-2.86522E-05-1.82392E-07-8.99132E-20 5.05938E-20
 -1      3487 9.52356E-05-2.84451E-05-2.86239E-05-9.55736E-08-1.26385E-18 6.66828E-20
 -1      3488 9.52388E-05-2.84685E-05-2.86164E-05-6.83264E-08-1.58954E-18-7.87761E-19
 -1      3489 9.52164E-05-2.84060E-05-2.86328E-05-1.10431E-07-8.04115E-19-2.99828E-19
 -1      3490 9.52467E-05-2.84902E-05-2.86095E-05-4.76185E-08-1.36405E-18-4.95702E-19
 -1      3491 9.52482E-05-2.85071E-05-2.86037E-05-2.89761E-08-7.28601E-19-1.23193E-18
 -1      3492 9.52373E-05-2.84637E-05-2.86172E-05-5.94776E-08-1.56033E-18-6.84125E-19
 -1      3493 9.52524E-05-2.85224E-05-2.85983E-05-1.50922E-08-3.44469E-19-1.18207E-18
 -1      3494 9.52527E-05-2.85342E-05-2.85939E-05-2.82000E-09 4.14314E-19-1.14328E-18
 -1      3495 9.52495E-05-2.85051E-05-2.86047E-05-2.44176E-08-7.65293E-19 5.57928E-19
 -1      3496 9.52545E-05-2.85447E-05-2.85897E-05 6.06643E-09 1.92626E-18-1.00595E-18
 -1      3497 9.52541E-05-2.85529E-05-2.85863E-05 1.37010E-08 2.61298E-18-1.14148E-18
 -1      3498 9.52555E-05-2.85340E-05-2.85949E-05-1.16735E-09 1.38271E-18 8.03717E-19
 -1      3499 9.52542E-05-2.85600E-05-2.85831E-05 1.89884E-08 2.00907E-18-1.69717E-18
 -1      3500 9.52535E-05-2.85656E-05-2.85806E-05 2.32913E-08 1.13761E-18-9.18122E-19
 -1      3501 9.52574E-05-2.85538E-05-2.85873E-05 1.34582E-08 2.06619E-18 1.51997E-19
 -1      3502 9.52527E-05-2.85702E-05-2.85781E-05 2.60295E-08 5.00042E-19-1.01934E-18
 -1      3503 9.52518E-05-2.85740E-05-2.85762E-05 2.79048E-08 5.83324E-19-9.65394E-19
 -1      3504 9.52567E-05-2.85671E-05-2.85813E-05 2.18714E-08 6.36475E-19-9.87826E-19
 -1      3505 9.52512E-05-2.85767E-05-2.85747E-05 2.83961E-08 2.53242E-19-6.94240E-19
 -1      3506 9.52504E-05-2.85796E-05-2.85732E-05 2.86412E-08 1.52695E-19 1.78304E-19
 -1      3507 9.52542E-05-2.85813E-05-2.85741E-05 2.55692E-08 9.35916E-19-2.55197E-19
 -1      3508 9.52555E-05-2.85756E-05-2.85772E-05 2.53221E-08 1.16690E-18 1.72823E-19
 -1      3509 1.06840E-04-3.99062E-05-2.85835E-05 8.86124E-06-1.27692E-18-2.07738E-19
 -1      3510 1.09606E-04-4.23813E-05-2.88268E-05 7.53071E-06-1.12273E-18-5.00702E-19
 -1      3511 1.01657E-04-3.51705E-05-2.84335E-05 9.79398E-06-9.49627E-19 4.79689E-19
 -1      3512 1.03886E-04-3.73806E-05-2.84952E-05 9.27817E-06-8.89285E-19 4.42221E-19
 -1      3513 1.03298E-04-3.85695E-05-2.78398E-05 1.15912E-05-1.30734E-18-2.10104E-19
 -1      3514 9.81979E-05-3.15508E-05-2.85306E-05 9.55026E-06-7.37198E-19 1.48580E-18
 -1      3515 9.97531E-05-3.32157E-05-2.85018E-05 9.55260E-06-9.61104E-19 4.38295E-19
 -1      3516 9.85755E-05-3.36891E-05-2.78814E-05 1.13133E-05-9.91390E-19 1.04733E-19
 -1      3517 9.61018E-05-2.91053E-05-2.86980E-05 8.73819E-06 5.34900E-20 1.36639E-18
 -1      3518 9.71020E-05-3.02226E-05-2.86464E-05 9.02228E-06 9.26817E-20 1.42006E-18
 -1      3519 9.56855E-05-3.01882E-05-2.81160E-05 1.02494E-05-3.90860E-19 2.44424E-19
 -1      3520 9.49542E-05-2.76230E-05-2.88516E-05 7.70156E-06-3.49933E-19 1.36277E-18
 -1      3521 9.55533E-05-2.82995E-05-2.88085E-05 8.12224E-06-2.62517E-19 1.55824E-18
 -1      3522 9.41211E-05-2.79559E-05-2.83807E-05 8.94223E-06-8.03666E-20 3.82451E-19
 -1      3523 9.44112E-05-2.68394E-05-2.89604E-05 6.61270E-06-3.43111E-19 6.88606E-19
 -1      3524 9.47448E-05-2.71980E-05-2.89367E-05 7.08644E-06-3.69601E-19 1.42231E-18
 -1      3525 9.34132E-05-2.66930E-05-2.86058E-05 7.63149E-06-5.20273E-19 3.21288E-19
 -1      3526 9.42284E-05-2.65250E-05-2.90198E-05 5.55929E-06-7.60455E-19 4.78763E-19
 -1      3527 9.43977E-05-2.66715E-05-2.90161E-05 6.03704E-06-5.12612E-19 8.32547E-19
 -1      3528 9.32196E-05-2.61007E-05-2.87695E-05 6.40624E-06-2.77217E-19 1.70676E-19
 -1      3529 9.42441E-05-2.65041E-05-2.90368E-05 4.58640E-06-2.15709E-19 3.59712E-19
 -1      3530 9.43175E-05-2.65185E-05-2.90491E-05 5.03910E-06-2.73367E-19 7.00403E-19
 -1      3531 9.33109E-05-2.59437E-05-2.88722E-05 5.29981E-06-9.18683E-20 1.73927E-19
 -1      3532 9.43570E-05-2.66516E-05-2.90223E-05 3.71696E-06 8.83887E-19-2.79465E-20
 -1      3533 9.43781E-05-2.65903E-05-2.90455E-05 4.12788E-06 7.07771E-20 3.08459E-19
 -1      3534 9.35415E-05-2.60494E-05-2.89239E-05 4.32169E-06-3.81820E-20 1.23412E-19
 -1      3535 9.45067E-05-2.68828E-05-2.89871E-05 2.96050E-06 9.31958E-20 7.76507E-19
 -1      3536 9.45017E-05-2.67839E-05-2.90165E-05 3.32134E-06 5.53134E-19 4.22560E-19
 -1      3537 9.38231E-05-2.62983E-05-2.89372E-05 3.47264E-06 3.84595E-19 3.88826E-19
 -1      3538 9.46594E-05-2.71432E-05-2.89404E-05 2.31747E-06 1.29251E-18 6.79480E-19
 -1      3539 9.46434E-05-2.70310E-05-2.89721E-05 2.62575E-06 6.29841E-19 4.38720E-19
 -1      3540 9.41051E-05-2.66105E-05-2.89242E-05 2.74829E-06 2.38623E-19 7.01358E-19
 -1      3541 9.47981E-05-2.74002E-05-2.88890E-05 1.78226E-06 3.08727E-19 2.56248E-19
 -1      3542 9.47793E-05-2.72892E-05-2.89204E-05 2.03942E-06 1.16554E-18 8.37482E-19
 -1      3543 9.43613E-05-2.69355E-05-2.88949E-05 2.14084E-06 8.79328E-19 4.63758E-19
 -1      3544 9.49156E-05-2.76356E-05-2.88378E-05 1.34548E-06-9.91587E-19 1.52183E-20
 -1      3545 9.48980E-05-2.75338E-05-2.88670E-05 1.55543E-06-3.92007E-19-3.48113E-20
 -1      3546 9.45803E-05-2.72437E-05-2.88570E-05 1.64004E-06-1.45381E-19 7.59670E-19
 -1      3547 9.50106E-05-2.78409E-05-2.87898E-05 9.95624E-07-4.21019E-19 3.95319E-19
 -1      3548 9.49958E-05-2.77520E-05-2.88160E-05 1.16364E-06-1.15445E-18 2.73686E-19
 -1      3549 9.47597E-05-2.75193E-05-2.88161E-05 1.23414E-06-1.09954E-18 1.70368E-19
 -1      3550 9.50843E-05-2.80135E-05-2.87469E-05 7.20449E-07-2.32757E-19 8.02426E-19
 -1      3551 9.50728E-05-2.79387E-05-2.87694E-05 8.52368E-07 2.31852E-19 9.68895E-19
 -1      3552 9.49016E-05-2.77560E-05-2.87758E-05 9.10678E-07-4.40545E-19 1.87953E-19
 -1      3553 9.51397E-05-2.81545E-05-2.87097E-05 5.07884E-07 7.79168E-19 9.05997E-19
 -1      3554 9.51313E-05-2.80934E-05-2.87286E-05 6.09536E-07 9.03751E-20 5.64820E-19
 -1      3555 9.50104E-05-2.79528E-05-2.87383E-05 6.57245E-07 1.01588E-19 1.17775E-18
 -1      3556 9.51799E-05-2.82669E-05-2.86783E-05 3.46675E-07 5.78866E-19 1.46743E-18
 -1      3557 9.51741E-05-2.82182E-05-2.86939E-05 4.23531E-07 1.00171E-18 8.24764E-19
 -1      3558 9.50916E-05-2.81122E-05-2.87050E-05 4.62073E-07 2.83684E-19 2.02458E-18
 -1      3559 9.52081E-05-2.83545E-05-2.86525E-05 2.26746E-07-9.59772E-19 2.84070E-18
 -1      3560 9.52044E-05-2.83165E-05-2.86651E-05 2.83711E-07-1.88312E-19 2.17185E-18
 -1      3561 9.51503E-05-2.82383E-05-2.86763E-05 3.14425E-07-6.56419E-19 3.17084E-18
 -1      3562 9.52270E-05-2.84212E-05-2.86318E-05 1.39368E-07-1.38967E-18 2.36773E-18
 -1      3563 9.52249E-05-2.83923E-05-2.86416E-05 1.80688E-07-1.05219E-18 2.50622E-18
 -1      3564 9.51915E-05-2.83358E-05-2.86523E-05 2.04822E-07-1.16414E-18 3.84723E-18
 -1      3565 9.52390E-05-2.84710E-05-2.86153E-05 7.71832E-08 2.72980E-19 1.58807E-18
 -1      3566 9.52379E-05-2.84494E-05-2.86230E-05 1.06430E-07-3.25767E-19 2.02973E-18
 -1      3567 9.52192E-05-2.84098E-05-2.86325E-05 1.25126E-07-4.53435E-19 5.46939E-19
 -1      3568 9.52459E-05-2.85074E-05-2.86026E-05 3.41427E-08 1.36569E-18 1.80305E-19
 -1      3569 9.52457E-05-2.84916E-05-2.86084E-05 5.42459E-08 8.18827E-19 1.68903E-18
 -1      3570 9.52369E-05-2.84646E-05-2.86167E-05 6.85213E-08 8.24522E-19 2.86019E-20
 -1      3571 9.52493E-05-2.85333E-05-2.85928E-05 5.38362E-09 9.91683E-19 5.08413E-19
 -1      3572 9.52495E-05-2.85220E-05-2.85972E-05 1.86885E-08 1.42554E-18 6.14268E-19
 -1      3573 9.52472E-05-2.85043E-05-2.86041E-05 2.94311E-08 1.37995E-18 1.18359E-18
 -1      3574 9.52503E-05-2.85513E-05-2.85854E-05-1.29186E-08 9.84861E-19 1.14545E-19
 -1      3575 9.52508E-05-2.85434E-05-2.85886E-05-4.57650E-09 1.35647E-18-3.64891E-19
 -1      3576 9.52524E-05-2.85324E-05-2.85943E-05 3.38791E-09 1.82646E-18 2.13691E-18
 -1      3577 9.52499E-05-2.85636E-05-2.85799E-05-2.36853E-08-1.52844E-18 1.94153E-18
 -1      3578 9.52505E-05-2.85582E-05-2.85822E-05-1.89196E-08-2.39132E-19 9.04509E-19
 -1      3579 9.52542E-05-2.85519E-05-2.85868E-05-1.31208E-08-8.57201E-19 2.38481E-18
 -1      3580 9.52486E-05-2.85720E-05-2.85757E-05-2.90494E-08-1.64206E-18 8.37079E-19
 -1      3581 9.52492E-05-2.85682E-05-2.85775E-05-2.68762E-08-1.38799E-18 1.34680E-18
 -1      3582 9.52538E-05-2.85651E-05-2.85809E-05-2.27750E-08-1.22940E-18 2.93534E-18
 -1      3583 9.52470E-05-2.85778E-05-2.85725E-05-3.06681E-08-1.04564E-18-3.41527E-19
 -1      3584 9.52475E-05-2.85750E-05-2.85738E-05-3.02384E-08-1.34083E-18 3.88216E-19
 -1      3585 9.52522E-05-2.85739E-05-2.85764E-05-2.73796E-08-1.06490E-18 3.25250E-18
 -1      3586 1.23780E-04-3.79385E-05-3.68911E-05-1.26516E-05 1.22478E-18-2.18797E-18
 -1      3587 9.52604E-05-2.85822E-05-2.85764E-05 1.52458E-08 1.07735E-18 3.93650E-19
 -1      3588 9.52618E-05-2.85826E-05-2.85768E-05 1.10464E-08 6.01322E-19-1.27898E-19
 -1      3589 9.52484E-05-2.85845E-05-2.85702E-05-2.76035E-08-3.74963E-18 1.88670E-19
 -1      3590 9.52456E-05-2.85830E-05-2.85697E-05-2.90272E-08-3.33975E-18-1.72658E-21
 -1      3591 9.52456E-05-2.85816E-05-2.85703E-05-3.00505E-08-3.82383E-18-1.17792E-18
 -1      3592 9.52508E-05-2.85830E-05-2.85719E-05-2.70807E-08-2.40770E-18 2.07802E-18
 -1      3593 9.52626E-05-2.85825E-05-2.85772E-05 6.57092E-09 3.63801E-19-1.42582E-18
 -1      3594 9.52630E-05-2.85826E-05-2.85773E-05 2.12945E-09 2.51346E-19-2.26189E-18
 -1      3595 9.52637E-05-2.85786E-05-2.85793E-05 8.60398E-09-1.74296E-19-5.50785E-19
 -1      3596 8.98890E-05-1.74963E-05-3.10347E-05 3.14307E-06-4.76098E-19-1.45436E-18
 -1      3597 1.26973E-04-4.48971E-05-3.53942E-05 7.96050E-06 2.58544E-20 2.20999E-18
 -1      3598 1.29942E-04-5.13673E-05-3.38573E-05-2.02655E-06 2.01647E-19-2.36902E-18
 -1      3599 1.25602E-04-5.25566E-05-3.13278E-05 3.18518E-06-6.36669E-19-1.94497E-18
 -1      3600 1.27472E-04-4.70627E-05-3.45244E-05-6.63468E-06 5.50181E-19-2.32884E-18
 -1      3601 9.62259E-05-2.46605E-05-3.06610E-05-4.57118E-06 1.00647E-18 4.74814E-20
 -1      3602 9.45968E-05-2.31441E-05-3.06219E-05-4.51675E-06 1.04944E-18-2.05946E-19
 -1      3603 9.67705E-05-2.59063E-05-3.03675E-05-5.71343E-06 9.30561E-19-1.56407E-20
 -1      3604 1.25089E-04-4.85355E-05-3.28725E-05 2.24772E-06-1.39112E-19 1.73767E-18
 -1      3605 8.03337E-05-1.00386E-05-3.01422E-05-2.61164E-07 1.35791E-19-1.69558E-18
 -1      3606 8.08703E-05-1.04090E-05-3.02147E-05 2.41796E-07 3.95382E-20-1.77877E-18
 -1      3607 8.13583E-05-1.17420E-05-2.98066E-05 1.23267E-06-3.34173E-20-1.72773E-18
 -1      3608 1.21619E-04-4.78760E-05-3.16765E-05-1.98942E-06-4.70474E-19-1.90852E-18
 -1      3609 1.23156E-04-4.62979E-05-3.29758E-05-5.72868E-06 2.71911E-20-2.08758E-18
 -1      3610 1.23378E-04-4.98724E-05-3.15161E-05-1.45320E-06-3.66540E-19 1.48489E-18
 -1      3611 8.90075E-05-1.78076E-05-3.04961E-05 4.39600E-06-3.62894E-19-1.33963E-18
 -1      3612 5.17786E-05-1.21355E-05-1.69127E-05-3.84205E-06-1.66766E-19-2.70225E-18
 -1      3613 5.56074E-05-1.53385E-05-1.70507E-05-1.58031E-05-8.06005E-19-2.73846E-18
 -1      3614 8.96243E-05-2.13804E-05-2.92555E-05 8.81858E-06-2.55017E-19-1.05685E-18
 -1      3615 9.00532E-05-2.27873E-05-2.87989E-05 1.04519E-05-1.50095E-19-1.03367E-18
 -1      3616 8.67273E-05-2.14968E-05-2.79699E-05 1.11852E-05-1.82704E-20-1.00399E-18
 -1      3617 5.35127E-05-1.35130E-05-1.69061E-05 5.98079E-06-9.84552E-19 4.36735E-18
 -1      3618 5.36945E-05-1.34322E-05-1.73102E-05-4.04873E-06-1.91914E-19 3.79312E-18
 -1      3619 5.86113E-05-1.59635E-05-1.82299E-05 1.44376E-05 1.09628E-18-2.22669E-18
 -1      3620 5.34541E-05-1.23954E-05-1.72444E-05 5.98348E-06 5.09006E-19-2.72168E-18
 -1      3621 9.52566E-05-2.85815E-05-2.85750E-05 2.23827E-08 2.82293E-19 1.21960E-20
 -1      3622 9.52589E-05-2.85822E-05-2.85757E-05 1.87407E-08 7.17485E-19 6.12722E-19
 -1      3623 9.52613E-05-2.85788E-05-2.85782E-05 1.63564E-08-3.98361E-19 3.20405E-19
 -1      3624 9.52573E-05-2.85786E-05-2.85765E-05 2.26346E-08 7.43840E-19-3.30052E-20
 -1      3625 8.29078E-05-2.97662E-05-2.24044E-05-2.26442E-05 1.61567E-18 9.87852E-20
 -1      3626 9.19280E-05-3.63887E-05-2.39313E-05-2.29721E-05 1.88509E-18 3.24228E-19
 -1      3627 8.80775E-05-3.73919E-05-2.18285E-05 2.72235E-05-2.25883E-18 2.01165E-18
 -1      3628 7.46762E-05-2.92297E-05-1.89844E-05 2.80035E-05-2.77668E-18 3.28853E-18
 -1      3629 9.93525E-05-3.86946E-05-2.58288E-05 2.05571E-05 1.22478E-18 5.79713E-20
 -1      3630 9.04519E-05-3.65909E-05-2.30361E-05 2.65235E-05 1.50449E-18-5.16584E-19
 -1      3631 8.27205E-05-2.97732E-05-2.26938E-05 2.36894E-05 1.29045E-18-7.28051E-19
 -1      3632 9.52154E-05-3.42961E-05-2.60171E-05 1.96530E-05 1.02063E-18-9.58802E-20
 -1      3633 9.24160E-05-2.14701E-05-3.04049E-05-4.85874E-06 9.61602E-19-4.14825E-19
 -1      3634 6.16363E-05-1.56173E-05-1.95165E-05-7.35323E-06 7.02905E-20 2.67742E-18
 -1      3635 8.75634E-05-1.67602E-05-3.03468E-05-3.96418E-06 8.44115E-19-5.53175E-19
 -1      3636 8.86110E-05-2.98848E-05-2.51984E-05 1.99842E-05 9.09098E-19-4.93483E-19
 -1      3637 6.50199E-05-1.88647E-05-1.95038E-05-1.77308E-05-1.01840E-18-2.14400E-18
 -1      3638 8.91704E-05-1.90105E-05-3.00813E-05 5.80737E-06-3.75273E-19-1.25305E-18
 -1      3639 8.94987E-05-2.01868E-05-2.96899E-05 7.33872E-06-3.38651E-19-1.16582E-18
 -1      3640 8.67625E-05-1.89847E-05-2.90615E-05 7.80309E-06-1.20108E-19-1.22363E-18
 -1      3641 8.64903E-05-1.66286E-05-2.99460E-05 4.89137E-06-2.37181E-19-1.51229E-18
 -1      3642 9.52630E-05-2.85826E-05-2.85773E-05-2.42183E-09 1.73800E-19-2.51621E-18
 -1      3643 9.52625E-05-2.85824E-05-2.85772E-05-6.82589E-09-1.32352E-20-2.56689E-18
 -1      3644 9.52645E-05-2.85784E-05-2.85797E-05-2.25079E-10 4.62354E-19-2.24408E-18
 -1      3645 1.19119E-04-4.85005E-05-3.02967E-05-4.69894E-06-2.25119E-19 1.19439E-18
 -1      3646 1.16383E-04-4.72150E-05-2.96015E-05-7.29541E-06-6.72577E-19 1.01571E-18
 -1      3647 1.21942E-04-5.28575E-05-2.96114E-05 8.48700E-06-1.21372E-18-1.55828E-18
 -1      3648 1.15469E-04-5.03263E-05-2.79544E-05 1.29566E-05-1.37556E-18-1.27905E-18
 -1      3649 1.22382E-04-5.05679E-05-3.07406E-05 2.96884E-06-9.73257E-19-1.51197E-18
 -1      3650 1.24565E-04-4.33732E-05-3.49976E-05-9.92330E-06 6.82186E-19-2.18742E-18
 -1      3651 9.52525E-05-2.85806E-05-2.85736E-05-2.67912E-08-7.05117E-19 2.76669E-18
 -1      3652 9.52497E-05-2.85800E-05-2.85728E-05-2.88610E-08-1.58004E-18 1.99680E-18
 -1      3653 9.52456E-05-2.85800E-05-2.85709E-05-3.05960E-08-2.64033E-18-1.50850E-18
 -1      3654 7.78514E-05-2.53298E-05-2.25237E-05-1.87263E-05 1.00912E-18-1.68639E-19
 -1      3655 7.17129E-05-2.54834E-05-1.96116E-05 2.33999E-05-1.54732E-18 3.04548E-18
 -1      3656 1.09815E-04-4.06130E-05-2.97735E-05-5.79155E-06-5.48034E-19 1.11935E-18
 -1      3657 1.21110E-04-2.96736E-05-3.96239E-05 1.34782E-05 1.40832E-18 3.07783E-18
 -1      3658 8.41545E-05-1.49687E-05-2.96666E-05 3.95016E-06-2.12185E-19-1.67624E-18
 -1      3659 8.43347E-05-1.60906E-05-2.92223E-05 5.29658E-06-2.24018E-19-1.66065E-18
 -1      3660 8.22742E-05-1.35808E-05-2.94482E-05 3.20678E-06-1.26703E-19-1.76948E-18
 -1      3661 9.52557E-05-2.85808E-05-2.85750E-05-2.33762E-08-4.56630E-19 1.80260E-19
 -1      3662 9.52550E-05-2.85777E-05-2.85760E-05-2.53822E-08-8.87422E-20 2.27735E-18
 -1      3663 6.47078E-05-1.85876E-05-1.94138E-05 1.80010E-05 1.19721E-18-2.11269E-18
 -1      3664 6.39706E-05-1.62756E-05-2.03739E-05 1.30174E-05 9.24060E-19-1.96551E-18
 -1      3665 7.17722E-05-2.25605E-05-2.10187E-05 2.03600E-05 1.37124E-18-1.47916E-18
 -1      3666 9.52583E-05-2.85817E-05-2.85757E-05-1.98888E-08-2.64521E-19-4.32694E-19
 -1      3667 1.00311E-04-3.19469E-05-2.92926E-05-9.16842E-06 1.30027E-19 4.70361E-19
 -1      3668 9.87346E-05-2.98521E-05-2.94816E-05-8.69319E-06 3.15435E-19 3.31955E-19
 -1      3669 8.02659E-05-1.09949E-05-2.96538E-05-7.34612E-07 1.71897E-19-1.50681E-18
 -1      3670 8.10536E-05-2.93463E-05-2.20756E-05-2.45527E-05-1.36096E-18-1.27931E-18
 -1      3671 8.62586E-05-3.32755E-05-2.24802E-05-2.61418E-05-1.53631E-18-1.18934E-18
 -1      3672 9.33914E-05-3.68672E-05-2.41792E-05-2.34449E-05-1.27112E-18-7.21229E-19
 -1      3673 1.18190E-04-4.78177E-05-3.02102E-05 2.69470E-06-8.13198E-19-1.54710E-18
 -1      3674 1.05969E-04-4.54600E-05-2.59406E-05 1.88245E-05-1.72585E-18-3.96438E-19
 -1      3675 9.89612E-05-4.22589E-05-2.39536E-05 2.41174E-05-2.51786E-18 5.33819E-19
 -1      3676 1.15295E-04-4.64254E-05-2.94628E-05 5.47366E-06-1.11354E-18-8.46073E-19
 -1      3677 8.12489E-05-1.30390E-05-2.92226E-05-3.61174E-06 4.15532E-19-1.07049E-18
 -1      3678 8.01714E-05-1.22943E-05-2.91286E-05-2.78604E-06 3.10987E-19-1.21999E-18
 -1      3679 5.78895E-05-1.30426E-05-1.89264E-05-2.45524E-07 1.35799E-19-2.23013E-18
 -1      3680 5.69244E-05-1.49370E-05-1.77232E-05 1.05110E-05-1.01408E-18 4.20353E-18
 -1      3681 6.02096E-05-1.48597E-05-1.93042E-05 6.44929E-06-3.98635E-19 4.34562E-18
 -1      3682 6.19151E-05-1.78446E-05-1.89483E-05 1.52057E-05-6.69821E-19 2.83777E-18
 -1      3683 1.09940E-04-4.76888E-05-2.65132E-05-1.97215E-05-1.28186E-18 1.88372E-19
 -1      3684 1.13945E-04-4.83982E-05-2.80867E-05-1.38261E-05-9.28431E-19 5.93730E-19
 -1      3685 1.03590E-04-4.29460E-05-2.59781E-05-2.03116E-05-9.74809E-19 1.04159E-20
 -1      3686 9.07540E-05-3.63973E-05-2.33014E-05 2.34069E-05-2.05630E-18 1.07977E-18
 -1      3687 8.47175E-05-1.56329E-05-2.95692E-05-4.91769E-06 5.92768E-19-8.50997E-19
 -1      3688 8.28922E-05-1.43932E-05-2.93975E-05-4.57594E-06 4.93112E-19-1.01014E-18
 -1      3689 8.20176E-05-1.47620E-05-2.87941E-05-5.02910E-06 3.33402E-19-9.12402E-19
 -1      3690 1.04608E-04-3.66823E-05-2.90602E-05-9.38444E-06-3.32461E-19 7.46382E-19
 -1      3691 1.02348E-04-3.43167E-05-2.90848E-05-9.74157E-06-1.15461E-19 5.72384E-19
 -1      3692 9.92461E-05-3.24030E-05-2.87170E-05-1.10488E-05-1.20974E-19 5.12282E-19
 -1      3693 1.11897E-04-4.57143E-05-2.84005E-05 9.86852E-06-1.16807E-18-1.05835E-18
 -1      3694 8.22141E-05-2.10278E-05-2.62576E-05 1.29675E-05 4.37040E-19-1.06133E-18
 -1      3695 8.23493E-05-2.28462E-05-2.54490E-05 1.52274E-05 6.90365E-19-1.02108E-18
 -1      3696 6.20224E-05-1.43778E-05-2.02440E-05-2.01763E-06 9.08344E-20 3.33327E-18
 -1      3697 6.61854E-05-1.69881E-05-2.11878E-05-9.82406E-06 5.40132E-19 1.65336E-18
 -1      3698 9.27436E-05-2.29864E-05-2.98999E-05-6.49848E-06 6.06231E-19-2.14766E-19
 -1      3699 9.00624E-05-1.99368E-05-3.00372E-05-5.51299E-06 7.92662E-19-3.04617E-19
 -1      3700 8.77378E-05-1.82659E-05-2.98055E-05-5.58446E-06 5.69447E-19-4.29499E-19
 -1      3701 1.11529E-04-4.42821E-05-2.87923E-05-1.00464E-05-7.41726E-19 8.62172E-19
 -1      3702 8.27136E-05-2.36063E-05-2.53306E-05-1.37530E-05 5.65653E-19 1.70546E-19
 -1      3703 8.29060E-05-2.25736E-05-2.59103E-05-1.19870E-05 7.74332E-19-1.37482E-20
 -1      3704 8.42775E-05-2.23070E-05-2.65363E-05-1.05781E-05 7.31268E-19-4.55744E-19
 -1      3705 8.47257E-05-2.19465E-05-2.69479E-05-9.41961E-06 1.63582E-19-8.54907E-19
 -1      3706 8.07228E-05-2.07263E-05-2.56623E-05-1.01208E-05 2.75462E-19 2.33169E-19
 -1      3707 8.59370E-05-2.20056E-05-2.73856E-05-8.42181E-06-4.71645E-19-8.57263E-19
 -1      3708 8.65065E-05-2.20059E-05-2.76741E-05-7.56281E-06-3.91307E-19-9.91464E-19
 -1      3709 8.32553E-05-2.07233E-05-2.67667E-05-7.82718E-06-3.03472E-19 1.53334E-19
 -1      3710 8.75587E-05-2.22726E-05-2.79736E-05-6.83681E-06 1.88079E-19-1.03085E-18
 -1      3711 8.81470E-05-2.24795E-05-2.81659E-05-6.16166E-06 4.41401E-19-5.49516E-19
 -1      3712 8.55139E-05-2.12088E-05-2.75313E-05-6.25110E-06 5.43400E-20-5.67016E-19
 -1      3713 8.90387E-05-2.28476E-05-2.83652E-05-5.60266E-06 2.60558E-19-1.06518E-18
 -1      3714 8.95812E-05-2.31542E-05-2.84861E-05-5.04588E-06-1.64032E-19-6.39339E-19
 -1      3715 8.74439E-05-2.19421E-05-2.80494E-05-5.09237E-06-1.99644E-19-6.16166E-19
 -1      3716 9.03271E-05-2.35606E-05-2.86133E-05-4.59061E-06-4.90268E-19-4.31848E-20
 -1      3717 9.07984E-05-2.39040E-05-2.86828E-05-4.11837E-06-3.86217E-19 3.59451E-19
 -1      3718 8.90655E-05-2.27778E-05-2.83908E-05-4.17677E-06-2.38448E-20-7.80213E-19
 -1      3719 9.14140E-05-2.43087E-05-2.87589E-05-3.73676E-06-3.74944E-19 4.39370E-19
 -1      3720 9.18077E-05-2.46506E-05-2.87928E-05-3.33260E-06-9.75233E-20 2.61089E-19
 -1      3721 9.04126E-05-2.36323E-05-2.86056E-05-3.41668E-06-2.53831E-19 2.17513E-19
 -1      3722 9.23083E-05-2.50288E-05-2.88335E-05-3.00969E-06-3.50715E-19 7.91058E-19
 -1      3723 9.26281E-05-2.53469E-05-2.88439E-05-2.66489E-06-3.66825E-19 5.31927E-19
 -1      3724 9.15164E-05-2.44502E-05-2.87312E-05-2.77162E-06 2.33188E-19 5.55911E-19
 -1      3725 9.30295E-05-2.56856E-05-2.88610E-05-2.39221E-06-3.08622E-19 2.65419E-19
 -1      3726 9.32835E-05-2.59687E-05-2.88566E-05-2.10115E-06 9.57116E-20 1.10477E-20
 -1      3727 9.24082E-05-2.51974E-05-2.87957E-05-2.22124E-06-4.30899E-19 4.81769E-19
 -1      3728 9.36010E-05-2.62624E-05-2.88585E-05-1.87314E-06 6.58639E-19-6.68490E-19
 -1      3729 9.37989E-05-2.65064E-05-2.88456E-05-1.63095E-06 3.21139E-19-5.75895E-20
 -1      3730 9.31188E-05-2.58570E-05-2.88196E-05-1.75447E-06 2.41651E-19 2.15285E-19
 -1      3731 9.40465E-05-2.67547E-05-2.88383E-05-1.44298E-06-1.17173E-19 1.04022E-19
 -1      3732 9.41982E-05-2.69599E-05-2.88212E-05-1.24467E-06-1.09789E-20 4.43831E-19
 -1      3733 9.36774E-05-2.64235E-05-2.88178E-05-1.36359E-06 2.52675E-19-6.29524E-19
 -1      3734 9.43885E-05-2.71653E-05-2.88089E-05-1.09217E-06 2.01085E-19 2.22456E-19
 -1      3735 9.45030E-05-2.73341E-05-2.87904E-05-9.32514E-07 4.28428E-19-3.69851E-19
 -1      3736 9.41103E-05-2.68992E-05-2.88008E-05-1.04143E-06 3.83544E-19-1.25576E-19
 -1      3737 9.46471E-05-2.75009E-05-2.87759E-05-8.10873E-07-3.17873E-19-9.08021E-20
 -1      3738 9.47319E-05-2.76373E-05-2.87578E-05-6.84499E-07-3.97500E-19-1.00379E-20
 -1      3739 9.44409E-05-2.72906E-05-2.87757E-05-7.80423E-07 2.28081E-20-8.71251E-19
 -1      3740 9.48393E-05-2.77704E-05-2.87429E-05-5.89151E-07 7.45563E-19 6.27936E-19
 -1      3741 9.49011E-05-2.78786E-05-2.87262E-05-4.90830E-07 1.31245E-18 1.74666E-18
 -1      3742 9.46896E-05-2.76069E-05-2.87475E-05-5.72682E-07 5.54857E-19 5.67491E-19
 -1      3743 9.49796E-05-2.79830E-05-2.87121E-05-4.17414E-07 4.03315E-19 1.60435E-18
 -1      3744 9.50237E-05-2.80675E-05-2.86972E-05-3.42251E-07 2.92528E-20 1.15830E-18
 -1      3745 9.48733E-05-2.78581E-05-2.87192E-05-4.10274E-07 9.32580E-19 8.05367E-19
 -1      3746 9.50799E-05-2.81480E-05-2.86844E-05-2.86760E-07 8.32042E-20 1.11237E-18
 -1      3747 9.51106E-05-2.82129E-05-2.86717E-05-2.30344E-07 5.32115E-19 5.94690E-19
 -1      3748 9.50066E-05-2.80543E-05-2.86927E-05-2.85601E-07-3.20387E-20 4.91196E-19
 -1      3749 9.51498E-05-2.82740E-05-2.86605E-05-1.89214E-07-8.62216E-20 7.07890E-20
 -1      3750 9.51705E-05-2.83229E-05-2.86499E-05-1.47691E-07-7.08227E-19-8.20915E-19
 -1      3751 9.51009E-05-2.82050E-05-2.86689E-05-1.91687E-07-3.16150E-19-1.87568E-19
 -1      3752 9.51970E-05-2.83684E-05-2.86404E-05-1.17851E-07-3.99065E-19-1.07122E-18
 -1      3753 9.52103E-05-2.84046E-05-2.86317E-05-8.79474E-08-4.44887E-19-7.90413E-19
 -1      3754 9.51659E-05-2.83186E-05-2.86483E-05-1.22347E-07-5.19385E-19-8.77093E-19
 -1      3755 9.52274E-05-2.84378E-05-2.86238E-05-6.68188E-08-4.73206E-19-7.81047E-19
 -1      3756 9.52355E-05-2.84641E-05-2.86168E-05-4.58186E-08-1.04454E-18 3.78519E-20
 -1      3757 9.52090E-05-2.84028E-05-2.86309E-05-7.22656E-08-3.82019E-19-9.77069E-19
 -1      3758 9.52458E-05-2.84878E-05-2.86103E-05-3.12878E-08-8.19607E-19 5.99309E-19
 -1      3759 9.52502E-05-2.85065E-05-2.86047E-05-1.69920E-08 1.85814E-19 5.72091E-19
 -1      3760 9.52362E-05-2.84639E-05-2.86165E-05-3.69980E-08-5.25790E-19-1.16710E-19
 -1      3761 9.52557E-05-2.85230E-05-2.85995E-05-7.36380E-09 6.88001E-19 1.65341E-18
 -1      3762 9.52575E-05-2.85360E-05-2.85951E-05 1.97339E-09 2.46687E-18 1.35934E-18
 -1      3763 9.52519E-05-2.85073E-05-2.86047E-05-1.29209E-08 7.18445E-19 3.76651E-19
 -1      3764 9.52598E-05-2.85472E-05-2.85910E-05 8.03111E-09 2.22830E-18 9.45562E-19
 -1      3765 9.52600E-05-2.85560E-05-2.85875E-05 1.37485E-08 8.47423E-19-1.14709E-19
 -1      3766 9.52596E-05-2.85373E-05-2.85952E-05 2.88035E-09 1.61971E-18 1.06509E-18
 -1      3767 9.52602E-05-2.85635E-05-2.85842E-05 1.72580E-08 4.37108E-19 3.65505E-19
 -1      3768 9.52594E-05-2.85693E-05-2.85815E-05 2.03095E-08 8.46157E-19 1.00474E-18
 -1      3769 9.52621E-05-2.85576E-05-2.85876E-05 1.26285E-08 1.02013E-18 9.78913E-19
 -1      3770 9.52588E-05-2.85725E-05-2.85798E-05 2.13479E-08 1.12607E-18 8.38164E-19
 -1      3771 9.52582E-05-2.85760E-05-2.85781E-05 2.20338E-08 1.34243E-18 8.11089E-19
 -1      3772 9.52604E-05-2.85760E-05-2.85791E-05 1.90892E-08-4.62708E-19 4.17604E-19
 -1      3773 9.52617E-05-2.85693E-05-2.85825E-05 1.73303E-08 7.61745E-19 2.73350E-18
 -1      3774 9.28557E-05-2.81502E-05-2.77225E-05 1.04557E-05-2.61547E-19-1.11380E-20
 -1      3775 9.39423E-05-2.95489E-05-2.75657E-05 1.11827E-05-2.83975E-19 1.90747E-19
 -1      3776 8.38686E-05-1.70073E-05-2.86698E-05 6.57249E-06-5.32254E-20-1.61793E-18
 -1      3777 8.39714E-05-1.81217E-05-2.81908E-05 8.06489E-06 4.37661E-21-1.47873E-18
 -1      3778 8.15331E-05-1.53737E-05-2.83715E-05 5.50390E-06 1.49910E-20-1.71068E-18
 -1      3779 9.52616E-05-2.85824E-05-2.85768E-05-1.12631E-08-2.74023E-19-1.87649E-18
 -1      3780 9.52602E-05-2.85820E-05-2.85764E-05-1.53346E-08 7.72057E-20-1.61002E-18
 -1      3781 9.52636E-05-2.85784E-05-2.85793E-05-8.93801E-09 3.94432E-19-1.56447E-18
 -1      3782 9.88706E-05-3.58128E-05-2.69635E-05 1.40409E-05-1.55502E-18-1.43538E-19
 -1      3783 1.01925E-04-3.88051E-05-2.70040E-05 1.40693E-05-1.76935E-18-3.24996E-19
 -1      3784 9.19886E-05-2.64304E-05-2.81000E-05 8.73189E-06-6.32188E-19 8.08081E-19
 -1      3785 9.25358E-05-2.72408E-05-2.79581E-05 9.43551E-06-2.31452E-19 6.48041E-19
 -1      3786 9.05390E-05-2.65975E-05-2.74290E-05 1.02660E-05-6.87925E-19 8.39655E-19
 -1      3787 9.18135E-05-2.55675E-05-2.83985E-05 7.21924E-06-6.29852E-19 1.25472E-18
 -1      3788 9.20205E-05-2.59699E-05-2.82887E-05 7.86719E-06-7.40396E-19 1.17949E-18
 -1      3789 9.03166E-05-2.52603E-05-2.78888E-05 8.30604E-06-9.18792E-19 1.55058E-18
 -1      3790 9.20187E-05-2.52767E-05-2.86125E-05 5.92239E-06-2.76632E-19 1.17098E-18
 -1      3791 9.20295E-05-2.54129E-05-2.85373E-05 6.50261E-06-3.72389E-19 1.15051E-18
 -1      3792 9.06042E-05-2.47080E-05-2.82412E-05 6.70941E-06-6.57646E-19 1.69746E-18
 -1      3793 9.24069E-05-2.53405E-05-2.87517E-05 4.81537E-06-5.13092E-20 9.48944E-20
 -1      3794 9.23157E-05-2.53125E-05-2.87072E-05 5.32720E-06-6.06561E-20 5.67259E-19
 -1      3795 9.11363E-05-2.46457E-05-2.84927E-05 5.40836E-06 1.44657E-19 6.76923E-19
 -1      3796 9.28612E-05-2.56082E-05-2.88311E-05 3.87437E-06 3.05789E-19 5.42220E-20
 -1      3797 9.27255E-05-2.54867E-05-2.88106E-05 4.31966E-06 9.34915E-20 4.53410E-19
 -1      3798 9.17598E-05-2.48760E-05-2.86597E-05 4.33829E-06-5.11249E-22-1.18742E-20
 -1      3799 9.33126E-05-2.59758E-05-2.88661E-05 3.08043E-06 1.73315E-19 6.56509E-19
 -1      3800 9.31663E-05-2.58090E-05-2.88629E-05 3.46241E-06 2.41613E-19 6.77200E-19
 -1      3801 9.23856E-05-2.52660E-05-2.87605E-05 3.45451E-06-5.98729E-20 2.34537E-19
 -1      3802 9.37243E-05-2.63754E-05-2.88703E-05 2.41701E-06 3.90992E-19 6.41684E-19
 -1      3803 9.35862E-05-2.61946E-05-2.88786E-05 2.73978E-06 4.89262E-19 1.07447E-18
 -1      3804 9.29636E-05-2.57237E-05-2.88123E-05 2.72455E-06 6.34957E-20 7.02277E-19
 -1      3805 9.40800E-05-2.67652E-05-2.88547E-05 1.86921E-06 2.92330E-19 1.41702E-18
 -1      3806 9.39589E-05-2.65893E-05-2.88699E-05 2.13766E-06 1.02378E-19 6.83115E-19
 -1      3807 9.34698E-05-2.61902E-05-2.88299E-05 2.12416E-06 1.17258E-19 1.43477E-18
 -1      3808 9.43753E-05-2.71215E-05-2.88276E-05 1.42293E-06-7.95145E-19 1.93023E-18
 -1      3809 9.42743E-05-2.69612E-05-2.88462E-05 1.64261E-06 3.62450E-19 2.05064E-18
 -1      3810 9.38962E-05-2.66300E-05-2.88248E-05 1.63424E-06-2.62781E-19 3.18866E-18
 -1      3811 9.46127E-05-2.74329E-05-2.87951E-05 1.06460E-06-5.51028E-19 6.61253E-19
 -1      3812 9.45317E-05-2.72931E-05-2.88146E-05 1.24143E-06-6.89414E-19 1.63008E-18
 -1      3813 9.42445E-05-2.70238E-05-2.88060E-05 1.23870E-06-1.84289E-19 2.74363E-18
 -1      3814 9.47985E-05-2.76959E-05-2.87612E-05 7.81205E-07-1.15704E-18 1.07373E-18
 -1      3815 9.47354E-05-2.75782E-05-2.87800E-05 9.21207E-07-1.27983E-18 3.93443E-19
 -1      3816 9.45214E-05-2.73632E-05-2.87798E-05 9.23282E-07-5.83644E-19 1.81789E-18
 -1      3817 9.49401E-05-2.79121E-05-2.87286E-05 5.60582E-07-1.96290E-19 1.80719E-18
 -1      3818 9.48925E-05-2.78156E-05-2.87459E-05 6.69583E-07-4.19347E-19 1.85379E-18
 -1      3819 9.47363E-05-2.76472E-05-2.87507E-05 6.75180E-07-1.53063E-18 2.51921E-18
 -1      3820 9.50453E-05-2.80855E-05-2.86988E-05 3.91621E-07-4.42050E-19 3.02451E-18
 -1      3821 9.50104E-05-2.80082E-05-2.87141E-05 4.75040E-07-2.12556E-19 2.28595E-18
 -1      3822 9.48992E-05-2.78788E-05-2.87217E-05 4.82867E-07-7.73543E-19 2.97230E-18
 -1      3823 9.51214E-05-2.82215E-05-2.86727E-05 2.64447E-07-1.26019E-18 2.63959E-18
 -1      3824 9.50966E-05-2.81611E-05-2.86857E-05 3.27151E-07-7.89071E-19 2.70678E-18
 -1      3825 9.50197E-05-2.80635E-05-2.86946E-05 3.36115E-07-5.98309E-19 2.93704E-18
 -1      3826 9.51748E-05-2.83261E-05-2.86504E-05 1.70498E-07-5.67965E-19 2.37347E-18
 -1      3827 9.51577E-05-2.82797E-05-2.86613E-05 2.16729E-07-7.79581E-19 2.83107E-18
 -1      3828 9.51065E-05-2.82076E-05-2.86703E-05 2.25996E-07-7.55430E-19 1.97231E-18
 -1      3829 9.52108E-05-2.84048E-05-2.86318E-05 1.02516E-07 4.55353E-19 1.02247E-18
 -1      3830 9.51996E-05-2.83700E-05-2.86407E-05 1.35881E-07 8.52169E-20 1.99400E-18
 -1      3831 9.51671E-05-2.83178E-05-2.86493E-05 1.44871E-07 1.49437E-19 1.48765E-18
 -1      3832 9.52339E-05-2.84627E-05-2.86167E-05 5.44847E-08 6.41451E-19 3.95316E-19
 -1      3833 9.52270E-05-2.84371E-05-2.86238E-05 7.79756E-08 6.77974E-19 5.53743E-19
 -1      3834 9.52079E-05-2.84004E-05-2.86315E-05 8.63231E-08 9.09074E-19 2.18451E-18
 -1      3835 9.52476E-05-2.85044E-05-2.86045E-05 2.15219E-08 1.46752E-18 6.63020E-19
 -1      3836 9.52438E-05-2.84860E-05-2.86102E-05 3.75653E-08 9.23720E-19-7.69480E-20
 -1      3837 9.52339E-05-2.84609E-05-2.86169E-05 4.50711E-08 9.52585E-19 1.72952E-18
 -1      3838 9.52547E-05-2.85337E-05-2.85949E-05-2.62675E-10 1.13068E-18 1.21421E-18
 -1      3839 9.52531E-05-2.85208E-05-2.85993E-05 1.02660E-08 2.06141E-18 8.24175E-19
 -1      3840 9.52493E-05-2.85042E-05-2.86049E-05 1.68549E-08 1.45707E-18-3.53491E-19
 -1      3841 9.52572E-05-2.85537E-05-2.85874E-05-1.39440E-08-1.61831E-18 3.43109E-18
 -1      3842 9.52570E-05-2.85448E-05-2.85908E-05-7.38008E-09-5.78510E-19 2.60600E-18
 -1      3843 9.52571E-05-2.85345E-05-2.85954E-05-1.68378E-09-1.13712E-18 2.31818E-18
 -1      3844 9.52570E-05-2.85673E-05-2.85814E-05-2.18773E-08-7.13818E-19 2.69663E-18
 -1      3845 9.52576E-05-2.85611E-05-2.85841E-05-1.80281E-08-6.04703E-19 3.26213E-18
 -1      3846 9.52598E-05-2.85552E-05-2.85878E-05-1.32511E-08-6.86495E-19 3.51801E-18
 -1      3847 9.52562E-05-2.85740E-05-2.85780E-05-2.37936E-08-6.90541E-19 2.11231E-18
 -1      3848 9.52644E-05-2.85739E-05-2.85817E-05 1.00498E-08-3.82582E-19 2.18931E-20
 -1      3849 9.52654E-05-2.85740E-05-2.85821E-05 5.93309E-09-6.22743E-19-1.29939E-18
 -1      3850 7.73278E-05-2.72779E-05-2.15506E-05 2.21204E-05-1.50654E-18 2.62130E-18
 -1      3851 6.88256E-05-2.15781E-05-1.99444E-05 1.95733E-05-8.90152E-19 2.42963E-18
 -1      3852 6.86862E-05-1.98282E-05-2.08425E-05 1.51287E-05-6.79155E-19 2.51341E-18
 -1      3853 7.18410E-05-1.94983E-05-2.21528E-05-1.43007E-05 9.54259E-19-7.71263E-20
 -1      3854 8.12069E-05-2.56414E-05-2.38629E-05-1.72435E-05 8.15345E-19-1.80365E-19
 -1      3855 8.07557E-05-2.35817E-05-2.45982E-05-1.48146E-05 6.06431E-19-8.01339E-20
 -1      3856 7.06008E-05-1.79233E-05-2.26059E-05-9.49901E-06 9.93980E-19 1.06017E-18
 -1      3857 6.41951E-05-1.58481E-05-2.06699E-05-1.26118E-05-5.11198E-19-1.98897E-18
 -1      3858 7.15849E-05-2.15041E-05-2.14582E-05-1.96368E-05-1.02024E-18-1.62458E-18
 -1      3859 9.68333E-05-2.66262E-05-3.00725E-05-6.70374E-06 6.80285E-19 8.65132E-20
 -1      3860 9.51662E-05-2.52564E-05-2.99733E-05-6.81102E-06 6.24589E-19-1.22495E-19
 -1      3861 9.27999E-05-2.37258E-05-2.95865E-05-7.46051E-06 4.12585E-19-1.48110E-19
 -1      3862 9.76175E-05-2.80448E-05-2.98086E-05-7.60826E-06 4.62936E-19 1.35422E-19
 -1      3863 7.95693E-05-1.17336E-05-2.90757E-05-1.32886E-06 2.66818E-19-1.28226E-18
 -1      3864 7.95665E-05-1.17382E-05-2.90985E-05-2.73403E-07 1.15957E-19-1.46895E-18
 -1      3865 7.95014E-05-1.28045E-05-2.85456E-05-2.43717E-06 2.66693E-19-1.15110E-18
 -1      3866 8.00037E-05-1.19800E-05-2.91627E-05 1.03964E-06-3.72427E-20-1.60916E-18
 -1      3867 8.10237E-05-1.27306E-05-2.92937E-05 2.05441E-06-9.38613E-20-1.74150E-18
 -1      3868 8.08174E-05-1.36009E-05-2.87799E-05 3.02792E-06-1.27003E-19-1.70429E-18
 -1      3869 7.92369E-05-1.25257E-05-2.85588E-05 4.78361E-07 1.32669E-21-1.29882E-18
 -1      3870 9.49150E-05-3.11301E-05-2.73042E-05 1.23176E-05-7.08908E-19-1.71077E-19
 -1      3871 9.68026E-05-3.32757E-05-2.71841E-05 1.29071E-05-1.18586E-18-1.56747E-19
 -1      3872 9.16801E-05-2.91046E-05-2.68838E-05 1.26225E-05-7.59805E-19-6.48051E-20
 -1      3873 6.16133E-05-1.32723E-05-2.07067E-05 3.84806E-06 3.48892E-19-1.86681E-18
 -1      3874 6.09676E-05-1.30169E-05-2.04638E-05-5.07943E-06-1.30446E-19-2.03558E-18
 -1      3875 8.32640E-05-1.88610E-05-2.76212E-05 9.42624E-06 1.39007E-19-1.38543E-18
 -1      3876 8.30774E-05-2.01463E-05-2.69330E-05 1.12360E-05 2.66480E-19-1.18223E-18
 -1      3877 7.87499E-05-1.82382E-05-2.58795E-05 1.09435E-05 4.45194E-19-1.48473E-18
 -1      3878 8.02971E-05-1.68199E-05-2.71886E-05 7.98189E-06 2.83595E-19-1.76384E-18
 -1      3879 9.52607E-05-2.85782E-05-2.85781E-05-1.75027E-08-2.65007E-19 1.68595E-20
 -1      3880 1.09398E-04-4.16804E-05-2.89824E-05-9.17980E-06-7.95060E-19 9.63692E-19
 -1      3881 1.06296E-04-3.90089E-05-2.87728E-05-1.05216E-05-6.34224E-19 7.76977E-19
 -1      3882 1.02685E-04-3.70567E-05-2.81445E-05-1.30576E-05-5.87536E-19 5.57449E-19
 -1      3883 1.06557E-04-4.23981E-05-2.75134E-05-1.52908E-05-8.54418E-19 5.62423E-19
 -1      3884 8.45520E-05-2.79504E-05-2.41579E-05 2.03486E-05 1.07766E-18-6.43864E-19
 -1      3885 7.72677E-05-2.49030E-05-2.23029E-05 2.13406E-05 1.18735E-18-9.70700E-19
 -1      3886 7.40956E-05-2.12118E-05-2.26537E-05 1.74991E-05 1.09859E-18-1.43951E-18
 -1      3887 8.30025E-05-2.51576E-05-2.48074E-05 1.78831E-05 8.47255E-19-7.23009E-19
 -1      3888 9.52595E-05-2.85713E-05-2.85808E-05-2.00733E-08-3.58275E-19 1.86608E-18
 -1      3889 7.58510E-05-2.12574E-05-2.34184E-05-1.65465E-05-5.61728E-19-1.29955E-18
 -1      3890 7.78592E-05-2.48336E-05-2.25280E-05-2.07016E-05-9.69335E-19-1.33055E-18
 -1      3891 8.43583E-05-2.87125E-05-2.39202E-05-2.10560E-05-8.63004E-19-1.08711E-18
 -1      3892 8.68015E-05-1.86987E-05-2.92144E-05-6.67758E-06 4.95436E-19-4.82333E-19
 -1      3893 7.82781E-05-2.11562E-05-2.45107E-05 1.53284E-05 8.64864E-19-1.16459E-18
 -1      3894 9.62233E-05-2.79185E-05-2.93122E-05-9.03342E-06 2.22751E-19 1.92247E-19
 -1      3895 8.23421E-05-1.62309E-05-2.82765E-05-6.78685E-06 3.08403E-19-8.69800E-19
 -1      3896 8.03174E-05-1.49504E-05-2.80888E-05-5.61974E-06 2.38647E-19-9.56820E-19
 -1      3897 7.76164E-05-2.06066E-05-2.42600E-05-1.23535E-05 6.20809E-19 4.83011E-19
 -1      3898 9.52638E-05-2.85708E-05-2.85828E-05-1.22084E-08 1.11099E-18-2.06086E-19
 -1      3899 9.52619E-05-2.85707E-05-2.85820E-05-1.61967E-08 6.74568E-19 3.92782E-19
 -1      3900 9.52627E-05-2.85621E-05-2.85858E-05-1.38552E-08 8.73806E-19 1.73573E-18
 -1      3901 1.09633E-04-4.56745E-05-2.73321E-05 1.41088E-05-1.39332E-18-1.08340E-18
 -1      3902 9.44062E-05-3.31619E-05-2.63321E-05 1.52718E-05-1.36660E-18-3.25069E-19
 -1      3903 7.89759E-05-1.50391E-05-2.73574E-05-5.57554E-06 1.95169E-19-9.98063E-19
 -1      3904 7.87908E-05-1.36450E-05-2.79052E-05-3.79602E-06 3.16225E-19-1.13030E-18
 -1      3905 7.79547E-05-1.30803E-05-2.78424E-05-2.14792E-06 1.94607E-19-1.10953E-18
 -1      3906 1.03401E-04-4.12103E-05-2.66498E-05 1.56611E-05-1.72195E-18-7.27658E-19
 -1      3907 6.83453E-05-1.64961E-05-2.22418E-05 1.13637E-05 8.08076E-19-1.60690E-18
 -1      3908 6.43583E-05-1.41656E-05-2.12922E-05 7.56484E-06 5.51506E-19-1.74925E-18
 -1      3909 6.64433E-05-1.37503E-05-2.25789E-05 3.18460E-06 2.80216E-19-1.47021E-18
 -1      3910 9.72607E-05-3.19943E-05-2.79969E-05-1.28646E-05-2.75170E-19 2.13399E-19
 -1      3911 9.54613E-05-2.93758E-05-2.82932E-05-1.18196E-05-2.12102E-19 9.55493E-20
 -1      3912 9.52657E-05-2.85737E-05-2.85823E-05 1.88354E-09 6.00922E-19-2.18821E-18
 -1      3913 9.52657E-05-2.85738E-05-2.85823E-05-2.35359E-09 1.27733E-18-2.90341E-18
 -1      3914 9.52664E-05-2.85681E-05-2.85848E-05 3.55480E-09 5.28622E-19-3.01097E-18
 -1      3915 9.22848E-05-2.69557E-05-2.80739E-05-1.20643E-05-2.35684E-19-3.18559E-19
 -1      3916 9.44972E-05-2.73563E-05-2.87561E-05-1.02751E-05-3.58417E-20-5.03079E-20
 -1      3917 9.33560E-05-2.53907E-05-2.91259E-05-9.03544E-06 2.14026E-19-1.35129E-19
 -1      3918 9.73875E-05-3.76735E-05-2.55005E-05-2.09117E-05-9.43481E-19-2.67384E-19
 -1      3919 1.02508E-04-4.02787E-05-2.66232E-05-1.77556E-05-8.98829E-19 8.43989E-20
 -1      3920 1.00066E-04-3.73717E-05-2.69785E-05-1.65355E-05-6.82768E-19 1.33097E-19
 -1      3921 9.82016E-05-3.82833E-05-2.56371E-05 1.84036E-05-1.91668E-18-2.77794E-19
 -1      3922 9.26766E-05-3.41697E-05-2.49593E-05-2.11228E-05-1.00305E-18-6.64166E-19
 -1      3923 9.26370E-05-3.35833E-05-2.53394E-05 1.77388E-05-1.33946E-18 5.03654E-20
 -1      3924 9.40058E-05-3.60950E-05-2.48712E-05 1.96497E-05-1.87754E-18 1.86506E-19
 -1      3925 8.57261E-05-3.12744E-05-2.31047E-05 2.17950E-05-1.69489E-18 1.74350E-18
 -1      3926 9.09264E-05-3.09038E-05-2.56741E-05 1.59561E-05-1.23829E-18 1.35791E-19
 -1      3927 6.49578E-05-1.57772E-05-2.11308E-05 6.20239E-06-3.48673E-19 3.93313E-18
 -1      3928 6.27666E-05-1.45558E-05-2.05515E-05 1.74995E-06-2.13353E-19 3.64803E-18
 -1      3929 6.71015E-05-1.56758E-05-2.20290E-05-1.15082E-06-3.23924E-20 2.89943E-18
 -1      3930 9.52623E-05-2.85760E-05-2.85798E-05 1.56518E-08-3.96547E-19 6.02711E-19
 -1      3931 6.73031E-05-1.51834E-05-2.21793E-05-7.96935E-06-1.70393E-19-1.74783E-18
 -1      3932 9.52639E-05-2.85709E-05-2.85827E-05 1.29282E-08-7.07387E-19 4.75917E-19
 -1      3933 8.20201E-05-2.77570E-05-2.32662E-05 1.92320E-05-1.61562E-18 1.76984E-18
 -1      3934 7.73238E-05-1.92524E-05-2.49070E-05-8.53311E-06 1.57707E-19 5.69018E-19
 -1      3935 7.88252E-05-1.92199E-05-2.56022E-05-7.20358E-06 6.75012E-20 5.93503E-19
 -1      3936 8.71521E-05-2.03068E-05-2.86983E-05-8.28685E-06 3.26578E-19-5.46245E-19
 -1      3937 8.58566E-05-2.05205E-05-2.80084E-05-9.33526E-06 1.20156E-19-5.51592E-19
 -1      3938 7.31484E-05-1.85332E-05-2.34848E-05-9.32295E-06 9.88408E-19 6.37730E-19
 -1      3939 7.51764E-05-1.88164E-05-2.42274E-05-8.68802E-06 6.84510E-19 6.06628E-19
 -1      3940 6.94200E-05-1.60290E-05-2.26896E-05-5.08330E-06 6.54495E-19 1.82473E-18
 -1      3941 6.81359E-05-1.38414E-05-2.32533E-05-4.14304E-06 2.83053E-20-1.61730E-18
 -1      3942 7.13152E-05-1.64198E-05-2.34454E-05-1.04025E-05-3.13409E-19-1.44956E-18
 -1      3943 8.09009E-05-1.96731E-05-2.62509E-05-6.45659E-06 1.28670E-19 4.02746E-19
 -1      3944 8.21602E-05-1.99132E-05-2.67230E-05-5.66383E-06-3.55227E-20 4.70897E-19
 -1      3945 7.82805E-05-1.84348E-05-2.56055E-05-4.92846E-06-4.48183E-20 1.37568E-18
 -1      3946 8.37366E-05-2.03610E-05-2.71653E-05-5.15188E-06-2.86530E-19 7.62657E-19
 -1      3947 8.48097E-05-2.07412E-05-2.74874E-05-4.58864E-06-3.26908E-19 4.75235E-19
 -1      3948 8.18381E-05-1.93818E-05-2.67095E-05-3.86257E-06-1.02965E-19 1.16494E-18
 -1      3949 8.60589E-05-2.12327E-05-2.77883E-05-4.22609E-06-3.73925E-19 2.29121E-19
 -1      3950 8.69604E-05-2.16635E-05-2.80049E-05-3.79133E-06-5.37961E-19-5.16323E-19
 -1      3951 8.46049E-05-2.04386E-05-2.74637E-05-3.18667E-06-5.73531E-19 3.35246E-19
 -1      3952 8.79675E-05-2.21638E-05-2.82071E-05-3.49994E-06-6.34696E-20-9.10573E-19
 -1      3953 8.87193E-05-2.26110E-05-2.83477E-05-3.14095E-06-4.21504E-20-4.87456E-19
 -1      3954 8.68218E-05-2.14841E-05-2.79762E-05-2.68616E-06-6.10282E-19-2.04542E-19
 -1      3955 8.95394E-05-2.30989E-05-2.84791E-05-2.89540E-06-1.75066E-19-7.91236E-19
 -1      3956 9.01584E-05-2.35341E-05-2.85654E-05-2.58884E-06 6.14267E-20-3.93774E-19
 -1      3957 8.86243E-05-2.25039E-05-2.83176E-05-2.25877E-06-3.42465E-19-6.10764E-19
 -1      3958 9.08232E-05-2.39893E-05-2.86467E-05-2.37681E-06 3.86302E-19-3.72409E-19
 -1      3959 9.13261E-05-2.43931E-05-2.86952E-05-2.11152E-06 3.69116E-19-1.94459E-19
 -1      3960 9.00901E-05-2.34701E-05-2.85362E-05-1.88677E-06 8.12062E-20-7.80614E-19
 -1      3961 9.18620E-05-2.48041E-05-2.87417E-05-1.92684E-06 2.40270E-20 3.41869E-19
 -1      3962 9.22649E-05-2.51657E-05-2.87646E-05-1.69794E-06-8.90181E-20 5.81510E-19
 -1      3963 9.12759E-05-2.43548E-05-2.86686E-05-1.55491E-06 6.45103E-19-5.21523E-19
 -1      3964 9.26931E-05-2.55265E-05-2.87874E-05-1.53852E-06-1.52550E-19 4.57218E-19
 -1      3965 9.30117E-05-2.58413E-05-2.87936E-05-1.34340E-06 2.01478E-19-5.11138E-20
 -1      3966 9.22285E-05-2.51435E-05-2.87414E-05-1.26016E-06-2.88280E-19-3.41483E-20
 -1      3967 9.33500E-05-2.61507E-05-2.88008E-05-1.20802E-06 3.95754E-19-2.91339E-19
 -1      3968 9.35986E-05-2.64182E-05-2.87967E-05-1.04441E-06 6.42511E-19-3.08272E-19
 -1      3969 9.29861E-05-2.58297E-05-2.87741E-05-1.00280E-06 4.46614E-19-1.69947E-19
 -1      3970 9.38625E-05-2.66778E-05-2.87941E-05-9.31656E-07 7.50590E-19-6.42348E-19
 -1      3971 9.40536E-05-2.69005E-05-2.87840E-05-7.96931E-07 3.24605E-19-4.97978E-19
 -1      3972 9.35814E-05-2.64135E-05-2.87807E-05-7.82842E-07 6.30223E-19 1.27350E-19
 -1      3973 9.42566E-05-2.71141E-05-2.87757E-05-7.04876E-07 8.05306E-20-6.81860E-19
 -1      3974 9.44013E-05-2.72960E-05-2.87626E-05-5.95978E-07 3.31485E-19-1.61988E-19
 -1      3975 9.40430E-05-2.69004E-05-2.87712E-05-5.99011E-07 2.53129E-19-4.34433E-19
 -1      3976 9.45551E-05-2.74686E-05-2.87515E-05-5.22317E-07 1.12542E-18-1.77837E-19
 -1      3977 9.46630E-05-2.76145E-05-2.87375E-05-4.35911E-07 1.45391E-18 3.83993E-19
 -1      3978 9.43957E-05-2.72988E-05-2.87527E-05-4.48712E-07 8.33646E-19-4.62293E-19
 -1      3979 9.47775E-05-2.77516E-05-2.87253E-05-3.78131E-07 9.30494E-19 1.80712E-19
 -1      3980 9.48564E-05-2.78668E-05-2.87118E-05-3.10828E-07 2.12266E-19-2.33405E-20
 -1      3981 9.46609E-05-2.76191E-05-2.87299E-05-3.28414E-07 8.85900E-19-2.01614E-19
 -1      3982 9.49401E-05-2.79738E-05-2.86997E-05-2.66400E-07 1.02381E-19 8.01431E-20
 -1      3983 9.49966E-05-2.80631E-05-2.86872E-05-2.14948E-07 3.06389E-19 1.63180E-19
 -1      3984 9.48567E-05-2.78721E-05-2.87060E-05-2.34101E-07 5.49042E-19-9.57708E-19
 -1      3985 9.50564E-05-2.81453E-05-2.86760E-05-1.81474E-07-7.32321E-19-3.62569E-19
 -1      3986 9.50959E-05-2.82134E-05-2.86650E-05-1.42895E-07-1.19655E-18-8.50715E-19
 -1      3987 9.49984E-05-2.80687E-05-2.86829E-05-1.61657E-07-6.35420E-19-9.82513E-19
 -1      3988 9.51374E-05-2.82753E-05-2.86550E-05-1.18209E-07-6.91397E-19-1.49853E-18
 -1      3989 9.51641E-05-2.83263E-05-2.86455E-05-8.98717E-08-6.98568E-19-2.03754E-18
 -1      3990 9.50984E-05-2.82188E-05-2.86619E-05-1.07154E-07-1.12156E-18-2.01452E-18
 -1      3991 9.51919E-05-2.83721E-05-2.86369E-05-7.20863E-08-3.23639E-19-2.34690E-18
 -1      3992 9.52092E-05-2.84096E-05-2.86290E-05-5.17436E-08-2.63299E-19-2.10612E-18
 -1      3993 9.51669E-05-2.83313E-05-2.86433E-05-6.70339E-08 6.11133E-21-3.94054E-18
 -1      3994 9.52270E-05-2.84428E-05-2.86217E-05-3.92658E-08-5.43441E-19-8.92825E-19
 -1      3995 9.52375E-05-2.84697E-05-2.86151E-05-2.50477E-08-1.47164E-19-7.54689E-19
 -1      3996 9.52120E-05-2.84140E-05-2.86274E-05-3.81949E-08 4.65762E-19-2.07974E-18
 -1      3997 9.52480E-05-2.84932E-05-2.86091E-05-1.65760E-08 7.32930E-19-1.05476E-18
 -1      3998 9.52537E-05-2.85121E-05-2.86038E-05-6.96481E-09 1.67651E-18-7.79929E-20
 -1      3999 9.52399E-05-2.84735E-05-2.86140E-05-1.80241E-08 1.75220E-19-6.01185E-19
 -1      4000 9.52592E-05-2.85282E-05-2.85989E-05-1.48752E-09 1.99520E-18-5.26180E-19
 -1      4001 9.52615E-05-2.85412E-05-2.85946E-05 4.80062E-09 1.74874E-18-9.20296E-19
 -1      4002 9.52557E-05-2.85153E-05-2.86029E-05-4.45279E-09 1.92849E-18-2.02017E-18
 -1      4003 7.98657E-05-1.42322E-05-2.81503E-05 3.83278E-06-4.63552E-21-1.66062E-18
 -1      4004 7.92104E-05-1.49828E-05-2.75387E-05 5.03542E-06 1.78039E-19-1.68388E-18
 -1      4005 7.87734E-05-1.34726E-05-2.79943E-05 2.62315E-06 5.79709E-20-1.50428E-18
 -1      4006 9.52655E-05-2.85720E-05-2.85830E-05-5.43227E-09 1.30286E-18-3.15492E-18
 -1      4007 9.52646E-05-2.85722E-05-2.85825E-05-9.52228E-09 1.72185E-18-1.92281E-18
 -1      4008 9.52656E-05-2.85627E-05-2.85868E-05-8.05539E-09 9.43316E-19-9.09759E-19
 -1      4009 9.52666E-05-2.85661E-05-2.85858E-05-3.00605E-09 2.02391E-18-1.94236E-18
 -1      4010 8.80978E-05-2.46814E-05-2.71958E-05 9.40329E-06-1.27766E-18 1.03984E-18
 -1      4011 8.84042E-05-2.55078E-05-2.69222E-05 1.04983E-05-8.67573E-19 8.70914E-19
 -1      4012 9.03076E-05-2.40452E-05-2.84124E-05 4.64174E-06 3.40204E-19 6.45439E-19
 -1      4013 9.00053E-05-2.39466E-05-2.83026E-05 5.20657E-06-3.17619E-20 1.40011E-18
 -1      4014 9.11707E-05-2.44701E-05-2.85979E-05 3.67158E-06-9.76320E-20 5.92523E-19
 -1      4015 9.08491E-05-2.42728E-05-2.85277E-05 4.13402E-06 1.90670E-19 6.69019E-19
 -1      4016 8.97941E-05-2.36062E-05-2.83561E-05 3.92560E-06 2.04225E-19 1.08916E-18
 -1      4017 9.19642E-05-2.49928E-05-2.87119E-05 2.88986E-06-4.72041E-19 7.72764E-19
 -1      4018 9.16570E-05-2.47496E-05-2.86716E-05 3.27075E-06-3.42450E-19 3.42009E-19
 -1      4019 9.08190E-05-2.41723E-05-2.85536E-05 3.06595E-06-2.01788E-19 1.31448E-18
 -1      4020 9.26615E-05-2.55415E-05-2.87740E-05 2.25657E-06-4.05358E-19 1.87917E-18
 -1      4021 9.23864E-05-2.52867E-05-2.87551E-05 2.57029E-06-4.30135E-19 1.40970E-18
 -1      4022 9.17225E-05-2.47914E-05-2.86767E-05 2.38782E-06-6.17995E-19 2.10261E-18
 -1      4023 9.32539E-05-2.60704E-05-2.87997E-05 1.74395E-06-2.43633E-19 2.24672E-18
 -1      4024 9.30182E-05-2.58256E-05-2.87955E-05 2.00109E-06-1.69750E-19 2.12911E-18
 -1      4025 9.24959E-05-2.54062E-05-2.87459E-05 1.84824E-06-8.46315E-19 2.90427E-18
 -1      4026 9.37431E-05-2.65529E-05-2.88013E-05 1.33120E-06-5.18251E-19 3.66099E-18
 -1      4027 9.35479E-05-2.63304E-05-2.88065E-05 1.54018E-06-5.34906E-19 2.56476E-18
 -1      4028 9.31413E-05-2.59806E-05-2.87775E-05 1.41792E-06-6.76032E-19 2.60748E-18
 -1      4029 9.41372E-05-2.69758E-05-2.87879E-05 1.00167E-06-1.93565E-19 2.88118E-18
 -1      4030 9.39802E-05-2.67815E-05-2.87987E-05 1.16966E-06-2.74169E-19 3.27673E-18
 -1      4031 9.36676E-05-2.64945E-05-2.87839E-05 1.07561E-06-7.46281E-20 2.74276E-18
 -1      4032 9.44477E-05-2.73349E-05-2.87661E-05 7.41401E-07-9.57655E-19 2.71754E-18
 -1      4033 9.43244E-05-2.71705E-05-2.87796E-05 8.74736E-07 6.65815E-20 2.91114E-18
 -1      4034 9.40877E-05-2.69388E-05-2.87745E-05 8.05008E-07-1.66527E-19 2.62629E-18
 -1      4035 9.46869E-05-2.76319E-05-2.87406E-05 5.38360E-07-1.30249E-18 1.42296E-18
 -1      4036 9.45924E-05-2.74964E-05-2.87549E-05 6.42741E-07-1.54899E-18 2.08815E-18
 -1      4037 9.44162E-05-2.73125E-05-2.87560E-05 5.92981E-07-5.21773E-19 2.35264E-18
 -1      4038 9.48672E-05-2.78719E-05-2.87144E-05 3.82125E-07-1.24122E-18 2.17533E-18
 -1      4039 9.47965E-05-2.77628E-05-2.87283E-05 4.62638E-07-1.11414E-18 1.48193E-18
 -1      4040 9.46679E-05-2.76192E-05-2.87330E-05 4.28658E-07-1.09471E-18 1.05644E-18
 -1      4041 9.50000E-05-2.80618E-05-2.86894E-05 2.63697E-07-7.37381E-19 1.89148E-18
 -1      4042 9.49484E-05-2.79758E-05-2.87021E-05 3.24823E-07-1.06837E-18 1.82609E-18
 -1      4043 9.48566E-05-2.78657E-05-2.87088E-05 3.02900E-07-1.24635E-18 8.11761E-19
 -1      4044 9.50953E-05-2.82091E-05-2.86667E-05 1.75391E-07-9.29768E-19 1.75576E-18
 -1      4045 9.50587E-05-2.81426E-05-2.86780E-05 2.21012E-07-3.56439E-19 2.17098E-18
 -1      4046 9.49950E-05-2.80596E-05-2.86854E-05 2.08012E-07-5.94110E-19 1.40900E-18
 -1      4047 9.51616E-05-2.83209E-05-2.86469E-05 1.10741E-07 7.79089E-20 1.86536E-18
 -1      4048 9.51366E-05-2.82706E-05-2.86565E-05 1.44152E-07-8.08720E-19 1.49445E-18
 -1      4049 9.50938E-05-2.82094E-05-2.86640E-05 1.37544E-07-4.96707E-19 1.75043E-18
 -1      4050 9.52061E-05-2.84042E-05-2.86300E-05 6.43858E-08 1.11005E-18 2.07463E-18
 -1      4051 9.51897E-05-2.83669E-05-2.86381E-05 8.83368E-08 8.64753E-19 2.53059E-18
 -1      4052 9.51622E-05-2.83226E-05-2.86450E-05 8.61407E-08 4.39894E-20 1.04113E-18
 -1      4053 9.52343E-05-2.84649E-05-2.86159E-05 3.19576E-08 1.59457E-18 1.37442E-18
 -1      4054 9.52242E-05-2.84378E-05-2.86226E-05 4.86962E-08 1.31340E-18 2.28683E-18
 -1      4055 9.52078E-05-2.84066E-05-2.86288E-05 4.94124E-08 1.40439E-18 1.95142E-18
 -1      4056 9.52509E-05-2.85080E-05-2.86044E-05 9.97721E-09 9.03905E-19 1.39607E-18
 -1      4057 9.52453E-05-2.84888E-05-2.86098E-05 2.12983E-08 2.02165E-18 1.50380E-18
 -1      4058 9.52365E-05-2.84674E-05-2.86151E-05 2.38065E-08 1.81362E-18 2.80120E-18
 -1      4059 9.52592E-05-2.85378E-05-2.85950E-05-4.23114E-09-1.87945E-18 2.08294E-18
 -1      4060 9.52568E-05-2.85246E-05-2.85993E-05 3.00341E-09-9.40662E-19 1.65813E-18
 -1      4061 9.52530E-05-2.85105E-05-2.86038E-05 6.57400E-09-3.18269E-19 3.39431E-18
 -1      4062 9.52620E-05-2.85557E-05-2.85885E-05-1.17509E-08-2.71317E-19 1.59020E-18
 -1      4063 9.52614E-05-2.85465E-05-2.85920E-05-7.44193E-09-1.09864E-18 1.67610E-18
 -1      4064 9.52608E-05-2.85375E-05-2.85957E-05-3.61004E-09-9.57635E-19 1.76577E-18
 -1      4065 9.52638E-05-2.85545E-05-2.85898E-05-8.86015E-09-1.22437E-19 7.38312E-19
 -1      4066 8.44685E-05-2.74981E-05-2.44186E-05 1.67145E-05-1.56523E-18 1.10715E-18
 -1      4067 7.79060E-05-2.36613E-05-2.30987E-05 1.66317E-05-1.18880E-18 2.09311E-18
 -1      4068 7.29367E-05-2.09610E-05-2.23579E-05 1.43713E-05-9.07996E-19 2.43325E-18
 -1      4069 6.79000E-05-1.72495E-05-2.15251E-05 1.03599E-05-1.09120E-18 3.48163E-18
 -1      4070 6.95804E-05-1.69383E-05-2.25736E-05 6.45631E-06-8.58625E-19 2.98528E-18
 -1      4071 7.64568E-05-2.13016E-05-2.36169E-05 1.27410E-05-8.19623E-19 1.97272E-18
 -1      4072 9.08189E-05-2.30173E-05-2.90258E-05-8.74950E-06 3.37241E-19-2.54246E-19
 -1      4073 8.86394E-05-2.39675E-05-2.77349E-05 7.40180E-06-1.12776E-18 1.12189E-18
 -1      4074 8.85943E-05-2.43294E-05-2.75184E-05 8.27220E-06-9.26640E-19 9.21052E-19
 -1      4075 8.64334E-05-2.33170E-05-2.70455E-05 8.41269E-06-1.36568E-18 1.09675E-18
 -1      4076 8.85578E-05-2.67669E-05-2.64748E-05 1.23440E-05-6.43449E-19 6.80416E-19
 -1      4077 8.95027E-05-2.84027E-05-2.61574E-05 1.37618E-05-8.03090E-19 2.72913E-19
 -1      4078 8.72476E-05-2.85208E-05-2.51815E-05 1.60116E-05-1.24706E-18 7.15323E-19
 -1      4079 8.58910E-05-2.47702E-05-2.62225E-05 1.14824E-05-7.23666E-19 7.17388E-19
 -1      4080 9.84527E-05-3.40034E-05-2.75947E-05-1.41451E-05-5.73923E-19 2.46632E-19
 -1      4081 8.94332E-05-2.38282E-05-2.81326E-05 5.85563E-06-4.86504E-19 9.92825E-19
 -1      4082 8.92071E-05-2.39013E-05-2.79736E-05 6.55081E-06-9.77839E-19 1.07185E-18
 -1      4083 8.75243E-05-2.30253E-05-2.76324E-05 6.48065E-06-9.25805E-19 8.74722E-19
 -1      4084 8.86788E-05-2.31869E-05-2.80585E-05 5.03313E-06-5.25804E-19 1.12082E-18
 -1      4085 8.85438E-05-2.99997E-05-2.51868E-05-1.88543E-05-6.35328E-19-8.18740E-19
 -1      4086 7.39565E-05-1.90139E-05-2.34203E-05 1.42841E-05 9.12743E-19-1.68007E-18
 -1      4087 7.41653E-05-1.73040E-05-2.42434E-05-5.35946E-06 5.29281E-19 1.33366E-18
 -1      4088 6.84193E-05-1.33828E-05-2.34635E-05-1.08481E-06 2.21314E-19-1.47298E-18
 -1      4089 7.13854E-05-1.42011E-05-2.45495E-05-3.84989E-06 5.22149E-20-1.19569E-18
 -1      4090 6.96309E-05-1.39888E-05-2.38894E-05 2.65135E-06 4.40573E-19-1.31903E-18
 -1      4091 8.32278E-05-2.49185E-05-2.50008E-05 1.39346E-05-8.67254E-19 1.24743E-18
 -1      4092 7.83635E-05-1.55744E-05-2.69271E-05 6.19115E-06 3.24394E-19-1.61389E-18
 -1      4093 9.52636E-05-2.85522E-05-2.85905E-05 8.08010E-09 2.02518E-18-3.23656E-19
 -1      4094 9.52638E-05-2.85608E-05-2.85871E-05 1.18062E-08 1.92869E-18 8.24074E-19
 -1      4095 9.52644E-05-2.85669E-05-2.85846E-05 1.15931E-08 2.15177E-19 1.04750E-18
 -1      4096 7.86743E-05-1.62337E-05-2.66701E-05-7.69722E-06 9.79332E-20-1.03915E-18
 -1      4097 7.65141E-05-1.49094E-05-2.64622E-05-5.86291E-06 9.52267E-20-1.05699E-18
 -1      4098 7.37914E-05-1.70579E-05-2.41946E-05-1.11287E-05-2.60023E-19-1.35657E-18
 -1      4099 7.79572E-05-1.97071E-05-2.49698E-05-1.27361E-05-2.66908E-19-1.21003E-18
 -1      4100 7.29576E-05-1.67586E-05-2.41235E-05 1.00483E-05 6.58191E-19-1.49866E-18
 -1      4101 9.52656E-05-2.85622E-05-2.85872E-05 7.77743E-09 1.32637E-18-1.28157E-18
 -1      4102 9.52631E-05-2.85440E-05-2.85939E-05 4.40134E-09 2.42921E-18-1.69916E-18
 -1      4103 7.56506E-05-1.67299E-05-2.52875E-05 8.91845E-06 5.86803E-19-1.49187E-18
 -1      4104 7.15254E-05-1.44632E-05-2.43167E-05 5.93290E-06 5.73296E-19-1.43468E-18
 -1      4105 7.25513E-05-1.40182E-05-2.50990E-05 2.27989E-06 4.17488E-19-1.27552E-18
 -1      4106 7.65395E-05-1.60030E-05-2.60126E-05 7.34355E-06 5.02807E-19-1.58534E-18
 -1      4107 9.52662E-05-2.85613E-05-2.85878E-05 4.57920E-09 1.41370E-18-2.37909E-18
 -1      4108 9.52664E-05-2.85611E-05-2.85881E-05 1.12797E-09 2.04233E-18-3.60052E-18
 -1      4109 9.52656E-05-2.85538E-05-2.85906E-05 4.76737E-09 2.29812E-18-2.00853E-18
 -1      4110 6.95336E-05-1.61333E-05-2.28856E-05-1.77969E-06 1.05512E-19 2.30275E-18
 -1      4111 7.78255E-05-1.28726E-05-2.78367E-05-4.71275E-07 1.95447E-19-9.70444E-19
 -1      4112 7.80900E-05-1.30369E-05-2.78984E-05 9.07480E-07 4.38794E-20-1.20902E-18
 -1      4113 7.70860E-05-1.35379E-05-2.72337E-05 1.61654E-06 1.66709E-19-1.26620E-18
 -1      4114 7.70326E-05-1.35446E-05-2.71697E-05-1.83913E-06 2.16343E-19-9.05483E-19
 -1      4115 8.77972E-05-2.34102E-05-2.75207E-05-1.17353E-05-1.78484E-19-5.02926E-19
 -1      4116 8.19268E-05-1.92505E-05-2.69569E-05-1.03801E-05-9.16913E-20-7.24908E-19
 -1      4117 7.95535E-05-1.90206E-05-2.60186E-05-1.09554E-05-9.24176E-20-1.00201E-18
 -1      4118 8.83731E-05-2.55769E-05-2.69490E-05-1.36669E-05-3.85959E-19-4.95764E-19
 -1      4119 8.04204E-05-1.88816E-05-2.63902E-05-2.10725E-06-5.37320E-20 1.28430E-18
 -1      4120 8.19441E-05-1.94414E-05-2.68246E-05-1.86485E-06-3.73373E-20 1.15345E-18
 -1      4121 8.34728E-05-2.00010E-05-2.72188E-05-1.87375E-06-6.09711E-19 4.67274E-19
 -1      4122 8.47126E-05-2.05317E-05-2.75312E-05-1.70649E-06-5.46021E-19 2.79903E-19
 -1      4123 8.24864E-05-1.95258E-05-2.69257E-05-2.22728E-07-5.32455E-19 4.93570E-19
 -1      4124 8.59024E-05-2.10664E-05-2.78030E-05-1.65761E-06-6.91067E-19-2.95002E-19
 -1      4125 8.69214E-05-2.15895E-05-2.80144E-05-1.50562E-06-8.19581E-19-1.95585E-19
 -1      4126 8.50576E-05-2.05897E-05-2.75863E-05-3.75634E-07-7.80631E-19 7.36757E-19
 -1      4127 8.78818E-05-2.21229E-05-2.81964E-05-1.46507E-06-3.11149E-19-1.54033E-19
 -1      4128 8.87117E-05-2.26246E-05-2.83348E-05-1.32766E-06-4.40732E-22 1.24439E-19
 -1      4129 8.72152E-05-2.16932E-05-2.80424E-05-4.80375E-07-6.33009E-19 2.78181E-19
 -1      4130 8.94885E-05-2.31212E-05-2.84536E-05-1.27498E-06-8.49225E-20 3.94415E-19
 -1      4131 9.01596E-05-2.35871E-05-2.85404E-05-1.14531E-06 3.51173E-19 1.14644E-19
 -1      4132 8.89337E-05-2.27220E-05-2.83459E-05-5.18104E-07 3.68987E-19 6.08553E-19
 -1      4133 9.07906E-05-2.40417E-05-2.86145E-05-1.08610E-06 7.88196E-19-1.61513E-20
 -1      4134 9.13310E-05-2.44630E-05-2.86652E-05-9.64226E-07 4.06017E-19-1.74693E-19
 -1      4135 9.03304E-05-2.36773E-05-2.85414E-05-5.02743E-07 2.18554E-19 9.40741E-19
 -1      4136 9.18408E-05-2.48691E-05-2.87080E-05-9.04191E-07 1.82844E-19-2.35988E-19
 -1      4137 9.22725E-05-2.52406E-05-2.87340E-05-7.92461E-07-6.62036E-20 2.47316E-19
 -1      4138 9.14635E-05-2.45442E-05-2.86606E-05-4.56575E-07 1.86257E-19 1.49404E-19
 -1      4139 9.26804E-05-2.55947E-05-2.87553E-05-7.35665E-07 1.08754E-19 1.11582E-19
 -1      4140 9.30216E-05-2.59148E-05-2.87649E-05-6.36181E-07 5.73909E-19 3.51731E-19
 -1      4141 9.23756E-05-2.53119E-05-2.87265E-05-3.95075E-07 2.05223E-19 1.07555E-18
 -1      4142 9.33441E-05-2.62168E-05-2.87720E-05-5.85164E-07 7.66711E-19 5.68845E-19
 -1      4143 9.36104E-05-2.64868E-05-2.87711E-05-4.99084E-07 9.83567E-19 9.78272E-19
 -1      4144 9.31017E-05-2.59763E-05-2.87563E-05-3.28873E-07 6.28889E-19 9.47075E-19
 -1      4145 9.38618E-05-2.67391E-05-2.87691E-05-4.55121E-07 4.17834E-19 1.20025E-18
 -1      4146 9.40668E-05-2.69624E-05-2.87621E-05-3.82596E-07 3.09345E-20 1.09487E-18
 -1      4147 9.36724E-05-2.65390E-05-2.87625E-05-2.64838E-07 7.55309E-19 1.27827E-18
 -1      4148 9.42598E-05-2.71692E-05-2.87548E-05-3.46010E-07 1.30710E-20 8.06512E-19
 -1      4149 9.44152E-05-2.73504E-05-2.87444E-05-2.86384E-07 2.51081E-19 2.36918E-19
 -1      4150 9.41146E-05-2.70061E-05-2.87540E-05-2.06962E-07 3.25562E-19 2.03532E-18
 -1      4151 9.45610E-05-2.75169E-05-2.87344E-05-2.56852E-07 8.46087E-19 1.17437E-19
 -1      4152 9.46769E-05-2.76615E-05-2.87227E-05-2.08933E-07 1.20907E-18 1.77787E-19
 -1      4153 9.44518E-05-2.73866E-05-2.87372E-05-1.57148E-07 2.27134E-19 1.53889E-18
 -1      4154 9.47850E-05-2.77931E-05-2.87116E-05-1.85747E-07 5.47658E-19-4.62137E-19
 -1      4155 9.48697E-05-2.79064E-05-2.86999E-05-1.48056E-07 1.32564E-19-1.39750E-19
 -1      4156 9.47046E-05-2.76909E-05-2.87164E-05-1.15889E-07 3.18316E-19 7.30056E-19
 -1      4157 9.49483E-05-2.80088E-05-2.86889E-05-1.30324E-07-9.15345E-19 1.45289E-19
 -1      4158 9.50089E-05-2.80961E-05-2.86779E-05-1.01291E-07-1.53404E-18-9.66122E-19
 -1      4159 9.48904E-05-2.79301E-05-2.86946E-05-8.27958E-08-7.70961E-19 8.21002E-19
 -1      4160 9.50646E-05-2.81742E-05-2.86676E-05-8.80794E-08-1.50238E-18-1.13591E-18
 -1      4161 9.51067E-05-2.82403E-05-2.86577E-05-6.61778E-08-9.79772E-19-1.13842E-18
 -1      4162 9.50241E-05-2.81149E-05-2.86735E-05-5.69987E-08-1.42001E-18 6.00702E-19
 -1      4163 9.51450E-05-2.82988E-05-2.86486E-05-5.65970E-08-4.36643E-19-1.57106E-18
 -1      4164 9.51734E-05-2.83479E-05-2.86400E-05-4.04308E-08-2.76464E-19-1.66122E-18
 -1      4165 9.51177E-05-2.82550E-05-2.86542E-05-3.74194E-08-8.06224E-19 1.08051E-18
 -1      4166 9.51987E-05-2.83909E-05-2.86320E-05-3.36872E-08 1.74567E-19-2.12370E-18
 -1      4167 9.52169E-05-2.84266E-05-2.86247E-05-2.20333E-08 4.04430E-19-1.64356E-18
 -1      4168 9.51811E-05-2.83592E-05-2.86371E-05-2.29491E-08-2.42133E-19-6.10494E-19
 -1      4169 9.52327E-05-2.84575E-05-2.86180E-05-1.74453E-08 4.51099E-19-1.69521E-18
 -1      4170 9.52436E-05-2.84829E-05-2.86119E-05-9.27132E-09 5.90204E-19-1.52683E-18
 -1      4171 9.52220E-05-2.84351E-05-2.86225E-05-1.25550E-08 7.01431E-19-2.51297E-18
 -1      4172 9.52526E-05-2.85046E-05-2.86063E-05-6.23607E-09 8.38337E-19-1.29598E-18
 -1      4173 9.52583E-05-2.85221E-05-2.86013E-05-8.91768E-10 1.90322E-18-1.84530E-18
 -1      4174 9.52467E-05-2.84893E-05-2.86101E-05-5.31308E-09 1.28917E-18-7.39772E-19
 -1      4175 9.05559E-05-2.39976E-05-2.85397E-05 2.33313E-06-4.14606E-19 1.78852E-18
 -1      4176 9.00749E-05-2.36675E-05-2.84589E-05 2.67583E-06-2.78493E-19 1.60845E-18
 -1      4177 8.23468E-05-2.27763E-05-2.53464E-05-1.54339E-05-4.31011E-19-1.04328E-18
 -1      4178 8.93126E-05-2.82282E-05-2.61671E-05-1.60591E-05-5.69625E-19-7.39546E-19
 -1      4179 8.93850E-05-2.33000E-05-2.83410E-05 3.02978E-06-1.61627E-19 1.47411E-18
 -1      4180 8.88489E-05-2.30045E-05-2.82160E-05 3.46895E-06-1.00761E-19 9.99862E-19
 -1      4181 8.92433E-05-2.30665E-05-2.83299E-05 2.27090E-06-3.46982E-19 2.01633E-18
 -1      4182 9.23904E-05-2.53684E-05-2.87330E-05 1.37077E-06-5.61687E-19 2.00364E-18
 -1      4183 9.20376E-05-2.50533E-05-2.87076E-05 1.58770E-06-6.15003E-19 2.59670E-18
 -1      4184 9.30766E-05-2.59745E-05-2.87654E-05 1.03957E-06-4.59050E-19 1.43654E-18
 -1      4185 9.27858E-05-2.56895E-05-2.87558E-05 1.21299E-06-5.05113E-19 1.73540E-18
 -1      4186 9.23897E-05-2.53341E-05-2.87217E-05 9.78842E-07-4.07045E-19 1.15157E-18
 -1      4187 9.36295E-05-2.65063E-05-2.87729E-05 7.80155E-07-6.81659E-20 1.53211E-18
 -1      4188 9.33951E-05-2.62572E-05-2.87736E-05 9.18326E-07-1.10254E-19 1.20929E-18
 -1      4189 9.30889E-05-2.59643E-05-2.87547E-05 7.33311E-07 3.94445E-20 7.65149E-19
 -1      4190 9.40667E-05-2.69596E-05-2.87647E-05 5.77926E-07-1.85884E-19 1.30179E-18
 -1      4191 9.38818E-05-2.67482E-05-2.87717E-05 6.87268E-07-2.18351E-19 1.41164E-18
 -1      4192 9.36476E-05-2.65098E-05-2.87633E-05 5.44623E-07 3.45398E-20 6.01659E-19
 -1      4193 9.44061E-05-2.73367E-05-2.87475E-05 4.21444E-07-6.41221E-19 9.62400E-19
 -1      4194 9.42631E-05-2.71615E-05-2.87579E-05 5.07178E-07-2.18111E-19 1.22236E-18
 -1      4195 9.40863E-05-2.69704E-05-2.87563E-05 3.99891E-07 4.87703E-20 1.48073E-19
 -1      4196 9.46644E-05-2.76434E-05-2.87259E-05 3.01525E-07-1.26117E-18 7.12467E-19
 -1      4197 9.45562E-05-2.75015E-05-2.87377E-05 3.68006E-07-1.22827E-18 4.27216E-19
 -1      4198 9.44248E-05-2.73506E-05-2.87403E-05 2.89402E-07-7.10756E-19-1.97365E-20
 -1      4199 9.48570E-05-2.78880E-05-2.87030E-05 2.10685E-07-6.13845E-19 1.32229E-19
 -1      4200 9.47769E-05-2.77753E-05-2.87149E-05 2.61587E-07-4.41989E-19 8.26310E-19
 -1      4201 9.46810E-05-2.76580E-05-2.87199E-05 2.05667E-07-9.85265E-19 3.87287E-19
 -1      4202 9.49975E-05-2.80792E-05-2.86807E-05 1.42791E-07-8.39825E-19 6.85109E-19
 -1      4203 9.49396E-05-2.79915E-05-2.86920E-05 1.81216E-07-1.27391E-18-2.71167E-19
 -1      4204 9.48711E-05-2.79018E-05-2.86981E-05 1.42813E-07-7.89033E-19-6.82657E-19
 -1      4205 9.50972E-05-2.82259E-05-2.86602E-05 9.28292E-08-6.55784E-19 6.43099E-19
 -1      4206 9.50566E-05-2.81589E-05-2.86704E-05 1.21378E-07-2.12513E-19 1.11308E-18
 -1      4207 9.50089E-05-2.80915E-05-2.86768E-05 9.61889E-08-8.89541E-19-1.18224E-18
 -1      4208 9.51659E-05-2.83361E-05-2.86421E-05 5.67176E-08 7.07585E-19 6.81849E-19
 -1      4209 9.51384E-05-2.82860E-05-2.86509E-05 7.75510E-08-5.83731E-19 6.52230E-19
 -1      4210 9.51063E-05-2.82363E-05-2.86571E-05 6.20936E-08-5.66152E-19-5.96952E-19
 -1      4211 9.52112E-05-2.84173E-05-2.86265E-05 3.11658E-08 1.45976E-18 2.34088E-18
 -1      4212 9.51935E-05-2.83806E-05-2.86340E-05 4.60568E-08 1.44654E-18 1.95844E-18
 -1      4213 9.51728E-05-2.83447E-05-2.86396E-05 3.75844E-08 2.03678E-20 9.78519E-19
 -1      4214 9.52395E-05-2.84758E-05-2.86134E-05 1.35472E-08 6.12117E-19 3.13904E-18
 -1      4215 9.52288E-05-2.84495E-05-2.86196E-05 2.39255E-08 1.40601E-18 2.08064E-18
 -1      4216 9.52163E-05-2.84242E-05-2.86246E-05 2.03328E-08 8.19274E-19 1.97490E-18
 -1      4217 9.52557E-05-2.85169E-05-2.86025E-05 1.94923E-09-6.20735E-19 1.77604E-18
 -1      4218 9.52499E-05-2.84986E-05-2.86076E-05 8.73737E-09 4.66559E-19 2.51750E-18
 -1      4219 9.52429E-05-2.84812E-05-2.86119E-05 8.46095E-09 9.19180E-19 1.79173E-18
 -1      4220 7.61551E-05-1.43387E-05-2.64344E-05 4.11734E-06 3.67760E-19-1.40952E-18
 -1      4221 8.31193E-05-2.23639E-05-2.60550E-05 9.47544E-06-1.23527E-18 1.70740E-18
 -1      4222 8.30573E-05-2.34460E-05-2.55207E-05 1.14905E-05-6.16606E-19 1.41478E-18
 -1      4223 7.08648E-05-1.61586E-05-2.32809E-05 1.62616E-06-5.71334E-21 2.83533E-18
 -1      4224 7.24133E-05-1.67480E-05-2.39014E-05-1.90175E-06 4.27305E-20 2.11544E-18
 -1      4225 9.47594E-05-3.18098E-05-2.68631E-05-1.60720E-05-6.26692E-19-2.11478E-19
 -1      4226 9.52617E-05-2.85334E-05-2.85978E-05 4.05845E-10 2.87766E-18-2.32027E-18
 -1      4227 9.52641E-05-2.85458E-05-2.85936E-05 3.70001E-09 3.10622E-18-1.62140E-18
 -1      4228 9.52644E-05-2.85443E-05-2.85943E-05 1.43468E-09 2.44987E-18-2.88739E-18
 -1      4229 9.52592E-05-2.85235E-05-2.86009E-05-8.12767E-10 2.41787E-18-1.40884E-18
 -1      4230 8.01398E-05-2.23861E-05-2.48350E-05 1.19930E-05-7.02151E-19 1.97450E-18
 -1      4231 9.15547E-05-2.47009E-05-2.86632E-05 1.79306E-06-1.21918E-18 2.31162E-18
 -1      4232 9.11370E-05-2.43680E-05-2.86149E-05 2.06473E-06-7.16635E-19 2.00615E-18
 -1      4233 9.15293E-05-2.46272E-05-2.86516E-05 1.29878E-06-8.31836E-19 2.15431E-18
 -1      4234 7.46647E-05-1.73924E-05-2.45658E-05-2.27665E-06-1.69698E-19 1.80184E-18
 -1      4235 8.49048E-05-2.20201E-05-2.69828E-05 6.84207E-06-1.34369E-18 1.51111E-18
 -1      4236 8.44016E-05-2.21995E-05-2.66345E-05 7.87441E-06-1.63983E-18 1.47516E-18
 -1      4237 7.40200E-05-1.53430E-05-2.50936E-05-7.68168E-06-5.99243E-20-1.15061E-18
 -1      4238 7.67766E-05-1.77925E-05-2.53004E-05-1.90228E-06-4.91167E-19 1.52943E-18
 -1      4239 9.04873E-05-2.38612E-05-2.85283E-05 1.71774E-06-5.60778E-19 2.25037E-18
 -1      4240 7.75663E-05-1.79697E-05-2.55047E-05 4.38891E-07-5.48772E-19 1.72156E-18
 -1      4241 9.52661E-05-2.85581E-05-2.85892E-05-1.12357E-09 1.48091E-18-2.73849E-18
 -1      4242 9.52658E-05-2.85562E-05-2.85899E-05-3.56295E-09 1.61805E-18-2.48372E-18
 -1      4243 9.52655E-05-2.85499E-05-2.85924E-05 3.05434E-10 1.02380E-18-3.72262E-18
 -1      4244 8.77738E-05-2.22898E-05-2.80284E-05 3.00689E-06-4.36388E-19 1.29240E-18
 -1      4245 8.80343E-05-2.26618E-05-2.80396E-05 3.94392E-06-4.61808E-19 1.05808E-18
 -1      4246 8.74576E-05-2.24560E-05-2.78549E-05 4.52917E-06-8.46607E-19 8.06231E-19
 -1      4247 7.52597E-05-1.39039E-05-2.63305E-05 2.31123E-06 3.49886E-19-1.21776E-18
 -1      4248 9.52597E-05-2.85289E-05-2.85988E-05-2.50494E-10-2.82158E-19 1.24572E-18
 -1      4249 9.52569E-05-2.85183E-05-2.86023E-05 9.97504E-10 1.10125E-19-1.70994E-19
 -1      4250 9.52620E-05-2.85390E-05-2.85956E-05-3.73972E-09-2.42867E-19 2.89355E-19
 -1      4251 7.23367E-05-1.75164E-05-2.35770E-05 5.57076E-06-5.53920E-19 2.60400E-18
 -1      4252 8.17484E-05-2.10007E-05-2.60050E-05 7.82019E-06-1.44454E-18 1.79215E-18
 -1      4253 7.65705E-05-1.97830E-05-2.42277E-05 9.84520E-06-1.09423E-18 2.43525E-18
 -1      4254 7.44232E-05-1.37338E-05-2.59976E-05-2.44336E-06 2.38723E-19-9.76354E-19
 -1      4255 7.42147E-05-1.34949E-05-2.59928E-05-6.54409E-07 2.44309E-19-1.10128E-18
 -1      4256 8.65442E-05-2.21971E-05-2.76001E-05 5.15814E-06-1.06327E-18 7.45105E-19
 -1      4257 8.59565E-05-2.21257E-05-2.73414E-05 5.94382E-06-1.07931E-18 1.03043E-18
 -1      4258 8.40986E-05-2.11113E-05-2.69697E-05 5.38010E-06-9.64171E-19 6.24098E-19
 -1      4259 8.60661E-05-2.16551E-05-2.76028E-05 4.01033E-06-1.15291E-18 1.08399E-18
 -1      4260 7.35404E-05-1.46910E-05-2.51922E-05-4.83906E-06 6.44274E-20-1.09787E-18
 -1      4261 8.18781E-05-1.95466E-05-2.67461E-05 1.44080E-06-5.98552E-19 1.20651E-18
 -1      4262 8.32935E-05-2.00575E-05-2.71311E-05 1.27088E-06-1.14279E-18 4.70068E-19
 -1      4263 8.52068E-05-2.09637E-05-2.75589E-05 1.69717E-06-1.03104E-18 9.11025E-19
 -1      4264 8.63304E-05-2.14644E-05-2.78182E-05 1.50633E-06-7.96235E-19 7.47164E-19
 -1      4265 8.71666E-05-2.18894E-05-2.80083E-05 1.15114E-06-5.95828E-19 1.09140E-18
 -1      4266 8.81209E-05-2.23841E-05-2.81899E-05 1.03714E-06 2.43239E-19 1.37063E-18
 -1      4267 8.88381E-05-2.28243E-05-2.83183E-05 7.77785E-07 1.29455E-19 1.66365E-18
 -1      4268 8.96171E-05-2.32946E-05-2.84381E-05 7.17289E-07 1.03716E-19 2.07160E-18
 -1      4269 9.02201E-05-2.37207E-05-2.85209E-05 5.24214E-07-3.68136E-19 2.09330E-18
 -1      4270 9.08544E-05-2.41564E-05-2.85964E-05 4.96236E-07-4.82293E-19 1.46530E-18
 -1      4271 9.13546E-05-2.45523E-05-2.86462E-05 3.51247E-07-3.26960E-19 1.11260E-18
 -1      4272 9.18675E-05-2.49447E-05-2.86904E-05 3.43569E-07-1.59364E-19 5.54920E-19
 -1      4273 9.22764E-05-2.53005E-05-2.87171E-05 2.33777E-07 1.15023E-19 5.04743E-19
 -1      4274 9.26871E-05-2.56447E-05-2.87397E-05 2.38072E-07 4.58809E-19 1.17836E-18
 -1      4275 9.30163E-05-2.59553E-05-2.87507E-05 1.54448E-07 3.30077E-19 5.65550E-19
 -1      4276 9.33410E-05-2.62502E-05-2.87588E-05 1.65041E-07 6.16485E-19 2.79554E-19
 -1      4277 9.36019E-05-2.65148E-05-2.87596E-05 1.01174E-07 5.21406E-19 2.24490E-19
 -1      4278 9.38551E-05-2.67620E-05-2.87585E-05 1.14340E-07 4.82349E-19 7.34035E-19
 -1      4279 9.40583E-05-2.69822E-05-2.87530E-05 6.55782E-08 4.58969E-19 4.15252E-19
 -1      4280 9.42528E-05-2.71854E-05-2.87464E-05 7.90128E-08 3.86407E-19 7.41294E-19
 -1      4281 9.44082E-05-2.73650E-05-2.87374E-05 4.19012E-08-4.57030E-19 9.19355E-19
 -1      4282 9.45552E-05-2.75289E-05-2.87279E-05 5.43040E-08-1.17038E-18 2.40848E-19
 -1      4283 9.46719E-05-2.76726E-05-2.87174E-05 2.62215E-08-5.14652E-19 9.66377E-20
 -1      4284 9.47808E-05-2.78023E-05-2.87067E-05 3.69663E-08 2.45654E-19-1.71232E-19
 -1      4285 9.48666E-05-2.79151E-05-2.86960E-05 1.58893E-08-3.30227E-19-1.13516E-19
 -1      4286 9.49457E-05-2.80161E-05-2.86853E-05 2.47786E-08-1.24132E-18-4.24734E-19
 -1      4287 9.50073E-05-2.81030E-05-2.86750E-05 9.12586E-09-1.40033E-18-3.71756E-19
 -1      4288 9.50633E-05-2.81801E-05-2.86650E-05 1.62146E-08-9.91565E-19-2.38202E-19
 -1      4289 9.51063E-05-2.82459E-05-2.86557E-05 4.74151E-09-8.05276E-19 1.99174E-19
 -1      4290 9.51448E-05-2.83036E-05-2.86467E-05 1.02173E-08-5.85705E-19-1.97675E-19
 -1      4291 9.51737E-05-2.83524E-05-2.86385E-05 1.94315E-09-2.05246E-19-3.71618E-20
 -1      4292 9.51991E-05-2.83948E-05-2.86307E-05 6.04763E-09 4.21584E-19 6.09737E-20
 -1      4293 9.52176E-05-2.84302E-05-2.86237E-05 2.05820E-10 2.92798E-19 4.09540E-19
 -1      4294 9.52335E-05-2.84607E-05-2.86170E-05 3.19580E-09 9.53057E-19 3.06332E-19
 -1      4295 9.52445E-05-2.84857E-05-2.86112E-05-8.15031E-10 1.49309E-18-4.10112E-19
 -1      4296 9.52533E-05-2.85069E-05-2.86056E-05 9.40286E-10 1.55549E-18 4.59538E-20
 -1      4297 7.64959E-05-1.87487E-05-2.47534E-05 5.71214E-06-7.25967E-19 2.51783E-18
 -1      4298 9.52650E-05-2.85561E-05-2.85896E-05-7.26233E-09-1.18005E-19 6.04295E-20
 -1      4299 9.52641E-05-2.85483E-05-2.85924E-05-5.15677E-09-3.51127E-19-6.13187E-20
 -1      4300 9.52632E-05-2.85406E-05-2.85953E-05-2.71532E-09 1.09247E-19-6.23658E-19
 -1      4301 9.52657E-05-2.85576E-05-2.85893E-05-5.03254E-09 9.49792E-19-1.36770E-18
 -1      4302 9.52577E-05-2.85200E-05-2.86018E-05 7.26037E-10 6.22687E-19-1.06617E-18
 -1      4303 9.52590E-05-2.85234E-05-2.86011E-05-1.26115E-09 1.13887E-18-1.22353E-18
 -1      4304 9.52639E-05-2.85411E-05-2.85955E-05-4.64835E-10 1.44641E-18-3.11695E-18
 -1      4305 8.06222E-05-1.98006E-05-2.61138E-05 5.16337E-06-7.12014E-19 1.22568E-18
 -1      4306 7.90801E-05-1.97999E-05-2.54563E-05 6.73757E-06-9.92795E-19 2.31229E-18
 -1      4307 8.41286E-05-2.07892E-05-2.71544E-05 3.74173E-06-8.75653E-19 7.00915E-19
 -1      4308 8.29508E-05-2.04653E-05-2.67844E-05 4.45829E-06-8.67770E-19 6.34357E-19
 -1      4309 7.61053E-05-1.77026E-05-2.49707E-05 2.74032E-06-5.12383E-19 2.49387E-18
 -1      4310 7.97592E-05-1.88583E-05-2.61063E-05 1.70267E-06-2.23375E-19 1.50395E-18
 -1      4311 8.09722E-05-1.94224E-05-2.63438E-05 3.33038E-06-6.24664E-19 1.31492E-18
 -1      4312 9.52652E-05-2.85483E-05-2.85928E-05-2.58130E-09 5.63790E-19-2.01674E-18
 -1      4313 8.51222E-05-2.10471E-05-2.74323E-05 3.17603E-06-1.12362E-18 9.72568E-19
 -1      4314 9.52622E-05-2.85346E-05-2.85975E-05 7.79322E-11 1.36052E-18-2.57222E-18
 -1      4315 9.52638E-05-2.85428E-05-2.85948E-05-2.09447E-09 2.02163E-19-1.79095E-18
 -1      4316 9.52618E-05-2.85326E-05-2.85981E-05-1.06701E-09-1.72348E-19-2.00129E-18
 -1      4317 9.52634E-05-2.85409E-05-2.85955E-05-1.22559E-09 2.34719E-19-2.87004E-18
 -3
    1PSTEP                         4           1           1          
  100CL  101 1.000000000        4317                     0    1           1
 -4  ERROR       1    1
 -5  STR(%)      1    1    0    0
 -1         1 1.20996E+01
 -1         2 2.52027E+01
 -1         3 3.63052E-04
 -1         4 4.37834E-04
 -1         5 1.31885E+01
 -1         6 1.21729E+01
 -1         7 1.21729E+01
 -1         8 3.58853E+00
 -1         9 2.10173E+00
 -1        10 1.52872E+00
 -1        11 1.20542E+00
 -1        12 9.37926E-01
 -1        13 6.98667E-01
 -1        14 5.09866E-01
 -1        15 5.85288E-01
 -1        16 7.78539E-01
 -1        17 9.83792E-01
 -1        18 1.24193E+00
 -1        19 1.55064E+00
 -1        20 2.07249E+00
 -1        21 3.44678E+00
 -1        22 8.07883E+00
 -1        23 1.21729E+01
 -1        24 3.74227E+00
 -1        25 2.40735E+00
 -1        26 1.49541E+00
 -1        27 9.33316E-01
 -1        28 1.07837E+00
 -1        29 1.43953E+00
 -1        30 1.53564E+00
 -1        31 1.54052E+00
 -1        32 1.54052E+00
 -1        33 2.08821E+00
 -1        34 3.73570E+00
 -1        35 4.96179E+00
 -1        36 4.98242E+00
 -1        37 4.98242E+00
 -1        38 4.60063E+00
 -1        39 2.82966E+00
 -1        40 1.92332E+00
 -1        41 1.68765E+00
 -1        42 1.71986E+00
 -1        43 1.71986E+00
 -1        44 1.60056E+00
 -1        45 1.34108E+00
 -1        46 1.06609E+00
 -1        47 8.43232E-01
 -1        48 6.49652E-01
 -1        49 5.46323E-01
 -1        50 4.43016E-01
 -1        51 3.48835E-01
 -1        52 2.67794E-01
 -1        53 2.00812E-01
 -1        54 1.47119E-01
 -1        55 1.11707E-01
 -1        56 9.22420E-02
 -1        57 7.45862E-02
 -1        58 5.91636E-02
 -1        59 4.60708E-02
 -1        60 3.52073E-02
 -1        61 2.63637E-02
 -1        62 2.08792E-02
 -1        63 1.71140E-02
 -1        64 1.36922E-02
 -1        65 1.06559E-02
 -1        66 7.99062E-03
 -1        67 5.83034E-03
 -1        68 4.28611E-03
 -1        69 3.74039E-03
 -1        70 2.88655E-03
 -1        71 2.12850E-03
 -1        72 1.31885E+01
 -1        73 3.05724E+00
 -1        74 1.87740E+00
 -1        75 1.28295E+00
 -1        76 8.83845E-01
 -1        77 5.83445E-01
 -1        78 6.23398E-01
 -1        79 7.87197E-01
 -1        80 1.02273E+00
 -1        81 1.22477E+00
 -1        82 1.49504E+00
 -1        83 2.15391E+00
 -1        84 2.84072E+00
 -1        85 3.15132E+00
 -1        86 3.34683E+00
 -1        87 3.34683E+00
 -1        88 2.69124E+00
 -1        89 1.66680E+00
 -1        90 1.12514E+00
 -1        91 8.83196E-01
 -1        92 1.00546E+00
 -1        93 1.02514E+00
 -1        94 1.02514E+00
 -1        95 9.35049E-01
 -1        96 7.92551E-01
 -1        97 6.66024E-01
 -1        98 5.34721E-01
 -1        99 4.11737E-01
 -1       100 3.04758E-01
 -1       101 2.41414E-01
 -1       102 1.86347E-01
 -1       103 1.39811E-01
 -1       104 1.01925E-01
 -1       105 7.20225E-02
 -1       106 4.90608E-02
 -1       107 4.13141E-02
 -1       108 3.40476E-02
 -1       109 2.74262E-02
 -1       110 2.16217E-02
 -1       111 1.79754E-02
 -1       112 1.57684E-02
 -1       113 1.34064E-02
 -1       114 1.10702E-02
 -1       115 8.84754E-03
 -1       116 6.86056E-03
 -1       117 5.13775E-03
 -1       118 3.68787E-03
 -1       119 2.84395E-03
 -1       120 1.48864E-03
 -1       121 7.19490E-04
 -1       122 7.19490E-04
 -1       123 4.62945E-04
 -1       124 1.63923E-04
 -1       125 3.47170E-04
 -1       126 4.68340E-04
 -1       127 5.33909E-04
 -1       128 5.51297E-04
 -1       129 5.51297E-04
 -1       130 5.34489E-04
 -1       131 4.65270E-04
 -1       132 3.48574E-04
 -1       133 1.62940E-04
 -1       134 4.71789E-04
 -1       135 9.56184E-04
 -1       136 1.18575E-03
 -1       137 2.52946E+01
 -1       138 4.57679E+01
 -1       139 4.57679E+01
 -1       140 1.83221E+01
 -1       141 1.22244E+01
 -1       142 1.22244E+01
 -1       143 1.18022E+01
 -1       144 1.23810E+01
 -1       145 1.23810E+01
 -1       146 1.36128E+01
 -1       147 3.41571E+01
 -1       148 3.41571E+01
 -1       149 2.69972E+01
 -1       150 2.62586E+01
 -1       151 2.62586E+01
 -1       152 2.90686E+01
 -1       153 2.90686E+01
 -1       154 2.78863E+01
 -1       155 1.30343E+01
 -1       156 1.35806E+01
 -1       157 1.35806E+01
 -1       158 1.20996E+01
 -1       159 1.17495E+01
 -1       160 2.13776E+01
 -1       161 4.80388E+01
 -1       162 4.80388E+01
 -1       163 2.52027E+01
 -1       164 5.78119E+00
 -1       165 2.53014E+00
 -1       166 1.78680E+00
 -1       167 1.35815E+00
 -1       168 1.04109E+00
 -1       169 7.82465E-01
 -1       170 5.68530E-01
 -1       171 4.71929E-01
 -1       172 6.50472E-01
 -1       173 8.55127E-01
 -1       174 1.10411E+00
 -1       175 1.39684E+00
 -1       176 1.80247E+00
 -1       177 2.50214E+00
 -1       178 3.80310E+00
 -1       179 1.31885E+01
 -1       180 3.74227E+00
 -1       181 2.40735E+00
 -1       182 1.49541E+00
 -1       183 9.17336E-01
 -1       184 9.33316E-01
 -1       185 1.07837E+00
 -1       186 1.43953E+00
 -1       187 1.53564E+00
 -1       188 1.54052E+00
 -1       189 1.41015E+00
 -1       190 2.22734E+00
 -1       191 3.73570E+00
 -1       192 4.96179E+00
 -1       193 4.98242E+00
 -1       194 4.60063E+00
 -1       195 2.85683E+00
 -1       196 1.92332E+00
 -1       197 1.68765E+00
 -1       198 1.68710E+00
 -1       199 1.71986E+00
 -1       200 1.60056E+00
 -1       201 1.34108E+00
 -1       202 1.12134E+00
 -1       203 9.72947E-01
 -1       204 8.04194E-01
 -1       205 6.35053E-01
 -1       206 4.82720E-01
 -1       207 3.54469E-01
 -1       208 2.70496E-01
 -1       209 2.09356E-01
 -1       210 1.58592E-01
 -1       211 1.17622E-01
 -1       212 9.22420E-02
 -1       213 7.45862E-02
 -1       214 5.91636E-02
 -1       215 4.60708E-02
 -1       216 3.52073E-02
 -1       217 2.69861E-02
 -1       218 2.08792E-02
 -1       219 1.71140E-02
 -1       220 1.36922E-02
 -1       221 1.06559E-02
 -1       222 8.26886E-03
 -1       223 6.18361E-03
 -1       224 4.64732E-03
 -1       225 3.74039E-03
 -1       226 2.88655E-03
 -1       227 2.12850E-03
 -1       228 3.05724E+00
 -1       229 1.87740E+00
 -1       230 1.28295E+00
 -1       231 8.83845E-01
 -1       232 5.83445E-01
 -1       233 4.94683E-01
 -1       234 6.23398E-01
 -1       235 7.87197E-01
 -1       236 1.02273E+00
 -1       237 1.22477E+00
 -1       238 1.56993E+00
 -1       239 2.15391E+00
 -1       240 2.84072E+00
 -1       241 3.15132E+00
 -1       242 3.34683E+00
 -1       243 2.69124E+00
 -1       244 1.66680E+00
 -1       245 1.12514E+00
 -1       246 8.25468E-01
 -1       247 8.83196E-01
 -1       248 1.00546E+00
 -1       249 1.02514E+00
 -1       250 9.35049E-01
 -1       251 7.92551E-01
 -1       252 6.66024E-01
 -1       253 5.49110E-01
 -1       254 4.35769E-01
 -1       255 3.32853E-01
 -1       256 2.45024E-01
 -1       257 1.86347E-01
 -1       258 1.39811E-01
 -1       259 1.02672E-01
 -1       260 7.46503E-02
 -1       261 5.26705E-02
 -1       262 4.13141E-02
 -1       263 3.40476E-02
 -1       264 2.74262E-02
 -1       265 2.16217E-02
 -1       266 1.79754E-02
 -1       267 1.57684E-02
 -1       268 1.34064E-02
 -1       269 1.10702E-02
 -1       270 8.84754E-03
 -1       271 6.86056E-03
 -1       272 5.13775E-03
 -1       273 3.68787E-03
 -1       274 2.84395E-03
 -1       275 1.64547E-03
 -1       276 7.94055E-04
 -1       277 7.94055E-04
 -1       278 6.21565E-04
 -1       279 5.68505E-04
 -1       280 8.11948E-04
 -1       281 9.52618E-04
 -1       282 1.00632E-03
 -1       283 1.00661E-03
 -1       284 1.00661E-03
 -1       285 9.50981E-04
 -1       286 8.15994E-04
 -1       287 5.79207E-04
 -1       288 6.10399E-04
 -1       289 6.10399E-04
 -1       290 1.18575E-03
 -1       291 2.98081E+01
 -1       292 3.77292E+01
 -1       293 4.57679E+01
 -1       294 1.92098E+01
 -1       295 1.10574E+01
 -1       296 1.22244E+01
 -1       297 1.18022E+01
 -1       298 1.15671E+01
 -1       299 1.23810E+01
 -1       300 1.21022E+01
 -1       301 1.36128E+01
 -1       302 3.41571E+01
 -1       303 3.20158E+01
 -1       304 2.91181E+01
 -1       305 3.32550E+01
 -1       306 2.51514E+01
 -1       307 2.90686E+01
 -1       308 2.89639E+01
 -1       309 1.30343E+01
 -1       310 1.21853E+01
 -1       311 1.35806E+01
 -1       312 1.20379E+01
 -1       313 1.20996E+01
 -1       314 1.17495E+01
 -1       315 1.16863E+01
 -1       316 2.29447E+01
 -1       317 4.80388E+01
 -1       318 3.01938E+01
 -1       319 2.98081E+01
 -1       320 1.53176E+00
 -1       321 2.51727E+00
 -1       322 1.06026E+00
 -1       323 8.48131E-01
 -1       324 6.16493E-01
 -1       325 4.26450E-01
 -1       326 5.11073E-01
 -1       327 6.72538E-01
 -1       328 8.49371E-01
 -1       329 1.02031E+00
 -1       330 1.19675E+00
 -1       331 1.47120E+00
 -1       332 1.56053E+00
 -1       333 1.73721E+00
 -1       334 1.36164E+00
 -1       335 1.07483E+00
 -1       336 7.52670E-01
 -1       337 8.23715E-01
 -1       338 9.45691E-01
 -1       339 1.06002E+00
 -1       340 1.10366E+00
 -1       341 1.06830E+00
 -1       342 1.29485E+00
 -1       343 1.57741E+00
 -1       344 2.16845E+00
 -1       345 2.82393E+00
 -1       346 3.06654E+00
 -1       347 2.95368E+00
 -1       348 2.55592E+00
 -1       349 1.90234E+00
 -1       350 1.23339E+00
 -1       351 1.19976E+00
 -1       352 1.22591E+00
 -1       353 1.31507E+00
 -1       354 1.27171E+00
 -1       355 1.13866E+00
 -1       356 1.02555E+00
 -1       357 8.87947E-01
 -1       358 7.32851E-01
 -1       359 5.82485E-01
 -1       360 4.48630E-01
 -1       361 3.35945E-01
 -1       362 2.44821E-01
 -1       363 1.73409E-01
 -1       364 1.18913E-01
 -1       365 8.53192E-02
 -1       366 6.13229E-02
 -1       367 4.50678E-02
 -1       368 3.75218E-02
 -1       369 3.05463E-02
 -1       370 2.43444E-02
 -1       371 1.89859E-02
 -1       372 1.44828E-02
 -1       373 1.20571E-02
 -1       374 9.98719E-03
 -1       375 7.97612E-03
 -1       376 6.16098E-03
 -1       377 4.66543E-03
 -1       378 3.38923E-03
 -1       379 2.47265E-03
 -1       380 1.87438E-03
 -1       381 6.40435E-01
 -1       382 4.39863E-01
 -1       383 4.15906E-01
 -1       384 3.98185E-01
 -1       385 4.06442E-01
 -1       386 3.96470E-01
 -1       387 7.49991E-01
 -1       388 1.23165E+00
 -1       389 1.66803E+00
 -1       390 1.78834E+00
 -1       391 1.78834E+00
 -1       392 1.79320E+00
 -1       393 2.03896E+00
 -1       394 1.84477E+00
 -1       395 1.27833E+00
 -1       396 7.90238E-01
 -1       397 5.13438E-01
 -1       398 6.24409E-01
 -1       399 7.15032E-01
 -1       400 7.54597E-01
 -1       401 7.39422E-01
 -1       402 6.66205E-01
 -1       403 5.96106E-01
 -1       404 5.06633E-01
 -1       405 4.11940E-01
 -1       406 3.22465E-01
 -1       407 2.43781E-01
 -1       408 1.79176E-01
 -1       409 1.37429E-01
 -1       410 1.02672E-01
 -1       411 7.46503E-02
 -1       412 5.26705E-02
 -1       413 3.58566E-02
 -1       414 2.64160E-02
 -1       415 2.26308E-02
 -1       416 1.88381E-02
 -1       417 1.52652E-02
 -1       418 1.20342E-02
 -1       419 9.64044E-03
 -1       420 8.16751E-03
 -1       421 6.75437E-03
 -1       422 5.51114E-03
 -1       423 4.39691E-03
 -1       424 3.29163E-03
 -1       425 2.41412E-03
 -1       426 1.64547E-03
 -1       427 8.44865E-04
 -1       428 1.55649E-03
 -1       429 1.55649E-03
 -1       430 1.07325E-03
 -1       431 1.25984E-03
 -1       432 1.33606E-03
 -1       433 1.33606E-03
 -1       434 1.33489E-03
 -1       435 1.33489E-03
 -1       436 1.26601E-03
 -1       437 1.08221E-03
 -1       438 8.46505E-04
 -1       439 1.47741E-03
 -1       440 2.61778E+01
 -1       441 3.14652E+01
 -1       442 3.02275E+01
 -1       443 1.53249E+01
 -1       444 8.13157E+00
 -1       445 1.53176E+00
 -1       446 1.03192E+01
 -1       447 1.12033E+01
 -1       448 1.04918E+01
 -1       449 8.20092E+00
 -1       450 7.06237E+00
 -1       451 1.30229E+01
 -1       452 2.20515E+01
 -1       453 2.48260E+01
 -1       454 3.32550E+01
 -1       455 3.29763E+01
 -1       456 2.32694E+01
 -1       457 2.00360E+01
 -1       458 1.18616E+01
 -1       459 7.08161E+00
 -1       460 8.60098E+00
 -1       461 1.04801E+01
 -1       462 9.88956E+00
 -1       463 9.36232E+00
 -1       464 7.07146E+00
 -1       465 9.89397E+00
 -1       466 1.72180E+01
 -1       467 3.01938E+01
 -1       468 3.14652E+01
 -1       469 7.49114E+00
 -1       470 3.61906E+00
 -1       471 9.02084E+00
 -1       472 3.32550E+01
 -1       473 4.93676E+00
 -1       474 1.13263E+00
 -1       475 7.60916E-01
 -1       476 9.27866E-01
 -1       477 3.56231E-01
 -1       478 6.07801E-01
 -1       479 7.78309E-01
 -1       480 8.58490E-01
 -1       481 9.32756E-01
 -1       482 1.25491E+00
 -1       483 6.04928E-01
 -1       484 1.04824E+00
 -1       485 5.37770E+00
 -1       486 9.50799E-01
 -1       487 1.02928E+00
 -1       488 1.20433E+00
 -1       489 1.41753E+00
 -1       490 1.61550E+00
 -1       491 1.78963E+00
 -1       492 2.32200E+00
 -1       493 2.19541E+00
 -1       494 2.52261E+00
 -1       495 3.89831E+00
 -1       496 5.05574E+00
 -1       497 3.00511E+00
 -1       498 2.29980E+00
 -1       499 2.25351E+00
 -1       500 2.05151E+00
 -1       501 1.67151E+00
 -1       502 1.53398E+00
 -1       503 1.32715E+00
 -1       504 1.20580E+00
 -1       505 1.08052E+00
 -1       506 9.19761E-01
 -1       507 7.51616E-01
 -1       508 6.00779E-01
 -1       509 4.72648E-01
 -1       510 3.64199E-01
 -1       511 2.74752E-01
 -1       512 2.02931E-01
 -1       513 1.46558E-01
 -1       514 1.03207E-01
 -1       515 7.05176E-02
 -1       516 4.63559E-02
 -1       517 3.14134E-02
 -1       518 2.15590E-02
 -1       519 1.86957E-02
 -1       520 1.59967E-02
 -1       521 1.32722E-02
 -1       522 1.06878E-02
 -1       523 8.33302E-03
 -1       524 7.05237E-03
 -1       525 5.76487E-03
 -1       526 4.47108E-03
 -1       527 3.39810E-03
 -1       528 2.45032E-03
 -1       529 6.07544E-01
 -1       530 5.81156E-01
 -1       531 7.39887E-01
 -1       532 8.24923E-01
 -1       533 1.16484E+00
 -1       534 1.45378E+00
 -1       535 1.66803E+00
 -1       536 1.89455E+00
 -1       537 1.99787E+00
 -1       538 1.90794E+00
 -1       539 1.63893E+00
 -1       540 1.38865E+00
 -1       541 1.04426E+00
 -1       542 8.28711E-01
 -1       543 7.40369E-01
 -1       544 7.37461E-01
 -1       545 7.54248E-01
 -1       546 7.10705E-01
 -1       547 6.61718E-01
 -1       548 5.95114E-01
 -1       549 5.19356E-01
 -1       550 4.33686E-01
 -1       551 3.49092E-01
 -1       552 2.72050E-01
 -1       553 2.05682E-01
 -1       554 1.50868E-01
 -1       555 1.07127E-01
 -1       556 7.32589E-02
 -1       557 4.93190E-02
 -1       558 3.47201E-02
 -1       559 2.64160E-02
 -1       560 2.26308E-02
 -1       561 1.88381E-02
 -1       562 1.52652E-02
 -1       563 1.20342E-02
 -1       564 9.64044E-03
 -1       565 8.16751E-03
 -1       566 6.62374E-03
 -1       567 5.11155E-03
 -1       568 3.89436E-03
 -1       569 2.79160E-03
 -1       570 2.09033E-03
 -1       571 1.53976E-03
 -1       572 1.62491E-03
 -1       573 1.82337E-03
 -1       574 1.31848E-03
 -1       575 1.62491E-03
 -1       576 1.59885E-03
 -1       577 1.62918E-03
 -1       578 1.62918E-03
 -1       579 1.55875E-03
 -1       580 1.31449E-03
 -1       581 1.25997E-03
 -1       582 1.22012E+01
 -1       583 3.14652E+01
 -1       584 6.02460E-01
 -1       585 3.02275E+01
 -1       586 2.08121E+01
 -1       587 1.53176E+00
 -1       588 7.05063E+00
 -1       589 1.73548E+01
 -1       590 4.80357E-01
 -1       591 8.25342E+00
 -1       592 9.57300E+00
 -1       593 7.37121E+00
 -1       594 6.71852E+00
 -1       595 5.76481E+00
 -1       596 1.06317E+01
 -1       597 2.48260E+01
 -1       598 2.32694E+01
 -1       599 1.62893E+01
 -1       600 5.83888E+00
 -1       601 3.81657E+00
 -1       602 8.34576E+00
 -1       603 7.14544E+00
 -1       604 5.12682E+00
 -1       605 5.91390E+00
 -1       606 8.67483E+00
 -1       607 1.36352E+01
 -1       608 2.04217E+01
 -1       609 1.25491E+00
 -1       610 1.33289E+00
 -1       611 4.65558E+00
 -1       612 3.72267E+00
 -1       613 1.19431E+01
 -1       614 1.49165E-03
 -1       615 4.39570E+00
 -1       616 6.89444E+00
 -1       617 3.76839E+00
 -1       618 1.91223E+01
 -1       619 4.94264E+00
 -1       620 8.03301E-01
 -1       621 6.07581E-01
 -1       622 8.75927E-01
 -1       623 8.99963E-01
 -1       624 1.01863E+00
 -1       625 1.52647E+01
 -1       626 6.04928E-01
 -1       627 1.12224E+00
 -1       628 1.30913E+00
 -1       629 1.53274E+00
 -1       630 1.99369E+00
 -1       631 2.60194E+00
 -1       632 3.02559E+00
 -1       633 3.61279E+00
 -1       634 6.12146E+00
 -1       635 3.50609E+00
 -1       636 3.28908E+00
 -1       637 4.13846E+00
 -1       638 2.93405E+00
 -1       639 2.33958E+00
 -1       640 1.80868E+00
 -1       641 1.50815E+00
 -1       642 1.27308E+00
 -1       643 1.04695E+00
 -1       644 8.45792E-01
 -1       645 6.73612E-01
 -1       646 5.29299E-01
 -1       647 4.10217E-01
 -1       648 3.13339E-01
 -1       649 2.35633E-01
 -1       650 1.74192E-01
 -1       651 1.26321E-01
 -1       652 8.95872E-02
 -1       653 6.18511E-02
 -1       654 4.12718E-02
 -1       655 2.62987E-02
 -1       656 1.56501E-02
 -1       657 1.05097E-02
 -1       658 9.47545E-03
 -1       659 8.47334E-03
 -1       660 7.24218E-03
 -1       661 5.93816E-03
 -1       662 4.87338E-03
 -1       663 4.02647E-03
 -1       664 3.14411E-03
 -1       665 2.28767E-03
 -1       666 9.16065E-01
 -1       667 5.44879E+00
 -1       668 9.91395E+00
 -1       669 8.80040E-01
 -1       670 1.45395E+00
 -1       671 1.64294E+00
 -1       672 1.63513E+00
 -1       673 2.23535E+00
 -1       674 4.24001E+00
 -1       675 3.98659E+00
 -1       676 1.97289E+00
 -1       677 1.68216E+00
 -1       678 1.49630E+00
 -1       679 1.45800E+00
 -1       680 1.18610E+00
 -1       681 1.01537E+00
 -1       682 9.50397E-01
 -1       683 8.37802E-01
 -1       684 7.21066E-01
 -1       685 6.45126E-01
 -1       686 5.59996E-01
 -1       687 4.69185E-01
 -1       688 3.81586E-01
 -1       689 3.02301E-01
 -1       690 2.33722E-01
 -1       691 1.76452E-01
 -1       692 1.29995E-01
 -1       693 9.32565E-02
 -1       694 6.48808E-02
 -1       695 4.34653E-02
 -1       696 2.76855E-02
 -1       697 1.74889E-02
 -1       698 1.31670E-02
 -1       699 1.20014E-02
 -1       700 1.04556E-02
 -1       701 8.75980E-03
 -1       702 7.06411E-03
 -1       703 5.68676E-03
 -1       704 4.70065E-03
 -1       705 3.66737E-03
 -1       706 2.76074E-03
 -1       707 2.40217E-03
 -1       708 1.83096E-03
 -1       709 1.55763E-03
 -1       710 1.88258E-03
 -1       711 1.82868E-03
 -1       712 1.88258E-03
 -1       713 6.91678E-01
 -1       714 1.88766E-03
 -1       715 1.88766E-03
 -1       716 1.82740E-03
 -1       717 1.91898E-03
 -1       718 1.55442E+00
 -1       719 1.65259E+01
 -1       720 8.20222E+00
 -1       721 1.18174E+00
 -1       722 1.55442E+00
 -1       723 8.70166E-01
 -1       724 8.52920E+00
 -1       725 9.30514E+00
 -1       726 1.76503E+01
 -1       727 9.39863E-01
 -1       728 4.42172E+00
 -1       729 1.42550E+01
 -1       730 4.80816E+00
 -1       731 6.56049E+00
 -1       732 5.68523E+00
 -1       733 5.81704E+00
 -1       734 3.93857E+00
 -1       735 1.27781E+01
 -1       736 1.49596E+01
 -1       737 9.02019E+00
 -1       738 1.55442E+00
 -1       739 5.53975E-01
 -1       740 3.19491E+00
 -1       741 3.28799E+00
 -1       742 7.54710E+00
 -1       743 4.09766E+00
 -1       744 3.04619E+00
 -1       745 1.77918E-03
 -1       746 1.70944E-03
 -1       747 3.85958E+00
 -1       748 3.35664E+00
 -1       749 7.04904E-01
 -1       750 1.00799E+01
 -1       751 1.23837E+01
 -1       752 1.04310E+01
 -1       753 1.01203E+00
 -1       754 1.33994E+00
 -1       755 1.77146E+00
 -1       756 2.38130E+00
 -1       757 3.15723E+00
 -1       758 4.76524E+00
 -1       759 4.67911E+00
 -1       760 3.66732E+00
 -1       761 2.75759E+00
 -1       762 2.10491E+00
 -1       763 1.57621E+00
 -1       764 1.19567E+00
 -1       765 9.35625E-01
 -1       766 7.57122E-01
 -1       767 5.98588E-01
 -1       768 4.63477E-01
 -1       769 3.52079E-01
 -1       770 2.62468E-01
 -1       771 1.91837E-01
 -1       772 1.37169E-01
 -1       773 9.71030E-02
 -1       774 6.75419E-02
 -1       775 4.59819E-02
 -1       776 3.11178E-02
 -1       777 2.02328E-02
 -1       778 1.24315E-02
 -1       779 6.98587E-03
 -1       780 5.91362E-03
 -1       781 5.99889E-03
 -1       782 5.58037E-03
 -1       783 4.87338E-03
 -1       784 4.02647E-03
 -1       785 3.35539E-03
 -1       786 2.99506E-03
 -1       787 2.01419E-03
 -1       788 2.94231E+00
 -1       789 2.37890E+00
 -1       790 4.24001E+00
 -1       791 2.10943E+00
 -1       792 2.20153E+00
 -1       793 2.01905E+00
 -1       794 2.37834E+00
 -1       795 1.54466E+00
 -1       796 1.30184E+00
 -1       797 1.05174E+00
 -1       798 8.71450E-01
 -1       799 7.42308E-01
 -1       800 6.18374E-01
 -1       801 5.04247E-01
 -1       802 4.01528E-01
 -1       803 3.13825E-01
 -1       804 2.42885E-01
 -1       805 1.84944E-01
 -1       806 1.38384E-01
 -1       807 1.01565E-01
 -1       808 7.29192E-02
 -1       809 5.10068E-02
 -1       810 3.45466E-02
 -1       811 2.24272E-02
 -1       812 1.37064E-02
 -1       813 8.03450E-03
 -1       814 7.08527E-03
 -1       815 6.88319E-03
 -1       816 6.23443E-03
 -1       817 5.34317E-03
 -1       818 4.35190E-03
 -1       819 3.63810E-03
 -1       820 2.89619E-03
 -1       821 2.26650E-03
 -1       822 9.14442E-01
 -1       823 2.27826E-03
 -1       824 1.84853E-03
 -1       825 7.04371E+00
 -1       826 3.85958E+00
 -1       827 1.27176E+00
 -1       828 7.40766E-01
 -1       829 9.13551E+00
 -1       830 2.77100E-03
 -1       831 5.81160E+00
 -1       832 3.98659E+00
 -1       833 4.65558E+00
 -1       834 1.03109E+01
 -1       835 7.01556E+00
 -1       836 9.68666E+00
 -1       837 5.14485E+00
 -1       838 3.56472E+00
 -1       839 1.08463E+01
 -1       840 1.04310E+01
 -1       841 8.04691E-01
 -1       842 1.01203E+00
 -1       843 2.43139E+00
 -1       844 1.22318E+00
 -1       845 2.03471E-03
 -1       846 1.48233E+00
 -1       847 1.98520E-03
 -1       848 7.24768E+00
 -1       849 2.37117E+00
 -1       850 4.58605E+00
 -1       851 2.03471E-03
 -1       852 1.23709E+00
 -1       853 6.71573E+00
 -1       854 1.42613E+00
 -1       855 1.00277E+00
 -1       856 6.42520E+00
 -1       857 1.22318E+00
 -1       858 2.85211E+00
 -1       859 4.18602E+00
 -1       860 8.34915E-01
 -1       861 2.40791E+00
 -1       862 2.84256E+00
 -1       863 7.59050E+00
 -1       864 6.59187E+00
 -1       865 3.74810E+00
 -1       866 2.01555E+00
 -1       867 1.51744E+00
 -1       868 1.19567E+00
 -1       869 9.35625E-01
 -1       870 7.26434E-01
 -1       871 5.60498E-01
 -1       872 4.28781E-01
 -1       873 3.24518E-01
 -1       874 2.42498E-01
 -1       875 1.78502E-01
 -1       876 1.29070E-01
 -1       877 9.13465E-02
 -1       878 6.32288E-02
 -1       879 4.33620E-02
 -1       880 2.86859E-02
 -1       881 1.80545E-02
 -1       882 1.06082E-02
 -1       883 5.54904E-03
 -1       884 3.19988E-03
 -1       885 3.87955E-03
 -1       886 3.96455E-03
 -1       887 3.67394E-03
 -1       888 3.17350E-03
 -1       889 2.99506E-03
 -1       890 2.90702E+00
 -1       891 1.84687E+00
 -1       892 1.44216E+00
 -1       893 1.15286E+00
 -1       894 8.97035E-01
 -1       895 6.99779E-01
 -1       896 5.60165E-01
 -1       897 4.55386E-01
 -1       898 3.69314E-01
 -1       899 2.91849E-01
 -1       900 2.25264E-01
 -1       901 1.69903E-01
 -1       902 1.25107E-01
 -1       903 8.97213E-02
 -1       904 6.29190E-02
 -1       905 4.33601E-02
 -1       906 2.87205E-02
 -1       907 1.80154E-02
 -1       908 1.05284E-02
 -1       909 5.48743E-03
 -1       910 3.88149E-03
 -1       911 4.43885E-03
 -1       912 4.41333E-03
 -1       913 4.02408E-03
 -1       914 3.43544E-03
 -1       915 2.89267E-03
 -1       916 2.01419E-03
 -1       917 2.33673E-03
 -1       918 1.98492E-03
 -1       919 2.67990E+00
 -1       920 1.03862E+00
 -1       921 9.60654E-01
 -1       922 6.63543E+00
 -1       923 2.05471E+00
 -1       924 7.59050E+00
 -1       925 6.63543E+00
 -1       926 2.29842E-03
 -1       927 6.71573E+00
 -1       928 4.40595E+00
 -1       929 1.60264E+00
 -1       930 2.28986E-03
 -1       931 3.23777E+00
 -1       932 1.60264E+00
 -1       933 3.57601E-03
 -1       934 4.40766E+00
 -1       935 1.46632E+00
 -1       936 4.69083E+00
 -1       937 5.23622E+00
 -1       938 1.19775E+00
 -1       939 6.11053E+00
 -1       940 3.00207E+00
 -1       941 2.00460E+00
 -1       942 2.28529E+00
 -1       943 3.73390E+00
 -1       944 4.52278E+00
 -1       945 1.73115E+00
 -1       946 2.94780E+00
 -1       947 2.00612E+00
 -1       948 1.47758E+00
 -1       949 1.08846E+00
 -1       950 8.13544E-01
 -1       951 6.17050E-01
 -1       952 4.70163E-01
 -1       953 3.57583E-01
 -1       954 2.70362E-01
 -1       955 2.02450E-01
 -1       956 1.49634E-01
 -1       957 1.08807E-01
 -1       958 7.75514E-02
 -1       959 5.39200E-02
 -1       960 3.67828E-02
 -1       961 2.46972E-02
 -1       962 1.58646E-02
 -1       963 9.54963E-03
 -1       964 5.22818E-03
 -1       965 2.61310E-03
 -1       966 2.54939E-03
 -1       967 2.85953E-03
 -1       968 2.80132E-03
 -1       969 2.51112E-03
 -1       970 1.36952E+00
 -1       971 2.05471E+00
 -1       972 3.05070E-03
 -1       973 2.77214E+00
 -1       974 1.11667E+00
 -1       975 8.60463E-01
 -1       976 6.91406E-01
 -1       977 5.60165E-01
 -1       978 4.46994E-01
 -1       979 3.50937E-01
 -1       980 2.71436E-01
 -1       981 2.06652E-01
 -1       982 1.54633E-01
 -1       983 1.13488E-01
 -1       984 8.14534E-02
 -1       985 5.69264E-02
 -1       986 3.89499E-02
 -1       987 2.61605E-02
 -1       988 1.67788E-02
 -1       989 1.00554E-02
 -1       990 5.41595E-03
 -1       991 2.78361E-03
 -1       992 2.89470E-03
 -1       993 3.17585E-03
 -1       994 3.57601E-03
 -1       995 2.15949E-03
 -1       996 4.92376E+00
 -1       997 4.56743E+00
 -1       998 5.47903E+00
 -1       999 1.13035E+00
 -1      1000 1.19775E+00
 -1      1001 1.36340E+00
 -1      1002 1.84687E+00
 -1      1003 5.47903E+00
 -1      1004 2.40791E+00
 -1      1005 2.80148E+00
 -1      1006 3.42338E+00
 -1      1007 3.83261E+00
 -1      1008 2.80480E+00
 -1      1009 3.57601E-03
 -1      1010 2.15716E+00
 -1      1011 3.83715E+00
 -1      1012 3.05990E+00
 -1      1013 2.06640E-03
 -1      1014 2.80480E+00
 -1      1015 3.83261E+00
 -1      1016 4.20648E+00
 -1      1017 4.52278E+00
 -1      1018 2.23988E+00
 -1      1019 2.94780E+00
 -1      1020 2.77838E+00
 -1      1021 2.25083E+00
 -1      1022 1.11096E+00
 -1      1023 8.03897E-01
 -1      1024 6.00311E-01
 -1      1025 4.55639E-01
 -1      1026 3.47727E-01
 -1      1027 2.65643E-01
 -1      1028 2.01790E-01
 -1      1029 1.51744E-01
 -1      1030 1.12566E-01
 -1      1031 8.21016E-02
 -1      1032 5.86611E-02
 -1      1033 4.08633E-02
 -1      1034 2.77029E-02
 -1      1035 1.89579E-02
 -1      1036 1.27699E-02
 -1      1037 8.20306E-03
 -1      1038 4.89558E-03
 -1      1039 2.55590E-03
 -1      1040 1.77843E-03
 -1      1041 1.39939E+00
 -1      1042 2.62842E-03
 -1      1043 1.51060E+00
 -1      1044 6.62519E-01
 -1      1045 5.12815E-01
 -1      1046 3.93645E-01
 -1      1047 3.01048E-01
 -1      1048 2.28472E-01
 -1      1049 1.71548E-01
 -1      1050 1.27073E-01
 -1      1051 9.25848E-02
 -1      1052 6.61154E-02
 -1      1053 4.60586E-02
 -1      1054 3.11070E-02
 -1      1055 2.09892E-02
 -1      1056 1.35692E-02
 -1      1057 8.56415E-03
 -1      1058 5.12971E-03
 -1      1059 2.78361E-03
 -1      1060 2.01839E-03
 -1      1061 2.80066E-03
 -1      1062 3.04691E+00
 -1      1063 3.77729E+00
 -1      1064 1.11667E+00
 -1      1065 2.04149E+00
 -1      1066 8.60463E-01
 -1      1067 2.63606E+00
 -1      1068 2.13671E-03
 -1      1069 2.39679E+00
 -1      1070 2.65468E+00
 -1      1071 1.85342E-03
 -1      1072 2.15716E+00
 -1      1073 3.05990E+00
 -1      1074 2.30949E+00
 -1      1075 1.09334E+00
 -1      1076 7.62742E-01
 -1      1077 5.70175E-01
 -1      1078 4.27209E-01
 -1      1079 3.20817E-01
 -1      1080 2.40564E-01
 -1      1081 1.79397E-01
 -1      1082 1.32554E-01
 -1      1083 9.75059E-02
 -1      1084 7.14549E-02
 -1      1085 5.13508E-02
 -1      1086 3.60313E-02
 -1      1087 2.49260E-02
 -1      1088 1.71138E-02
 -1      1089 1.12925E-02
 -1      1090 7.03145E-03
 -1      1091 3.97232E-03
 -1      1092 1.81923E-03
 -1      1093 5.70175E-01
 -1      1094 7.62742E-01
 -1      1095 3.20817E-01
 -1      1096 2.40564E-01
 -1      1097 1.79397E-01
 -1      1098 1.32554E-01
 -1      1099 9.66970E-02
 -1      1100 6.93793E-02
 -1      1101 4.87398E-02
 -1      1102 3.41312E-02
 -1      1103 2.33013E-02
 -1      1104 1.53126E-02
 -1      1105 9.52272E-03
 -1      1106 5.40732E-03
 -1      1107 2.64693E-03
 -1      1108 2.88904E+00
 -1      1109 2.88904E+00
 -1      1110 1.61440E-03
 -1      1111 4.27209E-01
 -1      1112 1.51060E+00
 -1      1113 1.85342E-03
 -1      1114 1.09334E+00
 -1      1115 1.41251E-03
 -1      1116 1.01403E+00
 -1      1117 1.35606E+00
 -1      1118 1.76199E-03
 -1      1119 1.12252E-03
 -1      1120 2.30949E+00
 -1      1121 1.21729E+01
 -1      1122 7.88071E+00
 -1      1123 2.84513E+00
 -1      1124 1.81523E+00
 -1      1125 1.36707E+00
 -1      1126 1.07167E+00
 -1      1127 8.18296E-01
 -1      1128 6.04266E-01
 -1      1129 5.47577E-01
 -1      1130 6.81913E-01
 -1      1131 8.81165E-01
 -1      1132 1.11286E+00
 -1      1133 1.39628E+00
 -1      1134 1.81157E+00
 -1      1135 2.75964E+00
 -1      1136 5.76281E+00
 -1      1137 1.06337E+01
 -1      1138 1.21729E+01
 -1      1139 7.95758E+00
 -1      1140 3.07481E+00
 -1      1141 1.95138E+00
 -1      1142 1.21436E+00
 -1      1143 1.00584E+00
 -1      1144 1.25895E+00
 -1      1145 1.48758E+00
 -1      1146 1.53808E+00
 -1      1147 1.54052E+00
 -1      1148 1.81436E+00
 -1      1149 2.91195E+00
 -1      1150 4.34874E+00
 -1      1151 4.97210E+00
 -1      1152 4.98242E+00
 -1      1153 4.79152E+00
 -1      1154 3.71514E+00
 -1      1155 2.37649E+00
 -1      1156 1.80549E+00
 -1      1157 1.70376E+00
 -1      1158 1.71986E+00
 -1      1159 1.66021E+00
 -1      1160 1.47082E+00
 -1      1161 1.20359E+00
 -1      1162 9.54661E-01
 -1      1163 7.46442E-01
 -1      1164 5.97988E-01
 -1      1165 4.94669E-01
 -1      1166 3.95926E-01
 -1      1167 3.08315E-01
 -1      1168 2.34303E-01
 -1      1169 1.73966E-01
 -1      1170 1.29413E-01
 -1      1171 1.01974E-01
 -1      1172 8.34141E-02
 -1      1173 6.68749E-02
 -1      1174 5.26172E-02
 -1      1175 4.06390E-02
 -1      1176 3.07855E-02
 -1      1177 2.36214E-02
 -1      1178 1.89966E-02
 -1      1179 1.54031E-02
 -1      1180 1.21740E-02
 -1      1181 9.32324E-03
 -1      1182 6.91048E-03
 -1      1183 5.05822E-03
 -1      1184 4.01325E-03
 -1      1185 3.31347E-03
 -1      1186 2.50753E-03
 -1      1187 1.28317E-03
 -1      1188 1.31885E+01
 -1      1189 8.12286E+00
 -1      1190 2.46732E+00
 -1      1191 1.58018E+00
 -1      1192 1.08340E+00
 -1      1193 7.33645E-01
 -1      1194 6.03422E-01
 -1      1195 7.05298E-01
 -1      1196 9.04963E-01
 -1      1197 1.12375E+00
 -1      1198 1.35990E+00
 -1      1199 1.82447E+00
 -1      1200 2.49731E+00
 -1      1201 2.99602E+00
 -1      1202 3.24907E+00
 -1      1203 3.34683E+00
 -1      1204 3.01903E+00
 -1      1205 2.17902E+00
 -1      1206 1.39597E+00
 -1      1207 1.00417E+00
 -1      1208 9.44327E-01
 -1      1209 1.01530E+00
 -1      1210 1.02514E+00
 -1      1211 9.80097E-01
 -1      1212 8.63800E-01
 -1      1213 7.29287E-01
 -1      1214 6.00373E-01
 -1      1215 4.73229E-01
 -1      1216 3.58248E-01
 -1      1217 2.73086E-01
 -1      1218 2.13880E-01
 -1      1219 1.63079E-01
 -1      1220 1.20868E-01
 -1      1221 8.69739E-02
 -1      1222 6.05417E-02
 -1      1223 4.51875E-02
 -1      1224 3.76808E-02
 -1      1225 3.07369E-02
 -1      1226 2.45240E-02
 -1      1227 1.97985E-02
 -1      1228 1.68719E-02
 -1      1229 1.45874E-02
 -1      1230 1.22383E-02
 -1      1231 9.95885E-03
 -1      1232 7.85405E-03
 -1      1233 5.99915E-03
 -1      1234 4.41281E-03
 -1      1235 3.26591E-03
 -1      1236 2.16629E-03
 -1      1237 9.25845E-04
 -1      1238 5.41271E-04
 -1      1239 7.19490E-04
 -1      1240 5.91218E-04
 -1      1241 3.13434E-04
 -1      1242 2.55547E-04
 -1      1243 4.07755E-04
 -1      1244 5.01124E-04
 -1      1245 5.42603E-04
 -1      1246 5.51297E-04
 -1      1247 5.42893E-04
 -1      1248 4.99880E-04
 -1      1249 4.06922E-04
 -1      1250 2.55757E-04
 -1      1251 3.17364E-04
 -1      1252 7.13986E-04
 -1      1253 1.07097E-03
 -1      1254 8.11793E-04
 -1      1255 2.52486E+01
 -1      1256 3.55313E+01
 -1      1257 4.57679E+01
 -1      1258 3.20450E+01
 -1      1259 1.52732E+01
 -1      1260 1.22244E+01
 -1      1261 1.20133E+01
 -1      1262 1.20916E+01
 -1      1263 1.23810E+01
 -1      1264 1.29969E+01
 -1      1265 2.38849E+01
 -1      1266 3.41571E+01
 -1      1267 3.05772E+01
 -1      1268 2.66279E+01
 -1      1269 2.62586E+01
 -1      1270 2.76636E+01
 -1      1271 2.90686E+01
 -1      1272 2.84774E+01
 -1      1273 2.04603E+01
 -1      1274 1.33074E+01
 -1      1275 1.35806E+01
 -1      1276 1.28401E+01
 -1      1277 1.20996E+01
 -1      1278 1.19245E+01
 -1      1279 1.65636E+01
 -1      1280 3.47082E+01
 -1      1281 4.80388E+01
 -1      1282 3.66207E+01
 -1      1283 2.52027E+01
 -1      1284 1.21729E+01
 -1      1285 4.68486E+00
 -1      1286 8.97704E+00
 -1      1287 2.31593E+00
 -1      1288 3.05934E+00
 -1      1289 4.15567E+00
 -1      1290 1.65776E+00
 -1      1291 1.94427E+00
 -1      1292 2.15847E+00
 -1      1293 1.28179E+00
 -1      1294 1.44344E+00
 -1      1295 1.57248E+00
 -1      1296 9.89508E-01
 -1      1297 1.12325E+00
 -1      1298 1.19962E+00
 -1      1299 7.40566E-01
 -1      1300 8.60196E-01
 -1      1301 9.11778E-01
 -1      1302 5.39198E-01
 -1      1303 6.33599E-01
 -1      1304 6.75498E-01
 -1      1305 5.28609E-01
 -1      1306 4.90897E-01
 -1      1307 5.20230E-01
 -1      1308 7.14505E-01
 -1      1309 6.17880E-01
 -1      1310 5.61200E-01
 -1      1311 9.19459E-01
 -1      1312 8.16833E-01
 -1      1313 7.52799E-01
 -1      1314 1.17302E+00
 -1      1315 1.04395E+00
 -1      1316 9.79619E-01
 -1      1317 1.47374E+00
 -1      1318 1.31938E+00
 -1      1319 1.25048E+00
 -1      1320 1.93748E+00
 -1      1321 1.67655E+00
 -1      1322 1.59966E+00
 -1      1323 2.97446E+00
 -1      1324 2.28732E+00
 -1      1325 2.15230E+00
 -1      1326 5.94096E+00
 -1      1327 3.62494E+00
 -1      1328 3.15262E+00
 -1      1329 1.31885E+01
 -1      1330 1.06337E+01
 -1      1331 8.49579E+00
 -1      1332 1.31885E+01
 -1      1333 7.95758E+00
 -1      1334 3.74227E+00
 -1      1335 3.07481E+00
 -1      1336 2.40735E+00
 -1      1337 3.07481E+00
 -1      1338 1.95138E+00
 -1      1339 1.49541E+00
 -1      1340 1.95138E+00
 -1      1341 1.20637E+00
 -1      1342 9.25326E-01
 -1      1343 1.20637E+00
 -1      1344 9.33316E-01
 -1      1345 1.00584E+00
 -1      1346 9.25326E-01
 -1      1347 1.07837E+00
 -1      1348 1.25895E+00
 -1      1349 1.00584E+00
 -1      1350 1.43953E+00
 -1      1351 1.48758E+00
 -1      1352 1.25895E+00
 -1      1353 1.53564E+00
 -1      1354 1.53808E+00
 -1      1355 1.48758E+00
 -1      1356 1.54052E+00
 -1      1357 1.54052E+00
 -1      1358 1.53808E+00
 -1      1359 1.47533E+00
 -1      1360 1.74918E+00
 -1      1361 1.47533E+00
 -1      1362 2.15777E+00
 -1      1363 2.98152E+00
 -1      1364 1.81874E+00
 -1      1365 3.73570E+00
 -1      1366 4.34874E+00
 -1      1367 2.98152E+00
 -1      1368 4.96179E+00
 -1      1369 4.97210E+00
 -1      1370 4.34874E+00
 -1      1371 4.98242E+00
 -1      1372 4.98242E+00
 -1      1373 4.97210E+00
 -1      1374 4.79152E+00
 -1      1375 4.60063E+00
 -1      1376 4.79152E+00
 -1      1377 3.72873E+00
 -1      1378 2.84325E+00
 -1      1379 3.72873E+00
 -1      1380 2.37649E+00
 -1      1381 1.92332E+00
 -1      1382 2.39008E+00
 -1      1383 1.80549E+00
 -1      1384 1.68765E+00
 -1      1385 1.80549E+00
 -1      1386 1.68738E+00
 -1      1387 1.70348E+00
 -1      1388 1.68738E+00
 -1      1389 1.71986E+00
 -1      1390 1.71986E+00
 -1      1391 1.70348E+00
 -1      1392 1.66021E+00
 -1      1393 1.60056E+00
 -1      1394 1.66021E+00
 -1      1395 1.47082E+00
 -1      1396 1.34108E+00
 -1      1397 1.47082E+00
 -1      1398 1.23121E+00
 -1      1399 1.09372E+00
 -1      1400 1.23121E+00
 -1      1401 1.01952E+00
 -1      1402 9.08090E-01
 -1      1403 1.04715E+00
 -1      1404 8.23713E-01
 -1      1405 7.26923E-01
 -1      1406 8.88570E-01
 -1      1407 6.42352E-01
 -1      1408 5.90688E-01
 -1      1409 7.19623E-01
 -1      1410 5.14521E-01
 -1      1411 4.62868E-01
 -1      1412 5.58886E-01
 -1      1413 3.98743E-01
 -1      1414 3.51652E-01
 -1      1415 4.18595E-01
 -1      1416 3.09666E-01
 -1      1417 2.69145E-01
 -1      1418 3.12483E-01
 -1      1419 2.38575E-01
 -1      1420 2.05084E-01
 -1      1421 2.39926E-01
 -1      1422 1.79702E-01
 -1      1423 1.52855E-01
 -1      1424 1.83974E-01
 -1      1425 1.32371E-01
 -1      1426 1.14665E-01
 -1      1427 1.38107E-01
 -1      1428 1.01974E-01
 -1      1429 9.22420E-02
 -1      1430 1.04932E-01
 -1      1431 8.34141E-02
 -1      1432 7.45862E-02
 -1      1433 8.34141E-02
 -1      1434 6.68749E-02
 -1      1435 5.91636E-02
 -1      1436 6.68749E-02
 -1      1437 5.26172E-02
 -1      1438 4.60708E-02
 -1      1439 5.26172E-02
 -1      1440 4.06390E-02
 -1      1441 3.52073E-02
 -1      1442 4.06390E-02
 -1      1443 3.10967E-02
 -1      1444 2.66749E-02
 -1      1445 3.10967E-02
 -1      1446 2.36214E-02
 -1      1447 2.08792E-02
 -1      1448 2.39327E-02
 -1      1449 1.89966E-02
 -1      1450 1.71140E-02
 -1      1451 1.89966E-02
 -1      1452 1.54031E-02
 -1      1453 1.36922E-02
 -1      1454 1.54031E-02
 -1      1455 1.21740E-02
 -1      1456 1.06559E-02
 -1      1457 1.21740E-02
 -1      1458 9.46236E-03
 -1      1459 8.12974E-03
 -1      1460 9.46236E-03
 -1      1461 7.08712E-03
 -1      1462 6.00697E-03
 -1      1463 7.22623E-03
 -1      1464 5.23883E-03
 -1      1465 4.46671E-03
 -1      1466 5.41546E-03
 -1      1467 4.01325E-03
 -1      1468 3.74039E-03
 -1      1469 4.19386E-03
 -1      1470 3.31347E-03
 -1      1471 2.88655E-03
 -1      1472 3.31347E-03
 -1      1473 2.50753E-03
 -1      1474 2.12850E-03
 -1      1475 2.50753E-03
 -1      1476 1.65713E-03
 -1      1477 1.65713E-03
 -1      1478 3.05724E+00
 -1      1479 8.12286E+00
 -1      1480 8.12286E+00
 -1      1481 1.87740E+00
 -1      1482 2.46732E+00
 -1      1483 2.46732E+00
 -1      1484 1.28295E+00
 -1      1485 1.58018E+00
 -1      1486 1.58018E+00
 -1      1487 8.83845E-01
 -1      1488 1.08340E+00
 -1      1489 1.08340E+00
 -1      1490 5.83445E-01
 -1      1491 7.33645E-01
 -1      1492 7.33645E-01
 -1      1493 5.59040E-01
 -1      1494 5.39064E-01
 -1      1495 5.39064E-01
 -1      1496 7.05298E-01
 -1      1497 6.23398E-01
 -1      1498 5.59040E-01
 -1      1499 9.04963E-01
 -1      1500 7.87197E-01
 -1      1501 7.05298E-01
 -1      1502 1.12375E+00
 -1      1503 1.02273E+00
 -1      1504 9.04963E-01
 -1      1505 1.35990E+00
 -1      1506 1.22477E+00
 -1      1507 1.12375E+00
 -1      1508 1.86192E+00
 -1      1509 1.53248E+00
 -1      1510 1.39735E+00
 -1      1511 2.49731E+00
 -1      1512 2.15391E+00
 -1      1513 1.86192E+00
 -1      1514 2.99602E+00
 -1      1515 2.84072E+00
 -1      1516 2.49731E+00
 -1      1517 3.24907E+00
 -1      1518 3.15132E+00
 -1      1519 2.99602E+00
 -1      1520 3.34683E+00
 -1      1521 3.34683E+00
 -1      1522 3.24907E+00
 -1      1523 2.69124E+00
 -1      1524 3.01903E+00
 -1      1525 3.01903E+00
 -1      1526 1.66680E+00
 -1      1527 2.17902E+00
 -1      1528 2.17902E+00
 -1      1529 1.12514E+00
 -1      1530 1.39597E+00
 -1      1531 1.39597E+00
 -1      1532 8.54332E-01
 -1      1533 9.75304E-01
 -1      1534 9.75304E-01
 -1      1535 9.44327E-01
 -1      1536 8.83196E-01
 -1      1537 8.54332E-01
 -1      1538 1.01530E+00
 -1      1539 1.00546E+00
 -1      1540 9.44327E-01
 -1      1541 1.02514E+00
 -1      1542 1.02514E+00
 -1      1543 1.01530E+00
 -1      1544 9.35049E-01
 -1      1545 9.80097E-01
 -1      1546 9.80097E-01
 -1      1547 7.92551E-01
 -1      1548 8.63800E-01
 -1      1549 8.63800E-01
 -1      1550 6.66024E-01
 -1      1551 7.29287E-01
 -1      1552 7.29287E-01
 -1      1553 5.41916E-01
 -1      1554 6.07567E-01
 -1      1555 6.07567E-01
 -1      1556 4.23753E-01
 -1      1557 4.85245E-01
 -1      1558 4.92440E-01
 -1      1559 3.18806E-01
 -1      1560 3.72295E-01
 -1      1561 3.84311E-01
 -1      1562 2.43219E-01
 -1      1563 2.74891E-01
 -1      1564 2.88939E-01
 -1      1565 1.86347E-01
 -1      1566 2.13880E-01
 -1      1567 2.15685E-01
 -1      1568 1.39811E-01
 -1      1569 1.63079E-01
 -1      1570 1.63079E-01
 -1      1571 1.02299E-01
 -1      1572 1.21242E-01
 -1      1573 1.21242E-01
 -1      1574 7.33364E-02
 -1      1575 8.82878E-02
 -1      1576 8.86613E-02
 -1      1577 5.08657E-02
 -1      1578 6.23465E-02
 -1      1579 6.36604E-02
 -1      1580 4.13141E-02
 -1      1581 4.51875E-02
 -1      1582 4.69923E-02
 -1      1583 3.40476E-02
 -1      1584 3.76808E-02
 -1      1585 3.76808E-02
 -1      1586 2.74262E-02
 -1      1587 3.07369E-02
 -1      1588 3.07369E-02
 -1      1589 2.16217E-02
 -1      1590 2.45240E-02
 -1      1591 2.45240E-02
 -1      1592 1.79754E-02
 -1      1593 1.97985E-02
 -1      1594 1.97985E-02
 -1      1595 1.57684E-02
 -1      1596 1.68719E-02
 -1      1597 1.68719E-02
 -1      1598 1.34064E-02
 -1      1599 1.45874E-02
 -1      1600 1.45874E-02
 -1      1601 1.10702E-02
 -1      1602 1.22383E-02
 -1      1603 1.22383E-02
 -1      1604 8.84754E-03
 -1      1605 9.95885E-03
 -1      1606 9.95885E-03
 -1      1607 6.86056E-03
 -1      1608 7.85405E-03
 -1      1609 7.85405E-03
 -1      1610 5.13775E-03
 -1      1611 5.99915E-03
 -1      1612 5.99915E-03
 -1      1613 3.68787E-03
 -1      1614 4.41281E-03
 -1      1615 4.41281E-03
 -1      1616 2.84395E-03
 -1      1617 3.26591E-03
 -1      1618 3.26591E-03
 -1      1619 1.56705E-03
 -1      1620 2.24471E-03
 -1      1621 2.24471E-03
 -1      1622 1.10406E-03
 -1      1623 7.56773E-04
 -1      1624 7.56773E-04
 -1      1625 6.28500E-04
 -1      1626 7.56773E-04
 -1      1627 7.94055E-04
 -1      1628 3.92744E-04
 -1      1629 5.42255E-04
 -1      1630 7.07810E-04
 -1      1631 4.57838E-04
 -1      1632 3.66214E-04
 -1      1633 5.95035E-04
 -1      1634 6.40144E-04
 -1      1635 5.79559E-04
 -1      1636 6.90227E-04
 -1      1637 7.43264E-04
 -1      1638 7.10479E-04
 -1      1639 8.82283E-04
 -1      1640 7.78811E-04
 -1      1641 7.70117E-04
 -1      1642 9.79471E-04
 -1      1643 7.78954E-04
 -1      1644 7.78954E-04
 -1      1645 1.00647E-03
 -1      1646 7.70550E-04
 -1      1647 7.78954E-04
 -1      1648 1.00661E-03
 -1      1649 7.08126E-04
 -1      1650 7.42735E-04
 -1      1651 9.78797E-04
 -1      1652 5.82284E-04
 -1      1653 6.40632E-04
 -1      1654 8.83488E-04
 -1      1655 3.71073E-04
 -1      1656 4.63890E-04
 -1      1657 6.97601E-04
 -1      1658 5.41094E-04
 -1      1659 3.86669E-04
 -1      1660 5.94803E-04
 -1      1661 7.83291E-04
 -1      1662 5.41094E-04
 -1      1663 6.10399E-04
 -1      1664 1.18575E-03
 -1      1665 1.07097E-03
 -1      1666 8.98075E-04
 -1      1667 1.65713E-03
 -1      1668 2.75513E+01
 -1      1669 2.75054E+01
 -1      1670 4.17486E+01
 -1      1671 3.15119E+01
 -1      1672 4.57679E+01
 -1      1673 4.57679E+01
 -1      1674 1.87659E+01
 -1      1675 3.24889E+01
 -1      1676 1.16409E+01
 -1      1677 1.46897E+01
 -1      1678 1.22244E+01
 -1      1679 1.22244E+01
 -1      1680 1.18022E+01
 -1      1681 1.20133E+01
 -1      1682 1.19741E+01
 -1      1683 1.16847E+01
 -1      1684 1.23810E+01
 -1      1685 1.23810E+01
 -1      1686 1.28575E+01
 -1      1687 1.22416E+01
 -1      1688 2.38849E+01
 -1      1689 1.36128E+01
 -1      1690 3.41571E+01
 -1      1691 3.41571E+01
 -1      1692 2.95065E+01
 -1      1693 3.30864E+01
 -1      1694 2.76883E+01
 -1      1695 2.80577E+01
 -1      1696 2.97568E+01
 -1      1697 2.97568E+01
 -1      1698 2.71100E+01
 -1      1699 2.57050E+01
 -1      1700 2.90686E+01
 -1      1701 2.90686E+01
 -1      1702 2.84251E+01
 -1      1703 2.90162E+01
 -1      1704 1.30343E+01
 -1      1705 2.04603E+01
 -1      1706 1.28829E+01
 -1      1707 1.26098E+01
 -1      1708 1.35806E+01
 -1      1709 1.35806E+01
 -1      1710 1.20688E+01
 -1      1711 1.28092E+01
 -1      1712 1.20996E+01
 -1      1713 1.20996E+01
 -1      1714 1.17495E+01
 -1      1715 1.19245E+01
 -1      1716 1.65319E+01
 -1      1717 1.17179E+01
 -1      1718 3.54917E+01
 -1      1719 2.21612E+01
 -1      1720 4.80388E+01
 -1      1721 4.80388E+01
 -1      1722 2.76982E+01
 -1      1723 3.91163E+01
 -1      1724 2.75054E+01
 -1      1725 2.75054E+01
 -1      1726 1.51336E+01
 -1      1727 3.24889E+01
 -1      1728 1.18248E-03
 -1      1729 1.21976E-03
 -1      1730 3.37686E+01
 -1      1731 4.17486E+01
 -1      1732 2.98081E+01
 -1      1733 1.16409E+01
 -1      1734 1.20133E+01
 -1      1735 1.16847E+01
 -1      1736 1.19741E+01
 -1      1737 1.22416E+01
 -1      1738 1.28575E+01
 -1      1739 2.38849E+01
 -1      1740 3.30864E+01
 -1      1741 3.05670E+01
 -1      1742 3.11866E+01
 -1      1743 2.92032E+01
 -1      1744 2.71100E+01
 -1      1745 2.90162E+01
 -1      1746 2.09991E+01
 -1      1747 1.26098E+01
 -1      1748 1.28829E+01
 -1      1749 1.28092E+01
 -1      1750 1.20688E+01
 -1      1751 1.19245E+01
 -1      1752 1.17179E+01
 -1      1753 1.73155E+01
 -1      1754 3.54917E+01
 -1      1755 3.91163E+01
 -1      1756 3.00009E+01
 -1      1757 8.97704E+00
 -1      1758 1.65928E+00
 -1      1759 2.03095E+00
 -1      1760 2.52371E+00
 -1      1761 4.14923E+00
 -1      1762 2.02451E+00
 -1      1763 1.05067E+00
 -1      1764 1.20921E+00
 -1      1765 8.15298E-01
 -1      1766 9.44611E-01
 -1      1767 9.54195E-01
 -1      1768 5.92512E-01
 -1      1769 6.99479E-01
 -1      1770 7.32312E-01
 -1      1771 4.49190E-01
 -1      1772 4.97490E-01
 -1      1773 5.21471E-01
 -1      1774 5.80772E-01
 -1      1775 4.91501E-01
 -1      1776 4.68761E-01
 -1      1777 7.63832E-01
 -1      1778 6.61505E-01
 -1      1779 5.91805E-01
 -1      1780 9.76742E-01
 -1      1781 8.52249E-01
 -1      1782 7.60954E-01
 -1      1783 1.20858E+00
 -1      1784 1.06221E+00
 -1      1785 9.34840E-01
 -1      1786 1.49961E+00
 -1      1787 1.29680E+00
 -1      1788 1.10853E+00
 -1      1789 1.98667E+00
 -1      1790 1.63684E+00
 -1      1791 1.33398E+00
 -1      1792 2.68181E+00
 -1      1793 2.03133E+00
 -1      1794 1.51587E+00
 -1      1795 7.46285E+00
 -1      1796 2.77015E+00
 -1      1797 1.64887E+00
 -1      1798 2.39722E+00
 -1      1799 4.76173E+00
 -1      1800 1.61952E+00
 -1      1801 2.20944E+00
 -1      1802 1.54942E+00
 -1      1803 3.12977E+00
 -1      1804 1.74109E+00
 -1      1805 1.28512E+00
 -1      1806 1.12404E+00
 -1      1807 8.35003E-01
 -1      1808 9.13748E-01
 -1      1809 8.70525E-01
 -1      1810 8.78515E-01
 -1      1811 7.88193E-01
 -1      1812 9.39503E-01
 -1      1813 1.01203E+00
 -1      1814 8.84703E-01
 -1      1815 1.06920E+00
 -1      1816 1.24978E+00
 -1      1817 1.00286E+00
 -1      1818 1.27160E+00
 -1      1819 1.31965E+00
 -1      1820 1.08184E+00
 -1      1821 1.30197E+00
 -1      1822 1.30441E+00
 -1      1823 1.08598E+00
 -1      1824 1.41768E+00
 -1      1825 1.35250E+00
 -1      1826 1.18158E+00
 -1      1827 1.49378E+00
 -1      1828 1.90237E+00
 -1      1829 1.43613E+00
 -1      1830 2.19789E+00
 -1      1831 2.95207E+00
 -1      1832 1.87293E+00
 -1      1833 3.27981E+00
 -1      1834 3.89286E+00
 -1      1835 2.49619E+00
 -1      1836 4.01416E+00
 -1      1837 4.02448E+00
 -1      1838 2.94523E+00
 -1      1839 3.96805E+00
 -1      1840 3.77716E+00
 -1      1841 3.01011E+00
 -1      1842 3.57828E+00
 -1      1843 2.70638E+00
 -1      1844 2.75480E+00
 -1      1845 2.37959E+00
 -1      1846 1.91283E+00
 -1      1847 2.22913E+00
 -1      1848 1.57836E+00
 -1      1849 1.46052E+00
 -1      1850 1.56787E+00
 -1      1851 1.44371E+00
 -1      1852 1.44343E+00
 -1      1853 1.21657E+00
 -1      1854 1.45651E+00
 -1      1855 1.47288E+00
 -1      1856 1.21283E+00
 -1      1857 1.51747E+00
 -1      1858 1.45782E+00
 -1      1859 1.27049E+00
 -1      1860 1.43614E+00
 -1      1861 1.30640E+00
 -1      1862 1.29339E+00
 -1      1863 1.23987E+00
 -1      1864 1.13000E+00
 -1      1865 1.20519E+00
 -1      1866 1.07345E+00
 -1      1867 9.99249E-01
 -1      1868 1.08211E+00
 -1      1869 9.30447E-01
 -1      1870 8.46070E-01
 -1      1871 9.56748E-01
 -1      1872 7.68523E-01
 -1      1873 6.83952E-01
 -1      1874 8.10399E-01
 -1      1875 6.08769E-01
 -1      1876 5.32602E-01
 -1      1877 6.57668E-01
 -1      1878 4.65675E-01
 -1      1879 4.01550E-01
 -1      1880 5.15558E-01
 -1      1881 3.45207E-01
 -1      1882 3.03221E-01
 -1      1883 3.92288E-01
 -1      1884 2.57658E-01
 -1      1885 2.27088E-01
 -1      1886 2.90383E-01
 -1      1887 1.91382E-01
 -1      1888 1.66000E-01
 -1      1889 2.09115E-01
 -1      1890 1.38753E-01
 -1      1891 1.18268E-01
 -1      1892 1.46161E-01
 -1      1893 1.01471E-01
 -1      1894 8.87806E-02
 -1      1895 1.02116E-01
 -1      1896 7.67825E-02
 -1      1897 6.79546E-02
 -1      1898 7.33210E-02
 -1      1899 5.98270E-02
 -1      1900 5.21157E-02
 -1      1901 5.31953E-02
 -1      1902 4.83427E-02
 -1      1903 4.17963E-02
 -1      1904 4.12948E-02
 -1      1905 3.83085E-02
 -1      1906 3.28768E-02
 -1      1907 3.40341E-02
 -1      1908 2.97758E-02
 -1      1909 2.56653E-02
 -1      1910 2.74453E-02
 -1      1911 2.29860E-02
 -1      1912 1.99326E-02
 -1      1913 2.16652E-02
 -1      1914 1.76810E-02
 -1      1915 1.57984E-02
 -1      1916 1.67344E-02
 -1      1917 1.45856E-02
 -1      1918 1.28746E-02
 -1      1919 1.32700E-02
 -1      1920 1.18397E-02
 -1      1921 1.03215E-02
 -1      1922 1.10222E-02
 -1      1923 9.31599E-03
 -1      1924 8.12249E-03
 -1      1925 8.98166E-03
 -1      1926 7.21492E-03
 -1      1927 6.17229E-03
 -1      1928 7.06855E-03
 -1      1929 5.42452E-03
 -1      1930 4.65638E-03
 -1      1931 5.41320E-03
 -1      1932 4.01828E-03
 -1      1933 3.56481E-03
 -1      1934 4.02733E-03
 -1      1935 3.10652E-03
 -1      1936 2.67960E-03
 -1      1937 2.93094E-03
 -1      1938 2.38047E-03
 -1      1939 2.00144E-03
 -1      1940 1.53007E-03
 -1      1941 2.17352E-03
 -1      1942 9.61693E-01
 -1      1943 1.25892E+00
 -1      1944 1.00104E+00
 -1      1945 6.61854E-01
 -1      1946 8.61407E-01
 -1      1947 5.40149E-01
 -1      1948 4.99676E-01
 -1      1949 6.49875E-01
 -1      1950 4.27885E-01
 -1      1951 4.46434E-01
 -1      1952 4.90815E-01
 -1      1953 4.07045E-01
 -1      1954 5.14920E-01
 -1      1955 4.50562E-01
 -1      1956 4.02314E-01
 -1      1957 5.91834E-01
 -1      1958 5.09934E-01
 -1      1959 4.01456E-01
 -1      1960 8.86359E-01
 -1      1961 7.68594E-01
 -1      1962 5.73230E-01
 -1      1963 1.22821E+00
 -1      1964 1.12719E+00
 -1      1965 9.90822E-01
 -1      1966 1.61898E+00
 -1      1967 1.44640E+00
 -1      1968 1.44984E+00
 -1      1969 1.97113E+00
 -1      1970 1.67914E+00
 -1      1971 1.72819E+00
 -1      1972 2.31453E+00
 -1      1973 1.97113E+00
 -1      1974 1.78834E+00
 -1      1975 2.47226E+00
 -1      1976 2.31696E+00
 -1      1977 1.79077E+00
 -1      1978 2.69290E+00
 -1      1979 2.59514E+00
 -1      1980 1.91608E+00
 -1      1981 2.26801E+00
 -1      1982 2.59580E+00
 -1      1983 1.94187E+00
 -1      1984 1.47257E+00
 -1      1985 1.98479E+00
 -1      1986 1.56155E+00
 -1      1987 9.57689E-01
 -1      1988 1.22852E+00
 -1      1989 1.03429E+00
 -1      1990 6.69453E-01
 -1      1991 8.19289E-01
 -1      1992 6.51838E-01
 -1      1993 7.53803E-01
 -1      1994 7.24939E-01
 -1      1995 5.68924E-01
 -1      1996 8.60245E-01
 -1      1997 7.99114E-01
 -1      1998 6.69721E-01
 -1      1999 8.89871E-01
 -1      2000 8.80028E-01
 -1      2001 7.34815E-01
 -1      2002 8.37235E-01
 -1      2003 8.82283E-01
 -1      2004 7.47010E-01
 -1      2005 7.29378E-01
 -1      2006 8.00627E-01
 -1      2007 7.02813E-01
 -1      2008 6.31065E-01
 -1      2009 6.94328E-01
 -1      2010 6.31155E-01
 -1      2011 5.27871E-01
 -1      2012 5.86329E-01
 -1      2013 5.51369E-01
 -1      2014 4.23854E-01
 -1      2015 4.80525E-01
 -1      2016 4.59286E-01
 -1      2017 3.27659E-01
 -1      2018 3.79117E-01
 -1      2019 3.67203E-01
 -1      2020 2.44402E-01
 -1      2021 2.88317E-01
 -1      2022 2.83123E-01
 -1      2023 1.82761E-01
 -1      2024 2.12100E-01
 -1      2025 2.11478E-01
 -1      2026 1.38620E-01
 -1      2027 1.61888E-01
 -1      2028 1.58302E-01
 -1      2029 1.02672E-01
 -1      2030 1.21242E-01
 -1      2031 1.20050E-01
 -1      2032 7.46503E-02
 -1      2033 8.86613E-02
 -1      2034 8.86613E-02
 -1      2035 5.26705E-02
 -1      2036 6.36604E-02
 -1      2037 6.36604E-02
 -1      2038 3.85854E-02
 -1      2039 4.42636E-02
 -1      2040 4.42636E-02
 -1      2041 3.02318E-02
 -1      2042 3.38650E-02
 -1      2043 3.11363E-02
 -1      2044 2.50285E-02
 -1      2045 2.83392E-02
 -1      2046 2.45234E-02
 -1      2047 2.02299E-02
 -1      2048 2.31322E-02
 -1      2049 2.07345E-02
 -1      2050 1.66203E-02
 -1      2051 1.84435E-02
 -1      2052 1.70517E-02
 -1      2053 1.39013E-02
 -1      2054 1.50048E-02
 -1      2055 1.36497E-02
 -1      2056 1.15234E-02
 -1      2057 1.27044E-02
 -1      2058 1.08373E-02
 -1      2059 9.61884E-03
 -1      2060 1.07870E-02
 -1      2061 8.90397E-03
 -1      2062 7.80096E-03
 -1      2063 8.91227E-03
 -1      2064 7.46094E-03
 -1      2065 6.18585E-03
 -1      2066 7.17934E-03
 -1      2067 6.13276E-03
 -1      2068 4.76733E-03
 -1      2069 5.62874E-03
 -1      2070 4.95403E-03
 -1      2071 3.48975E-03
 -1      2072 4.21469E-03
 -1      2073 3.84427E-03
 -1      2074 2.62903E-03
 -1      2075 3.05100E-03
 -1      2076 2.85287E-03
 -1      2077 1.64547E-03
 -1      2078 2.24471E-03
 -1      2079 2.02979E-03
 -1      2080 1.21976E-03
 -1      2081 7.06685E-04
 -1      2082 7.33215E-04
 -1      2083 1.08903E-03
 -1      2084 1.17527E-03
 -1      2085 1.20068E-03
 -1      2086 1.17527E-03
 -1      2087 1.17527E-03
 -1      2088 1.60098E-03
 -1      2089 1.55649E-03
 -1      2090 9.42600E-04
 -1      2091 8.20878E-04
 -1      2092 9.59059E-04
 -1      2093 1.10623E-03
 -1      2094 1.03589E-03
 -1      2095 1.16655E-03
 -1      2096 1.17119E-03
 -1      2097 1.14434E-03
 -1      2098 1.29795E-03
 -1      2099 1.17134E-03
 -1      2100 1.17119E-03
 -1      2101 1.33606E-03
 -1      2102 1.17075E-03
 -1      2103 1.17075E-03
 -1      2104 1.33548E-03
 -1      2105 1.14294E-03
 -1      2106 1.17075E-03
 -1      2107 1.33489E-03
 -1      2108 1.04100E-03
 -1      2109 1.10849E-03
 -1      2110 1.30045E-03
 -1      2111 8.30708E-04
 -1      2112 9.49102E-04
 -1      2113 1.17411E-03
 -1      2114 7.28452E-04
 -1      2115 7.12856E-04
 -1      2116 9.64357E-04
 -1      2117 1.04391E-03
 -1      2118 1.04391E-03
 -1      2119 1.16196E-03
 -1      2120 3.59729E+01
 -1      2121 3.19535E+01
 -1      2122 3.06367E+01
 -1      2123 3.06367E+01
 -1      2124 3.39783E+01
 -1      2125 3.00178E+01
 -1      2126 3.08464E+01
 -1      2127 1.72674E+01
 -1      2128 3.05464E+01
 -1      2129 9.59450E+00
 -1      2130 1.36707E+01
 -1      2131 1.44496E+00
 -1      2132 1.65928E+00
 -1      2133 1.53176E+00
 -1      2134 1.29601E+00
 -1      2135 1.10607E+01
 -1      2136 1.12718E+01
 -1      2137 1.13852E+01
 -1      2138 1.15028E+01
 -1      2139 1.14364E+01
 -1      2140 1.10295E+01
 -1      2141 1.01516E+01
 -1      2142 1.02910E+01
 -1      2143 1.03376E+01
 -1      2144 9.58230E+00
 -1      2145 2.35900E+01
 -1      2146 1.33178E+01
 -1      2147 2.70336E+01
 -1      2148 2.81043E+01
 -1      2149 2.69721E+01
 -1      2150 2.84209E+01
 -1      2151 3.32550E+01
 -1      2152 3.11866E+01
 -1      2153 2.90405E+01
 -1      2154 2.90638E+01
 -1      2155 3.31156E+01
 -1      2156 2.61690E+01
 -1      2157 2.42104E+01
 -1      2158 2.81228E+01
 -1      2159 2.44999E+01
 -1      2160 2.45523E+01
 -1      2161 1.24480E+01
 -1      2162 2.04127E+01
 -1      2163 9.63346E+00
 -1      2164 1.00580E+01
 -1      2165 1.10908E+01
 -1      2166 1.03931E+01
 -1      2167 1.12590E+01
 -1      2168 1.20303E+01
 -1      2169 1.09946E+01
 -1      2170 1.09637E+01
 -1      2171 1.05559E+01
 -1      2172 1.07309E+01
 -1      2173 9.37887E+00
 -1      2174 9.41048E+00
 -1      2175 1.64193E+01
 -1      2176 1.07901E+01
 -1      2177 3.26284E+01
 -1      2178 2.00813E+01
 -1      2179 3.01938E+01
 -1      2180 3.91163E+01
 -1      2181 3.06367E+01
 -1      2182 3.08295E+01
 -1      2183 9.85777E+00
 -1      2184 9.27429E+00
 -1      2185 7.33825E+00
 -1      2186 5.87532E+00
 -1      2187 5.55510E+00
 -1      2188 2.46231E+00
 -1      2189 8.90517E+00
 -1      2190 1.79605E+00
 -1      2191 2.82026E+01
 -1      2192 2.07514E+01
 -1      2193 1.33158E-03
 -1      2194 3.14652E+01
 -1      2195 1.17282E+01
 -1      2196 3.08295E+01
 -1      2197 2.37059E+01
 -1      2198 1.35560E+01
 -1      2199 8.48271E+00
 -1      2200 8.21689E+00
 -1      2201 9.62594E+00
 -1      2202 1.01848E+01
 -1      2203 1.13007E+01
 -1      2204 8.81091E+00
 -1      2205 9.75048E+00
 -1      2206 7.84129E+00
 -1      2207 9.47161E+00
 -1      2208 2.16527E+01
 -1      2209 3.32550E+01
 -1      2210 3.32550E+01
 -1      2211 3.31156E+01
 -1      2212 2.34388E+01
 -1      2213 1.75372E+01
 -1      2214 1.00426E+01
 -1      2215 8.51949E+00
 -1      2216 6.56884E+00
 -1      2217 5.99956E+00
 -1      2218 9.34634E+00
 -1      2219 1.07613E+01
 -1      2220 1.08476E+01
 -1      2221 1.59488E+01
 -1      2222 8.86533E-01
 -1      2223 1.24713E+00
 -1      2224 6.88705E-01
 -1      2225 8.04524E-01
 -1      2226 8.87999E-01
 -1      2227 9.94062E-01
 -1      2228 8.44391E-01
 -1      2229 4.33652E-01
 -1      2230 3.91340E-01
 -1      2231 6.40170E-01
 -1      2232 5.59437E-01
 -1      2233 4.82016E-01
 -1      2234 8.13840E-01
 -1      2235 7.25424E-01
 -1      2236 6.93055E-01
 -1      2237 9.39399E-01
 -1      2238 8.53931E-01
 -1      2239 8.18400E-01
 -1      2240 1.06475E+00
 -1      2241 9.76533E-01
 -1      2242 8.95623E-01
 -1      2243 1.36306E+00
 -1      2244 1.22583E+00
 -1      2245 1.09383E+00
 -1      2246 5.22396E-01
 -1      2247 6.22681E-01
 -1      2248 8.68780E-01
 -1      2249 1.06153E+00
 -1      2250 9.00454E-01
 -1      2251 7.84845E+00
 -1      2252 6.43442E+00
 -1      2253 8.51734E-01
 -1      2254 8.87257E-01
 -1      2255 9.99518E-01
 -1      2256 9.26499E-01
 -1      2257 9.87487E-01
 -1      2258 9.90040E-01
 -1      2259 1.07501E+00
 -1      2260 1.13218E+00
 -1      2261 1.11681E+00
 -1      2262 1.23878E+00
 -1      2263 1.26060E+00
 -1      2264 1.31093E+00
 -1      2265 1.35958E+00
 -1      2266 1.34190E+00
 -1      2267 1.51652E+00
 -1      2268 1.42897E+00
 -1      2269 1.54224E+00
 -1      2270 1.70256E+00
 -1      2271 1.80842E+00
 -1      2272 1.94970E+00
 -1      2273 2.05581E+00
 -1      2274 1.88641E+00
 -1      2275 2.18193E+00
 -1      2276 2.25870E+00
 -1      2277 2.34553E+00
 -1      2278 2.67327E+00
 -1      2279 2.35901E+00
 -1      2280 3.36112E+00
 -1      2281 3.48243E+00
 -1      2282 3.21046E+00
 -1      2283 4.06114E+00
 -1      2284 4.00471E+00
 -1      2285 4.47703E+00
 -1      2286 2.97940E+00
 -1      2287 2.78052E+00
 -1      2288 4.03043E+00
 -1      2289 2.42786E+00
 -1      2290 2.10107E+00
 -1      2291 2.65246E+00
 -1      2292 2.07792E+00
 -1      2293 1.74345E+00
 -1      2294 2.27665E+00
 -1      2295 1.64245E+00
 -1      2296 1.62563E+00
 -1      2297 2.15251E+00
 -1      2298 1.43564E+00
 -1      2299 1.44871E+00
 -1      2300 1.86151E+00
 -1      2301 1.37995E+00
 -1      2302 1.42453E+00
 -1      2303 1.60275E+00
 -1      2304 1.32111E+00
 -1      2305 1.29943E+00
 -1      2306 1.43057E+00
 -1      2307 1.23875E+00
 -1      2308 1.17223E+00
 -1      2309 1.26647E+00
 -1      2310 1.10959E+00
 -1      2311 1.05303E+00
 -1      2312 1.14316E+00
 -1      2313 9.72655E-01
 -1      2314 9.03854E-01
 -1      2315 1.00014E+00
 -1      2316 8.19782E-01
 -1      2317 7.42234E-01
 -1      2318 8.35689E-01
 -1      2319 6.66815E-01
 -1      2320 5.91632E-01
 -1      2321 6.76198E-01
 -1      2322 5.27566E-01
 -1      2323 4.60639E-01
 -1      2324 5.36713E-01
 -1      2325 4.06414E-01
 -1      2326 3.50072E-01
 -1      2327 4.18423E-01
 -1      2328 3.05349E-01
 -1      2329 2.59786E-01
 -1      2330 3.19475E-01
 -1      2331 2.23876E-01
 -1      2332 1.88170E-01
 -1      2333 2.38842E-01
 -1      2334 1.59984E-01
 -1      2335 1.32736E-01
 -1      2336 1.74745E-01
 -1      2337 1.11060E-01
 -1      2338 9.42631E-02
 -1      2339 1.24883E-01
 -1      2340 7.79184E-02
 -1      2341 6.59203E-02
 -1      2342 8.68623E-02
 -1      2343 5.38394E-02
 -1      2344 4.57119E-02
 -1      2345 5.84368E-02
 -1      2346 3.82406E-02
 -1      2347 3.44676E-02
 -1      2348 3.88847E-02
 -1      2349 2.95404E-02
 -1      2350 2.60527E-02
 -1      2351 2.64862E-02
 -1      2352 2.46210E-02
 -1      2353 2.15200E-02
 -1      2354 2.01274E-02
 -1      2355 2.01705E-02
 -1      2356 1.74913E-02
 -1      2357 1.73462E-02
 -1      2358 1.61291E-02
 -1      2359 1.38775E-02
 -1      2360 1.46345E-02
 -1      2361 1.25853E-02
 -1      2362 1.13725E-02
 -1      2363 1.19800E-02
 -1      2364 1.01951E-02
 -1      2365 9.16011E-03
 -1      2366 9.51042E-03
 -1      2367 8.51978E-03
 -1      2368 7.51424E-03
 -1      2369 7.69270E-03
 -1      2370 6.87050E-03
 -1      2371 5.96293E-03
 -1      2372 6.40862E-03
 -1      2373 5.31603E-03
 -1      2374 4.56825E-03
 -1      2375 5.11797E-03
 -1      2376 4.03176E-03
 -1      2377 3.39366E-03
 -1      2378 3.93459E-03
 -1      2379 2.91977E-03
 -1      2380 2.46149E-03
 -1      2381 2.92421E-03
 -1      2382 5.02864E-01
 -1      2383 5.11725E-01
 -1      2384 4.93799E-01
 -1      2385 4.89670E-01
 -1      2386 5.94350E-01
 -1      2387 5.68179E-01
 -1      2388 5.73165E-01
 -1      2389 6.60522E-01
 -1      2390 7.87457E-01
 -1      2391 6.10697E-01
 -1      2392 7.82405E-01
 -1      2393 1.19825E+00
 -1      2394 9.57415E-01
 -1      2395 9.94881E-01
 -1      2396 1.56090E+00
 -1      2397 1.34272E+00
 -1      2398 1.30931E+00
 -1      2399 1.72819E+00
 -1      2400 1.66803E+00
 -1      2401 1.56090E+00
 -1      2402 1.84145E+00
 -1      2403 1.84145E+00
 -1      2404 1.78129E+00
 -1      2405 1.89553E+00
 -1      2406 1.89311E+00
 -1      2407 1.94621E+00
 -1      2408 1.97345E+00
 -1      2409 1.85057E+00
 -1      2410 1.95290E+00
 -1      2411 1.74185E+00
 -1      2412 1.83895E+00
 -1      2413 1.77343E+00
 -1      2414 1.33349E+00
 -1      2415 1.61671E+00
 -1      2416 1.51379E+00
 -1      2417 9.17250E-01
 -1      2418 1.16130E+00
 -1      2419 1.21646E+00
 -1      2420 6.71075E-01
 -1      2421 8.09475E-01
 -1      2422 9.36487E-01
 -1      2423 6.82389E-01
 -1      2424 6.26904E-01
 -1      2425 7.84540E-01
 -1      2426 7.26247E-01
 -1      2427 6.80935E-01
 -1      2428 7.38915E-01
 -1      2429 7.54422E-01
 -1      2430 7.34640E-01
 -1      2431 7.45854E-01
 -1      2432 7.25063E-01
 -1      2433 7.32651E-01
 -1      2434 7.32476E-01
 -1      2435 6.63962E-01
 -1      2436 7.00570E-01
 -1      2437 6.86212E-01
 -1      2438 5.95610E-01
 -1      2439 6.30660E-01
 -1      2440 6.28416E-01
 -1      2441 5.12994E-01
 -1      2442 5.57731E-01
 -1      2443 5.57235E-01
 -1      2444 4.22813E-01
 -1      2445 4.70160E-01
 -1      2446 4.76521E-01
 -1      2447 3.35779E-01
 -1      2448 3.80516E-01
 -1      2449 3.91389E-01
 -1      2450 2.57915E-01
 -1      2451 2.97258E-01
 -1      2452 3.10571E-01
 -1      2453 1.92429E-01
 -1      2454 2.24732E-01
 -1      2455 2.38866E-01
 -1      2456 1.44148E-01
 -1      2457 1.65022E-01
 -1      2458 1.78275E-01
 -1      2459 1.04900E-01
 -1      2460 1.22278E-01
 -1      2461 1.28998E-01
 -1      2462 7.39546E-02
 -1      2463 8.79656E-02
 -1      2464 9.01929E-02
 -1      2465 5.09948E-02
 -1      2466 6.19847E-02
 -1      2467 6.12890E-02
 -1      2468 3.52884E-02
 -1      2469 4.36953E-02
 -1      2470 4.20196E-02
 -1      2471 2.64160E-02
 -1      2472 3.11363E-02
 -1      2473 3.05680E-02
 -1      2474 2.26308E-02
 -1      2475 2.45234E-02
 -1      2476 2.45234E-02
 -1      2477 1.88381E-02
 -1      2478 2.07345E-02
 -1      2479 2.07345E-02
 -1      2480 1.52652E-02
 -1      2481 1.70517E-02
 -1      2482 1.70517E-02
 -1      2483 1.20342E-02
 -1      2484 1.36497E-02
 -1      2485 1.36497E-02
 -1      2486 9.64044E-03
 -1      2487 1.08373E-02
 -1      2488 1.08373E-02
 -1      2489 8.16751E-03
 -1      2490 8.90397E-03
 -1      2491 8.90397E-03
 -1      2492 6.68905E-03
 -1      2493 7.39563E-03
 -1      2494 7.39563E-03
 -1      2495 5.31135E-03
 -1      2496 5.93296E-03
 -1      2497 5.86765E-03
 -1      2498 4.14563E-03
 -1      2499 4.70275E-03
 -1      2500 4.50295E-03
 -1      2501 3.04161E-03
 -1      2502 3.59426E-03
 -1      2503 3.34298E-03
 -1      2504 2.25222E-03
 -1      2505 2.69098E-03
 -1      2506 2.44096E-03
 -1      2507 1.98531E-03
 -1      2508 1.39980E-03
 -1      2509 1.30650E-03
 -1      2510 1.48048E-03
 -1      2511 1.44237E-03
 -1      2512 1.58233E-03
 -1      2513 1.33412E-03
 -1      2514 1.68993E-03
 -1      2515 1.19587E-03
 -1      2516 1.08167E-03
 -1      2517 1.57093E-03
 -1      2518 1.42912E-03
 -1      2519 1.48048E-03
 -1      2520 1.48048E-03
 -1      2521 1.62491E-03
 -1      2522 1.46687E-03
 -1      2523 1.46746E-03
 -1      2524 1.61188E-03
 -1      2525 1.48204E-03
 -1      2526 1.48204E-03
 -1      2527 1.61402E-03
 -1      2528 1.44760E-03
 -1      2529 1.48204E-03
 -1      2530 1.62918E-03
 -1      2531 1.32048E-03
 -1      2532 1.41238E-03
 -1      2533 1.59397E-03
 -1      2534 1.08050E-03
 -1      2535 1.19835E-03
 -1      2536 1.43662E-03
 -1      2537 1.36869E-03
 -1      2538 1.05324E-03
 -1      2539 1.28723E-03
 -1      2540 1.37631E+01
 -1      2541 1.91895E+01
 -1      2542 1.67590E-03
 -1      2543 3.14652E+01
 -1      2544 3.14652E+01
 -1      2545 5.09183E-01
 -1      2546 5.21161E-01
 -1      2547 6.05002E-01
 -1      2548 3.02275E+01
 -1      2549 3.08464E+01
 -1      2550 2.61386E+01
 -1      2551 2.55029E+01
 -1      2552 2.02451E+00
 -1      2553 1.30329E+00
 -1      2554 1.29000E+00
 -1      2555 1.53176E+00
 -1      2556 7.59110E+00
 -1      2557 1.11878E+01
 -1      2558 9.62593E+00
 -1      2559 2.10904E+01
 -1      2560 1.97032E+01
 -1      2561 4.53404E-01
 -1      2562 5.48425E-01
 -1      2563 6.20637E-01
 -1      2564 4.18294E-01
 -1      2565 9.37259E+00
 -1      2566 9.72838E+00
 -1      2567 1.07173E+01
 -1      2568 1.48045E+01
 -1      2569 9.28728E+00
 -1      2570 8.84521E+00
 -1      2571 7.45972E+00
 -1      2572 8.60514E+00
 -1      2573 7.48597E+00
 -1      2574 9.39383E+00
 -1      2575 6.41359E+00
 -1      2576 1.63416E+01
 -1      2577 1.18273E+01
 -1      2578 8.19828E+00
 -1      2579 2.90405E+01
 -1      2580 2.48260E+01
 -1      2581 2.32694E+01
 -1      2582 2.81228E+01
 -1      2583 1.81627E+01
 -1      2584 1.97794E+01
 -1      2585 6.46025E+00
 -1      2586 8.85024E+00
 -1      2587 7.70594E+00
 -1      2588 6.20877E+00
 -1      2589 5.44909E+00
 -1      2590 9.11766E+00
 -1      2591 9.41294E+00
 -1      2592 8.25388E+00
 -1      2593 8.51750E+00
 -1      2594 6.09914E+00
 -1      2595 7.24457E+00
 -1      2596 7.90393E+00
 -1      2597 6.49268E+00
 -1      2598 1.29464E+01
 -1      2599 9.28440E+00
 -1      2600 2.19145E+01
 -1      2601 1.54266E+01
 -1      2602 1.72236E+01
 -1      2603 2.32997E+01
 -1      2604 2.53246E+01
 -1      2605 1.30828E+00
 -1      2606 1.49606E+00
 -1      2607 1.40772E+00
 -1      2608 1.19377E+00
 -1      2609 7.81231E+00
 -1      2610 1.13038E+00
 -1      2611 1.19657E+00
 -1      2612 1.43232E+00
 -1      2613 6.03694E-01
 -1      2614 1.36306E+00
 -1      2615 6.39358E+00
 -1      2616 5.85311E+00
 -1      2617 4.13732E+00
 -1      2618 4.55019E+00
 -1      2619 5.60691E+00
 -1      2620 3.67086E+00
 -1      2621 2.61386E+01
 -1      2622 1.82341E-03
 -1      2623 1.82341E-03
 -1      2624 1.11550E+01
 -1      2625 1.20722E+01
 -1      2626 1.90605E+01
 -1      2627 1.61824E+01
 -1      2628 1.39933E+01
 -1      2629 1.68302E-03
 -1      2630 1.48453E-03
 -1      2631 1.37581E-03
 -1      2632 1.98215E-03
 -1      2633 7.29436E+00
 -1      2634 3.08464E+01
 -1      2635 1.25491E+00
 -1      2636 2.53246E+01
 -1      2637 5.52036E+00
 -1      2638 6.13613E+00
 -1      2639 2.10904E+01
 -1      2640 7.74560E+00
 -1      2641 4.82773E+00
 -1      2642 1.29312E+01
 -1      2643 1.97794E+01
 -1      2644 6.29831E+00
 -1      2645 5.55711E+00
 -1      2646 4.66623E+00
 -1      2647 8.68728E+00
 -1      2648 7.95764E+00
 -1      2649 7.62010E+00
 -1      2650 1.53176E+00
 -1      2651 2.82622E+01
 -1      2652 5.41538E+00
 -1      2653 4.35257E+00
 -1      2654 4.76660E+00
 -1      2655 6.37446E+00
 -1      2656 2.61886E+01
 -1      2657 2.19742E+01
 -1      2658 2.61886E+01
 -1      2659 6.77181E+00
 -1      2660 4.37960E+00
 -1      2661 6.98174E+00
 -1      2662 1.95685E-03
 -1      2663 1.97098E-03
 -1      2664 7.90805E-01
 -1      2665 7.05551E-01
 -1      2666 6.07691E-01
 -1      2667 4.81906E-01
 -1      2668 7.05441E-01
 -1      2669 9.04342E-01
 -1      2670 8.67209E-01
 -1      2671 1.07744E+00
 -1      2672 9.16360E-01
 -1      2673 8.87945E-01
 -1      2674 8.11778E-01
 -1      2675 1.07563E+00
 -1      2676 1.78432E+01
 -1      2677 2.27461E+01
 -1      2678 6.03694E-01
 -1      2679 6.04928E-01
 -1      2680 8.11778E-01
 -1      2681 1.19377E+00
 -1      2682 1.03652E+00
 -1      2683 1.07576E+00
 -1      2684 1.16921E+00
 -1      2685 1.25673E+00
 -1      2686 1.21569E+00
 -1      2687 1.36854E+00
 -1      2688 1.47514E+00
 -1      2689 1.42094E+00
 -1      2690 1.70561E+00
 -1      2691 1.80459E+00
 -1      2692 1.76322E+00
 -1      2693 2.10872E+00
 -1      2694 2.19578E+00
 -1      2695 2.29781E+00
 -1      2696 2.40761E+00
 -1      2697 2.67379E+00
 -1      2698 2.81376E+00
 -1      2699 2.96739E+00
 -1      2700 2.90410E+00
 -1      2701 3.31919E+00
 -1      2702 5.39638E+00
 -1      2703 5.97509E+00
 -1      2704 5.58860E+00
 -1      2705 4.56329E+00
 -1      2706 3.25560E+00
 -1      2707 2.90294E+00
 -1      2708 2.79444E+00
 -1      2709 2.77129E+00
 -1      2710 3.39759E+00
 -1      2711 3.19598E+00
 -1      2712 3.09498E+00
 -1      2713 3.71377E+00
 -1      2714 2.49278E+00
 -1      2715 2.30278E+00
 -1      2716 3.53625E+00
 -1      2717 2.00555E+00
 -1      2718 1.93678E+00
 -1      2719 2.63681E+00
 -1      2720 1.67133E+00
 -1      2721 1.56792E+00
 -1      2722 2.07413E+00
 -1      2723 1.41765E+00
 -1      2724 1.35697E+00
 -1      2725 1.65842E+00
 -1      2726 1.23944E+00
 -1      2727 1.17680E+00
 -1      2728 1.39062E+00
 -1      2729 1.06373E+00
 -1      2730 9.83354E-01
 -1      2731 1.16001E+00
 -1      2732 8.82776E-01
 -1      2733 7.98704E-01
 -1      2734 9.46369E-01
 -1      2735 7.12614E-01
 -1      2736 6.37196E-01
 -1      2737 7.59702E-01
 -1      2738 5.65039E-01
 -1      2739 5.00973E-01
 -1      2740 6.01455E-01
 -1      2741 4.41432E-01
 -1      2742 3.87208E-01
 -1      2743 4.69758E-01
 -1      2744 3.38769E-01
 -1      2745 2.94046E-01
 -1      2746 3.61778E-01
 -1      2747 2.55192E-01
 -1      2748 2.19282E-01
 -1      2749 2.74486E-01
 -1      2750 1.88561E-01
 -1      2751 1.60375E-01
 -1      2752 2.04912E-01
 -1      2753 1.36439E-01
 -1      2754 1.14764E-01
 -1      2755 1.50256E-01
 -1      2756 9.63971E-02
 -1      2757 8.00524E-02
 -1      2758 1.07954E-01
 -1      2759 6.61844E-02
 -1      2760 5.41035E-02
 -1      2761 7.57192E-02
 -1      2762 4.38139E-02
 -1      2763 3.63426E-02
 -1      2764 5.15615E-02
 -1      2765 2.88561E-02
 -1      2766 2.39289E-02
 -1      2767 3.37852E-02
 -1      2768 1.86046E-02
 -1      2769 1.71729E-02
 -1      2770 2.09744E-02
 -1      2771 1.46027E-02
 -1      2772 1.32532E-02
 -1      2773 1.30799E-02
 -1      2774 1.27361E-02
 -1      2775 1.13738E-02
 -1      2776 9.99256E-03
 -1      2777 1.08728E-02
 -1      2778 9.58058E-03
 -1      2779 8.97439E-03
 -1      2780 8.96500E-03
 -1      2781 7.78760E-03
 -1      2782 7.85776E-03
 -1      2783 7.13559E-03
 -1      2784 6.49526E-03
 -1      2785 6.59017E-03
 -1      2786 5.96288E-03
 -1      2787 5.31913E-03
 -1      2788 5.40577E-03
 -1      2789 4.89567E-03
 -1      2790 4.24878E-03
 -1      2791 4.44993E-03
 -1      2792 3.80759E-03
 -1      2793 3.27110E-03
 -1      2794 3.58529E-03
 -1      2795 2.84288E-03
 -1      2796 2.36899E-03
 -1      2797 2.71589E-03
 -1      2798 8.27976E-01
 -1      2799 7.48610E-01
 -1      2800 7.06181E+00
 -1      2801 5.68134E+00
 -1      2802 1.53630E+01
 -1      2803 1.17746E+01
 -1      2804 7.30598E-01
 -1      2805 7.43792E-01
 -1      2806 8.98052E-01
 -1      2807 1.30939E+00
 -1      2808 1.13944E+00
 -1      2809 1.54836E+00
 -1      2810 1.40389E+00
 -1      2811 1.54844E+00
 -1      2812 1.65158E+00
 -1      2813 1.54445E+00
 -1      2814 1.63903E+00
 -1      2815 2.06495E+00
 -1      2816 1.95169E+00
 -1      2817 1.93524E+00
 -1      2818 3.11894E+00
 -1      2819 3.06728E+00
 -1      2820 3.23768E+00
 -1      2821 2.94726E+00
 -1      2822 2.99223E+00
 -1      2823 4.11330E+00
 -1      2824 1.80591E+00
 -1      2825 1.94041E+00
 -1      2826 2.97974E+00
 -1      2827 1.53541E+00
 -1      2828 1.66055E+00
 -1      2829 1.82752E+00
 -1      2830 1.27028E+00
 -1      2831 1.44248E+00
 -1      2832 1.58923E+00
 -1      2833 1.14336E+00
 -1      2834 1.25113E+00
 -1      2835 1.47715E+00
 -1      2836 9.63237E-01
 -1      2837 1.00741E+00
 -1      2838 1.32205E+00
 -1      2839 8.76414E-01
 -1      2840 8.77868E-01
 -1      2841 1.10074E+00
 -1      2842 8.52322E-01
 -1      2843 8.43929E-01
 -1      2844 9.82882E-01
 -1      2845 7.74253E-01
 -1      2846 7.96025E-01
 -1      2847 8.94099E-01
 -1      2848 6.91392E-01
 -1      2849 7.15886E-01
 -1      2850 7.79434E-01
 -1      2851 6.20120E-01
 -1      2852 6.53422E-01
 -1      2853 6.83096E-01
 -1      2854 5.39676E-01
 -1      2855 5.77555E-01
 -1      2856 6.02561E-01
 -1      2857 4.51436E-01
 -1      2858 4.94270E-01
 -1      2859 5.14591E-01
 -1      2860 3.65339E-01
 -1      2861 4.07636E-01
 -1      2862 4.25386E-01
 -1      2863 2.87175E-01
 -1      2864 3.25697E-01
 -1      2865 3.41944E-01
 -1      2866 2.19702E-01
 -1      2867 2.52886E-01
 -1      2868 2.68011E-01
 -1      2869 1.63660E-01
 -1      2870 1.91067E-01
 -1      2871 2.05087E-01
 -1      2872 1.18561E-01
 -1      2873 1.40432E-01
 -1      2874 1.53224E-01
 -1      2875 8.32577E-02
 -1      2876 1.00192E-01
 -1      2877 1.11626E-01
 -1      2878 5.70999E-02
 -1      2879 6.90698E-02
 -1      2880 7.90686E-02
 -1      2881 3.90927E-02
 -1      2882 4.63922E-02
 -1      2883 5.41731E-02
 -1      2884 2.70508E-02
 -1      2885 3.12028E-02
 -1      2886 3.55754E-02
 -1      2887 2.00599E-02
 -1      2888 2.19525E-02
 -1      2889 2.25872E-02
 -1      2890 1.60026E-02
 -1      2891 1.78989E-02
 -1      2892 1.53280E-02
 -1      2893 1.36333E-02
 -1      2894 1.54198E-02
 -1      2895 1.25842E-02
 -1      2896 1.12449E-02
 -1      2897 1.28604E-02
 -1      2898 1.12285E-02
 -1      2899 9.20012E-03
 -1      2900 1.03970E-02
 -1      2901 9.60771E-03
 -1      2902 7.61581E-03
 -1      2903 8.35228E-03
 -1      2904 7.91196E-03
 -1      2905 6.15525E-03
 -1      2906 6.92713E-03
 -1      2907 6.37544E-03
 -1      2908 4.90610E-03
 -1      2909 5.66220E-03
 -1      2910 5.19371E-03
 -1      2911 3.78087E-03
 -1      2912 4.38946E-03
 -1      2913 4.18401E-03
 -1      2914 2.77617E-03
 -1      2915 3.32755E-03
 -1      2916 3.21406E-03
 -1      2917 2.24625E-03
 -1      2918 2.59688E-03
 -1      2919 2.58145E-03
 -1      2920 2.11277E-03
 -1      2921 1.71491E-03
 -1      2922 1.72793E-03
 -1      2923 2.00398E-03
 -1      2924 1.52464E-03
 -1      2925 1.40880E-03
 -1      2926 1.92265E-03
 -1      2927 1.75374E-03
 -1      2928 1.71117E-03
 -1      2929 1.72893E-03
 -1      2930 1.71377E-03
 -1      2931 1.82982E-03
 -1      2932 1.75374E-03
 -1      2933 1.75374E-03
 -1      2934 1.88258E-03
 -1      2935 1.85677E-03
 -1      2936 6.49611E-01
 -1      2937 6.47069E-01
 -1      2938 6.48303E-01
 -1      2939 7.85859E-01
 -1      2940 1.75842E-03
 -1      2941 1.75842E-03
 -1      2942 1.85817E-03
 -1      2943 1.72321E-03
 -1      2944 1.75842E-03
 -1      2945 1.88766E-03
 -1      2946 1.57094E-03
 -1      2947 1.69307E-03
 -1      2948 1.85753E-03
 -1      2949 1.58948E-03
 -1      2950 1.61674E-03
 -1      2951 1.87319E-03
 -1      2952 1.73831E-03
 -1      2953 4.70999E+00
 -1      2954 4.31645E+00
 -1      2955 1.54309E+00
 -1      2956 1.30133E+00
 -1      2957 2.39956E+01
 -1      2958 1.86690E+01
 -1      2959 1.09187E+01
 -1      2960 8.43853E+00
 -1      2961 1.00333E+00
 -1      2962 9.60813E-01
 -1      2963 1.04890E+00
 -1      2964 1.31784E+00
 -1      2965 1.30133E+00
 -1      2966 1.25261E+00
 -1      2967 1.33833E+00
 -1      2968 1.55442E+00
 -1      2969 8.64328E-01
 -1      2970 8.24238E-01
 -1      2971 8.36733E-01
 -1      2972 8.73047E-01
 -1      2973 9.05110E+00
 -1      2974 1.24093E+01
 -1      2975 8.17789E+00
 -1      2976 1.07532E+01
 -1      2977 2.04599E+01
 -1      2978 2.54527E+01
 -1      2979 8.50390E-01
 -1      2980 9.33865E-01
 -1      2981 5.89647E+00
 -1      2982 4.89971E+00
 -1      2983 1.52722E+01
 -1      2984 1.87622E+01
 -1      2985 5.76334E+00
 -1      2986 6.53079E+00
 -1      2987 6.63345E+00
 -1      2988 7.23361E+00
 -1      2989 8.59612E+00
 -1      2990 6.16265E+00
 -1      2991 6.96932E+00
 -1      2992 6.52822E+00
 -1      2993 5.82796E+00
 -1      2994 7.69502E+00
 -1      2995 1.54309E+00
 -1      2996 3.87757E+00
 -1      2997 4.88872E+00
 -1      2998 4.87780E+00
 -1      2999 1.88020E+01
 -1      3000 1.50665E+01
 -1      3001 2.25935E+01
 -1      3002 2.32124E+01
 -1      3003 1.31875E+01
 -1      3004 9.82596E+00
 -1      3005 1.24115E+00
 -1      3006 1.44366E+00
 -1      3007 1.24714E+00
 -1      3008 5.80778E-01
 -1      3009 4.55103E-01
 -1      3010 5.17166E-01
 -1      3011 1.13677E+00
 -1      3012 1.51121E+01
 -1      3013 3.40698E+00
 -1      3014 3.92525E+00
 -1      3015 3.45879E+00
 -1      3016 4.33284E+00
 -1      3017 3.50533E+00
 -1      3018 3.85485E+00
 -1      3019 8.03815E+00
 -1      3020 1.19182E+01
 -1      3021 1.09011E+01
 -1      3022 1.08991E+01
 -1      3023 6.50795E+00
 -1      3024 3.99798E+00
 -1      3025 5.49605E+00
 -1      3026 6.55925E+00
 -1      3027 3.31013E+00
 -1      3028 2.62080E+00
 -1      3029 2.78440E+00
 -1      3030 3.57192E+00
 -1      3031 4.81377E+00
 -1      3032 1.83088E-03
 -1      3033 1.65947E-03
 -1      3034 1.54883E-03
 -1      3035 9.05809E+00
 -1      3036 5.62414E+00
 -1      3037 1.51396E-03
 -1      3038 1.76641E-03
 -1      3039 2.05580E-03
 -1      3040 1.74431E-03
 -1      3041 1.06241E+01
 -1      3042 4.60149E+00
 -1      3043 5.24669E+00
 -1      3044 7.17312E+00
 -1      3045 7.79034E+00
 -1      3046 5.28905E+00
 -1      3047 4.33387E+00
 -1      3048 4.12764E+00
 -1      3049 5.05347E+00
 -1      3050 1.32199E+01
 -1      3051 6.82551E+00
 -1      3052 9.59296E-01
 -1      3053 4.14670E+00
 -1      3054 3.87617E+00
 -1      3055 3.56252E+00
 -1      3056 1.44366E+00
 -1      3057 5.16444E+00
 -1      3058 5.92631E-01
 -1      3059 7.32910E-01
 -1      3060 8.22384E-01
 -1      3061 6.29439E-01
 -1      3062 1.59527E+01
 -1      3063 1.52508E+01
 -1      3064 1.26723E+01
 -1      3065 1.10115E+01
 -1      3066 1.83863E+01
 -1      3067 6.98036E+00
 -1      3068 4.36894E+00
 -1      3069 1.57530E+01
 -1      3070 1.86048E+01
 -1      3071 1.25809E+01
 -1      3072 3.32949E+00
 -1      3073 3.43138E+00
 -1      3074 3.49238E+00
 -1      3075 1.28478E+01
 -1      3076 1.26953E+01
 -1      3077 9.55998E-01
 -1      3078 9.43980E-01
 -1      3079 1.23109E+00
 -1      3080 1.32454E+00
 -1      3081 1.54029E+00
 -1      3082 1.65210E+00
 -1      3083 1.55570E+00
 -1      3084 1.95702E+00
 -1      3085 2.18750E+00
 -1      3086 2.07638E+00
 -1      3087 2.57546E+00
 -1      3088 2.87958E+00
 -1      3089 2.76927E+00
 -1      3090 3.68359E+00
 -1      3091 3.89542E+00
 -1      3092 3.96124E+00
 -1      3093 4.79362E+00
 -1      3094 4.40879E+00
 -1      3095 3.80658E+00
 -1      3096 3.30068E+00
 -1      3097 3.00345E+00
 -1      3098 4.17322E+00
 -1      3099 2.54858E+00
 -1      3100 2.28314E+00
 -1      3101 3.21246E+00
 -1      3102 1.95679E+00
 -1      3103 1.80653E+00
 -1      3104 2.43125E+00
 -1      3105 1.54218E+00
 -1      3106 1.42465E+00
 -1      3107 1.84056E+00
 -1      3108 1.23438E+00
 -1      3109 1.12131E+00
 -1      3110 1.38594E+00
 -1      3111 9.91286E-01
 -1      3112 8.90708E-01
 -1      3113 1.06565E+00
 -1      3114 8.01457E-01
 -1      3115 7.15367E-01
 -1      3116 8.46374E-01
 -1      3117 6.36100E-01
 -1      3118 5.63943E-01
 -1      3119 6.77855E-01
 -1      3120 4.96388E-01
 -1      3121 4.36847E-01
 -1      3122 5.31033E-01
 -1      3123 3.81148E-01
 -1      3124 3.32709E-01
 -1      3125 4.07778E-01
 -1      3126 2.87904E-01
 -1      3127 2.49050E-01
 -1      3128 3.07273E-01
 -1      3129 2.13735E-01
 -1      3130 1.83014E-01
 -1      3131 2.27152E-01
 -1      3132 1.55680E-01
 -1      3133 1.31745E-01
 -1      3134 1.64503E-01
 -1      3135 1.11712E-01
 -1      3136 9.33451E-02
 -1      3137 1.17136E-01
 -1      3138 7.85645E-02
 -1      3139 6.46965E-02
 -1      3140 8.23224E-02
 -1      3141 5.39165E-02
 -1      3142 4.36268E-02
 -1      3143 5.67619E-02
 -1      3144 3.61948E-02
 -1      3145 2.87082E-02
 -1      3146 3.85498E-02
 -1      3147 2.32657E-02
 -1      3148 1.79415E-02
 -1      3149 2.56753E-02
 -1      3150 1.40408E-02
 -1      3151 1.14706E-02
 -1      3152 1.63322E-02
 -1      3153 8.74778E-03
 -1      3154 8.23066E-03
 -1      3155 9.70870E-03
 -1      3156 7.69453E-03
 -1      3157 7.19348E-03
 -1      3158 6.44975E-03
 -1      3159 7.23611E-03
 -1      3160 6.62053E-03
 -1      3161 5.95625E-03
 -1      3162 6.41127E-03
 -1      3163 5.75926E-03
 -1      3164 5.78963E-03
 -1      3165 5.40577E-03
 -1      3166 4.87338E-03
 -1      3167 5.22688E-03
 -1      3168 4.44993E-03
 -1      3169 4.02647E-03
 -1      3170 4.44993E-03
 -1      3171 3.69093E-03
 -1      3172 3.24975E-03
 -1      3173 3.69093E-03
 -1      3174 3.06958E-03
 -1      3175 2.64136E-03
 -1      3176 3.17522E-03
 -1      3177 1.95093E-03
 -1      3178 1.92143E-03
 -1      3179 2.28872E+00
 -1      3180 2.29262E+00
 -1      3181 2.01092E+00
 -1      3182 1.91642E+00
 -1      3183 2.66060E+00
 -1      3184 4.24001E+00
 -1      3185 3.23768E+00
 -1      3186 4.83591E+00
 -1      3187 4.96262E+00
 -1      3188 1.89579E+00
 -1      3189 2.04116E+00
 -1      3190 1.84892E+00
 -1      3191 1.94185E+00
 -1      3192 2.15548E+00
 -1      3193 1.73853E+00
 -1      3194 1.75768E+00
 -1      3195 2.11029E+00
 -1      3196 1.78222E+00
 -1      3197 1.91817E+00
 -1      3198 2.19869E+00
 -1      3199 1.28001E+00
 -1      3200 1.36538E+00
 -1      3201 1.96150E+00
 -1      3202 1.12612E+00
 -1      3203 1.15860E+00
 -1      3204 1.42325E+00
 -1      3205 9.44770E-01
 -1      3206 1.00107E+00
 -1      3207 1.17679E+00
 -1      3208 7.96258E-01
 -1      3209 8.54626E-01
 -1      3210 9.61594E-01
 -1      3211 6.93717E-01
 -1      3212 7.31687E-01
 -1      3213 8.06879E-01
 -1      3214 5.89185E-01
 -1      3215 6.31750E-01
 -1      3216 6.80341E-01
 -1      3217 4.86716E-01
 -1      3218 5.32122E-01
 -1      3219 5.61310E-01
 -1      3220 3.91557E-01
 -1      3221 4.35356E-01
 -1      3222 4.52887E-01
 -1      3223 3.08063E-01
 -1      3224 3.47706E-01
 -1      3225 3.57676E-01
 -1      3226 2.38303E-01
 -1      3227 2.72593E-01
 -1      3228 2.78355E-01
 -1      3229 1.80698E-01
 -1      3230 2.09333E-01
 -1      3231 2.13914E-01
 -1      3232 1.34190E-01
 -1      3233 1.57418E-01
 -1      3234 1.61664E-01
 -1      3235 9.74109E-02
 -1      3236 1.15780E-01
 -1      3237 1.19975E-01
 -1      3238 6.89000E-02
 -1      3239 8.30878E-02
 -1      3240 8.72422E-02
 -1      3241 4.72360E-02
 -1      3242 5.79438E-02
 -1      3243 6.19630E-02
 -1      3244 3.11160E-02
 -1      3245 3.90060E-02
 -1      3246 4.27767E-02
 -1      3247 1.99581E-02
 -1      3248 2.50564E-02
 -1      3249 2.84869E-02
 -1      3250 1.34367E-02
 -1      3251 1.55976E-02
 -1      3252 1.80668E-02
 -1      3253 1.00180E-02
 -1      3254 1.06007E-02
 -1      3255 1.08704E-02
 -1      3256 8.77044E-03
 -1      3257 9.54334E-03
 -1      3258 7.55989E-03
 -1      3259 7.82150E-03
 -1      3260 8.66940E-03
 -1      3261 6.98423E-03
 -1      3262 6.64927E-03
 -1      3263 7.49712E-03
 -1      3264 6.55881E-03
 -1      3265 5.51497E-03
 -1      3266 6.20364E-03
 -1      3267 5.78880E-03
 -1      3268 4.52627E-03
 -1      3269 5.01933E-03
 -1      3270 4.84753E-03
 -1      3271 3.65274E-03
 -1      3272 4.16938E-03
 -1      3273 3.99500E-03
 -1      3274 2.82847E-03
 -1      3275 3.28178E-03
 -1      3276 3.26715E-03
 -1      3277 2.33433E-03
 -1      3278 2.51362E-03
 -1      3279 2.58135E-03
 -1      3280 1.98797E-03
 -1      3281 2.10333E-03
 -1      3282 8.58871E-01
 -1      3283 7.61011E-01
 -1      3284 2.08296E-03
 -1      3285 2.08296E-03
 -1      3286 2.14623E-03
 -1      3287 1.83861E-03
 -1      3288 1.83975E-03
 -1      3289 1.93136E-03
 -1      3290 1.57427E+01
 -1      3291 9.91089E+00
 -1      3292 8.03195E+00
 -1      3293 3.04747E+00
 -1      3294 2.74736E+00
 -1      3295 3.40095E+00
 -1      3296 1.09391E+00
 -1      3297 1.07590E+00
 -1      3298 6.44067E+00
 -1      3299 5.06395E+00
 -1      3300 8.79697E-01
 -1      3301 8.20365E-01
 -1      3302 8.76400E-01
 -1      3303 6.72847E-01
 -1      3304 4.52409E+00
 -1      3305 4.96262E+00
 -1      3306 9.22032E+00
 -1      3307 1.05393E+01
 -1      3308 4.52015E+00
 -1      3309 2.29920E-03
 -1      3310 2.32933E-03
 -1      3311 2.52463E-03
 -1      3312 7.86278E+00
 -1      3313 7.00691E+00
 -1      3314 5.24536E+00
 -1      3315 3.98659E+00
 -1      3316 4.83591E+00
 -1      3317 4.20416E+00
 -1      3318 2.97974E+00
 -1      3319 4.65558E+00
 -1      3320 6.98036E+00
 -1      3321 1.22830E+01
 -1      3322 1.39806E+01
 -1      3323 6.41630E+00
 -1      3324 7.77238E+00
 -1      3325 3.99441E+00
 -1      3326 1.31063E+01
 -1      3327 9.80031E+00
 -1      3328 7.74913E+00
 -1      3329 1.55442E+00
 -1      3330 3.77568E+00
 -1      3331 7.08252E+00
 -1      3332 5.85267E+00
 -1      3333 5.06261E+00
 -1      3334 3.66655E+00
 -1      3335 1.42483E+01
 -1      3336 1.49843E+01
 -1      3337 1.05786E+01
 -1      3338 4.71491E+00
 -1      3339 1.26953E+01
 -1      3340 1.34784E+01
 -1      3341 5.31417E+00
 -1      3342 7.06136E-01
 -1      3343 6.79333E-01
 -1      3344 8.59566E-01
 -1      3345 1.01203E+00
 -1      3346 9.43980E-01
 -1      3347 9.41100E-01
 -1      3348 5.89040E+00
 -1      3349 5.02057E+00
 -1      3350 3.07703E+00
 -1      3351 2.81315E+00
 -1      3352 2.85969E+00
 -1      3353 3.63729E+00
 -1      3354 7.28133E+00
 -1      3355 1.08152E+00
 -1      3356 1.38880E+00
 -1      3357 2.45702E-03
 -1      3358 1.95864E-03
 -1      3359 1.90694E-03
 -1      3360 1.51838E+00
 -1      3361 1.30229E+00
 -1      3362 1.41114E+00
 -1      3363 1.91686E-03
 -1      3364 1.90808E-03
 -1      3365 1.93389E-03
 -1      3366 1.55442E+00
 -1      3367 9.81567E+00
 -1      3368 1.00129E+01
 -1      3369 7.14569E+00
 -1      3370 4.04980E+00
 -1      3371 2.37503E+00
 -1      3372 1.91256E+00
 -1      3373 1.77645E+00
 -1      3374 3.04801E+00
 -1      3375 4.62082E+00
 -1      3376 6.94560E+00
 -1      3377 6.86078E+00
 -1      3378 1.95864E-03
 -1      3379 1.95864E-03
 -1      3380 2.03471E-03
 -1      3381 2.00995E-03
 -1      3382 1.02019E+00
 -1      3383 1.07576E+00
 -1      3384 1.05363E+00
 -1      3385 3.92525E+00
 -1      3386 1.09902E+01
 -1      3387 8.57336E+00
 -1      3388 8.39783E+00
 -1      3389 2.41123E-03
 -1      3390 1.00588E+01
 -1      3391 1.04310E+01
 -1      3392 1.17110E+00
 -1      3393 1.34894E+00
 -1      3394 1.30393E+00
 -1      3395 3.46068E+00
 -1      3396 9.60772E+00
 -1      3397 9.41404E-01
 -1      3398 8.47223E-01
 -1      3399 1.13726E+00
 -1      3400 2.88303E-03
 -1      3401 1.03401E+01
 -1      3402 8.36805E+00
 -1      3403 6.98615E+00
 -1      3404 1.16150E+01
 -1      3405 9.64043E-01
 -1      3406 1.08152E+00
 -1      3407 1.22318E+00
 -1      3408 4.70630E+00
 -1      3409 3.20841E+00
 -1      3410 3.99848E+00
 -1      3411 6.60311E+00
 -1      3412 4.66543E+00
 -1      3413 5.61487E+00
 -1      3414 3.60811E+00
 -1      3415 4.12764E+00
 -1      3416 7.63296E-01
 -1      3417 7.19921E-01
 -1      3418 7.87840E-01
 -1      3419 9.18841E-01
 -1      3420 4.04980E+00
 -1      3421 6.15617E+00
 -1      3422 2.69871E+00
 -1      3423 2.08969E+00
 -1      3424 2.39461E+00
 -1      3425 2.61193E+00
 -1      3426 2.99989E+00
 -1      3427 2.62523E+00
 -1      3428 4.73946E+00
 -1      3429 9.01074E+00
 -1      3430 8.63858E+00
 -1      3431 5.12959E+00
 -1      3432 4.67473E+00
 -1      3433 3.25284E+00
 -1      3434 2.92650E+00
 -1      3435 5.16998E+00
 -1      3436 2.06023E+00
 -1      3437 1.79588E+00
 -1      3438 2.88182E+00
 -1      3439 1.54682E+00
 -1      3440 1.35655E+00
 -1      3441 1.76649E+00
 -1      3442 1.19567E+00
 -1      3443 1.06565E+00
 -1      3444 1.35655E+00
 -1      3445 9.35625E-01
 -1      3446 8.46374E-01
 -1      3447 1.06565E+00
 -1      3448 7.41778E-01
 -1      3449 6.62511E-01
 -1      3450 8.31029E-01
 -1      3451 5.79543E-01
 -1      3452 5.11987E-01
 -1      3453 6.43466E-01
 -1      3454 4.46129E-01
 -1      3455 3.90430E-01
 -1      3456 4.94639E-01
 -1      3457 3.38298E-01
 -1      3458 2.93493E-01
 -1      3459 3.76649E-01
 -1      3460 2.52483E-01
 -1      3461 2.17167E-01
 -1      3462 2.83508E-01
 -1      3463 1.85169E-01
 -1      3464 1.57835E-01
 -1      3465 2.10500E-01
 -1      3466 1.33120E-01
 -1      3467 1.13087E-01
 -1      3468 1.53786E-01
 -1      3469 9.42248E-02
 -1      3470 7.94442E-02
 -1      3471 1.10208E-01
 -1      3472 6.53853E-02
 -1      3473 5.46053E-02
 -1      3474 7.72877E-02
 -1      3475 4.46719E-02
 -1      3476 3.72399E-02
 -1      3477 5.32954E-02
 -1      3478 2.99018E-02
 -1      3479 2.44594E-02
 -1      3480 3.60240E-02
 -1      3481 1.91437E-02
 -1      3482 1.52430E-02
 -1      3483 2.33702E-02
 -1      3484 1.15199E-02
 -1      3485 8.79703E-03
 -1      3486 1.43314E-02
 -1      3487 6.26745E-03
 -1      3488 5.73133E-03
 -1      3489 8.07862E-03
 -1      3490 4.55675E-03
 -1      3491 4.59938E-03
 -1      3492 4.37446E-03
 -1      3493 4.93922E-03
 -1      3494 4.72996E-03
 -1      3495 3.53972E-03
 -1      3496 4.77246E-03
 -1      3497 4.41897E-03
 -1      3498 3.92205E-03
 -1      3499 4.27366E-03
 -1      3500 3.85021E-03
 -1      3501 3.81925E-03
 -1      3502 3.59999E-03
 -1      3503 3.26444E-03
 -1      3504 3.42372E-03
 -1      3505 3.17522E-03
 -1      3506 2.99506E-03
 -1      3507 2.88303E-03
 -1      3508 3.08428E-03
 -1      3509 2.22584E+00
 -1      3510 2.64268E+00
 -1      3511 1.57435E+00
 -1      3512 1.69576E+00
 -1      3513 2.37694E+00
 -1      3514 1.24695E+00
 -1      3515 1.37200E+00
 -1      3516 1.64451E+00
 -1      3517 1.01215E+00
 -1      3518 1.10230E+00
 -1      3519 1.29751E+00
 -1      3520 8.19672E-01
 -1      3521 8.84243E-01
 -1      3522 1.02495E+00
 -1      3523 6.59077E-01
 -1      3524 7.21043E-01
 -1      3525 7.98407E-01
 -1      3526 5.32206E-01
 -1      3527 5.89269E-01
 -1      3528 6.29972E-01
 -1      3529 4.28457E-01
 -1      3530 4.79816E-01
 -1      3531 5.07775E-01
 -1      3532 3.41570E-01
 -1      3533 3.85421E-01
 -1      3534 4.12350E-01
 -1      3535 2.67367E-01
 -1      3536 3.02837E-01
 -1      3537 3.30581E-01
 -1      3538 2.05104E-01
 -1      3539 2.34074E-01
 -1      3540 2.58556E-01
 -1      3541 1.54143E-01
 -1      3542 1.77423E-01
 -1      3543 1.97583E-01
 -1      3544 1.13336E-01
 -1      3545 1.31746E-01
 -1      3546 1.47505E-01
 -1      3547 8.13203E-02
 -1      3548 9.56433E-02
 -1      3549 1.07414E-01
 -1      3550 5.69629E-02
 -1      3551 6.79191E-02
 -1      3552 7.63202E-02
 -1      3553 3.89533E-02
 -1      3554 4.71834E-02
 -1      3555 5.31396E-02
 -1      3556 2.55738E-02
 -1      3557 3.16335E-02
 -1      3558 3.60403E-02
 -1      3559 1.58609E-02
 -1      3560 2.02213E-02
 -1      3561 2.33679E-02
 -1      3562 9.28147E-03
 -1      3563 1.21174E-02
 -1      3564 1.42719E-02
 -1      3565 6.28635E-03
 -1      3566 6.76096E-03
 -1      3567 8.00793E-03
 -1      3568 5.38234E-03
 -1      3569 5.48338E-03
 -1      3570 4.68446E-03
 -1      3571 5.33664E-03
 -1      3572 5.66102E-03
 -1      3573 4.16017E-03
 -1      3574 4.87825E-03
 -1      3575 5.32388E-03
 -1      3576 4.42609E-03
 -1      3577 4.18799E-03
 -1      3578 4.68362E-03
 -1      3579 4.21870E-03
 -1      3580 3.53677E-03
 -1      3581 3.89367E-03
 -1      3582 3.72976E-03
 -1      3583 2.89443E-03
 -1      3584 3.26538E-03
 -1      3585 3.16405E-03
 -1      3586 2.27041E+00
 -1      3587 2.14623E-03
 -1      3588 2.01419E-03
 -1      3589 2.05795E-03
 -1      3590 2.02308E-03
 -1      3591 2.30162E-03
 -1      3592 2.18572E-03
 -1      3593 1.99955E-03
 -1      3594 1.91673E-03
 -1      3595 1.99955E-03
 -1      3596 1.51838E+00
 -1      3597 3.14948E+00
 -1      3598 2.93741E+00
 -1      3599 3.66774E+00
 -1      3600 2.55564E+00
 -1      3601 8.89692E-01
 -1      3602 1.02533E+00
 -1      3603 9.36766E-01
 -1      3604 3.25351E+00
 -1      3605 7.57314E-01
 -1      3606 8.32779E-01
 -1      3607 1.09192E+00
 -1      3608 2.34947E+00
 -1      3609 2.44072E+00
 -1      3610 2.97181E+00
 -1      3611 1.35276E+00
 -1      3612 8.74086E+00
 -1      3613 9.50955E+00
 -1      3614 1.69732E+00
 -1      3615 1.91308E+00
 -1      3616 2.23131E+00
 -1      3617 9.01074E+00
 -1      3618 9.01074E+00
 -1      3619 8.47316E+00
 -1      3620 8.74086E+00
 -1      3621 2.53471E-03
 -1      3622 2.28834E-03
 -1      3623 2.15631E-03
 -1      3624 2.64674E-03
 -1      3625 8.13927E+00
 -1      3626 6.20174E+00
 -1      3627 7.92562E+00
 -1      3628 8.39783E+00
 -1      3629 4.58560E+00
 -1      3630 5.97652E+00
 -1      3631 5.41558E+00
 -1      3632 3.78159E+00
 -1      3633 1.02533E+00
 -1      3634 7.59050E+00
 -1      3635 1.12456E+00
 -1      3636 3.62425E+00
 -1      3637 6.94155E+00
 -1      3638 1.54249E+00
 -1      3639 1.47129E+00
 -1      3640 1.82867E+00
 -1      3641 1.41291E+00
 -1      3642 2.06920E-03
 -1      3643 2.13753E-03
 -1      3644 2.13739E-03
 -1      3645 2.61550E+00
 -1      3646 2.61164E+00
 -1      3647 3.94667E+00
 -1      3648 3.91191E+00
 -1      3649 2.95883E+00
 -1      3650 2.31646E+00
 -1      3651 2.46369E-03
 -1      3652 2.61470E-03
 -1      3653 2.61646E-03
 -1      3654 7.09118E+00
 -1      3655 6.71573E+00
 -1      3656 1.89865E+00
 -1      3657 3.85958E+00
 -1      3658 1.41291E+00
 -1      3659 1.60264E+00
 -1      3660 1.41291E+00
 -1      3661 2.80536E-03
 -1      3662 3.23434E-03
 -1      3663 7.35928E+00
 -1      3664 5.52154E+00
 -1      3665 5.41643E+00
 -1      3666 2.80536E-03
 -1      3667 1.36904E+00
 -1      3668 1.23454E+00
 -1      3669 8.82672E-01
 -1      3670 5.96926E+00
 -1      3671 5.86727E+00
 -1      3672 4.43843E+00
 -1      3673 2.62841E+00
 -1      3674 4.91114E+00
 -1      3675 7.18586E+00
 -1      3676 2.80805E+00
 -1      3677 1.05609E+00
 -1      3678 1.00122E+00
 -1      3679 6.63543E+00
 -1      3680 8.27076E+00
 -1      3681 6.85052E+00
 -1      3682 6.41313E+00
 -1      3683 4.07346E+00
 -1      3684 2.92709E+00
 -1      3685 3.59405E+00
 -1      3686 5.97597E+00
 -1      3687 1.62084E+00
 -1      3688 1.45952E+00
 -1      3689 1.60117E+00
 -1      3690 1.85571E+00
 -1      3691 1.77853E+00
 -1      3692 1.87581E+00
 -1      3693 3.07239E+00
 -1      3694 3.07091E+00
 -1      3695 3.28823E+00
 -1      3696 6.05664E+00
 -1      3697 6.05664E+00
 -1      3698 1.38489E+00
 -1      3699 1.37159E+00
 -1      3700 1.48412E+00
 -1      3701 2.68662E+00
 -1      3702 3.34795E+00
 -1      3703 2.48168E+00
 -1      3704 2.01084E+00
 -1      3705 1.76178E+00
 -1      3706 2.47696E+00
 -1      3707 1.49751E+00
 -1      3708 1.33662E+00
 -1      3709 1.74185E+00
 -1      3710 1.14206E+00
 -1      3711 1.01204E+00
 -1      3712 1.28302E+00
 -1      3713 8.74585E-01
 -1      3714 7.69989E-01
 -1      3715 9.51000E-01
 -1      3716 6.71742E-01
 -1      3717 5.88774E-01
 -1      3718 7.15297E-01
 -1      3719 5.15330E-01
 -1      3720 4.49472E-01
 -1      3721 5.43607E-01
 -1      3722 3.93182E-01
 -1      3723 3.41050E-01
 -1      3724 4.13873E-01
 -1      3725 2.97440E-01
 -1      3726 2.56430E-01
 -1      3727 3.13973E-01
 -1      3728 2.22474E-01
 -1      3729 1.90476E-01
 -1      3730 2.36406E-01
 -1      3731 1.64068E-01
 -1      3732 1.39352E-01
 -1      3733 1.76042E-01
 -1      3734 1.18939E-01
 -1      3735 1.00077E-01
 -1      3736 1.29221E-01
 -1      3737 8.44490E-02
 -1      3738 7.03901E-02
 -1      3739 9.31793E-02
 -1      3740 5.85744E-02
 -1      3741 4.86410E-02
 -1      3742 6.57357E-02
 -1      3743 4.00724E-02
 -1      3744 3.27344E-02
 -1      3745 4.53514E-02
 -1      3746 2.66916E-02
 -1      3747 2.13759E-02
 -1      3748 3.07400E-02
 -1      3749 1.69596E-02
 -1      3750 1.32364E-02
 -1      3751 2.02809E-02
 -1      3752 1.00789E-02
 -1      3753 7.54934E-03
 -1      3754 1.27071E-02
 -1      3755 5.38861E-03
 -1      3756 4.21403E-03
 -1      3757 7.38891E-03
 -1      3758 2.90649E-03
 -1      3759 3.24633E-03
 -1      3760 3.92064E-03
 -1      3761 3.21447E-03
 -1      3762 3.25697E-03
 -1      3763 2.58125E-03
 -1      3764 3.41204E-03
 -1      3765 3.26674E-03
 -1      3766 2.70446E-03
 -1      3767 3.23763E-03
 -1      3768 2.98741E-03
 -1      3769 2.83042E-03
 -1      3770 2.84231E-03
 -1      3771 2.75309E-03
 -1      3772 2.40477E-03
 -1      3773 2.65622E-03
 -1      3774 1.26119E+00
 -1      3775 1.40584E+00
 -1      3776 1.82867E+00
 -1      3777 2.05471E+00
 -1      3778 1.82867E+00
 -1      3779 2.51795E-03
 -1      3780 2.54271E-03
 -1      3781 2.67028E-03
 -1      3782 2.30951E+00
 -1      3783 2.83958E+00
 -1      3784 1.00685E+00
 -1      3785 1.13476E+00
 -1      3786 1.24309E+00
 -1      3787 7.80121E-01
 -1      3788 8.78749E-01
 -1      3789 9.88565E-01
 -1      3790 6.25785E-01
 -1      3791 6.95592E-01
 -1      3792 7.75934E-01
 -1      3793 5.07775E-01
 -1      3794 5.60165E-01
 -1      3795 6.25785E-01
 -1      3796 4.08154E-01
 -1      3797 4.51190E-01
 -1      3798 5.03579E-01
 -1      3799 3.21393E-01
 -1      3800 3.60125E-01
 -1      3801 3.98965E-01
 -1      3802 2.48350E-01
 -1      3803 2.81642E-01
 -1      3804 3.11186E-01
 -1      3805 1.88277E-01
 -1      3806 2.15958E-01
 -1      3807 2.39044E-01
 -1      3808 1.39870E-01
 -1      3809 1.62268E-01
 -1      3810 1.80642E-01
 -1      3811 1.01605E-01
 -1      3812 1.19297E-01
 -1      3813 1.34060E-01
 -1      3814 7.21862E-02
 -1      3815 8.55874E-02
 -1      3816 9.74707E-02
 -1      3817 5.01432E-02
 -1      3818 5.99227E-02
 -1      3819 6.91899E-02
 -1      3820 3.38352E-02
 -1      3821 4.11550E-02
 -1      3822 4.79381E-02
 -1      3823 2.20879E-02
 -1      3824 2.74405E-02
 -1      3825 3.25552E-02
 -1      3826 1.36536E-02
 -1      3827 1.73971E-02
 -1      3828 2.14697E-02
 -1      3829 7.77139E-03
 -1      3830 1.02919E-02
 -1      3831 1.34171E-02
 -1      3832 4.64872E-03
 -1      3833 5.45169E-03
 -1      3834 7.73566E-03
 -1      3835 3.61123E-03
 -1      3836 3.33255E-03
 -1      3837 4.09978E-03
 -1      3838 3.65402E-03
 -1      3839 3.66678E-03
 -1      3840 2.83916E-03
 -1      3841 3.59996E-03
 -1      3842 3.79459E-03
 -1      3843 3.03528E-03
 -1      3844 3.50573E-03
 -1      3845 3.80004E-03
 -1      3846 3.37593E-03
 -1      3847 3.50573E-03
 -1      3848 2.08684E-03
 -1      3849 2.07220E-03
 -1      3850 5.81974E+00
 -1      3851 5.81974E+00
 -1      3852 5.51714E+00
 -1      3853 6.07896E+00
 -1      3854 5.57965E+00
 -1      3855 4.15776E+00
 -1      3856 4.54510E+00
 -1      3857 6.05723E+00
 -1      3858 6.36336E+00
 -1      3859 9.82634E-01
 -1      3860 1.08449E+00
 -1      3861 1.43075E+00
 -1      3862 1.06656E+00
 -1      3863 1.00122E+00
 -1      3864 1.07920E+00
 -1      3865 1.19775E+00
 -1      3866 1.16203E+00
 -1      3867 1.29329E+00
 -1      3868 1.48302E+00
 -1      3869 1.28058E+00
 -1      3870 1.64451E+00
 -1      3871 1.84687E+00
 -1      3872 1.60819E+00
 -1      3873 6.05723E+00
 -1      3874 6.05723E+00
 -1      3875 2.23131E+00
 -1      3876 2.40791E+00
 -1      3877 3.07091E+00
 -1      3878 2.23131E+00
 -1      3879 3.31336E-03
 -1      3880 2.58633E+00
 -1      3881 2.11380E+00
 -1      3882 2.54339E+00
 -1      3883 2.90178E+00
 -1      3884 3.91467E+00
 -1      3885 4.92429E+00
 -1      3886 3.91552E+00
 -1      3887 3.13297E+00
 -1      3888 3.57601E-03
 -1      3889 4.65582E+00
 -1      3890 5.54014E+00
 -1      3891 4.26172E+00
 -1      3892 1.86788E+00
 -1      3893 3.57864E+00
 -1      3894 1.29834E+00
 -1      3895 2.40470E+00
 -1      3896 2.00127E+00
 -1      3897 3.75762E+00
 -1      3898 3.31336E-03
 -1      3899 3.57601E-03
 -1      3900 3.57601E-03
 -1      3901 3.74654E+00
 -1      3902 2.30951E+00
 -1      3903 2.48098E+00
 -1      3904 1.67745E+00
 -1      3905 1.67745E+00
 -1      3906 4.07162E+00
 -1      3907 4.12240E+00
 -1      3908 5.23629E+00
 -1      3909 4.65809E+00
 -1      3910 2.67260E+00
 -1      3911 2.26311E+00
 -1      3912 2.02566E-03
 -1      3913 2.17813E-03
 -1      3914 2.11294E-03
 -1      3915 2.93235E+00
 -1      3916 2.13556E+00
 -1      3917 1.96758E+00
 -1      3918 4.00932E+00
 -1      3919 3.41734E+00
 -1      3920 3.31704E+00
 -1      3921 4.00418E+00
 -1      3922 4.26172E+00
 -1      3923 3.48931E+00
 -1      3924 4.72135E+00
 -1      3925 5.46110E+00
 -1      3926 3.02667E+00
 -1      3927 5.31666E+00
 -1      3928 6.05664E+00
 -1      3929 4.52278E+00
 -1      3930 2.26265E-03
 -1      3931 5.47903E+00
 -1      3932 2.33531E-03
 -1      3933 4.56512E+00
 -1      3934 2.59384E+00
 -1      3935 2.12300E+00
 -1      3936 2.40470E+00
 -1      3937 2.80480E+00
 -1      3938 3.75762E+00
 -1      3939 2.94780E+00
 -1      3940 3.73529E+00
 -1      3941 4.12871E+00
 -1      3942 4.12871E+00
 -1      3943 2.12848E+00
 -1      3944 1.86420E+00
 -1      3945 2.24536E+00
 -1      3946 1.29427E+00
 -1      3947 1.09971E+00
 -1      3948 1.68090E+00
 -1      3949 9.46177E-01
 -1      3950 8.08720E-01
 -1      3951 9.57427E-01
 -1      3952 7.06928E-01
 -1      3953 6.08681E-01
 -1      3954 7.02104E-01
 -1      3955 5.36345E-01
 -1      3956 4.62901E-01
 -1      3957 5.27975E-01
 -1      3958 4.08945E-01
 -1      3959 3.52655E-01
 -1      3960 4.01683E-01
 -1      3961 3.11613E-01
 -1      3962 2.68003E-01
 -1      3963 3.06685E-01
 -1      3964 2.36076E-01
 -1      3965 2.02120E-01
 -1      3966 2.33716E-01
 -1      3967 1.77097E-01
 -1      3968 1.50689E-01
 -1      3969 1.76767E-01
 -1      3970 1.31100E-01
 -1      3971 1.10686E-01
 -1      3972 1.32155E-01
 -1      3973 9.54544E-02
 -1      3974 7.98265E-02
 -1      3975 9.73337E-02
 -1      3976 6.81062E-02
 -1      3977 5.62905E-02
 -1      3978 7.03813E-02
 -1      3979 4.73916E-02
 -1      3980 3.88230E-02
 -1      3981 4.97622E-02
 -1      3982 3.22429E-02
 -1      3983 2.62001E-02
 -1      3984 3.42831E-02
 -1      3985 2.18275E-02
 -1      3986 1.74113E-02
 -1      3987 2.33304E-02
 -1      3988 1.43172E-02
 -1      3989 1.11598E-02
 -1      3990 1.58639E-02
 -1      3991 8.87635E-03
 -1      3992 6.71562E-03
 -1      3993 1.04865E-02
 -1      3994 5.06188E-03
 -1      3995 3.75434E-03
 -1      3996 6.54932E-03
 -1      3997 2.58450E-03
 -1      3998 2.55264E-03
 -1      3999 3.72574E-03
 -1      4000 2.16391E-03
 -1      4001 2.31898E-03
 -1      4002 2.16716E-03
 -1      4003 1.50101E+00
 -1      4004 1.72705E+00
 -1      4005 1.38140E+00
 -1      4006 2.45914E-03
 -1      4007 2.83956E-03
 -1      4008 3.10222E-03
 -1      4009 2.34741E-03
 -1      4010 1.31364E+00
 -1      4011 1.44006E+00
 -1      4012 6.11342E-01
 -1      4013 6.76963E-01
 -1      4014 4.79905E-01
 -1      4015 5.36490E-01
 -1      4016 5.87667E-01
 -1      4017 3.72291E-01
 -1      4018 4.20319E-01
 -1      4019 4.53230E-01
 -1      4020 2.86242E-01
 -1      4021 3.25992E-01
 -1      4022 3.47347E-01
 -1      4023 2.17562E-01
 -1      4024 2.49954E-01
 -1      4025 2.64760E-01
 -1      4026 1.63090E-01
 -1      4027 1.89100E-01
 -1      4028 2.00010E-01
 -1      4029 1.20281E-01
 -1      4030 1.40853E-01
 -1      4031 1.49311E-01
 -1      4032 8.70191E-02
 -1      4033 1.03036E-01
 -1      4034 1.09829E-01
 -1      4035 6.15209E-02
 -1      4036 7.37844E-02
 -1      4037 7.93501E-02
 -1      4038 4.25043E-02
 -1      4039 5.14925E-02
 -1      4040 5.60870E-02
 -1      4041 2.86338E-02
 -1      4042 3.50285E-02
 -1      4043 3.85828E-02
 -1      4044 1.88840E-02
 -1      4045 2.35748E-02
 -1      4046 2.60481E-02
 -1      4047 1.18123E-02
 -1      4048 1.51740E-02
 -1      4049 1.72792E-02
 -1      4050 6.99005E-03
 -1      4051 9.30976E-03
 -1      4052 1.10667E-02
 -1      4053 3.95666E-03
 -1      4054 5.27283E-03
 -1      4055 6.84693E-03
 -1      4056 2.83916E-03
 -1      4057 2.78361E-03
 -1      4058 3.95666E-03
 -1      4059 2.59712E-03
 -1      4060 2.45655E-03
 -1      4061 2.40100E-03
 -1      4062 3.18834E-03
 -1      4063 2.98825E-03
 -1      4064 2.40952E-03
 -1      4065 3.18834E-03
 -1      4066 3.62669E+00
 -1      4067 3.98533E+00
 -1      4068 4.35052E+00
 -1      4069 4.94391E+00
 -1      4070 4.15003E+00
 -1      4071 3.41210E+00
 -1      4072 2.26798E+00
 -1      4073 9.88565E-01
 -1      4074 1.11667E+00
 -1      4075 1.31364E+00
 -1      4076 1.70550E+00
 -1      4077 1.94418E+00
 -1      4078 3.12398E+00
 -1      4079 1.77605E+00
 -1      4080 2.93069E+00
 -1      4081 7.75934E-01
 -1      4082 8.60463E-01
 -1      4083 9.88565E-01
 -1      4084 7.61491E-01
 -1      4085 3.83261E+00
 -1      4086 4.07078E+00
 -1      4087 2.59384E+00
 -1      4088 4.05755E+00
 -1      4089 2.70722E+00
 -1      4090 3.23661E+00
 -1      4091 2.54420E+00
 -1      4092 1.90365E+00
 -1      4093 2.49812E-03
 -1      4094 2.46901E-03
 -1      4095 2.48040E-03
 -1      4096 2.60079E+00
 -1      4097 2.27698E+00
 -1      4098 3.93791E+00
 -1      4099 3.11470E+00
 -1      4100 3.78552E+00
 -1      4101 2.14810E-03
 -1      4102 1.95757E-03
 -1      4103 3.19429E+00
 -1      4104 3.24591E+00
 -1      4105 2.64537E+00
 -1      4106 2.53129E+00
 -1      4107 2.00646E-03
 -1      4108 1.95991E-03
 -1      4109 1.99507E-03
 -1      4110 3.73529E+00
 -1      4111 1.67745E+00
 -1      4112 1.76028E+00
 -1      4113 1.77828E+00
 -1      4114 2.15716E+00
 -1      4115 2.93235E+00
 -1      4116 2.93235E+00
 -1      4117 2.72834E+00
 -1      4118 3.05990E+00
 -1      4119 2.28016E+00
 -1      4120 1.71022E+00
 -1      4121 1.10215E+00
 -1      4122 9.48619E-01
 -1      4123 1.70142E+00
 -1      4124 7.83319E-01
 -1      4125 6.81527E-01
 -1      4126 9.28042E-01
 -1      4127 5.85243E-01
 -1      4128 5.12907E-01
 -1      4129 6.66459E-01
 -1      4130 4.41424E-01
 -1      4131 3.87468E-01
 -1      4132 4.98692E-01
 -1      4133 3.34272E-01
 -1      4134 2.93230E-01
 -1      4135 3.74013E-01
 -1      4136 2.53103E-01
 -1      4137 2.21177E-01
 -1      4138 2.80691E-01
 -1      4139 1.90594E-01
 -1      4140 1.65571E-01
 -1      4141 2.09981E-01
 -1      4142 1.42149E-01
 -1      4143 1.22560E-01
 -1      4144 1.55976E-01
 -1      4145 1.05036E-01
 -1      4146 8.98038E-02
 -1      4147 1.15030E-01
 -1      4148 7.67783E-02
 -1      4149 6.50580E-02
 -1      4150 8.44804E-02
 -1      4151 5.50059E-02
 -1      4152 4.61070E-02
 -1      4153 6.14029E-02
 -1      4154 3.84473E-02
 -1      4155 3.18671E-02
 -1      4156 4.36910E-02
 -1      4157 2.63145E-02
 -1      4158 2.19420E-02
 -1      4159 3.04786E-02
 -1      4160 1.80359E-02
 -1      4161 1.49419E-02
 -1      4162 2.10199E-02
 -1      4163 1.20312E-02
 -1      4164 9.74777E-03
 -1      4165 1.42032E-02
 -1      4166 7.61726E-03
 -1      4167 5.96352E-03
 -1      4168 9.16197E-03
 -1      4169 4.43395E-03
 -1      4170 3.26411E-03
 -1      4171 5.50189E-03
 -1      4172 2.18757E-03
 -1      4173 1.79883E-03
 -1      4174 2.89578E-03
 -1      4175 4.81910E-01
 -1      4176 5.41495E-01
 -1      4177 3.44625E+00
 -1      4178 3.44625E+00
 -1      4179 6.37779E-01
 -1      4180 7.12631E-01
 -1      4181 6.66459E-01
 -1      4182 2.74644E-01
 -1      4183 3.10933E-01
 -1      4184 2.06056E-01
 -1      4185 2.34518E-01
 -1      4186 2.80691E-01
 -1      4187 1.53235E-01
 -1      4188 1.75473E-01
 -1      4189 2.09981E-01
 -1      4190 1.12570E-01
 -1      4191 1.29814E-01
 -1      4192 1.55976E-01
 -1      4193 8.14062E-02
 -1      4194 9.46409E-02
 -1      4195 1.14626E-01
 -1      4196 5.77190E-02
 -1      4197 6.77474E-02
 -1      4198 8.30381E-02
 -1      4199 3.99234E-02
 -1      4200 4.73992E-02
 -1      4201 5.90596E-02
 -1      4202 2.75602E-02
 -1      4203 3.26191E-02
 -1      4204 4.14355E-02
 -1      4205 1.84352E-02
 -1      4206 2.21452E-02
 -1      4207 2.87162E-02
 -1      4208 1.19384E-02
 -1      4209 1.44409E-02
 -1      4210 1.93070E-02
 -1      4211 7.32622E-03
 -1      4212 9.04344E-03
 -1      4213 1.24177E-02
 -1      4214 4.09547E-03
 -1      4215 5.26852E-03
 -1      4216 7.46502E-03
 -1      4217 2.33266E-03
 -1      4218 2.71527E-03
 -1      4219 4.02713E-03
 -1      4220 2.02703E+00
 -1      4221 2.19982E+00
 -1      4222 2.46526E+00
 -1      4223 3.70591E+00
 -1      4224 2.91842E+00
 -1      4225 3.44625E+00
 -1      4226 1.69641E-03
 -1      4227 1.87556E-03
 -1      4228 1.73391E-03
 -1      4229 1.71682E-03
 -1      4230 2.96797E+00
 -1      4231 3.64129E-01
 -1      4232 4.10427E-01
 -1      4233 3.74013E-01
 -1      4234 2.56446E+00
 -1      4235 1.31364E+00
 -1      4236 1.51060E+00
 -1      4237 2.58758E+00
 -1      4238 2.56993E+00
 -1      4239 4.98692E-01
 -1      4240 2.59926E+00
 -1      4241 1.95991E-03
 -1      4242 2.24092E-03
 -1      4243 1.85342E-03
 -1      4244 9.28042E-01
 -1      4245 8.77930E-01
 -1      4246 9.76902E-01
 -1      4247 2.40592E+00
 -1      4248 1.71545E-03
 -1      4249 2.02972E-03
 -1      4250 2.10658E-03
 -1      4251 3.33316E+00
 -1      4252 2.19982E+00
 -1      4253 3.33316E+00
 -1      4254 2.39661E+00
 -1      4255 2.39661E+00
 -1      4256 9.37247E-01
 -1      4257 1.06535E+00
 -1      4258 1.26232E+00
 -1      4259 1.05369E+00
 -1      4260 2.51643E+00
 -1      4261 1.83277E+00
 -1      4262 1.22470E+00
 -1      4263 1.09334E+00
 -1      4264 9.28042E-01
 -1      4265 7.62742E-01
 -1      4266 6.66459E-01
 -1      4267 5.70175E-01
 -1      4268 4.98692E-01
 -1      4269 4.27209E-01
 -1      4270 3.74013E-01
 -1      4271 3.20817E-01
 -1      4272 2.80691E-01
 -1      4273 2.40564E-01
 -1      4274 2.09981E-01
 -1      4275 1.79397E-01
 -1      4276 1.55976E-01
 -1      4277 1.32554E-01
 -1      4278 1.15030E-01
 -1      4279 9.71014E-02
 -1      4280 8.40759E-02
 -1      4281 7.04171E-02
 -1      4282 6.03650E-02
 -1      4283 5.00453E-02
 -1      4284 4.23856E-02
 -1      4285 3.50812E-02
 -1      4286 2.95286E-02
 -1      4287 2.41136E-02
 -1      4288 2.02076E-02
 -1      4289 1.62132E-02
 -1      4290 1.33026E-02
 -1      4291 1.04076E-02
 -1      4292 8.27708E-03
 -1      4293 6.21939E-03
 -1      4294 4.68982E-03
 -1      4295 3.30963E-03
 -1      4296 2.23308E-03
 -1      4297 2.88904E+00
 -1      4298 2.66900E-03
 -1      4299 2.28132E-03
 -1      4300 1.58725E-03
 -1      4301 2.19520E-03
 -1      4302 1.88472E-03
 -1      4303 1.47088E-03
 -1      4304 1.73391E-03
 -1      4305 1.91005E+00
 -1      4306 2.59926E+00
 -1      4307 1.18504E+00
 -1      4308 1.43333E+00
 -1      4309 2.59926E+00
 -1      4310 2.30949E+00
 -1      4311 1.83277E+00
 -1      4312 1.80771E-03
 -1      4313 1.22470E+00
 -1      4314 1.36846E-03
 -1      4315 1.44225E-03
 -1      4316 1.26751E-03
 -1      4317 1.48797E-03
 -3
 9999
