    1C
    1UUSER                                                              
    1UDATE              27.october.2022                                 
    1UTIME              00:40:06                                        
    1UHOST                                                              
    1UPGM               CalculiX                                        
    1UVERSION           Version 2.17                             
    1UCOMPILETIME       Thu Jul 23 21:43:50 CEST 2020                    
    1UDIR                                                               
    1UDBN                                                               
    1UMAT    1SOLIDMATERIAL                                             
    2C                          4260                                     1
 -1         1 9.74940E+01 1.72728E+01 0.00000E+00
 -1         2 1.10337E+02 1.34175E+01 0.00000E+00
 -1         3 1.50000E+02 0.00000E+00 0.00000E+00
 -1         4 1.50000E+02 5.00000E+01 0.00000E+00
 -1         5 0.00000E+00 0.00000E+00 0.00000E+00
 -1         6 0.00000E+00 5.00000E+01 0.00000E+00
 -1         7 0.00000E+00 4.70500E+01 0.00000E+00
 -1         8 0.00000E+00 4.41000E+01 0.00000E+00
 -1         9 0.00000E+00 4.11500E+01 0.00000E+00
 -1        10 0.00000E+00 3.82000E+01 0.00000E+00
 -1        11 0.00000E+00 3.52500E+01 0.00000E+00
 -1        12 0.00000E+00 3.23500E+01 0.00000E+00
 -1        13 0.00000E+00 2.94000E+01 0.00000E+00
 -1        14 0.00000E+00 2.64500E+01 0.00000E+00
 -1        15 0.00000E+00 2.35000E+01 0.00000E+00
 -1        16 0.00000E+00 2.05500E+01 0.00000E+00
 -1        17 0.00000E+00 1.76000E+01 0.00000E+00
 -1        18 0.00000E+00 1.47000E+01 0.00000E+00
 -1        19 0.00000E+00 1.17500E+01 0.00000E+00
 -1        20 0.00000E+00 8.80000E+00 0.00000E+00
 -1        21 0.00000E+00 5.85000E+00 0.00000E+00
 -1        22 0.00000E+00 2.90000E+00 0.00000E+00
 -1        23 3.15000E+00 5.00000E+01 0.00000E+00
 -1        24 6.15000E+00 5.00000E+01 0.00000E+00
 -1        25 9.15000E+00 5.00000E+01 0.00000E+00
 -1        26 1.21500E+01 5.00000E+01 0.00000E+00
 -1        27 1.51500E+01 5.00000E+01 0.00000E+00
 -1        28 1.81500E+01 5.00000E+01 0.00000E+00
 -1        29 2.11500E+01 5.00000E+01 0.00000E+00
 -1        30 2.41500E+01 5.00000E+01 0.00000E+00
 -1        31 2.71500E+01 5.00000E+01 0.00000E+00
 -1        32 3.01500E+01 5.00000E+01 0.00000E+00
 -1        33 3.31500E+01 5.00000E+01 0.00000E+00
 -1        34 3.61500E+01 5.00000E+01 0.00000E+00
 -1        35 3.91500E+01 5.00000E+01 0.00000E+00
 -1        36 4.21500E+01 5.00000E+01 0.00000E+00
 -1        37 4.51500E+01 5.00000E+01 0.00000E+00
 -1        38 4.81500E+01 5.00000E+01 0.00000E+00
 -1        39 5.11500E+01 5.00000E+01 0.00000E+00
 -1        40 5.41500E+01 5.00000E+01 0.00000E+00
 -1        41 5.71500E+01 5.00000E+01 0.00000E+00
 -1        42 6.01500E+01 5.00000E+01 0.00000E+00
 -1        43 6.31500E+01 5.00000E+01 0.00000E+00
 -1        44 6.61500E+01 5.00000E+01 0.00000E+00
 -1        45 6.91500E+01 5.00000E+01 0.00000E+00
 -1        46 7.21500E+01 5.00000E+01 0.00000E+00
 -1        47 7.51500E+01 5.00000E+01 0.00000E+00
 -1        48 7.81500E+01 5.00000E+01 0.00000E+00
 -1        49 8.11500E+01 5.00000E+01 0.00000E+00
 -1        50 8.41500E+01 5.00000E+01 0.00000E+00
 -1        51 8.71500E+01 5.00000E+01 0.00000E+00
 -1        52 9.01500E+01 5.00000E+01 0.00000E+00
 -1        53 9.31500E+01 5.00000E+01 0.00000E+00
 -1        54 9.61500E+01 5.00000E+01 0.00000E+00
 -1        55 9.91500E+01 5.00000E+01 0.00000E+00
 -1        56 1.02150E+02 5.00000E+01 0.00000E+00
 -1        57 1.05150E+02 5.00000E+01 0.00000E+00
 -1        58 1.08150E+02 5.00000E+01 0.00000E+00
 -1        59 1.11150E+02 5.00000E+01 0.00000E+00
 -1        60 1.14150E+02 5.00000E+01 0.00000E+00
 -1        61 1.17150E+02 5.00000E+01 0.00000E+00
 -1        62 1.20150E+02 5.00000E+01 0.00000E+00
 -1        63 1.23150E+02 5.00000E+01 0.00000E+00
 -1        64 1.26150E+02 5.00000E+01 0.00000E+00
 -1        65 1.29150E+02 5.00000E+01 0.00000E+00
 -1        66 1.32150E+02 5.00000E+01 0.00000E+00
 -1        67 1.35150E+02 5.00000E+01 0.00000E+00
 -1        68 1.38150E+02 5.00000E+01 0.00000E+00
 -1        69 1.41150E+02 5.00000E+01 0.00000E+00
 -1        70 1.44150E+02 5.00000E+01 0.00000E+00
 -1        71 1.47150E+02 5.00000E+01 0.00000E+00
 -1        72 3.15000E+00 0.00000E+00 0.00000E+00
 -1        73 6.15000E+00 0.00000E+00 0.00000E+00
 -1        74 9.15000E+00 0.00000E+00 0.00000E+00
 -1        75 1.21500E+01 0.00000E+00 0.00000E+00
 -1        76 1.51500E+01 0.00000E+00 0.00000E+00
 -1        77 1.81500E+01 0.00000E+00 0.00000E+00
 -1        78 2.11500E+01 0.00000E+00 0.00000E+00
 -1        79 2.41500E+01 0.00000E+00 0.00000E+00
 -1        80 2.71500E+01 0.00000E+00 0.00000E+00
 -1        81 3.01500E+01 0.00000E+00 0.00000E+00
 -1        82 3.31500E+01 0.00000E+00 0.00000E+00
 -1        83 3.61500E+01 0.00000E+00 0.00000E+00
 -1        84 3.91500E+01 0.00000E+00 0.00000E+00
 -1        85 4.21500E+01 0.00000E+00 0.00000E+00
 -1        86 4.51500E+01 0.00000E+00 0.00000E+00
 -1        87 4.81500E+01 0.00000E+00 0.00000E+00
 -1        88 5.11500E+01 0.00000E+00 0.00000E+00
 -1        89 5.41500E+01 0.00000E+00 0.00000E+00
 -1        90 5.71500E+01 0.00000E+00 0.00000E+00
 -1        91 6.01500E+01 0.00000E+00 0.00000E+00
 -1        92 6.31500E+01 0.00000E+00 0.00000E+00
 -1        93 6.61500E+01 0.00000E+00 0.00000E+00
 -1        94 6.91500E+01 0.00000E+00 0.00000E+00
 -1        95 7.21500E+01 0.00000E+00 0.00000E+00
 -1        96 7.51500E+01 0.00000E+00 0.00000E+00
 -1        97 7.81500E+01 0.00000E+00 0.00000E+00
 -1        98 8.11500E+01 0.00000E+00 0.00000E+00
 -1        99 8.41500E+01 0.00000E+00 0.00000E+00
 -1       100 8.71500E+01 0.00000E+00 0.00000E+00
 -1       101 9.01500E+01 0.00000E+00 0.00000E+00
 -1       102 9.31500E+01 0.00000E+00 0.00000E+00
 -1       103 9.61500E+01 0.00000E+00 0.00000E+00
 -1       104 9.88500E+01 0.00000E+00 0.00000E+00
 -1       105 1.01400E+02 0.00000E+00 0.00000E+00
 -1       106 1.03800E+02 0.00000E+00 0.00000E+00
 -1       107 1.05900E+02 0.00000E+00 0.00000E+00
 -1       108 1.08450E+02 0.00000E+00 0.00000E+00
 -1       109 1.11150E+02 0.00000E+00 0.00000E+00
 -1       110 1.14000E+02 0.00000E+00 0.00000E+00
 -1       111 1.17000E+02 0.00000E+00 0.00000E+00
 -1       112 1.20000E+02 0.00000E+00 0.00000E+00
 -1       113 1.23000E+02 0.00000E+00 0.00000E+00
 -1       114 1.26000E+02 0.00000E+00 0.00000E+00
 -1       115 1.29000E+02 0.00000E+00 0.00000E+00
 -1       116 1.32000E+02 0.00000E+00 0.00000E+00
 -1       117 1.35000E+02 0.00000E+00 0.00000E+00
 -1       118 1.38000E+02 0.00000E+00 0.00000E+00
 -1       119 1.41000E+02 0.00000E+00 0.00000E+00
 -1       120 1.44000E+02 0.00000E+00 0.00000E+00
 -1       121 1.47000E+02 0.00000E+00 0.00000E+00
 -1       122 1.50000E+02 2.95000E+00 0.00000E+00
 -1       123 1.50000E+02 5.90000E+00 0.00000E+00
 -1       124 1.50000E+02 8.85000E+00 0.00000E+00
 -1       125 1.50000E+02 1.18000E+01 0.00000E+00
 -1       126 1.50000E+02 1.47500E+01 0.00000E+00
 -1       127 1.50000E+02 1.76500E+01 0.00000E+00
 -1       128 1.50000E+02 2.06000E+01 0.00000E+00
 -1       129 1.50000E+02 2.35500E+01 0.00000E+00
 -1       130 1.50000E+02 2.65000E+01 0.00000E+00
 -1       131 1.50000E+02 2.94500E+01 0.00000E+00
 -1       132 1.50000E+02 3.24000E+01 0.00000E+00
 -1       133 1.50000E+02 3.53000E+01 0.00000E+00
 -1       134 1.50000E+02 3.82500E+01 0.00000E+00
 -1       135 1.50000E+02 4.12000E+01 0.00000E+00
 -1       136 1.50000E+02 4.41500E+01 0.00000E+00
 -1       137 1.50000E+02 4.71000E+01 0.00000E+00
 -1       138 1.10178E+02 1.19339E+01 0.00000E+00
 -1       139 1.09683E+02 1.04648E+01 0.00000E+00
 -1       140 1.08879E+02 9.14156E+00 0.00000E+00
 -1       141 1.07846E+02 8.06375E+00 0.00000E+00
 -1       142 1.06635E+02 7.24335E+00 0.00000E+00
 -1       143 1.05236E+02 6.68017E+00 0.00000E+00
 -1       144 1.03831E+02 6.43494E+00 0.00000E+00
 -1       145 1.02259E+02 6.50097E+00 0.00000E+00
 -1       146 1.00646E+02 6.95526E+00 0.00000E+00
 -1       147 9.93459E+01 7.66650E+00 0.00000E+00
 -1       148 9.81864E+01 8.67672E+00 0.00000E+00
 -1       149 9.72644E+01 9.93501E+00 0.00000E+00
 -1       150 9.66266E+01 1.14238E+01 0.00000E+00
 -1       151 9.63576E+01 1.28765E+01 0.00000E+00
 -1       152 9.64175E+01 1.44783E+01 0.00000E+00
 -1       153 9.68157E+01 1.59623E+01 0.00000E+00
 -1       154 9.84274E+01 1.84074E+01 0.00000E+00
 -1       155 9.95745E+01 1.93205E+01 0.00000E+00
 -1       156 1.00863E+02 1.99659E+01 0.00000E+00
 -1       157 1.02406E+02 2.03554E+01 0.00000E+00
 -1       158 1.03897E+02 2.03950E+01 0.00000E+00
 -1       159 1.05359E+02 2.01191E+01 0.00000E+00
 -1       160 1.06682E+02 1.95666E+01 0.00000E+00
 -1       161 1.07929E+02 1.87002E+01 0.00000E+00
 -1       162 1.09007E+02 1.75226E+01 0.00000E+00
 -1       163 1.09763E+02 1.61919E+01 0.00000E+00
 -1       164 1.10192E+02 1.48347E+01 0.00000E+00
 -1       165 2.59800E+00 4.55750E+01 0.00000E+00
 -1       166 2.59800E+00 4.26250E+01 0.00000E+00
 -1       167 2.59800E+00 3.96750E+01 0.00000E+00
 -1       168 2.59800E+00 3.67250E+01 0.00000E+00
 -1       169 2.59800E+00 3.38250E+01 0.00000E+00
 -1       170 2.59800E+00 3.08750E+01 0.00000E+00
 -1       171 2.59800E+00 2.79250E+01 0.00000E+00
 -1       172 2.59800E+00 2.49750E+01 0.00000E+00
 -1       173 2.59800E+00 2.20250E+01 0.00000E+00
 -1       174 2.59800E+00 1.90750E+01 0.00000E+00
 -1       175 2.59800E+00 1.61750E+01 0.00000E+00
 -1       176 2.59800E+00 1.32250E+01 0.00000E+00
 -1       177 2.59800E+00 1.02750E+01 0.00000E+00
 -1       178 2.59800E+00 7.32500E+00 0.00000E+00
 -1       179 2.59800E+00 4.37500E+00 0.00000E+00
 -1       180 2.87400E+00 2.18750E+00 0.00000E+00
 -1       181 4.65000E+00 4.74020E+01 0.00000E+00
 -1       182 7.65000E+00 4.74020E+01 0.00000E+00
 -1       183 1.06500E+01 4.74020E+01 0.00000E+00
 -1       184 1.36500E+01 4.74020E+01 0.00000E+00
 -1       185 1.66500E+01 4.74020E+01 0.00000E+00
 -1       186 1.96500E+01 4.74020E+01 0.00000E+00
 -1       187 2.26500E+01 4.74020E+01 0.00000E+00
 -1       188 2.56500E+01 4.74020E+01 0.00000E+00
 -1       189 2.86500E+01 4.74020E+01 0.00000E+00
 -1       190 3.16500E+01 4.74020E+01 0.00000E+00
 -1       191 3.46500E+01 4.74020E+01 0.00000E+00
 -1       192 3.76500E+01 4.74020E+01 0.00000E+00
 -1       193 4.06500E+01 4.74020E+01 0.00000E+00
 -1       194 4.36500E+01 4.74020E+01 0.00000E+00
 -1       195 4.66500E+01 4.74020E+01 0.00000E+00
 -1       196 4.96500E+01 4.74020E+01 0.00000E+00
 -1       197 5.26500E+01 4.74020E+01 0.00000E+00
 -1       198 5.56500E+01 4.74020E+01 0.00000E+00
 -1       199 5.86500E+01 4.74020E+01 0.00000E+00
 -1       200 6.16500E+01 4.74020E+01 0.00000E+00
 -1       201 6.46500E+01 4.74020E+01 0.00000E+00
 -1       202 6.76500E+01 4.74020E+01 0.00000E+00
 -1       203 7.06500E+01 4.74020E+01 0.00000E+00
 -1       204 7.36500E+01 4.74020E+01 0.00000E+00
 -1       205 7.66500E+01 4.74020E+01 0.00000E+00
 -1       206 7.96500E+01 4.74020E+01 0.00000E+00
 -1       207 8.26500E+01 4.74020E+01 0.00000E+00
 -1       208 8.56500E+01 4.74020E+01 0.00000E+00
 -1       209 8.86500E+01 4.74020E+01 0.00000E+00
 -1       210 9.16500E+01 4.74020E+01 0.00000E+00
 -1       211 9.46500E+01 4.74020E+01 0.00000E+00
 -1       212 9.76500E+01 4.74020E+01 0.00000E+00
 -1       213 1.00650E+02 4.74020E+01 0.00000E+00
 -1       214 1.03650E+02 4.74020E+01 0.00000E+00
 -1       215 1.06650E+02 4.74020E+01 0.00000E+00
 -1       216 1.09650E+02 4.74020E+01 0.00000E+00
 -1       217 1.12650E+02 4.74020E+01 0.00000E+00
 -1       218 1.15650E+02 4.74020E+01 0.00000E+00
 -1       219 1.18650E+02 4.74020E+01 0.00000E+00
 -1       220 1.21650E+02 4.74020E+01 0.00000E+00
 -1       221 1.24650E+02 4.74020E+01 0.00000E+00
 -1       222 1.27650E+02 4.74020E+01 0.00000E+00
 -1       223 1.30650E+02 4.74020E+01 0.00000E+00
 -1       224 1.33650E+02 4.74020E+01 0.00000E+00
 -1       225 1.36650E+02 4.74020E+01 0.00000E+00
 -1       226 1.39650E+02 4.74020E+01 0.00000E+00
 -1       227 1.42650E+02 4.74020E+01 0.00000E+00
 -1       228 1.45650E+02 4.74020E+01 0.00000E+00
 -1       229 5.87400E+00 2.18750E+00 0.00000E+00
 -1       230 8.87400E+00 2.18750E+00 0.00000E+00
 -1       231 1.18740E+01 2.18750E+00 0.00000E+00
 -1       232 1.48740E+01 2.18750E+00 0.00000E+00
 -1       233 1.78740E+01 2.18750E+00 0.00000E+00
 -1       234 2.08740E+01 2.18750E+00 0.00000E+00
 -1       235 2.38740E+01 2.18750E+00 0.00000E+00
 -1       236 2.68740E+01 2.18750E+00 0.00000E+00
 -1       237 2.98740E+01 2.18750E+00 0.00000E+00
 -1       238 3.28740E+01 2.18750E+00 0.00000E+00
 -1       239 3.58740E+01 2.18750E+00 0.00000E+00
 -1       240 3.88740E+01 2.18750E+00 0.00000E+00
 -1       241 4.18740E+01 2.18750E+00 0.00000E+00
 -1       242 4.48740E+01 2.18750E+00 0.00000E+00
 -1       243 4.78740E+01 2.18750E+00 0.00000E+00
 -1       244 5.08740E+01 2.18750E+00 0.00000E+00
 -1       245 5.38740E+01 2.18750E+00 0.00000E+00
 -1       246 5.68740E+01 2.18750E+00 0.00000E+00
 -1       247 5.98740E+01 2.18750E+00 0.00000E+00
 -1       248 6.28740E+01 2.18750E+00 0.00000E+00
 -1       249 6.58740E+01 2.18750E+00 0.00000E+00
 -1       250 6.88740E+01 2.18750E+00 0.00000E+00
 -1       251 7.18740E+01 2.18750E+00 0.00000E+00
 -1       252 7.48740E+01 2.18750E+00 0.00000E+00
 -1       253 7.78740E+01 2.18750E+00 0.00000E+00
 -1       254 8.08740E+01 2.18750E+00 0.00000E+00
 -1       255 8.38740E+01 2.18750E+00 0.00000E+00
 -1       256 8.68740E+01 2.18750E+00 0.00000E+00
 -1       257 8.98740E+01 2.18750E+00 0.00000E+00
 -1       258 9.28740E+01 2.18750E+00 0.00000E+00
 -1       259 9.58740E+01 2.18750E+00 0.00000E+00
 -1       260 9.85740E+01 2.18750E+00 0.00000E+00
 -1       261 1.01124E+02 2.18750E+00 0.00000E+00
 -1       262 1.03524E+02 2.18750E+00 0.00000E+00
 -1       263 1.05624E+02 2.18750E+00 0.00000E+00
 -1       264 1.08174E+02 2.18750E+00 0.00000E+00
 -1       265 1.10874E+02 2.18750E+00 0.00000E+00
 -1       266 1.13724E+02 2.18750E+00 0.00000E+00
 -1       267 1.16724E+02 2.18750E+00 0.00000E+00
 -1       268 1.19724E+02 2.18750E+00 0.00000E+00
 -1       269 1.22724E+02 2.18750E+00 0.00000E+00
 -1       270 1.25724E+02 2.18750E+00 0.00000E+00
 -1       271 1.28724E+02 2.18750E+00 0.00000E+00
 -1       272 1.31724E+02 2.18750E+00 0.00000E+00
 -1       273 1.34724E+02 2.18750E+00 0.00000E+00
 -1       274 1.37724E+02 2.18750E+00 0.00000E+00
 -1       275 1.40724E+02 2.18750E+00 0.00000E+00
 -1       276 1.43724E+02 2.18750E+00 0.00000E+00
 -1       277 1.46724E+02 2.18750E+00 0.00000E+00
 -1       278 1.47402E+02 4.42500E+00 0.00000E+00
 -1       279 1.47402E+02 7.37500E+00 0.00000E+00
 -1       280 1.47402E+02 1.03250E+01 0.00000E+00
 -1       281 1.47402E+02 1.32750E+01 0.00000E+00
 -1       282 1.47402E+02 1.61750E+01 0.00000E+00
 -1       283 1.47402E+02 1.91250E+01 0.00000E+00
 -1       284 1.47402E+02 2.20750E+01 0.00000E+00
 -1       285 1.47402E+02 2.50250E+01 0.00000E+00
 -1       286 1.47402E+02 2.79750E+01 0.00000E+00
 -1       287 1.47402E+02 3.09250E+01 0.00000E+00
 -1       288 1.47402E+02 3.38250E+01 0.00000E+00
 -1       289 1.47402E+02 3.67750E+01 0.00000E+00
 -1       290 1.47402E+02 3.97250E+01 0.00000E+00
 -1       291 1.47402E+02 4.26750E+01 0.00000E+00
 -1       292 1.46526E+02 4.50385E+01 0.00000E+00
 -1       293 1.11546E+02 1.25375E+01 0.00000E+00
 -1       294 1.11159E+02 1.07860E+01 0.00000E+00
 -1       295 1.10317E+02 9.17330E+00 0.00000E+00
 -1       296 1.09238E+02 7.76395E+00 0.00000E+00
 -1       297 1.07921E+02 6.64974E+00 0.00000E+00
 -1       298 1.06420E+02 5.75937E+00 0.00000E+00
 -1       299 1.04742E+02 5.36320E+00 0.00000E+00
 -1       300 1.02990E+02 5.17291E+00 0.00000E+00
 -1       301 1.01056E+02 5.31919E+00 0.00000E+00
 -1       302 9.94141E+01 6.24724E+00 0.00000E+00
 -1       303 9.79697E+01 7.25749E+00 0.00000E+00
 -1       304 9.66123E+01 8.49023E+00 0.00000E+00
 -1       305 9.55230E+01 1.00700E+01 0.00000E+00
 -1       306 9.53000E+01 1.19294E+01 0.00000E+00
 -1       307 9.50086E+01 1.37289E+01 0.00000E+00
 -1       308 9.54456E+01 1.55344E+01 0.00000E+00
 -1       309 9.60781E+01 1.71749E+01 0.00000E+00
 -1       310 9.70244E+01 1.86103E+01 0.00000E+00
 -1       311 9.82458E+01 1.98125E+01 0.00000E+00
 -1       312 9.96759E+01 2.07272E+01 0.00000E+00
 -1       313 1.01318E+02 2.14174E+01 0.00000E+00
 -1       314 1.03119E+02 2.15872E+01 0.00000E+00
 -1       315 1.04915E+02 2.17777E+01 0.00000E+00
 -1       316 1.06487E+02 2.09616E+01 0.00000E+00
 -1       317 1.08092E+02 2.02670E+01 0.00000E+00
 -1       318 1.09610E+02 1.91559E+01 0.00000E+00
 -1       319 1.10439E+02 1.74566E+01 0.00000E+00
 -1       320 1.11134E+02 1.58782E+01 0.00000E+00
 -1       321 1.11470E+02 1.42495E+01 0.00000E+00
 -1       322 5.19600E+00 4.11500E+01 0.00000E+00
 -1       323 5.19600E+00 4.41000E+01 0.00000E+00
 -1       324 5.19600E+00 3.52750E+01 0.00000E+00
 -1       325 5.19600E+00 3.23250E+01 0.00000E+00
 -1       326 5.19600E+00 2.93750E+01 0.00000E+00
 -1       327 5.19600E+00 2.64250E+01 0.00000E+00
 -1       328 5.19600E+00 2.34750E+01 0.00000E+00
 -1       329 5.19600E+00 2.05250E+01 0.00000E+00
 -1       330 5.19600E+00 1.76250E+01 0.00000E+00
 -1       331 5.19600E+00 1.46750E+01 0.00000E+00
 -1       332 5.19600E+00 1.17250E+01 0.00000E+00
 -1       333 5.19600E+00 8.77500E+00 0.00000E+00
 -1       334 5.19600E+00 5.82500E+00 0.00000E+00
 -1       335 5.53500E+00 4.00625E+00 0.00000E+00
 -1       336 8.53500E+00 4.00625E+00 0.00000E+00
 -1       337 9.15000E+00 4.48040E+01 0.00000E+00
 -1       338 1.21500E+01 4.48040E+01 0.00000E+00
 -1       339 1.51500E+01 4.48040E+01 0.00000E+00
 -1       340 1.81500E+01 4.48040E+01 0.00000E+00
 -1       341 2.11500E+01 4.48040E+01 0.00000E+00
 -1       342 2.41500E+01 4.48040E+01 0.00000E+00
 -1       343 2.71500E+01 4.48040E+01 0.00000E+00
 -1       344 3.01500E+01 4.48040E+01 0.00000E+00
 -1       345 3.31500E+01 4.48040E+01 0.00000E+00
 -1       346 3.61500E+01 4.48040E+01 0.00000E+00
 -1       347 3.91500E+01 4.48040E+01 0.00000E+00
 -1       348 4.21500E+01 4.48040E+01 0.00000E+00
 -1       349 4.51500E+01 4.48040E+01 0.00000E+00
 -1       350 4.81500E+01 4.48040E+01 0.00000E+00
 -1       351 5.11500E+01 4.48040E+01 0.00000E+00
 -1       352 5.41500E+01 4.48040E+01 0.00000E+00
 -1       353 5.71500E+01 4.48040E+01 0.00000E+00
 -1       354 6.01500E+01 4.48040E+01 0.00000E+00
 -1       355 6.31500E+01 4.48040E+01 0.00000E+00
 -1       356 6.61500E+01 4.48040E+01 0.00000E+00
 -1       357 6.91500E+01 4.48040E+01 0.00000E+00
 -1       358 7.21500E+01 4.48040E+01 0.00000E+00
 -1       359 7.51500E+01 4.48040E+01 0.00000E+00
 -1       360 7.81500E+01 4.48040E+01 0.00000E+00
 -1       361 8.11500E+01 4.48040E+01 0.00000E+00
 -1       362 8.41500E+01 4.48040E+01 0.00000E+00
 -1       363 8.71500E+01 4.48040E+01 0.00000E+00
 -1       364 9.01500E+01 4.48040E+01 0.00000E+00
 -1       365 9.31500E+01 4.48040E+01 0.00000E+00
 -1       366 9.61500E+01 4.48040E+01 0.00000E+00
 -1       367 9.91500E+01 4.48040E+01 0.00000E+00
 -1       368 1.02150E+02 4.48040E+01 0.00000E+00
 -1       369 1.05150E+02 4.48040E+01 0.00000E+00
 -1       370 1.08150E+02 4.48040E+01 0.00000E+00
 -1       371 1.11150E+02 4.48040E+01 0.00000E+00
 -1       372 1.14150E+02 4.48040E+01 0.00000E+00
 -1       373 1.17150E+02 4.48040E+01 0.00000E+00
 -1       374 1.20150E+02 4.48040E+01 0.00000E+00
 -1       375 1.23150E+02 4.48040E+01 0.00000E+00
 -1       376 1.26150E+02 4.48040E+01 0.00000E+00
 -1       377 1.29150E+02 4.48040E+01 0.00000E+00
 -1       378 1.32150E+02 4.48040E+01 0.00000E+00
 -1       379 1.35150E+02 4.48040E+01 0.00000E+00
 -1       380 1.38150E+02 4.48040E+01 0.00000E+00
 -1       381 1.41150E+02 4.48040E+01 0.00000E+00
 -1       382 1.43838E+02 4.49212E+01 0.00000E+00
 -1       383 1.15350E+01 4.00625E+00 0.00000E+00
 -1       384 1.45350E+01 4.00625E+00 0.00000E+00
 -1       385 1.75350E+01 4.00625E+00 0.00000E+00
 -1       386 2.05350E+01 4.00625E+00 0.00000E+00
 -1       387 2.35350E+01 4.00625E+00 0.00000E+00
 -1       388 2.65350E+01 4.00625E+00 0.00000E+00
 -1       389 2.95350E+01 4.00625E+00 0.00000E+00
 -1       390 3.25350E+01 4.00625E+00 0.00000E+00
 -1       391 3.55350E+01 4.00625E+00 0.00000E+00
 -1       392 3.85350E+01 4.00625E+00 0.00000E+00
 -1       393 4.15350E+01 4.00625E+00 0.00000E+00
 -1       394 4.45350E+01 4.00625E+00 0.00000E+00
 -1       395 4.75350E+01 4.00625E+00 0.00000E+00
 -1       396 5.05350E+01 4.00625E+00 0.00000E+00
 -1       397 5.35350E+01 4.00625E+00 0.00000E+00
 -1       398 5.65350E+01 4.00625E+00 0.00000E+00
 -1       399 5.95350E+01 4.00625E+00 0.00000E+00
 -1       400 6.25350E+01 4.00625E+00 0.00000E+00
 -1       401 6.55350E+01 4.00625E+00 0.00000E+00
 -1       402 6.85350E+01 4.00625E+00 0.00000E+00
 -1       403 7.15350E+01 4.00625E+00 0.00000E+00
 -1       404 7.45350E+01 4.00625E+00 0.00000E+00
 -1       405 7.75350E+01 4.00625E+00 0.00000E+00
 -1       406 8.05350E+01 4.00625E+00 0.00000E+00
 -1       407 8.35350E+01 4.00625E+00 0.00000E+00
 -1       408 8.65350E+01 4.00625E+00 0.00000E+00
 -1       409 8.95350E+01 4.00625E+00 0.00000E+00
 -1       410 9.25350E+01 4.00625E+00 0.00000E+00
 -1       411 9.55350E+01 4.00625E+00 0.00000E+00
 -1       412 9.98490E+01 4.23775E+00 0.00000E+00
 -1       413 1.04574E+02 3.90261E+00 0.00000E+00
 -1       414 1.06899E+02 4.07018E+00 0.00000E+00
 -1       415 1.09524E+02 4.07018E+00 0.00000E+00
 -1       416 1.12299E+02 4.57289E+00 0.00000E+00
 -1       417 1.15299E+02 4.57289E+00 0.00000E+00
 -1       418 1.18299E+02 4.57289E+00 0.00000E+00
 -1       419 1.21299E+02 4.57289E+00 0.00000E+00
 -1       420 1.24299E+02 4.57289E+00 0.00000E+00
 -1       421 1.27299E+02 4.57289E+00 0.00000E+00
 -1       422 1.30299E+02 4.57289E+00 0.00000E+00
 -1       423 1.33299E+02 4.57289E+00 0.00000E+00
 -1       424 1.36299E+02 4.57289E+00 0.00000E+00
 -1       425 1.39299E+02 4.57289E+00 0.00000E+00
 -1       426 1.42299E+02 4.57289E+00 0.00000E+00
 -1       427 1.44850E+02 4.49895E+00 0.00000E+00
 -1       428 1.44804E+02 1.18000E+01 0.00000E+00
 -1       429 1.44804E+02 8.85000E+00 0.00000E+00
 -1       430 1.44804E+02 1.47000E+01 0.00000E+00
 -1       431 1.44804E+02 1.76500E+01 0.00000E+00
 -1       432 1.44804E+02 2.06000E+01 0.00000E+00
 -1       433 1.44804E+02 2.35500E+01 0.00000E+00
 -1       434 1.44804E+02 2.65000E+01 0.00000E+00
 -1       435 1.44804E+02 2.94500E+01 0.00000E+00
 -1       436 1.44804E+02 3.23500E+01 0.00000E+00
 -1       437 1.44804E+02 3.53000E+01 0.00000E+00
 -1       438 1.44804E+02 3.82500E+01 0.00000E+00
 -1       439 1.44804E+02 4.12000E+01 0.00000E+00
 -1       440 1.12036E+02 9.30225E+00 0.00000E+00
 -1       441 1.12970E+02 1.34581E+01 0.00000E+00
 -1       442 1.12618E+02 1.13822E+01 0.00000E+00
 -1       443 1.11139E+02 7.42602E+00 0.00000E+00
 -1       444 1.09471E+02 6.15317E+00 0.00000E+00
 -1       445 5.19600E+00 3.82125E+01 0.00000E+00
 -1       446 1.01913E+02 3.78646E+00 0.00000E+00
 -1       447 9.79010E+01 5.62156E+00 0.00000E+00
 -1       448 9.64196E+01 6.91430E+00 0.00000E+00
 -1       449 9.48626E+01 8.44919E+00 0.00000E+00
 -1       450 9.37918E+01 1.08054E+01 0.00000E+00
 -1       451 9.35004E+01 1.26049E+01 0.00000E+00
 -1       452 9.39673E+01 1.49366E+01 0.00000E+00
 -1       453 9.42397E+01 1.69415E+01 0.00000E+00
 -1       454 9.53991E+01 1.86522E+01 0.00000E+00
 -1       455 9.66671E+01 2.01949E+01 0.00000E+00
 -1       456 9.82624E+01 2.13617E+01 0.00000E+00
 -1       457 9.99943E+01 2.22672E+01 0.00000E+00
 -1       458 1.02073E+02 2.30430E+01 0.00000E+00
 -1       459 1.03869E+02 2.32336E+01 0.00000E+00
 -1       460 1.06491E+02 2.28920E+01 0.00000E+00
 -1       461 1.08096E+02 2.21973E+01 0.00000E+00
 -1       462 1.09614E+02 2.10863E+01 0.00000E+00
 -1       463 1.11491E+02 1.90216E+01 0.00000E+00
 -1       464 1.12185E+02 1.74431E+01 0.00000E+00
 -1       465 1.12653E+02 1.53431E+01 0.00000E+00
 -1       466 1.08185E+02 5.11168E+00 0.00000E+00
 -1       467 9.72240E+01 4.74046E+00 0.00000E+00
 -1       468 1.11494E+02 2.09520E+01 0.00000E+00
 -1       469 1.05445E+02 2.43478E+01 0.00000E+00
 -1       470 9.31314E+01 9.18461E+00 0.00000E+00
 -1       471 1.00350E+01 6.60425E+00 0.00000E+00
 -1       472 7.79400E+00 3.08500E+01 0.00000E+00
 -1       473 7.79400E+00 3.38000E+01 0.00000E+00
 -1       474 7.79400E+00 2.49500E+01 0.00000E+00
 -1       475 7.79400E+00 2.20000E+01 0.00000E+00
 -1       476 7.79400E+00 1.91000E+01 0.00000E+00
 -1       477 7.79400E+00 1.61500E+01 0.00000E+00
 -1       478 7.79400E+00 1.32000E+01 0.00000E+00
 -1       479 7.79400E+00 1.02500E+01 0.00000E+00
 -1       480 9.24870E+01 1.61588E+01 0.00000E+00
 -1       481 1.30350E+01 6.60425E+00 0.00000E+00
 -1       482 1.06500E+01 4.22060E+01 0.00000E+00
 -1       483 1.36500E+01 4.22060E+01 0.00000E+00
 -1       484 1.66500E+01 4.22060E+01 0.00000E+00
 -1       485 1.96500E+01 4.22060E+01 0.00000E+00
 -1       486 2.26500E+01 4.22060E+01 0.00000E+00
 -1       487 2.56500E+01 4.22060E+01 0.00000E+00
 -1       488 2.86500E+01 4.22060E+01 0.00000E+00
 -1       489 3.16500E+01 4.22060E+01 0.00000E+00
 -1       490 3.46500E+01 4.22060E+01 0.00000E+00
 -1       491 3.76500E+01 4.22060E+01 0.00000E+00
 -1       492 4.06500E+01 4.22060E+01 0.00000E+00
 -1       493 4.36500E+01 4.22060E+01 0.00000E+00
 -1       494 4.66500E+01 4.22060E+01 0.00000E+00
 -1       495 4.96500E+01 4.22060E+01 0.00000E+00
 -1       496 5.26500E+01 4.22060E+01 0.00000E+00
 -1       497 5.56500E+01 4.22060E+01 0.00000E+00
 -1       498 5.86500E+01 4.22060E+01 0.00000E+00
 -1       499 6.16500E+01 4.22060E+01 0.00000E+00
 -1       500 6.46500E+01 4.22060E+01 0.00000E+00
 -1       501 6.76500E+01 4.22060E+01 0.00000E+00
 -1       502 7.06500E+01 4.22060E+01 0.00000E+00
 -1       503 7.36500E+01 4.22060E+01 0.00000E+00
 -1       504 7.66500E+01 4.22060E+01 0.00000E+00
 -1       505 7.96500E+01 4.22060E+01 0.00000E+00
 -1       506 8.26500E+01 4.22060E+01 0.00000E+00
 -1       507 8.56500E+01 4.22060E+01 0.00000E+00
 -1       508 8.86500E+01 4.22060E+01 0.00000E+00
 -1       509 9.16500E+01 4.22060E+01 0.00000E+00
 -1       510 9.46500E+01 4.22060E+01 0.00000E+00
 -1       511 9.76500E+01 4.22060E+01 0.00000E+00
 -1       512 1.00650E+02 4.22060E+01 0.00000E+00
 -1       513 1.03650E+02 4.22060E+01 0.00000E+00
 -1       514 1.06650E+02 4.22060E+01 0.00000E+00
 -1       515 1.09650E+02 4.22060E+01 0.00000E+00
 -1       516 1.12650E+02 4.22060E+01 0.00000E+00
 -1       517 1.15650E+02 4.22060E+01 0.00000E+00
 -1       518 1.18650E+02 4.22060E+01 0.00000E+00
 -1       519 1.21650E+02 4.22060E+01 0.00000E+00
 -1       520 1.24650E+02 4.22060E+01 0.00000E+00
 -1       521 1.27650E+02 4.22060E+01 0.00000E+00
 -1       522 1.30650E+02 4.22060E+01 0.00000E+00
 -1       523 1.33650E+02 4.22060E+01 0.00000E+00
 -1       524 1.36650E+02 4.22060E+01 0.00000E+00
 -1       525 1.39650E+02 4.22060E+01 0.00000E+00
 -1       526 1.90350E+01 6.60425E+00 0.00000E+00
 -1       527 2.20350E+01 6.60425E+00 0.00000E+00
 -1       528 2.50350E+01 6.60425E+00 0.00000E+00
 -1       529 2.80350E+01 6.60425E+00 0.00000E+00
 -1       530 3.10350E+01 6.60425E+00 0.00000E+00
 -1       531 3.40350E+01 6.60425E+00 0.00000E+00
 -1       532 3.70350E+01 6.60425E+00 0.00000E+00
 -1       533 4.00350E+01 6.60425E+00 0.00000E+00
 -1       534 4.30350E+01 6.60425E+00 0.00000E+00
 -1       535 4.60350E+01 6.60425E+00 0.00000E+00
 -1       536 4.90350E+01 6.60425E+00 0.00000E+00
 -1       537 5.20350E+01 6.60425E+00 0.00000E+00
 -1       538 5.50350E+01 6.60425E+00 0.00000E+00
 -1       539 5.80350E+01 6.60425E+00 0.00000E+00
 -1       540 6.10350E+01 6.60425E+00 0.00000E+00
 -1       541 6.40350E+01 6.60425E+00 0.00000E+00
 -1       542 6.70350E+01 6.60425E+00 0.00000E+00
 -1       543 7.00350E+01 6.60425E+00 0.00000E+00
 -1       544 7.30350E+01 6.60425E+00 0.00000E+00
 -1       545 7.60350E+01 6.60425E+00 0.00000E+00
 -1       546 7.90350E+01 6.60425E+00 0.00000E+00
 -1       547 8.20350E+01 6.60425E+00 0.00000E+00
 -1       548 8.50350E+01 6.60425E+00 0.00000E+00
 -1       549 8.80350E+01 6.60425E+00 0.00000E+00
 -1       550 9.10350E+01 6.60425E+00 0.00000E+00
 -1       551 7.92300E+00 4.16780E+01 0.00000E+00
 -1       552 1.13799E+02 7.17089E+00 0.00000E+00
 -1       553 1.22799E+02 7.17089E+00 0.00000E+00
 -1       554 1.25799E+02 7.17089E+00 0.00000E+00
 -1       555 1.28799E+02 7.17089E+00 0.00000E+00
 -1       556 1.31799E+02 7.17089E+00 0.00000E+00
 -1       557 1.34799E+02 7.17089E+00 0.00000E+00
 -1       558 1.37799E+02 7.17089E+00 0.00000E+00
 -1       559 1.40799E+02 7.17089E+00 0.00000E+00
 -1       560 1.42206E+02 1.61750E+01 0.00000E+00
 -1       561 1.42206E+02 1.32750E+01 0.00000E+00
 -1       562 1.42206E+02 1.03250E+01 0.00000E+00
 -1       563 1.14403E+02 1.21472E+01 0.00000E+00
 -1       564 1.42206E+02 1.91250E+01 0.00000E+00
 -1       565 1.42206E+02 2.20750E+01 0.00000E+00
 -1       566 1.42206E+02 2.50250E+01 0.00000E+00
 -1       567 1.42206E+02 2.79750E+01 0.00000E+00
 -1       568 1.42206E+02 3.08750E+01 0.00000E+00
 -1       569 1.42206E+02 3.38250E+01 0.00000E+00
 -1       570 1.42206E+02 3.67750E+01 0.00000E+00
 -1       571 1.42206E+02 3.97250E+01 0.00000E+00
 -1       572 1.60350E+01 6.60425E+00 0.00000E+00
 -1       573 1.13979E+02 9.87969E+00 0.00000E+00
 -1       574 1.14255E+02 1.46434E+01 0.00000E+00
 -1       575 1.00493E+02 2.41050E+01 0.00000E+00
 -1       576 1.13848E+02 1.67116E+01 0.00000E+00
 -1       577 1.19799E+02 7.17089E+00 0.00000E+00
 -1       578 1.16799E+02 7.17089E+00 0.00000E+00
 -1       579 7.79400E+00 2.79000E+01 0.00000E+00
 -1       580 9.44959E+01 6.52000E+00 0.00000E+00
 -1       581 9.19530E+01 1.14310E+01 0.00000E+00
 -1       582 9.20201E+01 1.38271E+01 0.00000E+00
 -1       583 9.35384E+01 1.86651E+01 0.00000E+00
 -1       584 9.47081E+01 2.05125E+01 0.00000E+00
 -1       585 9.63533E+01 2.22979E+01 0.00000E+00
 -1       586 9.83338E+01 2.33344E+01 0.00000E+00
 -1       587 1.02825E+02 2.45105E+01 0.00000E+00
 -1       588 1.09868E+02 2.30257E+01 0.00000E+00
 -1       589 1.08041E+02 2.42725E+01 0.00000E+00
 -1       590 1.13408E+02 1.89234E+01 0.00000E+00
 -1       591 7.61550E+00 6.21462E+00 0.00000E+00
 -1       592 7.79400E+00 3.67375E+01 0.00000E+00
 -1       593 9.17857E+01 1.78823E+01 0.00000E+00
 -1       594 1.13411E+02 2.08538E+01 0.00000E+00
 -1       595 1.04402E+02 2.56248E+01 0.00000E+00
 -1       596 1.41678E+02 4.22645E+01 0.00000E+00
 -1       597 1.15570E+02 1.59765E+01 0.00000E+00
 -1       598 1.03920E+01 2.05500E+01 0.00000E+00
 -1       599 1.03920E+01 2.35000E+01 0.00000E+00
 -1       600 1.03920E+01 1.46750E+01 0.00000E+00
 -1       601 1.03920E+01 1.17250E+01 0.00000E+00
 -1       602 9.25326E+01 2.05959E+01 0.00000E+00
 -1       603 1.15350E+01 9.20225E+00 0.00000E+00
 -1       604 1.21500E+01 3.96080E+01 0.00000E+00
 -1       605 1.51500E+01 3.96080E+01 0.00000E+00
 -1       606 1.81500E+01 3.96080E+01 0.00000E+00
 -1       607 2.11500E+01 3.96080E+01 0.00000E+00
 -1       608 2.41500E+01 3.96080E+01 0.00000E+00
 -1       609 2.71500E+01 3.96080E+01 0.00000E+00
 -1       610 3.01500E+01 3.96080E+01 0.00000E+00
 -1       611 3.31500E+01 3.96080E+01 0.00000E+00
 -1       612 3.61500E+01 3.96080E+01 0.00000E+00
 -1       613 3.91500E+01 3.96080E+01 0.00000E+00
 -1       614 4.21500E+01 3.96080E+01 0.00000E+00
 -1       615 4.51500E+01 3.96080E+01 0.00000E+00
 -1       616 4.81500E+01 3.96080E+01 0.00000E+00
 -1       617 5.11500E+01 3.96080E+01 0.00000E+00
 -1       618 5.41500E+01 3.96080E+01 0.00000E+00
 -1       619 5.71500E+01 3.96080E+01 0.00000E+00
 -1       620 6.01500E+01 3.96080E+01 0.00000E+00
 -1       621 6.31500E+01 3.96080E+01 0.00000E+00
 -1       622 6.61500E+01 3.96080E+01 0.00000E+00
 -1       623 6.91500E+01 3.96080E+01 0.00000E+00
 -1       624 7.21500E+01 3.96080E+01 0.00000E+00
 -1       625 7.51500E+01 3.96080E+01 0.00000E+00
 -1       626 7.81500E+01 3.96080E+01 0.00000E+00
 -1       627 8.11500E+01 3.96080E+01 0.00000E+00
 -1       628 8.41500E+01 3.96080E+01 0.00000E+00
 -1       629 8.71500E+01 3.96080E+01 0.00000E+00
 -1       630 9.01500E+01 3.96080E+01 0.00000E+00
 -1       631 9.31500E+01 3.96080E+01 0.00000E+00
 -1       632 9.61500E+01 3.96080E+01 0.00000E+00
 -1       633 9.91500E+01 3.96080E+01 0.00000E+00
 -1       634 1.02150E+02 3.96080E+01 0.00000E+00
 -1       635 1.05150E+02 3.96080E+01 0.00000E+00
 -1       636 1.08150E+02 3.96080E+01 0.00000E+00
 -1       637 1.11150E+02 3.96080E+01 0.00000E+00
 -1       638 1.14150E+02 3.96080E+01 0.00000E+00
 -1       639 1.17150E+02 3.96080E+01 0.00000E+00
 -1       640 1.20150E+02 3.96080E+01 0.00000E+00
 -1       641 1.23150E+02 3.96080E+01 0.00000E+00
 -1       642 1.26150E+02 3.96080E+01 0.00000E+00
 -1       643 1.29150E+02 3.96080E+01 0.00000E+00
 -1       644 1.32150E+02 3.96080E+01 0.00000E+00
 -1       645 1.35150E+02 3.96080E+01 0.00000E+00
 -1       646 1.38150E+02 3.96080E+01 0.00000E+00
 -1       647 1.39608E+02 2.35500E+01 0.00000E+00
 -1       648 9.02721E+01 1.26771E+01 0.00000E+00
 -1       649 2.65350E+01 9.20225E+00 0.00000E+00
 -1       650 2.05350E+01 9.20225E+00 0.00000E+00
 -1       651 2.95350E+01 9.20225E+00 0.00000E+00
 -1       652 3.25350E+01 9.20225E+00 0.00000E+00
 -1       653 3.55350E+01 9.20225E+00 0.00000E+00
 -1       654 3.85350E+01 9.20225E+00 0.00000E+00
 -1       655 4.15350E+01 9.20225E+00 0.00000E+00
 -1       656 4.45350E+01 9.20225E+00 0.00000E+00
 -1       657 4.75350E+01 9.20225E+00 0.00000E+00
 -1       658 5.05350E+01 9.20225E+00 0.00000E+00
 -1       659 5.35350E+01 9.20225E+00 0.00000E+00
 -1       660 5.65350E+01 9.20225E+00 0.00000E+00
 -1       661 5.95350E+01 9.20225E+00 0.00000E+00
 -1       662 6.25350E+01 9.20225E+00 0.00000E+00
 -1       663 6.55350E+01 9.20225E+00 0.00000E+00
 -1       664 6.85350E+01 9.20225E+00 0.00000E+00
 -1       665 7.15350E+01 9.20225E+00 0.00000E+00
 -1       666 7.45350E+01 9.20225E+00 0.00000E+00
 -1       667 7.75350E+01 9.20225E+00 0.00000E+00
 -1       668 8.05350E+01 9.20225E+00 0.00000E+00
 -1       669 8.35350E+01 9.20225E+00 0.00000E+00
 -1       670 8.65350E+01 9.20225E+00 0.00000E+00
 -1       671 8.95350E+01 9.20225E+00 0.00000E+00
 -1       672 1.30299E+02 9.76889E+00 0.00000E+00
 -1       673 1.16376E+02 1.35160E+01 0.00000E+00
 -1       674 1.39206E+02 1.03250E+01 0.00000E+00
 -1       675 9.29943E+01 7.80490E+00 0.00000E+00
 -1       676 2.35350E+01 9.20225E+00 0.00000E+00
 -1       677 1.27299E+02 9.76889E+00 0.00000E+00
 -1       678 1.24299E+02 9.76889E+00 0.00000E+00
 -1       679 1.33299E+02 9.76889E+00 0.00000E+00
 -1       680 1.36253E+02 1.00469E+01 0.00000E+00
 -1       681 1.39608E+02 2.06000E+01 0.00000E+00
 -1       682 1.39608E+02 1.76500E+01 0.00000E+00
 -1       683 1.39608E+02 2.65000E+01 0.00000E+00
 -1       684 1.39608E+02 2.94000E+01 0.00000E+00
 -1       685 1.39608E+02 3.23500E+01 0.00000E+00
 -1       686 1.39608E+02 3.53000E+01 0.00000E+00
 -1       687 1.18299E+02 9.72386E+00 0.00000E+00
 -1       688 1.10016E+02 2.52041E+01 0.00000E+00
 -1       689 9.07362E+01 1.52968E+01 0.00000E+00
 -1       690 9.87803E+01 2.54928E+01 0.00000E+00
 -1       691 1.21299E+02 9.76889E+00 0.00000E+00
 -1       692 1.45350E+01 9.20225E+00 0.00000E+00
 -1       693 1.75350E+01 9.20225E+00 0.00000E+00
 -1       694 1.15876E+02 1.06981E+01 0.00000E+00
 -1       695 1.39608E+02 1.47500E+01 0.00000E+00
 -1       696 9.63928E+01 2.46327E+01 0.00000E+00
 -1       697 1.01365E+02 2.59975E+01 0.00000E+00
 -1       698 1.03920E+01 1.76125E+01 0.00000E+00
 -1       699 1.03920E+01 3.23250E+01 0.00000E+00
 -1       700 1.40178E+02 3.96665E+01 0.00000E+00
 -1       701 9.37765E+01 2.30217E+01 0.00000E+00
 -1       702 1.12163E+02 2.31505E+01 0.00000E+00
 -1       703 1.15130E+02 1.81883E+01 0.00000E+00
 -1       704 1.06803E+02 2.63595E+01 0.00000E+00
 -1       705 1.03920E+01 3.52625E+01 0.00000E+00
 -1       706 1.03920E+01 2.64500E+01 0.00000E+00
 -1       707 1.03920E+01 2.93875E+01 0.00000E+00
 -1       708 1.02942E+02 2.71118E+01 0.00000E+00
 -1       709 9.78035E+00 3.93914E+01 0.00000E+00
 -1       710 1.15133E+02 2.01187E+01 0.00000E+00
 -1       711 9.00348E+01 1.70203E+01 0.00000E+00
 -1       712 1.08777E+02 2.72911E+01 0.00000E+00
 -1       713 8.88153E+01 1.42861E+01 0.00000E+00
 -1       714 1.29900E+01 1.32000E+01 0.00000E+00
 -1       715 9.01824E+01 1.97832E+01 0.00000E+00
 -1       716 3.10350E+01 1.18003E+01 0.00000E+00
 -1       717 9.68349E+01 2.71493E+01 0.00000E+00
 -1       718 1.66500E+01 3.70100E+01 0.00000E+00
 -1       719 1.96500E+01 3.70100E+01 0.00000E+00
 -1       720 2.26500E+01 3.70100E+01 0.00000E+00
 -1       721 2.56500E+01 3.70100E+01 0.00000E+00
 -1       722 2.86500E+01 3.70100E+01 0.00000E+00
 -1       723 3.16500E+01 3.70100E+01 0.00000E+00
 -1       724 3.46500E+01 3.70100E+01 0.00000E+00
 -1       725 3.76500E+01 3.70100E+01 0.00000E+00
 -1       726 4.06500E+01 3.70100E+01 0.00000E+00
 -1       727 4.36500E+01 3.70100E+01 0.00000E+00
 -1       728 4.66500E+01 3.70100E+01 0.00000E+00
 -1       729 4.96500E+01 3.70100E+01 0.00000E+00
 -1       730 5.26500E+01 3.70100E+01 0.00000E+00
 -1       731 5.56500E+01 3.70100E+01 0.00000E+00
 -1       732 5.86500E+01 3.70100E+01 0.00000E+00
 -1       733 6.16500E+01 3.70100E+01 0.00000E+00
 -1       734 6.46500E+01 3.70100E+01 0.00000E+00
 -1       735 6.76500E+01 3.70100E+01 0.00000E+00
 -1       736 7.06500E+01 3.70100E+01 0.00000E+00
 -1       737 7.36500E+01 3.70100E+01 0.00000E+00
 -1       738 7.66500E+01 3.70100E+01 0.00000E+00
 -1       739 7.96500E+01 3.70100E+01 0.00000E+00
 -1       740 8.26500E+01 3.70100E+01 0.00000E+00
 -1       741 8.56500E+01 3.70100E+01 0.00000E+00
 -1       742 8.86500E+01 3.70100E+01 0.00000E+00
 -1       743 9.16500E+01 3.70100E+01 0.00000E+00
 -1       744 9.46500E+01 3.70100E+01 0.00000E+00
 -1       745 9.76500E+01 3.70100E+01 0.00000E+00
 -1       746 1.00650E+02 3.70100E+01 0.00000E+00
 -1       747 1.03650E+02 3.70100E+01 0.00000E+00
 -1       748 1.06650E+02 3.70100E+01 0.00000E+00
 -1       749 1.09650E+02 3.70100E+01 0.00000E+00
 -1       750 1.12650E+02 3.70100E+01 0.00000E+00
 -1       751 1.15650E+02 3.70100E+01 0.00000E+00
 -1       752 1.18650E+02 3.70100E+01 0.00000E+00
 -1       753 1.21650E+02 3.70100E+01 0.00000E+00
 -1       754 1.24650E+02 3.70100E+01 0.00000E+00
 -1       755 1.27650E+02 3.70100E+01 0.00000E+00
 -1       756 1.30650E+02 3.70100E+01 0.00000E+00
 -1       757 1.33650E+02 3.70100E+01 0.00000E+00
 -1       758 1.36650E+02 3.70100E+01 0.00000E+00
 -1       759 1.37010E+02 2.79500E+01 0.00000E+00
 -1       760 1.31799E+02 1.23669E+01 0.00000E+00
 -1       761 2.80350E+01 1.18003E+01 0.00000E+00
 -1       762 3.70350E+01 1.18003E+01 0.00000E+00
 -1       763 4.00350E+01 1.18003E+01 0.00000E+00
 -1       764 4.30350E+01 1.18003E+01 0.00000E+00
 -1       765 4.60350E+01 1.18003E+01 0.00000E+00
 -1       766 4.90350E+01 1.18003E+01 0.00000E+00
 -1       767 5.20350E+01 1.18003E+01 0.00000E+00
 -1       768 5.50350E+01 1.18003E+01 0.00000E+00
 -1       769 5.80350E+01 1.18003E+01 0.00000E+00
 -1       770 6.10350E+01 1.18003E+01 0.00000E+00
 -1       771 6.40350E+01 1.18003E+01 0.00000E+00
 -1       772 6.70350E+01 1.18003E+01 0.00000E+00
 -1       773 7.00350E+01 1.18003E+01 0.00000E+00
 -1       774 7.30350E+01 1.18003E+01 0.00000E+00
 -1       775 7.60350E+01 1.18003E+01 0.00000E+00
 -1       776 7.90350E+01 1.18003E+01 0.00000E+00
 -1       777 8.20350E+01 1.18003E+01 0.00000E+00
 -1       778 8.50350E+01 1.18003E+01 0.00000E+00
 -1       779 8.76536E+01 1.22387E+01 0.00000E+00
 -1       780 1.19761E+02 1.22991E+01 0.00000E+00
 -1       781 1.37010E+02 2.50000E+01 0.00000E+00
 -1       782 1.05343E+02 2.78465E+01 0.00000E+00
 -1       783 1.28799E+02 1.23669E+01 0.00000E+00
 -1       784 1.36654E+02 1.44719E+01 0.00000E+00
 -1       785 1.25799E+02 1.23669E+01 0.00000E+00
 -1       786 1.37010E+02 2.20500E+01 0.00000E+00
 -1       787 1.17361E+02 1.74828E+01 0.00000E+00
 -1       788 1.18166E+02 1.50223E+01 0.00000E+00
 -1       789 1.22799E+02 1.23669E+01 0.00000E+00
 -1       790 1.37010E+02 1.91000E+01 0.00000E+00
 -1       791 1.37010E+02 3.09000E+01 0.00000E+00
 -1       792 1.37010E+02 3.38500E+01 0.00000E+00
 -1       793 2.20350E+01 1.18003E+01 0.00000E+00
 -1       794 1.29900E+01 2.20250E+01 0.00000E+00
 -1       795 1.14588E+02 2.29815E+01 0.00000E+00
 -1       796 9.11811E+01 2.28208E+01 0.00000E+00
 -1       797 2.50350E+01 1.18003E+01 0.00000E+00
 -1       798 1.36832E+02 1.67860E+01 0.00000E+00
 -1       799 1.18068E+02 1.29075E+01 0.00000E+00
 -1       800 1.37625E+01 1.12011E+01 0.00000E+00
 -1       801 1.36500E+01 3.70100E+01 0.00000E+00
 -1       802 9.39218E+01 2.57157E+01 0.00000E+00
 -1       803 3.40350E+01 1.18003E+01 0.00000E+00
 -1       804 1.12623E+02 2.57799E+01 0.00000E+00
 -1       805 9.94197E+01 2.76540E+01 0.00000E+00
 -1       806 1.29900E+01 2.49750E+01 0.00000E+00
 -1       807 1.29900E+01 1.61375E+01 0.00000E+00
 -1       808 1.11384E+02 2.78669E+01 0.00000E+00
 -1       809 1.29900E+01 3.37938E+01 0.00000E+00
 -1       810 1.34227E+02 1.34194E+01 0.00000E+00
 -1       811 1.17364E+02 1.94132E+01 0.00000E+00
 -1       812 1.07317E+02 2.87781E+01 0.00000E+00
 -1       813 1.67625E+01 1.12011E+01 0.00000E+00
 -1       814 1.29900E+01 1.90875E+01 0.00000E+00
 -1       815 9.13264E+01 2.55148E+01 0.00000E+00
 -1       816 1.00996E+02 2.87682E+01 0.00000E+00
 -1       817 1.93988E+01 1.15007E+01 0.00000E+00
 -1       818 8.81140E+01 1.60096E+01 0.00000E+00
 -1       819 1.29900E+01 3.08563E+01 0.00000E+00
 -1       820 1.29900E+01 2.79188E+01 0.00000E+00
 -1       821 1.03397E+02 2.95030E+01 0.00000E+00
 -1       822 2.11500E+01 3.44120E+01 0.00000E+00
 -1       823 2.41500E+01 3.44120E+01 0.00000E+00
 -1       824 2.71500E+01 3.44120E+01 0.00000E+00
 -1       825 3.01500E+01 3.44120E+01 0.00000E+00
 -1       826 3.31500E+01 3.44120E+01 0.00000E+00
 -1       827 3.61500E+01 3.44120E+01 0.00000E+00
 -1       828 3.91500E+01 3.44120E+01 0.00000E+00
 -1       829 4.21500E+01 3.44120E+01 0.00000E+00
 -1       830 4.51500E+01 3.44120E+01 0.00000E+00
 -1       831 4.81500E+01 3.44120E+01 0.00000E+00
 -1       832 5.11500E+01 3.44120E+01 0.00000E+00
 -1       833 5.41500E+01 3.44120E+01 0.00000E+00
 -1       834 5.71500E+01 3.44120E+01 0.00000E+00
 -1       835 6.01500E+01 3.44120E+01 0.00000E+00
 -1       836 6.31500E+01 3.44120E+01 0.00000E+00
 -1       837 6.61500E+01 3.44120E+01 0.00000E+00
 -1       838 6.91500E+01 3.44120E+01 0.00000E+00
 -1       839 7.21500E+01 3.44120E+01 0.00000E+00
 -1       840 7.51500E+01 3.44120E+01 0.00000E+00
 -1       841 7.81500E+01 3.44120E+01 0.00000E+00
 -1       842 8.11500E+01 3.44120E+01 0.00000E+00
 -1       843 8.41500E+01 3.44120E+01 0.00000E+00
 -1       844 8.71500E+01 3.44120E+01 0.00000E+00
 -1       845 9.01500E+01 3.44120E+01 0.00000E+00
 -1       846 9.31500E+01 3.44120E+01 0.00000E+00
 -1       847 9.61500E+01 3.44120E+01 0.00000E+00
 -1       848 9.91500E+01 3.44120E+01 0.00000E+00
 -1       849 1.02150E+02 3.44120E+01 0.00000E+00
 -1       850 1.05150E+02 3.44120E+01 0.00000E+00
 -1       851 1.08150E+02 3.44120E+01 0.00000E+00
 -1       852 1.11150E+02 3.44120E+01 0.00000E+00
 -1       853 1.14150E+02 3.44120E+01 0.00000E+00
 -1       854 1.17150E+02 3.44120E+01 0.00000E+00
 -1       855 1.20150E+02 3.44120E+01 0.00000E+00
 -1       856 1.23150E+02 3.44120E+01 0.00000E+00
 -1       857 1.26150E+02 3.44120E+01 0.00000E+00
 -1       858 1.29150E+02 3.44120E+01 0.00000E+00
 -1       859 1.32150E+02 3.44120E+01 0.00000E+00
 -1       860 1.34580E+02 3.41310E+01 0.00000E+00
 -1       861 1.34580E+02 3.11810E+01 0.00000E+00
 -1       862 4.15350E+01 1.43982E+01 0.00000E+00
 -1       863 3.85350E+01 1.43982E+01 0.00000E+00
 -1       864 4.75350E+01 1.43982E+01 0.00000E+00
 -1       865 5.05350E+01 1.43982E+01 0.00000E+00
 -1       866 5.35350E+01 1.43982E+01 0.00000E+00
 -1       867 5.65350E+01 1.43982E+01 0.00000E+00
 -1       868 5.95350E+01 1.43982E+01 0.00000E+00
 -1       869 6.25350E+01 1.43982E+01 0.00000E+00
 -1       870 6.55350E+01 1.43982E+01 0.00000E+00
 -1       871 6.85350E+01 1.43982E+01 0.00000E+00
 -1       872 7.15350E+01 1.43982E+01 0.00000E+00
 -1       873 7.45350E+01 1.43982E+01 0.00000E+00
 -1       874 7.75350E+01 1.43982E+01 0.00000E+00
 -1       875 8.05350E+01 1.43982E+01 0.00000E+00
 -1       876 8.35350E+01 1.43982E+01 0.00000E+00
 -1       877 8.61752E+01 1.43422E+01 0.00000E+00
 -1       878 1.34412E+02 2.64750E+01 0.00000E+00
 -1       879 1.30299E+02 1.49649E+01 0.00000E+00
 -1       880 1.19859E+02 1.44138E+01 0.00000E+00
 -1       881 1.27299E+02 1.49649E+01 0.00000E+00
 -1       882 1.34412E+02 2.35250E+01 0.00000E+00
 -1       883 1.19553E+02 1.68384E+01 0.00000E+00
 -1       884 1.24299E+02 1.49649E+01 0.00000E+00
 -1       885 8.82616E+01 1.87725E+01 0.00000E+00
 -1       886 1.34412E+02 2.05750E+01 0.00000E+00
 -1       887 2.35350E+01 1.43982E+01 0.00000E+00
 -1       888 4.45350E+01 1.43982E+01 0.00000E+00
 -1       889 2.65350E+01 1.43982E+01 0.00000E+00
 -1       890 2.95350E+01 1.43982E+01 0.00000E+00
 -1       891 1.16819E+02 2.22759E+01 0.00000E+00
 -1       892 1.81500E+01 3.44120E+01 0.00000E+00
 -1       893 9.42312E+01 2.87635E+01 0.00000E+00
 -1       894 1.55700E+01 3.41029E+01 0.00000E+00
 -1       895 1.15694E+02 2.58481E+01 0.00000E+00
 -1       896 1.34496E+02 2.88280E+01 0.00000E+00
 -1       897 9.77023E+01 2.95783E+01 0.00000E+00
 -1       898 8.82137E+01 2.21134E+01 0.00000E+00
 -1       899 1.59900E+01 1.32000E+01 0.00000E+00
 -1       900 1.05372E+02 3.04345E+01 0.00000E+00
 -1       901 1.14456E+02 2.79352E+01 0.00000E+00
 -1       902 1.55880E+01 2.35000E+01 0.00000E+00
 -1       903 9.16357E+01 2.85626E+01 0.00000E+00
 -1       904 1.34404E+02 1.57334E+01 0.00000E+00
 -1       905 3.55350E+01 1.43982E+01 0.00000E+00
 -1       906 9.92786E+01 3.06926E+01 0.00000E+00
 -1       907 1.32352E+02 1.53492E+01 0.00000E+00
 -1       908 1.09924E+02 2.93539E+01 0.00000E+00
 -1       909 1.34234E+02 1.82610E+01 0.00000E+00
 -1       910 2.05351E+01 1.43983E+01 0.00000E+00
 -1       911 1.19556E+02 1.87688E+01 0.00000E+00
 -1       912 1.55700E+01 3.11654E+01 0.00000E+00
 -1       913 3.25350E+01 1.43982E+01 0.00000E+00
 -1       914 1.55880E+01 2.05625E+01 0.00000E+00
 -1       915 8.83590E+01 2.48074E+01 0.00000E+00
 -1       916 2.26500E+01 3.18140E+01 0.00000E+00
 -1       917 2.56500E+01 3.18140E+01 0.00000E+00
 -1       918 2.86500E+01 3.18140E+01 0.00000E+00
 -1       919 3.16500E+01 3.18140E+01 0.00000E+00
 -1       920 3.46500E+01 3.18140E+01 0.00000E+00
 -1       921 3.76500E+01 3.18140E+01 0.00000E+00
 -1       922 4.06500E+01 3.18140E+01 0.00000E+00
 -1       923 4.36500E+01 3.18140E+01 0.00000E+00
 -1       924 4.66500E+01 3.18140E+01 0.00000E+00
 -1       925 4.96500E+01 3.18140E+01 0.00000E+00
 -1       926 5.26500E+01 3.18140E+01 0.00000E+00
 -1       927 5.56500E+01 3.18140E+01 0.00000E+00
 -1       928 5.86500E+01 3.18140E+01 0.00000E+00
 -1       929 6.16500E+01 3.18140E+01 0.00000E+00
 -1       930 6.46500E+01 3.18140E+01 0.00000E+00
 -1       931 6.76500E+01 3.18140E+01 0.00000E+00
 -1       932 7.06500E+01 3.18140E+01 0.00000E+00
 -1       933 7.36500E+01 3.18140E+01 0.00000E+00
 -1       934 7.66500E+01 3.18140E+01 0.00000E+00
 -1       935 7.96500E+01 3.18140E+01 0.00000E+00
 -1       936 8.26500E+01 3.18140E+01 0.00000E+00
 -1       937 8.56500E+01 3.18140E+01 0.00000E+00
 -1       938 8.86500E+01 3.18140E+01 0.00000E+00
 -1       939 9.16500E+01 3.18140E+01 0.00000E+00
 -1       940 9.46500E+01 3.18140E+01 0.00000E+00
 -1       941 1.03650E+02 3.18140E+01 0.00000E+00
 -1       942 1.15650E+02 3.18140E+01 0.00000E+00
 -1       943 1.18650E+02 3.18140E+01 0.00000E+00
 -1       944 1.21650E+02 3.18140E+01 0.00000E+00
 -1       945 1.24650E+02 3.18140E+01 0.00000E+00
 -1       946 1.27650E+02 3.18140E+01 0.00000E+00
 -1       947 1.30650E+02 3.18140E+01 0.00000E+00
 -1       948 1.32615E+02 3.14975E+01 0.00000E+00
 -1       949 4.00350E+01 1.69963E+01 0.00000E+00
 -1       950 1.96500E+01 3.18140E+01 0.00000E+00
 -1       951 5.20350E+01 1.69963E+01 0.00000E+00
 -1       952 4.90350E+01 1.69963E+01 0.00000E+00
 -1       953 5.80350E+01 1.69963E+01 0.00000E+00
 -1       954 6.10350E+01 1.69963E+01 0.00000E+00
 -1       955 6.40350E+01 1.69963E+01 0.00000E+00
 -1       956 6.70350E+01 1.69963E+01 0.00000E+00
 -1       957 7.00350E+01 1.69963E+01 0.00000E+00
 -1       958 7.30350E+01 1.69963E+01 0.00000E+00
 -1       959 7.60350E+01 1.69963E+01 0.00000E+00
 -1       960 7.90350E+01 1.69963E+01 0.00000E+00
 -1       961 8.20350E+01 1.69963E+01 0.00000E+00
 -1       962 8.46752E+01 1.69402E+01 0.00000E+00
 -1       963 1.55880E+01 2.64438E+01 0.00000E+00
 -1       964 2.20351E+01 1.69963E+01 0.00000E+00
 -1       965 1.28799E+02 1.75629E+01 0.00000E+00
 -1       966 1.31814E+02 2.50000E+01 0.00000E+00
 -1       967 1.63076E+01 1.65250E+01 0.00000E+00
 -1       968 1.31814E+02 2.20500E+01 0.00000E+00
 -1       969 2.80350E+01 1.69963E+01 0.00000E+00
 -1       970 1.19011E+02 2.16315E+01 0.00000E+00
 -1       971 2.50350E+01 1.69963E+01 0.00000E+00
 -1       972 8.56849E+01 2.04064E+01 0.00000E+00
 -1       973 1.18692E+02 2.48288E+01 0.00000E+00
 -1       974 1.25799E+02 1.75629E+01 0.00000E+00
 -1       975 1.82625E+01 1.37991E+01 0.00000E+00
 -1       976 1.76100E+01 3.14897E+01 0.00000E+00
 -1       977 1.55790E+01 2.88046E+01 0.00000E+00
 -1       978 5.50350E+01 1.69963E+01 0.00000E+00
 -1       979 1.17309E+02 2.82177E+01 0.00000E+00
 -1       980 8.58302E+01 2.31004E+01 0.00000E+00
 -1       981 8.86684E+01 2.78552E+01 0.00000E+00
 -1       982 1.31898E+02 2.73530E+01 0.00000E+00
 -1       983 1.30852E+02 1.79472E+01 0.00000E+00
 -1       984 1.13062E+02 3.12708E+01 0.00000E+00
 -1       985 3.70350E+01 1.69963E+01 0.00000E+00
 -1       986 4.60350E+01 1.69963E+01 0.00000E+00
 -1       987 1.22838E+02 1.75404E+01 0.00000E+00
 -1       988 1.81860E+01 2.49719E+01 0.00000E+00
 -1       989 3.10350E+01 1.69963E+01 0.00000E+00
 -1       990 1.97625E+01 1.63971E+01 0.00000E+00
 -1       991 4.30350E+01 1.69963E+01 0.00000E+00
 -1       992 1.81860E+01 2.20344E+01 0.00000E+00
 -1       993 1.07782E+02 3.12950E+01 0.00000E+00
 -1       994 2.71500E+01 2.92160E+01 0.00000E+00
 -1       995 3.01500E+01 2.92160E+01 0.00000E+00
 -1       996 3.31500E+01 2.92160E+01 0.00000E+00
 -1       997 3.61500E+01 2.92160E+01 0.00000E+00
 -1       998 3.91500E+01 2.92160E+01 0.00000E+00
 -1       999 4.21500E+01 2.92160E+01 0.00000E+00
 -1      1000 4.51500E+01 2.92160E+01 0.00000E+00
 -1      1001 4.81500E+01 2.92160E+01 0.00000E+00
 -1      1002 5.11500E+01 2.92160E+01 0.00000E+00
 -1      1003 5.41500E+01 2.92160E+01 0.00000E+00
 -1      1004 5.71500E+01 2.92160E+01 0.00000E+00
 -1      1005 6.01500E+01 2.92160E+01 0.00000E+00
 -1      1006 6.31500E+01 2.92160E+01 0.00000E+00
 -1      1007 6.61500E+01 2.92160E+01 0.00000E+00
 -1      1008 6.91500E+01 2.92160E+01 0.00000E+00
 -1      1009 7.21500E+01 2.92160E+01 0.00000E+00
 -1      1010 7.51500E+01 2.92160E+01 0.00000E+00
 -1      1011 7.81500E+01 2.92160E+01 0.00000E+00
 -1      1012 8.11500E+01 2.92160E+01 0.00000E+00
 -1      1013 8.41500E+01 2.92160E+01 0.00000E+00
 -1      1014 1.31274E+02 2.95835E+01 0.00000E+00
 -1      1015 1.20150E+02 2.92160E+01 0.00000E+00
 -1      1016 1.23150E+02 2.92160E+01 0.00000E+00
 -1      1017 1.26150E+02 2.92160E+01 0.00000E+00
 -1      1018 1.28712E+02 2.93997E+01 0.00000E+00
 -1      1019 2.11500E+01 2.92160E+01 0.00000E+00
 -1      1020 1.22092E+02 2.05455E+01 0.00000E+00
 -1      1021 6.25350E+01 1.95942E+01 0.00000E+00
 -1      1022 5.95350E+01 1.95942E+01 0.00000E+00
 -1      1023 6.85350E+01 1.95942E+01 0.00000E+00
 -1      1024 7.15350E+01 1.95942E+01 0.00000E+00
 -1      1025 7.45350E+01 1.95942E+01 0.00000E+00
 -1      1026 7.75350E+01 1.95942E+01 0.00000E+00
 -1      1027 8.05350E+01 1.95942E+01 0.00000E+00
 -1      1028 8.31100E+01 2.00003E+01 0.00000E+00
 -1      1029 1.25053E+02 2.05680E+01 0.00000E+00
 -1      1030 1.81770E+01 2.73327E+01 0.00000E+00
 -1      1031 3.40350E+01 1.69963E+01 0.00000E+00
 -1      1032 6.55350E+01 1.95942E+01 0.00000E+00
 -1      1033 5.05350E+01 1.95942E+01 0.00000E+00
 -1      1034 1.21437E+02 2.34884E+01 0.00000E+00
 -1      1035 2.41500E+01 2.92160E+01 0.00000E+00
 -1      1036 1.89743E+01 1.92157E+01 0.00000E+00
 -1      1037 1.28053E+02 2.05680E+01 0.00000E+00
 -1      1038 1.29216E+02 2.35250E+01 0.00000E+00
 -1      1039 5.65350E+01 1.95942E+01 0.00000E+00
 -1      1040 5.35350E+01 1.95942E+01 0.00000E+00
 -1      1041 8.32553E+01 2.26943E+01 0.00000E+00
 -1      1042 3.85350E+01 1.95942E+01 0.00000E+00
 -1      1043 4.75350E+01 1.95942E+01 0.00000E+00
 -1      1044 2.11590E+01 2.68552E+01 0.00000E+00
 -1      1045 8.49901E+01 2.61582E+01 0.00000E+00
 -1      1046 2.95350E+01 1.95942E+01 0.00000E+00
 -1      1047 2.12468E+01 1.98149E+01 0.00000E+00
 -1      1048 2.65350E+01 1.95943E+01 0.00000E+00
 -1      1049 4.15350E+01 1.95942E+01 0.00000E+00
 -1      1050 2.38909E+01 1.97046E+01 0.00000E+00
 -1      1051 1.29300E+02 2.58780E+01 0.00000E+00
 -1      1052 1.22293E+02 2.63522E+01 0.00000E+00
 -1      1053 2.11590E+01 2.39177E+01 0.00000E+00
 -1      1054 5.50350E+01 2.21922E+01 0.00000E+00
 -1      1055 3.16500E+01 2.66180E+01 0.00000E+00
 -1      1056 3.46500E+01 2.66180E+01 0.00000E+00
 -1      1057 3.76500E+01 2.66180E+01 0.00000E+00
 -1      1058 4.06500E+01 2.66180E+01 0.00000E+00
 -1      1059 4.36500E+01 2.66180E+01 0.00000E+00
 -1      1060 4.66500E+01 2.66180E+01 0.00000E+00
 -1      1061 4.96500E+01 2.66180E+01 0.00000E+00
 -1      1062 5.26500E+01 2.66180E+01 0.00000E+00
 -1      1063 5.56500E+01 2.66180E+01 0.00000E+00
 -1      1064 5.86500E+01 2.66180E+01 0.00000E+00
 -1      1065 6.16500E+01 2.66180E+01 0.00000E+00
 -1      1066 6.46500E+01 2.66180E+01 0.00000E+00
 -1      1067 6.76500E+01 2.66180E+01 0.00000E+00
 -1      1068 7.06500E+01 2.66180E+01 0.00000E+00
 -1      1069 7.36500E+01 2.66180E+01 0.00000E+00
 -1      1070 7.66500E+01 2.66180E+01 0.00000E+00
 -1      1071 7.96500E+01 2.66180E+01 0.00000E+00
 -1      1072 8.23201E+01 2.63881E+01 0.00000E+00
 -1      1073 6.10350E+01 2.21922E+01 0.00000E+00
 -1      1074 1.29006E+02 2.76389E+01 0.00000E+00
 -1      1075 6.40350E+01 2.21922E+01 0.00000E+00
 -1      1076 1.25293E+02 2.63522E+01 0.00000E+00
 -1      1077 6.70350E+01 2.21922E+01 0.00000E+00
 -1      1078 7.30350E+01 2.21922E+01 0.00000E+00
 -1      1079 7.00350E+01 2.21922E+01 0.00000E+00
 -1      1080 7.90350E+01 2.21922E+01 0.00000E+00
 -1      1081 8.11451E+01 2.24433E+01 0.00000E+00
 -1      1082 1.23673E+02 2.34601E+01 0.00000E+00
 -1      1083 1.26445E+02 2.34926E+01 0.00000E+00
 -1      1084 4.45350E+01 1.95942E+01 0.00000E+00
 -1      1085 5.20350E+01 2.21922E+01 0.00000E+00
 -1      1086 7.60350E+01 2.21922E+01 0.00000E+00
 -1      1087 5.80350E+01 2.21922E+01 0.00000E+00
 -1      1088 3.25350E+01 1.95942E+01 0.00000E+00
 -1      1089 2.86500E+01 2.66180E+01 0.00000E+00
 -1      1090 3.55350E+01 1.95942E+01 0.00000E+00
 -1      1091 3.10350E+01 2.21922E+01 0.00000E+00
 -1      1092 4.90350E+01 2.21922E+01 0.00000E+00
 -1      1093 2.26772E+01 2.23555E+01 0.00000E+00
 -1      1094 4.00350E+01 2.21922E+01 0.00000E+00
 -1      1095 2.37570E+01 2.53864E+01 0.00000E+00
 -1      1096 2.80350E+01 2.21923E+01 0.00000E+00
 -1      1097 3.70350E+01 2.21922E+01 0.00000E+00
 -1      1098 3.40349E+01 2.21923E+01 0.00000E+00
 -1      1099 2.53213E+01 2.22452E+01 0.00000E+00
 -1      1100 3.61500E+01 2.40200E+01 0.00000E+00
 -1      1101 4.51500E+01 2.40200E+01 0.00000E+00
 -1      1102 1.27617E+02 2.67165E+01 0.00000E+00
 -1      1103 2.56500E+01 2.66180E+01 0.00000E+00
 -1      1104 4.30350E+01 2.21922E+01 0.00000E+00
 -1      1105 2.61203E+01 2.38245E+01 0.00000E+00
 -1      1106 8.19158E+01 2.40475E+01 0.00000E+00
 -1      1107 0.00000E+00 4.85250E+01 0.00000E+00
 -1      1108 0.00000E+00 4.55750E+01 0.00000E+00
 -1      1109 0.00000E+00 4.26250E+01 0.00000E+00
 -1      1110 0.00000E+00 3.96750E+01 0.00000E+00
 -1      1111 0.00000E+00 3.67250E+01 0.00000E+00
 -1      1112 0.00000E+00 3.38000E+01 0.00000E+00
 -1      1113 0.00000E+00 3.08750E+01 0.00000E+00
 -1      1114 0.00000E+00 2.79250E+01 0.00000E+00
 -1      1115 0.00000E+00 2.49750E+01 0.00000E+00
 -1      1116 0.00000E+00 2.20250E+01 0.00000E+00
 -1      1117 0.00000E+00 1.90750E+01 0.00000E+00
 -1      1118 0.00000E+00 1.61500E+01 0.00000E+00
 -1      1119 0.00000E+00 1.32250E+01 0.00000E+00
 -1      1120 0.00000E+00 1.02750E+01 0.00000E+00
 -1      1121 0.00000E+00 7.32500E+00 0.00000E+00
 -1      1122 0.00000E+00 4.37500E+00 0.00000E+00
 -1      1123 0.00000E+00 1.45000E+00 0.00000E+00
 -1      1124 1.57500E+00 5.00000E+01 0.00000E+00
 -1      1125 4.65000E+00 5.00000E+01 0.00000E+00
 -1      1126 7.65000E+00 5.00000E+01 0.00000E+00
 -1      1127 1.06500E+01 5.00000E+01 0.00000E+00
 -1      1128 1.36500E+01 5.00000E+01 0.00000E+00
 -1      1129 1.66500E+01 5.00000E+01 0.00000E+00
 -1      1130 1.96500E+01 5.00000E+01 0.00000E+00
 -1      1131 2.26500E+01 5.00000E+01 0.00000E+00
 -1      1132 2.56500E+01 5.00000E+01 0.00000E+00
 -1      1133 2.86500E+01 5.00000E+01 0.00000E+00
 -1      1134 3.16500E+01 5.00000E+01 0.00000E+00
 -1      1135 3.46500E+01 5.00000E+01 0.00000E+00
 -1      1136 3.76500E+01 5.00000E+01 0.00000E+00
 -1      1137 4.06500E+01 5.00000E+01 0.00000E+00
 -1      1138 4.36500E+01 5.00000E+01 0.00000E+00
 -1      1139 4.66500E+01 5.00000E+01 0.00000E+00
 -1      1140 4.96500E+01 5.00000E+01 0.00000E+00
 -1      1141 5.26500E+01 5.00000E+01 0.00000E+00
 -1      1142 5.56500E+01 5.00000E+01 0.00000E+00
 -1      1143 5.86500E+01 5.00000E+01 0.00000E+00
 -1      1144 6.16500E+01 5.00000E+01 0.00000E+00
 -1      1145 6.46500E+01 5.00000E+01 0.00000E+00
 -1      1146 6.76500E+01 5.00000E+01 0.00000E+00
 -1      1147 7.06500E+01 5.00000E+01 0.00000E+00
 -1      1148 7.36500E+01 5.00000E+01 0.00000E+00
 -1      1149 7.66500E+01 5.00000E+01 0.00000E+00
 -1      1150 7.96500E+01 5.00000E+01 0.00000E+00
 -1      1151 8.26500E+01 5.00000E+01 0.00000E+00
 -1      1152 8.56500E+01 5.00000E+01 0.00000E+00
 -1      1153 8.86500E+01 5.00000E+01 0.00000E+00
 -1      1154 9.16500E+01 5.00000E+01 0.00000E+00
 -1      1155 9.46500E+01 5.00000E+01 0.00000E+00
 -1      1156 9.76500E+01 5.00000E+01 0.00000E+00
 -1      1157 1.00650E+02 5.00000E+01 0.00000E+00
 -1      1158 1.03650E+02 5.00000E+01 0.00000E+00
 -1      1159 1.06650E+02 5.00000E+01 0.00000E+00
 -1      1160 1.09650E+02 5.00000E+01 0.00000E+00
 -1      1161 1.12650E+02 5.00000E+01 0.00000E+00
 -1      1162 1.15650E+02 5.00000E+01 0.00000E+00
 -1      1163 1.18650E+02 5.00000E+01 0.00000E+00
 -1      1164 1.21650E+02 5.00000E+01 0.00000E+00
 -1      1165 1.24650E+02 5.00000E+01 0.00000E+00
 -1      1166 1.27650E+02 5.00000E+01 0.00000E+00
 -1      1167 1.30650E+02 5.00000E+01 0.00000E+00
 -1      1168 1.33650E+02 5.00000E+01 0.00000E+00
 -1      1169 1.36650E+02 5.00000E+01 0.00000E+00
 -1      1170 1.39650E+02 5.00000E+01 0.00000E+00
 -1      1171 1.42650E+02 5.00000E+01 0.00000E+00
 -1      1172 1.45650E+02 5.00000E+01 0.00000E+00
 -1      1173 1.48575E+02 5.00000E+01 0.00000E+00
 -1      1174 1.57500E+00 0.00000E+00 0.00000E+00
 -1      1175 4.65000E+00 0.00000E+00 0.00000E+00
 -1      1176 7.65000E+00 0.00000E+00 0.00000E+00
 -1      1177 1.06500E+01 0.00000E+00 0.00000E+00
 -1      1178 1.36500E+01 0.00000E+00 0.00000E+00
 -1      1179 1.66500E+01 0.00000E+00 0.00000E+00
 -1      1180 1.96500E+01 0.00000E+00 0.00000E+00
 -1      1181 2.26500E+01 0.00000E+00 0.00000E+00
 -1      1182 2.56500E+01 0.00000E+00 0.00000E+00
 -1      1183 2.86500E+01 0.00000E+00 0.00000E+00
 -1      1184 3.16500E+01 0.00000E+00 0.00000E+00
 -1      1185 3.46500E+01 0.00000E+00 0.00000E+00
 -1      1186 3.76500E+01 0.00000E+00 0.00000E+00
 -1      1187 4.06500E+01 0.00000E+00 0.00000E+00
 -1      1188 4.36500E+01 0.00000E+00 0.00000E+00
 -1      1189 4.66500E+01 0.00000E+00 0.00000E+00
 -1      1190 4.96500E+01 0.00000E+00 0.00000E+00
 -1      1191 5.26500E+01 0.00000E+00 0.00000E+00
 -1      1192 5.56500E+01 0.00000E+00 0.00000E+00
 -1      1193 5.86500E+01 0.00000E+00 0.00000E+00
 -1      1194 6.16500E+01 0.00000E+00 0.00000E+00
 -1      1195 6.46500E+01 0.00000E+00 0.00000E+00
 -1      1196 6.76500E+01 0.00000E+00 0.00000E+00
 -1      1197 7.06500E+01 0.00000E+00 0.00000E+00
 -1      1198 7.36500E+01 0.00000E+00 0.00000E+00
 -1      1199 7.66500E+01 0.00000E+00 0.00000E+00
 -1      1200 7.96500E+01 0.00000E+00 0.00000E+00
 -1      1201 8.26500E+01 0.00000E+00 0.00000E+00
 -1      1202 8.56500E+01 0.00000E+00 0.00000E+00
 -1      1203 8.86500E+01 0.00000E+00 0.00000E+00
 -1      1204 9.16500E+01 0.00000E+00 0.00000E+00
 -1      1205 9.46500E+01 0.00000E+00 0.00000E+00
 -1      1206 9.75000E+01 0.00000E+00 0.00000E+00
 -1      1207 1.00125E+02 0.00000E+00 0.00000E+00
 -1      1208 1.02600E+02 0.00000E+00 0.00000E+00
 -1      1209 1.04850E+02 0.00000E+00 0.00000E+00
 -1      1210 1.07175E+02 0.00000E+00 0.00000E+00
 -1      1211 1.09800E+02 0.00000E+00 0.00000E+00
 -1      1212 1.12575E+02 0.00000E+00 0.00000E+00
 -1      1213 1.15500E+02 0.00000E+00 0.00000E+00
 -1      1214 1.18500E+02 0.00000E+00 0.00000E+00
 -1      1215 1.21500E+02 0.00000E+00 0.00000E+00
 -1      1216 1.24500E+02 0.00000E+00 0.00000E+00
 -1      1217 1.27500E+02 0.00000E+00 0.00000E+00
 -1      1218 1.30500E+02 0.00000E+00 0.00000E+00
 -1      1219 1.33500E+02 0.00000E+00 0.00000E+00
 -1      1220 1.36500E+02 0.00000E+00 0.00000E+00
 -1      1221 1.39500E+02 0.00000E+00 0.00000E+00
 -1      1222 1.42500E+02 0.00000E+00 0.00000E+00
 -1      1223 1.45500E+02 0.00000E+00 0.00000E+00
 -1      1224 1.48500E+02 0.00000E+00 0.00000E+00
 -1      1225 1.50000E+02 1.47500E+00 0.00000E+00
 -1      1226 1.50000E+02 4.42500E+00 0.00000E+00
 -1      1227 1.50000E+02 7.37500E+00 0.00000E+00
 -1      1228 1.50000E+02 1.03250E+01 0.00000E+00
 -1      1229 1.50000E+02 1.32750E+01 0.00000E+00
 -1      1230 1.50000E+02 1.62000E+01 0.00000E+00
 -1      1231 1.50000E+02 1.91250E+01 0.00000E+00
 -1      1232 1.50000E+02 2.20750E+01 0.00000E+00
 -1      1233 1.50000E+02 2.50250E+01 0.00000E+00
 -1      1234 1.50000E+02 2.79750E+01 0.00000E+00
 -1      1235 1.50000E+02 3.09250E+01 0.00000E+00
 -1      1236 1.50000E+02 3.38500E+01 0.00000E+00
 -1      1237 1.50000E+02 3.67750E+01 0.00000E+00
 -1      1238 1.50000E+02 3.97250E+01 0.00000E+00
 -1      1239 1.50000E+02 4.26750E+01 0.00000E+00
 -1      1240 1.50000E+02 4.56250E+01 0.00000E+00
 -1      1241 1.50000E+02 4.85500E+01 0.00000E+00
 -1      1242 1.10297E+02 1.26714E+01 0.00000E+00
 -1      1243 1.09971E+02 1.11856E+01 0.00000E+00
 -1      1244 1.09318E+02 9.78085E+00 0.00000E+00
 -1      1245 1.08391E+02 8.57506E+00 0.00000E+00
 -1      1246 1.07262E+02 7.62182E+00 0.00000E+00
 -1      1247 1.05951E+02 6.92398E+00 0.00000E+00
 -1      1248 1.04540E+02 6.52166E+00 0.00000E+00
 -1      1249 1.03043E+02 6.42364E+00 0.00000E+00
 -1      1250 1.01439E+02 6.67969E+00 0.00000E+00
 -1      1251 9.99771E+01 7.27638E+00 0.00000E+00
 -1      1252 9.87383E+01 8.13967E+00 0.00000E+00
 -1      1253 9.76903E+01 9.28010E+00 0.00000E+00
 -1      1254 9.69023E+01 1.06609E+01 0.00000E+00
 -1      1255 9.64537E+01 1.21430E+01 0.00000E+00
 -1      1256 9.63416E+01 1.36791E+01 0.00000E+00
 -1      1257 9.65758E+01 1.52312E+01 0.00000E+00
 -1      1258 9.71202E+01 1.66355E+01 0.00000E+00
 -1      1259 9.79309E+01 1.78646E+01 0.00000E+00
 -1      1260 9.89770E+01 1.88940E+01 0.00000E+00
 -1      1261 1.00202E+02 1.96764E+01 0.00000E+00
 -1      1262 1.01624E+02 2.02046E+01 0.00000E+00
 -1      1263 1.03150E+02 2.04150E+01 0.00000E+00
 -1      1264 1.04635E+02 2.02960E+01 0.00000E+00
 -1      1265 1.06034E+02 1.98768E+01 0.00000E+00
 -1      1266 1.07329E+02 1.91674E+01 0.00000E+00
 -1      1267 1.08502E+02 1.81422E+01 0.00000E+00
 -1      1268 1.09421E+02 1.68780E+01 0.00000E+00
 -1      1269 1.10012E+02 1.55242E+01 0.00000E+00
 -1      1270 1.10300E+02 1.41298E+01 0.00000E+00
 -1      1271 1.57500E+00 4.85250E+01 0.00000E+00
 -1      1272 1.29900E+00 4.48375E+01 0.00000E+00
 -1      1273 1.29900E+00 4.63125E+01 0.00000E+00
 -1      1274 1.29900E+00 4.18875E+01 0.00000E+00
 -1      1275 1.29900E+00 4.33625E+01 0.00000E+00
 -1      1276 2.59800E+00 4.41000E+01 0.00000E+00
 -1      1277 1.29900E+00 3.89375E+01 0.00000E+00
 -1      1278 1.29900E+00 4.04125E+01 0.00000E+00
 -1      1279 2.59800E+00 4.11500E+01 0.00000E+00
 -1      1280 1.29900E+00 3.59875E+01 0.00000E+00
 -1      1281 1.29900E+00 3.74625E+01 0.00000E+00
 -1      1282 2.59800E+00 3.82000E+01 0.00000E+00
 -1      1283 1.29900E+00 3.30875E+01 0.00000E+00
 -1      1284 1.29900E+00 3.45375E+01 0.00000E+00
 -1      1285 2.59800E+00 3.52750E+01 0.00000E+00
 -1      1286 1.29900E+00 3.01375E+01 0.00000E+00
 -1      1287 1.29900E+00 3.16125E+01 0.00000E+00
 -1      1288 2.59800E+00 3.23500E+01 0.00000E+00
 -1      1289 1.29900E+00 2.71875E+01 0.00000E+00
 -1      1290 1.29900E+00 2.86625E+01 0.00000E+00
 -1      1291 2.59800E+00 2.94000E+01 0.00000E+00
 -1      1292 1.29900E+00 2.42375E+01 0.00000E+00
 -1      1293 1.29900E+00 2.57125E+01 0.00000E+00
 -1      1294 2.59800E+00 2.64500E+01 0.00000E+00
 -1      1295 1.29900E+00 2.12875E+01 0.00000E+00
 -1      1296 1.29900E+00 2.27625E+01 0.00000E+00
 -1      1297 2.59800E+00 2.35000E+01 0.00000E+00
 -1      1298 1.29900E+00 1.83375E+01 0.00000E+00
 -1      1299 1.29900E+00 1.98125E+01 0.00000E+00
 -1      1300 2.59800E+00 2.05500E+01 0.00000E+00
 -1      1301 1.29900E+00 1.54375E+01 0.00000E+00
 -1      1302 1.29900E+00 1.68875E+01 0.00000E+00
 -1      1303 2.59800E+00 1.76250E+01 0.00000E+00
 -1      1304 1.29900E+00 1.24875E+01 0.00000E+00
 -1      1305 1.29900E+00 1.39625E+01 0.00000E+00
 -1      1306 2.59800E+00 1.47000E+01 0.00000E+00
 -1      1307 1.29900E+00 9.53750E+00 0.00000E+00
 -1      1308 1.29900E+00 1.10125E+01 0.00000E+00
 -1      1309 2.59800E+00 1.17500E+01 0.00000E+00
 -1      1310 1.29900E+00 6.58750E+00 0.00000E+00
 -1      1311 1.29900E+00 8.06250E+00 0.00000E+00
 -1      1312 2.59800E+00 8.80000E+00 0.00000E+00
 -1      1313 1.29900E+00 3.63750E+00 0.00000E+00
 -1      1314 1.29900E+00 5.11250E+00 0.00000E+00
 -1      1315 2.59800E+00 5.85000E+00 0.00000E+00
 -1      1316 1.43700E+00 1.09375E+00 0.00000E+00
 -1      1317 1.43700E+00 2.54375E+00 0.00000E+00
 -1      1318 2.73600E+00 3.28125E+00 0.00000E+00
 -1      1319 3.01200E+00 1.09375E+00 0.00000E+00
 -1      1320 3.90000E+00 4.87010E+01 0.00000E+00
 -1      1321 5.40000E+00 4.87010E+01 0.00000E+00
 -1      1322 6.90000E+00 4.87010E+01 0.00000E+00
 -1      1323 8.40000E+00 4.87010E+01 0.00000E+00
 -1      1324 6.15000E+00 4.74020E+01 0.00000E+00
 -1      1325 9.90000E+00 4.87010E+01 0.00000E+00
 -1      1326 1.14000E+01 4.87010E+01 0.00000E+00
 -1      1327 9.15000E+00 4.74020E+01 0.00000E+00
 -1      1328 1.29000E+01 4.87010E+01 0.00000E+00
 -1      1329 1.44000E+01 4.87010E+01 0.00000E+00
 -1      1330 1.21500E+01 4.74020E+01 0.00000E+00
 -1      1331 1.59000E+01 4.87010E+01 0.00000E+00
 -1      1332 1.74000E+01 4.87010E+01 0.00000E+00
 -1      1333 1.51500E+01 4.74020E+01 0.00000E+00
 -1      1334 1.89000E+01 4.87010E+01 0.00000E+00
 -1      1335 2.04000E+01 4.87010E+01 0.00000E+00
 -1      1336 1.81500E+01 4.74020E+01 0.00000E+00
 -1      1337 2.19000E+01 4.87010E+01 0.00000E+00
 -1      1338 2.34000E+01 4.87010E+01 0.00000E+00
 -1      1339 2.11500E+01 4.74020E+01 0.00000E+00
 -1      1340 2.49000E+01 4.87010E+01 0.00000E+00
 -1      1341 2.64000E+01 4.87010E+01 0.00000E+00
 -1      1342 2.41500E+01 4.74020E+01 0.00000E+00
 -1      1343 2.79000E+01 4.87010E+01 0.00000E+00
 -1      1344 2.94000E+01 4.87010E+01 0.00000E+00
 -1      1345 2.71500E+01 4.74020E+01 0.00000E+00
 -1      1346 3.09000E+01 4.87010E+01 0.00000E+00
 -1      1347 3.24000E+01 4.87010E+01 0.00000E+00
 -1      1348 3.01500E+01 4.74020E+01 0.00000E+00
 -1      1349 3.39000E+01 4.87010E+01 0.00000E+00
 -1      1350 3.54000E+01 4.87010E+01 0.00000E+00
 -1      1351 3.31500E+01 4.74020E+01 0.00000E+00
 -1      1352 3.69000E+01 4.87010E+01 0.00000E+00
 -1      1353 3.84000E+01 4.87010E+01 0.00000E+00
 -1      1354 3.61500E+01 4.74020E+01 0.00000E+00
 -1      1355 3.99000E+01 4.87010E+01 0.00000E+00
 -1      1356 4.14000E+01 4.87010E+01 0.00000E+00
 -1      1357 3.91500E+01 4.74020E+01 0.00000E+00
 -1      1358 4.29000E+01 4.87010E+01 0.00000E+00
 -1      1359 4.44000E+01 4.87010E+01 0.00000E+00
 -1      1360 4.21500E+01 4.74020E+01 0.00000E+00
 -1      1361 4.59000E+01 4.87010E+01 0.00000E+00
 -1      1362 4.74000E+01 4.87010E+01 0.00000E+00
 -1      1363 4.51500E+01 4.74020E+01 0.00000E+00
 -1      1364 4.89000E+01 4.87010E+01 0.00000E+00
 -1      1365 5.04000E+01 4.87010E+01 0.00000E+00
 -1      1366 4.81500E+01 4.74020E+01 0.00000E+00
 -1      1367 5.19000E+01 4.87010E+01 0.00000E+00
 -1      1368 5.34000E+01 4.87010E+01 0.00000E+00
 -1      1369 5.11500E+01 4.74020E+01 0.00000E+00
 -1      1370 5.49000E+01 4.87010E+01 0.00000E+00
 -1      1371 5.64000E+01 4.87010E+01 0.00000E+00
 -1      1372 5.41500E+01 4.74020E+01 0.00000E+00
 -1      1373 5.79000E+01 4.87010E+01 0.00000E+00
 -1      1374 5.94000E+01 4.87010E+01 0.00000E+00
 -1      1375 5.71500E+01 4.74020E+01 0.00000E+00
 -1      1376 6.09000E+01 4.87010E+01 0.00000E+00
 -1      1377 6.24000E+01 4.87010E+01 0.00000E+00
 -1      1378 6.01500E+01 4.74020E+01 0.00000E+00
 -1      1379 6.39000E+01 4.87010E+01 0.00000E+00
 -1      1380 6.54000E+01 4.87010E+01 0.00000E+00
 -1      1381 6.31500E+01 4.74020E+01 0.00000E+00
 -1      1382 6.69000E+01 4.87010E+01 0.00000E+00
 -1      1383 6.84000E+01 4.87010E+01 0.00000E+00
 -1      1384 6.61500E+01 4.74020E+01 0.00000E+00
 -1      1385 6.99000E+01 4.87010E+01 0.00000E+00
 -1      1386 7.14000E+01 4.87010E+01 0.00000E+00
 -1      1387 6.91500E+01 4.74020E+01 0.00000E+00
 -1      1388 7.29000E+01 4.87010E+01 0.00000E+00
 -1      1389 7.44000E+01 4.87010E+01 0.00000E+00
 -1      1390 7.21500E+01 4.74020E+01 0.00000E+00
 -1      1391 7.59000E+01 4.87010E+01 0.00000E+00
 -1      1392 7.74000E+01 4.87010E+01 0.00000E+00
 -1      1393 7.51500E+01 4.74020E+01 0.00000E+00
 -1      1394 7.89000E+01 4.87010E+01 0.00000E+00
 -1      1395 8.04000E+01 4.87010E+01 0.00000E+00
 -1      1396 7.81500E+01 4.74020E+01 0.00000E+00
 -1      1397 8.19000E+01 4.87010E+01 0.00000E+00
 -1      1398 8.34000E+01 4.87010E+01 0.00000E+00
 -1      1399 8.11500E+01 4.74020E+01 0.00000E+00
 -1      1400 8.49000E+01 4.87010E+01 0.00000E+00
 -1      1401 8.64000E+01 4.87010E+01 0.00000E+00
 -1      1402 8.41500E+01 4.74020E+01 0.00000E+00
 -1      1403 8.79000E+01 4.87010E+01 0.00000E+00
 -1      1404 8.94000E+01 4.87010E+01 0.00000E+00
 -1      1405 8.71500E+01 4.74020E+01 0.00000E+00
 -1      1406 9.09000E+01 4.87010E+01 0.00000E+00
 -1      1407 9.24000E+01 4.87010E+01 0.00000E+00
 -1      1408 9.01500E+01 4.74020E+01 0.00000E+00
 -1      1409 9.39000E+01 4.87010E+01 0.00000E+00
 -1      1410 9.54000E+01 4.87010E+01 0.00000E+00
 -1      1411 9.31500E+01 4.74020E+01 0.00000E+00
 -1      1412 9.69000E+01 4.87010E+01 0.00000E+00
 -1      1413 9.84000E+01 4.87010E+01 0.00000E+00
 -1      1414 9.61500E+01 4.74020E+01 0.00000E+00
 -1      1415 9.99000E+01 4.87010E+01 0.00000E+00
 -1      1416 1.01400E+02 4.87010E+01 0.00000E+00
 -1      1417 9.91500E+01 4.74020E+01 0.00000E+00
 -1      1418 1.02900E+02 4.87010E+01 0.00000E+00
 -1      1419 1.04400E+02 4.87010E+01 0.00000E+00
 -1      1420 1.02150E+02 4.74020E+01 0.00000E+00
 -1      1421 1.05900E+02 4.87010E+01 0.00000E+00
 -1      1422 1.07400E+02 4.87010E+01 0.00000E+00
 -1      1423 1.05150E+02 4.74020E+01 0.00000E+00
 -1      1424 1.08900E+02 4.87010E+01 0.00000E+00
 -1      1425 1.10400E+02 4.87010E+01 0.00000E+00
 -1      1426 1.08150E+02 4.74020E+01 0.00000E+00
 -1      1427 1.11900E+02 4.87010E+01 0.00000E+00
 -1      1428 1.13400E+02 4.87010E+01 0.00000E+00
 -1      1429 1.11150E+02 4.74020E+01 0.00000E+00
 -1      1430 1.14900E+02 4.87010E+01 0.00000E+00
 -1      1431 1.16400E+02 4.87010E+01 0.00000E+00
 -1      1432 1.14150E+02 4.74020E+01 0.00000E+00
 -1      1433 1.17900E+02 4.87010E+01 0.00000E+00
 -1      1434 1.19400E+02 4.87010E+01 0.00000E+00
 -1      1435 1.17150E+02 4.74020E+01 0.00000E+00
 -1      1436 1.20900E+02 4.87010E+01 0.00000E+00
 -1      1437 1.22400E+02 4.87010E+01 0.00000E+00
 -1      1438 1.20150E+02 4.74020E+01 0.00000E+00
 -1      1439 1.23900E+02 4.87010E+01 0.00000E+00
 -1      1440 1.25400E+02 4.87010E+01 0.00000E+00
 -1      1441 1.23150E+02 4.74020E+01 0.00000E+00
 -1      1442 1.26900E+02 4.87010E+01 0.00000E+00
 -1      1443 1.28400E+02 4.87010E+01 0.00000E+00
 -1      1444 1.26150E+02 4.74020E+01 0.00000E+00
 -1      1445 1.29900E+02 4.87010E+01 0.00000E+00
 -1      1446 1.31400E+02 4.87010E+01 0.00000E+00
 -1      1447 1.29150E+02 4.74020E+01 0.00000E+00
 -1      1448 1.32900E+02 4.87010E+01 0.00000E+00
 -1      1449 1.34400E+02 4.87010E+01 0.00000E+00
 -1      1450 1.32150E+02 4.74020E+01 0.00000E+00
 -1      1451 1.35900E+02 4.87010E+01 0.00000E+00
 -1      1452 1.37400E+02 4.87010E+01 0.00000E+00
 -1      1453 1.35150E+02 4.74020E+01 0.00000E+00
 -1      1454 1.38900E+02 4.87010E+01 0.00000E+00
 -1      1455 1.40400E+02 4.87010E+01 0.00000E+00
 -1      1456 1.38150E+02 4.74020E+01 0.00000E+00
 -1      1457 1.41900E+02 4.87010E+01 0.00000E+00
 -1      1458 1.43400E+02 4.87010E+01 0.00000E+00
 -1      1459 1.41150E+02 4.74020E+01 0.00000E+00
 -1      1460 1.44900E+02 4.87010E+01 0.00000E+00
 -1      1461 1.46400E+02 4.87010E+01 0.00000E+00
 -1      1462 1.44150E+02 4.74020E+01 0.00000E+00
 -1      1463 1.48575E+02 4.85500E+01 0.00000E+00
 -1      1464 1.47825E+02 4.72510E+01 0.00000E+00
 -1      1465 6.01200E+00 1.09375E+00 0.00000E+00
 -1      1466 4.51200E+00 1.09375E+00 0.00000E+00
 -1      1467 4.37400E+00 2.18750E+00 0.00000E+00
 -1      1468 9.01200E+00 1.09375E+00 0.00000E+00
 -1      1469 7.51200E+00 1.09375E+00 0.00000E+00
 -1      1470 7.37400E+00 2.18750E+00 0.00000E+00
 -1      1471 1.20120E+01 1.09375E+00 0.00000E+00
 -1      1472 1.05120E+01 1.09375E+00 0.00000E+00
 -1      1473 1.03740E+01 2.18750E+00 0.00000E+00
 -1      1474 1.50120E+01 1.09375E+00 0.00000E+00
 -1      1475 1.35120E+01 1.09375E+00 0.00000E+00
 -1      1476 1.33740E+01 2.18750E+00 0.00000E+00
 -1      1477 1.80120E+01 1.09375E+00 0.00000E+00
 -1      1478 1.65120E+01 1.09375E+00 0.00000E+00
 -1      1479 1.63740E+01 2.18750E+00 0.00000E+00
 -1      1480 2.10120E+01 1.09375E+00 0.00000E+00
 -1      1481 1.95120E+01 1.09375E+00 0.00000E+00
 -1      1482 1.93740E+01 2.18750E+00 0.00000E+00
 -1      1483 2.40120E+01 1.09375E+00 0.00000E+00
 -1      1484 2.25120E+01 1.09375E+00 0.00000E+00
 -1      1485 2.23740E+01 2.18750E+00 0.00000E+00
 -1      1486 2.70120E+01 1.09375E+00 0.00000E+00
 -1      1487 2.55120E+01 1.09375E+00 0.00000E+00
 -1      1488 2.53740E+01 2.18750E+00 0.00000E+00
 -1      1489 3.00120E+01 1.09375E+00 0.00000E+00
 -1      1490 2.85120E+01 1.09375E+00 0.00000E+00
 -1      1491 2.83740E+01 2.18750E+00 0.00000E+00
 -1      1492 3.30120E+01 1.09375E+00 0.00000E+00
 -1      1493 3.15120E+01 1.09375E+00 0.00000E+00
 -1      1494 3.13740E+01 2.18750E+00 0.00000E+00
 -1      1495 3.60120E+01 1.09375E+00 0.00000E+00
 -1      1496 3.45120E+01 1.09375E+00 0.00000E+00
 -1      1497 3.43740E+01 2.18750E+00 0.00000E+00
 -1      1498 3.90120E+01 1.09375E+00 0.00000E+00
 -1      1499 3.75120E+01 1.09375E+00 0.00000E+00
 -1      1500 3.73740E+01 2.18750E+00 0.00000E+00
 -1      1501 4.20120E+01 1.09375E+00 0.00000E+00
 -1      1502 4.05120E+01 1.09375E+00 0.00000E+00
 -1      1503 4.03740E+01 2.18750E+00 0.00000E+00
 -1      1504 4.50120E+01 1.09375E+00 0.00000E+00
 -1      1505 4.35120E+01 1.09375E+00 0.00000E+00
 -1      1506 4.33740E+01 2.18750E+00 0.00000E+00
 -1      1507 4.80120E+01 1.09375E+00 0.00000E+00
 -1      1508 4.65120E+01 1.09375E+00 0.00000E+00
 -1      1509 4.63740E+01 2.18750E+00 0.00000E+00
 -1      1510 5.10120E+01 1.09375E+00 0.00000E+00
 -1      1511 4.95120E+01 1.09375E+00 0.00000E+00
 -1      1512 4.93740E+01 2.18750E+00 0.00000E+00
 -1      1513 5.40120E+01 1.09375E+00 0.00000E+00
 -1      1514 5.25120E+01 1.09375E+00 0.00000E+00
 -1      1515 5.23740E+01 2.18750E+00 0.00000E+00
 -1      1516 5.70120E+01 1.09375E+00 0.00000E+00
 -1      1517 5.55120E+01 1.09375E+00 0.00000E+00
 -1      1518 5.53740E+01 2.18750E+00 0.00000E+00
 -1      1519 6.00120E+01 1.09375E+00 0.00000E+00
 -1      1520 5.85120E+01 1.09375E+00 0.00000E+00
 -1      1521 5.83740E+01 2.18750E+00 0.00000E+00
 -1      1522 6.30120E+01 1.09375E+00 0.00000E+00
 -1      1523 6.15120E+01 1.09375E+00 0.00000E+00
 -1      1524 6.13740E+01 2.18750E+00 0.00000E+00
 -1      1525 6.60120E+01 1.09375E+00 0.00000E+00
 -1      1526 6.45120E+01 1.09375E+00 0.00000E+00
 -1      1527 6.43740E+01 2.18750E+00 0.00000E+00
 -1      1528 6.90120E+01 1.09375E+00 0.00000E+00
 -1      1529 6.75120E+01 1.09375E+00 0.00000E+00
 -1      1530 6.73740E+01 2.18750E+00 0.00000E+00
 -1      1531 7.20120E+01 1.09375E+00 0.00000E+00
 -1      1532 7.05120E+01 1.09375E+00 0.00000E+00
 -1      1533 7.03740E+01 2.18750E+00 0.00000E+00
 -1      1534 7.50120E+01 1.09375E+00 0.00000E+00
 -1      1535 7.35120E+01 1.09375E+00 0.00000E+00
 -1      1536 7.33740E+01 2.18750E+00 0.00000E+00
 -1      1537 7.80120E+01 1.09375E+00 0.00000E+00
 -1      1538 7.65120E+01 1.09375E+00 0.00000E+00
 -1      1539 7.63740E+01 2.18750E+00 0.00000E+00
 -1      1540 8.10120E+01 1.09375E+00 0.00000E+00
 -1      1541 7.95120E+01 1.09375E+00 0.00000E+00
 -1      1542 7.93740E+01 2.18750E+00 0.00000E+00
 -1      1543 8.40120E+01 1.09375E+00 0.00000E+00
 -1      1544 8.25120E+01 1.09375E+00 0.00000E+00
 -1      1545 8.23740E+01 2.18750E+00 0.00000E+00
 -1      1546 8.70120E+01 1.09375E+00 0.00000E+00
 -1      1547 8.55120E+01 1.09375E+00 0.00000E+00
 -1      1548 8.53740E+01 2.18750E+00 0.00000E+00
 -1      1549 9.00120E+01 1.09375E+00 0.00000E+00
 -1      1550 8.85120E+01 1.09375E+00 0.00000E+00
 -1      1551 8.83740E+01 2.18750E+00 0.00000E+00
 -1      1552 9.30120E+01 1.09375E+00 0.00000E+00
 -1      1553 9.15120E+01 1.09375E+00 0.00000E+00
 -1      1554 9.13740E+01 2.18750E+00 0.00000E+00
 -1      1555 9.60120E+01 1.09375E+00 0.00000E+00
 -1      1556 9.45120E+01 1.09375E+00 0.00000E+00
 -1      1557 9.43740E+01 2.18750E+00 0.00000E+00
 -1      1558 9.87120E+01 1.09375E+00 0.00000E+00
 -1      1559 9.73620E+01 1.09375E+00 0.00000E+00
 -1      1560 9.72240E+01 2.18750E+00 0.00000E+00
 -1      1561 1.01262E+02 1.09375E+00 0.00000E+00
 -1      1562 9.99870E+01 1.09375E+00 0.00000E+00
 -1      1563 9.98490E+01 2.18750E+00 0.00000E+00
 -1      1564 1.03662E+02 1.09375E+00 0.00000E+00
 -1      1565 1.02462E+02 1.09375E+00 0.00000E+00
 -1      1566 1.02324E+02 2.18750E+00 0.00000E+00
 -1      1567 1.05762E+02 1.09375E+00 0.00000E+00
 -1      1568 1.04712E+02 1.09375E+00 0.00000E+00
 -1      1569 1.04574E+02 2.18750E+00 0.00000E+00
 -1      1570 1.08312E+02 1.09375E+00 0.00000E+00
 -1      1571 1.07037E+02 1.09375E+00 0.00000E+00
 -1      1572 1.06899E+02 2.18750E+00 0.00000E+00
 -1      1573 1.11012E+02 1.09375E+00 0.00000E+00
 -1      1574 1.09662E+02 1.09375E+00 0.00000E+00
 -1      1575 1.09524E+02 2.18750E+00 0.00000E+00
 -1      1576 1.13862E+02 1.09375E+00 0.00000E+00
 -1      1577 1.12437E+02 1.09375E+00 0.00000E+00
 -1      1578 1.12299E+02 2.18750E+00 0.00000E+00
 -1      1579 1.16862E+02 1.09375E+00 0.00000E+00
 -1      1580 1.15362E+02 1.09375E+00 0.00000E+00
 -1      1581 1.15224E+02 2.18750E+00 0.00000E+00
 -1      1582 1.19862E+02 1.09375E+00 0.00000E+00
 -1      1583 1.18362E+02 1.09375E+00 0.00000E+00
 -1      1584 1.18224E+02 2.18750E+00 0.00000E+00
 -1      1585 1.22862E+02 1.09375E+00 0.00000E+00
 -1      1586 1.21362E+02 1.09375E+00 0.00000E+00
 -1      1587 1.21224E+02 2.18750E+00 0.00000E+00
 -1      1588 1.25862E+02 1.09375E+00 0.00000E+00
 -1      1589 1.24362E+02 1.09375E+00 0.00000E+00
 -1      1590 1.24224E+02 2.18750E+00 0.00000E+00
 -1      1591 1.28862E+02 1.09375E+00 0.00000E+00
 -1      1592 1.27362E+02 1.09375E+00 0.00000E+00
 -1      1593 1.27224E+02 2.18750E+00 0.00000E+00
 -1      1594 1.31862E+02 1.09375E+00 0.00000E+00
 -1      1595 1.30362E+02 1.09375E+00 0.00000E+00
 -1      1596 1.30224E+02 2.18750E+00 0.00000E+00
 -1      1597 1.34862E+02 1.09375E+00 0.00000E+00
 -1      1598 1.33362E+02 1.09375E+00 0.00000E+00
 -1      1599 1.33224E+02 2.18750E+00 0.00000E+00
 -1      1600 1.37862E+02 1.09375E+00 0.00000E+00
 -1      1601 1.36362E+02 1.09375E+00 0.00000E+00
 -1      1602 1.36224E+02 2.18750E+00 0.00000E+00
 -1      1603 1.40862E+02 1.09375E+00 0.00000E+00
 -1      1604 1.39362E+02 1.09375E+00 0.00000E+00
 -1      1605 1.39224E+02 2.18750E+00 0.00000E+00
 -1      1606 1.43862E+02 1.09375E+00 0.00000E+00
 -1      1607 1.42362E+02 1.09375E+00 0.00000E+00
 -1      1608 1.42224E+02 2.18750E+00 0.00000E+00
 -1      1609 1.46862E+02 1.09375E+00 0.00000E+00
 -1      1610 1.45362E+02 1.09375E+00 0.00000E+00
 -1      1611 1.45224E+02 2.18750E+00 0.00000E+00
 -1      1612 1.48500E+02 1.47500E+00 0.00000E+00
 -1      1613 1.48701E+02 5.16250E+00 0.00000E+00
 -1      1614 1.48701E+02 3.68750E+00 0.00000E+00
 -1      1615 1.48701E+02 8.11250E+00 0.00000E+00
 -1      1616 1.48701E+02 6.63750E+00 0.00000E+00
 -1      1617 1.47402E+02 5.90000E+00 0.00000E+00
 -1      1618 1.48701E+02 1.10625E+01 0.00000E+00
 -1      1619 1.48701E+02 9.58750E+00 0.00000E+00
 -1      1620 1.47402E+02 8.85000E+00 0.00000E+00
 -1      1621 1.48701E+02 1.40125E+01 0.00000E+00
 -1      1622 1.48701E+02 1.25375E+01 0.00000E+00
 -1      1623 1.47402E+02 1.18000E+01 0.00000E+00
 -1      1624 1.48701E+02 1.69125E+01 0.00000E+00
 -1      1625 1.48701E+02 1.54625E+01 0.00000E+00
 -1      1626 1.47402E+02 1.47250E+01 0.00000E+00
 -1      1627 1.48701E+02 1.98625E+01 0.00000E+00
 -1      1628 1.48701E+02 1.83875E+01 0.00000E+00
 -1      1629 1.47402E+02 1.76500E+01 0.00000E+00
 -1      1630 1.48701E+02 2.28125E+01 0.00000E+00
 -1      1631 1.48701E+02 2.13375E+01 0.00000E+00
 -1      1632 1.47402E+02 2.06000E+01 0.00000E+00
 -1      1633 1.48701E+02 2.57625E+01 0.00000E+00
 -1      1634 1.48701E+02 2.42875E+01 0.00000E+00
 -1      1635 1.47402E+02 2.35500E+01 0.00000E+00
 -1      1636 1.48701E+02 2.87125E+01 0.00000E+00
 -1      1637 1.48701E+02 2.72375E+01 0.00000E+00
 -1      1638 1.47402E+02 2.65000E+01 0.00000E+00
 -1      1639 1.48701E+02 3.16625E+01 0.00000E+00
 -1      1640 1.48701E+02 3.01875E+01 0.00000E+00
 -1      1641 1.47402E+02 2.94500E+01 0.00000E+00
 -1      1642 1.48701E+02 3.45625E+01 0.00000E+00
 -1      1643 1.48701E+02 3.31125E+01 0.00000E+00
 -1      1644 1.47402E+02 3.23750E+01 0.00000E+00
 -1      1645 1.48701E+02 3.75125E+01 0.00000E+00
 -1      1646 1.48701E+02 3.60375E+01 0.00000E+00
 -1      1647 1.47402E+02 3.53000E+01 0.00000E+00
 -1      1648 1.48701E+02 4.04625E+01 0.00000E+00
 -1      1649 1.48701E+02 3.89875E+01 0.00000E+00
 -1      1650 1.47402E+02 3.82500E+01 0.00000E+00
 -1      1651 1.48701E+02 4.34125E+01 0.00000E+00
 -1      1652 1.48701E+02 4.19375E+01 0.00000E+00
 -1      1653 1.47402E+02 4.12000E+01 0.00000E+00
 -1      1654 1.48263E+02 4.60692E+01 0.00000E+00
 -1      1655 1.48263E+02 4.45942E+01 0.00000E+00
 -1      1656 1.46964E+02 4.38568E+01 0.00000E+00
 -1      1657 1.46088E+02 4.62202E+01 0.00000E+00
 -1      1658 1.10862E+02 1.22357E+01 0.00000E+00
 -1      1659 1.10941E+02 1.29775E+01 0.00000E+00
 -1      1660 1.10421E+02 1.06254E+01 0.00000E+00
 -1      1661 1.10668E+02 1.13599E+01 0.00000E+00
 -1      1662 1.09598E+02 9.15743E+00 0.00000E+00
 -1      1663 1.10000E+02 9.81903E+00 0.00000E+00
 -1      1664 1.08542E+02 7.91385E+00 0.00000E+00
 -1      1665 1.09059E+02 8.45275E+00 0.00000E+00
 -1      1666 1.07278E+02 6.94655E+00 0.00000E+00
 -1      1667 1.07884E+02 7.35675E+00 0.00000E+00
 -1      1668 1.05828E+02 6.21977E+00 0.00000E+00
 -1      1669 1.06528E+02 6.50136E+00 0.00000E+00
 -1      1670 1.04286E+02 5.89907E+00 0.00000E+00
 -1      1671 1.04989E+02 6.02169E+00 0.00000E+00
 -1      1672 1.02625E+02 5.83694E+00 0.00000E+00
 -1      1673 1.03411E+02 5.80393E+00 0.00000E+00
 -1      1674 1.00851E+02 6.13722E+00 0.00000E+00
 -1      1675 1.01657E+02 5.91008E+00 0.00000E+00
 -1      1676 9.93800E+01 6.95687E+00 0.00000E+00
 -1      1677 1.00030E+02 6.60125E+00 0.00000E+00
 -1      1678 9.80781E+01 7.96710E+00 0.00000E+00
 -1      1679 9.86578E+01 7.46199E+00 0.00000E+00
 -1      1680 9.69384E+01 9.21262E+00 0.00000E+00
 -1      1681 9.73994E+01 8.58347E+00 0.00000E+00
 -1      1682 9.60748E+01 1.07469E+01 0.00000E+00
 -1      1683 9.63937E+01 1.00025E+01 0.00000E+00
 -1      1684 9.58288E+01 1.24029E+01 0.00000E+00
 -1      1685 9.59633E+01 1.16766E+01 0.00000E+00
 -1      1686 9.57131E+01 1.41036E+01 0.00000E+00
 -1      1687 9.56831E+01 1.33027E+01 0.00000E+00
 -1      1688 9.61306E+01 1.57484E+01 0.00000E+00
 -1      1689 9.59316E+01 1.50063E+01 0.00000E+00
 -1      1690 9.67861E+01 1.72238E+01 0.00000E+00
 -1      1691 9.64469E+01 1.65686E+01 0.00000E+00
 -1      1692 9.77259E+01 1.85088E+01 0.00000E+00
 -1      1693 9.72592E+01 1.79415E+01 0.00000E+00
 -1      1694 9.89101E+01 1.95665E+01 0.00000E+00
 -1      1695 9.83366E+01 1.91099E+01 0.00000E+00
 -1      1696 1.00269E+02 2.03465E+01 0.00000E+00
 -1      1697 9.96252E+01 2.00239E+01 0.00000E+00
 -1      1698 1.01862E+02 2.08864E+01 0.00000E+00
 -1      1699 1.01090E+02 2.06916E+01 0.00000E+00
 -1      1700 1.03508E+02 2.09911E+01 0.00000E+00
 -1      1701 1.02763E+02 2.09713E+01 0.00000E+00
 -1      1702 1.05137E+02 2.09484E+01 0.00000E+00
 -1      1703 1.04406E+02 2.10864E+01 0.00000E+00
 -1      1704 1.06584E+02 2.02641E+01 0.00000E+00
 -1      1705 1.05923E+02 2.05403E+01 0.00000E+00
 -1      1706 1.08011E+02 1.94836E+01 0.00000E+00
 -1      1707 1.07387E+02 1.99168E+01 0.00000E+00
 -1      1708 1.09308E+02 1.83393E+01 0.00000E+00
 -1      1709 1.08770E+02 1.89281E+01 0.00000E+00
 -1      1710 1.10101E+02 1.68243E+01 0.00000E+00
 -1      1711 1.09723E+02 1.74896E+01 0.00000E+00
 -1      1712 1.10663E+02 1.53565E+01 0.00000E+00
 -1      1713 1.10449E+02 1.60351E+01 0.00000E+00
 -1      1714 1.10903E+02 1.38335E+01 0.00000E+00
 -1      1715 1.10831E+02 1.45421E+01 0.00000E+00
 -1      1716 1.08579E+02 7.20685E+00 0.00000E+00
 -1      1717 1.09778E+02 8.46862E+00 0.00000E+00
 -1      1718 1.48362E+02 2.56875E+00 0.00000E+00
 -1      1719 1.47063E+02 3.30625E+00 0.00000E+00
 -1      1720 1.11353E+02 1.16618E+01 0.00000E+00
 -1      1721 1.10738E+02 9.97967E+00 0.00000E+00
 -1      1722 1.11508E+02 1.33935E+01 0.00000E+00
 -1      1723 1.07170E+02 6.20456E+00 0.00000E+00
 -1      1724 1.05581E+02 5.56128E+00 0.00000E+00
 -1      1725 1.03866E+02 5.26806E+00 0.00000E+00
 -1      1726 1.02023E+02 5.24605E+00 0.00000E+00
 -1      1727 1.00235E+02 5.78321E+00 0.00000E+00
 -1      1728 9.86919E+01 6.75236E+00 0.00000E+00
 -1      1729 9.72910E+01 7.87386E+00 0.00000E+00
 -1      1730 9.60677E+01 9.28011E+00 0.00000E+00
 -1      1731 9.54115E+01 1.09997E+01 0.00000E+00
 -1      1732 9.51543E+01 1.28292E+01 0.00000E+00
 -1      1733 9.52271E+01 1.46317E+01 0.00000E+00
 -1      1734 9.57619E+01 1.63547E+01 0.00000E+00
 -1      1735 9.65513E+01 1.78926E+01 0.00000E+00
 -1      1736 9.76351E+01 1.92114E+01 0.00000E+00
 -1      1737 9.89608E+01 2.02698E+01 0.00000E+00
 -1      1738 1.00497E+02 2.10723E+01 0.00000E+00
 -1      1739 1.02218E+02 2.15023E+01 0.00000E+00
 -1      1740 1.04017E+02 2.16825E+01 0.00000E+00
 -1      1741 1.05701E+02 2.13697E+01 0.00000E+00
 -1      1742 1.07290E+02 2.06143E+01 0.00000E+00
 -1      1743 1.08851E+02 1.97114E+01 0.00000E+00
 -1      1744 1.10024E+02 1.83063E+01 0.00000E+00
 -1      1745 1.10786E+02 1.66674E+01 0.00000E+00
 -1      1746 1.11302E+02 1.50638E+01 0.00000E+00
 -1      1747 2.87400E+00 4.77875E+01 0.00000E+00
 -1      1748 3.89700E+00 4.04125E+01 0.00000E+00
 -1      1749 3.89700E+00 4.18875E+01 0.00000E+00
 -1      1750 3.89700E+00 4.33625E+01 0.00000E+00
 -1      1751 3.89700E+00 4.48375E+01 0.00000E+00
 -1      1752 5.19600E+00 4.26250E+01 0.00000E+00
 -1      1753 3.89700E+00 3.45500E+01 0.00000E+00
 -1      1754 3.89700E+00 3.60000E+01 0.00000E+00
 -1      1755 3.89700E+00 3.16000E+01 0.00000E+00
 -1      1756 3.89700E+00 3.30750E+01 0.00000E+00
 -1      1757 5.19600E+00 3.38000E+01 0.00000E+00
 -1      1758 3.89700E+00 2.86500E+01 0.00000E+00
 -1      1759 3.89700E+00 3.01250E+01 0.00000E+00
 -1      1760 5.19600E+00 3.08500E+01 0.00000E+00
 -1      1761 3.89700E+00 2.57000E+01 0.00000E+00
 -1      1762 3.89700E+00 2.71750E+01 0.00000E+00
 -1      1763 5.19600E+00 2.79000E+01 0.00000E+00
 -1      1764 3.89700E+00 2.27500E+01 0.00000E+00
 -1      1765 3.89700E+00 2.42250E+01 0.00000E+00
 -1      1766 5.19600E+00 2.49500E+01 0.00000E+00
 -1      1767 3.89700E+00 1.98000E+01 0.00000E+00
 -1      1768 3.89700E+00 2.12750E+01 0.00000E+00
 -1      1769 5.19600E+00 2.20000E+01 0.00000E+00
 -1      1770 3.89700E+00 1.69000E+01 0.00000E+00
 -1      1771 3.89700E+00 1.83500E+01 0.00000E+00
 -1      1772 5.19600E+00 1.90750E+01 0.00000E+00
 -1      1773 3.89700E+00 1.39500E+01 0.00000E+00
 -1      1774 3.89700E+00 1.54250E+01 0.00000E+00
 -1      1775 5.19600E+00 1.61500E+01 0.00000E+00
 -1      1776 3.89700E+00 1.10000E+01 0.00000E+00
 -1      1777 3.89700E+00 1.24750E+01 0.00000E+00
 -1      1778 5.19600E+00 1.32000E+01 0.00000E+00
 -1      1779 3.89700E+00 8.05000E+00 0.00000E+00
 -1      1780 3.89700E+00 9.52500E+00 0.00000E+00
 -1      1781 5.19600E+00 1.02500E+01 0.00000E+00
 -1      1782 3.89700E+00 5.10000E+00 0.00000E+00
 -1      1783 3.89700E+00 6.57500E+00 0.00000E+00
 -1      1784 5.19600E+00 7.30000E+00 0.00000E+00
 -1      1785 4.20450E+00 3.09687E+00 0.00000E+00
 -1      1786 4.06650E+00 4.19063E+00 0.00000E+00
 -1      1787 5.36550E+00 4.91563E+00 0.00000E+00
 -1      1788 5.70450E+00 3.09687E+00 0.00000E+00
 -1      1789 3.62400E+00 4.64885E+01 0.00000E+00
 -1      1790 8.70450E+00 3.09687E+00 0.00000E+00
 -1      1791 7.20450E+00 3.09687E+00 0.00000E+00
 -1      1792 7.03500E+00 4.00625E+00 0.00000E+00
 -1      1793 4.92300E+00 4.57510E+01 0.00000E+00
 -1      1794 8.40000E+00 4.61030E+01 0.00000E+00
 -1      1795 9.90000E+00 4.61030E+01 0.00000E+00
 -1      1796 1.14000E+01 4.61030E+01 0.00000E+00
 -1      1797 1.29000E+01 4.61030E+01 0.00000E+00
 -1      1798 1.06500E+01 4.48040E+01 0.00000E+00
 -1      1799 1.44000E+01 4.61030E+01 0.00000E+00
 -1      1800 1.59000E+01 4.61030E+01 0.00000E+00
 -1      1801 1.36500E+01 4.48040E+01 0.00000E+00
 -1      1802 1.74000E+01 4.61030E+01 0.00000E+00
 -1      1803 1.89000E+01 4.61030E+01 0.00000E+00
 -1      1804 1.66500E+01 4.48040E+01 0.00000E+00
 -1      1805 2.04000E+01 4.61030E+01 0.00000E+00
 -1      1806 2.19000E+01 4.61030E+01 0.00000E+00
 -1      1807 1.96500E+01 4.48040E+01 0.00000E+00
 -1      1808 2.34000E+01 4.61030E+01 0.00000E+00
 -1      1809 2.49000E+01 4.61030E+01 0.00000E+00
 -1      1810 2.26500E+01 4.48040E+01 0.00000E+00
 -1      1811 2.64000E+01 4.61030E+01 0.00000E+00
 -1      1812 2.79000E+01 4.61030E+01 0.00000E+00
 -1      1813 2.56500E+01 4.48040E+01 0.00000E+00
 -1      1814 2.94000E+01 4.61030E+01 0.00000E+00
 -1      1815 3.09000E+01 4.61030E+01 0.00000E+00
 -1      1816 2.86500E+01 4.48040E+01 0.00000E+00
 -1      1817 3.24000E+01 4.61030E+01 0.00000E+00
 -1      1818 3.39000E+01 4.61030E+01 0.00000E+00
 -1      1819 3.16500E+01 4.48040E+01 0.00000E+00
 -1      1820 3.54000E+01 4.61030E+01 0.00000E+00
 -1      1821 3.69000E+01 4.61030E+01 0.00000E+00
 -1      1822 3.46500E+01 4.48040E+01 0.00000E+00
 -1      1823 3.84000E+01 4.61030E+01 0.00000E+00
 -1      1824 3.99000E+01 4.61030E+01 0.00000E+00
 -1      1825 3.76500E+01 4.48040E+01 0.00000E+00
 -1      1826 4.14000E+01 4.61030E+01 0.00000E+00
 -1      1827 4.29000E+01 4.61030E+01 0.00000E+00
 -1      1828 4.06500E+01 4.48040E+01 0.00000E+00
 -1      1829 4.44000E+01 4.61030E+01 0.00000E+00
 -1      1830 4.59000E+01 4.61030E+01 0.00000E+00
 -1      1831 4.36500E+01 4.48040E+01 0.00000E+00
 -1      1832 4.74000E+01 4.61030E+01 0.00000E+00
 -1      1833 4.89000E+01 4.61030E+01 0.00000E+00
 -1      1834 4.66500E+01 4.48040E+01 0.00000E+00
 -1      1835 5.04000E+01 4.61030E+01 0.00000E+00
 -1      1836 5.19000E+01 4.61030E+01 0.00000E+00
 -1      1837 4.96500E+01 4.48040E+01 0.00000E+00
 -1      1838 5.34000E+01 4.61030E+01 0.00000E+00
 -1      1839 5.49000E+01 4.61030E+01 0.00000E+00
 -1      1840 5.26500E+01 4.48040E+01 0.00000E+00
 -1      1841 5.64000E+01 4.61030E+01 0.00000E+00
 -1      1842 5.79000E+01 4.61030E+01 0.00000E+00
 -1      1843 5.56500E+01 4.48040E+01 0.00000E+00
 -1      1844 5.94000E+01 4.61030E+01 0.00000E+00
 -1      1845 6.09000E+01 4.61030E+01 0.00000E+00
 -1      1846 5.86500E+01 4.48040E+01 0.00000E+00
 -1      1847 6.24000E+01 4.61030E+01 0.00000E+00
 -1      1848 6.39000E+01 4.61030E+01 0.00000E+00
 -1      1849 6.16500E+01 4.48040E+01 0.00000E+00
 -1      1850 6.54000E+01 4.61030E+01 0.00000E+00
 -1      1851 6.69000E+01 4.61030E+01 0.00000E+00
 -1      1852 6.46500E+01 4.48040E+01 0.00000E+00
 -1      1853 6.84000E+01 4.61030E+01 0.00000E+00
 -1      1854 6.99000E+01 4.61030E+01 0.00000E+00
 -1      1855 6.76500E+01 4.48040E+01 0.00000E+00
 -1      1856 7.14000E+01 4.61030E+01 0.00000E+00
 -1      1857 7.29000E+01 4.61030E+01 0.00000E+00
 -1      1858 7.06500E+01 4.48040E+01 0.00000E+00
 -1      1859 7.44000E+01 4.61030E+01 0.00000E+00
 -1      1860 7.59000E+01 4.61030E+01 0.00000E+00
 -1      1861 7.36500E+01 4.48040E+01 0.00000E+00
 -1      1862 7.74000E+01 4.61030E+01 0.00000E+00
 -1      1863 7.89000E+01 4.61030E+01 0.00000E+00
 -1      1864 7.66500E+01 4.48040E+01 0.00000E+00
 -1      1865 8.04000E+01 4.61030E+01 0.00000E+00
 -1      1866 8.19000E+01 4.61030E+01 0.00000E+00
 -1      1867 7.96500E+01 4.48040E+01 0.00000E+00
 -1      1868 8.34000E+01 4.61030E+01 0.00000E+00
 -1      1869 8.49000E+01 4.61030E+01 0.00000E+00
 -1      1870 8.26500E+01 4.48040E+01 0.00000E+00
 -1      1871 8.64000E+01 4.61030E+01 0.00000E+00
 -1      1872 8.79000E+01 4.61030E+01 0.00000E+00
 -1      1873 8.56500E+01 4.48040E+01 0.00000E+00
 -1      1874 8.94000E+01 4.61030E+01 0.00000E+00
 -1      1875 9.09000E+01 4.61030E+01 0.00000E+00
 -1      1876 8.86500E+01 4.48040E+01 0.00000E+00
 -1      1877 9.24000E+01 4.61030E+01 0.00000E+00
 -1      1878 9.39000E+01 4.61030E+01 0.00000E+00
 -1      1879 9.16500E+01 4.48040E+01 0.00000E+00
 -1      1880 9.54000E+01 4.61030E+01 0.00000E+00
 -1      1881 9.69000E+01 4.61030E+01 0.00000E+00
 -1      1882 9.46500E+01 4.48040E+01 0.00000E+00
 -1      1883 9.84000E+01 4.61030E+01 0.00000E+00
 -1      1884 9.99000E+01 4.61030E+01 0.00000E+00
 -1      1885 9.76500E+01 4.48040E+01 0.00000E+00
 -1      1886 1.01400E+02 4.61030E+01 0.00000E+00
 -1      1887 1.02900E+02 4.61030E+01 0.00000E+00
 -1      1888 1.00650E+02 4.48040E+01 0.00000E+00
 -1      1889 1.04400E+02 4.61030E+01 0.00000E+00
 -1      1890 1.05900E+02 4.61030E+01 0.00000E+00
 -1      1891 1.03650E+02 4.48040E+01 0.00000E+00
 -1      1892 1.07400E+02 4.61030E+01 0.00000E+00
 -1      1893 1.08900E+02 4.61030E+01 0.00000E+00
 -1      1894 1.06650E+02 4.48040E+01 0.00000E+00
 -1      1895 1.10400E+02 4.61030E+01 0.00000E+00
 -1      1896 1.11900E+02 4.61030E+01 0.00000E+00
 -1      1897 1.09650E+02 4.48040E+01 0.00000E+00
 -1      1898 1.13400E+02 4.61030E+01 0.00000E+00
 -1      1899 1.14900E+02 4.61030E+01 0.00000E+00
 -1      1900 1.12650E+02 4.48040E+01 0.00000E+00
 -1      1901 1.16400E+02 4.61030E+01 0.00000E+00
 -1      1902 1.17900E+02 4.61030E+01 0.00000E+00
 -1      1903 1.15650E+02 4.48040E+01 0.00000E+00
 -1      1904 1.19400E+02 4.61030E+01 0.00000E+00
 -1      1905 1.20900E+02 4.61030E+01 0.00000E+00
 -1      1906 1.18650E+02 4.48040E+01 0.00000E+00
 -1      1907 1.22400E+02 4.61030E+01 0.00000E+00
 -1      1908 1.23900E+02 4.61030E+01 0.00000E+00
 -1      1909 1.21650E+02 4.48040E+01 0.00000E+00
 -1      1910 1.25400E+02 4.61030E+01 0.00000E+00
 -1      1911 1.26900E+02 4.61030E+01 0.00000E+00
 -1      1912 1.24650E+02 4.48040E+01 0.00000E+00
 -1      1913 1.28400E+02 4.61030E+01 0.00000E+00
 -1      1914 1.29900E+02 4.61030E+01 0.00000E+00
 -1      1915 1.27650E+02 4.48040E+01 0.00000E+00
 -1      1916 1.31400E+02 4.61030E+01 0.00000E+00
 -1      1917 1.32900E+02 4.61030E+01 0.00000E+00
 -1      1918 1.30650E+02 4.48040E+01 0.00000E+00
 -1      1919 1.34400E+02 4.61030E+01 0.00000E+00
 -1      1920 1.35900E+02 4.61030E+01 0.00000E+00
 -1      1921 1.33650E+02 4.48040E+01 0.00000E+00
 -1      1922 1.37400E+02 4.61030E+01 0.00000E+00
 -1      1923 1.38900E+02 4.61030E+01 0.00000E+00
 -1      1924 1.36650E+02 4.48040E+01 0.00000E+00
 -1      1925 1.40400E+02 4.61030E+01 0.00000E+00
 -1      1926 1.41900E+02 4.61030E+01 0.00000E+00
 -1      1927 1.39650E+02 4.48040E+01 0.00000E+00
 -1      1928 1.43244E+02 4.61616E+01 0.00000E+00
 -1      1929 1.44744E+02 4.61616E+01 0.00000E+00
 -1      1930 1.45182E+02 4.49799E+01 0.00000E+00
 -1      1931 1.42494E+02 4.48626E+01 0.00000E+00
 -1      1932 1.17045E+01 3.09687E+00 0.00000E+00
 -1      1933 1.02045E+01 3.09687E+00 0.00000E+00
 -1      1934 1.00350E+01 4.00625E+00 0.00000E+00
 -1      1935 1.47045E+01 3.09687E+00 0.00000E+00
 -1      1936 1.32045E+01 3.09687E+00 0.00000E+00
 -1      1937 1.30350E+01 4.00625E+00 0.00000E+00
 -1      1938 1.77045E+01 3.09687E+00 0.00000E+00
 -1      1939 1.62045E+01 3.09687E+00 0.00000E+00
 -1      1940 1.60350E+01 4.00625E+00 0.00000E+00
 -1      1941 2.07045E+01 3.09687E+00 0.00000E+00
 -1      1942 1.92045E+01 3.09687E+00 0.00000E+00
 -1      1943 1.90350E+01 4.00625E+00 0.00000E+00
 -1      1944 2.37045E+01 3.09687E+00 0.00000E+00
 -1      1945 2.22045E+01 3.09687E+00 0.00000E+00
 -1      1946 2.20350E+01 4.00625E+00 0.00000E+00
 -1      1947 2.67045E+01 3.09687E+00 0.00000E+00
 -1      1948 2.52045E+01 3.09687E+00 0.00000E+00
 -1      1949 2.50350E+01 4.00625E+00 0.00000E+00
 -1      1950 2.97045E+01 3.09687E+00 0.00000E+00
 -1      1951 2.82045E+01 3.09687E+00 0.00000E+00
 -1      1952 2.80350E+01 4.00625E+00 0.00000E+00
 -1      1953 3.27045E+01 3.09687E+00 0.00000E+00
 -1      1954 3.12045E+01 3.09687E+00 0.00000E+00
 -1      1955 3.10350E+01 4.00625E+00 0.00000E+00
 -1      1956 3.57045E+01 3.09687E+00 0.00000E+00
 -1      1957 3.42045E+01 3.09687E+00 0.00000E+00
 -1      1958 3.40350E+01 4.00625E+00 0.00000E+00
 -1      1959 3.87045E+01 3.09687E+00 0.00000E+00
 -1      1960 3.72045E+01 3.09687E+00 0.00000E+00
 -1      1961 3.70350E+01 4.00625E+00 0.00000E+00
 -1      1962 4.17045E+01 3.09687E+00 0.00000E+00
 -1      1963 4.02045E+01 3.09687E+00 0.00000E+00
 -1      1964 4.00350E+01 4.00625E+00 0.00000E+00
 -1      1965 4.47045E+01 3.09687E+00 0.00000E+00
 -1      1966 4.32045E+01 3.09687E+00 0.00000E+00
 -1      1967 4.30350E+01 4.00625E+00 0.00000E+00
 -1      1968 4.77045E+01 3.09687E+00 0.00000E+00
 -1      1969 4.62045E+01 3.09687E+00 0.00000E+00
 -1      1970 4.60350E+01 4.00625E+00 0.00000E+00
 -1      1971 5.07045E+01 3.09687E+00 0.00000E+00
 -1      1972 4.92045E+01 3.09687E+00 0.00000E+00
 -1      1973 4.90350E+01 4.00625E+00 0.00000E+00
 -1      1974 5.37045E+01 3.09687E+00 0.00000E+00
 -1      1975 5.22045E+01 3.09687E+00 0.00000E+00
 -1      1976 5.20350E+01 4.00625E+00 0.00000E+00
 -1      1977 5.67045E+01 3.09687E+00 0.00000E+00
 -1      1978 5.52045E+01 3.09687E+00 0.00000E+00
 -1      1979 5.50350E+01 4.00625E+00 0.00000E+00
 -1      1980 5.97045E+01 3.09687E+00 0.00000E+00
 -1      1981 5.82045E+01 3.09687E+00 0.00000E+00
 -1      1982 5.80350E+01 4.00625E+00 0.00000E+00
 -1      1983 6.27045E+01 3.09687E+00 0.00000E+00
 -1      1984 6.12045E+01 3.09687E+00 0.00000E+00
 -1      1985 6.10350E+01 4.00625E+00 0.00000E+00
 -1      1986 6.57045E+01 3.09687E+00 0.00000E+00
 -1      1987 6.42045E+01 3.09687E+00 0.00000E+00
 -1      1988 6.40350E+01 4.00625E+00 0.00000E+00
 -1      1989 6.87045E+01 3.09687E+00 0.00000E+00
 -1      1990 6.72045E+01 3.09687E+00 0.00000E+00
 -1      1991 6.70350E+01 4.00625E+00 0.00000E+00
 -1      1992 7.17045E+01 3.09687E+00 0.00000E+00
 -1      1993 7.02045E+01 3.09687E+00 0.00000E+00
 -1      1994 7.00350E+01 4.00625E+00 0.00000E+00
 -1      1995 7.47045E+01 3.09687E+00 0.00000E+00
 -1      1996 7.32045E+01 3.09687E+00 0.00000E+00
 -1      1997 7.30350E+01 4.00625E+00 0.00000E+00
 -1      1998 7.77045E+01 3.09687E+00 0.00000E+00
 -1      1999 7.62045E+01 3.09687E+00 0.00000E+00
 -1      2000 7.60350E+01 4.00625E+00 0.00000E+00
 -1      2001 8.07045E+01 3.09687E+00 0.00000E+00
 -1      2002 7.92045E+01 3.09687E+00 0.00000E+00
 -1      2003 7.90350E+01 4.00625E+00 0.00000E+00
 -1      2004 8.37045E+01 3.09687E+00 0.00000E+00
 -1      2005 8.22045E+01 3.09687E+00 0.00000E+00
 -1      2006 8.20350E+01 4.00625E+00 0.00000E+00
 -1      2007 8.67045E+01 3.09687E+00 0.00000E+00
 -1      2008 8.52045E+01 3.09687E+00 0.00000E+00
 -1      2009 8.50350E+01 4.00625E+00 0.00000E+00
 -1      2010 8.97045E+01 3.09687E+00 0.00000E+00
 -1      2011 8.82045E+01 3.09687E+00 0.00000E+00
 -1      2012 8.80350E+01 4.00625E+00 0.00000E+00
 -1      2013 9.27045E+01 3.09687E+00 0.00000E+00
 -1      2014 9.12045E+01 3.09687E+00 0.00000E+00
 -1      2015 9.10350E+01 4.00625E+00 0.00000E+00
 -1      2016 9.57045E+01 3.09687E+00 0.00000E+00
 -1      2017 9.42045E+01 3.09687E+00 0.00000E+00
 -1      2018 9.40350E+01 4.00625E+00 0.00000E+00
 -1      2019 1.00487E+02 3.21263E+00 0.00000E+00
 -1      2020 9.92115E+01 3.21263E+00 0.00000E+00
 -1      2021 1.05099E+02 3.04505E+00 0.00000E+00
 -1      2022 1.04049E+02 3.04505E+00 0.00000E+00
 -1      2023 1.07536E+02 3.12884E+00 0.00000E+00
 -1      2024 1.06261E+02 3.12884E+00 0.00000E+00
 -1      2025 1.10199E+02 3.12884E+00 0.00000E+00
 -1      2026 1.08849E+02 3.12884E+00 0.00000E+00
 -1      2027 1.13011E+02 3.38020E+00 0.00000E+00
 -1      2028 1.11587E+02 3.38020E+00 0.00000E+00
 -1      2029 1.16011E+02 3.38020E+00 0.00000E+00
 -1      2030 1.14511E+02 3.38020E+00 0.00000E+00
 -1      2031 1.13799E+02 4.57289E+00 0.00000E+00
 -1      2032 1.19011E+02 3.38020E+00 0.00000E+00
 -1      2033 1.17511E+02 3.38020E+00 0.00000E+00
 -1      2034 1.16799E+02 4.57289E+00 0.00000E+00
 -1      2035 1.22011E+02 3.38020E+00 0.00000E+00
 -1      2036 1.20511E+02 3.38020E+00 0.00000E+00
 -1      2037 1.19799E+02 4.57289E+00 0.00000E+00
 -1      2038 1.25011E+02 3.38020E+00 0.00000E+00
 -1      2039 1.23511E+02 3.38020E+00 0.00000E+00
 -1      2040 1.22799E+02 4.57289E+00 0.00000E+00
 -1      2041 1.28012E+02 3.38020E+00 0.00000E+00
 -1      2042 1.26511E+02 3.38020E+00 0.00000E+00
 -1      2043 1.25799E+02 4.57289E+00 0.00000E+00
 -1      2044 1.31012E+02 3.38020E+00 0.00000E+00
 -1      2045 1.29512E+02 3.38020E+00 0.00000E+00
 -1      2046 1.28799E+02 4.57289E+00 0.00000E+00
 -1      2047 1.34012E+02 3.38020E+00 0.00000E+00
 -1      2048 1.32512E+02 3.38020E+00 0.00000E+00
 -1      2049 1.31799E+02 4.57289E+00 0.00000E+00
 -1      2050 1.37012E+02 3.38020E+00 0.00000E+00
 -1      2051 1.35512E+02 3.38020E+00 0.00000E+00
 -1      2052 1.34799E+02 4.57289E+00 0.00000E+00
 -1      2053 1.40012E+02 3.38020E+00 0.00000E+00
 -1      2054 1.38512E+02 3.38020E+00 0.00000E+00
 -1      2055 1.37799E+02 4.57289E+00 0.00000E+00
 -1      2056 1.43012E+02 3.38020E+00 0.00000E+00
 -1      2057 1.41512E+02 3.38020E+00 0.00000E+00
 -1      2058 1.40799E+02 4.57289E+00 0.00000E+00
 -1      2059 1.45787E+02 3.34322E+00 0.00000E+00
 -1      2060 1.44287E+02 3.34322E+00 0.00000E+00
 -1      2061 1.43575E+02 4.53592E+00 0.00000E+00
 -1      2062 1.46126E+02 4.46197E+00 0.00000E+00
 -1      2063 1.46103E+02 1.25375E+01 0.00000E+00
 -1      2064 1.46103E+02 1.10625E+01 0.00000E+00
 -1      2065 1.46103E+02 9.58750E+00 0.00000E+00
 -1      2066 1.46103E+02 8.11250E+00 0.00000E+00
 -1      2067 1.44804E+02 1.03250E+01 0.00000E+00
 -1      2068 1.46126E+02 5.93697E+00 0.00000E+00
 -1      2069 1.46103E+02 1.54375E+01 0.00000E+00
 -1      2070 1.46103E+02 1.39875E+01 0.00000E+00
 -1      2071 1.44804E+02 1.32500E+01 0.00000E+00
 -1      2072 1.46103E+02 1.83875E+01 0.00000E+00
 -1      2073 1.46103E+02 1.69125E+01 0.00000E+00
 -1      2074 1.44804E+02 1.61750E+01 0.00000E+00
 -1      2075 1.46103E+02 2.13375E+01 0.00000E+00
 -1      2076 1.46103E+02 1.98625E+01 0.00000E+00
 -1      2077 1.44804E+02 1.91250E+01 0.00000E+00
 -1      2078 1.46103E+02 2.42875E+01 0.00000E+00
 -1      2079 1.46103E+02 2.28125E+01 0.00000E+00
 -1      2080 1.44804E+02 2.20750E+01 0.00000E+00
 -1      2081 1.46103E+02 2.72375E+01 0.00000E+00
 -1      2082 1.46103E+02 2.57625E+01 0.00000E+00
 -1      2083 1.44804E+02 2.50250E+01 0.00000E+00
 -1      2084 1.46103E+02 3.01875E+01 0.00000E+00
 -1      2085 1.46103E+02 2.87125E+01 0.00000E+00
 -1      2086 1.44804E+02 2.79750E+01 0.00000E+00
 -1      2087 1.46103E+02 3.30875E+01 0.00000E+00
 -1      2088 1.46103E+02 3.16375E+01 0.00000E+00
 -1      2089 1.44804E+02 3.09000E+01 0.00000E+00
 -1      2090 1.46103E+02 3.60375E+01 0.00000E+00
 -1      2091 1.46103E+02 3.45625E+01 0.00000E+00
 -1      2092 1.44804E+02 3.38250E+01 0.00000E+00
 -1      2093 1.46103E+02 3.89875E+01 0.00000E+00
 -1      2094 1.46103E+02 3.75125E+01 0.00000E+00
 -1      2095 1.44804E+02 3.67750E+01 0.00000E+00
 -1      2096 1.46103E+02 4.19375E+01 0.00000E+00
 -1      2097 1.46103E+02 4.04625E+01 0.00000E+00
 -1      2098 1.44804E+02 3.97250E+01 0.00000E+00
 -1      2099 1.11176E+02 9.23778E+00 0.00000E+00
 -1      2100 1.11597E+02 1.00441E+01 0.00000E+00
 -1      2101 1.12258E+02 1.29978E+01 0.00000E+00
 -1      2102 1.12220E+02 1.38538E+01 0.00000E+00
 -1      2103 1.11889E+02 1.10841E+01 0.00000E+00
 -1      2104 1.12082E+02 1.19599E+01 0.00000E+00
 -1      2105 1.10189E+02 7.59499E+00 0.00000E+00
 -1      2106 1.10728E+02 8.29966E+00 0.00000E+00
 -1      2107 1.08696E+02 6.40146E+00 0.00000E+00
 -1      2108 1.09354E+02 6.95856E+00 0.00000E+00
 -1      2109 3.89700E+00 3.74688E+01 0.00000E+00
 -1      2110 3.89700E+00 3.89437E+01 0.00000E+00
 -1      2111 5.19600E+00 3.96813E+01 0.00000E+00
 -1      2112 5.19600E+00 3.67438E+01 0.00000E+00
 -1      2113 1.05820E+02 4.71669E+00 0.00000E+00
 -1      2114 1.06659E+02 4.91477E+00 0.00000E+00
 -1      2115 1.03782E+02 4.53776E+00 0.00000E+00
 -1      2116 1.04658E+02 4.63291E+00 0.00000E+00
 -1      2117 1.01484E+02 4.55283E+00 0.00000E+00
 -1      2118 1.02452E+02 4.47969E+00 0.00000E+00
 -1      2119 9.96315E+01 5.24249E+00 0.00000E+00
 -1      2120 1.00452E+02 4.77847E+00 0.00000E+00
 -1      2121 9.79354E+01 6.43953E+00 0.00000E+00
 -1      2122 9.86575E+01 5.93440E+00 0.00000E+00
 -1      2123 9.65160E+01 7.70226E+00 0.00000E+00
 -1      2124 9.71947E+01 7.08590E+00 0.00000E+00
 -1      2125 9.51928E+01 9.25959E+00 0.00000E+00
 -1      2126 9.57374E+01 8.46971E+00 0.00000E+00
 -1      2127 9.45459E+01 1.13674E+01 0.00000E+00
 -1      2128 9.46574E+01 1.04377E+01 0.00000E+00
 -1      2129 9.42545E+01 1.31669E+01 0.00000E+00
 -1      2130 9.44002E+01 1.22672E+01 0.00000E+00
 -1      2131 9.36461E+01 1.17052E+01 0.00000E+00
 -1      2132 9.47064E+01 1.52355E+01 0.00000E+00
 -1      2133 9.44879E+01 1.43328E+01 0.00000E+00
 -1      2134 9.51589E+01 1.70582E+01 0.00000E+00
 -1      2135 9.48427E+01 1.62380E+01 0.00000E+00
 -1      2136 9.62118E+01 1.86312E+01 0.00000E+00
 -1      2137 9.57386E+01 1.79135E+01 0.00000E+00
 -1      2138 9.74565E+01 2.00037E+01 0.00000E+00
 -1      2139 9.68458E+01 1.94026E+01 0.00000E+00
 -1      2140 9.89691E+01 2.10445E+01 0.00000E+00
 -1      2141 9.82541E+01 2.05871E+01 0.00000E+00
 -1      2142 1.00656E+02 2.18423E+01 0.00000E+00
 -1      2143 9.98351E+01 2.14972E+01 0.00000E+00
 -1      2144 1.02596E+02 2.23151E+01 0.00000E+00
 -1      2145 1.01695E+02 2.22302E+01 0.00000E+00
 -1      2146 1.04392E+02 2.25056E+01 0.00000E+00
 -1      2147 1.03494E+02 2.24104E+01 0.00000E+00
 -1      2148 1.02971E+02 2.31383E+01 0.00000E+00
 -1      2149 1.06489E+02 2.19268E+01 0.00000E+00
 -1      2150 1.05703E+02 2.23349E+01 0.00000E+00
 -1      2151 1.08094E+02 2.12321E+01 0.00000E+00
 -1      2152 1.07292E+02 2.15795E+01 0.00000E+00
 -1      2153 1.07294E+02 2.25447E+01 0.00000E+00
 -1      2154 1.09612E+02 2.01211E+01 0.00000E+00
 -1      2155 1.08853E+02 2.06766E+01 0.00000E+00
 -1      2156 1.08855E+02 2.16418E+01 0.00000E+00
 -1      2157 1.10965E+02 1.82391E+01 0.00000E+00
 -1      2158 1.10550E+02 1.90887E+01 0.00000E+00
 -1      2159 1.11660E+02 1.66607E+01 0.00000E+00
 -1      2160 1.11312E+02 1.74499E+01 0.00000E+00
 -1      2161 1.11838E+02 1.82324E+01 0.00000E+00
 -1      2162 1.12062E+02 1.47963E+01 0.00000E+00
 -1      2163 1.11894E+02 1.56107E+01 0.00000E+00
 -1      2164 1.07302E+02 5.43552E+00 0.00000E+00
 -1      2165 1.08053E+02 5.88071E+00 0.00000E+00
 -1      2166 1.08828E+02 5.63243E+00 0.00000E+00
 -1      2167 1.07542E+02 4.59093E+00 0.00000E+00
 -1      2168 1.08212E+02 4.07018E+00 0.00000E+00
 -1      2169 6.42300E+00 4.57510E+01 0.00000E+00
 -1      2170 1.10911E+02 4.32154E+00 0.00000E+00
 -1      2171 7.17300E+00 4.44520E+01 0.00000E+00
 -1      2172 9.78990E+01 3.46398E+00 0.00000E+00
 -1      2173 9.65490E+01 3.46398E+00 0.00000E+00
 -1      2174 1.03243E+02 3.84454E+00 0.00000E+00
 -1      2175 1.02718E+02 2.98698E+00 0.00000E+00
 -1      2176 1.01518E+02 2.98698E+00 0.00000E+00
 -1      2177 1.44827E+02 6.67447E+00 0.00000E+00
 -1      2178 1.12794E+02 1.24202E+01 0.00000E+00
 -1      2179 1.12327E+02 1.03422E+01 0.00000E+00
 -1      2180 1.45665E+02 4.31193E+01 0.00000E+00
 -1      2181 1.11588E+02 8.36414E+00 0.00000E+00
 -1      2182 1.12812E+02 1.44006E+01 0.00000E+00
 -1      2183 1.10305E+02 6.78960E+00 0.00000E+00
 -1      2184 1.12419E+02 1.63931E+01 0.00000E+00
 -1      2185 1.11492E+02 1.99868E+01 0.00000E+00
 -1      2186 1.10552E+02 2.00539E+01 0.00000E+00
 -1      2187 1.10554E+02 2.10191E+01 0.00000E+00
 -1      2188 1.05180E+02 2.30628E+01 0.00000E+00
 -1      2189 1.04657E+02 2.37907E+01 0.00000E+00
 -1      2190 1.05968E+02 2.36199E+01 0.00000E+00
 -1      2191 1.01034E+02 2.26551E+01 0.00000E+00
 -1      2192 9.91284E+01 2.18145E+01 0.00000E+00
 -1      2193 9.74647E+01 2.07783E+01 0.00000E+00
 -1      2194 9.60331E+01 1.94235E+01 0.00000E+00
 -1      2195 9.48194E+01 1.77969E+01 0.00000E+00
 -1      2196 9.37338E+01 1.37708E+01 0.00000E+00
 -1      2197 9.43272E+01 9.62730E+00 0.00000E+00
 -1      2198 9.39970E+01 8.81690E+00 0.00000E+00
 -1      2199 9.34616E+01 9.99501E+00 0.00000E+00
 -1      2200 9.56411E+01 7.68175E+00 0.00000E+00
 -1      2201 9.71603E+01 6.26793E+00 0.00000E+00
 -1      2202 9.88750E+01 4.92965E+00 0.00000E+00
 -1      2203 1.00881E+02 4.01211E+00 0.00000E+00
 -1      2204 1.05737E+02 3.98640E+00 0.00000E+00
 -1      2205 9.41035E+01 1.59391E+01 0.00000E+00
 -1      2206 1.07850E+01 5.30525E+00 0.00000E+00
 -1      2207 9.28500E+00 5.30525E+00 0.00000E+00
 -1      2208 6.49500E+00 3.01125E+01 0.00000E+00
 -1      2209 6.49500E+00 3.15875E+01 0.00000E+00
 -1      2210 6.49500E+00 3.30625E+01 0.00000E+00
 -1      2211 6.49500E+00 3.45375E+01 0.00000E+00
 -1      2212 7.79400E+00 3.23250E+01 0.00000E+00
 -1      2213 6.49500E+00 2.42125E+01 0.00000E+00
 -1      2214 6.49500E+00 2.56875E+01 0.00000E+00
 -1      2215 6.49500E+00 2.12625E+01 0.00000E+00
 -1      2216 6.49500E+00 2.27375E+01 0.00000E+00
 -1      2217 7.79400E+00 2.34750E+01 0.00000E+00
 -1      2218 6.49500E+00 1.83625E+01 0.00000E+00
 -1      2219 6.49500E+00 1.98125E+01 0.00000E+00
 -1      2220 7.79400E+00 2.05500E+01 0.00000E+00
 -1      2221 6.49500E+00 1.54125E+01 0.00000E+00
 -1      2222 6.49500E+00 1.68875E+01 0.00000E+00
 -1      2223 7.79400E+00 1.76250E+01 0.00000E+00
 -1      2224 6.49500E+00 1.24625E+01 0.00000E+00
 -1      2225 6.49500E+00 1.39375E+01 0.00000E+00
 -1      2226 7.79400E+00 1.46750E+01 0.00000E+00
 -1      2227 6.49500E+00 9.51250E+00 0.00000E+00
 -1      2228 6.49500E+00 1.09875E+01 0.00000E+00
 -1      2229 7.79400E+00 1.17250E+01 0.00000E+00
 -1      2230 9.33634E+01 1.65502E+01 0.00000E+00
 -1      2231 9.32272E+01 1.55477E+01 0.00000E+00
 -1      2232 1.37850E+01 5.30525E+00 0.00000E+00
 -1      2233 1.22850E+01 5.30525E+00 0.00000E+00
 -1      2234 1.15350E+01 6.60425E+00 0.00000E+00
 -1      2235 9.90000E+00 4.35050E+01 0.00000E+00
 -1      2236 1.14000E+01 4.35050E+01 0.00000E+00
 -1      2237 9.85365E+01 4.48911E+00 0.00000E+00
 -1      2238 1.29000E+01 4.35050E+01 0.00000E+00
 -1      2239 1.44000E+01 4.35050E+01 0.00000E+00
 -1      2240 1.21500E+01 4.22060E+01 0.00000E+00
 -1      2241 1.59000E+01 4.35050E+01 0.00000E+00
 -1      2242 1.74000E+01 4.35050E+01 0.00000E+00
 -1      2243 1.51500E+01 4.22060E+01 0.00000E+00
 -1      2244 1.89000E+01 4.35050E+01 0.00000E+00
 -1      2245 2.04000E+01 4.35050E+01 0.00000E+00
 -1      2246 1.81500E+01 4.22060E+01 0.00000E+00
 -1      2247 2.19000E+01 4.35050E+01 0.00000E+00
 -1      2248 2.34000E+01 4.35050E+01 0.00000E+00
 -1      2249 2.11500E+01 4.22060E+01 0.00000E+00
 -1      2250 2.49000E+01 4.35050E+01 0.00000E+00
 -1      2251 2.64000E+01 4.35050E+01 0.00000E+00
 -1      2252 2.41500E+01 4.22060E+01 0.00000E+00
 -1      2253 2.79000E+01 4.35050E+01 0.00000E+00
 -1      2254 2.94000E+01 4.35050E+01 0.00000E+00
 -1      2255 2.71500E+01 4.22060E+01 0.00000E+00
 -1      2256 3.09000E+01 4.35050E+01 0.00000E+00
 -1      2257 3.24000E+01 4.35050E+01 0.00000E+00
 -1      2258 3.01500E+01 4.22060E+01 0.00000E+00
 -1      2259 3.39000E+01 4.35050E+01 0.00000E+00
 -1      2260 3.54000E+01 4.35050E+01 0.00000E+00
 -1      2261 3.31500E+01 4.22060E+01 0.00000E+00
 -1      2262 3.69000E+01 4.35050E+01 0.00000E+00
 -1      2263 3.84000E+01 4.35050E+01 0.00000E+00
 -1      2264 3.61500E+01 4.22060E+01 0.00000E+00
 -1      2265 3.99000E+01 4.35050E+01 0.00000E+00
 -1      2266 4.14000E+01 4.35050E+01 0.00000E+00
 -1      2267 3.91500E+01 4.22060E+01 0.00000E+00
 -1      2268 4.29000E+01 4.35050E+01 0.00000E+00
 -1      2269 4.44000E+01 4.35050E+01 0.00000E+00
 -1      2270 4.21500E+01 4.22060E+01 0.00000E+00
 -1      2271 4.59000E+01 4.35050E+01 0.00000E+00
 -1      2272 4.74000E+01 4.35050E+01 0.00000E+00
 -1      2273 4.51500E+01 4.22060E+01 0.00000E+00
 -1      2274 4.89000E+01 4.35050E+01 0.00000E+00
 -1      2275 5.04000E+01 4.35050E+01 0.00000E+00
 -1      2276 4.81500E+01 4.22060E+01 0.00000E+00
 -1      2277 5.19000E+01 4.35050E+01 0.00000E+00
 -1      2278 5.34000E+01 4.35050E+01 0.00000E+00
 -1      2279 5.11500E+01 4.22060E+01 0.00000E+00
 -1      2280 5.49000E+01 4.35050E+01 0.00000E+00
 -1      2281 5.64000E+01 4.35050E+01 0.00000E+00
 -1      2282 5.41500E+01 4.22060E+01 0.00000E+00
 -1      2283 5.79000E+01 4.35050E+01 0.00000E+00
 -1      2284 5.94000E+01 4.35050E+01 0.00000E+00
 -1      2285 5.71500E+01 4.22060E+01 0.00000E+00
 -1      2286 6.09000E+01 4.35050E+01 0.00000E+00
 -1      2287 6.24000E+01 4.35050E+01 0.00000E+00
 -1      2288 6.01500E+01 4.22060E+01 0.00000E+00
 -1      2289 6.39000E+01 4.35050E+01 0.00000E+00
 -1      2290 6.54000E+01 4.35050E+01 0.00000E+00
 -1      2291 6.31500E+01 4.22060E+01 0.00000E+00
 -1      2292 6.69000E+01 4.35050E+01 0.00000E+00
 -1      2293 6.84000E+01 4.35050E+01 0.00000E+00
 -1      2294 6.61500E+01 4.22060E+01 0.00000E+00
 -1      2295 6.99000E+01 4.35050E+01 0.00000E+00
 -1      2296 7.14000E+01 4.35050E+01 0.00000E+00
 -1      2297 6.91500E+01 4.22060E+01 0.00000E+00
 -1      2298 7.29000E+01 4.35050E+01 0.00000E+00
 -1      2299 7.44000E+01 4.35050E+01 0.00000E+00
 -1      2300 7.21500E+01 4.22060E+01 0.00000E+00
 -1      2301 7.59000E+01 4.35050E+01 0.00000E+00
 -1      2302 7.74000E+01 4.35050E+01 0.00000E+00
 -1      2303 7.51500E+01 4.22060E+01 0.00000E+00
 -1      2304 7.89000E+01 4.35050E+01 0.00000E+00
 -1      2305 8.04000E+01 4.35050E+01 0.00000E+00
 -1      2306 7.81500E+01 4.22060E+01 0.00000E+00
 -1      2307 8.19000E+01 4.35050E+01 0.00000E+00
 -1      2308 8.34000E+01 4.35050E+01 0.00000E+00
 -1      2309 8.11500E+01 4.22060E+01 0.00000E+00
 -1      2310 8.49000E+01 4.35050E+01 0.00000E+00
 -1      2311 8.64000E+01 4.35050E+01 0.00000E+00
 -1      2312 8.41500E+01 4.22060E+01 0.00000E+00
 -1      2313 8.79000E+01 4.35050E+01 0.00000E+00
 -1      2314 8.94000E+01 4.35050E+01 0.00000E+00
 -1      2315 8.71500E+01 4.22060E+01 0.00000E+00
 -1      2316 9.09000E+01 4.35050E+01 0.00000E+00
 -1      2317 9.24000E+01 4.35050E+01 0.00000E+00
 -1      2318 9.01500E+01 4.22060E+01 0.00000E+00
 -1      2319 9.39000E+01 4.35050E+01 0.00000E+00
 -1      2320 9.54000E+01 4.35050E+01 0.00000E+00
 -1      2321 9.31500E+01 4.22060E+01 0.00000E+00
 -1      2322 9.69000E+01 4.35050E+01 0.00000E+00
 -1      2323 9.84000E+01 4.35050E+01 0.00000E+00
 -1      2324 9.61500E+01 4.22060E+01 0.00000E+00
 -1      2325 9.99000E+01 4.35050E+01 0.00000E+00
 -1      2326 1.01400E+02 4.35050E+01 0.00000E+00
 -1      2327 9.91500E+01 4.22060E+01 0.00000E+00
 -1      2328 1.02900E+02 4.35050E+01 0.00000E+00
 -1      2329 1.04400E+02 4.35050E+01 0.00000E+00
 -1      2330 1.02150E+02 4.22060E+01 0.00000E+00
 -1      2331 1.05900E+02 4.35050E+01 0.00000E+00
 -1      2332 1.07400E+02 4.35050E+01 0.00000E+00
 -1      2333 1.05150E+02 4.22060E+01 0.00000E+00
 -1      2334 1.08900E+02 4.35050E+01 0.00000E+00
 -1      2335 1.10400E+02 4.35050E+01 0.00000E+00
 -1      2336 1.08150E+02 4.22060E+01 0.00000E+00
 -1      2337 1.11900E+02 4.35050E+01 0.00000E+00
 -1      2338 1.13400E+02 4.35050E+01 0.00000E+00
 -1      2339 1.11150E+02 4.22060E+01 0.00000E+00
 -1      2340 1.14900E+02 4.35050E+01 0.00000E+00
 -1      2341 1.16400E+02 4.35050E+01 0.00000E+00
 -1      2342 1.14150E+02 4.22060E+01 0.00000E+00
 -1      2343 1.17900E+02 4.35050E+01 0.00000E+00
 -1      2344 1.19400E+02 4.35050E+01 0.00000E+00
 -1      2345 1.17150E+02 4.22060E+01 0.00000E+00
 -1      2346 1.20900E+02 4.35050E+01 0.00000E+00
 -1      2347 1.22400E+02 4.35050E+01 0.00000E+00
 -1      2348 1.20150E+02 4.22060E+01 0.00000E+00
 -1      2349 1.23900E+02 4.35050E+01 0.00000E+00
 -1      2350 1.25400E+02 4.35050E+01 0.00000E+00
 -1      2351 1.23150E+02 4.22060E+01 0.00000E+00
 -1      2352 1.26900E+02 4.35050E+01 0.00000E+00
 -1      2353 1.28400E+02 4.35050E+01 0.00000E+00
 -1      2354 1.26150E+02 4.22060E+01 0.00000E+00
 -1      2355 1.29900E+02 4.35050E+01 0.00000E+00
 -1      2356 1.31400E+02 4.35050E+01 0.00000E+00
 -1      2357 1.29150E+02 4.22060E+01 0.00000E+00
 -1      2358 1.32900E+02 4.35050E+01 0.00000E+00
 -1      2359 1.34400E+02 4.35050E+01 0.00000E+00
 -1      2360 1.32150E+02 4.22060E+01 0.00000E+00
 -1      2361 1.35900E+02 4.35050E+01 0.00000E+00
 -1      2362 1.37400E+02 4.35050E+01 0.00000E+00
 -1      2363 1.35150E+02 4.22060E+01 0.00000E+00
 -1      2364 1.38900E+02 4.35050E+01 0.00000E+00
 -1      2365 1.40400E+02 4.35050E+01 0.00000E+00
 -1      2366 1.38150E+02 4.22060E+01 0.00000E+00
 -1      2367 1.97850E+01 5.30525E+00 0.00000E+00
 -1      2368 1.82850E+01 5.30525E+00 0.00000E+00
 -1      2369 2.27850E+01 5.30525E+00 0.00000E+00
 -1      2370 2.12850E+01 5.30525E+00 0.00000E+00
 -1      2371 2.05350E+01 6.60425E+00 0.00000E+00
 -1      2372 2.57850E+01 5.30525E+00 0.00000E+00
 -1      2373 2.42850E+01 5.30525E+00 0.00000E+00
 -1      2374 2.35350E+01 6.60425E+00 0.00000E+00
 -1      2375 2.87850E+01 5.30525E+00 0.00000E+00
 -1      2376 2.72850E+01 5.30525E+00 0.00000E+00
 -1      2377 2.65350E+01 6.60425E+00 0.00000E+00
 -1      2378 3.17850E+01 5.30525E+00 0.00000E+00
 -1      2379 3.02850E+01 5.30525E+00 0.00000E+00
 -1      2380 2.95350E+01 6.60425E+00 0.00000E+00
 -1      2381 3.47850E+01 5.30525E+00 0.00000E+00
 -1      2382 3.32850E+01 5.30525E+00 0.00000E+00
 -1      2383 3.25350E+01 6.60425E+00 0.00000E+00
 -1      2384 3.77850E+01 5.30525E+00 0.00000E+00
 -1      2385 3.62850E+01 5.30525E+00 0.00000E+00
 -1      2386 3.55350E+01 6.60425E+00 0.00000E+00
 -1      2387 4.07850E+01 5.30525E+00 0.00000E+00
 -1      2388 3.92850E+01 5.30525E+00 0.00000E+00
 -1      2389 3.85350E+01 6.60425E+00 0.00000E+00
 -1      2390 4.37850E+01 5.30525E+00 0.00000E+00
 -1      2391 4.22850E+01 5.30525E+00 0.00000E+00
 -1      2392 4.15350E+01 6.60425E+00 0.00000E+00
 -1      2393 4.67850E+01 5.30525E+00 0.00000E+00
 -1      2394 4.52850E+01 5.30525E+00 0.00000E+00
 -1      2395 4.45350E+01 6.60425E+00 0.00000E+00
 -1      2396 4.97850E+01 5.30525E+00 0.00000E+00
 -1      2397 4.82850E+01 5.30525E+00 0.00000E+00
 -1      2398 4.75350E+01 6.60425E+00 0.00000E+00
 -1      2399 5.27850E+01 5.30525E+00 0.00000E+00
 -1      2400 5.12850E+01 5.30525E+00 0.00000E+00
 -1      2401 5.05350E+01 6.60425E+00 0.00000E+00
 -1      2402 5.57850E+01 5.30525E+00 0.00000E+00
 -1      2403 5.42850E+01 5.30525E+00 0.00000E+00
 -1      2404 5.35350E+01 6.60425E+00 0.00000E+00
 -1      2405 5.87850E+01 5.30525E+00 0.00000E+00
 -1      2406 5.72850E+01 5.30525E+00 0.00000E+00
 -1      2407 5.65350E+01 6.60425E+00 0.00000E+00
 -1      2408 6.17850E+01 5.30525E+00 0.00000E+00
 -1      2409 6.02850E+01 5.30525E+00 0.00000E+00
 -1      2410 5.95350E+01 6.60425E+00 0.00000E+00
 -1      2411 6.47850E+01 5.30525E+00 0.00000E+00
 -1      2412 6.32850E+01 5.30525E+00 0.00000E+00
 -1      2413 6.25350E+01 6.60425E+00 0.00000E+00
 -1      2414 6.77850E+01 5.30525E+00 0.00000E+00
 -1      2415 6.62850E+01 5.30525E+00 0.00000E+00
 -1      2416 6.55350E+01 6.60425E+00 0.00000E+00
 -1      2417 7.07850E+01 5.30525E+00 0.00000E+00
 -1      2418 6.92850E+01 5.30525E+00 0.00000E+00
 -1      2419 6.85350E+01 6.60425E+00 0.00000E+00
 -1      2420 7.37850E+01 5.30525E+00 0.00000E+00
 -1      2421 7.22850E+01 5.30525E+00 0.00000E+00
 -1      2422 7.15350E+01 6.60425E+00 0.00000E+00
 -1      2423 7.67850E+01 5.30525E+00 0.00000E+00
 -1      2424 7.52850E+01 5.30525E+00 0.00000E+00
 -1      2425 7.45350E+01 6.60425E+00 0.00000E+00
 -1      2426 7.97850E+01 5.30525E+00 0.00000E+00
 -1      2427 7.82850E+01 5.30525E+00 0.00000E+00
 -1      2428 7.75350E+01 6.60425E+00 0.00000E+00
 -1      2429 8.27850E+01 5.30525E+00 0.00000E+00
 -1      2430 8.12850E+01 5.30525E+00 0.00000E+00
 -1      2431 8.05350E+01 6.60425E+00 0.00000E+00
 -1      2432 8.57850E+01 5.30525E+00 0.00000E+00
 -1      2433 8.42850E+01 5.30525E+00 0.00000E+00
 -1      2434 8.35350E+01 6.60425E+00 0.00000E+00
 -1      2435 8.87850E+01 5.30525E+00 0.00000E+00
 -1      2436 8.72850E+01 5.30525E+00 0.00000E+00
 -1      2437 8.65350E+01 6.60425E+00 0.00000E+00
 -1      2438 9.17850E+01 5.30525E+00 0.00000E+00
 -1      2439 9.02850E+01 5.30525E+00 0.00000E+00
 -1      2440 8.95350E+01 6.60425E+00 0.00000E+00
 -1      2441 9.63795E+01 4.37336E+00 0.00000E+00
 -1      2442 6.55950E+00 4.28890E+01 0.00000E+00
 -1      2443 8.53650E+00 4.32410E+01 0.00000E+00
 -1      2444 9.28650E+00 4.19420E+01 0.00000E+00
 -1      2445 6.55950E+00 4.14140E+01 0.00000E+00
 -1      2446 1.14549E+02 5.87189E+00 0.00000E+00
 -1      2447 1.13049E+02 5.87189E+00 0.00000E+00
 -1      2448 1.23549E+02 5.87189E+00 0.00000E+00
 -1      2449 1.22049E+02 5.87189E+00 0.00000E+00
 -1      2450 1.26549E+02 5.87189E+00 0.00000E+00
 -1      2451 1.25049E+02 5.87189E+00 0.00000E+00
 -1      2452 1.24299E+02 7.17089E+00 0.00000E+00
 -1      2453 1.29549E+02 5.87189E+00 0.00000E+00
 -1      2454 1.28049E+02 5.87189E+00 0.00000E+00
 -1      2455 1.27299E+02 7.17089E+00 0.00000E+00
 -1      2456 1.32549E+02 5.87189E+00 0.00000E+00
 -1      2457 1.31049E+02 5.87189E+00 0.00000E+00
 -1      2458 1.30299E+02 7.17089E+00 0.00000E+00
 -1      2459 1.35549E+02 5.87189E+00 0.00000E+00
 -1      2460 1.34049E+02 5.87189E+00 0.00000E+00
 -1      2461 1.33299E+02 7.17089E+00 0.00000E+00
 -1      2462 1.38549E+02 5.87189E+00 0.00000E+00
 -1      2463 1.37049E+02 5.87189E+00 0.00000E+00
 -1      2464 1.36299E+02 7.17089E+00 0.00000E+00
 -1      2465 1.41549E+02 5.87189E+00 0.00000E+00
 -1      2466 1.40049E+02 5.87189E+00 0.00000E+00
 -1      2467 1.39299E+02 7.17089E+00 0.00000E+00
 -1      2468 1.43505E+02 1.69125E+01 0.00000E+00
 -1      2469 1.43505E+02 1.54375E+01 0.00000E+00
 -1      2470 1.43505E+02 1.39875E+01 0.00000E+00
 -1      2471 1.43505E+02 1.25375E+01 0.00000E+00
 -1      2472 1.42206E+02 1.47250E+01 0.00000E+00
 -1      2473 1.43505E+02 1.10625E+01 0.00000E+00
 -1      2474 1.43505E+02 9.58750E+00 0.00000E+00
 -1      2475 1.42206E+02 1.18000E+01 0.00000E+00
 -1      2476 1.13510E+02 1.17647E+01 0.00000E+00
 -1      2477 1.13687E+02 1.28027E+01 0.00000E+00
 -1      2478 1.43505E+02 1.98625E+01 0.00000E+00
 -1      2479 1.43505E+02 1.83875E+01 0.00000E+00
 -1      2480 1.42206E+02 1.76500E+01 0.00000E+00
 -1      2481 1.43505E+02 2.28125E+01 0.00000E+00
 -1      2482 1.43505E+02 2.13375E+01 0.00000E+00
 -1      2483 1.42206E+02 2.06000E+01 0.00000E+00
 -1      2484 1.43505E+02 2.57625E+01 0.00000E+00
 -1      2485 1.43505E+02 2.42875E+01 0.00000E+00
 -1      2486 1.42206E+02 2.35500E+01 0.00000E+00
 -1      2487 1.43505E+02 2.87125E+01 0.00000E+00
 -1      2488 1.43505E+02 2.72375E+01 0.00000E+00
 -1      2489 1.42206E+02 2.65000E+01 0.00000E+00
 -1      2490 1.43505E+02 3.16125E+01 0.00000E+00
 -1      2491 1.43505E+02 3.01625E+01 0.00000E+00
 -1      2492 1.42206E+02 2.94250E+01 0.00000E+00
 -1      2493 1.43505E+02 3.45625E+01 0.00000E+00
 -1      2494 1.43505E+02 3.30875E+01 0.00000E+00
 -1      2495 1.42206E+02 3.23500E+01 0.00000E+00
 -1      2496 1.43505E+02 3.75125E+01 0.00000E+00
 -1      2497 1.43505E+02 3.60375E+01 0.00000E+00
 -1      2498 1.42206E+02 3.53000E+01 0.00000E+00
 -1      2499 1.43505E+02 4.04625E+01 0.00000E+00
 -1      2500 1.43505E+02 3.89875E+01 0.00000E+00
 -1      2501 1.42206E+02 3.82500E+01 0.00000E+00
 -1      2502 1.12469E+02 7.29846E+00 0.00000E+00
 -1      2503 1.12917E+02 8.23657E+00 0.00000E+00
 -1      2504 1.67850E+01 5.30525E+00 0.00000E+00
 -1      2505 1.52850E+01 5.30525E+00 0.00000E+00
 -1      2506 1.75350E+01 6.60425E+00 0.00000E+00
 -1      2507 1.13007E+02 9.59097E+00 0.00000E+00
 -1      2508 1.13298E+02 1.06309E+01 0.00000E+00
 -1      2509 1.13613E+02 1.40508E+01 0.00000E+00
 -1      2510 1.13454E+02 1.49932E+01 0.00000E+00
 -1      2511 1.01283E+02 2.35740E+01 0.00000E+00
 -1      2512 1.00243E+02 2.31861E+01 0.00000E+00
 -1      2513 1.13251E+02 1.60273E+01 0.00000E+00
 -1      2514 1.13017E+02 1.70774E+01 0.00000E+00
 -1      2515 1.44321E+02 4.30606E+01 0.00000E+00
 -1      2516 1.20549E+02 5.87189E+00 0.00000E+00
 -1      2517 1.19049E+02 5.87189E+00 0.00000E+00
 -1      2518 1.21299E+02 7.17089E+00 0.00000E+00
 -1      2519 1.17549E+02 5.87189E+00 0.00000E+00
 -1      2520 1.16049E+02 5.87189E+00 0.00000E+00
 -1      2521 1.15299E+02 7.17089E+00 0.00000E+00
 -1      2522 6.49500E+00 2.71625E+01 0.00000E+00
 -1      2523 6.49500E+00 2.86375E+01 0.00000E+00
 -1      2524 7.79400E+00 2.93750E+01 0.00000E+00
 -1      2525 7.79400E+00 2.64250E+01 0.00000E+00
 -1      2526 9.46792E+01 7.48460E+00 0.00000E+00
 -1      2527 9.54577E+01 6.71715E+00 0.00000E+00
 -1      2528 9.27267E+01 1.20180E+01 0.00000E+00
 -1      2529 9.28724E+01 1.11182E+01 0.00000E+00
 -1      2530 9.29937E+01 1.43819E+01 0.00000E+00
 -1      2531 9.27602E+01 1.32160E+01 0.00000E+00
 -1      2532 9.22536E+01 1.49929E+01 0.00000E+00
 -1      2533 9.44688E+01 1.86586E+01 0.00000E+00
 -1      2534 9.38891E+01 1.78033E+01 0.00000E+00
 -1      2535 9.56876E+01 2.03537E+01 0.00000E+00
 -1      2536 9.50536E+01 1.95824E+01 0.00000E+00
 -1      2537 9.73078E+01 2.18298E+01 0.00000E+00
 -1      2538 9.65102E+01 2.12464E+01 0.00000E+00
 -1      2539 9.91640E+01 2.28008E+01 0.00000E+00
 -1      2540 9.82981E+01 2.23481E+01 0.00000E+00
 -1      2541 1.03347E+02 2.38720E+01 0.00000E+00
 -1      2542 1.02449E+02 2.37768E+01 0.00000E+00
 -1      2543 1.09741E+02 2.20560E+01 0.00000E+00
 -1      2544 1.08982E+02 2.26115E+01 0.00000E+00
 -1      2545 1.08069E+02 2.32349E+01 0.00000E+00
 -1      2546 1.07266E+02 2.35822E+01 0.00000E+00
 -1      2547 1.12797E+02 1.81833E+01 0.00000E+00
 -1      2548 1.12449E+02 1.89725E+01 0.00000E+00
 -1      2549 8.07525E+00 5.11044E+00 0.00000E+00
 -1      2550 6.57525E+00 5.11044E+00 0.00000E+00
 -1      2551 6.40575E+00 6.01981E+00 0.00000E+00
 -1      2552 8.82525E+00 6.40944E+00 0.00000E+00
 -1      2553 7.79400E+00 3.52687E+01 0.00000E+00
 -1      2554 6.49500E+00 3.60062E+01 0.00000E+00
 -1      2555 6.49500E+00 3.74750E+01 0.00000E+00
 -1      2556 9.26621E+01 1.82737E+01 0.00000E+00
 -1      2557 9.30127E+01 1.74119E+01 0.00000E+00
 -1      2558 9.21364E+01 1.70205E+01 0.00000E+00
 -1      2559 6.40575E+00 7.49481E+00 0.00000E+00
 -1      2560 1.08854E+02 4.59093E+00 0.00000E+00
 -1      2561 1.18299E+02 7.17089E+00 0.00000E+00
 -1      2562 9.58599E+01 5.63023E+00 0.00000E+00
 -1      2563 9.50154E+01 5.26313E+00 0.00000E+00
 -1      2564 9.35154E+01 5.26313E+00 0.00000E+00
 -1      2565 9.27654E+01 6.56213E+00 0.00000E+00
 -1      2566 6.55950E+00 3.99453E+01 0.00000E+00
 -1      2567 1.42801E+02 8.01045E+00 0.00000E+00
 -1      2568 1.42825E+02 5.83492E+00 0.00000E+00
 -1      2569 1.41503E+02 8.74795E+00 0.00000E+00
 -1      2570 1.14329E+02 1.33953E+01 0.00000E+00
 -1      2571 1.14191E+02 1.10135E+01 0.00000E+00
 -1      2572 1.13889E+02 8.52529E+00 0.00000E+00
 -1      2573 1.11719E+02 5.99946E+00 0.00000E+00
 -1      2574 1.45350E+01 6.60425E+00 0.00000E+00
 -1      2575 7.70475E+00 8.23231E+00 0.00000E+00
 -1      2576 9.68218E+01 5.82738E+00 0.00000E+00
 -1      2577 1.14052E+02 1.56775E+01 0.00000E+00
 -1      2578 9.94132E+01 2.37197E+01 0.00000E+00
 -1      2579 1.12451E+02 1.99377E+01 0.00000E+00
 -1      2580 1.12453E+02 2.09029E+01 0.00000E+00
 -1      2581 1.13410E+02 1.98886E+01 0.00000E+00
 -1      2582 1.06743E+02 2.43101E+01 0.00000E+00
 -1      2583 1.13628E+02 1.78175E+01 0.00000E+00
 -1      2584 1.08955E+02 2.36491E+01 0.00000E+00
 -1      2585 1.10681E+02 2.19888E+01 0.00000E+00
 -1      2586 1.04135E+02 2.44292E+01 0.00000E+00
 -1      2587 1.03613E+02 2.50677E+01 0.00000E+00
 -1      2588 1.04923E+02 2.49863E+01 0.00000E+00
 -1      2589 9.25422E+01 1.03078E+01 0.00000E+00
 -1      2590 9.73435E+01 2.28161E+01 0.00000E+00
 -1      2591 9.55307E+01 2.14052E+01 0.00000E+00
 -1      2592 1.42758E+02 4.35929E+01 0.00000E+00
 -1      2593 1.43241E+02 4.17323E+01 0.00000E+00
 -1      2594 1.41942E+02 4.09948E+01 0.00000E+00
 -1      2595 1.41414E+02 4.35342E+01 0.00000E+00
 -1      2596 9.19866E+01 1.26290E+01 0.00000E+00
 -1      2597 1.01659E+02 2.43077E+01 0.00000E+00
 -1      2598 9.75625E+01 5.18101E+00 0.00000E+00
 -1      2599 9.41233E+01 1.95888E+01 0.00000E+00
 -1      2600 1.40664E+02 4.22352E+01 0.00000E+00
 -1      2601 1.09497E+02 5.11168E+00 0.00000E+00
 -1      2602 1.10885E+02 5.36303E+00 0.00000E+00
 -1      2603 1.14913E+02 1.53100E+01 0.00000E+00
 -1      2604 1.14709E+02 1.63440E+01 0.00000E+00
 -1      2605 9.09300E+00 1.98250E+01 0.00000E+00
 -1      2606 9.09300E+00 2.12750E+01 0.00000E+00
 -1      2607 9.09300E+00 2.27500E+01 0.00000E+00
 -1      2608 9.09300E+00 2.42250E+01 0.00000E+00
 -1      2609 1.03920E+01 2.20250E+01 0.00000E+00
 -1      2610 9.09300E+00 1.39375E+01 0.00000E+00
 -1      2611 9.09300E+00 1.54125E+01 0.00000E+00
 -1      2612 9.09300E+00 1.09875E+01 0.00000E+00
 -1      2613 9.09300E+00 1.24625E+01 0.00000E+00
 -1      2614 1.03920E+01 1.32000E+01 0.00000E+00
 -1      2615 9.36204E+01 2.05542E+01 0.00000E+00
 -1      2616 9.30355E+01 1.96305E+01 0.00000E+00
 -1      2617 1.22850E+01 7.90325E+00 0.00000E+00
 -1      2618 1.07850E+01 7.90325E+00 0.00000E+00
 -1      2619 7.85850E+00 3.92077E+01 0.00000E+00
 -1      2620 1.14000E+01 4.09070E+01 0.00000E+00
 -1      2621 1.29000E+01 4.09070E+01 0.00000E+00
 -1      2622 1.44000E+01 4.09070E+01 0.00000E+00
 -1      2623 1.59000E+01 4.09070E+01 0.00000E+00
 -1      2624 1.36500E+01 3.96080E+01 0.00000E+00
 -1      2625 1.74000E+01 4.09070E+01 0.00000E+00
 -1      2626 1.89000E+01 4.09070E+01 0.00000E+00
 -1      2627 1.66500E+01 3.96080E+01 0.00000E+00
 -1      2628 2.04000E+01 4.09070E+01 0.00000E+00
 -1      2629 2.19000E+01 4.09070E+01 0.00000E+00
 -1      2630 1.96500E+01 3.96080E+01 0.00000E+00
 -1      2631 2.34000E+01 4.09070E+01 0.00000E+00
 -1      2632 2.49000E+01 4.09070E+01 0.00000E+00
 -1      2633 2.26500E+01 3.96080E+01 0.00000E+00
 -1      2634 2.64000E+01 4.09070E+01 0.00000E+00
 -1      2635 2.79000E+01 4.09070E+01 0.00000E+00
 -1      2636 2.56500E+01 3.96080E+01 0.00000E+00
 -1      2637 2.94000E+01 4.09070E+01 0.00000E+00
 -1      2638 3.09000E+01 4.09070E+01 0.00000E+00
 -1      2639 2.86500E+01 3.96080E+01 0.00000E+00
 -1      2640 3.24000E+01 4.09070E+01 0.00000E+00
 -1      2641 3.39000E+01 4.09070E+01 0.00000E+00
 -1      2642 3.16500E+01 3.96080E+01 0.00000E+00
 -1      2643 3.54000E+01 4.09070E+01 0.00000E+00
 -1      2644 3.69000E+01 4.09070E+01 0.00000E+00
 -1      2645 3.46500E+01 3.96080E+01 0.00000E+00
 -1      2646 3.84000E+01 4.09070E+01 0.00000E+00
 -1      2647 3.99000E+01 4.09070E+01 0.00000E+00
 -1      2648 3.76500E+01 3.96080E+01 0.00000E+00
 -1      2649 4.14000E+01 4.09070E+01 0.00000E+00
 -1      2650 4.29000E+01 4.09070E+01 0.00000E+00
 -1      2651 4.06500E+01 3.96080E+01 0.00000E+00
 -1      2652 4.44000E+01 4.09070E+01 0.00000E+00
 -1      2653 4.59000E+01 4.09070E+01 0.00000E+00
 -1      2654 4.36500E+01 3.96080E+01 0.00000E+00
 -1      2655 4.74000E+01 4.09070E+01 0.00000E+00
 -1      2656 4.89000E+01 4.09070E+01 0.00000E+00
 -1      2657 4.66500E+01 3.96080E+01 0.00000E+00
 -1      2658 5.04000E+01 4.09070E+01 0.00000E+00
 -1      2659 5.19000E+01 4.09070E+01 0.00000E+00
 -1      2660 4.96500E+01 3.96080E+01 0.00000E+00
 -1      2661 5.34000E+01 4.09070E+01 0.00000E+00
 -1      2662 5.49000E+01 4.09070E+01 0.00000E+00
 -1      2663 5.26500E+01 3.96080E+01 0.00000E+00
 -1      2664 5.64000E+01 4.09070E+01 0.00000E+00
 -1      2665 5.79000E+01 4.09070E+01 0.00000E+00
 -1      2666 5.56500E+01 3.96080E+01 0.00000E+00
 -1      2667 5.94000E+01 4.09070E+01 0.00000E+00
 -1      2668 6.09000E+01 4.09070E+01 0.00000E+00
 -1      2669 5.86500E+01 3.96080E+01 0.00000E+00
 -1      2670 6.24000E+01 4.09070E+01 0.00000E+00
 -1      2671 6.39000E+01 4.09070E+01 0.00000E+00
 -1      2672 6.16500E+01 3.96080E+01 0.00000E+00
 -1      2673 6.54000E+01 4.09070E+01 0.00000E+00
 -1      2674 6.69000E+01 4.09070E+01 0.00000E+00
 -1      2675 6.46500E+01 3.96080E+01 0.00000E+00
 -1      2676 6.84000E+01 4.09070E+01 0.00000E+00
 -1      2677 6.99000E+01 4.09070E+01 0.00000E+00
 -1      2678 6.76500E+01 3.96080E+01 0.00000E+00
 -1      2679 7.14000E+01 4.09070E+01 0.00000E+00
 -1      2680 7.29000E+01 4.09070E+01 0.00000E+00
 -1      2681 7.06500E+01 3.96080E+01 0.00000E+00
 -1      2682 7.44000E+01 4.09070E+01 0.00000E+00
 -1      2683 7.59000E+01 4.09070E+01 0.00000E+00
 -1      2684 7.36500E+01 3.96080E+01 0.00000E+00
 -1      2685 7.74000E+01 4.09070E+01 0.00000E+00
 -1      2686 7.89000E+01 4.09070E+01 0.00000E+00
 -1      2687 7.66500E+01 3.96080E+01 0.00000E+00
 -1      2688 8.04000E+01 4.09070E+01 0.00000E+00
 -1      2689 8.19000E+01 4.09070E+01 0.00000E+00
 -1      2690 7.96500E+01 3.96080E+01 0.00000E+00
 -1      2691 8.34000E+01 4.09070E+01 0.00000E+00
 -1      2692 8.49000E+01 4.09070E+01 0.00000E+00
 -1      2693 8.26500E+01 3.96080E+01 0.00000E+00
 -1      2694 8.64000E+01 4.09070E+01 0.00000E+00
 -1      2695 8.79000E+01 4.09070E+01 0.00000E+00
 -1      2696 8.56500E+01 3.96080E+01 0.00000E+00
 -1      2697 8.94000E+01 4.09070E+01 0.00000E+00
 -1      2698 9.09000E+01 4.09070E+01 0.00000E+00
 -1      2699 8.86500E+01 3.96080E+01 0.00000E+00
 -1      2700 9.24000E+01 4.09070E+01 0.00000E+00
 -1      2701 9.39000E+01 4.09070E+01 0.00000E+00
 -1      2702 9.16500E+01 3.96080E+01 0.00000E+00
 -1      2703 9.54000E+01 4.09070E+01 0.00000E+00
 -1      2704 9.69000E+01 4.09070E+01 0.00000E+00
 -1      2705 9.46500E+01 3.96080E+01 0.00000E+00
 -1      2706 9.84000E+01 4.09070E+01 0.00000E+00
 -1      2707 9.99000E+01 4.09070E+01 0.00000E+00
 -1      2708 9.76500E+01 3.96080E+01 0.00000E+00
 -1      2709 1.01400E+02 4.09070E+01 0.00000E+00
 -1      2710 1.02900E+02 4.09070E+01 0.00000E+00
 -1      2711 1.00650E+02 3.96080E+01 0.00000E+00
 -1      2712 1.04400E+02 4.09070E+01 0.00000E+00
 -1      2713 1.05900E+02 4.09070E+01 0.00000E+00
 -1      2714 1.03650E+02 3.96080E+01 0.00000E+00
 -1      2715 1.07400E+02 4.09070E+01 0.00000E+00
 -1      2716 1.08900E+02 4.09070E+01 0.00000E+00
 -1      2717 1.06650E+02 3.96080E+01 0.00000E+00
 -1      2718 1.10400E+02 4.09070E+01 0.00000E+00
 -1      2719 1.11900E+02 4.09070E+01 0.00000E+00
 -1      2720 1.09650E+02 3.96080E+01 0.00000E+00
 -1      2721 1.13400E+02 4.09070E+01 0.00000E+00
 -1      2722 1.14900E+02 4.09070E+01 0.00000E+00
 -1      2723 1.12650E+02 3.96080E+01 0.00000E+00
 -1      2724 1.16400E+02 4.09070E+01 0.00000E+00
 -1      2725 1.17900E+02 4.09070E+01 0.00000E+00
 -1      2726 1.15650E+02 3.96080E+01 0.00000E+00
 -1      2727 1.19400E+02 4.09070E+01 0.00000E+00
 -1      2728 1.20900E+02 4.09070E+01 0.00000E+00
 -1      2729 1.18650E+02 3.96080E+01 0.00000E+00
 -1      2730 1.22400E+02 4.09070E+01 0.00000E+00
 -1      2731 1.23900E+02 4.09070E+01 0.00000E+00
 -1      2732 1.21650E+02 3.96080E+01 0.00000E+00
 -1      2733 1.25400E+02 4.09070E+01 0.00000E+00
 -1      2734 1.26900E+02 4.09070E+01 0.00000E+00
 -1      2735 1.24650E+02 3.96080E+01 0.00000E+00
 -1      2736 1.28400E+02 4.09070E+01 0.00000E+00
 -1      2737 1.29900E+02 4.09070E+01 0.00000E+00
 -1      2738 1.27650E+02 3.96080E+01 0.00000E+00
 -1      2739 1.31400E+02 4.09070E+01 0.00000E+00
 -1      2740 1.32900E+02 4.09070E+01 0.00000E+00
 -1      2741 1.30650E+02 3.96080E+01 0.00000E+00
 -1      2742 1.34400E+02 4.09070E+01 0.00000E+00
 -1      2743 1.35900E+02 4.09070E+01 0.00000E+00
 -1      2744 1.33650E+02 3.96080E+01 0.00000E+00
 -1      2745 1.37400E+02 4.09070E+01 0.00000E+00
 -1      2746 1.38900E+02 4.09070E+01 0.00000E+00
 -1      2747 1.36650E+02 3.96080E+01 0.00000E+00
 -1      2748 1.40907E+02 2.42875E+01 0.00000E+00
 -1      2749 1.40907E+02 2.28125E+01 0.00000E+00
 -1      2750 9.11461E+01 1.32521E+01 0.00000E+00
 -1      2751 9.11126E+01 1.20540E+01 0.00000E+00
 -1      2752 2.72850E+01 7.90325E+00 0.00000E+00
 -1      2753 2.57850E+01 7.90325E+00 0.00000E+00
 -1      2754 2.12850E+01 7.90325E+00 0.00000E+00
 -1      2755 1.97850E+01 7.90325E+00 0.00000E+00
 -1      2756 3.02850E+01 7.90325E+00 0.00000E+00
 -1      2757 2.87850E+01 7.90325E+00 0.00000E+00
 -1      2758 2.80350E+01 9.20225E+00 0.00000E+00
 -1      2759 3.32850E+01 7.90325E+00 0.00000E+00
 -1      2760 3.17850E+01 7.90325E+00 0.00000E+00
 -1      2761 3.10350E+01 9.20225E+00 0.00000E+00
 -1      2762 3.62850E+01 7.90325E+00 0.00000E+00
 -1      2763 3.47850E+01 7.90325E+00 0.00000E+00
 -1      2764 3.40350E+01 9.20225E+00 0.00000E+00
 -1      2765 3.92850E+01 7.90325E+00 0.00000E+00
 -1      2766 3.77850E+01 7.90325E+00 0.00000E+00
 -1      2767 3.70350E+01 9.20225E+00 0.00000E+00
 -1      2768 4.22850E+01 7.90325E+00 0.00000E+00
 -1      2769 4.07850E+01 7.90325E+00 0.00000E+00
 -1      2770 4.00350E+01 9.20225E+00 0.00000E+00
 -1      2771 4.52850E+01 7.90325E+00 0.00000E+00
 -1      2772 4.37850E+01 7.90325E+00 0.00000E+00
 -1      2773 4.30350E+01 9.20225E+00 0.00000E+00
 -1      2774 4.82850E+01 7.90325E+00 0.00000E+00
 -1      2775 4.67850E+01 7.90325E+00 0.00000E+00
 -1      2776 4.60350E+01 9.20225E+00 0.00000E+00
 -1      2777 5.12850E+01 7.90325E+00 0.00000E+00
 -1      2778 4.97850E+01 7.90325E+00 0.00000E+00
 -1      2779 4.90350E+01 9.20225E+00 0.00000E+00
 -1      2780 5.42850E+01 7.90325E+00 0.00000E+00
 -1      2781 5.27850E+01 7.90325E+00 0.00000E+00
 -1      2782 5.20350E+01 9.20225E+00 0.00000E+00
 -1      2783 5.72850E+01 7.90325E+00 0.00000E+00
 -1      2784 5.57850E+01 7.90325E+00 0.00000E+00
 -1      2785 5.50350E+01 9.20225E+00 0.00000E+00
 -1      2786 6.02850E+01 7.90325E+00 0.00000E+00
 -1      2787 5.87850E+01 7.90325E+00 0.00000E+00
 -1      2788 5.80350E+01 9.20225E+00 0.00000E+00
 -1      2789 6.32850E+01 7.90325E+00 0.00000E+00
 -1      2790 6.17850E+01 7.90325E+00 0.00000E+00
 -1      2791 6.10350E+01 9.20225E+00 0.00000E+00
 -1      2792 6.62850E+01 7.90325E+00 0.00000E+00
 -1      2793 6.47850E+01 7.90325E+00 0.00000E+00
 -1      2794 6.40350E+01 9.20225E+00 0.00000E+00
 -1      2795 6.92850E+01 7.90325E+00 0.00000E+00
 -1      2796 6.77850E+01 7.90325E+00 0.00000E+00
 -1      2797 6.70350E+01 9.20225E+00 0.00000E+00
 -1      2798 7.22850E+01 7.90325E+00 0.00000E+00
 -1      2799 7.07850E+01 7.90325E+00 0.00000E+00
 -1      2800 7.00350E+01 9.20225E+00 0.00000E+00
 -1      2801 7.52850E+01 7.90325E+00 0.00000E+00
 -1      2802 7.37850E+01 7.90325E+00 0.00000E+00
 -1      2803 7.30350E+01 9.20225E+00 0.00000E+00
 -1      2804 7.82850E+01 7.90325E+00 0.00000E+00
 -1      2805 7.67850E+01 7.90325E+00 0.00000E+00
 -1      2806 7.60350E+01 9.20225E+00 0.00000E+00
 -1      2807 8.12850E+01 7.90325E+00 0.00000E+00
 -1      2808 7.97850E+01 7.90325E+00 0.00000E+00
 -1      2809 7.90350E+01 9.20225E+00 0.00000E+00
 -1      2810 8.42850E+01 7.90325E+00 0.00000E+00
 -1      2811 8.27850E+01 7.90325E+00 0.00000E+00
 -1      2812 8.20350E+01 9.20225E+00 0.00000E+00
 -1      2813 8.72850E+01 7.90325E+00 0.00000E+00
 -1      2814 8.57850E+01 7.90325E+00 0.00000E+00
 -1      2815 8.50350E+01 9.20225E+00 0.00000E+00
 -1      2816 9.02850E+01 7.90325E+00 0.00000E+00
 -1      2817 8.87850E+01 7.90325E+00 0.00000E+00
 -1      2818 8.80350E+01 9.20225E+00 0.00000E+00
 -1      2819 1.31049E+02 8.46989E+00 0.00000E+00
 -1      2820 1.29549E+02 8.46989E+00 0.00000E+00
 -1      2821 1.15389E+02 1.28316E+01 0.00000E+00
 -1      2822 1.15316E+02 1.40797E+01 0.00000E+00
 -1      2823 1.40706E+02 1.03250E+01 0.00000E+00
 -1      2824 1.40003E+02 8.74795E+00 0.00000E+00
 -1      2825 1.38503E+02 8.74795E+00 0.00000E+00
 -1      2826 9.39285E+01 8.12705E+00 0.00000E+00
 -1      2827 9.37451E+01 7.16245E+00 0.00000E+00
 -1      2828 2.42850E+01 7.90325E+00 0.00000E+00
 -1      2829 2.27850E+01 7.90325E+00 0.00000E+00
 -1      2830 2.50350E+01 9.20225E+00 0.00000E+00
 -1      2831 1.28049E+02 8.46989E+00 0.00000E+00
 -1      2832 1.26549E+02 8.46989E+00 0.00000E+00
 -1      2833 1.28799E+02 9.76889E+00 0.00000E+00
 -1      2834 1.15389E+02 8.52529E+00 0.00000E+00
 -1      2835 1.25049E+02 8.46989E+00 0.00000E+00
 -1      2836 1.23549E+02 8.46989E+00 0.00000E+00
 -1      2837 1.25799E+02 9.76889E+00 0.00000E+00
 -1      2838 1.34049E+02 8.46989E+00 0.00000E+00
 -1      2839 1.32549E+02 8.46989E+00 0.00000E+00
 -1      2840 1.31799E+02 9.76889E+00 0.00000E+00
 -1      2841 1.37026E+02 8.60892E+00 0.00000E+00
 -1      2842 1.35526E+02 8.60892E+00 0.00000E+00
 -1      2843 1.34776E+02 9.90792E+00 0.00000E+00
 -1      2844 1.37729E+02 1.01860E+01 0.00000E+00
 -1      2845 1.40907E+02 2.13375E+01 0.00000E+00
 -1      2846 1.40907E+02 1.98625E+01 0.00000E+00
 -1      2847 1.39608E+02 2.20750E+01 0.00000E+00
 -1      2848 1.40706E+02 1.18000E+01 0.00000E+00
 -1      2849 1.40907E+02 1.83875E+01 0.00000E+00
 -1      2850 1.40907E+02 1.69125E+01 0.00000E+00
 -1      2851 1.39608E+02 1.91250E+01 0.00000E+00
 -1      2852 1.40907E+02 2.72375E+01 0.00000E+00
 -1      2853 1.40907E+02 2.57625E+01 0.00000E+00
 -1      2854 1.39608E+02 2.50250E+01 0.00000E+00
 -1      2855 1.40907E+02 3.01375E+01 0.00000E+00
 -1      2856 1.40907E+02 2.86875E+01 0.00000E+00
 -1      2857 1.39608E+02 2.79500E+01 0.00000E+00
 -1      2858 1.40907E+02 3.30875E+01 0.00000E+00
 -1      2859 1.40907E+02 3.16125E+01 0.00000E+00
 -1      2860 1.39608E+02 3.08750E+01 0.00000E+00
 -1      2861 1.40907E+02 3.60375E+01 0.00000E+00
 -1      2862 1.40907E+02 3.45625E+01 0.00000E+00
 -1      2863 1.39608E+02 3.38250E+01 0.00000E+00
 -1      2864 1.19049E+02 8.44737E+00 0.00000E+00
 -1      2865 1.17549E+02 8.44737E+00 0.00000E+00
 -1      2866 8.91450E+00 8.42712E+00 0.00000E+00
 -1      2867 1.09942E+02 2.41149E+01 0.00000E+00
 -1      2868 1.09029E+02 2.47383E+01 0.00000E+00
 -1      2869 9.30628E+01 8.49476E+00 0.00000E+00
 -1      2870 9.16116E+01 1.57278E+01 0.00000E+00
 -1      2871 9.13782E+01 1.45619E+01 0.00000E+00
 -1      2872 9.96365E+01 2.47989E+01 0.00000E+00
 -1      2873 9.85571E+01 2.44136E+01 0.00000E+00
 -1      2874 1.22049E+02 8.46989E+00 0.00000E+00
 -1      2875 1.20549E+02 8.46989E+00 0.00000E+00
 -1      2876 1.22799E+02 9.76889E+00 0.00000E+00
 -1      2877 1.52850E+01 7.90325E+00 0.00000E+00
 -1      2878 1.37850E+01 7.90325E+00 0.00000E+00
 -1      2879 1.30350E+01 9.20225E+00 0.00000E+00
 -1      2880 1.82850E+01 7.90325E+00 0.00000E+00
 -1      2881 1.67850E+01 7.90325E+00 0.00000E+00
 -1      2882 1.60350E+01 9.20225E+00 0.00000E+00
 -1      2883 1.90350E+01 9.20225E+00 0.00000E+00
 -1      2884 1.14927E+02 1.02889E+01 0.00000E+00
 -1      2885 1.15140E+02 1.14227E+01 0.00000E+00
 -1      2886 1.40907E+02 1.54625E+01 0.00000E+00
 -1      2887 1.40907E+02 1.40125E+01 0.00000E+00
 -1      2888 1.39608E+02 1.62000E+01 0.00000E+00
 -1      2889 9.73633E+01 2.39835E+01 0.00000E+00
 -1      2890 9.63730E+01 2.34653E+01 0.00000E+00
 -1      2891 1.02095E+02 2.52540E+01 0.00000E+00
 -1      2892 1.00929E+02 2.50512E+01 0.00000E+00
 -1      2893 9.09300E+00 1.68813E+01 0.00000E+00
 -1      2894 9.09300E+00 1.83563E+01 0.00000E+00
 -1      2895 1.03920E+01 1.90812E+01 0.00000E+00
 -1      2896 1.03920E+01 1.61437E+01 0.00000E+00
 -1      2897 9.09300E+00 3.15875E+01 0.00000E+00
 -1      2898 9.09300E+00 3.30625E+01 0.00000E+00
 -1      2899 1.39914E+02 4.09362E+01 0.00000E+00
 -1      2900 1.40928E+02 4.09655E+01 0.00000E+00
 -1      2901 1.39164E+02 3.96372E+01 0.00000E+00
 -1      2902 1.41192E+02 3.96958E+01 0.00000E+00
 -1      2903 9.50649E+01 2.26598E+01 0.00000E+00
 -1      2904 9.42423E+01 2.17671E+01 0.00000E+00
 -1      2905 1.11828E+02 2.20512E+01 0.00000E+00
 -1      2906 1.11015E+02 2.30881E+01 0.00000E+00
 -1      2907 1.14489E+02 1.74500E+01 0.00000E+00
 -1      2908 1.14269E+02 1.85559E+01 0.00000E+00
 -1      2909 1.15350E+02 1.70824E+01 0.00000E+00
 -1      2910 1.07422E+02 2.53160E+01 0.00000E+00
 -1      2911 1.06124E+02 2.53537E+01 0.00000E+00
 -1      2912 9.07440E+01 1.03166E+01 0.00000E+00
 -1      2913 9.13332E+01 9.19343E+00 0.00000E+00
 -1      2914 1.16338E+02 8.93450E+00 0.00000E+00
 -1      2915 1.03920E+01 3.37938E+01 0.00000E+00
 -1      2916 9.09300E+00 3.45313E+01 0.00000E+00
 -1      2917 9.09300E+00 3.60000E+01 0.00000E+00
 -1      2918 9.21591E+01 1.92391E+01 0.00000E+00
 -1      2919 1.03920E+01 2.49750E+01 0.00000E+00
 -1      2920 9.09300E+00 2.57000E+01 0.00000E+00
 -1      2921 9.09300E+00 2.71750E+01 0.00000E+00
 -1      2922 9.31545E+01 2.18088E+01 0.00000E+00
 -1      2923 9.09300E+00 2.86437E+01 0.00000E+00
 -1      2924 9.09300E+00 3.01187E+01 0.00000E+00
 -1      2925 1.03920E+01 3.08563E+01 0.00000E+00
 -1      2926 1.03920E+01 2.79188E+01 0.00000E+00
 -1      2927 9.05041E+01 1.39869E+01 0.00000E+00
 -1      2928 1.05602E+02 2.59922E+01 0.00000E+00
 -1      2929 1.02883E+02 2.58111E+01 0.00000E+00
 -1      2930 1.02153E+02 2.65546E+01 0.00000E+00
 -1      2931 1.03672E+02 2.63683E+01 0.00000E+00
 -1      2932 8.99036E+01 1.09397E+01 0.00000E+00
 -1      2933 1.16126E+02 1.21071E+01 0.00000E+00
 -1      2934 9.20146E+01 7.20457E+00 0.00000E+00
 -1      2935 1.15973E+02 1.47463E+01 0.00000E+00
 -1      2936 1.41192E+02 3.82207E+01 0.00000E+00
 -1      2937 2.20350E+01 9.20225E+00 0.00000E+00
 -1      2938 8.85168E+00 4.05347E+01 0.00000E+00
 -1      2939 1.02152E+01 4.07987E+01 0.00000E+00
 -1      2940 1.39407E+02 1.25375E+01 0.00000E+00
 -1      2941 1.17088E+02 1.02110E+01 0.00000E+00
 -1      2942 1.39893E+02 3.74832E+01 0.00000E+00
 -1      2943 1.19799E+02 9.74637E+00 0.00000E+00
 -1      2944 9.66450E+00 9.72612E+00 0.00000E+00
 -1      2945 1.14271E+02 1.95211E+01 0.00000E+00
 -1      2946 1.14272E+02 2.04863E+01 0.00000E+00
 -1      2947 1.15132E+02 1.91535E+01 0.00000E+00
 -1      2948 1.11089E+02 2.41773E+01 0.00000E+00
 -1      2949 9.12609E+01 1.65895E+01 0.00000E+00
 -1      2950 9.03855E+01 1.61586E+01 0.00000E+00
 -1      2951 9.09103E+01 1.74513E+01 0.00000E+00
 -1      2952 1.12787E+02 2.20022E+01 0.00000E+00
 -1      2953 1.09652E+01 3.94997E+01 0.00000E+00
 -1      2954 9.75866E+01 2.50627E+01 0.00000E+00
 -1      2955 1.09635E+01 1.04636E+01 0.00000E+00
 -1      2956 1.00073E+02 2.57452E+01 0.00000E+00
 -1      2957 9.50846E+01 2.38272E+01 0.00000E+00
 -1      2958 1.09397E+02 2.62476E+01 0.00000E+00
 -1      2959 1.08409E+02 2.57818E+01 0.00000E+00
 -1      2960 1.07790E+02 2.68253E+01 0.00000E+00
 -1      2961 9.12646E+01 8.50357E+00 0.00000E+00
 -1      2962 8.97757E+01 1.47914E+01 0.00000E+00
 -1      2963 8.95437E+01 1.34816E+01 0.00000E+00
 -1      2964 1.16910E+01 1.24625E+01 0.00000E+00
 -1      2965 1.16910E+01 1.39375E+01 0.00000E+00
 -1      2966 9.13575E+01 2.01896E+01 0.00000E+00
 -1      2967 9.09841E+01 1.88328E+01 0.00000E+00
 -1      2968 3.17850E+01 1.05013E+01 0.00000E+00
 -1      2969 3.02850E+01 1.05013E+01 0.00000E+00
 -1      2970 9.78076E+01 2.63210E+01 0.00000E+00
 -1      2971 9.66138E+01 2.58910E+01 0.00000E+00
 -1      2972 1.59000E+01 3.83090E+01 0.00000E+00
 -1      2973 1.74000E+01 3.83090E+01 0.00000E+00
 -1      2974 1.89000E+01 3.83090E+01 0.00000E+00
 -1      2975 2.04000E+01 3.83090E+01 0.00000E+00
 -1      2976 1.81500E+01 3.70100E+01 0.00000E+00
 -1      2977 2.19000E+01 3.83090E+01 0.00000E+00
 -1      2978 2.34000E+01 3.83090E+01 0.00000E+00
 -1      2979 2.11500E+01 3.70100E+01 0.00000E+00
 -1      2980 2.49000E+01 3.83090E+01 0.00000E+00
 -1      2981 2.64000E+01 3.83090E+01 0.00000E+00
 -1      2982 2.41500E+01 3.70100E+01 0.00000E+00
 -1      2983 2.79000E+01 3.83090E+01 0.00000E+00
 -1      2984 2.94000E+01 3.83090E+01 0.00000E+00
 -1      2985 2.71500E+01 3.70100E+01 0.00000E+00
 -1      2986 3.09000E+01 3.83090E+01 0.00000E+00
 -1      2987 3.24000E+01 3.83090E+01 0.00000E+00
 -1      2988 3.01500E+01 3.70100E+01 0.00000E+00
 -1      2989 3.39000E+01 3.83090E+01 0.00000E+00
 -1      2990 3.54000E+01 3.83090E+01 0.00000E+00
 -1      2991 3.31500E+01 3.70100E+01 0.00000E+00
 -1      2992 3.69000E+01 3.83090E+01 0.00000E+00
 -1      2993 3.84000E+01 3.83090E+01 0.00000E+00
 -1      2994 3.61500E+01 3.70100E+01 0.00000E+00
 -1      2995 3.99000E+01 3.83090E+01 0.00000E+00
 -1      2996 4.14000E+01 3.83090E+01 0.00000E+00
 -1      2997 3.91500E+01 3.70100E+01 0.00000E+00
 -1      2998 4.29000E+01 3.83090E+01 0.00000E+00
 -1      2999 4.44000E+01 3.83090E+01 0.00000E+00
 -1      3000 4.21500E+01 3.70100E+01 0.00000E+00
 -1      3001 4.59000E+01 3.83090E+01 0.00000E+00
 -1      3002 4.74000E+01 3.83090E+01 0.00000E+00
 -1      3003 4.51500E+01 3.70100E+01 0.00000E+00
 -1      3004 4.89000E+01 3.83090E+01 0.00000E+00
 -1      3005 5.04000E+01 3.83090E+01 0.00000E+00
 -1      3006 4.81500E+01 3.70100E+01 0.00000E+00
 -1      3007 5.19000E+01 3.83090E+01 0.00000E+00
 -1      3008 5.34000E+01 3.83090E+01 0.00000E+00
 -1      3009 5.11500E+01 3.70100E+01 0.00000E+00
 -1      3010 5.49000E+01 3.83090E+01 0.00000E+00
 -1      3011 5.64000E+01 3.83090E+01 0.00000E+00
 -1      3012 5.41500E+01 3.70100E+01 0.00000E+00
 -1      3013 5.79000E+01 3.83090E+01 0.00000E+00
 -1      3014 5.94000E+01 3.83090E+01 0.00000E+00
 -1      3015 5.71500E+01 3.70100E+01 0.00000E+00
 -1      3016 6.09000E+01 3.83090E+01 0.00000E+00
 -1      3017 6.24000E+01 3.83090E+01 0.00000E+00
 -1      3018 6.01500E+01 3.70100E+01 0.00000E+00
 -1      3019 6.39000E+01 3.83090E+01 0.00000E+00
 -1      3020 6.54000E+01 3.83090E+01 0.00000E+00
 -1      3021 6.31500E+01 3.70100E+01 0.00000E+00
 -1      3022 6.69000E+01 3.83090E+01 0.00000E+00
 -1      3023 6.84000E+01 3.83090E+01 0.00000E+00
 -1      3024 6.61500E+01 3.70100E+01 0.00000E+00
 -1      3025 6.99000E+01 3.83090E+01 0.00000E+00
 -1      3026 7.14000E+01 3.83090E+01 0.00000E+00
 -1      3027 6.91500E+01 3.70100E+01 0.00000E+00
 -1      3028 7.29000E+01 3.83090E+01 0.00000E+00
 -1      3029 7.44000E+01 3.83090E+01 0.00000E+00
 -1      3030 7.21500E+01 3.70100E+01 0.00000E+00
 -1      3031 7.59000E+01 3.83090E+01 0.00000E+00
 -1      3032 7.74000E+01 3.83090E+01 0.00000E+00
 -1      3033 7.51500E+01 3.70100E+01 0.00000E+00
 -1      3034 7.89000E+01 3.83090E+01 0.00000E+00
 -1      3035 8.04000E+01 3.83090E+01 0.00000E+00
 -1      3036 7.81500E+01 3.70100E+01 0.00000E+00
 -1      3037 8.19000E+01 3.83090E+01 0.00000E+00
 -1      3038 8.34000E+01 3.83090E+01 0.00000E+00
 -1      3039 8.11500E+01 3.70100E+01 0.00000E+00
 -1      3040 8.49000E+01 3.83090E+01 0.00000E+00
 -1      3041 8.64000E+01 3.83090E+01 0.00000E+00
 -1      3042 8.41500E+01 3.70100E+01 0.00000E+00
 -1      3043 8.79000E+01 3.83090E+01 0.00000E+00
 -1      3044 8.94000E+01 3.83090E+01 0.00000E+00
 -1      3045 8.71500E+01 3.70100E+01 0.00000E+00
 -1      3046 9.09000E+01 3.83090E+01 0.00000E+00
 -1      3047 9.24000E+01 3.83090E+01 0.00000E+00
 -1      3048 9.01500E+01 3.70100E+01 0.00000E+00
 -1      3049 9.39000E+01 3.83090E+01 0.00000E+00
 -1      3050 9.54000E+01 3.83090E+01 0.00000E+00
 -1      3051 9.31500E+01 3.70100E+01 0.00000E+00
 -1      3052 9.69000E+01 3.83090E+01 0.00000E+00
 -1      3053 9.84000E+01 3.83090E+01 0.00000E+00
 -1      3054 9.61500E+01 3.70100E+01 0.00000E+00
 -1      3055 9.99000E+01 3.83090E+01 0.00000E+00
 -1      3056 1.01400E+02 3.83090E+01 0.00000E+00
 -1      3057 9.91500E+01 3.70100E+01 0.00000E+00
 -1      3058 1.02900E+02 3.83090E+01 0.00000E+00
 -1      3059 1.04400E+02 3.83090E+01 0.00000E+00
 -1      3060 1.02150E+02 3.70100E+01 0.00000E+00
 -1      3061 1.05900E+02 3.83090E+01 0.00000E+00
 -1      3062 1.07400E+02 3.83090E+01 0.00000E+00
 -1      3063 1.05150E+02 3.70100E+01 0.00000E+00
 -1      3064 1.08900E+02 3.83090E+01 0.00000E+00
 -1      3065 1.10400E+02 3.83090E+01 0.00000E+00
 -1      3066 1.08150E+02 3.70100E+01 0.00000E+00
 -1      3067 1.11900E+02 3.83090E+01 0.00000E+00
 -1      3068 1.13400E+02 3.83090E+01 0.00000E+00
 -1      3069 1.11150E+02 3.70100E+01 0.00000E+00
 -1      3070 1.14900E+02 3.83090E+01 0.00000E+00
 -1      3071 1.16400E+02 3.83090E+01 0.00000E+00
 -1      3072 1.14150E+02 3.70100E+01 0.00000E+00
 -1      3073 1.17900E+02 3.83090E+01 0.00000E+00
 -1      3074 1.19400E+02 3.83090E+01 0.00000E+00
 -1      3075 1.17150E+02 3.70100E+01 0.00000E+00
 -1      3076 1.20900E+02 3.83090E+01 0.00000E+00
 -1      3077 1.22400E+02 3.83090E+01 0.00000E+00
 -1      3078 1.20150E+02 3.70100E+01 0.00000E+00
 -1      3079 1.23900E+02 3.83090E+01 0.00000E+00
 -1      3080 1.25400E+02 3.83090E+01 0.00000E+00
 -1      3081 1.23150E+02 3.70100E+01 0.00000E+00
 -1      3082 1.26900E+02 3.83090E+01 0.00000E+00
 -1      3083 1.28400E+02 3.83090E+01 0.00000E+00
 -1      3084 1.26150E+02 3.70100E+01 0.00000E+00
 -1      3085 1.29900E+02 3.83090E+01 0.00000E+00
 -1      3086 1.31400E+02 3.83090E+01 0.00000E+00
 -1      3087 1.29150E+02 3.70100E+01 0.00000E+00
 -1      3088 1.32900E+02 3.83090E+01 0.00000E+00
 -1      3089 1.34400E+02 3.83090E+01 0.00000E+00
 -1      3090 1.32150E+02 3.70100E+01 0.00000E+00
 -1      3091 1.35900E+02 3.83090E+01 0.00000E+00
 -1      3092 1.37400E+02 3.83090E+01 0.00000E+00
 -1      3093 1.35150E+02 3.70100E+01 0.00000E+00
 -1      3094 1.38309E+02 2.86750E+01 0.00000E+00
 -1      3095 1.38309E+02 2.72250E+01 0.00000E+00
 -1      3096 1.32549E+02 1.10679E+01 0.00000E+00
 -1      3097 1.31049E+02 1.10679E+01 0.00000E+00
 -1      3098 2.87850E+01 1.05013E+01 0.00000E+00
 -1      3099 2.72850E+01 1.05013E+01 0.00000E+00
 -1      3100 2.95350E+01 1.18003E+01 0.00000E+00
 -1      3101 3.77850E+01 1.05013E+01 0.00000E+00
 -1      3102 3.62850E+01 1.05013E+01 0.00000E+00
 -1      3103 4.07850E+01 1.05013E+01 0.00000E+00
 -1      3104 3.92850E+01 1.05013E+01 0.00000E+00
 -1      3105 3.85350E+01 1.18003E+01 0.00000E+00
 -1      3106 4.37850E+01 1.05013E+01 0.00000E+00
 -1      3107 4.22850E+01 1.05013E+01 0.00000E+00
 -1      3108 4.15350E+01 1.18003E+01 0.00000E+00
 -1      3109 4.67850E+01 1.05013E+01 0.00000E+00
 -1      3110 4.52850E+01 1.05013E+01 0.00000E+00
 -1      3111 4.45350E+01 1.18003E+01 0.00000E+00
 -1      3112 4.97850E+01 1.05013E+01 0.00000E+00
 -1      3113 4.82850E+01 1.05013E+01 0.00000E+00
 -1      3114 4.75350E+01 1.18003E+01 0.00000E+00
 -1      3115 5.27850E+01 1.05013E+01 0.00000E+00
 -1      3116 5.12850E+01 1.05013E+01 0.00000E+00
 -1      3117 5.05350E+01 1.18003E+01 0.00000E+00
 -1      3118 5.57850E+01 1.05013E+01 0.00000E+00
 -1      3119 5.42850E+01 1.05013E+01 0.00000E+00
 -1      3120 5.35350E+01 1.18003E+01 0.00000E+00
 -1      3121 5.87850E+01 1.05013E+01 0.00000E+00
 -1      3122 5.72850E+01 1.05013E+01 0.00000E+00
 -1      3123 5.65350E+01 1.18003E+01 0.00000E+00
 -1      3124 6.17850E+01 1.05013E+01 0.00000E+00
 -1      3125 6.02850E+01 1.05013E+01 0.00000E+00
 -1      3126 5.95350E+01 1.18003E+01 0.00000E+00
 -1      3127 6.47850E+01 1.05013E+01 0.00000E+00
 -1      3128 6.32850E+01 1.05013E+01 0.00000E+00
 -1      3129 6.25350E+01 1.18003E+01 0.00000E+00
 -1      3130 6.77850E+01 1.05013E+01 0.00000E+00
 -1      3131 6.62850E+01 1.05013E+01 0.00000E+00
 -1      3132 6.55350E+01 1.18003E+01 0.00000E+00
 -1      3133 7.07850E+01 1.05013E+01 0.00000E+00
 -1      3134 6.92850E+01 1.05013E+01 0.00000E+00
 -1      3135 6.85350E+01 1.18003E+01 0.00000E+00
 -1      3136 7.37850E+01 1.05013E+01 0.00000E+00
 -1      3137 7.22850E+01 1.05013E+01 0.00000E+00
 -1      3138 7.15350E+01 1.18003E+01 0.00000E+00
 -1      3139 7.67850E+01 1.05013E+01 0.00000E+00
 -1      3140 7.52850E+01 1.05013E+01 0.00000E+00
 -1      3141 7.45350E+01 1.18003E+01 0.00000E+00
 -1      3142 7.97850E+01 1.05013E+01 0.00000E+00
 -1      3143 7.82850E+01 1.05013E+01 0.00000E+00
 -1      3144 7.75350E+01 1.18003E+01 0.00000E+00
 -1      3145 8.27850E+01 1.05013E+01 0.00000E+00
 -1      3146 8.12850E+01 1.05013E+01 0.00000E+00
 -1      3147 8.05350E+01 1.18003E+01 0.00000E+00
 -1      3148 8.57850E+01 1.05013E+01 0.00000E+00
 -1      3149 8.42850E+01 1.05013E+01 0.00000E+00
 -1      3150 8.35350E+01 1.18003E+01 0.00000E+00
 -1      3151 8.85943E+01 1.07205E+01 0.00000E+00
 -1      3152 8.70943E+01 1.07205E+01 0.00000E+00
 -1      3153 8.63443E+01 1.20195E+01 0.00000E+00
 -1      3154 8.89628E+01 1.24579E+01 0.00000E+00
 -1      3155 1.20530E+02 1.10340E+01 0.00000E+00
 -1      3156 1.19030E+02 1.10115E+01 0.00000E+00
 -1      3157 1.38309E+02 2.57500E+01 0.00000E+00
 -1      3158 1.38309E+02 2.42750E+01 0.00000E+00
 -1      3159 1.37010E+02 2.64750E+01 0.00000E+00
 -1      3160 1.06073E+02 2.71030E+01 0.00000E+00
 -1      3161 1.04872E+02 2.67356E+01 0.00000E+00
 -1      3162 1.04142E+02 2.74791E+01 0.00000E+00
 -1      3163 8.78718E+00 3.80644E+01 0.00000E+00
 -1      3164 1.29549E+02 1.10679E+01 0.00000E+00
 -1      3165 1.28049E+02 1.10679E+01 0.00000E+00
 -1      3166 1.30299E+02 1.23669E+01 0.00000E+00
 -1      3167 1.38131E+02 1.46110E+01 0.00000E+00
 -1      3168 1.37930E+02 1.23985E+01 0.00000E+00
 -1      3169 1.36454E+02 1.22594E+01 0.00000E+00
 -1      3170 1.26549E+02 1.10679E+01 0.00000E+00
 -1      3171 1.25049E+02 1.10679E+01 0.00000E+00
 -1      3172 1.27299E+02 1.23669E+01 0.00000E+00
 -1      3173 1.38309E+02 2.28000E+01 0.00000E+00
 -1      3174 1.38309E+02 2.13250E+01 0.00000E+00
 -1      3175 1.37010E+02 2.35250E+01 0.00000E+00
 -1      3176 1.16465E+02 1.67297E+01 0.00000E+00
 -1      3177 1.16245E+02 1.78356E+01 0.00000E+00
 -1      3178 1.17271E+02 1.42692E+01 0.00000E+00
 -1      3179 1.16868E+02 1.54994E+01 0.00000E+00
 -1      3180 1.17764E+02 1.62526E+01 0.00000E+00
 -1      3181 1.23549E+02 1.10679E+01 0.00000E+00
 -1      3182 1.22049E+02 1.10679E+01 0.00000E+00
 -1      3183 1.24299E+02 1.23669E+01 0.00000E+00
 -1      3184 1.38309E+02 1.98500E+01 0.00000E+00
 -1      3185 1.38309E+02 1.83750E+01 0.00000E+00
 -1      3186 1.37010E+02 2.05750E+01 0.00000E+00
 -1      3187 1.38309E+02 3.16250E+01 0.00000E+00
 -1      3188 1.38309E+02 3.01500E+01 0.00000E+00
 -1      3189 1.37010E+02 2.94250E+01 0.00000E+00
 -1      3190 1.38309E+02 3.45750E+01 0.00000E+00
 -1      3191 1.38309E+02 3.31000E+01 0.00000E+00
 -1      3192 1.37010E+02 3.23750E+01 0.00000E+00
 -1      3193 2.27850E+01 1.05013E+01 0.00000E+00
 -1      3194 2.12850E+01 1.05013E+01 0.00000E+00
 -1      3195 1.16910E+01 2.12875E+01 0.00000E+00
 -1      3196 1.16910E+01 2.27625E+01 0.00000E+00
 -1      3197 1.14000E+02 2.19176E+01 0.00000E+00
 -1      3198 1.13375E+02 2.30660E+01 0.00000E+00
 -1      3199 9.24788E+01 2.29212E+01 0.00000E+00
 -1      3200 9.18568E+01 2.17084E+01 0.00000E+00
 -1      3201 2.57850E+01 1.05013E+01 0.00000E+00
 -1      3202 2.42850E+01 1.05013E+01 0.00000E+00
 -1      3203 2.65350E+01 1.18003E+01 0.00000E+00
 -1      3204 1.38220E+02 1.72180E+01 0.00000E+00
 -1      3205 1.38220E+02 1.57680E+01 0.00000E+00
 -1      3206 1.36743E+02 1.56290E+01 0.00000E+00
 -1      3207 1.36921E+02 1.79430E+01 0.00000E+00
 -1      3208 1.18184E+02 1.13157E+01 0.00000E+00
 -1      3209 1.16972E+02 1.18028E+01 0.00000E+00
 -1      3210 1.17222E+02 1.32118E+01 0.00000E+00
 -1      3211 1.18914E+02 1.26033E+01 0.00000E+00
 -1      3212 1.26488E+01 1.02017E+01 0.00000E+00
 -1      3213 1.20772E+01 1.14631E+01 0.00000E+00
 -1      3214 1.33763E+01 1.22006E+01 0.00000E+00
 -1      3215 1.41488E+01 1.02017E+01 0.00000E+00
 -1      3216 1.29000E+01 3.83090E+01 0.00000E+00
 -1      3217 1.44000E+01 3.83090E+01 0.00000E+00
 -1      3218 1.51500E+01 3.70100E+01 0.00000E+00
 -1      3219 9.51573E+01 2.51742E+01 0.00000E+00
 -1      3220 9.38491E+01 2.43687E+01 0.00000E+00
 -1      3221 3.47850E+01 1.05013E+01 0.00000E+00
 -1      3222 3.32850E+01 1.05013E+01 0.00000E+00
 -1      3223 3.25350E+01 1.18003E+01 0.00000E+00
 -1      3224 3.55350E+01 1.18003E+01 0.00000E+00
 -1      3225 1.12393E+02 2.44652E+01 0.00000E+00
 -1      3226 1.11319E+02 2.54920E+01 0.00000E+00
 -1      3227 1.00392E+02 2.68257E+01 0.00000E+00
 -1      3228 9.91000E+01 2.65734E+01 0.00000E+00
 -1      3229 9.81273E+01 2.74016E+01 0.00000E+00
 -1      3230 1.00862E+01 3.73269E+01 0.00000E+00
 -1      3231 1.16910E+01 2.42375E+01 0.00000E+00
 -1      3232 1.16910E+01 2.57125E+01 0.00000E+00
 -1      3233 1.29900E+01 2.35000E+01 0.00000E+00
 -1      3234 1.29900E+01 1.46687E+01 0.00000E+00
 -1      3235 1.16910E+01 1.54063E+01 0.00000E+00
 -1      3236 1.16910E+01 1.68750E+01 0.00000E+00
 -1      3237 9.01086E+01 1.84018E+01 0.00000E+00
 -1      3238 1.14861E+02 2.15501E+01 0.00000E+00
 -1      3239 1.12003E+02 2.68234E+01 0.00000E+00
 -1      3240 1.10700E+02 2.65355E+01 0.00000E+00
 -1      3241 1.10081E+02 2.75790E+01 0.00000E+00
 -1      3242 9.53783E+01 2.64325E+01 0.00000E+00
 -1      3243 1.21280E+02 1.23330E+01 0.00000E+00
 -1      3244 8.82344E+01 1.32624E+01 0.00000E+00
 -1      3245 1.16910E+01 3.30594E+01 0.00000E+00
 -1      3246 1.16910E+01 3.45281E+01 0.00000E+00
 -1      3247 1.35240E+02 1.17332E+01 0.00000E+00
 -1      3248 1.33763E+02 1.15942E+01 0.00000E+00
 -1      3249 1.33013E+02 1.28932E+01 0.00000E+00
 -1      3250 1.35441E+02 1.39457E+01 0.00000E+00
 -1      3251 1.17363E+02 1.84480E+01 0.00000E+00
 -1      3252 1.16247E+02 1.88008E+01 0.00000E+00
 -1      3253 1.16249E+02 1.97660E+01 0.00000E+00
 -1      3254 1.07060E+02 2.75688E+01 0.00000E+00
 -1      3255 1.06330E+02 2.83123E+01 0.00000E+00
 -1      3256 1.08047E+02 2.80346E+01 0.00000E+00
 -1      3257 1.18117E+02 1.39649E+01 0.00000E+00
 -1      3258 1.56488E+01 1.02017E+01 0.00000E+00
 -1      3259 1.52625E+01 1.12011E+01 0.00000E+00
 -1      3260 1.71488E+01 1.02017E+01 0.00000E+00
 -1      3261 1.38129E+02 3.61550E+01 0.00000E+00
 -1      3262 1.36830E+02 3.54300E+01 0.00000E+00
 -1      3263 2.35350E+01 1.18003E+01 0.00000E+00
 -1      3264 1.16910E+01 1.98188E+01 0.00000E+00
 -1      3265 1.29900E+01 2.05562E+01 0.00000E+00
 -1      3266 1.16910E+01 1.83500E+01 0.00000E+00
 -1      3267 9.25514E+01 2.42682E+01 0.00000E+00
 -1      3268 9.12537E+01 2.41678E+01 0.00000E+00
 -1      3269 9.26241E+01 2.56152E+01 0.00000E+00
 -1      3270 1.01969E+02 2.79400E+01 0.00000E+00
 -1      3271 1.01181E+02 2.73829E+01 0.00000E+00
 -1      3272 1.00208E+02 2.82111E+01 0.00000E+00
 -1      3273 1.13605E+02 2.43807E+01 0.00000E+00
 -1      3274 9.06817E+01 2.13020E+01 0.00000E+00
 -1      3275 1.99669E+01 1.03515E+01 0.00000E+00
 -1      3276 1.84669E+01 1.03515E+01 0.00000E+00
 -1      3277 1.80806E+01 1.13509E+01 0.00000E+00
 -1      3278 2.07169E+01 1.16505E+01 0.00000E+00
 -1      3279 8.94251E+01 1.56532E+01 0.00000E+00
 -1      3280 8.84647E+01 1.51478E+01 0.00000E+00
 -1      3281 8.90744E+01 1.65150E+01 0.00000E+00
 -1      3282 1.38879E+02 3.74540E+01 0.00000E+00
 -1      3283 1.16910E+01 3.01219E+01 0.00000E+00
 -1      3284 1.16910E+01 3.15906E+01 0.00000E+00
 -1      3285 1.29900E+01 3.23250E+01 0.00000E+00
 -1      3286 1.12710E+01 3.74352E+01 0.00000E+00
 -1      3287 1.20210E+01 3.61362E+01 0.00000E+00
 -1      3288 1.16910E+01 2.71844E+01 0.00000E+00
 -1      3289 1.16910E+01 2.86531E+01 0.00000E+00
 -1      3290 1.29900E+01 2.93875E+01 0.00000E+00
 -1      3291 1.04370E+02 2.86747E+01 0.00000E+00
 -1      3292 1.03169E+02 2.83074E+01 0.00000E+00
 -1      3293 1.02197E+02 2.91356E+01 0.00000E+00
 -1      3294 2.04000E+01 3.57110E+01 0.00000E+00
 -1      3295 2.19000E+01 3.57110E+01 0.00000E+00
 -1      3296 2.34000E+01 3.57110E+01 0.00000E+00
 -1      3297 2.49000E+01 3.57110E+01 0.00000E+00
 -1      3298 2.26500E+01 3.44120E+01 0.00000E+00
 -1      3299 2.64000E+01 3.57110E+01 0.00000E+00
 -1      3300 2.79000E+01 3.57110E+01 0.00000E+00
 -1      3301 2.56500E+01 3.44120E+01 0.00000E+00
 -1      3302 2.94000E+01 3.57110E+01 0.00000E+00
 -1      3303 3.09000E+01 3.57110E+01 0.00000E+00
 -1      3304 2.86500E+01 3.44120E+01 0.00000E+00
 -1      3305 3.24000E+01 3.57110E+01 0.00000E+00
 -1      3306 3.39000E+01 3.57110E+01 0.00000E+00
 -1      3307 3.16500E+01 3.44120E+01 0.00000E+00
 -1      3308 3.54000E+01 3.57110E+01 0.00000E+00
 -1      3309 3.69000E+01 3.57110E+01 0.00000E+00
 -1      3310 3.46500E+01 3.44120E+01 0.00000E+00
 -1      3311 3.84000E+01 3.57110E+01 0.00000E+00
 -1      3312 3.99000E+01 3.57110E+01 0.00000E+00
 -1      3313 3.76500E+01 3.44120E+01 0.00000E+00
 -1      3314 4.14000E+01 3.57110E+01 0.00000E+00
 -1      3315 4.29000E+01 3.57110E+01 0.00000E+00
 -1      3316 4.06500E+01 3.44120E+01 0.00000E+00
 -1      3317 4.44000E+01 3.57110E+01 0.00000E+00
 -1      3318 4.59000E+01 3.57110E+01 0.00000E+00
 -1      3319 4.36500E+01 3.44120E+01 0.00000E+00
 -1      3320 4.74000E+01 3.57110E+01 0.00000E+00
 -1      3321 4.89000E+01 3.57110E+01 0.00000E+00
 -1      3322 4.66500E+01 3.44120E+01 0.00000E+00
 -1      3323 5.04000E+01 3.57110E+01 0.00000E+00
 -1      3324 5.19000E+01 3.57110E+01 0.00000E+00
 -1      3325 4.96500E+01 3.44120E+01 0.00000E+00
 -1      3326 5.34000E+01 3.57110E+01 0.00000E+00
 -1      3327 5.49000E+01 3.57110E+01 0.00000E+00
 -1      3328 5.26500E+01 3.44120E+01 0.00000E+00
 -1      3329 5.64000E+01 3.57110E+01 0.00000E+00
 -1      3330 5.79000E+01 3.57110E+01 0.00000E+00
 -1      3331 5.56500E+01 3.44120E+01 0.00000E+00
 -1      3332 5.94000E+01 3.57110E+01 0.00000E+00
 -1      3333 6.09000E+01 3.57110E+01 0.00000E+00
 -1      3334 5.86500E+01 3.44120E+01 0.00000E+00
 -1      3335 6.24000E+01 3.57110E+01 0.00000E+00
 -1      3336 6.39000E+01 3.57110E+01 0.00000E+00
 -1      3337 6.16500E+01 3.44120E+01 0.00000E+00
 -1      3338 6.54000E+01 3.57110E+01 0.00000E+00
 -1      3339 6.69000E+01 3.57110E+01 0.00000E+00
 -1      3340 6.46500E+01 3.44120E+01 0.00000E+00
 -1      3341 6.84000E+01 3.57110E+01 0.00000E+00
 -1      3342 6.99000E+01 3.57110E+01 0.00000E+00
 -1      3343 6.76500E+01 3.44120E+01 0.00000E+00
 -1      3344 7.14000E+01 3.57110E+01 0.00000E+00
 -1      3345 7.29000E+01 3.57110E+01 0.00000E+00
 -1      3346 7.06500E+01 3.44120E+01 0.00000E+00
 -1      3347 7.44000E+01 3.57110E+01 0.00000E+00
 -1      3348 7.59000E+01 3.57110E+01 0.00000E+00
 -1      3349 7.36500E+01 3.44120E+01 0.00000E+00
 -1      3350 7.74000E+01 3.57110E+01 0.00000E+00
 -1      3351 7.89000E+01 3.57110E+01 0.00000E+00
 -1      3352 7.66500E+01 3.44120E+01 0.00000E+00
 -1      3353 8.04000E+01 3.57110E+01 0.00000E+00
 -1      3354 8.19000E+01 3.57110E+01 0.00000E+00
 -1      3355 7.96500E+01 3.44120E+01 0.00000E+00
 -1      3356 8.34000E+01 3.57110E+01 0.00000E+00
 -1      3357 8.49000E+01 3.57110E+01 0.00000E+00
 -1      3358 8.26500E+01 3.44120E+01 0.00000E+00
 -1      3359 8.64000E+01 3.57110E+01 0.00000E+00
 -1      3360 8.79000E+01 3.57110E+01 0.00000E+00
 -1      3361 8.56500E+01 3.44120E+01 0.00000E+00
 -1      3362 8.94000E+01 3.57110E+01 0.00000E+00
 -1      3363 9.09000E+01 3.57110E+01 0.00000E+00
 -1      3364 8.86500E+01 3.44120E+01 0.00000E+00
 -1      3365 9.24000E+01 3.57110E+01 0.00000E+00
 -1      3366 9.39000E+01 3.57110E+01 0.00000E+00
 -1      3367 9.16500E+01 3.44120E+01 0.00000E+00
 -1      3368 9.54000E+01 3.57110E+01 0.00000E+00
 -1      3369 9.69000E+01 3.57110E+01 0.00000E+00
 -1      3370 9.46500E+01 3.44120E+01 0.00000E+00
 -1      3371 9.84000E+01 3.57110E+01 0.00000E+00
 -1      3372 9.99000E+01 3.57110E+01 0.00000E+00
 -1      3373 9.76500E+01 3.44120E+01 0.00000E+00
 -1      3374 1.01400E+02 3.57110E+01 0.00000E+00
 -1      3375 1.02900E+02 3.57110E+01 0.00000E+00
 -1      3376 1.00650E+02 3.44120E+01 0.00000E+00
 -1      3377 1.04400E+02 3.57110E+01 0.00000E+00
 -1      3378 1.05900E+02 3.57110E+01 0.00000E+00
 -1      3379 1.03650E+02 3.44120E+01 0.00000E+00
 -1      3380 1.07400E+02 3.57110E+01 0.00000E+00
 -1      3381 1.08900E+02 3.57110E+01 0.00000E+00
 -1      3382 1.06650E+02 3.44120E+01 0.00000E+00
 -1      3383 1.10400E+02 3.57110E+01 0.00000E+00
 -1      3384 1.11900E+02 3.57110E+01 0.00000E+00
 -1      3385 1.09650E+02 3.44120E+01 0.00000E+00
 -1      3386 1.13400E+02 3.57110E+01 0.00000E+00
 -1      3387 1.14900E+02 3.57110E+01 0.00000E+00
 -1      3388 1.12650E+02 3.44120E+01 0.00000E+00
 -1      3389 1.16400E+02 3.57110E+01 0.00000E+00
 -1      3390 1.17900E+02 3.57110E+01 0.00000E+00
 -1      3391 1.15650E+02 3.44120E+01 0.00000E+00
 -1      3392 1.19400E+02 3.57110E+01 0.00000E+00
 -1      3393 1.20900E+02 3.57110E+01 0.00000E+00
 -1      3394 1.18650E+02 3.44120E+01 0.00000E+00
 -1      3395 1.22400E+02 3.57110E+01 0.00000E+00
 -1      3396 1.23900E+02 3.57110E+01 0.00000E+00
 -1      3397 1.21650E+02 3.44120E+01 0.00000E+00
 -1      3398 1.25400E+02 3.57110E+01 0.00000E+00
 -1      3399 1.26900E+02 3.57110E+01 0.00000E+00
 -1      3400 1.24650E+02 3.44120E+01 0.00000E+00
 -1      3401 1.28400E+02 3.57110E+01 0.00000E+00
 -1      3402 1.29900E+02 3.57110E+01 0.00000E+00
 -1      3403 1.27650E+02 3.44120E+01 0.00000E+00
 -1      3404 1.31400E+02 3.57110E+01 0.00000E+00
 -1      3405 1.32900E+02 3.57110E+01 0.00000E+00
 -1      3406 1.30650E+02 3.44120E+01 0.00000E+00
 -1      3407 1.34115E+02 3.55705E+01 0.00000E+00
 -1      3408 1.35615E+02 3.55705E+01 0.00000E+00
 -1      3409 1.35795E+02 3.39905E+01 0.00000E+00
 -1      3410 1.33365E+02 3.42715E+01 0.00000E+00
 -1      3411 1.35795E+02 3.25155E+01 0.00000E+00
 -1      3412 1.35795E+02 3.10405E+01 0.00000E+00
 -1      3413 1.34580E+02 3.26560E+01 0.00000E+00
 -1      3414 4.22850E+01 1.30992E+01 0.00000E+00
 -1      3415 4.07850E+01 1.30992E+01 0.00000E+00
 -1      3416 3.92850E+01 1.30992E+01 0.00000E+00
 -1      3417 3.77850E+01 1.30992E+01 0.00000E+00
 -1      3418 4.00350E+01 1.43982E+01 0.00000E+00
 -1      3419 4.82850E+01 1.30992E+01 0.00000E+00
 -1      3420 4.67850E+01 1.30992E+01 0.00000E+00
 -1      3421 5.12850E+01 1.30992E+01 0.00000E+00
 -1      3422 4.97850E+01 1.30992E+01 0.00000E+00
 -1      3423 4.90350E+01 1.43982E+01 0.00000E+00
 -1      3424 5.42850E+01 1.30992E+01 0.00000E+00
 -1      3425 5.27850E+01 1.30992E+01 0.00000E+00
 -1      3426 5.20350E+01 1.43982E+01 0.00000E+00
 -1      3427 5.72850E+01 1.30992E+01 0.00000E+00
 -1      3428 5.57850E+01 1.30992E+01 0.00000E+00
 -1      3429 5.50350E+01 1.43982E+01 0.00000E+00
 -1      3430 6.02850E+01 1.30992E+01 0.00000E+00
 -1      3431 5.87850E+01 1.30992E+01 0.00000E+00
 -1      3432 5.80350E+01 1.43982E+01 0.00000E+00
 -1      3433 6.32850E+01 1.30992E+01 0.00000E+00
 -1      3434 6.17850E+01 1.30992E+01 0.00000E+00
 -1      3435 6.10350E+01 1.43982E+01 0.00000E+00
 -1      3436 6.62850E+01 1.30992E+01 0.00000E+00
 -1      3437 6.47850E+01 1.30992E+01 0.00000E+00
 -1      3438 6.40350E+01 1.43982E+01 0.00000E+00
 -1      3439 6.92850E+01 1.30992E+01 0.00000E+00
 -1      3440 6.77850E+01 1.30992E+01 0.00000E+00
 -1      3441 6.70350E+01 1.43982E+01 0.00000E+00
 -1      3442 7.22850E+01 1.30992E+01 0.00000E+00
 -1      3443 7.07850E+01 1.30992E+01 0.00000E+00
 -1      3444 7.00350E+01 1.43982E+01 0.00000E+00
 -1      3445 7.52850E+01 1.30992E+01 0.00000E+00
 -1      3446 7.37850E+01 1.30992E+01 0.00000E+00
 -1      3447 7.30350E+01 1.43982E+01 0.00000E+00
 -1      3448 7.82850E+01 1.30992E+01 0.00000E+00
 -1      3449 7.67850E+01 1.30992E+01 0.00000E+00
 -1      3450 7.60350E+01 1.43982E+01 0.00000E+00
 -1      3451 8.12850E+01 1.30992E+01 0.00000E+00
 -1      3452 7.97850E+01 1.30992E+01 0.00000E+00
 -1      3453 7.90350E+01 1.43982E+01 0.00000E+00
 -1      3454 8.42850E+01 1.30992E+01 0.00000E+00
 -1      3455 8.27850E+01 1.30992E+01 0.00000E+00
 -1      3456 8.20350E+01 1.43982E+01 0.00000E+00
 -1      3457 8.69144E+01 1.32904E+01 0.00000E+00
 -1      3458 8.56051E+01 1.30712E+01 0.00000E+00
 -1      3459 8.48551E+01 1.43702E+01 0.00000E+00
 -1      3460 8.74952E+01 1.43141E+01 0.00000E+00
 -1      3461 1.35711E+02 2.72125E+01 0.00000E+00
 -1      3462 1.35711E+02 2.57375E+01 0.00000E+00
 -1      3463 1.33200E+01 3.54019E+01 0.00000E+00
 -1      3464 1.31049E+02 1.36659E+01 0.00000E+00
 -1      3465 1.29549E+02 1.36659E+01 0.00000E+00
 -1      3466 1.19810E+02 1.33565E+01 0.00000E+00
 -1      3467 1.18963E+02 1.36607E+01 0.00000E+00
 -1      3468 1.19013E+02 1.47181E+01 0.00000E+00
 -1      3469 1.28049E+02 1.36659E+01 0.00000E+00
 -1      3470 1.26549E+02 1.36659E+01 0.00000E+00
 -1      3471 1.28799E+02 1.49649E+01 0.00000E+00
 -1      3472 1.35711E+02 2.42625E+01 0.00000E+00
 -1      3473 1.35711E+02 2.27875E+01 0.00000E+00
 -1      3474 1.34412E+02 2.50000E+01 0.00000E+00
 -1      3475 1.18860E+02 1.59304E+01 0.00000E+00
 -1      3476 1.18457E+02 1.71606E+01 0.00000E+00
 -1      3477 1.25049E+02 1.36659E+01 0.00000E+00
 -1      3478 1.23549E+02 1.36659E+01 0.00000E+00
 -1      3479 1.25799E+02 1.49649E+01 0.00000E+00
 -1      3480 8.92220E+01 1.92779E+01 0.00000E+00
 -1      3481 8.91482E+01 1.78964E+01 0.00000E+00
 -1      3482 8.81878E+01 1.73911E+01 0.00000E+00
 -1      3483 1.35711E+02 2.13125E+01 0.00000E+00
 -1      3484 1.35711E+02 1.98375E+01 0.00000E+00
 -1      3485 1.34412E+02 2.20500E+01 0.00000E+00
 -1      3486 2.42850E+01 1.30992E+01 0.00000E+00
 -1      3487 2.27850E+01 1.30992E+01 0.00000E+00
 -1      3488 4.52850E+01 1.30992E+01 0.00000E+00
 -1      3489 4.37850E+01 1.30992E+01 0.00000E+00
 -1      3490 4.30350E+01 1.43982E+01 0.00000E+00
 -1      3491 4.60350E+01 1.43982E+01 0.00000E+00
 -1      3492 2.72850E+01 1.30992E+01 0.00000E+00
 -1      3493 2.57850E+01 1.30992E+01 0.00000E+00
 -1      3494 2.50350E+01 1.43982E+01 0.00000E+00
 -1      3495 3.02850E+01 1.30992E+01 0.00000E+00
 -1      3496 2.87850E+01 1.30992E+01 0.00000E+00
 -1      3497 2.80350E+01 1.43982E+01 0.00000E+00
 -1      3498 1.15976E+02 2.11973E+01 0.00000E+00
 -1      3499 1.15704E+02 2.26287E+01 0.00000E+00
 -1      3500 1.17092E+02 2.08446E+01 0.00000E+00
 -1      3501 1.74000E+01 3.57110E+01 0.00000E+00
 -1      3502 1.89000E+01 3.57110E+01 0.00000E+00
 -1      3503 1.96500E+01 3.44120E+01 0.00000E+00
 -1      3504 9.55330E+01 2.79564E+01 0.00000E+00
 -1      3505 9.40765E+01 2.72396E+01 0.00000E+00
 -1      3506 1.46100E+01 3.55564E+01 0.00000E+00
 -1      3507 1.61100E+01 3.55564E+01 0.00000E+00
 -1      3508 1.68600E+01 3.42574E+01 0.00000E+00
 -1      3509 1.42800E+01 3.39483E+01 0.00000E+00
 -1      3510 1.21329E+02 1.33904E+01 0.00000E+00
 -1      3511 1.15141E+02 2.44148E+01 0.00000E+00
 -1      3512 1.14158E+02 2.58140E+01 0.00000E+00
 -1      3513 1.35753E+02 2.98640E+01 0.00000E+00
 -1      3514 1.35753E+02 2.83890E+01 0.00000E+00
 -1      3515 1.34454E+02 2.76515E+01 0.00000E+00
 -1      3516 1.34538E+02 3.00045E+01 0.00000E+00
 -1      3517 9.85610E+01 2.86162E+01 0.00000E+00
 -1      3518 9.72686E+01 2.83638E+01 0.00000E+00
 -1      3519 8.96974E+01 2.24671E+01 0.00000E+00
 -1      3520 8.91981E+01 2.09483E+01 0.00000E+00
 -1      3521 1.48763E+01 1.22006E+01 0.00000E+00
 -1      3522 1.44900E+01 1.32000E+01 0.00000E+00
 -1      3523 1.63762E+01 1.22006E+01 0.00000E+00
 -1      3524 1.44900E+01 1.46687E+01 0.00000E+00
 -1      3525 1.05357E+02 2.91405E+01 0.00000E+00
 -1      3526 1.04384E+02 2.99688E+01 0.00000E+00
 -1      3527 1.06345E+02 2.96063E+01 0.00000E+00
 -1      3528 1.13539E+02 2.68575E+01 0.00000E+00
 -1      3529 1.12920E+02 2.79011E+01 0.00000E+00
 -1      3530 1.15075E+02 2.68917E+01 0.00000E+00
 -1      3531 1.42890E+01 2.27625E+01 0.00000E+00
 -1      3532 1.42890E+01 2.42375E+01 0.00000E+00
 -1      3533 9.29335E+01 2.86631E+01 0.00000E+00
 -1      3534 9.27788E+01 2.71391E+01 0.00000E+00
 -1      3535 9.14811E+01 2.70387E+01 0.00000E+00
 -1      3536 9.59667E+01 2.91709E+01 0.00000E+00
 -1      3537 1.16257E+02 2.40620E+01 0.00000E+00
 -1      3538 1.35618E+02 1.62597E+01 0.00000E+00
 -1      3539 1.35529E+02 1.51027E+01 0.00000E+00
 -1      3540 1.34316E+02 1.45764E+01 0.00000E+00
 -1      3541 3.70350E+01 1.43982E+01 0.00000E+00
 -1      3542 3.62850E+01 1.30992E+01 0.00000E+00
 -1      3543 3.47850E+01 1.30992E+01 0.00000E+00
 -1      3544 9.93491E+01 2.91733E+01 0.00000E+00
 -1      3545 9.84904E+01 3.01355E+01 0.00000E+00
 -1      3546 1.00137E+02 2.97304E+01 0.00000E+00
 -1      3547 8.71446E+01 1.51759E+01 0.00000E+00
 -1      3548 1.29900E+01 2.64469E+01 0.00000E+00
 -1      3549 1.22079E+02 1.46894E+01 0.00000E+00
 -1      3550 1.33289E+02 1.43843E+01 0.00000E+00
 -1      3551 1.32075E+02 1.38580E+01 0.00000E+00
 -1      3552 1.31325E+02 1.51570E+01 0.00000E+00
 -1      3553 1.33378E+02 1.55413E+01 0.00000E+00
 -1      3554 1.09351E+02 2.83225E+01 0.00000E+00
 -1      3555 1.08620E+02 2.90660E+01 0.00000E+00
 -1      3556 1.10654E+02 2.86104E+01 0.00000E+00
 -1      3557 1.34323E+02 1.94180E+01 0.00000E+00
 -1      3558 1.35622E+02 1.86805E+01 0.00000E+00
 -1      3559 1.35533E+02 1.75235E+01 0.00000E+00
 -1      3560 1.19706E+02 1.56261E+01 0.00000E+00
 -1      3561 2.20350E+01 1.43983E+01 0.00000E+00
 -1      3562 2.12850E+01 1.30993E+01 0.00000E+00
 -1      3563 1.99669E+01 1.29495E+01 0.00000E+00
 -1      3564 1.19555E+02 1.78036E+01 0.00000E+00
 -1      3565 1.18459E+02 1.81258E+01 0.00000E+00
 -1      3566 1.18460E+02 1.90910E+01 0.00000E+00
 -1      3567 8.82376E+01 2.04430E+01 0.00000E+00
 -1      3568 1.29900E+01 1.76125E+01 0.00000E+00
 -1      3569 1.42800E+01 3.24796E+01 0.00000E+00
 -1      3570 1.55700E+01 3.26341E+01 0.00000E+00
 -1      3571 1.42800E+01 3.10108E+01 0.00000E+00
 -1      3572 3.17850E+01 1.30992E+01 0.00000E+00
 -1      3573 3.10350E+01 1.43982E+01 0.00000E+00
 -1      3574 3.32850E+01 1.30992E+01 0.00000E+00
 -1      3575 1.42890E+01 1.98250E+01 0.00000E+00
 -1      3576 1.42890E+01 2.12938E+01 0.00000E+00
 -1      3577 1.55880E+01 2.20313E+01 0.00000E+00
 -1      3578 8.98427E+01 2.51611E+01 0.00000E+00
 -1      3579 8.97700E+01 2.38141E+01 0.00000E+00
 -1      3580 8.82863E+01 2.34604E+01 0.00000E+00
 -1      3581 2.19000E+01 3.31130E+01 0.00000E+00
 -1      3582 2.34000E+01 3.31130E+01 0.00000E+00
 -1      3583 2.49000E+01 3.31130E+01 0.00000E+00
 -1      3584 2.64000E+01 3.31130E+01 0.00000E+00
 -1      3585 2.41500E+01 3.18140E+01 0.00000E+00
 -1      3586 2.79000E+01 3.31130E+01 0.00000E+00
 -1      3587 2.94000E+01 3.31130E+01 0.00000E+00
 -1      3588 2.71500E+01 3.18140E+01 0.00000E+00
 -1      3589 3.09000E+01 3.31130E+01 0.00000E+00
 -1      3590 3.24000E+01 3.31130E+01 0.00000E+00
 -1      3591 3.01500E+01 3.18140E+01 0.00000E+00
 -1      3592 3.39000E+01 3.31130E+01 0.00000E+00
 -1      3593 3.54000E+01 3.31130E+01 0.00000E+00
 -1      3594 3.31500E+01 3.18140E+01 0.00000E+00
 -1      3595 3.69000E+01 3.31130E+01 0.00000E+00
 -1      3596 3.84000E+01 3.31130E+01 0.00000E+00
 -1      3597 3.61500E+01 3.18140E+01 0.00000E+00
 -1      3598 3.99000E+01 3.31130E+01 0.00000E+00
 -1      3599 4.14000E+01 3.31130E+01 0.00000E+00
 -1      3600 3.91500E+01 3.18140E+01 0.00000E+00
 -1      3601 4.29000E+01 3.31130E+01 0.00000E+00
 -1      3602 4.44000E+01 3.31130E+01 0.00000E+00
 -1      3603 4.21500E+01 3.18140E+01 0.00000E+00
 -1      3604 4.59000E+01 3.31130E+01 0.00000E+00
 -1      3605 4.74000E+01 3.31130E+01 0.00000E+00
 -1      3606 4.51500E+01 3.18140E+01 0.00000E+00
 -1      3607 4.89000E+01 3.31130E+01 0.00000E+00
 -1      3608 5.04000E+01 3.31130E+01 0.00000E+00
 -1      3609 4.81500E+01 3.18140E+01 0.00000E+00
 -1      3610 5.19000E+01 3.31130E+01 0.00000E+00
 -1      3611 5.34000E+01 3.31130E+01 0.00000E+00
 -1      3612 5.11500E+01 3.18140E+01 0.00000E+00
 -1      3613 5.49000E+01 3.31130E+01 0.00000E+00
 -1      3614 5.64000E+01 3.31130E+01 0.00000E+00
 -1      3615 5.41500E+01 3.18140E+01 0.00000E+00
 -1      3616 5.79000E+01 3.31130E+01 0.00000E+00
 -1      3617 5.94000E+01 3.31130E+01 0.00000E+00
 -1      3618 5.71500E+01 3.18140E+01 0.00000E+00
 -1      3619 6.09000E+01 3.31130E+01 0.00000E+00
 -1      3620 6.24000E+01 3.31130E+01 0.00000E+00
 -1      3621 6.01500E+01 3.18140E+01 0.00000E+00
 -1      3622 6.39000E+01 3.31130E+01 0.00000E+00
 -1      3623 6.54000E+01 3.31130E+01 0.00000E+00
 -1      3624 6.31500E+01 3.18140E+01 0.00000E+00
 -1      3625 6.69000E+01 3.31130E+01 0.00000E+00
 -1      3626 6.84000E+01 3.31130E+01 0.00000E+00
 -1      3627 6.61500E+01 3.18140E+01 0.00000E+00
 -1      3628 6.99000E+01 3.31130E+01 0.00000E+00
 -1      3629 7.14000E+01 3.31130E+01 0.00000E+00
 -1      3630 6.91500E+01 3.18140E+01 0.00000E+00
 -1      3631 7.29000E+01 3.31130E+01 0.00000E+00
 -1      3632 7.44000E+01 3.31130E+01 0.00000E+00
 -1      3633 7.21500E+01 3.18140E+01 0.00000E+00
 -1      3634 7.59000E+01 3.31130E+01 0.00000E+00
 -1      3635 7.74000E+01 3.31130E+01 0.00000E+00
 -1      3636 7.51500E+01 3.18140E+01 0.00000E+00
 -1      3637 7.89000E+01 3.31130E+01 0.00000E+00
 -1      3638 8.04000E+01 3.31130E+01 0.00000E+00
 -1      3639 7.81500E+01 3.18140E+01 0.00000E+00
 -1      3640 8.19000E+01 3.31130E+01 0.00000E+00
 -1      3641 8.34000E+01 3.31130E+01 0.00000E+00
 -1      3642 8.11500E+01 3.18140E+01 0.00000E+00
 -1      3643 8.49000E+01 3.31130E+01 0.00000E+00
 -1      3644 8.64000E+01 3.31130E+01 0.00000E+00
 -1      3645 8.41500E+01 3.18140E+01 0.00000E+00
 -1      3646 8.79000E+01 3.31130E+01 0.00000E+00
 -1      3647 8.94000E+01 3.31130E+01 0.00000E+00
 -1      3648 8.71500E+01 3.18140E+01 0.00000E+00
 -1      3649 9.09000E+01 3.31130E+01 0.00000E+00
 -1      3650 9.24000E+01 3.31130E+01 0.00000E+00
 -1      3651 9.01500E+01 3.18140E+01 0.00000E+00
 -1      3652 9.39000E+01 3.31130E+01 0.00000E+00
 -1      3653 9.54000E+01 3.31130E+01 0.00000E+00
 -1      3654 9.31500E+01 3.18140E+01 0.00000E+00
 -1      3655 9.77143E+01 3.25523E+01 0.00000E+00
 -1      3656 9.92143E+01 3.25523E+01 0.00000E+00
 -1      3657 1.00714E+02 3.25523E+01 0.00000E+00
 -1      3658 1.02900E+02 3.31130E+01 0.00000E+00
 -1      3659 1.04400E+02 3.31130E+01 0.00000E+00
 -1      3660 1.05261E+02 3.24233E+01 0.00000E+00
 -1      3661 1.06761E+02 3.24233E+01 0.00000E+00
 -1      3662 1.09037E+02 3.18829E+01 0.00000E+00
 -1      3663 1.10537E+02 3.18829E+01 0.00000E+00
 -1      3664 1.14900E+02 3.31130E+01 0.00000E+00
 -1      3665 1.16400E+02 3.31130E+01 0.00000E+00
 -1      3666 1.17900E+02 3.31130E+01 0.00000E+00
 -1      3667 1.19400E+02 3.31130E+01 0.00000E+00
 -1      3668 1.17150E+02 3.18140E+01 0.00000E+00
 -1      3669 1.20900E+02 3.31130E+01 0.00000E+00
 -1      3670 1.22400E+02 3.31130E+01 0.00000E+00
 -1      3671 1.20150E+02 3.18140E+01 0.00000E+00
 -1      3672 1.23900E+02 3.31130E+01 0.00000E+00
 -1      3673 1.25400E+02 3.31130E+01 0.00000E+00
 -1      3674 1.23150E+02 3.18140E+01 0.00000E+00
 -1      3675 1.26900E+02 3.31130E+01 0.00000E+00
 -1      3676 1.28400E+02 3.31130E+01 0.00000E+00
 -1      3677 1.26150E+02 3.18140E+01 0.00000E+00
 -1      3678 1.29900E+02 3.31130E+01 0.00000E+00
 -1      3679 1.31400E+02 3.31130E+01 0.00000E+00
 -1      3680 1.29150E+02 3.18140E+01 0.00000E+00
 -1      3681 1.32383E+02 3.29548E+01 0.00000E+00
 -1      3682 1.33598E+02 3.28143E+01 0.00000E+00
 -1      3683 1.33598E+02 3.13393E+01 0.00000E+00
 -1      3684 1.31633E+02 3.16558E+01 0.00000E+00
 -1      3685 4.07850E+01 1.56973E+01 0.00000E+00
 -1      3686 3.92850E+01 1.56973E+01 0.00000E+00
 -1      3687 1.89000E+01 3.31130E+01 0.00000E+00
 -1      3688 2.04000E+01 3.31130E+01 0.00000E+00
 -1      3689 2.11500E+01 3.18140E+01 0.00000E+00
 -1      3690 5.27850E+01 1.56973E+01 0.00000E+00
 -1      3691 5.12850E+01 1.56973E+01 0.00000E+00
 -1      3692 4.97850E+01 1.56973E+01 0.00000E+00
 -1      3693 4.82850E+01 1.56973E+01 0.00000E+00
 -1      3694 5.05350E+01 1.69963E+01 0.00000E+00
 -1      3695 5.87850E+01 1.56973E+01 0.00000E+00
 -1      3696 5.72850E+01 1.56973E+01 0.00000E+00
 -1      3697 6.17850E+01 1.56973E+01 0.00000E+00
 -1      3698 6.02850E+01 1.56973E+01 0.00000E+00
 -1      3699 5.95350E+01 1.69963E+01 0.00000E+00
 -1      3700 6.47850E+01 1.56973E+01 0.00000E+00
 -1      3701 6.32850E+01 1.56973E+01 0.00000E+00
 -1      3702 6.25350E+01 1.69963E+01 0.00000E+00
 -1      3703 6.77850E+01 1.56973E+01 0.00000E+00
 -1      3704 6.62850E+01 1.56973E+01 0.00000E+00
 -1      3705 6.55350E+01 1.69963E+01 0.00000E+00
 -1      3706 7.07850E+01 1.56973E+01 0.00000E+00
 -1      3707 6.92850E+01 1.56973E+01 0.00000E+00
 -1      3708 6.85350E+01 1.69963E+01 0.00000E+00
 -1      3709 7.37850E+01 1.56973E+01 0.00000E+00
 -1      3710 7.22850E+01 1.56973E+01 0.00000E+00
 -1      3711 7.15350E+01 1.69963E+01 0.00000E+00
 -1      3712 7.67850E+01 1.56973E+01 0.00000E+00
 -1      3713 7.52850E+01 1.56973E+01 0.00000E+00
 -1      3714 7.45350E+01 1.69963E+01 0.00000E+00
 -1      3715 7.97850E+01 1.56973E+01 0.00000E+00
 -1      3716 7.82850E+01 1.56973E+01 0.00000E+00
 -1      3717 7.75350E+01 1.69963E+01 0.00000E+00
 -1      3718 8.27850E+01 1.56973E+01 0.00000E+00
 -1      3719 8.12850E+01 1.56973E+01 0.00000E+00
 -1      3720 8.05350E+01 1.69963E+01 0.00000E+00
 -1      3721 8.54252E+01 1.56412E+01 0.00000E+00
 -1      3722 8.41051E+01 1.56692E+01 0.00000E+00
 -1      3723 8.33551E+01 1.69682E+01 0.00000E+00
 -1      3724 1.55880E+01 2.49719E+01 0.00000E+00
 -1      3725 1.42890E+01 2.57094E+01 0.00000E+00
 -1      3726 1.42890E+01 2.71812E+01 0.00000E+00
 -1      3727 2.27850E+01 1.56973E+01 0.00000E+00
 -1      3728 2.12851E+01 1.56973E+01 0.00000E+00
 -1      3729 1.29549E+02 1.62639E+01 0.00000E+00
 -1      3730 1.28049E+02 1.62639E+01 0.00000E+00
 -1      3731 1.33113E+02 2.57375E+01 0.00000E+00
 -1      3732 1.33113E+02 2.42625E+01 0.00000E+00
 -1      3733 1.61488E+01 1.48625E+01 0.00000E+00
 -1      3734 1.46488E+01 1.63313E+01 0.00000E+00
 -1      3735 1.33113E+02 2.27875E+01 0.00000E+00
 -1      3736 1.33113E+02 2.13125E+01 0.00000E+00
 -1      3737 1.31814E+02 2.35250E+01 0.00000E+00
 -1      3738 2.87850E+01 1.56973E+01 0.00000E+00
 -1      3739 2.72850E+01 1.56973E+01 0.00000E+00
 -1      3740 9.61761E+01 3.06962E+01 0.00000E+00
 -1      3741 9.44406E+01 3.02887E+01 0.00000E+00
 -1      3742 1.18188E+02 2.05224E+01 0.00000E+00
 -1      3743 1.17915E+02 2.19537E+01 0.00000E+00
 -1      3744 1.19284E+02 2.02002E+01 0.00000E+00
 -1      3745 2.57850E+01 1.56973E+01 0.00000E+00
 -1      3746 2.42850E+01 1.56973E+01 0.00000E+00
 -1      3747 2.35350E+01 1.69963E+01 0.00000E+00
 -1      3748 2.65350E+01 1.69963E+01 0.00000E+00
 -1      3749 8.69493E+01 2.12599E+01 0.00000E+00
 -1      3750 8.69732E+01 1.95894E+01 0.00000E+00
 -1      3751 1.17756E+02 2.35524E+01 0.00000E+00
 -1      3752 1.17193E+02 2.53385E+01 0.00000E+00
 -1      3753 8.63946E+01 1.64749E+01 0.00000E+00
 -1      3754 1.26549E+02 1.62639E+01 0.00000E+00
 -1      3755 1.25049E+02 1.62639E+01 0.00000E+00
 -1      3756 1.27299E+02 1.75629E+01 0.00000E+00
 -1      3757 1.88306E+01 1.26499E+01 0.00000E+00
 -1      3758 1.75125E+01 1.25001E+01 0.00000E+00
 -1      3759 1.71263E+01 1.34996E+01 0.00000E+00
 -1      3760 1.93988E+01 1.40987E+01 0.00000E+00
 -1      3761 1.65900E+01 3.27963E+01 0.00000E+00
 -1      3762 1.78800E+01 3.29508E+01 0.00000E+00
 -1      3763 1.86300E+01 3.16518E+01 0.00000E+00
 -1      3764 1.65900E+01 3.13275E+01 0.00000E+00
 -1      3765 1.42845E+01 2.83617E+01 0.00000E+00
 -1      3766 1.42845E+01 2.98304E+01 0.00000E+00
 -1      3767 1.55745E+01 2.99850E+01 0.00000E+00
 -1      3768 1.55835E+01 2.76242E+01 0.00000E+00
 -1      3769 8.64684E+01 1.78563E+01 0.00000E+00
 -1      3770 5.57850E+01 1.56973E+01 0.00000E+00
 -1      3771 5.42850E+01 1.56973E+01 0.00000E+00
 -1      3772 5.65350E+01 1.69963E+01 0.00000E+00
 -1      3773 1.46488E+01 1.78063E+01 0.00000E+00
 -1      3774 1.16502E+02 2.70329E+01 0.00000E+00
 -1      3775 1.15882E+02 2.80764E+01 0.00000E+00
 -1      3776 8.70946E+01 2.39539E+01 0.00000E+00
 -1      3777 8.70220E+01 2.26069E+01 0.00000E+00
 -1      3778 8.57576E+01 2.17534E+01 0.00000E+00
 -1      3779 9.01521E+01 2.82089E+01 0.00000E+00
 -1      3780 8.99974E+01 2.66850E+01 0.00000E+00
 -1      3781 8.85137E+01 2.63313E+01 0.00000E+00
 -1      3782 1.33155E+02 2.69140E+01 0.00000E+00
 -1      3783 1.31856E+02 2.61765E+01 0.00000E+00
 -1      3784 1.33197E+02 2.80905E+01 0.00000E+00
 -1      3785 1.30575E+02 1.64560E+01 0.00000E+00
 -1      3786 1.29825E+02 1.77550E+01 0.00000E+00
 -1      3787 1.31602E+02 1.66482E+01 0.00000E+00
 -1      3788 1.01464E+02 3.12533E+01 0.00000E+00
 -1      3789 1.11493E+02 3.03123E+01 0.00000E+00
 -1      3790 1.12106E+02 3.28414E+01 0.00000E+00
 -1      3791 1.33555E+02 3.01628E+01 0.00000E+00
 -1      3792 1.13606E+02 3.28414E+01 0.00000E+00
 -1      3793 3.85350E+01 1.69963E+01 0.00000E+00
 -1      3794 3.77850E+01 1.56973E+01 0.00000E+00
 -1      3795 3.62850E+01 1.56973E+01 0.00000E+00
 -1      3796 1.34319E+02 1.69972E+01 0.00000E+00
 -1      3797 5.35350E+01 1.69963E+01 0.00000E+00
 -1      3798 1.02323E+02 3.02911E+01 0.00000E+00
 -1      3799 4.75350E+01 1.69963E+01 0.00000E+00
 -1      3800 4.67850E+01 1.56973E+01 0.00000E+00
 -1      3801 4.52850E+01 1.56973E+01 0.00000E+00
 -1      3802 8.51800E+01 1.86733E+01 0.00000E+00
 -1      3803 1.24319E+02 1.75516E+01 0.00000E+00
 -1      3804 1.23569E+02 1.62526E+01 0.00000E+00
 -1      3805 1.68870E+01 2.42359E+01 0.00000E+00
 -1      3806 1.68870E+01 2.57078E+01 0.00000E+00
 -1      3807 3.40350E+01 1.43982E+01 0.00000E+00
 -1      3808 1.14356E+02 3.15424E+01 0.00000E+00
 -1      3809 1.12223E+02 2.95689E+01 0.00000E+00
 -1      3810 1.72851E+01 1.51621E+01 0.00000E+00
 -1      3811 1.21348E+02 1.59771E+01 0.00000E+00
 -1      3812 1.31333E+02 1.99986E+01 0.00000E+00
 -1      3813 1.32632E+02 1.92611E+01 0.00000E+00
 -1      3814 3.02850E+01 1.56973E+01 0.00000E+00
 -1      3815 2.95350E+01 1.69963E+01 0.00000E+00
 -1      3816 3.17850E+01 1.56973E+01 0.00000E+00
 -1      3817 9.29406E+01 3.02887E+01 0.00000E+00
 -1      3818 2.08988E+01 1.66967E+01 0.00000E+00
 -1      3819 2.01488E+01 1.53977E+01 0.00000E+00
 -1      3820 1.90125E+01 1.50981E+01 0.00000E+00
 -1      3821 4.37850E+01 1.56973E+01 0.00000E+00
 -1      3822 4.22850E+01 1.56973E+01 0.00000E+00
 -1      3823 4.15350E+01 1.69963E+01 0.00000E+00
 -1      3824 4.45350E+01 1.69963E+01 0.00000E+00
 -1      3825 1.18852E+02 2.32302E+01 0.00000E+00
 -1      3826 1.59478E+01 1.85438E+01 0.00000E+00
 -1      3827 1.13759E+02 2.96030E+01 0.00000E+00
 -1      3828 1.18001E+02 2.65232E+01 0.00000E+00
 -1      3829 1.21195E+02 1.71894E+01 0.00000E+00
 -1      3830 9.69261E+01 3.19952E+01 0.00000E+00
 -1      3831 1.68870E+01 2.12984E+01 0.00000E+00
 -1      3832 1.68870E+01 2.27672E+01 0.00000E+00
 -1      3833 1.81860E+01 2.35031E+01 0.00000E+00
 -1      3834 1.21197E+02 1.81546E+01 0.00000E+00
 -1      3835 9.16429E+01 3.01883E+01 0.00000E+00
 -1      3836 1.07550E+02 3.00365E+01 0.00000E+00
 -1      3837 1.06577E+02 3.08647E+01 0.00000E+00
 -1      3838 1.04511E+02 3.11243E+01 0.00000E+00
 -1      3839 2.64000E+01 3.05150E+01 0.00000E+00
 -1      3840 2.79000E+01 3.05150E+01 0.00000E+00
 -1      3841 2.94000E+01 3.05150E+01 0.00000E+00
 -1      3842 3.09000E+01 3.05150E+01 0.00000E+00
 -1      3843 2.86500E+01 2.92160E+01 0.00000E+00
 -1      3844 3.24000E+01 3.05150E+01 0.00000E+00
 -1      3845 3.39000E+01 3.05150E+01 0.00000E+00
 -1      3846 3.16500E+01 2.92160E+01 0.00000E+00
 -1      3847 3.54000E+01 3.05150E+01 0.00000E+00
 -1      3848 3.69000E+01 3.05150E+01 0.00000E+00
 -1      3849 3.46500E+01 2.92160E+01 0.00000E+00
 -1      3850 3.84000E+01 3.05150E+01 0.00000E+00
 -1      3851 3.99000E+01 3.05150E+01 0.00000E+00
 -1      3852 3.76500E+01 2.92160E+01 0.00000E+00
 -1      3853 4.14000E+01 3.05150E+01 0.00000E+00
 -1      3854 4.29000E+01 3.05150E+01 0.00000E+00
 -1      3855 4.06500E+01 2.92160E+01 0.00000E+00
 -1      3856 4.44000E+01 3.05150E+01 0.00000E+00
 -1      3857 4.59000E+01 3.05150E+01 0.00000E+00
 -1      3858 4.36500E+01 2.92160E+01 0.00000E+00
 -1      3859 4.74000E+01 3.05150E+01 0.00000E+00
 -1      3860 4.89000E+01 3.05150E+01 0.00000E+00
 -1      3861 4.66500E+01 2.92160E+01 0.00000E+00
 -1      3862 5.04000E+01 3.05150E+01 0.00000E+00
 -1      3863 5.19000E+01 3.05150E+01 0.00000E+00
 -1      3864 4.96500E+01 2.92160E+01 0.00000E+00
 -1      3865 5.34000E+01 3.05150E+01 0.00000E+00
 -1      3866 5.49000E+01 3.05150E+01 0.00000E+00
 -1      3867 5.26500E+01 2.92160E+01 0.00000E+00
 -1      3868 5.64000E+01 3.05150E+01 0.00000E+00
 -1      3869 5.79000E+01 3.05150E+01 0.00000E+00
 -1      3870 5.56500E+01 2.92160E+01 0.00000E+00
 -1      3871 5.94000E+01 3.05150E+01 0.00000E+00
 -1      3872 6.09000E+01 3.05150E+01 0.00000E+00
 -1      3873 5.86500E+01 2.92160E+01 0.00000E+00
 -1      3874 6.24000E+01 3.05150E+01 0.00000E+00
 -1      3875 6.39000E+01 3.05150E+01 0.00000E+00
 -1      3876 6.16500E+01 2.92160E+01 0.00000E+00
 -1      3877 6.54000E+01 3.05150E+01 0.00000E+00
 -1      3878 6.69000E+01 3.05150E+01 0.00000E+00
 -1      3879 6.46500E+01 2.92160E+01 0.00000E+00
 -1      3880 6.84000E+01 3.05150E+01 0.00000E+00
 -1      3881 6.99000E+01 3.05150E+01 0.00000E+00
 -1      3882 6.76500E+01 2.92160E+01 0.00000E+00
 -1      3883 7.14000E+01 3.05150E+01 0.00000E+00
 -1      3884 7.29000E+01 3.05150E+01 0.00000E+00
 -1      3885 7.06500E+01 2.92160E+01 0.00000E+00
 -1      3886 7.44000E+01 3.05150E+01 0.00000E+00
 -1      3887 7.59000E+01 3.05150E+01 0.00000E+00
 -1      3888 7.36500E+01 2.92160E+01 0.00000E+00
 -1      3889 7.74000E+01 3.05150E+01 0.00000E+00
 -1      3890 7.89000E+01 3.05150E+01 0.00000E+00
 -1      3891 7.66500E+01 2.92160E+01 0.00000E+00
 -1      3892 8.04000E+01 3.05150E+01 0.00000E+00
 -1      3893 8.19000E+01 3.05150E+01 0.00000E+00
 -1      3894 7.96500E+01 2.92160E+01 0.00000E+00
 -1      3895 8.34000E+01 3.05150E+01 0.00000E+00
 -1      3896 8.49000E+01 3.05150E+01 0.00000E+00
 -1      3897 8.26500E+01 2.92160E+01 0.00000E+00
 -1      3898 8.71592E+01 2.98346E+01 0.00000E+00
 -1      3899 8.86592E+01 2.98346E+01 0.00000E+00
 -1      3900 9.01429E+01 3.01883E+01 0.00000E+00
 -1      3901 1.80351E+01 1.64611E+01 0.00000E+00
 -1      3902 1.31945E+02 3.05405E+01 0.00000E+00
 -1      3903 1.32885E+02 2.92057E+01 0.00000E+00
 -1      3904 1.31586E+02 2.84683E+01 0.00000E+00
 -1      3905 1.30962E+02 3.06987E+01 0.00000E+00
 -1      3906 1.19400E+02 3.05150E+01 0.00000E+00
 -1      3907 1.20900E+02 3.05150E+01 0.00000E+00
 -1      3908 1.22400E+02 3.05150E+01 0.00000E+00
 -1      3909 1.23900E+02 3.05150E+01 0.00000E+00
 -1      3910 1.21650E+02 2.92160E+01 0.00000E+00
 -1      3911 1.25400E+02 3.05150E+01 0.00000E+00
 -1      3912 1.26900E+02 3.05150E+01 0.00000E+00
 -1      3913 1.24650E+02 2.92160E+01 0.00000E+00
 -1      3914 1.28181E+02 3.06069E+01 0.00000E+00
 -1      3915 1.29681E+02 3.06069E+01 0.00000E+00
 -1      3916 1.29993E+02 2.94916E+01 0.00000E+00
 -1      3917 1.27431E+02 2.93079E+01 0.00000E+00
 -1      3918 2.04000E+01 3.05150E+01 0.00000E+00
 -1      3919 2.19000E+01 3.05150E+01 0.00000E+00
 -1      3920 1.33293E+02 1.68051E+01 0.00000E+00
 -1      3921 1.22465E+02 1.90430E+01 0.00000E+00
 -1      3922 1.20824E+02 1.96572E+01 0.00000E+00
 -1      3923 6.32850E+01 1.82952E+01 0.00000E+00
 -1      3924 6.17850E+01 1.82952E+01 0.00000E+00
 -1      3925 6.02850E+01 1.82952E+01 0.00000E+00
 -1      3926 5.87850E+01 1.82952E+01 0.00000E+00
 -1      3927 6.10350E+01 1.95942E+01 0.00000E+00
 -1      3928 6.92850E+01 1.82952E+01 0.00000E+00
 -1      3929 6.77850E+01 1.82952E+01 0.00000E+00
 -1      3930 7.22850E+01 1.82952E+01 0.00000E+00
 -1      3931 7.07850E+01 1.82952E+01 0.00000E+00
 -1      3932 7.00350E+01 1.95942E+01 0.00000E+00
 -1      3933 7.52850E+01 1.82952E+01 0.00000E+00
 -1      3934 7.37850E+01 1.82952E+01 0.00000E+00
 -1      3935 7.30350E+01 1.95942E+01 0.00000E+00
 -1      3936 7.82850E+01 1.82952E+01 0.00000E+00
 -1      3937 7.67850E+01 1.82952E+01 0.00000E+00
 -1      3938 7.60350E+01 1.95942E+01 0.00000E+00
 -1      3939 8.12850E+01 1.82952E+01 0.00000E+00
 -1      3940 7.97850E+01 1.82952E+01 0.00000E+00
 -1      3941 7.90350E+01 1.95942E+01 0.00000E+00
 -1      3942 8.38926E+01 1.84702E+01 0.00000E+00
 -1      3943 8.25725E+01 1.84983E+01 0.00000E+00
 -1      3944 8.18225E+01 1.97973E+01 0.00000E+00
 -1      3945 8.43974E+01 2.02033E+01 0.00000E+00
 -1      3946 1.25426E+02 1.90655E+01 0.00000E+00
 -1      3947 1.23946E+02 1.90542E+01 0.00000E+00
 -1      3948 1.23573E+02 2.05568E+01 0.00000E+00
 -1      3949 1.81815E+01 2.61523E+01 0.00000E+00
 -1      3950 1.68825E+01 2.68882E+01 0.00000E+00
 -1      3951 1.68780E+01 2.80686E+01 0.00000E+00
 -1      3952 3.47850E+01 1.56973E+01 0.00000E+00
 -1      3953 3.32850E+01 1.56973E+01 0.00000E+00
 -1      3954 3.25350E+01 1.69963E+01 0.00000E+00
 -1      3955 3.55350E+01 1.69963E+01 0.00000E+00
 -1      3956 6.62850E+01 1.82952E+01 0.00000E+00
 -1      3957 6.47850E+01 1.82952E+01 0.00000E+00
 -1      3958 6.40350E+01 1.95942E+01 0.00000E+00
 -1      3959 5.12850E+01 1.82952E+01 0.00000E+00
 -1      3960 4.97850E+01 1.82952E+01 0.00000E+00
 -1      3961 1.16480E+02 3.00158E+01 0.00000E+00
 -1      3962 1.17980E+02 3.00158E+01 0.00000E+00
 -1      3963 1.32543E+02 1.81041E+01 0.00000E+00
 -1      3964 1.15053E+02 2.98746E+01 0.00000E+00
 -1      3965 1.20224E+02 2.25599E+01 0.00000E+00
 -1      3966 1.20064E+02 2.41586E+01 0.00000E+00
 -1      3967 2.34000E+01 3.05150E+01 0.00000E+00
 -1      3968 2.49000E+01 3.05150E+01 0.00000E+00
 -1      3969 2.56500E+01 2.92160E+01 0.00000E+00
 -1      3970 2.26500E+01 2.92160E+01 0.00000E+00
 -1      3971 1.19421E+02 2.70224E+01 0.00000E+00
 -1      3972 1.18730E+02 2.87168E+01 0.00000E+00
 -1      3973 1.76409E+01 1.78704E+01 0.00000E+00
 -1      3974 1.72811E+01 1.98891E+01 0.00000E+00
 -1      3975 1.85801E+01 2.06251E+01 0.00000E+00
 -1      3976 1.93684E+01 1.78064E+01 0.00000E+00
 -1      3977 1.28426E+02 1.90655E+01 0.00000E+00
 -1      3978 1.26926E+02 1.90655E+01 0.00000E+00
 -1      3979 1.26553E+02 2.05680E+01 0.00000E+00
 -1      3980 1.20552E+02 2.10885E+01 0.00000E+00
 -1      3981 1.08853E+02 3.03244E+01 0.00000E+00
 -1      3982 1.30515E+02 2.42625E+01 0.00000E+00
 -1      3983 1.30515E+02 2.27875E+01 0.00000E+00
 -1      3984 1.03524E+02 3.06585E+01 0.00000E+00
 -1      3985 1.29452E+02 1.92576E+01 0.00000E+00
 -1      3986 5.72850E+01 1.82952E+01 0.00000E+00
 -1      3987 5.57850E+01 1.82952E+01 0.00000E+00
 -1      3988 5.80350E+01 1.95942E+01 0.00000E+00
 -1      3989 5.42850E+01 1.82952E+01 0.00000E+00
 -1      3990 5.27850E+01 1.82952E+01 0.00000E+00
 -1      3991 5.20350E+01 1.95942E+01 0.00000E+00
 -1      3992 5.50350E+01 1.95942E+01 0.00000E+00
 -1      3993 8.45427E+01 2.28974E+01 0.00000E+00
 -1      3994 8.44701E+01 2.15504E+01 0.00000E+00
 -1      3995 8.31826E+01 2.13473E+01 0.00000E+00
 -1      3996 8.64092E+01 2.85356E+01 0.00000E+00
 -1      3997 1.29934E+02 2.13090E+01 0.00000E+00
 -1      3998 1.89135E+01 2.95733E+01 0.00000E+00
 -1      3999 1.96635E+01 2.82743E+01 0.00000E+00
 -1      4000 1.07966E+02 3.28535E+01 0.00000E+00
 -1      4001 3.92850E+01 1.82952E+01 0.00000E+00
 -1      4002 3.77850E+01 1.82952E+01 0.00000E+00
 -1      4003 4.90350E+01 1.95942E+01 0.00000E+00
 -1      4004 4.82850E+01 1.82952E+01 0.00000E+00
 -1      4005 4.67850E+01 1.82952E+01 0.00000E+00
 -1      4006 6.70350E+01 1.95942E+01 0.00000E+00
 -1      4007 1.21765E+02 2.20170E+01 0.00000E+00
 -1      4008 1.96725E+01 2.59135E+01 0.00000E+00
 -1      4009 1.96680E+01 2.70939E+01 0.00000E+00
 -1      4010 2.11545E+01 2.80356E+01 0.00000E+00
 -1      4011 8.68292E+01 2.70067E+01 0.00000E+00
 -1      4012 8.66746E+01 2.54828E+01 0.00000E+00
 -1      4013 8.54102E+01 2.46293E+01 0.00000E+00
 -1      4014 8.45701E+01 2.76871E+01 0.00000E+00
 -1      4015 3.02850E+01 1.82952E+01 0.00000E+00
 -1      4016 2.87850E+01 1.82952E+01 0.00000E+00
 -1      4017 2.16409E+01 1.84056E+01 0.00000E+00
 -1      4018 2.05047E+01 1.81060E+01 0.00000E+00
 -1      4019 2.01105E+01 1.95153E+01 0.00000E+00
 -1      4020 1.65945E+01 3.01471E+01 0.00000E+00
 -1      4021 2.72850E+01 1.82953E+01 0.00000E+00
 -1      4022 2.57850E+01 1.82953E+01 0.00000E+00
 -1      4023 2.80350E+01 1.95943E+01 0.00000E+00
 -1      4024 4.22850E+01 1.82952E+01 0.00000E+00
 -1      4025 4.07850E+01 1.82952E+01 0.00000E+00
 -1      4026 4.00350E+01 1.95942E+01 0.00000E+00
 -1      4027 2.44630E+01 1.83504E+01 0.00000E+00
 -1      4028 2.29630E+01 1.83504E+01 0.00000E+00
 -1      4029 2.25689E+01 1.97597E+01 0.00000E+00
 -1      4030 2.52130E+01 1.96494E+01 0.00000E+00
 -1      4031 1.30599E+02 2.66155E+01 0.00000E+00
 -1      4032 1.30557E+02 2.54390E+01 0.00000E+00
 -1      4033 1.29258E+02 2.47015E+01 0.00000E+00
 -1      4034 1.20493E+02 2.55905E+01 0.00000E+00
 -1      4035 1.21222E+02 2.77841E+01 0.00000E+00
 -1      4036 1.22722E+02 2.77841E+01 0.00000E+00
 -1      4037 1.21865E+02 2.49203E+01 0.00000E+00
 -1      4038 1.96725E+01 2.29760E+01 0.00000E+00
 -1      4039 1.96725E+01 2.44448E+01 0.00000E+00
 -1      4040 2.11590E+01 2.53864E+01 0.00000E+00
 -1      4041 1.28635E+02 2.20465E+01 0.00000E+00
 -1      4042 5.57850E+01 2.08932E+01 0.00000E+00
 -1      4043 5.42850E+01 2.08932E+01 0.00000E+00
 -1      4044 3.09000E+01 2.79170E+01 0.00000E+00
 -1      4045 3.24000E+01 2.79170E+01 0.00000E+00
 -1      4046 3.39000E+01 2.79170E+01 0.00000E+00
 -1      4047 3.54000E+01 2.79170E+01 0.00000E+00
 -1      4048 3.31500E+01 2.66180E+01 0.00000E+00
 -1      4049 3.69000E+01 2.79170E+01 0.00000E+00
 -1      4050 3.84000E+01 2.79170E+01 0.00000E+00
 -1      4051 3.61500E+01 2.66180E+01 0.00000E+00
 -1      4052 3.99000E+01 2.79170E+01 0.00000E+00
 -1      4053 4.14000E+01 2.79170E+01 0.00000E+00
 -1      4054 3.91500E+01 2.66180E+01 0.00000E+00
 -1      4055 4.29000E+01 2.79170E+01 0.00000E+00
 -1      4056 4.44000E+01 2.79170E+01 0.00000E+00
 -1      4057 4.21500E+01 2.66180E+01 0.00000E+00
 -1      4058 4.59000E+01 2.79170E+01 0.00000E+00
 -1      4059 4.74000E+01 2.79170E+01 0.00000E+00
 -1      4060 4.51500E+01 2.66180E+01 0.00000E+00
 -1      4061 4.89000E+01 2.79170E+01 0.00000E+00
 -1      4062 5.04000E+01 2.79170E+01 0.00000E+00
 -1      4063 4.81500E+01 2.66180E+01 0.00000E+00
 -1      4064 5.19000E+01 2.79170E+01 0.00000E+00
 -1      4065 5.34000E+01 2.79170E+01 0.00000E+00
 -1      4066 5.11500E+01 2.66180E+01 0.00000E+00
 -1      4067 5.49000E+01 2.79170E+01 0.00000E+00
 -1      4068 5.64000E+01 2.79170E+01 0.00000E+00
 -1      4069 5.41500E+01 2.66180E+01 0.00000E+00
 -1      4070 5.79000E+01 2.79170E+01 0.00000E+00
 -1      4071 5.94000E+01 2.79170E+01 0.00000E+00
 -1      4072 5.71500E+01 2.66180E+01 0.00000E+00
 -1      4073 6.09000E+01 2.79170E+01 0.00000E+00
 -1      4074 6.24000E+01 2.79170E+01 0.00000E+00
 -1      4075 6.01500E+01 2.66180E+01 0.00000E+00
 -1      4076 6.39000E+01 2.79170E+01 0.00000E+00
 -1      4077 6.54000E+01 2.79170E+01 0.00000E+00
 -1      4078 6.31500E+01 2.66180E+01 0.00000E+00
 -1      4079 6.69000E+01 2.79170E+01 0.00000E+00
 -1      4080 6.84000E+01 2.79170E+01 0.00000E+00
 -1      4081 6.61500E+01 2.66180E+01 0.00000E+00
 -1      4082 6.99000E+01 2.79170E+01 0.00000E+00
 -1      4083 7.14000E+01 2.79170E+01 0.00000E+00
 -1      4084 6.91500E+01 2.66180E+01 0.00000E+00
 -1      4085 7.29000E+01 2.79170E+01 0.00000E+00
 -1      4086 7.44000E+01 2.79170E+01 0.00000E+00
 -1      4087 7.21500E+01 2.66180E+01 0.00000E+00
 -1      4088 7.59000E+01 2.79170E+01 0.00000E+00
 -1      4089 7.74000E+01 2.79170E+01 0.00000E+00
 -1      4090 7.51500E+01 2.66180E+01 0.00000E+00
 -1      4091 7.89000E+01 2.79170E+01 0.00000E+00
 -1      4092 8.04000E+01 2.79170E+01 0.00000E+00
 -1      4093 7.81500E+01 2.66180E+01 0.00000E+00
 -1      4094 8.17350E+01 2.78020E+01 0.00000E+00
 -1      4095 8.32350E+01 2.78020E+01 0.00000E+00
 -1      4096 8.36551E+01 2.62731E+01 0.00000E+00
 -1      4097 8.09850E+01 2.65030E+01 0.00000E+00
 -1      4098 6.17850E+01 2.08932E+01 0.00000E+00
 -1      4099 6.02850E+01 2.08932E+01 0.00000E+00
 -1      4100 1.30140E+02 2.86112E+01 0.00000E+00
 -1      4101 1.30452E+02 2.74959E+01 0.00000E+00
 -1      4102 1.29153E+02 2.67584E+01 0.00000E+00
 -1      4103 1.28859E+02 2.85193E+01 0.00000E+00
 -1      4104 1.76145E+01 3.03093E+01 0.00000E+00
 -1      4105 6.47850E+01 2.08932E+01 0.00000E+00
 -1      4106 6.32850E+01 2.08932E+01 0.00000E+00
 -1      4107 6.25350E+01 2.21922E+01 0.00000E+00
 -1      4108 1.24222E+02 2.77841E+01 0.00000E+00
 -1      4109 1.25722E+02 2.77841E+01 0.00000E+00
 -1      4110 1.23793E+02 2.63522E+01 0.00000E+00
 -1      4111 6.77850E+01 2.08932E+01 0.00000E+00
 -1      4112 6.62850E+01 2.08932E+01 0.00000E+00
 -1      4113 6.55350E+01 2.21922E+01 0.00000E+00
 -1      4114 7.37850E+01 2.08932E+01 0.00000E+00
 -1      4115 7.22850E+01 2.08932E+01 0.00000E+00
 -1      4116 7.07850E+01 2.08932E+01 0.00000E+00
 -1      4117 6.92850E+01 2.08932E+01 0.00000E+00
 -1      4118 6.85350E+01 2.21922E+01 0.00000E+00
 -1      4119 7.15350E+01 2.21922E+01 0.00000E+00
 -1      4120 7.97850E+01 2.08932E+01 0.00000E+00
 -1      4121 7.82850E+01 2.08932E+01 0.00000E+00
 -1      4122 8.21275E+01 2.12218E+01 0.00000E+00
 -1      4123 8.08401E+01 2.10188E+01 0.00000E+00
 -1      4124 8.00901E+01 2.23178E+01 0.00000E+00
 -1      4125 8.22002E+01 2.25688E+01 0.00000E+00
 -1      4126 1.22883E+02 2.20028E+01 0.00000E+00
 -1      4127 1.22555E+02 2.34742E+01 0.00000E+00
 -1      4128 1.22983E+02 2.49061E+01 0.00000E+00
 -1      4129 1.24363E+02 2.20141E+01 0.00000E+00
 -1      4130 2.26545E+01 2.80356E+01 0.00000E+00
 -1      4131 1.27249E+02 2.20303E+01 0.00000E+00
 -1      4132 1.25749E+02 2.20303E+01 0.00000E+00
 -1      4133 1.25059E+02 2.34763E+01 0.00000E+00
 -1      4134 1.27830E+02 2.35088E+01 0.00000E+00
 -1      4135 4.52850E+01 1.82952E+01 0.00000E+00
 -1      4136 4.37850E+01 1.82952E+01 0.00000E+00
 -1      4137 4.30350E+01 1.95942E+01 0.00000E+00
 -1      4138 4.60350E+01 1.95942E+01 0.00000E+00
 -1      4139 5.27850E+01 2.08932E+01 0.00000E+00
 -1      4140 5.12850E+01 2.08932E+01 0.00000E+00
 -1      4141 5.35350E+01 2.21922E+01 0.00000E+00
 -1      4142 7.67850E+01 2.08932E+01 0.00000E+00
 -1      4143 7.52850E+01 2.08932E+01 0.00000E+00
 -1      4144 7.45350E+01 2.21922E+01 0.00000E+00
 -1      4145 7.75350E+01 2.21922E+01 0.00000E+00
 -1      4146 5.87850E+01 2.08932E+01 0.00000E+00
 -1      4147 5.72850E+01 2.08932E+01 0.00000E+00
 -1      4148 5.65350E+01 2.21922E+01 0.00000E+00
 -1      4149 5.95350E+01 2.21922E+01 0.00000E+00
 -1      4150 3.17850E+01 1.82952E+01 0.00000E+00
 -1      4151 3.10350E+01 1.95942E+01 0.00000E+00
 -1      4152 3.32850E+01 1.82952E+01 0.00000E+00
 -1      4153 2.79000E+01 2.79170E+01 0.00000E+00
 -1      4154 2.94000E+01 2.79170E+01 0.00000E+00
 -1      4155 3.01500E+01 2.66180E+01 0.00000E+00
 -1      4156 3.70350E+01 1.95942E+01 0.00000E+00
 -1      4157 3.62850E+01 1.82952E+01 0.00000E+00
 -1      4158 3.47850E+01 1.82952E+01 0.00000E+00
 -1      4159 8.41227E+01 2.44263E+01 0.00000E+00
 -1      4160 3.17850E+01 2.08932E+01 0.00000E+00
 -1      4161 3.02850E+01 2.08932E+01 0.00000E+00
 -1      4162 4.97850E+01 2.08932E+01 0.00000E+00
 -1      4163 4.82850E+01 2.08932E+01 0.00000E+00
 -1      4164 5.05350E+01 2.21922E+01 0.00000E+00
 -1      4165 2.32840E+01 2.10300E+01 0.00000E+00
 -1      4166 2.19620E+01 2.10852E+01 0.00000E+00
 -1      4167 4.07850E+01 2.08932E+01 0.00000E+00
 -1      4168 3.92850E+01 2.08932E+01 0.00000E+00
 -1      4169 2.24580E+01 2.46521E+01 0.00000E+00
 -1      4170 2.24580E+01 2.61208E+01 0.00000E+00
 -1      4171 2.95350E+01 2.21923E+01 0.00000E+00
 -1      4172 2.87850E+01 2.08933E+01 0.00000E+00
 -1      4173 2.72850E+01 2.08933E+01 0.00000E+00
 -1      4174 1.27872E+02 2.46853E+01 0.00000E+00
 -1      4175 1.97164E+01 2.09246E+01 0.00000E+00
 -1      4176 3.85350E+01 2.21922E+01 0.00000E+00
 -1      4177 3.77850E+01 2.08932E+01 0.00000E+00
 -1      4178 3.62850E+01 2.08932E+01 0.00000E+00
 -1      4179 2.39535E+01 2.73012E+01 0.00000E+00
 -1      4180 2.12029E+01 2.18663E+01 0.00000E+00
 -1      4181 3.32850E+01 2.08933E+01 0.00000E+00
 -1      4182 3.25350E+01 2.21923E+01 0.00000E+00
 -1      4183 2.46061E+01 2.09749E+01 0.00000E+00
 -1      4184 2.39992E+01 2.23003E+01 0.00000E+00
 -1      4185 2.59282E+01 2.09197E+01 0.00000E+00
 -1      4186 3.54000E+01 2.53190E+01 0.00000E+00
 -1      4187 3.69000E+01 2.53190E+01 0.00000E+00
 -1      4188 3.88425E+01 2.44051E+01 0.00000E+00
 -1      4189 4.03425E+01 2.44051E+01 0.00000E+00
 -1      4190 4.44000E+01 2.53190E+01 0.00000E+00
 -1      4191 4.59000E+01 2.53190E+01 0.00000E+00
 -1      4192 4.78425E+01 2.44051E+01 0.00000E+00
 -1      4193 4.93425E+01 2.44051E+01 0.00000E+00
 -1      4194 5.08425E+01 2.44051E+01 0.00000E+00
 -1      4195 5.23425E+01 2.44051E+01 0.00000E+00
 -1      4196 5.38425E+01 2.44051E+01 0.00000E+00
 -1      4197 5.53425E+01 2.44051E+01 0.00000E+00
 -1      4198 5.68425E+01 2.44051E+01 0.00000E+00
 -1      4199 5.83425E+01 2.44051E+01 0.00000E+00
 -1      4200 5.98425E+01 2.44051E+01 0.00000E+00
 -1      4201 6.13425E+01 2.44051E+01 0.00000E+00
 -1      4202 6.28425E+01 2.44051E+01 0.00000E+00
 -1      4203 6.43425E+01 2.44051E+01 0.00000E+00
 -1      4204 6.58425E+01 2.44051E+01 0.00000E+00
 -1      4205 6.73425E+01 2.44051E+01 0.00000E+00
 -1      4206 6.88425E+01 2.44051E+01 0.00000E+00
 -1      4207 7.03425E+01 2.44051E+01 0.00000E+00
 -1      4208 7.18425E+01 2.44051E+01 0.00000E+00
 -1      4209 7.33425E+01 2.44051E+01 0.00000E+00
 -1      4210 7.48425E+01 2.44051E+01 0.00000E+00
 -1      4211 7.63425E+01 2.44051E+01 0.00000E+00
 -1      4212 7.78425E+01 2.44051E+01 0.00000E+00
 -1      4213 7.93425E+01 2.44051E+01 0.00000E+00
 -1      4214 1.24483E+02 2.49061E+01 0.00000E+00
 -1      4215 2.19181E+01 2.31366E+01 0.00000E+00
 -1      4216 1.26883E+02 2.79663E+01 0.00000E+00
 -1      4217 1.28164E+02 2.80581E+01 0.00000E+00
 -1      4218 2.98425E+01 2.44051E+01 0.00000E+00
 -1      4219 3.13425E+01 2.44051E+01 0.00000E+00
 -1      4220 1.26455E+02 2.65344E+01 0.00000E+00
 -1      4221 8.27877E+01 2.45412E+01 0.00000E+00
 -1      4222 1.25869E+02 2.49224E+01 0.00000E+00
 -1      4223 2.49000E+01 2.79170E+01 0.00000E+00
 -1      4224 2.64000E+01 2.79170E+01 0.00000E+00
 -1      4225 2.32171E+01 2.38710E+01 0.00000E+00
 -1      4226 3.28425E+01 2.44051E+01 0.00000E+00
 -1      4227 3.43425E+01 2.44051E+01 0.00000E+00
 -1      4228 4.22850E+01 2.08932E+01 0.00000E+00
 -1      4229 4.15350E+01 2.21922E+01 0.00000E+00
 -1      4230 4.37850E+01 2.08932E+01 0.00000E+00
 -1      4231 2.71500E+01 2.66180E+01 0.00000E+00
 -1      4232 3.40350E+01 1.95942E+01 0.00000E+00
 -1      4233 2.47035E+01 2.60022E+01 0.00000E+00
 -1      4234 2.49386E+01 2.46055E+01 0.00000E+00
 -1      4235 2.58851E+01 2.52213E+01 0.00000E+00
 -1      4236 3.47850E+01 2.08933E+01 0.00000E+00
 -1      4237 4.18425E+01 2.44051E+01 0.00000E+00
 -1      4238 2.83425E+01 2.44051E+01 0.00000E+00
 -1      4239 2.73851E+01 2.52213E+01 0.00000E+00
 -1      4240 4.70925E+01 2.31061E+01 0.00000E+00
 -1      4241 4.63425E+01 2.18071E+01 0.00000E+00
 -1      4242 3.50925E+01 2.31061E+01 0.00000E+00
 -1      4243 1.27031E+02 2.51045E+01 0.00000E+00
 -1      4244 4.33425E+01 2.44051E+01 0.00000E+00
 -1      4245 4.48425E+01 2.18071E+01 0.00000E+00
 -1      4246 2.45391E+01 2.38158E+01 0.00000E+00
 -1      4247 8.04754E+01 2.31199E+01 0.00000E+00
 -1      4248 8.07829E+01 2.53328E+01 0.00000E+00
 -1      4249 3.80925E+01 2.31061E+01 0.00000E+00
 -1      4250 2.66782E+01 2.22187E+01 0.00000E+00
 -1      4251 4.40925E+01 2.31061E+01 0.00000E+00
 -1      4252 1.28458E+02 2.62973E+01 0.00000E+00
 -1      4253 1.28311E+02 2.71777E+01 0.00000E+00
 -1      4254 2.57208E+01 2.30348E+01 0.00000E+00
 -1      4255 2.70777E+01 2.30084E+01 0.00000E+00
 -1      4256 3.55350E+01 2.21923E+01 0.00000E+00
 -1      4257 8.21179E+01 2.52178E+01 0.00000E+00
 -1      4258 3.65925E+01 2.31061E+01 0.00000E+00
 -1      4259 8.25855E+01 2.33709E+01 0.00000E+00
 -1      4260 8.15305E+01 2.32454E+01 0.00000E+00
 -3
    3C                          2048                                     1
 -1       165    8    0    1
 -2         6         7        23      1107      1271      1124
 -1       166    8    0    1
 -2         7         8       165      1108      1272      1273
 -1       167    8    0    1
 -2         8         9       166      1109      1274      1275
 -1       168    8    0    1
 -2         8       166       165      1275      1276      1272
 -1       169    8    0    1
 -2         9        10       167      1110      1277      1278
 -1       170    8    0    1
 -2         9       167       166      1278      1279      1274
 -1       171    8    0    1
 -2        10        11       168      1111      1280      1281
 -1       172    8    0    1
 -2        10       168       167      1281      1282      1277
 -1       173    8    0    1
 -2        11        12       169      1112      1283      1284
 -1       174    8    0    1
 -2        11       169       168      1284      1285      1280
 -1       175    8    0    1
 -2        12        13       170      1113      1286      1287
 -1       176    8    0    1
 -2        12       170       169      1287      1288      1283
 -1       177    8    0    1
 -2        13        14       171      1114      1289      1290
 -1       178    8    0    1
 -2        13       171       170      1290      1291      1286
 -1       179    8    0    1
 -2        14        15       172      1115      1292      1293
 -1       180    8    0    1
 -2        14       172       171      1293      1294      1289
 -1       181    8    0    1
 -2        15        16       173      1116      1295      1296
 -1       182    8    0    1
 -2        15       173       172      1296      1297      1292
 -1       183    8    0    1
 -2        16        17       174      1117      1298      1299
 -1       184    8    0    1
 -2        16       174       173      1299      1300      1295
 -1       185    8    0    1
 -2        17        18       175      1118      1301      1302
 -1       186    8    0    1
 -2        17       175       174      1302      1303      1298
 -1       187    8    0    1
 -2        18        19       176      1119      1304      1305
 -1       188    8    0    1
 -2        18       176       175      1305      1306      1301
 -1       189    8    0    1
 -2        19        20       177      1120      1307      1308
 -1       190    8    0    1
 -2        19       177       176      1308      1309      1304
 -1       191    8    0    1
 -2        20        21       178      1121      1310      1311
 -1       192    8    0    1
 -2        20       178       177      1311      1312      1307
 -1       193    8    0    1
 -2        21        22       179      1122      1313      1314
 -1       194    8    0    1
 -2        21       179       178      1314      1315      1310
 -1       195    8    0    1
 -2        22         5       180      1123      1316      1317
 -1       196    8    0    1
 -2       179        22       180      1313      1317      1318
 -1       197    8    0    1
 -2         5        72       180      1174      1319      1316
 -1       198    8    0    1
 -2        24        23       181      1125      1320      1321
 -1       199    8    0    1
 -2        25        24       182      1126      1322      1323
 -1       200    8    0    1
 -2        24       181       182      1321      1324      1322
 -1       201    8    0    1
 -2        26        25       183      1127      1325      1326
 -1       202    8    0    1
 -2        25       182       183      1323      1327      1325
 -1       203    8    0    1
 -2        27        26       184      1128      1328      1329
 -1       204    8    0    1
 -2        26       183       184      1326      1330      1328
 -1       205    8    0    1
 -2        28        27       185      1129      1331      1332
 -1       206    8    0    1
 -2        27       184       185      1329      1333      1331
 -1       207    8    0    1
 -2        29        28       186      1130      1334      1335
 -1       208    8    0    1
 -2        28       185       186      1332      1336      1334
 -1       209    8    0    1
 -2        30        29       187      1131      1337      1338
 -1       210    8    0    1
 -2        29       186       187      1335      1339      1337
 -1       211    8    0    1
 -2        31        30       188      1132      1340      1341
 -1       212    8    0    1
 -2        30       187       188      1338      1342      1340
 -1       213    8    0    1
 -2        32        31       189      1133      1343      1344
 -1       214    8    0    1
 -2        31       188       189      1341      1345      1343
 -1       215    8    0    1
 -2        33        32       190      1134      1346      1347
 -1       216    8    0    1
 -2        32       189       190      1344      1348      1346
 -1       217    8    0    1
 -2        34        33       191      1135      1349      1350
 -1       218    8    0    1
 -2        33       190       191      1347      1351      1349
 -1       219    8    0    1
 -2        35        34       192      1136      1352      1353
 -1       220    8    0    1
 -2        34       191       192      1350      1354      1352
 -1       221    8    0    1
 -2        36        35       193      1137      1355      1356
 -1       222    8    0    1
 -2        35       192       193      1353      1357      1355
 -1       223    8    0    1
 -2        37        36       194      1138      1358      1359
 -1       224    8    0    1
 -2        36       193       194      1356      1360      1358
 -1       225    8    0    1
 -2        38        37       195      1139      1361      1362
 -1       226    8    0    1
 -2        37       194       195      1359      1363      1361
 -1       227    8    0    1
 -2        39        38       196      1140      1364      1365
 -1       228    8    0    1
 -2        38       195       196      1362      1366      1364
 -1       229    8    0    1
 -2        40        39       197      1141      1367      1368
 -1       230    8    0    1
 -2        39       196       197      1365      1369      1367
 -1       231    8    0    1
 -2        41        40       198      1142      1370      1371
 -1       232    8    0    1
 -2        40       197       198      1368      1372      1370
 -1       233    8    0    1
 -2        42        41       199      1143      1373      1374
 -1       234    8    0    1
 -2        41       198       199      1371      1375      1373
 -1       235    8    0    1
 -2        43        42       200      1144      1376      1377
 -1       236    8    0    1
 -2        42       199       200      1374      1378      1376
 -1       237    8    0    1
 -2        44        43       201      1145      1379      1380
 -1       238    8    0    1
 -2        43       200       201      1377      1381      1379
 -1       239    8    0    1
 -2        45        44       202      1146      1382      1383
 -1       240    8    0    1
 -2        44       201       202      1380      1384      1382
 -1       241    8    0    1
 -2        46        45       203      1147      1385      1386
 -1       242    8    0    1
 -2        45       202       203      1383      1387      1385
 -1       243    8    0    1
 -2        47        46       204      1148      1388      1389
 -1       244    8    0    1
 -2        46       203       204      1386      1390      1388
 -1       245    8    0    1
 -2        48        47       205      1149      1391      1392
 -1       246    8    0    1
 -2        47       204       205      1389      1393      1391
 -1       247    8    0    1
 -2        49        48       206      1150      1394      1395
 -1       248    8    0    1
 -2        48       205       206      1392      1396      1394
 -1       249    8    0    1
 -2        50        49       207      1151      1397      1398
 -1       250    8    0    1
 -2        49       206       207      1395      1399      1397
 -1       251    8    0    1
 -2        51        50       208      1152      1400      1401
 -1       252    8    0    1
 -2        50       207       208      1398      1402      1400
 -1       253    8    0    1
 -2        52        51       209      1153      1403      1404
 -1       254    8    0    1
 -2        51       208       209      1401      1405      1403
 -1       255    8    0    1
 -2        53        52       210      1154      1406      1407
 -1       256    8    0    1
 -2        52       209       210      1404      1408      1406
 -1       257    8    0    1
 -2        54        53       211      1155      1409      1410
 -1       258    8    0    1
 -2        53       210       211      1407      1411      1409
 -1       259    8    0    1
 -2        55        54       212      1156      1412      1413
 -1       260    8    0    1
 -2        54       211       212      1410      1414      1412
 -1       261    8    0    1
 -2        56        55       213      1157      1415      1416
 -1       262    8    0    1
 -2        55       212       213      1413      1417      1415
 -1       263    8    0    1
 -2        57        56       214      1158      1418      1419
 -1       264    8    0    1
 -2        56       213       214      1416      1420      1418
 -1       265    8    0    1
 -2        58        57       215      1159      1421      1422
 -1       266    8    0    1
 -2        57       214       215      1419      1423      1421
 -1       267    8    0    1
 -2        59        58       216      1160      1424      1425
 -1       268    8    0    1
 -2        58       215       216      1422      1426      1424
 -1       269    8    0    1
 -2        60        59       217      1161      1427      1428
 -1       270    8    0    1
 -2        59       216       217      1425      1429      1427
 -1       271    8    0    1
 -2        61        60       218      1162      1430      1431
 -1       272    8    0    1
 -2        60       217       218      1428      1432      1430
 -1       273    8    0    1
 -2        62        61       219      1163      1433      1434
 -1       274    8    0    1
 -2        61       218       219      1431      1435      1433
 -1       275    8    0    1
 -2        63        62       220      1164      1436      1437
 -1       276    8    0    1
 -2        62       219       220      1434      1438      1436
 -1       277    8    0    1
 -2        64        63       221      1165      1439      1440
 -1       278    8    0    1
 -2        63       220       221      1437      1441      1439
 -1       279    8    0    1
 -2        65        64       222      1166      1442      1443
 -1       280    8    0    1
 -2        64       221       222      1440      1444      1442
 -1       281    8    0    1
 -2        66        65       223      1167      1445      1446
 -1       282    8    0    1
 -2        65       222       223      1443      1447      1445
 -1       283    8    0    1
 -2        67        66       224      1168      1448      1449
 -1       284    8    0    1
 -2        66       223       224      1446      1450      1448
 -1       285    8    0    1
 -2        68        67       225      1169      1451      1452
 -1       286    8    0    1
 -2        67       224       225      1449      1453      1451
 -1       287    8    0    1
 -2        69        68       226      1170      1454      1455
 -1       288    8    0    1
 -2        68       225       226      1452      1456      1454
 -1       289    8    0    1
 -2        70        69       227      1171      1457      1458
 -1       290    8    0    1
 -2        69       226       227      1455      1459      1457
 -1       291    8    0    1
 -2        71        70       228      1172      1460      1461
 -1       292    8    0    1
 -2        70       227       228      1458      1462      1460
 -1       293    8    0    1
 -2         4        71       137      1173      1463      1241
 -1       294    8    0    1
 -2       137        71       228      1463      1461      1464
 -1       295    8    0    1
 -2        72        73       229      1175      1465      1466
 -1       296    8    0    1
 -2        72       229       180      1466      1467      1319
 -1       297    8    0    1
 -2        73        74       230      1176      1468      1469
 -1       298    8    0    1
 -2        73       230       229      1469      1470      1465
 -1       299    8    0    1
 -2        74        75       231      1177      1471      1472
 -1       300    8    0    1
 -2        74       231       230      1472      1473      1468
 -1       301    8    0    1
 -2        75        76       232      1178      1474      1475
 -1       302    8    0    1
 -2        75       232       231      1475      1476      1471
 -1       303    8    0    1
 -2        76        77       233      1179      1477      1478
 -1       304    8    0    1
 -2        76       233       232      1478      1479      1474
 -1       305    8    0    1
 -2        77        78       234      1180      1480      1481
 -1       306    8    0    1
 -2        77       234       233      1481      1482      1477
 -1       307    8    0    1
 -2        78        79       235      1181      1483      1484
 -1       308    8    0    1
 -2        78       235       234      1484      1485      1480
 -1       309    8    0    1
 -2        79        80       236      1182      1486      1487
 -1       310    8    0    1
 -2        79       236       235      1487      1488      1483
 -1       311    8    0    1
 -2        80        81       237      1183      1489      1490
 -1       312    8    0    1
 -2        80       237       236      1490      1491      1486
 -1       313    8    0    1
 -2        81        82       238      1184      1492      1493
 -1       314    8    0    1
 -2        81       238       237      1493      1494      1489
 -1       315    8    0    1
 -2        82        83       239      1185      1495      1496
 -1       316    8    0    1
 -2        82       239       238      1496      1497      1492
 -1       317    8    0    1
 -2        83        84       240      1186      1498      1499
 -1       318    8    0    1
 -2        83       240       239      1499      1500      1495
 -1       319    8    0    1
 -2        84        85       241      1187      1501      1502
 -1       320    8    0    1
 -2        84       241       240      1502      1503      1498
 -1       321    8    0    1
 -2        85        86       242      1188      1504      1505
 -1       322    8    0    1
 -2        85       242       241      1505      1506      1501
 -1       323    8    0    1
 -2        86        87       243      1189      1507      1508
 -1       324    8    0    1
 -2        86       243       242      1508      1509      1504
 -1       325    8    0    1
 -2        87        88       244      1190      1510      1511
 -1       326    8    0    1
 -2        87       244       243      1511      1512      1507
 -1       327    8    0    1
 -2        88        89       245      1191      1513      1514
 -1       328    8    0    1
 -2        88       245       244      1514      1515      1510
 -1       329    8    0    1
 -2        89        90       246      1192      1516      1517
 -1       330    8    0    1
 -2        89       246       245      1517      1518      1513
 -1       331    8    0    1
 -2        90        91       247      1193      1519      1520
 -1       332    8    0    1
 -2        90       247       246      1520      1521      1516
 -1       333    8    0    1
 -2        91        92       248      1194      1522      1523
 -1       334    8    0    1
 -2        91       248       247      1523      1524      1519
 -1       335    8    0    1
 -2        92        93       249      1195      1525      1526
 -1       336    8    0    1
 -2        92       249       248      1526      1527      1522
 -1       337    8    0    1
 -2        93        94       250      1196      1528      1529
 -1       338    8    0    1
 -2        93       250       249      1529      1530      1525
 -1       339    8    0    1
 -2        94        95       251      1197      1531      1532
 -1       340    8    0    1
 -2        94       251       250      1532      1533      1528
 -1       341    8    0    1
 -2        95        96       252      1198      1534      1535
 -1       342    8    0    1
 -2        95       252       251      1535      1536      1531
 -1       343    8    0    1
 -2        96        97       253      1199      1537      1538
 -1       344    8    0    1
 -2        96       253       252      1538      1539      1534
 -1       345    8    0    1
 -2        97        98       254      1200      1540      1541
 -1       346    8    0    1
 -2        97       254       253      1541      1542      1537
 -1       347    8    0    1
 -2        98        99       255      1201      1543      1544
 -1       348    8    0    1
 -2        98       255       254      1544      1545      1540
 -1       349    8    0    1
 -2        99       100       256      1202      1546      1547
 -1       350    8    0    1
 -2        99       256       255      1547      1548      1543
 -1       351    8    0    1
 -2       100       101       257      1203      1549      1550
 -1       352    8    0    1
 -2       100       257       256      1550      1551      1546
 -1       353    8    0    1
 -2       101       102       258      1204      1552      1553
 -1       354    8    0    1
 -2       101       258       257      1553      1554      1549
 -1       355    8    0    1
 -2       102       103       259      1205      1555      1556
 -1       356    8    0    1
 -2       102       259       258      1556      1557      1552
 -1       357    8    0    1
 -2       103       104       260      1206      1558      1559
 -1       358    8    0    1
 -2       103       260       259      1559      1560      1555
 -1       359    8    0    1
 -2       104       105       261      1207      1561      1562
 -1       360    8    0    1
 -2       104       261       260      1562      1563      1558
 -1       361    8    0    1
 -2       105       106       262      1208      1564      1565
 -1       362    8    0    1
 -2       105       262       261      1565      1566      1561
 -1       363    8    0    1
 -2       106       107       263      1209      1567      1568
 -1       364    8    0    1
 -2       106       263       262      1568      1569      1564
 -1       365    8    0    1
 -2       107       108       264      1210      1570      1571
 -1       366    8    0    1
 -2       107       264       263      1571      1572      1567
 -1       367    8    0    1
 -2       108       109       265      1211      1573      1574
 -1       368    8    0    1
 -2       108       265       264      1574      1575      1570
 -1       369    8    0    1
 -2       109       110       266      1212      1576      1577
 -1       370    8    0    1
 -2       109       266       265      1577      1578      1573
 -1       371    8    0    1
 -2       110       111       267      1213      1579      1580
 -1       372    8    0    1
 -2       110       267       266      1580      1581      1576
 -1       373    8    0    1
 -2       111       112       268      1214      1582      1583
 -1       374    8    0    1
 -2       111       268       267      1583      1584      1579
 -1       375    8    0    1
 -2       112       113       269      1215      1585      1586
 -1       376    8    0    1
 -2       112       269       268      1586      1587      1582
 -1       377    8    0    1
 -2       113       114       270      1216      1588      1589
 -1       378    8    0    1
 -2       113       270       269      1589      1590      1585
 -1       379    8    0    1
 -2       114       115       271      1217      1591      1592
 -1       380    8    0    1
 -2       114       271       270      1592      1593      1588
 -1       381    8    0    1
 -2       115       116       272      1218      1594      1595
 -1       382    8    0    1
 -2       115       272       271      1595      1596      1591
 -1       383    8    0    1
 -2       116       117       273      1219      1597      1598
 -1       384    8    0    1
 -2       116       273       272      1598      1599      1594
 -1       385    8    0    1
 -2       117       118       274      1220      1600      1601
 -1       386    8    0    1
 -2       117       274       273      1601      1602      1597
 -1       387    8    0    1
 -2       118       119       275      1221      1603      1604
 -1       388    8    0    1
 -2       118       275       274      1604      1605      1600
 -1       389    8    0    1
 -2       119       120       276      1222      1606      1607
 -1       390    8    0    1
 -2       119       276       275      1607      1608      1603
 -1       391    8    0    1
 -2       120       121       277      1223      1609      1610
 -1       392    8    0    1
 -2       120       277       276      1610      1611      1606
 -1       393    8    0    1
 -2       121         3       122      1224      1225      1612
 -1       394    8    0    1
 -2       122       123       278      1226      1613      1614
 -1       395    8    0    1
 -2       123       124       279      1227      1615      1616
 -1       396    8    0    1
 -2       123       279       278      1616      1617      1613
 -1       397    8    0    1
 -2       124       125       280      1228      1618      1619
 -1       398    8    0    1
 -2       124       280       279      1619      1620      1615
 -1       399    8    0    1
 -2       125       126       281      1229      1621      1622
 -1       400    8    0    1
 -2       125       281       280      1622      1623      1618
 -1       401    8    0    1
 -2       126       127       282      1230      1624      1625
 -1       402    8    0    1
 -2       126       282       281      1625      1626      1621
 -1       403    8    0    1
 -2       127       128       283      1231      1627      1628
 -1       404    8    0    1
 -2       127       283       282      1628      1629      1624
 -1       405    8    0    1
 -2       128       129       284      1232      1630      1631
 -1       406    8    0    1
 -2       128       284       283      1631      1632      1627
 -1       407    8    0    1
 -2       129       130       285      1233      1633      1634
 -1       408    8    0    1
 -2       129       285       284      1634      1635      1630
 -1       409    8    0    1
 -2       130       131       286      1234      1636      1637
 -1       410    8    0    1
 -2       130       286       285      1637      1638      1633
 -1       411    8    0    1
 -2       131       132       287      1235      1639      1640
 -1       412    8    0    1
 -2       131       287       286      1640      1641      1636
 -1       413    8    0    1
 -2       132       133       288      1236      1642      1643
 -1       414    8    0    1
 -2       132       288       287      1643      1644      1639
 -1       415    8    0    1
 -2       133       134       289      1237      1645      1646
 -1       416    8    0    1
 -2       133       289       288      1646      1647      1642
 -1       417    8    0    1
 -2       134       135       290      1238      1648      1649
 -1       418    8    0    1
 -2       134       290       289      1649      1650      1645
 -1       419    8    0    1
 -2       135       136       291      1239      1651      1652
 -1       420    8    0    1
 -2       135       291       290      1652      1653      1648
 -1       421    8    0    1
 -2       136       137       292      1240      1654      1655
 -1       422    8    0    1
 -2       291       136       292      1651      1655      1656
 -1       423    8    0    1
 -2       137       228       292      1464      1657      1654
 -1       424    8    0    1
 -2         2       138       293      1242      1658      1659
 -1       425    8    0    1
 -2       138       139       294      1243      1660      1661
 -1       426    8    0    1
 -2       139       140       295      1244      1662      1663
 -1       427    8    0    1
 -2       140       141       296      1245      1664      1665
 -1       428    8    0    1
 -2       141       142       297      1246      1666      1667
 -1       429    8    0    1
 -2       142       143       298      1247      1668      1669
 -1       430    8    0    1
 -2       143       144       299      1248      1670      1671
 -1       431    8    0    1
 -2       144       145       300      1249      1672      1673
 -1       432    8    0    1
 -2       145       146       301      1250      1674      1675
 -1       433    8    0    1
 -2       146       147       302      1251      1676      1677
 -1       434    8    0    1
 -2       147       148       303      1252      1678      1679
 -1       435    8    0    1
 -2       148       149       304      1253      1680      1681
 -1       436    8    0    1
 -2       149       150       305      1254      1682      1683
 -1       437    8    0    1
 -2       150       151       306      1255      1684      1685
 -1       438    8    0    1
 -2       151       152       307      1256      1686      1687
 -1       439    8    0    1
 -2       152       153       308      1257      1688      1689
 -1       440    8    0    1
 -2       153         1       309      1258      1690      1691
 -1       441    8    0    1
 -2         1       154       310      1259      1692      1693
 -1       442    8    0    1
 -2       154       155       311      1260      1694      1695
 -1       443    8    0    1
 -2       155       156       312      1261      1696      1697
 -1       444    8    0    1
 -2       156       157       313      1262      1698      1699
 -1       445    8    0    1
 -2       157       158       314      1263      1700      1701
 -1       446    8    0    1
 -2       158       159       315      1264      1702      1703
 -1       447    8    0    1
 -2       159       160       316      1265      1704      1705
 -1       448    8    0    1
 -2       160       161       317      1266      1706      1707
 -1       449    8    0    1
 -2       161       162       318      1267      1708      1709
 -1       450    8    0    1
 -2       162       163       319      1268      1710      1711
 -1       451    8    0    1
 -2       163       164       320      1269      1712      1713
 -1       452    8    0    1
 -2       164         2       321      1270      1714      1715
 -1       453    8    0    1
 -2       296       141       297      1664      1667      1716
 -1       454    8    0    1
 -2       295       140       296      1662      1665      1717
 -1       455    8    0    1
 -2       121       122       277      1612      1718      1609
 -1       456    8    0    1
 -2       122       278       277      1614      1719      1718
 -1       457    8    0    1
 -2       293       138       294      1658      1661      1720
 -1       458    8    0    1
 -2       294       139       295      1660      1663      1721
 -1       459    8    0    1
 -2         2       293       321      1659      1722      1714
 -1       460    8    0    1
 -2       142       298       297      1669      1723      1666
 -1       461    8    0    1
 -2       143       299       298      1671      1724      1668
 -1       462    8    0    1
 -2       144       300       299      1673      1725      1670
 -1       463    8    0    1
 -2       145       301       300      1675      1726      1672
 -1       464    8    0    1
 -2       146       302       301      1677      1727      1674
 -1       465    8    0    1
 -2       147       303       302      1679      1728      1676
 -1       466    8    0    1
 -2       148       304       303      1681      1729      1678
 -1       467    8    0    1
 -2       149       305       304      1683      1730      1680
 -1       468    8    0    1
 -2       150       306       305      1685      1731      1682
 -1       469    8    0    1
 -2       151       307       306      1687      1732      1684
 -1       470    8    0    1
 -2       152       308       307      1689      1733      1686
 -1       471    8    0    1
 -2       153       309       308      1691      1734      1688
 -1       472    8    0    1
 -2         1       310       309      1693      1735      1690
 -1       473    8    0    1
 -2       154       311       310      1695      1736      1692
 -1       474    8    0    1
 -2       155       312       311      1697      1737      1694
 -1       475    8    0    1
 -2       156       313       312      1699      1738      1696
 -1       476    8    0    1
 -2       157       314       313      1701      1739      1698
 -1       477    8    0    1
 -2       158       315       314      1703      1740      1700
 -1       478    8    0    1
 -2       159       316       315      1705      1741      1702
 -1       479    8    0    1
 -2       160       317       316      1707      1742      1704
 -1       480    8    0    1
 -2       161       318       317      1709      1743      1706
 -1       481    8    0    1
 -2       162       319       318      1711      1744      1708
 -1       482    8    0    1
 -2       163       320       319      1713      1745      1710
 -1       483    8    0    1
 -2       164       321       320      1715      1746      1712
 -1       484    8    0    1
 -2        23         7       165      1271      1273      1747
 -1       485    8    0    1
 -2       166       167       322      1279      1748      1749
 -1       486    8    0    1
 -2       165       166       323      1276      1750      1751
 -1       487    8    0    1
 -2       166       322       323      1749      1752      1750
 -1       488    8    0    1
 -2       168       169       324      1285      1753      1754
 -1       489    8    0    1
 -2       169       170       325      1288      1755      1756
 -1       490    8    0    1
 -2       169       325       324      1756      1757      1753
 -1       491    8    0    1
 -2       170       171       326      1291      1758      1759
 -1       492    8    0    1
 -2       170       326       325      1759      1760      1755
 -1       493    8    0    1
 -2       171       172       327      1294      1761      1762
 -1       494    8    0    1
 -2       171       327       326      1762      1763      1758
 -1       495    8    0    1
 -2       172       173       328      1297      1764      1765
 -1       496    8    0    1
 -2       172       328       327      1765      1766      1761
 -1       497    8    0    1
 -2       173       174       329      1300      1767      1768
 -1       498    8    0    1
 -2       173       329       328      1768      1769      1764
 -1       499    8    0    1
 -2       174       175       330      1303      1770      1771
 -1       500    8    0    1
 -2       174       330       329      1771      1772      1767
 -1       501    8    0    1
 -2       175       176       331      1306      1773      1774
 -1       502    8    0    1
 -2       175       331       330      1774      1775      1770
 -1       503    8    0    1
 -2       176       177       332      1309      1776      1777
 -1       504    8    0    1
 -2       176       332       331      1777      1778      1773
 -1       505    8    0    1
 -2       177       178       333      1312      1779      1780
 -1       506    8    0    1
 -2       177       333       332      1780      1781      1776
 -1       507    8    0    1
 -2       178       179       334      1315      1782      1783
 -1       508    8    0    1
 -2       178       334       333      1783      1784      1779
 -1       509    8    0    1
 -2       179       180       335      1318      1785      1786
 -1       510    8    0    1
 -2       334       179       335      1782      1786      1787
 -1       511    8    0    1
 -2       180       229       335      1467      1788      1785
 -1       512    8    0    1
 -2       181        23       165      1320      1747      1789
 -1       513    8    0    1
 -2       229       230       336      1470      1790      1791
 -1       514    8    0    1
 -2       229       336       335      1791      1792      1788
 -1       515    8    0    1
 -2       181       165       323      1789      1751      1793
 -1       516    8    0    1
 -2       183       182       337      1327      1794      1795
 -1       517    8    0    1
 -2       184       183       338      1330      1796      1797
 -1       518    8    0    1
 -2       183       337       338      1795      1798      1796
 -1       519    8    0    1
 -2       185       184       339      1333      1799      1800
 -1       520    8    0    1
 -2       184       338       339      1797      1801      1799
 -1       521    8    0    1
 -2       186       185       340      1336      1802      1803
 -1       522    8    0    1
 -2       185       339       340      1800      1804      1802
 -1       523    8    0    1
 -2       187       186       341      1339      1805      1806
 -1       524    8    0    1
 -2       186       340       341      1803      1807      1805
 -1       525    8    0    1
 -2       188       187       342      1342      1808      1809
 -1       526    8    0    1
 -2       187       341       342      1806      1810      1808
 -1       527    8    0    1
 -2       189       188       343      1345      1811      1812
 -1       528    8    0    1
 -2       188       342       343      1809      1813      1811
 -1       529    8    0    1
 -2       190       189       344      1348      1814      1815
 -1       530    8    0    1
 -2       189       343       344      1812      1816      1814
 -1       531    8    0    1
 -2       191       190       345      1351      1817      1818
 -1       532    8    0    1
 -2       190       344       345      1815      1819      1817
 -1       533    8    0    1
 -2       192       191       346      1354      1820      1821
 -1       534    8    0    1
 -2       191       345       346      1818      1822      1820
 -1       535    8    0    1
 -2       193       192       347      1357      1823      1824
 -1       536    8    0    1
 -2       192       346       347      1821      1825      1823
 -1       537    8    0    1
 -2       194       193       348      1360      1826      1827
 -1       538    8    0    1
 -2       193       347       348      1824      1828      1826
 -1       539    8    0    1
 -2       195       194       349      1363      1829      1830
 -1       540    8    0    1
 -2       194       348       349      1827      1831      1829
 -1       541    8    0    1
 -2       196       195       350      1366      1832      1833
 -1       542    8    0    1
 -2       195       349       350      1830      1834      1832
 -1       543    8    0    1
 -2       197       196       351      1369      1835      1836
 -1       544    8    0    1
 -2       196       350       351      1833      1837      1835
 -1       545    8    0    1
 -2       198       197       352      1372      1838      1839
 -1       546    8    0    1
 -2       197       351       352      1836      1840      1838
 -1       547    8    0    1
 -2       199       198       353      1375      1841      1842
 -1       548    8    0    1
 -2       198       352       353      1839      1843      1841
 -1       549    8    0    1
 -2       200       199       354      1378      1844      1845
 -1       550    8    0    1
 -2       199       353       354      1842      1846      1844
 -1       551    8    0    1
 -2       201       200       355      1381      1847      1848
 -1       552    8    0    1
 -2       200       354       355      1845      1849      1847
 -1       553    8    0    1
 -2       202       201       356      1384      1850      1851
 -1       554    8    0    1
 -2       201       355       356      1848      1852      1850
 -1       555    8    0    1
 -2       203       202       357      1387      1853      1854
 -1       556    8    0    1
 -2       202       356       357      1851      1855      1853
 -1       557    8    0    1
 -2       204       203       358      1390      1856      1857
 -1       558    8    0    1
 -2       203       357       358      1854      1858      1856
 -1       559    8    0    1
 -2       205       204       359      1393      1859      1860
 -1       560    8    0    1
 -2       204       358       359      1857      1861      1859
 -1       561    8    0    1
 -2       206       205       360      1396      1862      1863
 -1       562    8    0    1
 -2       205       359       360      1860      1864      1862
 -1       563    8    0    1
 -2       207       206       361      1399      1865      1866
 -1       564    8    0    1
 -2       206       360       361      1863      1867      1865
 -1       565    8    0    1
 -2       208       207       362      1402      1868      1869
 -1       566    8    0    1
 -2       207       361       362      1866      1870      1868
 -1       567    8    0    1
 -2       209       208       363      1405      1871      1872
 -1       568    8    0    1
 -2       208       362       363      1869      1873      1871
 -1       569    8    0    1
 -2       210       209       364      1408      1874      1875
 -1       570    8    0    1
 -2       209       363       364      1872      1876      1874
 -1       571    8    0    1
 -2       211       210       365      1411      1877      1878
 -1       572    8    0    1
 -2       210       364       365      1875      1879      1877
 -1       573    8    0    1
 -2       212       211       366      1414      1880      1881
 -1       574    8    0    1
 -2       211       365       366      1878      1882      1880
 -1       575    8    0    1
 -2       213       212       367      1417      1883      1884
 -1       576    8    0    1
 -2       212       366       367      1881      1885      1883
 -1       577    8    0    1
 -2       214       213       368      1420      1886      1887
 -1       578    8    0    1
 -2       213       367       368      1884      1888      1886
 -1       579    8    0    1
 -2       215       214       369      1423      1889      1890
 -1       580    8    0    1
 -2       214       368       369      1887      1891      1889
 -1       581    8    0    1
 -2       216       215       370      1426      1892      1893
 -1       582    8    0    1
 -2       215       369       370      1890      1894      1892
 -1       583    8    0    1
 -2       217       216       371      1429      1895      1896
 -1       584    8    0    1
 -2       216       370       371      1893      1897      1895
 -1       585    8    0    1
 -2       218       217       372      1432      1898      1899
 -1       586    8    0    1
 -2       217       371       372      1896      1900      1898
 -1       587    8    0    1
 -2       219       218       373      1435      1901      1902
 -1       588    8    0    1
 -2       218       372       373      1899      1903      1901
 -1       589    8    0    1
 -2       220       219       374      1438      1904      1905
 -1       590    8    0    1
 -2       219       373       374      1902      1906      1904
 -1       591    8    0    1
 -2       221       220       375      1441      1907      1908
 -1       592    8    0    1
 -2       220       374       375      1905      1909      1907
 -1       593    8    0    1
 -2       222       221       376      1444      1910      1911
 -1       594    8    0    1
 -2       221       375       376      1908      1912      1910
 -1       595    8    0    1
 -2       223       222       377      1447      1913      1914
 -1       596    8    0    1
 -2       222       376       377      1911      1915      1913
 -1       597    8    0    1
 -2       224       223       378      1450      1916      1917
 -1       598    8    0    1
 -2       223       377       378      1914      1918      1916
 -1       599    8    0    1
 -2       225       224       379      1453      1919      1920
 -1       600    8    0    1
 -2       224       378       379      1917      1921      1919
 -1       601    8    0    1
 -2       226       225       380      1456      1922      1923
 -1       602    8    0    1
 -2       225       379       380      1920      1924      1922
 -1       603    8    0    1
 -2       227       226       381      1459      1925      1926
 -1       604    8    0    1
 -2       226       380       381      1923      1927      1925
 -1       605    8    0    1
 -2       228       227       382      1462      1928      1929
 -1       606    8    0    1
 -2       292       228       382      1657      1929      1930
 -1       607    8    0    1
 -2       227       381       382      1926      1931      1928
 -1       608    8    0    1
 -2       230       231       383      1473      1932      1933
 -1       609    8    0    1
 -2       230       383       336      1933      1934      1790
 -1       610    8    0    1
 -2       231       232       384      1476      1935      1936
 -1       611    8    0    1
 -2       231       384       383      1936      1937      1932
 -1       612    8    0    1
 -2       232       233       385      1479      1938      1939
 -1       613    8    0    1
 -2       232       385       384      1939      1940      1935
 -1       614    8    0    1
 -2       233       234       386      1482      1941      1942
 -1       615    8    0    1
 -2       233       386       385      1942      1943      1938
 -1       616    8    0    1
 -2       234       235       387      1485      1944      1945
 -1       617    8    0    1
 -2       234       387       386      1945      1946      1941
 -1       618    8    0    1
 -2       235       236       388      1488      1947      1948
 -1       619    8    0    1
 -2       235       388       387      1948      1949      1944
 -1       620    8    0    1
 -2       236       237       389      1491      1950      1951
 -1       621    8    0    1
 -2       236       389       388      1951      1952      1947
 -1       622    8    0    1
 -2       237       238       390      1494      1953      1954
 -1       623    8    0    1
 -2       237       390       389      1954      1955      1950
 -1       624    8    0    1
 -2       238       239       391      1497      1956      1957
 -1       625    8    0    1
 -2       238       391       390      1957      1958      1953
 -1       626    8    0    1
 -2       239       240       392      1500      1959      1960
 -1       627    8    0    1
 -2       239       392       391      1960      1961      1956
 -1       628    8    0    1
 -2       240       241       393      1503      1962      1963
 -1       629    8    0    1
 -2       240       393       392      1963      1964      1959
 -1       630    8    0    1
 -2       241       242       394      1506      1965      1966
 -1       631    8    0    1
 -2       241       394       393      1966      1967      1962
 -1       632    8    0    1
 -2       242       243       395      1509      1968      1969
 -1       633    8    0    1
 -2       242       395       394      1969      1970      1965
 -1       634    8    0    1
 -2       243       244       396      1512      1971      1972
 -1       635    8    0    1
 -2       243       396       395      1972      1973      1968
 -1       636    8    0    1
 -2       244       245       397      1515      1974      1975
 -1       637    8    0    1
 -2       244       397       396      1975      1976      1971
 -1       638    8    0    1
 -2       245       246       398      1518      1977      1978
 -1       639    8    0    1
 -2       245       398       397      1978      1979      1974
 -1       640    8    0    1
 -2       246       247       399      1521      1980      1981
 -1       641    8    0    1
 -2       246       399       398      1981      1982      1977
 -1       642    8    0    1
 -2       247       248       400      1524      1983      1984
 -1       643    8    0    1
 -2       247       400       399      1984      1985      1980
 -1       644    8    0    1
 -2       248       249       401      1527      1986      1987
 -1       645    8    0    1
 -2       248       401       400      1987      1988      1983
 -1       646    8    0    1
 -2       249       250       402      1530      1989      1990
 -1       647    8    0    1
 -2       249       402       401      1990      1991      1986
 -1       648    8    0    1
 -2       250       251       403      1533      1992      1993
 -1       649    8    0    1
 -2       250       403       402      1993      1994      1989
 -1       650    8    0    1
 -2       251       252       404      1536      1995      1996
 -1       651    8    0    1
 -2       251       404       403      1996      1997      1992
 -1       652    8    0    1
 -2       252       253       405      1539      1998      1999
 -1       653    8    0    1
 -2       252       405       404      1999      2000      1995
 -1       654    8    0    1
 -2       253       254       406      1542      2001      2002
 -1       655    8    0    1
 -2       253       406       405      2002      2003      1998
 -1       656    8    0    1
 -2       254       255       407      1545      2004      2005
 -1       657    8    0    1
 -2       254       407       406      2005      2006      2001
 -1       658    8    0    1
 -2       255       256       408      1548      2007      2008
 -1       659    8    0    1
 -2       255       408       407      2008      2009      2004
 -1       660    8    0    1
 -2       256       257       409      1551      2010      2011
 -1       661    8    0    1
 -2       256       409       408      2011      2012      2007
 -1       662    8    0    1
 -2       257       258       410      1554      2013      2014
 -1       663    8    0    1
 -2       257       410       409      2014      2015      2010
 -1       664    8    0    1
 -2       258       259       411      1557      2016      2017
 -1       665    8    0    1
 -2       258       411       410      2017      2018      2013
 -1       666    8    0    1
 -2       260       261       412      1563      2019      2020
 -1       667    8    0    1
 -2       262       263       413      1569      2021      2022
 -1       668    8    0    1
 -2       263       264       414      1572      2023      2024
 -1       669    8    0    1
 -2       264       265       415      1575      2025      2026
 -1       670    8    0    1
 -2       265       266       416      1578      2027      2028
 -1       671    8    0    1
 -2       266       267       417      1581      2029      2030
 -1       672    8    0    1
 -2       266       417       416      2030      2031      2027
 -1       673    8    0    1
 -2       267       268       418      1584      2032      2033
 -1       674    8    0    1
 -2       267       418       417      2033      2034      2029
 -1       675    8    0    1
 -2       268       269       419      1587      2035      2036
 -1       676    8    0    1
 -2       268       419       418      2036      2037      2032
 -1       677    8    0    1
 -2       269       270       420      1590      2038      2039
 -1       678    8    0    1
 -2       269       420       419      2039      2040      2035
 -1       679    8    0    1
 -2       270       271       421      1593      2041      2042
 -1       680    8    0    1
 -2       270       421       420      2042      2043      2038
 -1       681    8    0    1
 -2       271       272       422      1596      2044      2045
 -1       682    8    0    1
 -2       271       422       421      2045      2046      2041
 -1       683    8    0    1
 -2       272       273       423      1599      2047      2048
 -1       684    8    0    1
 -2       272       423       422      2048      2049      2044
 -1       685    8    0    1
 -2       273       274       424      1602      2050      2051
 -1       686    8    0    1
 -2       273       424       423      2051      2052      2047
 -1       687    8    0    1
 -2       274       275       425      1605      2053      2054
 -1       688    8    0    1
 -2       274       425       424      2054      2055      2050
 -1       689    8    0    1
 -2       275       276       426      1608      2056      2057
 -1       690    8    0    1
 -2       275       426       425      2057      2058      2053
 -1       691    8    0    1
 -2       276       277       427      1611      2059      2060
 -1       692    8    0    1
 -2       426       276       427      2056      2060      2061
 -1       693    8    0    1
 -2       277       278       427      1719      2062      2059
 -1       694    8    0    1
 -2       280       281       428      1623      2063      2064
 -1       695    8    0    1
 -2       279       280       429      1620      2065      2066
 -1       696    8    0    1
 -2       280       428       429      2064      2067      2065
 -1       697    8    0    1
 -2       278       279       427      1617      2068      2062
 -1       698    8    0    1
 -2       281       282       430      1626      2069      2070
 -1       699    8    0    1
 -2       281       430       428      2070      2071      2063
 -1       700    8    0    1
 -2       282       283       431      1629      2072      2073
 -1       701    8    0    1
 -2       282       431       430      2073      2074      2069
 -1       702    8    0    1
 -2       283       284       432      1632      2075      2076
 -1       703    8    0    1
 -2       283       432       431      2076      2077      2072
 -1       704    8    0    1
 -2       284       285       433      1635      2078      2079
 -1       705    8    0    1
 -2       284       433       432      2079      2080      2075
 -1       706    8    0    1
 -2       285       286       434      1638      2081      2082
 -1       707    8    0    1
 -2       285       434       433      2082      2083      2078
 -1       708    8    0    1
 -2       286       287       435      1641      2084      2085
 -1       709    8    0    1
 -2       286       435       434      2085      2086      2081
 -1       710    8    0    1
 -2       287       288       436      1644      2087      2088
 -1       711    8    0    1
 -2       287       436       435      2088      2089      2084
 -1       712    8    0    1
 -2       288       289       437      1647      2090      2091
 -1       713    8    0    1
 -2       288       437       436      2091      2092      2087
 -1       714    8    0    1
 -2       289       290       438      1650      2093      2094
 -1       715    8    0    1
 -2       289       438       437      2094      2095      2090
 -1       716    8    0    1
 -2       290       291       439      1653      2096      2097
 -1       717    8    0    1
 -2       290       439       438      2097      2098      2093
 -1       718    8    0    1
 -2       294       295       440      1721      2099      2100
 -1       719    8    0    1
 -2       321       293       441      1722      2101      2102
 -1       720    8    0    1
 -2       293       294       442      1720      2103      2104
 -1       721    8    0    1
 -2       295       296       443      1717      2105      2106
 -1       722    8    0    1
 -2       296       297       444      1716      2107      2108
 -1       723    8    0    1
 -2       167       168       445      1282      2109      2110
 -1       724    8    0    1
 -2       322       167       445      1748      2110      2111
 -1       725    8    0    1
 -2       168       324       445      1754      2112      2109
 -1       726    8    0    1
 -2       298       299       414      1724      2113      2114
 -1       727    8    0    1
 -2       299       300       413      1725      2115      2116
 -1       728    8    0    1
 -2       300       301       446      1726      2117      2118
 -1       729    8    0    1
 -2       301       302       412      1727      2119      2120
 -1       730    8    0    1
 -2       302       303       447      1728      2121      2122
 -1       731    8    0    1
 -2       303       304       448      1729      2123      2124
 -1       732    8    0    1
 -2       304       305       449      1730      2125      2126
 -1       733    8    0    1
 -2       305       306       450      1731      2127      2128
 -1       734    8    0    1
 -2       306       307       451      1732      2129      2130
 -1       735    8    0    1
 -2       306       451       450      2130      2131      2127
 -1       736    8    0    1
 -2       307       308       452      1733      2132      2133
 -1       737    8    0    1
 -2       308       309       453      1734      2134      2135
 -1       738    8    0    1
 -2       309       310       454      1735      2136      2137
 -1       739    8    0    1
 -2       310       311       455      1736      2138      2139
 -1       740    8    0    1
 -2       311       312       456      1737      2140      2141
 -1       741    8    0    1
 -2       312       313       457      1738      2142      2143
 -1       742    8    0    1
 -2       313       314       458      1739      2144      2145
 -1       743    8    0    1
 -2       314       315       459      1740      2146      2147
 -1       744    8    0    1
 -2       314       459       458      2147      2148      2144
 -1       745    8    0    1
 -2       315       316       460      1741      2149      2150
 -1       746    8    0    1
 -2       316       317       461      1742      2151      2152
 -1       747    8    0    1
 -2       316       461       460      2152      2153      2149
 -1       748    8    0    1
 -2       317       318       462      1743      2154      2155
 -1       749    8    0    1
 -2       317       462       461      2155      2156      2151
 -1       750    8    0    1
 -2       318       319       463      1744      2157      2158
 -1       751    8    0    1
 -2       319       320       464      1745      2159      2160
 -1       752    8    0    1
 -2       319       464       463      2160      2161      2157
 -1       753    8    0    1
 -2       320       321       465      1746      2162      2163
 -1       754    8    0    1
 -2       297       298       466      1723      2164      2165
 -1       755    8    0    1
 -2       444       297       466      2107      2165      2166
 -1       756    8    0    1
 -2       298       414       466      2114      2167      2164
 -1       757    8    0    1
 -2       414       264       415      2023      2026      2168
 -1       758    8    0    1
 -2       181       323       182      1793      2169      1324
 -1       759    8    0    1
 -2       415       265       416      2025      2028      2170
 -1       760    8    0    1
 -2       337       182       323      1794      2169      2171
 -1       761    8    0    1
 -2       259       260       467      1560      2172      2173
 -1       762    8    0    1
 -2       262       413       446      2022      2174      2175
 -1       763    8    0    1
 -2       261       262       446      1566      2175      2176
 -1       764    8    0    1
 -2       427       279       429      2068      2066      2177
 -1       765    8    0    1
 -2       441       293       442      2101      2104      2178
 -1       766    8    0    1
 -2       294       440       442      2100      2179      2103
 -1       767    8    0    1
 -2       439       291       292      2096      1656      2180
 -1       768    8    0    1
 -2       440       295       443      2099      2106      2181
 -1       769    8    0    1
 -2       321       441       465      2102      2182      2162
 -1       770    8    0    1
 -2       296       444       443      2108      2183      2105
 -1       771    8    0    1
 -2       464       320       465      2159      2163      2184
 -1       772    8    0    1
 -2       318       463       468      2158      2185      2186
 -1       773    8    0    1
 -2       318       468       462      2186      2187      2154
 -1       774    8    0    1
 -2       459       315       469      2146      2188      2189
 -1       775    8    0    1
 -2       315       460       469      2150      2190      2188
 -1       776    8    0    1
 -2       457       313       458      2142      2145      2191
 -1       777    8    0    1
 -2       456       312       457      2140      2143      2192
 -1       778    8    0    1
 -2       455       311       456      2138      2141      2193
 -1       779    8    0    1
 -2       454       310       455      2136      2139      2194
 -1       780    8    0    1
 -2       453       309       454      2134      2137      2195
 -1       781    8    0    1
 -2       451       307       452      2129      2133      2196
 -1       782    8    0    1
 -2       449       305       470      2125      2197      2198
 -1       783    8    0    1
 -2       305       450       470      2128      2199      2197
 -1       784    8    0    1
 -2       448       304       449      2123      2126      2200
 -1       785    8    0    1
 -2       447       303       448      2121      2124      2201
 -1       786    8    0    1
 -2       412       302       447      2119      2122      2202
 -1       787    8    0    1
 -2       446       301       412      2117      2120      2203
 -1       788    8    0    1
 -2       414       299       413      2113      2116      2204
 -1       789    8    0    1
 -2       413       300       446      2115      2118      2174
 -1       790    8    0    1
 -2       452       308       453      2132      2135      2205
 -1       791    8    0    1
 -2       261       446       412      2176      2203      2019
 -1       792    8    0    1
 -2       336       383       471      1934      2206      2207
 -1       793    8    0    1
 -2       325       326       472      1760      2208      2209
 -1       794    8    0    1
 -2       324       325       473      1757      2210      2211
 -1       795    8    0    1
 -2       325       472       473      2209      2212      2210
 -1       796    8    0    1
 -2       327       328       474      1766      2213      2214
 -1       797    8    0    1
 -2       328       329       475      1769      2215      2216
 -1       798    8    0    1
 -2       328       475       474      2216      2217      2213
 -1       799    8    0    1
 -2       329       330       476      1772      2218      2219
 -1       800    8    0    1
 -2       329       476       475      2219      2220      2215
 -1       801    8    0    1
 -2       330       331       477      1775      2221      2222
 -1       802    8    0    1
 -2       330       477       476      2222      2223      2218
 -1       803    8    0    1
 -2       331       332       478      1778      2224      2225
 -1       804    8    0    1
 -2       331       478       477      2225      2226      2221
 -1       805    8    0    1
 -2       332       333       479      1781      2227      2228
 -1       806    8    0    1
 -2       332       479       478      2228      2229      2224
 -1       807    8    0    1
 -2       452       453       480      2205      2230      2231
 -1       808    8    0    1
 -2       383       384       481      1937      2232      2233
 -1       809    8    0    1
 -2       383       481       471      2233      2234      2206
 -1       810    8    0    1
 -2       338       337       482      1798      2235      2236
 -1       811    8    0    1
 -2       467       260       412      2172      2020      2237
 -1       812    8    0    1
 -2       339       338       483      1801      2238      2239
 -1       813    8    0    1
 -2       338       482       483      2236      2240      2238
 -1       814    8    0    1
 -2       340       339       484      1804      2241      2242
 -1       815    8    0    1
 -2       339       483       484      2239      2243      2241
 -1       816    8    0    1
 -2       341       340       485      1807      2244      2245
 -1       817    8    0    1
 -2       340       484       485      2242      2246      2244
 -1       818    8    0    1
 -2       342       341       486      1810      2247      2248
 -1       819    8    0    1
 -2       341       485       486      2245      2249      2247
 -1       820    8    0    1
 -2       343       342       487      1813      2250      2251
 -1       821    8    0    1
 -2       342       486       487      2248      2252      2250
 -1       822    8    0    1
 -2       344       343       488      1816      2253      2254
 -1       823    8    0    1
 -2       343       487       488      2251      2255      2253
 -1       824    8    0    1
 -2       345       344       489      1819      2256      2257
 -1       825    8    0    1
 -2       344       488       489      2254      2258      2256
 -1       826    8    0    1
 -2       346       345       490      1822      2259      2260
 -1       827    8    0    1
 -2       345       489       490      2257      2261      2259
 -1       828    8    0    1
 -2       347       346       491      1825      2262      2263
 -1       829    8    0    1
 -2       346       490       491      2260      2264      2262
 -1       830    8    0    1
 -2       348       347       492      1828      2265      2266
 -1       831    8    0    1
 -2       347       491       492      2263      2267      2265
 -1       832    8    0    1
 -2       349       348       493      1831      2268      2269
 -1       833    8    0    1
 -2       348       492       493      2266      2270      2268
 -1       834    8    0    1
 -2       350       349       494      1834      2271      2272
 -1       835    8    0    1
 -2       349       493       494      2269      2273      2271
 -1       836    8    0    1
 -2       351       350       495      1837      2274      2275
 -1       837    8    0    1
 -2       350       494       495      2272      2276      2274
 -1       838    8    0    1
 -2       352       351       496      1840      2277      2278
 -1       839    8    0    1
 -2       351       495       496      2275      2279      2277
 -1       840    8    0    1
 -2       353       352       497      1843      2280      2281
 -1       841    8    0    1
 -2       352       496       497      2278      2282      2280
 -1       842    8    0    1
 -2       354       353       498      1846      2283      2284
 -1       843    8    0    1
 -2       353       497       498      2281      2285      2283
 -1       844    8    0    1
 -2       355       354       499      1849      2286      2287
 -1       845    8    0    1
 -2       354       498       499      2284      2288      2286
 -1       846    8    0    1
 -2       356       355       500      1852      2289      2290
 -1       847    8    0    1
 -2       355       499       500      2287      2291      2289
 -1       848    8    0    1
 -2       357       356       501      1855      2292      2293
 -1       849    8    0    1
 -2       356       500       501      2290      2294      2292
 -1       850    8    0    1
 -2       358       357       502      1858      2295      2296
 -1       851    8    0    1
 -2       357       501       502      2293      2297      2295
 -1       852    8    0    1
 -2       359       358       503      1861      2298      2299
 -1       853    8    0    1
 -2       358       502       503      2296      2300      2298
 -1       854    8    0    1
 -2       360       359       504      1864      2301      2302
 -1       855    8    0    1
 -2       359       503       504      2299      2303      2301
 -1       856    8    0    1
 -2       361       360       505      1867      2304      2305
 -1       857    8    0    1
 -2       360       504       505      2302      2306      2304
 -1       858    8    0    1
 -2       362       361       506      1870      2307      2308
 -1       859    8    0    1
 -2       361       505       506      2305      2309      2307
 -1       860    8    0    1
 -2       363       362       507      1873      2310      2311
 -1       861    8    0    1
 -2       362       506       507      2308      2312      2310
 -1       862    8    0    1
 -2       364       363       508      1876      2313      2314
 -1       863    8    0    1
 -2       363       507       508      2311      2315      2313
 -1       864    8    0    1
 -2       365       364       509      1879      2316      2317
 -1       865    8    0    1
 -2       364       508       509      2314      2318      2316
 -1       866    8    0    1
 -2       366       365       510      1882      2319      2320
 -1       867    8    0    1
 -2       365       509       510      2317      2321      2319
 -1       868    8    0    1
 -2       367       366       511      1885      2322      2323
 -1       869    8    0    1
 -2       366       510       511      2320      2324      2322
 -1       870    8    0    1
 -2       368       367       512      1888      2325      2326
 -1       871    8    0    1
 -2       367       511       512      2323      2327      2325
 -1       872    8    0    1
 -2       369       368       513      1891      2328      2329
 -1       873    8    0    1
 -2       368       512       513      2326      2330      2328
 -1       874    8    0    1
 -2       370       369       514      1894      2331      2332
 -1       875    8    0    1
 -2       369       513       514      2329      2333      2331
 -1       876    8    0    1
 -2       371       370       515      1897      2334      2335
 -1       877    8    0    1
 -2       370       514       515      2332      2336      2334
 -1       878    8    0    1
 -2       372       371       516      1900      2337      2338
 -1       879    8    0    1
 -2       371       515       516      2335      2339      2337
 -1       880    8    0    1
 -2       373       372       517      1903      2340      2341
 -1       881    8    0    1
 -2       372       516       517      2338      2342      2340
 -1       882    8    0    1
 -2       374       373       518      1906      2343      2344
 -1       883    8    0    1
 -2       373       517       518      2341      2345      2343
 -1       884    8    0    1
 -2       375       374       519      1909      2346      2347
 -1       885    8    0    1
 -2       374       518       519      2344      2348      2346
 -1       886    8    0    1
 -2       376       375       520      1912      2349      2350
 -1       887    8    0    1
 -2       375       519       520      2347      2351      2349
 -1       888    8    0    1
 -2       377       376       521      1915      2352      2353
 -1       889    8    0    1
 -2       376       520       521      2350      2354      2352
 -1       890    8    0    1
 -2       378       377       522      1918      2355      2356
 -1       891    8    0    1
 -2       377       521       522      2353      2357      2355
 -1       892    8    0    1
 -2       379       378       523      1921      2358      2359
 -1       893    8    0    1
 -2       378       522       523      2356      2360      2358
 -1       894    8    0    1
 -2       380       379       524      1924      2361      2362
 -1       895    8    0    1
 -2       379       523       524      2359      2363      2361
 -1       896    8    0    1
 -2       381       380       525      1927      2364      2365
 -1       897    8    0    1
 -2       380       524       525      2362      2366      2364
 -1       898    8    0    1
 -2       413       263       414      2021      2024      2204
 -1       899    8    0    1
 -2       385       386       526      1943      2367      2368
 -1       900    8    0    1
 -2       386       387       527      1946      2369      2370
 -1       901    8    0    1
 -2       386       527       526      2370      2371      2367
 -1       902    8    0    1
 -2       387       388       528      1949      2372      2373
 -1       903    8    0    1
 -2       387       528       527      2373      2374      2369
 -1       904    8    0    1
 -2       388       389       529      1952      2375      2376
 -1       905    8    0    1
 -2       388       529       528      2376      2377      2372
 -1       906    8    0    1
 -2       389       390       530      1955      2378      2379
 -1       907    8    0    1
 -2       389       530       529      2379      2380      2375
 -1       908    8    0    1
 -2       390       391       531      1958      2381      2382
 -1       909    8    0    1
 -2       390       531       530      2382      2383      2378
 -1       910    8    0    1
 -2       391       392       532      1961      2384      2385
 -1       911    8    0    1
 -2       391       532       531      2385      2386      2381
 -1       912    8    0    1
 -2       392       393       533      1964      2387      2388
 -1       913    8    0    1
 -2       392       533       532      2388      2389      2384
 -1       914    8    0    1
 -2       393       394       534      1967      2390      2391
 -1       915    8    0    1
 -2       393       534       533      2391      2392      2387
 -1       916    8    0    1
 -2       394       395       535      1970      2393      2394
 -1       917    8    0    1
 -2       394       535       534      2394      2395      2390
 -1       918    8    0    1
 -2       395       396       536      1973      2396      2397
 -1       919    8    0    1
 -2       395       536       535      2397      2398      2393
 -1       920    8    0    1
 -2       396       397       537      1976      2399      2400
 -1       921    8    0    1
 -2       396       537       536      2400      2401      2396
 -1       922    8    0    1
 -2       397       398       538      1979      2402      2403
 -1       923    8    0    1
 -2       397       538       537      2403      2404      2399
 -1       924    8    0    1
 -2       398       399       539      1982      2405      2406
 -1       925    8    0    1
 -2       398       539       538      2406      2407      2402
 -1       926    8    0    1
 -2       399       400       540      1985      2408      2409
 -1       927    8    0    1
 -2       399       540       539      2409      2410      2405
 -1       928    8    0    1
 -2       400       401       541      1988      2411      2412
 -1       929    8    0    1
 -2       400       541       540      2412      2413      2408
 -1       930    8    0    1
 -2       401       402       542      1991      2414      2415
 -1       931    8    0    1
 -2       401       542       541      2415      2416      2411
 -1       932    8    0    1
 -2       402       403       543      1994      2417      2418
 -1       933    8    0    1
 -2       402       543       542      2418      2419      2414
 -1       934    8    0    1
 -2       403       404       544      1997      2420      2421
 -1       935    8    0    1
 -2       403       544       543      2421      2422      2417
 -1       936    8    0    1
 -2       404       405       545      2000      2423      2424
 -1       937    8    0    1
 -2       404       545       544      2424      2425      2420
 -1       938    8    0    1
 -2       405       406       546      2003      2426      2427
 -1       939    8    0    1
 -2       405       546       545      2427      2428      2423
 -1       940    8    0    1
 -2       406       407       547      2006      2429      2430
 -1       941    8    0    1
 -2       406       547       546      2430      2431      2426
 -1       942    8    0    1
 -2       407       408       548      2009      2432      2433
 -1       943    8    0    1
 -2       407       548       547      2433      2434      2429
 -1       944    8    0    1
 -2       408       409       549      2012      2435      2436
 -1       945    8    0    1
 -2       408       549       548      2436      2437      2432
 -1       946    8    0    1
 -2       409       410       550      2015      2438      2439
 -1       947    8    0    1
 -2       409       550       549      2439      2440      2435
 -1       948    8    0    1
 -2       411       259       467      2016      2173      2441
 -1       949    8    0    1
 -2       337       323       551      2171      2442      2443
 -1       950    8    0    1
 -2       482       337       551      2235      2443      2444
 -1       951    8    0    1
 -2       323       322       551      1752      2445      2442
 -1       952    8    0    1
 -2       416       417       552      2031      2446      2447
 -1       953    8    0    1
 -2       419       420       553      2040      2448      2449
 -1       954    8    0    1
 -2       420       421       554      2043      2450      2451
 -1       955    8    0    1
 -2       420       554       553      2451      2452      2448
 -1       956    8    0    1
 -2       421       422       555      2046      2453      2454
 -1       957    8    0    1
 -2       421       555       554      2454      2455      2450
 -1       958    8    0    1
 -2       422       423       556      2049      2456      2457
 -1       959    8    0    1
 -2       422       556       555      2457      2458      2453
 -1       960    8    0    1
 -2       423       424       557      2052      2459      2460
 -1       961    8    0    1
 -2       423       557       556      2460      2461      2456
 -1       962    8    0    1
 -2       424       425       558      2055      2462      2463
 -1       963    8    0    1
 -2       424       558       557      2463      2464      2459
 -1       964    8    0    1
 -2       425       426       559      2058      2465      2466
 -1       965    8    0    1
 -2       425       559       558      2466      2467      2462
 -1       966    8    0    1
 -2       430       431       560      2074      2468      2469
 -1       967    8    0    1
 -2       428       430       561      2071      2470      2471
 -1       968    8    0    1
 -2       430       560       561      2469      2472      2470
 -1       969    8    0    1
 -2       429       428       562      2067      2473      2474
 -1       970    8    0    1
 -2       428       561       562      2471      2475      2473
 -1       971    8    0    1
 -2       441       442       563      2178      2476      2477
 -1       972    8    0    1
 -2       431       432       564      2077      2478      2479
 -1       973    8    0    1
 -2       431       564       560      2479      2480      2468
 -1       974    8    0    1
 -2       432       433       565      2080      2481      2482
 -1       975    8    0    1
 -2       432       565       564      2482      2483      2478
 -1       976    8    0    1
 -2       433       434       566      2083      2484      2485
 -1       977    8    0    1
 -2       433       566       565      2485      2486      2481
 -1       978    8    0    1
 -2       434       435       567      2086      2487      2488
 -1       979    8    0    1
 -2       434       567       566      2488      2489      2484
 -1       980    8    0    1
 -2       435       436       568      2089      2490      2491
 -1       981    8    0    1
 -2       435       568       567      2491      2492      2487
 -1       982    8    0    1
 -2       436       437       569      2092      2493      2494
 -1       983    8    0    1
 -2       436       569       568      2494      2495      2490
 -1       984    8    0    1
 -2       437       438       570      2095      2496      2497
 -1       985    8    0    1
 -2       437       570       569      2497      2498      2493
 -1       986    8    0    1
 -2       438       439       571      2098      2499      2500
 -1       987    8    0    1
 -2       438       571       570      2500      2501      2496
 -1       988    8    0    1
 -2       440       443       552      2181      2502      2503
 -1       989    8    0    1
 -2       384       385       572      1940      2504      2505
 -1       990    8    0    1
 -2       385       526       572      2368      2506      2504
 -1       991    8    0    1
 -2       442       440       573      2179      2507      2508
 -1       992    8    0    1
 -2       465       441       574      2182      2509      2510
 -1       993    8    0    1
 -2       457       458       575      2191      2511      2512
 -1       994    8    0    1
 -2       464       465       576      2184      2513      2514
 -1       995    8    0    1
 -2       439       292       382      2180      1930      2515
 -1       996    8    0    1
 -2       418       419       577      2037      2516      2517
 -1       997    8    0    1
 -2       419       553       577      2449      2518      2516
 -1       998    8    0    1
 -2       417       418       578      2034      2519      2520
 -1       999    8    0    1
 -2       417       578       552      2520      2521      2446
 -1      1000    8    0    1
 -2       326       327       579      1763      2522      2523
 -1      1001    8    0    1
 -2       472       326       579      2208      2523      2524
 -1      1002    8    0    1
 -2       327       474       579      2214      2525      2522
 -1      1003    8    0    1
 -2       448       449       580      2200      2526      2527
 -1      1004    8    0    1
 -2       450       451       581      2131      2528      2529
 -1      1005    8    0    1
 -2       451       452       582      2196      2530      2531
 -1      1006    8    0    1
 -2       452       480       582      2231      2532      2530
 -1      1007    8    0    1
 -2       453       454       583      2195      2533      2534
 -1      1008    8    0    1
 -2       454       455       584      2194      2535      2536
 -1      1009    8    0    1
 -2       455       456       585      2193      2537      2538
 -1      1010    8    0    1
 -2       456       457       586      2192      2539      2540
 -1      1011    8    0    1
 -2       458       459       587      2148      2541      2542
 -1      1012    8    0    1
 -2       461       462       588      2156      2543      2544
 -1      1013    8    0    1
 -2       460       461       589      2153      2545      2546
 -1      1014    8    0    1
 -2       463       464       590      2161      2547      2548
 -1      1015    8    0    1
 -2       335       336       591      1792      2549      2550
 -1      1016    8    0    1
 -2       334       335       591      1787      2550      2551
 -1      1017    8    0    1
 -2       336       471       591      2207      2552      2549
 -1      1018    8    0    1
 -2       324       473       592      2211      2553      2554
 -1      1019    8    0    1
 -2       324       592       445      2554      2555      2112
 -1      1020    8    0    1
 -2       453       583       593      2534      2556      2557
 -1      1021    8    0    1
 -2       453       593       480      2557      2558      2230
 -1      1022    8    0    1
 -2       333       334       591      1784      2551      2559
 -1      1023    8    0    1
 -2       414       415       466      2168      2560      2167
 -1      1024    8    0    1
 -2       418       577       578      2517      2561      2519
 -1      1025    8    0    1
 -2       411       467       580      2441      2562      2563
 -1      1026    8    0    1
 -2       550       410       580      2438      2564      2565
 -1      1027    8    0    1
 -2       410       411       580      2018      2563      2564
 -1      1028    8    0    1
 -2       551       322       445      2445      2111      2566
 -1      1029    8    0    1
 -2       427       429       559      2177      2567      2568
 -1      1030    8    0    1
 -2       429       562       559      2474      2569      2567
 -1      1031    8    0    1
 -2       441       563       574      2477      2570      2509
 -1      1032    8    0    1
 -2       563       442       573      2476      2508      2571
 -1      1033    8    0    1
 -2       440       552       573      2503      2572      2507
 -1      1034    8    0    1
 -2       552       443       416      2502      2573      2447
 -1      1035    8    0    1
 -2       384       572       481      2505      2574      2232
 -1      1036    8    0    1
 -2       333       591       479      2559      2575      2227
 -1      1037    8    0    1
 -2       580       467       448      2562      2576      2527
 -1      1038    8    0    1
 -2       465       574       576      2510      2577      2513
 -1      1039    8    0    1
 -2       457       575       586      2512      2578      2539
 -1      1040    8    0    1
 -2       468       463       594      2185      2579      2580
 -1      1041    8    0    1
 -2       463       590       594      2548      2581      2579
 -1      1042    8    0    1
 -2       469       460       589      2190      2546      2582
 -1      1043    8    0    1
 -2       464       576       590      2514      2583      2547
 -1      1044    8    0    1
 -2       589       461       588      2545      2544      2584
 -1      1045    8    0    1
 -2       588       462       468      2543      2187      2585
 -1      1046    8    0    1
 -2       587       459       595      2541      2586      2587
 -1      1047    8    0    1
 -2       459       469       595      2189      2588      2586
 -1      1048    8    0    1
 -2       470       450       581      2199      2529      2589
 -1      1049    8    0    1
 -2       585       456       586      2537      2540      2590
 -1      1050    8    0    1
 -2       584       455       585      2535      2538      2591
 -1      1051    8    0    1
 -2       439       382       596      2515      2592      2593
 -1      1052    8    0    1
 -2       571       439       596      2499      2593      2594
 -1      1053    8    0    1
 -2       382       381       596      1931      2595      2592
 -1      1054    8    0    1
 -2       581       451       582      2528      2531      2596
 -1      1055    8    0    1
 -2       575       458       587      2511      2542      2597
 -1      1056    8    0    1
 -2       447       448       467      2201      2576      2598
 -1      1057    8    0    1
 -2       583       454       584      2533      2536      2599
 -1      1058    8    0    1
 -2       596       381       525      2595      2365      2600
 -1      1059    8    0    1
 -2       466       415       444      2560      2601      2166
 -1      1060    8    0    1
 -2       443       444       416      2183      2602      2573
 -1      1061    8    0    1
 -2       416       444       415      2602      2601      2170
 -1      1062    8    0    1
 -2       576       574       597      2577      2603      2604
 -1      1063    8    0    1
 -2       475       476       598      2220      2605      2606
 -1      1064    8    0    1
 -2       474       475       599      2217      2607      2608
 -1      1065    8    0    1
 -2       475       598       599      2606      2609      2607
 -1      1066    8    0    1
 -2       477       478       600      2226      2610      2611
 -1      1067    8    0    1
 -2       478       479       601      2229      2612      2613
 -1      1068    8    0    1
 -2       478       601       600      2613      2614      2610
 -1      1069    8    0    1
 -2       583       584       602      2599      2615      2616
 -1      1070    8    0    1
 -2       471       481       603      2234      2617      2618
 -1      1071    8    0    1
 -2       467       412       447      2237      2202      2598
 -1      1072    8    0    1
 -2       551       445       592      2566      2555      2619
 -1      1073    8    0    1
 -2       483       482       604      2240      2620      2621
 -1      1074    8    0    1
 -2       484       483       605      2243      2622      2623
 -1      1075    8    0    1
 -2       483       604       605      2621      2624      2622
 -1      1076    8    0    1
 -2       485       484       606      2246      2625      2626
 -1      1077    8    0    1
 -2       484       605       606      2623      2627      2625
 -1      1078    8    0    1
 -2       486       485       607      2249      2628      2629
 -1      1079    8    0    1
 -2       485       606       607      2626      2630      2628
 -1      1080    8    0    1
 -2       487       486       608      2252      2631      2632
 -1      1081    8    0    1
 -2       486       607       608      2629      2633      2631
 -1      1082    8    0    1
 -2       488       487       609      2255      2634      2635
 -1      1083    8    0    1
 -2       487       608       609      2632      2636      2634
 -1      1084    8    0    1
 -2       489       488       610      2258      2637      2638
 -1      1085    8    0    1
 -2       488       609       610      2635      2639      2637
 -1      1086    8    0    1
 -2       490       489       611      2261      2640      2641
 -1      1087    8    0    1
 -2       489       610       611      2638      2642      2640
 -1      1088    8    0    1
 -2       491       490       612      2264      2643      2644
 -1      1089    8    0    1
 -2       490       611       612      2641      2645      2643
 -1      1090    8    0    1
 -2       492       491       613      2267      2646      2647
 -1      1091    8    0    1
 -2       491       612       613      2644      2648      2646
 -1      1092    8    0    1
 -2       493       492       614      2270      2649      2650
 -1      1093    8    0    1
 -2       492       613       614      2647      2651      2649
 -1      1094    8    0    1
 -2       494       493       615      2273      2652      2653
 -1      1095    8    0    1
 -2       493       614       615      2650      2654      2652
 -1      1096    8    0    1
 -2       495       494       616      2276      2655      2656
 -1      1097    8    0    1
 -2       494       615       616      2653      2657      2655
 -1      1098    8    0    1
 -2       496       495       617      2279      2658      2659
 -1      1099    8    0    1
 -2       495       616       617      2656      2660      2658
 -1      1100    8    0    1
 -2       497       496       618      2282      2661      2662
 -1      1101    8    0    1
 -2       496       617       618      2659      2663      2661
 -1      1102    8    0    1
 -2       498       497       619      2285      2664      2665
 -1      1103    8    0    1
 -2       497       618       619      2662      2666      2664
 -1      1104    8    0    1
 -2       499       498       620      2288      2667      2668
 -1      1105    8    0    1
 -2       498       619       620      2665      2669      2667
 -1      1106    8    0    1
 -2       500       499       621      2291      2670      2671
 -1      1107    8    0    1
 -2       499       620       621      2668      2672      2670
 -1      1108    8    0    1
 -2       501       500       622      2294      2673      2674
 -1      1109    8    0    1
 -2       500       621       622      2671      2675      2673
 -1      1110    8    0    1
 -2       502       501       623      2297      2676      2677
 -1      1111    8    0    1
 -2       501       622       623      2674      2678      2676
 -1      1112    8    0    1
 -2       503       502       624      2300      2679      2680
 -1      1113    8    0    1
 -2       502       623       624      2677      2681      2679
 -1      1114    8    0    1
 -2       504       503       625      2303      2682      2683
 -1      1115    8    0    1
 -2       503       624       625      2680      2684      2682
 -1      1116    8    0    1
 -2       505       504       626      2306      2685      2686
 -1      1117    8    0    1
 -2       504       625       626      2683      2687      2685
 -1      1118    8    0    1
 -2       506       505       627      2309      2688      2689
 -1      1119    8    0    1
 -2       505       626       627      2686      2690      2688
 -1      1120    8    0    1
 -2       507       506       628      2312      2691      2692
 -1      1121    8    0    1
 -2       506       627       628      2689      2693      2691
 -1      1122    8    0    1
 -2       508       507       629      2315      2694      2695
 -1      1123    8    0    1
 -2       507       628       629      2692      2696      2694
 -1      1124    8    0    1
 -2       509       508       630      2318      2697      2698
 -1      1125    8    0    1
 -2       508       629       630      2695      2699      2697
 -1      1126    8    0    1
 -2       510       509       631      2321      2700      2701
 -1      1127    8    0    1
 -2       509       630       631      2698      2702      2700
 -1      1128    8    0    1
 -2       511       510       632      2324      2703      2704
 -1      1129    8    0    1
 -2       510       631       632      2701      2705      2703
 -1      1130    8    0    1
 -2       512       511       633      2327      2706      2707
 -1      1131    8    0    1
 -2       511       632       633      2704      2708      2706
 -1      1132    8    0    1
 -2       513       512       634      2330      2709      2710
 -1      1133    8    0    1
 -2       512       633       634      2707      2711      2709
 -1      1134    8    0    1
 -2       514       513       635      2333      2712      2713
 -1      1135    8    0    1
 -2       513       634       635      2710      2714      2712
 -1      1136    8    0    1
 -2       515       514       636      2336      2715      2716
 -1      1137    8    0    1
 -2       514       635       636      2713      2717      2715
 -1      1138    8    0    1
 -2       516       515       637      2339      2718      2719
 -1      1139    8    0    1
 -2       515       636       637      2716      2720      2718
 -1      1140    8    0    1
 -2       517       516       638      2342      2721      2722
 -1      1141    8    0    1
 -2       516       637       638      2719      2723      2721
 -1      1142    8    0    1
 -2       518       517       639      2345      2724      2725
 -1      1143    8    0    1
 -2       517       638       639      2722      2726      2724
 -1      1144    8    0    1
 -2       519       518       640      2348      2727      2728
 -1      1145    8    0    1
 -2       518       639       640      2725      2729      2727
 -1      1146    8    0    1
 -2       520       519       641      2351      2730      2731
 -1      1147    8    0    1
 -2       519       640       641      2728      2732      2730
 -1      1148    8    0    1
 -2       521       520       642      2354      2733      2734
 -1      1149    8    0    1
 -2       520       641       642      2731      2735      2733
 -1      1150    8    0    1
 -2       522       521       643      2357      2736      2737
 -1      1151    8    0    1
 -2       521       642       643      2734      2738      2736
 -1      1152    8    0    1
 -2       523       522       644      2360      2739      2740
 -1      1153    8    0    1
 -2       522       643       644      2737      2741      2739
 -1      1154    8    0    1
 -2       524       523       645      2363      2742      2743
 -1      1155    8    0    1
 -2       523       644       645      2740      2744      2742
 -1      1156    8    0    1
 -2       525       524       646      2366      2745      2746
 -1      1157    8    0    1
 -2       524       645       646      2743      2747      2745
 -1      1158    8    0    1
 -2       565       566       647      2486      2748      2749
 -1      1159    8    0    1
 -2       581       582       648      2596      2750      2751
 -1      1160    8    0    1
 -2       528       529       649      2377      2752      2753
 -1      1161    8    0    1
 -2       526       527       650      2371      2754      2755
 -1      1162    8    0    1
 -2       529       530       651      2380      2756      2757
 -1      1163    8    0    1
 -2       529       651       649      2757      2758      2752
 -1      1164    8    0    1
 -2       530       531       652      2383      2759      2760
 -1      1165    8    0    1
 -2       530       652       651      2760      2761      2756
 -1      1166    8    0    1
 -2       531       532       653      2386      2762      2763
 -1      1167    8    0    1
 -2       531       653       652      2763      2764      2759
 -1      1168    8    0    1
 -2       532       533       654      2389      2765      2766
 -1      1169    8    0    1
 -2       532       654       653      2766      2767      2762
 -1      1170    8    0    1
 -2       533       534       655      2392      2768      2769
 -1      1171    8    0    1
 -2       533       655       654      2769      2770      2765
 -1      1172    8    0    1
 -2       534       535       656      2395      2771      2772
 -1      1173    8    0    1
 -2       534       656       655      2772      2773      2768
 -1      1174    8    0    1
 -2       535       536       657      2398      2774      2775
 -1      1175    8    0    1
 -2       535       657       656      2775      2776      2771
 -1      1176    8    0    1
 -2       536       537       658      2401      2777      2778
 -1      1177    8    0    1
 -2       536       658       657      2778      2779      2774
 -1      1178    8    0    1
 -2       537       538       659      2404      2780      2781
 -1      1179    8    0    1
 -2       537       659       658      2781      2782      2777
 -1      1180    8    0    1
 -2       538       539       660      2407      2783      2784
 -1      1181    8    0    1
 -2       538       660       659      2784      2785      2780
 -1      1182    8    0    1
 -2       539       540       661      2410      2786      2787
 -1      1183    8    0    1
 -2       539       661       660      2787      2788      2783
 -1      1184    8    0    1
 -2       540       541       662      2413      2789      2790
 -1      1185    8    0    1
 -2       540       662       661      2790      2791      2786
 -1      1186    8    0    1
 -2       541       542       663      2416      2792      2793
 -1      1187    8    0    1
 -2       541       663       662      2793      2794      2789
 -1      1188    8    0    1
 -2       542       543       664      2419      2795      2796
 -1      1189    8    0    1
 -2       542       664       663      2796      2797      2792
 -1      1190    8    0    1
 -2       543       544       665      2422      2798      2799
 -1      1191    8    0    1
 -2       543       665       664      2799      2800      2795
 -1      1192    8    0    1
 -2       544       545       666      2425      2801      2802
 -1      1193    8    0    1
 -2       544       666       665      2802      2803      2798
 -1      1194    8    0    1
 -2       545       546       667      2428      2804      2805
 -1      1195    8    0    1
 -2       545       667       666      2805      2806      2801
 -1      1196    8    0    1
 -2       546       547       668      2431      2807      2808
 -1      1197    8    0    1
 -2       546       668       667      2808      2809      2804
 -1      1198    8    0    1
 -2       547       548       669      2434      2810      2811
 -1      1199    8    0    1
 -2       547       669       668      2811      2812      2807
 -1      1200    8    0    1
 -2       548       549       670      2437      2813      2814
 -1      1201    8    0    1
 -2       548       670       669      2814      2815      2810
 -1      1202    8    0    1
 -2       549       550       671      2440      2816      2817
 -1      1203    8    0    1
 -2       549       671       670      2817      2818      2813
 -1      1204    8    0    1
 -2       555       556       672      2458      2819      2820
 -1      1205    8    0    1
 -2       574       563       673      2570      2821      2822
 -1      1206    8    0    1
 -2       559       562       674      2569      2823      2824
 -1      1207    8    0    1
 -2       559       674       558      2824      2825      2467
 -1      1208    8    0    1
 -2       580       449       675      2526      2826      2827
 -1      1209    8    0    1
 -2       527       528       676      2374      2828      2829
 -1      1210    8    0    1
 -2       528       649       676      2753      2830      2828
 -1      1211    8    0    1
 -2       554       555       677      2455      2831      2832
 -1      1212    8    0    1
 -2       555       672       677      2820      2833      2831
 -1      1213    8    0    1
 -2       552       578       573      2521      2834      2572
 -1      1214    8    0    1
 -2       553       554       678      2452      2835      2836
 -1      1215    8    0    1
 -2       554       677       678      2832      2837      2835
 -1      1216    8    0    1
 -2       556       557       679      2461      2838      2839
 -1      1217    8    0    1
 -2       556       679       672      2839      2840      2819
 -1      1218    8    0    1
 -2       557       558       680      2464      2841      2842
 -1      1219    8    0    1
 -2       679       557       680      2838      2842      2843
 -1      1220    8    0    1
 -2       558       674       680      2825      2844      2841
 -1      1221    8    0    1
 -2       564       565       681      2483      2845      2846
 -1      1222    8    0    1
 -2       565       647       681      2749      2847      2845
 -1      1223    8    0    1
 -2       426       427       559      2061      2568      2465
 -1      1224    8    0    1
 -2       562       561       674      2475      2848      2823
 -1      1225    8    0    1
 -2       560       564       682      2480      2849      2850
 -1      1226    8    0    1
 -2       564       681       682      2846      2851      2849
 -1      1227    8    0    1
 -2       566       567       683      2489      2852      2853
 -1      1228    8    0    1
 -2       566       683       647      2853      2854      2748
 -1      1229    8    0    1
 -2       567       568       684      2492      2855      2856
 -1      1230    8    0    1
 -2       567       684       683      2856      2857      2852
 -1      1231    8    0    1
 -2       568       569       685      2495      2858      2859
 -1      1232    8    0    1
 -2       568       685       684      2859      2860      2855
 -1      1233    8    0    1
 -2       569       570       686      2498      2861      2862
 -1      1234    8    0    1
 -2       569       686       685      2862      2863      2858
 -1      1235    8    0    1
 -2       578       577       687      2561      2864      2865
 -1      1236    8    0    1
 -2       591       471       479      2552      2866      2575
 -1      1237    8    0    1
 -2       589       588       688      2584      2867      2868
 -1      1238    8    0    1
 -2       449       470       675      2198      2869      2826
 -1      1239    8    0    1
 -2       582       480       689      2532      2870      2871
 -1      1240    8    0    1
 -2       586       575       690      2578      2872      2873
 -1      1241    8    0    1
 -2       577       553       691      2518      2874      2875
 -1      1242    8    0    1
 -2       553       678       691      2836      2876      2874
 -1      1243    8    0    1
 -2       481       572       692      2574      2877      2878
 -1      1244    8    0    1
 -2       481       692       603      2878      2879      2617
 -1      1245    8    0    1
 -2       572       526       693      2506      2880      2881
 -1      1246    8    0    1
 -2       692       572       693      2877      2881      2882
 -1      1247    8    0    1
 -2       526       650       693      2755      2883      2880
 -1      1248    8    0    1
 -2       563       573       694      2571      2884      2885
 -1      1249    8    0    1
 -2       561       560       695      2472      2886      2887
 -1      1250    8    0    1
 -2       560       682       695      2850      2888      2886
 -1      1251    8    0    1
 -2       585       586       696      2590      2889      2890
 -1      1252    8    0    1
 -2       575       587       697      2597      2891      2892
 -1      1253    8    0    1
 -2       476       477       698      2223      2893      2894
 -1      1254    8    0    1
 -2       598       476       698      2605      2894      2895
 -1      1255    8    0    1
 -2       477       600       698      2611      2896      2893
 -1      1256    8    0    1
 -2       473       472       699      2212      2897      2898
 -1      1257    8    0    1
 -2       596       525       700      2600      2899      2900
 -1      1258    8    0    1
 -2       525       646       700      2746      2901      2899
 -1      1259    8    0    1
 -2       571       596       700      2594      2900      2902
 -1      1260    8    0    1
 -2       584       585       701      2591      2903      2904
 -1      1261    8    0    1
 -2       588       468       702      2585      2905      2906
 -1      1262    8    0    1
 -2       590       576       703      2583      2907      2908
 -1      1263    8    0    1
 -2       576       597       703      2604      2909      2907
 -1      1264    8    0    1
 -2       469       589       704      2582      2910      2911
 -1      1265    8    0    1
 -2       470       581       671      2589      2912      2913
 -1      1266    8    0    1
 -2       573       578       694      2834      2914      2884
 -1      1267    8    0    1
 -2       473       699       705      2898      2915      2916
 -1      1268    8    0    1
 -2       473       705       592      2916      2917      2553
 -1      1269    8    0    1
 -2       593       583       602      2556      2616      2918
 -1      1270    8    0    1
 -2       474       599       706      2608      2919      2920
 -1      1271    8    0    1
 -2       474       706       579      2920      2921      2525
 -1      1272    8    0    1
 -2       602       584       701      2615      2904      2922
 -1      1273    8    0    1
 -2       472       579       707      2524      2923      2924
 -1      1274    8    0    1
 -2       699       472       707      2897      2924      2925
 -1      1275    8    0    1
 -2       579       706       707      2921      2926      2923
 -1      1276    8    0    1
 -2       648       582       689      2750      2871      2927
 -1      1277    8    0    1
 -2       469       704       595      2911      2928      2588
 -1      1278    8    0    1
 -2       697       587       708      2891      2929      2930
 -1      1279    8    0    1
 -2       587       595       708      2587      2931      2929
 -1      1280    8    0    1
 -2       581       648       671      2751      2932      2912
 -1      1281    8    0    1
 -2       563       694       673      2885      2933      2821
 -1      1282    8    0    1
 -2       550       580       675      2565      2827      2934
 -1      1283    8    0    1
 -2       574       673       597      2822      2935      2603
 -1      1284    8    0    1
 -2       571       700       570      2902      2936      2501
 -1      1285    8    0    1
 -2       527       676       650      2829      2937      2754
 -1      1286    8    0    1
 -2       482       551       709      2444      2938      2939
 -1      1287    8    0    1
 -2       674       561       695      2848      2887      2940
 -1      1288    8    0    1
 -2       578       687       694      2865      2941      2914
 -1      1289    8    0    1
 -2       686       570       700      2861      2936      2942
 -1      1290    8    0    1
 -2       687       577       691      2864      2875      2943
 -1      1291    8    0    1
 -2       479       471       603      2866      2618      2944
 -1      1292    8    0    1
 -2       594       590       710      2581      2945      2946
 -1      1293    8    0    1
 -2       590       703       710      2908      2947      2945
 -1      1294    8    0    1
 -2       688       588       702      2867      2906      2948
 -1      1295    8    0    1
 -2       689       480       711      2870      2949      2950
 -1      1296    8    0    1
 -2       480       593       711      2558      2951      2949
 -1      1297    8    0    1
 -2       468       594       702      2580      2952      2905
 -1      1298    8    0    1
 -2       482       709       604      2939      2953      2620
 -1      1299    8    0    1
 -2       586       690       696      2873      2954      2889
 -1      1300    8    0    1
 -2       479       603       601      2944      2955      2612
 -1      1301    8    0    1
 -2       690       575       697      2872      2892      2956
 -1      1302    8    0    1
 -2       585       696       701      2890      2957      2903
 -1      1303    8    0    1
 -2       589       688       712      2868      2958      2959
 -1      1304    8    0    1
 -2       589       712       704      2959      2960      2910
 -1      1305    8    0    1
 -2       550       675       671      2934      2961      2816
 -1      1306    8    0    1
 -2       648       689       713      2927      2962      2963
 -1      1307    8    0    1
 -2       600       601       714      2614      2964      2965
 -1      1308    8    0    1
 -2       593       602       715      2918      2966      2967
 -1      1309    8    0    1
 -2       651       652       716      2761      2968      2969
 -1      1310    8    0    1
 -2       696       690       717      2954      2970      2971
 -1      1311    8    0    1
 -2       606       605       718      2627      2972      2973
 -1      1312    8    0    1
 -2       607       606       719      2630      2974      2975
 -1      1313    8    0    1
 -2       606       718       719      2973      2976      2974
 -1      1314    8    0    1
 -2       608       607       720      2633      2977      2978
 -1      1315    8    0    1
 -2       607       719       720      2975      2979      2977
 -1      1316    8    0    1
 -2       609       608       721      2636      2980      2981
 -1      1317    8    0    1
 -2       608       720       721      2978      2982      2980
 -1      1318    8    0    1
 -2       610       609       722      2639      2983      2984
 -1      1319    8    0    1
 -2       609       721       722      2981      2985      2983
 -1      1320    8    0    1
 -2       611       610       723      2642      2986      2987
 -1      1321    8    0    1
 -2       610       722       723      2984      2988      2986
 -1      1322    8    0    1
 -2       612       611       724      2645      2989      2990
 -1      1323    8    0    1
 -2       611       723       724      2987      2991      2989
 -1      1324    8    0    1
 -2       613       612       725      2648      2992      2993
 -1      1325    8    0    1
 -2       612       724       725      2990      2994      2992
 -1      1326    8    0    1
 -2       614       613       726      2651      2995      2996
 -1      1327    8    0    1
 -2       613       725       726      2993      2997      2995
 -1      1328    8    0    1
 -2       615       614       727      2654      2998      2999
 -1      1329    8    0    1
 -2       614       726       727      2996      3000      2998
 -1      1330    8    0    1
 -2       616       615       728      2657      3001      3002
 -1      1331    8    0    1
 -2       615       727       728      2999      3003      3001
 -1      1332    8    0    1
 -2       617       616       729      2660      3004      3005
 -1      1333    8    0    1
 -2       616       728       729      3002      3006      3004
 -1      1334    8    0    1
 -2       618       617       730      2663      3007      3008
 -1      1335    8    0    1
 -2       617       729       730      3005      3009      3007
 -1      1336    8    0    1
 -2       619       618       731      2666      3010      3011
 -1      1337    8    0    1
 -2       618       730       731      3008      3012      3010
 -1      1338    8    0    1
 -2       620       619       732      2669      3013      3014
 -1      1339    8    0    1
 -2       619       731       732      3011      3015      3013
 -1      1340    8    0    1
 -2       621       620       733      2672      3016      3017
 -1      1341    8    0    1
 -2       620       732       733      3014      3018      3016
 -1      1342    8    0    1
 -2       622       621       734      2675      3019      3020
 -1      1343    8    0    1
 -2       621       733       734      3017      3021      3019
 -1      1344    8    0    1
 -2       623       622       735      2678      3022      3023
 -1      1345    8    0    1
 -2       622       734       735      3020      3024      3022
 -1      1346    8    0    1
 -2       624       623       736      2681      3025      3026
 -1      1347    8    0    1
 -2       623       735       736      3023      3027      3025
 -1      1348    8    0    1
 -2       625       624       737      2684      3028      3029
 -1      1349    8    0    1
 -2       624       736       737      3026      3030      3028
 -1      1350    8    0    1
 -2       626       625       738      2687      3031      3032
 -1      1351    8    0    1
 -2       625       737       738      3029      3033      3031
 -1      1352    8    0    1
 -2       627       626       739      2690      3034      3035
 -1      1353    8    0    1
 -2       626       738       739      3032      3036      3034
 -1      1354    8    0    1
 -2       628       627       740      2693      3037      3038
 -1      1355    8    0    1
 -2       627       739       740      3035      3039      3037
 -1      1356    8    0    1
 -2       629       628       741      2696      3040      3041
 -1      1357    8    0    1
 -2       628       740       741      3038      3042      3040
 -1      1358    8    0    1
 -2       630       629       742      2699      3043      3044
 -1      1359    8    0    1
 -2       629       741       742      3041      3045      3043
 -1      1360    8    0    1
 -2       631       630       743      2702      3046      3047
 -1      1361    8    0    1
 -2       630       742       743      3044      3048      3046
 -1      1362    8    0    1
 -2       632       631       744      2705      3049      3050
 -1      1363    8    0    1
 -2       631       743       744      3047      3051      3049
 -1      1364    8    0    1
 -2       633       632       745      2708      3052      3053
 -1      1365    8    0    1
 -2       632       744       745      3050      3054      3052
 -1      1366    8    0    1
 -2       634       633       746      2711      3055      3056
 -1      1367    8    0    1
 -2       633       745       746      3053      3057      3055
 -1      1368    8    0    1
 -2       635       634       747      2714      3058      3059
 -1      1369    8    0    1
 -2       634       746       747      3056      3060      3058
 -1      1370    8    0    1
 -2       636       635       748      2717      3061      3062
 -1      1371    8    0    1
 -2       635       747       748      3059      3063      3061
 -1      1372    8    0    1
 -2       637       636       749      2720      3064      3065
 -1      1373    8    0    1
 -2       636       748       749      3062      3066      3064
 -1      1374    8    0    1
 -2       638       637       750      2723      3067      3068
 -1      1375    8    0    1
 -2       637       749       750      3065      3069      3067
 -1      1376    8    0    1
 -2       639       638       751      2726      3070      3071
 -1      1377    8    0    1
 -2       638       750       751      3068      3072      3070
 -1      1378    8    0    1
 -2       640       639       752      2729      3073      3074
 -1      1379    8    0    1
 -2       639       751       752      3071      3075      3073
 -1      1380    8    0    1
 -2       641       640       753      2732      3076      3077
 -1      1381    8    0    1
 -2       640       752       753      3074      3078      3076
 -1      1382    8    0    1
 -2       642       641       754      2735      3079      3080
 -1      1383    8    0    1
 -2       641       753       754      3077      3081      3079
 -1      1384    8    0    1
 -2       643       642       755      2738      3082      3083
 -1      1385    8    0    1
 -2       642       754       755      3080      3084      3082
 -1      1386    8    0    1
 -2       644       643       756      2741      3085      3086
 -1      1387    8    0    1
 -2       643       755       756      3083      3087      3085
 -1      1388    8    0    1
 -2       645       644       757      2744      3088      3089
 -1      1389    8    0    1
 -2       644       756       757      3086      3090      3088
 -1      1390    8    0    1
 -2       646       645       758      2747      3091      3092
 -1      1391    8    0    1
 -2       645       757       758      3089      3093      3091
 -1      1392    8    0    1
 -2       683       684       759      2857      3094      3095
 -1      1393    8    0    1
 -2       672       679       760      2840      3096      3097
 -1      1394    8    0    1
 -2       649       651       761      2758      3098      3099
 -1      1395    8    0    1
 -2       651       716       761      2969      3100      3098
 -1      1396    8    0    1
 -2       653       654       762      2767      3101      3102
 -1      1397    8    0    1
 -2       654       655       763      2770      3103      3104
 -1      1398    8    0    1
 -2       654       763       762      3104      3105      3101
 -1      1399    8    0    1
 -2       655       656       764      2773      3106      3107
 -1      1400    8    0    1
 -2       655       764       763      3107      3108      3103
 -1      1401    8    0    1
 -2       656       657       765      2776      3109      3110
 -1      1402    8    0    1
 -2       656       765       764      3110      3111      3106
 -1      1403    8    0    1
 -2       657       658       766      2779      3112      3113
 -1      1404    8    0    1
 -2       657       766       765      3113      3114      3109
 -1      1405    8    0    1
 -2       658       659       767      2782      3115      3116
 -1      1406    8    0    1
 -2       658       767       766      3116      3117      3112
 -1      1407    8    0    1
 -2       659       660       768      2785      3118      3119
 -1      1408    8    0    1
 -2       659       768       767      3119      3120      3115
 -1      1409    8    0    1
 -2       660       661       769      2788      3121      3122
 -1      1410    8    0    1
 -2       660       769       768      3122      3123      3118
 -1      1411    8    0    1
 -2       661       662       770      2791      3124      3125
 -1      1412    8    0    1
 -2       661       770       769      3125      3126      3121
 -1      1413    8    0    1
 -2       662       663       771      2794      3127      3128
 -1      1414    8    0    1
 -2       662       771       770      3128      3129      3124
 -1      1415    8    0    1
 -2       663       664       772      2797      3130      3131
 -1      1416    8    0    1
 -2       663       772       771      3131      3132      3127
 -1      1417    8    0    1
 -2       664       665       773      2800      3133      3134
 -1      1418    8    0    1
 -2       664       773       772      3134      3135      3130
 -1      1419    8    0    1
 -2       665       666       774      2803      3136      3137
 -1      1420    8    0    1
 -2       665       774       773      3137      3138      3133
 -1      1421    8    0    1
 -2       666       667       775      2806      3139      3140
 -1      1422    8    0    1
 -2       666       775       774      3140      3141      3136
 -1      1423    8    0    1
 -2       667       668       776      2809      3142      3143
 -1      1424    8    0    1
 -2       667       776       775      3143      3144      3139
 -1      1425    8    0    1
 -2       668       669       777      2812      3145      3146
 -1      1426    8    0    1
 -2       668       777       776      3146      3147      3142
 -1      1427    8    0    1
 -2       669       670       778      2815      3148      3149
 -1      1428    8    0    1
 -2       669       778       777      3149      3150      3145
 -1      1429    8    0    1
 -2       670       671       779      2818      3151      3152
 -1      1430    8    0    1
 -2       778       670       779      3148      3152      3153
 -1      1431    8    0    1
 -2       671       648       779      2932      3154      3151
 -1      1432    8    0    1
 -2       687       691       780      2943      3155      3156
 -1      1433    8    0    1
 -2       647       683       781      2854      3157      3158
 -1      1434    8    0    1
 -2       683       759       781      3095      3159      3157
 -1      1435    8    0    1
 -2       595       704       782      2928      3160      3161
 -1      1436    8    0    1
 -2       595       782       708      3161      3162      2931
 -1      1437    8    0    1
 -2       709       551       592      2938      2619      3163
 -1      1438    8    0    1
 -2       677       672       783      2833      3164      3165
 -1      1439    8    0    1
 -2       672       760       783      3097      3166      3164
 -1      1440    8    0    1
 -2       674       695       784      2940      3167      3168
 -1      1441    8    0    1
 -2       674       784       680      3168      3169      2844
 -1      1442    8    0    1
 -2       678       677       785      2837      3170      3171
 -1      1443    8    0    1
 -2       677       783       785      3165      3172      3170
 -1      1444    8    0    1
 -2       681       647       786      2847      3173      3174
 -1      1445    8    0    1
 -2       647       781       786      3158      3175      3173
 -1      1446    8    0    1
 -2       703       597       787      2909      3176      3177
 -1      1447    8    0    1
 -2       597       673       788      2935      3178      3179
 -1      1448    8    0    1
 -2       597       788       787      3179      3180      3176
 -1      1449    8    0    1
 -2       691       678       789      2876      3181      3182
 -1      1450    8    0    1
 -2       678       785       789      3171      3183      3181
 -1      1451    8    0    1
 -2       682       681       790      2851      3184      3185
 -1      1452    8    0    1
 -2       681       786       790      3174      3186      3184
 -1      1453    8    0    1
 -2       684       685       791      2860      3187      3188
 -1      1454    8    0    1
 -2       684       791       759      3188      3189      3094
 -1      1455    8    0    1
 -2       685       686       792      2863      3190      3191
 -1      1456    8    0    1
 -2       685       792       791      3191      3192      3187
 -1      1457    8    0    1
 -2       650       676       793      2937      3193      3194
 -1      1458    8    0    1
 -2       599       598       794      2609      3195      3196
 -1      1459    8    0    1
 -2       675       470       671      2869      2913      2961
 -1      1460    8    0    1
 -2       702       594       795      2952      3197      3198
 -1      1461    8    0    1
 -2       602       701       796      2922      3199      3200
 -1      1462    8    0    1
 -2       676       649       797      2830      3201      3202
 -1      1463    8    0    1
 -2       649       761       797      3099      3203      3201
 -1      1464    8    0    1
 -2       695       682       798      2888      3204      3205
 -1      1465    8    0    1
 -2       784       695       798      3167      3205      3206
 -1      1466    8    0    1
 -2       682       790       798      3185      3207      3204
 -1      1467    8    0    1
 -2       694       687       799      2941      3208      3209
 -1      1468    8    0    1
 -2       673       694       799      2933      3209      3210
 -1      1469    8    0    1
 -2       687       780       799      3156      3211      3208
 -1      1470    8    0    1
 -2       601       603       800      2955      3212      3213
 -1      1471    8    0    1
 -2       714       601       800      2964      3213      3214
 -1      1472    8    0    1
 -2       603       692       800      2879      3215      3212
 -1      1473    8    0    1
 -2       605       604       801      2624      3216      3217
 -1      1474    8    0    1
 -2       605       801       718      3217      3218      2972
 -1      1475    8    0    1
 -2       701       696       802      2957      3219      3220
 -1      1476    8    0    1
 -2       652       653       803      2764      3221      3222
 -1      1477    8    0    1
 -2       716       652       803      2968      3222      3223
 -1      1478    8    0    1
 -2       653       762       803      3102      3224      3221
 -1      1479    8    0    1
 -2       688       702       804      2948      3225      3226
 -1      1480    8    0    1
 -2       690       697       805      2956      3227      3228
 -1      1481    8    0    1
 -2       690       805       717      3228      3229      2970
 -1      1482    8    0    1
 -2       709       592       705      3163      2917      3230
 -1      1483    8    0    1
 -2       706       599       806      2919      3231      3232
 -1      1484    8    0    1
 -2       599       794       806      3196      3233      3231
 -1      1485    8    0    1
 -2       600       714       807      2965      3234      3235
 -1      1486    8    0    1
 -2       600       807       698      3235      3236      2896
 -1      1487    8    0    1
 -2       593       715       711      2967      3237      2951
 -1      1488    8    0    1
 -2       594       710       795      2946      3238      3197
 -1      1489    8    0    1
 -2       688       804       808      3226      3239      3240
 -1      1490    8    0    1
 -2       688       808       712      3240      3241      2958
 -1      1491    8    0    1
 -2       696       717       802      2971      3242      3219
 -1      1492    8    0    1
 -2       780       691       789      3155      3182      3243
 -1      1493    8    0    1
 -2       779       648       713      3154      2963      3244
 -1      1494    8    0    1
 -2       705       699       809      2915      3245      3246
 -1      1495    8    0    1
 -2       679       680       810      2843      3247      3248
 -1      1496    8    0    1
 -2       760       679       810      3096      3248      3249
 -1      1497    8    0    1
 -2       680       784       810      3169      3250      3247
 -1      1498    8    0    1
 -2       703       787       811      3177      3251      3252
 -1      1499    8    0    1
 -2       703       811       710      3252      3253      2947
 -1      1500    8    0    1
 -2       782       704       812      3160      3254      3255
 -1      1501    8    0    1
 -2       704       712       812      2960      3256      3254
 -1      1502    8    0    1
 -2       788       673       799      3178      3210      3257
 -1      1503    8    0    1
 -2       800       692       813      3215      3258      3259
 -1      1504    8    0    1
 -2       692       693       813      2882      3260      3258
 -1      1505    8    0    1
 -2       792       686       758      3190      3261      3262
 -1      1506    8    0    1
 -2       793       676       797      3193      3202      3263
 -1      1507    8    0    1
 -2       794       598       814      3195      3264      3265
 -1      1508    8    0    1
 -2       598       698       814      2895      3266      3264
 -1      1509    8    0    1
 -2       796       701       815      3199      3267      3268
 -1      1510    8    0    1
 -2       701       802       815      3220      3269      3267
 -1      1511    8    0    1
 -2       697       708       816      2930      3270      3271
 -1      1512    8    0    1
 -2       697       816       805      3271      3272      3227
 -1      1513    8    0    1
 -2       804       702       795      3225      3198      3273
 -1      1514    8    0    1
 -2       602       796       715      3200      3274      2966
 -1      1515    8    0    1
 -2       693       650       817      2883      3275      3276
 -1      1516    8    0    1
 -2       813       693       817      3260      3276      3277
 -1      1517    8    0    1
 -2       650       793       817      3194      3278      3275
 -1      1518    8    0    1
 -2       713       689       818      2962      3279      3280
 -1      1519    8    0    1
 -2       689       711       818      2950      3281      3279
 -1      1520    8    0    1
 -2       700       646       686      2901      3282      2942
 -1      1521    8    0    1
 -2       699       707       819      2925      3283      3284
 -1      1522    8    0    1
 -2       699       819       809      3284      3285      3245
 -1      1523    8    0    1
 -2       604       709       705      2953      3230      3286
 -1      1524    8    0    1
 -2       686       646       758      3282      3092      3261
 -1      1525    8    0    1
 -2       604       705       801      3286      3287      3216
 -1      1526    8    0    1
 -2       707       706       820      2926      3288      3289
 -1      1527    8    0    1
 -2       707       820       819      3289      3290      3283
 -1      1528    8    0    1
 -2       708       782       821      3162      3291      3292
 -1      1529    8    0    1
 -2       708       821       816      3292      3293      3270
 -1      1530    8    0    1
 -2       720       719       822      2979      3294      3295
 -1      1531    8    0    1
 -2       721       720       823      2982      3296      3297
 -1      1532    8    0    1
 -2       720       822       823      3295      3298      3296
 -1      1533    8    0    1
 -2       722       721       824      2985      3299      3300
 -1      1534    8    0    1
 -2       721       823       824      3297      3301      3299
 -1      1535    8    0    1
 -2       723       722       825      2988      3302      3303
 -1      1536    8    0    1
 -2       722       824       825      3300      3304      3302
 -1      1537    8    0    1
 -2       724       723       826      2991      3305      3306
 -1      1538    8    0    1
 -2       723       825       826      3303      3307      3305
 -1      1539    8    0    1
 -2       725       724       827      2994      3308      3309
 -1      1540    8    0    1
 -2       724       826       827      3306      3310      3308
 -1      1541    8    0    1
 -2       726       725       828      2997      3311      3312
 -1      1542    8    0    1
 -2       725       827       828      3309      3313      3311
 -1      1543    8    0    1
 -2       727       726       829      3000      3314      3315
 -1      1544    8    0    1
 -2       726       828       829      3312      3316      3314
 -1      1545    8    0    1
 -2       728       727       830      3003      3317      3318
 -1      1546    8    0    1
 -2       727       829       830      3315      3319      3317
 -1      1547    8    0    1
 -2       729       728       831      3006      3320      3321
 -1      1548    8    0    1
 -2       728       830       831      3318      3322      3320
 -1      1549    8    0    1
 -2       730       729       832      3009      3323      3324
 -1      1550    8    0    1
 -2       729       831       832      3321      3325      3323
 -1      1551    8    0    1
 -2       731       730       833      3012      3326      3327
 -1      1552    8    0    1
 -2       730       832       833      3324      3328      3326
 -1      1553    8    0    1
 -2       732       731       834      3015      3329      3330
 -1      1554    8    0    1
 -2       731       833       834      3327      3331      3329
 -1      1555    8    0    1
 -2       733       732       835      3018      3332      3333
 -1      1556    8    0    1
 -2       732       834       835      3330      3334      3332
 -1      1557    8    0    1
 -2       734       733       836      3021      3335      3336
 -1      1558    8    0    1
 -2       733       835       836      3333      3337      3335
 -1      1559    8    0    1
 -2       735       734       837      3024      3338      3339
 -1      1560    8    0    1
 -2       734       836       837      3336      3340      3338
 -1      1561    8    0    1
 -2       736       735       838      3027      3341      3342
 -1      1562    8    0    1
 -2       735       837       838      3339      3343      3341
 -1      1563    8    0    1
 -2       737       736       839      3030      3344      3345
 -1      1564    8    0    1
 -2       736       838       839      3342      3346      3344
 -1      1565    8    0    1
 -2       738       737       840      3033      3347      3348
 -1      1566    8    0    1
 -2       737       839       840      3345      3349      3347
 -1      1567    8    0    1
 -2       739       738       841      3036      3350      3351
 -1      1568    8    0    1
 -2       738       840       841      3348      3352      3350
 -1      1569    8    0    1
 -2       740       739       842      3039      3353      3354
 -1      1570    8    0    1
 -2       739       841       842      3351      3355      3353
 -1      1571    8    0    1
 -2       741       740       843      3042      3356      3357
 -1      1572    8    0    1
 -2       740       842       843      3354      3358      3356
 -1      1573    8    0    1
 -2       742       741       844      3045      3359      3360
 -1      1574    8    0    1
 -2       741       843       844      3357      3361      3359
 -1      1575    8    0    1
 -2       743       742       845      3048      3362      3363
 -1      1576    8    0    1
 -2       742       844       845      3360      3364      3362
 -1      1577    8    0    1
 -2       744       743       846      3051      3365      3366
 -1      1578    8    0    1
 -2       743       845       846      3363      3367      3365
 -1      1579    8    0    1
 -2       745       744       847      3054      3368      3369
 -1      1580    8    0    1
 -2       744       846       847      3366      3370      3368
 -1      1581    8    0    1
 -2       746       745       848      3057      3371      3372
 -1      1582    8    0    1
 -2       745       847       848      3369      3373      3371
 -1      1583    8    0    1
 -2       747       746       849      3060      3374      3375
 -1      1584    8    0    1
 -2       746       848       849      3372      3376      3374
 -1      1585    8    0    1
 -2       748       747       850      3063      3377      3378
 -1      1586    8    0    1
 -2       747       849       850      3375      3379      3377
 -1      1587    8    0    1
 -2       749       748       851      3066      3380      3381
 -1      1588    8    0    1
 -2       748       850       851      3378      3382      3380
 -1      1589    8    0    1
 -2       750       749       852      3069      3383      3384
 -1      1590    8    0    1
 -2       749       851       852      3381      3385      3383
 -1      1591    8    0    1
 -2       751       750       853      3072      3386      3387
 -1      1592    8    0    1
 -2       750       852       853      3384      3388      3386
 -1      1593    8    0    1
 -2       752       751       854      3075      3389      3390
 -1      1594    8    0    1
 -2       751       853       854      3387      3391      3389
 -1      1595    8    0    1
 -2       753       752       855      3078      3392      3393
 -1      1596    8    0    1
 -2       752       854       855      3390      3394      3392
 -1      1597    8    0    1
 -2       754       753       856      3081      3395      3396
 -1      1598    8    0    1
 -2       753       855       856      3393      3397      3395
 -1      1599    8    0    1
 -2       755       754       857      3084      3398      3399
 -1      1600    8    0    1
 -2       754       856       857      3396      3400      3398
 -1      1601    8    0    1
 -2       756       755       858      3087      3401      3402
 -1      1602    8    0    1
 -2       755       857       858      3399      3403      3401
 -1      1603    8    0    1
 -2       757       756       859      3090      3404      3405
 -1      1604    8    0    1
 -2       756       858       859      3402      3406      3404
 -1      1605    8    0    1
 -2       758       757       860      3093      3407      3408
 -1      1606    8    0    1
 -2       792       758       860      3262      3408      3409
 -1      1607    8    0    1
 -2       757       859       860      3405      3410      3407
 -1      1608    8    0    1
 -2       791       792       861      3192      3411      3412
 -1      1609    8    0    1
 -2       792       860       861      3409      3413      3411
 -1      1610    8    0    1
 -2       763       764       862      3108      3414      3415
 -1      1611    8    0    1
 -2       762       763       863      3105      3416      3417
 -1      1612    8    0    1
 -2       763       862       863      3415      3418      3416
 -1      1613    8    0    1
 -2       765       766       864      3114      3419      3420
 -1      1614    8    0    1
 -2       766       767       865      3117      3421      3422
 -1      1615    8    0    1
 -2       766       865       864      3422      3423      3419
 -1      1616    8    0    1
 -2       767       768       866      3120      3424      3425
 -1      1617    8    0    1
 -2       767       866       865      3425      3426      3421
 -1      1618    8    0    1
 -2       768       769       867      3123      3427      3428
 -1      1619    8    0    1
 -2       768       867       866      3428      3429      3424
 -1      1620    8    0    1
 -2       769       770       868      3126      3430      3431
 -1      1621    8    0    1
 -2       769       868       867      3431      3432      3427
 -1      1622    8    0    1
 -2       770       771       869      3129      3433      3434
 -1      1623    8    0    1
 -2       770       869       868      3434      3435      3430
 -1      1624    8    0    1
 -2       771       772       870      3132      3436      3437
 -1      1625    8    0    1
 -2       771       870       869      3437      3438      3433
 -1      1626    8    0    1
 -2       772       773       871      3135      3439      3440
 -1      1627    8    0    1
 -2       772       871       870      3440      3441      3436
 -1      1628    8    0    1
 -2       773       774       872      3138      3442      3443
 -1      1629    8    0    1
 -2       773       872       871      3443      3444      3439
 -1      1630    8    0    1
 -2       774       775       873      3141      3445      3446
 -1      1631    8    0    1
 -2       774       873       872      3446      3447      3442
 -1      1632    8    0    1
 -2       775       776       874      3144      3448      3449
 -1      1633    8    0    1
 -2       775       874       873      3449      3450      3445
 -1      1634    8    0    1
 -2       776       777       875      3147      3451      3452
 -1      1635    8    0    1
 -2       776       875       874      3452      3453      3448
 -1      1636    8    0    1
 -2       777       778       876      3150      3454      3455
 -1      1637    8    0    1
 -2       777       876       875      3455      3456      3451
 -1      1638    8    0    1
 -2       778       779       877      3153      3457      3458
 -1      1639    8    0    1
 -2       876       778       877      3454      3458      3459
 -1      1640    8    0    1
 -2       779       713       877      3244      3460      3457
 -1      1641    8    0    1
 -2       781       759       878      3159      3461      3462
 -1      1642    8    0    1
 -2       705       809       801      3246      3463      3287
 -1      1643    8    0    1
 -2       783       760       879      3166      3464      3465
 -1      1644    8    0    1
 -2       799       780       880      3211      3466      3467
 -1      1645    8    0    1
 -2       799       880       788      3467      3468      3257
 -1      1646    8    0    1
 -2       785       783       881      3172      3469      3470
 -1      1647    8    0    1
 -2       783       879       881      3465      3471      3469
 -1      1648    8    0    1
 -2       786       781       882      3175      3472      3473
 -1      1649    8    0    1
 -2       781       878       882      3462      3474      3472
 -1      1650    8    0    1
 -2       787       788       883      3180      3475      3476
 -1      1651    8    0    1
 -2       789       785       884      3183      3477      3478
 -1      1652    8    0    1
 -2       785       881       884      3470      3479      3477
 -1      1653    8    0    1
 -2       711       715       885      3237      3480      3481
 -1      1654    8    0    1
 -2       711       885       818      3481      3482      3281
 -1      1655    8    0    1
 -2       790       786       886      3186      3483      3484
 -1      1656    8    0    1
 -2       786       882       886      3473      3485      3483
 -1      1657    8    0    1
 -2       793       797       887      3263      3486      3487
 -1      1658    8    0    1
 -2       764       765       888      3111      3488      3489
 -1      1659    8    0    1
 -2       862       764       888      3414      3489      3490
 -1      1660    8    0    1
 -2       765       864       888      3420      3491      3488
 -1      1661    8    0    1
 -2       797       761       889      3203      3492      3493
 -1      1662    8    0    1
 -2       797       889       887      3493      3494      3486
 -1      1663    8    0    1
 -2       761       716       890      3100      3495      3496
 -1      1664    8    0    1
 -2       761       890       889      3496      3497      3492
 -1      1665    8    0    1
 -2       795       710       891      3238      3498      3499
 -1      1666    8    0    1
 -2       710       811       891      3253      3500      3498
 -1      1667    8    0    1
 -2       719       718       892      2976      3501      3502
 -1      1668    8    0    1
 -2       719       892       822      3502      3503      3294
 -1      1669    8    0    1
 -2       802       717       893      3242      3504      3505
 -1      1670    8    0    1
 -2       718       801       894      3218      3506      3507
 -1      1671    8    0    1
 -2       892       718       894      3501      3507      3508
 -1      1672    8    0    1
 -2       801       809       894      3463      3509      3506
 -1      1673    8    0    1
 -2       780       789       880      3243      3510      3466
 -1      1674    8    0    1
 -2       804       795       895      3273      3511      3512
 -1      1675    8    0    1
 -2       759       791       896      3189      3513      3514
 -1      1676    8    0    1
 -2       878       759       896      3461      3514      3515
 -1      1677    8    0    1
 -2       791       861       896      3412      3516      3513
 -1      1678    8    0    1
 -2       717       805       897      3229      3517      3518
 -1      1679    8    0    1
 -2       715       796       898      3274      3519      3520
 -1      1680    8    0    1
 -2       714       800       899      3214      3521      3522
 -1      1681    8    0    1
 -2       800       813       899      3259      3523      3521
 -1      1682    8    0    1
 -2       807       714       899      3234      3522      3524
 -1      1683    8    0    1
 -2       821       782       900      3291      3525      3526
 -1      1684    8    0    1
 -2       782       812       900      3255      3527      3525
 -1      1685    8    0    1
 -2       808       804       901      3239      3528      3529
 -1      1686    8    0    1
 -2       804       895       901      3512      3530      3528
 -1      1687    8    0    1
 -2       806       794       902      3233      3531      3532
 -1      1688    8    0    1
 -2       802       893       903      3505      3533      3534
 -1      1689    8    0    1
 -2       802       903       815      3534      3535      3269
 -1      1690    8    0    1
 -2       717       897       893      3518      3536      3504
 -1      1691    8    0    1
 -2       795       891       895      3499      3537      3511
 -1      1692    8    0    1
 -2       784       798       904      3206      3538      3539
 -1      1693    8    0    1
 -2       784       904       810      3539      3540      3250
 -1      1694    8    0    1
 -2       762       863       905      3417      3541      3542
 -1      1695    8    0    1
 -2       762       905       803      3542      3543      3224
 -1      1696    8    0    1
 -2       897       805       906      3517      3544      3545
 -1      1697    8    0    1
 -2       805       816       906      3272      3546      3544
 -1      1698    8    0    1
 -2       877       713       818      3460      3280      3547
 -1      1699    8    0    1
 -2       820       706       806      3288      3232      3548
 -1      1700    8    0    1
 -2       880       789       884      3510      3478      3549
 -1      1701    8    0    1
 -2       760       810       907      3249      3550      3551
 -1      1702    8    0    1
 -2       879       760       907      3464      3551      3552
 -1      1703    8    0    1
 -2       810       904       907      3540      3553      3550
 -1      1704    8    0    1
 -2       812       712       908      3256      3554      3555
 -1      1705    8    0    1
 -2       712       808       908      3241      3556      3554
 -1      1706    8    0    1
 -2       790       886       909      3484      3557      3558
 -1      1707    8    0    1
 -2       790       909       798      3558      3559      3207
 -1      1708    8    0    1
 -2       788       880       883      3468      3560      3475
 -1      1709    8    0    1
 -2       793       887       910      3487      3561      3562
 -1      1710    8    0    1
 -2       793       910       817      3562      3563      3278
 -1      1711    8    0    1
 -2       787       883       911      3476      3564      3565
 -1      1712    8    0    1
 -2       787       911       811      3565      3566      3251
 -1      1713    8    0    1
 -2       885       715       898      3480      3520      3567
 -1      1714    8    0    1
 -2       814       698       807      3266      3236      3568
 -1      1715    8    0    1
 -2       894       809       912      3509      3569      3570
 -1      1716    8    0    1
 -2       809       819       912      3285      3571      3569
 -1      1717    8    0    1
 -2       890       716       913      3495      3572      3573
 -1      1718    8    0    1
 -2       716       803       913      3223      3574      3572
 -1      1719    8    0    1
 -2       794       814       914      3265      3575      3576
 -1      1720    8    0    1
 -2       794       914       902      3576      3577      3531
 -1      1721    8    0    1
 -2       796       815       915      3268      3578      3579
 -1      1722    8    0    1
 -2       796       915       898      3579      3580      3519
 -1      1723    8    0    1
 -2       823       822       916      3298      3581      3582
 -1      1724    8    0    1
 -2       824       823       917      3301      3583      3584
 -1      1725    8    0    1
 -2       823       916       917      3582      3585      3583
 -1      1726    8    0    1
 -2       825       824       918      3304      3586      3587
 -1      1727    8    0    1
 -2       824       917       918      3584      3588      3586
 -1      1728    8    0    1
 -2       826       825       919      3307      3589      3590
 -1      1729    8    0    1
 -2       825       918       919      3587      3591      3589
 -1      1730    8    0    1
 -2       827       826       920      3310      3592      3593
 -1      1731    8    0    1
 -2       826       919       920      3590      3594      3592
 -1      1732    8    0    1
 -2       828       827       921      3313      3595      3596
 -1      1733    8    0    1
 -2       827       920       921      3593      3597      3595
 -1      1734    8    0    1
 -2       829       828       922      3316      3598      3599
 -1      1735    8    0    1
 -2       828       921       922      3596      3600      3598
 -1      1736    8    0    1
 -2       830       829       923      3319      3601      3602
 -1      1737    8    0    1
 -2       829       922       923      3599      3603      3601
 -1      1738    8    0    1
 -2       831       830       924      3322      3604      3605
 -1      1739    8    0    1
 -2       830       923       924      3602      3606      3604
 -1      1740    8    0    1
 -2       832       831       925      3325      3607      3608
 -1      1741    8    0    1
 -2       831       924       925      3605      3609      3607
 -1      1742    8    0    1
 -2       833       832       926      3328      3610      3611
 -1      1743    8    0    1
 -2       832       925       926      3608      3612      3610
 -1      1744    8    0    1
 -2       834       833       927      3331      3613      3614
 -1      1745    8    0    1
 -2       833       926       927      3611      3615      3613
 -1      1746    8    0    1
 -2       835       834       928      3334      3616      3617
 -1      1747    8    0    1
 -2       834       927       928      3614      3618      3616
 -1      1748    8    0    1
 -2       836       835       929      3337      3619      3620
 -1      1749    8    0    1
 -2       835       928       929      3617      3621      3619
 -1      1750    8    0    1
 -2       837       836       930      3340      3622      3623
 -1      1751    8    0    1
 -2       836       929       930      3620      3624      3622
 -1      1752    8    0    1
 -2       838       837       931      3343      3625      3626
 -1      1753    8    0    1
 -2       837       930       931      3623      3627      3625
 -1      1754    8    0    1
 -2       839       838       932      3346      3628      3629
 -1      1755    8    0    1
 -2       838       931       932      3626      3630      3628
 -1      1756    8    0    1
 -2       840       839       933      3349      3631      3632
 -1      1757    8    0    1
 -2       839       932       933      3629      3633      3631
 -1      1758    8    0    1
 -2       841       840       934      3352      3634      3635
 -1      1759    8    0    1
 -2       840       933       934      3632      3636      3634
 -1      1760    8    0    1
 -2       842       841       935      3355      3637      3638
 -1      1761    8    0    1
 -2       841       934       935      3635      3639      3637
 -1      1762    8    0    1
 -2       843       842       936      3358      3640      3641
 -1      1763    8    0    1
 -2       842       935       936      3638      3642      3640
 -1      1764    8    0    1
 -2       844       843       937      3361      3643      3644
 -1      1765    8    0    1
 -2       843       936       937      3641      3645      3643
 -1      1766    8    0    1
 -2       845       844       938      3364      3646      3647
 -1      1767    8    0    1
 -2       844       937       938      3644      3648      3646
 -1      1768    8    0    1
 -2       846       845       939      3367      3649      3650
 -1      1769    8    0    1
 -2       845       938       939      3647      3651      3649
 -1      1770    8    0    1
 -2       847       846       940      3370      3652      3653
 -1      1771    8    0    1
 -2       846       939       940      3650      3654      3652
 -1      1772    8    0    1
 -2       848       847       906      3373      3655      3656
 -1      1773    8    0    1
 -2       849       848       906      3376      3656      3657
 -1      1774    8    0    1
 -2       850       849       941      3379      3658      3659
 -1      1775    8    0    1
 -2       851       850       900      3382      3660      3661
 -1      1776    8    0    1
 -2       852       851       908      3385      3662      3663
 -1      1777    8    0    1
 -2       854       853       942      3391      3664      3665
 -1      1778    8    0    1
 -2       855       854       943      3394      3666      3667
 -1      1779    8    0    1
 -2       854       942       943      3665      3668      3666
 -1      1780    8    0    1
 -2       856       855       944      3397      3669      3670
 -1      1781    8    0    1
 -2       855       943       944      3667      3671      3669
 -1      1782    8    0    1
 -2       857       856       945      3400      3672      3673
 -1      1783    8    0    1
 -2       856       944       945      3670      3674      3672
 -1      1784    8    0    1
 -2       858       857       946      3403      3675      3676
 -1      1785    8    0    1
 -2       857       945       946      3673      3677      3675
 -1      1786    8    0    1
 -2       859       858       947      3406      3678      3679
 -1      1787    8    0    1
 -2       858       946       947      3676      3680      3678
 -1      1788    8    0    1
 -2       860       859       948      3410      3681      3682
 -1      1789    8    0    1
 -2       861       860       948      3413      3682      3683
 -1      1790    8    0    1
 -2       859       947       948      3679      3684      3681
 -1      1791    8    0    1
 -2       863       862       949      3418      3685      3686
 -1      1792    8    0    1
 -2       822       892       950      3503      3687      3688
 -1      1793    8    0    1
 -2       822       950       916      3688      3689      3581
 -1      1794    8    0    1
 -2       865       866       951      3426      3690      3691
 -1      1795    8    0    1
 -2       864       865       952      3423      3692      3693
 -1      1796    8    0    1
 -2       865       951       952      3691      3694      3692
 -1      1797    8    0    1
 -2       867       868       953      3432      3695      3696
 -1      1798    8    0    1
 -2       868       869       954      3435      3697      3698
 -1      1799    8    0    1
 -2       868       954       953      3698      3699      3695
 -1      1800    8    0    1
 -2       869       870       955      3438      3700      3701
 -1      1801    8    0    1
 -2       869       955       954      3701      3702      3697
 -1      1802    8    0    1
 -2       870       871       956      3441      3703      3704
 -1      1803    8    0    1
 -2       870       956       955      3704      3705      3700
 -1      1804    8    0    1
 -2       871       872       957      3444      3706      3707
 -1      1805    8    0    1
 -2       871       957       956      3707      3708      3703
 -1      1806    8    0    1
 -2       872       873       958      3447      3709      3710
 -1      1807    8    0    1
 -2       872       958       957      3710      3711      3706
 -1      1808    8    0    1
 -2       873       874       959      3450      3712      3713
 -1      1809    8    0    1
 -2       873       959       958      3713      3714      3709
 -1      1810    8    0    1
 -2       874       875       960      3453      3715      3716
 -1      1811    8    0    1
 -2       874       960       959      3716      3717      3712
 -1      1812    8    0    1
 -2       875       876       961      3456      3718      3719
 -1      1813    8    0    1
 -2       875       961       960      3719      3720      3715
 -1      1814    8    0    1
 -2       876       877       962      3459      3721      3722
 -1      1815    8    0    1
 -2       876       962       961      3722      3723      3718
 -1      1816    8    0    1
 -2       806       902       963      3532      3724      3725
 -1      1817    8    0    1
 -2       806       963       820      3725      3726      3548
 -1      1818    8    0    1
 -2       910       887       964      3561      3727      3728
 -1      1819    8    0    1
 -2       881       879       965      3471      3729      3730
 -1      1820    8    0    1
 -2       882       878       966      3474      3731      3732
 -1      1821    8    0    1
 -2       807       899       967      3524      3733      3734
 -1      1822    8    0    1
 -2       886       882       968      3485      3735      3736
 -1      1823    8    0    1
 -2       882       966       968      3732      3737      3735
 -1      1824    8    0    1
 -2       889       890       969      3497      3738      3739
 -1      1825    8    0    1
 -2       893       897       940      3536      3740      3741
 -1      1826    8    0    1
 -2       891       811       970      3500      3742      3743
 -1      1827    8    0    1
 -2       811       911       970      3566      3744      3742
 -1      1828    8    0    1
 -2       887       889       971      3494      3745      3746
 -1      1829    8    0    1
 -2       964       887       971      3727      3746      3747
 -1      1830    8    0    1
 -2       889       969       971      3739      3748      3745
 -1      1831    8    0    1
 -2       885       898       972      3567      3749      3750
 -1      1832    8    0    1
 -2       895       891       973      3537      3751      3752
 -1      1833    8    0    1
 -2       877       818       962      3547      3753      3721
 -1      1834    8    0    1
 -2       884       881       974      3479      3754      3755
 -1      1835    8    0    1
 -2       881       965       974      3730      3756      3754
 -1      1836    8    0    1
 -2       813       817       975      3277      3757      3758
 -1      1837    8    0    1
 -2       899       813       975      3523      3758      3759
 -1      1838    8    0    1
 -2       817       910       975      3563      3760      3757
 -1      1839    8    0    1
 -2       892       894       976      3508      3761      3762
 -1      1840    8    0    1
 -2       950       892       976      3687      3762      3763
 -1      1841    8    0    1
 -2       894       912       976      3570      3764      3761
 -1      1842    8    0    1
 -2       819       820       977      3290      3765      3766
 -1      1843    8    0    1
 -2       912       819       977      3571      3766      3767
 -1      1844    8    0    1
 -2       820       963       977      3726      3768      3765
 -1      1845    8    0    1
 -2       818       885       962      3482      3769      3753
 -1      1846    8    0    1
 -2       866       867       978      3429      3770      3771
 -1      1847    8    0    1
 -2       867       953       978      3696      3772      3770
 -1      1848    8    0    1
 -2       814       807       967      3568      3734      3773
 -1      1849    8    0    1
 -2       901       895       979      3530      3774      3775
 -1      1850    8    0    1
 -2       898       915       980      3580      3776      3777
 -1      1851    8    0    1
 -2       898       980       972      3777      3778      3749
 -1      1852    8    0    1
 -2       815       903       981      3535      3779      3780
 -1      1853    8    0    1
 -2       815       981       915      3780      3781      3578
 -1      1854    8    0    1
 -2       966       878       982      3731      3782      3783
 -1      1855    8    0    1
 -2       878       896       982      3515      3784      3782
 -1      1856    8    0    1
 -2       965       879       983      3729      3785      3786
 -1      1857    8    0    1
 -2       879       907       983      3552      3787      3785
 -1      1858    8    0    1
 -2       849       906       941      3657      3788      3658
 -1      1859    8    0    1
 -2       852       908       984      3663      3789      3790
 -1      1860    8    0    1
 -2       861       948       896      3683      3791      3516
 -1      1861    8    0    1
 -2       853       852       984      3388      3790      3792
 -1      1862    8    0    1
 -2       863       949       985      3686      3793      3794
 -1      1863    8    0    1
 -2       863       985       905      3794      3795      3541
 -1      1864    8    0    1
 -2       904       798       909      3538      3559      3796
 -1      1865    8    0    1
 -2       951       866       978      3690      3771      3797
 -1      1866    8    0    1
 -2       906       816       941      3546      3798      3788
 -1      1867    8    0    1
 -2       864       952       986      3693      3799      3800
 -1      1868    8    0    1
 -2       864       986       888      3800      3801      3491
 -1      1869    8    0    1
 -2       962       885       972      3769      3750      3802
 -1      1870    8    0    1
 -2       884       974       987      3755      3803      3804
 -1      1871    8    0    1
 -2       963       902       988      3724      3805      3806
 -1      1872    8    0    1
 -2       803       905       913      3543      3807      3574
 -1      1873    8    0    1
 -2       942       853       984      3664      3792      3808
 -1      1874    8    0    1
 -2       908       808       984      3556      3809      3789
 -1      1875    8    0    1
 -2       899       975       967      3759      3810      3733
 -1      1876    8    0    1
 -2       884       987       880      3804      3811      3549
 -1      1877    8    0    1
 -2       886       968       983      3736      3812      3813
 -1      1878    8    0    1
 -2       969       890       989      3738      3814      3815
 -1      1879    8    0    1
 -2       890       913       989      3573      3816      3814
 -1      1880    8    0    1
 -2       893       940       939      3741      3654      3817
 -1      1881    8    0    1
 -2       910       964       990      3728      3818      3819
 -1      1882    8    0    1
 -2       910       990       975      3819      3820      3760
 -1      1883    8    0    1
 -2       862       888       991      3490      3821      3822
 -1      1884    8    0    1
 -2       949       862       991      3685      3822      3823
 -1      1885    8    0    1
 -2       888       986       991      3801      3824      3821
 -1      1886    8    0    1
 -2       891       970       973      3743      3825      3751
 -1      1887    8    0    1
 -2       914       814       967      3575      3773      3826
 -1      1888    8    0    1
 -2       808       901       984      3529      3827      3809
 -1      1889    8    0    1
 -2       895       973       979      3752      3828      3774
 -1      1890    8    0    1
 -2       883       880       987      3560      3811      3829
 -1      1891    8    0    1
 -2       940       897       847      3740      3830      3653
 -1      1892    8    0    1
 -2       902       914       992      3577      3831      3832
 -1      1893    8    0    1
 -2       902       992       988      3832      3833      3805
 -1      1894    8    0    1
 -2       883       987       911      3829      3834      3564
 -1      1895    8    0    1
 -2       893       939       903      3817      3835      3533
 -1      1896    8    0    1
 -2       900       812       993      3527      3836      3837
 -1      1897    8    0    1
 -2       850       941       900      3659      3838      3660
 -1      1898    8    0    1
 -2       918       917       994      3588      3839      3840
 -1      1899    8    0    1
 -2       919       918       995      3591      3841      3842
 -1      1900    8    0    1
 -2       918       994       995      3840      3843      3841
 -1      1901    8    0    1
 -2       920       919       996      3594      3844      3845
 -1      1902    8    0    1
 -2       919       995       996      3842      3846      3844
 -1      1903    8    0    1
 -2       921       920       997      3597      3847      3848
 -1      1904    8    0    1
 -2       920       996       997      3845      3849      3847
 -1      1905    8    0    1
 -2       922       921       998      3600      3850      3851
 -1      1906    8    0    1
 -2       921       997       998      3848      3852      3850
 -1      1907    8    0    1
 -2       923       922       999      3603      3853      3854
 -1      1908    8    0    1
 -2       922       998       999      3851      3855      3853
 -1      1909    8    0    1
 -2       924       923      1000      3606      3856      3857
 -1      1910    8    0    1
 -2       923       999      1000      3854      3858      3856
 -1      1911    8    0    1
 -2       925       924      1001      3609      3859      3860
 -1      1912    8    0    1
 -2       924      1000      1001      3857      3861      3859
 -1      1913    8    0    1
 -2       926       925      1002      3612      3862      3863
 -1      1914    8    0    1
 -2       925      1001      1002      3860      3864      3862
 -1      1915    8    0    1
 -2       927       926      1003      3615      3865      3866
 -1      1916    8    0    1
 -2       926      1002      1003      3863      3867      3865
 -1      1917    8    0    1
 -2       928       927      1004      3618      3868      3869
 -1      1918    8    0    1
 -2       927      1003      1004      3866      3870      3868
 -1      1919    8    0    1
 -2       929       928      1005      3621      3871      3872
 -1      1920    8    0    1
 -2       928      1004      1005      3869      3873      3871
 -1      1921    8    0    1
 -2       930       929      1006      3624      3874      3875
 -1      1922    8    0    1
 -2       929      1005      1006      3872      3876      3874
 -1      1923    8    0    1
 -2       931       930      1007      3627      3877      3878
 -1      1924    8    0    1
 -2       930      1006      1007      3875      3879      3877
 -1      1925    8    0    1
 -2       932       931      1008      3630      3880      3881
 -1      1926    8    0    1
 -2       931      1007      1008      3878      3882      3880
 -1      1927    8    0    1
 -2       933       932      1009      3633      3883      3884
 -1      1928    8    0    1
 -2       932      1008      1009      3881      3885      3883
 -1      1929    8    0    1
 -2       934       933      1010      3636      3886      3887
 -1      1930    8    0    1
 -2       933      1009      1010      3884      3888      3886
 -1      1931    8    0    1
 -2       935       934      1011      3639      3889      3890
 -1      1932    8    0    1
 -2       934      1010      1011      3887      3891      3889
 -1      1933    8    0    1
 -2       936       935      1012      3642      3892      3893
 -1      1934    8    0    1
 -2       935      1011      1012      3890      3894      3892
 -1      1935    8    0    1
 -2       937       936      1013      3645      3895      3896
 -1      1936    8    0    1
 -2       936      1012      1013      3893      3897      3895
 -1      1937    8    0    1
 -2       938       937       981      3648      3898      3899
 -1      1938    8    0    1
 -2       939       938       903      3651      3900      3835
 -1      1939    8    0    1
 -2       967       975       990      3810      3820      3901
 -1      1940    8    0    1
 -2       896       948      1014      3791      3902      3903
 -1      1941    8    0    1
 -2       982       896      1014      3784      3903      3904
 -1      1942    8    0    1
 -2       948       947      1014      3684      3905      3902
 -1      1943    8    0    1
 -2       944       943      1015      3671      3906      3907
 -1      1944    8    0    1
 -2       945       944      1016      3674      3908      3909
 -1      1945    8    0    1
 -2       944      1015      1016      3907      3910      3908
 -1      1946    8    0    1
 -2       946       945      1017      3677      3911      3912
 -1      1947    8    0    1
 -2       945      1016      1017      3909      3913      3911
 -1      1948    8    0    1
 -2       947       946      1018      3680      3914      3915
 -1      1949    8    0    1
 -2      1014       947      1018      3905      3915      3916
 -1      1950    8    0    1
 -2       946      1017      1018      3912      3917      3914
 -1      1951    8    0    1
 -2       916       950      1019      3689      3918      3919
 -1      1952    8    0    1
 -2       904       909       907      3796      3920      3553
 -1      1953    8    0    1
 -2       911       987      1020      3834      3921      3922
 -1      1954    8    0    1
 -2       954       955      1021      3702      3923      3924
 -1      1955    8    0    1
 -2       953       954      1022      3699      3925      3926
 -1      1956    8    0    1
 -2       954      1021      1022      3924      3927      3925
 -1      1957    8    0    1
 -2       956       957      1023      3708      3928      3929
 -1      1958    8    0    1
 -2       957       958      1024      3711      3930      3931
 -1      1959    8    0    1
 -2       957      1024      1023      3931      3932      3928
 -1      1960    8    0    1
 -2       958       959      1025      3714      3933      3934
 -1      1961    8    0    1
 -2       958      1025      1024      3934      3935      3930
 -1      1962    8    0    1
 -2       959       960      1026      3717      3936      3937
 -1      1963    8    0    1
 -2       959      1026      1025      3937      3938      3933
 -1      1964    8    0    1
 -2       960       961      1027      3720      3939      3940
 -1      1965    8    0    1
 -2       960      1027      1026      3940      3941      3936
 -1      1966    8    0    1
 -2       961       962      1028      3723      3942      3943
 -1      1967    8    0    1
 -2      1027       961      1028      3939      3943      3944
 -1      1968    8    0    1
 -2       962       972      1028      3802      3945      3942
 -1      1969    8    0    1
 -2       987       974      1029      3803      3946      3947
 -1      1970    8    0    1
 -2       987      1029      1020      3947      3948      3921
 -1      1971    8    0    1
 -2       963       988      1030      3806      3949      3950
 -1      1972    8    0    1
 -2       963      1030       977      3950      3951      3768
 -1      1973    8    0    1
 -2       913       905      1031      3807      3952      3953
 -1      1974    8    0    1
 -2       989       913      1031      3816      3953      3954
 -1      1975    8    0    1
 -2       905       985      1031      3795      3955      3952
 -1      1976    8    0    1
 -2       955       956      1032      3705      3956      3957
 -1      1977    8    0    1
 -2       955      1032      1021      3957      3958      3923
 -1      1978    8    0    1
 -2       952       951      1033      3694      3959      3960
 -1      1979    8    0    1
 -2       943       942       979      3668      3961      3962
 -1      1980    8    0    1
 -2       909       886       983      3557      3813      3963
 -1      1981    8    0    1
 -2       901       979       942      3775      3961      3964
 -1      1982    8    0    1
 -2       973       970      1034      3825      3965      3966
 -1      1983    8    0    1
 -2       917       916      1035      3585      3967      3968
 -1      1984    8    0    1
 -2       994       917      1035      3839      3968      3969
 -1      1985    8    0    1
 -2       916      1019      1035      3919      3970      3967
 -1      1986    8    0    1
 -2       942       984       901      3808      3827      3964
 -1      1987    8    0    1
 -2       979       973      1015      3828      3971      3972
 -1      1988    8    0    1
 -2       914       967      1036      3826      3973      3974
 -1      1989    8    0    1
 -2       992       914      1036      3831      3974      3975
 -1      1990    8    0    1
 -2       967       990      1036      3901      3976      3973
 -1      1991    8    0    1
 -2       974       965      1037      3756      3977      3978
 -1      1992    8    0    1
 -2       974      1037      1029      3978      3979      3946
 -1      1993    8    0    1
 -2       970       911      1020      3744      3922      3980
 -1      1994    8    0    1
 -2       812       908       993      3555      3981      3836
 -1      1995    8    0    1
 -2       968       966      1038      3737      3982      3983
 -1      1996    8    0    1
 -2       816       821       941      3293      3984      3798
 -1      1997    8    0    1
 -2       847       897       906      3830      3545      3655
 -1      1998    8    0    1
 -2       965       983      1037      3786      3985      3977
 -1      1999    8    0    1
 -2       978       953      1039      3772      3986      3987
 -1      2000    8    0    1
 -2       953      1022      1039      3926      3988      3986
 -1      2001    8    0    1
 -2       821       900       941      3526      3838      3984
 -1      2002    8    0    1
 -2       951       978      1040      3797      3989      3990
 -1      2003    8    0    1
 -2       951      1040      1033      3990      3991      3959
 -1      2004    8    0    1
 -2       903       938       981      3900      3899      3779
 -1      2005    8    0    1
 -2       907       909       983      3920      3963      3787
 -1      2006    8    0    1
 -2       943       979      1015      3962      3972      3906
 -1      2007    8    0    1
 -2      1040       978      1039      3989      3987      3992
 -1      2008    8    0    1
 -2       972       980      1041      3778      3993      3994
 -1      2009    8    0    1
 -2       972      1041      1028      3994      3995      3945
 -1      2010    8    0    1
 -2       937      1013       981      3896      3996      3898
 -1      2011    8    0    1
 -2      1037       983       968      3985      3812      3997
 -1      2012    8    0    1
 -2      1019       950      1030      3918      3998      3999
 -1      2013    8    0    1
 -2       851       900       993      3661      3837      4000
 -1      2014    8    0    1
 -2       985       949      1042      3793      4001      4002
 -1      2015    8    0    1
 -2       952      1033      1043      3960      4003      4004
 -1      2016    8    0    1
 -2       952      1043       986      4004      4005      3799
 -1      2017    8    0    1
 -2       956      1023      1032      3929      4006      3956
 -1      2018    8    0    1
 -2       970      1020      1034      3980      4007      3965
 -1      2019    8    0    1
 -2      1030       988      1044      3949      4008      4009
 -1      2020    8    0    1
 -2      1030      1044      1019      4009      4010      3999
 -1      2021    8    0    1
 -2       915       981      1045      3781      4011      4012
 -1      2022    8    0    1
 -2       980       915      1045      3776      4012      4013
 -1      2023    8    0    1
 -2       981      1013      1045      3996      4014      4011
 -1      2024    8    0    1
 -2       969       989      1046      3815      4015      4016
 -1      2025    8    0    1
 -2       990       964      1047      3818      4017      4018
 -1      2026    8    0    1
 -2       990      1047      1036      4018      4019      3976
 -1      2027    8    0    1
 -2       912       977       976      3767      4020      3764
 -1      2028    8    0    1
 -2       971       969      1048      3748      4021      4022
 -1      2029    8    0    1
 -2       969      1046      1048      4016      4023      4021
 -1      2030    8    0    1
 -2       949       991      1049      3823      4024      4025
 -1      2031    8    0    1
 -2       949      1049      1042      4025      4026      4001
 -1      2032    8    0    1
 -2       964       971      1050      3747      4027      4028
 -1      2033    8    0    1
 -2      1047       964      1050      4017      4028      4029
 -1      2034    8    0    1
 -2       971      1048      1050      4022      4030      4027
 -1      2035    8    0    1
 -2       966       982      1051      3783      4031      4032
 -1      2036    8    0    1
 -2       966      1051      1038      4032      4033      3982
 -1      2037    8    0    1
 -2      1015       973      1052      3971      4034      4035
 -1      2038    8    0    1
 -2      1016      1015      1052      3910      4035      4036
 -1      2039    8    0    1
 -2       973      1034      1052      3966      4037      4034
 -1      2040    8    0    1
 -2       988       992      1053      3833      4038      4039
 -1      2041    8    0    1
 -2       988      1053      1044      4039      4040      4008
 -1      2042    8    0    1
 -2       968      1038      1037      3983      4041      3997
 -1      2043    8    0    1
 -2      1040      1039      1054      3992      4042      4043
 -1      2044    8    0    1
 -2       996       995      1055      3846      4044      4045
 -1      2045    8    0    1
 -2       997       996      1056      3849      4046      4047
 -1      2046    8    0    1
 -2       996      1055      1056      4045      4048      4046
 -1      2047    8    0    1
 -2       998       997      1057      3852      4049      4050
 -1      2048    8    0    1
 -2       997      1056      1057      4047      4051      4049
 -1      2049    8    0    1
 -2       999       998      1058      3855      4052      4053
 -1      2050    8    0    1
 -2       998      1057      1058      4050      4054      4052
 -1      2051    8    0    1
 -2      1000       999      1059      3858      4055      4056
 -1      2052    8    0    1
 -2       999      1058      1059      4053      4057      4055
 -1      2053    8    0    1
 -2      1001      1000      1060      3861      4058      4059
 -1      2054    8    0    1
 -2      1000      1059      1060      4056      4060      4058
 -1      2055    8    0    1
 -2      1002      1001      1061      3864      4061      4062
 -1      2056    8    0    1
 -2      1001      1060      1061      4059      4063      4061
 -1      2057    8    0    1
 -2      1003      1002      1062      3867      4064      4065
 -1      2058    8    0    1
 -2      1002      1061      1062      4062      4066      4064
 -1      2059    8    0    1
 -2      1004      1003      1063      3870      4067      4068
 -1      2060    8    0    1
 -2      1003      1062      1063      4065      4069      4067
 -1      2061    8    0    1
 -2      1005      1004      1064      3873      4070      4071
 -1      2062    8    0    1
 -2      1004      1063      1064      4068      4072      4070
 -1      2063    8    0    1
 -2      1006      1005      1065      3876      4073      4074
 -1      2064    8    0    1
 -2      1005      1064      1065      4071      4075      4073
 -1      2065    8    0    1
 -2      1007      1006      1066      3879      4076      4077
 -1      2066    8    0    1
 -2      1006      1065      1066      4074      4078      4076
 -1      2067    8    0    1
 -2      1008      1007      1067      3882      4079      4080
 -1      2068    8    0    1
 -2      1007      1066      1067      4077      4081      4079
 -1      2069    8    0    1
 -2      1009      1008      1068      3885      4082      4083
 -1      2070    8    0    1
 -2      1008      1067      1068      4080      4084      4082
 -1      2071    8    0    1
 -2      1010      1009      1069      3888      4085      4086
 -1      2072    8    0    1
 -2      1009      1068      1069      4083      4087      4085
 -1      2073    8    0    1
 -2      1011      1010      1070      3891      4088      4089
 -1      2074    8    0    1
 -2      1010      1069      1070      4086      4090      4088
 -1      2075    8    0    1
 -2      1012      1011      1071      3894      4091      4092
 -1      2076    8    0    1
 -2      1011      1070      1071      4089      4093      4091
 -1      2077    8    0    1
 -2      1013      1012      1072      3897      4094      4095
 -1      2078    8    0    1
 -2      1045      1013      1072      4014      4095      4096
 -1      2079    8    0    1
 -2      1012      1071      1072      4092      4097      4094
 -1      2080    8    0    1
 -2      1022      1021      1073      3927      4098      4099
 -1      2081    8    0    1
 -2       982      1014      1074      3904      4100      4101
 -1      2082    8    0    1
 -2      1051       982      1074      4031      4101      4102
 -1      2083    8    0    1
 -2      1014      1018      1074      3916      4103      4100
 -1      2084    8    0    1
 -2      1030       950       977      3998      4104      3951
 -1      2085    8    0    1
 -2       851       993       908      4000      3981      3662
 -1      2086    8    0    1
 -2      1021      1032      1075      3958      4105      4106
 -1      2087    8    0    1
 -2      1021      1075      1073      4106      4107      4098
 -1      2088    8    0    1
 -2      1017      1016      1076      3913      4108      4109
 -1      2089    8    0    1
 -2      1016      1052      1076      4036      4110      4108
 -1      2090    8    0    1
 -2      1032      1023      1077      4006      4111      4112
 -1      2091    8    0    1
 -2      1032      1077      1075      4112      4113      4105
 -1      2092    8    0    1
 -2      1024      1025      1078      3935      4114      4115
 -1      2093    8    0    1
 -2      1023      1024      1079      3932      4116      4117
 -1      2094    8    0    1
 -2      1077      1023      1079      4111      4117      4118
 -1      2095    8    0    1
 -2      1024      1078      1079      4115      4119      4116
 -1      2096    8    0    1
 -2      1026      1027      1080      3941      4120      4121
 -1      2097    8    0    1
 -2      1027      1028      1081      3944      4122      4123
 -1      2098    8    0    1
 -2      1080      1027      1081      4120      4123      4124
 -1      2099    8    0    1
 -2      1028      1041      1081      3995      4125      4122
 -1      2100    8    0    1
 -2      1034      1020      1082      4007      4126      4127
 -1      2101    8    0    1
 -2      1052      1034      1082      4037      4127      4128
 -1      2102    8    0    1
 -2      1020      1029      1082      3948      4129      4126
 -1      2103    8    0    1
 -2      1019      1044      1035      4010      4130      3970
 -1      2104    8    0    1
 -2      1029      1037      1083      3979      4131      4132
 -1      2105    8    0    1
 -2      1082      1029      1083      4129      4132      4133
 -1      2106    8    0    1
 -2      1037      1038      1083      4041      4134      4131
 -1      2107    8    0    1
 -2       991       986      1084      3824      4135      4136
 -1      2108    8    0    1
 -2      1049       991      1084      4024      4136      4137
 -1      2109    8    0    1
 -2       986      1043      1084      4005      4138      4135
 -1      2110    8    0    1
 -2      1033      1040      1085      3991      4139      4140
 -1      2111    8    0    1
 -2      1040      1054      1085      4043      4141      4139
 -1      2112    8    0    1
 -2      1025      1026      1086      3938      4142      4143
 -1      2113    8    0    1
 -2      1078      1025      1086      4114      4143      4144
 -1      2114    8    0    1
 -2      1026      1080      1086      4121      4145      4142
 -1      2115    8    0    1
 -2      1039      1022      1087      3988      4146      4147
 -1      2116    8    0    1
 -2      1054      1039      1087      4042      4147      4148
 -1      2117    8    0    1
 -2      1022      1073      1087      4099      4149      4146
 -1      2118    8    0    1
 -2      1046       989      1088      4015      4150      4151
 -1      2119    8    0    1
 -2       989      1031      1088      3954      4152      4150
 -1      2120    8    0    1
 -2       995       994      1089      3843      4153      4154
 -1      2121    8    0    1
 -2       995      1089      1055      4154      4155      4044
 -1      2122    8    0    1
 -2       985      1042      1090      4002      4156      4157
 -1      2123    8    0    1
 -2       985      1090      1031      4157      4158      3955
 -1      2124    8    0    1
 -2      1041       980      1045      3993      4013      4159
 -1      2125    8    0    1
 -2      1046      1088      1091      4151      4160      4161
 -1      2126    8    0    1
 -2      1043      1033      1092      4003      4162      4163
 -1      2127    8    0    1
 -2      1033      1085      1092      4140      4164      4162
 -1      2128    8    0    1
 -2      1047      1050      1093      4029      4165      4166
 -1      2129    8    0    1
 -2      1042      1049      1094      4026      4167      4168
 -1      2130    8    0    1
 -2      1044      1053      1095      4040      4169      4170
 -1      2131    8    0    1
 -2      1046      1091      1096      4161      4171      4172
 -1      2132    8    0    1
 -2      1046      1096      1048      4172      4173      4023
 -1      2133    8    0    1
 -2      1083      1038      1051      4134      4033      4174
 -1      2134    8    0    1
 -2      1036      1047       992      4019      4175      3975
 -1      2135    8    0    1
 -2      1042      1094      1097      4168      4176      4177
 -1      2136    8    0    1
 -2      1042      1097      1090      4177      4178      4156
 -1      2137    8    0    1
 -2      1044      1095      1035      4170      4179      4130
 -1      2138    8    0    1
 -2       992      1047      1053      4175      4180      4038
 -1      2139    8    0    1
 -2      1091      1088      1098      4160      4181      4182
 -1      2140    8    0    1
 -2      1093      1050      1099      4165      4183      4184
 -1      2141    8    0    1
 -2      1050      1048      1099      4030      4185      4183
 -1      2142    8    0    1
 -2      1057      1056      1100      4051      4186      4187
 -1      2143    8    0    1
 -2      1058      1057      1094      4054      4188      4189
 -1      2144    8    0    1
 -2      1060      1059      1101      4060      4190      4191
 -1      2145    8    0    1
 -2      1061      1060      1092      4063      4192      4193
 -1      2146    8    0    1
 -2      1062      1061      1085      4066      4194      4195
 -1      2147    8    0    1
 -2      1063      1062      1054      4069      4196      4197
 -1      2148    8    0    1
 -2      1064      1063      1087      4072      4198      4199
 -1      2149    8    0    1
 -2      1065      1064      1073      4075      4200      4201
 -1      2150    8    0    1
 -2      1066      1065      1075      4078      4202      4203
 -1      2151    8    0    1
 -2      1067      1066      1077      4081      4204      4205
 -1      2152    8    0    1
 -2      1068      1067      1079      4084      4206      4207
 -1      2153    8    0    1
 -2      1069      1068      1078      4087      4208      4209
 -1      2154    8    0    1
 -2      1070      1069      1086      4090      4210      4211
 -1      2155    8    0    1
 -2      1071      1070      1080      4093      4212      4213
 -1      2156    8    0    1
 -2      1078      1068      1079      4208      4207      4119
 -1      2157    8    0    1
 -2      1077      1066      1075      4204      4203      4113
 -1      2158    8    0    1
 -2      1076      1052      1082      4110      4128      4214
 -1      2159    8    0    1
 -2      1047      1093      1053      4166      4215      4180
 -1      2160    8    0    1
 -2      1018      1017      1102      3917      4216      4217
 -1      2161    8    0    1
 -2      1055      1089      1091      4155      4218      4219
 -1      2162    8    0    1
 -2      1075      1065      1073      4202      4201      4107
 -1      2163    8    0    1
 -2      1073      1064      1087      4200      4199      4149
 -1      2164    8    0    1
 -2      1017      1076      1102      4109      4220      4216
 -1      2165    8    0    1
 -2      1041      1045      1072      4159      4096      4221
 -1      2166    8    0    1
 -2      1082      1083      1076      4133      4222      4214
 -1      2167    8    0    1
 -2      1085      1061      1092      4194      4193      4164
 -1      2168    8    0    1
 -2       994      1035      1103      3969      4223      4224
 -1      2169    8    0    1
 -2      1080      1070      1086      4212      4211      4145
 -1      2170    8    0    1
 -2      1085      1054      1062      4141      4196      4195
 -1      2171    8    0    1
 -2      1053      1093      1095      4215      4225      4169
 -1      2172    8    0    1
 -2      1056      1055      1098      4048      4226      4227
 -1      2173    8    0    1
 -2      1094      1049      1104      4167      4228      4229
 -1      2174    8    0    1
 -2      1049      1084      1104      4137      4230      4228
 -1      2175    8    0    1
 -2      1089       994      1103      4153      4224      4231
 -1      2176    8    0    1
 -2      1031      1090      1088      4158      4232      4152
 -1      2177    8    0    1
 -2      1035      1095      1103      4179      4233      4223
 -1      2178    8    0    1
 -2      1103      1095      1105      4233      4234      4235
 -1      2179    8    0    1
 -2      1088      1090      1098      4232      4236      4181
 -1      2180    8    0    1
 -2      1058      1094      1104      4189      4229      4237
 -1      2181    8    0    1
 -2      1063      1054      1087      4197      4148      4198
 -1      2182    8    0    1
 -2      1067      1077      1079      4205      4118      4206
 -1      2183    8    0    1
 -2      1069      1078      1086      4209      4144      4210
 -1      2184    8    0    1
 -2      1091      1089      1096      4218      4238      4171
 -1      2185    8    0    1
 -2      1055      1091      1098      4219      4182      4226
 -1      2186    8    0    1
 -2      1089      1103      1105      4231      4235      4239
 -1      2187    8    0    1
 -2      1043      1092      1101      4163      4240      4241
 -1      2188    8    0    1
 -2      1100      1056      1098      4186      4227      4242
 -1      2189    8    0    1
 -2      1076      1083      1102      4222      4243      4220
 -1      2190    8    0    1
 -2      1060      1101      1092      4191      4240      4192
 -1      2191    8    0    1
 -2      1059      1058      1104      4057      4237      4244
 -1      2192    8    0    1
 -2      1043      1101      1084      4241      4245      4138
 -1      2193    8    0    1
 -2      1095      1093      1099      4225      4184      4246
 -1      2194    8    0    1
 -2      1071      1080      1106      4213      4247      4248
 -1      2195    8    0    1
 -2      1094      1057      1100      4188      4187      4249
 -1      2196    8    0    1
 -2       977       950       976      4104      3763      4020
 -1      2197    8    0    1
 -2      1099      1048      1096      4185      4173      4250
 -1      2198    8    0    1
 -2      1059      1104      1101      4244      4251      4190
 -1      2199    8    0    1
 -2      1083      1051      1102      4174      4252      4243
 -1      2200    8    0    1
 -2      1102      1051      1074      4252      4102      4253
 -1      2201    8    0    1
 -2      1095      1099      1105      4246      4254      4234
 -1      2202    8    0    1
 -2      1101      1104      1084      4251      4230      4245
 -1      2203    8    0    1
 -2      1099      1096      1105      4250      4255      4254
 -1      2204    8    0    1
 -2      1090      1097      1098      4178      4256      4236
 -1      2205    8    0    1
 -2      1096      1089      1105      4238      4239      4255
 -1      2206    8    0    1
 -2      1018      1102      1074      4217      4253      4103
 -1      2207    8    0    1
 -2      1071      1106      1072      4248      4257      4097
 -1      2208    8    0    1
 -2      1100      1098      1097      4242      4256      4258
 -1      2209    8    0    1
 -2      1094      1100      1097      4249      4258      4176
 -1      2210    8    0    1
 -2      1081      1041      1106      4125      4259      4260
 -1      2211    8    0    1
 -2      1106      1080      1081      4247      4124      4260
 -1      2212    8    0    1
 -2      1106      1041      1072      4259      4221      4257
 -3
    1PSTEP                         1           1           1          
  100CL  101 1.000000000        4260                     0    1           1
 -4  DISP        4    1
 -5  D1          1    2    1    0
 -5  D2          1    2    2    0
 -5  D3          1    2    3    0
 -5  ALL         1    2    0    0    1ALL
 -1         1 8.57644E-03 2.23137E-04-1.91915E-14
 -1         2 1.31711E-02 1.09988E-03-2.46718E-14
 -1         3 1.68437E-02 3.56519E-03-4.56120E-14
 -1         4 1.37496E-02 2.21745E-03-4.71710E-14
 -1         5 0.00000E+00 0.00000E+00 0.00000E+00
 -1         6 0.00000E+00 0.00000E+00 0.00000E+00
 -1         7 0.00000E+00 0.00000E+00 0.00000E+00
 -1         8 0.00000E+00 0.00000E+00 0.00000E+00
 -1         9 0.00000E+00 0.00000E+00 0.00000E+00
 -1        10 0.00000E+00 0.00000E+00 0.00000E+00
 -1        11 0.00000E+00 0.00000E+00 0.00000E+00
 -1        12 0.00000E+00 0.00000E+00 0.00000E+00
 -1        13 0.00000E+00 0.00000E+00 0.00000E+00
 -1        14 0.00000E+00 0.00000E+00 0.00000E+00
 -1        15 0.00000E+00 0.00000E+00 0.00000E+00
 -1        16 0.00000E+00 0.00000E+00 0.00000E+00
 -1        17 0.00000E+00 0.00000E+00 0.00000E+00
 -1        18 0.00000E+00 0.00000E+00 0.00000E+00
 -1        19 0.00000E+00 0.00000E+00 0.00000E+00
 -1        20 0.00000E+00 0.00000E+00 0.00000E+00
 -1        21 0.00000E+00 0.00000E+00 0.00000E+00
 -1        22 0.00000E+00 0.00000E+00 0.00000E+00
 -1        23 4.11375E-04-2.60731E-04 2.48350E-17
 -1        24 7.03355E-04-4.00971E-04 1.94411E-17
 -1        25 9.73421E-04-4.98337E-04-1.82451E-17
 -1        26 1.23791E-03-5.67063E-04-8.91722E-17
 -1        27 1.50144E-03-6.16288E-04-1.95932E-16
 -1        28 1.76611E-03-6.51397E-04-3.39172E-16
 -1        29 2.03287E-03-6.76096E-04-5.21667E-16
 -1        30 2.30209E-03-6.93078E-04-7.44793E-16
 -1        31 2.57383E-03-7.04357E-04-1.00888E-15
 -1        32 2.84797E-03-7.11457E-04-1.31465E-15
 -1        33 3.12427E-03-7.15526E-04-1.66185E-15
 -1        34 3.40249E-03-7.17425E-04-2.04865E-15
 -1        35 3.68237E-03-7.17789E-04-2.47577E-15
 -1        36 3.96368E-03-7.17083E-04-2.94490E-15
 -1        37 4.24622E-03-7.15641E-04-3.45177E-15
 -1        38 4.52984E-03-7.13711E-04-3.99811E-15
 -1        39 4.81445E-03-7.11483E-04-4.58420E-15
 -1        40 5.10000E-03-7.09123E-04-5.21383E-15
 -1        41 5.38647E-03-7.06803E-04-5.88427E-15
 -1        42 5.67386E-03-7.04725E-04-6.59894E-15
 -1        43 5.96219E-03-7.03148E-04-7.35753E-15
 -1        44 6.25138E-03-7.02393E-04-8.16149E-15
 -1        45 6.54125E-03-7.02844E-04-9.00504E-15
 -1        46 6.83144E-03-7.04899E-04-9.89706E-15
 -1        47 7.12124E-03-7.08891E-04-1.08380E-14
 -1        48 7.40960E-03-7.14929E-04-1.18244E-14
 -1        49 7.69497E-03-7.22672E-04-1.28574E-14
 -1        50 7.97541E-03-7.31033E-04-1.39357E-14
 -1        51 8.24872E-03-7.37879E-04-1.50588E-14
 -1        52 8.51279E-03-7.39809E-04-1.62209E-14
 -1        53 8.76616E-03-7.32178E-04-1.74234E-14
 -1        54 9.00857E-03-7.09487E-04-1.86625E-14
 -1        55 9.24142E-03-6.66187E-04-1.99413E-14
 -1        56 9.46787E-03-5.97772E-04-2.12549E-14
 -1        57 9.69234E-03-5.01832E-04-2.26158E-14
 -1        58 9.91969E-03-3.78662E-04-2.40231E-14
 -1        59 1.01541E-02-2.31185E-04-2.54789E-14
 -1        60 1.03984E-02-6.42073E-05-2.69677E-14
 -1        61 1.06536E-02 1.16674E-04-2.84838E-14
 -1        62 1.09190E-02 3.06127E-04-3.00374E-14
 -1        63 1.11930E-02 4.99813E-04-3.16227E-14
 -1        64 1.14733E-02 6.94699E-04-3.32422E-14
 -1        65 1.17578E-02 8.89014E-04-3.49103E-14
 -1        66 1.20445E-02 1.08201E-03-3.66241E-14
 -1        67 1.23321E-02 1.27364E-03-3.83705E-14
 -1        68 1.26195E-02 1.46430E-03-4.01243E-14
 -1        69 1.29064E-02 1.65453E-03-4.18839E-14
 -1        70 1.31925E-02 1.84491E-03-4.36538E-14
 -1        71 1.34783E-02 2.03576E-03-4.54457E-14
 -1        72 4.13820E-04 2.61437E-04 1.11063E-17
 -1        73 7.03178E-04 4.03678E-04-1.88821E-17
 -1        74 9.73957E-04 5.00111E-04-8.68649E-17
 -1        75 1.23874E-03 5.68778E-04-1.94103E-16
 -1        76 1.50239E-03 6.18055E-04-3.40334E-16
 -1        77 1.76712E-03 6.53258E-04-5.24456E-16
 -1        78 2.03391E-03 6.78069E-04-7.46612E-16
 -1        79 2.30315E-03 6.95174E-04-1.00454E-15
 -1        80 2.57488E-03 7.06579E-04-1.30452E-15
 -1        81 2.84900E-03 7.13801E-04-1.64668E-15
 -1        82 3.12526E-03 7.17983E-04-2.02675E-15
 -1        83 3.40342E-03 7.19971E-04-2.44100E-15
 -1        84 3.68321E-03 7.20385E-04-2.89401E-15
 -1        85 3.96439E-03 7.19659E-04-3.38607E-15
 -1        86 4.24677E-03 7.18083E-04-3.91790E-15
 -1        87 4.53020E-03 7.15836E-04-4.48722E-15
 -1        88 4.81461E-03 7.13003E-04-5.08556E-15
 -1        89 5.10004E-03 7.09606E-04-5.72198E-15
 -1        90 5.38662E-03 7.05611E-04-6.39541E-15
 -1        91 5.67464E-03 7.00953E-04-7.10158E-15
 -1        92 5.96464E-03 6.95565E-04-7.84219E-15
 -1        93 6.25747E-03 6.89416E-04-8.61965E-15
 -1        94 6.55450E-03 6.82608E-04-9.43599E-15
 -1        95 6.85788E-03 6.75549E-04-1.02865E-14
 -1        96 7.17096E-03 6.69314E-04-1.11785E-14
 -1        97 7.49888E-03 6.66345E-04-1.21148E-14
 -1        98 7.84932E-03 6.71811E-04-1.30955E-14
 -1        99 8.23312E-03 6.96085E-04-1.41154E-14
 -1       100 8.66365E-03 7.58763E-04-1.51729E-14
 -1       101 9.15200E-03 8.93336E-04-1.62615E-14
 -1       102 9.69318E-03 1.14599E-03-1.73710E-14
 -1       103 1.02423E-02 1.55010E-03-1.85060E-14
 -1       104 1.06669E-02 2.00245E-03-1.95487E-14
 -1       105 1.09523E-02 2.37236E-03-2.05505E-14
 -1       106 1.11445E-02 2.52327E-03-2.15162E-14
 -1       107 1.13245E-02 2.45840E-03-2.23850E-14
 -1       108 1.16366E-02 2.21844E-03-2.34718E-14
 -1       109 1.20829E-02 1.94377E-03-2.46660E-14
 -1       110 1.26090E-02 1.76221E-03-2.59616E-14
 -1       111 1.31432E-02 1.71667E-03-2.73668E-14
 -1       112 1.36213E-02 1.78210E-03-2.88124E-14
 -1       113 1.40425E-02 1.91328E-03-3.03006E-14
 -1       114 1.44186E-02 2.07882E-03-3.18506E-14
 -1       115 1.47629E-02 2.26067E-03-3.34587E-14
 -1       116 1.50856E-02 2.44928E-03-3.50992E-14
 -1       117 1.53938E-02 2.63977E-03-3.67755E-14
 -1       118 1.56923E-02 2.82965E-03-3.84830E-14
 -1       119 1.59844E-02 3.01756E-03-4.02316E-14
 -1       120 1.62724E-02 3.20276E-03-4.19993E-14
 -1       121 1.65582E-02 3.38500E-03-4.37805E-14
 -1       122 1.66670E-02 3.48065E-03-4.57291E-14
 -1       123 1.64921E-02 3.39653E-03-4.58210E-14
 -1       124 1.63194E-02 3.31439E-03-4.59096E-14
 -1       125 1.61476E-02 3.23525E-03-4.60155E-14
 -1       126 1.59748E-02 3.15914E-03-4.61308E-14
 -1       127 1.58026E-02 3.08651E-03-4.62428E-14
 -1       128 1.56240E-02 3.01367E-03-4.63326E-14
 -1       129 1.54418E-02 2.94064E-03-4.64087E-14
 -1       130 1.52564E-02 2.86639E-03-4.64892E-14
 -1       131 1.50685E-02 2.79029E-03-4.65675E-14
 -1       132 1.48791E-02 2.71210E-03-4.66693E-14
 -1       133 1.46923E-02 2.63332E-03-4.67741E-14
 -1       134 1.45022E-02 2.55153E-03-4.68710E-14
 -1       135 1.43124E-02 2.46850E-03-4.69655E-14
 -1       136 1.41232E-02 2.38463E-03-4.70458E-14
 -1       137 1.39346E-02 2.30037E-03-4.71134E-14
 -1       138 1.32050E-02 1.29542E-03-2.45787E-14
 -1       139 1.31226E-02 1.50155E-03-2.43347E-14
 -1       140 1.29170E-02 1.71053E-03-2.39422E-14
 -1       141 1.26017E-02 1.90896E-03-2.34528E-14
 -1       142 1.21861E-02 2.08503E-03-2.29131E-14
 -1       143 1.16642E-02 2.21697E-03-2.23084E-14
 -1       144 1.11068E-02 2.25948E-03-2.17072E-14
 -1       145 1.04677E-02 2.18633E-03-2.10493E-14
 -1       146 9.81942E-03 1.98384E-03-2.03897E-14
 -1       147 9.30913E-03 1.74090E-03-1.98752E-14
 -1       148 8.87337E-03 1.46850E-03-1.94306E-14
 -1       149 8.54054E-03 1.20031E-03-1.90796E-14
 -1       150 8.31613E-03 9.45689E-04-1.88345E-14
 -1       151 8.22207E-03 7.32637E-04-1.87317E-14
 -1       152 8.23666E-03 5.29635E-04-1.87551E-14
 -1       153 8.36139E-03 3.59323E-04-1.89182E-14
 -1       154 8.87400E-03 1.16786E-04-1.95728E-14
 -1       155 9.24227E-03 4.32802E-05-2.00500E-14
 -1       156 9.66022E-03 5.80427E-06-2.05933E-14
 -1       157 1.01663E-02 6.59603E-06-2.12493E-14
 -1       158 1.06663E-02 4.83382E-05-2.18921E-14
 -1       159 1.11619E-02 1.27937E-04-2.25292E-14
 -1       160 1.16286E-02 2.35247E-04-2.31109E-14
 -1       161 1.20834E-02 3.78403E-04-2.36677E-14
 -1       162 1.24998E-02 5.52683E-04-2.41367E-14
 -1       163 1.28224E-02 7.36142E-04-2.44510E-14
 -1       164 1.30408E-02 9.15472E-04-2.46234E-14
 -1       165 2.40404E-04-1.25515E-04 2.57498E-18
 -1       166 2.25276E-04-9.46159E-05-4.52316E-18
 -1       167 2.19524E-04-7.27727E-05-9.14118E-18
 -1       168 2.16711E-04-5.51032E-05-1.20922E-17
 -1       169 2.15223E-04-3.99647E-05-1.38676E-17
 -1       170 2.14387E-04-2.59129E-05-1.52297E-17
 -1       171 2.13968E-04-1.26429E-05-1.61851E-17
 -1       172 2.13846E-04 2.72464E-07-1.69373E-17
 -1       173 2.13987E-04 1.32003E-05-1.72015E-17
 -1       174 2.14428E-04 2.65099E-05-1.73201E-17
 -1       175 2.15272E-04 4.03894E-05-1.71067E-17
 -1       176 2.16820E-04 5.59100E-05-1.65714E-17
 -1       177 2.19675E-04 7.38134E-05-1.52974E-17
 -1       178 2.25446E-04 9.60157E-05-1.24277E-17
 -1       179 2.39335E-04 1.27594E-04-6.98972E-18
 -1       180 2.97706E-04 1.85498E-04-1.47384E-18
 -1       181 4.68621E-04-2.63545E-04 3.81842E-18
 -1       182 7.66762E-04-3.82127E-04-2.83214E-17
 -1       183 1.05061E-03-4.64992E-04-9.21030E-17
 -1       184 1.32800E-03-5.23739E-04-1.89773E-16
 -1       185 1.60261E-03-5.65387E-04-3.22584E-16
 -1       186 1.87650E-03-5.94621E-04-4.93221E-16
 -1       187 2.15083E-03-6.14742E-04-7.02289E-16
 -1       188 2.42617E-03-6.28166E-04-9.50788E-16
 -1       189 2.70281E-03-6.36702E-04-1.23946E-15
 -1       190 2.98082E-03-6.41702E-04-1.56849E-15
 -1       191 3.26016E-03-6.44178E-04-1.93718E-15
 -1       192 3.54074E-03-6.44875E-04-2.34601E-15
 -1       193 3.82244E-03-6.44334E-04-2.79636E-15
 -1       194 4.10514E-03-6.42943E-04-3.28686E-15
 -1       195 4.38875E-03-6.40981E-04-3.81548E-15
 -1       196 4.67319E-03-6.38651E-04-4.38307E-15
 -1       197 4.95841E-03-6.36118E-04-4.99145E-15
 -1       198 5.24439E-03-6.33538E-04-5.64155E-15
 -1       199 5.53111E-03-6.31093E-04-6.33295E-15
 -1       200 5.81857E-03-6.29013E-04-7.06800E-15
 -1       201 6.10673E-03-6.27600E-04-7.84929E-15
 -1       202 6.39548E-03-6.27233E-04-8.67389E-15
 -1       203 6.68460E-03-6.28355E-04-9.54450E-15
 -1       204 6.97369E-03-6.31412E-04-1.04603E-14
 -1       205 7.26215E-03-6.36735E-04-1.14226E-14
 -1       206 7.54906E-03-6.44341E-04-1.24284E-14
 -1       207 7.83324E-03-6.53651E-04-1.34768E-14
 -1       208 8.11331E-03-6.63154E-04-1.45727E-14
 -1       209 8.38783E-03-6.70085E-04-1.57092E-14
 -1       210 8.65560E-03-6.70271E-04-1.68859E-14
 -1       211 8.91603E-03-6.58294E-04-1.80995E-14
 -1       212 9.16952E-03-6.28125E-04-1.93504E-14
 -1       213 9.41758E-03-5.74187E-04-2.06389E-14
 -1       214 9.66280E-03-4.92601E-04-2.19702E-14
 -1       215 9.90831E-03-3.82176E-04-2.33508E-14
 -1       216 1.01572E-02-2.44727E-04-2.47809E-14
 -1       217 1.04118E-02-8.45865E-05-2.62459E-14
 -1       218 1.06734E-02 9.24889E-05-2.77397E-14
 -1       219 1.09421E-02 2.80554E-04-2.92648E-14
 -1       220 1.12172E-02 4.74470E-04-3.08319E-14
 -1       221 1.14973E-02 6.70433E-04-3.24293E-14
 -1       222 1.17810E-02 8.66072E-04-3.40666E-14
 -1       223 1.20669E-02 1.06024E-03-3.57498E-14
 -1       224 1.23539E-02 1.25269E-03-3.74714E-14
 -1       225 1.26412E-02 1.44373E-03-3.92113E-14
 -1       226 1.29282E-02 1.63395E-03-4.09596E-14
 -1       227 1.32148E-02 1.82403E-03-4.27184E-14
 -1       228 1.35010E-02 2.01450E-03-4.44964E-14
 -1       229 6.04559E-04 3.31028E-04-3.53755E-17
 -1       230 8.93650E-04 4.32632E-04-1.05513E-16
 -1       231 1.17254E-03 5.04357E-04-2.12832E-16
 -1       232 1.44688E-03 5.55413E-04-3.58149E-16
 -1       233 1.71970E-03 5.91616E-04-5.40993E-16
 -1       234 1.99260E-03 6.16943E-04-7.61550E-16
 -1       235 2.26643E-03 6.34259E-04-1.01946E-15
 -1       236 2.54161E-03 6.45691E-04-1.31655E-15
 -1       237 2.81827E-03 6.52833E-04-1.65461E-15
 -1       238 3.09640E-03 6.56876E-04-2.03070E-15
 -1       239 3.37592E-03 6.58701E-04-2.44349E-15
 -1       240 3.65669E-03 6.58946E-04-2.89293E-15
 -1       241 3.93858E-03 6.58055E-04-3.38141E-15
 -1       242 4.22148E-03 6.56324E-04-3.90769E-15
 -1       243 4.50531E-03 6.53927E-04-4.47102E-15
 -1       244 4.79004E-03 6.50945E-04-5.06777E-15
 -1       245 5.07570E-03 6.47382E-04-5.69962E-15
 -1       246 5.36245E-03 6.43185E-04-6.36799E-15
 -1       247 5.65053E-03 6.38258E-04-7.06889E-15
 -1       248 5.94039E-03 6.32478E-04-7.80945E-15
 -1       249 6.23271E-03 6.25737E-04-8.58607E-15
 -1       250 6.52853E-03 6.18011E-04-9.40328E-15
 -1       251 6.82940E-03 6.09505E-04-1.02543E-14
 -1       252 7.13763E-03 6.00966E-04-1.11455E-14
 -1       253 7.45650E-03 5.94317E-04-1.20794E-14
 -1       254 7.79058E-03 5.93913E-04-1.30550E-14
 -1       255 8.14589E-03 6.08928E-04-1.40689E-14
 -1       256 8.52943E-03 6.57443E-04-1.51178E-14
 -1       257 8.94770E-03 7.71960E-04-1.61976E-14
 -1       258 9.40283E-03 1.00144E-03-1.73089E-14
 -1       259 9.88623E-03 1.39167E-03-1.84434E-14
 -1       260 1.03234E-02 1.85790E-03-1.94859E-14
 -1       261 1.07164E-02 2.26917E-03-2.04937E-14
 -1       262 1.10667E-02 2.45822E-03-2.14678E-14
 -1       263 1.13743E-02 2.40250E-03-2.23428E-14
 -1       264 1.17681E-02 2.14638E-03-2.34332E-14
 -1       265 1.22054E-02 1.85008E-03-2.46257E-14
 -1       266 1.26638E-02 1.65757E-03-2.59264E-14
 -1       267 1.31193E-02 1.61105E-03-2.73372E-14
 -1       268 1.35379E-02 1.68029E-03-2.87864E-14
 -1       269 1.39214E-02 1.81640E-03-3.02787E-14
 -1       270 1.42761E-02 1.98651E-03-3.18284E-14
 -1       271 1.46092E-02 2.17209E-03-3.34298E-14
 -1       272 1.49265E-02 2.36358E-03-3.50716E-14
 -1       273 1.52327E-02 2.55624E-03-3.67423E-14
 -1       274 1.55310E-02 2.74777E-03-3.84445E-14
 -1       275 1.58240E-02 2.93694E-03-4.01799E-14
 -1       276 1.61133E-02 3.12305E-03-4.19366E-14
 -1       277 1.64003E-02 3.30587E-03-4.37131E-14
 -1       278 1.63319E-02 3.28328E-03-4.42126E-14
 -1       279 1.61587E-02 3.20097E-03-4.43286E-14
 -1       280 1.59875E-02 3.12072E-03-4.44389E-14
 -1       281 1.58161E-02 3.04267E-03-4.45496E-14
 -1       282 1.56457E-02 2.96768E-03-4.46521E-14
 -1       283 1.54691E-02 2.89245E-03-4.47473E-14
 -1       284 1.52886E-02 2.81738E-03-4.48398E-14
 -1       285 1.51044E-02 2.74168E-03-4.49247E-14
 -1       286 1.49172E-02 2.66475E-03-4.50106E-14
 -1       287 1.47280E-02 2.58631E-03-4.51029E-14
 -1       288 1.45409E-02 2.50769E-03-4.51938E-14
 -1       289 1.43504E-02 2.42634E-03-4.52799E-14
 -1       290 1.41601E-02 2.34386E-03-4.53618E-14
 -1       291 1.39704E-02 2.26056E-03-4.54386E-14
 -1       292 1.37355E-02 2.13763E-03-4.49704E-14
 -1       293 1.32343E-02 1.20925E-03-2.52347E-14
 -1       294 1.31793E-02 1.31895E-03-2.50171E-14
 -1       295 1.29672E-02 1.47407E-03-2.45947E-14
 -1       296 1.26298E-02 1.67705E-03-2.40716E-14
 -1       297 1.22177E-02 1.91982E-03-2.34565E-14
 -1       298 1.17582E-02 2.16532E-03-2.27844E-14
 -1       299 1.13138E-02 2.32950E-03-2.20609E-14
 -1       300 1.08579E-02 2.33690E-03-2.13246E-14
 -1       301 1.03642E-02 2.12764E-03-2.05316E-14
 -1       302 9.80892E-03 1.78665E-03-1.98886E-14
 -1       303 9.30217E-03 1.44006E-03-1.93334E-14
 -1       304 8.84905E-03 1.11441E-03-1.88191E-14
 -1       305 8.47403E-03 8.67136E-04-1.84129E-14
 -1       306 8.24407E-03 7.43298E-04-1.83396E-14
 -1       307 8.18342E-03 6.26232E-04-1.82415E-14
 -1       308 8.28773E-03 5.21367E-04-1.84181E-14
 -1       309 8.51647E-03 4.07516E-04-1.86737E-14
 -1       310 8.83002E-03 2.77483E-04-1.90525E-14
 -1       311 9.19415E-03 1.40180E-04-1.95454E-14
 -1       312 9.57613E-03 2.00600E-05-2.01325E-14
 -1       313 9.98099E-03-5.95156E-05-2.08193E-14
 -1       314 1.03896E-02-5.64796E-05-2.15845E-14
 -1       315 1.07730E-02 2.14912E-05-2.23742E-14
 -1       316 1.12150E-02 1.85826E-04-2.30598E-14
 -1       317 1.16375E-02 3.99602E-04-2.37825E-14
 -1       318 1.20942E-02 6.49772E-04-2.44679E-14
 -1       319 1.25660E-02 8.27720E-04-2.48168E-14
 -1       320 1.29085E-02 9.86771E-04-2.51087E-14
 -1       321 1.31346E-02 1.10566E-03-2.52361E-14
 -1       322 4.55399E-04-1.64782E-04-3.40338E-17
 -1       323 4.74258E-04-2.12968E-04-2.12165E-17
 -1       324 4.40451E-04-9.40058E-05-4.93109E-17
 -1       325 4.37489E-04-6.49038E-05-5.36816E-17
 -1       326 4.35867E-04-3.79012E-05-5.70494E-17
 -1       327 4.35156E-04-1.20166E-05-5.94143E-17
 -1       328 4.35187E-04 1.35332E-05-6.09356E-17
 -1       329 4.35964E-04 3.94758E-05-6.16098E-17
 -1       330 4.37631E-04 6.61300E-05-6.11592E-17
 -1       331 4.40687E-04 9.54044E-05-6.00885E-17
 -1       332 4.46073E-04 1.28317E-04-5.76016E-17
 -1       333 4.55904E-04 1.67297E-04-5.25906E-17
 -1       334 4.75892E-04 2.17039E-04-4.40220E-17
 -1       335 5.32014E-04 2.69965E-04-4.16503E-17
 -1       336 8.24493E-04 3.73486E-04-1.11998E-16
 -1       337 8.63272E-04-3.57379E-04-8.60009E-17
 -1       338 1.14963E-03-4.26106E-04-1.75668E-16
 -1       339 1.43242E-03-4.75240E-04-2.99138E-16
 -1       340 1.71315E-03-5.09922E-04-4.58042E-16
 -1       341 1.99294E-03-5.33946E-04-6.54363E-16
 -1       342 2.27256E-03-5.50129E-04-8.88466E-16
 -1       343 2.55249E-03-5.60581E-04-1.16096E-15
 -1       344 2.83297E-03-5.66886E-04-1.47352E-15
 -1       345 3.11416E-03-5.70225E-04-1.82528E-15
 -1       346 3.39607E-03-5.71475E-04-2.21662E-15
 -1       347 3.67869E-03-5.71270E-04-2.64785E-15
 -1       348 3.96201E-03-5.70068E-04-3.11992E-15
 -1       349 4.24595E-03-5.68189E-04-3.63172E-15
 -1       350 4.53050E-03-5.65862E-04-4.18306E-15
 -1       351 4.81562E-03-5.63258E-04-4.77097E-15
 -1       352 5.10131E-03-5.60525E-04-5.39927E-15
 -1       353 5.38757E-03-5.57818E-04-6.06956E-15
 -1       354 5.67441E-03-5.55331E-04-6.78200E-15
 -1       355 5.96185E-03-5.53324E-04-7.53921E-15
 -1       356 6.24988E-03-5.52138E-04-8.34195E-15
 -1       357 6.53848E-03-5.52204E-04-9.19070E-15
 -1       358 6.82752E-03-5.54006E-04-1.00853E-14
 -1       359 7.11678E-03-5.58012E-04-1.10234E-14
 -1       360 7.40585E-03-5.64519E-04-1.20048E-14
 -1       361 7.69412E-03-5.73415E-04-1.30272E-14
 -1       362 7.98073E-03-5.83847E-04-1.40950E-14
 -1       363 8.26460E-03-5.93842E-04-1.52052E-14
 -1       364 8.54454E-03-5.99974E-04-1.63544E-14
 -1       365 8.81955E-03-5.97262E-04-1.75424E-14
 -1       366 9.08916E-03-5.79516E-04-1.87668E-14
 -1       367 9.35382E-03-5.40234E-04-2.00291E-14
 -1       368 9.61503E-03-4.73981E-04-2.13334E-14
 -1       369 9.87515E-03-3.77797E-04-2.26841E-14
 -1       370 1.01368E-02-2.52049E-04-2.40817E-14
 -1       371 1.04023E-02-1.00324E-04-2.55246E-14
 -1       372 1.06728E-02 7.16058E-05-2.70023E-14
 -1       373 1.09486E-02 2.57226E-04-2.85064E-14
 -1       374 1.12290E-02 4.50581E-04-3.00477E-14
 -1       375 1.15130E-02 6.47071E-04-3.16235E-14
 -1       376 1.17993E-02 8.43684E-04-3.32374E-14
 -1       377 1.20869E-02 1.03884E-03-3.48918E-14
 -1       378 1.23750E-02 1.23203E-03-3.65848E-14
 -1       379 1.26630E-02 1.42344E-03-3.83080E-14
 -1       380 1.29506E-02 1.61367E-03-4.00422E-14
 -1       381 1.32376E-02 1.80342E-03-4.17865E-14
 -1       382 1.34867E-02 1.97025E-03-4.33684E-14
 -1       383 1.10997E-03 4.47784E-04-2.18626E-16
 -1       384 1.39073E-03 5.00815E-04-3.62002E-16
 -1       385 1.66904E-03 5.38380E-04-5.42796E-16
 -1       386 1.94645E-03 5.64598E-04-7.60693E-16
 -1       387 2.22389E-03 5.82471E-04-1.01646E-15
 -1       388 2.50191E-03 5.94228E-04-1.30973E-15
 -1       389 2.78077E-03 6.01539E-04-1.64363E-15
 -1       390 3.06060E-03 6.05649E-04-2.01526E-15
 -1       391 3.34140E-03 6.07478E-04-2.42419E-15
 -1       392 3.62313E-03 6.07690E-04-2.86972E-15
 -1       393 3.90574E-03 6.06748E-04-3.35377E-15
 -1       394 4.18915E-03 6.04957E-04-3.87472E-15
 -1       395 4.47332E-03 6.02499E-04-4.43287E-15
 -1       396 4.75826E-03 5.99455E-04-5.02540E-15
 -1       397 5.04398E-03 5.95828E-04-5.65294E-15
 -1       398 5.33060E-03 5.91558E-04-6.31627E-15
 -1       399 5.61830E-03 5.86538E-04-7.01384E-15
 -1       400 5.90738E-03 5.80629E-04-7.75125E-15
 -1       401 6.19828E-03 5.73692E-04-8.52624E-15
 -1       402 6.49164E-03 5.65653E-04-9.34013E-15
 -1       403 6.78834E-03 5.56634E-04-1.01912E-14
 -1       404 7.08958E-03 5.47226E-04-1.10803E-14
 -1       405 7.39695E-03 5.39050E-04-1.20110E-14
 -1       406 7.71253E-03 5.35856E-04-1.29807E-14
 -1       407 8.03900E-03 5.45579E-04-1.39901E-14
 -1       408 8.38018E-03 5.83854E-04-1.50316E-14
 -1       409 8.74242E-03 6.79063E-04-1.61069E-14
 -1       410 9.13715E-03 8.76613E-04-1.72128E-14
 -1       411 9.57950E-03 1.22993E-03-1.83475E-14
 -1       412 1.02848E-02 1.97992E-03-2.00293E-14
 -1       413 1.12235E-02 2.39781E-03-2.19512E-14
 -1       414 1.16677E-02 2.19860E-03-2.29433E-14
 -1       415 1.21293E-02 1.87677E-03-2.40909E-14
 -1       416 1.26097E-02 1.59791E-03-2.53587E-14
 -1       417 1.30150E-02 1.50493E-03-2.67600E-14
 -1       418 1.33767E-02 1.54528E-03-2.82006E-14
 -1       419 1.37141E-02 1.66510E-03-2.96782E-14
 -1       420 1.40374E-02 1.82724E-03-3.12093E-14
 -1       421 1.43509E-02 2.00980E-03-3.27879E-14
 -1       422 1.46570E-02 2.20092E-03-3.44096E-14
 -1       423 1.49573E-02 2.39455E-03-3.60715E-14
 -1       424 1.52531E-02 2.58765E-03-3.77578E-14
 -1       425 1.55454E-02 2.77872E-03-3.94740E-14
 -1       426 1.58349E-02 2.96688E-03-4.12128E-14
 -1       427 1.60839E-02 3.12640E-03-4.27032E-14
 -1       428 1.56565E-02 2.92414E-03-4.29717E-14
 -1       429 1.58265E-02 3.00306E-03-4.28598E-14
 -1       430 1.54880E-02 2.84837E-03-4.30757E-14
 -1       431 1.53136E-02 2.77238E-03-4.31723E-14
 -1       432 1.51350E-02 2.69662E-03-4.32667E-14
 -1       433 1.49521E-02 2.62029E-03-4.33568E-14
 -1       434 1.47657E-02 2.54281E-03-4.34524E-14
 -1       435 1.45768E-02 2.46389E-03-4.35441E-14
 -1       436 1.43896E-02 2.38490E-03-4.36273E-14
 -1       437 1.41987E-02 2.30328E-03-4.37068E-14
 -1       438 1.40079E-02 2.22066E-03-4.37813E-14
 -1       439 1.38177E-02 2.13732E-03-4.38529E-14
 -1       440 1.30782E-02 1.34760E-03-2.53873E-14
 -1       441 1.32159E-02 1.20873E-03-2.59378E-14
 -1       442 1.32419E-02 1.26008E-03-2.57144E-14
 -1       443 1.27711E-02 1.49508E-03-2.49235E-14
 -1       444 1.23658E-02 1.74040E-03-2.41326E-14
 -1       445 4.45609E-04-1.26471E-04-4.28531E-17
 -1       446 1.07225E-02 2.30523E-03-2.08497E-14
 -1       447 9.68945E-03 1.52284E-03-1.92858E-14
 -1       448 9.19355E-03 1.17105E-03-1.87295E-14
 -1       449 8.72332E-03 8.68047E-04-1.81496E-14
 -1       450 8.31882E-03 6.81300E-04-1.77701E-14
 -1       451 8.18137E-03 6.21218E-04-1.76789E-14
 -1       452 8.20862E-03 5.71581E-04-1.78750E-14
 -1       453 8.38944E-03 5.01928E-04-1.79997E-14
 -1       454 8.69390E-03 3.89628E-04-1.84498E-14
 -1       455 9.05615E-03 2.42442E-04-1.89529E-14
 -1       456 9.43265E-03 8.49316E-05-1.95907E-14
 -1       457 9.79732E-03-4.26138E-05-2.02987E-14
 -1       458 1.01792E-02-1.06728E-04-2.11758E-14
 -1       459 1.04762E-02-6.94042E-05-2.19488E-14
 -1       460 1.09373E-02 1.29875E-04-2.31071E-14
 -1       461 1.12792E-02 3.29097E-04-2.38303E-14
 -1       462 1.16865E-02 5.65087E-04-2.45174E-14
 -1       463 1.23144E-02 8.89585E-04-2.53638E-14
 -1       464 1.26741E-02 1.02855E-03-2.56591E-14
 -1       465 1.30312E-02 1.14039E-03-2.58336E-14
 -1       466 1.20061E-02 1.97401E-03-2.35313E-14
 -1       467 9.73927E-03 1.45797E-03-1.90087E-14
 -1       468 1.19643E-02 7.82612E-04-2.54117E-14
 -1       469 1.06599E-02 1.19744E-05-2.26687E-14
 -1       470 8.48817E-03 6.89184E-04-1.75079E-14
 -1       471 9.31258E-04 3.46001E-04-1.80303E-16
 -1       472 6.65850E-04-7.51262E-05-1.20936E-16
 -1       473 6.69812E-04-1.15880E-04-1.13611E-16
 -1       474 6.63181E-04 1.10243E-06-1.29986E-16
 -1       475 6.63900E-04 3.87601E-05-1.31920E-16
 -1       476 6.66037E-04 7.68101E-05-1.32154E-16
 -1       477 6.70128E-04 1.17720E-04-1.30850E-16
 -1       478 6.77132E-04 1.62337E-04-1.27465E-16
 -1       479 6.89036E-04 2.12701E-04-1.21116E-16
 -1       480 8.23533E-03 5.23622E-04-1.73517E-14
 -1       481 1.21715E-03 4.06462E-04-3.09306E-16
 -1       482 9.76315E-04-3.28589E-04-1.54184E-16
 -1       483 1.26223E-03-3.83440E-04-2.68533E-16
 -1       484 1.54725E-03-4.23144E-04-4.16716E-16
 -1       485 1.83139E-03-4.51139E-04-6.00780E-16
 -1       486 2.11494E-03-4.70318E-04-8.21924E-16
 -1       487 2.39823E-03-4.82969E-04-1.07940E-15
 -1       488 2.68151E-03-4.90850E-04-1.37595E-15
 -1       489 2.96494E-03-4.95300E-04-1.71071E-15
 -1       490 3.24862E-03-4.97318E-04-2.08533E-15
 -1       491 3.53260E-03-4.97637E-04-2.49931E-15
 -1       492 3.81691E-03-4.96785E-04-2.95303E-15
 -1       493 4.10153E-03-4.95135E-04-3.44644E-15
 -1       494 4.38648E-03-4.92945E-04-3.97937E-15
 -1       495 4.67176E-03-4.90400E-04-4.55113E-15
 -1       496 4.95737E-03-4.87640E-04-5.15947E-15
 -1       497 5.24335E-03-4.84796E-04-5.80833E-15
 -1       498 5.52974E-03-4.82017E-04-6.49903E-15
 -1       499 5.81661E-03-4.79504E-04-7.23298E-15
 -1       500 6.10407E-03-4.77530E-04-8.01340E-15
 -1       501 6.39222E-03-4.76461E-04-8.83873E-15
 -1       502 6.68119E-03-4.76755E-04-9.71179E-15
 -1       503 6.97110E-03-4.78929E-04-1.06280E-14
 -1       504 7.26199E-03-4.83470E-04-1.15863E-14
 -1       505 7.55376E-03-4.90671E-04-1.25853E-14
 -1       506 7.84604E-03-5.00352E-04-1.36259E-14
 -1       507 8.13812E-03-5.11472E-04-1.47081E-14
 -1       508 8.42887E-03-5.21656E-04-1.58329E-14
 -1       509 8.71688E-03-5.26796E-04-1.69947E-14
 -1       510 9.00079E-03-5.20953E-04-1.81924E-14
 -1       511 9.27990E-03-4.96889E-04-1.94276E-14
 -1       512 9.55470E-03-4.47399E-04-2.07044E-14
 -1       513 9.82704E-03-3.67211E-04-2.20240E-14
 -1       514 1.00997E-02-2.54673E-04-2.33901E-14
 -1       515 1.03752E-02-1.12308E-04-2.48039E-14
 -1       516 1.06552E-02 5.40432E-05-2.62612E-14
 -1       517 1.09400E-02 2.37045E-04-2.77473E-14
 -1       518 1.12285E-02 4.29675E-04-2.92676E-14
 -1       519 1.15193E-02 6.26405E-04-3.08227E-14
 -1       520 1.18112E-02 8.23586E-04-3.24160E-14
 -1       521 1.21029E-02 1.01927E-03-3.40450E-14
 -1       522 1.23940E-02 1.21277E-03-3.57103E-14
 -1       523 1.26839E-02 1.40421E-03-3.74120E-14
 -1       524 1.29728E-02 1.59415E-03-3.91347E-14
 -1       525 1.32606E-02 1.78334E-03-4.08616E-14
 -1       526 1.78401E-03 4.80927E-04-6.76424E-16
 -1       527 2.06602E-03 5.02195E-04-9.15622E-16
 -1       528 2.34779E-03 5.16398E-04-1.19090E-15
 -1       529 2.62967E-03 5.25436E-04-1.50440E-15
 -1       530 2.91186E-03 5.30744E-04-1.85818E-15
 -1       531 3.19449E-03 5.33390E-04-2.24823E-15
 -1       532 3.47761E-03 5.34155E-04-2.67602E-15
 -1       533 3.76122E-03 5.33590E-04-3.14108E-15
 -1       534 4.04533E-03 5.32073E-04-3.64306E-15
 -1       535 4.32991E-03 5.29836E-04-4.18189E-15
 -1       536 4.61496E-03 5.27005E-04-4.75640E-15
 -1       537 4.90050E-03 5.23619E-04-5.36608E-15
 -1       538 5.18656E-03 5.19647E-04-6.01026E-15
 -1       539 5.47317E-03 5.15012E-04-6.69129E-15
 -1       540 5.76041E-03 5.09602E-04-7.40981E-15
 -1       541 6.04835E-03 5.03303E-04-8.16774E-15
 -1       542 6.33704E-03 4.96045E-04-8.96462E-15
 -1       543 6.62648E-03 4.87904E-04-9.80086E-15
 -1       544 6.91650E-03 4.79282E-04-1.06741E-14
 -1       545 7.20670E-03 4.71267E-04-1.15887E-14
 -1       546 7.49627E-03 4.66270E-04-1.25400E-14
 -1       547 7.78402E-03 4.69137E-04-1.35287E-14
 -1       548 8.06894E-03 4.88949E-04-1.45517E-14
 -1       549 8.35206E-03 5.41762E-04-1.56083E-14
 -1       550 8.64262E-03 6.55947E-04-1.66980E-14
 -1       551 7.12623E-04-2.51815E-04-8.27043E-17
 -1       552 1.30182E-02 1.40216E-03-2.61441E-14
 -1       553 1.38364E-02 1.67744E-03-3.05570E-14
 -1       554 1.41133E-02 1.85092E-03-3.21181E-14
 -1       555 1.43953E-02 2.03664E-03-3.37182E-14
 -1       556 1.46806E-02 2.22760E-03-3.53591E-14
 -1       557 1.49673E-02 2.41988E-03-3.70342E-14
 -1       558 1.52544E-02 2.61131E-03-3.87371E-14
 -1       559 1.55413E-02 2.80067E-03-4.04610E-14
 -1       560 1.51580E-02 2.65203E-03-4.16150E-14
 -1       561 1.53270E-02 2.72636E-03-4.15136E-14
 -1       562 1.54958E-02 2.80341E-03-4.14054E-14
 -1       563 1.32853E-02 1.27192E-03-2.65883E-14
 -1       564 1.49815E-02 2.57681E-03-4.17119E-14
 -1       565 1.48002E-02 2.50089E-03-4.18038E-14
 -1       566 1.46145E-02 2.42352E-03-4.18963E-14
 -1       567 1.44257E-02 2.34438E-03-4.19888E-14
 -1       568 1.42382E-02 2.26488E-03-4.20762E-14
 -1       569 1.40468E-02 2.18259E-03-4.21538E-14
 -1       570 1.38555E-02 2.09927E-03-4.22210E-14
 -1       571 1.36648E-02 2.01534E-03-4.22903E-14
 -1       572 1.50126E-03 4.50095E-04-4.74654E-16
 -1       573 1.32239E-02 1.30602E-03-2.63159E-14
 -1       574 1.31506E-02 1.23363E-03-2.65901E-14
 -1       575 9.93992E-03-1.02638E-04-2.05424E-14
 -1       576 1.28895E-02 1.16752E-03-2.64479E-14
 -1       577 1.35660E-02 1.52832E-03-2.90453E-14
 -1       578 1.32980E-02 1.42421E-03-2.75765E-14
 -1       579 6.63788E-04-3.65187E-05-1.26367E-16
 -1       580 9.03009E-03 9.33041E-04-1.79903E-14
 -1       581 8.21016E-03 5.79128E-04-1.70979E-14
 -1       582 8.13508E-03 5.54051E-04-1.71516E-14
 -1       583 8.52945E-03 4.37340E-04-1.77651E-14
 -1       584 8.85116E-03 3.16139E-04-1.82203E-14
 -1       585 9.23769E-03 1.47572E-04-1.88704E-14
 -1       586 9.59528E-03 8.70613E-07-1.96581E-14
 -1       587 1.02757E-02-1.13690E-04-2.15287E-14
 -1       588 1.14373E-02 4.95418E-04-2.46806E-14
 -1       589 1.10400E-02 2.47772E-04-2.38491E-14
 -1       590 1.25131E-02 1.05472E-03-2.62889E-14
 -1       591 7.03816E-04 2.90880E-04-1.00241E-16
 -1       592 6.76604E-04-1.60067E-04-1.03802E-16
 -1       593 8.32030E-03 4.63522E-04-1.71161E-14
 -1       594 1.22126E-02 9.54937E-04-2.63373E-14
 -1       595 1.04531E-02-6.39638E-05-2.22353E-14
 -1       596 1.34509E-02 1.90952E-03-4.20409E-14
 -1       597 1.30656E-02 1.26258E-03-2.72710E-14
 -1       598 8.99801E-04 7.40996E-05-2.28990E-16
 -1       599 8.97714E-04 2.51715E-05-2.27432E-16
 -1       600 9.11866E-04 1.78213E-04-2.24569E-16
 -1       601 9.24220E-04 2.36776E-04-2.17606E-16
 -1       602 8.61038E-03 3.48273E-04-1.74147E-14
 -1       603 1.04889E-03 3.13886E-04-2.56072E-16
 -1       604 1.09775E-03-2.94584E-04-2.32250E-16
 -1       605 1.38332E-03-3.36977E-04-3.70218E-16
 -1       606 1.66951E-03-3.67844E-04-5.42613E-16
 -1       607 1.95573E-03-3.89551E-04-7.50969E-16
 -1       608 2.24177E-03-4.04249E-04-9.95142E-16
 -1       609 2.52763E-03-4.13718E-04-1.27603E-15
 -1       610 2.81335E-03-4.19368E-04-1.59499E-15
 -1       611 3.09897E-03-4.22281E-04-1.95214E-15
 -1       612 3.38455E-03-4.23265E-04-2.34923E-15
 -1       613 3.67012E-03-4.22908E-04-2.78616E-15
 -1       614 3.95569E-03-4.21631E-04-3.26166E-15
 -1       615 4.24130E-03-4.19723E-04-3.77596E-15
 -1       616 4.52697E-03-4.17382E-04-4.33005E-15
 -1       617 4.81272E-03-4.14745E-04-4.92015E-15
 -1       618 5.09861E-03-4.11918E-04-5.54873E-15
 -1       619 5.38469E-03-4.09008E-04-6.21926E-15
 -1       620 5.67108E-03-4.06143E-04-6.93128E-15
 -1       621 5.95794E-03-4.03508E-04-7.68869E-15
 -1       622 6.24549E-03-4.01365E-04-8.49157E-15
 -1       623 6.53405E-03-4.00079E-04-9.33945E-15
 -1       624 6.82398E-03-4.00120E-04-1.02345E-14
 -1       625 7.11571E-03-4.02046E-04-1.11707E-14
 -1       626 7.40964E-03-4.06423E-04-1.21472E-14
 -1       627 7.70598E-03-4.13659E-04-1.31633E-14
 -1       628 8.00457E-03-4.23688E-04-1.42202E-14
 -1       629 8.30461E-03-4.35467E-04-1.53188E-14
 -1       630 8.60456E-03-4.46315E-04-1.64542E-14
 -1       631 8.90230E-03-4.51273E-04-1.76278E-14
 -1       632 9.19574E-03-4.42939E-04-1.88345E-14
 -1       633 9.48390E-03-4.12322E-04-2.00805E-14
 -1       634 9.76773E-03-3.51024E-04-2.13715E-14
 -1       635 1.00502E-02-2.54204E-04-2.27078E-14
 -1       636 1.03347E-02-1.22464E-04-2.40908E-14
 -1       637 1.06240E-02 3.83336E-05-2.55210E-14
 -1       638 1.09185E-02 2.19481E-04-2.69881E-14
 -1       639 1.12168E-02 4.12198E-04-2.84889E-14
 -1       640 1.15170E-02 6.09582E-04-3.00250E-14
 -1       641 1.18167E-02 8.07253E-04-3.15970E-14
 -1       642 1.21148E-02 1.00302E-03-3.32029E-14
 -1       643 1.24105E-02 1.19620E-03-3.48464E-14
 -1       644 1.27037E-02 1.38702E-03-3.65262E-14
 -1       645 1.29947E-02 1.57611E-03-3.82314E-14
 -1       646 1.32838E-02 1.76429E-03-3.99474E-14
 -1       647 1.44644E-02 2.30622E-03-4.03683E-14
 -1       648 8.09622E-03 5.13515E-04-1.65019E-14
 -1       649 2.47550E-03 4.48053E-04-1.36726E-15
 -1       650 1.90570E-03 4.20508E-04-8.14066E-16
 -1       651 2.76021E-03 4.54724E-04-1.70128E-15
 -1       652 3.04493E-03 4.58362E-04-2.07343E-15
 -1       653 3.32973E-03 4.59847E-04-2.48215E-15
 -1       654 3.61467E-03 4.59818E-04-2.92957E-15
 -1       655 3.89975E-03 4.58719E-04-3.41329E-15
 -1       656 4.18500E-03 4.56842E-04-3.93304E-15
 -1       657 4.47041E-03 4.54362E-04-4.48823E-15
 -1       658 4.75597E-03 4.51365E-04-5.07913E-15
 -1       659 5.04168E-03 4.47868E-04-5.70599E-15
 -1       660 5.32747E-03 4.43844E-04-6.36936E-15
 -1       661 5.61328E-03 4.39243E-04-7.06945E-15
 -1       662 5.89893E-03 4.34027E-04-7.81015E-15
 -1       663 6.18413E-03 4.28213E-04-8.58846E-15
 -1       664 6.46836E-03 4.21960E-04-9.40777E-15
 -1       665 6.75073E-03 4.15707E-04-1.02651E-14
 -1       666 7.02978E-03 4.10407E-04-1.11624E-14
 -1       667 7.30323E-03 4.07901E-04-1.20990E-14
 -1       668 7.56770E-03 4.11454E-04-1.30706E-14
 -1       669 7.81866E-03 4.26423E-04-1.40768E-14
 -1       670 8.05112E-03 4.61045E-04-1.51168E-14
 -1       671 8.26080E-03 5.28464E-04-1.61867E-14
 -1       672 1.44196E-02 2.07153E-03-3.46548E-14
 -1       673 1.32961E-02 1.32073E-03-2.75913E-14
 -1       674 1.52131E-02 2.61659E-03-3.96762E-14
 -1       675 8.67099E-03 7.30400E-04-1.74408E-14
 -1       676 2.19071E-03 4.37166E-04-1.07243E-15
 -1       677 1.41552E-02 1.88828E-03-3.30316E-14
 -1       678 1.39040E-02 1.71393E-03-3.14476E-14
 -1       679 1.46928E-02 2.25919E-03-3.63130E-14
 -1       680 1.49520E-02 2.43834E-03-3.79826E-14
 -1       681 1.46495E-02 2.38255E-03-4.02758E-14
 -1       682 1.48291E-02 2.45694E-03-4.01776E-14
 -1       683 1.42752E-02 2.22740E-03-4.04570E-14
 -1       684 1.40869E-02 2.14756E-03-4.05402E-14
 -1       685 1.38946E-02 2.06440E-03-4.06183E-14
 -1       686 1.37026E-02 1.97996E-03-4.06892E-14
 -1       687 1.34642E-02 1.42255E-03-2.84032E-14
 -1       688 1.12368E-02 4.08898E-04-2.47951E-14
 -1       689 8.11918E-03 5.02622E-04-1.67036E-14
 -1       690 9.71222E-03-8.70683E-05-1.98713E-14
 -1       691 1.36718E-02 1.55520E-03-2.99054E-14
 -1       692 1.33464E-03 3.61481E-04-4.06274E-16
 -1       693 1.62035E-03 3.96095E-04-5.92198E-16
 -1       694 1.33375E-02 1.32850E-03-2.72557E-14
 -1       695 1.49997E-02 2.52928E-03-4.00750E-14
 -1       696 9.36632E-03 2.80192E-05-1.89169E-14
 -1       697 1.00511E-02-1.38953E-04-2.09408E-14
 -1       698 9.04248E-04 1.24601E-04-2.27974E-16
 -1       699 9.03873E-04-1.22196E-04-2.06120E-16
 -1       700 1.34746E-02 1.88971E-03-4.11152E-14
 -1       701 8.93417E-03 1.95398E-04-1.78996E-14
 -1       702 1.17438E-02 7.18820E-04-2.57844E-14
 -1       703 1.27645E-02 1.18425E-03-2.71131E-14
 -1       704 1.07275E-02 8.41334E-05-2.33227E-14
 -1       705 9.11273E-04-1.75589E-04-1.93110E-16
 -1       706 8.97651E-04-2.31577E-05-2.23024E-16
 -1       707 8.99592E-04-7.18199E-05-2.15865E-16
 -1       708 1.02205E-02-1.27640E-04-2.16297E-14
 -1       709 8.72398E-04-2.47093E-04-1.48349E-16
 -1       710 1.25001E-02 1.10577E-03-2.71653E-14
 -1       711 8.15235E-03 4.55496E-04-1.64700E-14
 -1       712 1.09256E-02 2.21977E-04-2.42516E-14
 -1       713 8.01823E-03 4.64378E-04-1.59974E-14
 -1       714 1.16158E-03 2.43620E-04-3.41517E-16
 -1       715 8.32073E-03 3.73451E-04-1.65477E-14
 -1       716 2.89351E-03 3.82439E-04-1.89989E-15
 -1       717 9.46508E-03-8.74521E-05-1.91188E-14
 -1       718 1.51024E-03-2.86437E-04-4.81050E-16
 -1       719 1.79732E-03-3.09345E-04-6.76522E-16
 -1       720 2.08498E-03-3.25347E-04-9.07403E-16
 -1       721 2.37276E-03-3.36013E-04-1.17399E-15
 -1       722 2.66044E-03-3.42688E-04-1.47795E-15
 -1       723 2.94790E-03-3.46448E-04-1.81976E-15
 -1       724 3.23511E-03-3.48127E-04-2.19924E-15
 -1       725 3.52206E-03-3.48343E-04-2.61814E-15
 -1       726 3.80875E-03-3.47544E-04-3.07756E-15
 -1       727 4.09521E-03-3.46042E-04-3.57435E-15
 -1       728 4.38146E-03-3.44044E-04-4.10996E-15
 -1       729 4.66755E-03-3.41686E-04-4.68277E-15
 -1       730 4.95351E-03-3.39054E-04-5.29139E-15
 -1       731 5.23944E-03-3.36211E-04-5.94135E-15
 -1       732 5.52543E-03-3.33219E-04-6.63272E-15
 -1       733 5.81167E-03-3.30163E-04-7.36781E-15
 -1       734 6.09844E-03-3.27180E-04-8.14843E-15
 -1       735 6.38612E-03-3.24490E-04-8.97353E-15
 -1       736 6.67527E-03-3.22424E-04-9.84273E-15
 -1       737 6.96658E-03-3.21466E-04-1.07577E-14
 -1       738 7.26086E-03-3.22258E-04-1.17137E-14
 -1       739 7.55895E-03-3.25574E-04-1.27096E-14
 -1       740 7.86143E-03-3.32168E-04-1.37431E-14
 -1       741 8.16829E-03-3.42404E-04-1.48141E-14
 -1       742 8.47845E-03-3.55535E-04-1.59221E-14
 -1       743 8.78956E-03-3.68612E-04-1.70687E-14
 -1       744 9.09828E-03-3.75332E-04-1.82505E-14
 -1       745 9.40151E-03-3.65704E-04-1.94693E-14
 -1       746 9.69819E-03-3.27679E-04-2.07284E-14
 -1       747 9.99071E-03-2.51157E-04-2.20324E-14
 -1       748 1.02838E-02-1.32955E-04-2.33861E-14
 -1       749 1.05818E-02 2.20065E-05-2.47866E-14
 -1       750 1.08865E-02 2.02784E-04-2.62308E-14
 -1       751 1.11961E-02 3.97572E-04-2.77125E-14
 -1       752 1.15075E-02 5.97060E-04-2.92303E-14
 -1       753 1.18173E-02 7.95766E-04-3.07797E-14
 -1       754 1.21235E-02 9.91387E-04-3.23664E-14
 -1       755 1.24252E-02 1.18357E-03-3.39891E-14
 -1       756 1.27226E-02 1.37293E-03-3.56454E-14
 -1       757 1.30163E-02 1.56039E-03-3.73310E-14
 -1       758 1.33071E-02 1.74690E-03-3.90382E-14
 -1       759 1.39349E-02 2.03229E-03-3.90252E-14
 -1       760 1.44245E-02 2.10806E-03-3.55965E-14
 -1       761 2.60676E-03 3.77801E-04-1.54702E-15
 -1       762 3.46649E-03 3.85316E-04-2.71908E-15
 -1       763 3.75276E-03 3.84746E-04-3.18460E-15
 -1       764 4.03888E-03 3.83345E-04-3.68617E-15
 -1       765 4.32488E-03 3.81334E-04-4.22287E-15
 -1       766 4.61073E-03 3.78846E-04-4.79467E-15
 -1       767 4.89639E-03 3.75947E-04-5.40282E-15
 -1       768 5.18177E-03 3.72668E-04-6.04707E-15
 -1       769 5.46673E-03 3.69029E-04-6.72961E-15
 -1       770 5.75098E-03 3.65077E-04-7.45074E-15
 -1       771 6.03410E-03 3.60932E-04-8.21151E-15
 -1       772 6.31538E-03 3.56871E-04-9.01303E-15
 -1       773 6.59369E-03 3.53439E-04-9.85358E-15
 -1       774 6.86732E-03 3.51625E-04-1.07348E-14
 -1       775 7.13368E-03 3.53107E-04-1.16531E-14
 -1       776 7.38897E-03 3.60537E-04-1.26119E-14
 -1       777 7.62782E-03 3.77805E-04-1.36061E-14
 -1       778 7.84284E-03 4.10148E-04-1.46290E-14
 -1       779 7.98965E-03 4.52067E-04-1.55551E-14
 -1       780 1.35074E-02 1.45939E-03-2.92306E-14
 -1       781 1.41280E-02 2.11350E-03-3.89436E-14
 -1       782 1.04794E-02-3.48382E-05-2.26930E-14
 -1       783 1.41659E-02 1.92905E-03-3.39526E-14
 -1       784 1.47444E-02 2.35561E-03-3.83882E-14
 -1       785 1.39219E-02 1.75822E-03-3.23468E-14
 -1       786 1.43181E-02 2.19115E-03-3.88559E-14
 -1       787 1.30068E-02 1.30202E-03-2.81976E-14
 -1       788 1.32777E-02 1.37327E-03-2.85250E-14
 -1       789 1.36993E-02 1.60008E-03-3.07763E-14
 -1       790 1.45025E-02 2.26530E-03-3.87602E-14
 -1       791 1.37408E-02 1.94819E-03-3.91014E-14
 -1       792 1.35474E-02 1.86221E-03-3.91730E-14
 -1       793 2.03278E-03 3.57426E-04-9.55131E-16
 -1       794 1.13831E-03 5.90379E-05-3.49882E-16
 -1       795 1.20743E-02 9.24068E-04-2.69642E-14
 -1       796 8.60360E-03 2.37730E-04-1.69306E-14
 -1       797 2.31983E-03 3.69867E-04-1.23240E-15
 -1       798 1.46260E-02 2.31096E-03-3.85784E-14
 -1       799 1.33955E-02 1.38639E-03-2.84077E-14
 -1       800 1.24624E-03 3.00778E-04-3.74483E-16
 -1       801 1.22455E-03-2.54981E-04-3.20338E-16
 -1       802 9.06489E-03 4.76106E-05-1.79763E-14
 -1       803 3.18008E-03 3.84713E-04-2.29049E-15
 -1       804 1.15358E-02 6.18477E-04-2.60603E-14
 -1       805 9.78570E-03-1.51263E-04-2.01623E-14
 -1       806 1.13694E-03 1.19136E-06-3.45864E-16
 -1       807 1.14984E-03 1.79095E-04-3.47843E-16
 -1       808 1.12177E-02 4.20457E-04-2.54987E-14
 -1       809 1.14928E-03-1.76092E-04-3.11142E-16
 -1       810 1.45839E-02 2.23232E-03-3.69851E-14
 -1       811 1.27917E-02 1.24689E-03-2.82550E-14
 -1       812 1.06713E-02 7.41444E-05-2.36022E-14
 -1       813 1.53230E-03 3.35434E-04-5.52970E-16
 -1       814 1.14239E-03 1.17760E-04-3.50394E-16
 -1       815 8.73133E-03 9.86417E-05-1.69971E-14
 -1       816 9.95160E-03-1.73764E-04-2.08307E-14
 -1       817 1.78231E-03 3.49666E-04-7.40442E-16
 -1       818 8.00325E-03 4.28796E-04-1.57664E-14
 -1       819 1.14208E-03-1.15176E-04-3.26734E-16
 -1       820 1.13815E-03-5.65081E-05-3.38136E-16
 -1       821 1.02004E-02-1.36488E-04-2.18653E-14
 -1       822 1.92957E-03-2.47615E-04-8.18186E-16
 -1       823 2.21834E-03-2.58627E-04-1.07046E-15
 -1       824 2.50738E-03-2.65810E-04-1.36000E-15
 -1       825 2.79633E-03-2.70131E-04-1.68690E-15
 -1       826 3.08499E-03-2.72367E-04-2.05094E-15
 -1       827 3.37327E-03-2.73118E-04-2.45191E-15
 -1       828 3.66112E-03-2.72826E-04-2.89291E-15
 -1       829 3.94853E-03-2.71802E-04-3.37405E-15
 -1       830 4.23550E-03-2.70255E-04-3.89178E-15
 -1       831 4.52207E-03-2.68314E-04-4.44679E-15
 -1       832 4.80828E-03-2.66050E-04-5.03768E-15
 -1       833 5.09419E-03-2.63489E-04-5.66621E-15
 -1       834 5.37991E-03-2.60636E-04-6.33602E-15
 -1       835 5.66558E-03-2.57486E-04-7.05110E-15
 -1       836 5.95146E-03-2.54048E-04-7.80890E-15
 -1       837 6.23794E-03-2.50370E-04-8.61037E-15
 -1       838 6.52560E-03-2.46587E-04-9.45622E-15
 -1       839 6.81526E-03-2.42973E-04-1.03483E-14
 -1       840 7.10799E-03-2.40028E-04-1.12814E-14
 -1       841 7.40512E-03-2.38562E-04-1.22567E-14
 -1       842 7.70803E-03-2.39760E-04-1.32729E-14
 -1       843 8.01781E-03-2.45087E-04-1.43218E-14
 -1       844 8.33468E-03-2.55842E-04-1.54018E-14
 -1       845 8.65715E-03-2.72006E-04-1.65207E-14
 -1       846 8.98157E-03-2.90321E-04-1.76760E-14
 -1       847 9.30258E-03-3.01974E-04-1.88679E-14
 -1       848 9.61626E-03-2.92127E-04-2.00981E-14
 -1       849 9.92119E-03-2.43548E-04-2.13682E-14
 -1       850 1.02239E-02-1.45027E-04-2.26894E-14
 -1       851 1.05311E-02 2.03727E-06-2.40588E-14
 -1       852 1.08460E-02 1.84039E-04-2.54771E-14
 -1       853 1.11686E-02 3.84287E-04-2.69364E-14
 -1       854 1.14934E-02 5.88734E-04-2.84392E-14
 -1       855 1.18153E-02 7.89879E-04-2.99718E-14
 -1       856 1.21311E-02 9.85483E-04-3.15349E-14
 -1       857 1.24399E-02 1.17599E-03-3.31368E-14
 -1       858 1.27420E-02 1.36287E-03-3.47726E-14
 -1       859 1.30385E-02 1.54768E-03-3.64395E-14
 -1       860 1.32940E-02 1.70520E-03-3.78020E-14
 -1       861 1.34885E-02 1.79381E-03-3.77387E-14
 -1       862 3.89193E-03 3.09225E-04-3.44167E-15
 -1       863 3.60479E-03 3.10087E-04-2.95787E-15
 -1       864 4.46505E-03 3.05855E-04-4.51228E-15
 -1       865 4.75096E-03 3.03623E-04-5.10168E-15
 -1       866 5.03633E-03 3.01140E-04-5.72740E-15
 -1       867 5.32100E-03 2.98486E-04-6.39018E-15
 -1       868 5.60468E-03 2.95774E-04-7.09153E-15
 -1       869 5.88694E-03 2.93210E-04-7.83365E-15
 -1       870 6.16711E-03 2.91157E-04-8.61911E-15
 -1       871 6.44417E-03 2.90236E-04-9.44101E-15
 -1       872 6.71662E-03 2.91467E-04-1.03047E-14
 -1       873 6.98229E-03 2.96444E-04-1.12081E-14
 -1       874 7.23813E-03 3.07516E-04-1.21494E-14
 -1       875 7.47994E-03 3.27903E-04-1.31320E-14
 -1       876 7.70201E-03 3.61570E-04-1.41442E-14
 -1       877 7.87471E-03 4.05720E-04-1.50593E-14
 -1       878 1.37863E-02 1.92076E-03-3.75288E-14
 -1       879 1.41542E-02 1.96648E-03-3.48805E-14
 -1       880 1.34113E-02 1.44627E-03-2.93543E-14
 -1       881 1.39057E-02 1.79873E-03-3.32537E-14
 -1       882 1.39822E-02 2.00138E-03-3.74466E-14
 -1       883 1.32145E-02 1.40268E-03-2.92814E-14
 -1       884 1.36741E-02 1.64260E-03-3.16609E-14
 -1       885 8.10692E-03 3.75008E-04-1.58457E-14
 -1       886 1.41738E-02 2.07681E-03-3.73545E-14
 -1       887 2.16426E-03 2.91784E-04-1.10024E-15
 -1       888 4.17869E-03 3.07759E-04-3.96032E-15
 -1       889 2.45278E-03 3.00520E-04-1.39596E-15
 -1       890 2.74121E-03 3.05915E-04-1.72928E-15
 -1       891 1.24103E-02 1.10193E-03-2.80546E-14
 -1       892 1.64163E-03-2.31649E-04-6.01048E-16
 -1       893 9.14372E-03-9.61142E-05-1.81089E-14
 -1       894 1.39422E-03-2.05730E-04-4.44082E-16
 -1       895 1.19170E-02 8.53128E-04-2.75724E-14
 -1       896 1.36371E-02 1.85823E-03-3.76383E-14
 -1       897 9.55614E-03-1.77596E-04-1.94864E-14
 -1       898 8.24958E-03 2.57898E-04-1.58480E-14
 -1       899 1.44672E-03 2.76833E-04-5.11882E-16
 -1       900 1.03851E-02-6.80792E-05-2.27482E-14
 -1       901 1.15943E-02 6.61911E-04-2.69944E-14
 -1       902 1.38109E-03 3.40944E-05-4.94295E-16
 -1       903 8.82785E-03-5.02846E-05-1.71162E-14
 -1       904 1.44687E-02 2.19049E-03-3.71738E-14
 -1       905 3.31728E-03 3.10093E-04-2.51103E-15
 -1       906 9.71608E-03-2.12327E-04-2.01362E-14
 -1       907 1.43094E-02 2.07759E-03-3.60240E-14
 -1       908 1.09504E-02 2.50535E-04-2.48251E-14
 -1       909 1.43025E-02 2.12224E-03-3.71737E-14
 -1       910 1.87596E-03 2.78587E-04-8.41117E-16
 -1       911 1.30380E-02 1.36198E-03-2.93416E-14
 -1       912 1.38565E-03-1.37372E-04-4.63818E-16
 -1       913 3.02941E-03 3.08874E-04-2.10063E-15
 -1       914 1.38426E-03 9.98052E-05-4.97368E-16
 -1       915 8.36335E-03 1.42452E-04-1.59066E-14
 -1       916 2.06559E-03-1.82693E-04-9.66536E-16
 -1       917 2.35525E-03-1.89525E-04-1.24102E-15
 -1       918 2.64517E-03-1.93846E-04-1.55279E-15
 -1       919 2.93497E-03-1.96299E-04-1.90156E-15
 -1       920 3.22439E-03-1.97398E-04-2.28715E-15
 -1       921 3.51330E-03-1.97532E-04-2.71015E-15
 -1       922 3.80164E-03-1.96980E-04-3.17354E-15
 -1       923 4.08939E-03-1.95933E-04-3.67425E-15
 -1       924 4.37654E-03-1.94505E-04-4.21308E-15
 -1       925 4.66313E-03-1.92749E-04-4.78626E-15
 -1       926 4.94919E-03-1.90667E-04-5.39521E-15
 -1       927 5.23478E-03-1.88219E-04-6.04428E-15
 -1       928 5.52001E-03-1.85332E-04-6.73729E-15
 -1       929 5.80506E-03-1.81906E-04-7.47436E-15
 -1       930 6.09024E-03-1.77833E-04-8.25274E-15
 -1       931 6.37603E-03-1.73026E-04-9.07494E-15
 -1       932 6.66318E-03-1.67482E-04-9.94254E-15
 -1       933 6.95281E-03-1.61380E-04-1.08552E-14
 -1       934 7.24643E-03-1.55238E-04-1.18075E-14
 -1       935 7.54598E-03-1.50134E-04-1.28026E-14
 -1       936 7.85367E-03-1.47953E-04-1.38332E-14
 -1       937 8.17141E-03-1.51411E-04-1.48938E-14
 -1       938 8.49993E-03-1.63480E-04-1.59843E-14
 -1       939 8.83735E-03-1.85812E-04-1.71113E-14
 -1       940 9.17791E-03-2.14423E-04-1.82751E-14
 -1       941 1.01547E-02-1.58214E-04-2.20041E-14
 -1       942 1.14782E-02 5.83908E-04-2.76464E-14
 -1       943 1.18146E-02 7.90143E-04-2.91626E-14
 -1       944 1.21414E-02 9.86309E-04-3.07125E-14
 -1       945 1.24576E-02 1.17439E-03-3.22914E-14
 -1       946 1.27641E-02 1.35757E-03-3.39065E-14
 -1       947 1.30630E-02 1.53847E-03-3.55568E-14
 -1       948 1.32768E-02 1.66633E-03-3.66452E-14
 -1       949 3.74454E-03 2.34450E-04-3.19845E-15
 -1       950 1.77681E-03-1.72638E-04-7.28414E-16
 -1       951 4.89124E-03 2.29003E-04-5.40979E-15
 -1       952 4.60556E-03 2.30700E-04-4.80295E-15
 -1       953 5.45979E-03 2.25667E-04-6.73492E-15
 -1       954 5.74208E-03 2.24432E-04-7.45660E-15
 -1       955 6.02241E-03 2.23965E-04-8.22162E-15
 -1       956 6.30000E-03 2.24897E-04-9.02789E-15
 -1       957 6.57379E-03 2.28201E-04-9.87428E-15
 -1       958 6.84231E-03 2.35312E-04-1.07617E-14
 -1       959 7.10366E-03 2.48246E-04-1.16870E-14
 -1       960 7.35547E-03 2.69641E-04-1.26534E-14
 -1       961 7.59493E-03 3.02547E-04-1.36558E-14
 -1       962 7.79217E-03 3.43872E-04-1.45636E-14
 -1       963 1.38100E-03-3.12457E-05-4.86654E-16
 -1       964 2.01021E-03 2.15032E-04-9.71882E-16
 -1       965 1.38717E-02 1.83099E-03-3.41634E-14
 -1       966 1.36409E-02 1.81282E-03-3.60454E-14
 -1       967 1.46262E-03 1.97882E-04-5.40231E-16
 -1       968 1.38412E-02 1.89211E-03-3.59618E-14
 -1       969 2.58908E-03 2.29324E-04-1.56286E-15
 -1       970 1.27027E-02 1.24545E-03-2.91413E-14
 -1       971 2.29951E-03 2.23713E-04-1.24892E-15
 -1       972 7.95168E-03 2.82792E-04-1.49407E-14
 -1       973 1.23570E-02 1.09470E-03-2.90555E-14
 -1       974 1.36240E-02 1.67408E-03-3.25489E-14
 -1       975 1.66088E-03 2.80382E-04-6.66490E-16
 -1       976 1.58053E-03-1.55480E-04-5.88786E-16
 -1       977 1.38223E-03-8.38911E-05-4.76717E-16
 -1       978 5.17605E-03 2.27273E-04-6.05411E-15
 -1       979 1.19132E-02 8.52636E-04-2.84228E-14
 -1       980 8.04626E-03 1.95740E-04-1.50021E-14
 -1       981 8.46971E-03 4.51350E-06-1.60163E-14
 -1       982 1.34877E-02 1.74972E-03-3.61533E-14
 -1       983 1.40233E-02 1.93570E-03-3.52974E-14
 -1       984 1.12140E-02 4.19310E-04-2.63594E-14
 -1       985 3.45638E-03 2.34790E-04-2.73374E-15
 -1       986 4.31917E-03 2.32249E-04-4.23238E-15
 -1       987 1.33935E-02 1.53204E-03-3.09921E-14
 -1       988 1.62759E-03 1.55196E-06-6.61072E-16
 -1       989 2.87855E-03 2.32647E-04-1.91424E-15
 -1       990 1.79366E-03 2.21519E-04-7.84796E-16
 -1       991 4.03215E-03 2.33543E-04-3.69806E-15
 -1       992 1.62932E-03 7.30683E-05-6.67869E-16
 -1       993 1.06154E-02 5.07103E-05-2.38519E-14
 -1       994 2.49529E-03-1.18262E-04-1.41822E-15
 -1       995 2.78578E-03-1.20379E-04-1.75146E-15
 -1       996 3.07604E-03-1.21472E-04-2.12160E-15
 -1       997 3.36582E-03-1.21824E-04-2.52946E-15
 -1       998 3.65498E-03-1.21641E-04-2.97412E-15
 -1       999 3.94346E-03-1.21065E-04-3.45795E-15
 -1      1000 4.23123E-03-1.20180E-04-3.97916E-15
 -1      1001 4.51827E-03-1.19016E-04-4.53625E-15
 -1      1002 4.80461E-03-1.17556E-04-5.12765E-15
 -1      1003 5.09025E-03-1.15735E-04-5.75621E-15
 -1      1004 5.37526E-03-1.13435E-04-6.42768E-15
 -1      1005 5.65969E-03-1.10486E-04-7.14256E-15
 -1      1006 5.94374E-03-1.06662E-04-7.89905E-15
 -1      1007 6.22769E-03-1.01694E-04-8.69899E-15
 -1      1008 6.51209E-03-9.53014E-05-9.54296E-15
 -1      1009 6.79780E-03-8.72726E-05-1.04319E-14
 -1      1010 7.08618E-03-7.76234E-05-1.13629E-14
 -1      1011 7.37924E-03-6.68643E-05-1.23336E-14
 -1      1012 7.67969E-03-5.64132E-05-1.33449E-14
 -1      1013 7.99090E-03-4.92113E-05-1.43878E-14
 -1      1014 1.32750E-02 1.64576E-03-3.58588E-14
 -1      1015 1.21602E-02 9.94871E-04-2.98910E-14
 -1      1016 1.24830E-02 1.17954E-03-3.14499E-14
 -1      1017 1.27926E-02 1.35742E-03-3.30465E-14
 -1      1018 1.30361E-02 1.50131E-03-3.44420E-14
 -1      1019 1.91538E-03-1.09456E-04-8.63272E-16
 -1      1020 1.30868E-02 1.42785E-03-3.06936E-14
 -1      1021 5.88001E-03 1.54983E-04-7.82686E-15
 -1      1022 5.59882E-03 1.54326E-04-7.08362E-15
 -1      1023 6.43529E-03 1.61446E-04-9.44348E-15
 -1      1024 6.70797E-03 1.69294E-04-1.03157E-14
 -1      1025 6.97622E-03 1.82213E-04-1.12252E-14
 -1      1026 7.23923E-03 2.02182E-04-1.21741E-14
 -1      1027 7.49643E-03 2.31278E-04-1.31631E-14
 -1      1028 7.72041E-03 2.54911E-04-1.40409E-14
 -1      1029 1.33431E-02 1.57041E-03-3.22504E-14
 -1      1030 1.62772E-03-5.58811E-05-6.51480E-16
 -1      1031 3.16769E-03 2.34309E-04-2.30486E-15
 -1      1032 6.15904E-03 1.57074E-04-8.61337E-15
 -1      1033 4.74652E-03 1.56109E-04-5.09548E-15
 -1      1034 1.27653E-02 1.30013E-03-3.04309E-14
 -1      1035 2.20496E-03-1.14767E-04-1.12241E-15
 -1      1036 1.70968E-03 1.45491E-04-7.27578E-16
 -1      1037 1.36057E-02 1.72418E-03-3.38581E-14
 -1      1038 1.35011E-02 1.70932E-03-3.45767E-14
 -1      1039 5.31596E-03 1.54527E-04-6.38172E-15
 -1      1040 5.03178E-03 1.55204E-04-5.72015E-15
 -1      1041 7.78836E-03 1.80983E-04-1.40999E-14
 -1      1042 3.59719E-03 1.59092E-04-2.95736E-15
 -1      1043 4.46035E-03 1.57073E-04-4.50700E-15
 -1      1044 1.91348E-03-4.75295E-05-8.78072E-16
 -1      1045 8.03423E-03 7.26620E-05-1.47024E-14
 -1      1046 2.72833E-03 1.56515E-04-1.73270E-15
 -1      1047 1.92677E-03 1.37145E-04-9.05848E-16
 -1      1048 2.43805E-03 1.53388E-04-1.40097E-15
 -1      1049 3.88563E-03 1.58686E-04-3.43817E-15
 -1      1050 2.18213E-03 1.46065E-04-1.13908E-15
 -1      1051 1.33416E-02 1.64578E-03-3.46829E-14
 -1      1052 1.26117E-02 1.23939E-03-3.09429E-14
 -1      1053 1.91313E-03 2.92379E-05-8.90699E-16
 -1      1054 5.17288E-03 8.23036E-05-6.03119E-15
 -1      1055 2.92884E-03-4.57364E-05-1.95657E-15
 -1      1056 3.21921E-03-4.59627E-05-2.34813E-15
 -1      1057 3.50898E-03-4.59384E-05-2.77655E-15
 -1      1058 3.79807E-03-4.57160E-05-3.24346E-15
 -1      1059 4.08638E-03-4.53247E-05-3.74651E-15
 -1      1060 4.37389E-03-4.47660E-05-4.28775E-15
 -1      1061 4.66060E-03-4.39968E-05-4.86375E-15
 -1      1062 4.94646E-03-4.29409E-05-5.47354E-15
 -1      1063 5.23148E-03-4.14643E-05-6.12227E-15
 -1      1064 5.51563E-03-3.93676E-05-6.81413E-15
 -1      1065 5.79893E-03-3.63676E-05-7.54791E-15
 -1      1066 6.08148E-03-3.20837E-05-8.32646E-15
 -1      1067 6.36349E-03-2.60372E-05-9.14739E-15
 -1      1068 6.64543E-03-1.76817E-05-1.00136E-14
 -1      1069 6.92815E-03-6.49913E-06-1.09210E-14
 -1      1070 7.21317E-03 7.78557E-06-1.18703E-14
 -1      1071 7.50309E-03 2.47556E-05-1.28561E-14
 -1      1072 7.76420E-03 4.89207E-05-1.37675E-14
 -1      1073 5.73889E-03 8.42662E-05-7.43456E-15
 -1      1074 1.31885E-02 1.57489E-03-3.45641E-14
 -1      1075 6.01964E-03 8.69570E-05-8.20261E-15
 -1      1076 1.29168E-02 1.40748E-03-3.25277E-14
 -1      1077 6.29854E-03 9.16246E-05-9.01236E-15
 -1      1078 6.84987E-03 1.10799E-04-1.07617E-14
 -1      1079 6.57533E-03 9.91851E-05-9.86579E-15
 -1      1080 7.39364E-03 1.51353E-04-1.26682E-14
 -1      1081 7.58875E-03 1.65111E-04-1.33747E-14
 -1      1082 1.29860E-02 1.41721E-03-3.16009E-14
 -1      1083 1.32456E-02 1.56118E-03-3.30744E-14
 -1      1084 4.17336E-03 1.57969E-04-3.95404E-15
 -1      1085 4.88805E-03 8.22246E-05-5.38994E-15
 -1      1086 7.12234E-03 1.27788E-04-1.16935E-14
 -1      1087 5.45655E-03 8.28748E-05-6.71168E-15
 -1      1088 3.01843E-03 1.58268E-04-2.10266E-15
 -1      1089 2.63810E-03-4.51607E-05-1.60186E-15
 -1      1090 3.30810E-03 1.59028E-04-2.51101E-15
 -1      1091 2.87018E-03 8.23970E-05-1.90681E-15
 -1      1092 4.60222E-03 8.24150E-05-4.78426E-15
 -1      1093 2.06073E-03 7.20317E-05-1.02421E-15
 -1      1094 3.73950E-03 8.32781E-05-3.18133E-15
 -1      1095 2.16370E-03-9.53549E-06-1.11026E-15
 -1      1096 2.57951E-03 8.10821E-05-1.55635E-15
 -1      1097 3.45035E-03 8.33242E-05-2.71896E-15
 -1      1098 3.16054E-03 8.30812E-05-2.29351E-15
 -1      1099 2.31656E-03 7.76922E-05-1.27209E-15
 -1      1100 3.36407E-03 2.99151E-05-2.57894E-15
 -1      1101 4.23019E-03 3.00277E-05-4.03848E-15
 -1      1102 1.31188E-02 1.52545E-03-3.37854E-14
 -1      1103 2.34736E-03-4.41141E-05-1.28481E-15
 -1      1104 4.02789E-03 8.30467E-05-3.67939E-15
 -1      1105 2.39277E-03 3.40259E-05-1.34700E-15
 -1      1106 7.68703E-03 1.24570E-04-1.36360E-14
 -1      1107 0.00000E+00 0.00000E+00 0.00000E+00
 -1      1108 0.00000E+00 0.00000E+00 0.00000E+00
 -1      1109 0.00000E+00 0.00000E+00 0.00000E+00
 -1      1110 0.00000E+00 0.00000E+00 0.00000E+00
 -1      1111 0.00000E+00 0.00000E+00 0.00000E+00
 -1      1112 0.00000E+00 0.00000E+00 0.00000E+00
 -1      1113 0.00000E+00 0.00000E+00 0.00000E+00
 -1      1114 0.00000E+00 0.00000E+00 0.00000E+00
 -1      1115 0.00000E+00 0.00000E+00 0.00000E+00
 -1      1116 0.00000E+00 0.00000E+00 0.00000E+00
 -1      1117 0.00000E+00 0.00000E+00 0.00000E+00
 -1      1118 0.00000E+00 0.00000E+00 0.00000E+00
 -1      1119 0.00000E+00 0.00000E+00 0.00000E+00
 -1      1120 0.00000E+00 0.00000E+00 0.00000E+00
 -1      1121 0.00000E+00 0.00000E+00 0.00000E+00
 -1      1122 0.00000E+00 0.00000E+00 0.00000E+00
 -1      1123 0.00000E+00 0.00000E+00 0.00000E+00
 -1      1124 2.11660E-04-1.48327E-04 1.16823E-17
 -1      1125 5.51618E-04-3.37499E-04 1.81333E-17
 -1      1126 8.33430E-04-4.58977E-04-3.44234E-18
 -1      1127 1.10300E-03-5.40636E-04-5.81674E-17
 -1      1128 1.36841E-03-5.97853E-04-1.47628E-16
 -1      1129 1.63322E-03-6.38518E-04-2.73097E-16
 -1      1130 1.89929E-03-6.67279E-04-4.36012E-16
 -1      1131 2.16746E-03-6.87251E-04-6.38676E-16
 -1      1132 2.43804E-03-7.00716E-04-8.81714E-16
 -1      1133 2.71103E-03-7.09394E-04-1.16668E-15
 -1      1134 2.98627E-03-7.14585E-04-1.49350E-15
 -1      1135 3.26353E-03-7.17271E-04-1.86200E-15
 -1      1136 3.54258E-03-7.18178E-04-2.26869E-15
 -1      1137 3.82317E-03-7.17839E-04-2.71601E-15
 -1      1138 4.10508E-03-7.16639E-04-3.20374E-15
 -1      1139 4.38815E-03-7.14856E-04-3.72960E-15
 -1      1140 4.67226E-03-7.12695E-04-4.29775E-15
 -1      1141 4.95734E-03-7.10326E-04-4.90551E-15
 -1      1142 5.24333E-03-7.07907E-04-5.55477E-15
 -1      1143 5.53025E-03-7.05618E-04-6.24823E-15
 -1      1144 5.81810E-03-7.03687E-04-6.98546E-15
 -1      1145 6.10682E-03-7.02407E-04-7.76743E-15
 -1      1146 6.39631E-03-7.02142E-04-8.59011E-15
 -1      1147 6.68627E-03-7.03311E-04-9.45720E-15
 -1      1148 6.97617E-03-7.06327E-04-1.03745E-14
 -1      1149 7.26514E-03-7.11479E-04-1.13369E-14
 -1      1150 7.55188E-03-7.18738E-04-1.23476E-14
 -1      1151 7.83468E-03-7.27481E-04-1.34014E-14
 -1      1152 8.11147E-03-7.36168E-04-1.45036E-14
 -1      1153 8.38014E-03-7.42038E-04-1.56467E-14
 -1      1154 8.63890E-03-7.40981E-04-1.68260E-14
 -1      1155 8.88688E-03-7.27713E-04-1.80484E-14
 -1      1156 9.12466E-03-6.96401E-04-1.93091E-14
 -1      1157 9.35447E-03-6.41685E-04-2.06053E-14
 -1      1158 9.58012E-03-5.59855E-04-2.19425E-14
 -1      1159 9.80621E-03-4.49775E-04-2.33225E-14
 -1      1160 1.00373E-02-3.13175E-04-2.47545E-14
 -1      1161 1.02768E-02-1.54201E-04-2.62273E-14
 -1      1162 1.05266E-02 2.16080E-05-2.77312E-14
 -1      1163 1.07869E-02 2.08494E-04-2.92644E-14
 -1      1164 1.10566E-02 4.01436E-04-3.08356E-14
 -1      1165 1.13336E-02 5.96678E-04-3.24382E-14
 -1      1166 1.16159E-02 7.91843E-04-3.40847E-14
 -1      1167 1.19014E-02 9.85749E-04-3.57749E-14
 -1      1168 1.21884E-02 1.17810E-03-3.75031E-14
 -1      1169 1.24759E-02 1.36915E-03-3.92505E-14
 -1      1170 1.27629E-02 1.55945E-03-4.10055E-14
 -1      1171 1.30494E-02 1.74963E-03-4.27714E-14
 -1      1172 1.33354E-02 1.94019E-03-4.45541E-14
 -1      1173 1.36139E-02 2.12650E-03-4.63134E-14
 -1      1174 2.28418E-04 1.60706E-04 5.92245E-18
 -1      1175 5.53790E-04 3.42132E-04-8.32125E-18
 -1      1176 8.34359E-04 4.61146E-04-5.74763E-17
 -1      1177 1.10390E-03 5.42326E-04-1.45405E-16
 -1      1178 1.36931E-03 5.99539E-04-2.72677E-16
 -1      1179 1.63417E-03 6.40297E-04-4.37774E-16
 -1      1180 1.90028E-03 6.69166E-04-6.41035E-16
 -1      1181 2.16849E-03 6.89259E-04-8.80819E-16
 -1      1182 2.43907E-03 7.02852E-04-1.15949E-15
 -1      1183 2.71205E-03 7.11659E-04-1.48102E-15
 -1      1184 2.98727E-03 7.16975E-04-1.84243E-15
 -1      1185 3.26449E-03 7.19771E-04-2.23855E-15
 -1      1186 3.54346E-03 7.20760E-04-2.67250E-15
 -1      1187 3.82394E-03 7.20452E-04-3.14654E-15
 -1      1188 4.10571E-03 7.19198E-04-3.65792E-15
 -1      1189 4.38862E-03 7.17220E-04-4.20909E-15
 -1      1190 4.67255E-03 7.14642E-04-4.79146E-15
 -1      1191 4.95750E-03 7.11506E-04-5.40677E-15
 -1      1192 5.24354E-03 7.07796E-04-6.06394E-15
 -1      1193 5.53091E-03 7.03449E-04-6.75466E-15
 -1      1194 5.82001E-03 6.98375E-04-7.47762E-15
 -1      1195 6.11157E-03 6.92484E-04-8.23823E-15
 -1      1196 6.40671E-03 6.85737E-04-9.03279E-15
 -1      1197 6.70720E-03 6.78253E-04-9.86678E-15
 -1      1198 7.01581E-03 6.70521E-04-1.07390E-14
 -1      1199 7.33673E-03 6.63862E-04-1.16527E-14
 -1      1200 7.67623E-03 6.61370E-04-1.26080E-14
 -1      1201 8.04322E-03 6.69851E-04-1.36099E-14
 -1      1202 8.44939E-03 7.03496E-04-1.46498E-14
 -1      1203 8.90723E-03 7.89763E-04-1.57243E-14
 -1      1204 9.42215E-03 9.74022E-04-1.68222E-14
 -1      1205 9.97419E-03 1.30904E-03-1.79446E-14
 -1      1206 1.04703E-02 1.77459E-03-1.90342E-14
 -1      1207 1.08260E-02 2.23589E-03-2.00560E-14
 -1      1208 1.10529E-02 2.52575E-03-2.10400E-14
 -1      1209 1.12271E-02 2.55623E-03-2.19600E-14
 -1      1210 1.14642E-02 2.37308E-03-2.29356E-14
 -1      1211 1.18470E-02 2.06687E-03-2.40768E-14
 -1      1212 1.23413E-02 1.81018E-03-2.53246E-14
 -1      1213 1.28761E-02 1.69377E-03-2.66697E-14
 -1      1214 1.33822E-02 1.71549E-03-2.80956E-14
 -1      1215 1.38306E-02 1.82638E-03-2.95619E-14
 -1      1216 1.42285E-02 1.98394E-03-3.10793E-14
 -1      1217 1.45887E-02 2.16340E-03-3.26599E-14
 -1      1218 1.49225E-02 2.35197E-03-3.42803E-14
 -1      1219 1.52384E-02 2.54339E-03-3.59353E-14
 -1      1220 1.55421E-02 2.73462E-03-3.76314E-14
 -1      1221 1.58377E-02 2.92409E-03-3.93598E-14
 -1      1222 1.61280E-02 3.11093E-03-4.11220E-14
 -1      1223 1.64149E-02 3.29467E-03-4.28987E-14
 -1      1224 1.67005E-02 3.47561E-03-4.47029E-14
 -1      1225 1.67548E-02 3.52332E-03-4.56803E-14
 -1      1226 1.65789E-02 3.43884E-03-4.57759E-14
 -1      1227 1.64053E-02 3.35562E-03-4.58600E-14
 -1      1228 1.62335E-02 3.27495E-03-4.59504E-14
 -1      1229 1.60618E-02 3.19730E-03-4.60683E-14
 -1      1230 1.58897E-02 3.12291E-03-4.61932E-14
 -1      1231 1.57145E-02 3.05011E-03-4.62933E-14
 -1      1232 1.55341E-02 2.97712E-03-4.63693E-14
 -1      1233 1.53501E-02 2.90343E-03-4.64514E-14
 -1      1234 1.51632E-02 2.82821E-03-4.65256E-14
 -1      1235 1.49743E-02 2.75104E-03-4.66114E-14
 -1      1236 1.47859E-02 2.67254E-03-4.67224E-14
 -1      1237 1.45973E-02 2.59228E-03-4.68271E-14
 -1      1238 1.44072E-02 2.50989E-03-4.69180E-14
 -1      1239 1.42176E-02 2.42647E-03-4.70036E-14
 -1      1240 1.40287E-02 2.34242E-03-4.70821E-14
 -1      1241 1.38420E-02 2.25882E-03-4.71495E-14
 -1      1242 1.32504E-02 1.18440E-03-2.46470E-14
 -1      1243 1.32146E-02 1.35805E-03-2.44828E-14
 -1      1244 1.30438E-02 1.55279E-03-2.41604E-14
 -1      1245 1.27518E-02 1.76690E-03-2.37127E-14
 -1      1246 1.23646E-02 1.98637E-03-2.31998E-14
 -1      1247 1.18920E-02 2.18378E-03-2.26373E-14
 -1      1248 1.13658E-02 2.30570E-03-2.20300E-14
 -1      1249 1.07940E-02 2.30052E-03-2.13888E-14
 -1      1250 1.01722E-02 2.13723E-03-2.07192E-14
 -1      1251 9.59941E-03 1.86882E-03-2.01280E-14
 -1      1252 9.11080E-03 1.57121E-03-1.96456E-14
 -1      1253 8.69693E-03 1.28043E-03-1.92482E-14
 -1      1254 8.38619E-03 1.02275E-03-1.89460E-14
 -1      1255 8.20957E-03 8.12738E-04-1.87702E-14
 -1      1256 8.16767E-03 6.35623E-04-1.87245E-14
 -1      1257 8.25511E-03 4.74951E-04-1.88202E-14
 -1      1258 8.45402E-03 3.32632E-04-1.90450E-14
 -1      1259 8.73904E-03 2.04399E-04-1.93777E-14
 -1      1260 9.09180E-03 9.32656E-05-1.98140E-14
 -1      1261 9.48962E-03 1.07035E-05-2.03337E-14
 -1      1262 9.93844E-03-3.24202E-05-2.09396E-14
 -1      1263 1.04175E-02-2.25655E-05-2.15978E-14
 -1      1264 1.08912E-02 4.55963E-05-2.22410E-14
 -1      1265 1.13570E-02 1.59647E-04-2.28493E-14
 -1      1266 1.18174E-02 3.13955E-04-2.34171E-14
 -1      1267 1.22711E-02 4.98093E-04-2.39326E-14
 -1      1268 1.26696E-02 6.87993E-04-2.43175E-14
 -1      1269 1.29680E-02 8.62717E-04-2.45468E-14
 -1      1270 1.31623E-02 1.02347E-03-2.46624E-14
 -1      1271 1.66695E-04-1.10339E-04 6.31548E-18
 -1      1272 1.12540E-04-5.69741E-05-2.01933E-18
 -1      1273 1.17620E-04-6.75816E-05 1.35525E-19
 -1      1274 1.08425E-04-4.34926E-05-5.78693E-18
 -1      1275 1.10286E-04-4.96068E-05-4.52654E-18
 -1      1276 2.26329E-04-1.07623E-04-1.06387E-17
 -1      1277 1.06842E-04-3.36082E-05-8.37546E-18
 -1      1278 1.07690E-04-3.83321E-05-7.58942E-18
 -1      1279 2.19112E-04-8.24571E-05-1.79571E-17
 -1      1280 1.06062E-04-2.53541E-05-1.00695E-17
 -1      1281 1.06492E-04-2.93851E-05-9.58164E-18
 -1      1282 2.15865E-04-6.32738E-05-2.30393E-17
 -1      1283 1.05663E-04-1.80922E-05-1.11944E-17
 -1      1284 1.05892E-04-2.16605E-05-1.08285E-17
 -1      1285 2.14211E-04-4.71909E-05-2.64139E-17
 -1      1286 1.05441E-04-1.12395E-05-1.21702E-17
 -1      1287 1.05565E-04-1.46249E-05-1.18991E-17
 -1      1288 2.13300E-04-3.27532E-05-2.88669E-17
 -1      1289 1.05342E-04-4.68934E-06-1.28071E-17
 -1      1290 1.05394E-04-7.94261E-06-1.26445E-17
 -1      1291 2.12802E-04-1.91900E-05-3.07778E-17
 -1      1292 1.05330E-04 1.74277E-06-1.32273E-17
 -1      1293 1.05328E-04-1.47056E-06-1.31595E-17
 -1      1294 2.12587E-04-6.16053E-06-3.21873E-17
 -1      1295 1.05403E-04 8.22456E-06-1.33763E-17
 -1      1296 1.05346E-04 4.96481E-06-1.33492E-17
 -1      1297 2.12595E-04 6.70800E-06-3.30140E-17
 -1      1298 1.05580E-04 1.49320E-05-1.34034E-17
 -1      1299 1.05453E-04 1.15320E-05-1.33763E-17
 -1      1300 2.12827E-04 1.97635E-05-3.32172E-17
 -1      1301 1.05914E-04 2.19512E-05-1.31053E-17
 -1      1302 1.05679E-04 1.83599E-05-1.32002E-17
 -1      1303 2.13338E-04 3.32659E-05-3.30004E-17
 -1      1304 1.06537E-04 2.98187E-05-1.25767E-17
 -1      1305 1.06098E-04 2.57415E-05-1.26852E-17
 -1      1306 2.14279E-04 4.77944E-05-3.21601E-17
 -1      1307 1.07727E-04 3.89183E-05-1.16552E-17
 -1      1308 1.06876E-04 3.41244E-05-1.20617E-17
 -1      1309 2.15982E-04 6.42085E-05-3.07371E-17
 -1      1310 1.10265E-04 5.03455E-05-9.62229E-18
 -1      1311 1.08427E-04 4.41617E-05-1.05710E-17
 -1      1312 2.19207E-04 8.37073E-05-2.79589E-17
 -1      1313 1.16936E-04 6.76180E-05-5.90890E-18
 -1      1314 1.12187E-04 5.77739E-05-7.71139E-18
 -1      1315 2.26317E-04 1.09443E-04-2.28360E-17
 -1      1316 1.57575E-04 1.09856E-04 1.76183E-19
 -1      1317 1.35659E-04 8.60889E-05-3.86247E-18
 -1      1318 2.56035E-04 1.52088E-04-1.64934E-17
 -1      1319 3.35075E-04 2.20730E-04-6.69495E-18
 -1      1320 4.21529E-04-2.61727E-04 7.88757E-18
 -1      1321 5.74622E-04-3.36780E-04 2.49366E-18
 -1      1322 7.21806E-04-3.97374E-04-1.13570E-17
 -1      1323 8.64971E-04-4.46660E-04-3.32443E-17
 -1      1324 6.12061E-04-3.30871E-04-1.66832E-17
 -1      1325 1.00499E-03-4.87721E-04-6.28160E-17
 -1      1326 1.14283E-03-5.21696E-04-1.00885E-16
 -1      1327 9.05291E-04-4.31550E-04-6.49573E-17
 -1      1328 1.27933E-03-5.50452E-04-1.47831E-16
 -1      1329 1.41497E-03-5.74469E-04-2.03803E-16
 -1      1330 1.18772E-03-5.00942E-04-1.46123E-16
 -1      1331 1.55022E-03-5.94811E-04-2.68489E-16
 -1      1332 1.68531E-03-6.11811E-04-3.42554E-16
 -1      1333 1.46465E-03-5.49674E-04-2.61970E-16
 -1      1334 1.82050E-03-6.26098E-04-4.25875E-16
 -1      1335 1.95590E-03-6.37962E-04-5.18791E-16
 -1      1336 1.73935E-03-5.83924E-04-4.13623E-16
 -1      1337 2.09162E-03-6.47807E-04-6.21492E-16
 -1      1338 2.22771E-03-6.55880E-04-7.34710E-16
 -1      1339 2.01367E-03-6.07668E-04-6.03223E-16
 -1      1340 2.36423E-03-6.62456E-04-8.58065E-16
 -1      1341 2.50119E-03-6.67741E-04-9.90554E-16
 -1      1342 2.28861E-03-6.23714E-04-8.32139E-16
 -1      1343 2.63861E-03-6.71926E-04-1.13418E-15
 -1      1344 2.77647E-03-6.75178E-04-1.28830E-15
 -1      1345 2.56466E-03-6.34129E-04-1.10095E-15
 -1      1346 2.91477E-03-6.77633E-04-1.45180E-15
 -1      1347 3.05349E-03-6.79420E-04-1.62613E-15
 -1      1348 2.84200E-03-6.40460E-04-1.41002E-15
 -1      1349 3.19263E-03-6.80638E-04-1.81017E-15
 -1      1350 3.33215E-03-6.81385E-04-2.00470E-15
 -1      1351 3.12068E-03-6.43864E-04-1.75868E-15
 -1      1352 3.47203E-03-6.81729E-04-2.20908E-15
 -1      1353 3.61226E-03-6.81747E-04-2.42288E-15
 -1      1354 3.40063E-03-6.45196E-04-2.14827E-15
 -1      1355 3.75281E-03-6.81483E-04-2.64773E-15
 -1      1356 3.89366E-03-6.80996E-04-2.88222E-15
 -1      1357 3.68175E-03-6.45083E-04-2.57819E-15
 -1      1358 4.03479E-03-6.80314E-04-3.12596E-15
 -1      1359 4.17620E-03-6.79482E-04-3.37944E-15
 -1      1360 3.96394E-03-6.43973E-04-3.04813E-15
 -1      1361 4.31785E-03-6.78519E-04-3.64366E-15
 -1      1362 4.45975E-03-6.77458E-04-3.91823E-15
 -1      1363 4.24709E-03-6.42188E-04-3.55712E-15
 -1      1364 4.60188E-03-6.76313E-04-4.20178E-15
 -1      1365 4.74423E-03-6.75111E-04-4.49583E-15
 -1      1366 4.53110E-03-6.39954E-04-4.10578E-15
 -1      1367 4.88680E-03-6.73865E-04-4.79952E-15
 -1      1368 5.02958E-03-6.72599E-04-5.11342E-15
 -1      1369 4.81592E-03-6.37446E-04-4.69352E-15
 -1      1370 5.17257E-03-6.71329E-04-5.43886E-15
 -1      1371 5.31577E-03-6.70081E-04-5.77466E-15
 -1      1372 5.10151E-03-6.34815E-04-5.32307E-15
 -1      1373 5.45918E-03-6.68876E-04-6.12112E-15
 -1      1374 5.60279E-03-6.67745E-04-6.47795E-15
 -1      1375 5.38786E-03-6.32222E-04-5.99379E-15
 -1      1376 5.74661E-03-6.66720E-04-6.84634E-15
 -1      1377 5.89062E-03-6.65835E-04-7.22675E-15
 -1      1378 5.67494E-03-6.29865E-04-6.70824E-15
 -1      1379 6.03482E-03-6.65139E-04-7.61682E-15
 -1      1380 6.17919E-03-6.64671E-04-8.01758E-15
 -1      1381 5.96272E-03-6.28012E-04-7.46605E-15
 -1      1382 6.32370E-03-6.64495E-04-8.43030E-15
 -1      1383 6.46833E-03-6.64650E-04-8.85288E-15
 -1      1384 6.25114E-03-6.27009E-04-8.26940E-15
 -1      1385 6.61303E-03-6.65217E-04-9.28710E-15
 -1      1386 6.75773E-03-6.66224E-04-9.73391E-15
 -1      1387 6.54001E-03-6.27286E-04-9.11706E-15
 -1      1388 6.90237E-03-6.67759E-04-1.01921E-14
 -1      1389 7.04684E-03-6.69826E-04-1.06615E-14
 -1      1390 6.82902E-03-6.29324E-04-1.00099E-14
 -1      1391 7.19103E-03-6.72499E-04-1.11421E-14
 -1      1392 7.33481E-03-6.75736E-04-1.16340E-14
 -1      1393 7.11768E-03-6.33567E-04-1.09474E-14
 -1      1394 7.47802E-03-6.79563E-04-1.21391E-14
 -1      1395 7.62047E-03-6.83858E-04-1.26544E-14
 -1      1396 7.40522E-03-6.40266E-04-1.19313E-14
 -1      1397 7.76198E-03-6.88555E-04-1.31800E-14
 -1      1398 7.90233E-03-6.93420E-04-1.37176E-14
 -1      1399 7.69061E-03-6.49231E-04-1.29603E-14
 -1      1400 8.04131E-03-6.98235E-04-1.42662E-14
 -1      1401 8.17870E-03-7.02624E-04-1.48262E-14
 -1      1402 7.97260E-03-6.59503E-04-1.40315E-14
 -1      1403 8.31431E-03-7.06176E-04-1.53969E-14
 -1      1404 8.44796E-03-7.08356E-04-1.59757E-14
 -1      1405 8.24980E-03-6.68995E-04-1.51475E-14
 -1      1406 8.57951E-03-7.08548E-04-1.65652E-14
 -1      1407 8.70889E-03-7.06087E-04-1.71640E-14
 -1      1408 8.52091E-03-6.74205E-04-1.63040E-14
 -1      1409 8.83608E-03-7.00197E-04-1.77721E-14
 -1      1410 8.96114E-03-6.90159E-04-1.83912E-14
 -1      1411 8.78507E-03-6.70194E-04-1.74995E-14
 -1      1412 9.08422E-03-6.75156E-04-1.90188E-14
 -1      1413 9.20555E-03-6.54536E-04-1.96554E-14
 -1      1414 9.04218E-03-6.50973E-04-1.87304E-14
 -1      1415 9.32546E-03-6.27619E-04-2.03026E-14
 -1      1416 9.44430E-03-5.93955E-04-2.09595E-14
 -1      1417 9.29318E-03-6.10396E-04-2.00016E-14
 -1      1418 9.56254E-03-5.53176E-04-2.16280E-14
 -1      1419 9.68061E-03-5.05144E-04-2.23069E-14
 -1      1420 9.54007E-03-5.43417E-04-2.13138E-14
 -1      1421 9.79903E-03-4.49905E-04-2.29964E-14
 -1      1422 9.91821E-03-3.87668E-04-2.36970E-14
 -1      1423 9.78571E-03-4.47317E-04-2.26693E-14
 -1      1424 1.00386E-02-3.18881E-04-2.44107E-14
 -1      1425 1.01605E-02-2.44045E-04-2.51376E-14
 -1      1426 1.00332E-02-3.22433E-04-2.40707E-14
 -1      1427 1.02843E-02-1.63885E-04-2.58710E-14
 -1      1428 1.04100E-02-7.90740E-05-2.66132E-14
 -1      1429 1.02851E-02-1.72061E-04-2.55161E-14
 -1      1430 1.05379E-02 9.56622E-06-2.73632E-14
 -1      1431 1.06680E-02 1.01327E-04-2.81194E-14
 -1      1432 1.05433E-02-1.58029E-06-2.69961E-14
 -1      1433 1.08001E-02 1.95459E-04-2.88864E-14
 -1      1434 1.09343E-02 2.91330E-04-2.96612E-14
 -1      1435 1.08085E-02 1.82826E-04-2.85090E-14
 -1      1436 1.10703E-02 3.88371E-04-3.04444E-14
 -1      1437 1.12079E-02 4.86092E-04-3.12358E-14
 -1      1438 1.10804E-02 3.75371E-04-3.00551E-14
 -1      1439 1.13469E-02 5.84134E-04-3.20363E-14
 -1      1440 1.14872E-02 6.82165E-04-3.28487E-14
 -1      1441 1.13579E-02 5.71462E-04-3.16377E-14
 -1      1442 1.16285E-02 7.80022E-04-3.36697E-14
 -1      1443 1.17705E-02 8.77512E-04-3.45016E-14
 -1      1444 1.16397E-02 7.68003E-04-3.32571E-14
 -1      1445 1.19132E-02 9.74614E-04-3.53448E-14
 -1      1446 1.20562E-02 1.07125E-03-3.61964E-14
 -1      1447 1.19243E-02 9.63292E-04-3.49172E-14
 -1      1448 1.21996E-02 1.16747E-03-3.70557E-14
 -1      1449 1.23431E-02 1.26329E-03-3.79239E-14
 -1      1450 1.22106E-02 1.15672E-03-3.66157E-14
 -1      1451 1.24867E-02 1.35881E-03-3.87963E-14
 -1      1452 1.26303E-02 1.45407E-03-3.96691E-14
 -1      1453 1.24976E-02 1.34843E-03-3.83439E-14
 -1      1454 1.27737E-02 1.54918E-03-4.05446E-14
 -1      1455 1.29171E-02 1.64421E-03-4.14234E-14
 -1      1456 1.27847E-02 1.53893E-03-4.00873E-14
 -1      1457 1.30604E-02 1.73925E-03-4.23070E-14
 -1      1458 1.32035E-02 1.83436E-03-4.31920E-14
 -1      1459 1.30715E-02 1.72894E-03-4.18413E-14
 -1      1460 1.33466E-02 1.92961E-03-4.40827E-14
 -1      1461 1.34895E-02 2.02502E-03-4.49788E-14
 -1      1462 1.33579E-02 1.91911E-03-4.36113E-14
 -1      1463 1.37063E-02 2.16792E-03-4.62840E-14
 -1      1464 1.37177E-02 2.15720E-03-4.58057E-14
 -1      1465 6.43060E-04 3.71992E-04-3.73101E-17
 -1      1466 4.92938E-04 3.03676E-04-1.70220E-17
 -1      1467 4.44873E-04 2.65882E-04-2.43132E-17
 -1      1468 9.28638E-04 4.71937E-04-1.07051E-16
 -1      1469 7.87779E-04 4.26456E-04-6.75865E-17
 -1      1470 7.44727E-04 3.90687E-04-7.57044E-17
 -1      1471 1.20352E-03 5.41332E-04-2.14550E-16
 -1      1472 1.06686E-03 5.09666E-04-1.56003E-16
 -1      1473 1.03077E-03 4.76106E-04-1.64731E-16
 -1      1474 1.47406E-03 5.90493E-04-3.60673E-16
 -1      1475 1.33901E-03 5.68053E-04-2.82909E-16
 -1      1476 1.30868E-03 5.35900E-04-2.91556E-16
 -1      1477 1.74359E-03 6.25338E-04-5.43727E-16
 -1      1478 1.60878E-03 6.09464E-04-4.47247E-16
 -1      1479 1.58291E-03 5.78145E-04-4.55446E-16
 -1      1480 2.01380E-03 6.49730E-04-7.65027E-16
 -1      1481 1.87852E-03 6.38668E-04-6.49573E-16
 -1      1482 1.85607E-03 6.07813E-04-6.56796E-16
 -1      1483 2.28548E-03 6.66411E-04-1.02273E-15
 -1      1484 2.14942E-03 6.58904E-04-8.89344E-16
 -1      1485 2.12959E-03 6.28284E-04-8.96012E-16
 -1      1486 2.55898E-03 6.77417E-04-1.32223E-15
 -1      1487 2.42199E-03 6.72523E-04-1.16712E-15
 -1      1488 2.40417E-03 6.41998E-04-1.17304E-15
 -1      1489 2.83434E-03 6.84278E-04-1.66127E-15
 -1      1490 2.69643E-03 6.81289E-04-1.48685E-15
 -1      1491 2.68012E-03 6.50775E-04-1.49068E-15
 -1      1492 3.11149E-03 6.88144E-04-2.03970E-15
 -1      1493 2.97270E-03 6.86528E-04-1.84627E-15
 -1      1494 2.95752E-03 6.55975E-04-1.84828E-15
 -1      1495 3.39026E-03 6.89865E-04-2.45241E-15
 -1      1496 3.25068E-03 6.89231E-04-2.24130E-15
 -1      1497 3.23634E-03 6.58613E-04-2.24244E-15
 -1      1498 3.67047E-03 6.90057E-04-2.90498E-15
 -1      1499 3.53020E-03 6.90122E-04-2.67357E-15
 -1      1500 3.51647E-03 6.59429E-04-2.67313E-15
 -1      1501 3.95195E-03 6.89149E-04-3.39567E-15
 -1      1502 3.81107E-03 6.89719E-04-3.14541E-15
 -1      1503 3.79780E-03 6.58948E-04-3.14286E-15
 -1      1504 4.23455E-03 6.87426E-04-3.92424E-15
 -1      1505 4.09312E-03 6.88376E-04-3.65490E-15
 -1      1506 4.08018E-03 6.57527E-04-3.64997E-15
 -1      1507 4.51817E-03 6.85056E-04-4.48934E-15
 -1      1508 4.37624E-03 6.86313E-04-4.20220E-15
 -1      1509 4.36354E-03 6.55390E-04-4.19502E-15
 -1      1510 4.80276E-03 6.82115E-04-5.08606E-15
 -1      1511 4.66035E-03 6.83652E-04-4.78427E-15
 -1      1512 4.64783E-03 6.52655E-04-4.77428E-15
 -1      1513 5.08837E-03 6.78608E-04-5.72075E-15
 -1      1514 4.94544E-03 6.80430E-04-5.39880E-15
 -1      1515 4.93304E-03 6.49355E-04-5.38821E-15
 -1      1516 5.37516E-03 6.74480E-04-6.39210E-15
 -1      1517 5.23161E-03 6.76619E-04-6.05161E-15
 -1      1518 5.21929E-03 6.45454E-04-6.03932E-15
 -1      1519 5.66342E-03 6.69635E-04-7.09713E-15
 -1      1520 5.51909E-03 6.72141E-04-6.74043E-15
 -1      1521 5.50677E-03 6.40862E-04-6.72475E-15
 -1      1522 5.95368E-03 6.63951E-04-7.83694E-15
 -1      1523 5.80827E-03 6.66884E-04-7.46174E-15
 -1      1524 5.79584E-03 6.35449E-04-7.44553E-15
 -1      1525 6.24676E-03 6.57314E-04-8.61529E-15
 -1      1526 6.09981E-03 6.60721E-04-8.22159E-15
 -1      1527 6.08708E-03 6.29060E-04-8.20436E-15
 -1      1528 6.54394E-03 6.49682E-04-9.42927E-15
 -1      1529 6.39475E-03 6.53562E-04-9.01758E-15
 -1      1530 6.38139E-03 6.21559E-04-9.00011E-15
 -1      1531 6.84718E-03 6.41221E-04-1.02828E-14
 -1      1532 6.69467E-03 6.45438E-04-9.85152E-15
 -1      1533 6.68007E-03 6.12912E-04-9.83455E-15
 -1      1534 7.15940E-03 6.32598E-04-1.11759E-14
 -1      1535 7.00196E-03 6.36710E-04-1.07242E-14
 -1      1536 6.98509E-03 6.03376E-04-1.07066E-14
 -1      1537 7.48489E-03 6.25601E-04-1.21086E-14
 -1      1538 7.32018E-03 6.28496E-04-1.16370E-14
 -1      1539 7.29923E-03 5.93902E-04-1.16196E-14
 -1      1540 7.82965E-03 6.24429E-04-1.30845E-14
 -1      1541 7.65441E-03 6.23576E-04-1.25909E-14
 -1      1542 7.62632E-03 5.87007E-04-1.25721E-14
 -1      1543 8.20145E-03 6.38273E-04-1.41027E-14
 -1      1544 8.01155E-03 6.28252E-04-1.35888E-14
 -1      1545 7.97137E-03 5.88572E-04-1.35673E-14
 -1      1546 8.60912E-03 6.86013E-04-1.51557E-14
 -1      1547 8.40013E-03 6.55912E-04-1.46248E-14
 -1      1548 8.34038E-03 6.11289E-04-1.45993E-14
 -1      1549 9.05968E-03 8.02908E-04-1.62395E-14
 -1      1550 8.82871E-03 7.32933E-04-1.56943E-14
 -1      1551 8.73977E-03 6.80472E-04-1.56644E-14
 -1      1552 9.55124E-03 1.04295E-03-1.73478E-14
 -1      1553 9.30148E-03 9.04892E-04-1.67897E-14
 -1      1554 9.17501E-03 8.40725E-04-1.67580E-14
 -1      1555 1.00606E-02 1.45380E-03-1.84835E-14
 -1      1556 9.80684E-03 1.22770E-03-1.79130E-14
 -1      1557 9.64560E-03 1.15006E-03-1.78802E-14
 -1      1558 1.04915E-02 1.94540E-03-1.95262E-14
 -1      1559 1.02833E-02 1.69454E-03-1.90027E-14
 -1      1560 1.01124E-02 1.61077E-03-1.89707E-14
 -1      1561 1.08347E-02 2.36815E-03-2.05331E-14
 -1      1562 1.06707E-02 2.17533E-03-2.00284E-14
 -1      1563 1.05319E-02 2.10510E-03-1.99974E-14
 -1      1564 1.11111E-02 2.54759E-03-2.15044E-14
 -1      1565 1.09745E-02 2.49055E-03-2.10139E-14
 -1      1566 1.08970E-02 2.44546E-03-2.09887E-14
 -1      1567 1.13569E-02 2.47380E-03-2.23776E-14
 -1      1568 1.12300E-02 2.53346E-03-2.19384E-14
 -1      1569 1.12147E-02 2.50367E-03-2.19137E-14
 -1      1570 1.17089E-02 2.19288E-03-2.34649E-14
 -1      1571 1.15252E-02 2.34652E-03-2.29170E-14
 -1      1572 1.15586E-02 2.31575E-03-2.28953E-14
 -1      1573 1.21444E-02 1.87784E-03-2.46614E-14
 -1      1574 1.19217E-02 2.02697E-03-2.40582E-14
 -1      1575 1.19781E-02 1.98585E-03-2.40370E-14
 -1      1576 1.26283E-02 1.67819E-03-2.59592E-14
 -1      1577 1.23868E-02 1.75924E-03-2.53046E-14
 -1      1578 1.24331E-02 1.71034E-03-2.52842E-14
 -1      1579 1.31172E-02 1.63441E-03-2.73609E-14
 -1      1580 1.28772E-02 1.63862E-03-2.66545E-14
 -1      1581 1.28923E-02 1.58721E-03-2.66369E-14
 -1      1582 1.35644E-02 1.70998E-03-2.88115E-14
 -1      1583 1.33464E-02 1.66121E-03-2.80820E-14
 -1      1584 1.33275E-02 1.61036E-03-2.80662E-14
 -1      1585 1.39685E-02 1.85148E-03-3.03050E-14
 -1      1586 1.37715E-02 1.77490E-03-2.95524E-14
 -1      1587 1.37268E-02 1.72579E-03-2.95393E-14
 -1      1588 1.43369E-02 2.02494E-03-3.18545E-14
 -1      1589 1.41566E-02 1.93544E-03-3.10727E-14
 -1      1590 1.40955E-02 1.88833E-03-3.10620E-14
 -1      1591 1.46784E-02 2.21222E-03-3.34545E-14
 -1      1592 1.45105E-02 2.11743E-03-3.26466E-14
 -1      1593 1.44398E-02 2.07217E-03-3.26358E-14
 -1      1594 1.50007E-02 2.40438E-03-3.50877E-14
 -1      1595 1.48415E-02 2.30795E-03-3.42682E-14
 -1      1596 1.47656E-02 2.26426E-03-3.42515E-14
 -1      1597 1.53095E-02 2.59718E-03-3.67649E-14
 -1      1598 1.51565E-02 2.50083E-03-3.59216E-14
 -1      1599 1.50779E-02 2.45838E-03-3.59073E-14
 -1      1600 1.56092E-02 2.78859E-03-3.84716E-14
 -1      1601 1.54603E-02 2.69313E-03-3.76143E-14
 -1      1602 1.53807E-02 2.65164E-03-3.75953E-14
 -1      1603 1.59026E-02 2.97752E-03-4.02107E-14
 -1      1604 1.57565E-02 2.88340E-03-3.93375E-14
 -1      1605 1.56767E-02 2.84266E-03-3.93147E-14
 -1      1606 1.61919E-02 3.16335E-03-4.19753E-14
 -1      1607 1.60476E-02 3.07084E-03-4.10913E-14
 -1      1608 1.59681E-02 3.03067E-03-4.10628E-14
 -1      1609 1.64787E-02 3.34586E-03-4.37619E-14
 -1      1610 1.63355E-02 3.25500E-03-4.28637E-14
 -1      1611 1.62565E-02 3.21527E-03-4.28307E-14
 -1      1612 1.66119E-02 3.43348E-03-4.47653E-14
 -1      1613 1.64116E-02 3.34076E-03-4.50240E-14
 -1      1614 1.64989E-02 3.38247E-03-4.49712E-14
 -1      1615 1.62389E-02 3.25868E-03-4.51188E-14
 -1      1616 1.63250E-02 3.29946E-03-4.50703E-14
 -1      1617 1.62446E-02 3.24233E-03-4.42764E-14
 -1      1618 1.60677E-02 3.17891E-03-4.52217E-14
 -1      1619 1.61532E-02 3.21848E-03-4.51686E-14
 -1      1620 1.60728E-02 3.16102E-03-4.43825E-14
 -1      1621 1.58960E-02 3.10151E-03-4.53361E-14
 -1      1622 1.59821E-02 3.13993E-03-4.52789E-14
 -1      1623 1.59021E-02 3.08186E-03-4.44907E-14
 -1      1624 1.57250E-02 3.02728E-03-4.54496E-14
 -1      1625 1.58109E-02 3.06421E-03-4.53939E-14
 -1      1626 1.57317E-02 3.00532E-03-4.46014E-14
 -1      1627 1.55475E-02 2.95281E-03-4.55394E-14
 -1      1628 1.56367E-02 2.98997E-03-4.54975E-14
 -1      1629 1.55585E-02 2.93014E-03-4.47037E-14
 -1      1630 1.53661E-02 2.87840E-03-4.56252E-14
 -1      1631 1.54572E-02 2.91565E-03-4.55832E-14
 -1      1632 1.53801E-02 2.85492E-03-4.47948E-14
 -1      1633 1.51811E-02 2.80321E-03-4.57112E-14
 -1      1634 1.52740E-02 2.84095E-03-4.56699E-14
 -1      1635 1.51976E-02 2.77945E-03-4.48851E-14
 -1      1636 1.49934E-02 2.72663E-03-4.57880E-14
 -1      1637 1.50875E-02 2.76512E-03-4.57510E-14
 -1      1638 1.50117E-02 2.70308E-03-4.49711E-14
 -1      1639 1.48039E-02 2.64837E-03-4.58810E-14
 -1      1640 1.48988E-02 2.68771E-03-4.58318E-14
 -1      1641 1.48232E-02 2.62536E-03-4.50559E-14
 -1      1642 1.46167E-02 2.56979E-03-4.59809E-14
 -1      1643 1.47104E-02 2.60928E-03-4.59320E-14
 -1      1644 1.46348E-02 2.54681E-03-4.51466E-14
 -1      1645 1.44263E-02 2.48840E-03-4.60751E-14
 -1      1646 1.45215E-02 2.52926E-03-4.60300E-14
 -1      1647 1.44458E-02 2.46684E-03-4.52385E-14
 -1      1648 1.42362E-02 2.40582E-03-4.61608E-14
 -1      1649 1.43312E-02 2.44723E-03-4.61203E-14
 -1      1650 1.42552E-02 2.38495E-03-4.53250E-14
 -1      1651 1.40467E-02 2.32239E-03-4.62425E-14
 -1      1652 1.41413E-02 2.36419E-03-4.62025E-14
 -1      1653 1.40651E-02 2.30210E-03-4.54047E-14
 -1      1654 1.38349E-02 2.21883E-03-4.60438E-14
 -1      1655 1.39293E-02 2.26084E-03-4.60083E-14
 -1      1656 1.38528E-02 2.19898E-03-4.52106E-14
 -1      1657 1.36181E-02 2.07598E-03-4.47411E-14
 -1      1658 1.32717E-02 1.21335E-03-2.49097E-14
 -1      1659 1.32605E-02 1.16421E-03-2.49576E-14
 -1      1660 1.31787E-02 1.33968E-03-2.46817E-14
 -1      1661 1.32423E-02 1.27742E-03-2.48074E-14
 -1      1662 1.29333E-02 1.51635E-03-2.42714E-14
 -1      1663 1.30651E-02 1.42927E-03-2.44718E-14
 -1      1664 1.25731E-02 1.73984E-03-2.37661E-14
 -1      1665 1.27505E-02 1.63030E-03-2.40115E-14
 -1      1666 1.21452E-02 1.99500E-03-2.31983E-14
 -1      1667 1.23488E-02 1.87469E-03-2.34642E-14
 -1      1668 1.16689E-02 2.23686E-03-2.25654E-14
 -1      1669 1.18892E-02 2.13034E-03-2.28668E-14
 -1      1670 1.12079E-02 2.37262E-03-2.19017E-14
 -1      1671 1.14196E-02 2.32810E-03-2.22054E-14
 -1      1672 1.07153E-02 2.33517E-03-2.11973E-14
 -1      1673 1.09485E-02 2.37947E-03-2.15272E-14
 -1      1674 1.01808E-02 2.08457E-03-2.04711E-14
 -1      1675 1.04355E-02 2.22638E-03-2.07983E-14
 -1      1676 9.63141E-03 1.74138E-03-1.98878E-14
 -1      1677 9.86673E-03 1.90161E-03-2.01452E-14
 -1      1678 9.12737E-03 1.39756E-03-1.93865E-14
 -1      1679 9.35731E-03 1.55455E-03-1.96064E-14
 -1      1680 8.69217E-03 1.09213E-03-1.89563E-14
 -1      1681 8.88799E-03 1.21794E-03-1.91297E-14
 -1      1682 8.35297E-03 8.61987E-04-1.86317E-14
 -1      1683 8.49438E-03 9.51375E-04-1.87523E-14
 -1      1684 8.17534E-03 7.33567E-04-1.85374E-14
 -1      1685 8.23343E-03 7.93683E-04-1.85875E-14
 -1      1686 8.16004E-03 6.15337E-04-1.84996E-14
 -1      1687 8.14621E-03 6.65593E-04-1.84859E-14
 -1      1688 8.30176E-03 5.00706E-04-1.86700E-14
 -1      1689 8.21890E-03 5.53099E-04-1.85867E-14
 -1      1690 8.55847E-03 3.78122E-04-1.89379E-14
 -1      1691 8.42813E-03 4.36407E-04-1.87996E-14
 -1      1692 8.89285E-03 2.41402E-04-1.93212E-14
 -1      1693 8.73037E-03 3.06242E-04-1.91301E-14
 -1      1694 9.27129E-03 1.02835E-04-1.98112E-14
 -1      1695 9.09262E-03 1.66172E-04-1.95724E-14
 -1      1696 9.66220E-03-1.10056E-05-2.03820E-14
 -1      1697 9.48156E-03 3.72079E-05-2.01104E-14
 -1      1698 1.00857E-02-7.75239E-05-2.10588E-14
 -1      1699 9.88743E-03-5.48298E-05-2.07308E-14
 -1      1700 1.05017E-02-5.99727E-05-2.17654E-14
 -1      1701 1.03123E-02-7.76329E-05-2.14430E-14
 -1      1702 1.09029E-02 3.55791E-05-2.24774E-14
 -1      1703 1.07152E-02-2.23925E-05-2.21585E-14
 -1      1704 1.13494E-02 2.04548E-04-2.31072E-14
 -1      1705 1.11526E-02 1.22011E-04-2.28184E-14
 -1      1706 1.17908E-02 4.20327E-04-2.37414E-14
 -1      1707 1.15783E-02 3.17721E-04-2.34644E-14
 -1      1708 1.22552E-02 6.60861E-04-2.43161E-14
 -1      1709 1.20374E-02 5.54797E-04-2.40800E-14
 -1      1710 1.26987E-02 8.36542E-04-2.46386E-14
 -1      1711 1.25148E-02 7.50702E-04-2.44853E-14
 -1      1712 1.30112E-02 9.86870E-04-2.48616E-14
 -1      1713 1.28812E-02 9.23799E-04-2.47777E-14
 -1      1714 1.32075E-02 1.10424E-03-2.49520E-14
 -1      1715 1.31319E-02 1.05314E-03-2.49268E-14
 -1      1716 1.23975E-02 1.76069E-03-2.37707E-14
 -1      1717 1.28027E-02 1.51642E-03-2.43376E-14
 -1      1718 1.65333E-02 3.39399E-03-4.47236E-14
 -1      1719 1.63654E-02 3.29493E-03-4.39753E-14
 -1      1720 1.32648E-02 1.23391E-03-2.51317E-14
 -1      1721 1.31102E-02 1.34052E-03-2.48119E-14
 -1      1722 1.32449E-02 1.16102E-03-2.52356E-14
 -1      1723 1.19448E-02 2.04621E-03-2.31336E-14
 -1      1724 1.15009E-02 2.29832E-03-2.24389E-14
 -1      1725 1.10724E-02 2.41341E-03-2.17054E-14
 -1      1726 1.06287E-02 2.30685E-03-2.09362E-14
 -1      1727 1.01338E-02 1.98369E-03-2.02174E-14
 -1      1728 9.59044E-03 1.59113E-03-1.96148E-14
 -1      1729 9.08387E-03 1.22307E-03-1.90807E-14
 -1      1730 8.63510E-03 9.29385E-04-1.86233E-14
 -1      1731 8.30469E-03 7.69326E-04-1.83813E-14
 -1      1732 8.15090E-03 6.73571E-04-1.82903E-14
 -1      1733 8.18153E-03 5.99940E-04-1.83298E-14
 -1      1734 8.37458E-03 5.08729E-04-1.85475E-14
 -1      1735 8.67765E-03 3.88700E-04-1.88673E-14
 -1      1736 9.04302E-03 2.39757E-04-1.93073E-14
 -1      1737 9.42907E-03 8.41629E-05-1.98521E-14
 -1      1738 9.81880E-03-4.44275E-05-2.04955E-14
 -1      1739 1.02010E-02-1.04158E-04-2.12241E-14
 -1      1740 1.05784E-02-6.67835E-05-2.20012E-14
 -1      1741 1.09520E-02 7.22533E-05-2.27383E-14
 -1      1742 1.13840E-02 2.86562E-04-2.34386E-14
 -1      1743 1.18315E-02 5.48534E-04-2.41393E-14
 -1      1744 1.23185E-02 7.82868E-04-2.46529E-14
 -1      1745 1.27581E-02 9.53378E-04-2.49641E-14
 -1      1746 1.30678E-02 1.07649E-03-2.51691E-14
 -1      1747 2.85234E-04-1.76223E-04 2.56143E-18
 -1      1748 3.32196E-04-1.16761E-04-3.04796E-17
 -1      1749 3.36332E-04-1.33006E-04-2.59395E-17
 -1      1750 3.42209E-04-1.51996E-04-2.08709E-17
 -1      1751 3.51760E-04-1.73998E-04-1.45012E-17
 -1      1752 4.58336E-04-1.88056E-04-3.75541E-17
 -1      1753 3.24572E-04-6.53688E-05-4.17960E-17
 -1      1754 3.25709E-04-7.66660E-05-3.96818E-17
 -1      1755 3.23081E-04-4.38796E-05-4.52383E-17
 -1      1756 3.23733E-04-5.43676E-05-4.35849E-17
 -1      1757 4.36519E-04-7.92687E-05-6.38460E-17
 -1      1758 3.22298E-04-2.37662E-05-4.77998E-17
 -1      1759 3.22629E-04-3.36774E-05-4.65665E-17
 -1      1760 4.34523E-04-5.13042E-05-6.82370E-17
 -1      1761 3.22006E-04-4.33659E-06-4.95345E-17
 -1      1762 3.22102E-04-1.39865E-05-4.87213E-17
 -1      1763 4.33505E-04-2.49177E-05-7.15031E-17
 -1      1764 3.22127E-04 1.49766E-05-5.05238E-17
 -1      1765 3.22014E-04 5.31652E-06-5.00901E-17
 -1      1766 4.33209E-04 7.56285E-07-7.37664E-17
 -1      1767 3.22691E-04 3.47212E-05-5.08084E-17
 -1      1768 3.22341E-04 2.47774E-05-5.07813E-17
 -1      1769 4.33563E-04 2.64595E-05-7.48642E-17
 -1      1770 3.23818E-04 5.51549E-05-5.01444E-17
 -1      1771 3.23156E-04 4.47940E-05-5.05916E-17
 -1      1772 4.34637E-04 5.27087E-05-7.49319E-17
 -1      1773 3.25871E-04 7.78036E-05-4.87891E-17
 -1      1774 3.24675E-04 6.62237E-05-4.95751E-17
 -1      1775 4.36688E-04 8.05832E-05-7.38342E-17
 -1      1776 3.29554E-04 1.03640E-04-4.64310E-17
 -1      1777 3.27409E-04 9.02906E-05-4.78811E-17
 -1      1778 4.40331E-04 1.11549E-04-7.18962E-17
 -1      1779 3.36581E-04 1.35098E-04-4.14978E-17
 -1      1780 3.32403E-04 1.18600E-04-4.42897E-17
 -1      1781 4.46793E-04 1.47317E-04-6.75593E-17
 -1      1782 3.52298E-04 1.77590E-04-3.31630E-17
 -1      1783 3.42808E-04 1.54745E-04-3.79200E-17
 -1      1784 4.59317E-04 1.91436E-04-6.01597E-17
 -1      1785 4.07691E-04 2.33670E-04-2.79318E-17
 -1      1786 3.78084E-04 2.02648E-04-3.16045E-17
 -1      1787 4.95851E-04 2.43973E-04-5.37087E-17
 -1      1788 5.58536E-04 3.02479E-04-4.88569E-17
 -1      1789 3.40017E-04-1.90897E-04-4.91957E-18
 -1      1790 8.53554E-04 4.07069E-04-1.19574E-16
 -1      1791 7.07151E-04 3.59341E-04-7.95669E-17
 -1      1792 6.73391E-04 3.28775E-04-8.26162E-17
 -1      1793 4.58950E-04-2.36698E-04-1.74014E-17
 -1      1794 8.07222E-04-3.74067E-04-6.49844E-17
 -1      1795 9.52489E-04-4.15237E-04-9.93807E-17
 -1      1796 1.09533E-03-4.49907E-04-1.42030E-16
 -1      1797 1.23700E-03-4.78781E-04-1.93503E-16
 -1      1798 1.00392E-03-3.97845E-04-1.36230E-16
 -1      1799 1.37741E-03-5.03241E-04-2.53324E-16
 -1      1800 1.51710E-03-5.23584E-04-3.21981E-16
 -1      1801 1.28962E-03-4.55765E-04-2.42888E-16
 -1      1802 1.65627E-03-5.40730E-04-3.99881E-16
 -1      1803 1.79512E-03-5.54916E-04-4.86969E-16
 -1      1804 1.57203E-03-4.96654E-04-3.84228E-16
 -1      1805 1.93385E-03-5.66750E-04-5.83287E-16
 -1      1806 2.07252E-03-5.76435E-04-6.89038E-16
 -1      1807 1.85267E-03-5.25121E-04-5.61874E-16
 -1      1808 2.21128E-03-5.84387E-04-8.05156E-16
 -1      1809 2.35014E-03-5.90776E-04-9.30950E-16
 -1      1810 2.13259E-03-5.44498E-04-7.77021E-16
 -1      1811 2.48921E-03-5.95899E-04-1.06631E-15
 -1      1812 2.62845E-03-5.99894E-04-1.21187E-15
 -1      1813 2.41249E-03-5.57234E-04-1.03075E-15
 -1      1814 2.76795E-03-6.02972E-04-1.36689E-15
 -1      1815 2.90766E-03-6.05245E-04-1.53202E-15
 -1      1816 2.69277E-03-5.65151E-04-1.32309E-15
 -1      1817 3.04765E-03-6.06863E-04-1.70770E-15
 -1      1818 3.18786E-03-6.07914E-04-1.89250E-15
 -1      1819 2.97365E-03-5.69613E-04-1.65544E-15
 -1      1820 3.32833E-03-6.08504E-04-2.08744E-15
 -1      1821 3.46903E-03-6.08700E-04-2.29322E-15
 -1      1822 3.25521E-03-5.71629E-04-2.02738E-15
 -1      1823 3.60997E-03-6.08576E-04-2.50913E-15
 -1      1824 3.75112E-03-6.08182E-04-2.73445E-15
 -1      1825 3.53749E-03-5.71939E-04-2.43929E-15
 -1      1826 3.89249E-03-6.07567E-04-2.96914E-15
 -1      1827 4.03405E-03-6.06771E-04-3.21400E-15
 -1      1828 3.82046E-03-5.71074E-04-2.89043E-15
 -1      1829 4.17582E-03-6.05825E-04-3.46951E-15
 -1      1830 4.31777E-03-6.04758E-04-3.73504E-15
 -1      1831 4.10409E-03-5.69409E-04-3.38172E-15
 -1      1832 4.45991E-03-6.03593E-04-4.00943E-15
 -1      1833 4.60222E-03-6.02352E-04-4.29367E-15
 -1      1834 4.38834E-03-5.67210E-04-3.91305E-15
 -1      1835 4.74470E-03-6.01052E-04-4.58860E-15
 -1      1836 4.88735E-03-5.99713E-04-4.89227E-15
 -1      1837 4.67317E-03-5.64664E-04-4.48304E-15
 -1      1838 5.03017E-03-5.98352E-04-5.20685E-15
 -1      1839 5.17315E-03-5.96988E-04-5.53182E-15
 -1      1840 4.95857E-03-5.61922E-04-5.09149E-15
 -1      1841 5.31630E-03-5.95644E-04-5.86717E-15
 -1      1842 5.45961E-03-5.94342E-04-6.21324E-15
 -1      1843 5.24453E-03-5.59127E-04-5.74088E-15
 -1      1844 5.60308E-03-5.93115E-04-6.57056E-15
 -1      1845 5.74671E-03-5.91987E-04-6.93843E-15
 -1      1846 5.53106E-03-5.56448E-04-6.43344E-15
 -1      1847 5.89051E-03-5.91008E-04-7.31747E-15
 -1      1848 6.03445E-03-5.90209E-04-7.70701E-15
 -1      1849 5.81818E-03-5.54109E-04-7.16860E-15
 -1      1850 6.17854E-03-5.89655E-04-8.10841E-15
 -1      1851 6.32275E-03-5.89382E-04-8.52203E-15
 -1      1852 6.10588E-03-5.52413E-04-7.94910E-15
 -1      1853 6.46708E-03-5.89473E-04-8.94541E-15
 -1      1854 6.61148E-03-5.89965E-04-9.38069E-15
 -1      1855 6.39415E-03-5.51759E-04-8.77403E-15
 -1      1856 6.75594E-03-5.90950E-04-9.82706E-15
 -1      1857 6.90037E-03-5.92459E-04-1.02845E-14
 -1      1858 6.68290E-03-5.52628E-04-9.64474E-15
 -1      1859 7.04478E-03-5.94577E-04-1.07539E-14
 -1      1860 7.18901E-03-5.97312E-04-1.12336E-14
 -1      1861 6.97197E-03-5.55540E-04-1.05603E-14
 -1      1862 7.33309E-03-6.00710E-04-1.17248E-14
 -1      1863 7.47677E-03-6.04735E-04-1.22271E-14
 -1      1864 7.26105E-03-5.60936E-04-1.15197E-14
 -1      1865 7.62010E-03-6.09350E-04-1.27414E-14
 -1      1866 7.76277E-03-6.14438E-04-1.32648E-14
 -1      1867 7.54966E-03-5.68990E-04-1.25226E-14
 -1      1868 7.90484E-03-6.19823E-04-1.37993E-14
 -1      1869 8.04595E-03-6.25269E-04-1.43448E-14
 -1      1870 7.83706E-03-5.79308E-04-1.35688E-14
 -1      1871 8.18615E-03-6.30407E-04-1.49004E-14
 -1      1872 8.32510E-03-6.34845E-04-1.54669E-14
 -1      1873 8.12232E-03-5.90550E-04-1.46564E-14
 -1      1874 8.46283E-03-6.37988E-04-1.60444E-14
 -1      1875 8.59911E-03-6.39281E-04-1.66297E-14
 -1      1876 8.40430E-03-6.00039E-04-1.57856E-14
 -1      1877 8.73392E-03-6.37921E-04-1.72252E-14
 -1      1878 8.86722E-03-6.33224E-04-1.78299E-14
 -1      1879 8.68189E-03-6.03501E-04-1.69536E-14
 -1      1880 8.99898E-03-6.24275E-04-1.84450E-14
 -1      1881 9.12940E-03-6.10359E-04-1.90684E-14
 -1      1882 8.95433E-03-5.95157E-04-1.81601E-14
 -1      1883 9.25844E-03-5.90617E-04-1.97019E-14
 -1      1884 9.38659E-03-5.64451E-04-2.03461E-14
 -1      1885 9.22153E-03-5.68348E-04-1.94045E-14
 -1      1886 9.51378E-03-5.31256E-04-2.09996E-14
 -1      1887 9.64071E-03-4.90711E-04-2.16654E-14
 -1      1888 9.48446E-03-5.16753E-04-2.06890E-14
 -1      1889 9.76732E-03-4.42628E-04-2.23436E-14
 -1      1890 9.89438E-03-3.87046E-04-2.30308E-14
 -1      1891 9.74507E-03-4.35893E-04-2.20164E-14
 -1      1892 1.00218E-02-3.24251E-04-2.37293E-14
 -1      1893 1.01503E-02-2.54635E-04-2.44405E-14
 -1      1894 1.00059E-02-3.24385E-04-2.33906E-14
 -1      1895 1.02798E-02-1.78873E-04-2.51600E-14
 -1      1896 1.04107E-02-9.75979E-05-2.58917E-14
 -1      1897 1.02695E-02-1.84342E-04-2.48070E-14
 -1      1898 1.05429E-02-1.16965E-05-2.66302E-14
 -1      1899 1.06767E-02 7.81151E-05-2.73766E-14
 -1      1900 1.05376E-02-2.07522E-05-2.62650E-14
 -1      1901 1.08119E-02 1.70938E-04-2.81321E-14
 -1      1902 1.09486E-02 2.66112E-04-2.88961E-14
 -1      1903 1.08109E-02 1.59886E-04-2.77570E-14
 -1      1904 1.10866E-02 3.62883E-04-2.96681E-14
 -1      1905 1.12257E-02 4.60732E-04-3.04476E-14
 -1      1906 1.10891E-02 3.51048E-04-2.92811E-14
 -1      1907 1.13660E-02 5.59125E-04-3.12362E-14
 -1      1908 1.15071E-02 6.57714E-04-3.20354E-14
 -1      1909 1.13713E-02 5.47286E-04-3.08399E-14
 -1      1910 1.16491E-02 7.56190E-04-3.28464E-14
 -1      1911 1.17915E-02 8.54357E-04-3.36658E-14
 -1      1912 1.16565E-02 7.44744E-04-3.24358E-14
 -1      1913 1.19345E-02 9.52096E-04-3.44940E-14
 -1      1914 1.20777E-02 1.04933E-03-3.53316E-14
 -1      1915 1.19434E-02 9.41163E-04-3.40732E-14
 -1      1916 1.22212E-02 1.14606E-03-3.61810E-14
 -1      1917 1.23648E-02 1.24229E-03-3.70353E-14
 -1      1918 1.22312E-02 1.13558E-03-3.57459E-14
 -1      1919 1.25085E-02 1.33811E-03-3.78939E-14
 -1      1920 1.26522E-02 1.43355E-03-3.87603E-14
 -1      1921 1.25192E-02 1.32792E-03-3.74518E-14
 -1      1922 1.27958E-02 1.52875E-03-3.96304E-14
 -1      1923 1.29394E-02 1.62375E-03-4.05010E-14
 -1      1924 1.28069E-02 1.51867E-03-3.91748E-14
 -1      1925 1.30828E-02 1.71869E-03-4.13801E-14
 -1      1926 1.32261E-02 1.81362E-03-4.22603E-14
 -1      1927 1.30941E-02 1.70853E-03-4.09194E-14
 -1      1928 1.33506E-02 1.89709E-03-4.30506E-14
 -1      1929 1.34937E-02 1.99224E-03-4.39391E-14
 -1      1930 1.36111E-02 2.05375E-03-4.41728E-14
 -1      1931 1.33622E-02 1.88671E-03-4.25837E-14
 -1      1932 1.13860E-03 4.80001E-04-2.26883E-16
 -1      1933 9.96835E-04 4.46767E-04-1.68512E-16
 -1      1934 9.64459E-04 4.17315E-04-1.71209E-16
 -1      1935 1.41772E-03 5.31440E-04-3.71610E-16
 -1      1936 1.27856E-03 5.08014E-04-2.94456E-16
 -1      1937 1.24894E-03 4.79880E-04-2.96462E-16
 -1      1938 1.69410E-03 5.67675E-04-5.52970E-16
 -1      1939 1.55607E-03 5.51213E-04-4.57723E-16
 -1      1940 1.52921E-03 5.24045E-04-4.58685E-16
 -1      1941 1.96968E-03 5.92882E-04-7.71925E-16
 -1      1942 1.83190E-03 5.81487E-04-6.57636E-16
 -1      1943 1.80746E-03 5.54958E-04-6.57704E-16
 -1      1944 2.24553E-03 6.10010E-04-1.02837E-15
 -1      1945 2.10753E-03 6.02331E-04-8.95578E-16
 -1      1946 2.08509E-03 5.76208E-04-8.94155E-16
 -1      1947 2.52222E-03 6.21227E-04-1.32461E-15
 -1      1948 2.38375E-03 6.16264E-04-1.17160E-15
 -1      1949 2.36293E-03 5.90389E-04-1.16872E-15
 -1      1950 2.80001E-03 6.28153E-04-1.65948E-15
 -1      1951 2.66097E-03 6.25157E-04-1.48682E-15
 -1      1952 2.64143E-03 5.99424E-04-1.48215E-15
 -1      1953 3.07898E-03 6.31993E-04-2.03357E-15
 -1      1954 2.93935E-03 6.30407E-04-1.84173E-15
 -1      1955 2.92081E-03 6.04747E-04-1.83462E-15
 -1      1956 3.35910E-03 6.33638E-04-2.44408E-15
 -1      1957 3.21890E-03 6.33053E-04-2.23461E-15
 -1      1958 3.20114E-03 6.07419E-04-2.22485E-15
 -1      1959 3.64032E-03 6.33727E-04-2.89227E-15
 -1      1960 3.49959E-03 6.33851E-04-2.66323E-15
 -1      1961 3.48241E-03 6.08217E-04-2.65257E-15
 -1      1962 3.92253E-03 6.32707E-04-3.37859E-15
 -1      1963 3.78131E-03 6.33338E-04-3.13032E-15
 -1      1964 3.76457E-03 6.07688E-04-3.11716E-15
 -1      1965 4.20567E-03 6.30870E-04-3.90195E-15
 -1      1966 4.06399E-03 6.31880E-04-3.63524E-15
 -1      1967 4.04758E-03 6.06206E-04-3.61954E-15
 -1      1968 4.48966E-03 6.28386E-04-4.46141E-15
 -1      1969 4.34756E-03 6.29703E-04-4.17778E-15
 -1      1970 4.33138E-03 6.04001E-04-4.15900E-15
 -1      1971 4.77451E-03 6.25328E-04-5.05611E-15
 -1      1972 4.63198E-03 6.26926E-04-4.75469E-15
 -1      1973 4.61594E-03 6.01196E-04-4.73402E-15
 -1      1974 5.06026E-03 6.21691E-04-5.68684E-15
 -1      1975 4.91727E-03 6.23581E-04-5.36711E-15
 -1      1976 4.90129E-03 5.97824E-04-5.34463E-15
 -1      1977 5.34704E-03 6.17408E-04-6.35227E-15
 -1      1978 5.20351E-03 6.19631E-04-6.01513E-15
 -1      1979 5.18750E-03 5.93844E-04-5.99045E-15
 -1      1980 5.63509E-03 6.12358E-04-7.05439E-15
 -1      1981 5.49089E-03 6.14978E-04-6.69910E-15
 -1      1982 5.47472E-03 5.89160E-04-6.67223E-15
 -1      1983 5.92480E-03 6.06384E-04-7.79209E-15
 -1      1984 5.77970E-03 6.09482E-04-7.41794E-15
 -1      1985 5.76321E-03 5.83624E-04-7.38983E-15
 -1      1986 6.21676E-03 5.99317E-04-8.56814E-15
 -1      1987 6.07044E-03 6.02974E-04-8.17540E-15
 -1      1988 6.05334E-03 5.77063E-04-8.14577E-15
 -1      1989 6.51186E-03 5.91030E-04-9.38214E-15
 -1      1990 6.36384E-03 5.95297E-04-8.97050E-15
 -1      1991 6.34568E-03 5.69307E-04-8.93914E-15
 -1      1992 6.81137E-03 5.81555E-04-1.02344E-14
 -1      1993 6.66094E-03 5.86380E-04-9.80333E-15
 -1      1994 6.64099E-03 5.60268E-04-9.77194E-15
 -1      1995 7.11706E-03 5.71347E-04-1.11261E-14
 -1      1996 6.96324E-03 5.76422E-04-1.06745E-14
 -1      1997 6.94033E-03 5.50108E-04-1.06418E-14
 -1      1998 7.43135E-03 5.61841E-04-1.20568E-14
 -1      1999 7.27283E-03 5.66272E-04-1.15865E-14
 -1      2000 7.24507E-03 5.39600E-04-1.15520E-14
 -1      2001 7.75737E-03 5.56620E-04-1.30283E-14
 -1      2002 7.59245E-03 5.58246E-04-1.25379E-14
 -1      2003 7.55691E-03 5.30886E-04-1.25017E-14
 -1      2004 8.09899E-03 5.63742E-04-1.40395E-14
 -1      2005 7.92565E-03 5.57791E-04-1.35288E-14
 -1      2006 7.87796E-03 5.28998E-04-1.34908E-14
 -1      2007 8.46092E-03 5.99938E-04-1.50855E-14
 -1      2008 8.27676E-03 5.76628E-04-1.45584E-14
 -1      2009 8.21096E-03 5.44704E-04-1.45167E-14
 -1      2010 8.84947E-03 6.97013E-04-1.61634E-14
 -1      2011 8.65140E-03 6.38092E-04-1.56210E-14
 -1      2012 8.56061E-03 5.99304E-04-1.55766E-14
 -1      2013 9.27409E-03 9.07268E-04-1.72682E-14
 -1      2014 9.05770E-03 7.84022E-04-1.67112E-14
 -1      2015 8.93689E-03 7.31473E-04-1.66655E-14
 -1      2016 9.74486E-03 1.28848E-03-1.84027E-14
 -1      2017 9.50713E-03 1.07470E-03-1.78320E-14
 -1      2018 9.35959E-03 1.00080E-03-1.77839E-14
 -1      2019 1.05406E-02 2.16801E-03-2.02736E-14
 -1      2020 1.03243E-02 1.93401E-03-1.97668E-14
 -1      2021 1.12949E-02 2.45296E-03-2.21603E-14
 -1      2022 1.11238E-02 2.49149E-03-2.17210E-14
 -1      2023 1.16999E-02 2.18708E-03-2.32000E-14
 -1      2024 1.14843E-02 2.34264E-03-2.26538E-14
 -1      2025 1.21512E-02 1.84416E-03-2.43717E-14
 -1      2026 1.19250E-02 2.01090E-03-2.37723E-14
 -1      2027 1.26205E-02 1.59515E-03-2.56571E-14
 -1      2028 1.24005E-02 1.69334E-03-2.50058E-14
 -1      2029 1.30517E-02 1.52625E-03-2.70579E-14
 -1      2030 1.28437E-02 1.54137E-03-2.63525E-14
 -1      2031 1.28147E-02 1.49849E-03-2.60654E-14
 -1      2032 1.34420E-02 1.58831E-03-2.85037E-14
 -1      2033 1.32515E-02 1.54504E-03-2.77761E-14
 -1      2034 1.31987E-02 1.48498E-03-2.74845E-14
 -1      2035 1.38041E-02 1.72417E-03-2.99951E-14
 -1      2036 1.36259E-02 1.64968E-03-2.92441E-14
 -1      2037 1.35458E-02 1.57876E-03-2.89462E-14
 -1      2038 1.41458E-02 1.89652E-03-3.15327E-14
 -1      2039 1.39769E-02 1.80725E-03-3.07556E-14
 -1      2040 1.38744E-02 1.73005E-03-3.04510E-14
 -1      2041 1.44719E-02 2.08486E-03-3.31191E-14
 -1      2042 1.43103E-02 1.98946E-03-3.23230E-14
 -1      2043 1.41922E-02 1.90922E-03-3.20056E-14
 -1      2044 1.47859E-02 2.27890E-03-3.47473E-14
 -1      2045 1.46300E-02 2.18156E-03-3.39294E-14
 -1      2046 1.45021E-02 2.10029E-03-3.36049E-14
 -1      2047 1.50910E-02 2.47373E-03-3.64122E-14
 -1      2048 1.49393E-02 2.37641E-03-3.55753E-14
 -1      2049 1.48057E-02 2.29520E-03-3.52447E-14
 -1      2050 1.53894E-02 2.66706E-03-3.81087E-14
 -1      2051 1.52408E-02 2.57069E-03-3.72561E-14
 -1      2052 1.51041E-02 2.49006E-03-3.69173E-14
 -1      2053 1.56829E-02 2.85779E-03-3.98290E-14
 -1      2054 1.55366E-02 2.76282E-03-3.89650E-14
 -1      2055 1.53984E-02 2.68304E-03-3.86165E-14
 -1      2056 1.59730E-02 3.04525E-03-4.15793E-14
 -1      2057 1.58283E-02 2.95197E-03-4.07026E-14
 -1      2058 1.56896E-02 2.87321E-03-4.03450E-14
 -1      2059 1.62414E-02 3.21661E-03-4.32144E-14
 -1      2060 1.60977E-02 3.12500E-03-4.23271E-14
 -1      2061 1.59590E-02 3.04718E-03-4.19617E-14
 -1      2062 1.62075E-02 3.20554E-03-4.34621E-14
 -1      2063 1.57366E-02 2.98397E-03-4.37620E-14
 -1      2064 1.58219E-02 3.02303E-03-4.37073E-14
 -1      2065 1.59070E-02 3.06258E-03-4.36479E-14
 -1      2066 1.59922E-02 3.10263E-03-4.35932E-14
 -1      2067 1.57414E-02 2.96355E-03-4.29199E-14
 -1      2068 1.61209E-02 3.16419E-03-4.35204E-14
 -1      2069 1.55674E-02 2.90835E-03-4.38668E-14
 -1      2070 1.56523E-02 2.94601E-03-4.38133E-14
 -1      2071 1.55728E-02 2.88624E-03-4.30312E-14
 -1      2072 1.53920E-02 2.83243E-03-4.39655E-14
 -1      2073 1.54802E-02 2.87034E-03-4.39191E-14
 -1      2074 1.54017E-02 2.81038E-03-4.31333E-14
 -1      2075 1.52125E-02 2.75672E-03-4.40563E-14
 -1      2076 1.53028E-02 2.79462E-03-4.40113E-14
 -1      2077 1.52254E-02 2.73452E-03-4.32294E-14
 -1      2078 1.50289E-02 2.68046E-03-4.41486E-14
 -1      2079 1.51212E-02 2.71871E-03-4.41007E-14
 -1      2080 1.50447E-02 2.65847E-03-4.33200E-14
 -1      2081 1.48420E-02 2.60311E-03-4.42361E-14
 -1      2082 1.49358E-02 2.64195E-03-4.41927E-14
 -1      2083 1.48599E-02 2.58154E-03-4.34113E-14
 -1      2084 1.46528E-02 2.52439E-03-4.43230E-14
 -1      2085 1.47476E-02 2.56393E-03-4.42800E-14
 -1      2086 1.46720E-02 2.50330E-03-4.35023E-14
 -1      2087 1.44655E-02 2.44563E-03-4.44126E-14
 -1      2088 1.45592E-02 2.48517E-03-4.43668E-14
 -1      2089 1.44836E-02 2.42430E-03-4.35913E-14
 -1      2090 1.42747E-02 2.36425E-03-4.44974E-14
 -1      2091 1.43701E-02 2.40508E-03-4.44552E-14
 -1      2092 1.42944E-02 2.34398E-03-4.36746E-14
 -1      2093 1.40840E-02 2.28183E-03-4.45744E-14
 -1      2094 1.41793E-02 2.32314E-03-4.45352E-14
 -1      2095 1.41033E-02 2.26185E-03-4.37519E-14
 -1      2096 1.38940E-02 2.19864E-03-4.46492E-14
 -1      2097 1.39889E-02 2.24031E-03-4.46124E-14
 -1      2098 1.39128E-02 2.17888E-03-4.38244E-14
 -1      2099 1.30315E-02 1.34110E-03-2.49986E-14
 -1      2100 1.31543E-02 1.28732E-03-2.52139E-14
 -1      2101 1.32710E-02 1.19602E-03-2.55867E-14
 -1      2102 1.32190E-02 1.17773E-03-2.55863E-14
 -1      2103 1.32473E-02 1.24296E-03-2.53727E-14
 -1      2104 1.32832E-02 1.21995E-03-2.54824E-14
 -1      2105 1.26761E-02 1.51779E-03-2.45017E-14
 -1      2106 1.28567E-02 1.42225E-03-2.47659E-14
 -1      2107 1.22486E-02 1.79540E-03-2.38029E-14
 -1      2108 1.24546E-02 1.66011E-03-2.41087E-14
 -1      2109 3.27135E-04-8.89701E-05-3.70391E-17
 -1      2110 3.29246E-04-1.02114E-04-3.39084E-17
 -1      2111 4.46324E-04-1.45082E-04-4.92228E-17
 -1      2112 4.40001E-04-1.09924E-04-5.76525E-17
 -1      2113 1.14778E-02 2.31944E-03-2.25148E-14
 -1      2114 1.16569E-02 2.20228E-03-2.28781E-14
 -1      2115 1.10599E-02 2.44586E-03-2.16489E-14
 -1      2116 1.12345E-02 2.42198E-03-2.20222E-14
 -1      2117 1.05934E-02 2.26896E-03-2.07019E-14
 -1      2118 1.07888E-02 2.38774E-03-2.10958E-14
 -1      2119 1.01211E-02 1.89114E-03-1.99694E-14
 -1      2120 1.03593E-02 2.08669E-03-2.02904E-14
 -1      2121 9.55030E-03 1.44475E-03-1.93154E-14
 -1      2122 9.79499E-03 1.63832E-03-1.95925E-14
 -1      2123 9.04246E-03 1.08684E-03-1.87785E-14
 -1      2124 9.28222E-03 1.25189E-03-1.90323E-14
 -1      2125 8.58431E-03 8.15439E-04-1.82912E-14
 -1      2126 8.79020E-03 9.21627E-04-1.84909E-14
 -1      2127 8.24354E-03 6.87138E-04-1.80586E-14
 -1      2128 8.36414E-03 7.19297E-04-1.80979E-14
 -1      2129 8.13583E-03 6.33046E-04-1.79646E-14
 -1      2130 8.16877E-03 6.54798E-04-1.80110E-14
 -1      2131 8.20071E-03 6.29746E-04-1.77306E-14
 -1      2132 8.21560E-03 5.88464E-04-1.81472E-14
 -1      2133 8.15385E-03 6.10262E-04-1.80571E-14
 -1      2134 8.44805E-03 5.14292E-04-1.83391E-14
 -1      2135 8.32082E-03 5.53610E-04-1.82104E-14
 -1      2136 8.78574E-03 3.86427E-04-1.87569E-14
 -1      2137 8.61887E-03 4.50310E-04-1.85671E-14
 -1      2138 9.16907E-03 2.22613E-04-1.92593E-14
 -1      2139 8.98739E-03 3.03163E-04-1.90118E-14
 -1      2140 9.55129E-03 5.28498E-05-1.98753E-14
 -1      2141 9.37486E-03 1.31264E-04-1.95815E-14
 -1      2142 9.91933E-03-7.89984E-05-2.05805E-14
 -1      2143 9.74840E-03-2.22813E-05-2.02360E-14
 -1      2144 1.02830E-02-1.27568E-04-2.14028E-14
 -1      2145 1.01234E-02-1.19660E-04-2.10208E-14
 -1      2146 1.05932E-02-6.52441E-05-2.21831E-14
 -1      2147 1.04435E-02-1.09329E-04-2.17896E-14
 -1      2148 1.03343E-02-1.31343E-04-2.15803E-14
 -1      2149 1.10133E-02 1.39754E-04-2.31053E-14
 -1      2150 1.08331E-02 4.29165E-05-2.27608E-14
 -1      2151 1.13907E-02 3.73800E-04-2.38232E-14
 -1      2152 1.12011E-02 2.48369E-04-2.34624E-14
 -1      2153 1.10693E-02 2.14828E-04-2.34840E-14
 -1      2154 1.18395E-02 6.40658E-04-2.45055E-14
 -1      2155 1.16134E-02 5.03963E-04-2.41624E-14
 -1      2156 1.14418E-02 4.54947E-04-2.41854E-14
 -1      2157 1.24172E-02 9.12518E-04-2.50984E-14
 -1      2158 1.21809E-02 8.18006E-04-2.49251E-14
 -1      2159 1.28023E-02 1.05303E-03-2.53855E-14
 -1      2160 1.26169E-02 9.87258E-04-2.52435E-14
 -1      2161 1.24945E-02 1.00189E-03-2.55171E-14
 -1      2162 1.31202E-02 1.14377E-03-2.55321E-14
 -1      2163 1.29973E-02 1.10994E-03-2.54701E-14
 -1      2164 1.18433E-02 2.07772E-03-2.31706E-14
 -1      2165 1.20494E-02 1.92830E-03-2.35078E-14
 -1      2166 1.21517E-02 1.83397E-03-2.38398E-14
 -1      2167 1.17963E-02 2.09495E-03-2.32479E-14
 -1      2168 1.18775E-02 2.03766E-03-2.35244E-14
 -1      2169 6.07873E-04-2.98099E-04-3.47080E-17
 -1      2170 1.23629E-02 1.69184E-03-2.47338E-14
 -1      2171 6.63598E-04-2.92379E-04-5.69477E-17
 -1      2172 1.00645E-02 1.65784E-03-1.92563E-14
 -1      2173 9.83665E-03 1.40381E-03-1.87340E-14
 -1      2174 1.09710E-02 2.45311E-03-2.14080E-14
 -1      2175 1.09209E-02 2.45283E-03-2.11685E-14
 -1      2176 1.07269E-02 2.33642E-03-2.06822E-14
 -1      2177 1.59541E-02 3.06438E-03-4.27877E-14
 -1      2178 1.32875E-02 1.21951E-03-2.58307E-14
 -1      2179 1.32069E-02 1.26107E-03-2.55610E-14
 -1      2180 1.37764E-02 2.13733E-03-4.44173E-14
 -1      2181 1.29416E-02 1.36420E-03-2.51642E-14
 -1      2182 1.31738E-02 1.19180E-03-2.58855E-14
 -1      2183 1.25589E-02 1.56377E-03-2.45328E-14
 -1      2184 1.28852E-02 1.12192E-03-2.57475E-14
 -1      2185 1.21112E-02 8.70083E-04-2.53966E-14
 -1      2186 1.19771E-02 7.64060E-04-2.49510E-14
 -1      2187 1.17976E-02 7.02419E-04-2.49735E-14
 -1      2188 1.06840E-02-1.78976E-05-2.25450E-14
 -1      2189 1.05624E-02-6.33119E-05-2.23285E-14
 -1      2190 1.07625E-02 4.42470E-05-2.29071E-14
 -1      2191 1.00216E-02-1.11243E-04-2.07543E-14
 -1      2192 9.65835E-03 1.15041E-05-1.99579E-14
 -1      2193 9.28240E-03 1.81871E-04-1.92798E-14
 -1      2194 8.89420E-03 3.55129E-04-1.87058E-14
 -1      2195 8.53060E-03 4.92330E-04-1.82259E-14
 -1      2196 8.13359E-03 6.07629E-04-1.77794E-14
 -1      2197 8.47188E-03 7.18848E-04-1.79680E-14
 -1      2198 8.58606E-03 7.23189E-04-1.78359E-14
 -1      2199 8.37776E-03 6.51160E-04-1.76475E-14
 -1      2200 8.95083E-03 9.58118E-04-1.84439E-14
 -1      2201 9.46516E-03 1.30674E-03-1.90109E-14
 -1      2202 1.00293E-02 1.75524E-03-1.96651E-14
 -1      2203 1.05312E-02 2.19783E-03-2.04472E-14
 -1      2204 1.14244E-02 2.36044E-03-2.24564E-14
 -1      2205 8.26258E-03 5.69412E-04-1.79371E-14
 -1      2206 1.01658E-03 3.99747E-04-2.10417E-16
 -1      2207 8.72117E-04 3.63379E-04-1.55813E-16
 -1      2208 5.47797E-04-5.52915E-05-9.89470E-17
 -1      2209 5.48833E-04-7.20048E-05-9.62772E-17
 -1      2210 5.50253E-04-8.93239E-05-9.31736E-17
 -1      2211 5.52123E-04-1.07299E-04-8.97584E-17
 -1      2212 6.65302E-04-9.54750E-05-1.29684E-16
 -1      2213 5.46415E-04 8.85360E-06-1.05615E-16
 -1      2214 5.46395E-04-6.98136E-06-1.04490E-16
 -1      2215 5.47170E-04 4.08601E-05-1.06780E-16
 -1      2216 5.46670E-04 2.47878E-05-1.06401E-16
 -1      2217 6.61354E-04 1.99249E-05-1.44253E-16
 -1      2218 5.48996E-04 7.34777E-05-1.06658E-16
 -1      2219 5.47933E-04 5.69874E-05-1.06916E-16
 -1      2220 6.62680E-04 5.77749E-05-1.45392E-16
 -1      2221 5.52388E-04 1.08947E-04-1.05032E-16
 -1      2222 5.50464E-04 9.08736E-05-1.06035E-16
 -1      2223 6.65541E-04 9.72381E-05-1.44700E-16
 -1      2224 5.58266E-04 1.48280E-04-1.01549E-16
 -1      2225 5.54949E-04 1.28056E-04-1.03501E-16
 -1      2226 6.70633E-04 1.40005E-04-1.42139E-16
 -1      2227 5.68589E-04 1.93876E-04-9.50981E-17
 -1      2228 5.62753E-04 1.70160E-04-9.88386E-17
 -1      2229 6.79279E-04 1.87547E-04-1.36840E-16
 -1      2230 8.29053E-03 5.50770E-04-1.76760E-14
 -1      2231 8.19901E-03 5.70718E-04-1.76129E-14
 -1      2232 1.30204E-03 4.56646E-04-3.46755E-16
 -1      2233 1.15972E-03 4.30727E-04-2.73964E-16
 -1      2234 1.07177E-03 3.81260E-04-2.51169E-16
 -1      2235 9.15178E-04-3.46319E-04-1.28641E-16
 -1      2236 1.05928E-03-3.79613E-04-1.75627E-16
 -1      2237 1.00369E-02 1.71816E-03-1.95255E-14
 -1      2238 1.20254E-03-4.07982E-04-2.30786E-16
 -1      2239 1.34535E-03-4.31831E-04-2.94713E-16
 -1      2240 1.11698E-03-3.60420E-04-2.17206E-16
 -1      2241 1.48752E-03-4.52018E-04-3.67165E-16
 -1      2242 1.62930E-03-4.68820E-04-4.48629E-16
 -1      2243 1.40331E-03-4.07142E-04-3.48639E-16
 -1      2244 1.77073E-03-4.82908E-04-5.39106E-16
 -1      2245 1.91191E-03-4.94498E-04-6.38554E-16
 -1      2246 1.68844E-03-4.40305E-04-5.14522E-16
 -1      2247 2.05295E-03-5.04083E-04-7.47666E-16
 -1      2248 2.19387E-03-5.11837E-04-8.66115E-16
 -1      2249 1.97263E-03-4.63252E-04-7.17281E-16
 -1      2250 2.33478E-03-5.18120E-04-9.94132E-16
 -1      2251 2.47568E-03-5.23074E-04-1.13202E-15
 -1      2252 2.25628E-03-4.78618E-04-9.56551E-16
 -1      2253 2.61665E-03-5.26962E-04-1.27902E-15
 -1      2254 2.75766E-03-5.29896E-04-1.43565E-15
 -1      2255 2.53971E-03-4.88430E-04-1.23400E-15
 -1      2256 2.89879E-03-5.32066E-04-1.60279E-15
 -1      2257 3.04000E-03-5.33563E-04-1.78021E-15
 -1      2258 2.82316E-03-4.94231E-04-1.54977E-15
 -1      2259 3.18135E-03-5.34521E-04-1.96597E-15
 -1      2260 3.32279E-03-5.35009E-04-2.16235E-15
 -1      2261 3.10678E-03-4.97175E-04-1.90437E-15
 -1      2262 3.46438E-03-5.35123E-04-2.36856E-15
 -1      2263 3.60607E-03-5.34914E-04-2.58531E-15
 -1      2264 3.39065E-03-4.98118E-04-2.29832E-15
 -1      2265 3.74790E-03-5.34449E-04-2.81226E-15
 -1      2266 3.88984E-03-5.33764E-04-3.04769E-15
 -1      2267 3.67482E-03-4.97677E-04-2.73275E-15
 -1      2268 4.03191E-03-5.32905E-04-3.29333E-15
 -1      2269 4.17409E-03-5.31898E-04-3.54994E-15
 -1      2270 3.95930E-03-4.96293E-04-3.20637E-15
 -1      2271 4.31639E-03-5.30775E-04-3.81687E-15
 -1      2272 4.45880E-03-5.29555E-04-4.09282E-15
 -1      2273 4.24409E-03-4.94269E-04-3.71942E-15
 -1      2274 4.60133E-03-5.28259E-04-4.37691E-15
 -1      2275 4.74397E-03-5.26904E-04-4.67203E-15
 -1      2276 4.52921E-03-4.91818E-04-4.27176E-15
 -1      2277 4.88672E-03-5.25509E-04-4.97689E-15
 -1      2278 5.02958E-03-5.24087E-04-5.29066E-15
 -1      2279 4.81465E-03-4.89093E-04-4.86125E-15
 -1      2280 5.17257E-03-5.22659E-04-5.61461E-15
 -1      2281 5.31567E-03-5.21242E-04-5.95068E-15
 -1      2282 5.10043E-03-4.86222E-04-5.49032E-15
 -1      2283 5.45890E-03-5.19862E-04-6.29710E-15
 -1      2284 5.60225E-03-5.18540E-04-6.65374E-15
 -1      2285 5.38660E-03-4.83340E-04-6.16097E-15
 -1      2286 5.74574E-03-5.17314E-04-7.02086E-15
 -1      2287 5.88937E-03-5.16214E-04-7.39960E-15
 -1      2288 5.67321E-03-4.80616E-04-6.87368E-15
 -1      2289 6.03315E-03-5.15290E-04-7.79009E-15
 -1      2290 6.17708E-03-5.14581E-04-8.19092E-15
 -1      2291 5.96033E-03-4.78288E-04-7.63118E-15
 -1      2292 6.32117E-03-5.14154E-04-8.60459E-15
 -1      2293 6.46540E-03-5.14057E-04-9.02833E-15
 -1      2294 6.24808E-03-4.76680E-04-8.43443E-15
 -1      2295 6.60982E-03-5.14367E-04-9.46399E-15
 -1      2296 6.75436E-03-5.15141E-04-9.91090E-15
 -1      2297 6.53659E-03-4.76220E-04-9.28349E-15
 -1      2298 6.89909E-03-5.16456E-04-1.03678E-14
 -1      2299 7.04391E-03-5.18365E-04-1.08366E-14
 -1      2300 6.82597E-03-4.77421E-04-1.01764E-14
 -1      2301 7.18889E-03-5.20927E-04-1.13169E-14
 -1      2302 7.33388E-03-5.24173E-04-1.18063E-14
 -1      2303 7.11632E-03-4.80831E-04-1.11131E-14
 -1      2304 7.47896E-03-5.28109E-04-1.23071E-14
 -1      2305 7.62393E-03-5.32710E-04-1.28189E-14
 -1      2306 7.40763E-03-4.86906E-04-1.20936E-14
 -1      2307 7.76885E-03-5.37883E-04-1.33396E-14
 -1      2308 7.91346E-03-5.43503E-04-1.38720E-14
 -1      2309 7.69971E-03-4.95784E-04-1.31127E-14
 -1      2310 8.05780E-03-5.49320E-04-1.44151E-14
 -1      2311 8.20157E-03-5.55052E-04-1.49672E-14
 -1      2312 7.99204E-03-5.06948E-04-1.41741E-14
 -1      2313 8.34478E-03-5.60244E-04-1.55305E-14
 -1      2314 8.48711E-03-5.64404E-04-1.61044E-14
 -1      2315 8.28369E-03-5.18768E-04-1.52778E-14
 -1      2316 8.62854E-03-5.66856E-04-1.66858E-14
 -1      2317 8.76885E-03-5.66886E-04-1.72766E-14
 -1      2318 8.57336E-03-5.28017E-04-1.64200E-14
 -1      2319 8.90796E-03-5.63635E-04-1.78771E-14
 -1      2320 9.04585E-03-5.56233E-04-1.84882E-14
 -1      2321 8.85956E-03-5.29573E-04-1.75975E-14
 -1      2322 9.18243E-03-5.43763E-04-1.91100E-14
 -1      2323 9.31797E-03-5.25362E-04-1.97400E-14
 -1      2324 9.14115E-03-5.16589E-04-1.88153E-14
 -1      2325 9.45238E-03-5.00254E-04-2.03799E-14
 -1      2326 9.58623E-03-4.67807E-04-2.10311E-14
 -1      2327 9.41791E-03-4.81446E-04-2.00724E-14
 -1      2328 9.71942E-03-4.27594E-04-2.16929E-14
 -1      2329 9.85273E-03-3.79419E-04-2.23671E-14
 -1      2330 9.69106E-03-4.17497E-04-2.13713E-14
 -1      2331 9.98607E-03-3.23335E-04-2.30531E-14
 -1      2332 1.01202E-02-2.59643E-04-2.37475E-14
 -1      2333 9.96305E-03-3.21026E-04-2.27153E-14
 -1      2334 1.02549E-02-1.88861E-04-2.44553E-14
 -1      2335 1.03909E-02-1.11686E-04-2.51725E-14
 -1      2336 1.02368E-02-1.92503E-04-2.41037E-14
 -1      2337 1.05279E-02-2.89415E-05-2.58995E-14
 -1      2338 1.06662E-02 5.84911E-05-2.66367E-14
 -1      2339 1.05144E-02-3.64130E-05-2.55363E-14
 -1      2340 1.08057E-02 1.49697E-04-2.73819E-14
 -1      2341 1.09464E-02 2.43832E-04-2.81353E-14
 -1      2342 1.07969E-02 1.40236E-04-2.70069E-14
 -1      2343 1.10881E-02 3.40073E-04-2.88970E-14
 -1      2344 1.12306E-02 4.37754E-04-2.96672E-14
 -1      2345 1.10838E-02 3.29891E-04-2.85110E-14
 -1      2346 1.13739E-02 5.36255E-04-3.04451E-14
 -1      2347 1.15177E-02 6.35137E-04-3.12309E-14
 -1      2348 1.13738E-02 5.26050E-04-3.00502E-14
 -1      2349 1.16619E-02 7.34006E-04-3.20282E-14
 -1      2350 1.18064E-02 8.32627E-04-3.28377E-14
 -1      2351 1.16653E-02 7.24052E-04-3.16235E-14
 -1      2352 1.19510E-02 9.30806E-04-3.36537E-14
 -1      2353 1.20957E-02 1.02846E-03-3.44789E-14
 -1      2354 1.19573E-02 9.21132E-04-3.32352E-14
 -1      2355 1.22404E-02 1.12554E-03-3.53145E-14
 -1      2356 1.23849E-02 1.22206E-03-3.61583E-14
 -1      2357 1.22487E-02 1.11605E-03-3.48846E-14
 -1      2358 1.25294E-02 1.31807E-03-3.70094E-14
 -1      2359 1.26737E-02 1.41362E-03-3.78630E-14
 -1      2360 1.25392E-02 1.30863E-03-3.65659E-14
 -1      2361 1.28178E-02 1.50882E-03-3.87232E-14
 -1      2362 1.29618E-02 1.60376E-03-3.95875E-14
 -1      2363 1.28286E-02 1.49929E-03-3.82751E-14
 -1      2364 1.31055E-02 1.69853E-03-4.04561E-14
 -1      2365 1.32491E-02 1.79323E-03-4.13311E-14
 -1      2366 1.31169E-02 1.68875E-03-3.99988E-14
 -1      2367 1.86521E-03 5.24997E-04-7.29180E-16
 -1      2368 1.72498E-03 5.12298E-04-6.19825E-16
 -1      2369 2.14529E-03 5.44145E-04-9.76432E-16
 -1      2370 2.00530E-03 5.35552E-04-8.48280E-16
 -1      2371 1.92455E-03 4.94353E-04-8.02039E-16
 -1      2372 2.42536E-03 5.56753E-04-1.26123E-15
 -1      2373 2.28531E-03 5.51161E-04-1.11371E-15
 -1      2374 2.20666E-03 5.11470E-04-1.05944E-15
 -1      2375 2.70580E-03 5.64615E-04-1.58441E-15
 -1      2376 2.56553E-03 5.61196E-04-1.41803E-15
 -1      2377 2.48862E-03 5.22587E-04-1.35349E-15
 -1      2378 2.98682E-03 5.69068E-04-1.94674E-15
 -1      2379 2.84624E-03 5.67206E-04-1.76069E-15
 -1      2380 2.77075E-03 5.29358E-04-1.68702E-15
 -1      2381 3.26851E-03 5.71101E-04-2.34648E-15
 -1      2382 3.12758E-03 5.70341E-04-2.14190E-15
 -1      2383 3.05321E-03 5.33019E-04-2.05902E-15
 -1      2384 3.55089E-03 5.71428E-04-2.78327E-15
 -1      2385 3.40962E-03 5.71444E-04-2.56006E-15
 -1      2386 3.33612E-03 5.34482E-04-2.46787E-15
 -1      2387 3.83395E-03 5.70549E-04-3.25753E-15
 -1      2388 3.69234E-03 5.71115E-04-3.01555E-15
 -1      2389 3.61951E-03 5.34400E-04-2.91394E-15
 -1      2390 4.11767E-03 5.68797E-04-3.76842E-15
 -1      2391 3.97574E-03 5.69766E-04-3.50829E-15
 -1      2392 3.90338E-03 5.33224E-04-3.39761E-15
 -1      2393 4.40203E-03 5.66372E-04-4.31671E-15
 -1      2394 4.25977E-03 5.67659E-04-4.03823E-15
 -1      2395 4.18773E-03 5.31249E-04-3.91776E-15
 -1      2396 4.68701E-03 5.63369E-04-4.89989E-15
 -1      2397 4.54444E-03 5.64937E-04-4.60350E-15
 -1      2398 4.47257E-03 5.28646E-04-4.47382E-15
 -1      2399 4.97266E-03 5.59799E-04-5.51895E-15
 -1      2400 4.82975E-03 5.61653E-04-5.20475E-15
 -1      2401 4.75789E-03 5.25484E-04-5.06561E-15
 -1      2402 5.25904E-03 5.55604E-04-6.17350E-15
 -1      2403 5.11575E-03 5.57780E-04-5.84259E-15
 -1      2404 5.04372E-03 5.21760E-04-5.69361E-15
 -1      2405 5.54627E-03 5.50673E-04-6.86421E-15
 -1      2406 5.40253E-03 5.53232E-04-6.51356E-15
 -1      2407 5.33010E-03 5.17405E-04-6.35733E-15
 -1      2408 5.83453E-03 5.44853E-04-7.59232E-15
 -1      2409 5.69024E-03 5.47875E-04-7.22398E-15
 -1      2410 5.61709E-03 5.12305E-04-7.05690E-15
 -1      2411 6.12408E-03 5.37974E-04-8.35845E-15
 -1      2412 5.97910E-03 5.41544E-04-7.97042E-15
 -1      2413 5.90478E-03 5.06318E-04-7.79567E-15
 -1      2414 6.41525E-03 5.29891E-04-9.16323E-15
 -1      2415 6.26939E-03 5.34076E-04-8.75592E-15
 -1      2416 6.19323E-03 4.99305E-04-8.57268E-15
 -1      2417 6.70843E-03 5.20585E-04-1.00072E-14
 -1      2418 6.56149E-03 5.25372E-04-9.58046E-15
 -1      2419 6.48247E-03 4.91190E-04-9.38914E-15
 -1      2420 7.00406E-03 5.10361E-04-1.08896E-14
 -1      2421 6.85579E-03 5.15544E-04-1.04429E-14
 -1      2422 6.77240E-03 4.82081E-04-1.02436E-14
 -1      2423 7.30253E-03 5.00266E-04-1.18098E-14
 -1      2424 7.15273E-03 5.05203E-04-1.13442E-14
 -1      2425 7.06270E-03 4.72511E-04-1.11362E-14
 -1      2426 7.60414E-03 4.92922E-04-1.27706E-14
 -1      2427 7.45266E-03 4.96052E-04-1.22858E-14
 -1      2428 7.35263E-03 4.63892E-04-1.20695E-14
 -1      2429 7.90913E-03 4.94083E-04-1.37681E-14
 -1      2430 7.75581E-03 4.92016E-04-1.32649E-14
 -1      2431 7.64096E-03 4.59352E-04-1.30400E-14
 -1      2432 8.21848E-03 5.15387E-04-1.48015E-14
 -1      2433 8.06268E-03 5.01316E-04-1.42809E-14
 -1      2434 7.92612E-03 4.65160E-04-1.40465E-14
 -1      2435 8.53671E-03 5.78636E-04-1.58684E-14
 -1      2436 8.37552E-03 5.39782E-04-1.53305E-14
 -1      2437 8.20759E-03 4.92937E-04-1.50868E-14
 -1      2438 8.87835E-03 7.22674E-04-1.69634E-14
 -1      2439 8.70323E-03 6.36557E-04-1.64127E-14
 -1      2440 8.49046E-03 5.63067E-04-1.61593E-14
 -1      2441 9.67895E-03 1.31362E-03-1.86839E-14
 -1      2442 5.88507E-04-2.37949E-04-5.70290E-17
 -1      2443 7.81306E-04-3.04785E-04-9.53962E-17
 -1      2444 8.40743E-04-2.93551E-04-1.25578E-16
 -1      2445 5.78976E-04-2.10152E-04-6.55671E-17
 -1      2446 1.30034E-02 1.41804E-03-2.64650E-14
 -1      2447 1.28216E-02 1.45088E-03-2.57659E-14
 -1      2448 1.39301E-02 1.73893E-03-3.08980E-14
 -1      2449 1.37814E-02 1.65413E-03-3.01314E-14
 -1      2450 1.42261E-02 1.92167E-03-3.24656E-14
 -1      2451 1.40778E-02 1.82844E-03-3.16746E-14
 -1      2452 1.39750E-02 1.75325E-03-3.13465E-14
 -1      2453 1.45214E-02 2.11341E-03-3.40757E-14
 -1      2454 1.43736E-02 2.01680E-03-3.32670E-14
 -1      2455 1.42535E-02 1.93730E-03-3.29270E-14
 -1      2456 1.48153E-02 2.30792E-03-3.57234E-14
 -1      2457 1.46683E-02 2.21052E-03-3.48942E-14
 -1      2458 1.45369E-02 2.12847E-03-3.45460E-14
 -1      2459 1.51076E-02 2.50206E-03-3.74010E-14
 -1      2460 1.49615E-02 2.40515E-03-3.65575E-14
 -1      2461 1.48230E-02 2.32186E-03-3.62001E-14
 -1      2462 1.53981E-02 2.69424E-03-3.91088E-14
 -1      2463 1.52530E-02 2.59846E-03-3.82533E-14
 -1      2464 1.51101E-02 2.51483E-03-3.78860E-14
 -1      2465 1.56869E-02 2.88366E-03-4.08400E-14
 -1      2466 1.55426E-02 2.78934E-03-3.99703E-14
 -1      2467 1.53974E-02 2.70595E-03-3.95989E-14
 -1      2468 1.52362E-02 2.71230E-03-4.24011E-14
 -1      2469 1.53233E-02 2.75019E-03-4.23501E-14
 -1      2470 1.54078E-02 2.78760E-03-4.22991E-14
 -1      2471 1.54916E-02 2.82534E-03-4.22479E-14
 -1      2472 1.52433E-02 2.68901E-03-4.15726E-14
 -1      2473 1.55763E-02 2.86413E-03-4.21919E-14
 -1      2474 1.56607E-02 2.90347E-03-4.21316E-14
 -1      2475 1.54117E-02 2.76456E-03-4.14652E-14
 -1      2476 1.32994E-02 1.24034E-03-2.61579E-14
 -1      2477 1.32897E-02 1.23947E-03-2.62680E-14
 -1      2478 1.50588E-02 2.63661E-03-4.24962E-14
 -1      2479 1.51481E-02 2.67450E-03-4.24504E-14
 -1      2480 1.50709E-02 2.61438E-03-4.16747E-14
 -1      2481 1.48767E-02 2.56029E-03-4.25883E-14
 -1      2482 1.49683E-02 2.59860E-03-4.25428E-14
 -1      2483 1.48921E-02 2.53892E-03-4.17715E-14
 -1      2484 1.46906E-02 2.48272E-03-4.26810E-14
 -1      2485 1.47841E-02 2.52170E-03-4.26341E-14
 -1      2486 1.47084E-02 2.46232E-03-4.18636E-14
 -1      2487 1.45016E-02 2.40361E-03-4.27710E-14
 -1      2488 1.45964E-02 2.44337E-03-4.27256E-14
 -1      2489 1.45209E-02 2.38406E-03-4.19533E-14
 -1      2490 1.43142E-02 2.32434E-03-4.28540E-14
 -1      2491 1.44080E-02 2.36415E-03-4.28132E-14
 -1      2492 1.43325E-02 2.30469E-03-4.20393E-14
 -1      2493 1.41229E-02 2.24243E-03-4.29344E-14
 -1      2494 1.42186E-02 2.28353E-03-4.28952E-14
 -1      2495 1.41428E-02 2.22374E-03-4.21207E-14
 -1      2496 1.39318E-02 2.15954E-03-4.30067E-14
 -1      2497 1.40273E-02 2.20108E-03-4.29726E-14
 -1      2498 1.39512E-02 2.14088E-03-4.21966E-14
 -1      2499 1.37413E-02 2.07602E-03-4.30774E-14
 -1      2500 1.38365E-02 2.11783E-03-4.30418E-14
 -1      2501 1.37601E-02 2.05722E-03-4.22661E-14
 -1      2502 1.28939E-02 1.38579E-03-2.55402E-14
 -1      2503 1.30435E-02 1.32739E-03-2.57803E-14
 -1      2504 1.58446E-03 4.96910E-04-5.19455E-16
 -1      2505 1.44353E-03 4.78619E-04-4.28517E-16
 -1      2506 1.64182E-03 4.69037E-04-5.81539E-16
 -1      2507 1.31750E-02 1.27596E-03-2.58620E-14
 -1      2508 1.32606E-02 1.25422E-03-2.60271E-14
 -1      2509 1.32187E-02 1.22618E-03-2.62672E-14
 -1      2510 1.31223E-02 1.21179E-03-2.62149E-14
 -1      2511 1.00737E-02-1.35341E-04-2.08780E-14
 -1      2512 9.91317E-03-9.44147E-05-2.04406E-14
 -1      2513 1.29801E-02 1.18174E-03-2.61432E-14
 -1      2514 1.27977E-02 1.13938E-03-2.60592E-14
 -1      2515 1.36520E-02 2.05376E-03-4.36187E-14
 -1      2516 1.36330E-02 1.57700E-03-2.93783E-14
 -1      2517 1.34824E-02 1.51012E-03-2.86337E-14
 -1      2518 1.37035E-02 1.58508E-03-2.98104E-14
 -1      2519 1.33298E-02 1.45739E-03-2.78978E-14
 -1      2520 1.31712E-02 1.42536E-03-2.71750E-14
 -1      2521 1.31673E-02 1.36809E-03-2.68671E-14
 -1      2522 5.46609E-04-2.28985E-05-1.02891E-16
 -1      2523 5.47066E-04-3.89366E-05-1.01061E-16
 -1      2524 6.62530E-04-5.58070E-05-1.36393E-16
 -1      2525 6.61301E-04-1.77041E-05-1.41136E-16
 -1      2526 8.88222E-03 8.52066E-04-1.80770E-14
 -1      2527 9.12626E-03 9.96669E-04-1.83607E-14
 -1      2528 8.16246E-03 5.88375E-04-1.73951E-14
 -1      2529 8.23356E-03 5.99467E-04-1.74394E-14
 -1      2530 8.13548E-03 5.83297E-04-1.75151E-14
 -1      2531 8.12093E-03 5.81921E-04-1.74191E-14
 -1      2532 8.14110E-03 5.56599E-04-1.72534E-14
 -1      2533 8.61883E-03 4.59429E-04-1.81092E-14
 -1      2534 8.45857E-03 5.06837E-04-1.78837E-14
 -1      2535 8.98007E-03 3.16342E-04-1.85930E-14
 -1      2536 8.80030E-03 3.91540E-04-1.83414E-14
 -1      2537 9.37425E-03 1.32327E-04-1.92408E-14
 -1      2538 9.19623E-03 2.18487E-04-1.89221E-14
 -1      2539 9.73052E-03-3.05346E-05-1.99942E-14
 -1      2540 9.56871E-03 4.36976E-05-1.96382E-14
 -1      2541 1.03690E-02-1.27084E-04-2.17578E-14
 -1      2542 1.02448E-02-1.44149E-04-2.13725E-14
 -1      2543 1.15150E-02 5.44125E-04-2.46124E-14
 -1      2544 1.13235E-02 4.18618E-04-2.42687E-14
 -1      2545 1.11123E-02 2.81921E-04-2.38572E-14
 -1      2546 1.09591E-02 1.75939E-04-2.34956E-14
 -1      2547 1.25873E-02 1.08022E-03-2.59806E-14
 -1      2548 1.24075E-02 1.01443E-03-2.58337E-14
 -1      2549 7.57876E-04 3.34185E-04-1.17378E-16
 -1      2550 6.11464E-04 2.84834E-04-7.91468E-17
 -1      2551 5.84744E-04 2.58067E-04-8.01496E-17
 -1      2552 8.13707E-04 3.22852E-04-1.48251E-16
 -1      2553 6.70248E-04-1.37942E-04-1.20645E-16
 -1      2554 5.54610E-04-1.26202E-04-8.58824E-17
 -1      2555 5.57777E-04-1.46187E-04-8.09628E-17
 -1      2556 8.41564E-03 4.83999E-04-1.74405E-14
 -1      2557 8.35416E-03 5.20720E-04-1.75589E-14
 -1      2558 8.26409E-03 5.18135E-04-1.72346E-14
 -1      2559 5.72250E-04 2.27872E-04-8.65600E-17
 -1      2560 1.20354E-02 1.91000E-03-2.38233E-14
 -1      2561 1.34381E-02 1.44777E-03-2.83179E-14
 -1      2562 9.38404E-03 1.13804E-03-1.85038E-14
 -1      2563 9.31730E-03 1.04186E-03-1.81745E-14
 -1      2564 9.10621E-03 8.64653E-04-1.76066E-14
 -1      2565 8.82664E-03 7.32543E-04-1.73451E-14
 -1      2566 5.71837E-04-1.85178E-04-7.26280E-17
 -1      2567 1.56840E-02 2.90263E-03-4.16587E-14
 -1      2568 1.58114E-02 2.96416E-03-4.15811E-14
 -1      2569 1.55186E-02 2.80176E-03-4.09382E-14
 -1      2570 1.32719E-02 1.25444E-03-2.65981E-14
 -1      2571 1.33011E-02 1.26351E-03-2.64636E-14
 -1      2572 1.31456E-02 1.31301E-03-2.62454E-14
 -1      2573 1.26568E-02 1.50233E-03-2.51540E-14
 -1      2574 1.35779E-03 4.32617E-04-3.98241E-16
 -1      2575 6.89535E-04 2.51216E-04-1.23274E-16
 -1      2576 9.49923E-03 1.27692E-03-1.88749E-14
 -1      2577 1.30564E-02 1.22394E-03-2.65279E-14
 -1      2578 9.79952E-03-7.20239E-05-2.01118E-14
 -1      2579 1.22349E-02 9.60126E-04-2.58584E-14
 -1      2580 1.20745E-02 8.98504E-04-2.58830E-14
 -1      2581 1.23521E-02 1.03307E-03-2.63239E-14
 -1      2582 1.08277E-02 1.03551E-04-2.32722E-14
 -1      2583 1.27155E-02 1.14497E-03-2.63777E-14
 -1      2584 1.12046E-02 3.65720E-04-2.42791E-14
 -1      2585 1.16666E-02 6.54621E-04-2.50581E-14
 -1      2586 1.04595E-02-9.74452E-05-2.21121E-14
 -1      2587 1.03680E-02-1.21283E-04-2.18980E-14
 -1      2588 1.05393E-02-5.44428E-05-2.24710E-14
 -1      2589 8.30318E-03 5.97581E-04-1.73099E-14
 -1      2590 9.45017E-03 7.65118E-05-1.92723E-14
 -1      2591 9.07038E-03 2.54927E-04-1.85505E-14
 -1      2592 1.34688E-02 1.93968E-03-4.27096E-14
 -1      2593 1.36344E-02 2.02325E-03-4.29519E-14
 -1      2594 1.35578E-02 1.96237E-03-4.21745E-14
 -1      2595 1.33441E-02 1.85642E-03-4.19240E-14
 -1      2596 8.12300E-03 5.59149E-04-1.71298E-14
 -1      2597 1.01245E-02-1.46643E-04-2.10494E-14
 -1      2598 9.74942E-03 1.46717E-03-1.91550E-14
 -1      2599 8.69576E-03 4.12551E-04-1.79947E-14
 -1      2600 1.33558E-02 1.84634E-03-4.14560E-14
 -1      2601 1.22051E-02 1.78329E-03-2.41219E-14
 -1      2602 1.24573E-02 1.61587E-03-2.47544E-14
 -1      2603 1.31309E-02 1.26141E-03-2.69394E-14
 -1      2604 1.29987E-02 1.23958E-03-2.68695E-14
 -1      2605 7.80218E-04 7.73190E-05-1.90074E-16
 -1      2606 7.78959E-04 5.54603E-05-1.89993E-16
 -1      2607 7.78113E-04 3.35514E-05-1.89329E-16
 -1      2608 7.77690E-04 1.18910E-05-1.88028E-16
 -1      2609 8.96527E-04 4.96664E-05-2.40693E-16
 -1      2610 7.91556E-04 1.73109E-04-1.84870E-16
 -1      2611 7.87552E-04 1.47695E-04-1.87269E-16
 -1      2612 8.03407E-04 2.28304E-04-1.77701E-16
 -1      2613 7.96792E-04 1.99915E-04-1.81807E-16
 -1      2614 9.14859E-04 2.07798E-04-2.33524E-16
 -1      2615 8.74029E-03 3.63471E-04-1.78208E-14
 -1      2616 8.58258E-03 4.21433E-04-1.75925E-14
 -1      2617 1.12980E-03 3.61889E-04-2.93778E-16
 -1      2618 9.86202E-04 3.32841E-04-2.28333E-16
 -1      2619 6.88564E-04-2.03970E-04-1.05561E-16
 -1      2620 1.03368E-03-3.14175E-04-2.02326E-16
 -1      2621 1.17692E-03-3.40277E-04-2.61171E-16
 -1      2622 1.32013E-03-3.62671E-04-3.28554E-16
 -1      2623 1.46336E-03-3.81621E-04-4.04624E-16
 -1      2624 1.23839E-03-3.19001E-04-3.07602E-16
 -1      2625 1.60640E-03-3.97669E-04-4.89246E-16
 -1      2626 1.74934E-03-4.11037E-04-5.82854E-16
 -1      2627 1.52497E-03-3.55283E-04-4.62710E-16
 -1      2628 1.89211E-03-4.22196E-04-6.85568E-16
 -1      2629 2.03477E-03-4.31333E-04-7.97363E-16
 -1      2630 1.81166E-03-3.81105E-04-6.53015E-16
 -1      2631 2.17732E-03-4.38821E-04-9.18401E-16
 -1      2632 2.31979E-03-4.44812E-04-1.04878E-15
 -1      2633 2.09812E-03-3.98849E-04-8.79274E-16
 -1      2634 2.46221E-03-4.49593E-04-1.18801E-15
 -1      2635 2.60458E-03-4.53287E-04-1.33682E-15
 -1      2636 2.38430E-03-4.10524E-04-1.14156E-15
 -1      2637 2.74695E-03-4.56108E-04-1.49642E-15
 -1      2638 2.88929E-03-4.58150E-04-1.66506E-15
 -1      2639 2.67025E-03-4.17739E-04-1.44202E-15
 -1      2640 3.03165E-03-4.59574E-04-1.84287E-15
 -1      2641 3.17401E-03-4.60450E-04-2.03037E-15
 -1      2642 2.95603E-03-4.21738E-04-1.78088E-15
 -1      2643 3.31641E-03-4.60895E-04-2.22798E-15
 -1      2644 3.45883E-03-4.60960E-04-2.43580E-15
 -1      2645 3.24171E-03-4.23460E-04-2.15775E-15
 -1      2646 3.60128E-03-4.60728E-04-2.65322E-15
 -1      2647 3.74377E-03-4.60236E-04-2.88134E-15
 -1      2648 3.52733E-03-4.23596E-04-2.57433E-15
 -1      2649 3.88630E-03-4.59542E-04-3.11887E-15
 -1      2650 4.02886E-03-4.58671E-04-3.36524E-15
 -1      2651 3.81294E-03-4.22641E-04-3.03056E-15
 -1      2652 4.17147E-03-4.57663E-04-3.62208E-15
 -1      2653 4.31412E-03-4.56535E-04-3.88951E-15
 -1      2654 4.09855E-03-4.20942E-04-3.52569E-15
 -1      2655 4.45682E-03-4.55315E-04-4.16594E-15
 -1      2656 4.59957E-03-4.54015E-04-4.45092E-15
 -1      2657 4.38420E-03-4.18733E-04-4.05940E-15
 -1      2658 4.74237E-03-4.52655E-04-4.74615E-15
 -1      2659 4.88523E-03-4.51244E-04-5.05080E-15
 -1      2660 4.66991E-03-4.16173E-04-4.63167E-15
 -1      2661 5.02815E-03-4.49802E-04-5.36616E-15
 -1      2662 5.17113E-03-4.48339E-04-5.69042E-15
 -1      2663 4.95572E-03-4.13380E-04-5.24088E-15
 -1      2664 5.31419E-03-4.46875E-04-6.02524E-15
 -1      2665 5.45734E-03-4.45424E-04-6.37123E-15
 -1      2666 5.24169E-03-4.10451E-04-5.89113E-15
 -1      2667 5.60059E-03-4.44014E-04-6.72783E-15
 -1      2668 5.74395E-03-4.42666E-04-7.09503E-15
 -1      2669 5.52790E-03-4.07500E-04-6.58263E-15
 -1      2670 5.88744E-03-4.41416E-04-7.47450E-15
 -1      2671 6.03109E-03-4.40297E-04-7.86464E-15
 -1      2672 5.81449E-03-4.04680E-04-7.31815E-15
 -1      2673 6.17491E-03-4.39357E-04-8.26651E-15
 -1      2674 6.31893E-03-4.38644E-04-8.67954E-15
 -1      2675 6.10164E-03-4.02216E-04-8.09934E-15
 -1      2676 6.46320E-03-4.38216E-04-9.10371E-15
 -1      2677 6.60772E-03-4.38138E-04-9.53876E-15
 -1      2678 6.38963E-03-4.00427E-04-8.92483E-15
 -1      2679 6.75256E-03-4.38475E-04-9.98560E-15
 -1      2680 6.89770E-03-4.39306E-04-1.04422E-14
 -1      2681 6.67881E-03-3.99743E-04-9.79476E-15
 -1      2682 7.04325E-03-4.40692E-04-1.09108E-14
 -1      2683 7.18915E-03-4.42718E-04-1.13903E-14
 -1      2684 6.96960E-03-4.00705E-04-1.07098E-14
 -1      2685 7.33551E-03-4.45418E-04-1.18791E-14
 -1      2686 7.48222E-03-4.48862E-04-1.23784E-14
 -1      2687 7.26243E-03-4.03920E-04-1.16664E-14
 -1      2688 7.62939E-03-4.53025E-04-1.28880E-14
 -1      2689 7.77685E-03-4.57915E-04-1.34066E-14
 -1      2690 7.55765E-03-4.09944E-04-1.26635E-14
 -1      2691 7.92467E-03-4.63404E-04-1.39342E-14
 -1      2692 8.07257E-03-4.69368E-04-1.44747E-14
 -1      2693 7.85534E-03-4.19047E-04-1.36988E-14
 -1      2694 8.22060E-03-4.75519E-04-1.50263E-14
 -1      2695 8.36839E-03-4.81510E-04-1.55865E-14
 -1      2696 8.15503E-03-4.30794E-04-1.47766E-14
 -1      2697 8.51589E-03-4.86841E-04-1.61561E-14
 -1      2698 8.66272E-03-4.90853E-04-1.67344E-14
 -1      2699 8.45554E-03-4.43438E-04-1.58934E-14
 -1      2700 8.80874E-03-4.92815E-04-1.73213E-14
 -1      2701 8.95370E-03-4.91750E-04-1.79172E-14
 -1      2702 8.75490E-03-4.53194E-04-1.70470E-14
 -1      2703 9.09742E-03-4.86745E-04-1.85229E-14
 -1      2704 9.23990E-03-4.76612E-04-1.91397E-14
 -1      2705 9.05080E-03-4.53746E-04-1.82353E-14
 -1      2706 9.38098E-03-4.60420E-04-1.97684E-14
 -1      2707 9.52107E-03-4.37084E-04-2.04048E-14
 -1      2708 9.34145E-03-4.36510E-04-1.94636E-14
 -1      2709 9.66008E-03-4.05917E-04-2.10517E-14
 -1      2710 9.79877E-03-3.66269E-04-2.17098E-14
 -1      2711 9.62675E-03-3.92210E-04-2.07343E-14
 -1      2712 9.93710E-03-3.17920E-04-2.23802E-14
 -1      2713 1.00760E-02-2.60971E-04-2.30619E-14
 -1      2714 9.90882E-03-3.13673E-04-2.20470E-14
 -1      2715 1.02153E-02-1.95753E-04-2.37552E-14
 -1      2716 1.03558E-02-1.23013E-04-2.44590E-14
 -1      2717 1.01913E-02-1.98601E-04-2.34068E-14
 -1      2718 1.04975E-02-4.35194E-05-2.51738E-14
 -1      2719 1.06404E-02 4.15832E-05-2.58980E-14
 -1      2720 1.04776E-02-5.05160E-05-2.48115E-14
 -1      2721 1.07847E-02 1.31359E-04-2.66320E-14
 -1      2722 1.09301E-02 2.24647E-04-2.73742E-14
 -1      2723 1.07695E-02 1.22730E-04-2.62591E-14
 -1      2724 1.10764E-02 3.20570E-04-2.81263E-14
 -1      2725 1.12235E-02 4.18208E-04-2.88880E-14
 -1      2726 1.10663E-02 3.11837E-04-2.77418E-14
 -1      2727 1.13711E-02 5.16884E-04-2.96553E-14
 -1      2728 1.15189E-02 6.16018E-04-3.04313E-14
 -1      2729 1.13661E-02 5.08619E-04-2.92625E-14
 -1      2730 1.16668E-02 7.15170E-04-3.12184E-14
 -1      2731 1.18146E-02 8.14054E-04-3.20144E-14
 -1      2732 1.16665E-02 7.07340E-04-3.08141E-14
 -1      2733 1.19622E-02 9.12436E-04-3.28213E-14
 -1      2734 1.21093E-02 1.01024E-03-3.36349E-14
 -1      2735 1.19658E-02 9.04779E-04-3.24062E-14
 -1      2736 1.22562E-02 1.10738E-03-3.44554E-14
 -1      2737 1.24025E-02 1.20390E-03-3.52882E-14
 -1      2738 1.22628E-02 1.09962E-03-3.40309E-14
 -1      2739 1.25485E-02 1.29982E-03-3.61282E-14
 -1      2740 1.26940E-02 1.39524E-03-3.69741E-14
 -1      2741 1.25574E-02 1.29175E-03-3.56902E-14
 -1      2742 1.28391E-02 1.49021E-03-3.78261E-14
 -1      2743 1.29838E-02 1.58487E-03-3.86828E-14
 -1      2744 1.28495E-02 1.48169E-03-3.73797E-14
 -1      2745 1.31282E-02 1.67929E-03-3.95423E-14
 -1      2746 1.32722E-02 1.77359E-03-4.04064E-14
 -1      2747 1.31395E-02 1.67023E-03-3.90897E-14
 -1      2748 1.45398E-02 2.36458E-03-4.11396E-14
 -1      2749 1.46331E-02 2.40333E-03-4.10952E-14
 -1      2750 8.08771E-03 5.33283E-04-1.68295E-14
 -1      2751 8.12294E-03 5.31576E-04-1.68034E-14
 -1      2752 2.55273E-03 4.87873E-04-1.44714E-15
 -1      2753 2.41097E-03 4.83609E-04-1.29019E-15
 -1      2754 1.98543E-03 4.62980E-04-8.75602E-16
 -1      2755 1.84338E-03 4.52779E-04-7.55838E-16
 -1      2756 2.83630E-03 4.93643E-04-1.79007E-15
 -1      2757 2.69451E-03 4.91184E-04-1.61369E-15
 -1      2758 2.61765E-03 4.52722E-04-1.54088E-15
 -1      2759 3.12003E-03 4.96596E-04-2.17106E-15
 -1      2760 2.97815E-03 4.95421E-04-1.97581E-15
 -1      2761 2.90247E-03 4.57561E-04-1.89360E-15
 -1      2762 3.40401E-03 4.97564E-04-2.58982E-15
 -1      2763 3.26200E-03 4.97291E-04-2.37602E-15
 -1      2764 3.18730E-03 4.59874E-04-2.28384E-15
 -1      2765 3.68829E-03 4.97138E-04-3.04520E-15
 -1      2766 3.54612E-03 4.97499E-04-2.81275E-15
 -1      2767 3.47222E-03 4.60409E-04-2.71210E-15
 -1      2768 3.97287E-03 4.95725E-04-3.53800E-15
 -1      2769 3.83054E-03 4.96537E-04-3.28731E-15
 -1      2770 3.75726E-03 4.59697E-04-3.17690E-15
 -1      2771 4.25777E-03 4.93582E-04-4.06702E-15
 -1      2772 4.11528E-03 4.94733E-04-3.79762E-15
 -1      2773 4.04246E-03 4.58098E-04-3.67860E-15
 -1      2774 4.54300E-03 4.90851E-04-4.63152E-15
 -1      2775 4.40034E-03 4.92284E-04-4.34524E-15
 -1      2776 4.32781E-03 4.55837E-04-4.21620E-15
 -1      2777 4.82854E-03 4.87589E-04-5.23193E-15
 -1      2778 4.68573E-03 4.89284E-04-4.92722E-15
 -1      2779 4.61332E-03 4.53033E-04-4.78972E-15
 -1      2780 5.11442E-03 4.83777E-04-5.86885E-15
 -1      2781 4.97144E-03 4.85752E-04-5.54557E-15
 -1      2782 4.89899E-03 4.49728E-04-5.39830E-15
 -1      2783 5.40064E-03 4.79351E-04-6.54092E-15
 -1      2784 5.25748E-03 4.81644E-04-6.20062E-15
 -1      2785 5.18478E-03 4.45906E-04-6.04352E-15
 -1      2786 5.68716E-03 4.74210E-04-7.25114E-15
 -1      2787 5.54385E-03 4.76874E-04-6.89074E-15
 -1      2788 5.47064E-03 4.41513E-04-6.72524E-15
 -1      2789 5.97393E-03 4.68248E-04-7.99998E-15
 -1      2790 5.83050E-03 4.71336E-04-7.62109E-15
 -1      2791 5.75644E-03 4.36481E-04-7.44553E-15
 -1      2792 6.26080E-03 4.61393E-04-8.78770E-15
 -1      2793 6.11734E-03 4.64935E-04-8.38842E-15
 -1      2794 6.04196E-03 4.30766E-04-8.20528E-15
 -1      2795 6.54744E-03 4.53690E-04-9.61553E-15
 -1      2796 6.40413E-03 4.57646E-04-9.19730E-15
 -1      2797 6.32679E-03 4.24403E-04-9.00420E-15
 -1      2798 6.83320E-03 4.45446E-04-1.04814E-14
 -1      2799 6.69041E-03 4.49626E-04-1.00437E-14
 -1      2800 6.61020E-03 4.17609E-04-9.84300E-15
 -1      2801 7.11695E-03 4.37503E-04-1.13854E-14
 -1      2802 6.97531E-03 4.41410E-04-1.09284E-14
 -1      2803 6.89097E-03 4.10958E-04-1.07196E-14
 -1      2804 7.39679E-03 4.31704E-04-1.23303E-14
 -1      2805 7.25734E-03 4.34276E-04-1.18527E-14
 -1      2806 7.16712E-03 4.05669E-04-1.16358E-14
 -1      2807 7.66992E-03 4.31656E-04-1.33091E-14
 -1      2808 7.53415E-03 4.30840E-04-1.28149E-14
 -1      2809 7.43560E-03 4.04052E-04-1.25897E-14
 -1      2810 7.93285E-03 4.43863E-04-1.43245E-14
 -1      2811 7.80248E-03 4.35970E-04-1.38130E-14
 -1      2812 7.69204E-03 4.10092E-04-1.35801E-14
 -1      2813 8.18310E-03 4.79347E-04-1.53723E-14
 -1      2814 8.05898E-03 4.58169E-04-1.48441E-14
 -1      2815 7.93097E-03 4.30126E-04-1.46032E-14
 -1      2816 8.42349E-03 5.55467E-04-1.64508E-14
 -1      2817 8.30289E-03 5.11054E-04-1.59082E-14
 -1      2818 8.14741E-03 4.73501E-04-1.56579E-14
 -1      2819 1.45484E-02 2.14536E-03-3.50153E-14
 -1      2820 1.44101E-02 2.05005E-03-3.41982E-14
 -1      2821 1.33214E-02 1.28766E-03-2.70955E-14
 -1      2822 1.32521E-02 1.28495E-03-2.70974E-14
 -1      2823 1.53542E-02 2.71002E-03-4.05423E-14
 -1      2824 1.53762E-02 2.70774E-03-4.00708E-14
 -1      2825 1.52340E-02 2.61314E-03-3.92112E-14
 -1      2826 8.69551E-03 7.46800E-04-1.78023E-14
 -1      2827 8.83886E-03 7.81824E-04-1.77195E-14
 -1      2828 2.26918E-03 4.78156E-04-1.14253E-15
 -1      2829 2.12736E-03 4.71385E-04-1.00453E-15
 -1      2830 2.33275E-03 4.44331E-04-1.22684E-15
 -1      2831 1.42738E-02 1.95596E-03-3.33883E-14
 -1      2832 1.41394E-02 1.86300E-03-3.25855E-14
 -1      2833 1.42872E-02 1.97557E-03-3.38484E-14
 -1      2834 1.32561E-02 1.33050E-03-2.69568E-14
 -1      2835 1.40083E-02 1.77275E-03-3.17974E-14
 -1      2836 1.38798E-02 1.68504E-03-3.10173E-14
 -1      2837 1.40303E-02 1.79419E-03-3.22485E-14
 -1      2838 1.48285E-02 2.33692E-03-3.66772E-14
 -1      2839 1.46878E-02 2.24099E-03-3.58422E-14
 -1      2840 1.45557E-02 2.16279E-03-3.54855E-14
 -1      2841 1.51019E-02 2.52319E-03-3.83659E-14
 -1      2842 1.49602E-02 2.42767E-03-3.75161E-14
 -1      2843 1.48220E-02 2.34747E-03-3.71516E-14
 -1      2844 1.50822E-02 2.52693E-03-3.88310E-14
 -1      2845 1.47253E-02 2.44155E-03-4.10490E-14
 -1      2846 1.48162E-02 2.47937E-03-4.10014E-14
 -1      2847 1.45582E-02 2.34462E-03-4.03310E-14
 -1      2848 1.52709E-02 2.67158E-03-4.05997E-14
 -1      2849 1.49058E-02 2.51681E-03-4.09536E-14
 -1      2850 1.49939E-02 2.55410E-03-4.09015E-14
 -1      2851 1.47407E-02 2.41980E-03-4.02356E-14
 -1      2852 1.43508E-02 2.28552E-03-4.12274E-14
 -1      2853 1.44457E-02 2.32533E-03-4.11848E-14
 -1      2854 1.43708E-02 2.26711E-03-4.04201E-14
 -1      2855 1.41629E-02 2.20580E-03-4.13081E-14
 -1      2856 1.42570E-02 2.24589E-03-4.12687E-14
 -1      2857 1.41817E-02 2.18773E-03-4.05037E-14
 -1      2858 1.39709E-02 2.12307E-03-4.13886E-14
 -1      2859 1.40669E-02 2.16461E-03-4.13491E-14
 -1      2860 1.39911E-02 2.10615E-03-4.05833E-14
 -1      2861 1.37792E-02 2.03923E-03-4.14611E-14
 -1      2862 1.38750E-02 2.08125E-03-4.14261E-14
 -1      2863 1.37987E-02 2.02223E-03-4.06598E-14
 -1      2864 1.35208E-02 1.45559E-03-2.87376E-14
 -1      2865 1.34083E-02 1.39503E-03-2.79972E-14
 -1      2866 8.03082E-04 2.78208E-04-1.61763E-16
 -1      2867 1.13017E-02 4.52731E-04-2.47536E-14
 -1      2868 1.11158E-02 3.25330E-04-2.43367E-14
 -1      2869 8.56515E-03 6.71326E-04-1.74826E-14
 -1      2870 8.15307E-03 5.32770E-04-1.70283E-14
 -1      2871 8.10048E-03 5.34988E-04-1.69304E-14
 -1      2872 9.84607E-03-1.10523E-04-2.02235E-14
 -1      2873 9.69178E-03-5.49818E-05-1.97795E-14
 -1      2874 1.37561E-02 1.60236E-03-3.02457E-14
 -1      2875 1.36356E-02 1.52459E-03-2.94881E-14
 -1      2876 1.37908E-02 1.62388E-03-3.06858E-14
 -1      2877 1.41604E-03 4.07738E-04-4.51299E-16
 -1      2878 1.27299E-03 3.86730E-04-3.68100E-16
 -1      2879 1.18966E-03 3.41424E-04-3.37946E-16
 -1      2880 1.70117E-03 4.40364E-04-6.44992E-16
 -1      2881 1.55871E-03 4.25526E-04-5.43605E-16
 -1      2882 1.47610E-03 3.82079E-04-5.05984E-16
 -1      2883 1.76212E-03 4.11027E-04-7.09705E-16
 -1      2884 1.33070E-02 1.28698E-03-2.67957E-14
 -1      2885 1.33377E-02 1.28507E-03-2.69314E-14
 -1      2886 1.50793E-02 2.59067E-03-4.08507E-14
 -1      2887 1.51633E-02 2.62742E-03-4.07979E-14
 -1      2888 1.49157E-02 2.49290E-03-4.01340E-14
 -1      2889 9.50816E-03 1.66451E-05-1.92985E-14
 -1      2890 9.34137E-03 9.24717E-05-1.89038E-14
 -1      2891 1.01670E-02-1.54343E-04-2.12525E-14
 -1      2892 1.00205E-02-1.46046E-04-2.07604E-14
 -1      2893 7.84407E-04 1.23440E-04-1.88678E-16
 -1      2894 7.82020E-04 1.00006E-04-1.89546E-16
 -1      2895 8.99634E-04 9.94270E-05-2.40896E-16
 -1      2896 9.05372E-04 1.51562E-04-2.38701E-16
 -1      2897 7.81753E-04-9.79534E-05-1.73256E-16
 -1      2898 7.84063E-04-1.21302E-04-1.68200E-16
 -1      2899 1.33676E-02 1.83648E-03-4.09958E-14
 -1      2900 1.34627E-02 1.89940E-03-4.15849E-14
 -1      2901 1.33793E-02 1.82692E-03-4.05356E-14
 -1      2902 1.35698E-02 1.95238E-03-4.17104E-14
 -1      2903 9.10670E-03 1.92474E-04-1.83908E-14
 -1      2904 8.92533E-03 2.76814E-04-1.80679E-14
 -1      2905 1.18202E-02 7.69583E-04-2.56079E-14
 -1      2906 1.15690E-02 6.21559E-04-2.52422E-14
 -1      2907 1.28334E-02 1.20156E-03-2.67901E-14
 -1      2908 1.26472E-02 1.15056E-03-2.67111E-14
 -1      2909 1.29375E-02 1.24653E-03-2.72046E-14
 -1      2910 1.08520E-02 1.45899E-04-2.36041E-14
 -1      2911 1.06783E-02 2.86833E-05-2.30157E-14
 -1      2912 8.22051E-03 5.30826E-04-1.66504E-14
 -1      2913 8.36035E-03 5.64707E-04-1.68522E-14
 -1      2914 1.33379E-02 1.34785E-03-2.74269E-14
 -1      2915 9.04906E-04-1.49038E-04-2.11718E-16
 -1      2916 7.87123E-04-1.45445E-04-1.62563E-16
 -1      2917 7.91021E-04-1.70612E-04-1.56328E-16
 -1      2918 8.45958E-03 4.35521E-04-1.72674E-14
 -1      2919 8.95502E-04 1.00633E-06-2.37549E-16
 -1      2920 7.77660E-04-9.72202E-06-1.86090E-16
 -1      2921 7.78023E-04-3.13655E-05-1.83542E-16
 -1      2922 8.78679E-03 2.93022E-04-1.76605E-14
 -1      2923 7.78801E-04-5.31463E-05-1.80669E-16
 -1      2924 7.80018E-04-7.53312E-05-1.77213E-16
 -1      2925 8.99353E-04-9.70815E-05-2.23332E-16
 -1      2926 8.96396E-04-4.75212E-05-2.31748E-16
 -1      2927 8.06714E-03 5.12663E-04-1.66055E-14
 -1      2928 1.05813E-02-1.73089E-05-2.27936E-14
 -1      2929 1.02532E-02-1.45439E-04-2.15990E-14
 -1      2930 1.01456E-02-1.59825E-04-2.13016E-14
 -1      2931 1.03303E-02-1.22792E-04-2.19493E-14
 -1      2932 8.13976E-03 5.03750E-04-1.63514E-14
 -1      2933 1.33615E-02 1.31348E-03-2.74331E-14
 -1      2934 8.65686E-03 6.54915E-04-1.70767E-14
 -1      2935 1.32197E-02 1.30260E-03-2.74412E-14
 -1      2936 1.36651E-02 1.99459E-03-4.16780E-14
 -1      2937 2.04763E-03 4.31023E-04-9.49802E-16
 -1      2938 7.88876E-04-2.52430E-04-1.23938E-16
 -1      2939 9.20045E-04-2.88210E-04-1.62698E-16
 -1      2940 1.51079E-02 2.57219E-03-3.98823E-14
 -1      2941 1.34114E-02 1.35512E-03-2.78385E-14
 -1      2942 1.35884E-02 1.93470E-03-4.09106E-14
 -1      2943 1.35754E-02 1.47224E-03-2.91610E-14
 -1      2944 8.64851E-04 2.66523E-04-1.93869E-16
 -1      2945 1.24988E-02 1.10699E-03-2.67360E-14
 -1      2946 1.23547E-02 1.05563E-03-2.67617E-14
 -1      2947 1.26349E-02 1.16809E-03-2.71513E-14
 -1      2948 1.14617E-02 5.66910E-04-2.53006E-14
 -1      2949 8.18486E-03 5.09281E-04-1.69119E-14
 -1      2950 8.11723E-03 4.92265E-04-1.65899E-14
 -1      2951 8.22061E-03 4.80687E-04-1.67943E-14
 -1      2952 1.19584E-02 8.56657E-04-2.60713E-14
 -1      2953 9.82150E-04-2.73205E-04-1.98531E-16
 -1      2954 9.56456E-03-3.89742E-05-1.94027E-14
 -1      2955 9.82948E-04 2.75748E-04-2.48445E-16
 -1      2956 9.90109E-03-1.39945E-04-2.04183E-14
 -1      2957 9.17203E-03 1.21068E-04-1.84118E-14
 -1      2958 1.10546E-02 3.04725E-04-2.45374E-14
 -1      2959 1.09534E-02 2.26383E-04-2.40670E-14
 -1      2960 1.08126E-02 1.40643E-04-2.38022E-14
 -1      2961 8.43441E-03 5.77746E-04-1.68172E-14
 -1      2962 8.04807E-03 4.89556E-04-1.63536E-14
 -1      2963 8.03350E-03 4.86311E-04-1.62533E-14
 -1      2964 1.04029E-03 2.43239E-04-2.87964E-16
 -1      2965 1.03368E-03 2.11518E-04-2.92098E-16
 -1      2966 8.46036E-03 3.85585E-04-1.69839E-14
 -1      2967 8.32252E-03 4.38720E-04-1.68357E-14
 -1      2968 2.96926E-03 4.21110E-04-1.99724E-15
 -1      2969 2.82634E-03 4.19455E-04-1.81150E-15
 -1      2970 9.60561E-03-9.30481E-05-1.95078E-14
 -1      2971 9.44393E-03-3.61170E-05-1.90283E-14
 -1      2972 1.44459E-03-3.13646E-04-4.35334E-16
 -1      2973 1.58809E-03-3.28086E-04-5.23087E-16
 -1      2974 1.73168E-03-3.40296E-04-6.19391E-16
 -1      2975 1.87535E-03-3.50459E-04-7.24748E-16
 -1      2976 1.65238E-03-3.00001E-04-5.85361E-16
 -1      2977 2.01900E-03-3.58898E-04-8.39132E-16
 -1      2978 2.16265E-03-3.65764E-04-9.62514E-16
 -1      2979 1.94017E-03-3.19134E-04-7.98474E-16
 -1      2980 2.30624E-03-3.71335E-04-1.09488E-15
 -1      2981 2.44978E-03-3.75733E-04-1.23598E-15
 -1      2982 2.22819E-03-3.32140E-04-1.04704E-15
 -1      2983 2.59327E-03-3.79181E-04-1.38751E-15
 -1      2984 2.73670E-03-3.81776E-04-1.54904E-15
 -1      2985 2.51615E-03-3.40512E-04-1.33304E-15
 -1      2986 2.88007E-03-3.83688E-04-1.71847E-15
 -1      2987 3.02339E-03-3.84991E-04-1.89798E-15
 -1      2988 2.80388E-03-3.45473E-04-1.65617E-15
 -1      2989 3.16666E-03-3.85813E-04-2.08771E-15
 -1      2990 3.30987E-03-3.86208E-04-2.28634E-15
 -1      2991 3.09134E-03-3.47980E-04-2.01697E-15
 -1      2992 3.45305E-03-3.86269E-04-2.49522E-15
 -1      2993 3.59618E-03-3.86035E-04-2.71426E-15
 -1      2994 3.37850E-03-3.48758E-04-2.41646E-15
 -1      2995 3.73928E-03-3.85572E-04-2.94240E-15
 -1      2996 3.88234E-03-3.84905E-04-3.18094E-15
 -1      2997 3.66538E-03-3.48332E-04-2.85502E-15
 -1      2998 4.02538E-03-3.84083E-04-3.42878E-15
 -1      2999 4.16839E-03-3.83119E-04-3.68660E-15
 -1      3000 3.95199E-03-3.47077E-04-3.33259E-15
 -1      3001 4.31138E-03-3.82047E-04-3.95479E-15
 -1      3002 4.45434E-03-3.80876E-04-4.23149E-15
 -1      3003 4.23837E-03-3.45245E-04-3.84930E-15
 -1      3004 4.59730E-03-3.79629E-04-4.51637E-15
 -1      3005 4.74025E-03-3.78310E-04-4.81157E-15
 -1      3006 4.52456E-03-3.43002E-04-4.40305E-15
 -1      3007 4.88320E-03-3.76937E-04-5.11764E-15
 -1      3008 5.02615E-03-3.75513E-04-5.43280E-15
 -1      3009 4.81058E-03-3.40453E-04-4.99397E-15
 -1      3010 5.16913E-03-3.74055E-04-5.75759E-15
 -1      3011 5.31213E-03-3.72567E-04-6.09244E-15
 -1      3012 5.09651E-03-3.37666E-04-5.62434E-15
 -1      3013 5.45518E-03-3.71067E-04-6.43806E-15
 -1      3014 5.59830E-03-3.69566E-04-6.79506E-15
 -1      3015 5.38245E-03-3.34700E-04-6.29457E-15
 -1      3016 5.74151E-03-3.68084E-04-7.16286E-15
 -1      3017 5.88484E-03-3.66644E-04-7.54172E-15
 -1      3018 5.66853E-03-3.31623E-04-7.00828E-15
 -1      3019 6.02832E-03-3.65273E-04-7.93159E-15
 -1      3020 6.17200E-03-3.64007E-04-8.33373E-15
 -1      3021 5.95498E-03-3.28544E-04-7.76580E-15
 -1      3022 6.31593E-03-3.62883E-04-8.74658E-15
 -1      3023 6.46016E-03-3.61959E-04-9.16980E-15
 -1      3024 6.24214E-03-3.25639E-04-8.56861E-15
 -1      3025 6.60477E-03-3.61276E-04-9.60564E-15
 -1      3026 6.74980E-03-3.60923E-04-1.00514E-14
 -1      3027 6.53048E-03-3.23187E-04-9.41643E-15
 -1      3028 6.89537E-03-3.60945E-04-1.05076E-14
 -1      3029 7.04151E-03-3.61459E-04-1.09754E-14
 -1      3030 6.82064E-03-3.21603E-04-1.03074E-14
 -1      3031 7.18838E-03-3.62507E-04-1.14543E-14
 -1      3032 7.33595E-03-3.64229E-04-1.19424E-14
 -1      3033 7.11341E-03-3.21471E-04-1.12417E-14
 -1      3034 7.48441E-03-3.66648E-04-1.24398E-14
 -1      3035 7.63366E-03-3.69902E-04-1.29484E-14
 -1      3036 7.40966E-03-3.23541E-04-1.22181E-14
 -1      3037 7.78387E-03-3.73965E-04-1.34661E-14
 -1      3038 7.93484E-03-3.78912E-04-1.39917E-14
 -1      3039 7.71016E-03-3.28656E-04-1.32331E-14
 -1      3040 8.08669E-03-3.84622E-04-1.45287E-14
 -1      3041 8.23904E-03-3.90991E-04-1.50766E-14
 -1      3042 8.01527E-03-3.37512E-04-1.42852E-14
 -1      3043 8.39192E-03-3.97737E-04-1.56341E-14
 -1      3044 8.54481E-03-4.04421E-04-1.61993E-14
 -1      3045 8.32448E-03-3.50110E-04-1.53756E-14
 -1      3046 8.69758E-03-4.10511E-04-1.67730E-14
 -1      3047 8.84968E-03-4.15090E-04-1.73567E-14
 -1      3048 8.63598E-03-3.64807E-04-1.65018E-14
 -1      3049 9.00085E-03-4.17331E-04-1.79501E-14
 -1      3050 9.15073E-03-4.15827E-04-1.85514E-14
 -1      3051 8.94668E-03-3.77060E-04-1.76656E-14
 -1      3052 9.29904E-03-4.09538E-04-1.91630E-14
 -1      3053 9.44582E-03-3.96743E-04-1.97873E-14
 -1      3054 9.25293E-03-3.78523E-04-1.88670E-14
 -1      3055 9.59087E-03-3.76467E-04-2.04199E-14
 -1      3056 9.73498E-03-3.47291E-04-2.10622E-14
 -1      3057 9.55222E-03-3.57518E-04-2.01075E-14
 -1      3058 9.87811E-03-3.08628E-04-2.17160E-14
 -1      3059 1.00213E-02-2.60025E-04-2.23832E-14
 -1      3060 9.84520E-03-3.01874E-04-2.13879E-14
 -1      3061 1.01647E-02-2.01548E-04-2.30599E-14
 -1      3062 1.03092E-02-1.33916E-04-2.37492E-14
 -1      3063 1.01361E-02-2.04324E-04-2.27162E-14
 -1      3064 1.04550E-02-5.78400E-05-2.44540E-14
 -1      3065 1.06025E-02 2.51794E-05-2.51651E-14
 -1      3066 1.04302E-02-6.57489E-05-2.40935E-14
 -1      3067 1.07514E-02 1.14117E-04-2.58859E-14
 -1      3068 1.09019E-02 2.07282E-04-2.66175E-14
 -1      3069 1.07311E-02 1.04958E-04-2.55160E-14
 -1      3070 1.10536E-02 3.03691E-04-2.73591E-14
 -1      3071 1.12060E-02 4.01986E-04-2.81112E-14
 -1      3072 1.10387E-02 2.95609E-04-2.69770E-14
 -1      3073 1.13590E-02 5.01416E-04-2.88680E-14
 -1      3074 1.15119E-02 6.01180E-04-2.96335E-14
 -1      3075 1.13500E-02 4.94960E-04-2.84759E-14
 -1      3076 1.16647E-02 7.00815E-04-3.04122E-14
 -1      3077 1.18168E-02 7.99976E-04-3.11967E-14
 -1      3078 1.16615E-02 6.95468E-04-3.00091E-14
 -1      3079 1.19684E-02 8.98428E-04-3.19911E-14
 -1      3080 1.21190E-02 9.96134E-04-3.27961E-14
 -1      3081 1.19701E-02 8.93398E-04-3.15790E-14
 -1      3082 1.22689E-02 1.09301E-03-3.36072E-14
 -1      3083 1.24178E-02 1.18916E-03-3.44260E-14
 -1      3084 1.22745E-02 1.08763E-03-3.31836E-14
 -1      3085 1.25659E-02 1.28460E-03-3.52550E-14
 -1      3086 1.27131E-02 1.37949E-03-3.60928E-14
 -1      3087 1.25742E-02 1.27848E-03-3.48210E-14
 -1      3088 1.28597E-02 1.47387E-03-3.69359E-14
 -1      3089 1.30055E-02 1.56790E-03-3.77826E-14
 -1      3090 1.28698E-02 1.46683E-03-3.64909E-14
 -1      3091 1.31508E-02 1.66167E-03-3.86342E-14
 -1      3092 1.32955E-02 1.75531E-03-3.94907E-14
 -1      3093 1.31620E-02 1.65369E-03-3.81841E-14
 -1      3094 1.40112E-02 2.08961E-03-3.97853E-14
 -1      3095 1.41059E-02 2.12990E-03-3.97476E-14
 -1      3096 1.45589E-02 2.18064E-03-3.59570E-14
 -1      3097 1.44251E-02 2.08768E-03-3.51311E-14
 -1      3098 2.68338E-03 4.17120E-04-1.63504E-15
 -1      3099 2.54039E-03 4.14020E-04-1.46861E-15
 -1      3100 2.74986E-03 3.81149E-04-1.72997E-15
 -1      3101 3.54075E-03 4.23027E-04-2.83457E-15
 -1      3102 3.39790E-03 4.23109E-04-2.61141E-15
 -1      3103 3.82645E-03 4.22092E-04-3.30894E-15
 -1      3104 3.68361E-03 4.22677E-04-3.06699E-15
 -1      3105 3.60962E-03 3.85478E-04-2.95785E-15
 -1      3106 4.11215E-03 4.20367E-04-3.81891E-15
 -1      3107 3.96930E-03 4.21315E-04-3.55982E-15
 -1      3108 3.89586E-03 3.84376E-04-3.44128E-15
 -1      3109 4.39785E-03 4.18047E-04-4.36542E-15
 -1      3110 4.25500E-03 4.19274E-04-4.08774E-15
 -1      3111 4.18196E-03 3.82580E-04-3.96010E-15
 -1      3112 4.68356E-03 4.15234E-04-4.94654E-15
 -1      3113 4.54071E-03 4.16698E-04-4.65154E-15
 -1      3114 4.46792E-03 3.80258E-04-4.51412E-15
 -1      3115 4.96923E-03 4.11964E-04-5.56463E-15
 -1      3116 4.82640E-03 4.13656E-04-5.25109E-15
 -1      3117 4.75370E-03 3.77500E-04-5.10418E-15
 -1      3118 5.25479E-03 4.08231E-04-6.21909E-15
 -1      3119 5.11202E-03 4.10157E-04-5.88737E-15
 -1      3120 5.03926E-03 3.74346E-04-5.73128E-15
 -1      3121 5.54013E-03 4.04007E-04-6.91033E-15
 -1      3122 5.39749E-03 4.06183E-04-6.55945E-15
 -1      3123 5.32448E-03 3.70808E-04-6.39445E-15
 -1      3124 5.82500E-03 3.99279E-04-7.64147E-15
 -1      3125 5.68263E-03 4.01709E-04-7.27115E-15
 -1      3126 5.60913E-03 3.66900E-04-7.09660E-15
 -1      3127 6.10900E-03 3.94092E-04-8.41134E-15
 -1      3128 5.96712E-03 3.96744E-04-8.02150E-15
 -1      3129 5.89288E-03 3.62685E-04-7.83701E-15
 -1      3130 6.39146E-03 3.88628E-04-9.22174E-15
 -1      3131 6.25045E-03 3.91393E-04-8.81147E-15
 -1      3132 6.17515E-03 3.58325E-04-8.61915E-15
 -1      3133 6.67126E-03 3.83324E-04-1.00716E-14
 -1      3134 6.53174E-03 3.85948E-04-9.64178E-15
 -1      3135 6.45500E-03 3.54185E-04-9.44001E-15
 -1      3136 6.94666E-03 3.79075E-04-1.09591E-14
 -1      3137 6.80959E-03 3.81052E-04-1.05103E-14
 -1      3138 6.73097E-03 3.50967E-04-1.03004E-14
 -1      3139 7.21490E-03 3.77516E-04-1.18872E-14
 -1      3140 7.08180E-03 3.77936E-04-1.14185E-14
 -1      3141 7.00082E-03 3.49927E-04-1.12000E-14
 -1      3142 7.47192E-03 3.81416E-04-1.28511E-14
 -1      3143 7.34501E-03 3.78763E-04-1.23643E-14
 -1      3144 7.26119E-03 3.53147E-04-1.21380E-14
 -1      3145 7.71195E-03 3.95066E-04-1.38502E-14
 -1      3146 7.59433E-03 3.87050E-04-1.33456E-14
 -1      3147 7.50718E-03 3.63844E-04-1.31129E-14
 -1      3148 7.92729E-03 4.24415E-04-1.48826E-14
 -1      3149 7.82300E-03 4.07960E-04-1.43634E-14
 -1      3150 7.73187E-03 3.86495E-04-1.41224E-14
 -1      3151 8.08726E-03 4.71041E-04-1.58797E-14
 -1      3152 8.00095E-03 4.43451E-04-1.53452E-14
 -1      3153 7.90843E-03 4.22122E-04-1.50993E-14
 -1      3154 8.02933E-03 4.73698E-04-1.60327E-14
 -1      3155 1.36025E-02 1.49642E-03-2.95803E-14
 -1      3156 1.35132E-02 1.42744E-03-2.88253E-14
 -1      3157 1.42019E-02 2.17019E-03-3.97041E-14
 -1      3158 1.42972E-02 2.20975E-03-3.96612E-14
 -1      3159 1.40322E-02 2.07341E-03-3.89921E-14
 -1      3160 1.05878E-02 2.68269E-06-2.30256E-14
 -1      3161 1.04607E-02-6.95521E-05-2.24812E-14
 -1      3162 1.03490E-02-1.08848E-04-2.21746E-14
 -1      3163 7.69956E-04-2.02458E-04-1.36908E-16
 -1      3164 1.42940E-02 1.99597E-03-3.43134E-14
 -1      3165 1.41658E-02 1.90537E-03-3.35023E-14
 -1      3166 1.42952E-02 2.01573E-03-3.47787E-14
 -1      3167 1.48721E-02 2.44195E-03-3.92365E-14
 -1      3168 1.49787E-02 2.48401E-03-3.90348E-14
 -1      3169 1.48503E-02 2.39563E-03-3.81942E-14
 -1      3170 1.40418E-02 1.81720E-03-3.27007E-14
 -1      3171 1.39222E-02 1.73100E-03-3.19101E-14
 -1      3172 1.40447E-02 1.83945E-03-3.31560E-14
 -1      3173 1.43915E-02 2.24849E-03-3.96144E-14
 -1      3174 1.44847E-02 2.28651E-03-3.95686E-14
 -1      3175 1.42243E-02 2.15283E-03-3.89033E-14
 -1      3176 1.30463E-02 1.29635E-03-2.77434E-14
 -1      3177 1.28996E-02 1.26348E-03-2.76652E-14
 -1      3178 1.33066E-02 1.34837E-03-2.80644E-14
 -1      3179 1.31911E-02 1.32816E-03-2.79051E-14
 -1      3180 1.31672E-02 1.34974E-03-2.83722E-14
 -1      3181 1.38086E-02 1.64882E-03-3.11268E-14
 -1      3182 1.37015E-02 1.56974E-03-3.03540E-14
 -1      3183 1.38131E-02 1.67335E-03-3.15701E-14
 -1      3184 1.45764E-02 2.32378E-03-3.95226E-14
 -1      3185 1.46665E-02 2.36052E-03-3.94713E-14
 -1      3186 1.44119E-02 2.22854E-03-3.88096E-14
 -1      3187 1.38180E-02 2.00595E-03-3.98626E-14
 -1      3188 1.39146E-02 2.04803E-03-3.98241E-14
 -1      3189 1.38382E-02 1.99063E-03-3.90717E-14
 -1      3190 1.36252E-02 1.92075E-03-3.99347E-14
 -1      3191 1.37215E-02 1.96348E-03-3.98985E-14
 -1      3192 1.36442E-02 1.90542E-03-3.91430E-14
 -1      3193 2.11109E-03 3.98441E-04-1.02457E-15
 -1      3194 1.96786E-03 3.90577E-04-8.95456E-16
 -1      3195 1.01660E-03 6.81837E-05-2.98427E-16
 -1      3196 1.01543E-03 4.12085E-05-2.97505E-16
 -1      3197 1.21244E-02 9.57068E-04-2.66612E-14
 -1      3198 1.18987E-02 8.39260E-04-2.63808E-14
 -1      3199 8.77517E-03 2.35495E-04-1.74187E-14
 -1      3200 8.62266E-03 3.09842E-04-1.71777E-14
 -1      3201 2.39734E-03 4.09969E-04-1.31145E-15
 -1      3202 2.25425E-03 4.04858E-04-1.16340E-15
 -1      3203 2.46286E-03 3.75156E-04-1.39662E-15
 -1      3204 1.47278E-02 2.38364E-03-3.93819E-14
 -1      3205 1.48132E-02 2.41915E-03-3.93282E-14
 -1      3206 1.46864E-02 2.33286E-03-3.84876E-14
 -1      3207 1.45656E-02 2.28805E-03-3.86714E-14
 -1      3208 1.34626E-02 1.39150E-03-2.84167E-14
 -1      3209 1.33991E-02 1.34201E-03-2.78382E-14
 -1      3210 1.33649E-02 1.35023E-03-2.80073E-14
 -1      3211 1.34649E-02 1.41626E-03-2.88268E-14
 -1      3212 1.14501E-03 3.10510E-04-3.24109E-16
 -1      3213 1.08236E-03 2.71589E-04-3.02276E-16
 -1      3214 1.20145E-03 2.72986E-04-3.69699E-16
 -1      3215 1.28818E-03 3.32460E-04-4.01860E-16
 -1      3216 1.15851E-03-2.76883E-04-2.86135E-16
 -1      3217 1.30139E-03-2.96647E-04-3.56608E-16
 -1      3218 1.36546E-03-2.73051E-04-4.07796E-16
 -1      3219 9.23193E-03 4.48508E-05-1.84545E-14
 -1      3220 9.02570E-03 1.26910E-04-1.79465E-14
 -1      3221 3.25503E-03 4.22856E-04-2.39729E-15
 -1      3222 3.11216E-03 4.22223E-04-2.19212E-15
 -1      3223 3.03664E-03 3.84365E-04-2.10152E-15
 -1      3224 3.32322E-03 3.85611E-04-2.51108E-15
 -1      3225 1.16129E-02 6.74324E-04-2.59321E-14
 -1      3226 1.13709E-02 5.19193E-04-2.54360E-14
 -1      3227 9.92738E-03-1.62652E-04-2.05669E-14
 -1      3228 9.77149E-03-1.34784E-04-2.00323E-14
 -1      3229 9.64164E-03-1.33571E-04-1.96491E-14
 -1      3230 8.87873E-04-2.11784E-04-1.82336E-16
 -1      3231 1.01483E-03 1.44397E-05-2.95716E-16
 -1      3232 1.01479E-03-1.22300E-05-2.92911E-16
 -1      3233 1.13552E-03 3.01505E-05-3.60036E-16
 -1      3234 1.15311E-03 2.11787E-04-3.57014E-16
 -1      3235 1.02835E-03 1.81134E-04-2.94849E-16
 -1      3236 1.02417E-03 1.51808E-04-2.96787E-16
 -1      3237 8.22391E-03 4.34742E-04-1.65144E-14
 -1      3238 1.22762E-02 1.03446E-03-2.70759E-14
 -1      3239 1.13575E-02 5.16949E-04-2.57889E-14
 -1      3240 1.12065E-02 4.13748E-04-2.51611E-14
 -1      3241 1.10594E-02 3.16424E-04-2.48840E-14
 -1      3242 9.28464E-03-2.29362E-05-1.85511E-14
 -1      3243 1.36091E-02 1.52184E-03-3.00094E-14
 -1      3244 7.98114E-03 4.55208E-04-1.57833E-14
 -1      3245 1.02370E-03-1.49080E-04-2.67757E-16
 -1      3246 1.02775E-03-1.78313E-04-2.59924E-16
 -1      3247 1.47679E-02 2.33280E-03-3.74895E-14
 -1      3248 1.46409E-02 2.24412E-03-3.66562E-14
 -1      3249 1.45049E-02 2.16894E-03-3.62944E-14
 -1      3250 1.46646E-02 2.29329E-03-3.76903E-14
 -1      3251 1.29090E-02 1.28954E-03-2.82385E-14
 -1      3252 1.27780E-02 1.23359E-03-2.76935E-14
 -1      3253 1.26529E-02 1.19666E-03-2.77206E-14
 -1      3254 1.06851E-02 6.62163E-05-2.34825E-14
 -1      3255 1.05680E-02 2.68507E-06-2.31608E-14
 -1      3256 1.07824E-02 1.33219E-04-2.39407E-14
 -1      3257 1.33616E-02 1.38048E-03-2.84748E-14
 -1      3258 1.43142E-03 3.51239E-04-4.88325E-16
 -1      3259 1.38749E-03 3.20918E-04-4.70381E-16
 -1      3260 1.57477E-03 3.67146E-04-5.83694E-16
 -1      3261 1.35051E-02 1.86363E-03-3.98639E-14
 -1      3262 1.34271E-02 1.80468E-03-3.91071E-14
 -1      3263 2.17565E-03 3.65309E-04-1.10068E-15
 -1      3264 1.01839E-03 9.54375E-05-2.98793E-16
 -1      3265 1.13817E-03 8.85203E-05-3.62489E-16
 -1      3266 1.02086E-03 1.23198E-04-2.98156E-16
 -1      3267 8.85101E-03 1.58084E-04-1.74562E-14
 -1      3268 8.68224E-03 1.77037E-04-1.69714E-14
 -1      3269 8.90679E-03 8.17109E-05-1.74925E-14
 -1      3270 1.00874E-02-1.71689E-04-2.12460E-14
 -1      3271 1.00115E-02-1.72816E-04-2.09045E-14
 -1      3272 9.88040E-03-1.80864E-04-2.05099E-14
 -1      3273 1.17853E-02 7.80932E-04-2.65207E-14
 -1      3274 8.46433E-03 3.26238E-04-1.67446E-14
 -1      3275 1.84294E-03 3.86348E-04-7.88147E-16
 -1      3276 1.69963E-03 3.74988E-04-6.75797E-16
 -1      3277 1.65601E-03 3.44811E-04-6.54004E-16
 -1      3278 1.90657E-03 3.55437E-04-8.55327E-16
 -1      3279 8.05078E-03 4.72772E-04-1.62375E-14
 -1      3280 7.99265E-03 4.51093E-04-1.58873E-14
 -1      3281 8.06108E-03 4.52553E-04-1.61215E-14
 -1      3282 1.34930E-02 1.87241E-03-4.03234E-14
 -1      3283 1.01813E-03-9.29722E-05-2.80592E-16
 -1      3284 1.02051E-03-1.20682E-04-2.74737E-16
 -1      3285 1.14331E-03-1.45865E-04-3.30912E-16
 -1      3286 9.99660E-04-2.33124E-04-2.24958E-16
 -1      3287 1.06455E-03-2.15860E-04-2.64396E-16
 -1      3288 1.01532E-03-3.89287E-05-2.89536E-16
 -1      3289 1.01641E-03-6.57625E-05-2.85457E-16
 -1      3290 1.13792E-03-8.59596E-05-3.44559E-16
 -1      3291 1.03328E-02-1.08123E-04-2.22926E-14
 -1      3292 1.02123E-02-1.49489E-04-2.17644E-14
 -1      3293 1.00805E-02-1.77797E-04-2.13585E-14
 -1      3294 1.86188E-03-2.79817E-04-7.57383E-16
 -1      3295 2.00610E-03-2.87106E-04-8.73881E-16
 -1      3296 2.15040E-03-2.93113E-04-9.99174E-16
 -1      3297 2.29474E-03-2.97957E-04-1.13349E-15
 -1      3298 2.07299E-03-2.54396E-04-9.50900E-16
 -1      3299 2.43908E-03-3.01837E-04-1.27771E-15
 -1      3300 2.58337E-03-3.04848E-04-1.43145E-15
 -1      3301 2.36217E-03-2.63261E-04-1.22240E-15
 -1      3302 2.72762E-03-3.07153E-04-1.59318E-15
 -1      3303 2.87179E-03-3.08826E-04-1.76474E-15
 -1      3304 2.65138E-03-2.68801E-04-1.53009E-15
 -1      3305 3.01587E-03-3.09993E-04-1.94590E-15
 -1      3306 3.15987E-03-3.10710E-04-2.13685E-15
 -1      3307 2.94035E-03-2.71897E-04-1.87533E-15
 -1      3308 3.30378E-03-3.11073E-04-2.33787E-15
 -1      3309 3.44758E-03-3.11119E-04-2.54759E-15
 -1      3310 3.22895E-03-2.73240E-04-2.25847E-15
 -1      3311 3.59130E-03-3.10921E-04-2.76752E-15
 -1      3312 3.73492E-03-3.10502E-04-2.99739E-15
 -1      3313 3.51710E-03-2.73348E-04-2.68017E-15
 -1      3314 3.87845E-03-3.09915E-04-3.23594E-15
 -1      3315 4.02189E-03-3.09172E-04-3.48517E-15
 -1      3316 3.80479E-03-2.72595E-04-3.14030E-15
 -1      3317 4.16525E-03-3.08311E-04-3.74454E-15
 -1      3318 4.30852E-03-3.07337E-04-4.01267E-15
 -1      3319 4.09202E-03-2.71235E-04-3.63960E-15
 -1      3320 4.45172E-03-3.06276E-04-4.28909E-15
 -1      3321 4.59485E-03-3.05128E-04-4.57490E-15
 -1      3322 4.37882E-03-2.69434E-04-4.17567E-15
 -1      3323 4.73792E-03-3.03910E-04-4.87049E-15
 -1      3324 4.88093E-03-3.02619E-04-5.17648E-15
 -1      3325 4.66522E-03-2.67287E-04-4.74867E-15
 -1      3326 5.02389E-03-3.01268E-04-5.49128E-15
 -1      3327 5.16682E-03-2.99854E-04-5.81600E-15
 -1      3328 4.95128E-03-2.64837E-04-5.35890E-15
 -1      3329 5.30974E-03-2.98384E-04-6.15213E-15
 -1      3330 5.45265E-03-2.96860E-04-6.49798E-15
 -1      3331 5.23707E-03-2.62096E-04-6.00914E-15
 -1      3332 5.59559E-03-2.95288E-04-6.85424E-15
 -1      3333 5.73859E-03-2.93676E-04-7.22268E-15
 -1      3334 5.52273E-03-2.59061E-04-6.70216E-15
 -1      3335 5.88167E-03-2.92031E-04-7.60160E-15
 -1      3336 6.02490E-03-2.90372E-04-7.99102E-15
 -1      3337 5.80846E-03-2.55726E-04-7.43779E-15
 -1      3338 6.16832E-03-2.88711E-04-8.39213E-15
 -1      3339 6.31200E-03-2.87086E-04-8.80456E-15
 -1      3340 6.09457E-03-2.52118E-04-8.21732E-15
 -1      3341 6.45603E-03-2.85513E-04-9.22816E-15
 -1      3342 6.60049E-03-2.84062E-04-9.66324E-15
 -1      3343 6.38155E-03-2.48319E-04-9.04119E-15
 -1      3344 6.74550E-03-2.82752E-04-1.01085E-14
 -1      3345 6.89115E-03-2.81700E-04-1.05638E-14
 -1      3346 6.67012E-03-2.44530E-04-9.90969E-15
 -1      3347 7.03762E-03-2.80930E-04-1.10314E-14
 -1      3348 7.18500E-03-2.80617E-04-1.15095E-14
 -1      3349 6.96124E-03-2.41133E-04-1.08223E-14
 -1      3350 7.33350E-03-2.80789E-04-1.19976E-14
 -1      3351 7.48317E-03-2.81682E-04-1.24948E-14
 -1      3352 7.25617E-03-2.38792E-04-1.17763E-14
 -1      3353 7.63424E-03-2.83321E-04-1.30014E-14
 -1      3354 7.78668E-03-2.85979E-04-1.35185E-14
 -1      3355 7.55632E-03-2.38538E-04-1.27710E-14
 -1      3356 7.94071E-03-2.89660E-04-1.40421E-14
 -1      3357 8.09609E-03-2.94578E-04-1.45752E-14
 -1      3358 7.86305E-03-2.41800E-04-1.38012E-14
 -1      3359 8.25296E-03-3.00677E-04-1.51205E-14
 -1      3360 8.41083E-03-3.07902E-04-1.56739E-14
 -1      3361 8.17711E-03-2.50180E-04-1.48668E-14
 -1      3362 8.56969E-03-3.15999E-04-1.62341E-14
 -1      3363 8.72874E-03-3.24436E-04-1.68031E-14
 -1      3364 8.49793E-03-2.64638E-04-1.59680E-14
 -1      3365 8.88775E-03-3.32623E-04-1.73836E-14
 -1      3366 9.04583E-03-3.39167E-04-1.79727E-14
 -1      3367 8.82277E-03-2.83941E-04-1.71041E-14
 -1      3368 9.20259E-03-3.43024E-04-1.85699E-14
 -1      3369 9.35756E-03-3.42099E-04-1.91788E-14
 -1      3370 9.14658E-03-3.02248E-04-1.82772E-14
 -1      3371 9.51022E-03-3.35194E-04-1.97961E-14
 -1      3372 9.66103E-03-3.19414E-04-2.04237E-14
 -1      3373 9.46374E-03-3.07454E-04-1.94880E-14
 -1      3374 9.80965E-03-2.93482E-04-2.10632E-14
 -1      3375 9.95772E-03-2.56304E-04-2.17121E-14
 -1      3376 9.77143E-03-2.82211E-04-2.07389E-14
 -1      3377 1.01052E-02-2.07422E-04-2.23751E-14
 -1      3378 1.02536E-02-1.46746E-04-2.30490E-14
 -1      3379 1.00723E-02-2.09625E-04-2.20356E-14
 -1      3380 1.04029E-02-7.47566E-05-2.37360E-14
 -1      3381 1.05547E-02 6.26498E-06-2.44364E-14
 -1      3382 1.03743E-02-8.52142E-05-2.33824E-14
 -1      3383 1.07084E-02 9.49856E-05-2.51463E-14
 -1      3384 1.08641E-02 1.89208E-04-2.58641E-14
 -1      3385 1.06838E-02 8.34067E-05-2.47757E-14
 -1      3386 1.10217E-02 2.87614E-04-2.65955E-14
 -1      3387 1.11803E-02 3.87969E-04-2.73372E-14
 -1      3388 1.10031E-02 2.78823E-04-2.62148E-14
 -1      3389 1.13396E-02 4.89438E-04-2.80847E-14
 -1      3390 1.14987E-02 5.90790E-04-2.88412E-14
 -1      3391 1.13280E-02 4.84285E-04-2.76939E-14
 -1      3392 1.16574E-02 6.91573E-04-2.96073E-14
 -1      3393 1.18150E-02 7.91354E-04-3.03841E-14
 -1      3394 1.16526E-02 6.88868E-04-2.92094E-14
 -1      3395 1.19714E-02 8.89946E-04-3.11682E-14
 -1      3396 1.21264E-02 9.87410E-04-3.19612E-14
 -1      3397 1.19726E-02 8.88046E-04-3.07585E-14
 -1      3398 1.22799E-02 1.08370E-03-3.27623E-14
 -1      3399 1.24319E-02 1.17908E-03-3.35723E-14
 -1      3400 1.22855E-02 1.08130E-03-3.23432E-14
 -1      3401 1.25826E-02 1.27355E-03-3.43906E-14
 -1      3402 1.27319E-02 1.36741E-03-3.52163E-14
 -1      3403 1.25913E-02 1.26992E-03-3.39608E-14
 -1      3404 1.28801E-02 1.46071E-03-3.60507E-14
 -1      3405 1.30272E-02 1.55368E-03-3.68901E-14
 -1      3406 1.28907E-02 1.45559E-03-3.56121E-14
 -1      3407 1.31549E-02 1.63305E-03-3.75725E-14
 -1      3408 1.33005E-02 1.72560E-03-3.84204E-14
 -1      3409 1.34211E-02 1.78378E-03-3.84913E-14
 -1      3410 1.31666E-02 1.62663E-03-3.71263E-14
 -1      3411 1.35179E-02 1.82760E-03-3.84563E-14
 -1      3412 1.36152E-02 1.87106E-03-3.84244E-14
 -1      3413 1.33911E-02 1.74977E-03-3.77754E-14
 -1      3414 3.96549E-03 3.46571E-04-3.57429E-15
 -1      3415 3.82219E-03 3.47264E-04-3.32342E-15
 -1      3416 3.67882E-03 3.47777E-04-3.08109E-15
 -1      3417 3.53538E-03 3.48091E-04-2.84863E-15
 -1      3418 3.74834E-03 3.09981E-04-3.20535E-15
 -1      3419 4.53800E-03 3.42507E-04-4.66330E-15
 -1      3420 4.39498E-03 3.43688E-04-4.37753E-15
 -1      3421 4.82378E-03 3.39880E-04-5.26241E-15
 -1      3422 4.68093E-03 3.41237E-04-4.95806E-15
 -1      3423 4.60812E-03 3.04837E-04-4.81295E-15
 -1      3424 5.10913E-03 3.36935E-04-5.89759E-15
 -1      3425 4.96651E-03 3.38447E-04-5.57524E-15
 -1      3426 4.89380E-03 3.02416E-04-5.41997E-15
 -1      3427 5.39388E-03 3.33714E-04-6.57050E-15
 -1      3428 5.25159E-03 3.35358E-04-6.22981E-15
 -1      3429 5.17885E-03 2.99773E-04-6.06488E-15
 -1      3430 5.67776E-03 3.30290E-04-7.28253E-15
 -1      3431 5.53595E-03 3.32025E-04-6.92107E-15
 -1      3432 5.46306E-03 2.96993E-04-6.74723E-15
 -1      3433 5.96028E-03 3.26816E-04-8.03433E-15
 -1      3434 5.81922E-03 3.28555E-04-7.65374E-15
 -1      3435 5.74608E-03 2.94220E-04-7.46920E-15
 -1      3436 6.24073E-03 3.23599E-04-8.82703E-15
 -1      3437 6.10081E-03 3.25166E-04-8.42508E-15
 -1      3438 6.02733E-03 2.91715E-04-8.23269E-15
 -1      3439 6.51795E-03 3.21207E-04-9.65940E-15
 -1      3440 6.37982E-03 3.22282E-04-9.23857E-15
 -1      3441 6.30597E-03 2.89946E-04-9.03624E-15
 -1      3442 6.79022E-03 3.20628E-04-1.05307E-14
 -1      3443 6.65482E-03 3.20664E-04-1.00901E-14
 -1      3444 6.58069E-03 2.89705E-04-9.87943E-15
 -1      3445 7.05497E-03 3.23482E-04-1.14412E-14
 -1      3446 6.92372E-03 3.21591E-04-1.09807E-14
 -1      3447 6.84960E-03 2.92276E-04-1.07623E-14
 -1      3448 7.30843E-03 3.32261E-04-1.23918E-14
 -1      3449 7.18338E-03 3.27100E-04-1.19122E-14
 -1      3450 7.10997E-03 2.99633E-04-1.16847E-14
 -1      3451 7.54528E-03 3.50521E-04-1.33763E-14
 -1      3452 7.42935E-03 3.40220E-04-1.28797E-14
 -1      3453 7.35798E-03 3.14635E-04-1.26464E-14
 -1      3454 7.75809E-03 3.82779E-04-1.43963E-14
 -1      3455 7.65533E-03 3.65106E-04-1.38822E-14
 -1      3456 7.58833E-03 3.41097E-04-1.36429E-14
 -1      3457 7.91369E-03 4.25625E-04-1.53166E-14
 -1      3458 7.84227E-03 4.03596E-04-1.48544E-14
 -1      3459 7.78245E-03 3.80679E-04-1.46081E-14
 -1      3460 7.93674E-03 4.33556E-04-1.55335E-14
 -1      3461 1.38608E-02 1.97631E-03-3.82807E-14
 -1      3462 1.39583E-02 2.01731E-03-3.82382E-14
 -1      3463 1.18408E-03-2.15401E-04-3.28012E-16
 -1      3464 1.42917E-02 2.03476E-03-3.52439E-14
 -1      3465 1.41642E-02 1.94664E-03-3.44251E-14
 -1      3466 1.34784E-02 1.45000E-03-2.93031E-14
 -1      3467 1.34195E-02 1.41391E-03-2.88883E-14
 -1      3468 1.33581E-02 1.41075E-03-2.89481E-14
 -1      3469 1.40403E-02 1.86081E-03-3.36148E-14
 -1      3470 1.39207E-02 1.77703E-03-3.28112E-14
 -1      3471 1.40308E-02 1.88017E-03-3.40717E-14
 -1      3472 1.40553E-02 2.05728E-03-3.81973E-14
 -1      3473 1.41514E-02 2.09614E-03-3.81511E-14
 -1      3474 1.38852E-02 1.96194E-03-3.74899E-14
 -1      3475 1.32587E-02 1.39335E-03-2.89106E-14
 -1      3476 1.31228E-02 1.36132E-03-2.87483E-14
 -1      3477 1.38062E-02 1.69692E-03-3.20152E-14
 -1      3478 1.36979E-02 1.61971E-03-3.12297E-14
 -1      3479 1.37920E-02 1.71774E-03-3.24642E-14
 -1      3480 8.20430E-03 3.89765E-04-1.62014E-14
 -1      3481 8.12505E-03 4.27485E-04-1.61625E-14
 -1      3482 8.03828E-03 4.14096E-04-1.58135E-14
 -1      3483 1.42462E-02 2.13384E-03-3.81061E-14
 -1      3484 1.43392E-02 2.17048E-03-3.80581E-14
 -1      3485 1.40796E-02 2.03989E-03-3.74048E-14
 -1      3486 2.24127E-03 3.31603E-04-1.17752E-15
 -1      3487 2.09722E-03 3.25865E-04-1.03875E-15
 -1      3488 4.25189E-03 3.44765E-04-4.10072E-15
 -1      3489 4.10873E-03 3.45734E-04-3.83291E-15
 -1      3490 4.03534E-03 3.08728E-04-3.70664E-15
 -1      3491 4.32194E-03 3.06970E-04-4.24132E-15
 -1      3492 2.52929E-03 3.39874E-04-1.48280E-15
 -1      3493 2.38530E-03 3.36237E-04-1.32545E-15
 -1      3494 2.30784E-03 2.97372E-04-1.25528E-15
 -1      3495 2.81710E-03 3.44804E-04-1.82569E-15
 -1      3496 2.67323E-03 3.42702E-04-1.64968E-15
 -1      3497 2.59654E-03 3.04189E-04-1.56987E-15
 -1      3498 1.24447E-02 1.11917E-03-2.76191E-14
 -1      3499 1.22402E-02 1.02917E-03-2.75161E-14
 -1      3500 1.26021E-02 1.19173E-03-2.81667E-14
 -1      3501 1.57403E-03-2.60584E-04-5.51114E-16
 -1      3502 1.71784E-03-2.71024E-04-6.49789E-16
 -1      3503 1.78427E-03-2.41131E-04-7.16224E-16
 -1      3504 9.31508E-03-9.22028E-05-1.86223E-14
 -1      3505 9.12579E-03-2.75038E-05-1.80528E-14
 -1      3506 1.30704E-03-2.32453E-04-3.91736E-16
 -1      3507 1.44999E-03-2.46305E-04-4.74637E-16
 -1      3508 1.51622E-03-2.19967E-04-5.30880E-16
 -1      3509 1.26958E-03-1.92109E-04-3.86125E-16
 -1      3510 1.35654E-02 1.51721E-03-3.00749E-14
 -1      3511 1.19778E-02 8.96020E-04-2.72769E-14
 -1      3512 1.17194E-02 7.45989E-04-2.68197E-14
 -1      3513 1.36890E-02 1.90291E-03-3.83709E-14
 -1      3514 1.37867E-02 1.94542E-03-3.83353E-14
 -1      3515 1.37121E-02 1.89004E-03-3.75846E-14
 -1      3516 1.35629E-02 1.82639E-03-3.76909E-14
 -1      3517 9.68038E-03-1.73243E-04-1.98361E-14
 -1      3518 9.52848E-03-1.43439E-04-1.93119E-14
 -1      3519 8.42325E-03 2.64545E-04-1.63923E-14
 -1      3520 8.29228E-03 3.27737E-04-1.62039E-14
 -1      3521 1.34435E-03 2.91337E-04-4.52180E-16
 -1      3522 1.30199E-03 2.62476E-04-4.33803E-16
 -1      3523 1.48768E-03 3.07109E-04-5.43619E-16
 -1      3524 1.29520E-03 2.27605E-04-4.37896E-16
 -1      3525 1.04257E-02-6.54766E-05-2.27377E-14
 -1      3526 1.02917E-02-1.20288E-04-2.23190E-14
 -1      3527 1.05178E-02-1.53804E-05-2.31885E-14
 -1      3528 1.15523E-02 6.43514E-04-2.65348E-14
 -1      3529 1.13973E-02 5.43049E-04-2.62522E-14
 -1      3530 1.17439E-02 7.60618E-04-2.72919E-14
 -1      3531 1.25751E-03 4.78303E-05-4.30916E-16
 -1      3532 1.25677E-03 1.67746E-05-4.28585E-16
 -1      3533 8.99372E-03-7.22813E-05-1.76184E-14
 -1      3534 8.95981E-03 1.88183E-06-1.75571E-14
 -1      3535 8.79510E-03 2.54080E-05-1.70668E-14
 -1      3536 9.36320E-03-1.45836E-04-1.87988E-14
 -1      3537 1.21503E-02 9.89128E-04-2.78229E-14
 -1      3538 1.45478E-02 2.25025E-03-3.78822E-14
 -1      3539 1.46070E-02 2.27187E-03-3.77883E-14
 -1      3540 1.45281E-02 2.21064E-03-3.70890E-14
 -1      3541 3.46095E-03 3.10528E-04-2.74014E-15
 -1      3542 3.39186E-03 3.48148E-04-2.62563E-15
 -1      3543 3.24828E-03 3.47921E-04-2.41129E-15
 -1      3544 9.76284E-03-1.93163E-04-2.01643E-14
 -1      3545 9.64594E-03-2.07325E-04-1.98190E-14
 -1      3546 9.83885E-03-2.05586E-04-2.04965E-14
 -1      3547 7.92229E-03 4.19564E-04-1.54193E-14
 -1      3548 1.13544E-03-2.76957E-05-3.53978E-16
 -1      3549 1.35428E-02 1.53948E-03-3.05062E-14
 -1      3550 1.44477E-02 2.15325E-03-3.65072E-14
 -1      3551 1.43702E-02 2.09181E-03-3.58138E-14
 -1      3552 1.42328E-02 2.02081E-03-3.54572E-14
 -1      3553 1.43898E-02 2.13316E-03-3.66042E-14
 -1      3554 1.09256E-02 2.29915E-04-2.45537E-14
 -1      3555 1.08015E-02 1.51299E-04-2.42256E-14
 -1      3556 1.10700E-02 3.27940E-04-2.51744E-14
 -1      3557 1.42398E-02 2.09976E-03-3.72714E-14
 -1      3558 1.44028E-02 2.19328E-03-3.79700E-14
 -1      3559 1.44650E-02 2.21559E-03-3.78799E-14
 -1      3560 1.33314E-02 1.42931E-03-2.93288E-14
 -1      3561 2.01914E-03 2.86675E-04-9.77544E-16
 -1      3562 1.95319E-03 3.18791E-04-9.08887E-16
 -1      3563 1.82746E-03 3.15428E-04-8.01646E-16
 -1      3564 1.31368E-02 1.39041E-03-2.93229E-14
 -1      3565 1.30263E-02 1.34131E-03-2.87791E-14
 -1      3566 1.29235E-02 1.31586E-03-2.88085E-14
 -1      3567 8.17620E-03 3.31304E-04-1.58553E-14
 -1      3568 1.14379E-03 1.48662E-04-3.61310E-16
 -1      3569 1.26514E-03-1.59205E-04-3.95463E-16
 -1      3570 1.38780E-03-1.71895E-04-4.66099E-16
 -1      3571 1.26170E-03-1.26952E-04-4.03920E-16
 -1      3572 2.96090E-03 3.46325E-04-2.01140E-15
 -1      3573 2.88501E-03 3.08152E-04-1.92203E-15
 -1      3574 3.10463E-03 3.47328E-04-2.20696E-15
 -1      3575 1.26117E-03 1.10457E-04-4.32935E-16
 -1      3576 1.25897E-03 7.89711E-05-4.32420E-16
 -1      3577 1.38068E-03 6.70651E-05-5.08098E-16
 -1      3578 8.54882E-03 1.31257E-04-1.64543E-14
 -1      3579 8.49188E-03 1.99505E-04-1.64231E-14
 -1      3580 8.31170E-03 2.09363E-04-1.58850E-14
 -1      3581 1.99614E-03-2.16191E-04-9.02734E-16
 -1      3582 2.14082E-03-2.21000E-04-1.03002E-15
 -1      3583 2.28562E-03-2.24927E-04-1.16638E-15
 -1      3584 2.43047E-03-2.28052E-04-1.31254E-15
 -1      3585 2.20950E-03-1.86953E-04-1.11098E-15
 -1      3586 2.57533E-03-2.30512E-04-1.46755E-15
 -1      3587 2.72016E-03-2.32374E-04-1.63130E-15
 -1      3588 2.49955E-03-1.92374E-04-1.40397E-15
 -1      3589 2.86491E-03-2.33752E-04-1.80440E-15
 -1      3590 3.00957E-03-2.34695E-04-1.98730E-15
 -1      3591 2.78962E-03-1.95620E-04-1.73391E-15
 -1      3592 3.15413E-03-2.35294E-04-2.17944E-15
 -1      3593 3.29856E-03-2.35583E-04-2.38168E-15
 -1      3594 3.07938E-03-1.97275E-04-2.10076E-15
 -1      3595 3.44287E-03-2.35631E-04-2.59298E-15
 -1      3596 3.58704E-03-2.35460E-04-2.81374E-15
 -1      3597 3.36867E-03-1.97793E-04-2.50565E-15
 -1      3598 3.73108E-03-2.35122E-04-3.04453E-15
 -1      3599 3.87499E-03-2.34627E-04-3.28428E-15
 -1      3600 3.65738E-03-1.97505E-04-2.94853E-15
 -1      3601 4.01875E-03-2.34014E-04-3.53435E-15
 -1      3602 4.16239E-03-2.33285E-04-3.79488E-15
 -1      3603 3.94548E-03-1.96645E-04-3.43047E-15
 -1      3604 4.30589E-03-2.32466E-04-4.06331E-15
 -1      3605 4.44927E-03-2.31555E-04-4.34003E-15
 -1      3606 4.23298E-03-1.95362E-04-3.94995E-15
 -1      3607 4.59253E-03-2.30568E-04-4.62636E-15
 -1      3608 4.73567E-03-2.29497E-04-4.92239E-15
 -1      3609 4.51987E-03-1.93736E-04-4.50550E-15
 -1      3610 4.87871E-03-2.28353E-04-5.22848E-15
 -1      3611 5.02165E-03-2.27124E-04-5.54328E-15
 -1      3612 4.80620E-03-1.91792E-04-5.09761E-15
 -1      3613 5.16449E-03-2.25814E-04-5.86782E-15
 -1      3614 5.30727E-03-2.24413E-04-6.20386E-15
 -1      3615 5.09202E-03-1.89509E-04-5.72776E-15
 -1      3616 5.44999E-03-2.22917E-04-6.55055E-15
 -1      3617 5.59269E-03-2.21318E-04-6.90729E-15
 -1      3618 5.37741E-03-1.86826E-04-6.39929E-15
 -1      3619 5.73538E-03-2.19611E-04-7.27502E-15
 -1      3620 5.87812E-03-2.17790E-04-7.65361E-15
 -1      3621 5.66250E-03-1.83652E-04-7.11387E-15
 -1      3622 6.02095E-03-2.15847E-04-8.04386E-15
 -1      3623 6.16393E-03-2.13792E-04-8.44434E-15
 -1      3624 5.94755E-03-1.79877E-04-7.87104E-15
 -1      3625 6.30714E-03-2.11612E-04-8.85547E-15
 -1      3626 6.45068E-03-2.09344E-04-9.27788E-15
 -1      3627 6.23294E-03-1.75394E-04-8.67176E-15
 -1      3628 6.59465E-03-2.06976E-04-9.71333E-15
 -1      3629 6.73919E-03-2.04587E-04-1.01584E-14
 -1      3630 6.51931E-03-1.70142E-04-9.51645E-15
 -1      3631 6.88446E-03-2.02171E-04-1.06137E-14
 -1      3632 7.03062E-03-1.99879E-04-1.10800E-14
 -1      3633 6.80758E-03-1.64188E-04-1.04068E-14
 -1      3634 7.17789E-03-1.97715E-04-1.15571E-14
 -1      3635 7.32647E-03-1.95934E-04-1.20443E-14
 -1      3636 7.09911E-03-1.57856E-04-1.13391E-14
 -1      3637 7.47663E-03-1.94566E-04-1.25411E-14
 -1      3638 7.62852E-03-1.93991E-04-1.30477E-14
 -1      3639 7.39569E-03-1.51927E-04-1.23116E-14
 -1      3640 7.78247E-03-1.94271E-04-1.35611E-14
 -1      3641 7.93850E-03-1.95904E-04-1.40838E-14
 -1      3642 7.69950E-03-1.47898E-04-1.33223E-14
 -1      3643 8.09692E-03-1.99005E-04-1.46144E-14
 -1      3644 8.25749E-03-2.04009E-04-1.51559E-14
 -1      3645 8.01276E-03-1.48237E-04-1.43658E-14
 -1      3646 8.42052E-03-2.10905E-04-1.57048E-14
 -1      3647 8.58510E-03-2.19935E-04-1.62604E-14
 -1      3648 8.33710E-03-1.56113E-04-1.54424E-14
 -1      3649 8.75135E-03-2.30880E-04-1.68276E-14
 -1      3650 8.91783E-03-2.43006E-04-1.74030E-14
 -1      3651 8.67212E-03-1.74329E-04-1.65533E-14
 -1      3652 9.08448E-03-2.55494E-04-1.79872E-14
 -1      3653 9.24951E-03-2.66234E-04-1.85805E-14
 -1      3654 9.01353E-03-2.02589E-04-1.76989E-14
 -1      3655 9.51146E-03-2.62177E-04-1.95146E-14
 -1      3656 9.67187E-03-2.60331E-04-2.01303E-14
 -1      3657 9.82969E-03-2.47055E-04-2.07597E-14
 -1      3658 1.00366E-02-2.11542E-04-2.17000E-14
 -1      3659 1.01895E-02-1.62221E-04-2.23576E-14
 -1      3660 1.03004E-02-1.15647E-04-2.27364E-14
 -1      3661 1.04571E-02-4.13136E-05-2.34135E-14
 -1      3662 1.07222E-02 1.09849E-04-2.44580E-14
 -1      3663 1.08888E-02 2.12189E-04-2.51660E-14
 -1      3664 1.13155E-02 4.79865E-04-2.73051E-14
 -1      3665 1.14820E-02 5.84507E-04-2.80524E-14
 -1      3666 1.16480E-02 6.87759E-04-2.88087E-14
 -1      3667 1.18120E-02 7.88928E-04-2.95756E-14
 -1      3668 1.16436E-02 6.87816E-04-2.84115E-14
 -1      3669 1.19743E-02 8.87986E-04-3.03505E-14
 -1      3670 1.21342E-02 9.85196E-04-3.11331E-14
 -1      3671 1.19769E-02 8.89708E-04-2.99430E-14
 -1      3672 1.22920E-02 1.08061E-03-3.19248E-14
 -1      3673 1.24474E-02 1.17474E-03-3.27242E-14
 -1      3674 1.22995E-02 1.08173E-03-3.15063E-14
 -1      3675 1.26008E-02 1.26768E-03-3.35340E-14
 -1      3676 1.27522E-02 1.35992E-03-3.43506E-14
 -1      3677 1.26113E-02 1.26696E-03-3.31067E-14
 -1      3678 1.29020E-02 1.45151E-03-3.51710E-14
 -1      3679 1.30503E-02 1.54284E-03-3.60052E-14
 -1      3680 1.29142E-02 1.44858E-03-3.47371E-14
 -1      3681 1.31573E-02 1.60745E-03-3.65504E-14
 -1      3682 1.32852E-02 1.68546E-03-3.72271E-14
 -1      3683 1.33831E-02 1.73033E-03-3.71947E-14
 -1      3684 1.31702E-02 1.60279E-03-3.61047E-14
 -1      3685 3.81819E-03 2.72110E-04-3.32949E-15
 -1      3686 3.67439E-03 2.72529E-04-3.08754E-15
 -1      3687 1.70751E-03-2.03341E-04-6.74875E-16
 -1      3688 1.85167E-03-2.10349E-04-7.84231E-16
 -1      3689 1.91995E-03-1.78649E-04-8.54351E-16
 -1      3690 4.96379E-03 2.65147E-04-5.57897E-15
 -1      3691 4.82113E-03 2.66238E-04-5.26573E-15
 -1      3692 4.67829E-03 2.67284E-04-4.96239E-15
 -1      3693 4.53528E-03 2.68286E-04-4.66786E-15
 -1      3694 4.74852E-03 2.29882E-04-5.11251E-15
 -1      3695 5.53212E-03 2.60692E-04-6.92445E-15
 -1      3696 5.39046E-03 2.61790E-04-6.57403E-15
 -1      3697 5.81427E-03 2.58733E-04-7.65813E-15
 -1      3698 5.67341E-03 2.59671E-04-7.28626E-15
 -1      3699 5.60114E-03 2.24829E-04-7.10400E-15
 -1      3700 6.09431E-03 2.57406E-04-8.43223E-15
 -1      3701 5.95460E-03 2.57974E-04-8.04039E-15
 -1      3702 5.88246E-03 2.23832E-04-7.84751E-15
 -1      3703 6.37130E-03 2.57344E-04-9.24705E-15
 -1      3704 6.23325E-03 2.57190E-04-8.83373E-15
 -1      3705 6.16142E-03 2.23867E-04-8.63274E-15
 -1      3706 6.64390E-03 2.59554E-04-1.01009E-14
 -1      3707 6.50825E-03 2.58125E-04-9.66883E-15
 -1      3708 6.43705E-03 2.25727E-04-9.45832E-15
 -1      3709 6.91019E-03 2.65583E-04-1.09954E-14
 -1      3710 6.77799E-03 2.62036E-04-1.05437E-14
 -1      3711 6.70807E-03 2.30620E-04-1.03249E-14
 -1      3712 7.16754E-03 2.77683E-04-1.19309E-14
 -1      3713 7.04022E-03 2.70809E-04-1.14581E-14
 -1      3714 6.97269E-03 2.40311E-04-1.12320E-14
 -1      3715 7.41241E-03 2.98919E-04-1.29026E-14
 -1      3716 7.29188E-03 2.87108E-04-1.24125E-14
 -1      3717 7.22866E-03 2.57241E-04-1.21774E-14
 -1      3718 7.64016E-03 3.33063E-04-1.39095E-14
 -1      3719 7.52894E-03 3.14409E-04-1.34010E-14
 -1      3720 7.47316E-03 2.84519E-04-1.31606E-14
 -1      3721 7.82152E-03 3.77783E-04-1.48202E-14
 -1      3722 7.73373E-03 3.53976E-04-1.43615E-14
 -1      3723 7.68942E-03 3.23175E-04-1.41144E-14
 -1      3724 1.37908E-03 1.42393E-06-5.02473E-16
 -1      3725 1.25673E-03-1.41503E-05-4.25061E-16
 -1      3726 1.25737E-03-4.51300E-05-4.20576E-16
 -1      3727 2.08608E-03 2.53870E-04-1.04718E-15
 -1      3728 1.94159E-03 2.47964E-04-9.17140E-16
 -1      3729 1.40172E-02 1.89760E-03-3.45289E-14
 -1      3730 1.38930E-02 1.81520E-03-3.37166E-14
 -1      3731 1.37137E-02 1.86669E-03-3.67870E-14
 -1      3732 1.38132E-02 1.90745E-03-3.67474E-14
 -1      3733 1.45233E-03 2.38031E-04-5.38293E-16
 -1      3734 1.30398E-03 1.90527E-04-4.50540E-16
 -1      3735 1.39119E-02 1.94664E-03-3.67043E-14
 -1      3736 1.40092E-02 1.98425E-03-3.66600E-14
 -1      3737 1.37425E-02 1.85381E-03-3.60079E-14
 -1      3738 2.66458E-03 2.68097E-04-1.65735E-15
 -1      3739 2.51997E-03 2.65709E-04-1.49087E-15
 -1      3740 9.37258E-03-1.99374E-04-1.88886E-14
 -1      3741 9.17446E-03-1.61302E-04-1.82028E-14
 -1      3742 1.27438E-02 1.25706E-03-2.87109E-14
 -1      3743 1.25592E-02 1.18617E-03-2.86070E-14
 -1      3744 1.28769E-02 1.31629E-03-2.92557E-14
 -1      3745 2.37532E-03 2.62609E-04-1.33379E-15
 -1      3746 2.23067E-03 2.58716E-04-1.18600E-15
 -1      3747 2.15392E-03 2.20397E-04-1.11760E-15
 -1      3748 2.44363E-03 2.27357E-04-1.41305E-15
 -1      3749 8.09185E-03 2.82294E-04-1.53985E-14
 -1      3750 8.02958E-03 3.36014E-04-1.53975E-14
 -1      3751 1.23740E-02 1.10574E-03-2.85627E-14
 -1      3752 1.21361E-02 9.84738E-04-2.83192E-14
 -1      3753 7.89443E-03 3.88311E-04-1.51672E-14
 -1      3754 1.37720E-02 1.73590E-03-3.29103E-14
 -1      3755 1.36555E-02 1.65946E-03-3.21132E-14
 -1      3756 1.37495E-02 1.75109E-03-3.33573E-14
 -1      3757 1.72012E-03 3.15899E-04-7.14381E-16
 -1      3758 1.59466E-03 3.09615E-04-6.20150E-16
 -1      3759 1.55223E-03 2.80429E-04-5.97856E-16
 -1      3760 1.76714E-03 2.81062E-04-7.62221E-16
 -1      3761 1.48538E-03-1.82361E-04-5.25594E-16
 -1      3762 1.60918E-03-1.93774E-04-6.06611E-16
 -1      3763 1.67719E-03-1.64693E-04-6.67719E-16
 -1      3764 1.48138E-03-1.47096E-04-5.35759E-16
 -1      3765 1.25798E-03-7.00986E-05-4.15859E-16
 -1      3766 1.25994E-03-1.01454E-04-4.09625E-16
 -1      3767 1.38209E-03-1.10917E-04-4.81928E-16
 -1      3768 1.37978E-03-5.77119E-05-4.93176E-16
 -1      3769 7.93346E-03 3.67101E-04-1.52069E-14
 -1      3770 5.24849E-03 2.62905E-04-6.23264E-15
 -1      3771 5.10625E-03 2.64036E-04-5.90088E-15
 -1      3772 5.31810E-03 2.26356E-04-6.40102E-15
 -1      3773 1.29961E-03 1.57096E-04-4.52465E-16
 -1      3774 1.19060E-02 8.55801E-04-2.80054E-14
 -1      3775 1.17492E-02 7.61519E-04-2.77140E-14
 -1      3776 8.20188E-03 1.78989E-04-1.54563E-14
 -1      3777 8.14889E-03 2.33547E-04-1.54286E-14
 -1      3778 7.99673E-03 2.47538E-04-1.49770E-14
 -1      3779 8.65300E-03-1.83379E-05-1.65696E-14
 -1      3780 8.60819E-03 5.59288E-05-1.65135E-14
 -1      3781 8.42556E-03 7.78787E-05-1.59688E-14
 -1      3782 1.36380E-02 1.83562E-03-3.68411E-14
 -1      3783 1.35648E-02 1.78221E-03-3.61025E-14
 -1      3784 1.35625E-02 1.80382E-03-3.68953E-14
 -1      3785 1.40926E-02 1.95129E-03-3.50951E-14
 -1      3786 1.39489E-02 1.88277E-03-3.47332E-14
 -1      3787 1.41694E-02 2.00582E-03-3.56637E-14
 -1      3788 9.94282E-03-2.15455E-04-2.10671E-14
 -1      3789 1.10764E-02 3.32823E-04-2.56018E-14
 -1      3790 1.10184E-02 2.92671E-04-2.59308E-14
 -1      3791 1.34576E-02 1.76331E-03-3.71449E-14
 -1      3792 1.11854E-02 3.98407E-04-2.66626E-14
 -1      3793 3.60038E-03 2.34917E-04-2.97159E-15
 -1      3794 3.53046E-03 2.72766E-04-2.85572E-15
 -1      3795 3.38642E-03 2.72805E-04-2.63267E-15
 -1      3796 1.43877E-02 2.15606E-03-3.71851E-14
 -1      3797 5.03379E-03 2.28104E-04-5.73836E-15
 -1      3798 1.00620E-02-1.87707E-04-2.14267E-14
 -1      3799 4.46245E-03 2.31564E-04-4.52354E-15
 -1      3800 4.39213E-03 2.69222E-04-4.38240E-15
 -1      3801 4.24884E-03 2.70092E-04-4.10591E-15
 -1      3802 7.85714E-03 3.23592E-04-1.47593E-14
 -1      3803 1.35117E-02 1.60266E-03-3.17743E-14
 -1      3804 1.35453E-02 1.58854E-03-3.13370E-14
 -1      3805 1.50243E-03 1.87061E-05-5.86391E-16
 -1      3806 1.50238E-03-1.57177E-05-5.81986E-16
 -1      3807 3.17317E-03 3.10064E-04-2.31259E-15
 -1      3808 1.13414E-02 5.00523E-04-2.70132E-14
 -1      3809 1.12044E-02 4.17516E-04-2.59412E-14
 -1      3810 1.55968E-03 2.39310E-04-6.13658E-16
 -1      3811 1.34101E-02 1.49229E-03-3.01773E-14
 -1      3812 1.39354E-02 1.91593E-03-3.56345E-14
 -1      3813 1.40983E-02 2.00634E-03-3.63251E-14
 -1      3814 2.80914E-03 2.69906E-04-1.83378E-15
 -1      3815 2.73336E-03 2.31653E-04-1.74613E-15
 -1      3816 2.95361E-03 2.71197E-04-2.01945E-15
 -1      3817 8.99746E-03-1.41047E-04-1.76208E-14
 -1      3818 1.90074E-03 2.19411E-04-8.87325E-16
 -1      3819 1.83347E-03 2.50666E-04-8.24116E-16
 -1      3820 1.72555E-03 2.52323E-04-7.36309E-16
 -1      3821 4.10542E-03 2.70870E-04-3.83825E-15
 -1      3822 3.96187E-03 2.71554E-04-3.58028E-15
 -1      3823 3.88833E-03 2.34212E-04-3.45351E-15
 -1      3824 4.17570E-03 2.33044E-04-3.97065E-15
 -1      3825 1.25254E-02 1.18018E-03-2.91114E-14
 -1      3826 1.42088E-03 1.48359E-04-5.31503E-16
 -1      3827 1.13877E-02 5.35288E-04-2.66892E-14
 -1      3828 1.21262E-02 9.79519E-04-2.87505E-14
 -1      3829 1.33069E-02 1.46908E-03-3.01400E-14
 -1      3830 9.43693E-03-2.44142E-04-1.91923E-14
 -1      3831 1.50492E-03 8.77006E-05-5.91608E-16
 -1      3832 1.50327E-03 5.31173E-05-5.89494E-16
 -1      3833 1.62668E-03 3.73803E-05-6.76583E-16
 -1      3834 1.32259E-02 1.45153E-03-3.01731E-14
 -1      3835 8.84409E-03-1.20928E-04-1.71254E-14
 -1      3836 1.06351E-02 5.25187E-05-2.37447E-14
 -1      3837 1.04956E-02-2.29533E-05-2.33117E-14
 -1      3838 1.02660E-02-1.28752E-04-2.23889E-14
 -1      3839 2.42418E-03-1.54500E-04-1.34059E-15
 -1      3840 2.56940E-03-1.56241E-04-1.49717E-15
 -1      3841 2.71461E-03-1.57581E-04-1.66318E-15
 -1      3842 2.85976E-03-1.58554E-04-1.83770E-15
 -1      3843 2.63993E-03-1.19707E-04-1.59183E-15
 -1      3844 3.00482E-03-1.59238E-04-2.02210E-15
 -1      3845 3.14977E-03-1.59654E-04-2.21592E-15
 -1      3846 2.93050E-03-1.21232E-04-1.94365E-15
 -1      3847 3.29458E-03-1.59867E-04-2.41881E-15
 -1      3848 3.43925E-03-1.59887E-04-2.63170E-15
 -1      3849 3.22067E-03-1.21887E-04-2.33235E-15
 -1      3850 3.58375E-03-1.59764E-04-2.85407E-15
 -1      3851 3.72809E-03-1.59502E-04-3.08521E-15
 -1      3852 3.51025E-03-1.21918E-04-2.75889E-15
 -1      3853 3.87227E-03-1.59137E-04-3.32622E-15
 -1      3854 4.01627E-03-1.58667E-04-3.57718E-15
 -1      3855 3.79915E-03-1.21496E-04-3.22298E-15
 -1      3856 4.16011E-03-1.58120E-04-3.83728E-15
 -1      3857 4.30378E-03-1.57485E-04-4.10671E-15
 -1      3858 4.08733E-03-1.20736E-04-3.72484E-15
 -1      3859 4.44728E-03-1.56781E-04-4.38446E-15
 -1      3860 4.59061E-03-1.55996E-04-4.67111E-15
 -1      3861 4.37477E-03-1.19692E-04-4.26391E-15
 -1      3862 4.73379E-03-1.55138E-04-4.96720E-15
 -1      3863 4.87681E-03-1.54190E-04-5.27306E-15
 -1      3864 4.66148E-03-1.18368E-04-4.83833E-15
 -1      3865 5.01968E-03-1.53156E-04-5.58893E-15
 -1      3866 5.16240E-03-1.52012E-04-5.91363E-15
 -1      3867 4.94748E-03-1.16724E-04-5.44982E-15
 -1      3868 5.30500E-03-1.50756E-04-6.24888E-15
 -1      3869 5.44748E-03-1.49361E-04-6.59584E-15
 -1      3870 5.23279E-03-1.14665E-04-6.10014E-15
 -1      3871 5.58986E-03-1.47814E-04-6.95302E-15
 -1      3872 5.73217E-03-1.46091E-04-7.32056E-15
 -1      3873 5.51748E-03-1.12046E-04-6.79278E-15
 -1      3874 5.87444E-03-1.44169E-04-7.69915E-15
 -1      3875 6.01672E-03-1.42025E-04-8.08841E-15
 -1      3876 5.80167E-03-1.08663E-04-7.52833E-15
 -1      3877 6.15906E-03-1.39629E-04-8.48883E-15
 -1      3878 6.30154E-03-1.36971E-04-8.89969E-15
 -1      3879 6.08559E-03-1.04259E-04-8.30624E-15
 -1      3880 6.44424E-03-1.34012E-04-9.32169E-15
 -1      3881 6.58730E-03-1.30772E-04-9.75560E-15
 -1      3882 6.36965E-03-9.85424E-05-9.12849E-15
 -1      3883 6.73084E-03-1.27208E-04-1.02004E-14
 -1      3884 6.87505E-03-1.23402E-04-1.06554E-14
 -1      3885 6.65456E-03-9.12373E-05-9.99409E-15
 -1      3886 7.02012E-03-1.19313E-04-1.11208E-14
 -1      3887 7.16632E-03-1.15135E-04-1.15969E-14
 -1      3888 6.94144E-03-8.22005E-05-1.09041E-14
 -1      3889 7.31391E-03-1.10843E-04-1.20829E-14
 -1      3890 7.46322E-03-1.06810E-04-1.25788E-14
 -1      3891 7.23202E-03-7.16365E-05-1.18544E-14
 -1      3892 7.61462E-03-1.03066E-04-1.30838E-14
 -1      3893 7.76841E-03-1.00229E-04-1.35957E-14
 -1      3894 7.52874E-03-6.04483E-05-1.28439E-14
 -1      3895 7.92510E-03-9.84057E-05-1.41166E-14
 -1      3896 8.08482E-03-9.85201E-05-1.46462E-14
 -1      3897 7.83483E-03-5.07974E-05-1.38686E-14
 -1      3898 8.32676E-03-7.43584E-05-1.54631E-14
 -1      3899 8.49583E-03-8.06931E-05-1.60115E-14
 -1      3900 8.66930E-03-1.06453E-04-1.65601E-14
 -1      3901 1.62646E-03 2.11311E-04-6.68451E-16
 -1      3902 1.32757E-02 1.65618E-03-3.62555E-14
 -1      3903 1.34571E-02 1.75240E-03-3.67495E-14
 -1      3904 1.33817E-02 1.69868E-03-3.60099E-14
 -1      3905 1.31689E-02 1.59288E-03-3.57130E-14
 -1      3906 1.19815E-02 8.93586E-04-2.95352E-14
 -1      3907 1.21470E-02 9.90689E-04-3.03095E-14
 -1      3908 1.23092E-02 1.08483E-03-3.10918E-14
 -1      3909 1.24679E-02 1.17712E-03-3.18812E-14
 -1      3910 1.23214E-02 1.09007E-03-3.06760E-14
 -1      3911 1.26237E-02 1.26778E-03-3.26788E-14
 -1      3912 1.27769E-02 1.35762E-03-3.34871E-14
 -1      3913 1.26384E-02 1.27030E-03-3.22542E-14
 -1      3914 1.28996E-02 1.43067E-03-3.41865E-14
 -1      3915 1.30489E-02 1.51979E-03-3.50055E-14
 -1      3916 1.31561E-02 1.57397E-03-3.51547E-14
 -1      3917 1.29148E-02 1.43023E-03-3.37503E-14
 -1      3918 1.84453E-03-1.41976E-04-8.06294E-16
 -1      3919 1.98909E-03-1.46081E-04-9.26383E-16
 -1      3920 1.43081E-02 2.10016E-03-3.66038E-14
 -1      3921 1.32502E-02 1.48734E-03-3.08536E-14
 -1      3922 1.30623E-02 1.40017E-03-3.00251E-14
 -1      3923 5.95088E-03 1.89477E-04-8.03668E-15
 -1      3924 5.81083E-03 1.89314E-04-7.65452E-15
 -1      3925 5.67025E-03 1.89397E-04-7.28311E-15
 -1      3926 5.52921E-03 1.89702E-04-6.92140E-15
 -1      3927 5.73957E-03 1.54378E-04-7.46251E-15
 -1      3928 6.50370E-03 1.94877E-04-9.67135E-15
 -1      3929 6.36684E-03 1.92594E-04-9.24762E-15
 -1      3930 6.77388E-03 2.02482E-04-1.05498E-14
 -1      3931 6.63946E-03 1.98150E-04-1.01050E-14
 -1      3932 6.57156E-03 1.64622E-04-9.88557E-15
 -1      3933 7.03809E-03 2.15693E-04-1.14675E-14
 -1      3934 6.90688E-03 2.08304E-04-1.10038E-14
 -1      3935 6.84178E-03 1.74863E-04-1.07766E-14
 -1      3936 7.29470E-03 2.36964E-04-1.24258E-14
 -1      3937 7.16756E-03 2.25233E-04-1.19419E-14
 -1      3938 7.10697E-03 1.91308E-04-1.17057E-14
 -1      3939 7.54208E-03 2.69101E-04-1.34180E-14
 -1      3940 7.41983E-03 2.51587E-04-1.29176E-14
 -1      3941 7.36641E-03 2.16241E-04-1.26745E-14
 -1      3942 7.75186E-03 3.04442E-04-1.43099E-14
 -1      3943 7.64814E-03 2.82937E-04-1.38556E-14
 -1      3944 7.60521E-03 2.44279E-04-1.36059E-14
 -1      3945 7.83135E-03 2.73111E-04-1.44938E-14
 -1      3946 1.34907E-02 1.62576E-03-3.24086E-14
 -1      3947 1.33699E-02 1.55489E-03-3.16271E-14
 -1      3948 1.32180E-02 1.50162E-03-3.14766E-14
 -1      3949 1.62601E-03-2.72327E-05-6.67977E-16
 -1      3950 1.50249E-03-4.33500E-05-5.77460E-16
 -1      3951 1.50311E-03-7.10717E-05-5.71917E-16
 -1      3952 3.24226E-03 2.72584E-04-2.41868E-15
 -1      3953 3.09799E-03 2.72076E-04-2.21417E-15
 -1      3954 3.02282E-03 2.33998E-04-2.11688E-15
 -1      3955 3.31186E-03 2.34946E-04-2.52557E-15
 -1      3956 6.22898E-03 1.90994E-04-8.83396E-15
 -1      3957 6.09030E-03 1.90025E-04-8.43099E-15
 -1      3958 6.01965E-03 1.55619E-04-8.22838E-15
 -1      3959 4.81884E-03 1.92656E-04-5.26357E-15
 -1      3960 4.67598E-03 1.93346E-04-4.95997E-15
 -1      3961 1.16828E-02 7.16721E-04-2.80459E-14
 -1      3962 1.18555E-02 8.20474E-04-2.88013E-14
 -1      3963 1.41630E-02 2.02780E-03-3.62368E-14
 -1      3964 1.15242E-02 6.20435E-04-2.73312E-14
 -1      3965 1.27308E-02 1.27833E-03-2.97955E-14
 -1      3966 1.25646E-02 1.20637E-03-2.97512E-14
 -1      3967 2.13395E-03-1.49494E-04-1.05540E-15
 -1      3968 2.27901E-03-1.52269E-04-1.19339E-15
 -1      3969 2.34928E-03-1.16986E-04-1.27758E-15
 -1      3970 2.05901E-03-1.12656E-04-9.99905E-16
 -1      3971 1.22458E-02 1.04617E-03-2.94825E-14
 -1      3972 1.20344E-02 9.26929E-04-2.91611E-14
 -1      3973 1.58416E-03 1.73771E-04-6.42620E-16
 -1      3974 1.54488E-03 1.22725E-04-6.18714E-16
 -1      3975 1.66774E-03 1.09164E-04-7.09393E-16
 -1      3976 1.74998E-03 1.83661E-04-7.67873E-16
 -1      3977 1.37436E-02 1.77909E-03-3.40176E-14
 -1      3978 1.36164E-02 1.70097E-03-3.32075E-14
 -1      3979 1.34763E-02 1.64767E-03-3.30552E-14
 -1      3980 1.29025E-02 1.34559E-03-2.99245E-14
 -1      3981 1.07708E-02 1.36657E-04-2.43520E-14
 -1      3982 1.35710E-02 1.76116E-03-3.53125E-14
 -1      3983 1.36734E-02 1.80123E-03-3.52718E-14
 -1      3984 1.01776E-02-1.60341E-04-2.19491E-14
 -1      3985 1.38191E-02 1.83001E-03-3.45809E-14
 -1      3986 5.38776E-03 1.90139E-04-6.57051E-15
 -1      3987 5.24596E-03 1.90694E-04-6.22962E-15
 -1      3988 5.45754E-03 1.54255E-04-6.74001E-15
 -1      3989 5.10385E-03 1.91309E-04-5.89748E-15
 -1      3990 4.96147E-03 1.91976E-04-5.57554E-15
 -1      3991 4.88926E-03 1.55628E-04-5.41413E-15
 -1      3992 5.17400E-03 1.54774E-04-6.05790E-15
 -1      3993 7.91440E-03 1.93228E-04-1.45535E-14
 -1      3994 7.87195E-03 2.35862E-04-1.45252E-14
 -1      3995 7.75134E-03 2.23342E-04-1.40767E-14
 -1      3996 8.22922E-03-1.85515E-05-1.52016E-14
 -1      3997 1.37229E-02 1.80742E-03-3.49101E-14
 -1      3998 1.69980E-03-1.13310E-04-7.02482E-16
 -1      3999 1.76981E-03-8.22433E-05-7.65393E-16
 -1      4000 1.05675E-02 1.85097E-05-2.39716E-14
 -1      4001 3.67068E-03 1.96999E-04-3.08694E-15
 -1      4002 3.52639E-03 1.97165E-04-2.85554E-15
 -1      4003 4.60352E-03 1.56614E-04-4.80802E-15
 -1      4004 4.53291E-03 1.94017E-04-4.66511E-15
 -1      4005 4.38965E-03 1.94668E-04-4.37974E-15
 -1      4006 6.29723E-03 1.58688E-04-9.03704E-15
 -1      4007 1.29296E-02 1.37237E-03-3.05742E-14
 -1      4008 1.76883E-03-2.22590E-05-7.77739E-16
 -1      4009 1.76905E-03-5.22219E-05-7.72128E-16
 -1      4010 1.91303E-03-7.86832E-05-8.83069E-16
 -1      4011 8.25063E-03 4.66453E-05-1.53577E-14
 -1      4012 8.20013E-03 1.12202E-04-1.53057E-14
 -1      4013 8.04459E-03 1.38772E-04-1.48568E-14
 -1      4014 8.01730E-03 1.34563E-05-1.45507E-14
 -1      4015 2.80284E-03 1.94869E-04-1.83553E-15
 -1      4016 2.65781E-03 1.93480E-04-1.65934E-15
 -1      4017 1.96703E-03 1.76283E-04-9.50588E-16
 -1      4018 1.85838E-03 1.80416E-04-8.56791E-16
 -1      4019 1.81688E-03 1.42138E-04-8.25796E-16
 -1      4020 1.47929E-03-1.19150E-04-5.42941E-16
 -1      4021 2.51273E-03 1.91627E-04-1.49345E-15
 -1      4022 2.36766E-03 1.89259E-04-1.33658E-15
 -1      4023 2.58257E-03 1.55465E-04-1.57445E-15
 -1      4024 3.95878E-03 1.96310E-04-3.57770E-15
 -1      4025 3.81481E-03 1.96712E-04-3.32774E-15
 -1      4026 3.74134E-03 1.59062E-04-3.20325E-15
 -1      4027 2.23969E-03 1.85123E-04-1.20593E-15
 -1      4028 2.09476E-03 1.81557E-04-1.06618E-15
 -1      4029 2.05334E-03 1.42210E-04-1.03085E-15
 -1      4030 2.30925E-03 1.50266E-04-1.27837E-15
 -1      4031 1.34146E-02 1.69780E-03-3.54212E-14
 -1      4032 1.34927E-02 1.73003E-03-3.53699E-14
 -1      4033 1.34221E-02 1.67913E-03-3.46366E-14
 -1      4034 1.24833E-02 1.17090E-03-3.00022E-14
 -1      4035 1.23832E-02 1.12220E-03-3.04242E-14
 -1      4036 1.25435E-02 1.21107E-03-3.12063E-14
 -1      4037 1.26851E-02 1.27360E-03-3.06977E-14
 -1      4038 1.76953E-03 5.22816E-05-7.87415E-16
 -1      4039 1.76876E-03 1.49915E-05-7.83051E-16
 -1      4040 1.91175E-03-9.17224E-06-8.96960E-16
 -1      4041 1.35543E-02 1.71859E-03-3.42225E-14
 -1      4042 5.24431E-03 1.18493E-04-6.21863E-15
 -1      4043 5.10222E-03 1.18609E-04-5.88700E-15
 -1      4044 2.85653E-03-8.33257E-05-1.86448E-15
 -1      4045 3.00182E-03-8.36801E-05-2.05070E-15
 -1      4046 3.14701E-03-8.39020E-05-2.24571E-15
 -1      4047 3.29205E-03-8.39968E-05-2.44984E-15
 -1      4048 3.07367E-03-4.59464E-05-2.15892E-15
 -1      4049 3.43694E-03-8.39988E-05-2.66406E-15
 -1      4050 3.58165E-03-8.39046E-05-2.88728E-15
 -1      4051 3.36387E-03-4.60354E-05-2.56888E-15
 -1      4052 3.72618E-03-8.37435E-05-3.11963E-15
 -1      4053 3.87052E-03-8.35084E-05-3.36139E-15
 -1      4054 3.65340E-03-4.58900E-05-3.01651E-15
 -1      4055 4.01467E-03-8.32200E-05-3.61310E-15
 -1      4056 4.15863E-03-8.28679E-05-3.87356E-15
 -1      4057 3.94218E-03-4.55757E-05-3.50117E-15
 -1      4058 4.30238E-03-8.24666E-05-4.14322E-15
 -1      4059 4.44595E-03-8.19989E-05-4.42172E-15
 -1      4060 4.23014E-03-4.51018E-05-4.02288E-15
 -1      4061 4.58931E-03-8.14732E-05-4.70934E-15
 -1      4062 4.73248E-03-8.08715E-05-5.00577E-15
 -1      4063 4.51729E-03-4.44371E-05-4.58107E-15
 -1      4064 4.87545E-03-8.01926E-05-5.31191E-15
 -1      4065 5.01822E-03-7.94129E-05-5.62773E-15
 -1      4066 4.80359E-03-4.35352E-05-5.17498E-15
 -1      4067 5.16080E-03-7.85224E-05-5.95283E-15
 -1      4068 5.30319E-03-7.74923E-05-6.28806E-15
 -1      4069 5.08904E-03-4.22863E-05-5.80565E-15
 -1      4070 5.44540E-03-7.63020E-05-6.63449E-15
 -1      4071 5.58743E-03-7.49164E-05-6.99115E-15
 -1      4072 5.37361E-03-4.05238E-05-6.47692E-15
 -1      4073 5.72929E-03-7.33014E-05-7.35795E-15
 -1      4074 5.87101E-03-7.14175E-05-7.73592E-15
 -1      4075 5.65731E-03-3.80041E-05-7.18888E-15
 -1      4076 6.01261E-03-6.92137E-05-8.12516E-15
 -1      4077 6.15415E-03-6.66509E-05-8.52492E-15
 -1      4078 5.94018E-03-3.43890E-05-7.94483E-15
 -1      4079 6.29565E-03-6.36587E-05-8.93613E-15
 -1      4080 6.43722E-03-6.02098E-05-9.35797E-15
 -1      4081 6.22236E-03-2.92351E-05-8.74414E-15
 -1      4082 6.57893E-03-5.62141E-05-9.79064E-15
 -1      4083 6.72094E-03-5.16806E-05-1.02344E-14
 -1      4084 6.50420E-03-2.20031E-05-9.58814E-15
 -1      4085 6.86337E-03-4.65030E-05-1.06887E-14
 -1      4086 7.00648E-03-4.07737E-05-1.11529E-14
 -1      4087 6.78634E-03-1.21125E-05-1.04742E-14
 -1      4088 7.15046E-03-3.43825E-05-1.16273E-14
 -1      4089 7.29572E-03-2.75915E-05-1.21121E-14
 -1      4090 7.06997E-03 9.13038E-07-1.14018E-14
 -1      4091 7.44254E-03-2.03083E-05-1.26065E-14
 -1      4092 7.59146E-03-1.30535E-05-1.31085E-14
 -1      4093 7.35715E-03 1.71326E-05-1.23689E-14
 -1      4094 7.72471E-03-2.52310E-06-1.35639E-14
 -1      4095 7.87883E-03 3.89927E-06-1.40835E-14
 -1      4096 7.89868E-03 6.36256E-05-1.42376E-14
 -1      4097 7.63292E-03 3.83632E-05-1.33160E-14
 -1      4098 5.80922E-03 1.19705E-04-7.64402E-15
 -1      4099 5.66860E-03 1.19065E-04-7.27169E-15
 -1      4100 1.32314E-02 1.61036E-03-3.52165E-14
 -1      4101 1.33391E-02 1.66283E-03-3.53616E-14
 -1      4102 1.32654E-02 1.61157E-03-3.46333E-14
 -1      4103 1.31122E-02 1.53915E-03-3.45133E-14
 -1      4104 1.57689E-03-1.27119E-04-6.08007E-16
 -1      4105 6.08901E-03 1.22126E-04-8.42142E-15
 -1      4106 5.94939E-03 1.20715E-04-8.02707E-15
 -1      4107 5.87932E-03 8.53163E-05-7.82644E-15
 -1      4108 1.26997E-02 1.29780E-03-3.19992E-14
 -1      4109 1.28526E-02 1.38381E-03-3.27975E-14
 -1      4110 1.27656E-02 1.32609E-03-3.17400E-14
 -1      4111 6.36644E-03 1.26716E-04-9.24135E-15
 -1      4112 6.22807E-03 1.24111E-04-8.82672E-15
 -1      4113 6.15908E-03 8.88943E-05-8.61561E-15
 -1      4114 6.91221E-03 1.47103E-04-1.10036E-14
 -1      4115 6.77710E-03 1.40181E-04-1.05479E-14
 -1      4116 6.64100E-03 1.34564E-04-1.01028E-14
 -1      4117 6.50414E-03 1.30181E-04-9.66685E-15
 -1      4118 6.43679E-03 9.49122E-05-9.44771E-15
 -1      4119 6.71225E-03 1.04450E-04-1.03198E-14
 -1      4120 7.44418E-03 1.93437E-04-1.29245E-14
 -1      4121 7.31247E-03 1.78630E-04-1.24311E-14
 -1      4122 7.65497E-03 2.12760E-04-1.37150E-14
 -1      4123 7.53844E-03 2.02007E-04-1.32783E-14
 -1      4124 7.48941E-03 1.59735E-04-1.30286E-14
 -1      4125 7.68645E-03 1.75674E-04-1.37423E-14
 -1      4126 1.30349E-02 1.42719E-03-3.11564E-14
 -1      4127 1.28773E-02 1.36273E-03-3.10237E-14
 -1      4128 1.27997E-02 1.33411E-03-3.12805E-14
 -1      4129 1.31696E-02 1.49944E-03-3.19353E-14
 -1      4130 2.05781E-03-8.07749E-05-1.00866E-15
 -1      4131 1.34301E-02 1.64593E-03-3.34743E-14
 -1      4132 1.32945E-02 1.56871E-03-3.26707E-14
 -1      4133 1.31175E-02 1.49120E-03-3.23435E-14
 -1      4134 1.33746E-02 1.63592E-03-3.38279E-14
 -1      4135 4.24620E-03 1.95272E-04-4.10356E-15
 -1      4136 4.10257E-03 1.95829E-04-3.83603E-15
 -1      4137 4.02949E-03 1.58446E-04-3.70231E-15
 -1      4138 4.31690E-03 1.57589E-04-4.23699E-15
 -1      4139 4.95983E-03 1.18803E-04-5.56453E-15
 -1      4140 4.81718E-03 1.19068E-04-5.25304E-15
 -1      4141 5.03056E-03 8.21864E-05-5.71656E-15
 -1      4142 7.17981E-03 1.66086E-04-1.19451E-14
 -1      4143 7.04654E-03 1.55709E-04-1.14691E-14
 -1      4144 6.98543E-03 1.18839E-04-1.12324E-14
 -1      4145 7.25684E-03 1.39545E-04-1.21855E-14
 -1      4146 5.52754E-03 1.18673E-04-6.91019E-15
 -1      4147 5.38610E-03 1.18510E-04-6.55957E-15
 -1      4148 5.31482E-03 8.24552E-05-6.37880E-15
 -1      4149 5.59781E-03 8.33643E-05-7.08145E-15
 -1      4150 2.94779E-03 1.95887E-04-2.02082E-15
 -1      4151 2.87296E-03 1.57799E-04-1.92522E-15
 -1      4152 3.09264E-03 1.96568E-04-2.21493E-15
 -1      4153 2.56571E-03-8.20896E-05-1.52111E-15
 -1      4154 2.71114E-03-8.27990E-05-1.68839E-15
 -1      4155 2.78294E-03-4.55681E-05-1.78595E-15
 -1      4156 3.45249E-03 1.59296E-04-2.74013E-15
 -1      4157 3.38195E-03 1.97166E-04-2.63274E-15
 -1      4158 3.23736E-03 1.96986E-04-2.41911E-15
 -1      4159 7.90947E-03 1.34906E-04-1.44062E-14
 -1      4160 2.94369E-03 1.20465E-04-2.01561E-15
 -1      4161 2.79844E-03 1.19809E-04-1.83097E-15
 -1      4162 4.67428E-03 1.19365E-04-4.95045E-15
 -1      4163 4.53115E-03 1.19692E-04-4.65608E-15
 -1      4164 4.74522E-03 8.22869E-05-5.09238E-15
 -1      4165 2.12013E-03 1.09020E-04-1.09358E-15
 -1      4166 1.99231E-03 1.05293E-04-9.76405E-16
 -1      4167 3.81234E-03 1.21126E-04-3.31912E-15
 -1      4168 3.66799E-03 1.21287E-04-3.07871E-15
 -1      4169 2.03713E-03 1.03089E-05-1.00969E-15
 -1      4170 2.03731E-03-2.90936E-05-1.00312E-15
 -1      4171 2.72428E-03 8.19678E-05-1.73856E-15
 -1      4172 2.65311E-03 1.18894E-04-1.65623E-15
 -1      4173 2.50775E-03 1.17710E-04-1.49038E-15
 -1      4174 1.32923E-02 1.60387E-03-3.38843E-14
 -1      4175 1.77626E-03 1.04667E-04-7.94151E-16
 -1      4176 3.59479E-03 8.33983E-05-2.95587E-15
 -1      4177 3.52345E-03 1.21357E-04-2.84771E-15
 -1      4178 3.37874E-03 1.21345E-04-2.62586E-15
 -1      4179 2.18270E-03-6.21179E-05-1.13017E-15
 -1      4180 1.91797E-03 8.32382E-05-9.11218E-16
 -1      4181 3.08885E-03 1.20928E-04-2.21017E-15
 -1      4182 3.01498E-03 8.29161E-05-2.10712E-15
 -1      4183 2.24813E-03 1.12455E-04-1.21733E-15
 -1      4184 2.18764E-03 7.51391E-05-1.15676E-15
 -1      4185 2.37625E-03 1.15599E-04-1.34841E-15
 -1      4186 3.29112E-03-8.06800E-06-2.47374E-15
 -1      4187 3.43609E-03-8.02510E-06-2.68931E-15
 -1      4188 3.62362E-03 1.87413E-05-2.98889E-15
 -1      4189 3.76816E-03 1.87775E-05-3.22531E-15
 -1      4190 4.15808E-03-7.60597E-06-3.90255E-15
 -1      4191 4.30186E-03-7.44934E-06-4.17258E-15
 -1      4192 4.48778E-03 1.90394E-05-4.54561E-15
 -1      4193 4.63105E-03 1.91786E-05-4.83668E-15
 -1      4194 4.77409E-03 1.93592E-05-5.13557E-15
 -1      4195 4.91690E-03 1.96227E-05-5.44565E-15
 -1      4196 5.05946E-03 1.99637E-05-5.76445E-15
 -1      4197 5.20177E-03 2.04334E-05-6.09205E-15
 -1      4198 5.34382E-03 2.10347E-05-6.43038E-15
 -1      4199 5.48560E-03 2.18337E-05-6.77830E-15
 -1      4200 5.62707E-03 2.28433E-05-7.13749E-15
 -1      4201 5.76827E-03 2.41495E-05-7.50664E-15
 -1      4202 5.90914E-03 2.57792E-05-7.88735E-15
 -1      4203 6.04972E-03 2.78413E-05-8.27923E-15
 -1      4204 6.18995E-03 3.03816E-05-8.68232E-15
 -1      4205 6.32992E-03 3.35312E-05-9.09589E-15
 -1      4206 6.46955E-03 3.73607E-05-9.52058E-15
 -1      4207 6.60900E-03 4.20107E-05-9.95555E-15
 -1      4208 6.74819E-03 4.75848E-05-1.03990E-14
 -1      4209 6.88740E-03 5.41961E-05-1.08545E-14
 -1      4210 7.02653E-03 6.19920E-05-1.13206E-14
 -1      4211 7.16607E-03 7.09703E-05-1.17955E-14
 -1      4212 7.30594E-03 8.13663E-05-1.22807E-14
 -1      4213 7.44688E-03 9.28232E-05-1.27748E-14
 -1      4214 1.29488E-02 1.41463E-03-3.20733E-14
 -1      4215 1.98568E-03 5.05056E-05-9.68315E-16
 -1      4216 1.29558E-02 1.44386E-03-3.34260E-14
 -1      4217 1.30763E-02 1.51416E-03-3.41235E-14
 -1      4218 2.75284E-03 1.82845E-05-1.76453E-15
 -1      4219 2.89829E-03 1.84293E-05-1.94495E-15
 -1      4220 1.30183E-02 1.46773E-03-3.31639E-14
 -1      4221 7.77966E-03 1.18717E-04-1.39429E-14
 -1      4222 1.30826E-02 1.48822E-03-3.28125E-14
 -1      4223 2.27494E-03-7.99491E-05-1.21492E-15
 -1      4224 2.42029E-03-8.11422E-05-1.36351E-15
 -1      4225 2.11076E-03 3.16497E-05-1.07981E-15
 -1      4226 3.04364E-03 1.85234E-05-2.13555E-15
 -1      4227 3.18887E-03 1.86088E-05-2.33467E-15
 -1      4228 3.95650E-03 1.20911E-04-3.56891E-15
 -1      4229 3.88364E-03 8.32267E-05-3.43599E-15
 -1      4230 4.10047E-03 1.20640E-04-3.82733E-15
 -1      4231 2.49198E-03-4.47944E-05-1.45085E-15
 -1      4232 3.16299E-03 1.58963E-04-2.31393E-15
 -1      4233 2.25454E-03-2.67120E-05-1.20848E-15
 -1      4234 2.27721E-03 1.19831E-05-1.23786E-15
 -1      4235 2.36891E-03-5.15046E-06-1.32853E-15
 -1      4236 3.23387E-03 1.21205E-04-2.41335E-15
 -1      4237 3.91250E-03 1.87977E-05-3.47156E-15
 -1      4238 2.60734E-03 1.81241E-05-1.59353E-15
 -1      4239 2.51438E-03-5.19546E-06-1.48439E-15
 -1      4240 4.41629E-03 5.63513E-05-4.41423E-15
 -1      4241 4.34501E-03 9.37981E-05-4.28284E-15
 -1      4242 3.26188E-03 5.66112E-05-2.44611E-15
 -1      4243 1.31809E-02 1.54526E-03-3.34402E-14
 -1      4244 4.05663E-03 1.88366E-05-3.72638E-15
 -1      4245 4.20135E-03 9.40231E-05-4.00897E-15
 -1      4246 2.23876E-03 3.37447E-05-1.20288E-15
 -1      4247 7.53614E-03 1.40988E-04-1.31583E-14
 -1      4248 7.59681E-03 7.57187E-05-1.32553E-14
 -1      4249 3.55164E-03 5.67003E-05-2.88272E-15
 -1      4250 2.44727E-03 7.96493E-05-1.42253E-15
 -1      4251 4.12891E-03 5.65039E-05-3.86693E-15
 -1      4252 1.32312E-02 1.58689E-03-3.42425E-14
 -1      4253 1.31537E-02 1.55093E-03-3.41834E-14
 -1      4254 2.35374E-03 5.60746E-05-1.32137E-15
 -1      4255 2.48531E-03 5.75245E-05-1.46179E-15
 -1      4256 3.30521E-03 8.33442E-05-2.51280E-15
 -1      4257 7.72577E-03 9.00180E-05-1.37116E-14
 -1      4258 3.40686E-03 5.66829E-05-2.65963E-15
 -1      4259 7.73766E-03 1.55396E-04-1.38764E-14
 -1      4260 7.63615E-03 1.47877E-04-1.35155E-14
 -3
    1PSTEP                         2           1           1          
  100CL  101 1.000000000        4260                     0    1           1
 -4  STRESS      6    1
 -5  SXX         1    4    1    1
 -5  SYY         1    4    2    2
 -5  SZZ         1    4    3    3
 -5  SXY         1    4    1    2
 -5  SYZ         1    4    2    3
 -5  SZX         1    4    3    1
 -1         1 2.28280E+00 3.27347E+00-1.09965E+00 3.02472E+00-7.76712E-13-6.21114E-13
 -1         2-7.08228E-01-2.73530E+01-3.50088E+00-2.32497E-01 1.60141E-12-5.37591E-14
 -1         3 1.99911E+01-8.50094E-03 2.03560E-02-8.85747E-03 4.96612E-13 3.98259E-13
 -1         4 1.99982E+01-1.57320E-03 4.58599E-03 1.61983E-03 1.50068E-13 2.16073E-13
 -1         5 3.27661E+01 6.14235E+00 2.74225E+00 6.22400E+00-7.82013E-15 7.26044E-13
 -1         6 3.57500E+01 1.22626E+01 5.12510E+00-8.64617E+00-3.10862E-14 9.68503E-13
 -1         7 2.08179E+01 6.09946E+00-1.28623E-01-4.72529E+00-5.48173E-15 3.79193E-13
 -1         8 1.96714E+01 5.93487E+00 5.09744E-02-3.27466E+00-1.23720E-14 1.54075E-13
 -1         9 1.91375E+01 5.77197E+00 4.91821E-02-2.52646E+00-1.05003E-14 1.17580E-14
 -1        10 1.88952E+01 5.69216E+00 5.09698E-02-1.95109E+00-9.29118E-15-7.27656E-14
 -1        11 1.87741E+01 5.65134E+00 5.02802E-02-1.45613E+00-9.76302E-15-1.19853E-13
 -1        12 1.87108E+01 5.62981E+00 4.88385E-02-1.01515E+00-4.76702E-15-1.54951E-13
 -1        13 1.86773E+01 5.61839E+00 4.74418E-02-5.95334E-01-5.38610E-15-1.80169E-13
 -1        14 1.86633E+01 5.61356E+00 4.67079E-02-1.91201E-01-4.34876E-15-1.93524E-13
 -1        15 1.86638E+01 5.61372E+00 4.67477E-02 2.08182E-01-4.02618E-16-1.98014E-13
 -1        16 1.86789E+01 5.61887E+00 4.75689E-02 6.13138E-01-1.82363E-16-2.01972E-13
 -1        17 1.87135E+01 5.63055E+00 4.90870E-02 1.03490E+00 2.55503E-15-2.02412E-13
 -1        18 1.87783E+01 5.65253E+00 5.08403E-02 1.47899E+00 2.60165E-15-1.92369E-13
 -1        19 1.89012E+01 5.69384E+00 5.15505E-02 1.98014E+00 7.26762E-15-1.86525E-13
 -1        20 1.91424E+01 5.77447E+00 4.87993E-02 2.56376E+00 7.50441E-15-1.49310E-13
 -1        21 1.96670E+01 5.94946E+00 4.59334E-02 3.30873E+00 1.04847E-14-4.61831E-14
 -1        22 2.12007E+01 6.38119E+00 1.39692E-01 4.52290E+00 3.26128E-15 1.75629E-13
 -1        23 2.30281E+01-1.37915E+00-9.38273E-01-7.11146E-01-1.63862E-14 8.61491E-13
 -1        24 1.93656E+01-9.94840E-02-3.09834E-01 6.31996E-02-9.50889E-15 7.60732E-13
 -1        25 1.86772E+01-5.63253E-02-6.88201E-02 6.07107E-02-4.56059E-15 6.45952E-13
 -1        26 1.84749E+01-2.20971E-02-6.50235E-03 3.29695E-02-3.00107E-16 5.74419E-13
 -1        27 1.84864E+01-1.18109E-02 1.57439E-03 2.25876E-02-6.34410E-15 5.06144E-13
 -1        28 1.86008E+01-6.25447E-03 1.77705E-03 1.62838E-02-2.04817E-15 5.05138E-13
 -1        29 1.87610E+01-3.10928E-03 1.70987E-03 1.21330E-02-2.39739E-15 4.19007E-13
 -1        30 1.89360E+01-1.26747E-03 1.87970E-03 9.17560E-03 8.62122E-15 3.38180E-13
 -1        31 1.91081E+01-1.90391E-04 2.02159E-03 6.95511E-03-1.53675E-14 2.13951E-13
 -1        32 1.92679E+01 4.11438E-04 2.02614E-03 5.24126E-03-2.05241E-14 9.35601E-14
 -1        33 1.94109E+01 7.06694E-04 1.89840E-03 3.90682E-03 3.41289E-15 4.25005E-14
 -1        34 1.95357E+01 8.00972E-04 1.67445E-03 2.87390E-03 4.40267E-15 1.30674E-13
 -1        35 1.96433E+01 7.64512E-04 1.38904E-03 2.09058E-03-9.85865E-16 1.64300E-13
 -1        36 1.97359E+01 6.46884E-04 1.06938E-03 1.52071E-03 9.30514E-15 1.77153E-13
 -1        37 1.98165E+01 4.85958E-04 7.37190E-04 1.13914E-03-2.31365E-14 1.52157E-13
 -1        38 1.98885E+01 3.14413E-04 4.13234E-04 9.28742E-04-1.94967E-14 6.94919E-16
 -1        39 1.99554E+01 1.65228E-04 1.22891E-04 8.77365E-04-1.69123E-14-7.16781E-14
 -1        40 2.00201E+01 7.65804E-05-9.72355E-05 9.73240E-04-3.93874E-15 4.20383E-14
 -1        41 2.00848E+01 9.59077E-05-1.92075E-04 1.19749E-03 2.64893E-14-4.00337E-14
 -1        42 2.01498E+01 2.82071E-04-8.14307E-05 1.51247E-03-2.19201E-14-8.37476E-14
 -1        43 2.02132E+01 7.03577E-04 3.43210E-04 1.84499E-03-1.16166E-14-4.12375E-14
 -1        44 2.02688E+01 1.42966E-03 1.21292E-03 2.06510E-03 5.39408E-14 7.97166E-14
 -1        45 2.03055E+01 2.51015E-03 2.65806E-03 1.96408E-03-2.45475E-14 1.38247E-13
 -1        46 2.03059E+01 3.94048E-03 4.75648E-03 1.24157E-03 8.99473E-15 3.03487E-14
 -1        47 2.02455E+01 5.61196E-03 7.44517E-03-4.79493E-04-5.35054E-17 3.03971E-14
 -1        48 2.00944E+01 7.25702E-03 1.04008E-02-3.58202E-03-2.38826E-14-1.62066E-13
 -1        49 1.98212E+01 8.41520E-03 1.29282E-02-8.29978E-03 4.79633E-14-1.67936E-13
 -1        50 1.94006E+01 8.46479E-03 1.39439E-02-1.44744E-02-4.65605E-14-1.84715E-13
 -1        51 1.88256E+01 6.76853E-03 1.21755E-02-2.12868E-02 5.26673E-15-1.13373E-13
 -1        52 1.81202E+01 2.95043E-03 6.66125E-03-2.71238E-02-2.97733E-14-1.06687E-13
 -1        53 1.73490E+01-2.77153E-03-2.54794E-03-2.98051E-02 1.39263E-14-3.50445E-13
 -1        54 1.66149E+01-9.37459E-03-1.38203E-02-2.73191E-02-2.71407E-14-3.09029E-13
 -1        55 1.60415E+01-1.51750E-02-2.40832E-02-1.88899E-02 1.71881E-14-1.77230E-13
 -1        56 1.57399E+01-1.84005E-02-2.99005E-02-5.79092E-03-6.97890E-15-1.45188E-13
 -1        57 1.57727E+01-1.79705E-02-2.91298E-02 8.81016E-03-9.83122E-15 8.13833E-14
 -1        58 1.61316E+01-1.40275E-02-2.20534E-02 2.10938E-02-3.50887E-14-2.22046E-13
 -1        59 1.67403E+01-7.86130E-03-1.12297E-02 2.82353E-02 6.70147E-14-3.52421E-13
 -1        60 1.74812E+01-1.28851E-03-1.29298E-04 2.94343E-02-9.20064E-14-2.56488E-13
 -1        61 1.82324E+01 4.11001E-03 8.42292E-03 2.58041E-02 1.28293E-14-4.90006E-13
 -1        62 1.88976E+01 7.47753E-03 1.31395E-02 1.94671E-02-2.08187E-14-2.95611E-13
 -1        63 1.94208E+01 8.73593E-03 1.42228E-02 1.25307E-02-3.87483E-14-5.49815E-13
 -1        64 1.97858E+01 8.33328E-03 1.27406E-02 6.45273E-03 6.68394E-14-4.02996E-13
 -1        65 2.00053E+01 6.90863E-03 9.93155E-03 1.90732E-03-4.86479E-14-5.52068E-14
 -1        66 2.01082E+01 5.04139E-03 6.76403E-03-1.02473E-03 1.94328E-14-2.48719E-13
 -1        67 2.01291E+01 3.13822E-03 3.78814E-03-2.56764E-03 9.60966E-14-2.23027E-13
 -1        68 2.01015E+01 1.43197E-03 1.20229E-03-3.00307E-03 7.59719E-14 9.53234E-14
 -1        69 2.00546E+01 5.97369E-05-9.40451E-04-2.51135E-03-1.19349E-13 1.39869E-13
 -1        70 2.00132E+01-6.36050E-04-2.15668E-03-8.96851E-04 1.27948E-13 1.07809E-13
 -1        71 1.99957E+01 4.53978E-04-4.39469E-04 1.26243E-03-7.63307E-14 2.41357E-13
 -1        72 2.10407E+01-4.04866E-01-9.80378E-01-3.11574E-01 1.71529E-14 6.23737E-13
 -1        73 1.93301E+01-6.58820E-02-2.91121E-01-5.38223E-02 2.93906E-15 4.17376E-13
 -1        74 1.86867E+01-2.05077E-02-6.42674E-02-2.03344E-02-4.80215E-15 2.80659E-13
 -1        75 1.84839E+01-9.88352E-03-9.31048E-03-1.54285E-02-5.54309E-15 1.83730E-13
 -1        76 1.84951E+01-5.17301E-03 6.76462E-04-1.23534E-02-7.11800E-15 1.53849E-13
 -1        77 1.86085E+01-2.62591E-03 1.73726E-03-1.00766E-02 7.76072E-16 1.00968E-13
 -1        78 1.87675E+01-1.16218E-03 1.87007E-03-8.32646E-03-1.14409E-14 1.27984E-13
 -1        79 1.89411E+01-3.07067E-04 2.05451E-03-6.87887E-03 1.76555E-14 9.22643E-14
 -1        80 1.91116E+01 1.79002E-04 2.18163E-03-5.62895E-03-4.60314E-15-1.06853E-13
 -1        81 1.92696E+01 4.30010E-04 2.17373E-03-4.53194E-03 8.80353E-15-8.94573E-14
 -1        82 1.94104E+01 5.25406E-04 2.03792E-03-3.56733E-03-6.44987E-15-9.06168E-14
 -1        83 1.95328E+01 5.13911E-04 1.80789E-03-2.72023E-03 2.74534E-14-1.48161E-13
 -1        84 1.96376E+01 4.24520E-04 1.51317E-03-1.97483E-03-1.26152E-14-1.92912E-13
 -1        85 1.97271E+01 2.71701E-04 1.17052E-03-1.31204E-03 1.26610E-14-2.21030E-13
 -1        86 1.98049E+01 5.73162E-05 7.81922E-04-7.08326E-04 2.11750E-15-2.21506E-13
 -1        87 1.98753E+01-2.29737E-04 3.32401E-04-1.34846E-04-4.20553E-14-3.09274E-14
 -1        88 1.99441E+01-6.16045E-04-2.14718E-04 4.43614E-04 1.59718E-15 3.38814E-14
 -1        89 2.00182E+01-1.14871E-03-9.27367E-04 1.06966E-03 7.71258E-14-4.50606E-13
 -1        90 2.01072E+01-1.90349E-03-1.92212E-03 1.79328E-03-1.05562E-13-5.20825E-13
 -1        91 2.02244E+01-2.99647E-03-3.39476E-03 2.66796E-03 5.27633E-14-2.45550E-13
 -1        92 2.03890E+01-4.59822E-03-5.67313E-03 3.73536E-03-1.62959E-14-1.10928E-13
 -1        93 2.06300E+01-6.94479E-03-9.30759E-03 4.98153E-03-4.77191E-14 9.36489E-14
 -1        94 2.09917E+01-1.03268E-02-1.52173E-02 6.22425E-03 2.13051E-14 8.69554E-14
 -1        95 2.15422E+01-1.50059E-02-2.48829E-02 6.84469E-03 2.69504E-14 1.82367E-13
 -1        96 2.23848E+01-2.09388E-02-4.04012E-02 5.18855E-03-2.28775E-14 1.21428E-13
 -1        97 2.36717E+01-2.70476E-02-6.35482E-02-2.65002E-03 2.71866E-14 6.15046E-14
 -1        98 2.56084E+01-2.95827E-02-9.12273E-02-2.49198E-02 3.32026E-14-3.33216E-13
 -1        99 2.84185E+01-1.91025E-02-1.01796E-01-7.62121E-02 1.83404E-15-5.33830E-13
 -1       100 3.21816E+01 2.10082E-02-3.08705E-02-1.71155E-01 8.97394E-16-2.97713E-13
 -1       101 3.63669E+01 9.80280E-02 2.19952E-01-2.79351E-01 1.84653E-14 9.66172E-14
 -1       102 3.89836E+01 1.47250E-01 5.89900E-01-2.31301E-01-5.18960E-14 5.47177E-13
 -1       103 3.63768E+01 3.20075E-02 5.39137E-01 3.55203E-01-3.42434E-14 7.72549E-13
 -1       104 2.77125E+01-1.60187E-01-4.53414E-01 1.09249E+00-5.41520E-14 1.10062E-12
 -1       105 1.83325E+01-2.50313E-01-1.83872E+00 1.01623E+00-1.47451E-14 1.09435E-12
 -1       106 1.58795E+01-1.53114E-01-2.23778E+00-4.01934E-02 8.89080E-14 7.56013E-13
 -1       107 2.11661E+01-4.89484E-03-1.40958E+00-8.90912E-01-1.19141E-14 4.53554E-13
 -1       108 3.11353E+01 1.14356E-01-2.87113E-02-1.07969E+00 9.54189E-14 3.87412E-13
 -1       109 3.80792E+01 1.07907E-01 6.50062E-01-5.14409E-01-4.80761E-14-3.04479E-14
 -1       110 3.88309E+01 5.49278E-02 4.98279E-01 1.56058E-03-2.16233E-14 7.61226E-13
 -1       111 3.54867E+01 3.43069E-03 1.36224E-01 1.92725E-01 1.14937E-13 6.25978E-13
 -1       112 3.12467E+01-2.27659E-02-5.94009E-02 1.81028E-01-1.25967E-13 6.63553E-13
 -1       113 2.76570E+01-2.88481E-02-1.03219E-01 1.24448E-01 7.37748E-14 5.58310E-13
 -1       114 2.50273E+01-2.52365E-02-8.58859E-02 7.65563E-02 4.27625E-14 1.75440E-13
 -1       115 2.32162E+01-1.92069E-02-5.83163E-02 4.51578E-02-1.84746E-13 1.99479E-13
 -1       116 2.19987E+01-1.37698E-02-3.66337E-02 2.65466E-02 8.71250E-14 1.57986E-13
 -1       117 2.11840E+01-9.75458E-03-2.27199E-02 1.61468E-02 3.31522E-15-4.28614E-13
 -1       118 2.06377E+01-7.23132E-03-1.51176E-02 1.06943E-02 6.36875E-14-6.20495E-13
 -1       119 2.02773E+01-5.65613E-03-1.18553E-02 7.42151E-03 8.57852E-14-5.62513E-13
 -1       120 2.00613E+01-4.50355E-03-1.06746E-02 4.71051E-03-5.18489E-14 1.43450E-13
 -1       121 1.99838E+01 3.55419E-03-1.12243E-03-3.60184E-03-3.08653E-13 8.17232E-13
 -1       122 2.00001E+01-1.05540E-02-7.70120E-04-6.42557E-03 1.44679E-12 1.79874E-14
 -1       123 1.99956E+01 6.69092E-02-9.37782E-03 3.60449E-03 2.02047E-12-4.43042E-14
 -1       124 1.99982E+01 2.54227E-01-4.44295E-03 9.71753E-03 9.85704E-13-1.67281E-13
 -1       125 2.00017E+01 4.78161E-01 2.47546E-03 9.65174E-03-2.44282E-13-7.79280E-14
 -1       126 2.00040E+01 6.70672E-01 6.74450E-03 6.82636E-03-8.55361E-13-1.53767E-13
 -1       127 2.00051E+01 7.88302E-01 8.35010E-03 3.12158E-03-2.52677E-13 1.85287E-13
 -1       128 2.00047E+01 8.18208E-01 7.57252E-03-6.74347E-04 5.24946E-13-1.55605E-13
 -1       129 2.00035E+01 7.64909E-01 5.32511E-03-3.42919E-03 5.93590E-14 1.39275E-13
 -1       130 2.00018E+01 6.51703E-01 2.54829E-03-4.79276E-03 4.19936E-13 1.40586E-13
 -1       131 2.00002E+01 5.08152E-01 5.27127E-05-4.87472E-03 6.09885E-14-7.58763E-14
 -1       132 1.99990E+01 3.61654E-01-1.66403E-03-4.05356E-03-7.98844E-13-7.03207E-14
 -1       133 1.99982E+01 2.33608E-01-2.52460E-03-2.91300E-03-7.72086E-13 2.69548E-13
 -1       134 1.99980E+01 1.30225E-01-2.70348E-03-1.73402E-03-3.49902E-13 4.08859E-13
 -1       135 1.99979E+01 5.65341E-02-2.69900E-03-8.89707E-04-3.92299E-13-1.24952E-13
 -1       136 1.99986E+01 1.28236E-02-2.06799E-03-1.26533E-04-4.39003E-13-6.07552E-14
 -1       137 1.99986E+01-1.97037E-03-8.64257E-05 3.06847E-03-2.83856E-13-4.83695E-14
 -1       138-1.87381E+00-2.53701E+01-3.60585E+00-5.19280E+00 1.97506E-12 5.42373E-13
 -1       139-3.28207E+00-1.48149E+01-3.26333E+00-6.09150E+00 1.08169E-12 4.04704E-13
 -1       140 2.41340E-01-1.14004E+00-2.35178E+00 1.62071E-01-5.46230E-14-1.11466E-13
 -1       141 1.40192E+01 8.15814E+00-6.98392E-01 1.08583E+01 4.77618E-13 6.21170E-13
 -1       142 3.86014E+01 9.85005E+00 1.78057E+00 1.90128E+01 6.85452E-13 1.41298E-12
 -1       143 6.71322E+01 5.69849E+00 4.58016E+00 1.76653E+01 1.79620E-13 2.11609E-13
 -1       144 8.44125E+01 1.71649E+00 6.33220E+00 5.34189E+00-1.10210E-13-9.71306E-13
 -1       145 7.91286E+01 3.15498E+00 5.82151E+00-1.15613E+01 2.95282E-13-1.09318E-12
 -1       146 5.20683E+01 8.25611E+00 3.12561E+00-1.96334E+01 3.93352E-13-1.18494E-12
 -1       147 2.36607E+01 9.87947E+00 3.11016E-01-1.52191E+01 1.74694E-13-4.10227E-13
 -1       148 4.49311E+00 3.15915E+00-1.79777E+00-4.31660E+00 1.38778E-13-9.07607E-14
 -1       149-2.68248E+00-9.76429E+00-2.97886E+00 4.25153E+00 7.10876E-13-1.62925E-13
 -1       150-2.67761E+00-2.23531E+01-3.52596E+00 6.34664E+00 1.17145E-12-5.10585E-13
 -1       151-9.04943E-01-2.77570E+01-3.59107E+00 1.98354E+00 1.33561E-12 2.10942E-15
 -1       152-1.07460E+00-2.28502E+01-3.16931E+00-2.89926E+00 6.14675E-13 1.77670E-14
 -1       153-1.44846E+00-1.01102E+01-2.28229E+00-3.20625E+00-2.54130E-13-1.09024E-13
 -1       154 1.35602E+01 1.16007E+01 2.64821E-01 1.24841E+01-1.14153E-12-1.07925E-12
 -1       155 3.19390E+01 1.22946E+01 1.61349E+00 1.94239E+01-9.94316E-13-1.75499E-12
 -1       156 5.21812E+01 7.46965E+00 2.73536E+00 1.88144E+01-6.06487E-13-1.60533E-12
 -1       157 6.76128E+01 1.96394E+00 3.45093E+00 8.88116E+00-1.30163E-13-1.50660E-12
 -1       158 6.91759E+01 1.37032E+00 3.49930E+00-5.59931E+00 2.97852E-14-8.34430E-13
 -1       159 5.79148E+01 5.52181E+00 2.99193E+00-1.63442E+01 7.54258E-14-2.13718E-13
 -1       160 3.87014E+01 1.10774E+01 2.01461E+00-2.01089E+01-1.12410E-14-6.96665E-14
 -1       161 1.85971E+01 1.22285E+01 6.73236E-01-1.49174E+01 1.90625E-13-1.39500E-13
 -1       162 4.20108E+00 5.34444E+00-8.15906E-01-4.92179E+00-5.49838E-13 3.13527E-13
 -1       163-1.28869E+00-7.78877E+00-2.13138E+00 2.57604E+00-8.26339E-13 4.42146E-13
 -1       164-1.25586E+00-2.03829E+01-3.00056E+00 3.68271E+00 1.11294E-12-1.61364E-13
 -1       165 2.10127E+01 3.69386E+00-5.73326E-02-3.61011E+00-1.11116E-13 2.41224E-13
 -1       166 1.99907E+01 4.20773E+00-4.57128E-02-2.80929E+00-1.21941E-13 9.67872E-14
 -1       167 1.95091E+01 4.47704E+00-3.15927E-02-2.19420E+00-1.11541E-13-9.48547E-15
 -1       168 1.92676E+01 4.61528E+00-2.37659E-02-1.67537E+00-1.01049E-13-7.21151E-14
 -1       169 1.91378E+01 4.69702E+00-1.94980E-02-1.21907E+00-8.02983E-14-1.08301E-13
 -1       170 1.90641E+01 4.74815E+00-1.74103E-02-7.92022E-01-6.17730E-14-1.27220E-13
 -1       171 1.90269E+01 4.77607E+00-1.64168E-02-3.86866E-01-3.75001E-14-1.44431E-13
 -1       172 1.90161E+01 4.78462E+00-1.61298E-02 8.25686E-03-2.28500E-14-1.52380E-13
 -1       173 1.90286E+01 4.77478E+00-1.64635E-02 4.03724E-01-9.32403E-15-1.62645E-13
 -1       174 1.90677E+01 4.74519E+00-1.75175E-02 8.09954E-01 1.11052E-14-1.67471E-13
 -1       175 1.91421E+01 4.69267E+00-1.96856E-02 1.23144E+00 3.08375E-14-1.61379E-13
 -1       176 1.92775E+01 4.60543E+00-2.40052E-02 1.69816E+00 6.92139E-14-1.53932E-13
 -1       177 1.95240E+01 4.45955E+00-3.28484E-02 2.22654E+00 8.54555E-14-1.36226E-13
 -1       178 2.00131E+01 4.18376E+00-4.72089E-02 2.84678E+00 1.04028E-13-6.22141E-14
 -1       179 2.11343E+01 3.46355E+00-5.97771E-02 3.53668E+00 1.11230E-13 5.61773E-14
 -1       180 2.24182E+01 1.14335E+00-3.36454E-01 3.01479E+00 1.00504E-13 2.39267E-13
 -1       181 2.19707E+01 8.58216E-01 6.64999E-04-1.95896E+00-8.29579E-14 3.83520E-13
 -1       182 2.04463E+01 1.90191E-01-1.00055E-02-7.64196E-01-7.43693E-14 3.33795E-13
 -1       183 1.96709E+01 1.01711E-01 1.35361E-02-2.85594E-01-5.25977E-14 2.95012E-13
 -1       184 1.93313E+01 4.71944E-02 9.99331E-03-6.78216E-02-4.54502E-14 2.28377E-13
 -1       185 1.92019E+01 2.26180E-02 5.16436E-03 3.95695E-02-1.07646E-14 2.32370E-13
 -1       186 1.91890E+01 9.61704E-03 2.44001E-03 9.24046E-02-4.23714E-14 2.42857E-13
 -1       187 1.92384E+01 2.27425E-03 1.13990E-03 1.15126E-01-6.59711E-14 2.29447E-13
 -1       188 1.93188E+01-1.88556E-03 5.09779E-04 1.20562E-01-7.55795E-14 1.55897E-13
 -1       189 1.94117E+01-4.08947E-03 1.80117E-04 1.16185E-01-4.19783E-14 1.86047E-13
 -1       190 1.95061E+01-5.03298E-03 3.73522E-07 1.06669E-01-3.15071E-14 1.81441E-13
 -1       191 1.95960E+01-5.15050E-03-9.29048E-05 9.50443E-02-1.24158E-14 9.60120E-14
 -1       192 1.96787E+01-4.73076E-03-1.31833E-04 8.32975E-02 1.86533E-14 3.05943E-14
 -1       193 1.97532E+01-3.97431E-03-1.36293E-04 7.27119E-02-1.39122E-14 9.26073E-14
 -1       194 1.98202E+01-3.02863E-03-1.20521E-04 6.40712E-02-3.88161E-14 1.19476E-13
 -1       195 1.98811E+01-2.01443E-03-9.59940E-05 5.77765E-02-1.00561E-13 5.87313E-14
 -1       196 1.99377E+01-1.04931E-03-7.31772E-05 5.38928E-02-1.34439E-14 1.09211E-13
 -1       197 1.99916E+01-2.71367E-04-6.27739E-05 5.21344E-02-9.80714E-15 6.28964E-14
 -1       198 2.00443E+01 1.37255E-04-7.65045E-05 5.17885E-02-1.48129E-14-4.03360E-15
 -1       199 2.00961E+01-7.07307E-05-1.27182E-04 5.15835E-02-6.81188E-14-1.24256E-15
 -1       200 2.01460E+01-1.21923E-03-2.27658E-04 4.95189E-02 8.71820E-15-4.09640E-14
 -1       201 2.01905E+01-3.69756E-03-3.88092E-04 4.26995E-02 2.02211E-14 3.50580E-14
 -1       202 2.02235E+01-7.90548E-03-6.11097E-04 2.72577E-02-5.70798E-14-3.04600E-14
 -1       203 2.02347E+01-1.41269E-02-8.84878E-04-1.49274E-03 5.85849E-14 6.52396E-14
 -1       204 2.02103E+01-2.23061E-02-1.17577E-03-4.84655E-02-1.93430E-14 1.89476E-13
 -1       205 2.01325E+01-3.17264E-02-1.42335E-03-1.17539E-01-9.88275E-14 2.17521E-13
 -1       206 1.99822E+01-4.06566E-02-1.54366E-03-2.09471E-01-2.95756E-14 2.06313E-13
 -1       207 1.97426E+01-4.61555E-02-1.44607E-03-3.19157E-01-3.07682E-14 8.03478E-14
 -1       208 1.94051E+01-4.43541E-02-1.06362E-03-4.33013E-01 3.59083E-14 3.08737E-14
 -1       209 1.89769E+01-3.15585E-02-3.90611E-04-5.28076E-01-6.25357E-15 2.38845E-14
 -1       210 1.84877E+01-6.20898E-03 4.97303E-04-5.74889E-01-2.44745E-13 1.18254E-13
 -1       211 1.79922E+01 2.89523E-02 1.44250E-03-5.45498E-01-1.05067E-13 1.04074E-13
 -1       212 1.75632E+01 6.59966E-02 2.26462E-03-4.25287E-01 2.65105E-14 1.10223E-13
 -1       213 1.72763E+01 9.37288E-02 2.80023E-03-2.23603E-01 4.59424E-14 8.31148E-14
 -1       214 1.71877E+01 1.02444E-01 2.95926E-03 2.39276E-02 1.31332E-13 1.27617E-13
 -1       215 1.73147E+01 8.88828E-02 2.71195E-03 2.65360E-01-1.88228E-13 9.45709E-14
 -1       216 1.76301E+01 5.80184E-02 2.09404E-03 4.50898E-01-2.05641E-13 6.18425E-14
 -1       217 1.80713E+01 2.03352E-02 1.22310E-03 5.50226E-01-3.11540E-15-1.72378E-13
 -1       218 1.85612E+01-1.33952E-02 2.66991E-04 5.59718E-01-1.42186E-13-1.16649E-13
 -1       219 1.90295E+01-3.62648E-02-5.86852E-04 4.97899E-01 8.74720E-14-2.29783E-13
 -1       220 1.94265E+01-4.65199E-02-1.19583E-03 3.94134E-01-1.96898E-13-2.62026E-13
 -1       221 1.97277E+01-4.63093E-02-1.49787E-03 2.77326E-01 4.31365E-14-2.23328E-13
 -1       222 1.99303E+01-3.94443E-02-1.51365E-03 1.69003E-01 3.25239E-13-3.61000E-13
 -1       223 2.00464E+01-2.95686E-02-1.31638E-03 8.14381E-02 3.41786E-14-6.55328E-14
 -1       224 2.00953E+01-1.92521E-02-1.00111E-03 1.91408E-02 1.55369E-13 5.69779E-14
 -1       225 2.00986E+01-9.85875E-03-6.60024E-04-1.83665E-02 1.38156E-13 1.43464E-13
 -1       226 2.00765E+01-1.91729E-03-3.72465E-04-3.40573E-02-7.49548E-15-8.74691E-14
 -1       227 2.00457E+01 4.58704E-03-1.54319E-04-3.19168E-02 2.91689E-14 1.57096E-13
 -1       228 2.00180E+01 8.79608E-03 3.70424E-06-1.71968E-02 4.08722E-14 6.49822E-14
 -1       229 2.09623E+01 2.77020E-01-5.13310E-02 1.16487E+00 8.79609E-14 2.08563E-13
 -1       230 1.98676E+01 1.26841E-01 8.31095E-03 4.43179E-01 7.09450E-14 1.47507E-13
 -1       231 1.93613E+01 5.80652E-02 1.27347E-02 1.50129E-01 4.46357E-14 8.56129E-14
 -1       232 1.91517E+01 2.77382E-02 7.62908E-03 1.08161E-02 1.94612E-14 4.88476E-14
 -1       233 1.91021E+01 1.31057E-02 3.82513E-03-5.84120E-02 1.50022E-14 4.88526E-14
 -1       234 1.91383E+01 5.17601E-03 1.91134E-03-9.09916E-02 2.04535E-16 5.63178E-15
 -1       235 1.92181E+01 6.67662E-04 1.01160E-03-1.02989E-01 3.25987E-14-1.72301E-15
 -1       236 1.93168E+01-1.87192E-03 5.54892E-04-1.03169E-01 6.29607E-14-1.26550E-14
 -1       237 1.94201E+01-3.18142E-03 2.97289E-04-9.67857E-02-4.25554E-15-1.08359E-13
 -1       238 1.95198E+01-3.68884E-03 1.44641E-04-8.71869E-02 4.31209E-14-5.61088E-14
 -1       239 1.96118E+01-3.66104E-03 5.77129E-05-7.65808E-02 5.39069E-14-1.04706E-13
 -1       240 1.96946E+01-3.26615E-03 1.67496E-05-6.64628E-02 4.21887E-14-1.30921E-13
 -1       241 1.97687E+01-2.60277E-03 1.05566E-05-5.78923E-02 4.52659E-14-1.90961E-13
 -1       242 1.98360E+01-1.71289E-03 3.32612E-05-5.16969E-02-4.96501E-14-1.19754E-13
 -1       243 1.98996E+01-5.84452E-04 8.32736E-05-4.86502E-02-3.82953E-14-5.70910E-14
 -1       244 1.99637E+01 8.55235E-04 1.63071E-04-4.96521E-02 5.18776E-14-9.67075E-14
 -1       245 2.00340E+01 2.75717E-03 2.79406E-04-5.59444E-02 2.02370E-13-1.16525E-13
 -1       246 2.01183E+01 5.38390E-03 4.43584E-04-6.93977E-02-7.90541E-14-1.57677E-13
 -1       247 2.02272E+01 9.16548E-03 6.70917E-04-9.29259E-02-8.97432E-14-2.03569E-13
 -1       248 2.03754E+01 1.47879E-02 9.76663E-04-1.31098E-01-2.09398E-13-9.92595E-14
 -1       249 2.05846E+01 2.33229E-02 1.36109E-03-1.91038E-01-7.33241E-14 5.00460E-14
 -1       250 2.08855E+01 3.63945E-02 1.76583E-03-2.83688E-01 4.57947E-14-4.83913E-14
 -1       251 2.13225E+01 5.63141E-02 1.96889E-03-4.25367E-01-1.48937E-14-1.62939E-13
 -1       252 2.19573E+01 8.59157E-02 1.39430E-03-6.39020E-01 7.38428E-14-1.11007E-13
 -1       253 2.28713E+01 1.27237E-01-1.04144E-03-9.52964E-01-8.10680E-15-9.03101E-14
 -1       254 2.41595E+01 1.76781E-01-6.32595E-03-1.39071E+00 1.01289E-13-2.45897E-14
 -1       255 2.59043E+01 2.11719E-01-1.23139E-02-1.93622E+00-3.54816E-14-4.13836E-14
 -1       256 2.81087E+01 1.57405E-01-6.85375E-03-2.44415E+00-2.22437E-13 1.29143E-13
 -1       257 3.05726E+01-1.52553E-01 3.34246E-02-2.46882E+00-2.69989E-13 2.85896E-13
 -1       258 3.27333E+01-8.66102E-01 1.11406E-01-1.15381E+00-2.46081E-13 2.57795E-13
 -1       259 3.37496E+01-1.62076E+00 4.29009E-02 2.20490E+00-8.32997E-14 3.16250E-13
 -1       260 3.29683E+01-8.78537E-01-2.07924E-01 5.23919E+00-2.44145E-13 4.46393E-13
 -1       261 3.13633E+01 1.53476E+00-4.43135E-01 4.52992E+00-3.08642E-14 5.36056E-13
 -1       262 3.09039E+01 2.84659E+00-4.54617E-01-2.37605E-01 1.97703E-13 5.22513E-13
 -1       263 3.18556E+01 1.64602E+00-3.14485E-01-4.41243E+00 2.70201E-13 5.70138E-13
 -1       264 3.35350E+01-8.29899E-01-9.78331E-02-5.22127E+00 3.39603E-13 8.22502E-14
 -1       265 3.40622E+01-1.63934E+00 6.36950E-02-2.27103E+00 5.94819E-14 3.36953E-14
 -1       266 3.28084E+01-9.70869E-01 6.86863E-02 9.15865E-01-2.78305E-13 1.39057E-13
 -1       267 3.04637E+01-2.10505E-01 1.00727E-02 2.42775E+00 1.20192E-13 1.89369E-13
 -1       268 2.79673E+01 1.30450E-01-1.43253E-02 2.50601E+00-2.49086E-14 2.65982E-13
 -1       269 2.57760E+01 2.02710E-01-1.14530E-02 2.02791E+00 8.01915E-14 1.35815E-13
 -1       270 2.40389E+01 1.75467E-01-3.25598E-03 1.47897E+00-1.81010E-14 3.31572E-13
 -1       271 2.27437E+01 1.28069E-01 1.77180E-03 1.02843E+00 7.12429E-14 3.04115E-13
 -1       272 2.18112E+01 8.71252E-02 3.44409E-03 7.01599E-01 2.56047E-13-1.20761E-13
 -1       273 2.11525E+01 5.78997E-02 3.34536E-03 4.76427E-01 1.47271E-13-3.75963E-13
 -1       274 2.06925E+01 3.94519E-02 2.57315E-03 3.22367E-01-2.65461E-13-1.75775E-13
 -1       275 2.03768E+01 3.02469E-02 1.56932E-03 2.11136E-01-3.20548E-13 3.54773E-13
 -1       276 2.01719E+01 2.68105E-02 7.38016E-04 1.22387E-01-3.84223E-13 5.98986E-13
 -1       277 2.00518E+01 2.66253E-02 1.30704E-03 4.08947E-02-1.64946E-13 6.41456E-13
 -1       278 2.00361E+01 9.18186E-02 6.46526E-04 8.55919E-02 1.43247E-13 3.01014E-13
 -1       279 2.00215E+01 2.16784E-01 1.46956E-04 1.49271E-01 8.70431E-14-5.65022E-13
 -1       280 1.99986E+01 3.66871E-01-1.28404E-04 1.70033E-01 6.71594E-14-4.89340E-13
 -1       281 1.99818E+01 5.05601E-01-4.23296E-04 1.44721E-01-1.97151E-14-2.88907E-13
 -1       282 1.99729E+01 6.03425E-01-6.74427E-04 8.91609E-02-1.99255E-13 7.98887E-14
 -1       283 1.99718E+01 6.46502E-01-8.06497E-04 2.04119E-02-1.67096E-13 3.12471E-13
 -1       284 1.99771E+01 6.30206E-01-7.67761E-04-4.30541E-02-1.08046E-13-1.69176E-13
 -1       285 1.99858E+01 5.65110E-01-5.96951E-04-8.90250E-02 1.46246E-14 1.49612E-13
 -1       286 1.99950E+01 4.68950E-01-3.52563E-04-1.12637E-01-2.07936E-13-2.87035E-13
 -1       287 2.00025E+01 3.60967E-01-9.76089E-05-1.15401E-01-1.19906E-13-2.49627E-13
 -1       288 2.00070E+01 2.58985E-01 1.23835E-04-1.03271E-01-3.91119E-14 6.33916E-14
 -1       289 2.00090E+01 1.69958E-01 2.68924E-04-8.26921E-02 7.10808E-14 4.27064E-13
 -1       290 2.00089E+01 1.00913E-01 3.28829E-04-5.96486E-02-4.61736E-14 4.33234E-15
 -1       291 2.00082E+01 5.21010E-02 2.83073E-04-3.70518E-02-2.49119E-13-1.01983E-13
 -1       292 2.00136E+01 2.75962E-02 3.55097E-04-2.88498E-02-1.09113E-13 8.79395E-14
 -1       293-1.61636E+00-1.20620E+01-9.91432E-01-5.24740E-01 7.51354E-13 3.97432E-13
 -1       294 1.22613E+00-1.07711E+01-9.90679E-01 1.71884E+00 6.91530E-13-2.39003E-13
 -1       295 8.05967E+00-7.84548E+00-9.23014E-01 3.87409E+00 4.84723E-13-4.73205E-13
 -1       296 1.95216E+01-4.17356E+00-5.50941E-01 5.72250E+00-7.32192E-14 5.65492E-13
 -1       297 3.34116E+01-6.97216E-01 1.20928E-01 5.79505E+00 1.82021E-13 6.80234E-13
 -1       298 4.60339E+01 2.58892E+00 9.15402E-01 3.20153E+00 7.20320E-13-1.89904E-13
 -1       299 5.44207E+01 6.31216E+00 1.75816E+00 1.56388E+00 4.36012E-13-3.23380E-13
 -1       300 5.56590E+01 7.39732E+00 1.87333E+00-1.64118E-01 1.76359E-13-6.23876E-13
 -1       301 4.94380E+01 4.48649E+00 1.12870E+00-9.40522E-01 5.39568E-14-2.53297E-13
 -1       302 3.97474E+01 1.02258E+00 5.59716E-01-5.10287E+00-1.26926E-13-4.18998E-13
 -1       303 2.51334E+01-2.59942E+00-2.98678E-01-6.01693E+00-8.02691E-14-2.02838E-13
 -1       304 1.32098E+01-6.68958E+00-6.81489E-01-5.02509E+00 3.48999E-13 1.93304E-13
 -1       305 4.56130E+00-8.86603E+00-6.55584E-01-3.69530E+00 3.30264E-13 1.24199E-13
 -1       306-1.21619E+00-1.22581E+01-1.06334E+00-1.16405E-01 5.13797E-13 1.22402E-14
 -1       307-1.33087E+00-1.11118E+01-8.56487E-01 2.10773E+00 3.82278E-13-3.21354E-13
 -1       308 1.92313E+00-9.52248E+00-8.26268E-01 3.90242E+00 6.52811E-14-3.92471E-13
 -1       309 8.47547E+00-5.18156E+00-5.13579E-01 6.15206E+00-2.26319E-13-7.36251E-13
 -1       310 1.75381E+01-6.16280E-01-1.24840E-01 8.09664E+00-4.75953E-13-6.43513E-13
 -1       311 2.81621E+01 3.09310E+00 2.89045E-01 9.02440E+00-4.86056E-13-1.06304E-12
 -1       312 3.85052E+01 5.47680E+00 6.62020E-01 8.17664E+00-6.09571E-13-1.18844E-12
 -1       313 4.60955E+01 6.84202E+00 8.76424E-01 4.75075E+00-4.08229E-13-1.32588E-12
 -1       314 5.00364E+01 7.25205E+00 1.02786E+00 6.12852E-01-3.32179E-13-9.15545E-13
 -1       315 4.47173E+01 7.54673E+00 6.06156E-01-2.51180E+00-3.34704E-13-4.20955E-13
 -1       316 4.12276E+01 5.98151E+00 7.14799E-01-7.19293E+00 8.48349E-14-1.87822E-13
 -1       317 3.18186E+01 3.02585E+00 3.28693E-01-7.90808E+00 2.40891E-13 2.35367E-14
 -1       318 2.20189E+01-1.42103E+00-3.98414E-03-8.02296E+00-1.24123E-13-1.98175E-13
 -1       319 1.00647E+01-4.32351E+00-4.35185E-01-6.61751E+00-1.83020E-13-8.19345E-14
 -1       320 2.99119E+00-8.71043E+00-7.74319E-01-4.37185E+00 4.14696E-13 7.75137E-13
 -1       321-8.22804E-01-1.17672E+01-9.80673E-01-2.43007E+00 4.81726E-13 1.83339E-13
 -1       322 2.01454E+01 3.01529E+00-1.78509E-02-2.10996E+00-1.26769E-13 6.19990E-14
 -1       323 2.07555E+01 2.20817E+00-1.78124E-02-2.36319E+00-1.20088E-13 1.55771E-13
 -1       324 1.95844E+01 3.69220E+00-1.51393E-02-1.31690E+00-1.07722E-13-4.72014E-14
 -1       325 1.94610E+01 3.84901E+00-1.35866E-02-9.23437E-01-9.04312E-14-6.57608E-14
 -1       326 1.93921E+01 3.93993E+00-1.26839E-02-5.43771E-01-5.06383E-14-7.66058E-14
 -1       327 1.93616E+01 3.98128E+00-1.22877E-02-1.73237E-01-2.26486E-14-1.05197E-13
 -1       328 1.93629E+01 3.97964E+00-1.23106E-02 1.94342E-01-1.21863E-14-1.10592E-13
 -1       329 1.93962E+01 3.93469E+00-1.27586E-02 5.65259E-01 4.05768E-15-1.17578E-13
 -1       330 1.94670E+01 3.84130E+00-1.37691E-02 9.39136E-01 2.21861E-14-1.15275E-13
 -1       331 1.95938E+01 3.67889E+00-1.56569E-02 1.33317E+00 7.18144E-14-1.03504E-13
 -1       332 1.98091E+01 3.41009E+00-1.88319E-02 1.73852E+00 9.09115E-14-9.94118E-14
 -1       333 2.01792E+01 2.95525E+00-2.29361E-02 2.12711E+00 1.16803E-13-6.27666E-14
 -1       334 2.07485E+01 2.12941E+00-3.04658E-02 2.32210E+00 1.19502E-13 9.76823E-15
 -1       335 2.10947E+01 1.18770E+00-2.49199E-02 1.92190E+00 1.05017E-13 9.22352E-14
 -1       336 2.03910E+01 4.89282E-01 8.33586E-03 9.27313E-01 9.44115E-14 7.00312E-14
 -1       337 2.04575E+01 6.75791E-01 1.23557E-02-1.02519E+00-9.36091E-14 1.61664E-13
 -1       338 2.00366E+01 3.36861E-01 7.10828E-03-4.57564E-01-8.81166E-14 1.22977E-13
 -1       339 1.97825E+01 1.76706E-01 4.12824E-03-1.48418E-01-2.28484E-14 1.50056E-13
 -1       340 1.96474E+01 9.08251E-02 1.90079E-03 2.31268E-02-1.67525E-14 1.25361E-13
 -1       341 1.95927E+01 4.18928E-02 7.97572E-04 1.14808E-01-4.62362E-14 1.34125E-13
 -1       342 1.95883E+01 1.31964E-02 2.81780E-04 1.58766E-01-9.27550E-14 1.33822E-13
 -1       343 1.96136E+01-3.42697E-03 2.87118E-05 1.73986E-01-1.34980E-14 1.88069E-13
 -1       344 1.96550E+01-1.24112E-02-1.00129E-04 1.72329E-01-9.06576E-14 1.27519E-13
 -1       345 1.97035E+01-1.64048E-02-1.60379E-04 1.61501E-01-8.83833E-14 6.90326E-14
 -1       346 1.97539E+01-1.71085E-02-1.78203E-04 1.46611E-01-3.00539E-14 3.28271E-14
 -1       347 1.98033E+01-1.56723E-02-1.68998E-04 1.31044E-01 1.37939E-14 4.49234E-14
 -1       348 1.98502E+01-1.29134E-02-1.43406E-04 1.16995E-01 6.58111E-17 1.00121E-13
 -1       349 1.98945E+01-9.45610E-03-1.09667E-04 1.05781E-01-9.15411E-14 1.02998E-13
 -1       350 1.99365E+01-5.84181E-03-7.50392E-05 9.80217E-02 1.39950E-14 8.03772E-14
 -1       351 1.99772E+01-2.62706E-03-4.69482E-05 9.36935E-02-3.83636E-14 1.03286E-13
 -1       352 2.00173E+01-4.77580E-04-3.39712E-05 9.20834E-02-9.93921E-14 1.03824E-13
 -1       353 2.00575E+01-2.54011E-04-4.65336E-05 9.16453E-02 3.10143E-14 1.32623E-13
 -1       354 2.00979E+01-3.07183E-03-9.70365E-05 8.97798E-02-4.93295E-14 1.23864E-13
 -1       355 2.01375E+01-1.02984E-02-1.98942E-04 8.25837E-02-2.23959E-15 1.18463E-13
 -1       356 2.01740E+01-2.34252E-02-3.64144E-04 6.46641E-02-7.08671E-15 3.64807E-14
 -1       357 2.02033E+01-4.37275E-02-5.97957E-04 2.91837E-02 5.39733E-14 1.01626E-13
 -1       358 2.02188E+01-7.16137E-02-8.91381E-04-3.16010E-02 9.08226E-14 1.66787E-13
 -1       359 2.02111E+01-1.05613E-01-1.21167E-03-1.24968E-01 3.00680E-14 1.33915E-13
 -1       360 2.01682E+01-1.41105E-01-1.49353E-03-2.55190E-01-5.92056E-15 1.11068E-13
 -1       361 2.00764E+01-1.69236E-01-1.63899E-03-4.19717E-01-4.55523E-14 1.29631E-13
 -1       362 1.99227E+01-1.76958E-01-1.53502E-03-6.04650E-01 5.54559E-14 3.37820E-13
 -1       363 1.96993E+01-1.49467E-01-1.08949E-03-7.81192E-01-6.98904E-15 2.82354E-13
 -1       364 1.94103E+01-7.59807E-02-2.85552E-04-9.06145E-01-1.39835E-14 2.16490E-13
 -1       365 1.90787E+01 4.21034E-02 7.95152E-04-9.29877E-01-1.65701E-13 3.64169E-13
 -1       366 1.87494E+01 1.84545E-01 1.92630E-03-8.12949E-01-1.20160E-13 3.75574E-13
 -1       367 1.84834E+01 3.13457E-01 2.86895E-03-5.47076E-01 2.24433E-14 4.19599E-13
 -1       368 1.83401E+01 3.86372E-01 3.36390E-03-1.69156E-01 1.16256E-13 2.47603E-13
 -1       369 1.83549E+01 3.76678E-01 3.31940E-03 2.44056E-01-3.27635E-14 3.82351E-13
 -1       370 1.85230E+01 2.87868E-01 2.70756E-03 6.02345E-01-2.06179E-13 5.65209E-13
 -1       371 1.88020E+01 1.51736E-01 1.70396E-03 8.36049E-01-2.29643E-13 6.89309E-13
 -1       372 1.91299E+01 1.11792E-02 5.38145E-04 9.18431E-01-8.60947E-14 6.02466E-13
 -1       373 1.94479E+01-9.90014E-02-5.13325E-04 8.65986E-01-8.77540E-14 3.03566E-13
 -1       374 1.97154E+01-1.62557E-01-1.25516E-03 7.22254E-01-2.17448E-14 1.43747E-13
 -1       375 1.99139E+01-1.81139E-01-1.61613E-03 5.37143E-01-1.04952E-13 8.83756E-14
 -1       376 2.00428E+01-1.66845E-01-1.64129E-03 3.51836E-01 1.34401E-14 3.20812E-15
 -1       377 2.01119E+01-1.34204E-01-1.42856E-03 1.92700E-01 3.23515E-13-6.19993E-14
 -1       378 2.01355E+01-9.51323E-02-1.08891E-03 7.20365E-02 2.75676E-13 1.39407E-14
 -1       379 2.01281E+01-5.71690E-02-7.12320E-04-7.95191E-03 2.28908E-13 4.96771E-14
 -1       380 2.01026E+01-2.39152E-02-3.63866E-04-5.07097E-02-6.30300E-14 1.56869E-13
 -1       381 2.00693E+01 3.06575E-03-1.40178E-04-6.23254E-02-1.03795E-13 1.69852E-13
 -1       382 2.00396E+01 1.99759E-02 2.11261E-04-5.12520E-02 8.75688E-14 5.15941E-14
 -1       383 1.98895E+01 2.28487E-01 1.07931E-02 3.98643E-01 8.42906E-14 6.81356E-14
 -1       384 1.96011E+01 1.15398E-01 6.17127E-03 1.19906E-01 5.83095E-14 4.03800E-14
 -1       385 1.94667E+01 5.77595E-02 2.80420E-03-2.90801E-02 4.31643E-14-2.62779E-14
 -1       386 1.94274E+01 2.59279E-02 1.17976E-03-1.06194E-01 1.89149E-14-2.43224E-14
 -1       387 1.94438E+01 7.58919E-03 4.55980E-04-1.41764E-01 1.97572E-14-5.24704E-14
 -1       388 1.94910E+01-2.95709E-03 1.11669E-04-1.52828E-01 5.85836E-14-4.46714E-14
 -1       389 1.95530E+01-8.64673E-03-6.43052E-05-1.49677E-01 3.20791E-14-5.95372E-14
 -1       390 1.96201E+01-1.11752E-02-1.51780E-04-1.38897E-01-7.11806E-16-6.84477E-14
 -1       391 1.96866E+01-1.15893E-02-1.83701E-04-1.24851E-01 9.46232E-14-2.94638E-14
 -1       392 1.97499E+01-1.05467E-02-1.77031E-04-1.10514E-01 7.29261E-14-3.38886E-15
 -1       393 1.98089E+01-8.43753E-03-1.41283E-04-9.79973E-02 9.97542E-14-5.23268E-15
 -1       394 1.98646E+01-5.44058E-03-8.06535E-05-8.89328E-02-8.54048E-14-3.74764E-14
 -1       395 1.99186E+01-1.53925E-03 5.58584E-06-8.47823E-02 5.29242E-15-1.01945E-13
 -1       396 1.99739E+01 3.49444E-03 1.23588E-04-8.71448E-02 5.00497E-14-1.00187E-13
 -1       397 2.00346E+01 1.01518E-02 2.86293E-04-9.80982E-02 1.66352E-13-1.35241E-13
 -1       398 2.01061E+01 1.92862E-02 5.15812E-04-1.20633E-01 6.66956E-14-4.52695E-14
 -1       399 2.01957E+01 3.22757E-02 8.46834E-04-1.59247E-01-1.10311E-13-1.46448E-13
 -1       400 2.03129E+01 5.12698E-02 1.33015E-03-2.20775E-01-1.43190E-13-1.18628E-13
 -1       401 2.04707E+01 7.95269E-02 2.03235E-03-3.15547E-01-1.34484E-13-2.17989E-13
 -1       402 2.06860E+01 1.21789E-01 3.01982E-03-4.58891E-01 1.27856E-13-2.62705E-13
 -1       403 2.09804E+01 1.84432E-01 4.29958E-03-6.72761E-01 8.28296E-14-2.41906E-13
 -1       404 2.13804E+01 2.74549E-01 5.67751E-03-9.86591E-01-1.80496E-14-2.42843E-13
 -1       405 2.19156E+01 3.95595E-01 6.54695E-03-1.43466E+00-4.54619E-14 1.87108E-14
 -1       406 2.26158E+01 5.33845E-01 5.90049E-03-2.04319E+00-3.57431E-14 4.97689E-14
 -1       407 2.35116E+01 6.24290E-01 3.60265E-03-2.79318E+00-6.25615E-14 3.26595E-13
 -1       408 2.46570E+01 4.80189E-01 3.69242E-03-3.53565E+00-2.10810E-13 4.05412E-13
 -1       409 2.62062E+01-2.84752E-01 1.61822E-02-3.83400E+00-1.79690E-13 4.14467E-13
 -1       410 2.85817E+01-2.09076E+00 5.03868E-02-2.82627E+00-1.87402E-13 3.28594E-13
 -1       411 3.18376E+01-3.94069E+00-1.41348E-02 1.02715E-01-2.14308E-13 3.18391E-14
 -1       412 3.98089E+01 6.73129E-01 1.08128E-01 4.21465E+00-1.58235E-13 2.20740E-13
 -1       413 4.11994E+01 5.50300E+00 1.99618E-01-2.29340E+00 4.31238E-13 1.72570E-13
 -1       414 3.84223E+01 5.23188E-01-2.73724E-02-4.51905E+00 5.91346E-13-2.64871E-13
 -1       415 3.42719E+01-4.00210E+00-1.09627E-01-2.61531E+00 8.93012E-14-3.42032E-13
 -1       416 2.96489E+01-4.25795E+00 4.04995E-02 1.88625E+00-3.81820E-13 1.62128E-13
 -1       417 2.61518E+01-1.50576E+00 3.36793E-02 3.92528E+00-1.20876E-14 1.42599E-13
 -1       418 2.43021E+01 1.51280E-01 1.31123E-02 4.13729E+00 3.92316E-14 1.35000E-13
 -1       419 2.32315E+01 7.13778E-01 6.91503E-03 3.51296E+00 1.32347E-13-7.89126E-15
 -1       420 2.24659E+01 7.43449E-01 7.67684E-03 2.69565E+00-3.37213E-14 4.49626E-14
 -1       421 2.18530E+01 5.97335E-01 8.25884E-03 1.96195E+00 5.94815E-14-1.43113E-13
 -1       422 2.13530E+01 4.32796E-01 7.35272E-03 1.39033E+00 2.30921E-13-1.14185E-13
 -1       423 2.09537E+01 3.00208E-01 5.72924E-03 9.73610E-01 1.86022E-13 2.30505E-13
 -1       424 2.06435E+01 2.07248E-01 4.09308E-03 6.77579E-01-1.05910E-13 5.23737E-13
 -1       425 2.04095E+01 1.49765E-01 3.15992E-03 4.65836E-01-4.51051E-13 9.35033E-14
 -1       426 2.02288E+01 1.21490E-01 7.17443E-04 3.00894E-01-4.02273E-13-2.05052E-13
 -1       427 2.01254E+01 1.05590E-01 1.28705E-03 1.88215E-01-5.54597E-13 5.66865E-16
 -1       428 1.99550E+01 4.40395E-01-2.98031E-04 2.73009E-01-6.11966E-14-2.72519E-13
 -1       429 2.00257E+01 3.11639E-01 4.72943E-04 2.92930E-01-2.31892E-13-3.96860E-13
 -1       430 1.99073E+01 5.31278E-01-6.53362E-04 1.93766E-01 3.22228E-13-4.33590E-13
 -1       431 1.98887E+01 5.72933E-01-9.34666E-04 8.05147E-02 3.22822E-14 2.25634E-13
 -1       432 1.98985E+01 5.61429E-01-9.02482E-04-3.51384E-02-2.14834E-13-6.10286E-14
 -1       433 1.99273E+01 5.05868E-01-7.10259E-04-1.28254E-01-4.53562E-13 1.90893E-15
 -1       434 1.99633E+01 4.22186E-01-4.33805E-04-1.85348E-01-4.09839E-13-2.79622E-13
 -1       435 1.99966E+01 3.27763E-01-1.47483E-04-2.04612E-01-1.63554E-13-6.97756E-14
 -1       436 2.00204E+01 2.38768E-01 9.76282E-05-1.93452E-01 2.33789E-13 6.84566E-14
 -1       437 2.00333E+01 1.61666E-01 2.54154E-04-1.62755E-01 2.94817E-13 4.27201E-13
 -1       438 2.00368E+01 1.02190E-01 3.80956E-04-1.23930E-01 2.79023E-13 2.69030E-13
 -1       439 2.00341E+01 5.99064E-02 4.23486E-04-8.56662E-02 1.37459E-13-1.54227E-13
 -1       440 1.00809E+01-6.06390E+00-7.05198E-02 5.96854E+00 1.71752E-13-8.03510E-13
 -1       441 7.72475E-01-4.38828E+00-3.65623E-02-2.01162E+00-6.28352E-14 3.71703E-13
 -1       442 2.27131E+00-5.32186E+00-1.02077E-01 2.65471E+00-3.50900E-14-1.14547E-13
 -1       443 2.12187E+01-6.89238E+00-4.06956E-02 5.66655E+00-4.52138E-14 4.13614E-13
 -1       444 3.08276E+01-5.79044E+00-6.45642E-02 2.43614E+00-1.96121E-13 5.73042E-13
 -1       445 1.97876E+01 3.44002E+00-2.06921E-02-1.72581E+00-1.13989E-13-1.43128E-14
 -1       446 4.04024E+01 5.15410E+00 1.52484E-01 2.79666E+00-5.66214E-14 3.37563E-13
 -1       447 3.48386E+01-4.54478E+00-3.36353E-02-7.94551E-01-2.28359E-13-2.87215E-13
 -1       448 2.50564E+01-6.61588E+00-1.49949E-01-4.64666E+00 2.28512E-13-4.51167E-14
 -1       449 1.47475E+01-6.31450E+00-4.56458E-02-6.24550E+00 2.05058E-13 1.87142E-13
 -1       450 4.45142E+00-4.15370E+00 2.79722E-02-3.88154E+00 2.93654E-14 8.37108E-14
 -1       451 1.31581E+00-3.57954E+00 4.94495E-02 4.44519E-02-7.52176E-14 5.66214E-15
 -1       452 2.66487E+00-5.01983E+00-6.14523E-02 5.19515E+00-1.88058E-13-6.95818E-13
 -1       453 9.90076E+00-5.10536E+00 2.47135E-02 8.13943E+00-2.11234E-13-7.05797E-13
 -1       454 1.79846E+01-5.05338E+00-2.09806E-02 8.08790E+00-1.71335E-13-6.45275E-13
 -1       455 2.64179E+01-3.00662E+00 9.92662E-03 6.20083E+00-2.30663E-13-7.52565E-13
 -1       456 3.29030E+01 8.53214E-01 5.92479E-02 3.68237E+00-2.43914E-13-8.55732E-13
 -1       457 3.69142E+01 5.07972E+00 8.60883E-02 1.44592E+00-2.51146E-13-8.92328E-13
 -1       458 3.75536E+01 8.50502E+00 2.76614E-02-5.21081E-02-6.03961E-13-5.83852E-13
 -1       459 3.67173E+01 8.98122E+00-5.95705E-02 3.81217E-02-6.73073E-13-5.75859E-13
 -1       460 3.51666E+01 5.40353E+00-1.04367E-01 4.14512E-02 1.18072E-13-3.58658E-13
 -1       461 3.35600E+01 1.56910E+00-3.37585E-02-1.39260E+00 1.01700E-13-3.63640E-13
 -1       462 2.94870E+01-2.02594E+00-1.05667E-03-4.24557E+00 1.48825E-13-2.32703E-13
 -1       463 1.96821E+01-5.19162E+00 1.93310E-02-7.90041E+00 1.72376E-13-1.96444E-13
 -1       464 1.19971E+01-5.21898E+00 3.08818E-02-8.35785E+00 3.22908E-13 1.75242E-13
 -1       465 3.82710E+00-5.08772E+00-5.04871E-02-5.90264E+00 1.98827E-13 5.01585E-13
 -1       466 3.69935E+01-2.90257E+00 4.09214E-03-1.07586E+00 3.62248E-13-2.02421E-13
 -1       467 3.44325E+01-4.68001E+00-2.32954E-02 1.36496E+00-3.28799E-13-3.91354E-15
 -1       468 2.60892E+01-5.00083E+00-7.87573E-03-5.18932E+00-3.06213E-14-4.21933E-13
 -1       469 3.20142E+01 7.12268E+00-1.67628E-01 1.34995E+00-3.58824E-13-5.62446E-13
 -1       470 1.17282E+01-3.23581E+00 1.51616E-01-6.00099E+00-6.63636E-14 4.67265E-14
 -1       471 2.03730E+01 8.32033E-01 4.02821E-03 9.71801E-01 7.79476E-14 1.41358E-15
 -1       472 1.97335E+01 3.10472E+00-5.32181E-03-6.33752E-01-5.81665E-14-5.06492E-14
 -1       473 1.98298E+01 2.93138E+00-5.69679E-03-9.49892E-01-6.92368E-14-4.50226E-14
 -1       474 1.96660E+01 3.22741E+00-5.02230E-03 8.75819E-03-1.70173E-14-9.86264E-14
 -1       475 1.96845E+01 3.19431E+00-5.10457E-03 3.30305E-01-8.88486E-15-1.07496E-13
 -1       476 1.97381E+01 3.09744E+00-5.43158E-03 6.45611E-01 4.90873E-15-1.04837E-13
 -1       477 1.98366E+01 2.91938E+00-5.97511E-03 9.61136E-01 5.03479E-14-7.42039E-14
 -1       478 1.99920E+01 2.63411E+00-6.52806E-03 1.25653E+00 7.07539E-14-8.54653E-14
 -1       479 2.02336E+01 2.18803E+00-5.69117E-03 1.50132E+00 8.11681E-14-8.02891E-14
 -1       480 8.56272E+00-2.29890E+00 1.81550E-01 6.81397E+00-3.28758E-13-5.93400E-13
 -1       481 2.01115E+01 4.53675E-01 5.06512E-03 4.63853E-01 7.81130E-14-1.26591E-15
 -1       482 2.03448E+01 9.71502E-01 2.41570E-03-9.41870E-01-1.16477E-13 5.93641E-14
 -1       483 2.01717E+01 5.44399E-01 2.03985E-03-4.67191E-01-5.42059E-14 5.27411E-14
 -1       484 2.00247E+01 3.04306E-01 1.11253E-03-1.65554E-01-5.31226E-14 4.42097E-14
 -1       485 1.99243E+01 1.62626E-01 4.65595E-04 1.64564E-02-5.09807E-14 3.07109E-14
 -1       486 1.98660E+01 7.68479E-02 1.64037E-04 1.19922E-01-6.34728E-14 4.23093E-14
 -1       487 1.98394E+01 2.48104E-02 2.70547E-05 1.72537E-01-4.27169E-14 8.03881E-14
 -1       488 1.98344E+01-5.78931E-03-3.97088E-05 1.92996E-01-8.10802E-14 4.13413E-14
 -1       489 1.98431E+01-2.23062E-02-7.19667E-05 1.94004E-01-1.28009E-13 8.86123E-14
 -1       490 1.98599E+01-2.94315E-02-8.37182E-05 1.84251E-01-1.00518E-13 1.28444E-13
 -1       491 1.98812E+01-3.03076E-02-8.21682E-05 1.69674E-01 8.57384E-15 5.98630E-14
 -1       492 1.99045E+01-2.71284E-02-7.21609E-05 1.54274E-01 2.44854E-14 4.32921E-14
 -1       493 1.99287E+01-2.15048E-02-5.73747E-05 1.40656E-01-8.74740E-15 1.61078E-14
 -1       494 1.99532E+01-1.47264E-02-4.09082E-05 1.30360E-01-4.71784E-14 1.19692E-13
 -1       495 1.99782E+01-7.97790E-03-2.57173E-05 1.24043E-01-3.55551E-14 2.74384E-13
 -1       496 2.00042E+01-2.53873E-03-1.51081E-05 1.21517E-01-9.09171E-14 2.24988E-13
 -1       497 2.00318E+01 3.20082E-05-1.31327E-05 1.21672E-01-1.88253E-14 1.85062E-13
 -1       498 2.00620E+01-2.25862E-03-2.48311E-05 1.22270E-01-8.20391E-14 1.01063E-13
 -1       499 2.00957E+01-1.19104E-02-5.61932E-05 1.19675E-01-7.81337E-14 9.21043E-14
 -1       500 2.01339E+01-3.18309E-02-1.13529E-04 1.08545E-01-7.58032E-15 5.13416E-14
 -1       501 2.01769E+01-6.49213E-02-2.01931E-04 8.16435E-02 3.48472E-14 2.11448E-13
 -1       502 2.02242E+01-1.13164E-01-3.22453E-04 2.99699E-02 1.05890E-13 1.56286E-13
 -1       503 2.02735E+01-1.76030E-01-4.67567E-04-5.64280E-02-1.84602E-14 5.62924E-14
 -1       504 2.03193E+01-2.48181E-01-6.15993E-04-1.86501E-01-5.75307E-14 1.17478E-14
 -1       505 2.03518E+01-3.16855E-01-7.25138E-04-3.64600E-01-3.34610E-14-4.07300E-14
 -1       506 2.03558E+01-3.60161E-01-7.35138E-04-5.85008E-01 1.20113E-13 5.47587E-14
 -1       507 2.03117E+01-3.48580E-01-5.95344E-04-8.25374E-01 1.32405E-14 6.66279E-14
 -1       508 2.02012E+01-2.52517E-01-2.87102E-04-1.04173E+00-1.50491E-14 2.78823E-13
 -1       509 2.00168E+01-5.71623E-02 1.41388E-04-1.17029E+00 1.32743E-14 3.17722E-13
 -1       510 1.97757E+01 2.19458E-01 6.59870E-04-1.14186E+00-9.75954E-14 4.09445E-13
 -1       511 1.95264E+01 5.16195E-01 1.09600E-03-9.10288E-01-3.99748E-14 3.33476E-13
 -1       512 1.93400E+01 7.41295E-01 1.46667E-03-4.85599E-01-5.54415E-14 3.86142E-13
 -1       513 1.92798E+01 8.12480E-01 1.58820E-03 5.13585E-02 8.97730E-14 4.12768E-13
 -1       514 1.93673E+01 7.01853E-01 1.46100E-03 5.73446E-01-1.27288E-14 4.13432E-13
 -1       515 1.95698E+01 4.52001E-01 1.15289E-03 9.59385E-01-1.02610E-13 4.91116E-13
 -1       516 1.98191E+01 1.51390E-01 6.33008E-04 1.14366E+00-1.69924E-13 2.94964E-13
 -1       517 2.00472E+01-1.12964E-01 6.21629E-05 1.13013E+00-4.08916E-13 2.78576E-13
 -1       518 2.02118E+01-2.88296E-01-4.05316E-04 9.72595E-01-2.63467E-13 2.72412E-13
 -1       519 2.03017E+01-3.64264E-01-6.78490E-04 7.41819E-01-9.92977E-14 2.37744E-13
 -1       520 2.03279E+01-3.60151E-01-7.70440E-04 4.98881E-01-4.98685E-14 2.91907E-13
 -1       521 2.03100E+01-3.06135E-01-7.14036E-04 2.83829E-01-1.09089E-13-3.89069E-14
 -1       522 2.02670E+01-2.29918E-01-5.74679E-04 1.16098E-01 1.83128E-13-4.13353E-13
 -1       523 2.02132E+01-1.50778E-01-4.04210E-04 2.30905E-04 1.46705E-13-1.03932E-13
 -1       524 2.01580E+01-7.93504E-02-2.18534E-04-6.77998E-02 2.56284E-13-1.03790E-13
 -1       525 2.01058E+01-1.93863E-02-7.21461E-05-9.48123E-02-1.73133E-13-2.38410E-13
 -1       526 1.98097E+01 1.29576E-01 1.01912E-03-2.04610E-02 4.46065E-14-3.30996E-15
 -1       527 1.97524E+01 6.02920E-02 3.69038E-04-1.19525E-01 4.24613E-14-8.13650E-15
 -1       528 1.97345E+01 1.89274E-02 8.90571E-05-1.68561E-01 4.21289E-14-2.16994E-14
 -1       529 1.97418E+01-5.23979E-03-4.43455E-05-1.86542E-01 1.63946E-14-1.66670E-14
 -1       530 1.97641E+01-1.82808E-02-1.09320E-04-1.85997E-01 1.02041E-14 8.09231E-15
 -1       531 1.97944E+01-2.38900E-02-1.35303E-04-1.75356E-01 8.68278E-14 3.62096E-15
 -1       532 1.98285E+01-2.44111E-02-1.35355E-04-1.60416E-01 6.71004E-14-4.41134E-14
 -1       533 1.98639E+01-2.13131E-02-1.16827E-04-1.45255E-01 7.65361E-14 8.26679E-15
 -1       534 1.98995E+01-1.54277E-02-8.36425E-05-1.32881E-01 1.00808E-14-2.00830E-14
 -1       535 1.99354E+01-7.05535E-03-3.68090E-05-1.25719E-01 2.23148E-14-2.90848E-14
 -1       536 1.99723E+01 4.01547E-03 2.56332E-05-1.26044E-01 2.23367E-14-4.21275E-14
 -1       537 2.00117E+01 1.85671E-02 1.09135E-04-1.36391E-01 1.02392E-13-1.47510E-13
 -1       538 2.00554E+01 3.80993E-02 2.23750E-04-1.60022E-01 8.31910E-14 1.25046E-14
 -1       539 2.01056E+01 6.50840E-02 3.85932E-04-2.01475E-01-4.90817E-14 5.49107E-14
 -1       540 2.01644E+01 1.03354E-01 6.20927E-04-2.67275E-01-5.48745E-14 4.31393E-14
 -1       541 2.02332E+01 1.58626E-01 9.65088E-04-3.66824E-01-5.27195E-14 2.43853E-14
 -1       542 2.03118E+01 2.39078E-01 1.46451E-03-5.13455E-01 3.13135E-14-1.20710E-13
 -1       543 2.03963E+01 3.55649E-01 2.16045E-03-7.25484E-01 8.02983E-14-7.68900E-14
 -1       544 2.04757E+01 5.21040E-01 3.04330E-03-1.02675E+00-2.19759E-14 4.05390E-14
 -1       545 2.05281E+01 7.44821E-01 3.97425E-03-1.44551E+00-7.88324E-14-5.52928E-14
 -1       546 2.05179E+01 1.01864E+00 4.70619E-03-2.00972E+00-1.19086E-13-1.14813E-13
 -1       547 2.04052E+01 1.27928E+00 5.61412E-03-2.73571E+00-1.93330E-13 1.93570E-14
 -1       548 2.01884E+01 1.33484E+00 1.08455E-02-3.60710E+00-1.82284E-13 4.08859E-14
 -1       549 2.00242E+01 7.35345E-01 2.91924E-02-4.56268E+00-3.07496E-13 1.02978E-13
 -1       550 2.05889E+01-1.25988E+00 1.14717E-01-5.27259E+00-2.02453E-13 4.38222E-13
 -1       551 2.03940E+01 1.77294E+00-4.99430E-03-1.54873E+00-1.23606E-13 5.94011E-14
 -1       552 1.99644E+01-3.45152E+00 1.52301E-01 5.93221E+00 3.22242E-14-3.94129E-15
 -1       553 1.95543E+01 1.51374E+00 8.21656E-03 3.22916E+00 2.86561E-13 2.80293E-13
 -1       554 1.99519E+01 1.31742E+00 4.90413E-03 2.44071E+00 4.45191E-14 1.94644E-13
 -1       555 2.01716E+01 1.00989E+00 4.01896E-03 1.80832E+00 1.86351E-13 1.88674E-13
 -1       556 2.02539E+01 7.30001E-01 3.24188E-03 1.32266E+00 1.25762E-13 3.34559E-13
 -1       557 2.02535E+01 5.16093E-01 2.12131E-03 9.59489E-01-1.86998E-13 2.28965E-13
 -1       558 2.02138E+01 3.70176E-01 1.59813E-03 6.90377E-01-1.32926E-13 8.07542E-14
 -1       559 2.01602E+01 2.81308E-01 2.20053E-03 4.84011E-01-1.89757E-13 6.26468E-14
 -1       560 1.97707E+01 5.76904E-01-5.63443E-04 1.65142E-01 2.22125E-13-3.60838E-13
 -1       561 1.98315E+01 5.29998E-01-3.72525E-04 3.11633E-01 5.74720E-14-5.68941E-14
 -1       562 1.99606E+01 4.20206E-01 8.68550E-04 4.07923E-01-1.56803E-13-2.97558E-13
 -1       563 4.41641E+00-7.83970E-01 1.94891E-01 1.06303E+00-3.10290E-13 1.46105E-13
 -1       564 1.97683E+01 5.61448E-01-4.85016E-04-2.81143E-03 1.37090E-13 4.75598E-14
 -1       565 1.98155E+01 4.94408E-01-3.62884E-04-1.47284E-01-2.59976E-13-1.37499E-13
 -1       566 1.98889E+01 3.96712E-01-2.50414E-04-2.44047E-01-3.21048E-13 8.63343E-14
 -1       567 1.99648E+01 2.90710E-01-1.24382E-04-2.85909E-01-9.36778E-14-8.03841E-14
 -1       568 2.00250E+01 1.95736E-01 4.38478E-06-2.80279E-01 1.32608E-13 2.01318E-13
 -1       569 2.00631E+01 1.19188E-01 9.13688E-05-2.41854E-01 2.94284E-13 2.34561E-13
 -1       570 2.00786E+01 6.58636E-02 2.16198E-04-1.88119E-01 2.58065E-13 3.64776E-13
 -1       571 2.00748E+01 3.45688E-02-8.74871E-05-1.33224E-01-1.60243E-14-1.86643E-13
 -1       572 1.99243E+01 2.46741E-01 2.46691E-03 1.58298E-01 7.00048E-14 8.05925E-15
 -1       573 9.44895E+00-2.16264E+00 1.70878E-01 5.21938E+00-2.50897E-13-6.13135E-13
 -1       574 4.91883E+00-1.50120E+00 1.78962E-01-4.41405E+00-2.08687E-13 1.81424E-13
 -1       575 3.24423E+01 6.03883E+00-1.55865E-01-1.34289E+00-2.79041E-13 1.21722E-13
 -1       576 9.95603E+00-3.18320E+00 1.42721E-01-7.56083E+00 2.49238E-13 3.30763E-13
 -1       577 1.90271E+01 1.25705E+00 2.17454E-02 4.16872E+00 1.29856E-13 1.95521E-13
 -1       578 1.88764E+01-1.18720E-01 8.47886E-02 5.23701E+00-1.03272E-13-5.26454E-14
 -1       579 1.96815E+01 3.19881E+00-5.09348E-03-3.12827E-01-2.49012E-14-8.53757E-14
 -1       580 2.39360E+01-5.66767E+00 2.03086E-02-4.80513E+00 5.22499E-14 3.33104E-13
 -1       581 6.14948E+00-3.47560E-01 2.09412E-01-2.40658E+00-2.40512E-13 1.21569E-14
 -1       582 4.62427E+00-5.51753E-01 2.08651E-01 2.68598E+00-4.68008E-13-5.66408E-13
 -1       583 1.69957E+01-4.73850E+00 8.55848E-02 8.06770E+00 9.54792E-15-5.29538E-13
 -1       584 2.42283E+01-5.20773E+00 1.96873E-02 6.11599E+00-7.43225E-14-6.97123E-13
 -1       585 2.95920E+01-2.93843E+00-4.84053E-02 2.26680E+00 2.49679E-14-6.40606E-13
 -1       586 3.19355E+01 1.37567E+00-1.20544E-01-4.27951E-01-9.51184E-14-3.04604E-13
 -1       587 3.19992E+01 8.45836E+00-1.90076E-01-3.64293E-01-4.35055E-13-8.40751E-14
 -1       588 3.03272E+01-1.77641E+00-7.62321E-02-8.65118E-01 1.80907E-13-1.60996E-13
 -1       589 3.08840E+01 2.31021E+00-1.52392E-01 1.49518E+00-5.00433E-14-1.87524E-13
 -1       590 1.77796E+01-4.64474E+00 1.10953E-01-7.91966E+00 3.47229E-13-1.97811E-13
 -1       591 2.05847E+01 1.30526E+00-9.96503E-04 1.54780E+00 9.97032E-14-4.46474E-15
 -1       592 1.99784E+01 2.66805E+00-6.05863E-03-1.25461E+00-9.73867E-14-2.52884E-14
 -1       593 1.42175E+01-2.87987E+00 1.09596E-01 7.49213E+00-1.83131E-13-4.05870E-13
 -1       594 2.30688E+01-5.05571E+00 2.62244E-02-5.87915E+00 3.76574E-14-4.84118E-14
 -1       595 2.92296E+01 7.48002E+00-1.73687E-01 8.11068E-01-3.77171E-13-7.67615E-15
 -1       596 2.00741E+01 1.29204E-02 6.62230E-05-9.44101E-02-2.03992E-13-8.35495E-14
 -1       597 9.56240E+00-7.32837E-01 1.54781E-01-5.67573E+00-2.81025E-15-1.02765E-14
 -1       598 1.99612E+01 2.45002E+00-1.58057E-03 3.94088E-01-1.03219E-14-9.10595E-14
 -1       599 1.99292E+01 2.52529E+00-1.51181E-03 1.35562E-01-1.87078E-14-9.14246E-14
 -1       600 2.01214E+01 2.04632E+00-1.60105E-03 8.49829E-01 4.82009E-14-6.37940E-14
 -1       601 2.02391E+01 1.67636E+00-2.22604E-03 9.91990E-01 6.24863E-14-8.06824E-14
 -1       602 2.16362E+01-4.60591E+00 6.18453E-02 6.31493E+00 1.00153E-13-4.90513E-13
 -1       603 2.03193E+01 1.03696E+00 2.93836E-03 8.31057E-01 7.64881E-14-7.23566E-14
 -1       604 2.02933E+01 1.12096E+00 2.86009E-04-7.65099E-01-9.88744E-14 4.83392E-14
 -1       605 2.02398E+01 6.74363E-01 5.63622E-04-3.92828E-01-6.55892E-14 2.56367E-14
 -1       606 2.01678E+01 3.93036E-01 2.36687E-04-1.38450E-01-6.82850E-14 1.47924E-14
 -1       607 2.01026E+01 2.14329E-01 6.89591E-05 2.40919E-02-4.24924E-14 1.34181E-14
 -1       608 2.00526E+01 1.01055E-01 8.56388E-06 1.20261E-01-7.21436E-14-2.53828E-15
 -1       609 2.00180E+01 3.06652E-02-1.37140E-05 1.70712E-01-5.88563E-14-1.77111E-14
 -1       610 1.99960E+01-1.09477E-02-2.36976E-05 1.91187E-01-3.40630E-14 3.89739E-14
 -1       611 1.99838E+01-3.30237E-02-2.79850E-05 1.93205E-01-5.29362E-14 1.93246E-13
 -1       612 1.99784E+01-4.18264E-02-2.82564E-05 1.85007E-01-1.00846E-13 2.04220E-13
 -1       613 1.99780E+01-4.17326E-02-2.56422E-05 1.72393E-01-4.41146E-14 1.48209E-13
 -1       614 1.99810E+01-3.59021E-02-2.11644E-05 1.59340E-01 5.70979E-15 8.71356E-14
 -1       615 1.99866E+01-2.67405E-02-1.57672E-05 1.48463E-01 3.57311E-14 1.57978E-13
 -1       616 1.99943E+01-1.62684E-02-1.02769E-05 1.41312E-01 2.89506E-14 1.63841E-13
 -1       617 2.00045E+01-6.44845E-03-5.61270E-06 1.38523E-01-5.15347E-14 2.40305E-13
 -1       618 2.00177E+01 5.09487E-04-2.89217E-06 1.39838E-01-1.52209E-13 3.26713E-13
 -1       619 2.00352E+01 1.86789E-03-3.53681E-06 1.43992E-01-1.09050E-13 2.57569E-13
 -1       620 2.00592E+01-5.85007E-03-9.44196E-06 1.48467E-01-4.76207E-14 1.97718E-13
 -1       621 2.00925E+01-2.69083E-02-2.29451E-05 1.49150E-01-6.96646E-14 2.23517E-13
 -1       622 2.01390E+01-6.60771E-02-4.66422E-05 1.39914E-01 3.28087E-14 1.73180E-13
 -1       623 2.02031E+01-1.27777E-01-8.28704E-05 1.12289E-01 2.43799E-14 1.88071E-13
 -1       624 2.02887E+01-2.14331E-01-1.32406E-04 5.54148E-02-4.33795E-14 1.27665E-13
 -1       625 2.03980E+01-3.23045E-01-1.90988E-04-4.32564E-02-6.09389E-14 1.32983E-13
 -1       626 2.05282E+01-4.42105E-01-2.46645E-04-1.95817E-01-7.92173E-14 1.96812E-13
 -1       627 2.06680E+01-5.46102E-01-2.61120E-04-4.09326E-01 1.19103E-13 3.21968E-13
 -1       628 2.07938E+01-5.93677E-01-1.88033E-04-6.77945E-01 1.66705E-13 2.82207E-13
 -1       629 2.08704E+01-5.31869E-01-4.80387E-05-9.72298E-01 1.29744E-13 3.74601E-13
 -1       630 2.08591E+01-3.12905E-01 7.44139E-05-1.23032E+00-6.06185E-14 4.79812E-13
 -1       631 2.07377E+01 7.51785E-02 4.22587E-05-1.35943E+00 2.33768E-14 3.81265E-13
 -1       632 2.05261E+01 5.75323E-01 2.15791E-04-1.26196E+00-3.69215E-14 2.68470E-13
 -1       633 2.02972E+01 1.05066E+00 3.11518E-04-8.85460E-01 8.43227E-14 4.18599E-13
 -1       634 2.01569E+01 1.32614E+00 7.93337E-04-2.78482E-01-8.30284E-14 5.11848E-13
 -1       635 2.01737E+01 1.29030E+00 6.11281E-04 4.03476E-01 3.16490E-14 4.33744E-13
 -1       636 2.03411E+01 9.54828E-01 6.39216E-04 9.69746E-01-1.66391E-13 2.20452E-13
 -1       637 2.05727E+01 4.59297E-01 5.79188E-04 1.28430E+00-3.73720E-13 2.12272E-13
 -1       638 2.07690E+01-2.83872E-02 2.64213E-04 1.32425E+00-2.47958E-13-8.94878E-14
 -1       639 2.08663E+01-3.85073E-01-2.99412E-05 1.15452E+00-2.04661E-13 1.72558E-14
 -1       640 2.08545E+01-5.68295E-01-1.91718E-04 8.76623E-01-1.54157E-13 1.67843E-13
 -1       641 2.07620E+01-6.00959E-01-2.92355E-04 5.79050E-01-1.46140E-13-1.48437E-13
 -1       642 2.06284E+01-5.33757E-01-2.83393E-04 3.17057E-01-2.28204E-13-6.07261E-14
 -1       643 2.04864E+01-4.17252E-01-2.35436E-04 1.15013E-01-2.37449E-14 1.63300E-13
 -1       644 2.03568E+01-2.88609E-01-1.63810E-04-2.35046E-02 2.11414E-13-9.31246E-14
 -1       645 2.02478E+01-1.68634E-01-8.53825E-05-1.05598E-01 5.96829E-14-3.75868E-13
 -1       646 2.01631E+01-6.90772E-02 3.59432E-05-1.41062E-01-5.86441E-14-5.40908E-13
 -1       647 1.97590E+01 4.08967E-01-7.39955E-05-3.07000E-01-1.36165E-13 1.16577E-13
 -1       648 7.86027E+00 1.39148E+00 1.69910E-01 4.68654E-02-4.24475E-13-3.20063E-13
 -1       649 1.99434E+01 2.74661E-02 1.68324E-06-1.73087E-01 3.21381E-14-1.65183E-14
 -1       650 2.00269E+01 1.91514E-01 2.33072E-04-2.22166E-02 3.51655E-14-1.94609E-14
 -1       651 1.99289E+01-9.21146E-03-2.58149E-05-1.93390E-01 1.15666E-14-1.17208E-14
 -1       652 1.99260E+01-2.87053E-02-3.96688E-05-1.94782E-01 6.36104E-14-8.62673E-14
 -1       653 1.99307E+01-3.63987E-02-4.39757E-05-1.85869E-01 7.42633E-14-6.56796E-15
 -1       654 1.99405E+01-3.57972E-02-4.12567E-05-1.72786E-01 1.71108E-14-1.23862E-14
 -1       655 1.99533E+01-2.90898E-02-3.29660E-05-1.59980E-01 3.26328E-14 8.73614E-14
 -1       656 1.99682E+01-1.74417E-02-1.98858E-05-1.50819E-01-9.35915E-15 1.18755E-13
 -1       657 1.99844E+01-1.11965E-03-1.92220E-06-1.48087E-01 1.31979E-16 1.14183E-13
 -1       658 2.00014E+01 2.05042E-02 2.19682E-05-1.54408E-01 9.16690E-14 1.33056E-13
 -1       659 2.00186E+01 4.90675E-02 5.41930E-05-1.72653E-01 5.76324E-14 1.94278E-13
 -1       660 2.00346E+01 8.74651E-02 9.90463E-05-2.06340E-01 6.36501E-14 2.15829E-13
 -1       661 2.00467E+01 1.40243E-01 1.63175E-04-2.60052E-01-6.07164E-14 1.46983E-13
 -1       662 2.00498E+01 2.14134E-01 2.56594E-04-3.39855E-01 8.81708E-15 4.50310E-14
 -1       663 2.00344E+01 3.18654E-01 3.92822E-04-4.53659E-01-1.12356E-14 1.93211E-14
 -1       664 1.99836E+01 4.66481E-01 5.85411E-04-6.11362E-01 9.87631E-14 5.11502E-14
 -1       665 1.98690E+01 6.72829E-01 8.34718E-04-8.24548E-01 2.87982E-14 4.14952E-14
 -1       666 1.96448E+01 9.52008E-01 1.10401E-03-1.10550E+00-5.66238E-14 7.04141E-14
 -1       667 1.92419E+01 1.30732E+00 1.37953E-03-1.46580E+00-6.01912E-14 2.80104E-14
 -1       668 1.85640E+01 1.70718E+00 2.26084E-03-1.91716E+00-2.29378E-13 9.51969E-14
 -1       669 1.74961E+01 2.03370E+00 6.85855E-03-2.48478E+00-1.88958E-13 8.24677E-14
 -1       670 1.59434E+01 1.98037E+00 2.95974E-02-3.25027E+00-3.17559E-13 1.21580E-13
 -1       671 1.38712E+01 1.09660E+00 1.33574E-01-4.38972E+00-3.89747E-13 3.14922E-14
 -1       672 1.92066E+01 1.21913E+00 1.02862E-03 1.28408E+00-3.43042E-14 2.68349E-14
 -1       673 7.74795E+00 1.23864E+00 1.87097E-01-1.54405E+00-1.34096E-13 1.98716E-13
 -1       674 1.98756E+01 5.24785E-01 5.56943E-05 5.63605E-01-1.14751E-14 1.00926E-13
 -1       675 1.73236E+01-3.43439E+00 1.38799E-01-5.99630E+00-6.54060E-14 3.39742E-13
 -1       676 1.99745E+01 8.95860E-02 4.78443E-05-1.21726E-01 6.82206E-14-2.02706E-14
 -1       677 1.85557E+01 1.61956E+00 1.53978E-03 1.63823E+00 1.84253E-13-3.53045E-14
 -1       678 1.75226E+01 2.01380E+00 4.46301E-03 2.06982E+00 3.34770E-13 6.81260E-14
 -1       679 1.95922E+01 8.91865E-01 7.24527E-04 9.96180E-01-1.01916E-13 2.45920E-13
 -1       680 1.97695E+01 6.76292E-01 1.13090E-03 7.55197E-01 5.68553E-14 3.57034E-14
 -1       681 1.96425E+01 5.40248E-01-1.45790E-04-1.59464E-01-1.78834E-13-6.84147E-13
 -1       682 1.95882E+01 6.28215E-01-3.13964E-04 4.98232E-02-6.14919E-14-3.73281E-13
 -1       683 1.98939E+01 2.67750E-01-5.33393E-05-3.77707E-01-1.18690E-13 1.04916E-13
 -1       684 2.00108E+01 1.45210E-01 5.23858E-05-3.78901E-01-1.19494E-13 5.37940E-13
 -1       685 2.00927E+01 5.29986E-02 1.04403E-04-3.30108E-01-2.50086E-15 1.75212E-13
 -1       686 2.01336E+01-3.94053E-03 2.16865E-04-2.55816E-01 1.61533E-13 4.56421E-13
 -1       687 1.38766E+01 1.66230E+00 7.20444E-02 3.46437E+00-2.32942E-13-4.18556E-13
 -1       688 2.87226E+01-5.59684E-01-7.19138E-02 1.08176E+00-6.11247E-14 2.10800E-13
 -1       689 8.77058E+00 1.04772E-01 1.70720E-01 4.57239E+00-2.96988E-13-4.73455E-13
 -1       690 2.91988E+01 2.89744E+00-1.30955E-01-2.03586E+00-2.27041E-13 3.06304E-13
 -1       691 1.59689E+01 2.19550E+00 1.75294E-02 2.62459E+00-1.68027E-13-2.61536E-13
 -1       692 2.02056E+01 6.14366E-01 1.08618E-03 4.19519E-01 5.47924E-14-6.11775E-14
 -1       693 2.01047E+01 3.54314E-01 6.31717E-04 1.48116E-01 5.71084E-14-4.74134E-14
 -1       694 9.40282E+00 6.32510E-01 1.46537E-01 3.30406E+00-3.29427E-13-4.03254E-13
 -1       695 1.96297E+01 6.46323E-01 1.48391E-04 2.80619E-01 2.99951E-14-1.80179E-13
 -1       696 2.89969E+01-1.25719E+00-7.24570E-02-5.71416E-01 8.83408E-14 1.65493E-14
 -1       697 2.86019E+01 6.48470E+00-1.63223E-01-1.43740E+00-1.80439E-13 2.86658E-13
 -1       698 2.00249E+01 2.29531E+00-1.67575E-03 6.37330E-01 2.35257E-14-5.11339E-14
 -1       699 2.00193E+01 2.30573E+00-1.62331E-03-6.29237E-01-2.74996E-14-5.05946E-14
 -1       700 2.01146E+01-1.24680E-02-1.95631E-04-1.43637E-01 5.18711E-14-3.39102E-13
 -1       701 2.64551E+01-4.36164E+00-1.11685E-02 2.91130E+00 1.65408E-13-1.65199E-13
 -1       702 2.74270E+01-4.01640E+00-1.93233E-02-2.30401E+00-1.01916E-13-2.07209E-13
 -1       703 1.49698E+01-2.80045E+00 1.19721E-01-7.25101E+00 2.72449E-13-1.91479E-14
 -1       704 2.80138E+01 4.51994E+00-1.48621E-01 2.03297E+00-4.03413E-13 1.95595E-13
 -1       705 2.01176E+01 2.06478E+00-1.87975E-03-8.53755E-01-6.60801E-14-5.55101E-15
 -1       706 1.99282E+01 2.52697E+00-1.51056E-03-1.26528E-01-1.59078E-14-9.83522E-14
 -1       707 1.99578E+01 2.45602E+00-1.56645E-03-3.84132E-01-3.51131E-14-2.43522E-14
 -1       708 2.68636E+01 6.70174E+00-1.24992E-01-3.00434E-01-2.60722E-13 1.64680E-13
 -1       709 2.02640E+01 1.68924E+00-1.92839E-03-1.12884E+00-1.04648E-13 3.57021E-14
 -1       710 1.97677E+01-3.89449E+00 5.30828E-02-6.43475E+00-1.37321E-14 2.91793E-13
 -1       711 1.27146E+01-7.17263E-01 9.36699E-02 5.83156E+00-2.10075E-13-3.11765E-13
 -1       712 2.70006E+01 1.85448E+00-6.64962E-02 2.14066E+00-2.84573E-13 1.78670E-13
 -1       713 1.03355E+01 1.63309E+00 9.95909E-02 2.19695E+00-3.27791E-13-2.30517E-13
 -1       714 2.02654E+01 1.30913E+00 5.07271E-04 6.30867E-01 4.40283E-14-4.47075E-14
 -1       715 1.82848E+01-2.72758E+00 5.74394E-02 6.13754E+00-6.23321E-14-3.85624E-13
 -1       716 2.00643E+01-1.64519E-02-1.14995E-05-1.83930E-01 7.34434E-14-1.28412E-13
 -1       717 2.70520E+01 5.92402E-01-5.08865E-02-1.88211E+00-1.20967E-13 1.42298E-13
 -1       718 2.02895E+01 7.32046E-01 2.73236E-05-2.90080E-01-6.51941E-14 3.04106E-14
 -1       719 2.02624E+01 4.35109E-01-1.97788E-05-9.22092E-02-5.36203E-14 2.54653E-14
 -1       720 2.02223E+01 2.37597E-01-1.21904E-05 3.83391E-02-8.66203E-14 1.73341E-14
 -1       721 2.01808E+01 1.08742E-01-1.26752E-05 1.16949E-01-1.02703E-13 1.93161E-14
 -1       722 2.01430E+01 2.77938E-02-9.93870E-06 1.58540E-01-6.28638E-15-2.06318E-14
 -1       723 2.01108E+01-1.97049E-02-8.81327E-06 1.75388E-01 2.52660E-14 1.09010E-15
 -1       724 2.00843E+01-4.39272E-02-8.04500E-06 1.76955E-01-2.54449E-14 7.18316E-14
 -1       725 2.00630E+01-5.21173E-02-7.17644E-06 1.70270E-01-7.90837E-14 1.79343E-13
 -1       726 2.00462E+01-4.95264E-02-6.00273E-06 1.60401E-01-2.36422E-14 2.60201E-13
 -1       727 2.00332E+01-4.00573E-02-4.66323E-06 1.50902E-01 2.89929E-14 1.55575E-13
 -1       728 2.00236E+01-2.67851E-02-3.11780E-06 1.44177E-01-3.02402E-14 1.17876E-13
 -1       729 2.00174E+01-1.24222E-02-1.66778E-06 1.41729E-01 3.80050E-14 8.53753E-14
 -1       730 2.00149E+01 2.60628E-04-5.10021E-07 1.44277E-01-4.69578E-14 1.12529E-13
 -1       731 2.00174E+01 8.02319E-03 1.90626E-07 1.51775E-01-1.02509E-13 2.04574E-13
 -1       732 2.00273E+01 6.77807E-03-9.36889E-08 1.63265E-01-1.22129E-13 2.62423E-13
 -1       733 2.00484E+01-8.67530E-03-2.14475E-06 1.76585E-01-1.44796E-14 3.05765E-13
 -1       734 2.00865E+01-4.46642E-02-7.13515E-06 1.87890E-01-5.64946E-14 3.03521E-13
 -1       735 2.01491E+01-1.08151E-01-1.69123E-05 1.90999E-01-2.03838E-14 2.62724E-13
 -1       736 2.02456E+01-2.05356E-01-3.40793E-05 1.76611E-01-3.22547E-14 2.27388E-13
 -1       737 2.03859E+01-3.38989E-01-6.05757E-05 1.31634E-01 5.74359E-15 3.52847E-13
 -1       738 2.05770E+01-5.03587E-01-9.10135E-05 3.91241E-02-1.12277E-13 3.05746E-13
 -1       739 2.08187E+01-6.78766E-01-1.16577E-04-1.19942E-01-6.57025E-15 2.65860E-13
 -1       740 2.10957E+01-8.21641E-01-5.15858E-05-3.60955E-01 2.03236E-13 2.16231E-13
 -1       741 2.13700E+01-8.62735E-01 1.82704E-04-6.83572E-01 2.13343E-13 2.37330E-13
 -1       742 2.15802E+01-7.14595E-01 3.11887E-04-1.05221E+00 5.32634E-14 3.04619E-13
 -1       743 2.16555E+01-3.04057E-01-1.57387E-04-1.37721E+00-7.25312E-14 4.33069E-13
 -1       744 2.15575E+01 3.66193E-01-1.00813E-03-1.51531E+00-1.21991E-13 4.63104E-13
 -1       745 2.13224E+01 1.16374E+00-2.80351E-04-1.32178E+00 1.33270E-13 5.32011E-13
 -1       746 2.10840E+01 1.81194E+00 3.31724E-04-7.40307E-01-4.10233E-14 4.85872E-13
 -1       747 2.10018E+01 2.01933E+00 9.87963E-04 8.22721E-02-8.70073E-14 4.09897E-13
 -1       748 2.11244E+01 1.70171E+00 6.30805E-04 8.77347E-01-1.68649E-13 1.71114E-14
 -1       749 2.13817E+01 9.86385E-01 1.18778E-04 1.37306E+00-2.76101E-13 1.21330E-13
 -1       750 2.15959E+01 1.97699E-01-7.39613E-05 1.48950E+00-4.81104E-13 7.46120E-14
 -1       751 2.16614E+01-4.29686E-01-7.76928E-05 1.29357E+00-1.65004E-13 1.06451E-14
 -1       752 2.15533E+01-7.82482E-01-4.85636E-05 9.42244E-01-2.17147E-14 5.97596E-14
 -1       753 2.13244E+01-8.81935E-01-2.02258E-04 5.72915E-01-2.29929E-13 1.20019E-13
 -1       754 2.10465E+01-8.09034E-01-1.56130E-04 2.61908E-01-1.50936E-13 2.68974E-13
 -1       755 2.07758E+01-6.47956E-01-1.04115E-04 3.58965E-02 5.71557E-14 2.18320E-13
 -1       756 2.05445E+01-4.61336E-01-3.40380E-05-1.08278E-01-6.81592E-14 2.80245E-13
 -1       757 2.03639E+01-2.85552E-01 1.08668E-04-1.85958E-01 3.46633E-15 2.83682E-13
 -1       758 2.02316E+01-1.36817E-01 2.62715E-04-2.14308E-01 1.28856E-13 1.42188E-13
 -1       759 1.99697E+01 9.54826E-02 2.21447E-05-5.08377E-01 2.42664E-13 2.74974E-13
 -1       760 1.88302E+01 1.20974E+00-1.57224E-03 6.95462E-01-3.15645E-13-2.90859E-14
 -1       761 2.00914E+01 2.83258E-02-8.83366E-06-1.65637E-01 1.14997E-14-9.27957E-14
 -1       762 2.00309E+01-4.68564E-02-1.23702E-05-1.78608E-01 1.46387E-14-2.93503E-14
 -1       763 2.00217E+01-4.32543E-02-1.10513E-05-1.68338E-01-3.16770E-14-6.02052E-14
 -1       764 2.00159E+01-3.12068E-02-8.12264E-06-1.59046E-01-6.36621E-14-4.68796E-14
 -1       765 2.00119E+01-1.20171E-02-3.83297E-06-1.53897E-01-2.97182E-14 9.43607E-14
 -1       766 2.00083E+01 1.42424E-02 1.32507E-06-1.55467E-01 4.64501E-15 4.78741E-14
 -1       767 2.00029E+01 4.87306E-02 7.29723E-06-1.66057E-01 1.23878E-14 1.36417E-13
 -1       768 1.99927E+01 9.39897E-02 1.51226E-05-1.87928E-01 6.33911E-14 2.01916E-13
 -1       769 1.99727E+01 1.54219E-01 2.55557E-05-2.23454E-01 6.94761E-14 2.17283E-13
 -1       770 1.99350E+01 2.35664E-01 3.98667E-05-2.75120E-01 3.53911E-14 6.55322E-14
 -1       771 1.98670E+01 3.47042E-01 5.94185E-05-3.45286E-01 6.80748E-14 9.62466E-14
 -1       772 1.97485E+01 4.99769E-01 8.40186E-05-4.35540E-01-9.93315E-15 2.68841E-14
 -1       773 1.95480E+01 7.07481E-01 1.05381E-04-5.45446E-01 4.31554E-14 1.49773E-13
 -1       774 1.92174E+01 9.83764E-01 9.57437E-05-6.70558E-01-6.08949E-15 1.76609E-13
 -1       775 1.86849E+01 1.33606E+00 2.48003E-05-8.00114E-01 3.97452E-14 6.62545E-14
 -1       776 1.78466E+01 1.75236E+00 2.47816E-04-9.16192E-01-1.12896E-13 7.02491E-14
 -1       777 1.65542E+01 2.17635E+00 3.34449E-03-9.99528E-01-2.97406E-13-1.00805E-13
 -1       778 1.46004E+01 2.45588E+00 2.26375E-02-1.04363E+00-2.45446E-13-1.96347E-13
 -1       779 1.18064E+01 2.37518E+00 7.83071E-02-6.47594E-01-3.93603E-13-2.24279E-13
 -1       780 1.26944E+01 2.38592E+00 6.78624E-02 6.39293E-01-1.09188E-13-1.65163E-13
 -1       781 1.97672E+01 2.72661E-01 2.17559E-05-4.98652E-01 3.27377E-14 2.07097E-13
 -1       782 2.61503E+01 5.45779E+00-9.90070E-02 1.31072E+00-3.49464E-13 8.22276E-14
 -1       783 1.80944E+01 1.58828E+00-3.12657E-05 7.57032E-01-7.37932E-14 3.25288E-14
 -1       784 1.93623E+01 8.03681E-01-5.87408E-04 3.28615E-01-1.65604E-13-1.48544E-13
 -1       785 1.69580E+01 2.00484E+00 2.34682E-03 7.59882E-01 1.69638E-13-2.87344E-13
 -1       786 1.95545E+01 4.72695E-01 1.51905E-04-3.85595E-01 1.28895E-13-3.84325E-13
 -1       787 1.39000E+01-6.00562E-01 8.44441E-02-5.46294E+00 1.81907E-13 2.48510E-13
 -1       788 1.11768E+01 1.38964E+00 8.74219E-02-2.97212E+00 8.90329E-14-1.66155E-13
 -1       789 1.52487E+01 2.37544E+00 1.37690E-02 6.95839E-01 7.07410E-14-3.51867E-13
 -1       790 1.93963E+01 6.52168E-01 3.92060E-04-1.61306E-01-2.08277E-14-2.83938E-13
 -1       791 2.01199E+01-3.20557E-02 4.49133E-05-4.41630E-01 1.07070E-13 4.50899E-13
 -1       792 2.02015E+01-1.02928E-01-8.78599E-06-3.35676E-01 6.47066E-14 4.16614E-13
 -1       793 2.01717E+01 2.26490E-01-7.51840E-05-3.40770E-02 2.18323E-14-1.25150E-13
 -1       794 2.01396E+01 1.89035E+00-2.95874E-04 1.98852E-01-2.25040E-14-8.12410E-14
 -1       795 2.45317E+01-4.24628E+00 1.27831E-02-3.65390E+00 2.21568E-14-4.05445E-13
 -1       796 2.33858E+01-3.90545E+00 2.38345E-02 4.02525E+00 1.20169E-13-2.04996E-13
 -1       797 2.01272E+01 1.04540E-01-3.50952E-06-1.20362E-01 7.07036E-14-8.47766E-14
 -1       798 1.93331E+01 7.53496E-01-3.09477E-04 6.52493E-02-2.26666E-13-3.29422E-13
 -1       799 1.03139E+01 2.10032E+00 1.07052E-01-2.56896E-01-2.05405E-13-3.84866E-14
 -1       800 2.02784E+01 9.41209E-01-1.32651E-04 5.51346E-01 5.25996E-14-6.10659E-14
 -1       801 2.02848E+01 1.16817E+00 1.51867E-04-5.68209E-01-8.28071E-14 2.53187E-14
 -1       802 2.66510E+01-2.64806E+00-3.45131E-02 2.19667E-01 2.15444E-13-3.67597E-14
 -1       803 2.00446E+01-3.93541E-02-1.26153E-05-1.85687E-01 3.61081E-15-9.74316E-14
 -1       804 2.68186E+01-2.59885E+00-1.73944E-02-1.55901E-01 6.50283E-14 4.51276E-13
 -1       805 2.65551E+01 3.70688E+00-8.19879E-02-2.08138E+00-1.82569E-13-7.96897E-14
 -1       806 2.01280E+01 1.92850E+00-3.32336E-04 3.20184E-03-2.27890E-14-1.22937E-13
 -1       807 2.02243E+01 1.58038E+00 2.28762E-04 5.36176E-01 1.97116E-14-4.15636E-14
 -1       808 2.61894E+01-6.70325E-01-2.65075E-02 1.43819E+00-6.53470E-14 5.08638E-14
 -1       809 2.02146E+01 1.59462E+00-8.45674E-04-5.27391E-01-6.26583E-14 8.99652E-15
 -1       810 1.91136E+01 9.85859E-01-7.54018E-04 4.76182E-01-1.78237E-14-9.02077E-14
 -1       811 1.73618E+01-1.94523E+00 4.46722E-02-5.70922E+00-5.72112E-15 4.81490E-13
 -1       812 2.55398E+01 3.43065E+00-4.34595E-02 1.98566E+00-3.19113E-13-3.36953E-14
 -1       813 2.02326E+01 5.74276E-01 8.92420E-05 2.57683E-01 5.12023E-14-7.23480E-14
 -1       814 2.01744E+01 1.77540E+00-1.83609E-05 3.82822E-01-2.51981E-15-5.02563E-14
 -1       815 2.48168E+01-3.26780E+00 1.51983E-04 1.62896E+00 1.00295E-13-1.02884E-13
 -1       816 2.52512E+01 4.84832E+00-5.47840E-02-1.36247E+00-2.59077E-13-5.05889E-14
 -1       817 2.01997E+01 3.72636E-01 1.66514E-05 8.39586E-02 1.42609E-14-7.94984E-14
 -1       818 1.26020E+01 9.44391E-01 5.93033E-02 3.71075E+00-2.58585E-13-3.49843E-13
 -1       819 2.01687E+01 1.78365E+00-3.61603E-04-3.73456E-01-3.17710E-14-3.61663E-14
 -1       820 2.01372E+01 1.89298E+00-6.19623E-04-1.92298E-01-3.02293E-14-5.56696E-14
 -1       821 2.45800E+01 5.08014E+00-7.04082E-02 3.77315E-02-2.56543E-13 2.76240E-14
 -1       822 2.03303E+01 4.34295E-01-4.86668E-05-4.46042E-02-7.94451E-14 4.08534E-14
 -1       823 2.03043E+01 2.32754E-01-9.37716E-07 5.03643E-02-7.68774E-14 2.80102E-15
 -1       824 2.02673E+01 9.97450E-02-6.76198E-06 1.07596E-01-8.20982E-14 5.61862E-14
 -1       825 2.02270E+01 1.64108E-02-4.83842E-06 1.37511E-01 2.15665E-15 4.36818E-14
 -1       826 2.01874E+01-3.13467E-02-3.11918E-06 1.49103E-01 3.27920E-15 1.44126E-14
 -1       827 2.01506E+01-5.39234E-02-1.91497E-06 1.49579E-01-6.78572E-16-3.05186E-14
 -1       828 2.01175E+01-5.90254E-02-1.76935E-06 1.44450E-01-3.72596E-14 2.96453E-14
 -1       829 2.00883E+01-5.23792E-02-1.60335E-06 1.37772E-01-1.49332E-14 4.66052E-14
 -1       830 2.00628E+01-3.83168E-02-8.96521E-07 1.32509E-01 7.08556E-15 7.42063E-14
 -1       831 2.00409E+01-2.03790E-02-6.44267E-07 1.30824E-01-2.23582E-16 1.78841E-13
 -1       832 2.00228E+01-1.82894E-03-7.71666E-07 1.34265E-01-3.78549E-14 1.46615E-13
 -1       833 2.00093E+01 1.38466E-02-5.93725E-07 1.43909E-01-3.16649E-14 1.22564E-13
 -1       834 2.00024E+01 2.24025E-02-4.31794E-07 1.60367E-01-9.36596E-14 1.61763E-13
 -1       835 2.00056E+01 1.83558E-02-6.69116E-07 1.83641E-01 2.03676E-14 2.67204E-13
 -1       836 2.00250E+01-5.37051E-03-1.75525E-06 2.12751E-01-6.97121E-14 3.50777E-13
 -1       837 2.00694E+01-5.74919E-02-4.89295E-06 2.45066E-01 1.33074E-14 3.43788E-13
 -1       838 2.01511E+01-1.47744E-01-1.29804E-05 2.75179E-01-6.08714E-14 3.24505E-13
 -1       839 2.02858E+01-2.85035E-01-3.12035E-05 2.93305E-01 1.17009E-14 2.48233E-13
 -1       840 2.04908E+01-4.73593E-01-6.16218E-05 2.83300E-01-1.24741E-13 1.15892E-13
 -1       841 2.07813E+01-7.06105E-01-8.48362E-05 2.20788E-01-6.13441E-14 2.40531E-13
 -1       842 2.11615E+01-9.52522E-01-1.34386E-04 7.35375E-02 3.90729E-14 2.99379E-13
 -1       843 2.16127E+01-1.14699E+00 7.67694E-05-1.91332E-01 2.51802E-13 1.60946E-13
 -1       844 2.20772E+01-1.17711E+00 9.47037E-04-5.88337E-01 1.78553E-13 1.05539E-13
 -1       845 2.24515E+01-9.01727E-01 1.99171E-04-1.07812E+00 8.17244E-14 2.33777E-13
 -1       846 2.26139E+01-2.03538E-01-1.41522E-03-1.52104E+00-2.90970E-14 1.76418E-13
 -1       847 2.24664E+01 8.55392E-01-9.43722E-04-1.68001E+00 1.63824E-13 2.72368E-13
 -1       848 2.22260E+01 2.03477E+00 2.18239E-03-1.33071E+00-5.30517E-14 2.82243E-13
 -1       849 2.19403E+01 2.82813E+00-7.50740E-03-4.25175E-01-1.09085E-13-9.83838E-15
 -1       850 2.19946E+01 2.67400E+00 1.37748E-03 6.44767E-01-2.62279E-13 1.53067E-13
 -1       851 2.21990E+01 1.84292E+00-1.12290E-02 1.44129E+00-2.58960E-13-1.88397E-14
 -1       852 2.25676E+01 6.26707E-01 6.00168E-03 1.67934E+00-4.12238E-13 2.28225E-15
 -1       853 2.26247E+01-4.06014E-01 8.27408E-04 1.42191E+00-1.87036E-13 2.60058E-13
 -1       854 2.24042E+01-1.01522E+00-4.08428E-04 9.43362E-01-8.69829E-14 4.04371E-13
 -1       855 2.20033E+01-1.21149E+00-4.80675E-04 4.62557E-01 8.73336E-14 2.83614E-13
 -1       856 2.15401E+01-1.13266E+00-2.16595E-04 8.81027E-02-1.04192E-13 4.34330E-13
 -1       857 2.11050E+01-9.13738E-01-7.27095E-05-1.53719E-01-7.20894E-14 2.37945E-13
 -1       858 2.07473E+01-6.55672E-01 6.95979E-05-2.83001E-01 1.75973E-14 3.33414E-13
 -1       859 2.04805E+01-4.14777E-01 2.63648E-04-3.30895E-01 3.14450E-13 4.20899E-13
 -1       860 2.03203E+01-2.47652E-01-9.59494E-05-3.46756E-01 6.96725E-14 5.15568E-13
 -1       861 2.02291E+01-1.92702E-01-1.11167E-03-5.10126E-01 2.83440E-13 4.06923E-13
 -1       862 2.00742E+01-4.53695E-02-2.79850E-06-1.50750E-01-5.44521E-14-3.94886E-14
 -1       863 2.00983E+01-5.38399E-02-2.07475E-06-1.58217E-01-1.00106E-14-1.05012E-13
 -1       864 2.00312E+01 1.08800E-03 1.37261E-06-1.42551E-01-3.23885E-14-8.28773E-14
 -1       865 2.00081E+01 3.79522E-02 6.09987E-07-1.46047E-01-3.93009E-14-7.51314E-14
 -1       866 1.99794E+01 8.55234E-02 5.75587E-08-1.56388E-01-2.17240E-14-2.90051E-14
 -1       867 1.99399E+01 1.46871E-01-9.54347E-07-1.74155E-01 2.82525E-14 2.50403E-14
 -1       868 1.98816E+01 2.26731E-01-2.35125E-06-1.99052E-01 1.37408E-13-9.37208E-16
 -1       869 1.97924E+01 3.31642E-01-4.79684E-06-2.29313E-01 1.41230E-14 9.47390E-15
 -1       870 1.96546E+01 4.69874E-01-9.85120E-06-2.60619E-01 3.32932E-14-6.14465E-14
 -1       871 1.94420E+01 6.50770E-01-2.31959E-05-2.84314E-01-2.48305E-14-8.56467E-14
 -1       872 1.91165E+01 8.82815E-01-6.16752E-05-2.84718E-01-3.86064E-14-7.38454E-14
 -1       873 1.86239E+01 1.16933E+00-1.47260E-04-2.35561E-01-3.48368E-14-4.99449E-14
 -1       874 1.78877E+01 1.50012E+00-1.96266E-04-9.61254E-02-1.19185E-13-5.21052E-14
 -1       875 1.68004E+01 1.83659E+00 9.51669E-04 1.90728E-01-9.36725E-14-6.65299E-14
 -1       876 1.52119E+01 2.08688E+00 1.18988E-02 7.05588E-01-2.48124E-13-2.23492E-13
 -1       877 1.32082E+01 2.12688E+00 4.26100E-02 1.34215E+00-3.17498E-13-2.31447E-13
 -1       878 1.98841E+01 5.60777E-02 1.91097E-05-6.91736E-01-2.90092E-14 3.02764E-13
 -1       879 1.82229E+01 1.32905E+00-8.80732E-04 6.11514E-02-1.75186E-13-6.05117E-14
 -1       880 1.26793E+01 2.01474E+00 4.28206E-02-1.58816E+00 1.47920E-14-2.87418E-13
 -1       881 1.73048E+01 1.62558E+00 1.52632E-04-2.24265E-01 3.41075E-14 1.09534E-13
 -1       882 1.95633E+01 3.14069E-01 1.73867E-04-6.65865E-01 8.29591E-14 2.30703E-15
 -1       883 1.41876E+01 7.33116E-01 4.96208E-02-3.70062E+00 3.79991E-14-1.25891E-13
 -1       884 1.60034E+01 1.86831E+00 3.93675E-04-7.31882E-01-5.88243E-15-2.59480E-13
 -1       885 1.62054E+01-8.72344E-01 4.14268E-02 5.14444E+00-8.94814E-14-4.04152E-13
 -1       886 1.92503E+01 5.93748E-01-1.28666E-03-4.83826E-01 1.97809E-14-6.06860E-13
 -1       887 2.02700E+01 2.33470E-01 8.51386E-06-4.79341E-02 3.31629E-14-3.44913E-14
 -1       888 2.00524E+01-2.66399E-02-7.29472E-07-1.44714E-01-7.10229E-14-7.54972E-14
 -1       889 2.02318E+01 1.02663E-01-3.56635E-06-1.14202E-01 3.46543E-14-5.13056E-14
 -1       890 2.01934E+01 2.05844E-02-2.11148E-06-1.48950E-01 3.99565E-14-1.50057E-14
 -1       891 2.18149E+01-3.37073E+00 1.34528E-02-4.44991E+00 1.56774E-13-4.24780E-13
 -1       892 2.03345E+01 7.28870E-01-8.31884E-05-1.88058E-01-5.61168E-14 6.13351E-14
 -1       893 2.53634E+01-1.00663E+00-2.40408E-02-1.25686E+00 1.35606E-13 1.27270E-14
 -1       894 2.03026E+01 1.10568E+00 1.71829E-04-3.46808E-01-5.62744E-14 3.22896E-14
 -1       895 2.47042E+01-3.18719E+00 7.30687E-03-1.53444E+00 1.80744E-13 1.64385E-13
 -1       896 2.00904E+01-9.41484E-02 4.25399E-04-6.24521E-01 2.33005E-13 3.09387E-13
 -1       897 2.50641E+01 1.80645E+00-3.01546E-02-2.05683E+00-2.02408E-14-1.60153E-13
 -1       898 2.05353E+01-2.40227E+00 2.31049E-02 4.25715E+00-4.01046E-14-1.51478E-13
 -1       899 2.02971E+01 8.24295E-01-4.50614E-04 3.44985E-01 5.08315E-14-1.55447E-14
 -1       900 2.39922E+01 4.13480E+00-3.59414E-02 1.04604E+00-3.33699E-13-2.76038E-13
 -1       901 2.50888E+01-2.22277E+00-7.59724E-03 1.53221E-01 2.28330E-13 2.19149E-13
 -1       902 2.02760E+01 1.40803E+00-1.85197E-05 6.95541E-02-3.67242E-14-7.83002E-14
 -1       903 2.46335E+01-2.08566E+00 1.02207E-03-1.97384E-01 1.90770E-13 1.78785E-14
 -1       904 1.90357E+01 9.32382E-01 1.74872E-03 1.19688E-01-8.38968E-14-5.65366E-13
 -1       905 2.01260E+01-4.91771E-02-1.87471E-06-1.63757E-01-4.61215E-15-9.02672E-14
 -1       906 2.40444E+01 2.99523E+00-2.69893E-02-1.73490E+00-2.41139E-13-4.10311E-14
 -1       907 1.86812E+01 1.11429E+00 1.69742E-03 9.71453E-02-1.24894E-13-3.55663E-13
 -1       908 2.52178E+01 1.07217E+00-2.03463E-02 1.99286E+00-2.21428E-13-2.33934E-13
 -1       909 1.90588E+01 7.99867E-01 4.78009E-04-2.54142E-01 8.36191E-16 9.12421E-14
 -1       910 2.03003E+01 4.34647E-01-2.66281E-05 6.17433E-02 3.70447E-14-1.62414E-14
 -1       911 1.63771E+01-3.90552E-01 2.28135E-02-4.39212E+00 1.18662E-13 6.94366E-13
 -1       912 2.02929E+01 1.28079E+00 1.58955E-03-2.63734E-01-3.39975E-14-9.82290E-15
 -1       913 2.01577E+01-2.66932E-02-2.21585E-06-1.62737E-01 5.84146E-14-2.52568E-14
 -1       914 2.02864E+01 1.33818E+00-5.72322E-04 1.96506E-01-1.42300E-14-3.88838E-14
 -1       915 2.25581E+01-2.78221E+00 7.81200E-05 2.70465E+00 6.17746E-14 5.45438E-14
 -1       916 2.03798E+01 3.97638E-01-7.36208E-05-8.23451E-03-7.92751E-14 2.39091E-14
 -1       917 2.03581E+01 2.04711E-01-1.56680E-06 5.35230E-02-5.09509E-14 5.24222E-15
 -1       918 2.03214E+01 7.73622E-02-6.01727E-07 8.97777E-02-2.31133E-14 5.45339E-14
 -1       919 2.02778E+01-1.11561E-03-1.17355E-06 1.08078E-01-3.46053E-14 4.34244E-14
 -1       920 2.02322E+01-4.40271E-02 5.53431E-07 1.14496E-01 8.51267E-15 3.40986E-14
 -1       921 2.01878E+01-6.15243E-02 1.34336E-06 1.14106E-01 5.26311E-14 9.79207E-14
 -1       922 2.01461E+01-6.13809E-02-1.25004E-06 1.10802E-01 2.28033E-15 1.04303E-13
 -1       923 2.01075E+01-4.93494E-02-1.45532E-07 1.07583E-01 3.85548E-14 1.34809E-13
 -1       924 2.00723E+01-2.98169E-02 1.14662E-06 1.06881E-01 5.89214E-14 1.00050E-13
 -1       925 2.00402E+01-6.57356E-03-9.82259E-07 1.10694E-01-1.08673E-14 1.63118E-13
 -1       926 2.00117E+01 1.68609E-02-1.56444E-06 1.20848E-01-3.06708E-14 2.40315E-13
 -1       927 1.99877E+01 3.64852E-02-1.51594E-06 1.39169E-01-4.28392E-14 2.83829E-13
 -1       928 1.99707E+01 4.72190E-02-1.19403E-06 1.67504E-01 4.35300E-14 3.07352E-13
 -1       929 1.99655E+01 4.22775E-02-2.36774E-07 2.07612E-01 4.77259E-14 3.34485E-13
 -1       930 1.99799E+01 1.26211E-02 1.42724E-06 2.60749E-01-3.22291E-14 3.34326E-13
 -1       931 2.00263E+01-5.32935E-02 2.16972E-06 3.26720E-01-7.39183E-15 2.86386E-13
 -1       932 2.01223E+01-1.69022E-01-4.41794E-06 4.02116E-01-9.77900E-14 1.83513E-13
 -1       933 2.02917E+01-3.48073E-01-3.20978E-05 4.77389E-01-5.31695E-14 2.08580E-13
 -1       934 2.05626E+01-5.99087E-01-9.27194E-05 5.32888E-01-2.36836E-14 2.79838E-13
 -1       935 2.09646E+01-9.16897E-01-1.02214E-04 5.33182E-01 5.85831E-14 4.28749E-13
 -1       936 2.15149E+01-1.26226E+00-9.73873E-05 4.22551E-01-3.12472E-14 3.78286E-13
 -1       937 2.21941E+01-1.53887E+00-5.96278E-04 1.28052E-01 1.41345E-13 9.91426E-14
 -1       938 2.29100E+01-1.56622E+00-7.68447E-04-3.75046E-01 1.76743E-13-5.59036E-14
 -1       939 2.35112E+01-1.10657E+00 1.83018E-03-1.05253E+00 6.20533E-14-7.03972E-14
 -1       940 2.37661E+01 5.45367E-02-1.15818E-03-1.67034E+00 1.24910E-13 1.59126E-13
 -1       941 2.30608E+01 3.97834E+00-3.00564E-02 1.25626E-01-6.87115E-14-6.86833E-14
 -1       942 2.34549E+01-1.27182E+00 6.05376E-04 9.02741E-01-5.93319E-14 6.42097E-14
 -1       943 2.28048E+01-1.61476E+00-4.90263E-04 2.26988E-01 1.62339E-14 2.24760E-13
 -1       944 2.20822E+01-1.52022E+00-9.06525E-05-2.44326E-01-6.00739E-14 1.56878E-13
 -1       945 2.14282E+01-1.20862E+00-9.45903E-05-4.92707E-01-1.48674E-13 3.47253E-13
 -1       946 2.09179E+01-8.53351E-01 2.59670E-04-5.75254E-01 3.46042E-14 6.76199E-13
 -1       947 2.05545E+01-5.35830E-01-1.28334E-04-5.60497E-01 1.36020E-13 4.62911E-13
 -1       948 2.03712E+01-3.52056E-01 1.22251E-04-5.48438E-01 5.77758E-14 3.10430E-13
 -1       949 2.01371E+01-5.65434E-02 2.25135E-06-1.27707E-01-3.27598E-14-5.46740E-14
 -1       950 2.03782E+01 6.75113E-01-3.92692E-04-1.06899E-01-6.01814E-14-1.48437E-14
 -1       951 1.99892E+01 6.60558E-02 1.56198E-06-1.18397E-01-5.86831E-14-5.73996E-14
 -1       952 2.00298E+01 1.98597E-02 3.43975E-06-1.16878E-01-2.63242E-14-1.63654E-15
 -1       953 1.98740E+01 1.96508E-01-3.68406E-06-1.26753E-01-1.55790E-15-1.56811E-13
 -1       954 1.97835E+01 2.87380E-01-5.18039E-06-1.27543E-01 4.39888E-14 7.03210E-14
 -1       955 1.96547E+01 4.01171E-01-5.09936E-06-1.17390E-01 7.55496E-14 1.25716E-13
 -1       956 1.94698E+01 5.42198E-01-2.33741E-06-8.39367E-02 4.76809E-14 1.41492E-13
 -1       957 1.92047E+01 7.12574E-01 2.92037E-06-7.22982E-03-5.05098E-14 4.43565E-14
 -1       958 1.88280E+01 9.08423E-01 9.72070E-06 1.43783E-01-1.18335E-13 2.67409E-14
 -1       959 1.83005E+01 1.11339E+00 3.17799E-05 4.15538E-01 1.62039E-14 3.06568E-14
 -1       960 1.75768E+01 1.28686E+00 2.81469E-04 8.74311E-01-4.03385E-14-1.25270E-14
 -1       961 1.66063E+01 1.34600E+00 4.28063E-03 1.62234E+00-1.13471E-13 7.20437E-14
 -1       962 1.54454E+01 1.24070E+00 1.67313E-02 2.58627E+00-2.21543E-13-6.76685E-14
 -1       963 2.02757E+01 1.40967E+00 2.24395E-04-6.45546E-02-5.04316E-14-1.05116E-13
 -1       964 2.03591E+01 4.13166E-01 2.31104E-05 1.99437E-02 3.75827E-14 1.49971E-14
 -1       965 1.80348E+01 1.12342E+00 3.99817E-03-7.72575E-01 3.08929E-14-2.93369E-13
 -1       966 1.97336E+01 2.95474E-02 4.89151E-04-9.56154E-01 5.20416E-14 1.38682E-13
 -1       967 2.03237E+01 1.02380E+00 1.27335E-04 2.88578E-01 1.92521E-14-4.07688E-14
 -1       968 1.92481E+01 3.99194E-01 3.89385E-04-8.99500E-01 1.04608E-13-2.19548E-13
 -1       969 2.03002E+01 8.59777E-02-5.12194E-06-1.00531E-01 2.08757E-14 1.39347E-14
 -1       970 1.98123E+01-2.01885E+00 1.36862E-02-4.27628E+00 1.63068E-13-2.07896E-13
 -1       971 2.03363E+01 2.15918E-01 4.33034E-05-5.54095E-02 5.60618E-14 2.45972E-14
 -1       972 1.81389E+01-6.61278E-01 1.75356E-02 3.75036E+00-2.57262E-14-2.51668E-13
 -1       973 2.24554E+01-2.68842E+00 5.80341E-03-2.66958E+00 9.03923E-14-1.72688E-14
 -1       974 1.72346E+01 1.16967E+00 2.13224E-03-1.44737E+00-6.85819E-14-1.90306E-13
 -1       975 2.02994E+01 6.08948E-01-2.36759E-04 1.80553E-01 5.73065E-14-2.00710E-14
 -1       976 2.03440E+01 9.46879E-01-1.27887E-03-1.75005E-01-4.21126E-14-1.51481E-14
 -1       977 2.02883E+01 1.36052E+00 1.29689E-03-1.72149E-01-4.35368E-14-4.53301E-14
 -1       978 1.99395E+01 1.24014E-01-1.34613E-06-1.22348E-01 8.42012E-15-1.09151E-13
 -1       979 2.37776E+01-2.41598E+00 7.05839E-04-6.63438E-01 1.99624E-13 1.52201E-13
 -1       980 2.03189E+01-1.63899E+00 2.63072E-03 3.23098E+00 1.18471E-13 6.24348E-14
 -1       981 2.34031E+01-2.42670E+00 1.20678E-03 9.91016E-01 8.29869E-14 3.75278E-14
 -1       982 2.00623E+01-1.93367E-01-2.38275E-05-8.63269E-01 1.16754E-14 5.46498E-13
 -1       983 1.85043E+01 9.77482E-01 7.38775E-04-5.52009E-01 2.58179E-14-1.99930E-13
 -1       984 2.39820E+01-5.66998E-01-5.70304E-03 1.44630E+00-1.98721E-13-9.78540E-14
 -1       985 2.01754E+01-5.70650E-02 9.20091E-07-1.32071E-01 2.15197E-14 2.19578E-14
 -1       986 2.00660E+01-1.60963E-02 5.20061E-07-1.18353E-01-6.68590E-14-7.17018E-14
 -1       987 1.62388E+01 1.05437E+00 1.11712E-02-2.44000E+00-3.84120E-14 1.53737E-13
 -1       988 2.03703E+01 9.99538E-01 2.39967E-04 2.56645E-04-3.83578E-14-7.33136E-14
 -1       989 2.02587E+01 5.77572E-03 9.19590E-06-1.23650E-01 4.26079E-14 3.21727E-14
 -1       990 2.03510E+01 5.95116E-01 2.17722E-04 1.04126E-01 2.73449E-14 3.37349E-16
 -1       991 2.01010E+01-4.19502E-02 1.64656E-06-1.22430E-01-1.76809E-14-7.68713E-14
 -1       992 2.03702E+01 9.71601E-01 5.07435E-04 7.91045E-02-1.78215E-15-3.45326E-14
 -1       993 2.38568E+01 2.47352E+00-2.95546E-02 1.69939E+00-2.54677E-13-1.61851E-13
 -1       994 2.03877E+01 1.60375E-01-3.30741E-05 4.37578E-02-2.40388E-14-2.00573E-14
 -1       995 2.03480E+01 4.63242E-02-2.92114E-05 6.23149E-02-3.59212E-14-2.36784E-15
 -1       996 2.03002E+01-2.13694E-02-1.98414E-05 7.10203E-02 3.52760E-14 5.63702E-14
 -1       997 2.02500E+01-5.53302E-02 7.18965E-06 7.35691E-02 5.80262E-14 1.46377E-13
 -1       998 2.02002E+01-6.52673E-02-9.46902E-06 7.31219E-02 7.69953E-14 1.37833E-13
 -1       999 2.01525E+01-5.83230E-02-7.46805E-06 7.19819E-02 4.28981E-14 2.10313E-13
 -1      1000 2.01072E+01-3.98450E-02 6.40551E-06 7.22354E-02-9.35687E-15 1.49521E-13
 -1      1001 2.00644E+01-1.41540E-02-3.04964E-06 7.60100E-02 6.27682E-14 7.46653E-14
 -1      1002 2.00238E+01 1.52657E-02-4.15795E-06 8.51759E-02-5.87233E-15 8.43039E-14
 -1      1003 1.99852E+01 4.49445E-02-4.80366E-06 1.02238E-01 2.22273E-14 9.06073E-14
 -1      1004 1.99497E+01 7.06875E-02-3.12322E-06 1.30163E-01 3.20857E-14 2.56770E-13
 -1      1005 1.99196E+01 8.69385E-02 2.21620E-06 1.72665E-01 3.08440E-14 2.28653E-13
 -1      1006 1.99001E+01 8.58774E-02 1.42109E-05 2.34195E-01-8.54366E-14 1.01944E-13
 -1      1007 1.99004E+01 5.65231E-02 3.58554E-05 3.19537E-01-2.44049E-14 8.53202E-14
 -1      1008 1.99358E+01-1.60269E-02 6.62195E-05 4.32676E-01-5.11614E-14 3.12854E-14
 -1      1009 2.00298E+01-1.50758E-01 9.10338E-05 5.74305E-01-1.79617E-14 1.76457E-13
 -1      1010 2.02164E+01-3.69052E-01 1.12689E-04 7.36950E-01 7.94644E-14 2.00122E-13
 -1      1011 2.05380E+01-6.87890E-01-3.52575E-05 8.98613E-01 8.00702E-14 3.45105E-13
 -1      1012 2.10551E+01-1.11570E+00 6.77389E-04 1.01077E+00-1.13431E-13 1.83035E-13
 -1      1013 2.17927E+01-1.60135E+00 1.99794E-03 9.97158E-01-7.91958E-14 1.15293E-13
 -1      1014 2.03458E+01-3.98812E-01 3.80265E-04-7.48124E-01-3.97328E-14 6.43367E-13
 -1      1015 2.26200E+01-1.99296E+00-4.45510E-03-8.03238E-01-4.11644E-14 2.34226E-13
 -1      1016 2.16733E+01-1.52651E+00 7.18648E-04-1.03589E+00 6.38437E-14 4.59245E-13
 -1      1017 2.09866E+01-1.03448E+00 1.23369E-04-1.02092E+00 1.21471E-13 5.35587E-13
 -1      1018 2.06024E+01-6.77699E-01 5.23163E-04-8.88074E-01 2.87568E-14 5.77311E-13
 -1      1019 2.04107E+01 5.92551E-01 4.15220E-04-4.07370E-02-4.17290E-14-3.88540E-14
 -1      1020 1.82468E+01-3.95357E-01 1.09075E-02-3.28326E+00 2.09777E-13 4.21211E-13
 -1      1021 1.97066E+01 3.16553E-01-2.80242E-05-1.41611E-02-3.79055E-14-1.11145E-13
 -1      1022 1.98138E+01 2.29262E-01-2.51344E-05-4.76060E-02 3.29136E-14-2.23373E-14
 -1      1023 1.93739E+01 5.26926E-01 1.27165E-05 1.58845E-01 5.26380E-14 1.34520E-13
 -1      1024 1.91245E+01 6.37233E-01 1.06119E-04 3.45194E-01-5.44457E-15-2.16433E-14
 -1      1025 1.88064E+01 7.25980E-01 3.53798E-04 6.46607E-01-1.62778E-13-1.07612E-13
 -1      1026 1.84194E+01 7.52086E-01 1.23998E-03 1.11736E+00-1.21525E-13 1.17421E-13
 -1      1027 1.79768E+01 6.40489E-01 1.40381E-03 1.82282E+00 1.28111E-14 1.43425E-13
 -1      1028 1.78542E+01 1.77908E-01 1.32342E-03 2.72955E+00 3.57214E-14-1.47808E-13
 -1      1029 1.83544E+01 2.03771E-01 5.40009E-04-2.24943E+00 2.84089E-13 2.33187E-13
 -1      1030 2.03675E+01 9.83810E-01-5.21949E-04-6.26806E-02-5.66805E-14-7.64952E-14
 -1      1031 2.02162E+01-3.85871E-02 5.29674E-06-1.32205E-01 4.63446E-14 5.30316E-14
 -1      1032 1.95638E+01 4.16819E-01-2.04091E-05 4.83229E-02 2.04622E-14 1.35655E-14
 -1      1033 2.00139E+01 4.05290E-02 1.77109E-06-7.77500E-02-3.63201E-14-5.49687E-14
 -1      1034 2.04419E+01-1.55726E+00 3.52362E-03-2.95226E+00 5.22791E-15-2.89331E-13
 -1      1035 2.04125E+01 3.35467E-01-2.19916E-04 1.07941E-02-6.20295E-14-3.64730E-14
 -1      1036 2.03773E+01 7.91566E-01 1.29247E-04 1.12569E-01 2.32522E-15-2.88384E-15
 -1      1037 1.86060E+01 5.01660E-01-1.96725E-03-1.44661E+00 1.43687E-13-1.01379E-13
 -1      1038 1.94697E+01 1.50965E-02-2.09107E-03-1.33214E+00 1.73306E-13-2.24197E-14
 -1      1039 1.98957E+01 1.54955E-01-1.83890E-05-6.45547E-02 1.97792E-14 8.28922E-14
 -1      1040 1.99603E+01 9.24606E-02-1.04074E-05-7.29875E-02 1.07054E-14 3.65689E-14
 -1      1041 1.94907E+01-7.64656E-01-6.54590E-03 2.65234E+00-4.79987E-15 1.23601E-14
 -1      1042 2.01976E+01-6.19586E-02-1.52472E-05-9.29071E-02 8.35675E-14 2.96123E-14
 -1      1043 2.00616E+01-1.76465E-03-2.67163E-05-8.15612E-02-1.43035E-13-1.19036E-13
 -1      1044 2.04219E+01 6.24984E-01 3.14272E-04-2.10066E-02-3.45060E-14-3.78788E-14
 -1      1045 2.15164E+01-1.80338E+00 3.12383E-03 2.01795E+00 6.32019E-15 4.77772E-14
 -1      1046 2.03390E+01 5.85424E-02-2.48161E-05-7.75205E-02 5.65916E-15 2.62949E-14
 -1      1047 2.04020E+01 5.62344E-01-3.18044E-04 4.35958E-02 1.36738E-14-4.08559E-15
 -1      1048 2.03767E+01 1.78779E-01-2.71011E-05-5.15676E-02 7.68703E-14 2.00825E-14
 -1      1049 2.01514E+01-5.48557E-02 6.46568E-06-8.94608E-02 7.01299E-15-9.29350E-14
 -1      1050 2.03993E+01 3.38288E-01-7.29591E-05-1.28097E-02 4.37101E-14 7.15903E-15
 -1      1051 2.00019E+01-3.12994E-01 2.23571E-04-1.20863E+00 8.28676E-15 3.16793E-13
 -1      1052 2.14157E+01-1.67505E+00 2.12663E-03-1.92371E+00 1.19990E-13-7.58392E-14
 -1      1053 2.04217E+01 6.33087E-01-8.72505E-05 1.01666E-02 1.80025E-14-1.12140E-14
 -1      1054 1.99319E+01 1.10423E-01-4.08419E-05-1.27015E-02 2.97295E-14-1.46557E-13
 -1      1055 2.03506E+01 1.36321E-02 7.80806E-05 2.58333E-02 4.17922E-15 8.08184E-14
 -1      1056 2.02979E+01-3.92760E-02-1.43722E-05 2.80505E-02 2.73488E-14 1.01733E-14
 -1      1057 2.02452E+01-6.31462E-02-1.76097E-05 2.85381E-02 6.80421E-14 1.77200E-14
 -1      1058 2.01929E+01-6.37470E-02 3.83072E-05 2.89762E-02 1.00583E-13 1.25030E-14
 -1      1059 2.01408E+01-4.88340E-02-5.18802E-05 3.03285E-02-2.06756E-14 3.37254E-15
 -1      1060 2.00918E+01-2.39879E-02 5.37038E-05 3.37714E-02 2.02954E-14 1.37178E-14
 -1      1061 2.00431E+01 8.66672E-03 2.57507E-05 4.12444E-02 2.96127E-14-1.69597E-14
 -1      1062 1.99945E+01 4.54888E-02 4.11317E-05 5.51147E-02 5.26555E-14 9.35302E-16
 -1      1063 1.99452E+01 8.34437E-02 5.56033E-05 7.84453E-02 5.80823E-14-4.87020E-16
 -1      1064 1.98953E+01 1.18748E-01 8.01539E-05 1.15837E-01-1.00202E-14-4.45593E-14
 -1      1065 1.98462E+01 1.45856E-01 1.18343E-04 1.73507E-01-9.71059E-14 6.24716E-14
 -1      1066 1.98024E+01 1.56349E-01 1.72838E-04 2.59559E-01-1.07261E-13 6.93699E-14
 -1      1067 1.97731E+01 1.37480E-01 2.40389E-04 3.83824E-01-6.20502E-14-6.91218E-15
 -1      1068 1.97751E+01 7.05033E-02 2.97012E-04 5.56850E-01 9.64131E-14-3.16174E-14
 -1      1069 1.98372E+01-7.08763E-02 2.66943E-04 7.87250E-01 6.98634E-14 7.58146E-14
 -1      1070 2.00062E+01-3.21352E-01-6.29069E-05 1.07650E+00 6.73220E-14 4.66825E-15
 -1      1071 2.03295E+01-7.06922E-01-1.76069E-03 1.39428E+00-9.50823E-14-1.01093E-13
 -1      1072 2.07867E+01-1.17909E+00-2.38699E-03 1.72302E+00-1.20766E-13-2.37672E-14
 -1      1073 1.97789E+01 2.32446E-01-9.81899E-05 5.52303E-02 3.21351E-14-1.83792E-15
 -1      1074 2.03333E+01-5.25641E-01 2.13716E-04-1.08362E+00-3.66222E-14 1.66590E-13
 -1      1075 1.96780E+01 2.97790E-01-1.51860E-04 1.26491E-01-2.89915E-14-1.03093E-14
 -1      1076 2.06359E+01-1.00845E+00-1.31912E-03-1.64560E+00 2.01370E-13 4.42978E-14
 -1      1077 1.95567E+01 3.58436E-01-2.26300E-04 2.41672E-01 5.31308E-14-2.25767E-14
 -1      1078 1.92621E+01 4.05058E-01-3.95869E-04 6.94732E-01 2.32863E-14 8.53808E-14
 -1      1079 1.94155E+01 4.01771E-01-3.15604E-04 4.21979E-01 3.30366E-14 6.30362E-14
 -1      1080 1.90312E+01 1.15844E-01 1.67034E-03 1.65422E+00-9.04463E-14-2.48579E-13
 -1      1081 1.91402E+01-2.32360E-01-5.62540E-03 2.12524E+00 2.28723E-14-2.38616E-13
 -1      1082 1.98853E+01-9.02717E-01-4.60613E-03-2.46772E+00 2.94259E-13-1.34850E-13
 -1      1083 1.95781E+01-3.32363E-01 4.08967E-05-1.85281E+00 3.23348E-13-1.81812E-13
 -1      1084 2.01066E+01-3.36896E-02-4.33012E-06-8.55285E-02-6.84527E-14-1.34372E-13
 -1      1085 1.99918E+01 5.83388E-02-2.63762E-05-2.73496E-02-4.89449E-14-1.48470E-13
 -1      1086 1.91187E+01 3.29386E-01-4.24429E-04 1.09187E+00-1.86065E-13-1.40136E-13
 -1      1087 1.98622E+01 1.68943E-01-6.26860E-05 1.24242E-02 4.56861E-14-4.14466E-14
 -1      1088 2.02934E+01-1.33014E-02 1.66837E-06-9.01524E-02 1.13192E-14 7.45212E-14
 -1      1089 2.03958E+01 1.08023E-01-1.62994E-06 1.98900E-02 1.88572E-14 8.11871E-14
 -1      1090 2.02453E+01-5.02221E-02 2.60462E-06-9.41679E-02 4.47259E-14 7.57963E-14
 -1      1091 2.03528E+01 2.67332E-02 2.30585E-05-4.45786E-02-1.79148E-14 4.87427E-14
 -1      1092 2.00457E+01 1.34423E-02-2.86247E-05-3.60639E-02-6.17969E-14-1.40519E-13
 -1      1093 2.04265E+01 4.73178E-01-1.97325E-04 8.69608E-03 4.26712E-14-2.56326E-14
 -1      1094 2.01981E+01-6.37885E-02-7.95159E-05-4.89179E-02 7.53450E-14-1.22174E-14
 -1      1095 2.04351E+01 3.96895E-01 1.00563E-05 2.85321E-04-3.09607E-14 5.26949E-14
 -1      1096 2.03928E+01 1.30133E-01-2.30361E-04-3.38962E-02-3.03659E-15 7.39276E-14
 -1      1097 2.02480E+01-5.88862E-02-4.46210E-05-5.07476E-02 8.50413E-14 1.38913E-14
 -1      1098 2.03029E+01-3.29599E-02-6.58125E-05-4.94697E-02 2.31707E-14 6.98659E-14
 -1      1099 2.04196E+01 2.73611E-01 4.07446E-05-1.66535E-02 3.08703E-14-1.03261E-14
 -1      1100 2.02751E+01-5.45910E-02 2.25286E-04-1.79273E-02 7.63132E-14 6.17646E-14
 -1      1101 2.01169E+01-3.44596E-02 3.75503E-05-1.26270E-02-3.57082E-14 2.33808E-14
 -1      1102 2.03386E+01-6.45283E-01-3.34038E-03-1.32812E+00 7.96433E-14 1.98317E-13
 -1      1103 2.04239E+01 2.60573E-01 1.95370E-05 9.38355E-03-9.89346E-15 8.02799E-15
 -1      1104 2.01477E+01-4.95224E-02 2.26763E-05-4.59732E-02 1.22424E-14 1.71094E-15
 -1      1105 2.04231E+01 2.33535E-01 1.80958E-04-8.94657E-03-2.00961E-14 1.02229E-13
 -1      1106 1.99086E+01-7.24416E-01 3.51889E-03 2.11305E+00-1.27953E-14 1.06074E-14
 -1      1107 2.79618E+01 9.08614E+00 2.32519E+00-6.69802E+00-6.82787E-15 6.64940E-13
 -1      1108 2.05468E+01 6.22699E+00 2.09731E-01-3.90399E+00-7.13318E-15 2.86035E-13
 -1      1109 1.94345E+01 5.85298E+00 7.53931E-02-2.88805E+00-6.50868E-15 8.78620E-14
 -1      1110 1.90260E+01 5.72592E+00 6.03176E-02-2.23505E+00-5.32213E-15-2.69862E-14
 -1      1111 1.88398E+01 5.66922E+00 5.75261E-02-1.70157E+00-3.29597E-15-9.37913E-14
 -1      1112 1.87465E+01 5.64063E+00 5.55697E-02-1.23427E+00-2.56305E-15-1.32954E-13
 -1      1113 1.86977E+01 5.62547E+00 5.38094E-02-8.04404E-01-2.31195E-15-1.64193E-13
 -1      1114 1.86738E+01 5.61790E+00 5.25455E-02-3.92871E-01-2.28918E-15-1.81632E-13
 -1      1115 1.86669E+01 5.61573E+00 5.21419E-02 8.47079E-03-1.19728E-15-1.90425E-13
 -1      1116 1.86748E+01 5.61824E+00 5.26535E-02 4.10219E-01 2.79290E-16-1.95739E-13
 -1      1117 1.86999E+01 5.62618E+00 5.40444E-02 8.23079E-01-5.11743E-17-1.97975E-13
 -1      1118 1.87504E+01 5.64201E+00 5.62554E-02 1.25553E+00 1.34094E-15-1.92309E-13
 -1      1119 1.88454E+01 5.67118E+00 5.84675E-02 1.72737E+00 2.36616E-15-1.84323E-13
 -1      1120 1.90316E+01 5.72761E+00 6.04164E-02 2.26846E+00 2.93862E-15-1.62119E-13
 -1      1121 1.94309E+01 5.85004E+00 6.92247E-02 2.92862E+00 4.80171E-15-9.50715E-14
 -1      1122 2.04530E+01 6.18188E+00 1.53276E-01 3.87860E+00 7.27196E-15 6.67660E-14
 -1      1123 2.52162E+01 7.99399E+00 1.43033E+00 5.84628E+00 1.64313E-14 4.26409E-13
 -1      1124 2.88111E+01 3.61614E+00 1.27118E+00-4.21691E+00-3.64431E-14 9.25260E-13
 -1      1125 2.02264E+01-1.77721E-01-6.16300E-01-1.09913E-01-1.06304E-14 8.47100E-13
 -1      1126 1.88323E+01-9.63756E-02-2.36378E-01 6.25063E-02-5.98480E-15 7.02313E-13
 -1      1127 1.84983E+01-4.80865E-02-5.96370E-02 4.05046E-02 2.56262E-15 6.18734E-13
 -1      1128 1.84434E+01-2.46270E-02-1.52255E-02 2.67850E-02-9.49154E-15 5.40117E-13
 -1      1129 1.85253E+01-1.30806E-02-5.00221E-03 1.90505E-02 1.02002E-15 5.13586E-13
 -1      1130 1.86726E+01-6.64996E-03-1.51203E-03 1.41041E-02-5.83626E-15 4.88980E-13
 -1      1131 1.88457E+01-2.89904E-03 5.04099E-04 1.06741E-02-4.24790E-16 3.72875E-13
 -1      1132 1.90224E+01-6.92115E-04 1.79155E-03 8.13924E-03-2.90692E-15 2.99304E-13
 -1      1133 1.91901E+01 5.67057E-04 2.49418E-03 6.19243E-03-8.43117E-15 1.46897E-13
 -1      1134 1.93423E+01 1.21857E-03 2.74458E-03 4.67215E-03-4.07573E-15 5.91315E-14
 -1      1135 1.94764E+01 1.47169E-03 2.67437E-03 3.48444E-03-1.93069E-15 7.34686E-14
 -1      1136 1.95924E+01 1.46326E-03 2.39065E-03 2.56887E-03 7.96157E-16 1.71046E-13
 -1      1137 1.96921E+01 1.28757E-03 1.97352E-03 1.88375E-03 7.24820E-15 1.69239E-13
 -1      1138 1.97781E+01 1.01360E-03 1.48336E-03 1.39957E-03-3.17941E-15 1.89305E-13
 -1      1139 1.98538E+01 6.97017E-04 9.70485E-04 1.09546E-03-4.89195E-15 7.40545E-14
 -1      1140 1.99226E+01 3.89905E-04 4.85449E-04 9.56348E-04-2.09700E-14-3.74525E-14
 -1      1141 1.99880E+01 1.49688E-04 9.00559E-05 9.69140E-04-2.67742E-15 3.98336E-15
 -1      1142 2.00525E+01 4.73426E-05-1.31097E-04 1.11667E-03-9.90095E-15-1.43206E-14
 -1      1143 2.01175E+01 1.73949E-04-5.98708E-05 1.36815E-03 1.63691E-14-7.97337E-14
 -1      1144 2.01825E+01 6.43058E-04 4.61907E-04 1.66518E-03 6.83447E-16-1.01720E-13
 -1      1145 2.02436E+01 1.58441E-03 1.62796E-03 1.90327E-03 1.07904E-14-3.32590E-15
 -1      1146 2.02926E+01 3.12224E-03 3.64118E-03 1.91119E-03 2.31844E-14 1.99870E-13
 -1      1147 2.03151E+01 5.32997E-03 6.65075E-03 1.43512E-03-3.55453E-14 6.95596E-14
 -1      1148 2.02903E+01 8.15476E-03 1.06392E-02 1.41359E-04 9.76183E-15 3.02864E-14
 -1      1149 2.01904E+01 1.13147E-02 1.52592E-02-2.33940E-03-1.57797E-14-2.46738E-14
 -1      1150 1.99835E+01 1.41937E-02 1.96560E-02-6.29973E-03 3.84252E-14-1.77863E-13
 -1      1151 1.96396E+01 1.57957E-02 2.23747E-02-1.17603E-02-2.59521E-14-2.22888E-13
 -1      1152 1.91401E+01 1.48593E-02 2.15140E-02-1.82210E-02-1.76142E-14-1.36890E-13
 -1      1153 1.84915E+01 1.02285E-02 1.52867E-02-2.44688E-02 1.05588E-14-8.53831E-14
 -1      1154 1.77373E+01 1.48533E-03 2.98477E-03-2.86271E-02-4.26076E-14-2.46907E-13
 -1      1155 1.69631E+01-1.03868E-02-1.39990E-02-2.86316E-02-9.05265E-15-3.47472E-13
 -1      1156 1.62870E+01-2.27436E-02-3.18046E-02-2.31152E-02 1.86919E-14-2.49571E-13
 -1      1157 1.58329E+01-3.19347E-02-4.50871E-02-1.23349E-02 1.14925E-15-1.67213E-13
 -1      1158 1.56934E+01-3.48126E-02-4.92531E-02 1.50400E-03-4.67855E-15-2.36673E-14
 -1      1159 1.58973E+01-3.03262E-02-4.27697E-02 1.49385E-02 3.91180E-15-1.60878E-14
 -1      1160 1.63995E+01-2.00839E-02-2.79794E-02 2.46747E-02-4.31838E-15-4.48037E-13
 -1      1161 1.70971E+01-7.48175E-03-9.84381E-03 2.89114E-02-7.22317E-15-2.53728E-13
 -1      1162 1.78640E+01 3.94603E-03 6.46777E-03 2.77928E-02-3.46930E-14-4.19303E-13
 -1      1163 1.85866E+01 1.18795E-02 1.75787E-02 2.29067E-02 2.17461E-14-3.68008E-13
 -1      1164 1.91877E+01 1.56510E-02 2.25770E-02 1.63385E-02-3.14475E-14-3.69928E-13
 -1      1165 1.96321E+01 1.58788E-02 2.24639E-02 9.85465E-03 4.98625E-15-5.30792E-13
 -1      1166 1.99205E+01 1.37656E-02 1.90885E-02 4.52241E-03 5.52917E-14-2.30556E-13
 -1      1167 2.00757E+01 1.05110E-02 1.42405E-02 7.33097E-04-5.64039E-14-1.12556E-13
 -1      1168 2.01312E+01 7.00185E-03 9.18016E-03-1.56753E-03 4.19498E-14-2.58553E-13
 -1      1169 2.01219E+01 3.75154E-03 4.56657E-03-2.61747E-03 1.50869E-14-5.55493E-14
 -1      1170 2.00796E+01 1.01313E-03 6.54183E-04-2.64525E-03-1.00938E-14 1.59921E-13
 -1      1171 2.00315E+01-1.05707E-03-2.26970E-03-1.70810E-03-1.24728E-15 9.40320E-14
 -1      1172 2.00003E+01-2.39267E-03-2.86776E-03 3.47475E-04 4.44403E-14 1.49819E-13
 -1      1173 1.99965E+01 1.24262E-03 2.31581E-03 1.12959E-03 1.99671E-14 2.60268E-13
 -1      1174 2.77909E+01 5.25721E-01 3.76998E-01 1.96659E+00-5.32213E-15 7.30582E-13
 -1      1175 2.00840E+01-6.62434E-02-5.73613E-01 1.29470E-01 8.49321E-15 5.23692E-13
 -1      1176 1.89069E+01-4.06125E-02-1.93230E-01 1.94190E-02-3.26995E-15 3.60606E-13
 -1      1177 1.85272E+01-2.14308E-02-5.05689E-02 1.46793E-03 1.50747E-15 2.31419E-13
 -1      1178 1.84559E+01-1.24260E-02-1.34281E-02-4.06374E-03-1.56624E-15 1.70190E-13
 -1      1179 1.85314E+01-7.42659E-03-4.69081E-03-5.51482E-03-1.56494E-15 1.26468E-13
 -1      1180 1.86753E+01-4.35598E-03-1.96692E-03-5.69727E-03 2.73306E-15 1.03037E-13
 -1      1181 1.88465E+01-2.39548E-03-3.90243E-04-5.40708E-03-1.27628E-14 1.60290E-13
 -1      1182 1.90217E+01-1.13799E-03 7.12089E-04-4.89611E-03 1.55488E-14-1.33487E-14
 -1      1183 1.91881E+01-3.54284E-04 1.39980E-03-4.27755E-03 2.05938E-15-1.01094E-13
 -1      1184 1.93389E+01 9.93442E-05 1.73352E-03-3.61624E-03-5.17892E-15-1.00239E-13
 -1      1185 1.94714E+01 3.16198E-04 1.79540E-03-2.95145E-03 7.35152E-15-1.20006E-13
 -1      1186 1.95854E+01 3.55967E-04 1.65699E-03-2.30406E-03 2.66681E-15-1.83549E-13
 -1      1187 1.96827E+01 2.52875E-04 1.36585E-03-1.68037E-03 7.04169E-16-2.09475E-13
 -1      1188 1.97662E+01 1.87917E-05 9.42793E-04-1.07403E-03 5.57791E-15-2.42444E-13
 -1      1189 1.98399E+01-3.57527E-04 3.79745E-04-4.66581E-04-1.08512E-14-1.83850E-13
 -1      1190 1.99088E+01-9.15194E-04-3.66231E-04 1.73619E-04-4.99332E-14 5.84533E-14
 -1      1191 1.99792E+01-1.73111E-03-1.38567E-03 8.93945E-04 2.87330E-14-1.94229E-13
 -1      1192 2.00591E+01-2.93712E-03-2.84016E-03 1.76163E-03 2.13675E-14-5.56993E-13
 -1      1193 2.01595E+01-4.74755E-03-5.00310E-03 2.86862E-03-2.49535E-14-3.49227E-13
 -1      1194 2.02963E+01-7.50005E-03-8.32780E-03 4.33414E-03 2.19032E-14-1.86745E-13
 -1      1195 2.04925E+01-1.17104E-02-1.35582E-02 6.29598E-03-2.65908E-14-2.52864E-14
 -1      1196 2.07834E+01-1.81281E-02-2.18973E-02 8.86654E-03-1.59291E-14 7.92326E-14
 -1      1197 2.12227E+01-2.77403E-02-3.52182E-02 1.19940E-02-2.15756E-15 1.52796E-13
 -1      1198 2.18932E+01-4.15539E-02-5.61475E-02 1.50911E-02 3.04531E-15 1.37938E-13
 -1      1199 2.29193E+01-5.97163E-02-8.72966E-02 1.61500E-02-1.17354E-15 1.27898E-13
 -1      1200 2.44793E+01-7.89374E-02-1.27401E-01 9.88649E-03 2.13258E-14-1.58325E-13
 -1      1201 2.68004E+01-8.63706E-02-1.59303E-01-1.53164E-02 2.07577E-14-4.71928E-13
 -1      1202 3.00836E+01-4.89219E-02-1.24782E-01-7.86432E-02 1.39810E-14-4.45977E-13
 -1      1203 3.42259E+01 8.78608E-02 9.22059E-02-1.89199E-01 2.39110E-14-1.54543E-13
 -1      1204 3.81316E+01 3.41361E-01 5.57554E-01-2.77551E-01-2.87409E-14 2.62859E-13
 -1      1205 3.88435E+01 4.28683E-01 9.05474E-01-1.08642E-01-3.47777E-14 7.28695E-13
 -1      1206 3.31996E+01 1.69562E-01 3.79351E-01 5.20913E-01-8.52582E-14 8.57869E-13
 -1      1207 2.30194E+01-4.01082E-01-1.19639E+00 9.71066E-01-3.53537E-14 1.17162E-12
 -1      1208 1.58581E+01-6.02640E-01-2.47029E+00 5.77115E-01 2.92544E-14 8.82933E-13
 -1      1209 1.71520E+01-4.37927E-01-2.27265E+00-3.04971E-01 6.15064E-14 6.00631E-13
 -1      1210 2.54587E+01 8.16545E-02-8.79530E-01-8.30708E-01-2.98650E-14 4.71068E-13
 -1      1211 3.49169E+01 2.51741E-01 4.23181E-01-7.56175E-01 7.50008E-14 1.26343E-13
 -1      1212 3.90228E+01 1.58663E-01 7.20218E-01-3.23386E-01-2.40086E-14 1.98397E-13
 -1      1213 3.75084E+01 3.77281E-02 3.86688E-01 1.10033E-02 1.19349E-14 8.64871E-13
 -1      1214 3.34724E+01-1.80904E-02 5.31259E-02 1.38746E-01 2.49100E-14 5.13034E-13
 -1      1215 2.94436E+01-3.54487E-02-8.77785E-02 1.39478E-01-1.13351E-14 6.84147E-13
 -1      1216 2.62992E+01-3.47858E-02-1.06295E-01 1.03862E-01 5.23587E-14 3.53398E-13
 -1      1217 2.40773E+01-2.80740E-02-8.33310E-02 6.90266E-02-3.76916E-14 9.49588E-14
 -1      1218 2.25715E+01-2.08570E-02-5.65397E-02 4.38208E-02-2.97830E-14 3.14269E-13
 -1      1219 2.15648E+01-1.50888E-02-3.65362E-02 2.76476E-02 1.49793E-15-1.60014E-13
 -1      1220 2.08914E+01-1.12914E-02-2.41564E-02 1.80359E-02-8.93166E-16-4.80281E-13
 -1      1221 2.04415E+01-9.48169E-03-1.80586E-02 1.25406E-02 1.05347E-13-6.66952E-13
 -1      1222 2.01534E+01-8.95106E-03-1.58807E-02 9.06451E-03 4.28507E-14-2.37060E-13
 -1      1223 2.00019E+01-7.56222E-03-1.25306E-02 4.29180E-03-7.15290E-14 5.12434E-13
 -1      1224 1.99863E+01 4.70545E-03 1.06469E-02-4.53986E-03-4.80702E-14 7.21151E-13
 -1      1225 2.00045E+01-1.35224E-02 1.05738E-02-4.85138E-03 9.75594E-13 7.26185E-14
 -1      1226 1.99917E+01 5.84252E-03-1.18626E-02-2.17901E-03 1.87141E-12-6.15003E-15
 -1      1227 1.99933E+01 1.48115E-01-1.08035E-02 6.65149E-03 1.55697E-12-1.91511E-13
 -1      1228 2.00007E+01 3.66622E-01-5.31211E-04 9.55237E-03 3.20569E-13-4.72600E-14
 -1      1229 2.00061E+01 5.85211E-01 8.17201E-03 8.21483E-03-4.62819E-13-2.15808E-13
 -1      1230 2.00092E+01 7.45712E-01 1.28498E-02 4.89670E-03-7.46864E-13 5.62316E-14
 -1      1231 2.00095E+01 8.20412E-01 1.34226E-02 1.28187E-03 1.31544E-13-2.81959E-14
 -1      1232 2.00078E+01 8.05691E-01 1.09298E-02-1.96231E-03 3.94646E-13-1.71140E-13
 -1      1233 2.00048E+01 7.17224E-01 6.74156E-03-4.01986E-03 2.16929E-13 1.62007E-13
 -1      1234 2.00016E+01 5.83235E-01 2.31551E-03-4.76410E-03 4.21553E-13 1.14794E-13
 -1      1235 1.99990E+01 4.33522E-01-1.27182E-03-4.43410E-03-4.25092E-13-2.19840E-13
 -1      1236 1.99973E+01 2.93316E-01-3.50875E-03-3.44709E-03-8.66121E-13 7.54082E-14
 -1      1237 1.99966E+01 1.76285E-01-4.41250E-03-2.34909E-03-5.16038E-13 2.27257E-13
 -1      1238 1.99965E+01 8.76404E-02-4.49691E-03-1.30968E-03-4.46968E-13 1.15351E-13
 -1      1239 1.99970E+01 2.80572E-02-4.35391E-03-6.64727E-04-4.08433E-13-4.47457E-14
 -1      1240 1.99967E+01 4.73743E-04-2.78112E-03 1.89435E-03-2.83949E-13-4.74426E-14
 -1      1241 2.00009E+01-3.46925E-03 2.28183E-03 1.20614E-03-1.22292E-13 5.63768E-14
 -1      1242-1.33428E+00-2.82414E+01-4.07180E+00-2.92358E+00 1.84919E-12 1.20619E-13
 -1      1243-2.85614E+00-2.16100E+01-3.90914E+00-6.39186E+00 1.87494E-12 6.10512E-13
 -1      1244-2.24030E+00-8.60419E+00-3.16040E+00-3.85182E+00 3.29514E-13 2.07834E-13
 -1      1245 6.23663E+00 3.75465E+00-1.69273E+00 5.15774E+00 9.57012E-14 2.15383E-14
 -1      1246 2.60503E+01 9.79707E+00 7.01646E-01 1.54073E+01 7.86260E-13 1.21547E-12
 -1      1247 5.42168E+01 8.59183E+00 3.77494E+00 1.94190E+01 4.56413E-13 9.72333E-13
 -1      1248 7.92210E+01 4.09169E+00 6.52977E+00 1.24431E+01-1.64868E-14-5.08260E-13
 -1      1249 8.62408E+01 2.53482E+00 7.32565E+00-3.36274E+00 2.38490E-14-9.22651E-13
 -1      1250 6.81848E+01 6.37818E+00 5.35265E+00-1.68273E+01 3.63320E-13-1.22613E-12
 -1      1251 3.83347E+01 9.98768E+00 2.13212E+00-1.83636E+01 4.06564E-13-9.02389E-13
 -1      1252 1.31859E+01 7.02083E+00-8.48963E-01-9.68857E+00 1.85407E-13-4.52971E-14
 -1      1253-1.36598E-01-3.75704E+00-2.79900E+00 8.18521E-01 3.48610E-13-2.26041E-13
 -1      1254-3.26867E+00-1.73104E+01-3.72699E+00 6.16330E+00 1.04605E-12-4.02289E-13
 -1      1255-1.77189E+00-2.71695E+01-4.13271E+00 4.69731E+00 1.27337E-12-2.90837E-13
 -1      1256-1.03503E+00-2.71027E+01-3.86479E+00-6.30256E-01 1.13787E-12 5.59448E-14
 -1      1257-1.44924E+00-1.77481E+01-3.11850E+00-3.74512E+00 1.53211E-14-1.26288E-13
 -1      1258-8.27585E-02-3.65962E+00-1.88855E+00-6.51076E-01-4.24993E-13-2.80664E-13
 -1      1259 7.46750E+00 7.92682E+00-4.00320E-01 7.63838E+00-1.01008E-12-8.49321E-13
 -1      1260 2.28173E+01 1.27547E+01 1.18507E+00 1.64368E+01-1.13975E-12-1.49258E-12
 -1      1261 4.30304E+01 1.05993E+01 2.65392E+00 1.99604E+01-8.34555E-13-1.83520E-12
 -1      1262 6.18581E+01 5.03065E+00 3.71186E+00 1.45873E+01-3.03119E-13-1.45928E-12
 -1      1263 7.12559E+01 1.59244E+00 4.25133E+00 1.68074E+00-9.31893E-14-1.26682E-12
 -1      1264 6.54912E+01 4.02680E+00 3.94575E+00-1.14437E+01 1.17309E-13-5.10703E-13
 -1      1265 5.00078E+01 8.88323E+00 3.15132E+00-1.92996E+01-6.57807E-14-4.35207E-14
 -1      1266 2.89202E+01 1.25766E+01 1.66627E+00-1.82066E+01 2.78111E-13-2.25375E-13
 -1      1267 1.10311E+01 9.53869E+00 4.85561E-02-9.95572E+00-1.84741E-13 1.53433E-13
 -1      1268 9.32164E-01-1.23576E+00-1.59579E+00-5.96814E-01-9.22817E-13 4.46754E-13
 -1      1269-1.55154E+00-1.50873E+01-2.91249E+00 3.75349E+00 1.52767E-13 1.50713E-13
 -1      1270-1.03709E+00-2.55456E+01-3.72535E+00 2.05675E+00 1.36557E-12-7.02494E-14
 -1      1271 2.22656E+01 1.83813E+00-7.25827E-01-2.79057E+00-1.22402E-14 6.13620E-13
 -1      1272 2.03588E+01 4.69009E+00-4.86335E-02-3.30698E+00-6.23529E-14 1.97960E-13
 -1      1273 2.08660E+01 4.81049E+00-1.13348E-01-4.16116E+00-7.08322E-14 3.01731E-13
 -1      1274 1.95317E+01 4.99335E+00-1.95927E-02-2.65468E+00-6.97220E-14 3.93574E-14
 -1      1275 1.98294E+01 5.09017E+00 2.79118E-04-3.04568E+00-7.71189E-14 1.12771E-13
 -1      1276 2.05254E+01 3.95276E+00-2.58791E-02-3.07494E+00-1.11303E-13 1.82507E-13
 -1      1277 1.91843E+01 5.08420E+00-3.64816E-03-2.07040E+00-6.50070E-14-5.70516E-14
 -1      1278 1.93334E+01 5.13942E+00 1.06030E-02-2.36355E+00-6.76958E-14-1.29029E-14
 -1      1279 1.97542E+01 4.36605E+00-2.42477E-02-2.48964E+00-1.08056E-13 4.27575E-14
 -1      1280 1.90093E+01 5.13100E+00 3.26439E-03-1.56487E+00-5.87820E-14-1.12944E-13
 -1      1281 1.90867E+01 5.16087E+00 1.25615E-02-1.81480E+00-6.04482E-14-8.59902E-14
 -1      1282 1.93927E+01 4.55573E+00-1.95753E-02-1.93124E+00-1.01597E-13-3.55722E-14
 -1      1283 1.89162E+01 5.16080E+00 6.59657E-03-1.11712E+00-4.24556E-14-1.44506E-13
 -1      1284 1.89584E+01 5.17706E+00 1.27198E-02-1.33861E+00-5.11119E-14-1.24348E-13
 -1      1285 1.92062E+01 4.66155E+00-1.60654E-02-1.44498E+00-9.03275E-14-8.69235E-14
 -1      1286 1.88649E+01 5.18067E+00 8.20529E-03-6.93835E-01-3.33544E-14-1.66978E-13
 -1      1287 1.88878E+01 5.18951E+00 1.20320E-02-9.04053E-01-3.68195E-14-1.54706E-13
 -1      1288 1.91036E+01 4.72699E+00-1.39533E-02-1.00427E+00-6.76254E-14-1.20223E-13
 -1      1289 1.88410E+01 5.19263E+00 9.29172E-03-2.89171E-01-2.04398E-14-1.85437E-13
 -1      1290 1.88509E+01 5.19645E+00 1.10744E-02-4.91274E-01-2.56331E-14-1.75138E-13
 -1      1291 1.90479E+01 4.76603E+00-1.29048E-02-5.88773E-01-4.77041E-14-1.29164E-13
 -1      1292 1.88373E+01 5.19758E+00 1.02221E-02 1.08198E-01-1.26565E-14-1.93928E-13
 -1      1293 1.88370E+01 5.19744E+00 1.01505E-02-9.14541E-02-1.78568E-14-1.90684E-13
 -1      1294 1.90238E+01 4.78407E+00-1.24681E-02-1.89103E-01-2.66891E-14-1.48648E-13
 -1      1295 1.88526E+01 5.19608E+00 1.11611E-02 5.08606E-01-2.82760E-15-1.97824E-13
 -1      1296 1.88420E+01 5.19199E+00 9.22519E-03 3.06083E-01-9.11787E-15-1.95087E-13
 -1      1297 1.90246E+01 4.78343E+00-1.24888E-02 2.05751E-01-1.85504E-14-1.54970E-13
 -1      1298 1.88910E+01 5.18836E+00 1.20972E-02 9.22862E-01 1.04075E-14-2.01256E-13
 -1      1299 1.88673E+01 5.17935E+00 8.13359E-03 7.11690E-01 5.61096E-15-2.01139E-13
 -1      1300 1.90505E+01 4.76396E+00-1.29749E-02 6.06118E-01 3.75546E-15-1.65527E-13
 -1      1301 1.89628E+01 5.17530E+00 1.29050E-02 1.35609E+00 2.10422E-14-1.96124E-13
 -1      1302 1.89196E+01 5.15859E+00 6.44893E-03 1.13319E+00 1.62604E-14-2.00851E-13
 -1      1303 1.91078E+01 4.72346E+00-1.39973E-02 1.01942E+00 1.89291E-14-1.62446E-13
 -1      1304 1.90952E+01 5.15676E+00 1.28325E-02 1.84079E+00 4.47593E-14-1.86833E-13
 -1      1305 1.90158E+01 5.12645E+00 3.14577E-03 1.58797E+00 3.48306E-14-1.89831E-13
 -1      1306 1.92131E+01 4.65500E+00-1.61434E-02 1.46256E+00 4.66276E-14-1.52628E-13
 -1      1307 1.93436E+01 5.13342E+00 1.01753E-02 2.39792E+00 5.42240E-14-1.57419E-13
 -1      1308 1.91936E+01 5.07636E+00-4.37323E-03 2.10063E+00 4.67751E-14-1.78108E-13
 -1      1309 1.94055E+01 4.54247E+00-1.99810E-02 1.95828E+00 7.38663E-14-1.46123E-13
 -1      1310 1.98548E+01 5.09927E+00 6.05209E-03 3.08403E+00 6.71269E-14-6.97636E-14
 -1      1311 1.95430E+01 4.98434E+00-2.05380E-02 2.69666E+00 5.60108E-14-1.19800E-13
 -1      1312 1.97745E+01 4.34638E+00-2.45575E-02 2.52816E+00 9.06324E-14-9.50628E-14
 -1      1313 2.11021E+01 4.90676E+00 8.30711E-03 4.05402E+00 6.43929E-14 9.67143E-14
 -1      1314 2.03333E+01 4.73369E+00-4.79642E-02 3.41641E+00 5.89112E-14-8.72219E-15
 -1      1315 2.05637E+01 3.91583E+00-2.24106E-02 3.17850E+00 1.05124E-13-2.59515E-15
 -1      1316 2.72010E+01 3.20522E+00 9.28974E-01 4.58220E+00 3.72619E-14 4.54747E-13
 -1      1317 2.20187E+01 3.52204E+00-1.81990E-01 3.88504E+00 3.91076E-14 2.01256E-13
 -1      1318 2.21110E+01 2.56170E+00-3.25560E-02 3.45667E+00 1.16631E-13 1.53683E-13
 -1      1319 2.14252E+01 3.59586E-01-7.63506E-01 1.18393E+00 6.50591E-14 4.26714E-13
 -1      1320 2.19997E+01 1.31364E-01-4.00853E-01-1.28575E+00-4.79894E-14 6.15369E-13
 -1      1321 2.06769E+01 3.06707E-01-1.64815E-01-8.05810E-01-5.22915E-14 5.64174E-13
 -1      1322 2.00792E+01 1.53480E-01-7.35480E-02-4.02177E-01-3.67761E-14 5.35448E-13
 -1      1323 1.96094E+01 9.12017E-02-1.49484E-02-3.30021E-01-4.23273E-14 4.82024E-13
 -1      1324 2.09711E+01 3.69197E-01-1.04234E-01-1.27401E+00-8.23577E-14 3.64556E-13
 -1      1325 1.92520E+01 6.45296E-02 3.00927E-03-1.35354E-01-2.60408E-14 4.63594E-13
 -1      1326 1.90976E+01 4.12867E-02 1.31930E-02-1.17539E-01-2.52732E-14 4.26551E-13
 -1      1327 1.99203E+01 1.33870E-01-3.51988E-02-5.04030E-01-6.28525E-14 3.22378E-13
 -1      1328 1.89373E+01 3.15356E-02 1.32249E-02-2.79859E-02-2.01011E-14 3.93494E-13
 -1      1329 1.89179E+01 1.93942E-02 1.10505E-02-1.86077E-02-2.68553E-14 3.55091E-13
 -1      1330 1.94431E+01 5.55033E-02-8.53468E-03-1.69956E-01-4.96166E-14 2.66051E-13
 -1      1331 1.88619E+01 1.60312E-02 8.77367E-03 2.50718E-02-5.32430E-15 3.62259E-13
 -1      1332 1.89044E+01 9.10785E-03 6.43959E-03 2.97143E-02-1.22645E-14 3.58413E-13
 -1      1333 1.92344E+01 2.44127E-02-3.52391E-03-1.10672E-02-2.37674E-14 2.33818E-13
 -1      1334 1.89046E+01 7.89465E-03 4.67809E-03 5.09596E-02-2.17757E-14 3.65975E-13
 -1      1335 1.89751E+01 3.55555E-03 3.65063E-03 5.28719E-02-3.13275E-14 3.28711E-13
 -1      1336 1.91778E+01 1.02478E-02-2.23056E-03 6.77637E-02-2.11020E-14 2.42182E-13
 -1      1337 1.90049E+01 3.25036E-03 2.45202E-03 6.18003E-02-2.93626E-14 3.11065E-13
 -1      1338 1.90858E+01 4.10961E-04 2.22375E-03 6.21025E-02-3.32184E-14 2.62543E-13
 -1      1339 1.92044E+01 2.86473E-03-1.34033E-03 1.04854E-01-5.41118E-14 2.59144E-13
 -1      1340 1.91299E+01 5.38861E-04 1.34396E-03 6.39885E-02-2.10685E-14 2.41188E-13
 -1      1341 1.92113E+01-1.34549E-03 1.45583E-03 6.33583E-02-4.32455E-14 1.87259E-13
 -1      1342 1.92743E+01-1.16793E-03-5.85029E-04 1.18526E-01-7.04896E-14 1.82282E-13
 -1      1343 1.92607E+01-1.00034E-03 7.60755E-04 6.12695E-02-2.98125E-14 1.72623E-13
 -1      1344 1.93374E+01-2.23772E-03 9.91299E-04 6.01457E-02-3.27462E-14 1.27427E-13
 -1      1345 1.93639E+01-3.30341E-03-3.84144E-05 1.18794E-01-5.91238E-14 1.61097E-13
 -1      1346 1.93869E+01-1.78816E-03 4.25303E-04 5.59965E-02-2.82005E-14 1.37784E-13
 -1      1347 1.94561E+01-2.57162E-03 6.83978E-04 5.46710E-02-1.01705E-14 9.38303E-14
 -1      1348 1.94592E+01-4.27129E-03 2.97826E-04 1.11670E-01-4.14129E-14 1.92664E-13
 -1      1349 1.95028E+01-2.08125E-03 2.20721E-04 4.97011E-02-1.23671E-14 8.23146E-14
 -1      1350 1.95637E+01-2.54198E-03 4.72005E-04 4.83684E-02-1.34750E-15 9.55024E-14
 -1      1351 1.95523E+01-4.49094E-03 4.67329E-04 1.00976E-01-2.30208E-14 1.26843E-13
 -1      1352 1.96063E+01-2.04706E-03 9.33769E-05 4.33887E-02 1.09883E-14 9.72213E-14
 -1      1353 1.96591E+01-2.27982E-03 3.23785E-04 4.21765E-02-7.32899E-15 8.41887E-14
 -1      1354 1.96389E+01-4.22743E-03 5.17885E-04 8.92058E-02 4.59854E-15 5.75757E-14
 -1      1355 1.96973E+01-1.80023E-03 1.37724E-05 3.77095E-02-1.02279E-14 1.30337E-13
 -1      1356 1.97431E+01-1.87723E-03 2.19212E-04 3.66982E-02-9.00574E-15 1.25481E-13
 -1      1357 1.97175E+01-3.65875E-03 4.88031E-04 7.79825E-02 8.18193E-16 6.31853E-14
 -1      1358 1.97773E+01-1.42352E-03-3.72664E-05 3.30617E-02-1.32631E-14 1.61836E-13
 -1      1359 1.98173E+01-1.40337E-03 1.43263E-04 3.22968E-02-4.19283E-14 1.10295E-13
 -1      1360 1.97881E+01-2.91100E-03 4.06651E-04 6.83335E-02-2.45349E-14 1.30550E-13
 -1      1361 1.98483E+01-9.82171E-04-7.36226E-05 2.96519E-02-5.80192E-14 7.91031E-14
 -1      1362 1.98841E+01-9.16857E-04 8.34663E-05 2.91503E-02-6.54671E-14-8.20752E-15
 -1      1363 1.98517E+01-2.08165E-03 2.95951E-04 6.08477E-02-7.40823E-14 7.78199E-14
 -1      1364 1.99128E+01-5.36089E-04-1.05899E-04 2.75200E-02-3.06829E-14 3.82563E-14
 -1      1365 1.99461E+01-4.77101E-04 2.87671E-05 2.72706E-02-2.60260E-14-5.72052E-15
 -1      1366 1.99101E+01-1.25869E-03 1.74835E-04 5.57573E-02-6.34721E-14 7.88191E-14
 -1      1367 1.99735E+01-1.51508E-04-1.42054E-04 2.65329E-02-3.24505E-15 5.03395E-15
 -1      1368 2.00056E+01-1.55318E-04-3.07835E-05 2.64916E-02 5.32167E-15 3.02389E-14
 -1      1369 1.99650E+01-5.39143E-04 6.22439E-05 5.29540E-02-1.59480E-14 1.05319E-13
 -1      1370 2.00324E+01 8.73379E-05-1.87020E-04 2.63471E-02 2.15571E-15 6.70145E-15
 -1      1371 2.00642E+01-4.50393E-05-1.03487E-04 2.64252E-02 1.71339E-15 1.16242E-14
 -1      1372 2.00182E+01-4.78241E-05-1.95431E-05 5.19428E-02 6.29554E-15-1.52398E-14
 -1      1373 2.00907E+01 6.73414E-05-2.41291E-04 2.63416E-02-2.59965E-14-1.33064E-14
 -1      1374 2.01224E+01-2.70303E-04-1.94411E-04 2.63889E-02-5.36299E-14-4.47539E-14
 -1      1375 2.00705E+01 4.45514E-05-4.16950E-05 5.17379E-02-6.17394E-14 8.71661E-15
 -1      1376 2.01479E+01-3.60825E-04-2.98467E-04 2.55293E-02-8.26933E-15-6.07991E-14
 -1      1377 2.01783E+01-9.87548E-04-3.02599E-04 2.53131E-02 8.44791E-15-6.60780E-14
 -1      1378 2.01218E+01-4.91939E-04 3.37940E-05 5.07107E-02-3.22985E-14-6.03464E-15
 -1      1379 2.02013E+01-1.38105E-03-3.42025E-04 2.24662E-02-6.71750E-15 2.12660E-14
 -1      1380 2.02273E+01-2.37425E-03-4.17277E-04 2.16520E-02 3.42297E-14 5.18348E-14
 -1      1381 2.01699E+01-1.94665E-03 2.55001E-04 4.64187E-02 2.79255E-14-5.04140E-14
 -1      1382 2.02444E+01-3.19201E-03-3.42364E-04 1.51994E-02 3.79969E-15 3.46238E-14
 -1      1383 2.02605E+01-4.59397E-03-5.14112E-04 1.33440E-02-5.16595E-14 4.70192E-14
 -1      1384 2.02104E+01-4.64125E-03 6.77144E-04 3.54791E-02-1.09991E-14 1.41699E-14
 -1      1385 2.02667E+01-5.95666E-03-2.56464E-04 1.32506E-03 2.04001E-14 3.55442E-14
 -1      1386 2.02642E+01-7.72563E-03-5.54060E-04-2.10051E-03 3.30269E-14 3.76973E-14
 -1      1387 2.02349E+01-8.85491E-03 1.35256E-03 1.35980E-02-1.55987E-14 1.74711E-14
 -1      1388 2.02522E+01-9.70771E-03-3.41464E-05-2.17397E-02-9.41001E-15 9.55100E-14
 -1      1389 2.02194E+01-1.16484E-02-4.88986E-04-2.72695E-02-2.08401E-14 1.16533E-13
 -1      1390 2.02316E+01-1.46798E-02 2.30942E-03-2.40678E-02 1.02678E-14 1.28744E-13
 -1      1391 2.01800E+01-1.42040E-02 3.64345E-04-5.61452E-02-3.83205E-14 9.80964E-14
 -1      1392 2.01028E+01-1.58902E-02-2.78939E-04-6.41530E-02-5.87102E-14 3.36385E-14
 -1      1393 2.01843E+01-2.17961E-02 3.51569E-03-8.19947E-02-5.71669E-14 1.77595E-13
 -1      1394 2.00259E+01-1.87598E-02 9.36855E-04-1.02569E-01-1.11003E-14-1.12688E-14
 -1      1395 1.98899E+01-1.94852E-02 7.71575E-05-1.13001E-01 2.71406E-14-2.59211E-14
 -1      1396 2.00741E+01-2.91965E-02 4.82986E-03-1.62621E-01-6.09027E-14 2.58989E-13
 -1      1397 1.97664E+01-2.21192E-02 1.60033E-03-1.58800E-01-1.54906E-14-3.59357E-14
 -1      1398 1.95606E+01-2.09425E-02 5.05546E-04-1.70845E-01-5.37617E-14-7.92647E-14
 -1      1399 1.98819E+01-3.49687E-02 5.95171E-03-2.63916E-01-2.62524E-14 1.34042E-13
 -1      1400 1.93858E+01-2.25161E-02 2.16662E-03-2.18324E-01 1.48399E-14-8.64378E-14
 -1      1401 1.91080E+01-1.84795E-02 8.39136E-04-2.30126E-01 3.22099E-14-8.38357E-14
 -1      1402 1.95935E+01-3.63485E-02 6.40759E-03-3.76641E-01-1.50314E-15 4.52850E-15
 -1      1403 1.88855E+01-1.80883E-02 2.36745E-03-2.69681E-01-2.77666E-14-7.42358E-14
 -1      1404 1.85483E+01-1.06442E-02 8.51706E-04-2.78346E-01-1.80017E-14-7.13631E-14
 -1      1405 1.92069E+01-3.03076E-02 5.62445E-03-4.82493E-01-1.00250E-14 3.18209E-14
 -1      1406 1.82934E+01-7.71415E-03 1.95982E-03-2.97699E-01-1.28713E-13-1.97811E-14
 -1      1407 1.79279E+01 2.73503E-03 3.62110E-04-2.99820E-01-8.88708E-14-1.02756E-13
 -1      1408 1.87395E+01-1.48129E-02 3.13951E-03-5.54993E-01-1.13813E-13 5.23392E-14
 -1      1409 1.76690E+01 7.93615E-03 8.83076E-04-2.87375E-01-3.13332E-14-6.93768E-14
 -1      1410 1.73236E+01 1.96740E-02-6.13387E-04-2.80197E-01-7.56127E-14-5.23661E-14
 -1      1411 1.82339E+01 9.54202E-03-1.07320E-03-5.64900E-01-1.58484E-13 1.17880E-13
 -1      1412 1.70991E+01 2.57600E-02-6.02978E-04-2.29952E-01 3.33180E-14-9.88619E-14
 -1      1413 1.68307E+01 3.59541E-02-1.76855E-03-2.12827E-01 4.18511E-14-4.59268E-14
 -1      1414 1.77561E+01 3.83795E-02-6.31477E-03-4.90277E-01-3.00662E-14 9.51058E-14
 -1      1415 1.66804E+01 4.07457E-02-1.97130E-03-1.28738E-01 3.17090E-14-8.33413E-14
 -1      1416 1.65396E+01 4.63946E-02-2.58419E-03-1.04099E-01 2.35758E-14-5.66097E-14
 -1      1417 1.73844E+01 6.40981E-02-1.11480E-02-3.28078E-01 3.68212E-14 9.96078E-14
 -1      1418 1.64931E+01 4.79239E-02-2.66802E-03-9.87237E-04 9.97188E-14 9.96599E-16
 -1      1419 1.65083E+01 4.71907E-02-2.60352E-03 2.60241E-02 7.97175E-14 8.93586E-14
 -1      1420 1.71890E+01 7.85095E-02-1.39138E-02-1.00979E-01 7.70703E-14 1.23500E-13
 -1      1421 1.65750E+01 4.47848E-02-2.44923E-03 1.26605E-01-1.16169E-13 9.80006E-14
 -1      1422 1.67423E+01 3.79126E-02-1.72352E-03 1.49930E-01-1.18074E-13-4.63865E-14
 -1      1423 1.72092E+01 7.65968E-02-1.35415E-02 1.46412E-01-1.60878E-14 1.28444E-13
 -1      1424 1.69076E+01 3.25936E-02-1.51365E-03 2.27316E-01-1.01914E-13-8.75307E-14
 -1      1425 1.71925E+01 2.17794E-02-2.83041E-04 2.42295E-01-2.14846E-14-1.48360E-13
 -1      1426 1.74398E+01 5.90122E-02-1.01832E-02 3.62169E-01-2.38890E-13 4.85306E-14
 -1      1427 1.74235E+01 1.56592E-02-3.57576E-04 2.83852E-01 7.71537E-14-2.19351E-13
 -1      1428 1.77723E+01 3.97289E-03 1.15176E-03 2.88745E-01-2.52476E-14-1.82585E-13
 -1      1429 1.78327E+01 3.17634E-02-5.09741E-03 5.05534E-01-8.15845E-14-7.46543E-14
 -1      1430 1.80283E+01-8.90466E-04 5.35749E-04 2.92892E-01-1.36312E-13-1.80344E-13
 -1      1431 1.83846E+01-1.07987E-02 2.09869E-03 2.88900E-01-5.97942E-14-3.36221E-13
 -1      1432 1.83136E+01 3.19479E-03 4.30315E-05 5.59500E-01-1.08368E-13-1.48374E-13
 -1      1433 1.86286E+01-1.32474E-02 9.23421E-04 2.63274E-01 4.96870E-14-3.53847E-13
 -1      1434 1.89471E+01-1.99325E-02 2.37389E-03 2.53419E-01 2.91126E-14-3.42783E-13
 -1      1435 1.88052E+01-1.96230E-02 3.93911E-03 5.32004E-01-2.83703E-14-1.83636E-13
 -1      1436 1.91532E+01-1.99011E-02 8.41765E-04 2.10212E-01-1.20142E-13-3.65229E-13
 -1      1437 1.94066E+01-2.31870E-02 2.08675E-03 1.97893E-01-1.27658E-13-4.59494E-13
 -1      1438 1.92455E+01-3.31199E-02 6.04769E-03 4.47635E-01-2.55074E-14-2.88625E-13
 -1      1439 1.95624E+01-2.13520E-02 4.91848E-04 1.49161E-01-2.70292E-15-4.00229E-13
 -1      1440 1.97417E+01-2.19024E-02 1.49925E-03 1.37114E-01 7.13145E-14-3.87467E-13
 -1      1441 1.95973E+01-3.73314E-02 6.51190E-03 3.36015E-01-1.19576E-13-1.36452E-13
 -1      1442 1.98460E+01-1.91669E-02 9.22237E-05 9.18672E-02 1.92882E-13-3.06539E-13
 -1      1443 1.99562E+01-1.79483E-02 8.66745E-04 8.17637E-02 1.44459E-13-2.22712E-13
 -1      1444 1.98482E+01-3.45872E-02 5.83613E-03 2.22572E-01 2.05972E-13-2.88191E-13
 -1      1445 2.00154E+01-1.50650E-02-2.15178E-04 4.51591E-02-3.58487E-14-3.36208E-14
 -1      1446 2.00694E+01-1.29605E-02 3.48496E-04 3.76976E-02 3.78972E-14-1.06154E-13
 -1      1447 2.00042E+01-2.78800E-02 4.57557E-03 1.24194E-01 2.07059E-13-2.31486E-13
 -1      1448 2.00938E+01-1.03810E-02-3.89453E-04 1.16436E-02 7.71518E-14-1.47231E-13
 -1      1449 2.01077E+01-8.01956E-03-1.05541E-05 6.86596E-03 1.35913E-13-1.15738E-13
 -1      1450 2.00824E+01-1.97348E-02 3.15549E-03 4.91489E-02 7.54479E-14-3.89929E-14
 -1      1451 2.01087E+01-5.90580E-03-4.71795E-04-8.81981E-03 1.26618E-13-9.93697E-14
 -1      1452 2.00984E+01-3.66505E-03-2.52512E-04-1.11951E-02 9.52088E-14 8.48119E-14
 -1      1453 2.01042E+01-1.17522E-02 1.82307E-03-6.88661E-04 1.48762E-13 3.35047E-14
 -1      1454 2.00865E+01-2.00541E-03-5.45921E-04-1.77483E-02 6.16931E-14 1.05172E-14
 -1      1455 2.00662E+01-9.07387E-05-4.41126E-04-1.81061E-02-9.01384E-14 3.39269E-15
 -1      1456 2.00909E+01-4.71695E-03 6.76109E-04-2.71397E-02 5.77707E-14 8.51089E-14
 -1      1457 2.00500E+01 1.20740E-03-6.69645E-04-1.71841E-02-5.03115E-14 1.42339E-13
 -1      1458 2.00313E+01 2.61553E-03-5.08646E-04-1.58719E-02 9.95827E-14 1.76681E-13
 -1      1459 2.00615E+01 1.19689E-03-2.05933E-04-3.37376E-02-6.61374E-14-3.42393E-14
 -1      1460 2.00173E+01 3.72469E-03-5.87171E-04-9.48794E-03 1.07323E-13 1.26095E-13
 -1      1461 2.00082E+01 3.64309E-03-2.19234E-05-7.23369E-03-1.03488E-14 1.54585E-13
 -1      1462 2.00307E+01 5.96408E-03-5.98807E-04-2.50992E-02 1.15481E-13 1.37044E-13
 -1      1463 1.99991E+01 7.24266E-04 4.51858E-04 9.87911E-04-1.98374E-13 1.19680E-13
 -1      1464 2.00063E+01 5.34564E-03-1.68737E-04-6.47385E-03-1.32255E-13 2.72919E-15
 -1      1465 2.02578E+01 7.54766E-02-1.52091E-01 4.83920E-01 4.81976E-14 3.09953E-13
 -1      1466 2.15282E+01 2.16125E-01-2.29284E-01 7.20910E-01 4.64351E-14 3.99417E-13
 -1      1467 2.17270E+01 8.81750E-01-8.54635E-02 2.06492E+00 9.53265E-14 2.52257E-13
 -1      1468 1.93294E+01 3.23810E-02-2.13324E-02 1.86081E-01 3.09822E-14 2.14891E-13
 -1      1469 1.97501E+01 1.13615E-01-6.26998E-02 2.38089E-01 3.25504E-14 2.70227E-13
 -1      1470 2.03017E+01 1.87678E-01-5.51883E-02 7.86292E-01 7.99222E-14 1.80504E-13
 -1      1471 1.89475E+01 1.51069E-02 5.66595E-03 5.35778E-02 1.28300E-14 1.35478E-13
 -1      1472 1.90862E+01 5.16249E-02 9.77770E-04 7.98882E-02 2.27882E-14 1.73951E-13
 -1      1473 1.95565E+01 7.18381E-02-1.21554E-02 2.99104E-01 6.52343E-14 1.24966E-13
 -1      1474 1.88369E+01 7.12915E-03 6.97406E-03-8.93505E-03 6.83394E-15 1.06935E-13
 -1      1475 1.88516E+01 2.58651E-02 1.10889E-02 5.46558E-03 1.69396E-15 1.08507E-13
 -1      1476 1.92211E+01 3.10418E-02-2.46481E-03 8.35926E-02 2.38178E-14 5.75269E-14
 -1      1477 1.88629E+01 3.22206E-03 4.77997E-03-3.92306E-02 4.61588E-15 7.55420E-14
 -1      1478 1.88191E+01 1.38220E-02 8.52107E-03-3.11056E-02 6.00431E-16 8.40179E-14
 -1      1479 1.91045E+01 1.32835E-02-1.62151E-03-2.14473E-02 2.02867E-14 5.18084E-14
 -1      1480 1.89571E+01 1.07149E-03 3.29255E-03-5.27249E-02 2.18564E-15 5.77776E-14
 -1      1481 1.88866E+01 7.30124E-03 5.37048E-03-4.82431E-02 1.10567E-15 4.99201E-14
 -1      1482 1.91059E+01 4.56995E-03-1.63672E-03-7.30418E-02 6.71208E-15 3.98579E-14
 -1      1483 1.90817E+01-1.63424E-04 2.50881E-03-5.67759E-02 4.05814E-14 4.80293E-14
 -1      1484 1.90015E+01 3.48245E-03 3.43676E-03-5.45441E-02 5.27351E-15 5.85660E-14
 -1      1485 1.91689E+01-6.68776E-05-1.38358E-03-9.58420E-02-1.26223E-15 8.88178E-15
 -1      1486 1.92151E+01-8.51820E-04 2.04140E-03-5.54433E-02 3.64180E-14-6.28057E-14
 -1      1487 1.91347E+01 1.17551E-03 2.33703E-03-5.46170E-02 5.34544E-14 2.46383E-14
 -1      1488 1.92615E+01-2.55269E-03-1.01245E-03-1.02294E-01 6.25326E-14 9.89660E-16
 -1      1489 1.93450E+01-1.18717E-03 1.69427E-03-5.11868E-02-2.47354E-15-9.51244E-14
 -1      1490 1.92696E+01-1.95731E-04 1.66267E-03-5.12176E-02-5.06637E-15-9.58829E-14
 -1      1491 1.93647E+01-3.77768E-03-6.77044E-04-9.94451E-02 3.11162E-14-5.48832E-14
 -1      1492 1.94649E+01-1.28694E-03 1.40028E-03-4.55850E-02 2.28207E-14-6.33712E-14
 -1      1493 1.93970E+01-9.50647E-04 1.20854E-03-4.61021E-02 1.72205E-14-6.92450E-14
 -1      1494 1.94677E+01-4.21488E-03-4.23669E-04-9.16280E-02 7.11134E-15-1.01034E-13
 -1      1495 1.95718E+01-1.22649E-03 1.14129E-03-3.96803E-02 4.53547E-14-1.26604E-13
 -1      1496 1.95124E+01-1.28518E-03 8.85766E-04-4.04265E-02 2.26107E-14-1.05284E-13
 -1      1497 1.95645E+01-4.14761E-03-2.50671E-04-8.16408E-02 5.33252E-14-7.79667E-14
 -1      1498 1.96656E+01-1.05334E-03 9.12496E-04-3.41783E-02 9.41445E-15-1.61553E-13
 -1      1499 1.96144E+01-1.32373E-03 6.53876E-04-3.49698E-02 3.03051E-14-1.46111E-13
 -1      1500 1.96525E+01-3.75293E-03-1.45222E-04-7.13484E-02 5.22753E-14-1.06231E-13
 -1      1501 1.97475E+01-7.93715E-04 7.11288E-04-2.95793E-02 2.03122E-14-2.00862E-13
 -1      1502 1.97035E+01-1.14269E-03 4.91383E-04-3.02781E-02 1.37961E-14-1.98374E-13
 -1      1503 1.97312E+01-3.13913E-03-9.63777E-05-6.20356E-02 4.97520E-14-1.69696E-13
 -1      1504 1.98202E+01-4.55277E-04 5.34368E-04-2.62782E-02-2.53983E-14-1.67274E-13
 -1      1505 1.97817E+01-7.80938E-04 3.85669E-04-2.67693E-02-1.54598E-14-1.90531E-13
 -1      1506 1.98019E+01-2.36348E-03-9.83765E-05-5.46492E-02-1.63994E-14-1.65706E-13
 -1      1507 1.98876E+01-2.67085E-05 3.76708E-04-2.46533E-02-3.21300E-14-6.77172E-14
 -1      1508 1.98524E+01-2.42875E-04 3.29678E-04-2.48233E-02-1.97303E-14-1.26068E-13
 -1      1509 1.98672E+01-1.43924E-03-1.51884E-04-4.99880E-02-3.68547E-14-6.00871E-14
 -1      1510 1.99544E+01 5.25769E-04 2.30547E-04-2.51590E-02 2.80283E-14-4.27349E-14
 -1      1511 1.99199E+01 5.04694E-04 3.20855E-04-2.48718E-02-1.54159E-14-5.04698E-14
 -1      1512 1.99306E+01-3.35112E-04-2.65744E-04-4.88812E-02-1.56221E-14-1.03485E-13
 -1      1513 2.00273E+01 1.26598E-03 8.35247E-05-2.84388E-02 1.36902E-13-2.75142E-13
 -1      1514 1.99898E+01 1.54252E-03 3.60901E-04-2.75036E-02 1.23023E-13-9.18232E-14
 -1      1515 1.99970E+01 1.03323E-03-4.60268E-04-5.23842E-02 1.36084E-13-1.12820E-13
 -1      1516 2.01150E+01 2.30122E-03-8.51676E-05-3.54792E-02-1.23884E-13-3.51881E-13
 -1      1517 2.00697E+01 3.01836E-03 4.55689E-04-3.36046E-02 1.55155E-14-3.13335E-13
 -1      1518 2.00731E+01 2.82173E-03-7.73115E-04-6.20257E-02 1.07932E-13-1.11999E-13
 -1      1519 2.02294E+01 3.80405E-03-3.12764E-04-4.78350E-02 5.63243E-16-2.13672E-13
 -1      1520 2.01698E+01 5.18021E-03 6.14415E-04-4.45574E-02-1.11531E-13-3.35726E-13
 -1      1521 2.01677E+01 5.29147E-03-1.26945E-03-8.01522E-02-1.47102E-13-1.96055E-13
 -1      1522 2.03880E+01 6.04556E-03-6.69860E-04-6.79673E-02-1.27146E-13-1.13300E-13
 -1      1523 2.03043E+01 8.42960E-03 8.45722E-04-6.25386E-02-6.65770E-14-1.85297E-13
 -1      1524 2.02933E+01 8.86382E-03-2.05949E-03-1.10431E-01-1.00835E-13-1.31958E-13
 -1      1525 2.06164E+01 9.44157E-03-1.29680E-03-9.97492E-02-2.96805E-14 4.58956E-14
 -1      1526 2.04942E+01 1.34017E-02 1.14479E-03-9.09588E-02-4.01020E-14-1.24732E-14
 -1      1527 2.04675E+01 1.42056E-02-3.32899E-03-1.58594E-01-1.69968E-13 1.80737E-15
 -1      1528 2.09528E+01 1.46050E-02-2.47951E-03-1.49189E-01 2.68396E-14 3.22398E-15
 -1      1529 2.07700E+01 2.10725E-02 1.45703E-03-1.35090E-01-1.58476E-14 3.09705E-14
 -1      1530 2.07155E+01 2.23482E-02-5.39264E-03-2.33499E-01 1.20641E-14 2.09262E-14
 -1      1531 2.14541E+01 2.23677E-02-4.78775E-03-2.25348E-01 2.16576E-14 3.13664E-14
 -1      1532 2.11772E+01 3.28629E-02 1.59079E-03-2.02870E-01 5.25968E-15 2.23042E-14
 -1      1533 2.10738E+01 3.48173E-02-8.78180E-03-3.48533E-01 1.36948E-14-1.08312E-13
 -1      1534 2.22039E+01 3.36427E-02-9.23643E-03-3.41152E-01 5.64826E-15 1.59889E-14
 -1      1535 2.17827E+01 5.06031E-02 1.05087E-03-3.05645E-01 4.24634E-14 5.47401E-14
 -1      1536 2.15940E+01 5.36512E-02-1.43537E-02-5.23046E-01 3.52583E-14-1.34736E-13
 -1      1537 2.33189E+01 4.87561E-02-1.71120E-02-5.12850E-01 2.86811E-14 3.79557E-15
 -1      1538 2.26813E+01 7.59119E-02-1.13906E-03-4.57912E-01-1.22263E-14 9.22526E-15
 -1      1539 2.23462E+01 8.08754E-02-2.32672E-02-7.82527E-01 1.47451E-14-1.20464E-13
 -1      1540 2.49465E+01 6.53282E-02-2.81636E-02-7.54453E-01 6.55205E-14-1.72341E-13
 -1      1541 2.39988E+01 1.07778E-01-6.12666E-03-6.73208E-01 3.75585E-14-1.05957E-14
 -1      1542 2.34193E+01 1.16168E-01-3.62014E-02-1.15347E+00 4.12170E-15 6.46184E-16
 -1      1543 2.72277E+01 7.26950E-02-3.43200E-02-1.05774E+00-1.36384E-14-3.00579E-13
 -1      1544 2.58775E+01 1.35499E-01-1.29490E-02-9.48981E-01 3.73243E-14-2.05433E-13
 -1      1545 2.49082E+01 1.49623E-01-5.01839E-02-1.64239E+00 9.11042E-14-6.40772E-14
 -1      1546 3.01745E+01 4.02018E-02-7.72224E-03-1.33839E+00-1.19927E-13-9.80604E-14
 -1      1547 2.84137E+01 1.22471E-01-1.20215E-02-1.22593E+00-1.17496E-13-2.08014E-13
 -1      1548 2.68754E+01 1.43124E-01-5.11916E-02-2.17658E+00-1.44701E-13 3.22450E-14
 -1      1549 3.33813E+01-9.25590E-02 9.74126E-02-1.32950E+00-1.10559E-13 2.35048E-13
 -1      1550 3.14954E+01-1.48365E-02 2.23541E-02-1.30616E+00-1.16050E-13 3.88994E-14
 -1      1551 2.92649E+01-1.05662E-03-6.93969E-03-2.47591E+00-2.27022E-13 1.86788E-13
 -1      1552 3.55690E+01-3.56156E-01 2.55418E-01-5.24481E-01-1.63085E-13 4.43277E-13
 -1      1553 3.44809E+01-3.65963E-01 1.12825E-01-7.78288E-01-1.05665E-13 2.41931E-13
 -1      1554 3.17497E+01-4.29465E-01 1.09486E-01-1.89596E+00-2.35964E-13 2.26645E-13
 -1      1555 3.46296E+01-5.79240E-01 1.89232E-01 1.44624E+00-3.92394E-14 6.23390E-13
 -1      1556 3.58781E+01-8.10081E-01 1.73798E-01 7.58557E-01-7.46764E-14 4.94771E-13
 -1      1557 3.35600E+01-1.13689E+00 2.04286E-01 3.76873E-01-1.91451E-13 2.77521E-13
 -1      1558 3.01552E+01-2.42284E-01-3.24002E-01 3.23984E+00-1.32686E-13 7.67664E-13
 -1      1559 3.38433E+01-7.24879E-01-2.28879E-02 2.60704E+00-1.28203E-13 5.72653E-13
 -1      1560 3.37230E+01-1.11995E+00 5.41407E-02 3.77515E+00-1.73112E-13 3.22166E-13
 -1      1561 2.51731E+01 6.62408E-01-1.00663E+00 2.67661E+00 8.04912E-15 8.22925E-13
 -1      1562 2.89556E+01 3.00537E-01-5.39555E-01 2.84837E+00-2.69784E-14 8.37497E-13
 -1      1563 3.24238E+01 4.45587E-01-2.10108E-01 5.16499E+00-1.57985E-13 4.99245E-13
 -1      1564 2.39534E+01 1.08496E+00-1.17929E+00-2.72381E-01 1.64035E-13 6.25139E-13
 -1      1565 2.47983E+01 1.22356E+00-1.00263E+00 6.16367E-01 8.10463E-14 7.97862E-13
 -1      1566 3.11181E+01 2.26569E+00-4.64109E-01 2.31306E+00 5.79536E-14 5.16153E-13
 -1      1567 2.68766E+01 5.67223E-01-7.44658E-01-2.76373E+00 1.40860E-13 5.06595E-13
 -1      1568 2.46567E+01 1.04341E+00-9.63446E-01-2.03956E+00 2.02061E-13 6.72074E-13
 -1      1569 3.11564E+01 2.07183E+00-5.07154E-01-2.41496E+00 2.60625E-13 5.62083E-13
 -1      1570 3.23171E+01-3.62449E-01-2.61334E-02-3.16462E+00 2.17298E-13 2.21601E-13
 -1      1571 2.81638E+01 3.57288E-02-4.96842E-01-3.08839E+00 1.57568E-13 3.03868E-13
 -1      1572 3.23959E+01 2.40816E-01-3.38539E-01-5.07406E+00 2.57405E-13 3.75287E-13
 -1      1573 3.59039E+01-6.02756E-01 3.65634E-01-1.32946E+00 2.18194E-14-1.66533E-15
 -1      1574 3.29974E+01-5.82884E-01 6.48609E-02-1.85006E+00 1.54699E-13 1.22902E-13
 -1      1575 3.36369E+01-1.28834E+00-6.27163E-02-3.82687E+00 2.45956E-13-3.46737E-14
 -1      1576 3.56864E+01-3.14173E-01 2.81350E-01 5.29034E-01-1.95975E-13 3.56392E-13
 -1      1577 3.53588E+01-5.15955E-01 2.46347E-01 5.92825E-02-2.08479E-13 1.57097E-14
 -1      1578 3.34377E+01-1.26942E+00 8.38815E-02-6.05178E-01-1.41588E-13 7.64458E-14
 -1      1579 3.29162E+01-4.22864E-02 6.65921E-02 1.34232E+00 1.72737E-13 4.57634E-13
 -1      1580 3.43991E+01-2.26378E-01 1.35311E-01 1.14864E+00 8.56815E-14 5.51212E-13
 -1      1581 3.17185E+01-5.74915E-01 6.90043E-02 1.75554E+00-1.11550E-13 1.58474E-13
 -1      1582 2.95943E+01 6.59242E-02-4.33663E-02 1.34473E+00-9.62532E-14 4.72927E-13
 -1      1583 3.15332E+01-2.23265E-02 7.21873E-03 1.33923E+00 5.50815E-14 4.81157E-13
 -1      1584 2.92837E+01-2.98787E-02 2.25128E-02 2.49841E+00 8.60111E-14 2.57849E-13
 -1      1585 2.67260E+01 8.23750E-02-6.10836E-02 1.06401E+00 1.05560E-13 3.85442E-13
 -1      1586 2.84167E+01 6.07649E-02-3.93090E-02 1.12047E+00-3.25451E-14 4.19054E-13
 -1      1587 2.68910E+01 1.66545E-01-6.39559E-03 2.27079E+00-1.86379E-14 1.07116E-13
 -1      1588 2.45489E+01 6.78762E-02-4.59666E-02 7.63341E-01 1.22550E-14 2.94514E-13
 -1      1589 2.58160E+01 7.47147E-02-3.74440E-02 8.23867E-01 2.13423E-14 3.68261E-13
 -1      1590 2.48914E+01 1.81911E-01-1.39893E-02 1.74907E+00 3.23838E-14 1.96974E-13
 -1      1591 2.29949E+01 4.86794E-02-2.83105E-02 5.24486E-01-8.12423E-14 2.48850E-13
 -1      1592 2.38819E+01 6.30780E-02-2.34685E-02 5.72298E-01 5.60905E-14 2.71540E-13
 -1      1593 2.33614E+01 1.42074E-01-1.23364E-02 1.24862E+00 8.05953E-14 3.96119E-13
 -1      1594 2.19169E+01 3.29546E-02-1.60249E-02 3.54766E-01 1.87548E-13 4.09603E-14
 -1      1595 2.25200E+01 4.66161E-02-1.19915E-02 3.88643E-01 9.50542E-15 6.90351E-14
 -1      1596 2.22468E+01 9.82982E-02-8.95719E-03 8.61205E-01 8.93521E-14-1.32591E-14
 -1      1597 2.11773E+01 2.19555E-02-8.89128E-03 2.39537E-01 1.28832E-13-3.97245E-13
 -1      1598 2.15836E+01 3.26381E-02-5.27233E-03 2.62520E-01 1.21804E-13-1.34573E-13
 -1      1599 2.14558E+01 6.47521E-02-6.23698E-03 5.86571E-01 2.24799E-13-2.42416E-13
 -1      1600 2.06723E+01 1.50727E-02-5.30101E-03 1.61496E-01-7.24607E-14-4.30930E-13
 -1      1601 2.09455E+01 2.28754E-02-2.02686E-03 1.77108E-01-1.01959E-13-3.29689E-13
 -1      1602 2.09019E+01 4.25521E-02-4.50786E-03 3.98073E-01-8.17228E-14-3.47293E-13
 -1      1603 2.03336E+01 1.15660E-02-3.97938E-03 1.05018E-01-1.43508E-13-1.42887E-13
 -1      1604 2.05136E+01 1.74900E-02-9.29227E-04 1.16870E-01-9.52207E-14-2.13145E-13
 -1      1605 2.05184E+01 3.02051E-02-3.63156E-03 2.66530E-01-2.68749E-13 9.79782E-14
 -1      1606 2.01234E+01 1.00600E-02-3.51395E-03 5.96041E-02-2.59764E-13 2.90448E-13
 -1      1607 2.02314E+01 1.53148E-02-8.08929E-04 6.97831E-02-1.62249E-13 2.50844E-14
 -1      1608 2.02607E+01 2.38795E-02-3.70109E-03 1.67050E-01-2.86071E-13 5.01651E-13
 -1      1609 2.00235E+01 1.06002E-02 6.40628E-04 1.69678E-02-1.51070E-13 6.71692E-13
 -1      1610 2.00655E+01 1.58327E-02-2.71311E-04 2.76889E-02-1.36954E-13 4.28166E-13
 -1      1611 2.00993E+01 2.28942E-02-3.46525E-03 8.24100E-02-3.32443E-13 6.25818E-13
 -1      1612 2.00006E+01 4.55284E-03 2.74240E-03-1.63244E-03 4.43372E-13 3.85430E-13
 -1      1613 2.00141E+01 8.61854E-02-2.57907E-03 4.65753E-02 1.02140E-12 8.89948E-14
 -1      1614 2.00173E+01 4.28135E-02 9.69329E-04 3.58785E-02 8.44912E-13 2.69147E-13
 -1      1615 2.00074E+01 2.37018E-01-1.59895E-03 7.97712E-02 4.98085E-13-4.07145E-13
 -1      1616 2.00122E+01 1.50257E-01-1.54852E-03 7.28512E-02 1.10155E-12-2.43738E-13
 -1      1617 2.00229E+01 1.46927E-01-3.21671E-03 1.17709E-01 1.59513E-13-2.09755E-13
 -1      1618 1.99965E+01 4.18097E-01-2.05540E-04 8.83156E-02-1.34288E-13-3.63975E-13
 -1      1619 2.00017E+01 3.15094E-01-8.96015E-04 8.87664E-02 5.51251E-13-3.43396E-13
 -1      1620 2.00094E+01 2.90301E-01-6.59838E-04 1.62913E-01 1.46507E-13-5.70353E-13
 -1      1621 1.99896E+01 5.80155E-01 6.10556E-04 7.31002E-02-3.28991E-13-2.27394E-13
 -1      1622 1.99933E+01 4.90721E-01 1.36112E-04 7.79875E-02-7.03838E-14-1.62076E-13
 -1      1623 1.99929E+01 4.41598E-01 1.88061E-03 1.59522E-01-4.08384E-14-3.89916E-13
 -1      1624 1.99864E+01 6.86793E-01 8.58329E-04 4.31111E-02-2.03895E-13 2.23350E-13
 -1      1625 1.99880E+01 6.31314E-01 5.12921E-04 5.00535E-02-4.84465E-13 2.11519E-14
 -1      1626 1.99824E+01 5.64934E-01 3.65281E-03 1.18017E-01-1.15851E-13-2.24870E-13
 -1      1627 1.99869E+01 7.24536E-01 7.32864E-04 7.25335E-03 8.63162E-14 5.51102E-14
 -1      1628 1.99865E+01 7.09564E-01 5.47171E-04 1.45373E-02-1.18389E-13 2.14749E-13
 -1      1629 1.99782E+01 6.37569E-01 4.20166E-03 5.49783E-02-1.39979E-13 2.85312E-13
 -1      1630 1.99900E+01 6.92317E-01 4.00434E-04-2.49801E-02-2.80778E-14-8.21007E-14
 -1      1631 1.99882E+01 7.16251E-01 3.17158E-04-1.91844E-02 1.93658E-13-1.92551E-13
 -1      1632 1.99797E+01 6.49992E-01 3.74233E-03-1.19474E-02-2.50631E-13 4.52273E-14
 -1      1633 1.99944E+01 6.06167E-01 3.92939E-05-4.76429E-02 1.67616E-13 9.51708E-14
 -1      1634 1.99919E+01 6.58651E-01 4.32498E-05-4.41746E-02 8.46732E-14 2.13556E-13
 -1      1635 1.99852E+01 6.06223E-01 2.59017E-03-6.71014E-02 2.66470E-14 4.68666E-14
 -1      1636 1.99986E+01 4.88943E-01-2.32903E-04-5.86160E-02-1.36285E-13-1.16764E-13
 -1      1637 1.99963E+01 5.56442E-01-1.68026E-04-5.75442E-02 1.44734E-13-5.54341E-14
 -1      1638 1.99922E+01 5.21588E-01 1.20319E-03-1.01966E-01-5.50122E-14-8.72044E-14
 -1      1639 2.00019E+01 3.63490E-01-3.57470E-04-5.90090E-02-3.93183E-13-2.00014E-13
 -1      1640 2.00000E+01 4.33210E-01-2.57406E-04-5.98464E-02-4.37072E-14-1.72430E-13
 -1      1641 1.99988E+01 4.15690E-01-3.62306E-05-1.14962E-01-2.26805E-13-1.78017E-13
 -1      1642 2.00037E+01 2.49392E-01-3.44879E-04-5.20861E-02-3.46689E-13 2.11377E-13
 -1      1643 2.00026E+01 3.11068E-01-2.13497E-04-5.40048E-02-3.84657E-13-2.33683E-14
 -1      1644 2.00036E+01 3.07834E-01-9.00514E-04-1.09900E-01-1.41499E-13-1.91611E-13
 -1      1645 2.00043E+01 1.53309E-01-2.68379E-04-4.11677E-02-1.04709E-13 3.04111E-13
 -1      1646 2.00039E+01 2.03737E-01-1.25434E-04-4.35499E-02-3.10702E-13 4.80823E-13
 -1      1647 2.00062E+01 2.10661E-01-1.31600E-03-9.32566E-02-6.86950E-16 5.25876E-13
 -1      1648 2.00042E+01 8.17655E-02-1.94226E-04-2.93383E-02-2.56528E-13-1.01555E-13
 -1      1649 2.00041E+01 1.18094E-01-3.88326E-05-3.15756E-02-2.54329E-13 2.74317E-13
 -1      1650 2.00070E+01 1.31062E-01-1.39770E-03-7.11720E-02-1.38556E-15 5.06501E-14
 -1      1651 2.00042E+01 3.54846E-02 2.07328E-04-1.83545E-02-3.96264E-13-5.33712E-14
 -1      1652 2.00034E+01 5.71913E-02-1.51589E-04-2.00710E-02-3.12065E-13-6.27761E-14
 -1      1653 2.00070E+01 7.24860E-02-1.15737E-03-4.83951E-02-1.23960E-13-1.08581E-13
 -1      1654 2.00059E+01 1.38876E-02 5.96886E-04-1.15367E-02-1.74132E-13-7.45779E-15
 -1      1655 2.00059E+01 2.31973E-02-1.15878E-04-1.48578E-02-2.57351E-13 2.83613E-14
 -1      1656 2.00103E+01 3.79954E-02-4.28151E-04-3.26983E-02-1.76613E-13 7.26567E-15
 -1      1657 2.00154E+01 1.69964E-02-3.57468E-04-2.30802E-02-5.39417E-14 2.80022E-14
 -1      1658-1.22617E+00-1.80198E+01-1.92624E+00-2.45332E+00 1.30077E-12 3.31624E-13
 -1      1659-9.27593E-01-1.88717E+01-1.91994E+00-6.92324E-01 1.16816E-12 1.83076E-13
 -1      1660-1.71541E-01-1.24466E+01-1.73150E+00-1.90840E+00 9.46465E-13 2.51604E-14
 -1      1661-3.66175E-01-1.70804E+01-2.03171E+00-1.78058E+00 1.31473E-12 2.73559E-13
 -1      1662 4.90297E+00-4.26825E+00-1.28814E+00 1.89304E+00 1.66533E-13-2.01283E-13
 -1      1663 2.10329E+00-1.05627E+01-1.98303E+00-8.70837E-01 6.46483E-13-3.11973E-14
 -1      1664 1.70127E+01 2.18184E+00-4.28291E-01 7.86876E+00 1.84741E-13 4.17444E-13
 -1      1665 9.65044E+00-2.41146E+00-1.50670E+00 3.45932E+00-1.66533E-14 1.04472E-13
 -1      1666 3.52901E+01 4.81183E+00 8.73050E-01 1.19974E+01 4.71401E-13 9.83880E-13
 -1      1667 2.36693E+01 3.34102E+00-4.91583E-01 8.80101E+00 3.40616E-13 6.98330E-13
 -1      1668 5.50743E+01 4.38801E+00 2.40475E+00 1.04149E+01 5.13312E-13 5.81757E-14
 -1      1669 4.23666E+01 5.27411E+00 9.75042E-01 1.11165E+01 6.14508E-13 6.45706E-13
 -1      1670 6.77264E+01 3.68704E+00 3.43739E+00 3.94426E+00 1.69975E-13-5.98188E-13
 -1      1671 6.00609E+01 4.89547E+00 2.55465E+00 8.95794E+00 2.86424E-13-2.68674E-14
 -1      1672 6.60764E+01 4.40497E+00 3.15752E+00-5.06820E+00 2.14051E-13-8.77853E-13
 -1      1673 6.84510E+01 3.99177E+00 3.44333E+00 1.79183E+00 5.16254E-14-7.95974E-13
 -1      1674 5.05306E+01 5.24479E+00 1.63433E+00-9.76854E+00 1.62287E-13-7.03437E-13
 -1      1675 6.20811E+01 3.77982E+00 2.85269E+00-6.41237E+00 1.99035E-13-7.54619E-13
 -1      1676 3.15152E+01 4.77074E+00 1.24838E-01-1.05074E+01 7.19425E-14-4.89164E-13
 -1      1677 4.43993E+01 4.75674E+00 1.51433E+00-1.21201E+01 1.68643E-13-7.87814E-13
 -1      1678 1.47050E+01 3.87553E-01-1.10962E+00-5.75948E+00 4.46310E-14-3.68594E-14
 -1      1679 2.42801E+01 3.88782E+00 1.16760E-01-1.01717E+01 6.43929E-15-2.51799E-13
 -1      1680 5.19913E+00-7.42337E+00-1.66688E+00-9.05680E-01 5.18252E-13-2.12053E-14
 -1      1681 9.63620E+00-1.62558E+00-8.93948E-01-4.42542E+00 1.85185E-13 3.59712E-14
 -1      1682 7.76088E-01-1.44930E+01-1.82314E+00 1.14845E+00 7.27307E-13-1.75412E-13
 -1      1683 1.88945E+00-9.11037E+00-1.39730E+00 1.21018E-01 5.39568E-13 8.62088E-14
 -1      1684-9.55022E-01-1.91505E+01-2.03537E+00 1.24000E+00 9.18918E-13-1.53211E-14
 -1      1685-1.32500E+00-1.67179E+01-1.91447E+00 2.80598E+00 8.22620E-13-2.06224E-13
 -1      1686-6.90104E-01-1.63951E+01-1.65866E+00-1.38393E-02 5.07816E-13-1.74499E-13
 -1      1687-8.77579E-01-1.85435E+01-1.89277E+00 1.66373E+00 8.53623E-13-1.03806E-13
 -1      1688 8.88991E-01-9.57401E+00-1.24758E+00 4.88091E-01-1.08358E-13-2.49176E-13
 -1      1689 3.15986E-01-1.52984E+01-1.78953E+00 3.79806E-01 2.99649E-13-2.30010E-13
 -1      1690 5.89565E+00-9.07263E-01-5.90832E-01 4.38701E+00-4.82947E-13-6.46483E-13
 -1      1691 3.22488E+00-7.07498E+00-1.35927E+00 1.67432E+00-2.24487E-13-3.46612E-13
 -1      1692 1.56209E+01 5.53812E+00 1.58167E-01 9.87708E+00-8.17568E-13-8.08797E-13
 -1      1693 9.70413E+00 1.38454E+00-7.08734E-01 5.95387E+00-6.53477E-13-6.62026E-13
 -1      1694 2.95472E+01 7.82474E+00 8.87024E-01 1.38074E+01-7.76823E-13-1.38156E-12
 -1      1695 2.07552E+01 6.85330E+00 4.42498E-02 1.10392E+01-7.95586E-13-1.04183E-12
 -1      1696 4.42765E+01 6.62695E+00 1.46528E+00 1.33322E+01-6.68438E-13-1.40477E-12
 -1      1697 3.50179E+01 8.06509E+00 7.89701E-01 1.37676E+01-7.31915E-13-1.45217E-12
 -1      1698 5.56301E+01 4.37965E+00 1.80941E+00 7.08843E+00-2.77722E-13-1.39633E-12
 -1      1699 4.87393E+01 6.28417E+00 1.38905E+00 1.14179E+01-4.63601E-13-1.45139E-12
 -1      1700 5.85426E+01 3.79254E+00 1.78199E+00-2.09285E+00-1.40110E-13-9.70224E-13
 -1      1701 5.79863E+01 4.11644E+00 1.82576E+00 4.22760E+00-1.90126E-13-1.19360E-12
 -1      1702 5.07880E+01 5.69371E+00 1.33661E+00-8.90042E+00-1.38195E-13-3.38729E-13
 -1      1703 5.56307E+01 4.35522E+00 1.62783E+00-4.34578E+00-1.53655E-13-6.14120E-13
 -1      1704 3.95727E+01 7.70915E+00 9.55742E-01-1.35856E+01 6.27276E-15-1.15907E-13
 -1      1705 4.83487E+01 5.78832E+00 1.51910E+00-1.17886E+01 5.08205E-14-1.37890E-13
 -1      1706 2.50782E+01 7.02311E+00 2.19455E-01-1.16582E+01 2.61124E-13-8.97060E-14
 -1      1707 3.45874E+01 7.28398E+00 1.08964E+00-1.36054E+01 1.72307E-13-4.13003E-14
 -1      1708 1.30623E+01 1.88819E+00-5.18543E-01-7.04674E+00-2.59015E-13 2.57572E-14
 -1      1709 2.01374E+01 5.28812E+00 3.28773E-01-1.08825E+01-4.90719E-14-1.16240E-13
 -1      1710 3.95225E+00-5.58053E+00-1.30415E+00-2.18553E+00-4.80060E-13 1.56763E-13
 -1      1711 7.36269E+00 5.70434E-01-4.82125E-01-5.44153E+00-4.12559E-13 9.04832E-14
 -1      1712 7.32979E-01-1.37642E+01-1.72099E+00-3.37147E-01 7.50622E-13 2.95004E-13
 -1      1713 1.54739E+00-8.08047E+00-1.15132E+00-9.89898E-01-1.50546E-13 5.99659E-13
 -1      1714-6.37523E-01-1.86963E+01-1.95634E+00-1.03995E+00 9.44578E-13 2.47580E-14
 -1      1715-5.09089E-01-1.56045E+01-1.66660E+00 3.38117E-01 8.06133E-13-7.10820E-14
 -1      1716 2.65570E+01-2.35439E+00-1.67919E-01 5.87518E+00 2.44249E-15 6.45595E-13
 -1      1717 1.34334E+01-6.33475E+00-9.14987E-01 4.73698E+00 2.13496E-13 5.39568E-14
 -1      1718 2.00182E+01 1.42646E-02-8.45682E-04 1.57568E-02 5.06155E-13 3.67889E-13
 -1      1719 2.00452E+01 5.82407E-02 4.31620E-04 6.16493E-02-1.14323E-14 5.28817E-13
 -1      1720-7.37043E-01-1.23730E+01-1.38874E+00 4.77046E-01 8.10074E-13 1.79190E-13
 -1      1721 4.08223E+00-1.01055E+01-1.30482E+00 2.58624E+00 6.78346E-13-4.72226E-13
 -1      1722-1.74698E+00-1.28978E+01-1.39307E+00-1.49391E+00 5.65575E-13 3.82361E-13
 -1      1723 4.08096E+01 1.49480E+00 9.48263E-01 4.78062E+00 4.52471E-13 3.70814E-13
 -1      1724 5.16767E+01 5.46621E+00 2.03761E+00 2.57838E+00 6.16479E-13-2.57350E-13
 -1      1725 5.72254E+01 7.97437E+00 2.71861E+00 8.44829E-01 2.55906E-13-4.99073E-13
 -1      1726 5.42079E+01 6.99304E+00 2.25672E+00-5.75928E-01 1.49325E-13-4.74509E-13
 -1      1727 4.63308E+01 3.34021E+00 1.45785E+00-3.08113E+00-3.23977E-14-2.74447E-13
 -1      1728 3.28537E+01-5.80847E-01 3.23409E-01-5.75448E+00-1.11244E-13-3.98792E-13
 -1      1729 1.87747E+01-5.00132E+00-6.74371E-01-5.37525E+00 9.11493E-14 1.01141E-13
 -1      1730 8.27218E+00-8.63822E+00-1.03952E+00-4.12406E+00 4.41425E-13 1.29181E-13
 -1      1731 9.86832E-01-1.12455E+01-1.21986E+00-1.82243E+00 4.34541E-13-3.60267E-14
 -1      1732-1.85577E+00-1.27281E+01-1.39365E+00 1.04902E+00 5.30596E-13-8.56537E-14
 -1      1733-1.51896E-01-1.13408E+01-1.21856E+00 2.92582E+00 2.25542E-13-4.97491E-13
 -1      1734 4.83841E+00-7.89488E+00-9.10747E-01 4.95335E+00-1.08802E-13-4.60628E-13
 -1      1735 1.28624E+01-3.05233E+00-3.95285E-01 7.08946E+00-3.49165E-13-7.47846E-13
 -1      1736 2.30580E+01 1.44381E+00 2.01518E-01 8.64386E+00-4.62075E-13-8.30114E-13
 -1      1737 3.39450E+01 4.75037E+00 7.79362E-01 8.78167E+00-5.35461E-13-1.19138E-12
 -1      1738 4.34491E+01 6.71903E+00 1.23630E+00 6.66552E+00-5.47631E-13-1.29496E-12
 -1      1739 4.94844E+01 7.77230E+00 1.54146E+00 2.78543E+00-3.32845E-13-1.08746E-12
 -1      1740 4.86680E+01 8.04288E+00 1.33953E+00-1.10110E+00-3.78364E-13-7.77822E-13
 -1      1741 4.46320E+01 7.39552E+00 1.26532E+00-5.12231E+00-1.66672E-13-2.88991E-13
 -1      1742 3.72439E+01 5.12025E+00 9.08746E-01-7.74086E+00 2.25653E-13-8.27116E-14
 -1      1743 2.69680E+01 9.39450E-01 2.29702E-01-7.90862E+00 4.66294E-15-7.83817E-14
 -1      1744 1.61461E+01-2.47694E+00-9.19300E-02-7.69458E+00-1.87184E-13-1.58984E-13
 -1      1745 6.16580E+00-6.99581E+00-8.18206E-01-5.35014E+00 7.56062E-14 4.38760E-13
 -1      1746 6.51252E-01-1.10853E+01-1.22080E+00-3.30491E+00 5.41234E-13 4.06619E-13
 -1      1747 2.28586E+01 1.98485E+00-2.35597E-02-2.72235E+00-6.19747E-14 5.22749E-13
 -1      1748 1.98254E+01 3.71368E+00-3.54244E-02-2.15279E+00-1.16801E-13 3.44932E-14
 -1      1749 2.00579E+01 3.56271E+00-4.02195E-02-2.44499E+00-1.24635E-13 9.01709E-14
 -1      1750 2.03632E+01 3.18146E+00-4.57833E-02-2.58476E+00-1.21578E-13 1.41269E-13
 -1      1751 2.05832E+01 2.80967E+00-1.42510E-01-2.85307E+00-1.19852E-13 2.06717E-13
 -1      1752 2.04241E+01 2.69290E+00-4.14272E-03-2.22417E+00-1.23778E-13 1.15782E-13
 -1      1753 1.93554E+01 4.18914E+00-2.00871E-02-1.27039E+00-9.64393E-14-6.71217E-14
 -1      1754 1.94292E+01 4.14965E+00-1.69136E-02-1.49474E+00-1.06857E-13-4.77604E-14
 -1      1755 1.92588E+01 4.29502E+00-1.67519E-02-8.59495E-01-7.56279E-14-8.47152E-14
 -1      1756 1.93016E+01 4.27105E+00-1.42525E-02-1.07024E+00-8.61236E-14-7.75040E-14
 -1      1757 1.95275E+01 3.78351E+00-8.97919E-03-1.11946E+00-1.01322E-13-5.58616E-14
 -1      1758 1.92074E+01 4.35551E+00-1.47925E-02-4.66703E-01-4.70998E-14-9.67837E-14
 -1      1759 1.92293E+01 4.34265E+00-1.32953E-02-6.66969E-01-5.71345E-14-8.91232E-14
 -1      1760 1.94302E+01 3.90377E+00-9.14519E-03-7.33024E-01-6.38778E-14-6.74478E-14
 -1      1761 1.91880E+01 4.38115E+00-1.36672E-02-8.36234E-02-2.33109E-14-1.14400E-13
 -1      1762 1.91944E+01 4.37722E+00-1.32141E-02-2.79035E-01-3.16812E-14-1.11766E-13
 -1      1763 1.93799E+01 3.96829E+00-9.14208E-03-3.58218E-01-3.70314E-14-9.24226E-14
 -1      1764 1.91961E+01 4.37583E+00-1.31708E-02 2.98064E-01-8.02451E-15-1.17699E-13
 -1      1765 1.91885E+01 4.38030E+00-1.37536E-02 1.02486E-01-1.66122E-14-1.12667E-13
 -1      1766 1.93652E+01 3.98770E+00-9.13855E-03 1.05384E-02-1.84450E-14-1.12499E-13
 -1      1767 1.92333E+01 4.33859E+00-1.33297E-02 6.86739E-01 4.79044E-15-1.30323E-13
 -1      1768 1.92101E+01 4.35231E+00-1.49185E-02 4.85963E-01-1.46259E-16-1.27127E-13
 -1      1769 1.93826E+01 3.96494E+00-9.18492E-03 3.79506E-01-1.93012E-15-1.10450E-13
 -1      1770 1.93068E+01 4.26511E+00-1.44093E-02 1.08435E+00 2.37286E-14-1.18598E-13
 -1      1771 1.92635E+01 4.28961E+00-1.69768E-02 8.76396E-01 1.49453E-14-1.22815E-13
 -1      1772 1.94354E+01 3.89738E+00-9.18977E-03 7.51589E-01 1.37613E-14-1.17349E-13
 -1      1773 1.94384E+01 4.13778E+00-1.74039E-02 1.51435E+00 7.10439E-14-1.15186E-13
 -1      1774 1.93619E+01 4.18041E+00-2.05058E-02 1.28481E+00 5.24676E-14-1.14884E-13
 -1      1775 1.95351E+01 3.77335E+00-9.24233E-03 1.13529E+00 4.75862E-14-1.06715E-13
 -1      1776 1.96674E+01 3.92115E+00-2.51945E-02 1.97945E+00 8.72965E-14-1.04101E-13
 -1      1777 1.95347E+01 3.99796E+00-2.69024E-02 1.72211E+00 8.07306E-14-1.14773E-13
 -1      1778 1.97084E+01 3.56615E+00-8.70136E-03 1.53503E+00 7.74298E-14-1.02510E-13
 -1      1779 2.00758E+01 3.52276E+00-4.51821E-02 2.47189E+00 1.09961E-13-4.94188E-14
 -1      1780 1.98359E+01 3.68326E+00-3.97195E-02 2.18279E+00 1.00623E-13-8.00054E-14
 -1      1781 2.00046E+01 3.22295E+00-5.26620E-03 1.93438E+00 1.00989E-13-7.89716E-14
 -1      1782 2.09208E+01 2.68175E+00-5.76445E-02 2.85761E+00 1.15462E-13 4.12378E-14
 -1      1783 2.04136E+01 3.09689E+00-5.04240E-02 2.61582E+00 1.10105E-13-1.45370E-14
 -1      1784 2.05175E+01 2.60994E+00 3.18819E-03 2.24437E+00 1.15616E-13-2.62498E-14
 -1      1785 2.17308E+01 1.21295E+00-1.22087E-01 2.32973E+00 1.05846E-13 1.77552E-13
 -1      1786 2.12745E+01 2.26299E+00 1.18580E-04 2.74030E+00 1.07761E-13 9.01362E-14
 -1      1787 2.09374E+01 1.68501E+00-2.29563E-02 2.14004E+00 1.14436E-13 4.97311E-14
 -1      1788 2.09522E+01 7.78667E-01-6.24463E-02 1.52406E+00 9.34808E-14 1.52227E-13
 -1      1789 2.17968E+01 2.45815E+00 9.09181E-02-3.04803E+00-9.04346E-14 3.22922E-13
 -1      1790 2.01015E+01 2.97949E-01-8.91364E-03 6.56906E-01 8.92481E-14 1.07647E-13
 -1      1791 2.06536E+01 4.40413E-01-1.24634E-02 1.03394E+00 9.06775E-14 1.36016E-13
 -1      1792 2.07448E+01 8.45121E-01 2.24895E-03 1.41499E+00 9.78072E-14 8.49858E-14
 -1      1793 2.15073E+01 1.74227E+00 7.94445E-02-2.33697E+00-9.32830E-14 2.67134E-13
 -1      1794 2.05210E+01 5.00745E-01 3.23931E-02-9.21481E-01-8.37837E-14 2.49774E-13
 -1      1795 2.00893E+01 3.52145E-01 7.53133E-03-6.29479E-01-7.28098E-14 2.28412E-13
 -1      1796 1.98951E+01 2.57360E-01 2.73885E-02-3.91032E-01-7.28029E-14 2.04134E-13
 -1      1797 1.97042E+01 1.78042E-01 1.03755E-02-2.53213E-01-7.02207E-14 1.77823E-13
 -1      1798 2.01996E+01 4.83837E-01-5.87209E-03-7.22258E-01-9.18831E-14 1.37652E-13
 -1      1799 1.95823E+01 1.32779E-01 1.66437E-02-1.19653E-01-3.95643E-14 1.89121E-13
 -1      1800 1.95043E+01 9.31711E-02 6.97209E-03-4.88126E-02-1.54390E-14 1.90906E-13
 -1      1801 1.98737E+01 2.43954E-01-5.81300E-03-2.95351E-01-5.61239E-14 1.37584E-13
 -1      1802 1.94396E+01 6.85217E-02 8.69300E-03 2.48139E-02-1.23538E-14 1.83141E-13
 -1      1803 1.94253E+01 4.68661E-02 4.12693E-03 6.10650E-02-1.91798E-14 1.76894E-13
 -1      1804 1.96913E+01 1.25415E-01-4.63919E-03-5.83399E-02-2.31846E-14 1.45630E-13
 -1      1805 1.93994E+01 3.25690E-02 4.24477E-03 9.99132E-02-4.56752E-14 1.94720E-13
 -1      1806 1.94195E+01 2.01906E-02 2.45717E-03 1.16814E-01-5.64466E-14 1.86433E-13
 -1      1807 1.96051E+01 6.11873E-02-3.46636E-03 7.15086E-02-3.11098E-14 1.33479E-13
 -1      1808 1.94181E+01 1.16165E-02 1.86638E-03 1.34961E-01-7.17334E-14 1.78999E-13
 -1      1809 1.94556E+01 4.52693E-03 1.48485E-03 1.40596E-01-8.12381E-14 1.55209E-13
 -1      1810 1.95814E+01 2.44723E-02-2.35120E-03 1.38327E-01-7.29317E-14 1.30193E-13
 -1      1811 1.94686E+01-5.76839E-04 5.70736E-04 1.46339E-01-5.87579E-14 1.75653E-13
 -1      1812 1.95135E+01-4.43319E-03 8.87857E-04 1.45451E-01-2.42687E-14 2.10029E-13
 -1      1813 1.95958E+01 3.19423E-03-1.45958E-03 1.67305E-01-6.00382E-14 1.66464E-13
 -1      1814 1.95343E+01-7.30173E-03-1.43609E-04 1.43963E-01-5.97513E-14 1.75291E-13
 -1      1815 1.95807E+01-9.09553E-03 5.13269E-04 1.39529E-01-5.63324E-14 1.75521E-13
 -1      1816 1.96316E+01-8.71681E-03-8.23296E-04 1.73692E-01-4.70420E-14 1.61202E-13
 -1      1817 1.96049E+01-1.04785E-02-5.21500E-04 1.34166E-01-5.91529E-14 1.42104E-13
 -1      1818 1.96496E+01-1.09324E-02 2.86534E-04 1.28124E-01-3.06636E-14 1.05272E-13
 -1      1819 1.96782E+01-1.46516E-02-4.01906E-04 1.67187E-01-9.90399E-14 8.28471E-14
 -1      1820 1.96746E+01-1.13197E-02-6.92770E-04 1.21106E-01-1.80195E-14 5.95634E-14
 -1      1821 1.97160E+01-1.09066E-02 1.63837E-04 1.14734E-01 8.25148E-15 3.54986E-14
 -1      1822 1.97286E+01-1.66819E-02-1.41542E-04 1.54151E-01-5.53466E-14 3.36389E-14
 -1      1823 1.97404E+01-1.06349E-02-7.34649E-04 1.07528E-01 3.22431E-14 3.21633E-14
 -1      1824 1.97779E+01-9.67888E-03 1.14403E-04 1.01656E-01 1.96924E-14 7.16658E-14
 -1      1825 1.97790E+01-1.61607E-02 3.72624E-06 1.38805E-01-1.03527E-14 3.64112E-14
 -1      1826 1.98010E+01-8.99118E-03-6.97214E-04 9.52120E-02-3.87941E-15 7.72105E-14
 -1      1827 1.98349E+01-7.72726E-03 1.13611E-04 9.03535E-02-1.74088E-14 1.15435E-13
 -1      1828 1.98273E+01-1.40194E-02 6.89819E-05 1.23923E-01 1.45919E-14 7.69207E-14
 -1      1829 1.98567E+01-6.81141E-03-6.14731E-04 8.52372E-02-6.02358E-14 8.66352E-14
 -1      1830 1.98876E+01-5.42838E-03 1.39076E-04 8.16638E-02-8.88641E-14 1.08554E-13
 -1      1831 1.98729E+01-1.09396E-02 8.05780E-05 1.11249E-01-5.69221E-14 9.10037E-14
 -1      1832 1.99083E+01-4.44834E-03-5.11636E-04 7.81365E-02-2.88805E-14 1.10582E-13
 -1      1833 1.99370E+01-3.12460E-03 1.67386E-04 7.59089E-02 3.38363E-14 1.58943E-13
 -1      1834 1.99159E+01-7.47340E-03 5.88435E-05 1.01748E-01-5.00291E-14 7.80349E-14
 -1      1835 1.99571E+01-2.24862E-03-4.06260E-04 7.39496E-02-7.10904E-15 1.58404E-13
 -1      1836 1.99844E+01-1.18619E-03 1.71037E-04 7.29129E-02-3.35581E-14 1.54904E-13
 -1      1837 1.99571E+01-4.14329E-03 2.04957E-05 9.57186E-02 4.73340E-15 8.90827E-14
 -1      1838 2.00042E+01-6.14057E-04-3.13384E-04 7.21956E-02-6.51999E-14 9.12714E-14
 -1      1839 2.00308E+01-7.10676E-05 1.15761E-04 7.19381E-02-4.94429E-14 5.74767E-14
 -1      1840 1.99974E+01-1.53473E-03-1.93432E-05 9.27961E-02-8.45790E-14 1.11334E-13
 -1      1841 2.00508E+01-5.90053E-05-2.45983E-04 7.17647E-02-1.37766E-14 3.40026E-14
 -1      1842 2.00766E+01-3.77374E-04-4.10565E-05 7.15453E-02-8.72553E-15 1.76222E-14
 -1      1843 2.00375E+01-3.83107E-04-4.53706E-05 9.18597E-02-3.09516E-14 1.29845E-13
 -1      1844 2.00968E+01-1.25535E-03-2.16284E-04 7.07444E-02-4.49876E-14 7.38711E-14
 -1      1845 2.01213E+01-2.87432E-03-3.49501E-04 6.93992E-02-2.60859E-14 8.20045E-14
 -1      1846 2.00780E+01-1.64429E-03-4.04986E-05 9.08480E-02-1.32126E-14 1.11754E-13
 -1      1847 2.01413E+01-5.04473E-03-2.36119E-04 6.62106E-02-1.09767E-15 5.59698E-14
 -1      1848 2.01626E+01-8.48313E-03-8.61739E-04 6.20625E-02 3.60340E-14 6.11161E-14
 -1      1849 2.01184E+01-6.52202E-03 1.54926E-05 8.65211E-02-3.81939E-14 1.02702E-13
 -1      1850 2.01815E+01-1.23824E-02-3.16502E-04 5.40501E-02-1.55681E-15 5.68363E-14
 -1      1851 2.01963E+01-1.81628E-02-1.61939E-03 4.48715E-02-3.32481E-14 2.61001E-14
 -1      1852 2.01572E+01-1.64036E-02 1.46812E-04 7.42370E-02 1.38229E-14 7.97647E-14
 -1      1853 2.02119E+01-2.41596E-02-4.66460E-04 2.89418E-02-2.86626E-14 5.36385E-14
 -1      1854 2.02152E+01-3.26401E-02-2.63104E-03 1.20500E-02 4.56293E-14 1.11291E-13
 -1      1855 2.01913E+01-3.26305E-02 3.81425E-04 4.78717E-02 6.65136E-15 6.54980E-14
 -1      1856 2.02244E+01-4.08407E-02-6.91071E-04-1.53053E-02 5.69295E-14 1.14270E-13
 -1      1857 2.02090E+01-5.19237E-02-3.83933E-03-4.27043E-02 3.71290E-14 1.31140E-13
 -1      1858 2.02154E+01-5.60131E-02 7.48402E-04 9.66956E-05 7.48888E-14 1.83817E-13
 -1      1859 2.02071E+01-6.18681E-02-9.88488E-04-8.47844E-02 2.21190E-14 1.62682E-13
 -1      1860 2.01646E+01-7.45883E-02-5.08241E-03-1.24874E-01-3.58548E-14 1.73325E-13
 -1      1861 2.02214E+01-8.60172E-02 1.27024E-03-7.66835E-02 7.63375E-14 1.20219E-13
 -1      1862 2.01454E+01-8.48672E-02-1.34398E-03-1.83609E-01-6.18884E-14 2.11053E-13
 -1      1863 2.00667E+01-9.69465E-02-6.06538E-03-2.36781E-01-2.61651E-14 2.15568E-13
 -1      1864 2.01985E+01-1.19651E-01 1.94581E-03-1.88390E-01-5.93601E-16 9.84425E-14
 -1      1865 2.00231E+01-1.04873E-01-1.71838E-03-3.10995E-01-7.52670E-14 2.04347E-13
 -1      1866 1.99007E+01-1.12482E-01-6.37235E-03-3.74294E-01-3.64973E-14 1.41758E-13
 -1      1867 2.01335E+01-1.50326E-01 2.71889E-03-3.36088E-01-3.65272E-14 1.19741E-13
 -1      1868 1.98255E+01-1.14099E-01-2.02724E-03-4.57652E-01 2.86583E-14 2.29383E-13
 -1      1869 1.96563E+01-1.12230E-01-5.55708E-03-5.23291E-01 3.39464E-14 2.29585E-13
 -1      1870 2.00122E+01-1.67381E-01 3.43080E-03-5.11775E-01 1.79379E-14 2.04860E-13
 -1      1871 1.95449E+01-1.03046E-01-2.11050E-03-6.02718E-01-9.95081E-16 2.06003E-13
 -1      1872 1.93339E+01-8.69295E-02-3.33398E-03-6.57540E-01 2.52073E-14 1.65568E-13
 -1      1873 1.98233E+01-1.57342E-01 3.77809E-03-6.94223E-01 1.75207E-15 2.99092E-13
 -1      1874 1.91878E+01-6.36777E-02-1.71817E-03-7.13515E-01-1.39024E-14 1.53642E-13
 -1      1875 1.89504E+01-3.12941E-02 1.76594E-04-7.40593E-01-1.56075E-13 1.75703E-13
 -1      1876 1.95640E+01-1.07983E-01 3.33155E-03-8.47288E-01-2.28604E-14 2.23643E-13
 -1      1877 1.87808E+01 5.57322E-03-5.45474E-04-7.50825E-01-2.46498E-13 2.68897E-13
 -1      1878 1.85435E+01 5.07094E-02 4.27900E-03-7.33991E-01-1.55910E-13 2.15154E-13
 -1      1879 1.92470E+01-1.50773E-02 1.69496E-03-9.23978E-01-7.16092E-14 3.08502E-13
 -1      1880 1.83736E+01 9.49558E-02 1.58728E-03-6.80942E-01-9.98914E-14 2.55208E-13
 -1      1881 1.81705E+01 1.42628E-01 7.80467E-03-6.11610E-01-6.82397E-14 3.02221E-13
 -1      1882 1.89068E+01 1.10600E-01-1.18814E-03-8.78772E-01-1.26176E-13 3.30655E-13
 -1      1883 1.80324E+01 1.82593E-01 4.52098E-03-4.91821E-01-2.91724E-14 2.76310E-13
 -1      1884 1.78976E+01 2.18331E-01 9.60292E-03-3.75244E-01 3.20234E-14 2.30342E-13
 -1      1885 1.85982E+01 2.40875E-01-4.72281E-03-6.86790E-01-7.13897E-14 4.56367E-13
 -1      1886 1.78231E+01 2.40916E-01 7.51889E-03-2.05395E-01 6.88694E-14 2.36976E-13
 -1      1887 1.77815E+01 2.52147E-01 9.15223E-03-6.21841E-02 8.41046E-14 2.54678E-13
 -1      1888 1.83852E+01 3.37465E-01-7.61003E-03-3.61989E-01 9.27049E-14 2.69306E-13
 -1      1889 1.77893E+01 2.49159E-01 9.48291E-03 1.23411E-01 3.51576E-14 2.19729E-13
 -1      1890 1.78485E+01 2.31655E-01 6.86837E-03 2.63081E-01-5.53420E-14 2.53117E-13
 -1      1891 1.83182E+01 3.67664E-01-8.55077E-03 3.79636E-02 4.16082E-14 2.77789E-13
 -1      1892 1.79362E+01 2.04160E-01 9.43904E-03 4.24165E-01-1.99256E-13 2.84959E-13
 -1      1893 1.80842E+01 1.64368E-01 3.77980E-03 5.31366E-01-2.35054E-13 3.35513E-13
 -1      1894 1.84139E+01 3.20582E-01-7.07907E-03 4.27909E-01-1.25152E-13 4.71704E-13
 -1      1895 1.82290E+01 1.22179E-01 7.18122E-03 6.36756E-01-2.68808E-13 3.75148E-13
 -1      1896 1.84381E+01 7.36772E-02 9.57284E-04 6.94005E-01-1.69705E-13 2.50645E-13
 -1      1897 1.86467E+01 2.12877E-01-3.90759E-03 7.26320E-01-2.01522E-13 6.63325E-13
 -1      1898 1.86071E+01 3.00094E-02 3.41105E-03 7.31526E-01-3.26249E-14 2.18239E-13
 -1      1899 1.88420E+01-1.32822E-02-1.00233E-03 7.36882E-01-7.46661E-14 2.64470E-13
 -1      1900 1.89611E+01 7.98835E-02-4.29133E-04 8.84463E-01-1.63845E-13 6.54168E-13
 -1      1901 1.90045E+01-4.77163E-02-6.64907E-04 7.13698E-01-9.22467E-14 1.38166E-13
 -1      1902 1.92322E+01-7.68953E-02-2.00085E-03 6.77984E-01 2.03149E-14 1.38919E-13
 -1      1903 1.92933E+01-4.11768E-02 2.21931E-03 8.97747E-01-1.08662E-13 3.81998E-13
 -1      1904 1.93673E+01-9.70887E-02-3.94841E-03 6.13502E-01 5.15857E-14 3.05665E-14
 -1      1905 1.95634E+01-1.09910E-01-2.26106E-03 5.53687E-01-5.75399E-14 3.63029E-14
 -1      1906 1.95920E+01-1.25552E-01 3.57447E-03 7.97227E-01-4.05173E-14 1.89349E-13
 -1      1907 1.96621E+01-1.16341E-01-5.85788E-03 4.70344E-01-1.66127E-13-1.18297E-14
 -1      1908 1.98137E+01-1.15585E-01-2.07648E-03 4.03033E-01-4.84562E-14-1.96390E-14
 -1      1909 1.98275E+01-1.65829E-01 3.79922E-03 6.30557E-01-6.54648E-14 1.80302E-13
 -1      1910 1.98763E+01-1.11925E-01-6.37804E-03 3.19460E-01 2.84120E-14-9.86696E-14
 -1      1911 1.99806E+01-1.02513E-01-1.67530E-03 2.56990E-01 1.65538E-13-1.59199E-13
 -1      1912 1.99910E+01-1.68361E-01 3.32144E-03 4.43763E-01-2.18146E-14-2.34132E-14
 -1      1913 2.00128E+01-9.31704E-02-5.85177E-03 1.85164E-01 3.18004E-13-2.49867E-13
 -1      1914 2.00747E+01-7.98270E-02-1.18793E-03 1.34579E-01 2.32632E-13-9.42541E-14
 -1      1915 2.00881E+01-1.45914E-01 2.54612E-03 2.70689E-01 1.11577E-13-3.97479E-14
 -1      1916 2.00842E+01-6.84171E-02-4.73306E-03 8.01098E-02 1.44346E-13-3.28237E-14
 -1      1917 2.01125E+01-5.45133E-02-6.81643E-04 4.40238E-02 2.72514E-13 2.24211E-13
 -1      1918 2.01318E+01-1.11301E-01 1.73987E-03 1.30510E-01 3.41030E-13-7.57973E-14
 -1      1919 2.01068E+01-4.33245E-02-3.42224E-03 7.93390E-03 1.71663E-13 1.78718E-13
 -1      1920 2.01119E+01-3.06953E-02-1.89003E-04-1.39130E-02 1.85965E-13 1.99268E-13
 -1      1921 2.01372E+01-7.40013E-02 1.03405E-03 3.02607E-02 2.33209E-13 6.91785E-14
 -1      1922 2.00976E+01-2.08350E-02-2.19537E-03-3.31618E-02-3.25174E-15 1.81110E-13
 -1      1923 2.00893E+01-1.02852E-02 2.25157E-04-4.24701E-02-3.71164E-14 3.64153E-14
 -1      1924 2.01184E+01-3.94341E-02 4.81382E-04-3.08990E-02 1.12668E-13 7.15141E-14
 -1      1925 2.00715E+01-2.27346E-03-1.21115E-03-4.77182E-02-7.41390E-15-5.57134E-14
 -1      1926 2.00580E+01 5.99749E-03 5.04611E-04-4.69474E-02-2.98976E-14 1.57711E-13
 -1      1927 2.00873E+01-1.02819E-02 7.79331E-05-5.77777E-02-1.00490E-13 1.09980E-13
 -1      1928 2.00420E+01 1.07265E-02-5.51418E-04-4.14136E-02 1.29573E-13 7.95749E-14
 -1      1929 2.00296E+01 1.57396E-02 6.83571E-04-3.40888E-02 1.14706E-13 6.17054E-14
 -1      1930 2.00269E+01 2.27135E-02-1.05537E-05-4.06798E-02 2.76637E-15 1.00053E-13
 -1      1931 2.00548E+01 1.26338E-02 3.20021E-04-5.75731E-02-1.11891E-14 9.92677E-14
 -1      1932 1.96190E+01 1.42052E-01 7.88327E-03 2.59257E-01 6.86534E-14 7.61301E-14
 -1      1933 1.98910E+01 2.04107E-01 1.64352E-02 4.32263E-01 7.63053E-14 1.01892E-13
 -1      1934 2.01027E+01 3.50566E-01-1.53275E-03 6.54790E-01 8.96349E-14 6.73402E-14
 -1      1935 1.93768E+01 7.19707E-02 6.94960E-03 5.62145E-02 4.42159E-14 3.53285E-14
 -1      1936 1.94917E+01 1.01837E-01 1.41959E-02 1.44762E-01 4.69347E-14 6.60782E-14
 -1      1937 1.97101E+01 1.65236E-01-1.94903E-03 2.55982E-01 6.88789E-14 6.83039E-14
 -1      1938 1.92867E+01 3.62469E-02 4.43316E-03-4.94006E-02 2.51812E-14 1.06759E-14
 -1      1939 1.93167E+01 5.20474E-02 8.33949E-03-2.12615E-03 2.69799E-14 1.46515E-14
 -1      1940 1.95101E+01 8.07795E-02-2.83612E-03 4.38567E-02 5.53867E-14 5.93969E-15
 -1      1941 1.92855E+01 1.63543E-02 2.87051E-03-1.02128E-01 1.46664E-14-1.49043E-14
 -1      1942 1.92700E+01 2.51991E-02 4.36029E-03-7.74053E-02 2.08699E-14 2.65695E-14
 -1      1943 1.94315E+01 3.76326E-02-2.85592E-03-6.82983E-02 2.87517E-14-1.85845E-14
 -1      1944 1.93335E+01 4.80608E-03 2.00217E-03-1.24571E-01 2.03460E-14-2.85180E-14
 -1      1945 1.92947E+01 9.80554E-03 2.16147E-03-1.12988E-01 4.81895E-15-1.48954E-14
 -1      1946 1.94256E+01 1.39015E-02-2.32250E-03-1.24218E-01 1.56490E-14-3.23058E-14
 -1      1947 1.94061E+01-1.86571E-03 1.46702E-03-1.29320E-01 5.46879E-14-2.75720E-14
 -1      1948 1.93570E+01 8.36276E-04 9.70717E-04-1.25584E-01 4.43746E-14-2.36929E-14
 -1      1949 1.94611E+01 4.57910E-04-1.70754E-03-1.47324E-01 4.35913E-14-5.71054E-14
 -1      1950 1.94885E+01-5.47078E-03 1.09742E-03-1.23982E-01 5.30962E-15-9.79923E-14
 -1      1951 1.94366E+01-4.21048E-03 3.08070E-04-1.24851E-01 2.72830E-14-4.30105E-14
 -1      1952 1.95182E+01-6.95223E-03-1.19307E-03-1.51166E-01 4.39641E-14-4.60143E-14
 -1      1953 1.95716E+01-7.06483E-03 8.29924E-04-1.13428E-01 1.79350E-14-8.15151E-14
 -1      1954 1.95212E+01-6.72629E-03-6.02282E-05-1.16796E-01-7.04661E-15-1.03786E-13
 -1      1955 1.95843E+01-1.05799E-02-8.11069E-04-1.44139E-01 1.06845E-14-5.67159E-14
 -1      1956 1.96506E+01-7.30432E-03 6.40001E-04-1.00884E-01 6.63046E-14-5.62328E-14
 -1      1957 1.96039E+01-7.55833E-03-2.48353E-04-1.05334E-01 8.71422E-14-4.14646E-14
 -1      1958 1.96522E+01-1.17423E-02-5.44246E-04-1.31691E-01 7.03380E-14-4.91422E-14
 -1      1959 1.97234E+01-6.60197E-03 5.16288E-04-8.85464E-02 6.02371E-14-5.23673E-14
 -1      1960 1.96812E+01-7.23940E-03-3.17447E-04-9.30939E-02 4.98813E-14-4.99471E-14
 -1      1961 1.97177E+01-1.12498E-02-3.67870E-04-1.17475E-01 6.17928E-14-2.50460E-14
 -1      1962 1.97898E+01-5.19996E-03 4.54088E-04-7.79784E-02 9.39626E-14-1.04865E-13
 -1      1963 1.97520E+01-6.09611E-03-3.03364E-04-8.19073E-02 6.75915E-14-8.05662E-14
 -1      1964 1.97791E+01-9.59656E-03-2.61838E-04-1.04026E-01 8.37192E-14-9.33338E-15
 -1      1965 1.98512E+01-3.20291E-03 4.54844E-04-7.03972E-02-7.08802E-14-1.01856E-13
 -1      1966 1.98168E+01-4.29977E-03-2.26880E-04-7.31338E-02-3.16308E-14-1.13155E-13
 -1      1967 1.98364E+01-7.04803E-03-2.11956E-04-9.32057E-02 7.65124E-15 4.72509E-17
 -1      1968 1.99101E+01-5.85723E-04 5.27540E-04-6.69195E-02-2.05572E-14-5.61170E-14
 -1      1969 1.98775E+01-1.88572E-03-9.76481E-05-6.79241E-02-2.54676E-14-7.39722E-14
 -1      1970 1.98910E+01-3.67565E-03-2.09159E-04-8.65494E-02-3.23642E-14-8.87494E-14
 -1      1971 1.99700E+01 2.81996E-03 6.91511E-04-6.88050E-02 6.02236E-14-7.10666E-14
 -1      1972 1.99370E+01 1.25044E-03 8.44278E-05-6.74593E-02 2.33547E-15-7.16013E-14
 -1      1973 1.99453E+01 6.43097E-04-2.48683E-04-8.55746E-02 1.55874E-14-1.31467E-13
 -1      1974 2.00360E+01 7.36379E-03 9.81044E-04-7.77385E-02 1.41741E-13-1.19838E-13
 -1      1975 1.99997E+01 5.37982E-03 3.29333E-04-7.32102E-02 1.07030E-13-9.00271E-14
 -1      1976 2.00026E+01 6.25804E-03-3.29384E-04-9.21006E-02 1.25019E-13-7.98453E-14
 -1      1977 2.01146E+01 1.36474E-02 1.45236E-03-9.61951E-02 7.72331E-16-9.43311E-14
 -1      1978 2.00710E+01 1.09966E-02 6.58273E-04-8.72575E-02 1.20241E-13-7.03195E-14
 -1      1979 2.00677E+01 1.38198E-02-4.53091E-04-1.08633E-01 1.22350E-13-1.06518E-13
 -1      1980 2.02150E+01 2.26395E-02 2.19330E-03-1.27953E-01-1.31210E-13-1.94292E-13
 -1      1981 2.01585E+01 1.89142E-02 1.10587E-03-1.12724E-01-1.13327E-13-1.74391E-13
 -1      1982 2.01468E+01 2.44072E-02-6.23739E-04-1.38871E-01-2.17276E-14-9.90471E-14
 -1      1983 2.03497E+01 3.58496E-02 3.33431E-03-1.78828E-01-1.92297E-13-1.16607E-13
 -1      1984 2.02725E+01 3.04146E-02 1.72207E-03-1.54388E-01-1.19123E-13-1.70600E-13
 -1      1985 2.02482E+01 3.97276E-02-8.46278E-04-1.88415E-01-1.28501E-13-1.34892E-13
 -1      1986 2.05363E+01 5.55629E-02 5.05403E-03-2.57718E-01-1.48220E-13-1.20767E-13
 -1      1987 2.04271E+01 4.74611E-02 2.57000E-03-2.19549E-01-1.96977E-13-1.66135E-13
 -1      1988 2.03829E+01 6.24027E-02-1.12645E-03-2.65748E-01-1.50001E-13-1.33434E-13
 -1      1989 2.07992E+01 8.50936E-02 7.55796E-03-3.78004E-01 1.06502E-13-1.57505E-13
 -1      1990 2.06419E+01 7.29569E-02 3.70905E-03-3.19210E-01 2.23970E-14-1.47644E-13
 -1      1991 2.05656E+01 9.63198E-02-1.47631E-03-3.83556E-01-2.27726E-15-2.51476E-13
 -1      1992 2.11721E+01 1.28853E-01 1.09788E-02-5.59149E-01 2.45715E-14-2.46590E-13
 -1      1993 2.09436E+01 1.10934E-01 5.13874E-03-4.69502E-01 7.26641E-14-1.98528E-13
 -1      1994 2.08154E+01 1.46896E-01-1.93905E-03-5.60299E-01 1.13872E-13-2.33673E-13
 -1      1995 2.16996E+01 1.91582E-01 1.51087E-02-8.27711E-01 4.59615E-14-2.04903E-13
 -1      1996 2.13684E+01 1.66267E-01 6.66440E-03-6.92884E-01-4.60413E-14-2.71233E-13
 -1      1997 2.11563E+01 2.20716E-01-2.65756E-03-8.21499E-01 1.61737E-14-2.60701E-13
 -1      1998 2.24371E+01 2.74938E-01 1.88931E-02-1.21521E+00-2.69975E-14-5.10642E-14
 -1      1999 2.19627E+01 2.42713E-01 7.67750E-03-1.01749E+00 1.99354E-14-8.59329E-14
 -1      2000 2.16165E+01 3.22986E-01-3.99462E-03-1.19902E+00-2.35645E-14-9.34925E-14
 -1      2001 2.34439E+01 3.67083E-01 1.99359E-02-1.74607E+00 2.45619E-14 4.97189E-14
 -1      2002 2.27825E+01 3.36260E-01 7.06642E-03-1.47026E+00-3.88821E-14 8.20698E-15
 -1      2003 2.22269E+01 4.48838E-01-6.57562E-03-1.72378E+00-4.04433E-14 5.20959E-14
 -1      2004 2.47665E+01 4.16622E-01 1.50435E-02-2.40050E+00-9.43672E-14 2.08118E-13
 -1      2005 2.38881E+01 4.17353E-01 4.21299E-03-2.05360E+00 6.40165E-14 1.24000E-13
 -1      2006 2.30190E+01 5.60043E-01-1.07016E-02-2.40180E+00-1.10554E-14 1.58692E-13
 -1      2007 2.64125E+01 2.81137E-01 3.67168E-03-3.02582E+00-2.33780E-13 3.11549E-13
 -1      2008 2.53387E+01 3.91239E-01 2.44399E-03-2.68676E+00-1.51355E-13 2.43375E-13
 -1      2009 2.40337E+01 5.33899E-01-1.44908E-02-3.15544E+00-1.45670E-13 3.77410E-13
 -1      2010 2.83359E+01-3.17329E-01-5.87836E-03-3.16914E+00-3.00916E-13 3.45207E-13
 -1      2011 2.71962E+01 3.72051E-02 1.42685E-02-3.08679E+00-2.25531E-13 3.33053E-13
 -1      2012 2.53676E+01 8.12903E-02-1.35888E-02-3.70603E+00-2.06951E-13 3.98197E-13
 -1      2013 3.05136E+01-1.58205E+00 2.02200E-02-1.94102E+00-1.65479E-13 2.41664E-13
 -1      2014 2.95289E+01-9.54352E-01 5.28078E-02-2.62193E+00-2.04156E-13 3.01875E-13
 -1      2015 2.72732E+01-1.20750E+00-4.29459E-03-3.43769E+00-2.03740E-13 4.00057E-13
 -1      2016 3.28959E+01-2.86063E+00-5.96644E-03 1.27008E+00-1.51310E-13 1.94927E-13
 -1      2017 3.22308E+01-2.37479E+00 8.61282E-02-5.13572E-01-2.61124E-13 1.35850E-13
 -1      2018 3.01507E+01-3.00298E+00 2.95163E-02-1.40198E+00-2.09097E-13 1.21431E-13
 -1      2019 3.56244E+01 1.60991E+00-1.53112E-01 4.39635E+00-1.14242E-13 4.01679E-13
 -1      2020 3.63381E+01-6.09433E-01-1.11636E-01 4.71738E+00-2.27096E-13 3.20688E-13
 -1      2021 3.63020E+01 3.25220E+00-1.29707E-01-3.31810E+00 3.48943E-13 4.20955E-13
 -1      2022 3.59299E+01 4.28430E+00-1.66722E-01-1.44166E+00 2.83329E-13 3.93213E-13
 -1      2023 3.59067E+01-7.45891E-01-1.37594E-01-4.86869E+00 4.12198E-13-2.15383E-14
 -1      2024 3.51536E+01 1.52591E+00-1.77125E-01-4.52723E+00 3.95906E-13 1.17573E-13
 -1      2025 3.42492E+01-2.95563E+00 2.86220E-02-2.35365E+00-1.74305E-14-2.74225E-14
 -1      2026 3.38856E+01-2.12222E+00-1.01818E-01-3.80233E+00 2.05315E-13-1.52288E-13
 -1      2027 3.12326E+01-2.31621E+00 1.38270E-01 1.32542E+00-2.14190E-13 2.80560E-13
 -1      2028 3.17784E+01-2.93337E+00-2.84180E-03-1.71169E-01-1.73445E-13 2.10332E-13
 -1      2029 2.83878E+01-6.64717E-01 7.90174E-02 3.14844E+00-3.22728E-14 1.42188E-13
 -1      2030 2.94529E+01-1.43751E+00 1.11861E-02 2.46240E+00-9.27036E-14 1.95834E-13
 -1      2031 2.75395E+01-2.87404E+00-4.42913E-02 3.04536E+00-1.09079E-13 1.59036E-13
 -1      2032 2.61901E+01 2.14384E-01 9.61343E-03 3.30995E+00 2.81893E-15 2.04701E-13
 -1      2033 2.74061E+01-1.50150E-01 1.14632E-02 3.28736E+00 1.99875E-14 1.70704E-13
 -1      2034 2.51098E+01-6.91149E-01-1.41974E-02 4.09625E+00-5.48173E-15 1.39303E-13
 -1      2035 2.45392E+01 4.68539E-01-1.26079E-02 2.76017E+00 9.59927E-14 1.87003E-14
 -1      2036 2.56499E+01 3.84195E-01 1.64717E-02 3.00576E+00 5.34759E-14 4.67820E-14
 -1      2037 2.37401E+01 4.30234E-01-1.82612E-03 3.84233E+00 7.73591E-14 3.45036E-14
 -1      2038 2.32781E+01 4.46617E-01-1.13752E-02 2.07582E+00-7.64996E-14 1.52704E-13
 -1      2039 2.41762E+01 4.76567E-01 2.24119E-02 2.36123E+00-1.48544E-14 9.30037E-14
 -1      2040 2.28383E+01 7.25405E-01 1.54628E-03 3.10429E+00 3.34906E-14 3.30742E-14
 -1      2041 2.23176E+01 3.46280E-01-5.74211E-03 1.48406E+00 9.72174E-14 1.46845E-13
 -1      2042 2.29944E+01 4.04320E-01 2.41444E-02 1.72317E+00 4.83988E-16 1.08837E-13
 -1      2043 2.21460E+01 6.63734E-01 2.03469E-03 2.32266E+00 1.71495E-14-1.19112E-13
 -1      2044 2.15967E+01 2.46540E-01-1.69215E-03 1.03641E+00 2.12082E-13-6.24491E-14
 -1      2045 2.20865E+01 2.99813E-01 2.16179E-02 1.21341E+00 1.63525E-13 1.01945E-13
 -1      2046 2.15856E+01 5.07285E-01 1.27067E-03 1.66930E+00 1.56921E-13-1.09658E-13
 -1      2047 2.10641E+01 1.69810E-01 3.57560E-04 7.17326E-01 1.21728E-13 2.88194E-14
 -1      2048 2.14107E+01 2.09810E-01 1.72047E-02 8.41648E-01 2.47549E-13 1.01789E-13
 -1      2049 2.11352E+01 3.59076E-01 1.90524E-04 1.17635E+00 1.81758E-13-3.60454E-14
 -1      2050 2.06765E+01 1.17869E-01 1.19072E-03 4.93904E-01-2.54855E-13 2.20465E-13
 -1      2051 2.09185E+01 1.44533E-01 1.27251E-02 5.80516E-01-4.91313E-14 7.74885E-14
 -1      2052 2.07821E+01 2.47179E-01-7.46391E-04 8.21500E-01 6.92901E-14 3.68832E-13
 -1      2053 2.04000E+01 8.84876E-02 1.97576E-03 3.33905E-01-4.75977E-13 2.11808E-13
 -1      2054 2.05652E+01 1.02695E-01 8.94183E-03 3.96798E-01-4.07964E-13 8.60664E-14
 -1      2055 2.05123E+01 1.73114E-01-1.16592E-03 5.68709E-01-2.72277E-13 3.86152E-13
 -1      2056 2.02074E+01 7.24273E-02 1.25652E-03 2.07613E-01-3.78914E-13 2.19455E-13
 -1      2057 2.03136E+01 8.04231E-02 5.29865E-03 2.58436E-01-3.37951E-13 1.17057E-13
 -1      2058 2.03089E+01 1.34939E-01-4.33442E-04 3.83794E-01-3.88189E-13-1.53475E-13
 -1      2059 2.00891E+01 6.95564E-02 2.69566E-03 1.09217E-01-1.99860E-13 3.60376E-13
 -1      2060 2.01553E+01 7.13990E-02 3.97475E-03 1.55940E-01-4.31303E-13 4.62359E-13
 -1      2061 2.01690E+01 1.07094E-01-3.65520E-03 2.40250E-01-5.51045E-13-7.44066E-15
 -1      2062 2.00784E+01 9.85262E-02 8.06574E-04 1.34390E-01-1.75815E-13 1.20163E-13
 -1      2063 1.99617E+01 4.68117E-01-2.68002E-03 2.05887E-01 1.12769E-14-3.05151E-13
 -1      2064 1.99829E+01 4.03535E-01 6.79065E-04 2.21913E-01 1.03142E-14-3.63677E-13
 -1      2065 2.00037E+01 3.35861E-01-2.53287E-03 2.29076E-01-1.09764E-13-4.09139E-13
 -1      2066 2.00326E+01 2.68037E-01 2.93315E-03 2.21876E-01-1.29366E-13-5.05746E-13
 -1      2067 1.99926E+01 3.80069E-01 1.63535E-03 2.85374E-01-1.75193E-13-3.80270E-13
 -1      2068 2.00645E+01 1.58582E-01-1.55436E-03 1.72523E-01-3.41382E-13-3.33192E-13
 -1      2069 1.99358E+01 5.61893E-01-2.59162E-03 1.38292E-01 8.53858E-15-3.04475E-13
 -1      2070 1.99468E+01 5.15245E-01-1.33181E-03 1.71070E-01 1.20191E-13-3.51906E-13
 -1      2071 1.99351E+01 4.93857E-01 2.85272E-03 2.35505E-01 9.78603E-14-2.95437E-13
 -1      2072 1.99286E+01 6.04839E-01-2.13380E-03 4.75517E-02-1.05273E-13 3.12175E-13
 -1      2073 1.99297E+01 5.83277E-01-2.73002E-03 8.78541E-02-1.17698E-13 2.27150E-13
 -1      2074 1.99027E+01 5.61973E-01 3.22143E-03 1.37969E-01 2.34498E-13-1.62566E-13
 -1      2075 1.99387E+01 5.92277E-01-1.34890E-03-4.12022E-02-2.04077E-13-1.09323E-13
 -1      2076 1.99315E+01 5.98293E-01-3.36310E-03-4.18982E-03-1.93125E-13 2.11984E-13
 -1      2077 1.98980E+01 5.76652E-01 2.88262E-03 2.20918E-02-1.11308E-13 9.14863E-14
 -1      2078 1.99590E+01 5.33632E-01-5.43860E-04-1.09727E-01-2.66242E-13-9.90084E-14
 -1      2079 1.99474E+01 5.62976E-01-3.14151E-03-8.29873E-02-1.92585E-13-9.88546E-14
 -1      2080 1.99161E+01 5.40923E-01 2.04083E-03-8.32190E-02-2.52376E-13-2.29775E-14
 -1      2081 1.99822E+01 4.45287E-01 1.07826E-04-1.49131E-01-2.34318E-13-3.74977E-13
 -1      2082 1.99701E+01 4.90083E-01-2.31069E-03-1.35454E-01-1.88058E-13-1.66284E-14
 -1      2083 1.99470E+01 4.68214E-01 9.81742E-04-1.58652E-01-4.95243E-13-8.93704E-14
 -1      2084 2.00023E+01 3.45258E-01 5.13679E-04-1.59452E-01-1.68336E-13-1.53279E-13
 -1      2085 1.99925E+01 3.96624E-01-1.19674E-03-1.57953E-01-1.57686E-13-9.50420E-14
 -1      2086 1.99803E+01 3.76063E-01 9.05057E-06-1.96669E-01-2.67191E-13-2.01265E-13
 -1      2087 2.00157E+01 2.50427E-01 6.98052E-04-1.47417E-01 3.90671E-14-5.67602E-14
 -1      2088 2.00097E+01 2.99876E-01-1.06170E-04-1.54599E-01 1.17302E-14-4.98805E-14
 -1      2089 2.00077E+01 2.81902E-01-6.76453E-04-2.00175E-01 7.18293E-14-4.39321E-15
 -1      2090 2.00223E+01 1.67599E-01 7.20071E-04-1.21684E-01 1.22778E-13 4.97205E-13
 -1      2091 2.00198E+01 2.11489E-01 6.99439E-04-1.33829E-01 1.97049E-13 3.50948E-13
 -1      2092 2.00253E+01 1.97300E-01-1.05680E-03-1.78721E-01 3.24833E-13 1.62583E-13
 -1      2093 2.00233E+01 1.03168E-01 6.45385E-04-9.07932E-02 1.22777E-13 8.87446E-14
 -1      2094 2.00235E+01 1.37893E-01 1.16906E-03-1.04410E-01 2.09041E-13 3.07883E-13
 -1      2095 2.00334E+01 1.28476E-01-1.07636E-03-1.43487E-01 2.65648E-13 4.14511E-13
 -1      2096 2.00213E+01 5.66276E-02 3.37290E-04-6.06850E-02-3.96924E-14-1.90507E-13
 -1      2097 2.00223E+01 8.20722E-02 1.09678E-03-7.38111E-02 8.30899E-14-7.45118E-14
 -1      2098 2.00341E+01 7.77836E-02-8.49099E-04-1.04700E-01 2.01791E-13-5.19387E-15
 -1      2099 9.44240E+00-6.87534E+00-3.36198E-01 5.10218E+00 3.79252E-13-6.85230E-13
 -1      2100 5.50080E+00-8.07509E+00-5.17404E-01 3.79712E+00 4.16112E-13-5.37709E-13
 -1      2101-2.52703E-01-7.85821E+00-3.87438E-01-1.03540E+00 3.49141E-13 4.40370E-13
 -1      2102 1.11484E-01-7.74244E+00-3.85414E-01-2.48948E+00 2.16355E-13 3.79197E-13
 -1      2103 2.03158E+00-7.84027E+00-4.08149E-01 2.42351E+00 3.46501E-13-1.21902E-13
 -1      2104 3.00848E-01-8.36421E+00-4.84272E-01 8.77615E-01 3.59379E-13 2.12885E-13
 -1      2105 2.06876E+01-5.58698E+00-1.40131E-01 5.74245E+00-5.61773E-14 5.87919E-13
 -1      2106 1.46825E+01-7.26910E+00-5.24433E-01 4.94390E+00 1.95621E-13-7.47458E-14
 -1      2107 3.18837E+01-3.21858E+00 4.28929E-02 4.05520E+00 7.02771E-14 5.97966E-13
 -1      2108 2.50109E+01-5.10407E+00-4.69652E-01 4.08505E+00-8.71525E-14 7.27196E-13
 -1      2109 1.95189E+01 4.01572E+00-2.70284E-02-1.70255E+00-1.04390E-13-2.97713E-14
 -1      2110 1.96469E+01 3.94600E+00-2.46180E-02-1.95409E+00-1.18698E-13 6.25541E-15
 -1      2111 1.99721E+01 3.24697E+00-1.37547E-02-1.91833E+00-1.22336E-13 2.56115E-14
 -1      2112 1.96979E+01 3.58561E+00-7.07271E-03-1.52039E+00-1.02305E-13-3.50033E-14
 -1      2113 4.50885E+01 3.12829E+00 5.22351E-01-1.33425E+00 5.39180E-13-2.78000E-13
 -1      2114 4.14524E+01 9.11921E-01 6.16979E-02-1.32106E+00 6.50147E-13-3.36953E-13
 -1      2115 4.76434E+01 6.37404E+00 7.72915E-01-7.39655E-01 2.71227E-13-2.19103E-13
 -1      2116 4.71468E+01 5.67640E+00 7.53848E-01-8.95077E-01 4.36540E-13-2.08389E-13
 -1      2117 4.43083E+01 4.70271E+00 4.05948E-01 1.31066E+00 1.55431E-15 2.74225E-14
 -1      2118 4.74472E+01 6.10398E+00 8.44809E-01 8.64984E-01 5.62883E-14-7.30804E-14
 -1      2119 4.00619E+01 5.21501E-01 1.95875E-01 8.69874E-02-9.92748E-14-6.30607E-14
 -1      2120 4.38204E+01 2.16466E+00 3.66368E-01 1.34178E+00-2.02616E-14 6.22835E-14
 -1      2121 2.98668E+01-3.80868E+00-3.33968E-01-3.19136E+00-1.43663E-13-2.98317E-13
 -1      2122 3.68950E+01-1.84745E+00 2.13010E-01-2.91765E+00-2.11831E-13-3.56271E-13
 -1      2123 1.89509E+01-6.58416E+00-5.10305E-01-4.85431E+00 2.25153E-13 1.24012E-13
 -1      2124 2.52549E+01-4.62018E+00-1.14326E-01-5.31372E+00 8.44880E-14-1.43385E-13
 -1      2125 9.65234E+00-7.20743E+00-3.05544E-01-5.03776E+00 2.29872E-13 1.04999E-13
 -1      2126 1.43241E+01-6.44229E+00-1.99808E-01-5.80852E+00 3.20410E-13 1.68116E-13
 -1      2127 1.58797E+00-7.94864E+00-4.96688E-01-1.87477E+00 2.45137E-13 2.65898E-14
 -1      2128 4.57922E+00-6.40828E+00-2.44958E-01-3.84546E+00 1.52545E-13 5.78426E-14
 -1      2129 3.38327E-02-6.91587E+00-2.76206E-01 1.29878E+00 1.72584E-13-1.36724E-13
 -1      2130 3.03720E-01-7.58409E+00-3.70793E-01-3.52400E-01 2.06446E-13 9.12048E-14
 -1      2131 2.73486E+00-4.26712E+00-1.06292E-01-1.92826E+00 2.37310E-14 9.18710E-14
 -1      2132 2.50288E+00-7.10189E+00-3.32484E-01 4.79157E+00-9.06497E-14-5.39679E-13
 -1      2133 6.89893E-01-7.71276E+00-3.77810E-01 3.45262E+00 6.67799E-14-5.11424E-13
 -1      2134 9.44430E+00-5.10837E+00-1.05324E-01 7.33653E+00-2.11386E-13-7.68861E-13
 -1      2135 5.92595E+00-6.94644E+00-3.56289E-01 6.04068E+00-1.20515E-13-4.91163E-13
 -1      2136 1.78753E+01-2.78642E+00 2.36563E-02 8.11516E+00-3.34954E-13-6.26943E-13
 -1      2137 1.31716E+01-5.03038E+00-3.16276E-01 7.16588E+00-1.88738E-13-8.15514E-13
 -1      2138 2.71704E+01 7.97234E-02 1.85737E-01 7.57266E+00-3.56715E-13-8.75744E-13
 -1      2139 2.19601E+01-2.02736E+00-1.84812E-01 7.14884E+00-3.65985E-13-6.85785E-13
 -1      2140 3.53327E+01 3.22908E+00 3.24002E-01 5.95659E+00-4.66377E-13-1.01730E-12
 -1      2141 3.04255E+01 1.60697E+00-9.28699E-03 6.22247E+00-3.89494E-13-9.68448E-13
 -1      2142 4.08941E+01 5.92417E+00 3.33732E-01 3.24918E+00-3.37730E-13-1.12649E-12
 -1      2143 3.75721E+01 4.88589E+00 1.95962E-01 4.51004E+00-4.06494E-13-1.06026E-12
 -1      2144 4.31315E+01 7.72452E+00 3.28965E-01 5.98002E-01-5.03209E-13-7.17565E-13
 -1      2145 4.14076E+01 7.41693E+00 2.46438E-01 1.90717E+00-4.97102E-13-9.37306E-13
 -1      2146 4.04074E+01 8.11223E+00 1.24510E-01-1.02748E+00-4.71345E-13-5.44814E-13
 -1      2147 4.31244E+01 8.13455E+00 4.33736E-01-3.08369E-02-5.22027E-13-6.40022E-13
 -1      2148 3.77838E+01 9.16712E+00 2.64424E-01 1.13701E-02-6.73794E-13-5.13159E-13
 -1      2149 3.81327E+01 5.32087E+00 1.62793E-01-3.07736E+00 6.93612E-14-3.09308E-13
 -1      2150 3.91990E+01 6.42869E+00 6.88441E-02-1.30858E+00-4.58522E-14-2.88158E-13
 -1      2151 3.25703E+01 1.86929E+00-7.06462E-02-4.45191E+00 1.67505E-13-1.57208E-13
 -1      2152 3.68665E+01 3.69298E+00 2.41619E-01-4.17552E+00 1.48673E-13-2.51188E-13
 -1      2153 3.49530E+01 3.89199E+00 2.08569E-01-6.82953E-01 1.00836E-13-3.67040E-13
 -1      2154 2.59358E+01-1.69947E+00-2.12243E-02-6.24815E+00 4.49640E-14-1.18905E-13
 -1      2155 3.06631E+01 5.77901E-01 2.43679E-01-6.15694E+00 1.54099E-13-1.84297E-14
 -1      2156 3.19972E+01-1.49853E-01 1.25177E-01-2.89690E+00 8.80199E-14-2.79443E-13
 -1      2157 1.49811E+01-4.94911E+00-2.93375E-01-7.28426E+00-6.66134E-15-2.00534E-13
 -1      2158 2.04089E+01-3.53618E+00-1.03192E-01-7.77443E+00-1.02141E-14-2.49661E-13
 -1      2159 7.45857E+00-6.67953E+00-3.64716E-01-6.42193E+00 3.66152E-13 5.48533E-13
 -1      2160 1.13212E+01-4.81227E+00-9.53083E-02-7.62415E+00 1.02363E-13 5.70863E-14
 -1      2161 1.59607E+01-5.25345E+00 5.13627E-02-8.15958E+00 2.24043E-13-7.54492E-14
 -1      2162 1.52747E+00-8.04967E+00-4.41384E-01-4.02676E+00 3.08864E-13 3.12028E-13
 -1      2163 3.60527E+00-6.67914E+00-2.75916E-01-5.35814E+00 2.93821E-13 5.62994E-13
 -1      2164 4.06122E+01-2.72416E-01 2.70447E-01 8.69832E-01 5.16476E-13-2.57128E-13
 -1      2165 3.50525E+01-2.25791E+00-1.61186E-01 1.89019E+00 2.66620E-13 2.51577E-13
 -1      2166 3.45384E+01-4.13860E+00 1.69099E-01 6.76256E-01 7.28306E-14 2.04892E-13
 -1      2167 3.83945E+01-5.74113E-01 3.40204E-01-2.56771E+00 4.80949E-13-2.99982E-13
 -1      2168 3.64135E+01-1.92585E+00-2.77971E-02-3.64755E+00 3.86635E-13-3.15636E-13
 -1      2169 2.07354E+01 1.10845E+00-2.07478E-02-1.61579E+00-9.47575E-14 2.40596E-13
 -1      2170 3.19675E+01-4.26385E+00-3.30028E-04-3.82454E-01-2.32342E-13-4.08840E-14
 -1      2171 2.06262E+01 1.33017E+00-1.86229E-02-1.67765E+00-1.06935E-13 1.68508E-13
 -1      2172 3.40684E+01-2.44797E+00-1.12875E-01 3.58905E+00-3.02647E-13 2.50827E-13
 -1      2173 3.40343E+01-3.25935E+00-1.10865E-02 2.04946E+00-1.67610E-13 1.52572E-13
 -1      2174 4.15456E+01 6.04770E+00 4.76229E-01 3.31744E-01 1.54099E-13 2.67265E-13
 -1      2175 3.54437E+01 4.26925E+00-1.94307E-01 1.24137E+00 9.23706E-14 4.60576E-13
 -1      2176 3.58390E+01 2.97823E+00-2.34661E-01 3.49165E+00-4.57967E-14 4.79464E-13
 -1      2177 2.00796E+01 2.08404E-01 1.32792E-03 2.49346E-01-3.99337E-13-3.00570E-13
 -1      2178 1.21671E+00-5.24767E+00-2.17885E-01 2.75136E-01-6.37615E-14 2.24709E-13
 -1      2179 5.86503E+00-6.02172E+00-2.11905E-01 4.35920E+00 1.30396E-13-4.49474E-13
 -1      2180 2.00237E+01 4.37849E-02 4.49798E-04-5.59340E-02 7.95224E-15-6.92683E-14
 -1      2181 1.56613E+01-6.67758E+00-1.01762E-01 5.94288E+00 6.77236E-14-2.74086E-13
 -1      2182 2.06567E+00-5.13943E+00-1.93614E-01-3.95604E+00 6.39488E-14 3.13471E-13
 -1      2183 2.60781E+01-6.55830E+00-5.84366E-02 3.97111E+00-1.04194E-13 6.30052E-13
 -1      2184 7.68661E+00-5.41352E+00-1.16271E-01-7.22339E+00 3.22076E-13 4.97435E-13
 -1      2185 2.33277E+01-4.77610E+00 1.92232E-01-6.70441E+00 7.06657E-14-2.49856E-13
 -1      2186 2.44836E+01-3.48570E+00 4.47723E-02-6.48118E+00-5.66214E-15-2.95430E-13
 -1      2187 2.73714E+01-3.99012E+00-2.21477E-01-4.68773E+00 1.07345E-13-4.04260E-13
 -1      2188 3.75806E+01 7.38430E+00 1.04190E-01-3.20963E-01-3.47666E-13-4.36678E-13
 -1      2189 3.42281E+01 8.02309E+00-1.41659E-01 7.15979E-01-5.36127E-13-5.99465E-13
 -1      2190 3.38300E+01 6.47205E+00-2.32068E-02 6.99162E-01-1.30285E-13-5.28688E-13
 -1      2191 3.80121E+01 7.14446E+00 3.17621E-01 7.29497E-01-4.03122E-13-7.98805E-13
 -1      2192 3.54649E+01 3.25987E+00 2.97548E-01 2.61336E+00-2.61402E-13-8.18678E-13
 -1      2193 3.00004E+01-9.60683E-01 1.65344E-01 4.95491E+00-1.81855E-13-8.31557E-13
 -1      2194 2.23673E+01-4.07759E+00 3.40459E-02 7.21843E+00-2.51299E-13-6.34159E-13
 -1      2195 1.37782E+01-5.44546E+00-9.50251E-02 8.09789E+00-1.63425E-13-8.01928E-13
 -1      2196 1.59737E+00-4.76054E+00-1.60886E-01 2.63228E+00-9.45077E-14-4.13558E-13
 -1      2197 8.64078E+00-5.77844E+00-1.22306E-01-4.99945E+00 1.17240E-13 8.49876E-14
 -1      2198 1.29760E+01-4.94305E+00-5.48253E-02-6.02854E+00 2.47580E-14 1.34448E-13
 -1      2199 8.18634E+00-3.64048E+00 1.17148E-01-5.04633E+00-1.64591E-14 4.09117E-14
 -1      2200 1.97065E+01-6.83496E+00-1.88362E-01-5.44557E+00 2.64233E-13 1.67061E-13
 -1      2201 3.01020E+01-5.44261E+00-1.71770E-02-2.62759E+00-7.77156E-15-2.52576E-13
 -1      2202 3.80047E+01-1.62997E+00 2.29478E-01 1.62776E+00-1.88141E-13-7.32747E-14
 -1      2203 4.07080E+01 3.23432E+00 3.79957E-01 3.72658E+00-1.40665E-13 2.78000E-13
 -1      2204 4.05175E+01 3.48940E+00 3.98377E-01-3.46808E+00 5.41789E-13-5.77871E-14
 -1      2205 6.10390E+00-5.26362E+00-1.14524E-01 6.76511E+00-1.95177E-13-6.62609E-13
 -1      2206 2.01476E+01 5.06495E-01 3.73618E-03 6.77790E-01 8.41133E-14 3.65910E-14
 -1      2207 2.04154E+01 7.00023E-01 2.07926E-02 9.69426E-01 8.40751E-14 4.04264E-14
 -1      2208 1.95606E+01 3.51671E+00-1.10813E-02-5.91398E-01-5.07791E-14-5.98193E-14
 -1      2209 1.95961E+01 3.47079E+00-1.04300E-02-7.75743E-01-7.35402E-14-6.16642E-14
 -1      2210 1.96427E+01 3.38261E+00-1.26689E-02-9.40047E-01-8.34502E-14-5.74454E-14
 -1      2211 1.97041E+01 3.30195E+00-1.24783E-02-1.12944E+00-9.54527E-14-3.98214E-14
 -1      2212 1.97874E+01 3.03410E+00 3.53184E-04-7.92026E-01-6.11610E-14-5.14467E-14
 -1      2213 1.95133E+01 3.59924E+00-9.61829E-03 9.93999E-02-1.38553E-14-1.08902E-13
 -1      2214 1.95126E+01 3.60007E+00-9.62623E-03-8.00765E-02-2.03084E-14-9.94092E-14
 -1      2215 1.95394E+01 3.55976E+00-9.72559E-03 4.45472E-01 9.24499E-16-1.11190E-13
 -1      2216 1.95220E+01 3.58235E+00-1.01427E-02 2.64627E-01-1.22720E-14-1.09970E-13
 -1      2217 1.96795E+01 3.22209E+00-8.92657E-04 1.69513E-01-1.28426E-14-1.03403E-13
 -1      2218 1.96012E+01 3.46315E+00-1.06155E-02 7.89431E-01 1.85857E-14-1.12258E-13
 -1      2219 1.95649E+01 3.51020E+00-1.12185E-02 6.08002E-01 7.99488E-15-1.14072E-13
 -1      2220 1.97162E+01 3.15848E+00-5.07679E-04 4.87971E-01-7.11860E-16-1.09196E-13
 -1      2221 1.97120E+01 3.28924E+00-1.29550E-02 1.14281E+00 6.16371E-14-9.08648E-14
 -1      2222 1.96493E+01 3.37263E+00-1.28932E-02 9.53512E-01 3.52152E-14-1.02689E-13
 -1      2223 1.97932E+01 3.02466E+00 2.39622E-04 8.03597E-01 2.84194E-14-8.87064E-14
 -1      2224 1.98910E+01 3.00354E+00-1.81722E-02 1.49000E+00 8.52365E-14-8.99680E-14
 -1      2225 1.97916E+01 3.14487E+00-1.51838E-02 1.29953E+00 6.70563E-14-9.58244E-14
 -1      2226 1.99225E+01 2.79934E+00 1.93358E-03 1.10993E+00 5.71920E-14-8.32381E-14
 -1      2227 2.01691E+01 2.54397E+00-2.83919E-02 1.79439E+00 1.02506E-13-7.30561E-14
 -1      2228 2.00181E+01 2.78336E+00-1.70881E-02 1.61992E+00 8.78004E-14-8.79470E-14
 -1      2229 2.01171E+01 2.44866E+00 5.86611E-03 1.37585E+00 7.57842E-14-8.01781E-14
 -1      2230 9.02114E+00-3.74214E+00 5.64431E-02 7.44829E+00-2.47607E-13-5.60801E-13
 -1      2231 5.75652E+00-3.55908E+00 8.43207E-02 5.93286E+00-2.90934E-13-6.04905E-13
 -1      2232 1.98707E+01 2.68339E-01 4.73958E-03 2.85184E-01 6.69677E-14 1.76846E-14
 -1      2233 2.00313E+01 3.68036E-01 2.01607E-02 4.42368E-01 8.17462E-14 3.86904E-14
 -1      2234 2.02105E+01 6.34716E-01-2.23299E-03 7.04572E-01 7.94044E-14 2.27769E-15
 -1      2235 2.04017E+01 8.54686E-01 1.30457E-02-9.99905E-01-1.02657E-13 1.08756E-13
 -1      2236 2.01896E+01 6.26543E-01-4.80335E-03-6.91235E-01-1.02284E-13 9.09919E-14
 -1      2237 3.69307E+01-2.10795E+00-2.11739E-03 2.92015E+00-2.93890E-13 3.88578E-14
 -1      2238 2.01246E+01 4.69755E-01 1.62335E-02-4.74924E-01-7.33393E-14 1.00277E-13
 -1      2239 1.99833E+01 3.44862E-01 3.52907E-05-3.03189E-01-3.38661E-14 1.00884E-13
 -1      2240 2.02438E+01 7.46522E-01-1.88765E-03-6.93602E-01-9.15925E-14 5.66456E-14
 -1      2241 1.99202E+01 2.59904E-01 1.08896E-02-1.65479E-01-3.71237E-14 1.02657E-13
 -1      2242 1.98416E+01 1.88477E-01 7.25589E-04-6.81163E-02-4.25369E-14 9.19282E-14
 -1      2243 2.00804E+01 4.16920E-01-3.65075E-03-3.09741E-01-4.58266E-14 3.77741E-14
 -1      2244 1.97973E+01 1.39088E-01 6.39712E-03 1.41525E-02-3.74171E-14 8.61220E-14
 -1      2245 1.97625E+01 9.68937E-02 7.43608E-04 6.76873E-02-4.50229E-14 8.64880E-14
 -1      2246 1.99600E+01 2.27917E-01-3.62407E-03-7.04373E-02-5.67816E-14 4.69042E-14
 -1      2247 1.97369E+01 6.71466E-02 3.58117E-03 1.13722E-01-4.36404E-14 7.75857E-14
 -1      2248 1.97299E+01 4.18166E-02 6.52128E-04 1.40637E-01-7.18870E-14 8.22985E-14
 -1      2249 1.98846E+01 1.15861E-01-2.93667E-03 7.08401E-02-6.34445E-14 2.13044E-14
 -1      2250 1.97185E+01 2.37753E-02 1.85799E-03 1.63374E-01-8.21539E-14 1.07793E-13
 -1      2251 1.97283E+01 8.80372E-03 5.44187E-04 1.74027E-01-2.76871E-14 1.30977E-13
 -1      2252 1.98455E+01 4.82394E-02-2.13786E-03 1.47922E-01-4.93780E-14 8.00997E-14
 -1      2253 1.97268E+01-1.82474E-03 7.96782E-04 1.82134E-01-3.30897E-14 1.19918E-13
 -1      2254 1.97458E+01-1.01426E-02 4.45586E-04 1.83079E-01-8.94166E-14 9.53868E-14
 -1      2255 1.98321E+01 7.85584E-03-1.45736E-03 1.83816E-01-5.55728E-14 5.49598E-14
 -1      2256 1.97505E+01-1.58967E-02 1.47642E-04 1.82421E-01-1.14244E-13 9.75885E-14
 -1      2257 1.97740E+01-1.98330E-02 3.69967E-04 1.77952E-01-1.15247E-13 8.07212E-14
 -1      2258 1.98358E+01-1.50487E-02-9.45070E-04 1.94111E-01-1.06230E-13 6.24906E-14
 -1      2259 1.97824E+01-2.23277E-02-2.34436E-04 1.72527E-01-1.00700E-13 8.84382E-14
 -1      2260 1.98073E+01-2.33602E-02 3.22046E-04 1.65506E-01-6.31052E-14 7.61658E-14
 -1      2261 1.98498E+01-2.64303E-02-5.84138E-04 1.89439E-01-1.19265E-13 1.06347E-13
 -1      2262 1.98177E+01-2.36789E-02-4.39966E-04 1.58037E-01-1.47154E-14 6.97080E-14
 -1      2263 1.98425E+01-2.28123E-02 3.00121E-04 1.50375E-01 1.87047E-14 5.76945E-14
 -1      2264 1.98696E+01-3.01511E-02-3.43050E-04 1.77069E-01-4.77653E-14 9.76929E-14
 -1      2265 1.98538E+01-2.17144E-02-5.28617E-04 1.42692E-01 2.26247E-14 6.79404E-14
 -1      2266 1.98776E+01-1.96624E-02 2.98520E-04 1.35634E-01 2.93202E-14 1.07879E-13
 -1      2267 1.98924E+01-2.88356E-02-1.92133E-04 1.61944E-01 2.52607E-14 3.93906E-14
 -1      2268 1.98892E+01-1.77083E-02-5.40532E-04 1.28923E-01-3.52391E-15 7.86761E-14
 -1      2269 1.99118E+01-1.50129E-02 3.08576E-04 1.23227E-01-5.25842E-14 9.45783E-14
 -1      2270 1.99164E+01-2.43528E-02-1.07301E-04 1.47349E-01 7.60264E-15 2.56692E-14
 -1      2271 1.99235E+01-1.26542E-02-5.02278E-04 1.18182E-01-8.09456E-14 1.18919E-13
 -1      2272 1.99451E+01-9.77807E-03 3.18148E-04 1.14220E-01-4.13393E-14 1.03503E-13
 -1      2273 1.99409E+01-1.81274E-02-7.01452E-05 1.35345E-01-3.71340E-14 4.18933E-14
 -1      2274 1.99571E+01-7.43302E-03-4.30324E-04 1.11125E-01-2.32061E-14 1.27260E-13
 -1      2275 1.99779E+01-4.84109E-03 3.10338E-04 1.08913E-01-3.72990E-14 1.30802E-13
 -1      2276 1.99657E+01-1.13765E-02-6.69307E-05 1.27028E-01-3.16651E-14 2.06655E-13
 -1      2277 1.99905E+01-2.96428E-03-3.33334E-04 1.07659E-01-5.69145E-14 1.03547E-13
 -1      2278 2.00109E+01-1.20031E-03 2.61861E-04 1.06842E-01-6.86480E-14 1.49096E-13
 -1      2279 1.99911E+01-5.31643E-03-8.76275E-05 1.22632E-01-8.65333E-14 2.50690E-13
 -1      2280 2.00244E+01-3.48177E-04-2.13828E-04 1.06881E-01-4.03811E-14 1.32798E-13
 -1      2281 2.00447E+01-1.04237E-04 1.41695E-04 1.06660E-01 3.03011E-14 1.79880E-13
 -1      2282 2.00178E+01-1.35302E-03-1.25028E-04 1.21516E-01-3.70734E-14 2.35357E-13
 -1      2283 2.00598E+01-9.89285E-04-6.98215E-05 1.06910E-01-3.15190E-14 1.42778E-13
 -1      2284 2.00797E+01-3.15480E-03-8.90494E-05 1.05933E-01-7.49908E-14 1.30884E-13
 -1      2285 2.00466E+01-1.25023E-03-1.73584E-04 1.22015E-01-5.86848E-14 9.83706E-14
 -1      2286 2.00969E+01-6.67047E-03 1.02812E-04 1.04635E-01-6.95276E-14 9.42258E-14
 -1      2287 2.01160E+01-1.23332E-02-4.74637E-04 1.00869E-01-4.91941E-14 9.81965E-14
 -1      2288 2.00786E+01-7.24217E-03-2.27730E-04 1.21207E-01-9.26044E-14 1.04292E-13
 -1      2289 2.01359E+01-1.95158E-02 3.06351E-04 9.54464E-02-1.86017E-14 8.99437E-14
 -1      2290 2.01528E+01-2.98682E-02-1.05748E-03 8.60865E-02-1.90492E-15 3.65346E-14
 -1      2291 2.01146E+01-2.20183E-02-2.79052E-04 1.14616E-01-3.41007E-14 6.05290E-14
 -1      2292 2.01758E+01-4.17439E-02 5.34503E-04 7.30442E-02-6.15935E-16 9.79018E-14
 -1      2293 2.01881E+01-5.78266E-02-1.86351E-03 5.45378E-02 5.48354E-14 1.21258E-13
 -1      2294 2.01554E+01-4.84643E-02-3.11599E-04 9.59575E-02 1.85406E-14 1.24096E-13
 -1      2295 2.02141E+01-7.50770E-02 7.62132E-04 2.95373E-02 1.08637E-13 1.24142E-13
 -1      2296 2.02184E+01-9.72850E-02-2.87753E-03-2.14210E-03 1.10524E-13 2.00618E-13
 -1      2297 2.02009E+01-8.89947E-02-2.95059E-04 5.70975E-02 6.42731E-14 2.06030E-13
 -1      2298 2.02463E+01-1.19666E-01 9.32240E-04-4.38799E-02 5.86870E-14 1.55285E-13
 -1      2299 2.02380E+01-1.46967E-01-4.00764E-03-9.25358E-02 2.57892E-14 1.32848E-13
 -1      2300 2.02498E+01-1.44296E-01-1.76895E-04-1.14930E-02 4.38922E-14 1.04579E-13
 -1      2301 2.02649E+01-1.72480E-01 9.44563E-04-1.55261E-01-3.53482E-14 7.49607E-14
 -1      2302 2.02384E+01-2.01404E-01-5.04355E-03-2.23180E-01-1.12048E-14 8.33424E-14
 -1      2303 2.02984E+01-2.11379E-01 1.21472E-04-1.19381E-01-3.70168E-14-8.21852E-15
 -1      2304 2.02588E+01-2.25363E-01 6.60181E-04-3.08844E-01 9.41803E-15 1.72157E-14
 -1      2305 2.02081E+01-2.49087E-01-5.62792E-03-3.94841E-01 3.84295E-15 6.39379E-14
 -1      2306 2.03391E+01-2.81130E-01 6.92048E-04-2.73418E-01-4.76678E-14-2.31700E-14
 -1      2307 2.02135E+01-2.63547E-01-6.11110E-05-5.00453E-01 7.86075E-14 9.31132E-14
 -1      2308 2.01335E+01-2.71771E-01-5.28584E-03-5.97500E-01 1.11292E-13 1.91343E-13
 -1      2309 2.03593E+01-3.36195E-01 1.59089E-03-4.73209E-01 5.41825E-14 3.63661E-14
 -1      2310 2.01128E+01-2.66135E-01-1.27030E-03-7.12025E-01 2.00665E-14 1.66172E-13
 -1      2311 2.00016E+01-2.46813E-01-3.56854E-03-8.05309E-01-6.30865E-15 1.68530E-13
 -1      2312 2.03413E+01-3.50966E-01 2.72620E-03-7.05036E-01 4.81515E-14 1.47385E-14
 -1      2313 1.99440E+01-2.10613E-01-2.77595E-03-9.07467E-01 5.44031E-15 2.73815E-13
 -1      2314 1.98054E+01-1.54436E-01-3.40047E-04-9.74429E-01 2.55822E-14 2.36147E-13
 -1      2315 2.02654E+01-2.96261E-01 3.71763E-03-9.35912E-01-1.51029E-16 1.83138E-13
 -1      2316 1.97064E+01-8.26803E-02-4.02020E-03-1.03384E+00 8.22188E-15 2.42329E-13
 -1      2317 1.95526E+01 1.02058E-02 3.90093E-03-1.04811E+00-6.53976E-14 3.20682E-13
 -1      2318 2.01171E+01-1.50587E-01 3.87054E-03-1.11167E+00-1.12281E-14 2.85414E-13
 -1      2319 1.94213E+01 1.10680E-01-4.08766E-03-1.03244E+00-1.19273E-13 3.14884E-13
 -1      2320 1.92728E+01 2.24722E-01 7.87030E-03-9.72477E-01-1.07684E-13 3.53829E-13
 -1      2321 1.99001E+01 8.35694E-02 2.44638E-03-1.16483E+00-4.25484E-14 3.39927E-13
 -1      2322 1.91359E+01 3.31779E-01-2.21758E-03-8.60832E-01-6.79975E-14 2.98864E-13
 -1      2323 1.90185E+01 4.36231E-01 9.87550E-03-7.21375E-01 1.59909E-14 4.70041E-13
 -1      2324 1.96470E+01 3.66457E-01-6.86719E-04-1.03609E+00-8.82075E-14 3.73555E-13
 -1      2325 1.89157E+01 5.17125E-01 1.66034E-03-5.19360E-01 4.45824E-16 3.96294E-13
 -1      2326 1.88532E+01 5.76600E-01 8.85317E-03-3.19620E-01 4.34856E-14 2.96777E-13
 -1      2327 1.94203E+01 6.22456E-01-4.59434E-03-7.05862E-01-4.78173E-14 3.88961E-13
 -1      2328 1.88201E+01 6.02140E-01 6.20145E-03-6.53015E-02 1.17411E-13 2.87438E-13
 -1      2329 1.88263E+01 5.94227E-01 5.21750E-03 1.53497E-01 4.87919E-14 3.71172E-13
 -1      2330 1.92914E+01 7.67621E-01-7.00117E-03-2.19672E-01-3.94682E-15 4.08140E-13
 -1      2331 1.88748E+01 5.54542E-01 9.43328E-03 4.00860E-01-6.11360E-14 4.02152E-13
 -1      2332 1.89477E+01 4.82161E-01 6.65219E-04 5.90027E-01-8.97611E-14 4.58878E-13
 -1      2333 1.93058E+01 7.48126E-01-6.72971E-03 3.16346E-01 2.36135E-14 4.26771E-13
 -1      2334 1.90596E+01 3.92328E-01 9.79503E-03 7.73974E-01-1.69533E-13 5.49802E-13
 -1      2335 1.91827E+01 2.82279E-01-2.80613E-03 8.96216E-01-1.58779E-13 5.62821E-13
 -1      2336 1.94575E+01 5.71782E-01-3.62415E-03 7.75140E-01-8.01139E-15 5.05661E-13
 -1      2337 1.93197E+01 1.73705E-01 7.22581E-03 9.85545E-01-1.93712E-13 5.24505E-13
 -1      2338 1.94679E+01 6.15190E-02-4.28449E-03 1.02723E+00-1.93734E-13 5.41461E-13
 -1      2339 1.96924E+01 3.01226E-01 1.99111E-04 1.06152E+00-1.62988E-13 3.03105E-13
 -1      2340 1.95922E+01-3.46411E-02 3.02695E-03 1.02292E+00-2.55223E-13 4.87473E-13
 -1      2341 1.97404E+01-1.20943E-01-3.93029E-03 9.93615E-01-2.84840E-13 3.39010E-13
 -1      2342 1.99383E+01 2.22618E-02 2.99531E-03 1.14514E+00-2.75662E-13 3.20888E-13
 -1      2343 1.98286E+01-1.85538E-01-1.13146E-03 9.20236E-01-1.91936E-13 2.51622E-13
 -1      2344 1.99576E+01-2.33677E-01-2.57725E-03 8.43572E-01-1.42475E-13 1.19863E-13
 -1      2345 2.01382E+01-1.96183E-01 3.99127E-03 1.05632E+00-3.65637E-13 2.51714E-13
 -1      2346 2.00040E+01-2.62620E-01-4.07888E-03 7.34310E-01-1.19018E-13 1.22185E-13
 -1      2347 2.01038E+01-2.74890E-01-1.06845E-03 6.36723E-01-1.10653E-13 1.62070E-13
 -1      2348 2.02656E+01-3.22092E-01 3.55080E-03 8.58930E-01-1.90743E-13 2.46379E-13
 -1      2349 2.01150E+01-2.74799E-01-5.47662E-03 5.20766E-01-5.06458E-14 1.07211E-13
 -1      2350 2.01832E+01-2.61488E-01 9.90818E-05 4.23686E-01 4.66999E-14 1.61868E-13
 -1      2351 2.03220E+01-3.59023E-01 2.46464E-03 6.19756E-01-6.42030E-14 2.38424E-13
 -1      2352 2.01704E+01-2.43071E-01-5.58001E-03 3.20492E-01-1.36412E-14 6.13015E-14
 -1      2353 2.02101E+01-2.15924E-01 8.06399E-04 2.37447E-01 1.09776E-13 5.97460E-14
 -1      2354 2.03239E+01-3.31057E-01 1.35637E-03 3.89493E-01-5.42477E-14 1.54450E-13
 -1      2355 2.01843E+01-1.89147E-01-4.87047E-03 1.56650E-01 2.46362E-13-1.57778E-13
 -1      2356 2.02013E+01-1.57531E-01 1.13751E-03 9.38403E-02 2.41733E-13-2.62890E-13
 -1      2357 2.02914E+01-2.66856E-01 5.14892E-04 1.97658E-01-5.97439E-15-2.39675E-13
 -1      2358 2.01703E+01-1.29401E-01-3.80458E-03 3.78605E-02 1.19296E-13-1.85355E-13
 -1      2359 2.01713E+01-9.91411E-02 1.23509E-03-3.69737E-03 1.68261E-13-1.31976E-13
 -1      2360 2.02416E+01-1.89821E-01-4.21376E-06 5.59138E-02 1.85935E-13-2.34507E-13
 -1      2361 2.01402E+01-7.35268E-02-2.69973E-03-3.66615E-02 2.72870E-13-5.00282E-14
 -1      2362 2.01312E+01-4.73151E-02 1.23386E-03-5.88935E-02 1.40273E-13 1.01041E-13
 -1      2363 2.01860E+01-1.14981E-01-2.83312E-04-3.56962E-02 2.24792E-13-8.42505E-14
 -1      2364 2.01025E+01-2.57005E-02-1.69146E-03-7.23700E-02-1.23982E-13 2.29628E-14
 -1      2365 2.00882E+01-5.48804E-03 7.99892E-04-7.81690E-02-2.02231E-13 2.57817E-14
 -1      2366 2.01320E+01-4.96219E-02-2.98326E-04-8.32564E-02 4.60971E-14-1.59955E-13
 -1      2367 1.96239E+01 7.29743E-02 2.09357E-03-6.68675E-02 2.65682E-14-1.87556E-14
 -1      2368 1.96509E+01 1.04613E-01 6.90115E-03-2.05151E-02 5.35875E-14-1.52472E-14
 -1      2369 1.96010E+01 3.12975E-02 1.36598E-03-1.33038E-01 2.29445E-14-3.26220E-14
 -1      2370 1.95975E+01 5.00782E-02 3.68621E-03-1.10278E-01 1.60471E-14-3.12354E-14
 -1      2371 1.97689E+01 9.04860E-02-3.17113E-03-7.26031E-02 3.18135E-14-2.26678E-14
 -1      2372 1.96141E+01 6.56275E-03 9.11596E-04-1.62270E-01 5.08295E-14-4.10458E-14
 -1      2373 1.95934E+01 1.76448E-02 1.82838E-03-1.53647E-01 3.04299E-14-5.17761E-14
 -1      2374 1.97355E+01 3.67893E-02-2.30532E-03-1.45682E-01 4.84373E-14-9.84239E-16
 -1      2375 1.96478E+01-7.62380E-03 6.10842E-04-1.69122E-01 3.69083E-14-3.85003E-14
 -1      2376 1.96185E+01-1.42922E-03 7.34209E-04-1.68861E-01 3.99478E-14-3.43599E-14
 -1      2377 1.97331E+01 5.13329E-03-1.54647E-03-1.78555E-01 3.48685E-14-1.34930E-14
 -1      2378 1.96919E+01-1.49260E-02 4.15257E-04-1.63085E-01-1.26474E-15-1.69339E-14
 -1      2379 1.96593E+01-1.19412E-02 8.88138E-05-1.67455E-01 2.91997E-14-2.32815E-14
 -1      2380 1.97500E+01-1.27284E-02-9.81301E-04-1.86856E-01 1.50598E-14-1.91010E-14
 -1      2381 1.97402E+01-1.76055E-02 3.03392E-04-1.50509E-01 9.02148E-14-1.55354E-14
 -1      2382 1.97072E+01-1.67834E-02-2.77385E-04-1.57015E-01 4.52218E-14-2.50211E-14
 -1      2383 1.97777E+01-2.15737E-02-5.93288E-04-1.80976E-01 4.33616E-14 2.28189E-14
 -1      2384 1.97888E+01-1.70966E-02 2.63346E-04-1.35748E-01 7.52942E-14-3.27960E-14
 -1      2385 1.97572E+01-1.77747E-02-4.61923E-04-1.42676E-01 8.33305E-14-5.08538E-14
 -1      2386 1.98107E+01-2.43520E-02-3.44479E-04-1.67985E-01 9.61034E-14-3.77034E-14
 -1      2387 1.98362E+01-1.42821E-02 2.89405E-04-1.21878E-01 8.29172E-14-5.32370E-15
 -1      2388 1.98063E+01-1.60631E-02-5.27036E-04-1.28000E-01 7.87248E-14-1.31057E-14
 -1      2389 1.98459E+01-2.29192E-02-2.00697E-04-1.52789E-01 4.98845E-14-1.99601E-14
 -1      2390 1.98820E+01-9.62798E-03 3.82710E-04-1.11207E-01-2.51049E-14 2.71762E-16
 -1      2391 1.98537E+01-1.23220E-02-5.14391E-04-1.15572E-01 6.62081E-14 1.12825E-14
 -1      2392 1.98815E+01-1.83898E-02-1.35458E-04-1.38910E-01 5.43082E-14-8.25066E-15
 -1      2393 1.99274E+01-3.23730E-03 5.52857E-04-1.05679E-01 3.46374E-14-6.85610E-14
 -1      2394 1.98996E+01-6.84174E-03-4.52527E-04-1.07438E-01-1.82119E-14-1.89833E-14
 -1      2395 1.99172E+01-1.13053E-02-1.28940E-04-1.29046E-01 1.01448E-14-3.27459E-14
 -1      2396 1.99740E+01 5.15475E-03 8.20263E-04-1.07238E-01 2.27375E-14-1.01746E-13
 -1      2397 1.99454E+01 4.45324E-04-3.61391E-04-1.05477E-01 1.61667E-14-9.40541E-14
 -1      2398 1.99533E+01-1.69471E-03-1.65974E-04-1.25530E-01 2.84319E-14-4.44230E-14
 -1      2399 2.00247E+01 1.62422E-02 1.21976E-03-1.18214E-01 1.44418E-13-1.29479E-13
 -1      2400 1.99931E+01 9.99544E-03-2.55719E-04-1.11766E-01 7.13484E-14-1.23433E-13
 -1      2401 1.99910E+01 1.09479E-02-2.33341E-04-1.30749E-01 6.26449E-14-7.56734E-14
 -1      2402 2.00831E+01 3.12781E-02 1.80571E-03-1.41769E-01 7.66056E-14-8.45789E-15
 -1      2403 2.00458E+01 2.27453E-02-1.48203E-04-1.28985E-01 1.50116E-13-4.58455E-14
 -1      2404 2.00320E+01 2.77686E-02-3.16092E-04-1.47580E-01 1.07798E-13-7.78741E-14
 -1      2405 2.01541E+01 5.22913E-02 2.65854E-03-1.82475E-01-5.14640E-14-5.83417E-15
 -1      2406 2.01072E+01 4.02801E-02-5.32111E-05-1.60911E-01 2.07150E-14 2.90747E-14
 -1      2407 2.00783E+01 5.07584E-02-3.91860E-04-1.79897E-01 3.61275E-15 2.40993E-14
 -1      2408 2.02434E+01 8.24097E-02 3.89117E-03-2.47087E-01-7.71216E-14-3.75384E-14
 -1      2409 2.01821E+01 6.50986E-02 7.88264E-06-2.13079E-01-7.79299E-14-1.56718E-14
 -1      2410 2.01320E+01 8.30813E-02-4.21634E-04-2.33196E-01-6.34391E-14 4.57509E-14
 -1      2411 2.03584E+01 1.26287E-01 5.65050E-03-3.45565E-01-7.97902E-14-1.04326E-13
 -1      2412 2.02759E+01 1.00989E-01-2.01874E-06-2.93651E-01-8.27309E-14-2.91429E-14
 -1      2413 2.01951E+01 1.29543E-01-3.34980E-04-3.15397E-01-5.78799E-14 3.10704E-14
 -1      2414 2.05071E+01 1.90549E-01 8.10060E-03-4.92341E-01 6.33751E-14-2.17364E-13
 -1      2415 2.03949E+01 1.53485E-01-1.51289E-04-4.14541E-01-3.25640E-14-1.86089E-13
 -1      2416 2.02685E+01 1.97163E-01-8.75280E-06-4.37813E-01-7.52501E-15-4.21801E-14
 -1      2417 2.06981E+01 2.83923E-01 1.13593E-02-7.07617E-01 9.37059E-14-1.06960E-13
 -1      2418 2.05453E+01 2.30231E-01-5.67605E-04-5.92719E-01 9.60738E-14-1.74319E-13
 -1      2419 2.03505E+01 2.95652E-01 7.56501E-04-6.16223E-01 5.61747E-14-1.47868E-13
 -1      2420 2.09385E+01 4.16030E-01 1.53472E-02-1.01796E+00-1.60349E-14-1.29326E-13
 -1      2421 2.07322E+01 3.40672E-01-1.48109E-03-8.51337E-01 3.80208E-14-9.98071E-14
 -1      2422 2.04345E+01 4.37125E-01 2.24362E-03-8.71690E-01 2.77545E-14 3.28857E-14
 -1      2423 2.12308E+01 5.92240E-01 1.95522E-02-1.45427E+00-9.00252E-14 1.63993E-14
 -1      2424 2.09571E+01 4.93446E-01-3.24350E-03-1.21963E+00-5.19710E-14-7.16410E-14
 -1      2425 2.05056E+01 6.33241E-01 4.76596E-03-1.23036E+00-6.03055E-14-4.79047E-14
 -1      2426 2.15713E+01 7.98452E-01 2.29382E-02-2.04271E+00-9.03305E-14-3.47732E-14
 -1      2427 2.12165E+01 6.87492E-01-6.10357E-03-1.72911E+00-7.04532E-14-1.11252E-14
 -1      2428 2.05363E+01 8.85404E-01 8.50144E-03-1.72066E+00-8.99714E-14-6.88648E-14
 -1      2429 2.19568E+01 9.64019E-01 2.49835E-02-2.78052E+00-1.30138E-13 1.23540E-13
 -1      2430 2.15064E+01 8.88132E-01-9.02403E-03-2.40097E+00-1.13802E-13 1.93008E-14
 -1      2431 2.04886E+01 1.15871E+00 1.32445E-02-2.36546E+00-1.56864E-13-5.22633E-14
 -1      2432 2.24269E+01 8.88373E-01 2.98280E-02-3.58464E+00-1.99027E-13 1.67647E-13
 -1      2433 2.18484E+01 9.73928E-01-5.91913E-03-3.21499E+00-9.80247E-14 1.60542E-13
 -1      2434 2.03347E+01 1.32419E+00 1.85659E-02-3.16574E+00-1.43300E-13 3.40098E-14
 -1      2435 2.31590E+01 1.14939E-01 3.73300E-02-4.21995E+00-1.87322E-13 2.05514E-13
 -1      2436 2.23753E+01 6.41559E-01 2.01519E-02-4.05147E+00-2.44799E-13 2.82017E-13
 -1      2437 2.01260E+01 1.06350E+00 2.43419E-02-4.07681E+00-2.79545E-13 5.96138E-14
 -1      2438 2.46761E+01-1.91583E+00 5.79416E-02-4.14500E+00-2.26957E-13 3.64039E-13
 -1      2439 2.35423E+01-6.41727E-01 1.05749E-01-4.50146E+00-1.34719E-13 3.76950E-13
 -1      2440 2.02306E+01-3.39106E-01 1.08139E-02-4.94934E+00-2.57794E-13 2.48399E-13
 -1      2441 3.29835E+01-4.38701E+00 3.20996E-03 6.78681E-01-2.27693E-13 1.87766E-14
 -1      2442 2.05472E+01 1.95505E+00-1.37226E-02-1.89804E+00-1.13340E-13 1.07527E-13
 -1      2443 2.04103E+01 1.21484E+00-7.17568E-03-1.28705E+00-1.03638E-13 1.06758E-13
 -1      2444 2.03833E+01 1.37994E+00 7.64737E-03-1.23564E+00-1.18159E-13 6.28842E-14
 -1      2445 2.02889E+01 2.38466E+00-5.07171E-03-1.84264E+00-1.22504E-13 6.24136E-14
 -1      2446 2.32602E+01-2.33249E+00 1.52936E-01 4.76500E+00 1.83187E-14 7.46833E-14
 -1      2447 2.50374E+01-4.01244E+00 1.14775E-01 4.05768E+00-1.60566E-13 7.86263E-14
 -1      2448 2.10012E+01 1.10793E+00-1.28464E-02 2.97467E+00 1.40644E-13 1.40973E-13
 -1      2449 2.14001E+01 1.11590E+00 2.81201E-02 3.36621E+00 1.87965E-13 1.91162E-13
 -1      2450 2.08924E+01 9.32235E-01-1.23165E-02 2.20968E+00 7.92547E-14-1.33372E-14
 -1      2451 2.12121E+01 1.04594E+00 2.26168E-02 2.56750E+00 5.94759E-14 7.69669E-14
 -1      2452 1.98050E+01 1.43680E+00 2.26279E-02 2.82819E+00 1.51638E-13 1.68054E-13
 -1      2453 2.07565E+01 6.99489E-01-8.38364E-03 1.60367E+00 1.88877E-13-2.98114E-14
 -1      2454 2.10185E+01 8.22965E-01 1.97865E-02 1.88797E+00 1.03122E-13 7.58371E-14
 -1      2455 2.00959E+01 1.17551E+00 1.55211E-02 2.11759E+00 1.03552E-13 2.71431E-13
 -1      2456 2.06017E+01 4.98518E-01-5.04082E-03 1.14962E+00 1.77950E-13 1.63294E-13
 -1      2457 2.08121E+01 5.99239E-01 1.64248E-02 1.36079E+00 2.49595E-13 8.69396E-14
 -1      2458 2.02306E+01 8.75128E-01 9.64903E-03 1.55955E+00 1.57499E-13 1.52217E-13
 -1      2459 2.04481E+01 3.50183E-01-3.19202E-03 8.18133E-01-3.48792E-14 3.25313E-13
 -1      2460 2.06132E+01 4.22930E-01 1.28554E-02 9.70828E-01 1.14068E-13 3.31818E-13
 -1      2461 2.02609E+01 6.23452E-01 4.97555E-03 1.13592E+00-1.57040E-14 3.70245E-13
 -1      2462 2.03123E+01 2.53093E-01-1.31062E-03 5.75987E-01-2.72349E-13 1.74329E-13
 -1      2463 2.04376E+01 2.99898E-01 9.70760E-03 6.86927E-01-1.52077E-13 4.03297E-13
 -1      2464 2.02341E+01 4.41982E-01 2.03038E-03 8.20773E-01-1.87940E-13 1.13966E-13
 -1      2465 2.02073E+01 2.01008E-01 3.53457E-03 3.93862E-01-2.81115E-13-5.84484E-14
 -1      2466 2.02905E+01 2.19885E-01 6.08746E-03 4.77053E-01-2.42863E-13 1.33610E-13
 -1      2467 2.01812E+01 3.25848E-01 6.20917E-04 5.84629E-01-1.28456E-13 5.62643E-14
 -1      2468 1.98271E+01 5.70496E-01-2.25989E-03 1.20047E-01 1.88426E-13-1.76493E-13
 -1      2469 1.98405E+01 5.50702E-01-1.66175E-03 1.81606E-01 3.24077E-13-4.11188E-13
 -1      2470 1.98645E+01 5.24020E-01-3.47912E-03 2.49905E-01 1.22370E-13-1.89241E-13
 -1      2471 1.99005E+01 4.84853E-01 6.63436E-04 2.93133E-01-1.78249E-14-1.30539E-13
 -1      2472 1.98089E+01 5.61723E-01 3.86427E-03 2.40958E-01 5.36764E-14-1.05231E-13
 -1      2473 1.99474E+01 4.23662E-01-3.95979E-03 3.38735E-01-1.38874E-13-2.82097E-13
 -1      2474 2.00020E+01 3.62802E-01 1.84608E-03 3.46973E-01-1.73907E-13-3.22277E-13
 -1      2475 1.98890E+01 4.81551E-01 2.92945E-04 3.63189E-01-4.38107E-15-2.23365E-13
 -1      2476 3.43270E+00-2.95740E+00 7.10928E-02 1.96094E+00-2.21115E-13-5.88418E-15
 -1      2477 2.55583E+00-2.48448E+00 8.55276E-02-5.29339E-01-2.28083E-13 2.68563E-13
 -1      2478 1.98348E+01 5.59038E-01-7.30034E-04-2.05567E-02-6.93664E-14 8.43152E-15
 -1      2479 1.98254E+01 5.62222E-01-3.26473E-03 4.14269E-02 5.28447E-14 1.01790E-13
 -1      2480 1.97733E+01 5.78111E-01 3.22464E-03 8.06561E-02 1.81351E-13-1.96579E-13
 -1      2481 1.98756E+01 4.99718E-01 5.45068E-04-1.38187E-01-3.43413E-13 1.36351E-14
 -1      2482 1.98512E+01 5.22924E-01-3.67267E-03-8.87321E-02-2.21057E-13-1.50721E-13
 -1      2483 1.97948E+01 5.34421E-01 2.31543E-03-7.68856E-02-1.38127E-14-5.88200E-14
 -1      2484 1.99314E+01 4.10539E-01 1.30469E-03-2.14208E-01-4.47157E-13-1.18431E-13
 -1      2485 1.99016E+01 4.47281E-01-3.23010E-03-1.84294E-01-4.30653E-13 9.86019E-14
 -1      2486 1.98536E+01 4.48841E-01 1.00078E-03-1.98208E-01-2.50556E-13-1.09865E-14
 -1      2487 1.99855E+01 3.11142E-01 1.51897E-03-2.44246E-01-1.71502E-13-1.24273E-13
 -1      2488 1.99585E+01 3.54015E-01-2.19920E-03-2.34650E-01-2.29658E-13-2.39583E-13
 -1      2489 1.99267E+01 3.43948E-01-2.07046E-04-2.67464E-01-1.86809E-13-1.16207E-14
 -1      2490 2.00262E+01 2.19360E-01 1.36400E-03-2.35657E-01 2.32341E-13 1.15362E-13
 -1      2491 2.00072E+01 2.61017E-01-9.55290E-04-2.42207E-01 4.04848E-14 3.63076E-15
 -1      2492 1.99938E+01 2.41221E-01-1.00744E-03-2.84917E-01-2.68619E-14 9.23565E-14
 -1      2493 2.00501E+01 1.42297E-01 9.59854E-04-2.01171E-01 3.05757E-13 2.89863E-13
 -1      2494 2.00401E+01 1.79597E-01 1.41740E-04-2.18150E-01 2.65545E-13 1.84064E-13
 -1      2495 2.00424E+01 1.54122E-01-1.43596E-03-2.62189E-01 1.91003E-13 1.48602E-13
 -1      2496 2.00580E+01 8.56506E-02 5.29563E-04-1.55437E-01 2.24838E-13 3.88674E-13
 -1      2497 2.00556E+01 1.15691E-01 8.89522E-04-1.76310E-01 2.76128E-13 3.86653E-13
 -1      2498 2.00684E+01 8.93632E-02-1.46782E-03-2.15192E-01 3.73052E-13 2.38792E-13
 -1      2499 2.00546E+01 4.94129E-02 5.58448E-04-1.09344E-01 4.80333E-14-1.71915E-13
 -1      2500 2.00570E+01 7.06146E-02 1.23458E-03-1.28955E-01 1.34034E-13-1.63246E-14
 -1      2501 2.00778E+01 4.84662E-02-6.73359E-05-1.60295E-01 9.06840E-14 1.61688E-13
 -1      2502 2.02935E+01-5.28049E+00-2.42504E-02 5.85747E+00-3.49165E-14 1.67852E-13
 -1      2503 1.53660E+01-4.61843E+00 9.94811E-02 5.87239E+00 8.43492E-14-3.35204E-13
 -1      2504 1.97045E+01 1.43608E-01 3.29044E-03 5.95918E-02 6.59982E-14-6.93629E-15
 -1      2505 1.97828E+01 1.98342E-01 1.23661E-02 1.45936E-01 6.81801E-14 1.96277E-14
 -1      2506 1.98494E+01 1.81520E-01-3.80878E-03 6.48264E-02 6.03521E-14 2.61033E-15
 -1      2507 9.55369E+00-4.17275E+00-3.71001E-03 5.64347E+00-1.30451E-14-7.32192E-13
 -1      2508 5.87788E+00-3.56990E+00 6.43554E-02 3.87069E+00-1.19099E-13-4.23050E-13
 -1      2509 2.91645E+00-2.83950E+00 9.32238E-02-3.12029E+00-9.40081E-14 1.56819E-13
 -1      2510 4.35596E+00-3.27198E+00 5.68367E-02-5.24888E+00 2.95874E-14 2.88436E-13
 -1      2511 3.47258E+01 7.13862E+00-1.62007E-01-5.68327E-01-4.06897E-13-2.08000E-13
 -1      2512 3.46450E+01 5.51660E+00-6.36961E-02-1.66402E-01-2.50855E-13-4.64129E-13
 -1      2513 7.04225E+00-4.02875E+00 7.80305E-02-6.65190E+00 2.11886E-13 5.11868E-13
 -1      2514 1.07439E+01-4.27882E+00 3.10766E-02-7.97904E+00 2.83829E-13 2.36089E-13
 -1      2515 2.00362E+01 3.67856E-02-4.39204E-04-6.77961E-02 7.42856E-14 4.04771E-15
 -1      2516 2.11506E+01 9.85342E-01 2.97181E-03 3.84735E+00 1.03350E-13 2.24124E-13
 -1      2517 2.17034E+01 6.65764E-01 4.29971E-02 4.15110E+00 7.23293E-14 2.29373E-13
 -1      2518 1.93467E+01 1.41641E+00 3.05520E-02 3.68922E+00 1.98533E-13 3.27926E-13
 -1      2519 2.16599E+01 7.50767E-02 6.94150E-02 4.62000E+00 1.63619E-14 1.80411E-14
 -1      2520 2.25804E+01-9.36977E-01 8.18128E-02 4.58793E+00-2.70131E-14 1.00447E-13
 -1      2521 1.90575E+01-1.80838E+00-2.74782E-03 5.57594E+00-5.97578E-14 2.18020E-14
 -1      2522 1.95199E+01 3.58545E+00-1.00888E-02-2.45285E-01-2.44138E-14-9.64315E-14
 -1      2523 1.95359E+01 3.56476E+00-9.65060E-03-4.25991E-01-3.83169E-14-7.88597E-14
 -1      2524 1.97123E+01 3.16432E+00-5.41369E-04-4.73293E-01-3.80325E-14-5.95075E-14
 -1      2525 1.96780E+01 3.22424E+00-9.06067E-04-1.52027E-01-2.31680E-14-9.71957E-14
 -1      2526 1.93797E+01-5.73105E+00 2.83473E-02-5.53841E+00 1.32894E-13 3.08351E-13
 -1      2527 2.45557E+01-6.35011E+00-5.49338E-02-4.78811E+00 1.71418E-13 1.88599E-13
 -1      2528 3.83559E+00-1.86084E+00 1.45089E-01-1.10952E+00-1.84509E-13-3.66374E-15
 -1      2529 5.41379E+00-2.29251E+00 1.33029E-01-3.24742E+00-9.07052E-14 8.58758E-14
 -1      2530 3.56622E+00-2.72360E+00 7.09094E-02 4.03806E+00-3.17885E-13-6.81455E-13
 -1      2531 2.98678E+00-1.97902E+00 1.38581E-01 1.31754E+00-3.13308E-13-2.94320E-13
 -1      2532 6.45863E+00-1.54320E+00 1.81982E-01 4.83855E+00-3.91562E-13-6.21891E-13
 -1      2533 1.73980E+01-4.96612E+00 2.12562E-02 8.19602E+00-6.74460E-14-5.62224E-13
 -1      2534 1.35140E+01-4.74222E+00 7.76313E-02 8.12220E+00-9.65894E-14-6.61415E-13
 -1      2535 2.50627E+01-4.25393E+00-5.27842E-02 6.21827E+00-1.61038E-13-7.11209E-13
 -1      2536 2.12716E+01-5.02862E+00 1.80604E-02 7.03890E+00-9.37028E-14-6.36838E-13
 -1      2537 3.09432E+01-1.23640E+00-7.70653E-02 2.99007E+00-8.79088E-14-7.41573E-13
 -1      2538 2.81553E+01-2.96561E+00-3.13425E-02 4.09215E+00-9.27591E-14-7.31443E-13
 -1      2539 3.40224E+01 3.07328E+00-1.22172E-01 5.76002E-01-1.79412E-13-5.71820E-13
 -1      2540 3.24123E+01 1.06161E+00-7.83045E-02 1.44092E+00-1.64022E-13-6.12399E-13
 -1      2541 3.42140E+01 8.62910E+00-1.91884E-01-5.23862E-03-6.12899E-13-3.81150E-13
 -1      2542 3.47422E+01 8.45132E+00-9.17900E-02-3.66373E-01-5.52891E-13-3.45890E-13
 -1      2543 3.01146E+01-1.91597E+00-6.43290E-03-2.36379E+00 1.60982E-13-3.00426E-13
 -1      2544 3.16068E+01-2.50225E-01-1.46619E-01-1.23611E+00 1.08032E-13-2.67175E-13
 -1      2545 3.22294E+01 1.93841E+00-1.07362E-01 1.69874E-01 1.51545E-14-3.82694E-13
 -1      2546 3.29005E+01 3.72421E+00-1.67710E-01 5.66171E-01 1.04139E-13-3.34704E-13
 -1      2547 1.51191E+01-4.93640E+00 9.19252E-02-7.99922E+00 2.65205E-13-1.23769E-13
 -1      2548 1.84455E+01-5.03086E+00-1.42237E-02-7.90700E+00 2.89768E-13-1.89852E-13
 -1      2549 2.04898E+01 8.74956E-01-7.30809E-03 1.22669E+00 9.54202E-14 3.29411E-14
 -1      2550 2.08403E+01 1.25694E+00-6.04837E-03 1.72740E+00 1.02758E-13 4.11979E-14
 -1      2551 2.06463E+01 1.71563E+00-1.57894E-02 1.92154E+00 1.08525E-13 2.83454E-15
 -1      2552 2.04487E+01 1.05806E+00-9.39410E-03 1.24139E+00 9.09082E-14-1.52114E-16
 -1      2553 1.99143E+01 2.81433E+00 2.10686E-03-1.09857E+00-7.93999E-14-3.46047E-14
 -1      2554 1.97807E+01 3.15978E+00-1.54590E-02-1.28554E+00-9.67559E-14-3.78976E-14
 -1      2555 1.98766E+01 3.03924E+00-1.70420E-02-1.48244E+00-1.06517E-13-2.08011E-14
 -1      2556 1.52963E+01-4.00417E+00-2.89385E-02 7.79004E+00-7.65221E-14-4.30489E-13
 -1      2557 1.23641E+01-3.86687E+00 1.30775E-01 7.80620E+00-2.06335E-13-5.09426E-13
 -1      2558 1.14952E+01-2.44824E+00 1.88221E-01 7.23281E+00-2.58724E-13-5.38763E-13
 -1      2559 2.04222E+01 2.11580E+00-1.27764E-02 1.87452E+00 1.06362E-13-3.50293E-14
 -1      2560 3.55899E+01-3.80792E+00-1.30903E-01-1.74016E+00 3.18023E-13-3.69649E-13
 -1      2561 1.89330E+01 5.91072E-01 5.43780E-02 4.68928E+00-5.97786E-15 1.91618E-14
 -1      2562 2.93994E+01-5.58571E+00 1.19226E-02-1.97580E+00-1.23540E-13 7.72715E-14
 -1      2563 2.82826E+01-4.98822E+00-8.39391E-03-2.27783E+00-6.33382E-14 1.15916E-13
 -1      2564 2.65836E+01-3.71913E+00 1.23085E-01-3.66549E+00-9.90735E-14 3.16120E-13
 -1      2565 2.18621E+01-3.33338E+00 3.82019E-02-5.12891E+00-8.61672E-14 4.14765E-13
 -1      2566 2.01139E+01 2.61986E+00-1.19231E-02-1.67843E+00-1.22566E-13 2.68709E-14
 -1      2567 2.00766E+01 2.92374E-01-2.16266E-03 3.84350E-01-1.98585E-13-7.69202E-14
 -1      2568 2.01587E+01 1.87690E-01 2.94638E-03 3.30023E-01-4.66061E-13 1.86771E-14
 -1      2569 2.00536E+01 3.57089E-01 2.30548E-03 4.50255E-01-1.88873E-13-1.42913E-13
 -1      2570 4.47611E+00-1.24537E+00 1.63061E-01-1.68466E+00-2.13662E-13 1.13132E-13
 -1      2571 6.84403E+00-1.57581E+00 1.86369E-01 3.16387E+00-2.77348E-13-2.11386E-13
 -1      2572 1.49018E+01-2.86838E+00 1.99899E-01 5.74256E+00-6.90559E-14-2.99843E-13
 -1      2573 2.57991E+01-5.46804E+00 4.72128E-02 3.62049E+00-2.85244E-13 2.19741E-13
 -1      2574 1.99948E+01 3.40578E-01-3.50863E-03 3.04320E-01 7.86517E-14 4.27653E-15
 -1      2575 2.04363E+01 1.80816E+00 1.25494E-02 1.56221E+00 8.98001E-14-3.86037E-14
 -1      2576 3.01005E+01-5.46680E+00-2.09437E-02-1.78713E+00-5.29576E-14-8.69860E-14
 -1      2577 7.41272E+00-2.44479E+00 1.51964E-01-6.03509E+00-4.36595E-14 2.30621E-13
 -1      2578 3.25336E+01 3.84742E+00-2.27890E-02-9.21632E-01-1.49103E-13-1.65618E-13
 -1      2579 2.17249E+01-5.05042E+00 1.04904E-01-6.89127E+00 1.86184E-13-5.71002E-14
 -1      2580 2.40682E+01-5.21760E+00-1.65478E-01-5.50049E+00-2.45498E-14-3.33115E-13
 -1      2581 2.05757E+01-4.75932E+00 1.15166E-01-6.96356E+00 2.55435E-13-3.56867E-14
 -1      2582 3.16163E+01 4.76032E+00-1.38928E-01 1.50652E+00-1.27204E-13-4.31266E-13
 -1      2583 1.39346E+01-3.97974E+00 1.38418E-01-7.86828E+00 3.18245E-13-9.15934E-16
 -1      2584 3.08615E+01 3.38856E-01-4.33224E-02 3.09691E-01-3.17801E-15-2.05003E-13
 -1      2585 2.84883E+01-3.36248E+00 1.27073E-02-3.14231E+00 1.13048E-13-2.78805E-13
 -1      2586 3.28601E+01 8.13739E+00-1.10589E-01 4.85297E-01-5.53557E-13-3.88328E-13
 -1      2587 3.06504E+01 8.04231E+00-1.45130E-01 2.60316E-01-3.99042E-13-1.29528E-13
 -1      2588 3.06108E+01 7.34925E+00-1.65855E-01 9.66628E-01-3.74950E-13-2.56982E-13
 -1      2589 8.81315E+00-1.95984E+00 1.50298E-01-4.13103E+00-1.05624E-13 7.55507E-14
 -1      2590 3.10454E+01-7.23161E-01 1.05898E-02 8.75868E-01-3.78204E-14-4.57467E-13
 -1      2591 2.72195E+01-4.14012E+00 4.52135E-02 4.25021E+00-8.65003E-14-7.23921E-13
 -1      2592 2.00569E+01 1.88032E-02 7.05420E-04-7.26527E-02-7.79726E-14 2.38237E-14
 -1      2593 2.00550E+01 3.70603E-02 6.89917E-04-9.17433E-02 2.97285E-15-8.07584E-14
 -1      2594 2.00735E+01 2.13261E-02-9.21372E-04-1.13610E-01-1.60973E-13-1.04996E-13
 -1      2595 2.00702E+01 5.38911E-03-1.15110E-03-7.76258E-02-1.72440E-13 9.13703E-14
 -1      2596 5.30587E+00-5.52388E-01 2.00710E-01 6.87331E-02-3.73594E-13-3.14082E-13
 -1      2597 3.25474E+01 7.47266E+00-7.57883E-02-8.42370E-01-3.65763E-13 1.00669E-13
 -1      2598 3.47658E+01-4.78068E+00-3.63855E-02 1.72048E-01-2.80997E-13-1.14631E-13
 -1      2599 2.07749E+01-5.06863E+00 8.93410E-02 7.19536E+00-4.82947E-14-6.19515E-13
 -1      2600 2.00908E+01-2.31877E-03 4.87280E-04-9.50726E-02-2.24122E-13-2.35785E-13
 -1      2601 3.27245E+01-4.76906E+00-7.26169E-02-1.41722E-01-1.01058E-13-4.79616E-14
 -1      2602 3.01703E+01-5.40166E+00-3.02976E-02 2.13740E+00-4.35457E-13 2.34285E-13
 -1      2603 7.32070E+00-1.06191E+00 1.75869E-01-4.99693E+00-2.49523E-13 8.48766E-14
 -1      2604 9.57493E+00-2.02443E+00 8.40123E-02-6.64552E+00 1.03098E-13 7.97695E-14
 -1      2605 1.98457E+01 2.76573E+00-6.32345E-03 5.16096E-01-7.01927E-15-9.62746E-14
 -1      2606 1.98210E+01 2.81549E+00-5.70888E-03 3.65233E-01-1.21536E-14-9.98620E-14
 -1      2607 1.98042E+01 2.85312E+00-5.60950E-03 2.29705E-01-1.35042E-14-1.06032E-13
 -1      2608 1.97956E+01 2.87005E+00-5.44053E-03 7.51217E-02-1.33239E-14-9.21424E-14
 -1      2609 1.99507E+01 2.50204E+00 3.68412E-03 2.65009E-01-1.94551E-14-9.80813E-14
 -1      2610 2.00445E+01 2.32421E+00-1.07300E-02 1.04577E+00 6.19963E-14-7.88514E-14
 -1      2611 1.99803E+01 2.47328E+00-6.34570E-03 9.10074E-01 4.66120E-14-6.60054E-14
 -1      2612 2.02170E+01 1.90887E+00-1.19365E-02 1.22726E+00 7.19143E-14-8.33678E-14
 -1      2613 2.01249E+01 2.14664E+00-4.80549E-03 1.13397E+00 6.68287E-14-7.70278E-14
 -1      2614 2.01903E+01 1.88707E+00 6.49341E-03 9.26426E-01 5.51575E-14-7.07719E-14
 -1      2615 2.25807E+01-5.05062E+00-7.30174E-02 6.26352E+00-2.32037E-14-5.78294E-13
 -1      2616 1.96150E+01-4.55374E+00 1.63313E-01 7.09555E+00 2.18159E-14-5.25656E-13
 -1      2617 2.02128E+01 7.27056E-01-3.44745E-03 6.42543E-01 7.57957E-14-3.35896E-14
 -1      2618 2.03546E+01 9.51840E-01 9.17466E-03 9.06321E-01 7.28835E-14-3.24748E-14
 -1      2619 2.01811E+01 2.27421E+00 1.62379E-04-1.42482E+00-1.18008E-13 2.43226E-14
 -1      2620 2.03217E+01 1.06021E+00 6.03632E-03-8.56794E-01-1.07185E-13 5.62185E-14
 -1      2621 2.02276E+01 8.15822E-01-5.44622E-03-6.13295E-01-7.57966E-14 5.20502E-14
 -1      2622 2.02168E+01 6.28471E-01 8.69229E-03-4.36228E-01-6.04826E-14 3.43702E-14
 -1      2623 2.01326E+01 4.76176E-01-3.28407E-03-2.77577E-01-5.86599E-14 2.70251E-14
 -1      2624 2.02630E+01 8.94719E-01 1.40582E-03-5.72227E-01-8.24853E-14 3.69243E-14
 -1      2625 2.01067E+01 3.63542E-01 6.67777E-03-1.57538E-01-5.43055E-14 2.28465E-14
 -1      2626 2.00476E+01 2.69005E-01-1.72508E-03-5.95732E-02-5.11495E-14 1.12883E-14
 -1      2627 2.01957E+01 5.30058E-01-1.51541E-03-2.60905E-01-6.90346E-14 1.76128E-14
 -1      2628 2.00216E+01 1.99042E-01 4.52713E-03 1.61090E-02-4.35876E-14 9.39052E-15
 -1      2629 1.99861E+01 1.39868E-01-7.99303E-04 7.31604E-02-6.32377E-14 2.19359E-14
 -1      2630 2.01270E+01 3.00377E-01-2.05812E-03-5.37963E-02-5.35104E-14 1.98894E-14
 -1      2631 1.99652E+01 9.61275E-02 2.88965E-03 1.17129E-01-6.03198E-14 3.72210E-14
 -1      2632 1.99476E+01 5.93411E-02-2.53934E-04 1.47262E-01-4.25934E-14 4.14119E-14
 -1      2633 2.00707E+01 1.55084E-01-1.90139E-03 7.45279E-02-5.63926E-14 1.25632E-14
 -1      2634 1.99327E+01 3.24088E-02 1.71862E-03 1.69599E-01-5.55510E-14 3.27732E-14
 -1      2635 1.99274E+01 1.02995E-02 5.77029E-05 1.82477E-01-7.44577E-14 1.29651E-14
 -1      2636 2.00300E+01 6.39030E-02-1.53171E-03 1.47052E-01-7.51269E-14-6.19410E-15
 -1      2637 1.99178E+01-5.49390E-03 9.07273E-04 1.90758E-01-5.66947E-14 3.91840E-14
 -1      2638 1.99206E+01-1.77719E-02 2.32141E-04 1.93039E-01-7.75088E-14 7.20366E-14
 -1      2639 2.00031E+01 8.44433E-03-1.15472E-03 1.81942E-01-4.63482E-14-4.21326E-15
 -1      2640 1.99150E+01-2.60536E-02 3.61699E-04 1.92765E-01-9.26237E-14 1.30401E-13
 -1      2641 1.99226E+01-3.16917E-02 3.29247E-04 1.89046E-01-8.39666E-14 1.66853E-13
 -1      2642 1.99871E+01-2.29781E-02-8.37280E-04 1.92777E-01-4.06086E-14 1.21127E-13
 -1      2643 1.99201E+01-3.48900E-02 8.15039E-06 1.84135E-01-1.09173E-13 1.72390E-13
 -1      2644 1.99304E+01-3.60665E-02 3.83990E-04 1.77576E-01-6.01555E-14 1.26891E-13
 -1      2645 1.99792E+01-3.81053E-02-5.92052E-04 1.89397E-01-8.48382E-14 2.09111E-13
 -1      2646 1.99300E+01-3.58676E-02-2.08592E-04 1.70770E-01-1.71896E-14 1.00716E-13
 -1      2647 1.99418E+01-3.41187E-02 4.15632E-04 1.63519E-01-8.71315E-15 8.02602E-14
 -1      2648 1.99769E+01-4.22387E-02-4.13144E-04 1.78789E-01-6.74366E-14 1.69542E-13
 -1      2649 1.99429E+01-3.17381E-02-3.28562E-04 1.56692E-01 1.58262E-15 5.44884E-14
 -1      2650 1.99553E+01-2.81944E-02 4.33858E-04 1.50157E-01 5.65560E-15 5.28418E-14
 -1      2651 1.99786E+01-3.91274E-02-2.89824E-04 1.65819E-01-1.86126E-14 9.59073E-14
 -1      2652 1.99576E+01-2.45601E-02-3.79058E-04 1.44531E-01 7.96482E-17 6.53342E-14
 -1      2653 1.99703E+01-2.01200E-02 4.41483E-04 1.39558E-01-9.45572E-15 1.16234E-13
 -1      2654 1.99831E+01-3.15385E-02-2.12533E-04 1.53768E-01 2.48034E-14 1.41847E-13
 -1      2655 1.99737E+01-1.60169E-02-3.76265E-04 1.35846E-01 3.41907E-15 1.53988E-13
 -1      2656 1.99867E+01-1.14928E-02 4.35432E-04 1.32818E-01 7.15239E-15 2.50240E-13
 -1      2657 1.99900E+01-2.16740E-02-1.74678E-04 1.44709E-01 4.13569E-14 1.44470E-13
 -1      2658 1.99913E+01-7.69130E-03-3.26505E-04 1.31293E-01-4.55521E-14 2.84524E-13
 -1      2659 2.00047E+01-3.94339E-03 4.06648E-04 1.30156E-01-9.61960E-14 2.69663E-13
 -1      2660 1.99990E+01-1.15184E-02-1.73270E-04 1.39730E-01-2.68384E-14 1.70839E-13
 -1      2661 2.00109E+01-1.31858E-03-2.27013E-04 1.30653E-01-1.32213E-13 2.81975E-13
 -1      2662 2.00251E+01 6.19663E-04 3.39431E-04 1.30878E-01-9.72403E-14 2.50995E-13
 -1      2663 2.00106E+01-3.15610E-03-2.09627E-04 1.39023E-01-8.63776E-14 3.20375E-13
 -1      2664 2.00336E+01 9.78906E-04-6.66381E-05 1.32735E-01-7.77668E-14 1.87158E-13
 -1      2665 2.00489E+01-2.06260E-04 2.10730E-04 1.33228E-01-6.52186E-14 1.61476E-13
 -1      2666 2.00258E+01 9.36536E-04-2.89170E-04 1.41834E-01-1.43971E-13 2.83837E-13
 -1      2667 2.00610E+01-3.49484E-03 1.72494E-04 1.35159E-01-4.58427E-14 1.62641E-13
 -1      2668 2.00776E+01-9.45627E-03-1.00345E-05 1.34123E-01-5.88390E-14 1.72587E-13
 -1      2669 2.00463E+01-2.35481E-03-4.20364E-04 1.46286E-01-6.71662E-14 2.02580E-13
 -1      2670 2.00949E+01-1.80787E-02 5.11170E-04 1.34039E-01-5.82618E-14 1.90114E-13
 -1      2671 2.01131E+01-3.07630E-02-3.59513E-04 1.28829E-01-2.25247E-14 1.53511E-13
 -1      2672 2.00746E+01-1.69100E-02-6.11806E-04 1.49079E-01-7.19012E-14 2.15927E-13
 -1      2673 2.01378E+01-4.65828E-02 9.65221E-04 1.23640E-01 2.35304E-14 1.58048E-13
 -1      2674 2.01576E+01-6.79911E-02-8.75635E-04 1.10658E-01 6.10918E-14 1.55619E-13
 -1      2675 2.01140E+01-4.72536E-02-8.65789E-04 1.45112E-01 8.61802E-16 2.35643E-13
 -1      2676 2.01919E+01-9.26851E-02 1.53116E-03 9.61159E-02 3.58360E-14 2.25667E-13
 -1      2677 2.02127E+01-1.24318E-01-1.58653E-03 7.08654E-02 4.58649E-14 1.82172E-13
 -1      2678 2.01686E+01-9.79757E-02-1.16662E-03 1.27098E-01 1.68026E-14 1.37615E-13
 -1      2679 2.02590E+01-1.58655E-01 2.16333E-03 4.15738E-02 4.38830E-14 1.24196E-13
 -1      2680 2.02795E+01-2.00512E-01-2.48826E-03-9.64669E-04-1.97315E-14 1.16008E-13
 -1      2681 2.02427E+01-1.72414E-01-1.46253E-03 8.53673E-02-7.39349E-15 1.29920E-13
 -1      2682 2.03387E+01-2.43171E-01 2.74372E-03-5.11472E-02-3.74051E-14 5.23110E-14
 -1      2683 2.03562E+01-2.92236E-01-3.50550E-03-1.15595E-01-4.06949E-14 5.22047E-14
 -1      2684 2.03397E+01-2.70297E-01-1.64231E-03 8.16715E-03-5.82735E-14 1.39788E-13
 -1      2685 2.04267E+01-3.38204E-01 3.05083E-03-1.92406E-01-7.41162E-14 6.69472E-14
 -1      2686 2.04366E+01-3.86599E-01-4.43092E-03-2.81247E-01-7.85696E-14 2.78442E-14
 -1      2687 2.04596E+01-3.84197E-01-1.51606E-03-1.16951E-01-7.04140E-14 1.45585E-13
 -1      2688 2.05119E+01-4.25518E-01 2.76329E-03-3.87668E-01 1.98799E-14 1.67869E-13
 -1      2689 2.05077E+01-4.59025E-01-4.86298E-03-4.98546E-01 1.05310E-13 1.73640E-13
 -1      2690 2.05959E+01-4.95251E-01-8.28524E-04-2.99824E-01 1.38781E-14 2.73891E-13
 -1      2691 2.05745E+01-4.74510E-01 1.52183E-03-6.30916E-01 1.02299E-13 1.29307E-13
 -1      2692 2.05487E+01-4.72975E-01-4.22576E-03-7.53234E-01 8.03369E-14 1.22500E-13
 -1      2693 2.07316E+01-5.69795E-01 6.49511E-04-5.41494E-01 1.45887E-13 2.91446E-13
 -1      2694 2.05870E+01-4.44679E-01-8.99996E-04-8.96230E-01 1.15801E-13 2.55398E-13
 -1      2695 2.05333E+01-3.86493E-01-1.97571E-03-1.00830E+00 5.72096E-14 3.15954E-13
 -1      2696 2.08373E+01-5.60567E-01 2.85333E-03-8.24905E-01 1.40666E-13 3.01350E-13
 -1      2697 2.05217E+01-2.96850E-01-4.23625E-03-1.13102E+00-5.30810E-14 4.06056E-13
 -1      2698 2.04392E+01-1.69061E-01 1.94507E-03-1.20035E+00-1.66765E-14 4.40374E-13
 -1      2699 2.08746E+01-4.17670E-01 5.08686E-03-1.10470E+00 4.87903E-14 4.07268E-13
 -1      2700 2.03657E+01-1.50028E-02-7.41702E-03-1.25818E+00 3.21482E-14 3.80947E-13
 -1      2701 2.02634E+01 1.73027E-01 6.62436E-03-1.24833E+00-6.49150E-15 4.53944E-13
 -1      2702 2.08105E+01-1.12656E-01 5.90206E-03-1.30310E+00-4.34687E-14 3.43896E-13
 -1      2703 2.01395E+01 3.68116E-01-8.43577E-03-1.19571E+00-5.37130E-14 3.57269E-13
 -1      2704 2.00378E+01 5.75213E-01 1.00766E-02-1.08092E+00-5.06284E-14 2.97598E-13
 -1      2705 2.06410E+01 3.30093E-01 4.04853E-03-1.32321E+00-1.27264E-15 3.23996E-13
 -1      2706 1.99054E+01 7.58436E-01-5.88582E-03-8.95082E-01 7.38884E-15 3.67794E-13
 -1      2707 1.98312E+01 9.18186E-01 9.80107E-03-6.78526E-01-1.45706E-14 4.04281E-13
 -1      2708 2.04122E+01 8.13535E-01-3.76739E-04-1.08707E+00 3.43846E-14 3.24019E-13
 -1      2709 1.97502E+01 1.02390E+00 2.57296E-04-3.84362E-01-6.71475E-14 4.84695E-13
 -1      2710 1.97265E+01 1.07483E+00 5.46249E-03-1.08171E-01 1.63446E-14 4.61301E-13
 -1      2711 2.02178E+01 1.18279E+00-5.37948E-03-5.90000E-01-4.25530E-14 4.99960E-13
 -1      2712 1.97364E+01 1.06089E+00 6.68690E-03 2.21352E-01 3.44745E-14 4.31866E-13
 -1      2713 1.97705E+01 9.81934E-01-1.31178E-03 4.89751E-01-2.76091E-14 4.39569E-13
 -1      2714 2.01530E+01 1.30110E+00-6.81452E-03 6.33474E-02 2.68353E-14 4.41370E-13
 -1      2715 1.98671E+01 8.53419E-01 1.05161E-02 7.64801E-01-6.70369E-14 3.82824E-13
 -1      2716 1.99475E+01 6.76643E-01-6.57522E-03 9.60751E-01-9.26239E-14 4.17400E-13
 -1      2717 2.02500E+01 1.11789E+00-4.42058E-03 6.96630E-01-8.49161E-14 3.62377E-13
 -1      2718 2.00819E+01 4.85025E-01 9.85298E-03 1.11713E+00-2.53052E-13 3.05139E-13
 -1      2719 2.01840E+01 2.76358E-01-8.36626E-03 1.20747E+00-2.45659E-13 2.08270E-13
 -1      2720 2.04593E+01 7.08603E-01 1.02752E-03 1.14044E+00-2.73170E-13 1.50741E-13
 -1      2721 2.02996E+01 8.55745E-02 5.89412E-03 1.23220E+00-1.77423E-13 1.11678E-13
 -1      2722 2.03969E+01-9.30186E-02-6.85632E-03 1.22068E+00-3.20851E-13 4.25559E-14
 -1      2723 2.06810E+01 2.21033E-01 5.04434E-03 1.31615E+00-3.13677E-13 1.19076E-13
 -1      2724 2.04570E+01-2.35204E-01 1.05236E-03 1.14278E+00-3.49485E-13 5.12482E-14
 -1      2725 2.05315E+01-3.48681E-01-3.62382E-03 1.05901E+00-2.37070E-13 1.48008E-13
 -1      2726 2.08297E+01-2.00615E-01 6.02943E-03 1.24664E+00-2.35332E-13-9.52017E-14
 -1      2727 2.05301E+01-4.24496E-01-2.64764E-03 9.26030E-01-2.01061E-13 2.80975E-13
 -1      2728 2.05750E+01-4.68934E-01-3.98448E-04 8.07122E-01-1.23820E-13 2.37676E-13
 -1      2729 2.08693E+01-4.72507E-01 4.57838E-03 1.01803E+00-1.67206E-13 1.22157E-13
 -1      2730 2.05277E+01-4.85691E-01-4.51998E-03 6.62002E-01-5.19544E-14 8.46851E-14
 -1      2731 2.05453E+01-4.76981E-01 1.82312E-03 5.38788E-01-7.06241E-14 2.55524E-14
 -1      2732 2.08123E+01-5.82975E-01 2.23250E-03 7.27040E-01-1.58284E-13 4.06167E-14
 -1      2733 2.04741E+01-4.53493E-01-4.86845E-03 4.09295E-01-1.87520E-13 7.29738E-14
 -1      2734 2.04716E+01-4.13310E-01 2.91863E-03 3.01395E-01-2.28612E-13-1.09296E-13
 -1      2735 2.06951E+01-5.67623E-01 2.06632E-04 4.45633E-01-1.60894E-13-1.77219E-13
 -1      2736 2.03949E+01-3.69146E-01-4.31079E-03 2.00410E-01-1.43096E-13-2.77442E-14
 -1      2737 2.03799E+01-3.16206E-01 3.13061E-03 1.16967E-01 4.19851E-14-1.90515E-13
 -1      2738 2.05547E+01-4.76848E-01-1.05513E-03 2.13160E-01-1.54020E-13 9.11834E-14
 -1      2739 2.03095E+01-2.66158E-01-3.39642E-03 4.69823E-02 2.50069E-13-1.90923E-13
 -1      2740 2.02883E+01-2.12849E-01 2.84976E-03-1.02260E-02 2.69212E-13-5.68545E-15
 -1      2741 2.04178E+01-3.54614E-01-1.58311E-03 4.30878E-02 1.51653E-13 6.87527E-14
 -1      2742 2.02289E+01-1.65574E-01-2.47171E-03-5.22184E-02 1.46748E-13-1.55004E-13
 -1      2743 2.02059E+01-1.18357E-01 2.39196E-03-8.53749E-02 1.47082E-13-2.63825E-13
 -1      2744 2.02988E+01-2.30209E-01-1.54362E-03-6.68912E-02 1.49475E-13-2.22243E-13
 -1      2745 2.01585E+01-7.78693E-02-1.67606E-03-1.04230E-01 8.17780E-14-3.66364E-13
 -1      2746 2.01364E+01-3.97107E-02 1.75849E-03-1.16605E-01-1.12996E-13-4.32844E-13
 -1      2747 2.02011E+01-1.19439E-01-1.50010E-03-1.25518E-01-1.33172E-14-4.08073E-13
 -1      2748 1.98318E+01 4.05487E-01 2.68611E-03-2.74328E-01-1.84013E-13 1.25838E-13
 -1      2749 1.97787E+01 4.46995E-01-3.97930E-03-2.25072E-01-2.33670E-13 3.14467E-15
 -1      2750 6.35727E+00 4.39239E-01 2.09725E-01 1.39021E+00-4.83745E-13-4.18665E-13
 -1      2751 6.84399E+00 4.70531E-01 1.16228E-01-1.26752E+00-3.43104E-13-1.96759E-13
 -1      2752 1.98441E+01 9.10352E-03 2.42856E-04-1.80488E-01 1.63817E-14-1.47377E-14
 -1      2753 1.98433E+01 2.79798E-02 1.78379E-03-1.68679E-01 3.89025E-14-1.20981E-14
 -1      2754 1.98929E+01 1.19657E-01-2.25621E-04-7.25096E-02 4.29592E-14-1.98940E-14
 -1      2755 1.99274E+01 1.71047E-01 4.94806E-03-1.69324E-02 3.99752E-14-1.05700E-14
 -1      2756 1.98476E+01-1.48020E-02 3.18557E-04-1.90129E-01 1.07032E-14 2.24379E-15
 -1      2757 1.98381E+01-4.32394E-03 8.74783E-04-1.88614E-01 1.15343E-14-1.01179E-15
 -1      2758 1.99319E+01 7.60184E-03-1.28942E-03-1.84260E-01 2.06517E-14-9.93334E-15
 -1      2759 1.98610E+01-2.66956E-02 3.58473E-04-1.85353E-01 7.06673E-14-2.78403E-14
 -1      2760 1.98466E+01-2.18941E-02 2.86861E-04-1.89582E-01 3.05500E-14-2.81045E-14
 -1      2761 1.99246E+01-1.99721E-02-8.92912E-04-1.94679E-01 2.60532E-14-6.21759E-14
 -1      2762 1.98802E+01-3.03309E-02 3.91483E-04-1.73345E-01 7.71593E-14-1.62978E-14
 -1      2763 1.98634E+01-2.94450E-02-8.21749E-05-1.80169E-01 1.03284E-13-1.93141E-14
 -1      2764 1.99264E+01-3.32088E-02-6.04002E-04-1.90616E-01 8.28168E-14-5.59163E-14
 -1      2765 1.99027E+01-2.81204E-02 4.35499E-04-1.59195E-01 4.08873E-14 2.53697E-14
 -1      2766 1.98848E+01-3.00283E-02-3.03727E-04-1.66390E-01 2.56273E-14 1.88218E-14
 -1      2767 1.99343E+01-3.65193E-02-4.04816E-04-1.79400E-01 3.94271E-14 2.82690E-15
 -1      2768 1.99270E+01-2.15183E-02 5.03896E-04-1.46622E-01 1.82635E-14 3.68632E-14
 -1      2769 1.99087E+01-2.55676E-02-4.30205E-04-1.52544E-01 7.45048E-14 5.43222E-14
 -1      2770 1.99460E+01-3.27225E-02-2.75189E-04-1.66295E-01 3.41453E-14 3.61120E-15
 -1      2771 1.99525E+01-1.12105E-02 6.09667E-04-1.38516E-01-1.11367E-14 2.10506E-14
 -1      2772 1.99338E+01-1.71368E-02-5.02058E-04-1.41848E-01-6.27383E-15 3.70732E-14
 -1      2773 1.99601E+01-2.34704E-02-1.95328E-04-1.55186E-01 1.40288E-14 1.28697E-13
 -1      2774 1.99792E+01 2.82031E-03 7.67903E-04-1.37401E-01 2.14159E-14 3.78117E-14
 -1      2775 1.99597E+01-5.08447E-03-5.52876E-04-1.36928E-01 1.93770E-14 4.74072E-14
 -1      2776 1.99758E+01-9.45798E-03-1.46402E-04-1.49129E-01-4.89769E-15 9.08350E-14
 -1      2777 2.00076E+01 2.13252E-02 9.97611E-04-1.45856E-01 1.16769E-13-1.22870E-14
 -1      2778 1.99867E+01 1.09469E-02-6.13911E-04-1.40251E-01 5.33848E-14 6.61277E-14
 -1      2779 1.99924E+01 9.51534E-03-1.08104E-04-1.50811E-01 2.61653E-14 1.34103E-13
 -1      2780 2.00384E+01 4.59237E-02 1.32319E-03-1.66939E-01 5.59871E-14 5.32547E-14
 -1      2781 2.00149E+01 3.21003E-02-7.19046E-04-1.54542E-01 8.96955E-14-2.76134E-15
 -1      2782 2.00096E+01 3.46060E-02-5.40949E-05-1.62963E-01 9.35483E-14 1.48124E-13
 -1      2783 2.00718E+01 7.93560E-02 1.77492E-03-2.04671E-01 9.47118E-15 1.17741E-13
 -1      2784 2.00446E+01 6.04934E-02-9.10660E-04-1.83213E-01 5.63678E-14 1.07634E-13
 -1      2785 2.00262E+01 6.81133E-02 5.43311E-05-1.88761E-01 3.39634E-14 2.05703E-13
 -1      2786 2.01075E+01 1.25870E-01 2.38724E-03-2.64575E-01-3.65621E-14 6.41032E-14
 -1      2787 2.00754E+01 9.95343E-02-1.24720E-03-2.30863E-01-4.74815E-14 7.43780E-14
 -1      2788 2.00407E+01 1.13810E-01 2.78600E-04-2.32236E-01 1.33670E-14 1.63753E-13
 -1      2789 2.01436E+01 1.91739E-01 3.19242E-03-3.54325E-01-5.89445E-14 2.01620E-14
 -1      2790 2.01057E+01 1.54377E-01-1.81290E-03-3.03848E-01-4.98871E-14 1.26545E-14
 -1      2791 2.00492E+01 1.77422E-01 7.18933E-04-2.98694E-01-1.84932E-14 8.03841E-14
 -1      2792 2.01750E+01 2.85816E-01 4.20477E-03-4.84420E-01 4.00950E-14-1.35924E-14
 -1      2793 2.01312E+01 2.32478E-01-2.73010E-03-4.10926E-01-1.07194E-14 4.14402E-14
 -1      2794 2.00449E+01 2.67224E-01 1.53781E-03-3.95108E-01-2.29315E-14 1.52018E-14
 -1      2795 2.01906E+01 4.19817E-01 5.38878E-03-6.68735E-01 7.51893E-14-1.17286E-15
 -1      2796 2.01429E+01 3.44088E-01-4.17413E-03-5.63888E-01 5.55805E-14 5.18281E-15
 -1      2797 2.00153E+01 3.94559E-01 2.99003E-03-5.30380E-01 6.04019E-14 2.20921E-14
 -1      2798 2.01703E+01 6.07431E-01 6.61001E-03-9.24577E-01-6.52451E-15 5.17860E-14
 -1      2799 2.01240E+01 5.02120E-01-6.38866E-03-7.77967E-01 7.17330E-14-3.50783E-15
 -1      2800 1.99390E+01 5.73773E-01 5.45108E-03-7.15278E-01 8.46802E-14 5.87952E-14
 -1      2801 2.00792E+01 8.60103E-01 7.61740E-03-1.27160E+00-5.73534E-14-4.88592E-14
 -1      2802 2.00455E+01 7.20001E-01-9.68847E-03-1.07166E+00-4.27125E-14 4.81474E-14
 -1      2803 1.97805E+01 8.20251E-01 9.42230E-03-9.61801E-01-3.48545E-14 3.96077E-14
 -1      2804 1.98642E+01 1.17476E+00 8.31926E-03-1.72882E+00-9.63461E-14-6.07193E-14
 -1      2805 1.98611E+01 1.00423E+00-1.43637E-02-1.46547E+00-3.46487E-14-3.35100E-14
 -1      2806 1.94844E+01 1.14366E+00 1.55036E-02-1.28197E+00-6.87880E-14 5.47312E-14
 -1      2807 1.94588E+01 1.50430E+00 1.02199E-02-2.31002E+00-2.18997E-13 3.63201E-14
 -1      2808 1.95053E+01 1.33488E+00-2.01268E-02-1.97984E+00-1.38589E-13-1.32951E-14
 -1      2809 1.89703E+01 1.53084E+00 2.44820E-02-1.68736E+00-1.21877E-13 1.03106E-13
 -1      2810 1.88103E+01 1.69401E+00 1.93182E-02-3.02105E+00-1.59085E-13 7.82824E-14
 -1      2811 1.89055E+01 1.62096E+00-2.41458E-02-2.63486E+00-1.68141E-13 6.13450E-14
 -1      2812 1.81333E+01 1.90871E+00 3.81251E-02-2.19496E+00-2.19223E-13 5.27555E-14
 -1      2813 1.79810E+01 1.37689E+00 5.54401E-02-3.85476E+00-3.46517E-13 1.12268E-13
 -1      2814 1.80370E+01 1.61438E+00-1.42516E-02-3.44719E+00-2.70235E-13 9.80709E-14
 -1      2815 1.68823E+01 2.06729E+00 6.62182E-02-2.85535E+00-2.26597E-13 7.80092E-14
 -1      2816 1.71053E+01-3.45706E-01 6.11579E-02-4.93114E+00-2.73115E-13 2.05856E-13
 -1      2817 1.69954E+01 8.81800E-01 5.49849E-02-4.47475E+00-3.20834E-13 1.01912E-13
 -1      2818 1.51526E+01 1.58720E+00 1.33598E-01-3.74117E+00-3.33338E-13 1.16483E-13
 -1      2819 1.97076E+01 9.55232E-01-1.31558E-02 1.31232E+00-1.30742E-14 2.54956E-13
 -1      2820 1.96728E+01 1.12262E+00 5.44404E-03 1.53756E+00 1.52681E-13 1.35227E-13
 -1      2821 6.03711E+00 2.56472E-01 1.61990E-01-2.12920E-01-2.55608E-13 1.51545E-13
 -1      2822 6.29717E+00-8.06577E-02 1.70238E-01-2.99897E+00-2.56656E-13 2.75474E-13
 -1      2823 1.99282E+01 4.69362E-01 2.60297E-03 4.81081E-01-8.70643E-14-1.17581E-13
 -1      2824 2.00177E+01 3.97770E-01-2.55489E-03 5.27128E-01-1.16683E-13-6.10106E-14
 -1      2825 2.00499E+01 4.53250E-01 5.12535E-03 6.27381E-01-3.63019E-14 5.27727E-14
 -1      2826 1.63551E+01-4.96276E+00 8.18558E-02-6.04966E+00 8.28781E-14 2.51396E-13
 -1      2827 2.04531E+01-4.78013E+00-1.45089E-02-5.53783E+00-2.26763E-14 3.54196E-13
 -1      2828 1.98566E+01 5.08355E-02 8.41062E-05-1.46160E-01 5.34496E-14-7.05849E-15
 -1      2829 1.98700E+01 8.23998E-02 3.13774E-03-1.17364E-01 6.47409E-14 7.03228E-15
 -1      2830 1.99529E+01 5.63193E-02-1.79670E-03-1.49033E-01 5.61781E-14-1.51680E-14
 -1      2831 1.93289E+01 1.28933E+00-1.87327E-02 1.73867E+00 2.11009E-13 1.33594E-13
 -1      2832 1.92253E+01 1.47526E+00 5.58546E-03 2.02333E+00 1.05677E-13 1.25441E-13
 -1      2833 1.89431E+01 1.44077E+00 2.23793E-02 1.45839E+00 1.17762E-13-1.92175E-13
 -1      2834 1.46747E+01-9.67483E-01 2.00929E-01 5.19751E+00-2.13010E-13-2.48745E-13
 -1      2835 1.86872E+01 1.63180E+00-2.48253E-02 2.27959E+00 1.82306E-13 1.89940E-13
 -1      2836 1.84973E+01 1.77073E+00 1.04419E-02 2.62406E+00 3.52842E-13 1.72353E-13
 -1      2837 1.81368E+01 1.85171E+00 3.52919E-02 1.85027E+00 2.47104E-13 1.44070E-13
 -1      2838 1.99059E+01 6.88527E-01-1.04808E-02 9.80357E-01-1.91969E-13 1.78010E-13
 -1      2839 1.99189E+01 8.20853E-01 6.64360E-03 1.15507E+00 2.13072E-14 3.63041E-13
 -1      2840 1.94396E+01 1.06411E+00 1.34026E-02 1.13712E+00-1.15975E-13 2.67396E-13
 -1      2841 1.99816E+01 5.10205E-01-7.34827E-03 7.22207E-01 2.63521E-14-2.61478E-14
 -1      2842 2.00134E+01 6.06091E-01 7.24260E-03 8.54923E-01-1.08642E-13 8.29033E-14
 -1      2843 1.96968E+01 7.87795E-01 6.50951E-03 8.71550E-01 5.16476E-15 1.77228E-13
 -1      2844 1.98308E+01 6.01599E-01 3.03531E-03 6.56037E-01-3.08098E-14 6.75096E-14
 -1      2845 1.97349E+01 5.17881E-01 1.57656E-03-1.53390E-01-2.57368E-13-4.51984E-13
 -1      2846 1.96986E+01 5.45318E-01-4.10944E-03-7.85180E-02-3.83303E-15-3.25918E-13
 -1      2847 1.97021E+01 4.77614E-01 1.34953E-03-2.36645E-01-1.83355E-13-3.62355E-13
 -1      2848 1.98368E+01 5.25318E-01-2.44651E-03 4.28324E-01 1.07191E-13-2.38541E-14
 -1      2849 1.96803E+01 5.92643E-01-2.00689E-04 2.19004E-02 7.09773E-14-2.39561E-13
 -1      2850 1.96764E+01 5.96681E-01-3.46389E-03 1.09174E-01 1.10324E-13-4.03967E-13
 -1      2851 1.96176E+01 5.91363E-01 2.89466E-03-5.68636E-02-1.32388E-13-5.20963E-13
 -1      2852 1.99368E+01 2.82825E-01 2.85093E-03-3.30016E-01-1.15224E-13 8.48206E-14
 -1      2853 1.98835E+01 3.29185E-01-3.05495E-03-3.09792E-01-2.27170E-13 2.11817E-13
 -1      2854 1.98259E+01 3.37461E-01-4.27153E-04-3.45939E-01-8.58673E-14 1.46273E-13
 -1      2855 2.00235E+01 1.74009E-01 2.40138E-03-3.27699E-01 1.66147E-14 3.90265E-13
 -1      2856 1.99821E+01 2.16862E-01-1.67549E-03-3.32137E-01-1.14551E-13 2.79802E-13
 -1      2857 1.99506E+01 2.03006E-01-1.58257E-03-3.81100E-01-1.17320E-13 3.37982E-13
 -1      2858 2.00811E+01 8.89620E-02 1.59909E-03-2.84401E-01 1.32518E-13 1.45958E-13
 -1      2859 2.00558E+01 1.24883E-01-3.24779E-04-3.05744E-01 5.77815E-14 1.72124E-13
 -1      2860 2.00496E+01 9.43144E-02-2.04234E-03-3.56262E-01-6.24908E-14 3.40039E-13
 -1      2861 2.01052E+01 3.20356E-02-1.47894E-05-2.20758E-01 2.99937E-13 3.67139E-13
 -1      2862 2.00970E+01 6.02068E-02 7.68159E-04-2.49655E-01 2.78732E-13 3.71464E-13
 -1      2863 2.01100E+01 2.08066E-02-1.98074E-03-2.93466E-01 8.65845E-14 3.47613E-13
 -1      2864 1.63804E+01 1.44175E+00 1.45495E-03 3.82770E+00 5.79016E-14-3.35787E-13
 -1      2865 1.61120E+01 7.22709E-01 3.53959E-02 4.35151E+00-1.12528E-13-2.99087E-13
 -1      2866 2.03379E+01 1.50042E+00-1.89323E-03 1.26691E+00 7.78292E-14-4.19309E-14
 -1      2867 2.96731E+01-1.01026E+00-9.11997E-04 2.51143E-01 7.25808E-14 2.02616E-15
 -1      2868 2.95834E+01 7.92484E-01-1.65906E-01 1.21404E+00-8.84987E-14-1.39055E-14
 -1      2869 1.44082E+01-3.23291E+00 1.32112E-01-6.08706E+00-6.03406E-14 1.87100E-13
 -1      2870 8.55211E+00-1.16940E+00 1.36464E-01 5.70902E+00-3.20480E-13-5.73819E-13
 -1      2871 6.68482E+00-2.12126E-01 1.78382E-01 3.61801E+00-3.68566E-13-5.16615E-13
 -1      2872 3.06002E+01 4.30273E+00-2.15102E-01-1.60271E+00-2.36061E-13 2.17104E-13
 -1      2873 3.05841E+01 2.28380E+00-9.60972E-02-1.32715E+00-1.17406E-13 2.96430E-14
 -1      2874 1.77006E+01 1.80873E+00-2.49763E-02 2.96183E+00 5.94481E-14 9.24122E-14
 -1      2875 1.74398E+01 1.73348E+00 2.71399E-02 3.36486E+00-8.55425E-15-8.05883E-14
 -1      2876 1.68885E+01 2.15704E+00 5.57795E-02 2.33769E+00 9.67152E-14-6.60034E-14
 -1      2877 2.00706E+01 4.16087E-01-1.36777E-03 2.87731E-01 6.05258E-14-2.25626E-14
 -1      2878 2.01711E+01 5.53677E-01 1.02677E-02 4.50235E-01 7.13329E-14-2.71128E-14
 -1      2879 2.02541E+01 8.22871E-01 1.06079E-03 6.16896E-01 7.12654E-14-6.69841E-14
 -1      2880 1.99620E+01 2.31933E-01-6.10416E-04 6.20825E-02 5.40768E-14-2.01327E-14
 -1      2881 2.00263E+01 3.15135E-01 7.49137E-03 1.59519E-01 5.83192E-14-1.17755E-14
 -1      2882 2.01470E+01 4.79509E-01-1.24557E-03 2.79702E-01 5.22272E-14-4.90826E-14
 -1      2883 2.00573E+01 2.68204E-01-2.12666E-03 5.99374E-02 5.50591E-14-4.11645E-14
 -1      2884 9.31886E+00-8.32696E-01 9.60618E-02 4.31476E+00-3.44266E-13-5.33767E-13
 -1      2885 7.03274E+00-2.07071E-02 2.01475E-01 2.10893E+00-3.33726E-13-1.92180E-13
 -1      2886 1.96959E+01 6.05768E-01-2.62623E-03 2.19424E-01 4.79907E-14-1.35777E-13
 -1      2887 1.97371E+01 5.84082E-01 2.44081E-04 2.97249E-01 7.27600E-14-1.36017E-13
 -1      2888 1.96100E+01 6.46314E-01 3.25443E-03 1.64166E-01-7.41288E-14-1.88057E-13
 -1      2889 3.02085E+01-1.37917E-01-1.84052E-01-3.84940E-01-6.64746E-15-1.09385E-13
 -1      2890 2.93600E+01-1.90453E+00-1.37248E-02 7.21256E-01 1.08843E-13-2.45873E-13
 -1      2891 3.01621E+01 7.43743E+00-2.20571E-01-8.44626E-01-3.09253E-13 2.27304E-13
 -1      2892 3.04910E+01 6.36008E+00-1.50462E-01-1.46145E+00-2.73614E-13 2.98872E-13
 -1      2893 1.99243E+01 2.59635E+00-7.93425E-03 7.94176E-01 4.33345E-14-5.67177E-14
 -1      2894 1.98804E+01 2.68864E+00-6.17263E-03 6.45127E-01 1.14549E-14-7.38615E-14
 -1      2895 1.99995E+01 2.38937E+00 4.45473E-03 5.16534E-01 1.59464E-15-7.43744E-14
 -1      2896 2.00809E+01 2.19117E+00 5.64452E-03 7.45299E-01 3.92116E-14-5.55310E-14
 -1      2897 1.98755E+01 2.69746E+00-6.04076E-03-6.35103E-01-4.51915E-14-5.19242E-14
 -1      2898 1.99183E+01 2.60769E+00-7.68400E-03-7.84455E-01-4.84355E-14-4.80202E-14
 -1      2899 2.01093E+01-1.80948E-02-9.87072E-04-1.18288E-01-1.65063E-14-3.13079E-13
 -1      2900 2.00946E+01 2.62102E-03 5.97648E-04-1.17758E-01-5.67569E-14-1.58003E-13
 -1      2901 2.01383E+01-4.27223E-02-8.44736E-04-1.43213E-01-2.59939E-14-5.50927E-13
 -1      2902 2.00935E+01 1.07856E-02-5.53074E-04-1.38946E-01 3.34134E-14-1.69326E-13
 -1      2903 2.76770E+01-3.87882E+00-1.41752E-01 2.70534E+00 1.18495E-13-4.18679E-13
 -1      2904 2.55837E+01-4.60963E+00 7.56995E-02 4.36029E+00 5.51018E-14-4.62588E-13
 -1      2905 2.69625E+01-4.23486E+00 9.58398E-02-3.62217E+00-1.27343E-13-2.52354E-13
 -1      2906 2.85502E+01-3.11702E+00-1.67649E-01-1.65989E+00 9.95523E-14-1.41429E-13
 -1      2907 1.27115E+01-2.90157E+00 1.93292E-01-7.36805E+00 3.41616E-13 1.35780E-13
 -1      2908 1.61007E+01-3.82137E+00 3.67605E-02-7.58854E+00 3.41505E-13-2.01977E-13
 -1      2909 1.23343E+01-1.82177E+00 1.61703E-01-6.57532E+00 2.44471E-13 1.81799E-14
 -1      2910 2.94832E+01 3.59967E+00-1.22210E-01 1.77919E+00-2.96957E-13 1.82479E-13
 -1      2911 3.00014E+01 5.65981E+00-1.80346E-01 1.58002E+00-3.68761E-13-1.18350E-13
 -1      2912 1.02644E+01 5.52518E-01 2.18164E-01-3.45004E+00-3.29653E-13 4.61020E-14
 -1      2913 1.29545E+01-8.41373E-01 2.01805E-01-5.11358E+00-2.60625E-13-6.17284E-14
 -1      2914 1.43329E+01 1.60659E-01 1.25617E-01 4.54078E+00-2.39683E-13-2.86202E-13
 -1      2915 2.00737E+01 2.20483E+00 5.71502E-03-7.38677E-01-4.14222E-14-2.31376E-14
 -1      2916 1.99726E+01 2.48795E+00-6.13719E-03-9.01092E-01-5.84708E-14-2.47224E-14
 -1      2917 2.00270E+01 2.35135E+00-1.16783E-02-1.04110E+00-8.32086E-14-1.18486E-14
 -1      2918 1.79895E+01-3.79220E+00 1.07959E-01 7.06667E+00-3.25573E-14-4.30933E-13
 -1      2919 1.99339E+01 2.53965E+00 3.43773E-03 4.52223E-03-1.34272E-14-8.52537E-14
 -1      2920 1.97949E+01 2.87090E+00-5.48812E-03-6.19218E-02-1.79328E-14-9.72495E-14
 -1      2921 1.98024E+01 2.85625E+00-5.54511E-03-2.16585E-01-2.23333E-14-1.00224E-13
 -1      2922 2.42545E+01-4.53510E+00 4.91153E-02 4.65032E+00 1.05679E-13-3.71470E-13
 -1      2923 1.98179E+01 2.82074E+00-5.68945E-03-3.51679E-01-2.63647E-14-5.33159E-14
 -1      2924 1.98421E+01 2.77241E+00-6.16151E-03-5.05233E-01-5.18198E-14-2.82305E-14
 -1      2925 1.99947E+01 2.39688E+00 4.21975E-03-5.07429E-01-3.37524E-14-3.68315E-14
 -1      2926 1.99484E+01 2.50556E+00 3.62205E-03-2.55665E-01-2.18477E-14-7.50914E-14
 -1      2927 8.16700E+00 7.48049E-01 1.87009E-01 2.37731E+00-3.69559E-13-3.89716E-13
 -1      2928 2.87044E+01 6.00897E+00-1.50994E-01 1.51522E+00-3.79419E-13 5.07788E-14
 -1      2929 2.93358E+01 7.47852E+00-1.55324E-01-3.41821E-01-3.11029E-13 5.31936E-14
 -1      2930 2.77910E+01 6.66220E+00-1.08600E-01-8.09877E-01-2.06779E-13 1.49217E-13
 -1      2931 2.79947E+01 7.14674E+00-1.57244E-01 2.25156E-01-3.27405E-13 1.34083E-13
 -1      2932 1.06533E+01 1.14631E+00 9.79730E-02-2.39563E+00-3.82375E-13-4.72400E-14
 -1      2933 8.36549E+00 9.15918E-01 1.64101E-01 8.66536E-01-2.10873E-13-1.27148E-13
 -1      2934 1.90370E+01-2.10452E+00 2.11636E-01-5.52552E+00-1.60733E-13 4.27797E-13
 -1      2935 8.57028E+00 2.58580E-01 1.88435E-01-3.62618E+00-1.56139E-13 1.34281E-13
 -1      2936 2.00990E+01 2.66603E-02 1.01307E-03-1.65969E-01 7.08106E-14 8.10221E-14
 -1      2937 1.99930E+01 1.36756E-01-2.30075E-03-7.43907E-02 4.35639E-14-2.58111E-14
 -1      2938 2.03021E+01 1.73037E+00-9.30083E-03-1.32277E+00-1.21111E-13 5.06035E-14
 -1      2939 2.02880E+01 1.32813E+00-6.62158E-03-1.03856E+00-1.14393E-13 5.52029E-14
 -1      2940 1.97408E+01 5.98001E-01 1.42470E-03 4.27296E-01 2.46377E-14-8.89246E-14
 -1      2941 1.20089E+01 1.28292E+00 2.09613E-01 3.39205E+00-2.62346E-13-2.82024E-13
 -1      2942 2.01278E+01-8.98920E-03 6.55608E-04-1.97725E-01 7.37135E-14 5.11262E-15
 -1      2943 1.51442E+01 2.00172E+00 1.00629E-01 3.02578E+00-1.94138E-13-4.43692E-13
 -1      2944 2.02905E+01 1.58791E+00-1.19659E-03 1.16564E+00 7.63701E-14-7.26220E-14
 -1      2945 1.90126E+01-4.18285E+00 1.61393E-01-7.11531E+00 1.73569E-13 3.14263E-14
 -1      2946 2.10859E+01-4.57553E+00-6.22951E-02-6.15470E+00 3.39728E-14 9.47471E-14
 -1      2947 1.73657E+01-3.34676E+00 8.29829E-02-6.91854E+00 9.00252E-14 1.19300E-13
 -1      2948 2.82787E+01-2.35149E+00-3.41136E-02-5.63656E-01 8.54612E-15 2.40086E-15
 -1      2949 1.09293E+01-1.43303E+00 1.85378E-01 6.28824E+00-2.63622E-13-4.56468E-13
 -1      2950 1.08128E+01-3.00681E-01 1.37966E-01 5.28929E+00-3.25129E-13-3.95253E-13
 -1      2951 1.31410E+01-1.88313E+00-4.84543E-03 6.58546E+00-1.92527E-13-3.87301E-13
 -1      2952 2.54339E+01-4.56708E+00 4.06863E-02-4.21399E+00-1.54265E-13-1.88544E-13
 -1      2953 2.02779E+01 1.41295E+00 2.18831E-03-9.42729E-01-1.03163E-13 4.82813E-14
 -1      2954 2.92652E+01 8.58337E-01-5.42917E-02-1.36393E+00-9.10591E-14 1.69198E-13
 -1      2955 2.02795E+01 1.36690E+00 2.08482E-03 9.19354E-01 7.10556E-14-7.94277E-14
 -1      2956 2.90770E+01 4.80234E+00-1.05577E-01-1.78606E+00-2.09555E-13 2.90573E-13
 -1      2957 2.79226E+01-2.94868E+00-1.76349E-02 1.18003E+00 1.51795E-13-5.98827E-14
 -1      2958 2.78782E+01 7.43868E-01-5.71006E-02 1.60756E+00-1.94039E-13 2.64642E-13
 -1      2959 2.88681E+01 2.06283E+00-1.03332E-01 1.84938E+00-1.61246E-13 1.25594E-13
 -1      2960 2.74723E+01 3.19463E+00-1.05159E-01 2.11199E+00-3.35232E-13 2.01165E-13
 -1      2961 1.52239E+01-1.06435E+00 1.03423E-01-5.17818E+00-2.37865E-13 8.36969E-14
 -1      2962 9.53310E+00 8.81497E-01 1.36487E-01 3.34982E+00-2.94206E-13-3.16441E-13
 -1      2963 8.97842E+00 1.48951E+00 8.86868E-02 1.24227E+00-3.81322E-13-2.89130E-13
 -1      2964 2.02404E+01 1.48216E+00-6.08893E-03 8.03068E-01 4.83186E-14-6.83183E-14
 -1      2965 2.02020E+01 1.67009E+00-3.41515E-04 7.46797E-01 4.30346E-14-5.52530E-14
 -1      2966 1.95517E+01-3.80677E+00-6.61502E-02 6.27764E+00 4.47836E-14-3.84720E-13
 -1      2967 1.65413E+01-2.63297E+00 1.92918E-01 6.73165E+00-1.15179E-13-3.83304E-13
 -1      2968 1.99961E+01-2.36327E-02 1.87137E-04-1.89810E-01 7.76291E-14-1.09887E-13
 -1      2969 1.99990E+01-1.01481E-02 8.80462E-04-1.87412E-01 4.83649E-14-8.20470E-14
 -1      2970 2.79580E+01 1.56409E+00-1.56997E-01-1.86617E+00-2.32904E-13 2.37921E-13
 -1      2971 2.80905E+01-9.49493E-02 5.87777E-03-1.30814E+00-5.27356E-14 9.19750E-14
 -1      2972 2.02698E+01 7.14736E-01 4.32717E-03-3.44919E-01-6.79857E-14 2.63537E-14
 -1      2973 2.02271E+01 5.52312E-01-3.54231E-03-2.13890E-01-7.26400E-14 1.29928E-14
 -1      2974 2.02215E+01 4.24615E-01 4.09331E-03-1.18800E-01-6.80821E-14 3.99243E-14
 -1      2975 2.01823E+01 3.17280E-01-2.27646E-03-3.35929E-02-5.47123E-14 1.24550E-14
 -1      2976 2.02729E+01 5.81225E-01-2.99302E-04-1.87753E-01-5.22926E-14 3.93655E-14
 -1      2977 2.01680E+01 2.34191E-01 3.16309E-03 2.83288E-02-7.02944E-14 2.49664E-14
 -1      2978 2.01379E+01 1.64202E-01-1.27917E-03 7.98447E-02-9.48225E-14 1.06667E-14
 -1      2979 2.02380E+01 3.34554E-01-8.68366E-04-2.42984E-02-6.72852E-14-1.37748E-16
 -1      2980 2.01211E+01 1.10803E-01 2.21431E-03 1.16376E-01-1.02855E-13 1.24744E-14
 -1      2981 2.01001E+01 6.63870E-02-5.93270E-04 1.44372E-01-7.21834E-14-4.62331E-15
 -1      2982 2.01973E+01 1.71544E-01-1.01485E-03 7.95305E-02-1.01025E-13 3.82934E-14
 -1      2983 2.00837E+01 3.32294E-02 1.43408E-03 1.62980E-01-2.02661E-14-3.26976E-14
 -1      2984 2.00704E+01 6.44526E-03-1.47104E-04 1.75356E-01-2.22645E-14 1.90467E-16
 -1      2985 2.01581E+01 6.68693E-02-9.67452E-04 1.39033E-01-5.19585E-14-1.17221E-14
 -1      2986 2.00557E+01-1.27854E-02 8.39842E-04 1.82118E-01-3.65552E-16 4.52622E-14
 -1      2987 2.00481E+01-2.73834E-02 1.33012E-04 1.84729E-01-1.91101E-15 9.52150E-14
 -1      2988 2.01238E+01 2.90402E-03-8.37736E-04 1.67789E-01 5.93187E-15-1.67050E-15
 -1      2989 2.00355E+01-3.70122E-02 4.08277E-04 1.84279E-01-4.77752E-14 1.31800E-13
 -1      2990 2.00322E+01-4.32228E-02 3.04472E-04 1.81356E-01-7.09590E-14 1.55636E-13
 -1      2991 2.00951E+01-3.27167E-02-6.89241E-04 1.76650E-01-1.31433E-15 2.44428E-14
 -1      2992 2.00216E+01-4.62828E-02 1.07138E-04 1.77113E-01-8.98658E-14 1.85014E-13
 -1      2993 2.00212E+01-4.68088E-02 4.06018E-04 1.71657E-01-7.40066E-14 1.49040E-13
 -1      2994 2.00717E+01-4.87190E-02-5.50598E-04 1.73839E-01-5.96704E-14 1.35960E-13
 -1      2995 2.00126E+01-4.54793E-02-9.40462E-05 1.66072E-01-5.75231E-14 2.14235E-13
 -1      2996 2.00143E+01-4.22899E-02 4.63823E-04 1.60155E-01-6.64238E-15 1.54050E-13
 -1      2997 2.00531E+01-5.13528E-02-4.32565E-04 1.65384E-01-5.15611E-14 2.18525E-13
 -1      2998 2.00074E+01-3.81880E-02-2.19755E-04 1.54936E-01 1.22685E-14 1.53153E-13
 -1      2999 2.00105E+01-3.27804E-02 4.95021E-04 1.49937E-01 3.37692E-14 1.55363E-13
 -1      3000 2.00386E+01-4.51939E-02-3.39710E-04 1.55577E-01 2.30818E-14 2.31467E-13
 -1      3001 2.00052E+01-2.71859E-02-2.85825E-04 1.46226E-01 1.60232E-14 1.39836E-13
 -1      3002 2.00096E+01-2.08044E-02 5.09646E-04 1.42978E-01 1.80044E-14 1.16923E-13
 -1      3003 2.00276E+01-3.37316E-02-2.76328E-04 1.47384E-01-1.38975E-14 1.01645E-13
 -1      3004 2.00059E+01-1.48573E-02-2.98971E-04 1.41472E-01 2.09158E-14 1.11874E-13
 -1      3005 2.00115E+01-8.68998E-03 5.11901E-04 1.40349E-01-9.71746E-15 1.21291E-13
 -1      3006 2.00198E+01-1.98614E-02-2.47782E-04 1.42751E-01 1.84649E-14 8.91319E-14
 -1      3007 2.00097E+01-3.56853E-03-2.56528E-04 1.41353E-01-3.62418E-14 1.79402E-13
 -1      3008 2.00169E+01 1.06776E-03 5.00476E-04 1.42283E-01-9.82393E-14 2.32882E-13
 -1      3009 2.00154E+01-6.33099E-03-2.63476E-04 1.42786E-01 7.38171E-15 8.37143E-14
 -1      3010 2.00177E+01 3.97542E-03-1.45520E-04 1.45708E-01-1.22132E-13 2.72462E-13
 -1      3011 2.00269E+01 5.45969E-03 4.67725E-04 1.48127E-01-1.22788E-13 2.90653E-13
 -1      3012 2.00153E+01 3.84063E-03-3.38471E-04 1.47829E-01-8.85911E-14 1.40152E-13
 -1      3013 2.00317E+01 4.40299E-03 5.74257E-05 1.53412E-01-1.27058E-13 2.47062E-13
 -1      3014 2.00440E+01 6.67335E-04 3.98027E-04 1.56151E-01-8.69534E-14 2.18062E-13
 -1      3015 2.00212E+01 6.96913E-03-4.93666E-04 1.57384E-01-1.13135E-13 2.58593E-13
 -1      3016 2.00547E+01-6.56465E-03 3.84940E-04 1.62102E-01-3.66959E-14 2.71579E-13
 -1      3017 2.00713E+01-1.80942E-02 2.65448E-04 1.63219E-01-4.83054E-14 2.66424E-13
 -1      3018 2.00361E+01-1.61783E-03-7.55007E-04 1.69908E-01-7.52819E-14 2.87896E-13
 -1      3019 2.00911E+01-3.41503E-02 8.74850E-04 1.67776E-01-6.39456E-14 2.60986E-13
 -1      3020 2.01137E+01-5.64400E-02 3.08014E-05 1.64353E-01-1.28580E-14 2.40879E-13
 -1      3021 2.00648E+01-2.77175E-02-1.14875E-03 1.82424E-01-2.94562E-14 3.15662E-13
 -1      3022 2.01467E+01-8.41524E-02 1.55989E-03 1.64257E-01 9.90697E-15 2.13242E-13
 -1      3023 2.01771E+01-1.20129E-01-3.60049E-04 1.52218E-01 3.54317E-14 2.29742E-13
 -1      3024 2.01138E+01-7.80045E-02-1.69053E-03 1.89949E-01-5.32196E-14 2.58384E-13
 -1      3025 2.02282E+01-1.61864E-01 2.44705E-03 1.42661E-01-1.17216E-14 1.87694E-13
 -1      3026 2.02681E+01-2.13473E-01-9.72143E-04 1.16711E-01-5.21550E-14 1.61012E-13
 -1      3027 2.01916E+01-1.59077E-01-2.36468E-03 1.84779E-01-2.62717E-14 2.32628E-13
 -1      3028 2.03425E+01-2.69890E-01 3.48204E-03 9.10633E-02-4.66367E-14 2.22456E-13
 -1      3029 2.03925E+01-3.36420E-01-1.86115E-03 4.49531E-02-4.71982E-14 2.65286E-13
 -1      3030 2.03081E+01-2.75352E-01-3.09060E-03 1.55746E-01-7.07699E-16 2.81202E-13
 -1      3031 2.04938E+01-4.04478E-01 4.49644E-03-5.13181E-03-9.64072E-14 2.55737E-13
 -1      3032 2.05524E+01-4.80037E-01-3.01670E-03-7.76732E-02-9.28096E-14 3.46544E-13
 -1      3033 2.04720E+01-4.25307E-01-3.67510E-03 8.78232E-02-4.72331E-14 2.95508E-13
 -1      3034 2.06802E+01-5.50281E-01 5.13585E-03-1.61175E-01-4.48991E-14 3.23568E-13
 -1      3035 2.07418E+01-6.20678E-01-4.24429E-03-2.64332E-01 6.70718E-14 3.29722E-13
 -1      3036 2.06877E+01-5.95676E-01-3.75815E-03-3.70919E-02-6.73826E-14 3.19555E-13
 -1      3037 2.08872E+01-6.74485E-01 4.86073E-03-3.87813E-01 1.69347E-13 2.97779E-13
 -1      3038 2.09416E+01-7.14826E-01-5.00379E-03-5.19866E-01 2.04879E-13 3.53748E-13
 -1      3039 2.09486E+01-7.54317E-01-2.82003E-03-2.36553E-01 9.61476E-14 1.78241E-13
 -1      3040 2.10835E+01-7.23525E-01 2.99433E-03-6.81393E-01 1.93404E-13 2.80827E-13
 -1      3041 2.11160E+01-6.99344E-01-4.41573E-03-8.29240E-01 1.30709E-13 3.42134E-13
 -1      3042 2.12291E+01-8.44372E-01-3.00064E-04-5.18800E-01 2.10731E-13 1.95501E-13
 -1      3043 2.12203E+01-6.28690E-01-1.06366E-03-1.00924E+00 6.75615E-14 3.62487E-13
 -1      3044 2.12166E+01-5.05135E-01-1.60164E-03-1.14307E+00-2.62504E-15 4.33510E-13
 -1      3045 2.14799E+01-7.86860E-01 3.75088E-03-8.66949E-01 1.47422E-13 2.61057E-13
 -1      3046 2.12445E+01-3.28985E-01-7.01701E-03-1.29620E+00-1.27079E-13 3.93287E-13
 -1      3047 2.11980E+01-9.10544E-02 3.37265E-03-1.36908E+00-5.79367E-14 3.82271E-13
 -1      3048 2.16325E+01-5.02413E-01 7.72855E-03-1.21933E+00-3.71181E-14 3.43707E-13
 -1      3049 2.11287E+01 1.85494E-01-1.26801E-02-1.42666E+00-6.80567E-14 4.73425E-13
 -1      3050 2.10498E+01 5.07145E-01 9.14335E-03-1.38651E+00-1.09419E-13 3.89885E-13
 -1      3051 2.16265E+01 4.18347E-02 8.89046E-03-1.45842E+00-5.09727E-14 5.14630E-13
 -1      3052 2.09069E+01 8.27163E-01-1.36035E-02-1.28232E+00 3.55349E-14 4.34692E-13
 -1      3053 2.08232E+01 1.14382E+00 1.24438E-02-1.09837E+00 1.32817E-13 4.41819E-13
 -1      3054 2.14577E+01 7.72027E-01 5.49134E-03-1.43753E+00-1.29620E-14 4.98134E-13
 -1      3055 2.06799E+01 1.40082E+00-8.36295E-03-8.09838E-01 4.64751E-14 4.55749E-13
 -1      3056 2.06311E+01 1.58726E+00 8.99845E-03-5.02392E-01-1.16448E-13 4.83003E-13
 -1      3057 2.12089E+01 1.49384E+00 8.39185E-04-1.04890E+00 6.75185E-14 4.41235E-13
 -1      3058 2.05825E+01 1.66824E+00 2.06994E-03-1.01452E-01-9.96060E-14 4.32746E-13
 -1      3059 2.05885E+01 1.64475E+00 6.46517E-05 2.44955E-01 6.91957E-15 3.87199E-13
 -1      3060 2.10382E+01 1.90861E+00-6.46065E-03-3.35426E-01-1.07435E-13 5.08355E-13
 -1      3061 2.06616E+01 1.51808E+00 1.02738E-02 6.32831E-01-7.47296E-14 2.52379E-13
 -1      3062 2.07220E+01 1.29097E+00-9.75449E-03 9.18702E-01-1.79236E-13 1.01768E-13
 -1      3063 2.10623E+01 1.85766E+00-3.75274E-03 4.87056E-01-1.13682E-13 1.90387E-13
 -1      3064 2.08738E+01 1.00933E+00 1.27289E-02 1.16664E+00-2.05153E-13 5.59832E-14
 -1      3065 2.09569E+01 6.82339E-01-1.36574E-02 1.31891E+00-2.68515E-13 1.85164E-13
 -1      3066 2.12627E+01 1.34548E+00 1.34086E-03 1.14661E+00-2.16927E-13-8.83885E-15
 -1      3067 2.10911E+01 3.62999E-01 8.75105E-03 1.38564E+00-4.00199E-13 1.62701E-13
 -1      3068 2.11649E+01 5.15479E-02-1.13096E-02 1.39640E+00-3.58961E-13 3.54187E-14
 -1      3069 2.15056E+01 6.03942E-01 7.64593E-03 1.44864E+00-3.73217E-13 1.38929E-13
 -1      3070 2.12153E+01-2.08623E-01 2.35026E-03 1.31013E+00-2.01920E-13-9.03005E-14
 -1      3071 2.12527E+01-4.24557E-01-5.78430E-03 1.21731E+00-1.40521E-13-1.25805E-15
 -1      3072 2.16490E+01-1.06354E-01 9.31746E-03 1.40207E+00-3.37676E-13 3.42844E-14
 -1      3073 2.12062E+01-5.77953E-01-2.62515E-03 1.05013E+00-1.31951E-13 8.62797E-14
 -1      3074 2.12005E+01-6.78083E-01-2.28160E-04 9.07390E-01-1.30233E-13 4.21716E-14
 -1      3075 2.16201E+01-6.00598E-01 6.75351E-03 1.12091E+00-7.47287E-14 7.91098E-14
 -1      3076 2.10854E+01-7.28725E-01-4.86913E-03 7.25855E-01-1.93267E-13 1.26894E-13
 -1      3077 2.10459E+01-7.35216E-01 3.37475E-03 5.77249E-01-2.60944E-13 5.31350E-14
 -1      3078 2.14414E+01-8.31660E-01 2.33706E-03 7.55831E-01-8.99615E-14 2.96667E-14
 -1      3079 2.09015E+01-7.12760E-01-4.98594E-03 4.20707E-01-2.29233E-13-2.48962E-14
 -1      3080 2.08434E+01-6.61379E-01 5.00481E-03 2.92463E-01-1.30471E-13 4.27108E-14
 -1      3081 2.11802E+01-8.48217E-01-1.18768E-03 4.13709E-01-2.41381E-13 1.92650E-13
 -1      3082 2.07008E+01-5.99228E-01-4.03249E-03 1.76074E-01-4.83926E-14 9.53722E-14
 -1      3083 2.06380E+01-5.22245E-01 5.12572E-03 7.88498E-02 3.49823E-15 2.27239E-13
 -1      3084 2.09018E+01-7.32863E-01-3.18756E-03 1.45008E-01-2.22999E-14 1.96064E-13
 -1      3085 2.05153E+01-4.46553E-01-2.84294E-03 2.68293E-03-3.14446E-14 2.56116E-13
 -1      3086 2.04571E+01-3.65929E-01 4.48631E-03-6.28570E-02 1.22669E-14 1.55659E-14
 -1      3087 2.06499E+01-5.59113E-01-3.77602E-03-3.94424E-02 1.29858E-15 2.97115E-13
 -1      3088 2.03604E+01-2.93314E-01-2.00341E-03-1.05453E-01 3.89641E-15-4.00656E-14
 -1      3089 2.03112E+01-2.20253E-01 3.54013E-03-1.43897E-01 7.37578E-14-1.96164E-13
 -1      3090 2.04448E+01-3.76862E-01-3.33126E-03-1.49644E-01-7.29236E-14 3.21992E-13
 -1      3091 2.02396E+01-1.57397E-01-1.27626E-03-1.61063E-01 6.03535E-14-1.69237E-13
 -1      3092 2.02014E+01-9.82959E-02 2.66306E-03-1.77602E-01 1.94523E-14-1.35464E-13
 -1      3093 2.02915E+01-2.12457E-01-1.87233E-03-2.01698E-01 1.13911E-13 1.54076E-13
 -1      3094 1.99985E+01 1.26194E-01 3.88163E-03-4.41547E-01 2.91244E-14 4.59081E-13
 -1      3095 1.99225E+01 1.80194E-01-2.71459E-03-4.43013E-01 6.86075E-14 2.03465E-13
 -1      3096 1.91863E+01 1.03637E+00-1.32366E-02 8.50684E-01-2.59344E-13 1.55607E-14
 -1      3097 1.89975E+01 1.21155E+00-3.95442E-03 9.75688E-01-2.38359E-13-9.14113E-15
 -1      3098 2.00112E+01 7.50875E-03-6.07833E-05-1.80068E-01 2.48543E-15-6.36645E-14
 -1      3099 2.00210E+01 3.21888E-02 1.56365E-03-1.67552E-01 1.23287E-14-6.17325E-14
 -1      3100 2.00744E+01 4.67149E-03-9.75264E-04-1.75679E-01 3.31231E-14-1.07766E-13
 -1      3101 1.99864E+01-4.11630E-02 4.41690E-04-1.76025E-01 2.84228E-14-3.63416E-14
 -1      3102 1.99817E+01-4.09663E-02 6.08038E-05-1.81711E-01 3.80926E-14-3.00498E-14
 -1      3103 1.99883E+01-3.56252E-02 5.16297E-04-1.64460E-01-1.08340E-14 6.59264E-15
 -1      3104 1.99816E+01-3.94811E-02-1.71856E-04-1.70250E-01 3.12702E-15-5.92580E-14
 -1      3105 2.00248E+01-4.55775E-02-4.26887E-04-1.73510E-01 7.33761E-16-3.42508E-14
 -1      3106 1.99928E+01-2.34690E-02 5.84019E-04-1.55223E-01-1.57069E-14 6.94927E-14
 -1      3107 1.99848E+01-3.05669E-02-3.40357E-04-1.59354E-01-1.11669E-14 5.42417E-14
 -1      3108 2.00178E+01-3.76067E-02-3.02139E-04-1.63578E-01-4.90062E-14-5.91598E-14
 -1      3109 1.99989E+01-5.43644E-03 6.58677E-04-1.51283E-01-2.66514E-14 9.39765E-14
 -1      3110 1.99900E+01-1.55260E-02-4.79924E-04-1.52312E-01-1.11030E-14 1.04692E-13
 -1      3111 2.00132E+01-2.18659E-02-1.87486E-04-1.56240E-01-4.51617E-14 1.70264E-15
 -1      3112 2.00056E+01 1.87826E-02 7.49117E-04-1.55233E-01 5.47080E-14 9.91678E-14
 -1      3113 1.99960E+01 5.41161E-03-6.23966E-04-1.51827E-01-7.16476E-15 9.28219E-14
 -1      3114 2.00097E+01 9.74917E-04-6.56566E-05-1.54350E-01-2.20787E-14 8.47446E-14
 -1      3115 2.00114E+01 5.06097E-02 8.59477E-04-1.69639E-01 3.77116E-14 1.84982E-13
 -1      3116 2.00016E+01 3.30814E-02-8.07656E-04-1.60385E-01 4.88633E-14 1.48838E-13
 -1      3117 2.00056E+01 3.14879E-02 9.07984E-05-1.60335E-01 1.21897E-14 8.88026E-14
 -1      3118 2.00142E+01 9.27735E-02 9.86511E-04-1.97363E-01 7.11135E-14 2.31625E-13
 -1      3119 2.00047E+01 6.95130E-02-1.07249E-03-1.80584E-01 6.84921E-14 2.49423E-13
 -1      3120 1.99984E+01 7.15644E-02 3.23169E-04-1.76466E-01 3.29223E-14 1.67163E-13
 -1      3121 2.00099E+01 1.49633E-01 1.11284E-03-2.41833E-01-2.00144E-14 1.97049E-13
 -1      3122 2.00020E+01 1.18188E-01-1.47169E-03-2.15417E-01 6.91989E-14 2.28813E-13
 -1      3123 1.99842E+01 1.24636E-01 6.94364E-04-2.05058E-01 6.58614E-14 2.12864E-13
 -1      3124 1.99919E+01 2.27621E-01 1.19635E-03-3.07237E-01 4.80700E-14 1.20047E-13
 -1      3125 1.99883E+01 1.84431E-01-2.07655E-03-2.68486E-01-4.96230E-14 1.69426E-13
 -1      3126 1.99569E+01 1.96023E-01 1.30169E-03-2.48542E-01 4.92647E-14 1.35415E-13
 -1      3127 1.99487E+01 3.35726E-01 1.15192E-03-3.98556E-01 7.13503E-15 4.32814E-14
 -1      3128 1.99542E+01 2.75889E-01-2.98352E-03-3.44114E-01 8.56414E-14 1.06583E-13
 -1      3129 1.99067E+01 2.93357E-01 2.29474E-03-3.09356E-01 6.40923E-14 8.53126E-14
 -1      3130 1.98614E+01 4.85746E-01 8.24598E-04-5.21284E-01 5.59756E-14 1.69479E-14
 -1      3131 1.98846E+01 4.02959E-01-4.32263E-03-4.47223E-01-1.80923E-14 1.16056E-14
 -1      3132 1.98179E+01 4.26939E-01 3.89867E-03-3.89515E-01 3.36979E-14 4.38158E-14
 -1      3133 1.96991E+01 6.91707E-01-4.14693E-05-6.80597E-01 4.65771E-14 1.30227E-13
 -1      3134 1.97548E+01 5.78734E-01-6.27076E-03-5.82811E-01 1.04128E-13 7.45624E-14
 -1      3135 1.96655E+01 6.09653E-01 6.44091E-03-4.89664E-01 1.54157E-14 7.36110E-14
 -1      3136 1.94139E+01 9.67045E-01-1.81109E-03-8.79828E-01-4.79441E-14 1.27151E-13
 -1      3137 1.95256E+01 8.17539E-01-9.07823E-03-7.54863E-01-9.61948E-15 1.19302E-13
 -1      3138 1.94113E+01 8.55639E-01 1.03773E-02-6.07475E-01 2.12145E-14 1.68907E-13
 -1      3139 1.89338E+01 1.31678E+00-4.81041E-03-1.11862E+00-7.67745E-15 2.47230E-14
 -1      3140 1.91372E+01 1.13001E+00-1.31180E-02-9.64753E-01 3.79135E-15 8.84421E-14
 -1      3141 1.89975E+01 1.17616E+00 1.63315E-02-7.35464E-01-8.32559E-16 1.41739E-13
 -1      3142 1.81567E+01 1.71978E+00-8.53141E-03-1.39298E+00-2.01895E-13 2.44787E-14
 -1      3143 1.85011E+01 1.51093E+00-1.88409E-02-1.21023E+00-6.47214E-14 2.07282E-14
 -1      3144 1.83394E+01 1.56992E+00 2.53196E-02-8.59306E-01-2.23530E-14 7.35696E-14
 -1      3145 1.69460E+01 2.09193E+00-1.00410E-02-1.70511E+00-2.85537E-13-3.52262E-14
 -1      3146 1.74920E+01 1.91369E+00-2.61175E-02-1.48860E+00-2.71839E-13-3.65665E-14
 -1      3147 1.73159E+01 2.00381E+00 3.98783E-02-9.59579E-01-1.90223E-13-4.69611E-14
 -1      3148 1.50878E+01 2.20519E+00-8.88927E-03-2.11242E+00-2.66831E-13-7.06379E-15
 -1      3149 1.59297E+01 2.20865E+00-3.16995E-02-1.81199E+00-2.20252E-13 8.04391E-15
 -1      3150 1.57557E+01 2.37714E+00 6.74447E-02-1.02149E+00-2.84375E-13-1.53937E-13
 -1      3151 1.24590E+01 1.67609E+00 3.66095E-02-2.43264E+00-3.90494E-13-2.91156E-14
 -1      3152 1.36193E+01 2.11722E+00-1.76960E-02-2.04566E+00-3.47907E-13-4.00999E-14
 -1      3153 1.34866E+01 2.50642E+00 1.36635E-01-8.31396E-01-3.38805E-13-2.18436E-13
 -1      3154 1.01468E+01 2.03933E+00 2.19054E-01-3.10874E-01-3.75058E-13-2.44346E-13
 -1      3155 1.41522E+01 2.28291E+00-1.26782E-02 1.69065E+00-1.44341E-13-2.63019E-13
 -1      3156 1.30155E+01 2.00306E+00 2.13549E-02 2.02858E+00-2.74265E-13-2.65628E-13
 -1      3157 1.98418E+01 2.75896E-01 4.57804E-03-4.35313E-01-3.00480E-14 8.84202E-14
 -1      3158 1.97519E+01 3.36668E-01-4.30071E-03-4.01456E-01-9.04120E-15 3.13105E-13
 -1      3159 1.98657E+01 1.78668E-01-2.24927E-03-5.07616E-01 1.28837E-13 1.15532E-13
 -1      3160 2.71092E+01 5.08111E+00-1.04119E-01 1.65068E+00-3.15400E-13 4.63588E-14
 -1      3161 2.76673E+01 6.34006E+00-1.59356E-01 1.05111E+00-3.27460E-13 9.84143E-14
 -1      3162 2.65891E+01 6.15204E+00-9.43490E-02 5.76298E-01-3.10904E-13 1.51004E-13
 -1      3163 2.01409E+01 2.18118E+00-3.59563E-04-1.20890E+00-1.00940E-13 3.72098E-16
 -1      3164 1.86138E+01 1.38924E+00-1.57078E-02 1.03640E+00-7.03495E-14-8.69536E-14
 -1      3165 1.82815E+01 1.59112E+00-9.81312E-03 1.17644E+00 1.04418E-13-9.76860E-14
 -1      3166 1.85259E+01 1.41571E+00 1.90840E-02 7.28644E-01-2.65262E-13-4.61864E-14
 -1      3167 1.95068E+01 7.21838E-01 1.20799E-03 3.05561E-01-2.88040E-14-2.39985E-13
 -1      3168 1.96110E+01 6.66237E-01-4.89601E-03 4.66695E-01-1.17391E-13-6.65644E-14
 -1      3169 1.95517E+01 7.57884E-01 3.57156E-03 5.50487E-01-6.91666E-14-7.70587E-14
 -1      3170 1.76983E+01 1.79162E+00-2.18310E-02 1.22559E+00 2.00802E-13-1.47753E-13
 -1      3171 1.71711E+01 1.99316E+00-1.22133E-02 1.38034E+00 1.84623E-13-2.06148E-13
 -1      3172 1.76248E+01 1.82985E+00 3.40240E-02 7.62861E-01 1.10856E-13-1.37416E-13
 -1      3173 1.96679E+01 4.44988E-01 4.18248E-03-3.44125E-01-3.97459E-14-1.58493E-13
 -1      3174 1.95869E+01 5.00401E-01-5.21283E-03-2.69816E-01 5.06847E-14-5.77793E-13
 -1      3175 1.96596E+01 3.70797E-01-5.53328E-04-4.47137E-01 5.96528E-14 1.07054E-14
 -1      3176 1.18702E+01-6.08874E-01 1.42780E-01-5.55279E+00 1.88106E-13 2.01422E-13
 -1      3177 1.42374E+01-1.73781E+00 4.71335E-02-6.35232E+00 1.50574E-13 1.98910E-13
 -1      3178 9.45355E+00 1.31053E+00 1.06099E-01-2.26893E+00 6.70419E-14 8.84987E-14
 -1      3179 1.02758E+01 3.69043E-01 9.64796E-02-4.29741E+00 7.82985E-14-3.58880E-14
 -1      3180 1.25034E+01 4.05812E-01 1.09339E-01-4.26170E+00 1.39173E-13-2.24612E-14
 -1      3181 1.62844E+01 2.14702E+00-2.96842E-02 1.42426E+00 1.93389E-13-3.63624E-13
 -1      3182 1.54940E+01 2.25368E+00-7.95885E-03 1.60219E+00 8.45591E-15-3.94086E-13
 -1      3183 1.62478E+01 2.24037E+00 5.78737E-02 7.29320E-01 8.48345E-14-3.58471E-13
 -1      3184 1.95270E+01 5.97012E-01 2.56433E-03-1.61274E-01-6.11456E-14-5.56019E-13
 -1      3185 1.94840E+01 6.32871E-01-4.97552E-03-5.35316E-02-8.92034E-14-3.12161E-13
 -1      3186 1.94762E+01 5.66163E-01 2.28733E-03-2.78394E-01 1.15067E-13-4.56323E-13
 -1      3187 2.01107E+01 1.56844E-02 2.75007E-03-3.84893E-01 4.21551E-16 3.38421E-13
 -1      3188 2.00596E+01 5.70787E-02-9.65184E-04-4.11214E-01-6.17682E-14 4.32333E-13
 -1      3189 2.00443E+01 2.55651E-02-1.97554E-03-4.77487E-01 1.74151E-13 2.99641E-13
 -1      3190 2.01685E+01-4.84634E-02 1.76507E-03-2.95666E-01 1.07738E-13 4.80276E-13
 -1      3191 2.01449E+01-2.32915E-02 3.18278E-04-3.33972E-01 5.65681E-14 3.22978E-13
 -1      3192 2.01616E+01-7.26964E-02-1.39894E-03-3.89622E-01 1.04760E-13 4.74971E-13
 -1      3193 2.00739E+01 1.52867E-01-1.05269E-03-7.88667E-02 5.37416E-14-6.76997E-14
 -1      3194 2.01050E+01 2.17633E-01 3.20894E-03-2.45379E-02 3.01628E-14-5.36529E-14
 -1      3195 2.00460E+01 2.16161E+00-4.28039E-03 2.92305E-01-1.48862E-14-8.69041E-14
 -1      3196 2.00326E+01 2.20072E+00-3.31677E-03 1.70691E-01-3.01495E-14-9.23809E-14
 -1      3197 2.40323E+01-4.43427E+00 1.35232E-01-4.69624E+00-2.00603E-14-1.26992E-13
 -1      3198 2.56364E+01-4.30166E+00-1.16873E-01-3.06269E+00-8.07340E-14-3.63862E-13
 -1      3199 2.46482E+01-4.17644E+00-5.58470E-02 3.50863E+00 1.12377E-13-1.60428E-13
 -1      3200 2.28192E+01-4.12257E+00 1.42902E-01 5.05541E+00 1.70947E-13-3.62009E-13
 -1      3201 2.00364E+01 6.25551E-02-4.62946E-04-1.47409E-01 4.77475E-14-5.14436E-14
 -1      3202 2.00559E+01 1.03488E-01 2.48371E-03-1.18496E-01 6.67625E-14-5.31381E-14
 -1      3203 2.01049E+01 6.47903E-02-1.20502E-03-1.44422E-01 4.69766E-14-8.92813E-14
 -1      3204 1.94662E+01 6.89475E-01 8.06213E-04 5.77235E-02-1.79408E-13-2.27981E-13
 -1      3205 1.94751E+01 6.95147E-01-4.50087E-03 1.77314E-01-7.73014E-14-2.55958E-13
 -1      3206 1.93566E+01 7.81280E-01 3.62524E-03 1.90834E-01-2.27224E-13-2.32654E-13
 -1      3207 1.93677E+01 7.06366E-01 2.48958E-03-5.14715E-02-1.30993E-13-1.60734E-13
 -1      3208 1.18793E+01 1.86729E+00 6.57717E-02 1.73901E+00-3.03452E-13-8.90954E-14
 -1      3209 9.51011E+00 1.38795E+00 5.64983E-02 1.40398E+00-2.46608E-13-1.55875E-13
 -1      3210 9.18337E+00 1.68291E+00 1.74446E-01-9.24906E-01-1.13170E-13 4.41314E-15
 -1      3211 1.16386E+01 2.30911E+00 1.38484E-01 1.77349E-01-1.43615E-13-1.16109E-13
 -1      3212 2.02911E+01 9.88652E-01-7.25576E-04 6.89551E-01 6.56729E-14-6.87577E-14
 -1      3213 2.02675E+01 1.30778E+00 3.06064E-03 7.70619E-01 5.62483E-14-6.78181E-14
 -1      3214 2.02702E+01 1.12775E+00-7.03852E-05 5.91844E-01 4.67556E-14-5.34170E-14
 -1      3215 2.02322E+01 7.75798E-01-3.72174E-03 4.83873E-01 5.19203E-14-6.16559E-14
 -1      3216 2.02862E+01 1.14846E+00 7.40422E-05-6.69467E-01-9.52448E-14 2.95498E-14
 -1      3217 2.02548E+01 9.10673E-01-5.20138E-03-4.78514E-01-7.22853E-14 2.28997E-14
 -1      3218 2.02859E+01 9.49410E-01 1.28339E-03-4.23379E-01-7.65596E-14 3.03581E-14
 -1      3219 2.76604E+01-2.16232E+00-1.29536E-01-7.34758E-02 1.50799E-13-4.32709E-14
 -1      3220 2.66260E+01-3.34231E+00 1.43106E-02 1.49985E+00 1.59535E-13-1.11182E-13
 -1      3221 1.99885E+01-3.82235E-02 3.41000E-04-1.86156E-01 2.27305E-14-6.11110E-14
 -1      3222 1.99869E+01-3.25203E-02 3.96356E-04-1.89404E-01 5.19028E-14-1.01366E-13
 -1      3223 2.00518E+01-2.88599E-02-7.60254E-04-1.85325E-01 5.15522E-14-1.26995E-13
 -1      3224 2.00357E+01-4.38168E-02-5.76946E-04-1.82387E-01-5.48183E-15-6.98124E-14
 -1      3225 2.73293E+01-3.12136E+00 7.24081E-02-1.10790E+00 2.26902E-15 1.00704E-13
 -1      3226 2.75972E+01-1.69763E+00-1.01473E-01 4.23065E-01 4.14946E-15 3.61933E-13
 -1      3227 2.74824E+01 5.01380E+00-1.56128E-01-1.74515E+00-1.59012E-13 1.09142E-13
 -1      3228 2.78831E+01 3.43704E+00-7.61559E-02-2.09483E+00-2.41154E-13 1.44162E-13
 -1      3229 2.68961E+01 2.17946E+00-4.65045E-02-2.03904E+00-1.98529E-13 1.39541E-14
 -1      3230 2.02021E+01 1.89912E+00 4.86903E-03-1.00155E+00-8.44168E-14 7.66412E-15
 -1      3231 2.00255E+01 2.21951E+00-3.66438E-03 6.58548E-02-2.10150E-14-9.42477E-14
 -1      3232 2.00250E+01 2.22032E+00-3.67285E-03-5.81636E-02-1.46896E-14-1.05166E-13
 -1      3233 2.01395E+01 1.92400E+00 4.99845E-03 1.01386E-01-3.07174E-14-9.93090E-14
 -1      3234 2.02561E+01 1.46350E+00 7.64571E-03 5.87873E-01 3.59837E-14-3.93823E-14
 -1      3235 2.01592E+01 1.80140E+00-7.25265E-03 6.84949E-01 3.32990E-14-4.99322E-14
 -1      3236 2.01244E+01 1.93082E+00-2.78820E-03 5.90548E-01 1.94349E-14-4.61395E-14
 -1      3237 1.55529E+01-1.72726E+00 1.02330E-01 6.09665E+00-1.22277E-13-3.94941E-13
 -1      3238 2.22667E+01-4.11998E+00 3.24358E-02-5.12535E+00 1.97273E-14-1.04790E-14
 -1      3239 2.64554E+01-1.61049E+00-4.14056E-02 6.24495E-01-2.47103E-14 3.42528E-13
 -1      3240 2.74416E+01-6.04845E-01-3.01084E-02 1.28146E+00-1.16081E-13 1.98324E-13
 -1      3241 2.65802E+01 5.73391E-01-4.90165E-02 1.81782E+00-1.75360E-13 8.36900E-14
 -1      3242 2.70365E+01-1.13054E+00-2.91390E-02-8.71825E-01 6.23945E-14 1.03258E-13
 -1      3243 1.41565E+01 2.43827E+00 8.68649E-02 6.86415E-01-2.37926E-14-1.76963E-13
 -1      3244 1.10290E+01 1.97760E+00 6.79461E-02 6.72379E-01-3.51098E-13-2.37199E-13
 -1      3245 2.01207E+01 1.94140E+00-2.44460E-03-5.83063E-01-4.04405E-14-1.39136E-14
 -1      3246 2.01550E+01 1.81262E+00-7.44276E-03-6.82178E-01-6.69132E-14 8.80369E-15
 -1      3247 1.94274E+01 8.22387E-01-8.42857E-03 6.28780E-01 1.57035E-14-3.93739E-14
 -1      3248 1.93384E+01 9.51569E-01 3.06854E-03 7.37067E-01-9.47418E-14-1.02183E-14
 -1      3249 1.89886E+01 1.10888E+00 7.46834E-03 5.79368E-01-1.74135E-13-7.29358E-14
 -1      3250 1.92472E+01 8.94604E-01 2.02515E-03 3.97072E-01-5.68291E-14-7.00857E-14
 -1      3251 1.56487E+01-1.28924E+00 6.63608E-02-5.64555E+00 8.48766E-14 3.38111E-13
 -1      3252 1.63482E+01-2.28139E+00 1.34598E-01-6.39305E+00 8.11642E-14 2.28803E-13
 -1      3253 1.82812E+01-2.96100E+00-2.30615E-02-6.07239E+00-4.45338E-14 4.11338E-13
 -1      3254 2.67658E+01 3.86661E+00-1.07718E-01 2.00142E+00-3.18578E-13 4.01033E-14
 -1      3255 2.58626E+01 4.47590E+00-5.39992E-02 1.68265E+00-3.23186E-13-3.33067E-14
 -1      3256 2.62926E+01 2.71325E+00-4.09910E-02 2.01839E+00-3.57853E-13 6.48752E-14
 -1      3257 1.08451E+01 1.68967E+00 1.10909E-01-1.61686E+00-2.90948E-14-6.76126E-14
 -1      3258 2.02206E+01 6.00386E-01 2.79802E-03 3.39753E-01 5.02032E-14-7.07891E-14
 -1      3259 2.02554E+01 7.58653E-01 1.59801E-03 4.02218E-01 5.27384E-14-6.51755E-14
 -1      3260 2.01642E+01 4.59372E-01-2.65901E-03 2.01024E-01 5.50957E-14-6.27782E-14
 -1      3261 2.01806E+01-7.13314E-02-2.47713E-04-2.38312E-01 7.38106E-14 3.30840E-13
 -1      3262 2.02148E+01-1.24829E-01-1.88951E-03-2.75753E-01 8.31221E-14 3.08808E-13
 -1      3263 2.01440E+01 1.63326E-01-1.43426E-03-7.96149E-02 4.35770E-14-1.07936E-13
 -1      3264 2.00651E+01 2.10652E+00-3.27330E-03 3.90909E-01-4.95621E-15-6.42427E-14
 -1      3265 2.01626E+01 1.85102E+00 6.11784E-03 2.91910E-01-1.16372E-14-6.28627E-14
 -1      3266 2.00904E+01 2.02474E+00-6.03015E-03 5.02561E-01 7.41990E-15-5.23622E-14
 -1      3267 2.56173E+01-3.78180E+00 1.73926E-03 2.24038E+00 1.41042E-13-1.09759E-13
 -1      3268 2.40850E+01-3.60224E+00-1.50507E-02 2.82458E+00 7.06223E-14-1.43778E-13
 -1      3269 2.57187E+01-2.92443E+00 3.18970E-03 9.11687E-01 1.59714E-13-1.13878E-13
 -1      3270 2.59849E+01 5.77434E+00-1.06511E-01-8.83555E-01-2.66259E-13 8.25659E-14
 -1      3271 2.68969E+01 5.51785E+00-1.12735E-01-1.40869E+00-2.10762E-13 4.30211E-16
 -1      3272 2.59735E+01 4.24504E+00-6.04011E-02-1.66762E+00-2.11955E-13-1.16586E-13
 -1      3273 2.58483E+01-3.54487E+00-7.58752E-03-1.87440E+00 2.81268E-14-3.35565E-14
 -1      3274 2.09498E+01-3.45976E+00 3.16385E-02 5.17456E+00 7.48082E-14-3.30106E-13
 -1      3275 2.01128E+01 2.76081E-01-1.71795E-03 2.94176E-02 2.13836E-14-3.89820E-14
 -1      3276 2.01565E+01 3.71780E-01 3.35360E-03 1.19049E-01 3.60193E-14-7.12176E-14
 -1      3277 2.02115E+01 4.74000E-01-4.23715E-04 1.68866E-01 3.70477E-14-7.46870E-14
 -1      3278 2.01800E+01 2.97563E-01-1.66474E-03 2.22812E-02 1.99564E-14-9.93569E-14
 -1      3279 1.09277E+01 5.72044E-01 1.48183E-01 4.10056E+00-2.62585E-13-4.43895E-13
 -1      3280 1.14638E+01 1.25664E+00 6.76493E-02 3.01512E+00-3.07136E-13-3.13680E-13
 -1      3281 1.24198E+01 4.54627E-02-1.79347E-03 4.74802E+00-2.32113E-13-3.12514E-13
 -1      3282 2.01513E+01-4.24195E-02-4.49857E-04-1.98299E-01 8.30334E-15-7.96708E-14
 -1      3283 2.00637E+01 2.11225E+00-2.94802E-03-3.82804E-01-3.13114E-14-2.80830E-14
 -1      3284 2.00880E+01 2.03415E+00-5.20000E-03-4.98037E-01-2.48318E-14-4.81593E-14
 -1      3285 2.01961E+01 1.70318E+00 3.92028E-03-4.51295E-01-4.12503E-14-2.24758E-14
 -1      3286 2.02182E+01 1.59708E+00-1.08907E-03-8.28710E-01-8.94193E-14 9.85128E-15
 -1      3287 2.02149E+01 1.60982E+00 1.71803E-03-7.17627E-01-7.73998E-14 9.37835E-15
 -1      3288 2.00315E+01 2.20315E+00-3.23572E-03-1.62831E-01-2.25150E-14-7.79492E-14
 -1      3289 2.00434E+01 2.16645E+00-4.21327E-03-2.84659E-01-3.57358E-14-4.98317E-14
 -1      3290 2.01587E+01 1.85326E+00 4.78222E-03-2.83242E-01-3.27797E-14-3.97688E-14
 -1      3291 2.53500E+01 5.36190E+00-7.40265E-02 6.47024E-01-3.45515E-13 7.72756E-14
 -1      3292 2.57130E+01 5.82151E+00-1.07189E-01-1.65132E-01-2.45443E-13 1.26473E-13
 -1      3293 2.49812E+01 5.08077E+00-2.92249E-02-6.83054E-01-2.48170E-13 9.29929E-14
 -1      3294 2.03000E+01 4.41951E-01 2.43865E-03-7.06196E-02-6.45524E-14 2.63540E-14
 -1      3295 2.02754E+01 3.30179E-01-2.10035E-03-3.22079E-03-7.78760E-14 1.49687E-14
 -1      3296 2.02670E+01 2.41192E-01 2.13558E-03 4.24392E-02-8.76491E-14 8.96012E-15
 -1      3297 2.02424E+01 1.66636E-01-1.26215E-03 8.38830E-02-8.89476E-14 1.00717E-14
 -1      3298 2.03152E+01 3.32731E-01-7.45020E-05 4.81380E-03-8.18647E-14 2.80394E-14
 -1      3299 2.02271E+01 1.08705E-01 1.58022E-03 1.10664E-01-8.22680E-14 3.28522E-14
 -1      3300 2.02055E+01 6.10957E-02-6.24596E-04 1.33427E-01-4.30786E-14 3.95358E-14
 -1      3301 2.02832E+01 1.65264E-01-4.18362E-04 8.03632E-02-7.50203E-14 1.98595E-14
 -1      3302 2.01874E+01 2.52063E-02 1.08224E-03 1.46750E-01-5.42533E-15 1.25882E-14
 -1      3303 2.01695E+01-3.20792E-03-1.82662E-04 1.56863E-01 1.46544E-14 7.10819E-15
 -1      3304 2.02445E+01 5.70882E-02-5.68037E-04 1.23510E-01-4.08164E-14 5.72432E-14
 -1      3305 2.01509E+01-2.35200E-02 6.71020E-04 1.61277E-01 1.80311E-14-5.86177E-15
 -1      3306 2.01366E+01-3.83747E-02 1.09973E-04 1.63450E-01 3.60783E-15 2.51480E-14
 -1      3307 2.02048E+01-8.38081E-03-5.97329E-04 1.43916E-01 9.57197E-15 3.43259E-14
 -1      3308 2.01188E+01-4.77676E-02 3.52069E-04 1.62558E-01-4.18608E-15 2.62075E-14
 -1      3309 2.01076E+01-5.31714E-02 2.95290E-04 1.60328E-01-3.29026E-14 9.18724E-14
 -1      3310 2.01669E+01-4.34320E-02-5.62812E-04 1.49680E-01-5.77305E-15-1.20317E-14
 -1      3311 2.00911E+01-5.50447E-02 1.14611E-04 1.56862E-01-5.98887E-14 1.25388E-13
 -1      3312 2.00827E+01-5.40210E-02 4.07460E-04 1.52797E-01-4.20144E-14 1.40857E-13
 -1      3313 2.01323E+01-5.71429E-02-4.98163E-04 1.47154E-01-1.37547E-14 8.54904E-15
 -1      3314 2.00678E+01-5.08842E-02-5.68975E-05 1.48757E-01-2.42334E-14 1.47335E-13
 -1      3315 2.00615E+01-4.56861E-02 4.74753E-04 1.44672E-01 3.30481E-15 1.07717E-13
 -1      3316 2.01015E+01-5.62426E-02-4.21963E-04 1.41107E-01-2.22439E-14 5.30724E-14
 -1      3317 2.00483E+01-3.94427E-02-1.75616E-04 1.41504E-01 7.65917E-15 9.62084E-14
 -1      3318 2.00440E+01-3.18324E-02 5.17962E-04 1.38648E-01-1.77277E-14 1.19539E-13
 -1      3319 2.00744E+01-4.57738E-02-3.49781E-04 1.35030E-01-2.40812E-14 4.11002E-14
 -1      3320 2.00324E+01-2.40503E-02-2.48083E-04 1.37388E-01-2.49151E-14 1.60428E-13
 -1      3321 2.00299E+01-1.55609E-02 5.51700E-04 1.36562E-01 7.29687E-15 1.51031E-13
 -1      3322 2.00510E+01-2.96864E-02-2.97824E-04 1.31480E-01 3.54959E-14 1.38300E-13
 -1      3323 2.00202E+01-7.70535E-03-2.74244E-04 1.37932E-01-1.30335E-14 1.14321E-13
 -1      3324 2.00196E+01 1.27600E-04 5.87544E-04 1.39558E-01-3.07919E-14 1.07380E-13
 -1      3325 2.00311E+01-1.13898E-02-2.79957E-04 1.32304E-01-4.17723E-14 1.38401E-13
 -1      3326 2.00122E+01 6.47068E-03-2.44166E-04 1.44025E-01-4.41505E-14 1.10343E-13
 -1      3327 2.00142E+01 1.18713E-02 6.32584E-04 1.48163E-01-7.71683E-14 1.13718E-13
 -1      3328 2.00153E+01 5.71791E-03-3.18796E-04 1.38810E-01-1.89298E-14 1.39372E-13
 -1      3329 2.00102E+01 1.47660E-02-1.36229E-04 1.55929E-01-1.18142E-13 1.53685E-13
 -1      3330 2.00159E+01 1.54886E-02 6.87500E-04 1.62219E-01-1.16458E-13 1.86942E-13
 -1      3331 2.00048E+01 1.77446E-02-4.42547E-04 1.51845E-01-6.46023E-14 1.47276E-13
 -1      3332 2.00171E+01 1.24530E-02 8.42030E-05 1.73139E-01-5.13968E-14 2.34861E-13
 -1      3333 2.00284E+01 5.59959E-03 7.43453E-04 1.80662E-01 4.00186E-15 2.64075E-13
 -1      3334 2.00024E+01 1.97871E-02-6.89519E-04 1.71725E-01-4.56024E-14 1.94411E-13
 -1      3335 2.00381E+01-6.51669E-03 4.66577E-04 1.94043E-01-3.67619E-14 3.08925E-13
 -1      3336 2.00575E+01-2.45689E-02 7.75046E-04 2.01101E-01-5.11595E-14 3.01837E-13
 -1      3337 2.00127E+01 5.51316E-03-1.10691E-03 1.97980E-01-1.39879E-14 3.35419E-13
 -1      3338 2.00804E+01-4.95381E-02 1.07316E-03 2.15353E-01-4.09053E-14 3.01105E-13
 -1      3339 2.01116E+01-8.29706E-02 7.29459E-04 2.19138E-01-4.44719E-14 2.95920E-13
 -1      3340 2.00430E+01-3.30361E-02-1.74547E-03 2.28843E-01-3.74257E-14 3.29290E-13
 -1      3341 2.01541E+01-1.24808E-01 1.96931E-03 2.31228E-01-6.59844E-14 3.13296E-13
 -1      3342 2.02013E+01-1.77744E-01 5.13968E-04 2.27412E-01-4.62302E-14 2.82280E-13
 -1      3343 2.01037E+01-1.05148E-01-2.64545E-03 2.60352E-01-2.40538E-14 3.58218E-13
 -1      3344 2.02717E+01-2.39748E-01 3.19902E-03 2.32102E-01 1.32578E-14 3.07496E-13
 -1      3345 2.03392E+01-3.14885E-01-1.10488E-05 2.14432E-01 3.03499E-14 3.14238E-13
 -1      3346 2.02089E+01-2.20180E-01-3.80633E-03 2.84993E-01-6.77426E-15 3.05541E-13
 -1      3347 2.04466E+01-3.97789E-01 4.73701E-03 2.03400E-01-6.13142E-14 2.80054E-13
 -1      3348 2.05373E+01-4.93916E-01-1.01920E-03 1.63541E-01-1.31003E-13 1.86232E-13
 -1      3349 2.03752E+01-3.84652E-01-5.13235E-03 2.89898E-01-5.35640E-14 1.61192E-13
 -1      3350 2.06896E+01-5.92816E-01 6.40104E-03 1.24670E-01-9.80968E-14 2.45618E-13
 -1      3351 2.08025E+01-7.00779E-01-2.62503E-03 5.28020E-02-4.26308E-14 2.71632E-13
 -1      3352 2.06194E+01-5.96869E-01-6.35076E-03 2.54912E-01-1.00519E-13 1.41471E-13
 -1      3353 2.10017E+01-8.00644E-01 7.66668E-03-2.92004E-02 2.20790E-14 2.13358E-13
 -1      3354 2.11289E+01-8.98052E-01-4.66167E-03-1.41887E-01 1.47478E-13 2.22500E-13
 -1      3355 2.09526E+01-8.37570E-01-6.86309E-03 1.51638E-01-3.14997E-14 2.86953E-13
 -1      3356 2.13641E+01-9.68974E-01 7.70555E-03-2.81526E-01 2.27398E-13 1.73228E-13
 -1      3357 2.14884E+01-1.01571E+00-6.27136E-03-4.37121E-01 2.35522E-13 2.10172E-13
 -1      3358 2.13697E+01-1.05795E+00-5.76656E-03-5.28551E-02 1.60817E-13 2.57641E-13
 -1      3359 2.17274E+01-1.01051E+00 5.30749E-03-6.38349E-01 1.81908E-13 1.83158E-13
 -1      3360 2.18227E+01-9.50160E-01-5.91485E-03-8.22069E-01 1.01973E-13 1.91003E-13
 -1      3361 2.18350E+01-1.16748E+00-1.55648E-03-3.83781E-01 2.19220E-13 9.18086E-14
 -1      3362 2.20086E+01-8.13939E-01-1.48918E-03-1.06063E+00 5.95707E-14 2.35944E-13
 -1      3363 2.20479E+01-5.90598E-01-2.64353E-03-1.23085E+00 5.29324E-14 3.29327E-13
 -1      3364 2.22695E+01-1.03722E+00 5.32511E-03-8.30407E-01 1.02085E-13 1.86483E-13
 -1      3365 2.21131E+01-2.82970E-01-1.19561E-02-1.43585E+00-3.51665E-14 3.20249E-13
 -1      3366 2.20859E+01 1.18858E-01 4.69558E-03-1.51949E+00-5.98931E-14 2.93510E-13
 -1      3367 2.25543E+01-5.42425E-01 1.06837E-02-1.30558E+00 4.22083E-14 2.36160E-13
 -1      3368 2.19962E+01 5.70366E-01-2.24171E-02-1.57446E+00-1.85414E-14 3.34002E-13
 -1      3369 2.19183E+01 1.07394E+00 1.11379E-02-1.49218E+00 1.14065E-13 4.23881E-13
 -1      3370 2.25789E+01 3.51264E-01 7.33770E-03-1.62092E+00 4.35938E-14 2.08010E-13
 -1      3371 2.17446E+01 1.54809E+00-1.83761E-02-1.31028E+00 4.71055E-14 3.82141E-13
 -1      3372 2.16618E+01 1.98486E+00 1.70598E-02-1.03498E+00-3.28331E-14 3.47744E-13
 -1      3373 2.23786E+01 1.42657E+00 3.14429E-03-1.51147E+00 8.14774E-14 2.63668E-13
 -1      3374 2.14936E+01 2.26714E+00-1.78110E-02-5.69089E-01-7.63725E-14 2.60709E-13
 -1      3375 2.14927E+01 2.40818E+00 3.91036E-03-1.64984E-01-1.27723E-13 2.54115E-13
 -1      3376 2.20851E+01 2.50173E+00 8.53638E-03-9.08675E-01-9.19698E-14 1.49499E-13
 -1      3377 2.15056E+01 2.36555E+00 5.59350E-03 3.53957E-01-1.86171E-13 2.82743E-13
 -1      3378 2.15528E+01 2.16032E+00-9.29412E-03 7.44795E-01-2.36312E-13 1.01114E-13
 -1      3379 2.19986E+01 2.74145E+00-3.97192E-03 1.06528E-01-1.79339E-13 6.61372E-14
 -1      3380 2.17119E+01 1.80478E+00 1.27706E-02 1.14489E+00-1.80306E-13 4.63071E-14
 -1      3381 2.17824E+01 1.33094E+00-3.01136E-02 1.37376E+00-2.47756E-13 6.91261E-14
 -1      3382 2.21683E+01 2.25397E+00 1.26441E-02 1.06047E+00-2.54114E-13 5.75247E-14
 -1      3383 2.19778E+01 8.63720E-01 1.43901E-02 1.52247E+00-3.67565E-13 6.31193E-14
 -1      3384 2.20510E+01 3.63037E-01-1.72012E-02 1.56457E+00-4.64463E-13 2.61696E-14
 -1      3385 2.24292E+01 1.28338E+00 1.80357E-02 1.59550E+00-3.04388E-13-7.52176E-14
 -1      3386 2.21025E+01-7.45734E-02 1.95042E-03 1.45685E+00-3.85174E-13 1.30548E-13
 -1      3387 2.21248E+01-4.40527E-01-8.04983E-03 1.34711E+00-2.16470E-13 1.43612E-13
 -1      3388 2.26264E+01 1.26263E-01 1.40416E-02 1.56597E+00-3.11783E-13 1.35972E-13
 -1      3389 2.20260E+01-7.15367E-01-4.60606E-03 1.12116E+00-1.30597E-13 2.26251E-13
 -1      3390 2.19751E+01-8.99641E-01 1.54472E-04 9.40242E-01 1.92543E-15 2.10174E-13
 -1      3391 2.25306E+01-7.08845E-01 8.18850E-03 1.18506E+00-1.37508E-13 3.63561E-13
 -1      3392 2.17730E+01-1.00345E+00-6.88239E-03 7.03325E-01 6.63138E-14 1.32385E-13
 -1      3393 2.16697E+01-1.03517E+00 5.49811E-03 5.20800E-01-3.35858E-14 1.79488E-13
 -1      3394 2.22039E+01-1.11530E+00 1.71656E-03 6.98759E-01 1.14793E-15 3.13655E-13
 -1      3395 2.14301E+01-1.01852E+00-6.24909E-03 3.29748E-01-1.88426E-13 2.67227E-13
 -1      3396 2.13040E+01-9.55075E-01 7.73854E-03 1.80748E-01-1.25691E-13 4.10857E-13
 -1      3397 2.17595E+01-1.17803E+00-3.33301E-03 2.69093E-01-1.89347E-14 4.11631E-13
 -1      3398 2.10766E+01-8.72097E-01-4.25218E-03 5.20017E-02-1.03761E-13 3.95763E-13
 -1      3399 2.09520E+01-7.66148E-01 7.52028E-03-5.28952E-02-1.78357E-14 2.91711E-13
 -1      3400 2.13042E+01-1.03177E+00-6.30283E-03-3.86534E-02-7.01087E-14 2.99306E-13
 -1      3401 2.07642E+01-6.59866E-01-2.24587E-03-1.25954E-01 1.88781E-14 3.46238E-13
 -1      3402 2.06562E+01-5.46702E-01 6.27627E-03-1.90506E-01 5.16205E-15 3.05851E-13
 -1      3403 2.09074E+01-7.92804E-01-6.73219E-03-2.22492E-01-2.47976E-14 3.21456E-13
 -1      3404 2.05146E+01-4.44207E-01-1.20320E-03-2.22197E-01 9.89188E-14 3.69147E-13
 -1      3405 2.04306E+01-3.42019E-01 4.88694E-03-2.55371E-01 1.40860E-13 4.98388E-13
 -1      3406 2.05971E+01-5.40666E-01-5.56541E-03-3.09877E-01 1.59247E-13 3.43814E-13
 -1      3407 2.03433E+01-2.71424E-01-1.11373E-03-2.67383E-01 4.38479E-14 5.33295E-13
 -1      3408 2.02805E+01-1.86016E-01 3.02950E-03-2.76715E-01 9.26123E-14 3.98417E-13
 -1      3409 2.02546E+01-1.74894E-01-1.57193E-03-3.42228E-01-1.49263E-14 4.75951E-13
 -1      3410 2.03902E+01-3.34903E-01-3.67395E-03-3.40471E-01 2.24953E-13 4.58795E-13
 -1      3411 2.02238E+01-1.43411E-01 2.60085E-03-4.18278E-01 1.34136E-13 3.98556E-13
 -1      3412 2.01687E+01-1.09898E-01-1.37958E-03-4.74523E-01 2.37562E-13 5.15271E-13
 -1      3413 2.02802E+01-2.24928E-01-7.34742E-04-4.29016E-01 1.08541E-13 3.27451E-13
 -1      3414 2.00458E+01-3.76974E-02 4.97005E-04-1.55229E-01-6.99189E-14-3.15056E-14
 -1      3415 2.00485E+01-4.43185E-02-1.31021E-04-1.59223E-01-4.40683E-14-5.39587E-14
 -1      3416 2.00608E+01-4.82788E-02 4.31498E-04-1.63652E-01-1.45322E-14-8.25347E-14
 -1      3417 2.00655E+01-4.98091E-02 8.71592E-05-1.67899E-01 1.29659E-14-5.32036E-14
 -1      3418 2.00849E+01-5.01286E-02-3.90099E-04-1.54484E-01-3.66710E-14-9.48134E-14
 -1      3419 2.00202E+01 8.64743E-03 5.42082E-04-1.49219E-01-8.13645E-15-2.04343E-14
 -1      3420 2.00214E+01-6.25289E-03-4.81533E-04-1.48213E-01-2.96734E-14 3.48798E-14
 -1      3421 2.00058E+01 4.44215E-02 5.20681E-04-1.56154E-01-1.66551E-14 2.79951E-14
 -1      3422 2.00076E+01 2.49816E-02-6.70981E-04-1.50903E-01-3.91480E-14-7.35135E-15
 -1      3423 2.00197E+01 1.95413E-02 1.09673E-04-1.44029E-01-2.04582E-14-8.61123E-14
 -1      3424 1.99859E+01 9.08515E-02 4.51465E-04-1.72083E-01 6.39709E-15 5.69161E-14
 -1      3425 1.99902E+01 6.56742E-02-9.08828E-04-1.61561E-01 6.82984E-15 3.44895E-14
 -1      3426 1.99946E+01 6.20390E-02 3.90835E-04-1.50906E-01-1.90070E-14-5.71826E-14
 -1      3427 1.99555E+01 1.51517E-01 2.95082E-04-1.98431E-01 4.59110E-14 1.21638E-13
 -1      3428 1.99647E+01 1.18605E-01-1.22875E-03-1.81650E-01 3.48535E-14 8.35973E-14
 -1      3429 1.99616E+01 1.16899E-01 7.99978E-04-1.64947E-01 3.97479E-15-1.20550E-14
 -1      3430 1.99064E+01 2.31800E-01-1.94257E-05-2.36205E-01 1.06673E-13-2.12874E-14
 -1      3431 1.99245E+01 1.88227E-01-1.67081E-03-2.12264E-01 1.18763E-13 7.77191E-14
 -1      3432 1.99143E+01 1.88104E-01 1.41321E-03-1.86309E-01 8.70334E-14 2.14692E-14
 -1      3433 1.98259E+01 3.39131E-01-6.12106E-04-2.85564E-01 2.01780E-14 6.33845E-14
 -1      3434 1.98597E+01 2.80942E-01-2.28225E-03-2.53847E-01 4.31221E-14 1.21089E-14
 -1      3435 1.98431E+01 2.81411E-01 2.34218E-03-2.13996E-01 7.45048E-14 1.14046E-14
 -1      3436 1.96947E+01 4.83032E-01-1.67575E-03-3.44929E-01-8.04828E-15 3.26703E-14
 -1      3437 1.97546E+01 4.05284E-01-3.11772E-03-3.05546E-01 4.85079E-15 1.25203E-14
 -1      3438 1.97335E+01 4.04397E-01 3.74624E-03-2.45024E-01 1.47058E-14-5.97745E-14
 -1      3439 1.94833E+01 6.74515E-01-3.50651E-03-4.09436E-01-3.32823E-15 1.19317E-14
 -1      3440 1.95857E+01 5.71728E-01-4.24152E-03-3.64013E-01-1.08289E-14-6.40431E-15
 -1      3441 1.95643E+01 5.66116E-01 5.84637E-03-2.73001E-01 1.44604E-14-3.36754E-14
 -1      3442 1.91475E+01 9.23975E-01-6.53051E-03-4.68559E-01 4.69481E-15 1.41012E-14
 -1      3443 1.93178E+01 7.91465E-01-5.74300E-03-4.21472E-01 9.86586E-15 2.56710E-14
 -1      3444 1.93042E+01 7.75829E-01 8.93954E-03-2.85906E-01-2.26480E-14-1.01826E-13
 -1      3445 1.86230E+01 1.23610E+00-1.12911E-02-5.03136E-01-2.08293E-14 1.84796E-14
 -1      3446 1.88986E+01 1.07303E+00-7.78040E-03-4.63000E-01-2.00042E-14 7.38169E-14
 -1      3447 1.89086E+01 1.03992E+00 1.34272E-02-2.62951E-01-3.80330E-14-7.64649E-14
 -1      3448 1.78175E+01 1.59936E+00-1.81347E-02-4.82931E-01-1.06697E-13 9.74069E-14
 -1      3449 1.82525E+01 1.41480E+00-1.06426E-02-4.63574E-01-3.67987E-14 3.34577E-14
 -1      3450 1.83142E+01 1.35558E+00 1.99309E-02-1.70847E-01-8.26012E-14-6.78685E-14
 -1      3451 1.66000E+01 1.96590E+00-2.59168E-02-3.67818E-01-2.10219E-13-3.61805E-14
 -1      3452 1.72710E+01 1.79030E+00-1.43424E-02-3.86798E-01-1.05824E-13 5.74316E-14
 -1      3453 1.74326E+01 1.69931E+00 2.99147E-02 3.94371E-02-6.20748E-14-6.40083E-14
 -1      3454 1.48004E+01 2.22109E+00-1.97492E-02-1.14494E-01-2.45034E-13-2.13730E-13
 -1      3455 1.57995E+01 2.12762E+00-1.44824E-02-1.89336E-01-2.69578E-13-1.12991E-13
 -1      3456 1.61401E+01 2.00575E+00 4.78828E-02 4.33361E-01-1.97392E-13-1.32756E-13
 -1      3457 1.24078E+01 2.14852E+00 8.49326E-04 4.20456E-01-3.44338E-13-2.17770E-13
 -1      3458 1.37893E+01 2.25583E+00 1.43036E-03 8.08293E-02-2.83225E-13-2.15508E-13
 -1      3459 1.43645E+01 2.17708E+00 8.34938E-02 1.02163E+00-2.86894E-13-2.42095E-13
 -1      3460 1.19988E+01 1.96701E+00 1.41210E-01 1.74931E+00-3.04607E-13-2.12150E-13
 -1      3461 1.99390E+01 8.35654E-02 5.43829E-03-5.96034E-01 1.52409E-13 2.02126E-13
 -1      3462 1.98124E+01 1.61749E-01-4.06848E-03-5.96060E-01 5.70551E-15 2.08169E-13
 -1      3463 2.02546E+01 1.39248E+00 2.72892E-03-5.54322E-01-7.36465E-14 2.12963E-14
 -1      3464 1.84999E+01 1.26495E+00-1.08068E-02 3.93291E-01-2.27605E-13 9.52754E-15
 -1      3465 1.81241E+01 1.43740E+00-1.40978E-02 3.91935E-01-1.14693E-13 5.76466E-14
 -1      3466 1.26674E+01 2.15572E+00 4.93517E-02-4.65826E-01 9.10556E-15-1.36422E-13
 -1      3467 1.14741E+01 2.01301E+00 4.67568E-02-9.57223E-01-8.76669E-14-1.29355E-13
 -1      3468 1.19398E+01 1.67163E+00 6.34857E-02-2.28268E+00 1.05818E-15-2.57516E-13
 -1      3469 1.76585E+01 1.60719E+00-1.06782E-02 2.85998E-01-1.25012E-13 9.59550E-14
 -1      3470 1.70665E+01 1.77589E+00-2.44489E-02 2.38343E-01 4.22362E-15-9.79744E-14
 -1      3471 1.78402E+01 1.49768E+00 2.30902E-02-7.21367E-02-5.43783E-14 4.69316E-14
 -1      3472 1.96821E+01 3.01709E-01 6.91979E-03-5.78233E-01 4.05637E-14 1.21111E-13
 -1      3473 1.95431E+01 3.87076E-01-6.08202E-03-5.23933E-01 6.30138E-14-1.41076E-13
 -1      3474 1.97197E+01 1.76320E-01-3.30236E-03-6.86132E-01 5.45903E-14 1.20019E-13
 -1      3475 1.26541E+01 1.03850E+00 5.18079E-02-3.33549E+00 2.62429E-14-2.10484E-13
 -1      3476 1.39601E+01 4.05175E-02 3.99840E-02-4.56854E+00 1.21236E-13 1.76040E-14
 -1      3477 1.64020E+01 1.93395E+00-1.33755E-02 4.10743E-02 1.24369E-13-1.60593E-13
 -1      3478 1.55699E+01 2.08586E+00-1.76424E-02-8.28148E-02 6.30555E-14-1.81573E-13
 -1      3479 1.67485E+01 1.78588E+00 3.79281E-02-4.65527E-01 4.24968E-14-8.71534E-14
 -1      3480 1.69935E+01-1.90834E+00-4.54719E-02 5.64008E+00-7.96724E-14-4.24744E-13
 -1      3481 1.47118E+01-6.71505E-01 1.63121E-01 5.45134E+00-1.21521E-13-3.44447E-13
 -1      3482 1.43357E+01 1.19967E-02 4.46918E-02 4.54262E+00-1.94636E-13-3.26360E-13
 -1      3483 1.94152E+01 5.41776E-01 5.52250E-03-4.33581E-01 1.17238E-13-5.10855E-13
 -1      3484 1.93073E+01 6.17759E-01-6.65099E-03-3.15874E-01 3.97656E-14-4.72388E-13
 -1      3485 1.94029E+01 4.52862E-01-9.41924E-04-5.84513E-01 6.68749E-14-3.34371E-13
 -1      3486 2.01988E+01 1.64535E-01-1.22249E-03-8.45224E-02 5.05664E-14-6.88826E-14
 -1      3487 2.02253E+01 2.36334E-01 2.44595E-03-3.89956E-02 1.50066E-14-9.12126E-14
 -1      3488 2.00328E+01-1.85074E-02 5.32267E-04-1.49584E-01-8.50404E-14 3.03652E-15
 -1      3489 2.00343E+01-2.93544E-02-3.10701E-04-1.51720E-01-9.66235E-14-6.34688E-14
 -1      3490 2.00623E+01-3.63673E-02-2.55525E-04-1.47614E-01-3.99771E-14-3.24605E-14
 -1      3491 2.00413E+01-1.29602E-02-9.25075E-05-1.43425E-01-8.21945E-14-7.97050E-14
 -1      3492 2.01622E+01 6.25516E-02-6.08308E-04-1.40350E-01 2.72767E-14-6.52065E-14
 -1      3493 2.01831E+01 1.08664E-01 1.85030E-03-1.15433E-01 5.06966E-14-7.40944E-14
 -1      3494 2.02476E+01 1.66761E-01-6.82530E-04-8.27000E-02 3.55081E-14-5.26939E-14
 -1      3495 2.01296E+01 3.41006E-04-1.60352E-04-1.66894E-01 4.77822E-14-6.09050E-14
 -1      3496 2.01452E+01 2.79350E-02 1.23565E-03-1.55861E-01 2.26791E-14-4.48029E-14
 -1      3497 2.02095E+01 6.04523E-02-7.33742E-04-1.32670E-01 3.19096E-14-3.81198E-14
 -1      3498 2.10393E+01-3.48758E+00 1.25780E-01-5.37567E+00 1.01398E-13 5.50948E-14
 -1      3499 2.29001E+01-3.90377E+00-7.62564E-02-4.11130E+00 1.23452E-13-4.17180E-13
 -1      3500 1.96533E+01-2.69549E+00 4.11559E-02-5.15741E+00 6.20129E-14 1.06550E-13
 -1      3501 2.03135E+01 7.36304E-01 1.46702E-03-2.40943E-01-5.56471E-14 4.01227E-14
 -1      3502 2.02965E+01 5.74884E-01-2.83201E-03-1.40155E-01-5.06227E-14 3.78240E-14
 -1      3503 2.03316E+01 5.79223E-01 1.13300E-04-1.13878E-01-6.62720E-14 5.59881E-14
 -1      3504 2.60953E+01-3.85926E-01-1.01845E-01-1.52122E+00 4.69937E-15 8.44758E-14
 -1      3505 2.60764E+01-1.68968E+00 6.95570E-03-5.72577E-01 1.63831E-13 3.05337E-14
 -1      3506 2.02901E+01 1.13691E+00-1.26856E-03-4.56195E-01-6.99369E-14 2.39686E-14
 -1      3507 2.02935E+01 9.14369E-01-2.82387E-03-3.19888E-01-6.18969E-14 3.69504E-14
 -1      3508 2.03209E+01 9.18172E-01 1.84788E-03-2.66276E-01-5.67138E-14 5.02427E-14
 -1      3509 2.02616E+01 1.35344E+00 2.12229E-03-4.39599E-01-5.92239E-14 1.24938E-14
 -1      3510 1.39231E+01 2.23052E+00 1.44695E-02-3.31658E-01 7.53477E-15-1.70572E-13
 -1      3511 2.48321E+01-3.56337E+00 9.80083E-02-2.49072E+00 8.47957E-14-1.73077E-13
 -1      3512 2.56004E+01-3.00251E+00-5.65564E-02-8.92713E-01 1.36599E-13 2.97230E-13
 -1      3513 2.01146E+01-5.98593E-02 3.21563E-03-5.27474E-01 2.38036E-13 3.56756E-13
 -1      3514 2.00220E+01-1.37140E-04-2.25903E-03-5.64867E-01 2.62789E-13 2.48955E-13
 -1      3515 1.99846E+01-2.64190E-02-2.98029E-03-6.59523E-01 7.23261E-14 2.97956E-13
 -1      3516 2.01660E+01-1.45690E-01 8.00427E-04-5.69814E-01 3.25452E-13 3.98864E-13
 -1      3517 2.57285E+01 2.67509E+00-9.37003E-02-2.02557E+00-1.21916E-13-1.81374E-13
 -1      3518 2.60979E+01 1.39488E+00 8.25912E-03-2.00443E+00-5.39291E-14-1.89501E-14
 -1      3519 2.17588E+01-3.21385E+00-2.70829E-02 4.17272E+00 2.97063E-14-1.32651E-13
 -1      3520 1.96862E+01-2.44276E+00 1.28275E-01 5.11604E+00-4.91569E-14-2.54605E-13
 -1      3521 2.02874E+01 8.85889E-01 5.70424E-04 4.45971E-01 5.38720E-14-4.90867E-14
 -1      3522 2.02790E+01 1.05731E+00-2.06486E-03 4.83302E-01 4.94986E-14-2.44946E-14
 -1      3523 2.02604E+01 7.00602E-01-1.53106E-03 3.00316E-01 5.28931E-14-5.26451E-14
 -1      3524 2.02676E+01 1.18973E+00-2.12261E-03 4.48333E-01 2.97657E-14-2.08701E-14
 -1      3525 2.50469E+01 4.70308E+00-9.08205E-02 1.17508E+00-3.71571E-13-7.95562E-14
 -1      3526 2.43030E+01 4.68315E+00-3.85770E-02 5.90239E-01-2.97651E-13-1.67342E-13
 -1      3527 2.47814E+01 3.86095E+00-3.44730E-02 1.48832E+00-3.04066E-13-1.42685E-13
 -1      3528 2.59545E+01-2.37653E+00 1.45568E-02-6.62288E-03 1.59602E-13 3.51403E-13
 -1      3529 2.56447E+01-1.47416E+00-1.45981E-02 8.02600E-01 7.61179E-14 1.85352E-13
 -1      3530 2.48201E+01-2.75487E+00-3.41589E-02-7.44566E-01 2.74771E-13 2.58191E-13
 -1      3531 2.02034E+01 1.64117E+00-3.42503E-03 1.30539E-01-2.99118E-14-7.50851E-14
 -1      3532 2.01995E+01 1.66118E+00-2.69375E-03 3.98077E-02-3.59252E-14-1.09864E-13
 -1      3533 2.50431E+01-1.51672E+00 1.51598E-02-7.41508E-01 1.79861E-13-1.09478E-14
 -1      3534 2.55981E+01-2.39729E+00-2.78982E-02 3.16702E-02 2.41108E-13-5.48927E-14
 -1      3535 2.47162E+01-2.65948E+00-1.32234E-02 7.06749E-01 1.56542E-13-6.51907E-14
 -1      3536 2.53337E+01 3.61110E-01-1.93546E-02-1.72458E+00 3.86115E-14-7.43780E-14
 -1      3537 2.33662E+01-3.39156E+00-1.13651E-02-3.00385E+00 1.16152E-13-2.20678E-13
 -1      3538 1.91855E+01 8.39257E-01-2.27581E-04 9.32528E-02-2.12092E-13-5.11934E-13
 -1      3539 1.91938E+01 8.54226E-01-5.93755E-03 2.17999E-01-1.34887E-13-2.77942E-13
 -1      3540 1.90812E+01 9.61828E-01 3.63170E-03 2.92078E-01 1.73042E-14-3.09062E-13
 -1      3541 2.01103E+01-5.21910E-02-5.07660E-04-1.61154E-01 2.38466E-15-9.01498E-14
 -1      3542 2.00793E+01-4.82066E-02 3.18059E-04-1.71593E-01-1.07457E-14-5.21395E-14
 -1      3543 2.00867E+01-4.30033E-02 3.69974E-04-1.73965E-01-1.27752E-14-6.65838E-14
 -1      3544 2.53070E+01 3.31887E+00-4.10156E-02-1.91979E+00-1.75436E-13-1.36740E-13
 -1      3545 2.46050E+01 2.38472E+00-1.43832E-02-1.85957E+00-9.93520E-14-1.38831E-13
 -1      3546 2.46009E+01 3.85511E+00-7.36619E-02-1.54652E+00-2.46476E-13-1.22286E-13
 -1      3547 1.28081E+01 1.55217E+00 3.37396E-02 2.44914E+00-2.93057E-13-2.96305E-13
 -1      3548 2.01383E+01 1.92532E+00 4.77726E-03-9.47526E-02-2.06084E-14-9.57534E-14
 -1      3549 1.45615E+01 1.98738E+00 5.07788E-02-1.13878E+00-6.71338E-15-3.61196E-13
 -1      3550 1.88865E+01 1.03581E+00-8.39678E-03 2.90680E-01-1.05129E-13-1.84421E-13
 -1      3551 1.87424E+01 1.16037E+00-1.59477E-03 3.91440E-01-2.37527E-13 1.42172E-14
 -1      3552 1.84884E+01 1.24785E+00 1.81282E-02 7.88257E-02-1.82388E-13-2.14038E-13
 -1      3553 1.88775E+01 1.02028E+00 5.45724E-03 1.09421E-01-8.06846E-14-5.34825E-13
 -1      3554 2.61129E+01 1.33760E+00-6.80309E-02 2.00232E+00-2.84175E-13-7.40866E-14
 -1      3555 2.53955E+01 2.25107E+00-2.91722E-02 2.03191E+00-2.92773E-13-1.23832E-13
 -1      3556 2.57484E+01 1.65025E-01-2.87820E-02 1.66258E+00-1.62169E-13-1.62616E-13
 -1      3557 1.91723E+01 6.96937E-01 4.49938E-03-3.67130E-01-4.51332E-14-2.64079E-13
 -1      3558 1.92421E+01 7.27890E-01 4.46231E-03-2.01770E-01-3.09819E-14 4.01965E-14
 -1      3559 1.91873E+01 7.76252E-01-3.14983E-03-8.89263E-02-9.77246E-14-1.49807E-13
 -1      3560 1.33957E+01 1.38092E+00 5.81332E-02-2.65810E+00 3.17628E-14-2.55886E-13
 -1      3561 2.02824E+01 3.31238E-01-6.23264E-04 4.70810E-03 4.09352E-14-1.41993E-14
 -1      3562 2.02373E+01 3.24725E-01-1.40511E-03 1.44663E-02 2.94345E-14-8.05045E-14
 -1      3563 2.02548E+01 4.11397E-01 2.54166E-03 7.58919E-02 3.09993E-14-6.39275E-14
 -1      3564 1.52711E+01 1.74381E-01 3.53179E-02-4.08833E+00 4.06862E-14 1.79780E-13
 -1      3565 1.52947E+01-4.36691E-01 9.37288E-02-4.85703E+00 1.59883E-13 3.30264E-13
 -1      3566 1.66817E+01-1.24015E+00-3.46080E-02-5.05073E+00 1.16126E-13 6.18689E-13
 -1      3567 1.84774E+01-1.77583E+00 1.07191E-02 4.78646E+00-4.86070E-14-2.98150E-13
 -1      3568 2.02108E+01 1.69747E+00 8.43425E-03 4.62450E-01 1.13027E-14-4.86167E-14
 -1      3569 2.02471E+01 1.43160E+00-3.01433E-03-3.88417E-01-4.67968E-14-6.82782E-15
 -1      3570 2.02949E+01 1.19986E+00 1.17685E-03-3.04700E-01-4.36727E-14 1.08401E-14
 -1      3571 2.02335E+01 1.52608E+00 3.32127E-04-3.19894E-01-3.63341E-14-2.60204E-14
 -1      3572 2.01130E+01-1.93510E-02 7.44407E-04-1.72273E-01 7.15204E-14-7.41941E-14
 -1      3573 2.01728E+01-4.06871E-03-6.97581E-04-1.56539E-01 5.89928E-14-6.99222E-15
 -1      3574 2.01020E+01-3.38561E-02 1.32734E-04-1.74653E-01 3.59016E-14-5.12301E-14
 -1      3575 2.02243E+01 1.54431E+00-5.37712E-03 2.86573E-01-6.24221E-15-5.08879E-14
 -1      3576 2.02130E+01 1.60743E+00-2.03572E-03 2.00308E-01-1.43623E-14-6.17847E-14
 -1      3577 2.02867E+01 1.38827E+00 5.14933E-03 1.33070E-01-2.81906E-14-5.44570E-14
 -1      3578 2.36665E+01-3.01143E+00 1.14812E-02 2.17189E+00 8.05929E-14-2.72362E-14
 -1      3579 2.30191E+01-3.28366E+00 3.94936E-02 3.30891E+00 8.43405E-14-3.67744E-14
 -1      3580 2.14983E+01-2.65815E+00-2.71205E-02 3.49819E+00 5.14172E-15-3.01842E-14
 -1      3581 2.03575E+01 4.20729E-01 1.45641E-03-2.75140E-02-8.21877E-14 1.36086E-14
 -1      3582 2.03410E+01 3.11115E-01-1.69148E-03 2.09434E-02-7.66028E-14 9.64000E-15
 -1      3583 2.03335E+01 2.22854E-01 1.33495E-03 5.06719E-02-5.35214E-14-8.17421E-17
 -1      3584 2.03124E+01 1.49283E-01-1.02021E-03 8.06359E-02-7.43164E-14 1.47463E-14
 -1      3585 2.03679E+01 3.00941E-01 2.61202E-04 2.39534E-02-6.58467E-14 2.21105E-14
 -1      3586 2.02964E+01 9.16466E-02 1.03090E-03 9.75483E-02-4.60308E-14 5.14535E-14
 -1      3587 2.02745E+01 4.50035E-02-4.95541E-04 1.13939E-01-5.92630E-15 6.08509E-14
 -1      3588 2.03381E+01 1.40423E-01-9.54709E-05 7.25409E-02-3.91877E-14 3.22621E-14
 -1      3589 2.02541E+01 9.83524E-03 7.38172E-04 1.21830E-01-1.74002E-14 5.40735E-14
 -1      3590 2.02332E+01-1.72611E-02-1.17161E-04 1.28982E-01-2.00286E-14 3.03925E-14
 -1      3591 2.02976E+01 3.73985E-02-3.27677E-04 9.95565E-02-2.61684E-14 6.68508E-14
 -1      3592 2.02112E+01-3.62669E-02 4.77397E-04 1.31019E-01 3.71135E-15 2.53995E-14
 -1      3593 2.01922E+01-4.93600E-02 1.38904E-04 1.32462E-01 5.25841E-15 5.15890E-15
 -1      3594 2.02530E+01-2.33326E-02-4.45156E-04 1.11676E-01-1.46672E-14 2.17766E-14
 -1      3595 2.01703E+01-5.69234E-02 2.60182E-04 1.31236E-01 1.21285E-14 3.87176E-14
 -1      3596 2.01535E+01-6.02058E-02 3.00243E-04 1.29695E-01 1.38759E-14 5.30721E-14
 -1      3597 2.02082E+01-5.34931E-02-4.74594E-04 1.14495E-01 2.41697E-14 6.37166E-14
 -1      3598 2.01326E+01-5.98838E-02 8.29068E-05 1.27185E-01-1.14260E-14 4.77547E-14
 -1      3599 2.01180E+01-5.64897E-02 3.99435E-04 1.24676E-01 3.62909E-15 5.79135E-14
 -1      3600 2.01653E+01-6.20669E-02-4.41959E-04 1.12508E-01 2.83198E-14 1.16396E-13
 -1      3601 2.00984E+01-5.09199E-02-6.00308E-05 1.22381E-01 6.60158E-15 5.86470E-14
 -1      3602 2.00860E+01-4.31992E-02 4.67786E-04 1.20397E-01-7.67717E-17 8.87084E-14
 -1      3603 2.01255E+01-5.58733E-02-3.85667E-04 1.09138E-01 2.39931E-14 1.01486E-13
 -1      3604 2.00678E+01-3.44221E-02-1.73332E-04 1.19515E-01 5.07191E-14 1.07950E-13
 -1      3605 2.00574E+01-2.42797E-02 5.23074E-04 1.19172E-01 4.73366E-14 1.69725E-13
 -1      3606 2.00888E+01-3.99843E-02-3.21680E-04 1.07081E-01 4.63869E-14 1.31405E-13
 -1      3607 2.00407E+01-1.40619E-02-2.59318E-04 1.20673E-01-1.26405E-14 1.66463E-13
 -1      3608 2.00323E+01-3.21383E-03 5.86780E-04 1.22787E-01-4.17187E-14 1.76811E-13
 -1      3609 2.00554E+01-1.84956E-02-2.66889E-04 1.08562E-01 2.40192E-14 1.24476E-13
 -1      3610 2.00173E+01 6.75355E-03-3.14227E-04 1.27526E-01-3.99614E-14 2.11186E-13
 -1      3611 2.00114E+01 1.65165E-02 6.79439E-04 1.32709E-01-5.02306E-14 2.16377E-13
 -1      3612 2.00253E+01 4.89772E-03-2.52785E-04 1.15469E-01-2.16805E-14 1.82352E-13
 -1      3613 1.99985E+01 2.42955E-02-3.21703E-04 1.41508E-01-3.54537E-14 2.03584E-13
 -1      3614 1.99961E+01 3.07980E-02 8.16721E-04 1.50178E-01-2.86771E-14 2.18014E-13
 -1      3615 1.99989E+01 2.64177E-02-3.05079E-04 1.29628E-01-5.25014E-14 2.97698E-13
 -1      3616 1.99868E+01 3.39381E-02-2.54998E-04 1.63823E-01-1.55149E-14 2.40720E-13
 -1      3617 1.99897E+01 3.43424E-02 1.01014E-03 1.76144E-01 2.70878E-14 2.98645E-13
 -1      3618 1.99781E+01 4.14820E-02-4.65622E-04 1.52876E-01 1.17194E-14 2.56798E-13
 -1      3619 1.99863E+01 2.96227E-02-6.78974E-05 1.95303E-01 4.90496E-14 3.35437E-13
 -1      3620 1.99974E+01 2.01772E-02 1.26000E-03 2.11031E-01-1.29236E-15 3.56685E-13
 -1      3621 1.99663E+01 4.40994E-02-7.91426E-04 1.87023E-01 4.24738E-14 3.26833E-13
 -1      3622 2.00040E+01 3.42414E-03 3.11243E-04 2.36025E-01-6.53549E-14 3.77246E-13
 -1      3623 2.00277E+01-2.06761E-02 1.54165E-03 2.54185E-01 6.35372E-15 3.51594E-13
 -1      3624 1.99695E+01 2.62785E-02-1.35579E-03 2.33602E-01 4.20956E-15 3.24799E-13
 -1      3625 2.00508E+01-5.45757E-02 9.83420E-04 2.84489E-01-2.42494E-15 3.36791E-13
 -1      3626 2.00929E+01-9.90499E-02 1.78281E-03 3.02830E-01-6.66390E-14 2.74931E-13
 -1      3627 1.99976E+01-2.23748E-02-2.24708E-03 2.93195E-01-1.69625E-14 3.15574E-13
 -1      3628 2.01419E+01-1.55721E-01 2.07482E-03 3.36189E-01-7.29610E-14 2.63952E-13
 -1      3629 2.02095E+01-2.26492E-01 1.83341E-03 3.50364E-01-6.58019E-14 1.95723E-13
 -1      3630 2.00654E+01-1.14530E-01-3.55673E-03 3.64098E-01-3.92966E-14 2.51340E-13
 -1      3631 2.02969E+01-3.10862E-01 3.71246E-03 3.81376E-01-5.73021E-14 1.87597E-13
 -1      3632 2.03979E+01-4.12296E-01 1.44833E-03 3.83870E-01-6.58083E-14 1.44538E-13
 -1      3633 2.01934E+01-2.63831E-01-5.34166E-03 4.39989E-01-8.78636E-14 1.54842E-13
 -1      3634 2.05387E+01-5.26101E-01 5.97244E-03 4.02127E-01-4.60497E-14 1.75184E-13
 -1      3635 2.06792E+01-6.57724E-01 2.44237E-04 3.81201E-01-4.16420E-14 2.66443E-13
 -1      3636 2.04076E+01-4.81310E-01-7.53472E-03 5.06442E-01-4.02318E-15 2.50281E-13
 -1      3637 2.08888E+01-7.95079E-01 8.75520E-03 3.68732E-01 7.27830E-15 3.05838E-13
 -1      3638 2.10692E+01-9.45128E-01-2.19056E-03 3.08082E-01 4.48842E-14 3.65140E-13
 -1      3639 2.07373E+01-7.68733E-01-9.88808E-03 5.36373E-01 6.36692E-15 3.40253E-13
 -1      3640 2.13563E+01-1.08434E+00 1.13162E-02 2.38370E-01-2.41018E-16 3.37323E-13
 -1      3641 2.15657E+01-1.22041E+00-5.69751E-03 1.20243E-01 1.11705E-13 2.93726E-13
 -1      3642 2.12078E+01-1.10318E+00-1.15123E-02 4.84257E-01 2.62914E-14 4.06553E-13
 -1      3643 2.19192E+01-1.31688E+00 1.19439E-02-3.61764E-02 1.92748E-13 8.67919E-14
 -1      3644 2.21317E+01-1.37467E+00-8.55120E-03-2.23294E-01 2.10140E-13 6.79886E-14
 -1      3645 2.18181E+01-1.41944E+00-1.35556E-02 2.86484E-01 2.14669E-14 2.11749E-13
 -1      3646 2.25086E+01-1.35640E+00 8.84619E-03-4.81089E-01 1.95966E-13 8.58639E-15
 -1      3647 2.26837E+01-1.24609E+00-8.26952E-03-7.25332E-01 1.31891E-13 5.13880E-14
 -1      3648 2.25466E+01-1.53657E+00 3.36199E-03-1.22852E-01 1.76714E-13 2.55845E-14
 -1      3649 2.29757E+01-1.01031E+00-3.06480E-03-1.06100E+00 6.09094E-14 5.59346E-14
 -1      3650 2.30716E+01-6.34778E-01-8.13183E-04-1.29029E+00 3.50928E-14 8.88120E-14
 -1      3651 2.32345E+01-1.33204E+00 1.27264E-02-7.18065E-01 1.14786E-13-7.40894E-14
 -1      3652 2.31750E+01-1.25504E-01-1.83805E-02-1.58369E+00 3.62275E-14 1.59029E-13
 -1      3653 2.31322E+01 4.84172E-01 3.84871E-03-1.65783E+00 1.27036E-13 2.69429E-13
 -1      3654 2.36919E+01-5.35102E-01 1.47177E-02-1.38868E+00 9.92388E-14 4.36103E-14
 -1      3655 2.32004E+01 1.81447E+00-1.95495E-02-1.70159E+00 3.42688E-14 1.25188E-13
 -1      3656 2.30920E+01 2.46440E+00-2.15533E-02-1.49185E+00-1.36662E-13 1.88113E-13
 -1      3657 2.29762E+01 3.05808E+00-4.52829E-03-1.07178E+00-2.15435E-13 3.75229E-14
 -1      3658 2.24668E+01 3.37304E+00-3.38296E-02-1.45182E-01-3.74648E-14-1.77178E-14
 -1      3659 2.25315E+01 3.31794E+00 2.33018E-03 3.88948E-01-1.00011E-13 1.04510E-13
 -1      3660 2.29436E+01 3.36211E+00-1.91791E-02 8.43447E-01-2.67780E-13-5.32705E-14
 -1      3661 2.30499E+01 2.90132E+00-2.29485E-02 1.26624E+00-3.35907E-13-1.23198E-13
 -1      3662 2.36620E+01 1.60592E+00-1.19911E-02 1.73925E+00-2.35884E-13-1.24775E-13
 -1      3663 2.37960E+01 8.05278E-01-2.42227E-02 1.81168E+00-2.85942E-13-1.03608E-13
 -1      3664 2.30154E+01-8.40675E-01-9.27585E-03 1.14678E+00-1.26854E-13 2.17082E-13
 -1      3665 2.29248E+01-1.13827E+00 5.77082E-03 9.11565E-01-1.08756E-13 2.39056E-13
 -1      3666 2.25912E+01-1.33001E+00-1.14486E-02 5.77037E-01-9.65241E-14 3.44663E-13
 -1      3667 2.24105E+01-1.39002E+00 9.75545E-03 3.46179E-01-6.08259E-15 2.59487E-13
 -1      3668 2.31131E+01-1.47337E+00-8.58777E-03 5.54804E-01-2.91243E-14 1.38884E-13
 -1      3669 2.20403E+01-1.38238E+00-8.59564E-03 1.06640E-01 2.94981E-14 2.94988E-13
 -1      3670 2.18280E+01-1.29931E+00 1.21851E-02-6.83730E-02-5.32144E-14 4.28242E-13
 -1      3671 2.24096E+01-1.58329E+00-1.00978E-02-1.80951E-02-1.72952E-15 1.12387E-13
 -1      3672 2.14880E+01-1.18610E+00-4.98307E-03-2.06937E-01-1.41380E-13 3.47612E-13
 -1      3673 2.12852E+01-1.03953E+00 1.09635E-02-3.13529E-01-9.48426E-14 2.42975E-13
 -1      3674 2.17209E+01-1.37964E+00-1.17060E-02-3.78600E-01-1.08652E-13 2.98073E-13
 -1      3675 2.10184E+01-8.94170E-01-1.56026E-03-3.69856E-01-3.03698E-14 3.34404E-13
 -1      3676 2.08479E+01-7.40510E-01 8.12041E-03-4.22526E-01 1.98284E-14 4.36273E-13
 -1      3677 2.11432E+01-1.04379E+00-1.06103E-02-5.39425E-01-3.38638E-14 5.46951E-13
 -1      3678 2.06573E+01-6.00988E-01 2.35687E-04-4.27113E-01 9.33955E-14 3.83643E-13
 -1      3679 2.05299E+01-4.66558E-01 5.77766E-03-4.41470E-01 2.41570E-13 3.75162E-13
 -1      3680 2.07123E+01-7.00592E-01-7.56931E-03-5.70342E-01 9.87164E-14 6.85110E-13
 -1      3681 2.04314E+01-3.86667E-01 2.59354E-04-4.39647E-01 1.96615E-13 3.49140E-13
 -1      3682 2.03551E+01-2.93707E-01 3.94667E-03-4.41730E-01 9.72383E-14 3.14373E-13
 -1      3683 2.02923E+01-2.74410E-01-2.89272E-03-5.30739E-01 1.73303E-13 3.39979E-13
 -1      3684 2.04489E+01-4.51296E-01-6.13091E-03-5.56197E-01 7.01043E-14 3.11824E-13
 -1      3685 2.01064E+01-5.06505E-02 3.77488E-04-1.39596E-01-6.05467E-14-7.76256E-14
 -1      3686 2.01185E+01-5.48138E-02 6.74137E-05-1.42501E-01-4.39371E-14-8.49841E-14
 -1      3687 2.03572E+01 7.07767E-01 1.30752E-03-1.47693E-01-6.35565E-14 3.06883E-14
 -1      3688 2.03509E+01 5.54062E-01-1.44668E-03-7.33907E-02-7.90822E-14 1.53666E-14
 -1      3689 2.03776E+01 5.37808E-01 8.19356E-04-5.25149E-02-7.51044E-14 4.88402E-15
 -1      3690 1.99839E+01 7.61647E-02 1.22314E-04-1.37201E-01-5.02170E-14-4.14140E-14
 -1      3691 1.99979E+01 5.11712E-02-6.19458E-04-1.32471E-01-5.05634E-14-7.57680E-14
 -1      3692 2.00190E+01 2.94717E-02 2.88989E-04-1.31493E-01-2.86171E-14-4.13763E-14
 -1      3693 2.00302E+01 9.85078E-03-4.41252E-04-1.29762E-01-3.59076E-14-6.04916E-14
 -1      3694 2.00101E+01 4.31935E-02 3.12206E-04-1.17503E-01-4.48424E-14-4.35443E-15
 -1      3695 1.98755E+01 2.10851E-01-6.42009E-04-1.61844E-01 6.61285E-14-5.82097E-14
 -1      3696 1.99050E+01 1.70656E-01-1.07077E-03-1.51293E-01 3.94630E-14-6.35525E-14
 -1      3697 1.97839E+01 3.07458E-01-1.42138E-03-1.76555E-01 3.21153E-14 2.59145E-14
 -1      3698 1.98295E+01 2.56112E-01-1.35719E-03-1.64615E-01 8.31950E-14 6.57332E-14
 -1      3699 1.98339E+01 2.43849E-01 1.93770E-03-1.27399E-01 6.93431E-15-4.40524E-14
 -1      3700 1.96479E+01 4.31336E-01-2.67131E-03-1.85880E-01 6.90940E-14 1.01383E-14
 -1      3701 1.97191E+01 3.65814E-01-1.67585E-03-1.75358E-01 4.05444E-14 4.72826E-14
 -1      3702 1.97271E+01 3.47264E-01 2.97726E-03-1.23107E-01 5.74691E-14 8.75330E-14
 -1      3703 1.94451E+01 5.88873E-01-4.63729E-03-1.79104E-01-2.95909E-15 3.42803E-14
 -1      3704 1.95557E+01 5.06248E-01-1.99420E-03-1.75279E-01 7.57391E-14 2.09386E-14
 -1      3705 1.95744E+01 4.76216E-01 4.43181E-03-1.01953E-01 7.08803E-14 1.58563E-13
 -1      3706 1.91437E+01 7.84764E-01-7.66562E-03-1.38131E-01-6.94308E-14 1.88543E-15
 -1      3707 1.93140E+01 6.83422E-01-2.24851E-03-1.50204E-01-2.80071E-14-1.24466E-14
 -1      3708 1.93551E+01 6.34082E-01 6.42745E-03-4.79192E-02-2.92537E-15 9.80368E-14
 -1      3709 1.87003E+01 1.01800E+00-1.22089E-02-3.39284E-02-6.36250E-14 3.37899E-14
 -1      3710 1.89589E+01 9.00006E-01-2.34622E-03-7.69575E-02-8.41025E-14 2.56414E-14
 -1      3711 1.90421E+01 8.20161E-01 9.09433E-03 6.43087E-02-9.59794E-14 3.31795E-14
 -1      3712 1.80559E+01 1.27447E+00-1.88036E-02 1.77552E-01-8.99560E-14-9.44069E-15
 -1      3713 1.84431E+01 1.14984E+00-2.17301E-03 8.05163E-02-2.04386E-14 2.67230E-14
 -1      3714 1.86008E+01 1.02452E+00 1.25716E-02 2.73263E-01-5.55902E-14 1.12677E-14
 -1      3715 1.71314E+01 1.51382E+00-2.77953E-02 5.58745E-01-4.97931E-14-9.33232E-14
 -1      3716 1.77039E+01 1.40815E+00-1.51731E-03 3.75194E-01-7.48084E-14-9.89540E-14
 -1      3717 1.79888E+01 1.21934E+00 1.70712E-02 6.34970E-01-6.95830E-15-1.36557E-14
 -1      3718 1.58291E+01 1.65547E+00-3.14787E-02 1.19731E+00-1.61967E-13-1.26794E-13
 -1      3719 1.66590E+01 1.61672E+00 1.68555E-03 8.80926E-01-9.78204E-14-4.97827E-14
 -1      3720 1.71586E+01 1.34146E+00 2.28985E-02 1.22993E+00-9.25974E-14 5.54608E-14
 -1      3721 1.42912E+01 1.59933E+00-1.19931E-02 2.04017E+00-3.09353E-13-1.83423E-13
 -1      3722 1.52806E+01 1.64043E+00 3.57404E-03 1.61232E+00-2.35801E-13-1.84763E-13
 -1      3723 1.61152E+01 1.29731E+00 3.10929E-02 2.08083E+00-1.56684E-13 1.69634E-15
 -1      3724 2.02810E+01 1.42301E+00 4.98606E-03 2.10068E-03-3.80635E-14-9.71278E-14
 -1      3725 2.01999E+01 1.66223E+00-2.41162E-03-3.44936E-02-3.04151E-14-1.18890E-13
 -1      3726 2.02031E+01 1.64314E+00-3.22289E-03-1.24816E-01-3.38010E-14-7.48163E-14
 -1      3727 2.03142E+01 3.18469E-01-1.44334E-03-1.36464E-02 3.73461E-14-1.59690E-14
 -1      3728 2.03318E+01 4.28342E-01 1.50783E-03 4.20745E-02 2.60594E-14-2.50855E-15
 -1      3729 1.80943E+01 1.23692E+00-3.99681E-03-3.45751E-01-1.51928E-13-1.57152E-13
 -1      3730 1.76223E+01 1.33630E+00-2.14870E-02-5.15395E-01 4.95812E-14-4.66169E-14
 -1      3731 1.98266E+01 5.41150E-02 8.05261E-03-8.18104E-01-1.98541E-14 2.75397E-13
 -1      3732 1.96282E+01 1.68232E-01-5.83811E-03-8.12590E-01 7.60474E-14 5.32163E-14
 -1      3733 2.03196E+01 9.41791E-01 5.95077E-03 3.22924E-01 3.32974E-14-1.25162E-14
 -1      3734 2.02658E+01 1.28630E+00-5.32101E-03 4.06413E-01 1.95540E-14-4.19685E-14
 -1      3735 1.94320E+01 3.70766E-01 1.14441E-02-7.76336E-01 1.11987E-13-1.06798E-13
 -1      3736 1.92228E+01 4.86039E-01-1.02806E-02-6.96469E-01 6.31805E-14-3.56234E-13
 -1      3737 1.94833E+01 2.00088E-01-5.03378E-03-9.34974E-01 8.89733E-14-7.23780E-14
 -1      3738 2.02471E+01 5.10710E-02-5.41702E-04-1.25061E-01 2.93135E-14-2.41106E-15
 -1      3739 2.02686E+01 9.79621E-02 1.25438E-03-1.06017E-01 3.04206E-14-1.63365E-14
 -1      3740 2.43635E+01 8.37305E-01-3.63595E-02-1.86409E+00 6.29852E-14 2.20201E-14
 -1      3741 2.45905E+01-3.91422E-01 9.89385E-03-1.49017E+00 1.66393E-13 7.20617E-14
 -1      3742 1.87901E+01-1.88694E+00 9.79305E-02-4.95287E+00 8.02310E-14 2.45437E-13
 -1      3743 2.05966E+01-2.75111E+00-5.32853E-02-4.37802E+00 1.67865E-13-4.12840E-13
 -1      3744 1.81386E+01-1.25807E+00 2.46263E-02-4.41440E+00 1.57038E-13 5.14452E-13
 -1      3745 2.02840E+01 1.55703E-01-1.06579E-03-8.50182E-02 4.83610E-14-1.60349E-14
 -1      3746 2.03059E+01 2.29295E-01 1.59625E-03-5.01519E-02 4.11738E-14-8.21823E-15
 -1      3747 2.03464E+01 3.13030E-01 1.27594E-04-1.91195E-02 4.81613E-14 1.54118E-14
 -1      3748 2.03163E+01 1.49753E-01-2.80778E-04-7.91165E-02 3.56462E-14 1.25133E-14
 -1      3749 1.91894E+01-1.56245E+00-1.55777E-02 4.02478E+00-3.19762E-14-2.25330E-13
 -1      3750 1.73206E+01-6.76828E-01 8.20562E-02 4.41914E+00-5.19919E-14-3.08893E-13
 -1      3751 2.22873E+01-2.92025E+00 7.34772E-02-3.50101E+00 1.19087E-13-2.71130E-13
 -1      3752 2.34507E+01-3.02475E+00-3.96558E-02-2.14302E+00 1.28857E-13 4.75223E-14
 -1      3753 1.42377E+01 1.20420E+00 1.05133E-01 3.09043E+00-2.65354E-13-1.75297E-13
 -1      3754 1.72329E+01 1.42460E+00 3.11106E-03-8.18829E-01 8.30703E-14-1.32583E-14
 -1      3755 1.65260E+01 1.46205E+00-3.38375E-02-1.11026E+00-9.34400E-14-2.16572E-13
 -1      3756 1.76773E+01 1.14562E+00 1.06957E-02-1.09973E+00 3.22086E-14-2.93665E-13
 -1      3757 2.02497E+01 4.87019E-01-1.39387E-03 1.33711E-01 4.02473E-14-5.69702E-14
 -1      3758 2.02696E+01 5.99305E-01 2.20585E-03 2.22021E-01 5.56544E-14-4.37693E-14
 -1      3759 2.02904E+01 7.18277E-01-2.00711E-03 2.57388E-01 5.66913E-14-1.09301E-14
 -1      3760 2.02952E+01 5.23831E-01-4.33850E-04 1.18897E-01 4.33716E-14-2.65134E-14
 -1      3761 2.03214E+01 1.02606E+00-1.33137E-03-2.57320E-01-4.20945E-14 1.39404E-14
 -1      3762 2.03367E+01 8.37044E-01-2.54717E-03-1.81015E-01-5.07976E-14 3.07658E-14
 -1      3763 2.03590E+01 8.02977E-01-3.10736E-03-1.41841E-01-5.39014E-14-2.20696E-14
 -1      3764 2.03194E+01 1.11764E+00 1.69993E-03-2.21469E-01-3.63408E-14-1.27642E-14
 -1      3765 2.02073E+01 1.62198E+00-2.29554E-03-1.82597E-01-3.03526E-14-4.20663E-14
 -1      3766 2.02190E+01 1.56437E+00-4.29164E-03-2.63886E-01-4.15552E-14-3.59049E-14
 -1      3767 2.02921E+01 1.32577E+00 2.76015E-03-2.18428E-01-4.24204E-14-2.56428E-14
 -1      3768 2.02862E+01 1.40131E+00 6.33487E-03-1.17820E-01-4.31262E-14-6.57117E-14
 -1      3769 1.55567E+01 2.37938E-01-1.63006E-02 3.80292E+00-1.55328E-13-2.40235E-13
 -1      3770 1.99386E+01 1.35416E-01-1.64706E-04-1.47719E-01-1.94799E-15-4.11472E-14
 -1      3771 1.99582E+01 1.03793E-01-8.26010E-04-1.39867E-01-2.02591E-14-4.02630E-14
 -1      3772 1.99098E+01 1.61408E-01 1.20270E-03-1.24580E-01 7.37480E-15-1.47780E-13
 -1      3773 2.02518E+01 1.38938E+00-1.83219E-03 3.42162E-01 5.91923E-15-4.58441E-14
 -1      3774 2.43174E+01-2.71145E+00 5.74427E-02-1.08777E+00 2.61275E-13 2.19578E-13
 -1      3775 2.43451E+01-2.33596E+00-2.30673E-02-2.93668E-01 2.54218E-13 1.75678E-13
 -1      3776 2.14504E+01-2.18946E+00 2.02225E-02 2.96734E+00 7.72941E-14 9.02095E-14
 -1      3777 2.04625E+01-1.95503E+00 4.37903E-02 3.72187E+00 3.04062E-14-7.27526E-14
 -1      3778 1.92029E+01-1.18409E+00-7.38145E-03 3.52940E+00 1.55160E-14-1.39192E-13
 -1      3779 2.40654E+01-2.25507E+00 1.81273E-02 3.87703E-01 1.28076E-13 4.36621E-14
 -1      3780 2.40929E+01-2.83919E+00 1.04456E-05 1.31415E+00 8.90295E-14-4.12019E-14
 -1      3781 2.29752E+01-2.62727E+00-1.69370E-02 1.85071E+00 7.28610E-14-1.12084E-14
 -1      3782 1.99626E+01-6.84261E-02-2.65442E-03-7.76494E-01-5.02176E-14 5.04562E-13
 -1      3783 1.98953E+01-9.30444E-02-3.99274E-03-9.13526E-01 6.13115E-14 4.24098E-13
 -1      3784 2.00867E+01-1.33181E-01 5.90766E-03-7.38551E-01 5.23162E-14 4.41838E-13
 -1      3785 1.83298E+01 1.12970E+00-1.34575E-02-2.56943E-01 7.85396E-16-1.54732E-13
 -1      3786 1.83057E+01 1.08525E+00 2.35564E-02-6.57603E-01 4.59212E-14-2.61109E-13
 -1      3787 1.85646E+01 1.04601E+00-5.92022E-03-2.16541E-01 7.46560E-14-3.05253E-13
 -1      3788 2.35841E+01 3.67328E+00-1.78864E-02-8.45165E-01-2.14599E-13-2.38360E-14
 -1      3789 2.45947E+01 2.06594E-01 4.95967E-04 1.71162E+00-2.25384E-13-1.38588E-13
 -1      3790 2.32714E+01 4.02184E-02-6.00965E-03 1.55391E+00-3.34470E-13 9.94716E-14
 -1      3791 2.02286E+01-2.25657E-01-8.66169E-05-5.95508E-01 1.63225E-13 3.50613E-13
 -1      3792 2.33011E+01-4.94981E-01-5.84441E-03 1.42372E+00-1.63611E-13 1.40081E-13
 -1      3793 2.01546E+01-5.74226E-02-4.26918E-04-1.29980E-01-1.24589E-15-4.79703E-15
 -1      3794 2.01377E+01-5.54754E-02 2.92570E-04-1.45552E-01-1.56169E-14-5.95635E-14
 -1      3795 2.01519E+01-5.21744E-02 2.88238E-04-1.47262E-01 1.29248E-14-6.85242E-14
 -1      3796 1.90303E+01 8.74032E-01 1.96503E-04-6.92017E-02-5.25115E-14-2.85974E-13
 -1      3797 1.99660E+01 9.56483E-02 6.83719E-04-1.20288E-01-2.34349E-14-7.64708E-14
 -1      3798 2.41555E+01 4.54120E+00-2.04097E-02-6.01098E-01-1.91187E-13-1.03339E-13
 -1      3799 2.00477E+01 1.80512E-03 2.88480E-05-1.17488E-01-5.23271E-14-5.94901E-14
 -1      3800 2.00490E+01-6.90478E-03 3.77213E-04-1.30636E-01-7.58374E-14-8.42605E-14
 -1      3801 2.00592E+01-2.17369E-02-2.79078E-04-1.31418E-01-4.98447E-14-7.24821E-14
 -1      3802 1.67143E+01 2.71088E-01 1.38063E-02 3.27206E+00-8.00046E-14-1.84281E-13
 -1      3803 1.67914E+01 1.11781E+00 2.30611E-02-1.92495E+00-8.68147E-14-1.13360E-14
 -1      3804 1.60784E+01 1.48614E+00 7.61523E-03-1.55923E+00-1.33722E-13-1.60991E-13
 -1      3805 2.03198E+01 1.19760E+00-2.51389E-03 3.13531E-02-3.85442E-14-7.97776E-14
 -1      3806 2.03191E+01 1.19812E+00-2.58953E-03-2.88494E-02-5.32808E-14-9.59193E-14
 -1      3807 2.01395E+01-3.87874E-02-6.15823E-04-1.63640E-01 1.74929E-14-5.51163E-14
 -1      3808 2.37027E+01-9.05071E-01-1.79116E-03 1.16529E+00-1.04839E-13-1.66698E-14
 -1      3809 2.50741E+01-6.29309E-01-1.21987E-02 1.43533E+00-1.07388E-13-1.38388E-13
 -1      3810 2.03149E+01 8.11122E-01-8.60048E-04 2.37739E-01 3.75973E-14-2.83795E-14
 -1      3811 1.45026E+01 1.48187E+00 2.76290E-03-2.13883E+00-4.40811E-14-1.96777E-13
 -1      3812 1.88656E+01 6.76273E-01-4.16464E-03-7.52422E-01 1.25421E-14-1.83925E-13
 -1      3813 1.89180E+01 7.83264E-01 7.32898E-03-5.19019E-01-6.55967E-14-3.64910E-13
 -1      3814 2.02281E+01 1.57461E-02 8.88492E-04-1.35202E-01 4.38028E-14 1.04365E-14
 -1      3815 2.02772E+01 4.50395E-02-4.20370E-04-1.12866E-01 3.19658E-14 2.16634E-14
 -1      3816 2.02088E+01-1.17055E-02-1.35212E-04-1.43598E-01 4.83594E-14 6.28026E-15
 -1      3817 2.43760E+01-1.11065E+00-2.70266E-02-1.09947E+00 1.44280E-13-2.09767E-14
 -1      3818 2.03534E+01 5.06499E-01 5.49769E-04 6.10210E-02 2.99613E-14 2.06077E-15
 -1      3819 2.03238E+01 5.11158E-01-1.75695E-03 8.25272E-02 3.44846E-14-1.03645E-14
 -1      3820 2.03282E+01 6.06108E-01 1.85453E-03 1.42679E-01 4.30534E-14-4.66489E-15
 -1      3821 2.00773E+01-3.37862E-02 4.02135E-04-1.33864E-01-1.48650E-14-7.60865E-14
 -1      3822 2.00880E+01-4.36970E-02-1.15664E-04-1.36303E-01-3.77194E-14-6.92543E-14
 -1      3823 2.01178E+01-4.97034E-02-3.15464E-04-1.25057E-01-3.15722E-14-6.77751E-14
 -1      3824 2.00828E+01-2.93106E-02-1.66142E-04-1.20301E-01-2.46327E-14-8.78314E-14
 -1      3825 2.11796E+01-2.42976E+00-7.15168E-03-3.52119E+00 1.00584E-13-2.65237E-13
 -1      3826 2.03102E+01 1.19811E+00 4.32117E-03 2.46609E-01 1.60944E-15-3.15181E-14
 -1      3827 2.45797E+01-1.37483E+00-1.15936E-02 8.45307E-01 6.67088E-15-4.51930E-14
 -1      3828 2.31795E+01-2.61295E+00-1.36534E-03-1.68055E+00 1.38737E-13 8.67600E-14
 -1      3829 1.53362E+01 9.44440E-01 6.04530E-02-3.03650E+00 4.07487E-15-7.25808E-15
 -1      3830 2.36958E+01 1.29816E+00-1.10093E-02-1.86558E+00 1.15066E-13 1.04357E-13
 -1      3831 2.03201E+01 1.14488E+00-4.80887E-03 1.33230E-01-1.24393E-14-3.22155E-14
 -1      3832 2.03208E+01 1.18375E+00-1.91158E-03 7.76808E-02-2.17377E-14-4.41353E-14
 -1      3833 2.03750E+01 9.99775E-01 5.10866E-03 3.92355E-02-1.94753E-14-4.07624E-14
 -1      3834 1.61518E+01 3.53238E-01-1.46891E-02-3.35352E+00 5.91016E-14 3.82357E-13
 -1      3835 2.40345E+01-1.54998E+00-2.70546E-03-6.26485E-01 1.20708E-13 1.35707E-14
 -1      3836 2.46954E+01 2.90966E+00-4.29019E-02 1.83619E+00-2.56066E-13-1.39902E-13
 -1      3837 2.39402E+01 3.31308E+00-2.73515E-02 1.38766E+00-3.09855E-13-2.46515E-13
 -1      3838 2.35666E+01 4.06716E+00-1.94404E-02 5.56103E-01-1.80958E-13-1.96496E-13
 -1      3839 2.03742E+01 1.84988E-01 6.66211E-04 4.78120E-02-3.56354E-14-7.30878E-15
 -1      3840 2.03544E+01 1.17159E-01-6.93571E-04 6.69144E-02-3.27852E-14-1.26505E-14
 -1      3841 2.03360E+01 6.38480E-02 5.86390E-04 7.52764E-02-4.00064E-14 1.22977E-14
 -1      3842 2.03132E+01 2.16272E-02-2.82386E-04 8.54901E-02-3.81951E-14 2.76438E-14
 -1      3843 2.03664E+01 1.02968E-01-4.41971E-05 5.35856E-02-3.00092E-14-3.16411E-14
 -1      3844 2.02903E+01-9.84426E-03 4.40946E-04 8.88046E-02-1.00942E-14 2.79298E-14
 -1      3845 2.02669E+01-3.31447E-02 3.62575E-06 9.31426E-02 1.04058E-14 3.53027E-14
 -1      3846 2.03223E+01 1.17744E-02-3.25676E-04 6.69333E-02-4.83910E-15 3.00490E-14
 -1      3847 2.02422E+01-4.87700E-02 3.10405E-04 9.33914E-02 2.81244E-14 7.40341E-14
 -1      3848 2.02196E+01-5.84307E-02 1.92401E-04 9.42728E-02 6.82088E-14 9.42627E-14
 -1      3849 2.02732E+01-3.91017E-02-4.24890E-04 7.24745E-02 5.23828E-14 9.16800E-14
 -1      3850 2.01949E+01-6.28999E-02 1.75849E-04 9.31226E-02 6.14567E-14 1.20607E-13
 -1      3851 2.01739E+01-6.30371E-02 3.06773E-04 9.23699E-02 3.82216E-14 1.52835E-13
 -1      3852 2.02233E+01-6.09298E-02-4.35184E-04 7.34086E-02 5.95207E-14 1.37113E-13
 -1      3853 2.01499E+01-5.97150E-02 3.92810E-05 9.10172E-02 1.82841E-14 1.84635E-13
 -1      3854 2.01308E+01-5.33210E-02 3.82190E-04 9.01498E-02 5.33771E-14 1.84238E-13
 -1      3855 2.01749E+01-6.23863E-02-4.17205E-04 7.25191E-02 6.07199E-14 1.91173E-13
 -1      3856 2.01077E+01-4.47846E-02-8.19935E-05 8.96630E-02 2.30078E-14 1.74967E-13
 -1      3857 2.00905E+01-3.40980E-02 4.45433E-04 8.98937E-02 4.14059E-15 1.22420E-13
 -1      3858 2.01286E+01-4.95716E-02-3.48629E-04 7.20060E-02 3.43298E-14 1.80064E-13
 -1      3859 2.00685E+01-2.24599E-02-2.02151E-04 9.13355E-02 4.99235E-14 9.29107E-14
 -1      3860 2.00531E+01-9.43775E-03 5.13032E-04 9.36441E-02 2.73730E-14 1.12217E-13
 -1      3861 2.00849E+01-2.72861E-02-2.50887E-04 7.39358E-02 1.67068E-14 1.28362E-13
 -1      3862 2.00319E+01 3.57641E-03-3.27469E-04 9.79291E-02-6.17621E-15 1.24697E-13
 -1      3863 2.00185E+01 1.72540E-02 6.18160E-04 1.03298E-01-9.93844E-15 1.38448E-13
 -1      3864 2.00435E+01 3.41269E-04-1.91686E-04 8.03120E-02 3.00380E-14 5.41619E-14
 -1      3865 1.99982E+01 2.98321E-02-4.39588E-04 1.11618E-01 1.11161E-14 1.52157E-13
 -1      3866 1.99874E+01 4.22398E-02 7.86564E-04 1.21032E-01-3.24924E-14 1.95286E-13
 -1      3867 2.00041E+01 2.99857E-02-1.57367E-04 9.33079E-02-2.79554E-16 7.97510E-14
 -1      3868 1.99684E+01 5.22185E-02-5.28597E-04 1.34774E-01-1.21518E-14 2.56440E-13
 -1      3869 1.99615E+01 6.09254E-02 1.04855E-03 1.49284E-01 4.09927E-14 2.52775E-13
 -1      3870 1.99670E+01 5.77183E-02-1.91897E-04 1.15657E-01 2.45458E-14 1.44240E-13
 -1      3871 1.99450E+01 6.54522E-02-5.64704E-04 1.70142E-01 4.54789E-14 2.74312E-13
 -1      3872 1.99444E+01 6.71485E-02 1.43272E-03 1.90831E-01 3.42550E-14 2.86771E-13
 -1      3873 1.99339E+01 7.86188E-02-3.50345E-04 1.50686E-01 4.85624E-14 2.27637E-13
 -1      3874 1.99331E+01 6.23227E-02-4.89680E-04 2.20767E-01-3.93726E-14 2.38865E-13
 -1      3875 1.99429E+01 5.24419E-02 1.95705E-03 2.48574E-01-4.89223E-14 1.94521E-13
 -1      3876 1.99082E+01 8.59240E-02-7.06908E-04 2.02484E-01-5.93946E-14 1.63143E-13
 -1      3877 1.99414E+01 3.30019E-02-2.04103E-04 2.89574E-01-3.49406E-14 2.00373E-13
 -1      3878 1.99677E+01 5.41594E-03 2.60881E-03 3.24870E-01-3.20179E-15 1.80872E-13
 -1      3879 1.98970E+01 7.01208E-02-1.36724E-03 2.75693E-01-3.57597E-14 7.22888E-14
 -1      3880 1.99840E+01-3.54057E-02 4.50095E-04 3.78320E-01-1.66295E-14 1.78957E-13
 -1      3881 2.00353E+01-8.84488E-02 3.30414E-03 4.20063E-01-8.59341E-14 1.19725E-13
 -1      3882 1.99119E+01 1.81062E-02-2.47764E-03 3.74762E-01-3.05885E-14 6.28138E-14
 -1      3883 2.00818E+01-1.58635E-01 1.69975E-03 4.85448E-01-5.36346E-14 1.32687E-13
 -1      3884 2.01693E+01-2.45944E-01 3.81616E-03 5.29756E-01-2.86843E-14 2.03330E-13
 -1      3885 1.99720E+01-8.72833E-02-4.22894E-03 5.02172E-01-3.96206E-14 9.45961E-14
 -1      3886 2.02640E+01-3.53406E-01 3.82378E-03 6.02250E-01 2.76553E-15 2.26121E-13
 -1      3887 2.04005E+01-4.82743E-01 3.80653E-03 6.40249E-01 3.01933E-14 2.49922E-13
 -1      3888 2.01054E+01-2.66546E-01-6.81473E-03 6.54841E-01 1.66600E-14 2.10736E-13
 -1      3889 2.05668E+01-6.32194E-01 7.08969E-03 7.07666E-01 1.10987E-14 3.34995E-13
 -1      3890 2.07647E+01-8.06696E-01 2.63480E-03 7.22880E-01 4.83621E-14 4.05280E-13
 -1      3891 2.03508E+01-5.39118E-01-1.01998E-02 8.17914E-01 9.35697E-14 2.74718E-13
 -1      3892 2.10314E+01-9.94450E-01 1.15839E-02 7.60457E-01-1.68577E-14 3.28689E-13
 -1      3893 2.12992E+01-1.20067E+00 4.82969E-04 7.25161E-01-2.63110E-14 3.11189E-13
 -1      3894 2.07551E+01-9.16924E-01-1.46970E-02 9.59047E-01-1.94936E-14 2.69117E-13
 -1      3895 2.16915E+01-1.39761E+00 1.86316E-02 6.93106E-01-7.86842E-14 2.45896E-13
 -1      3896 2.20142E+01-1.59632E+00-1.87456E-03 5.71972E-01 6.42021E-15 1.61372E-13
 -1      3897 2.13706E+01-1.38063E+00-1.93256E-02 1.00929E+00-9.93390E-14 1.02067E-13
 -1      3898 2.27835E+01-1.93035E+00 6.59171E-03 5.15784E-01 1.08026E-13 1.43785E-13
 -1      3899 2.31632E+01-1.98495E+00-9.74058E-03 2.68821E-01 1.25819E-13 4.44800E-14
 -1      3900 2.37272E+01-1.83744E+00-7.00001E-03-2.64272E-01 1.48608E-13 3.03303E-14
 -1      3901 2.03375E+01 8.03563E-01 4.48460E-04 1.92728E-01 2.76250E-14-2.50522E-14
 -1      3902 2.03689E+01-3.69692E-01 4.87363E-03-6.48024E-01 8.43771E-14 4.70645E-13
 -1      3903 2.02006E+01-2.46402E-01-3.63179E-03-6.89188E-01 1.19599E-13 5.19127E-13
 -1      3904 2.02037E+01-3.03389E-01-1.86543E-03-8.11787E-01-4.12152E-14 5.38280E-13
 -1      3905 2.04580E+01-4.69731E-01 1.44011E-03-6.56232E-01 4.63476E-14 4.90663E-13
 -1      3906 2.27494E+01-1.81698E+00 3.39296E-03-2.98100E-01 1.91689E-14 1.91593E-13
 -1      3907 2.23770E+01-1.71073E+00 2.01653E-02-5.14224E-01-8.21601E-14 9.25219E-14
 -1      3908 2.18896E+01-1.54268E+00-3.16508E-03-6.49083E-01-2.42610E-14 2.85831E-13
 -1      3909 2.15775E+01-1.33327E+00 1.61939E-02-7.46586E-01-3.07895E-14 3.80219E-13
 -1      3910 2.20595E+01-1.79509E+00-2.98386E-02-9.39977E-01 1.88191E-14 3.99045E-13
 -1      3911 2.12204E+01-1.13342E+00 1.77945E-04-7.65844E-01-3.58584E-14 5.09327E-13
 -1      3912 2.09714E+01-9.26100E-01 9.59806E-03-7.88010E-01 1.02247E-13 6.69523E-13
 -1      3913 2.12799E+01-1.30168E+00-1.75552E-02-1.03668E+00 5.58761E-14 4.92079E-13
 -1      3914 2.07716E+01-7.70832E-01 2.13286E-03-7.37830E-01 7.15770E-14 6.80793E-13
 -1      3915 2.05891E+01-5.97198E-01 5.56359E-03-7.19012E-01 5.93384E-14 6.00440E-13
 -1      3916 2.04545E+01-5.40648E-01-5.57083E-03-8.15278E-01-7.26723E-14 6.42177E-13
 -1      3917 2.07638E+01-8.65352E-01-1.03806E-02-9.55636E-01 1.34149E-13 5.41279E-13
 -1      3918 2.03916E+01 6.32964E-01-1.80779E-03-7.19667E-02-4.01508E-14-2.40367E-14
 -1      3919 2.03916E+01 4.92187E-01-1.93879E-03-2.29378E-02-5.67001E-14-7.45782E-16
 -1      3920 1.88530E+01 9.45846E-01-5.73639E-03-9.07199E-02 2.56910E-14-2.14984E-13
 -1      3921 1.72408E+01 3.08863E-01 1.84696E-02-2.89798E+00 1.49887E-13 3.46755E-13
 -1      3922 1.74244E+01-3.26646E-01 5.73717E-02-3.81251E+00 2.25630E-13 6.81966E-13
 -1      3923 1.96750E+01 3.53959E-01-2.76579E-03-6.32036E-02 1.73037E-14 1.35647E-16
 -1      3924 1.97424E+01 3.03131E-01-4.94882E-04-7.21414E-02 6.47618E-15-1.75251E-14
 -1      3925 1.97951E+01 2.55521E-01-1.63153E-03-8.59529E-02 4.72548E-15 2.49030E-14
 -1      3926 1.98421E+01 2.13237E-01-5.48072E-04-8.80564E-02-1.14568E-14-7.47300E-14
 -1      3927 1.97656E+01 2.74914E-01 1.94132E-03-3.18244E-02-2.48964E-15-7.26113E-14
 -1      3928 1.92768E+01 6.07047E-01-6.81866E-03 8.15781E-02 1.54534E-14 7.52089E-14
 -1      3929 1.94173E+01 5.39436E-01 2.84780E-04 3.49572E-02 6.03994E-14 1.17323E-13
 -1      3930 1.89586E+01 7.53554E-01-1.01340E-02 2.52718E-01-1.07301E-13-4.92653E-14
 -1      3931 1.91590E+01 6.83380E-01 1.37966E-03 1.65666E-01-4.68625E-14-1.03346E-14
 -1      3932 1.92632E+01 5.87452E-01 4.83914E-03 2.47925E-01 3.33233E-14 9.20886E-14
 -1      3933 1.85294E+01 8.91412E-01-1.45636E-02 5.42449E-01-6.16062E-14-2.84168E-14
 -1      3934 1.88106E+01 8.31095E-01 3.36969E-03 3.90969E-01-1.46734E-13-5.82321E-14
 -1      3935 1.89827E+01 6.88436E-01 5.93550E-03 4.89740E-01-9.42505E-14-1.09709E-13
 -1      3936 1.79685E+01 9.81142E-01-1.89686E-02 1.01119E+00-8.91220E-14 1.23501E-13
 -1      3937 1.83524E+01 9.54095E-01 6.80326E-03 7.61042E-01-4.97582E-14 9.23065E-14
 -1      3938 1.86325E+01 7.46628E-01 6.81867E-03 8.72661E-01-1.53650E-13 1.46984E-14
 -1      3939 1.72708E+01 9.48300E-01-1.71539E-02 1.73499E+00-7.70174E-14 1.33045E-13
 -1      3940 1.77705E+01 9.95662E-01 1.22595E-02 1.33724E+00-3.23398E-14 1.35382E-13
 -1      3941 1.82129E+01 7.10013E-01 6.70442E-03 1.45699E+00-3.18663E-14 1.62585E-13
 -1      3942 1.66634E+01 6.91138E-01 6.90462E-03 2.69929E+00-7.86914E-14-9.46916E-14
 -1      3943 1.72240E+01 7.96451E-01 2.06594E-02 2.18415E+00-7.25412E-14 2.83898E-14
 -1      3944 1.78860E+01 4.10329E-01-6.82500E-03 2.25874E+00-1.12471E-14 2.03162E-14
 -1      3945 1.79388E+01-2.92204E-01-2.04055E-02 3.23794E+00 3.95513E-14-2.26674E-13
 -1      3946 1.78231E+01 7.15826E-01 2.27574E-02-1.84971E+00 1.53064E-13 6.11027E-14
 -1      3947 1.73183E+01 5.99281E-01-4.35578E-04-2.36066E+00 1.54192E-13 2.82318E-13
 -1      3948 1.82580E+01-1.36364E-01-2.10286E-02-2.75603E+00 1.62456E-13 2.62458E-13
 -1      3949 2.03749E+01 1.00281E+00 4.67751E-03-3.06761E-02-5.13426E-14-7.50685E-14
 -1      3950 2.03206E+01 1.18906E+00-2.05926E-03-6.53938E-02-5.80581E-14-9.53295E-14
 -1      3951 2.03239E+01 1.16231E+00-3.41542E-03-1.14950E-01-4.65354E-14-6.45507E-14
 -1      3952 2.01719E+01-4.44188E-02 1.29796E-04-1.48414E-01 2.68128E-14-4.13609E-14
 -1      3953 2.01885E+01-3.09835E-02 5.57290E-04-1.46606E-01 5.29372E-14-1.02443E-15
 -1      3954 2.02353E+01-1.72186E-02-4.91431E-04-1.28406E-01 4.61818E-14 5.27019E-14
 -1      3955 2.01939E+01-4.85813E-02-4.98563E-04-1.32407E-01 3.25691E-14 2.97139E-14
 -1      3956 1.95083E+01 4.71439E-01-4.43198E-03-1.38903E-02 5.46274E-14 1.06388E-13
 -1      3957 1.96058E+01 4.11567E-01-2.64382E-04-3.63555E-02 8.47946E-14 6.13250E-14
 -1      3958 1.96429E+01 3.69590E-01 2.74915E-03 1.54667E-02-1.89022E-14-7.71732E-14
 -1      3959 2.00011E+01 5.32186E-02-5.68085E-05-9.78888E-02-3.43339E-14-5.10115E-14
 -1      3960 2.00215E+01 2.99366E-02-3.04682E-04-9.74126E-02-3.26650E-14-1.51573E-14
 -1      3961 2.36548E+01-1.86663E+00-9.22175E-03 1.57374E-01 8.30054E-14 8.56508E-14
 -1      3962 2.33164E+01-1.95886E+00 1.72053E-02-1.72097E-01 8.62095E-14 1.55051E-13
 -1      3963 1.88070E+01 8.78542E-01 1.22454E-03-3.92929E-01 9.47679E-15-5.03459E-14
 -1      3964 2.43097E+01-1.67861E+00 1.80536E-02 5.73604E-01 1.05698E-13 9.70174E-14
 -1      3965 2.02171E+01-1.71776E+00 4.72253E-02-3.58505E+00 6.83331E-14-2.92583E-13
 -1      3966 2.13817E+01-2.11614E+00 2.29716E-03-2.83794E+00-5.94793E-15-1.55585E-13
 -1      3967 2.03973E+01 3.70181E-01 9.22812E-04 4.92914E-04-7.70964E-14-3.44112E-15
 -1      3968 2.03840E+01 2.68385E-01-1.06968E-03 3.24857E-02-6.70884E-14-1.84299E-14
 -1      3969 2.03987E+01 2.47661E-01 1.10586E-04 2.87861E-02-4.13725E-14-4.95561E-15
 -1      3970 2.04092E+01 4.59325E-01-9.85547E-04-1.19477E-02-5.94876E-14-4.46504E-14
 -1      3971 2.26112E+01-2.27959E+00 1.83470E-02-1.65774E+00 3.93496E-14 1.12900E-13
 -1      3972 2.31043E+01-2.25209E+00-3.84150E-02-7.53224E-01 3.41070E-14 1.38471E-13
 -1      3973 2.03448E+01 9.03627E-01-2.74493E-03 1.94965E-01 7.70957E-15-3.19093E-14
 -1      3974 2.03373E+01 1.06320E+00 1.66967E-03 1.59804E-01-5.23893E-15-2.25390E-14
 -1      3975 2.03805E+01 8.91764E-01 4.85930E-03 9.92701E-02 5.03819E-15-2.56622E-14
 -1      3976 2.03612E+01 6.93523E-01-1.15472E-03 1.07220E-01 4.01319E-15-1.05897E-15
 -1      3977 1.82966E+01 8.14198E-01-2.21227E-03-1.11675E+00 1.58166E-13-1.95439E-13
 -1      3978 1.79271E+01 8.09121E-01-9.35982E-03-1.46325E+00 7.17555E-14-9.36905E-14
 -1      3979 1.84738E+01 3.43948E-01-6.24183E-03-1.83478E+00 2.73868E-13 1.38100E-13
 -1      3980 1.88416E+01-1.21060E+00-2.83690E-02-3.77961E+00 2.14682E-13 2.09156E-13
 -1      3981 2.45953E+01 1.92010E+00 1.05524E-02 1.91164E+00-2.10785E-13-1.46202E-13
 -1      3982 1.96287E+01 4.22752E-02 1.18292E-02-1.13940E+00 8.90081E-14 5.34332E-14
 -1      3983 1.93335E+01 2.17903E-01-4.78658E-03-1.10556E+00 1.46295E-13-1.27676E-13
 -1      3984 2.37774E+01 4.40750E+00-8.72502E-02 1.24171E-01-1.83078E-13-1.14654E-13
 -1      3985 1.85033E+01 7.62678E-01-5.58813E-03-9.84872E-01 1.35376E-14-1.68571E-13
 -1      3986 1.98827E+01 1.74293E-01-8.74664E-04-9.46934E-02-2.94830E-15-1.27247E-14
 -1      3987 1.99163E+01 1.39410E-01-5.08189E-04-9.40090E-02 3.53781E-14-1.77525E-14
 -1      3988 1.98583E+01 1.93421E-01 1.30296E-03-5.65875E-02 2.78714E-14 2.28323E-14
 -1      3989 1.99488E+01 1.07653E-01-3.77753E-04-9.71651E-02 4.00135E-14-6.14918E-14
 -1      3990 1.99739E+01 7.90057E-02-4.22749E-04-9.60000E-02-1.04044E-14 4.02882E-15
 -1      3991 1.99881E+01 6.68576E-02 4.29977E-04-7.54507E-02-1.98989E-14 6.79536E-15
 -1      3992 1.99301E+01 1.24488E-01 8.08964E-04-6.90098E-02 2.32879E-14 4.58900E-14
 -1      3993 1.98172E+01-1.23849E+00-3.65518E-02 2.95527E+00 6.87748E-14 4.69620E-14
 -1      3994 1.88960E+01-6.63098E-01 2.87543E-02 3.13446E+00-3.16847E-14-1.50603E-13
 -1      3995 1.87278E+01-2.82938E-01 1.59709E-02 2.70148E+00 3.46737E-14-1.87137E-13
 -1      3996 2.25055E+01-2.02011E+00-1.09497E-02 1.03094E+00 5.39326E-15 7.78023E-14
 -1      3997 1.89786E+01 4.64298E-01 1.36228E-02-1.15374E+00 9.51345E-14-2.21528E-13
 -1      3998 2.03786E+01 8.40641E-01 2.49520E-03-9.02827E-02-4.93440E-14-3.60658E-14
 -1      3999 2.03918E+01 7.88826E-01 1.02513E-03-5.68327E-02-4.60776E-14-5.25933E-14
 -1      4000 2.29182E+01 2.14370E+00-4.93705E-02 1.55262E+00-2.94279E-13-6.77436E-14
 -1      4001 2.01680E+01-5.91293E-02 2.49183E-04-1.10696E-01 3.07156E-14 8.51920E-15
 -1      4002 2.01875E+01-5.88495E-02 2.08000E-04-1.11952E-01 5.56340E-14 4.92389E-14
 -1      4003 2.00377E+01 1.95315E-02 9.96280E-05-7.96881E-02-8.81575E-14-9.95718E-14
 -1      4004 2.00456E+01 9.38322E-03 1.41245E-04-9.91758E-02-7.98585E-14-6.97420E-14
 -1      4005 2.00638E+01-9.00440E-03-1.82674E-04-9.97045E-02-1.08216E-13-6.35854E-14
 -1      4006 1.94795E+01 4.75903E-01 3.73058E-03 1.00958E-01 4.44249E-14 7.69155E-14
 -1      4007 1.93593E+01-1.00010E+00 9.06208E-03-3.17371E+00 1.20938E-13 7.26273E-14
 -1      4008 2.03931E+01 8.05110E-01-2.21322E-03-1.30151E-02-3.38845E-14-6.20203E-14
 -1      4009 2.03895E+01 7.96115E-01-3.10260E-03-3.83445E-02-4.99776E-14-6.14611E-14
 -1      4010 2.04220E+01 6.16414E-01 4.06211E-03-3.24186E-02-4.32068E-14-3.14812E-14
 -1      4011 2.24785E+01-2.13371E+00 1.60671E-02 1.55072E+00 4.12270E-14 2.55965E-14
 -1      4012 2.19843E+01-2.28503E+00-9.28587E-03 2.36734E+00 3.01339E-14 3.40349E-14
 -1      4013 2.09547E+01-1.71895E+00 5.94566E-03 2.59827E+00 7.35104E-14 7.49169E-14
 -1      4014 2.16672E+01-1.68272E+00 8.85420E-03 1.47348E+00-3.87182E-14 9.97780E-14
 -1      4015 2.02991E+01 3.08169E-02-3.78372E-04-1.00893E-01 3.11913E-14 1.54100E-14
 -1      4016 2.03213E+01 7.47241E-02 7.74057E-04-8.81205E-02 2.10275E-14 1.60294E-14
 -1      4017 2.03793E+01 4.88364E-01-8.23812E-04 3.16568E-02 2.84321E-14 9.32931E-15
 -1      4018 2.03771E+01 5.83721E-01 4.77031E-04 7.55217E-02 1.01002E-14 2.29557E-15
 -1      4019 2.03855E+01 6.71596E-01-2.39262E-03 7.62189E-02 8.36541E-15-1.49755E-16
 -1      4020 2.03252E+01 1.15902E+00 4.03346E-03-1.82093E-01-4.78018E-14-3.55867E-14
 -1      4021 2.03384E+01 1.30045E-01-7.67246E-04-7.62766E-02 3.95585E-14 6.56688E-15
 -1      4022 2.03580E+01 1.99858E-01 6.97252E-04-5.24949E-02 6.83977E-14 3.26753E-14
 -1      4023 2.03564E+01 1.17690E-01-1.19932E-04-6.54345E-02 3.40746E-14 2.19745E-14
 -1      4024 2.01268E+01-4.81125E-02 2.98992E-04-1.06251E-01-3.45999E-15-6.43503E-14
 -1      4025 2.01449E+01-5.53997E-02 6.44106E-05-1.08200E-01-4.27399E-15-5.62223E-14
 -1      4026 2.01731E+01-5.89403E-02-3.74198E-04-9.12507E-02 4.60959E-14-2.85001E-14
 -1      4027 2.03672E+01 2.75380E-01-9.74811E-04-3.42680E-02 6.56756E-14 2.30799E-14
 -1      4028 2.03803E+01 3.76913E-01 2.50451E-04 3.54686E-03 3.90660E-14 2.71763E-14
 -1      4029 2.03999E+01 4.50939E-01 6.68993E-04 1.38455E-02 1.89508E-14-4.31498E-15
 -1      4030 2.03871E+01 2.59028E-01 3.50880E-04-3.26778E-02 7.02324E-14 2.03270E-14
 -1      4031 2.00403E+01-2.40539E-01 6.15135E-03-1.02900E+00 6.45021E-14 4.49359E-13
 -1      4032 1.98478E+01-1.42227E-01-4.42941E-03-1.08134E+00 8.04020E-14 1.91921E-13
 -1      4033 1.97524E+01-1.60418E-01-6.21956E-06-1.27788E+00 5.66244E-14 9.15262E-14
 -1      4034 2.18464E+01-2.17636E+00-1.49301E-02-2.29069E+00 1.10865E-13 7.00156E-15
 -1      4035 2.20931E+01-1.84247E+00 1.70782E-02-1.35939E+00 2.74448E-14 1.40098E-13
 -1      4036 2.16050E+01-1.57646E+00 2.21993E-02-1.45500E+00 8.80667E-14 1.85048E-13
 -1      4037 2.09072E+01-1.60507E+00-3.16785E-03-2.41223E+00 6.25218E-14-1.57287E-13
 -1      4038 2.03930E+01 7.94363E-01-2.56320E-03 4.07329E-02 8.10430E-15-2.13141E-14
 -1      4039 2.03947E+01 8.07478E-01-2.01133E-03 8.37899E-03-2.67920E-15-3.42379E-14
 -1      4040 2.04261E+01 6.39398E-01 3.88273E-03-5.68153E-03-4.65803E-15-2.86486E-14
 -1      4041 1.90512E+01 2.33918E-01-6.13259E-03-1.40170E+00 1.92636E-13-1.14825E-13
 -1      4042 1.99119E+01 1.31063E-01-9.71574E-04-3.83267E-02 2.15257E-14-1.56461E-14
 -1      4043 1.99458E+01 1.02196E-01 2.39587E-05-4.33345E-02 1.22214E-14-1.77093E-14
 -1      4044 2.03493E+01 3.07562E-02 2.25130E-04 4.29809E-02-3.53022E-15 5.99501E-14
 -1      4045 2.03256E+01-3.99689E-03 1.95253E-04 4.90335E-02 3.11580E-14 9.60336E-14
 -1      4046 2.02999E+01-3.00824E-02 2.03784E-04 4.84841E-02 4.76836E-14 7.61838E-14
 -1      4047 2.02745E+01-4.74744E-02 1.61683E-04 5.11146E-02 5.36353E-14 8.71770E-14
 -1      4048 2.03221E+01-1.46802E-02-6.66689E-04 2.67227E-02 6.05833E-15 6.09109E-14
 -1      4049 2.02480E+01-5.84344E-02 2.24014E-04 5.07773E-02 4.69658E-14 1.01622E-13
 -1      4050 2.02235E+01-6.36816E-02 3.66325E-04 5.17076E-02 7.27718E-14 6.37241E-14
 -1      4051 2.02687E+01-5.19492E-02-5.70185E-04 2.84271E-02 5.43241E-14-2.36734E-14
 -1      4052 2.01967E+01-6.42863E-02 1.03145E-04 5.04774E-02 1.03837E-13 5.08838E-14
 -1      4053 2.01732E+01-6.04552E-02 4.09941E-04 5.10187E-02 7.39980E-14 8.51653E-14
 -1      4054 2.02169E+01-6.46170E-02-7.15220E-04 2.83593E-02 8.40703E-14 1.06896E-14
 -1      4055 2.01470E+01-5.38148E-02-1.01571E-05 5.05983E-02 1.72381E-15 8.77935E-14
 -1      4056 2.01246E+01-4.38520E-02 3.34667E-04 5.14960E-02-7.92358E-15 5.90736E-14
 -1      4057 2.01651E+01-5.73288E-02-5.62606E-04 2.94668E-02 4.25165E-14 1.36895E-14
 -1      4058 2.00995E+01-3.20305E-02-8.22504E-05 5.28920E-02 7.22716E-15 5.34676E-14
 -1      4059 2.00788E+01-1.81371E-02 4.95982E-04 5.53049E-02 4.66079E-14 5.37444E-14
 -1      4060 2.01147E+01-3.66661E-02-3.31178E-04 3.19319E-02-4.27508E-16 8.13898E-15
 -1      4061 2.00535E+01-3.41610E-03-3.08710E-04 5.83974E-02 6.09289E-14-8.01521E-15
 -1      4062 2.00342E+01 1.31143E-02 5.83442E-04 6.33868E-02 3.01019E-14 3.49990E-14
 -1      4063 2.00667E+01-8.15925E-03-2.49513E-04 3.70508E-02 2.02614E-14-2.63398E-14
 -1      4064 2.00086E+01 2.93226E-02-4.98629E-04 6.99346E-02 2.56366E-14 5.21999E-14
 -1      4065 1.99908E+01 4.67699E-02 7.65097E-04 7.87067E-02 2.94201E-14 1.19533E-13
 -1      4066 2.00184E+01 2.67870E-02-1.32259E-04 4.76185E-02 4.49284E-14-2.88710E-14
 -1      4067 1.99644E+01 6.26581E-02-7.41188E-04 9.01166E-02 6.56958E-14 1.08987E-13
 -1      4068 1.99488E+01 7.92530E-02 1.07420E-03 1.04243E-01 5.73931E-14 1.79237E-13
 -1      4069 1.99699E+01 6.42833E-02-1.87226E-05 6.59764E-02 6.31009E-14 5.19316E-14
 -1      4070 1.99213E+01 9.26555E-02-1.00766E-03 1.22665E-01 1.61945E-14 1.85427E-13
 -1      4071 1.99094E+01 1.05984E-01 1.56912E-03 1.44167E-01 8.80627E-15 1.42696E-13
 -1      4072 1.99205E+01 1.00868E-01-4.13757E-05 9.59846E-02 1.02728E-14-4.30550E-14
 -1      4073 1.98814E+01 1.13825E-01-1.27107E-03 1.72490E-01-7.67783E-14 1.95040E-13
 -1      4074 1.98761E+01 1.20368E-01 2.31277E-03 2.03860E-01-1.13661E-13 1.25874E-13
 -1      4075 1.98704E+01 1.31724E-01-3.18026E-04 1.43015E-01-3.57228E-14 2.61072E-14
 -1      4076 1.98494E+01 1.18194E-01-1.46492E-03 2.45783E-01-8.42385E-14 9.10849E-14
 -1      4077 1.98557E+01 1.12754E-01 3.36492E-03 2.89843E-01-4.57360E-14 4.29886E-14
 -1      4078 1.98224E+01 1.49672E-01-1.02470E-03 2.14205E-01-1.19953E-13 6.86999E-14
 -1      4079 1.98348E+01 9.41968E-02-1.45520E-03 3.49726E-01-4.62748E-14 1.04994E-14
 -1      4080 1.98605E+01 6.92733E-02 4.75491E-03 4.09143E-01-4.42795E-14-3.16109E-14
 -1      4081 1.97825E+01 1.43833E-01-2.43319E-03 3.18529E-01-7.39880E-14 2.85456E-14
 -1      4082 1.98539E+01 2.55501E-02-9.99900E-04 4.91391E-01 5.50232E-14-2.83481E-14
 -1      4083 1.99107E+01-2.92132E-02 6.42191E-03 5.67549E-01 6.14508E-14 4.19738E-14
 -1      4084 1.97627E+01 9.80327E-02-4.95174E-03 4.66244E-01 7.51965E-15-3.42810E-14
 -1      4085 1.99333E+01-1.09510E-01 2.95521E-04 6.75080E-01 1.18136E-15 7.87768E-14
 -1      4086 2.00376E+01-2.07349E-01 8.09531E-03 7.65795E-01 5.03249E-14 1.33601E-13
 -1      4087 1.97841E+01-1.07958E-02-9.14097E-03 6.67127E-01 8.93019E-14-1.83040E-14
 -1      4088 2.01145E+01-3.38023E-01 2.93474E-03 8.96494E-01 1.14287E-13 9.34678E-14
 -1      4089 2.02843E+01-4.93504E-01 8.38871E-03 9.92173E-01 1.22527E-13 1.41251E-13
 -1      4090 1.98831E+01-2.13165E-01-1.54130E-02 9.26545E-01 6.02013E-14 7.76573E-14
 -1      4091 2.04541E+01-6.83146E-01 8.35875E-03 1.12932E+00-9.83306E-15 9.95609E-14
 -1      4092 2.07095E+01-9.04135E-01 7.73692E-03 1.20486E+00-1.42110E-13 6.11292E-14
 -1      4093 2.01265E+01-5.42667E-01-2.04478E-02 1.23721E+00-1.35272E-14-7.37482E-14
 -1      4094 2.09545E+01-1.13092E+00 1.21090E-02 1.35450E+00-1.61085E-13 2.08144E-14
 -1      4095 2.13340E+01-1.39469E+00 1.15383E-02 1.36657E+00-7.78184E-14 4.37659E-14
 -1      4096 2.10922E+01-1.53249E+00-2.79465E-02 1.87435E+00-4.26702E-14 2.89749E-14
 -1      4097 2.04816E+01-9.52544E-01-2.60183E-02 1.55333E+00-1.13304E-13-9.10869E-14
 -1      4098 1.97381E+01 2.69965E-01-2.66811E-03 2.11915E-02 4.69583E-15-5.57526E-14
 -1      4099 1.97960E+01 2.33535E-01 5.21312E-04 2.37518E-03 6.65067E-14-1.04160E-14
 -1      4100 2.03517E+01-4.53297E-01 5.63083E-03-9.07647E-01-7.81754E-14 3.84022E-13
 -1      4101 2.01810E+01-3.58585E-01-3.78728E-03-9.72910E-01 7.69576E-15 3.01208E-13
 -1      4102 2.01551E+01-4.24246E-01-3.82092E-03-1.15274E+00-2.42091E-14 2.97253E-13
 -1      4103 2.04813E+01-6.01361E-01 3.88805E-03-9.84196E-01-1.68212E-14 3.84931E-13
 -1      4104 2.03401E+01 1.00676E+00 9.18359E-05-1.47104E-01-4.85366E-14-3.77364E-14
 -1      4105 1.96139E+01 3.50438E-01-4.02668E-03 8.82193E-02-4.86253E-14 6.61228E-17
 -1      4106 1.96918E+01 3.11851E-01 1.14844E-03 5.40707E-02-3.34785E-14-3.84083E-14
 -1      4107 1.97318E+01 2.65244E-01 5.43340E-04 8.86277E-02-5.26956E-15-2.83161E-15
 -1      4108 2.11857E+01-1.26844E+00 1.07152E-02-1.35976E+00 1.26895E-13 2.13373E-13
 -1      4109 2.08395E+01-1.00916E+00 9.14108E-03-1.32477E+00 1.65419E-13 2.20662E-13
 -1      4110 2.09431E+01-1.37204E+00-2.92882E-02-1.79518E+00 1.32366E-13-1.00443E-13
 -1      4111 1.94552E+01 4.32743E-01-5.81143E-03 2.01144E-01 2.70589E-14 6.10919E-14
 -1      4112 1.95599E+01 3.95401E-01 2.22217E-03 1.42112E-01 1.47047E-14-5.08739E-15
 -1      4113 1.96203E+01 3.27728E-01 8.12475E-05 1.80718E-01 8.44593E-15-2.46404E-14
 -1      4114 1.90163E+01 5.47475E-01-1.03595E-02 6.70895E-01-9.59961E-14-5.83037E-14
 -1      4115 1.91939E+01 5.39925E-01 6.75117E-03 5.15410E-01 2.06095E-14 3.01242E-14
 -1      4116 1.92561E+01 5.05756E-01-8.00031E-03 3.84346E-01 6.18807E-14 2.90112E-14
 -1      4117 1.93946E+01 4.76695E-01 3.97620E-03 2.86648E-01 2.80068E-14 6.79773E-14
 -1      4118 1.94870E+01 3.78576E-01-1.07620E-03 3.26925E-01 3.03090E-14-1.33472E-14
 -1      4119 1.93347E+01 3.99740E-01-3.39106E-03 5.51511E-01 6.02572E-14 1.03351E-13
 -1      4120 1.85091E+01 3.65389E-01-3.46348E-03 1.74274E+00-3.95098E-14-3.68731E-14
 -1      4121 1.87364E+01 4.63255E-01 1.62646E-02 1.37996E+00-1.16343E-13-9.11091E-14
 -1      4122 1.85576E+01-2.88901E-02 6.78991E-03 2.41307E+00 3.35812E-14-2.11333E-13
 -1      4123 1.86019E+01 2.17935E-01 1.71290E-02 1.98649E+00 1.02965E-14-9.81264E-14
 -1      4124 1.90690E+01-3.79932E-02 1.87673E-03 1.88060E+00-5.46142E-14-2.49687E-13
 -1      4125 1.92447E+01-5.15184E-01-2.98195E-02 2.38155E+00 1.48651E-14-9.56943E-14
 -1      4126 1.91137E+01-6.38245E-01 1.13538E-02-2.85841E+00 1.79577E-13 9.16106E-14
 -1      4127 2.01028E+01-1.29382E+00-3.60978E-02-2.71469E+00 1.29678E-13-2.59999E-13
 -1      4128 2.06839E+01-1.27972E+00 1.41223E-02-2.21715E+00 2.06418E-13-1.66464E-13
 -1      4129 1.91494E+01-3.16458E-01 2.27880E-02-2.37983E+00 2.45074E-13 3.30656E-14
 -1      4130 2.04179E+01 4.75575E-01-7.91370E-04-8.05067E-03-3.63904E-14-3.16124E-14
 -1      4131 1.91006E+01 1.07997E-01 1.37406E-02-1.66893E+00 2.48795E-13-1.20769E-13
 -1      4132 1.89655E+01-8.09296E-02-5.84791E-03-2.04927E+00 3.05109E-13-4.33872E-14
 -1      4133 1.96697E+01-6.31196E-01-2.23469E-02-2.15687E+00 3.67590E-13-1.20765E-13
 -1      4134 1.94989E+01-1.50885E-01-5.18702E-03-1.58125E+00 2.49790E-13-4.69574E-14
 -1      4135 2.00867E+01-2.47149E-02 2.65761E-04-1.02155E-01-5.93366E-14-1.00548E-13
 -1      4136 2.01040E+01-3.78974E-02-9.34862E-05-1.03722E-01-3.25850E-14-9.25504E-14
 -1      4137 2.01278E+01-4.46942E-02-2.64952E-04-8.74497E-02-2.96718E-14-1.07044E-13
 -1      4138 2.00837E+01-1.81176E-02-1.43683E-04-8.36511E-02-1.09887E-13-1.35977E-13
 -1      4139 1.99750E+01 7.46050E-02-4.80624E-04-5.00374E-02-4.39274E-14-3.89237E-14
 -1      4140 2.00027E+01 4.98404E-02-1.44278E-05-5.27170E-02-6.55606E-14-6.79918E-14
 -1      4141 1.99628E+01 8.43448E-02 2.17694E-04-2.06186E-02-6.12073E-16-1.39922E-13
 -1      4142 1.87481E+01 5.18361E-01-1.21360E-02 1.10353E+00-1.49315E-13-7.83306E-14
 -1      4143 1.89650E+01 5.54883E-01 1.10237E-02 8.64514E-01-1.57658E-13-1.21187E-13
 -1      4144 1.91763E+01 3.60033E-01-7.47888E-03 8.84200E-01-8.37672E-14-2.01592E-14
 -1      4145 1.90470E+01 2.08078E-01-1.34585E-02 1.35616E+00-1.74166E-13-2.56529E-13
 -1      4146 1.98350E+01 1.96270E-01-1.67622E-03-1.71128E-02 6.16415E-14 2.85615E-15
 -1      4147 1.98786E+01 1.63403E-01 1.81796E-04-2.69745E-02 3.99280E-14 2.00955E-14
 -1      4148 1.98990E+01 1.39854E-01 4.64227E-04-1.05886E-03 3.03826E-14-1.34357E-13
 -1      4149 1.98234E+01 2.00952E-01 6.09776E-04 3.23836E-02 5.19651E-14 1.63376E-14
 -1      4150 2.02776E+01-1.97700E-03 5.92162E-04-1.06076E-01 3.15725E-14 6.92240E-14
 -1      4151 2.03143E+01 2.19217E-02-3.39470E-04-8.43318E-02 8.50938E-15 4.14100E-14
 -1      4152 2.02554E+01-2.66009E-02-4.13039E-05-1.11541E-01 3.08443E-14 8.12944E-14
 -1      4153 2.03919E+01 1.35873E-01 4.88335E-04 3.14564E-02-6.40274E-15 4.42623E-14
 -1      4154 2.03716E+01 7.68048E-02-7.64820E-05 4.20640E-02-1.31278E-14 5.15459E-14
 -1      4155 2.03699E+01 5.92421E-02-7.22026E-04 2.25485E-02 9.43222E-15 1.03042E-13
 -1      4156 2.02197E+01-5.68590E-02-4.64381E-04-9.36957E-02 5.73294E-14 3.08004E-14
 -1      4157 2.02111E+01-5.38778E-02 1.43412E-04-1.13539E-01 4.51827E-14 5.76412E-14
 -1      4158 2.02320E+01-4.32384E-02 3.84010E-04-1.12474E-01 5.05688E-14 8.16128E-14
 -1      4159 2.05468E+01-1.28725E+00 1.46834E-02 2.38862E+00 2.31666E-14 6.08827E-14
 -1      4160 2.03225E+01 6.06001E-03-1.60046E-04-6.82726E-02-2.46576E-14 6.13446E-14
 -1      4161 2.03468E+01 4.43611E-02 7.37566E-04-6.02282E-02-2.46470E-14 6.03066E-14
 -1      4162 2.00295E+01 2.67026E-02-1.55539E-04-5.69758E-02-4.70359E-14-9.45512E-14
 -1      4163 2.00540E+01 6.00888E-03 4.11497E-05-5.88013E-02-1.07109E-13-1.46691E-13
 -1      4164 2.00189E+01 3.56711E-02-4.33707E-05-3.21008E-02-4.56405E-14-1.29457E-13
 -1      4165 2.04122E+01 4.04483E-01-8.36259E-04-2.09312E-03 4.26493E-14-1.44707E-14
 -1      4166 2.04134E+01 5.18265E-01-7.84938E-04 2.39209E-02 2.95472E-14-5.87815E-15
 -1      4167 2.01750E+01-5.86897E-02 2.41344E-04-6.96665E-02 4.76219E-14-5.64029E-14
 -1      4168 2.01986E+01-6.17464E-02 3.41153E-04-7.02799E-02 8.82128E-14-3.85878E-15
 -1      4169 2.04267E+01 5.11307E-01-9.76695E-04 2.64432E-03 3.87529E-15 3.16886E-14
 -1      4170 2.04269E+01 5.06533E-01-1.35257E-03-7.52993E-03-2.88701E-14-2.44500E-15
 -1      4171 2.03709E+01 7.71630E-02-5.37492E-04-4.01777E-02-6.24647E-15 5.51764E-14
 -1      4172 2.03658E+01 9.26282E-02-6.48029E-04-5.65312E-02 5.97626E-15 7.17370E-14
 -1      4173 2.03860E+01 1.55868E-01 4.11444E-04-4.24878E-02 4.97615E-14 5.28741E-14
 -1      4174 1.98132E+01-3.23902E-01 1.38637E-03-1.51038E+00 1.19172E-13 6.42218E-14
 -1      4175 2.03885E+01 7.61653E-01-8.94443E-05 6.57100E-02 5.41922E-15-3.87258E-14
 -1      4176 2.02215E+01-6.28521E-02-5.32472E-04-5.01390E-02 8.30356E-14-7.89925E-15
 -1      4177 2.02238E+01-6.08414E-02 3.19824E-05-7.23337E-02 8.76306E-14 1.44987E-14
 -1      4178 2.02479E+01-5.40803E-02 1.91778E-04-7.17933E-02 6.73647E-14 3.08013E-14
 -1      4179 2.04264E+01 3.73498E-01 1.57135E-03 4.54595E-03-4.36826E-14-1.04745E-14
 -1      4180 2.04154E+01 6.07787E-01 2.29331E-03 2.81228E-02 7.69405E-15-6.72055E-15
 -1      4181 2.02990E+01-2.17456E-02 5.67308E-04-6.87479E-02 1.95539E-14 5.81824E-14
 -1      4182 2.03245E+01-4.65985E-03-9.02524E-04-4.81677E-02-3.96548E-15 6.16667E-14
 -1      4183 2.04100E+01 3.07176E-01 1.60705E-04-1.43837E-02 2.81809E-14-5.00197E-15
 -1      4184 2.04229E+01 3.73786E-01 5.58405E-04-4.73508E-03 3.87366E-14-2.06512E-14
 -1      4185 2.03977E+01 2.25492E-01-6.11359E-04-3.42182E-02 5.12100E-14 2.14032E-16
 -1      4186 2.02882E+01-4.66435E-02 3.14205E-04 5.17224E-03 4.41695E-14 1.25117E-14
 -1      4187 2.02616E+01-5.89413E-02 3.77105E-04 5.58922E-03 8.52991E-14 3.63238E-14
 -1      4188 2.02244E+01-6.32862E-02 3.40147E-04-1.05519E-02 6.61830E-14 3.51928E-14
 -1      4189 2.01983E+01-6.23656E-02 5.30144E-04-9.26701E-03 7.08679E-14 1.78243E-14
 -1      4190 2.01294E+01-4.16453E-02 6.86839E-05 9.18985E-03-1.61047E-14 5.43089E-14
 -1      4191 2.01051E+01-2.88989E-02 3.90991E-04 1.10108E-02-4.09581E-15 5.64517E-14
 -1      4192 2.00693E+01-5.93510E-03-7.78022E-05-1.09790E-03-1.94492E-14-6.38398E-14
 -1      4193 2.00452E+01 1.22007E-02 3.69311E-04 3.07230E-03-1.59967E-14-5.48859E-14
 -1      4194 2.00177E+01 3.26287E-02-1.84924E-04 7.74709E-03 3.55185E-15-8.67317E-14
 -1      4195 1.99934E+01 5.32330E-02 4.06184E-04 1.45044E-02 1.65952E-14-1.38390E-13
 -1      4196 1.99629E+01 7.64842E-02-4.32053E-04 2.26256E-02 4.98061E-14-1.16408E-13
 -1      4197 1.99383E+01 9.87870E-02 5.62270E-04 3.37944E-02 3.30430E-14-1.30328E-13
 -1      4198 1.99030E+01 1.23898E-01-7.02570E-04 4.76926E-02 1.34133E-14-9.08149E-14
 -1      4199 1.98784E+01 1.46521E-01 9.21239E-04 6.56180E-02 8.14392E-15-9.09662E-14
 -1      4200 1.98365E+01 1.72217E-01-9.28587E-04 8.89002E-02 8.68141E-15-5.14494E-14
 -1      4201 1.98128E+01 1.92998E-01 1.60222E-03 1.16797E-01-1.71402E-14-2.13787E-14
 -1      4202 1.97625E+01 2.17090E-01-1.02033E-03 1.54775E-01-4.92332E-14-2.39518E-14
 -1      4203 1.97422E+01 2.32479E-01 2.76581E-03 1.96929E-01-6.45995E-14 2.58540E-14
 -1      4204 1.96828E+01 2.51099E-01-8.18783E-04 2.57075E-01-2.06087E-14 4.73137E-14
 -1      4205 1.96708E+01 2.55296E-01 4.62493E-03 3.18867E-01 1.07399E-14 2.70937E-14
 -1      4206 1.96032E+01 2.61789E-01-5.37368E-05 4.11160E-01-2.95717E-14 1.04683E-13
 -1      4207 1.96084E+01 2.45582E-01 7.42988E-03 4.98727E-01 2.80971E-14 1.23508E-13
 -1      4208 1.95376E+01 2.28943E-01 1.67845E-03 6.35518E-01 7.02538E-14 1.14911E-13
 -1      4209 1.95749E+01 1.78309E-01 1.13500E-02 7.54737E-01 7.76341E-14 9.52705E-14
 -1      4210 1.95132E+01 1.20894E-01 4.70409E-03 9.49223E-01-2.76017E-14 4.74558E-14
 -1      4211 1.96043E+01 1.53668E-02 1.56968E-02 1.10401E+00-1.02531E-13-2.49211E-14
 -1      4212 1.95749E+01-1.10099E-01 7.88209E-03 1.36411E+00-2.91171E-14-9.51026E-14
 -1      4213 1.97188E+01-3.12150E-01 6.93555E-03 1.55880E+00-3.64487E-14-1.42836E-13
 -1      4214 2.02936E+01-9.38100E-01 6.88009E-03-2.03193E+00 2.69883E-13-6.09922E-14
 -1      4215 2.04232E+01 5.53520E-01-5.80140E-04 1.14252E-02 2.40365E-14-2.04290E-14
 -1      4216 2.06888E+01-8.33906E-01 8.57482E-03-1.18196E+00 1.00526E-13 3.18754E-13
 -1      4217 2.04936E+01-6.59056E-01 4.84239E-03-1.10579E+00 3.74366E-14 3.64972E-13
 -1      4218 2.03779E+01 6.71541E-02 3.77558E-05-1.09491E-02 1.81386E-14 4.94417E-14
 -1      4219 2.03556E+01 2.28656E-02 8.15449E-04-8.10341E-03 1.39323E-15 4.19868E-14
 -1      4220 2.04493E+01-8.42947E-01-1.76649E-02-1.48378E+00 1.98698E-13 2.02577E-13
 -1      4221 2.02127E+01-9.76887E-01 1.02313E-02 2.18835E+00-6.13503E-14 5.42279E-14
 -1      4222 2.01425E+01-6.57987E-01 1.48526E-02-1.76272E+00 2.89572E-13-2.82083E-14
 -1      4223 2.04184E+01 2.99164E-01-3.08868E-04 1.11312E-02-3.84121E-14-7.11668E-15
 -1      4224 2.04054E+01 2.08825E-01-6.88522E-04 2.71995E-02-2.79786E-14 8.19746E-15
 -1      4225 2.04328E+01 4.38586E-01 1.15228E-03 4.04660E-03 1.22148E-14 3.24367E-14
 -1      4226 2.03306E+01-9.97195E-03 2.30544E-04-1.15530E-02-1.01561E-14 4.32032E-14
 -1      4227 2.03042E+01-3.43245E-02 4.91179E-04-1.00759E-02 8.49533E-15 4.20933E-14
 -1      4228 2.01496E+01-5.16950E-02 1.83468E-04-6.69894E-02 4.29080E-15-7.53238E-14
 -1      4229 2.01706E+01-5.73901E-02-7.04801E-04-4.78696E-02 3.95248E-14-3.92401E-14
 -1      4230 2.01270E+01-4.11315E-02 1.84178E-04-6.56535E-02-2.59869E-14-7.07507E-14
 -1      4231 2.04075E+01 1.82457E-01-2.49434E-04 1.56047E-02 8.32457E-15 4.23504E-14
 -1      4232 2.02674E+01-3.24081E-02-4.09041E-04-9.24073E-02 3.32052E-14 9.29591E-14
 -1      4233 2.04287E+01 3.28776E-01-1.81859E-04 2.68374E-03-2.35156E-14 1.85722E-14
 -1      4234 2.04274E+01 3.14808E-01-9.79772E-05-2.43500E-03-2.79337E-14 8.41037E-14
 -1      4235 2.04251E+01 2.50282E-01 1.20487E-03-2.54403E-04 3.10157E-15 5.44171E-14
 -1      4236 2.02740E+01-4.13018E-02 1.91251E-04-7.21556E-02 4.32672E-14 6.29839E-14
 -1      4237 2.01725E+01-5.68033E-02 3.00328E-04-8.79424E-03 4.68232E-14 3.87356E-14
 -1      4238 2.03982E+01 1.24050E-01 1.00067E-03-6.70744E-03 8.05675E-15 3.76007E-14
 -1      4239 2.04096E+01 1.68668E-01-5.29202E-04 2.54964E-03 9.77725E-15 6.77614E-14
 -1      4240 2.00803E+01-1.13380E-02-1.94098E-04-2.44411E-02-6.69312E-14-7.83824E-14
 -1      4241 2.00892E+01-1.84150E-02-7.37840E-05-4.75288E-02-9.66362E-14-8.92778E-14
 -1      4242 2.02877E+01-4.42568E-02-4.73668E-04-3.42964E-02 4.37536E-14 8.26880E-14
 -1      4243 1.99890E+01-4.97589E-01 1.31854E-03-1.58828E+00 2.45072E-13-5.17598E-15
 -1      4244 2.01463E+01-4.84319E-02 3.40459E-04-7.50864E-03 9.80359E-15 3.49879E-14
 -1      4245 2.01125E+01-3.33859E-02 8.05081E-05-4.91094E-02-5.37980E-14-9.22574E-14
 -1      4246 2.04280E+01 3.35325E-01-2.53810E-04-6.88998E-03 1.62962E-14 4.00309E-14
 -1      4247 1.93970E+01-3.13256E-01-1.48325E-02 1.90210E+00-2.00853E-14-1.20664E-13
 -1      4248 2.01757E+01-6.97768E-01 1.86470E-02 1.74583E+00-2.97904E-14-5.86792E-14
 -1      4249 2.02345E+01-6.08065E-02-3.95355E-04-3.34573E-02 8.42245E-14 3.56530E-14
 -1      4250 2.04051E+01 2.00732E-01 2.24209E-05-2.56332E-02 8.30581E-15 3.50132E-14
 -1      4251 2.01316E+01-4.21069E-02-2.72273E-04-2.95999E-02-2.39962E-15 4.10195E-14
 -1      4252 2.01584E+01-4.71500E-01-2.30717E-03-1.26578E+00 1.80641E-14 2.84659E-13
 -1      4253 2.03327E+01-5.86635E-01-2.78382E-03-1.20436E+00-2.12941E-14 2.09630E-13
 -1      4254 2.04205E+01 2.54261E-01 1.27712E-04-1.19830E-02 9.68431E-15 5.24297E-14
 -1      4255 2.04077E+01 1.79714E-01-5.82738E-04-2.07935E-02-2.83733E-14 7.80198E-14
 -1      4256 2.02730E+01-4.63653E-02-3.26033E-04-4.99177E-02 6.23138E-14 5.59954E-14
 -1      4257 2.04016E+01-9.45836E-01 1.54045E-02 1.91718E+00-7.29111E-14-1.64669E-15
 -1      4258 2.02606E+01-5.57170E-02 2.72683E-04-3.43965E-02 7.10126E-14 4.59435E-14
 -1      4259 1.96957E+01-7.58863E-01-9.14088E-03 2.35860E+00-2.81096E-14 3.89059E-14
 -1      4260 1.94680E+01-4.73470E-01-1.24091E-02 2.13422E+00 1.01399E-14-9.12157E-14
 -3
    1PSTEP                         3           1           1          
  100CL  101 1.000000000        4260                     0    1           1
 -4  TOSTRAIN    6    1
 -5  EXX         1    4    1    1
 -5  EYY         1    4    2    2
 -5  EZZ         1    4    3    3
 -5  EXY         1    4    1    2
 -5  EYZ         1    4    2    3
 -5  EZX         1    4    3    1
 -1         1 7.76504E-06 1.38977E-05-1.31740E-05 1.87245E-05-4.81072E-18-3.84468E-18
 -1         2 4.07045E-05-1.24239E-04 2.34166E-05-1.43926E-06 9.91346E-18-3.32752E-19
 -1         3 9.51790E-05-2.86283E-05-2.84497E-05-5.48320E-08 3.07426E-18 2.46542E-18
 -1         4 9.52255E-05-2.85830E-05-2.85448E-05 1.00275E-08 9.28989E-19 1.33760E-18
 -1         5 1.43337E-04-2.14769E-05-4.25252E-05 3.85295E-05-4.84926E-20 4.49520E-18
 -1         6 1.45398E-04 2.57552E-10-4.41841E-05-5.35239E-05-1.91853E-19 5.99572E-18
 -1         7 9.06030E-05-5.11013E-07-3.90658E-05-2.92518E-05-3.38813E-20 2.34750E-18
 -1         8 8.51222E-05 8.64421E-08-3.63377E-05-2.02717E-05-7.64183E-20 9.53772E-19
 -1         9 8.28151E-05 7.59723E-08-3.53508E-05-1.56400E-05-6.49833E-20 7.27952E-20
 -1        10 8.17726E-05 3.95981E-08-3.48821E-05-1.20782E-05-5.75254E-20-4.50459E-19
 -1        11 8.12551E-05 1.92579E-08-3.46540E-05-9.01415E-06-6.04603E-20-7.41963E-19
 -1        12 8.09868E-05 9.09530E-09-3.45398E-05-6.28428E-06-2.95039E-20-9.59220E-19
 -1        13 8.08457E-05 4.54113E-09-3.44823E-05-3.68540E-06-3.33420E-20-1.11533E-18
 -1        14 8.07867E-05 2.69898E-09-3.44588E-05-1.18363E-06-2.69204E-20-1.19801E-18
 -1        15 8.07887E-05 2.69026E-09-3.44595E-05 1.28874E-06-2.49333E-21-1.22580E-18
 -1        16 8.08520E-05 4.48039E-09-3.44845E-05 3.79562E-06-1.12662E-21-1.25031E-18
 -1        17 8.09984E-05 8.36053E-09-3.45435E-05 6.40650E-06 1.58157E-20-1.25303E-18
 -1        18 8.12726E-05 1.81190E-08-3.46590E-05 9.15565E-06 1.61135E-20-1.19087E-18
 -1        19 8.17981E-05 3.81427E-08-3.48903E-05 1.22580E-05 4.49854E-20-1.15468E-18
 -1        20 8.28353E-05 8.14827E-08-3.53631E-05 1.58709E-05 4.64677E-20-9.24297E-19
 -1        21 8.50874E-05 1.69441E-07-3.63762E-05 2.04826E-05 6.49568E-20-2.85908E-19
 -1        22 9.16400E-05-9.95976E-08-3.87375E-05 2.79989E-05 1.97994E-20 1.08713E-18
 -1        23 1.12968E-04-3.81243E-05-3.53951E-05-4.40233E-06-1.01459E-19 5.33324E-18
 -1        24 9.28018E-05-2.76962E-05-2.89984E-05 3.91236E-07-5.88986E-20 4.70924E-18
 -1        25 8.91181E-05-2.68517E-05-2.69290E-05 3.75828E-07-2.82433E-20 3.99870E-18
 -1        26 8.80166E-05-2.64886E-05-2.63921E-05 2.04097E-07-1.85619E-21 3.55594E-18
 -1        27 8.80452E-05-2.64677E-05-2.63848E-05 1.39828E-07-3.92729E-20 3.13324E-18
 -1        28 8.85817E-05-2.66049E-05-2.65552E-05 1.00804E-07-1.26796E-20 3.12701E-18
 -1        29 8.93403E-05-2.68187E-05-2.67889E-05 7.51090E-08-1.48403E-20 2.59386E-18
 -1        30 9.01706E-05-2.70602E-05-2.70407E-05 5.68013E-08 5.33692E-20 2.09350E-18
 -1        31 9.09886E-05-2.73011E-05-2.72875E-05 4.30555E-08-9.51318E-20 1.32445E-18
 -1        32 9.17486E-05-2.75266E-05-2.75166E-05 3.24459E-08-1.27054E-19 5.79180E-19
 -1        33 9.24290E-05-2.77291E-05-2.77218E-05 2.41851E-08 2.11274E-20 2.63098E-19
 -1        34 9.30236E-05-2.79067E-05-2.79013E-05 1.77908E-08 2.72547E-20 8.08937E-19
 -1        35 9.35364E-05-2.80602E-05-2.80563E-05 1.29417E-08-6.10294E-21 1.01709E-18
 -1        36 9.39779E-05-2.81925E-05-2.81899E-05 9.41393E-09 5.76032E-20 1.09666E-18
 -1        37 9.43624E-05-2.83080E-05-2.83064E-05 7.05182E-09-1.43226E-19 9.41921E-19
 -1        38 9.47061E-05-2.84112E-05-2.84106E-05 5.74936E-09-1.20694E-19 4.30217E-21
 -1        39 9.50251E-05-2.85070E-05-2.85073E-05 5.43131E-09-1.04695E-19-4.43720E-19
 -1        40 9.53338E-05-2.85996E-05-2.86007E-05 6.02482E-09-2.43826E-20 2.60238E-19
 -1        41 9.56419E-05-2.86918E-05-2.86936E-05 7.41305E-09 1.63981E-19-2.47827E-19
 -1        42 9.59513E-05-2.87840E-05-2.87863E-05 9.36290E-09-1.35696E-19-5.18438E-19
 -1        43 9.62516E-05-2.88731E-05-2.88753E-05 1.14214E-08-7.19125E-20-2.55279E-19
 -1        44 9.65141E-05-2.89503E-05-2.89516E-05 1.27840E-08 3.33919E-19 4.93484E-19
 -1        45 9.66854E-05-2.89997E-05-2.89988E-05 1.21586E-08-1.51961E-19 8.55817E-19
 -1        46 9.66821E-05-2.89964E-05-2.89913E-05 7.68589E-09 5.56831E-20 1.87874E-19
 -1        47 9.63885E-05-2.89061E-05-2.88947E-05-2.96829E-09-3.31079E-22 1.88172E-19
 -1        48 9.56626E-05-2.86866E-05-2.86672E-05-2.21744E-08-1.47846E-19-1.00326E-18
 -1        49 9.43561E-05-2.82944E-05-2.82664E-05-5.13796E-08 2.96916E-19-1.03960E-18
 -1        50 9.23518E-05-2.76947E-05-2.76608E-05-8.96035E-08-2.88230E-19-1.14344E-18
 -1        51 8.96186E-05-2.68789E-05-2.68454E-05-1.31775E-07 3.26042E-20-7.01826E-19
 -1        52 8.62731E-05-2.58815E-05-2.58585E-05-1.67909E-07-1.84311E-19-6.60434E-19
 -1        53 8.26218E-05-2.47938E-05-2.47924E-05-1.84508E-07 8.62104E-20-2.16942E-18
 -1        54 7.91516E-05-2.37604E-05-2.37880E-05-1.69118E-07-1.68014E-19-1.91304E-18
 -1        55 7.64441E-05-2.29543E-05-2.30094E-05-1.16937E-07 1.06405E-19-1.09715E-18
 -1        56 7.50209E-05-2.25305E-05-2.26017E-05-3.58485E-08-4.32028E-20-8.98785E-19
 -1        57 7.51754E-05-2.25764E-05-2.26455E-05 5.45391E-08-6.08606E-20 5.03813E-19
 -1        58 7.68686E-05-2.30804E-05-2.31301E-05 1.30581E-07-2.17216E-19-1.37458E-18
 -1        59 7.97428E-05-2.39361E-05-2.39569E-05 1.74790E-07 4.14853E-19-2.18164E-18
 -1        60 8.32461E-05-2.49792E-05-2.49720E-05 1.82213E-07-5.69563E-19-1.58775E-18
 -1        61 8.68033E-05-2.60388E-05-2.60121E-05 1.59740E-07 7.94213E-20-3.03335E-18
 -1        62 8.99590E-05-2.69797E-05-2.69447E-05 1.20510E-07-1.28877E-19-1.82994E-18
 -1        63 9.24472E-05-2.77227E-05-2.76887E-05 7.75710E-08-2.39871E-19-3.40360E-18
 -1        64 9.41879E-05-2.82439E-05-2.82166E-05 3.99455E-08 4.13767E-19-2.49474E-18
 -1        65 9.52391E-05-2.85602E-05-2.85415E-05 1.18072E-08-3.01155E-19-3.41757E-19
 -1        66 9.57365E-05-2.87117E-05-2.87010E-05-6.34354E-09 1.20297E-19-1.53969E-18
 -1        67 9.58430E-05-2.87463E-05-2.87423E-05-1.58949E-08 5.94885E-19-1.38065E-18
 -1        68 9.57174E-05-2.87113E-05-2.87127E-05-1.85904E-08 4.70302E-19 5.90098E-19
 -1        69 9.54995E-05-2.86478E-05-2.86540E-05-1.55464E-08-7.38829E-19 8.65852E-19
 -1        70 9.53052E-05-2.85903E-05-2.85997E-05-5.55194E-09 7.92057E-19 6.67392E-19
 -1        71 9.52177E-05-2.85625E-05-2.85681E-05 7.81504E-09-4.72523E-19 1.49411E-18
 -1        72 1.02173E-04-3.05856E-05-3.41483E-05-1.92879E-06 1.06117E-19 3.86131E-18
 -1        73 9.25580E-05-2.75122E-05-2.89066E-05-3.33185E-07 1.81947E-20 2.58375E-18
 -1        74 8.91054E-05-2.67011E-05-2.69720E-05-1.25880E-07-2.97173E-20 1.73739E-18
 -1        75 8.80459E-05-2.64393E-05-2.64358E-05-9.55098E-08-3.43127E-20 1.13739E-18
 -1        76 8.80786E-05-2.64472E-05-2.64110E-05-7.64736E-08-4.40639E-20 9.52409E-19
 -1        77 8.86133E-05-2.65986E-05-2.65716E-05-6.23788E-08 4.80344E-21 6.25038E-19
 -1        78 8.93681E-05-2.68189E-05-2.68002E-05-5.15448E-08-7.08248E-20 7.92274E-19
 -1        79 9.01930E-05-2.70630E-05-2.70484E-05-4.25835E-08 1.09296E-19 5.71152E-19
 -1        80 9.10042E-05-2.73045E-05-2.72921E-05-3.48459E-08-2.84955E-20-6.61457E-19
 -1        81 9.17562E-05-2.75290E-05-2.75182E-05-2.80548E-08 5.44980E-20-5.53779E-19
 -1        82 9.24269E-05-2.77296E-05-2.77202E-05-2.20835E-08-3.99280E-20-5.60961E-19
 -1        83 9.30100E-05-2.79041E-05-2.78961E-05-1.68395E-08 1.69950E-19-9.17189E-19
 -1        84 9.35095E-05-2.80538E-05-2.80471E-05-1.22252E-08-7.80942E-20-1.19422E-18
 -1        85 9.39366E-05-2.81820E-05-2.81764E-05-8.12214E-09 7.83774E-20-1.36828E-18
 -1        86 9.43078E-05-2.82935E-05-2.82891E-05-4.38487E-09 1.31083E-20-1.37122E-18
 -1        87 9.46443E-05-2.83949E-05-2.83914E-05-8.34758E-10-2.60343E-19-1.91455E-19
 -1        88 9.49729E-05-2.84941E-05-2.84917E-05 2.74618E-09 9.88739E-21 2.09742E-19
 -1        89 9.53277E-05-2.86016E-05-2.86002E-05 6.62168E-09 4.77446E-19-2.78946E-18
 -1        90 9.57541E-05-2.87309E-05-2.87310E-05 1.11013E-08-6.53476E-19-3.22416E-18
 -1        91 9.63157E-05-2.89014E-05-2.89039E-05 1.65159E-08 3.26630E-19-1.52007E-18
 -1        92 9.71051E-05-2.91409E-05-2.91476E-05 2.31237E-08-1.00880E-19-6.86696E-19
 -1        93 9.82615E-05-2.94912E-05-2.95059E-05 3.08380E-08-2.95406E-19 5.79732E-19
 -1        94 9.99972E-05-3.00156E-05-3.00459E-05 3.85311E-08 1.31887E-19 5.38301E-19
 -1        95 1.02639E-04-3.08105E-05-3.08716E-05 4.23719E-08 1.66842E-19 1.12894E-18
 -1        96 1.06682E-04-3.20203E-05-3.21408E-05 3.21196E-08-1.41627E-19 7.51695E-19
 -1        97 1.12852E-04-3.38548E-05-3.40807E-05-1.64049E-08 1.68306E-19 3.80755E-19
 -1        98 1.22117E-04-3.65939E-05-3.69755E-05-1.54265E-07 2.05544E-19-2.06268E-18
 -1        99 1.35499E-04-4.05434E-05-4.10553E-05-4.71789E-07 1.13506E-20-3.30443E-18
 -1       100 1.53260E-04-4.58296E-05-4.61507E-05-1.05953E-06 5.55245E-21-1.84298E-18
 -1       101 1.72722E-04-5.18002E-05-5.10454E-05-1.72931E-06 1.14343E-19 5.98058E-19
 -1       102 1.84583E-04-5.58323E-05-5.30921E-05-1.43186E-06-3.21277E-19 3.38723E-18
 -1       103 1.72407E-04-5.25847E-05-4.94453E-05 2.19887E-06-2.11983E-19 4.78235E-18
 -1       104 1.32841E-04-3.97044E-05-4.15196E-05 6.76300E-06-3.35227E-19 6.81353E-18
 -1       105 9.02820E-05-2.47545E-05-3.45875E-05 6.29097E-06-9.13472E-20 6.77446E-18
 -1       106 7.90324E-05-2.02173E-05-3.31224E-05-2.48817E-07 5.50280E-19 4.68002E-18
 -1       107 1.02812E-04-2.82469E-05-3.69426E-05-5.51517E-06-7.38242E-20 2.80791E-18
 -1       108 1.48141E-04-4.38934E-05-4.47790E-05-6.68378E-06 5.90690E-19 2.39689E-18
 -1       109 1.80247E-04-5.48137E-05-5.14575E-05-3.18444E-06-2.97646E-19-1.88147E-19
 -1       110 1.84119E-04-5.59230E-05-5.31784E-05 9.66076E-09-1.33841E-19 4.71234E-18
 -1       111 1.68785E-04-5.08735E-05-5.00515E-05 1.19306E-06 7.11512E-19 3.87518E-18
 -1       112 1.48911E-04-4.46616E-05-4.48884E-05 1.12065E-06-7.79796E-19 4.10758E-18
 -1       113 1.31889E-04-3.95000E-05-3.99604E-05 7.70394E-07 4.56697E-19 3.45627E-18
 -1       114 1.19336E-04-3.57508E-05-3.61262E-05 4.73920E-07 2.64723E-19 1.08613E-18
 -1       115 1.10664E-04-3.31742E-05-3.34163E-05 2.79549E-07-1.14367E-18 1.23488E-18
 -1       116 1.04828E-04-3.14399E-05-3.15815E-05 1.64336E-07 5.39346E-19 9.77979E-19
 -1       117 1.00922E-04-3.02768E-05-3.03571E-05 9.99561E-08 2.05219E-20-2.65332E-18
 -1       118 9.83065E-05-2.94952E-05-2.95440E-05 6.62028E-08 3.94257E-19-3.84116E-18
 -1       119 9.65835E-05-2.89775E-05-2.90159E-05 4.59427E-08 5.31051E-19-3.48222E-18
 -1       120 9.55514E-05-2.86651E-05-2.87033E-05 2.91603E-08-3.20968E-19 8.88020E-19
 -1       121 9.51574E-05-2.85297E-05-2.85587E-05-2.22971E-08-1.91071E-18 5.05905E-18
 -1       122 9.52547E-05-2.86207E-05-2.85601E-05-3.97773E-08 8.95635E-18 1.11350E-19
 -1       123 9.51351E-05-2.82332E-05-2.87054E-05 2.23135E-08 1.25077E-17-2.74264E-19
 -1       124 9.48729E-05-2.73520E-05-2.89533E-05 6.01562E-08 6.10197E-18-1.03555E-18
 -1       125 9.45596E-05-2.63004E-05-2.92452E-05 5.97489E-08-1.51223E-18-4.82411E-19
 -1       126 9.42892E-05-2.53930E-05-2.95031E-05 4.22584E-08-5.29510E-18-9.51891E-19
 -1       127 9.41243E-05-2.48368E-05-2.96651E-05 1.93240E-08-1.56420E-18 1.14702E-18
 -1       128 9.40808E-05-2.46927E-05-2.97110E-05-4.17453E-09 3.24966E-18-9.63272E-19
 -1       129 9.41542E-05-2.49415E-05-2.96437E-05-2.12283E-08 3.67461E-19 8.62178E-19
 -1       130 9.43120E-05-2.54743E-05-2.94928E-05-2.96695E-08 2.59960E-18 8.70295E-19
 -1       131 9.45129E-05-2.61520E-05-2.92974E-05-3.01768E-08 3.77542E-19-4.69711E-19
 -1       132 9.47190E-05-2.68454E-05-2.90945E-05-2.50935E-08-4.94523E-18-4.35318E-19
 -1       133 9.48995E-05-2.74529E-05-2.89146E-05-1.80328E-08-4.77958E-18 1.66863E-18
 -1       134 9.50463E-05-2.79446E-05-2.87675E-05-1.07344E-08-2.16606E-18 2.53103E-18
 -1       135 9.51511E-05-2.82953E-05-2.86620E-05-5.50771E-09-2.42852E-18-7.73512E-19
 -1       136 9.52158E-05-2.85053E-05-2.85975E-05-7.83297E-10-2.71764E-18-3.76103E-19
 -1       137 9.52346E-05-2.85787E-05-2.85671E-05 1.89953E-08-1.75720E-18-2.99430E-19
 -1       138 3.24713E-05-1.12982E-04 2.17492E-05-3.21459E-05 1.22265E-17 3.35743E-18
 -1       139 1.01971E-05-6.11964E-05 1.03131E-05-3.77093E-05 6.69537E-18 2.50531E-18
 -1       140 6.13754E-06-2.41384E-06-9.91509E-06 1.00330E-06-3.37543E-19-6.89061E-19
 -1       141 5.61014E-05 1.98185E-05-3.50076E-05 6.72181E-05 2.95911E-18 3.84468E-18
 -1       142 1.67201E-04-1.07835E-05-6.07374E-05 1.17698E-04 4.24406E-18 8.74223E-18
 -1       143 3.04994E-04-7.53106E-05-8.22336E-05 1.09356E-04 1.11162E-18 1.31375E-18
 -1       144 3.90466E-04-1.21462E-04-9.28881E-05 3.30688E-05-6.82179E-19-6.01266E-18
 -1       145 3.63979E-04-1.06334E-04-8.98265E-05-7.15700E-05 1.82795E-18-6.76737E-18
 -1       146 2.31685E-04-3.95337E-05-7.12939E-05-1.21540E-04 2.43585E-18-7.33107E-18
 -1       147 9.81119E-05 1.27999E-05-4.64334E-05-9.42133E-05 1.08208E-18-2.53856E-18
 -1       148 1.94509E-05 1.11931E-05-1.94926E-05-2.67218E-05 8.60162E-19-5.61583E-19
 -1       149 5.43078E-06-3.84090E-05 3.59605E-06 2.63190E-05 4.40203E-18-1.00818E-18
 -1       150 2.42196E-05-9.75812E-05 1.89679E-05 3.92887E-05 7.25272E-18-3.16086E-18
 -1       151 4.04738E-05-1.25754E-04 2.38454E-05 1.22790E-05 8.26810E-18 1.29437E-20
 -1       152 3.20535E-05-1.02748E-04 1.90863E-05-1.79478E-05 3.80572E-18 1.09942E-19
 -1       153 1.08062E-05-4.28142E-05 5.64429E-06-1.98482E-05-1.57294E-18-6.74450E-19
 -1       154 4.76218E-05 3.54916E-05-3.46832E-05 7.72828E-05-7.06595E-18-6.68097E-18
 -1       155 1.32222E-04 1.06136E-05-5.55075E-05 1.20243E-04-6.15369E-18-1.08645E-17
 -1       156 2.33903E-04-4.28824E-05-7.21900E-05 1.16470E-04-3.75469E-18-9.93824E-18
 -1       157 3.14230E-04-9.21675E-05-8.29623E-05 5.49786E-05-8.05773E-19-9.32710E-18
 -1       158 3.22452E-04-9.72963E-05-8.41169E-05-3.46624E-05 1.84494E-19-5.16595E-18
 -1       159 2.63622E-04-6.07153E-05-7.63765E-05-1.01179E-04 4.67245E-19-1.32264E-18
 -1       160 1.65589E-04-5.41597E-06-6.15192E-05-1.24484E-04-6.96685E-20-4.32834E-19
 -1       161 7.01269E-05 3.07017E-05-4.08307E-05-9.23455E-05 1.18076E-18-8.62703E-19
 -1       162 1.35358E-05 2.06138E-05-1.75217E-05-3.04682E-05-3.40295E-18 1.94013E-18
 -1       163 8.03500E-06-3.22036E-05 2.81840E-06 1.59469E-05-5.11566E-18 2.73698E-18
 -1       164 2.74247E-05-9.09810E-05 1.66242E-05 2.27978E-05 6.88977E-18-9.98969E-19
 -1       165 9.48654E-05-1.23464E-05-3.55681E-05-2.23483E-05-6.87830E-19 1.49327E-18
 -1       166 8.92480E-05-8.45598E-06-3.47868E-05-1.73908E-05-7.54878E-19 5.99130E-19
 -1       167 8.65497E-05-6.50571E-06-3.44163E-05-1.35832E-05-6.90481E-19-5.87100E-20
 -1       168 8.51912E-05-5.51366E-06-3.42316E-05-1.03714E-05-6.25537E-19-4.46426E-19
 -1       169 8.44501E-05-4.94505E-06-3.41426E-05-7.54660E-06-4.97084E-19-6.70446E-19
 -1       170 8.40231E-05-4.59928E-06-3.41004E-05-4.90299E-06-3.82404E-19-7.87569E-19
 -1       171 8.38049E-05-4.41468E-06-3.40825E-05-2.39489E-06-2.32143E-19-8.94096E-19
 -1       172 8.37406E-05-4.35888E-06-3.40778E-05 5.11139E-08-1.41451E-19-9.43297E-19
 -1       173 8.38148E-05-4.42313E-06-3.40832E-05 2.49924E-06-5.77213E-20-1.00684E-18
 -1       174 8.40448E-05-4.61841E-06-3.41018E-05 5.01400E-06 6.87470E-20-1.03672E-18
 -1       175 8.44774E-05-4.97173E-06-3.41435E-05 7.62318E-06 1.90902E-19-9.99022E-19
 -1       176 8.52527E-05-5.57438E-06-3.42328E-05 1.05124E-05 4.28466E-19-9.52912E-19
 -1       177 8.66477E-05-6.60859E-06-3.44187E-05 1.37834E-05 5.29015E-19-8.43327E-19
 -1       178 8.93912E-05-8.60007E-06-3.47918E-05 1.76229E-05 6.43977E-19-3.85109E-19
 -1       179 9.57770E-05-1.36134E-05-3.54245E-05 2.18937E-05 6.88545E-19 3.47839E-19
 -1       180 1.05601E-04-2.61008E-05-3.52615E-05 1.86630E-05 6.22179E-19 1.48135E-18
 -1       181 1.03395E-04-2.73009E-05-3.26095E-05-1.21269E-05-5.13593E-19 2.37415E-18
 -1       182 9.71059E-05-2.82890E-05-2.95284E-05-4.73074E-06-4.60376E-19 2.06634E-18
 -1       183 9.35061E-05-2.76362E-05-2.81821E-05-1.76796E-06-3.25615E-19 1.82627E-18
 -1       184 9.19723E-05-2.74058E-05-2.76360E-05-4.19848E-07-2.81357E-19 1.41377E-18
 -1       185 9.13981E-05-2.73310E-05-2.74391E-05 2.44954E-07-6.66368E-20 1.43848E-18
 -1       186 9.13589E-05-2.73705E-05-2.74150E-05 5.72029E-07-2.62298E-19 1.50340E-18
 -1       187 9.16066E-05-2.74742E-05-2.74813E-05 7.12686E-07-4.08393E-19 1.42038E-18
 -1       188 9.19964E-05-2.76080E-05-2.75932E-05 7.46336E-07-4.67873E-19 9.65079E-19
 -1       189 9.24421E-05-2.77507E-05-2.77243E-05 7.19243E-07-2.59865E-19 1.15172E-18
 -1       190 9.28933E-05-2.78898E-05-2.78586E-05 6.60333E-07-1.95044E-19 1.12321E-18
 -1       191 9.33219E-05-2.80187E-05-2.79874E-05 5.88369E-07-7.68600E-20 5.94360E-19
 -1       192 9.37148E-05-2.81347E-05-2.81062E-05 5.15651E-07 1.15473E-19 1.89394E-19
 -1       193 9.40687E-05-2.82376E-05-2.82138E-05 4.50121E-07-8.61231E-20 5.73283E-19
 -1       194 9.43865E-05-2.83288E-05-2.83108E-05 3.96631E-07-2.40290E-19 7.39613E-19
 -1       195 9.46750E-05-2.84111E-05-2.83992E-05 3.57664E-07-6.22521E-19 3.63574E-19
 -1       196 9.49429E-05-2.84873E-05-2.84812E-05 3.33622E-07-8.32239E-20 6.76067E-19
 -1       197 9.51987E-05-2.85607E-05-2.85594E-05 3.22737E-07-6.07109E-20 3.89359E-19
 -1       198 9.54490E-05-2.86340E-05-2.86353E-05 3.20596E-07-9.16987E-20-2.49700E-20
 -1       199 9.56961E-05-2.87089E-05-2.87093E-05 3.19326E-07-4.21688E-19-7.69195E-21
 -1       200 9.59353E-05-2.87855E-05-2.87793E-05 3.06545E-07 5.39698E-20-2.53586E-19
 -1       201 9.61513E-05-2.88607E-05-2.88402E-05 2.64330E-07 1.25178E-19 2.17025E-19
 -1       202 9.63144E-05-2.89274E-05-2.88823E-05 1.68738E-07-3.53351E-19-1.88562E-19
 -1       203 9.63772E-05-2.89727E-05-2.88908E-05-9.24076E-09 3.62668E-19 4.03864E-19
 -1       204 9.62728E-05-2.89763E-05-2.88455E-05-3.00025E-07-1.19741E-19 1.17295E-18
 -1       205 9.59164E-05-2.89097E-05-2.87222E-05-7.27622E-07-6.11789E-19 1.34656E-18
 -1       206 9.52138E-05-2.87375E-05-2.84953E-05-1.29672E-06-1.83087E-19 1.27718E-18
 -1       207 9.40805E-05-2.84215E-05-2.81447E-05-1.97573E-06-1.90472E-19 4.97391E-19
 -1       208 9.24700E-05-2.79312E-05-2.76632E-05-2.68056E-06 2.22290E-19 1.91123E-19
 -1       209 9.04116E-05-2.72595E-05-2.70666E-05-3.26904E-06-3.87125E-20 1.47863E-19
 -1       210 8.80449E-05-2.64413E-05-2.63998E-05-3.55884E-06-1.51509E-18 7.32050E-19
 -1       211 8.56335E-05-2.55673E-05-2.57376E-05-3.37689E-06-6.50412E-19 6.44269E-19
 -1       212 8.35367E-05-2.47792E-05-2.51738E-05-2.63273E-06 1.64111E-19 6.82334E-19
 -1       213 8.21304E-05-2.42382E-05-2.48011E-05-1.38421E-06 2.84406E-19 5.14520E-19
 -1       214 8.16955E-05-2.40702E-05-2.46861E-05 1.48123E-07 8.13008E-19 7.90011E-19
 -1       215 8.23201E-05-2.43159E-05-2.48493E-05 1.64270E-06-1.16522E-18 5.85439E-19
 -1       216 8.38668E-05-2.49125E-05-2.52587E-05 2.79128E-06-1.27302E-18 3.82835E-19
 -1       217 8.60229E-05-2.57210E-05-2.58393E-05 3.40616E-06-1.92857E-20-1.06711E-18
 -1       218 8.84056E-05-2.65802E-05-2.64956E-05 3.46492E-06-8.80200E-19-7.22116E-19
 -1       219 9.06693E-05-2.73569E-05-2.71360E-05 3.08223E-06 5.41491E-19-1.42247E-18
 -1       220 9.25752E-05-2.79719E-05-2.76913E-05 2.43988E-06-1.21889E-18-1.62206E-18
 -1       221 9.40096E-05-2.84008E-05-2.81234E-05 1.71678E-06 2.67036E-19-1.38251E-18
 -1       222 9.49648E-05-2.86576E-05-2.84227E-05 1.04621E-06 2.01339E-18-2.23476E-18
 -1       223 9.55030E-05-2.87766E-05-2.86017E-05 5.04141E-07 2.11583E-19-4.05680E-19
 -1       224 9.57207E-05-2.87978E-05-2.86848E-05 1.18491E-07 9.61809E-19 3.52720E-19
 -1       225 9.57225E-05-2.87582E-05-2.87013E-05-1.13697E-07 8.55251E-19 8.88110E-19
 -1       226 9.56054E-05-2.86892E-05-2.86797E-05-2.10831E-07-4.64005E-20-5.41475E-19
 -1       227 9.54495E-05-2.86147E-05-2.86440E-05-1.97580E-07 1.80569E-19 9.72496E-19
 -1       228 9.53114E-05-2.85553E-05-2.86098E-05-1.06457E-07 2.53019E-19 4.02270E-19
 -1       229 9.94980E-05-2.85537E-05-3.05863E-05 7.21111E-06 5.44497E-19 1.29109E-18
 -1       230 9.44145E-05-2.77901E-05-2.85239E-05 2.74349E-06 4.39180E-19 9.13141E-19
 -1       231 9.20955E-05-2.74007E-05-2.76813E-05 9.29367E-07 2.76315E-19 5.29988E-19
 -1       232 9.11481E-05-2.72384E-05-2.73629E-05 6.69570E-08 1.20471E-19 3.02402E-19
 -1       233 9.09384E-05-2.72318E-05-2.72893E-05-3.61598E-07 9.28729E-20 3.02422E-19
 -1       234 9.11247E-05-2.73185E-05-2.73387E-05-5.63281E-07 1.26600E-21 3.48648E-20
 -1       235 9.15122E-05-2.74527E-05-2.74505E-05-6.37550E-07 2.01802E-19-1.06661E-20
 -1       236 9.19867E-05-2.76051E-05-2.75901E-05-6.38667E-07 3.89757E-19-7.83386E-20
 -1       237 9.24808E-05-2.77586E-05-2.77371E-05-5.99150E-07-2.63437E-20-6.70795E-19
 -1       238 9.29565E-05-2.79032E-05-2.78795E-05-5.39729E-07 2.66939E-19-3.47341E-19
 -1       239 9.33945E-05-2.80343E-05-2.80113E-05-4.74071E-07 3.33710E-19-6.48179E-19
 -1       240 9.37882E-05-2.81507E-05-2.81303E-05-4.11436E-07 2.61168E-19-8.10464E-19
 -1       241 9.41402E-05-2.82534E-05-2.82372E-05-3.58381E-07 2.80217E-19-1.18214E-18
 -1       242 9.44594E-05-2.83453E-05-2.83345E-05-3.20029E-07-3.07358E-19-7.41335E-19
 -1       243 9.47605E-05-2.84308E-05-2.84267E-05-3.01168E-07-2.37066E-19-3.53421E-19
 -1       244 9.50636E-05-2.85157E-05-2.85200E-05-3.07370E-07 3.21147E-19-5.98665E-19
 -1       245 9.53958E-05-2.86073E-05-2.86227E-05-3.46322E-07 1.25276E-18-7.21347E-19
 -1       246 9.57933E-05-2.87155E-05-2.87461E-05-4.29605E-07-4.89382E-19-9.76098E-19
 -1       247 9.63058E-05-2.88533E-05-2.89058E-05-5.75255E-07-5.55553E-19-1.26019E-18
 -1       248 9.70034E-05-2.90388E-05-2.91243E-05-8.11557E-07-1.29628E-18-6.14463E-19
 -1       249 9.79867E-05-2.92975E-05-2.94334E-05-1.18261E-06-4.53910E-19 3.09809E-19
 -1       250 9.94004E-05-2.96657E-05-2.98801E-05-1.75617E-06 2.83489E-19-2.99565E-19
 -1       251 1.01452E-04-3.01954E-05-3.05318E-05-2.63323E-06-9.21976E-20-1.00867E-18
 -1       252 1.04434E-04-3.09604E-05-3.14837E-05-3.95584E-06 4.57126E-19-6.87186E-19
 -1       253 1.08731E-04-3.20659E-05-3.28600E-05-5.89930E-06-5.01702E-20-5.59070E-19
 -1       254 1.14802E-04-3.36628E-05-3.47963E-05-8.60918E-06 6.27023E-19-1.52224E-19
 -1       255 1.23069E-04-3.59804E-05-3.73673E-05-1.19861E-05-2.19646E-19-2.56188E-19
 -1       256 1.33636E-04-3.93960E-05-4.04129E-05-1.51304E-05-1.37699E-18 7.99374E-19
 -1       257 1.45754E-04-4.44494E-05-4.32981E-05-1.52832E-05-1.67135E-18 1.76980E-18
 -1       258 1.56951E-04-5.10454E-05-4.49941E-05-7.14264E-06-1.52339E-18 1.59584E-18
 -1       259 1.62967E-04-5.59930E-05-4.56941E-05 1.36494E-05-5.15684E-19 1.95778E-18
 -1       260 1.58544E-04-5.09841E-05-4.68327E-05 3.24331E-05-1.51137E-18 2.76329E-18
 -1       261 1.47789E-04-3.68632E-05-4.91073E-05 2.80424E-05-1.90582E-19 3.31852E-18
 -1       262 1.43744E-04-2.99437E-05-5.03798E-05-1.47089E-06 1.22312E-18 3.23462E-18
 -1       263 1.49791E-04-3.72206E-05-4.93571E-05-2.73151E-05 1.67236E-18 3.52943E-18
 -1       264 1.61016E-04-5.17193E-05-4.71875E-05-3.23221E-05 2.10249E-18 5.09040E-19
 -1       265 1.64452E-04-5.65577E-05-4.60151E-05-1.40588E-05 3.68248E-19 2.08622E-19
 -1       266 1.57519E-04-5.15904E-05-4.51551E-05 5.66964E-06-1.72293E-18 8.60863E-19
 -1       267 1.45352E-04-4.45364E-05-4.31709E-05 1.50289E-05 7.44052E-19 1.17235E-18
 -1       268 1.33012E-04-3.93116E-05-4.02079E-05 1.55134E-05-1.54199E-19 1.64654E-18
 -1       269 1.22470E-04-3.58413E-05-3.71670E-05 1.25537E-05 4.96431E-19 8.40760E-19
 -1       270 1.14225E-04-3.35011E-05-3.46075E-05 9.15551E-06-1.12043E-19 2.05263E-18
 -1       271 1.08118E-04-3.18836E-05-3.26655E-05 6.36645E-06 4.41020E-19 1.88261E-18
 -1       272 1.03734E-04-3.07489E-05-3.12670E-05 4.34323E-06 1.58505E-18-7.47569E-19
 -1       273 1.00639E-04-2.99469E-05-3.02846E-05 2.94931E-06 9.11680E-19-2.32739E-18
 -1       274 9.84756E-05-2.93765E-05-2.96048E-05 1.99561E-06-1.64333E-18-1.08813E-18
 -1       275 9.69867E-05-2.89679E-05-2.91454E-05 1.30704E-06-1.98435E-18 2.19621E-18
 -1       276 9.60175E-05-2.86905E-05-2.88519E-05 7.57634E-07-2.37852E-18 3.70801E-18
 -1       277 9.54449E-05-2.85205E-05-2.86773E-05 2.53158E-07-1.02110E-18 3.97092E-18
 -1       278 9.52780E-05-2.81867E-05-2.87511E-05 5.29855E-07 8.86764E-19 1.86342E-18
 -1       279 9.50304E-05-2.75700E-05-2.89111E-05 9.24058E-07 5.38838E-19-3.49776E-18
 -1       280 9.47076E-05-2.68223E-05-2.90942E-05 1.05259E-06 4.15749E-19-3.02925E-18
 -1       281 9.44299E-05-2.61373E-05-2.92698E-05 8.95894E-07-1.22046E-19-1.78847E-18
 -1       282 9.42480E-05-2.56583E-05-2.93980E-05 5.51949E-07-1.23348E-18 4.94551E-19
 -1       283 9.41814E-05-2.54514E-05-2.94586E-05 1.26359E-07-1.03441E-18 1.93435E-18
 -1       284 9.42299E-05-2.55366E-05-2.94427E-05-2.66525E-07-6.68856E-19-1.04728E-18
 -1       285 9.43642E-05-2.58593E-05-2.93613E-05-5.51107E-07 9.05339E-20 9.26171E-19
 -1       286 9.45450E-05-2.63307E-05-2.92359E-05-6.97274E-07-1.28722E-18-1.77688E-18
 -1       287 9.47344E-05-2.68559E-05-2.90911E-05-7.14389E-07-7.42273E-19-1.54531E-18
 -1       288 9.49015E-05-2.73484E-05-2.89509E-05-6.39294E-07-2.42122E-19 3.92425E-19
 -1       289 9.50376E-05-2.77753E-05-2.88257E-05-5.11903E-07 4.40025E-19 2.64373E-18
 -1       290 9.51358E-05-2.81041E-05-2.87267E-05-3.69253E-07-2.85836E-19 2.68193E-20
 -1       291 9.52025E-05-2.83355E-05-2.86563E-05-2.29368E-07-1.54217E-18-6.31322E-19
 -1       292 9.52629E-05-2.84600E-05-2.86286E-05-1.78594E-07-6.75462E-19 5.44387E-19
 -1       293 1.09508E-05-5.37126E-05 1.48194E-05-3.24839E-06 4.65124E-18 2.46000E-18
 -1       294 2.26412E-05-5.16273E-05 8.91814E-06 1.06404E-05 4.28069E-18-1.47934E-18
 -1       295 5.09058E-05-4.75547E-05-4.70129E-06 2.39825E-05 3.00167E-18-2.92957E-18
 -1       296 9.97093E-05-4.69750E-05-2.45493E-05 3.54250E-05-4.52104E-19 3.50121E-18
 -1       297 1.59926E-04-5.12237E-05-4.61590E-05 3.58741E-05 1.12677E-18 4.21060E-18
 -1       298 2.14203E-04-5.47423E-05-6.51022E-05 1.98190E-05 4.45922E-18-1.17738E-18
 -1       299 2.47617E-04-5.01976E-05-7.83890E-05 9.68117E-06 2.69886E-18-2.00154E-18
 -1       300 2.51799E-04-4.69638E-05-8.11599E-05-1.01597E-06 1.09204E-18-3.86205E-18
 -1       301 2.27397E-04-5.08739E-05-7.16602E-05-5.82228E-06 3.33731E-19-1.56722E-18
 -1       302 1.87013E-04-5.27121E-05-5.55775E-05-3.15892E-05-7.85835E-19-2.59319E-18
 -1       303 1.23823E-04-4.78563E-05-3.36136E-05-3.72477E-05-4.96573E-19-1.25530E-18
 -1       304 7.34341E-05-4.97528E-05-1.25599E-05-3.11077E-05 2.16057E-18 1.19675E-18
 -1       305 3.53228E-05-4.77988E-05 3.02779E-06-2.28757E-05 2.04474E-18 7.68788E-19
 -1       306 1.32393E-05-5.51155E-05 1.41855E-05-7.20600E-07 3.18071E-18 7.59153E-20
 -1       307 1.07600E-05-4.97884E-05 1.36967E-05 1.30478E-05 2.36661E-18-1.98926E-18
 -1       308 2.39417E-05-4.69121E-05 6.92160E-06 2.41578E-05 4.04882E-19-2.42934E-18
 -1       309 4.84953E-05-3.60482E-05-7.15120E-06 3.80842E-05-1.40163E-18-4.55783E-18
 -1       310 8.45737E-05-2.78108E-05-2.47686E-05 5.01221E-05-2.94619E-18-3.98338E-18
 -1       311 1.29274E-04-2.59154E-05-4.32738E-05 5.58653E-05-3.00845E-18-6.58060E-18
 -1       312 1.74588E-04-2.98732E-05-5.96790E-05 5.06173E-05-3.77358E-18-7.35648E-18
 -1       313 2.08476E-04-3.45217E-05-7.14515E-05 2.94094E-05-2.52702E-18-8.20796E-18
 -1       314 2.26440E-04-3.84154E-05-7.69461E-05 3.79385E-06-2.05628E-18-5.66771E-18
 -1       315 2.01292E-04-2.88110E-05-7.17764E-05-1.55492E-05-2.07195E-18-2.60590E-18
 -1       316 1.86756E-04-3.14343E-05-6.40378E-05-4.45277E-05 5.25174E-19-1.16234E-18
 -1       317 1.46725E-04-3.15159E-05-4.82126E-05-4.89548E-05 1.49120E-18 1.45478E-19
 -1       318 1.06887E-04-3.82166E-05-2.94444E-05-4.96659E-05-7.67624E-19-1.22735E-18
 -1       319 5.47254E-05-3.43446E-05-1.02741E-05-4.09655E-05-1.13312E-18-5.06843E-19
 -1       320 2.77934E-05-4.46452E-05 4.48311E-06-2.70638E-05 2.56715E-18 4.79844E-18
 -1       321 1.42931E-05-5.34578E-05 1.33158E-05-1.50433E-05 2.98145E-18 1.13502E-18
 -1       322 9.16482E-05-1.43951E-05-3.31716E-05-1.30617E-05-7.84764E-19 3.83799E-19
 -1       323 9.57068E-05-1.91102E-05-3.28901E-05-1.46293E-05-7.43404E-19 9.64274E-19
 -1       324 8.80062E-05-1.03742E-05-3.33244E-05-8.15222E-06-6.66851E-19-2.92220E-19
 -1       325 8.71923E-05-9.45342E-06-3.33647E-05-5.71652E-06-5.59812E-19-4.07089E-19
 -1       326 8.67328E-05-8.92326E-06-3.33918E-05-3.36620E-06-3.13475E-19-4.74233E-19
 -1       327 8.65280E-05-8.68337E-06-3.34054E-05-1.07242E-06-1.40205E-19-6.51213E-19
 -1       328 8.65366E-05-8.69302E-06-3.34051E-05 1.20307E-06-7.54389E-20-6.84631E-19
 -1       329 8.67602E-05-8.95407E-06-3.33906E-05 3.49922E-06 2.51191E-20-7.27866E-19
 -1       330 8.72319E-05-9.49837E-06-3.33631E-05 5.81370E-06 1.37342E-19-7.13619E-19
 -1       331 8.80706E-05-1.04502E-05-3.33212E-05 8.25298E-06 4.44564E-19-6.40734E-19
 -1       332 8.94842E-05-1.20332E-05-3.32599E-05 1.07623E-05 5.62784E-19-6.15426E-19
 -1       333 9.19025E-05-1.47221E-05-3.31584E-05 1.31678E-05 7.23072E-19-3.88543E-19
 -1       334 9.58038E-05-1.94571E-05-3.28278E-05 1.43749E-05 7.39777E-19 6.04768E-20
 -1       335 9.87896E-05-2.44439E-05-3.19506E-05 1.18975E-05 6.50098E-19 5.70980E-19
 -1       336 9.63893E-05-2.68120E-05-2.97893E-05 5.74051E-06 5.84426E-19 4.33532E-19
 -1       337 9.64338E-05-2.60247E-05-3.01316E-05-6.34640E-06-5.79493E-19 1.00077E-18
 -1       338 9.49212E-05-2.70298E-05-2.90711E-05-2.83254E-06-5.45486E-19 7.61283E-19
 -1       339 9.39441E-05-2.74252E-05-2.84935E-05-9.18777E-07-1.41443E-19 9.28919E-19
 -1       340 9.34268E-05-2.76380E-05-2.81885E-05 1.43166E-07-1.03707E-19 7.76045E-19
 -1       341 9.32374E-05-2.77912E-05-2.80456E-05 7.10718E-07-2.86224E-19 8.30296E-19
 -1       342 9.32582E-05-2.79208E-05-2.80008E-05 9.82839E-07-5.74198E-19 8.28423E-19
 -1       343 9.34030E-05-2.80358E-05-2.80144E-05 1.07706E-06-8.35589E-20 1.16424E-18
 -1       344 9.36129E-05-2.81375E-05-2.80612E-05 1.06680E-06-5.61214E-19 7.89404E-19
 -1       345 9.38499E-05-2.82258E-05-2.81252E-05 9.99771E-07-5.47135E-19 4.27344E-19
 -1       346 9.40911E-05-2.83011E-05-2.81963E-05 9.07591E-07-1.86048E-19 2.03215E-19
 -1       347 9.43240E-05-2.83648E-05-2.82688E-05 8.11227E-07 8.53910E-20 2.78097E-19
 -1       348 9.45434E-05-2.84187E-05-2.83397E-05 7.24254E-07 4.07386E-22 6.19800E-19
 -1       349 9.47493E-05-2.84655E-05-2.84077E-05 6.54835E-07-5.66683E-19 6.37606E-19
 -1       350 9.49443E-05-2.85085E-05-2.84728E-05 6.06801E-07 8.66359E-20 4.97573E-19
 -1       351 9.51334E-05-2.85513E-05-2.85353E-05 5.80007E-07-2.37489E-19 6.39389E-19
 -1       352 9.53214E-05-2.85984E-05-2.85957E-05 5.70040E-07-6.15285E-19 6.42718E-19
 -1       353 9.55126E-05-2.86548E-05-2.86535E-05 5.67328E-07 1.91993E-19 8.20997E-19
 -1       354 9.57088E-05-2.87258E-05-2.87074E-05 5.55780E-07-3.05373E-19 7.66774E-19
 -1       355 9.59078E-05-2.88166E-05-2.87541E-05 5.11232E-07-1.38641E-20 7.33345E-19
 -1       356 9.61008E-05-2.89311E-05-2.87883E-05 4.00301E-07-4.38702E-20 2.25833E-19
 -1       357 9.62696E-05-2.90693E-05-2.88023E-05 1.80661E-07 3.34121E-19 6.29113E-19
 -1       358 9.63834E-05-2.92237E-05-2.87859E-05-1.95625E-07 5.62236E-19 1.03249E-18
 -1       359 9.63957E-05-2.93741E-05-2.87278E-05-7.73613E-07 1.86135E-19 8.29001E-19
 -1       360 9.62426E-05-2.94815E-05-2.86172E-05-1.57975E-06-3.66515E-20 6.87561E-19
 -1       361 9.58460E-05-2.94841E-05-2.84466E-05-2.59825E-06-2.81990E-19 8.02479E-19
 -1       362 9.51249E-05-2.93014E-05-2.82155E-05-3.74307E-06 3.43297E-19 2.09127E-18
 -1       363 9.40211E-05-2.88520E-05-2.79335E-05-4.83595E-06-4.32649E-20 1.74790E-18
 -1       364 9.25390E-05-2.80904E-05-2.76218E-05-5.60947E-06-8.65642E-20 1.34018E-18
 -1       365 9.07898E-05-2.70560E-05-2.73117E-05-5.75638E-06-1.02577E-18 2.25438E-18
 -1       366 8.90166E-05-2.59089E-05-2.70394E-05-5.03254E-06-7.43846E-19 2.32498E-18
 -1       367 8.75641E-05-2.49162E-05-2.68389E-05-3.38666E-06 1.38937E-19 2.59751E-18
 -1       368 8.67770E-05-2.43651E-05-2.67361E-05-1.04716E-06 7.19674E-19 1.53278E-18
 -1       369 8.68613E-05-2.44323E-05-2.67436E-05 1.51082E-06-2.02822E-19 2.36693E-18
 -1       370 8.77897E-05-2.50945E-05-2.68598E-05 3.72880E-06-1.27634E-18 3.49891E-18
 -1       371 8.93141E-05-2.61399E-05-2.70686E-05 5.17554E-06-1.42160E-18 4.26715E-18
 -1       372 9.10779E-05-2.72759E-05-2.73418E-05 5.68553E-06-5.32968E-19 3.72955E-18
 -1       373 9.27511E-05-2.82534E-05-2.76437E-05 5.36086E-06-5.43238E-19 1.87922E-18
 -1       374 9.41168E-05-2.89371E-05-2.79386E-05 4.47110E-06-1.34610E-19 8.89861E-19
 -1       375 9.50894E-05-2.93087E-05-2.81974E-05 3.32517E-06-6.49702E-19 5.47088E-19
 -1       376 9.56827E-05-2.94248E-05-2.84021E-05 2.17803E-06 8.31999E-20 1.98596E-20
 -1       377 9.59647E-05-2.93683E-05-2.85464E-05 1.19290E-06 2.00271E-18-3.83805E-19
 -1       378 9.60206E-05-2.92164E-05-2.86342E-05 4.45940E-07 1.70657E-18 8.62995E-20
 -1       379 9.59308E-05-2.90256E-05-2.86762E-05-4.92261E-08 1.41705E-18 3.07525E-19
 -1       380 9.57614E-05-2.88314E-05-2.86856E-05-3.13917E-07-3.90186E-19 9.71095E-19
 -1       381 9.55640E-05-2.86557E-05-2.86755E-05-3.85824E-07-6.42541E-19 1.05147E-18
 -1       382 9.53979E-05-2.85332E-05-2.86555E-05-3.17274E-07 5.42093E-19 3.19393E-19
 -1       383 9.43702E-05-2.73410E-05-2.86886E-05 2.46779E-06 5.21799E-19 4.21791E-19
 -1       384 9.31649E-05-2.74609E-05-2.81370E-05 7.42274E-07 3.60963E-19 2.49972E-19
 -1       385 9.26122E-05-2.75386E-05-2.78788E-05-1.80020E-07 2.67207E-19-1.62672E-19
 -1       386 9.24726E-05-2.76316E-05-2.77848E-05-6.57392E-07 1.17092E-19-1.50568E-19
 -1       387 9.25782E-05-2.77414E-05-2.77856E-05-8.77587E-07 1.22306E-19-3.24816E-19
 -1       388 9.28183E-05-2.78585E-05-2.78395E-05-9.46079E-07 3.62660E-19-2.76537E-19
 -1       389 9.31219E-05-2.79739E-05-2.79208E-05-9.26574E-07 1.98585E-19-3.68564E-19
 -1       390 9.34451E-05-2.80817E-05-2.80134E-05-8.59841E-07-4.40655E-21-4.23724E-19
 -1       391 9.37627E-05-2.81787E-05-2.81081E-05-7.72889E-07 5.85763E-19-1.82395E-19
 -1       392 9.40623E-05-2.82641E-05-2.81999E-05-6.84132E-07 4.51447E-19-2.09786E-20
 -1       393 9.43406E-05-2.83385E-05-2.82871E-05-6.06650E-07 6.17526E-19-3.23928E-20
 -1       394 9.46011E-05-2.84037E-05-2.83706E-05-5.50536E-07-5.28696E-19-2.31997E-19
 -1       395 9.48525E-05-2.84624E-05-2.84529E-05-5.24843E-07 3.27626E-20-6.31090E-19
 -1       396 9.51086E-05-2.85177E-05-2.85385E-05-5.39468E-07 3.09831E-19-6.20204E-19
 -1       397 9.53880E-05-2.85729E-05-2.86340E-05-6.07275E-07 1.02979E-18-8.37204E-19
 -1       398 9.57151E-05-2.86319E-05-2.87481E-05-7.46778E-07 4.12878E-19-2.80240E-19
 -1       399 9.61226E-05-2.86985E-05-2.88931E-05-9.85814E-07-6.82878E-19-9.06585E-19
 -1       400 9.66531E-05-2.87762E-05-2.90854E-05-1.36670E-06-8.86416E-19-7.34365E-19
 -1       401 9.73631E-05-2.88681E-05-2.93478E-05-1.95339E-06-8.32521E-19-1.34945E-18
 -1       402 9.83264E-05-2.89758E-05-2.97110E-05-2.84075E-06 7.91488E-19-1.62627E-18
 -1       403 9.96371E-05-2.90999E-05-3.02150E-05-4.16471E-06 5.12758E-19-1.49751E-18
 -1       404 1.01411E-04-2.92442E-05-3.09086E-05-6.10747E-06-1.11734E-19-1.50331E-18
 -1       405 1.03785E-04-2.94336E-05-3.18420E-05-8.88121E-06-2.81438E-19 1.15829E-19
 -1       406 1.06923E-04-2.97747E-05-3.30429E-05-1.26483E-05-2.21281E-19 3.08093E-19
 -1       407 1.11063E-04-3.06203E-05-3.44626E-05-1.72911E-05-3.87281E-19 2.02178E-18
 -1       408 1.16723E-04-3.29429E-05-3.58927E-05-2.18874E-05-1.30501E-18 2.50970E-18
 -1       409 1.25175E-04-3.88165E-05-3.69536E-05-2.37343E-05-1.11237E-18 2.56575E-18
 -1       410 1.39018E-04-5.08590E-05-3.76043E-05-1.74960E-05-1.16009E-18 2.03415E-18
 -1       411 1.57257E-04-6.42272E-05-3.99200E-05 6.35853E-07-1.32651E-18 1.97134E-19
 -1       412 1.88450E-04-5.38189E-05-5.73165E-05 2.60907E-05-9.79488E-19 1.36626E-18
 -1       413 1.88041E-04-3.29366E-05-6.57671E-05-1.41973E-05 2.66964E-18 1.06853E-18
 -1       414 1.82255E-04-5.23585E-05-5.57668E-05-2.79751E-05 3.66056E-18-1.63890E-18
 -1       415 1.69074E-04-6.78609E-05-4.37647E-05-1.61900E-05 5.52778E-19-2.11737E-18
 -1       416 1.47210E-04-6.26893E-05-3.60799E-05 1.16768E-05-2.36370E-18 1.00363E-18
 -1       417 1.26635E-04-4.45781E-05-3.50482E-05 2.42994E-05-7.48830E-20 8.82721E-19
 -1       418 1.15490E-04-3.40157E-05-3.48710E-05 2.56118E-05 2.42867E-19 8.35717E-19
 -1       419 1.09597E-04-2.97988E-05-3.41746E-05 2.17469E-05 8.19290E-19-4.88508E-20
 -1       420 1.05908E-04-2.85649E-05-3.31197E-05 1.66874E-05-2.08744E-19 2.78336E-19
 -1       421 1.03197E-04-2.83859E-05-3.20325E-05 1.21454E-05 3.68216E-19-8.85938E-19
 -1       422 1.01052E-04-2.84539E-05-3.10876E-05 8.60680E-06 1.42951E-18-7.06859E-19
 -1       423 9.93423E-05-2.85124E-05-3.03354E-05 6.02711E-06 1.15157E-18 1.42694E-18
 -1       424 9.80006E-05-2.85097E-05-2.97673E-05 4.19453E-06-6.55633E-19 3.24218E-18
 -1       425 9.69696E-05-2.84478E-05-2.93553E-05 2.88375E-06-2.79222E-18 5.78830E-19
 -1       426 9.61532E-05-2.83208E-05-2.90685E-05 1.86267E-06-2.49026E-18-1.26937E-18
 -1       427 9.56825E-05-2.82496E-05-2.88953E-05 1.16514E-06-3.43322E-18 3.50961E-21
 -1       428 9.43949E-05-2.64095E-05-2.91376E-05 1.69006E-06-3.78836E-19-1.68702E-18
 -1       429 9.49145E-05-2.71248E-05-2.90511E-05 1.81338E-06-1.43552E-18-2.45675E-18
 -1       430 9.40388E-05-2.59082E-05-2.92011E-05 1.19951E-06 1.99475E-18-2.68413E-18
 -1       431 9.38912E-05-2.56829E-05-2.92354E-05 4.98424E-07 1.99842E-19 1.39678E-18
 -1       432 9.39540E-05-2.57517E-05-2.92328E-05-2.17524E-07-1.32992E-18-3.77796E-19
 -1       433 9.41701E-05-2.60576E-05-2.91936E-05-7.93952E-07-2.80777E-18 1.18169E-20
 -1       434 9.44611E-05-2.65080E-05-2.91243E-05-1.14739E-06-2.53710E-18-1.73099E-18
 -1       435 9.47540E-05-2.70056E-05-2.90356E-05-1.26665E-06-1.01248E-18-4.31944E-19
 -1       436 9.49938E-05-2.74637E-05-2.89411E-05-1.19756E-06 1.44727E-18 4.23779E-19
 -1       437 9.51652E-05-2.78495E-05-2.88487E-05-1.00753E-06 1.82506E-18 2.64458E-18
 -1       438 9.52668E-05-2.81379E-05-2.87682E-05-7.67183E-07 1.72729E-18 1.66543E-18
 -1       439 9.53141E-05-2.83354E-05-2.87037E-05-5.30314E-07 8.50934E-19-9.54736E-19
 -1       440 5.67675E-05-4.31762E-05-6.07431E-06 3.69481E-05 1.06281E-18-4.97410E-18
 -1       441 9.99965E-06-2.19479E-05 4.99132E-06-1.24529E-05-3.89026E-19 2.30054E-18
 -1       442 1.85642E-05-2.84411E-05 3.87184E-06 1.64339E-05-2.17317E-19-7.09178E-19
 -1       443 1.10946E-04-6.30752E-05-2.06600E-05 3.50786E-05-2.79733E-19 2.56047E-18
 -1       444 1.55162E-04-7.15207E-05-3.60748E-05 1.50809E-05-1.21401E-18 3.54706E-18
 -1       445 8.93421E-05-1.18574E-05-3.32809E-05-1.06836E-05-7.05646E-19-8.86010E-20
 -1       446 1.84812E-04-3.33922E-05-6.43546E-05 1.73126E-05-3.50672E-19 2.08974E-18
 -1       447 1.72439E-04-7.13632E-05-4.34370E-05-4.91865E-06-1.41380E-18-1.77792E-18
 -1       448 1.28982E-04-6.70849E-05-2.70577E-05-2.87651E-05 1.41433E-18-2.79044E-19
 -1       449 7.93122E-05-5.10717E-05-1.22645E-05-3.86626E-05 1.26970E-18 1.15858E-18
 -1       450 2.70911E-05-2.61787E-05-2.92104E-07-2.40286E-05 1.81636E-19 5.18490E-19
 -1       451 1.13088E-05-1.89958E-05 3.46937E-06 2.75178E-07-4.65577E-19 3.50460E-20
 -1       452 1.99488E-05-2.76231E-05 3.07160E-06 3.21604E-05-1.16425E-18-4.30706E-18
 -1       453 5.44046E-05-3.84905E-05-6.73290E-06 5.03869E-05-1.30782E-18-4.36915E-18
 -1       454 9.28902E-05-4.97261E-05-1.85731E-05 5.00679E-05-1.06027E-18-3.99450E-18
 -1       455 1.30081E-04-5.20713E-05-3.33975E-05 3.83861E-05-1.42799E-18-4.65889E-18
 -1       456 1.55377E-04-4.30260E-05-4.79410E-05 2.27956E-05-1.50992E-18-5.29724E-18
 -1       457 1.68402E-04-2.86684E-05-5.95814E-05 8.95093E-06-1.55446E-18-5.52445E-18
 -1       458 1.66637E-04-1.31874E-05-6.56663E-05-3.22574E-07-3.73870E-18-3.61418E-18
 -1       459 1.62099E-04-9.60049E-06-6.55673E-05 2.35992E-07-4.16603E-18-3.56496E-18
 -1       460 1.59890E-04-2.43577E-05-5.84543E-05 2.56603E-07 7.30566E-19-2.22029E-18
 -1       461 1.57616E-04-4.04228E-05-5.03452E-05-8.62087E-06 6.29637E-19-2.25131E-18
 -1       462 1.43310E-04-5.17700E-05-3.92351E-05-2.62821E-05 9.21413E-19-1.44070E-18
 -1       463 1.01113E-04-5.28669E-05-2.06087E-05-4.89073E-05 1.06684E-18-1.21629E-18
 -1       464 6.45408E-05-4.20352E-05-9.53601E-06-5.17391E-05 1.99932E-18 1.08484E-18
 -1       465 2.55646E-05-2.96224E-05 1.56048E-06-3.65401E-05 1.23063E-18 3.10565E-18
 -1       466 1.80300E-04-6.66754E-05-4.86818E-05-6.66010E-06 2.24255E-18-1.25297E-18
 -1       467 1.70683E-04-7.14418E-05-4.26145E-05 8.44974E-06-2.03537E-18-2.42463E-20
 -1       468 1.31390E-04-6.10725E-05-3.01638E-05-3.21244E-05-1.89577E-19-2.61193E-18
 -1       469 1.42513E-04-1.15776E-05-5.67081E-05 8.35681E-06-2.22092E-18-3.48178E-18
 -1       470 6.02545E-05-3.23798E-05-1.14100E-05-3.71490E-05-4.10811E-19 2.88997E-19
 -1       471 9.58198E-05-2.51479E-05-3.02737E-05 6.01591E-06 4.82531E-19 8.74992E-21
 -1       472 8.95415E-05-1.33988E-05-3.26514E-05-3.92323E-06-3.60078E-19-3.13542E-19
 -1       473 9.02479E-05-1.43611E-05-3.25430E-05-5.88028E-06-4.28609E-19-2.78714E-19
 -1       474 8.90441E-05-1.27184E-05-3.27288E-05 5.42174E-08-1.05345E-19-6.10544E-19
 -1       475 8.91796E-05-1.29024E-05-3.27083E-05 2.04474E-06-5.50014E-20-6.65454E-19
 -1       476 8.95736E-05-1.34398E-05-3.26480E-05 3.99664E-06 3.03877E-20-6.48993E-19
 -1       477 9.02982E-05-1.44277E-05-3.25371E-05 5.94989E-06 3.11678E-19-4.59362E-19
 -1       478 9.14463E-05-1.60073E-05-3.23541E-05 7.77850E-06 4.38000E-19-5.29066E-19
 -1       479 9.32328E-05-1.84778E-05-3.20580E-05 9.29388E-06 5.02471E-19-4.97033E-19
 -1       480 4.37996E-05-2.34389E-05-8.08379E-06 4.21817E-05-2.03500E-18-3.67353E-18
 -1       481 9.51137E-05-2.65776E-05-2.93547E-05 2.87147E-06 4.83557E-19-7.83671E-21
 -1       482 9.54889E-05-2.44413E-05-3.04404E-05-5.83062E-06-7.21049E-19 3.67492E-19
 -1       483 9.52749E-05-2.62272E-05-2.95847E-05-2.89213E-06-3.35559E-19 3.26493E-19
 -1       484 9.49193E-05-2.71592E-05-2.90361E-05-1.02486E-06-3.28854E-19 2.73680E-19
 -1       485 9.46444E-05-2.76895E-05-2.86933E-05 1.01873E-07-3.15595E-19 1.90115E-19
 -1       486 9.44901E-05-2.80143E-05-2.84890E-05 7.42374E-07-3.92927E-19 2.61915E-19
 -1       487 9.44378E-05-2.82239E-05-2.83773E-05 1.06809E-06-2.64438E-19 4.97641E-19
 -1       488 9.44576E-05-2.83623E-05-2.83267E-05 1.19474E-06-5.01925E-19 2.55923E-19
 -1       489 9.45228E-05-2.84534E-05-2.83157E-05 1.20098E-06-7.92439E-19 5.48552E-19
 -1       490 9.46133E-05-2.85114E-05-2.83297E-05 1.14060E-06-6.22252E-19 7.95131E-19
 -1       491 9.47157E-05-2.85459E-05-2.83588E-05 1.05036E-06 5.30761E-20 3.70580E-19
 -1       492 9.48223E-05-2.85641E-05-2.83966E-05 9.55031E-07 1.51576E-19 2.67999E-19
 -1       493 9.49294E-05-2.85719E-05-2.84391E-05 8.70726E-07-5.41506E-20 9.97147E-20
 -1       494 9.50365E-05-2.85747E-05-2.84838E-05 8.06989E-07-2.92057E-19 7.40951E-19
 -1       495 9.51459E-05-2.85783E-05-2.85291E-05 7.67882E-07-2.20103E-19 1.69857E-18
 -1       496 9.52616E-05-2.85894E-05-2.85738E-05 7.52251E-07-5.62820E-19 1.39278E-18
 -1       497 9.53893E-05-2.86166E-05-2.86169E-05 7.53206E-07-1.16537E-19 1.14562E-18
 -1       498 9.55364E-05-2.86707E-05-2.86568E-05 7.56911E-07-5.07861E-19 6.25630E-19
 -1       499 9.57110E-05-2.87648E-05-2.86914E-05 7.40846E-07-4.83685E-19 5.70169E-19
 -1       500 9.59213E-05-2.89141E-05-2.87178E-05 6.71947E-07-4.69258E-20 3.17829E-19
 -1       501 9.61735E-05-2.91330E-05-2.87324E-05 5.05412E-07 2.15721E-19 1.30897E-18
 -1       502 9.64679E-05-2.94301E-05-2.87316E-05 1.85528E-07 6.55507E-19 9.67488E-19
 -1       503 9.67925E-05-2.97997E-05-2.87129E-05-3.49316E-07-1.14277E-19 3.48477E-19
 -1       504 9.71140E-05-3.02085E-05-2.86760E-05-1.15453E-06-3.56143E-19 7.27244E-20
 -1       505 9.73671E-05-3.05818E-05-2.86248E-05-2.25705E-06-2.07139E-19-2.52138E-19
 -1       506 9.74479E-05-3.07937E-05-2.85687E-05-3.62148E-06 7.43559E-19 3.38982E-19
 -1       507 9.72214E-05-3.06758E-05-2.85216E-05-5.10946E-06 8.19639E-20 4.12459E-19
 -1       508 9.65571E-05-3.00608E-05-2.84994E-05-6.44883E-06-9.31612E-20 1.72605E-18
 -1       509 9.53995E-05-2.88678E-05-2.85131E-05-7.24466E-06 8.21743E-20 1.96685E-18
 -1       510 9.38555E-05-2.72069E-05-2.85613E-05-7.06865E-06-6.04162E-19 2.53466E-18
 -1       511 9.22436E-05-2.54383E-05-2.86270E-05-5.63512E-06-2.47463E-19 2.06438E-18
 -1       512 9.10340E-05-2.41006E-05-2.86805E-05-3.00609E-06-3.43211E-19 2.39040E-18
 -1       513 9.06456E-05-2.36759E-05-2.86957E-05 3.17933E-07 5.55737E-19 2.55523E-18
 -1       514 9.12206E-05-2.43275E-05-2.86633E-05 3.54991E-06-7.87972E-20 2.55934E-18
 -1       515 9.25423E-05-2.58062E-05-2.85971E-05 5.93905E-06-6.35206E-19 3.04024E-18
 -1       516 9.41593E-05-2.75929E-05-2.85262E-05 7.07978E-06-1.05191E-18 1.82597E-18
 -1       517 9.56243E-05-2.91769E-05-2.84772E-05 6.99605E-06-2.53138E-18 1.72452E-18
 -1       518 9.66592E-05-3.02463E-05-2.84641E-05 6.02082E-06-1.63099E-18 1.68636E-18
 -1       519 9.71963E-05-3.07361E-05-2.84853E-05 4.59221E-06-6.14700E-19 1.47175E-18
 -1       520 9.73152E-05-3.07538E-05-2.85291E-05 3.08831E-06-3.08710E-19 1.80704E-18
 -1       521 9.71526E-05-3.04710E-05-2.85803E-05 1.75704E-06-6.75315E-19-2.40852E-19
 -1       522 9.68387E-05-3.00468E-05-2.86271E-05 7.18701E-07 1.13365E-18-2.55885E-18
 -1       523 9.64694E-05-2.95934E-05-2.86625E-05 1.42941E-09 9.08172E-19-6.43386E-19
 -1       524 9.61043E-05-2.91747E-05-2.86849E-05-4.19713E-07 1.58652E-18-6.42508E-19
 -1       525 9.57697E-05-2.88148E-05-2.86952E-05-5.86933E-07-1.07177E-18-1.47587E-18
 -1       526 9.41455E-05-2.76840E-05-2.84799E-05-1.26663E-07 2.76135E-19-2.04902E-20
 -1       527 9.39726E-05-2.79312E-05-2.83022E-05-7.39915E-07 2.62856E-19-5.03690E-20
 -1       528 9.39467E-05-2.81022E-05-2.82188E-05-1.04347E-06 2.60798E-19-1.34329E-19
 -1       529 9.40161E-05-2.82275E-05-2.81953E-05-1.15478E-06 1.01491E-19-1.03176E-19
 -1       530 9.41410E-05-2.83213E-05-2.82088E-05-1.15141E-06 6.31683E-20 5.00953E-20
 -1       531 9.42936E-05-2.83913E-05-2.82443E-05-1.08554E-06 5.37505E-19 2.24154E-20
 -1       532 9.44567E-05-2.84425E-05-2.82923E-05-9.93051E-07 4.15383E-19-2.73083E-19
 -1       533 9.46207E-05-2.84783E-05-2.83471E-05-8.99198E-07 4.73795E-19 5.11754E-20
 -1       534 9.47818E-05-2.85012E-05-2.84063E-05-8.22595E-07 6.24050E-20-1.24323E-19
 -1       535 9.49406E-05-2.85127E-05-2.84692E-05-7.78262E-07 1.38139E-19-1.80049E-19
 -1       536 9.51005E-05-2.85128E-05-2.85375E-05-7.80272E-07 1.38275E-19-2.60790E-19
 -1       537 9.52672E-05-2.84999E-05-2.86142E-05-8.44328E-07 6.33858E-19-9.13155E-19
 -1       538 9.54473E-05-2.84695E-05-2.87040E-05-9.90612E-07 5.14992E-19 7.74097E-20
 -1       539 9.56475E-05-2.84129E-05-2.88134E-05-1.24723E-06-3.03839E-19 3.39924E-19
 -1       540 9.58723E-05-2.83150E-05-2.89509E-05-1.65456E-06-3.39699E-19 2.67053E-19
 -1       541 9.61205E-05-2.81506E-05-2.91266E-05-2.27081E-06-3.26359E-19 1.50956E-19
 -1       542 9.63793E-05-2.78805E-05-2.93514E-05-3.17853E-06 1.93846E-19-7.47251E-19
 -1       543 9.66140E-05-2.74471E-05-2.96353E-05-4.49109E-06 4.97085E-19-4.75985E-19
 -1       544 9.67545E-05-2.67742E-05-2.99808E-05-6.35608E-06-1.36043E-19 2.50955E-19
 -1       545 9.66830E-05-2.57847E-05-3.03709E-05-8.94842E-06-4.88011E-19-3.42289E-19
 -1       546 9.62424E-05-2.44674E-05-3.07441E-05-1.24411E-05-7.37197E-19-7.10746E-19
 -1       547 9.53321E-05-2.30665E-05-3.09511E-05-1.69353E-05-1.19681E-18 1.19831E-19
 -1       548 9.42130E-05-2.24998E-05-3.06959E-05-2.23296E-05-1.12842E-18 2.53107E-19
 -1       549 9.42611E-05-2.51460E-05-2.95175E-05-2.82452E-05-1.90355E-18 6.37492E-19
 -1       550 9.96781E-05-3.55759E-05-2.70666E-05-3.26399E-05-1.25337E-18 2.71283E-18
 -1       551 9.45888E-05-2.06846E-05-3.16909E-05-9.58738E-06-7.65178E-19 3.67717E-19
 -1       552 9.97816E-05-4.51739E-05-2.28645E-05 3.67232E-05 1.99582E-19-2.44316E-20
 -1       553 9.09415E-05-2.07382E-05-3.00581E-05 1.99900E-05 1.77395E-18 1.73515E-18
 -1       554 9.31202E-05-2.22363E-05-3.03614E-05 1.51092E-05 2.75593E-19 1.20494E-18
 -1       555 9.46069E-05-2.40134E-05-3.02402E-05 1.11944E-05 1.15360E-18 1.16798E-18
 -1       556 9.53994E-05-2.54625E-05-2.99615E-05 8.18789E-06 7.78529E-19 2.07108E-18
 -1       557 9.57047E-05-2.64790E-05-2.96607E-05 5.93969E-06-1.15761E-18 1.41741E-18
 -1       558 9.57251E-05-2.71164E-05-2.93981E-05 4.27376E-06-8.22875E-19 4.99908E-19
 -1       559 9.55958E-05-2.74638E-05-2.91916E-05 2.99626E-06-1.17468E-18 3.87813E-19
 -1       560 9.33228E-05-2.54959E-05-2.90707E-05 1.02231E-06 1.37506E-18-2.23376E-18
 -1       561 9.36790E-05-2.58064E-05-2.90896E-05 1.92916E-06 3.55779E-19-3.52201E-19
 -1       562 9.44490E-05-2.65154E-05-2.91113E-05 2.52524E-06-9.70687E-19-1.84203E-18
 -1       563 2.18721E-05-1.03208E-05-4.26115E-06 6.58064E-06-1.92089E-18 9.04419E-19
 -1       564 9.33334E-05-2.55662E-05-2.90448E-05-1.74041E-08 8.48650E-19 2.94418E-19
 -1       565 9.36538E-05-2.59530E-05-2.90159E-05-9.11761E-07-1.60938E-18-8.51181E-19
 -1       566 9.41427E-05-2.65233E-05-2.89806E-05-1.51077E-06-1.98744E-18 5.34450E-19
 -1       567 9.46552E-05-2.71366E-05-2.89370E-05-1.76992E-06-5.79910E-19-4.97616E-19
 -1       568 9.50774E-05-2.76750E-05-2.88867E-05-1.73506E-06 8.20909E-19 1.24625E-18
 -1       569 9.53680E-05-2.80941E-05-2.88313E-05-1.49719E-06 1.82176E-18 1.45204E-18
 -1       570 9.55180E-05-2.83704E-05-2.87768E-05-1.16455E-06 1.59754E-18 2.25814E-18
 -1       571 9.55451E-05-2.85136E-05-2.87281E-05-8.24720E-07-9.91980E-20-1.15541E-18
 -1       572 9.45215E-05-2.72918E-05-2.88040E-05 9.79939E-07 4.33363E-19 4.98906E-20
 -1       573 4.78404E-05-2.40409E-05-9.59530E-06 3.23104E-05-1.55330E-18-3.79555E-18
 -1       574 2.53119E-05-1.44311E-05-4.03012E-06-2.73250E-05-1.29204E-18 1.12327E-18
 -1       575 1.46083E-04-1.73671E-05-5.57152E-05-8.31310E-06-1.72721E-18 7.53542E-19
 -1       576 5.17532E-05-2.95849E-05-8.99585E-06-4.68052E-05 1.54266E-18 2.04760E-18
 -1       577 8.87783E-05-2.12267E-05-2.88738E-05 2.58064E-05 8.03864E-19 1.21036E-18
 -1       578 8.99361E-05-2.76527E-05-2.63929E-05 3.24196E-05-6.39258E-19-3.25896E-19
 -1       579 8.91592E-05-1.28768E-05-3.27105E-05-1.93655E-06-1.54150E-19-5.28517E-19
 -1       580 1.22049E-04-6.12122E-05-2.60009E-05-2.97461E-05 3.23567E-19 2.06203E-18
 -1       581 2.94806E-05-1.07392E-05-7.29125E-06-1.48979E-05-1.48894E-18 7.52801E-20
 -1       582 2.25105E-05-9.53157E-06-4.82430E-06 1.66275E-05-2.89721E-18-3.50661E-18
 -1       583 8.75791E-05-4.69662E-05-1.71028E-05 4.99429E-05 5.90276E-20-3.27804E-18
 -1       584 1.22784E-04-5.94386E-05-2.70784E-05 3.78609E-05-4.60257E-19-4.31553E-18
 -1       585 1.45181E-04-5.61977E-05-3.83071E-05 1.40326E-05 1.54550E-19-3.96576E-18
 -1       586 1.50281E-04-3.88991E-05-4.81614E-05-2.64922E-06-5.88688E-19-1.88581E-18
 -1       587 1.40565E-04-5.16366E-06-5.87016E-05-2.25515E-06-2.69335E-18-5.20469E-19
 -1       588 1.47062E-04-5.16748E-05-4.11499E-05-5.35549E-06 1.11990E-18-9.96534E-19
 -1       589 1.43984E-04-3.29013E-05-4.81460E-05 9.25585E-06-3.09802E-19-1.16075E-18
 -1       590 9.11417E-05-4.76758E-05-1.82357E-05-4.90265E-05 2.14966E-18-1.22457E-18
 -1       591 9.61590E-05-2.31898E-05-3.12761E-05 9.58160E-06 6.17216E-19-2.76427E-20
 -1       592 9.13325E-05-1.58269E-05-3.23809E-05-7.76662E-06-6.02868E-19-1.56546E-19
 -1       593 7.16597E-05-3.41809E-05-1.56747E-05 4.63798E-05-1.13373E-18-2.51227E-18
 -1       594 1.17037E-04-5.70677E-05-2.56081E-05-3.63948E-05 2.33066E-19-2.99704E-19
 -1       595 1.28751E-04-5.88923E-06-5.32693E-05 5.02090E-06-2.33485E-18-4.75133E-20
 -1       596 9.55722E-05-2.86158E-05-2.86954E-05-5.84443E-07-1.26281E-18-5.17212E-19
 -1       597 4.63610E-05-1.73714E-05-1.18766E-05-3.51355E-05-1.74436E-20-6.37392E-20
 -1       598 9.15557E-05-1.68470E-05-3.20236E-05 2.43959E-06-6.38979E-20-5.63701E-19
 -1       599 9.12955E-05-1.64429E-05-3.20850E-05 8.39196E-07-1.15810E-19-5.65962E-19
 -1       600 9.28951E-05-1.89982E-05-3.16758E-05 5.26085E-06 2.98387E-19-3.94916E-19
 -1       601 9.39848E-05-2.09271E-05-3.13183E-05 6.14089E-06 3.86820E-19-4.99462E-19
 -1       602 1.09521E-04-5.29301E-05-2.40344E-05 3.90924E-05 6.20055E-19-3.03648E-18
 -1       603 9.52731E-05-2.40939E-05-3.04950E-05 5.14464E-06 4.73498E-19-4.47920E-19
 -1       604 9.50329E-05-2.36529E-05-3.05904E-05-4.73633E-06-6.12079E-19 2.99242E-19
 -1       605 9.54159E-05-2.57036E-05-2.98747E-05-2.43179E-06-4.06029E-19 1.58704E-19
 -1       606 9.54754E-05-2.69399E-05-2.93715E-05-8.57069E-07-4.22717E-19 9.15722E-20
 -1       607 9.54203E-05-2.76975E-05-2.90238E-05 1.49141E-07-2.63048E-19 8.30642E-20
 -1       608 9.53442E-05-2.81654E-05-2.87909E-05 7.44473E-07-4.46603E-19-1.57131E-20
 -1       609 9.52799E-05-2.84510E-05-2.86410E-05 1.05679E-06-3.64348E-19-1.09640E-19
 -1       610 9.52349E-05-2.86179E-05-2.85503E-05 1.18354E-06-2.10866E-19 2.41267E-19
 -1       611 9.52080E-05-2.87054E-05-2.85012E-05 1.19603E-06-3.27700E-19 1.19629E-18
 -1       612 9.51952E-05-2.87397E-05-2.84810E-05 1.14528E-06-6.24282E-19 1.26422E-18
 -1       613 9.51929E-05-2.87387E-05-2.84805E-05 1.06719E-06-2.73090E-19 9.17485E-19
 -1       614 9.51988E-05-2.87152E-05-2.84931E-05 9.86389E-07 3.53463E-20 5.39411E-19
 -1       615 9.52123E-05-2.86795E-05-2.85141E-05 9.19058E-07 2.21192E-19 9.77956E-19
 -1       616 9.52344E-05-2.86408E-05-2.85402E-05 8.74790E-07 1.79218E-19 1.01426E-18
 -1       617 9.52687E-05-2.86085E-05-2.85686E-05 8.57525E-07-3.19024E-19 1.48760E-18
 -1       618 9.53215E-05-2.85942E-05-2.85974E-05 8.65666E-07-9.42247E-19 2.02251E-18
 -1       619 9.54031E-05-2.86128E-05-2.86244E-05 8.91376E-07-6.75072E-19 1.59447E-18
 -1       620 9.55283E-05-2.86838E-05-2.86477E-05 9.19084E-07-2.94795E-19 1.22397E-18
 -1       621 9.57172E-05-2.88317E-05-2.86653E-05 9.23308E-07-4.31257E-19 1.38368E-18
 -1       622 9.59947E-05-2.90847E-05-2.86759E-05 8.66137E-07 2.03101E-19 1.07207E-18
 -1       623 9.63878E-05-2.94699E-05-2.86794E-05 6.95123E-07 1.50923E-19 1.16425E-18
 -1       624 9.69192E-05-3.00043E-05-2.86783E-05 3.43044E-07-2.68540E-19 7.90307E-19
 -1       625 9.75951E-05-3.06780E-05-2.86794E-05-2.67778E-07-3.77241E-19 8.23225E-19
 -1       626 9.83854E-05-3.14310E-05-2.86956E-05-1.21220E-06-4.90393E-19 1.21836E-18
 -1       627 9.91995E-05-3.21258E-05-2.87468E-05-2.53392E-06 7.37301E-19 1.99314E-18
 -1       628 9.98666E-05-3.25322E-05-2.88582E-05-4.19680E-06 1.03198E-18 1.74699E-18
 -1       629 1.00143E-04-3.23475E-05-2.90552E-05-6.01899E-06 8.03178E-19 2.31896E-18
 -1       630 9.97758E-05-3.12888E-05-2.93513E-05-7.61629E-06-3.75257E-19 2.97026E-18
 -1       631 9.86437E-05-2.92674E-05-2.97325E-05-8.41550E-06 1.44713E-19 2.36021E-18
 -1       632 9.69212E-05-2.65837E-05-3.01439E-05-7.81214E-06-2.28562E-19 1.66196E-18
 -1       633 9.51520E-05-2.39933E-05-3.04955E-05-5.48142E-06 5.21998E-19 2.59132E-18
 -1       634 9.40896E-05-2.24818E-05-3.06863E-05-1.72394E-06-5.13986E-19 3.16858E-18
 -1       635 9.42208E-05-2.26761E-05-3.06599E-05 2.49771E-06 1.95922E-19 2.68508E-18
 -1       636 9.54974E-05-2.45128E-05-3.04197E-05 6.00319E-06-1.03004E-18 1.36471E-18
 -1       637 9.73081E-05-2.72032E-05-3.00429E-05 7.95040E-06-2.31351E-18 1.31407E-18
 -1       638 9.89403E-05-2.98056E-05-2.96282E-05 8.19773E-06-1.53498E-18-5.53972E-19
 -1       639 9.99133E-05-3.16426E-05-2.92590E-05 7.14705E-06-1.26695E-18 1.06822E-19
 -1       640 1.00119E-04-3.24980E-05-2.89812E-05 5.42672E-06-9.54303E-19 1.03903E-18
 -1       641 9.97258E-05-3.25213E-05-2.88029E-05 3.58460E-06-9.04677E-19-9.18898E-19
 -1       642 9.89933E-05-3.20104E-05-2.87079E-05 1.96273E-06-1.41269E-18-3.75924E-19
 -1       643 9.81508E-05-3.12529E-05-2.86714E-05 7.11983E-07-1.46992E-19 1.01090E-18
 -1       644 9.73496E-05-3.04552E-05-2.86696E-05-1.45505E-07 1.30875E-18-5.76485E-19
 -1       645 9.66592E-05-2.97284E-05-2.86850E-05-6.53701E-07 3.69466E-19-2.32680E-18
 -1       646 9.61135E-05-2.91334E-05-2.87056E-05-8.73242E-07-3.63035E-19-3.34848E-18
 -1       647 9.35063E-05-2.62796E-05-2.88117E-05-1.90048E-06-8.42926E-19 7.21668E-19
 -1       648 3.51993E-05-4.84562E-06-1.24077E-05 2.90119E-07-2.62770E-18-1.98142E-18
 -1       649 9.49295E-05-2.83598E-05-2.85299E-05-1.07149E-06 1.98950E-19-1.02256E-19
 -1       650 9.50923E-05-2.76982E-05-2.88823E-05-1.37531E-07 2.17692E-19-1.20472E-19
 -1       651 9.49129E-05-2.85137E-05-2.84569E-05-1.19718E-06 7.16025E-20-7.25575E-20
 -1       652 9.49267E-05-2.86023E-05-2.84249E-05-1.20579E-06 3.93778E-19-5.34036E-19
 -1       653 9.49603E-05-2.86457E-05-2.84207E-05-1.15062E-06 4.59725E-19-4.06588E-20
 -1       654 9.50058E-05-2.86568E-05-2.84354E-05-1.06962E-06 1.05924E-19-7.66765E-20
 -1       655 9.50575E-05-2.86432E-05-2.84634E-05-9.90350E-07 2.02013E-19 5.40809E-19
 -1       656 9.51117E-05-2.86091E-05-2.85012E-05-9.33643E-07-5.79376E-20 7.35149E-19
 -1       657 9.51656E-05-2.85545E-05-2.85476E-05-9.16727E-07 8.16996E-22 7.06847E-19
 -1       658 9.52157E-05-2.84759E-05-2.86027E-05-9.55857E-07 5.67475E-19 8.23681E-19
 -1       659 9.52564E-05-2.83644E-05-2.86678E-05-1.06880E-06 3.56772E-19 1.20268E-18
 -1       660 9.52775E-05-2.82044E-05-2.87453E-05-1.27735E-06 3.94024E-19 1.33608E-18
 -1       661 9.52598E-05-2.79705E-05-2.88377E-05-1.60985E-06-3.75863E-19 9.09894E-19
 -1       662 9.51690E-05-2.76233E-05-2.89473E-05-2.10387E-06 5.45820E-20 2.78763E-19
 -1       663 9.49460E-05-2.71037E-05-2.90739E-05-2.80836E-06-6.95532E-20 1.19607E-19
 -1       664 9.44926E-05-2.63275E-05-2.92116E-05-3.78462E-06 6.11391E-19 3.16644E-19
 -1       665 9.36518E-05-2.51815E-05-2.93415E-05-5.10435E-06 1.78274E-19 2.56876E-19
 -1       666 9.21853E-05-2.35323E-05-2.94188E-05-6.84354E-06-3.50530E-19 4.35896E-19
 -1       667 8.97584E-05-2.12650E-05-2.93494E-05-9.07400E-06-3.72614E-19 1.73398E-19
 -1       668 8.59578E-05-1.83938E-05-2.89480E-05-1.18681E-05-1.41995E-18 5.89312E-19
 -1       669 8.03999E-05-1.53200E-05-2.78671E-05-1.53820E-05-1.16973E-18 5.10517E-19
 -1       670 7.30497E-05-1.33883E-05-2.54645E-05-2.01207E-05-1.96586E-18 7.52628E-19
 -1       671 6.42959E-05-1.47849E-05-2.07465E-05-2.71745E-05-2.41268E-18 1.94976E-19
 -1       672 8.97171E-05-2.16341E-05-2.91748E-05 7.94908E-06-2.12360E-19 1.66121E-19
 -1       673 3.48583E-05-5.43751E-06-1.19470E-05-9.55843E-06-8.30132E-19 1.23005E-18
 -1       674 9.38958E-05-2.58948E-05-2.91431E-05 3.48898E-06-7.10360E-20 6.24780E-19
 -1       675 8.72013E-05-4.13005E-05-1.91808E-05-3.71200E-05-4.04882E-19 2.10305E-18
 -1       676 9.49886E-05-2.81085E-05-2.86628E-05-7.53543E-07 4.22318E-19-1.25485E-19
 -1       677 8.60447E-05-1.87982E-05-2.88145E-05 1.01414E-05 1.14061E-18-2.18553E-19
 -1       678 8.05577E-05-1.54491E-05-2.78879E-05 1.28132E-05 2.07239E-18 4.21736E-19
 -1       679 9.20208E-05-2.37429E-05-2.92594E-05 6.16683E-06-6.30908E-19 1.52236E-18
 -1       680 9.31726E-05-2.50233E-05-2.92028E-05 4.67503E-06 3.51962E-19 2.21020E-19
 -1       681 9.27642E-05-2.54879E-05-2.88332E-05-9.87158E-07-1.10707E-18-4.23519E-18
 -1       682 9.23801E-05-2.49912E-05-2.88821E-05 3.08429E-07-3.80664E-19-2.31079E-18
 -1       683 9.43504E-05-2.71448E-05-2.88026E-05-2.33819E-06-7.34747E-19 6.49480E-19
 -1       684 9.50822E-05-2.78955E-05-2.87941E-05-2.34558E-06-7.39722E-19 3.33010E-18
 -1       685 9.56038E-05-2.84517E-05-2.87791E-05-2.04353E-06-1.54815E-20 1.08464E-18
 -1       686 9.58798E-05-2.87814E-05-2.87557E-05-1.58362E-06 9.99964E-19 2.82546E-18
 -1       687 6.36014E-05-1.20109E-05-2.18553E-05 2.14461E-05-1.44204E-18-2.59103E-18
 -1       688 1.37677E-04-4.35947E-05-4.05752E-05 6.69662E-06-3.78372E-19 1.30499E-18
 -1       689 4.13711E-05-1.22744E-05-1.18661E-05 2.83053E-05-1.83850E-18-2.93068E-18
 -1       690 1.35090E-04-2.77282E-05-4.64754E-05-1.26029E-05-1.40557E-18 1.89611E-18
 -1       691 7.28809E-05-1.23830E-05-2.58657E-05 1.62475E-05-1.04017E-18-1.61903E-18
 -1       692 9.53381E-05-2.59412E-05-2.97377E-05 2.59702E-06 3.39192E-19-3.78718E-19
 -1       693 9.52294E-05-2.70346E-05-2.92241E-05 9.16906E-07 3.53528E-19-2.93511E-19
 -1       694 4.36624E-05-1.06300E-05-1.36384E-05 2.04537E-05-2.03936E-18-2.49615E-18
 -1       695 9.25513E-05-2.49649E-05-2.89651E-05 1.73716E-06 1.85684E-19-1.11540E-18
 -1       696 1.39980E-04-4.73073E-05-3.99732E-05-3.53734E-06 5.46852E-19 1.02465E-19
 -1       697 1.27169E-04-9.74712E-06-5.09009E-05-8.89817E-06-1.11692E-18 1.77455E-18
 -1       698 9.20802E-05-1.76746E-05-3.18941E-05 3.94538E-06 1.45635E-19-3.16543E-19
 -1       699 9.20386E-05-1.76171E-05-3.19007E-05-3.89528E-06-1.70236E-19-3.13205E-19
 -1       700 9.58020E-05-2.87943E-05-2.87183E-05-8.89181E-07 3.21107E-19-2.09920E-18
 -1       701 1.32223E-04-5.85467E-05-3.16152E-05 1.80223E-05 1.02396E-18-1.02266E-18
 -1       702 1.36370E-04-5.82796E-05-3.35358E-05-1.42629E-05-6.30911E-19-1.28269E-18
 -1       703 7.51142E-05-3.48919E-05-1.68146E-05-4.48872E-05 1.68647E-18-1.18585E-19
 -1       704 1.27154E-04-1.82838E-05-4.71845E-05 1.25851E-05-2.49732E-18 1.21078E-18
 -1       705 9.28512E-05-1.89045E-05-3.16981E-05-5.28515E-06-4.09067E-19-3.43632E-20
 -1       706 9.12884E-05-1.64335E-05-3.20860E-05-7.83266E-07-9.84772E-20-6.08848E-19
 -1       707 9.15306E-05-1.68135E-05-3.20272E-05-2.37796E-06-2.17367E-19-1.50752E-19
 -1       708 1.18526E-04-6.28492E-06-4.85456E-05-1.85983E-06-1.61407E-18 1.01944E-18
 -1       709 9.40850E-05-2.09019E-05-3.13710E-05-6.98808E-06-6.47819E-19 2.21013E-19
 -1       710 9.96197E-05-4.68606E-05-2.24233E-05-3.98342E-05-8.50209E-20 1.80634E-18
 -1       711 6.14365E-05-2.17131E-05-1.66930E-05 3.61001E-05-1.30049E-18-1.93012E-18
 -1       712 1.26020E-04-2.96464E-05-4.15381E-05 1.32517E-05-1.76159E-18 1.10605E-18
 -1       713 4.67415E-05-7.13071E-06-1.66238E-05 1.36001E-05-2.02918E-18-1.42696E-18
 -1       714 9.46309E-05-2.27173E-05-3.08183E-05 3.90537E-06 2.72555E-19-2.76760E-19
 -1       715 9.08848E-05-3.91916E-05-2.19510E-05 3.79943E-05-3.85890E-19-2.38716E-18
 -1       716 9.55677E-05-2.87416E-05-2.86398E-05-1.13862E-06 4.54649E-19-7.94930E-19
 -1       717 1.28045E-04-3.57520E-05-3.97343E-05-1.16512E-05-7.48823E-19 8.80875E-19
 -1       718 9.55708E-05-2.54991E-05-3.00306E-05-1.79573E-06-4.03582E-19 1.88256E-19
 -1       719 9.58660E-05-2.68743E-05-2.95680E-05-5.70819E-07-3.31935E-19 1.57642E-19
 -1       720 9.59572E-05-2.77576E-05-2.92285E-05 2.37337E-07-5.36221E-19 1.07306E-19
 -1       721 9.59435E-05-2.83118E-05-2.89851E-05 7.23971E-07-6.35781E-19 1.19576E-19
 -1       722 9.58793E-05-2.86433E-05-2.88155E-05 9.81437E-07-3.89156E-20-1.27721E-19
 -1       723 9.57938E-05-2.88235E-05-2.87016E-05 1.08574E-06 1.56409E-19 6.74813E-21
 -1       724 9.57021E-05-2.89010E-05-2.86291E-05 1.09544E-06-1.57516E-19 4.44672E-19
 -1       725 9.56124E-05-2.89095E-05-2.85870E-05 1.05405E-06-4.89566E-19 1.11022E-18
 -1       726 9.55287E-05-2.88732E-05-2.85666E-05 9.92958E-07-1.46356E-19 1.61077E-18
 -1       727 9.54534E-05-2.88096E-05-2.85617E-05 9.34152E-07 1.79480E-19 9.63084E-19
 -1       728 9.53889E-05-2.87327E-05-2.85669E-05 8.92526E-07-1.87201E-19 7.29707E-19
 -1       729 9.53385E-05-2.86554E-05-2.85785E-05 8.77367E-07 2.35269E-19 5.28514E-19
 -1       730 9.53085E-05-2.85914E-05-2.85930E-05 8.93146E-07-2.90691E-19 6.96611E-19
 -1       731 9.53094E-05-2.85580E-05-2.86077E-05 9.39561E-07-6.34577E-19 1.26641E-18
 -1       732 9.53583E-05-2.85781E-05-2.86201E-05 1.01069E-06-7.56039E-19 1.62452E-18
 -1       733 9.54811E-05-2.86819E-05-2.86282E-05 1.09314E-06-8.96356E-20 1.89283E-18
 -1       734 9.57137E-05-2.89076E-05-2.86312E-05 1.16313E-06-3.49728E-19 1.87894E-18
 -1       735 9.61026E-05-2.92994E-05-2.86300E-05 1.18237E-06-1.26185E-19 1.62639E-18
 -1       736 9.67012E-05-2.99002E-05-2.86291E-05 1.09331E-06-1.99672E-19 1.40764E-18
 -1       737 9.75598E-05-3.07368E-05-2.86387E-05 8.14876E-07 3.55558E-20 2.18429E-18
 -1       738 9.87053E-05-3.17936E-05-2.86767E-05 2.42197E-07-6.95047E-19 1.89271E-18
 -1       739 1.00107E-04-3.29731E-05-2.87719E-05-7.42496E-07-4.06729E-20 1.64580E-18
 -1       740 1.01629E-04-3.40492E-05-2.89632E-05-2.23448E-06 1.25813E-18 1.33857E-18
 -1       741 1.02994E-04-3.46371E-05-2.92952E-05-4.23164E-06 1.32069E-18 1.46919E-18
 -1       742 1.03783E-04-3.42321E-05-2.98065E-05-6.51370E-06 3.29726E-19 1.88573E-18
 -1       743 1.03556E-04-3.23841E-05-3.05028E-05-8.52558E-06-4.49003E-19 2.68090E-18
 -1       744 1.02133E-04-2.90513E-05-3.13244E-05-9.38047E-06-7.55185E-19 2.86683E-18
 -1       745 9.98732E-05-2.49186E-05-3.21244E-05-8.18245E-06 8.25001E-19 3.29340E-18
 -1       746 9.78108E-05-2.14921E-05-3.27068E-05-4.58285E-06-2.53954E-19 3.00778E-18
 -1       747 9.71223E-05-2.03881E-05-3.28826E-05 5.09303E-07-5.38616E-19 2.53746E-18
 -1       748 9.81603E-05-2.20752E-05-3.26057E-05 5.43120E-06-1.04402E-18 1.05928E-19
 -1       749 1.00408E-04-2.58484E-05-3.19538E-05 8.49992E-06-1.70920E-18 7.51087E-19
 -1       750 1.02555E-04-2.99097E-05-3.11340E-05 9.22072E-06-2.97826E-18 4.61883E-19
 -1       751 1.03764E-04-3.29909E-05-3.03315E-05 8.00778E-06-1.02146E-18 6.58980E-20
 -1       752 1.03753E-04-3.45165E-05-2.96729E-05 5.83294E-06-1.34424E-19 3.69940E-19
 -1       753 1.02805E-04-3.46629E-05-2.92045E-05 3.54662E-06-1.42337E-18 7.42975E-19
 -1       754 1.01378E-04-3.39188E-05-2.89114E-05 1.62133E-06-9.34368E-19 1.66508E-18
 -1       755 9.98581E-05-3.27651E-05-2.87545E-05 2.22217E-07 3.53821E-19 1.35151E-18
 -1       756 9.84900E-05-3.15461E-05-2.86904E-05-6.70291E-07-4.21938E-19 1.73485E-18
 -1       757 9.73789E-05-3.04513E-05-2.86829E-05-1.15117E-06 2.14580E-20 1.75613E-18
 -1       758 9.65361E-05-2.95542E-05-2.87056E-05-1.32667E-06 7.97683E-19 8.80212E-19
 -1       759 9.49573E-05-2.80735E-05-2.86644E-05-3.14710E-06 1.50221E-18 1.70222E-18
 -1       760 8.79416E-05-2.11374E-05-2.86360E-05 4.30524E-06-1.95399E-18-1.80055E-19
 -1       761 9.56331E-05-2.85672E-05-2.87426E-05-1.02537E-06 7.11888E-20-5.74450E-19
 -1       762 9.54520E-05-2.88386E-05-2.85486E-05-1.10567E-06 9.06203E-20-1.81692E-19
 -1       763 9.54034E-05-2.88084E-05-2.85407E-05-1.04209E-06-1.96096E-19-3.72699E-19
 -1       764 9.53583E-05-2.87427E-05-2.85496E-05-9.84568E-07-3.94099E-19-2.90207E-19
 -1       765 9.53119E-05-2.86457E-05-2.85713E-05-9.52693E-07-1.83970E-19 5.84138E-19
 -1       766 9.52571E-05-2.85154E-05-2.86036E-05-9.62418E-07 2.87548E-20 2.96364E-19
 -1       767 9.51823E-05-2.83435E-05-2.86451E-05-1.02797E-06 7.66862E-20 8.44488E-19
 -1       768 9.50688E-05-2.81134E-05-2.86951E-05-1.16337E-06 3.92421E-19 1.24996E-18
 -1       769 9.48875E-05-2.77980E-05-2.87526E-05-1.38328E-06 4.30090E-19 1.34508E-18
 -1       770 9.45918E-05-2.73564E-05-2.88150E-05-1.70312E-06 2.19088E-19 4.05676E-19
 -1       771 9.41088E-05-2.67289E-05-2.88769E-05-2.13748E-06 4.21416E-19 5.95812E-19
 -1       772 9.33263E-05-2.58324E-05-2.89257E-05-2.69620E-06-6.14910E-20 1.66425E-19
 -1       773 9.20749E-05-2.45569E-05-2.89359E-05-3.37657E-06 2.67153E-19 9.27164E-19
 -1       774 9.01060E-05-2.27690E-05-2.88584E-05-4.15107E-06-3.76962E-20 1.09329E-18
 -1       775 8.70672E-05-2.03306E-05-2.86013E-05-4.95309E-06 2.46039E-19 4.10146E-19
 -1       776 8.24801E-05-1.71509E-05-2.79973E-05-5.67166E-06-6.98879E-19 4.34875E-19
 -1       777 7.57157E-05-1.32901E-05-2.67420E-05-6.18756E-06-1.84108E-18-6.24030E-19
 -1       778 6.59851E-05-9.19543E-06-2.42583E-05-6.46055E-06-1.51944E-18-1.21549E-18
 -1       779 5.27160E-05-5.66778E-06-1.98865E-05-4.00891E-06-2.43657E-18-1.38839E-18
 -1       780 5.69440E-05-6.87027E-06-2.12201E-05 3.95753E-06-6.75922E-19-1.02243E-18
 -1       781 9.37400E-05-2.69405E-05-2.86283E-05-3.08689E-06 2.02662E-19 1.28203E-18
 -1       782 1.16870E-04-1.12266E-05-4.56259E-05 8.11399E-06-2.16327E-18 5.09040E-19
 -1       783 8.38950E-05-1.82859E-05-2.81183E-05 4.68639E-06-4.56817E-19 2.01368E-19
 -1       784 9.10542E-05-2.38326E-05-2.88114E-05 2.03429E-06-1.02517E-18-9.19556E-19
 -1       785 7.78848E-05-1.46822E-05-2.70786E-05 4.70403E-06 1.05014E-18-1.77880E-18
 -1       786 9.24409E-05-2.56842E-05-2.86095E-05-2.38702E-06 7.97924E-19-2.37916E-18
 -1       787 6.69278E-05-2.28376E-05-1.85971E-05-3.38182E-05 1.12607E-18 1.53834E-18
 -1       788 5.11129E-05-9.47445E-06-1.75358E-05-1.83989E-05 5.51150E-19-1.02851E-18
 -1       789 6.91995E-05-1.04918E-05-2.51117E-05 4.30757E-06 4.37917E-19-2.17822E-18
 -1       790 9.14312E-05-2.46040E-05-2.86388E-05-9.98562E-07-1.28934E-19-1.75771E-18
 -1       791 9.58546E-05-2.88954E-05-2.86966E-05-2.73390E-06 6.62815E-19 2.79128E-18
 -1       792 9.63448E-05-2.93495E-05-2.87123E-05-2.07799E-06 4.00565E-19 2.57904E-18
 -1       793 9.57321E-05-2.77380E-05-2.91406E-05-2.10953E-07 1.35153E-19-7.74737E-19
 -1       794 9.32028E-05-1.97688E-05-3.14728E-05 1.23099E-06-1.39311E-19-5.02921E-19
 -1       795 1.22866E-04-5.52840E-05-2.89183E-05-2.26194E-05 1.37147E-19-2.50988E-18
 -1       796 1.16906E-04-5.20397E-05-2.77155E-05 2.49182E-05 7.43913E-19-1.26903E-18
 -1       797 9.56946E-05-2.82554E-05-2.89025E-05-7.45101E-07 4.37689E-19-5.24808E-19
 -1       798 9.09862E-05-2.40301E-05-2.86965E-05 4.03924E-07-1.40317E-18-2.03928E-18
 -1       799 4.59607E-05-4.88561E-06-1.72249E-05-1.59031E-06-1.27157E-18-2.38334E-19
 -1       800 9.52195E-05-2.44870E-05-3.03144E-05 3.41309E-06 3.25617E-19-3.78027E-19
 -1       801 9.49252E-05-2.34158E-05-3.06464E-05-3.51749E-06-5.12615E-19 1.56734E-19
 -1       802 1.30742E-04-5.06334E-05-3.44543E-05 1.35984E-06 1.33371E-18-2.27590E-19
 -1       803 9.55065E-05-2.88225E-05-2.85789E-05-1.14949E-06 2.23527E-20-6.03148E-19
 -1       804 1.31445E-04-5.06629E-05-3.46824E-05-9.65104E-07 4.02556E-19 2.79363E-18
 -1       805 1.21274E-04-2.01669E-05-4.36218E-05-1.28847E-05-1.13023E-18-4.93297E-19
 -1       806 9.30929E-05-1.95704E-05-3.15108E-05 1.98209E-08-1.41075E-19-7.61037E-19
 -1       807 9.40484E-05-2.13666E-05-3.11485E-05 3.31918E-06 1.22025E-19-2.57298E-19
 -1       808 1.25707E-04-4.05676E-05-3.65820E-05 8.90310E-06-4.04523E-19 3.14884E-19
 -1       809 9.39830E-05-2.12833E-05-3.11600E-05-3.26480E-06-3.87885E-19 5.56926E-20
 -1       810 8.96100E-05-2.26096E-05-2.87172E-05 2.94779E-06-1.10337E-19-5.58429E-19
 -1       811 8.53905E-05-3.41294E-05-2.18110E-05-3.53428E-05-3.54033E-20 2.98070E-18
 -1       812 1.16779E-04-2.00869E-05-4.15933E-05 1.22922E-05-1.97545E-18-2.08602E-19
 -1       813 9.55250E-05-2.61691E-05-2.97236E-05 1.59518E-06 3.16967E-19-4.47868E-19
 -1       814 9.35326E-05-2.03663E-05-3.13570E-05 2.36985E-06-1.55984E-20-3.11110E-19
 -1       815 1.22843E-04-5.10138E-05-3.07836E-05 1.00841E-05 6.20872E-19-6.36897E-19
 -1       816 1.13396E-04-1.29076E-05-4.32602E-05-8.43437E-06-1.60387E-18-3.13154E-19
 -1       817 9.56566E-05-2.70823E-05-2.93889E-05 5.19744E-07 8.82817E-20-4.92133E-19
 -1       818 5.85758E-05-1.35905E-05-1.90696E-05 2.29713E-05-1.60077E-18-2.16573E-18
 -1       819 9.34941E-05-2.03184E-05-3.13623E-05-2.31187E-06-1.96678E-19-2.23886E-19
 -1       820 9.31882E-05-1.97524E-05-3.14747E-05-1.19042E-06-1.87134E-19-3.44622E-19
 -1       821 1.09891E-04-1.08226E-05-4.27069E-05 2.33576E-07-1.58815E-18 1.70998E-19
 -1       822 9.61908E-05-2.69752E-05-2.96640E-05-2.76121E-07-4.91803E-19 2.52902E-19
 -1       823 9.63545E-05-2.78977E-05-2.93386E-05 3.11779E-07-4.75908E-19 1.73398E-20
 -1       824 9.63684E-05-2.84783E-05-2.90958E-05 6.66068E-07-5.08227E-19 3.47820E-19
 -1       825 9.62955E-05-2.88175E-05-2.89191E-05 8.51258E-07 1.33508E-20 2.70411E-19
 -1       826 9.61753E-05-2.89884E-05-2.87944E-05 9.23016E-07 2.02998E-20 8.92209E-20
 -1       827 9.60324E-05-2.90434E-05-2.87096E-05 9.25962E-07-4.20063E-21-1.88925E-19
 -1       828 9.58822E-05-2.90204E-05-2.86550E-05 8.94212E-07-2.30655E-19 1.83518E-19
 -1       829 9.57335E-05-2.89470E-05-2.86228E-05 8.52875E-07-9.24434E-20 2.88509E-19
 -1       830 9.55921E-05-2.88437E-05-2.86065E-05 8.20291E-07 4.38630E-20 4.59372E-19
 -1       831 9.54622E-05-2.87270E-05-2.86008E-05 8.09862E-07-1.38406E-21 1.10711E-18
 -1       832 9.53494E-05-2.86127E-05-2.86014E-05 8.31165E-07-2.34340E-19 9.07619E-19
 -1       833 9.52627E-05-2.85188E-05-2.86045E-05 8.90864E-07-1.96021E-19 7.58727E-19
 -1       834 9.52174E-05-2.84682E-05-2.86068E-05 9.92751E-07-5.79798E-19 1.00139E-18
 -1       835 9.52387E-05-2.84921E-05-2.86057E-05 1.13682E-06 1.26085E-19 1.65412E-18
 -1       836 9.53648E-05-2.86327E-05-2.85995E-05 1.31703E-06-4.31551E-19 2.17148E-18
 -1       837 9.56506E-05-2.89443E-05-2.85884E-05 1.51708E-06 8.23789E-20 2.12821E-18
 -1       838 9.61688E-05-2.94908E-05-2.85763E-05 1.70349E-06-3.76823E-19 2.00884E-18
 -1       839 9.70064E-05-3.03370E-05-2.85727E-05 1.81570E-06 7.24336E-20 1.53668E-18
 -1       840 9.82521E-05-3.15277E-05-2.85964E-05 1.75376E-06-7.72207E-19 7.17429E-19
 -1       841 9.99674E-05-3.30498E-05-2.86792E-05 1.36678E-06-3.79749E-19 1.48900E-18
 -1       842 1.02130E-04-3.47664E-05-2.88706E-05 4.55232E-07 2.41879E-19 1.85330E-18
 -1       843 1.04556E-04-3.63372E-05-2.92363E-05-1.18444E-06 1.55877E-18 9.96330E-19
 -1       844 1.06810E-04-3.71455E-05-2.98528E-05-3.64209E-06 1.10533E-18 6.53339E-19
 -1       845 1.08200E-04-3.63678E-05-3.07845E-05-6.67407E-06 5.05913E-19 1.44719E-18
 -1       846 1.07978E-04-3.32728E-05-3.20216E-05-9.41598E-06-1.80123E-19 1.09211E-18
 -1       847 1.05762E-04-2.80203E-05-3.33214E-05-1.04000E-05 1.01415E-18 1.68609E-18
 -1       848 1.02928E-04-2.20652E-05-3.46479E-05-8.23772E-06-3.28414E-19 1.74720E-18
 -1       849 1.00448E-04-1.78652E-05-3.54192E-05-2.63203E-06-6.75274E-19-6.09028E-20
 -1       850 1.00914E-04-1.86895E-05-3.52343E-05 3.99141E-06-1.62363E-18 9.47556E-19
 -1       851 1.03093E-04-2.29210E-05-3.43991E-05 8.92229E-06-1.60308E-18-1.16626E-19
 -1       852 1.06561E-04-2.92636E-05-3.31061E-05 1.03959E-05-2.55194E-18 1.41266E-20
 -1       853 1.08316E-04-3.42556E-05-3.17371E-05 8.80233E-06-1.15784E-18 1.60988E-18
 -1       854 1.08138E-04-3.68398E-05-3.05576E-05 5.83986E-06-5.38467E-19 2.50325E-18
 -1       855 1.06509E-04-3.72016E-05-2.97049E-05 2.86345E-06 5.40637E-19 1.75571E-18
 -1       856 1.04190E-04-3.61649E-05-2.91545E-05 5.45398E-07-6.44998E-19 2.68871E-18
 -1       857 1.01805E-04-3.45010E-05-2.88450E-05-9.51592E-07-4.46268E-19 1.47299E-18
 -1       858 9.97332E-05-3.27613E-05-2.87020E-05-1.75191E-06 1.08936E-19 2.06399E-18
 -1       859 9.81183E-05-3.12333E-05-2.86640E-05-2.04840E-06 1.94659E-18 2.60556E-18
 -1       860 9.71171E-05-3.02081E-05-2.86756E-05-2.14659E-06 4.31306E-19 3.19161E-18
 -1       861 9.66059E-05-2.98147E-05-2.86287E-05-3.15792E-06 1.75463E-18 2.51905E-18
 -1       862 9.56562E-05-2.88935E-05-2.86126E-05-9.33215E-07-3.37085E-19-2.44453E-19
 -1       863 9.57833E-05-2.89683E-05-2.86350E-05-9.79441E-07-6.19703E-20-6.50076E-19
 -1       864 9.53851E-05-2.86108E-05-2.86175E-05-8.82459E-07-2.00500E-19-5.13050E-19
 -1       865 9.52224E-05-2.84023E-05-2.86372E-05-9.04100E-07-2.43291E-19-4.65099E-19
 -1       866 9.50180E-05-2.81348E-05-2.86642E-05-9.68114E-07-1.34482E-19-1.79556E-19
 -1       867 9.47422E-05-2.77862E-05-2.86954E-05-1.07810E-06 1.74896E-19 1.55012E-19
 -1       868 9.43502E-05-2.73225E-05-2.87261E-05-1.23223E-06 8.50618E-19-5.80175E-21
 -1       869 9.37757E-05-2.66956E-05-2.87486E-05-1.41956E-06 8.74282E-20 5.86479E-20
 -1       870 9.29222E-05-2.58405E-05-2.87493E-05-1.61336E-06 2.06101E-19-3.80383E-19
 -1       871 9.16514E-05-2.46754E-05-2.87041E-05-1.76004E-06-1.53712E-19-5.30194E-19
 -1       872 8.97701E-05-2.31054E-05-2.85708E-05-1.76254E-06-2.38991E-19-4.57137E-19
 -1       873 8.70150E-05-2.10371E-05-2.82768E-05-1.45824E-06-2.15654E-19-3.09184E-19
 -1       874 8.30370E-05-1.84102E-05-2.76979E-05-5.95062E-07-7.37809E-19-3.22556E-19
 -1       875 7.73768E-05-1.52563E-05-2.66197E-05 1.18070E-06-5.79880E-19-4.11848E-19
 -1       876 6.94395E-05-1.18108E-05-2.46559E-05 4.36792E-06-1.53601E-18-1.38351E-18
 -1       877 5.97969E-05-8.80175E-06-2.17044E-05 8.30857E-06-1.96547E-18-1.43276E-18
 -1       878 9.46059E-05-2.81388E-05-2.84858E-05-4.28218E-06-1.79581E-19 1.87425E-18
 -1       879 8.48782E-05-1.97026E-05-2.79355E-05 3.78557E-07-1.08448E-18-3.74597E-19
 -1       880 5.74384E-05-8.58052E-06-2.07876E-05-9.83144E-06 9.15689E-20-1.77927E-18
 -1       881 8.00815E-05-1.69806E-05-2.70427E-05-1.38830E-06 2.11140E-19 6.78064E-19
 -1       882 9.27095E-05-2.64522E-05-2.83954E-05-4.12202E-06 5.13556E-19 1.42819E-20
 -1       883 6.64419E-05-1.68479E-05-2.10790E-05-2.29086E-05 2.35230E-19-7.79323E-19
 -1       884 7.35372E-05-1.39659E-05-2.55292E-05-4.53070E-06-3.64105E-20-1.60631E-18
 -1       885 7.83557E-05-2.73638E-05-2.17071E-05 3.18466E-05-5.53930E-19-2.50188E-18
 -1       886 9.08216E-05-2.46712E-05-2.83547E-05-2.99511E-06 1.22452E-19-3.75675E-18
 -1       887 9.61903E-05-2.78454E-05-2.92906E-05-2.96735E-07 2.05294E-19-2.13517E-19
 -1       888 9.55257E-05-2.87731E-05-2.86082E-05-8.95848E-07-4.39666E-19-4.67364E-19
 -1       889 9.61954E-05-2.84137E-05-2.90493E-05-7.06967E-07 2.14526E-19-3.17606E-19
 -1       890 9.61295E-05-2.87497E-05-2.88771E-05-9.22073E-07 2.47350E-19-9.28923E-20
 -1       891 1.08677E-04-4.72345E-05-2.62848E-05-2.75471E-05 9.70524E-19-2.62958E-18
 -1       892 9.57896E-05-2.55783E-05-3.00909E-05-1.16417E-06-3.47390E-19 3.79693E-19
 -1       893 1.22250E-04-4.09925E-05-3.49098E-05-7.78055E-06 8.39471E-19 7.87807E-20
 -1       894 9.50993E-05-2.37388E-05-3.05824E-05-2.14691E-06-3.48366E-19 1.99888E-19
 -1       895 1.22182E-04-5.04793E-05-3.07039E-05-9.49889E-06 1.11889E-18 1.01762E-18
 -1       896 9.58024E-05-2.91495E-05-2.85640E-05-3.86608E-06 1.44241E-18 1.91525E-18
 -1       897 1.16815E-04-2.71606E-05-3.85301E-05-1.27328E-05-1.25315E-19-9.91436E-19
 -1       898 1.01186E-04-4.08085E-05-2.57943E-05 2.63538E-05-2.48261E-19-9.37722E-19
 -1       899 9.54760E-05-2.50700E-05-3.01756E-05 2.13562E-06 3.14671E-19-9.62290E-20
 -1       900 1.08393E-04-1.45337E-05-4.03526E-05 6.47548E-06-2.06577E-18-1.70882E-18
 -1       901 1.22657E-04-4.64150E-05-3.27020E-05 9.48511E-07 1.41347E-18 1.35663E-18
 -1       902 9.45412E-05-2.22608E-05-3.09773E-05 4.30573E-07-2.27340E-19-4.84715E-19
 -1       903 1.20281E-04-4.51240E-05-3.22064E-05-1.22190E-06 1.18096E-18 1.10673E-19
 -1       904 8.93118E-05-2.27565E-05-2.85175E-05 7.40926E-07-5.19361E-19-3.49988E-18
 -1       905 9.59082E-05-2.89855E-05-2.86811E-05-1.01373E-06-2.85514E-20-5.58797E-19
 -1       906 1.10257E-04-2.00475E-05-3.87565E-05-1.07399E-05-1.49276E-18-2.54001E-19
 -1       907 8.73636E-05-2.13836E-05-2.82711E-05 6.01376E-07-7.73156E-19-2.20172E-18
 -1       908 1.18582E-04-3.08908E-05-3.76540E-05 1.23368E-05-1.37075E-18-1.44816E-18
 -1       909 8.96131E-05-2.34187E-05-2.83673E-05-1.57326E-06 5.17443E-21 5.64832E-19
 -1       910 9.60474E-05-2.69307E-05-2.96215E-05 3.82220E-07 2.29324E-19-1.00542E-19
 -1       911 7.85114E-05-2.52882E-05-2.27293E-05-2.71893E-05 7.34573E-19 4.29847E-18
 -1       912 9.48007E-05-2.28931E-05-3.08119E-05-1.63264E-06-2.10461E-19-6.08084E-20
 -1       913 9.60271E-05-2.89238E-05-2.87586E-05-1.00742E-06 3.61614E-19-1.56352E-19
 -1       914 9.46910E-05-2.26074E-05-3.08950E-05 1.21647E-06-8.80904E-20-2.40709E-19
 -1       915 1.11394E-04-4.54746E-05-2.82509E-05 1.67431E-05 3.82416E-19 3.37651E-19
 -1       916 9.64786E-05-2.72203E-05-2.96824E-05-5.09756E-08-4.90751E-19 1.48008E-19
 -1       917 9.66507E-05-2.81081E-05-2.93754E-05 3.31333E-07-3.15411E-19 3.24519E-20
 -1       918 9.66580E-05-2.86622E-05-2.91411E-05 5.55767E-07-1.43082E-19 3.37591E-19
 -1       919 9.65623E-05-2.89735E-05-2.89666E-05 6.69053E-07-2.14223E-19 2.68817E-19
 -1       920 9.64069E-05-2.91128E-05-2.88403E-05 7.08782E-07 5.26975E-20 2.11086E-19
 -1       921 9.62204E-05-2.91327E-05-2.87518E-05 7.06373E-07 3.25811E-19 6.06176E-19
 -1       922 9.60213E-05-2.90724E-05-2.86924E-05 6.85917E-07 1.41163E-20 6.45686E-19
 -1       923 9.58207E-05-2.89600E-05-2.86546E-05 6.65989E-07 2.38673E-19 8.34533E-19
 -1       924 9.56248E-05-2.88166E-05-2.86321E-05 6.61644E-07 3.64751E-19 6.19359E-19
 -1       925 9.54390E-05-2.86602E-05-2.86195E-05 6.85249E-07-6.72737E-20 1.00978E-18
 -1       926 9.52696E-05-2.85078E-05-2.86122E-05 7.48108E-07-1.89867E-19 1.48766E-18
 -1       927 9.51273E-05-2.83801E-05-2.86060E-05 8.61523E-07-2.65195E-19 1.75703E-18
 -1       928 9.50312E-05-2.83048E-05-2.85971E-05 1.03693E-06 2.69471E-19 1.90266E-18
 -1       929 9.50134E-05-2.83208E-05-2.85825E-05 1.28522E-06 2.95446E-19 2.07062E-18
 -1       930 9.51245E-05-2.84827E-05-2.85608E-05 1.61416E-06-1.99513E-19 2.06964E-18
 -1       931 9.54395E-05-2.88628E-05-2.85329E-05 2.02255E-06-4.57588E-20 1.77286E-18
 -1       932 9.60621E-05-2.95511E-05-2.85048E-05 2.48929E-06-6.05366E-19 1.13603E-18
 -1       933 9.71243E-05-3.06456E-05-2.84910E-05 2.95526E-06-3.29144E-19 1.29121E-18
 -1       934 9.87733E-05-3.22279E-05-2.85198E-05 3.29883E-06-1.46613E-19 1.73233E-18
 -1       935 1.01141E-04-3.43155E-05-2.86401E-05 3.30065E-06 3.62657E-19 2.65416E-18
 -1       936 1.04256E-04-3.67463E-05-2.89329E-05 2.61579E-06-1.93435E-19 2.34177E-18
 -1       937 1.07885E-04-3.90329E-05-2.95103E-05 7.92702E-07 8.74995E-19 6.13742E-19
 -1       938 1.11334E-04-4.01856E-05-3.04947E-05-2.32171E-06 1.09412E-18-3.46073E-19
 -1       939 1.13536E-04-3.88594E-05-3.19978E-05-6.51567E-06 3.84137E-19-4.35797E-19
 -1       940 1.13096E-04-3.36902E-05-3.40350E-05-1.03402E-05 7.73268E-19 9.85063E-19
 -1       941 1.04173E-04-1.39566E-05-3.87705E-05 7.77688E-07-4.25359E-19-4.25192E-19
 -1       942 1.13506E-04-3.95641E-05-3.16872E-05 5.58839E-06-3.67289E-19 3.97491E-19
 -1       943 1.10902E-04-4.02670E-05-3.02739E-05 1.40517E-06 1.00497E-19 1.39137E-18
 -1       944 1.07325E-04-3.87850E-05-2.93747E-05-1.51249E-06-3.71886E-19 9.71151E-19
 -1       945 1.03766E-04-3.63669E-05-2.88855E-05-3.05009E-06-9.20363E-19 2.14966E-18
 -1       946 1.00828E-04-3.39467E-05-2.86625E-05-3.56110E-06 2.14216E-19 4.18599E-18
 -1       947 9.86440E-05-3.19149E-05-2.85987E-05-3.46974E-06 8.42030E-19 2.86564E-18
 -1       948 9.75083E-05-3.07783E-05-2.85981E-05-3.39509E-06 3.57660E-19 1.92171E-18
 -1       949 9.59715E-05-2.90365E-05-2.86864E-05-7.90569E-07-2.02799E-19-3.38458E-19
 -1       950 9.60749E-05-2.58963E-05-3.00780E-05-6.61754E-07-3.72551E-19-9.18894E-20
 -1       951 9.50921E-05-2.82414E-05-2.86503E-05-7.32937E-07-3.63277E-19-3.55331E-19
 -1       952 9.53515E-05-2.85194E-05-2.86423E-05-7.23533E-07-1.62959E-19-1.01311E-20
 -1       953 9.43575E-05-2.74557E-05-2.86722E-05-7.84662E-07-9.64407E-21-9.70734E-19
 -1       954 9.37965E-05-2.68936E-05-2.86727E-05-7.89554E-07 2.72312E-19 4.35321E-19
 -1       955 9.30208E-05-2.61678E-05-2.86513E-05-7.26701E-07 4.67688E-19 7.78239E-19
 -1       956 9.19389E-05-2.52321E-05-2.85886E-05-5.19608E-07 2.95167E-19 8.75904E-19
 -1       957 9.04328E-05-2.40420E-05-2.84532E-05-4.47560E-08-3.12680E-19 2.74587E-19
 -1       958 8.83593E-05-2.25713E-05-2.81948E-05 8.90085E-07-7.32550E-19 1.65540E-19
 -1       959 8.55548E-05-2.08418E-05-2.77340E-05 2.57238E-06 1.00311E-19 1.89780E-19
 -1       960 8.18604E-05-1.89823E-05-2.69468E-05 5.41240E-06-2.49713E-19-7.75494E-20
 -1       961 7.71488E-05-1.73199E-05-2.56258E-05 1.00430E-05-7.02437E-19 4.45987E-19
 -1       962 7.17532E-05-1.61807E-05-2.37576E-05 1.60102E-05-1.37146E-18-4.18927E-19
 -1       963 9.45367E-05-2.22529E-05-3.09780E-05-3.99624E-07-3.12196E-19-6.50721E-19
 -1       964 9.63577E-05-2.71170E-05-2.96745E-05 1.23461E-07 2.32655E-19 9.28389E-20
 -1       965 8.42695E-05-2.04201E-05-2.73499E-05-4.78261E-06 1.91240E-19-1.81609E-18
 -1       966 9.39267E-05-2.80509E-05-2.82308E-05-5.91905E-06 3.22162E-19 8.58509E-19
 -1       967 9.53167E-05-2.41588E-05-3.04958E-05 1.78644E-06 1.19180E-19-2.52378E-19
 -1       968 9.10869E-05-2.55969E-05-2.80657E-05-5.56833E-06 6.47575E-19-1.35911E-18
 -1       969 9.65450E-05-2.85909E-05-2.91232E-05-6.22332E-07 1.29231E-19 8.62622E-20
 -1       970 9.72090E-05-3.79365E-05-2.53541E-05-2.64722E-05 1.00947E-18-1.28697E-18
 -1       971 9.65309E-05-2.80237E-05-2.93601E-05-3.43011E-07 3.47049E-19 1.52268E-19
 -1       972 8.72955E-05-2.90868E-05-2.48846E-05 2.32165E-05-1.59246E-19-1.55795E-18
 -1       973 1.10763E-04-4.48895E-05-2.82109E-05-1.65260E-05 5.59572E-19-1.06910E-19
 -1       974 8.03956E-05-1.90541E-05-2.62817E-05-8.95993E-06-4.24553E-19-1.17809E-18
 -1       975 9.57940E-05-2.60990E-05-2.98701E-05 1.11771E-06 3.54755E-19-1.24249E-19
 -1       976 9.55255E-05-2.45521E-05-3.04217E-05-1.08336E-06-2.60697E-19-9.37741E-20
 -1       977 9.46654E-05-2.25065E-05-3.09207E-05-1.06568E-06-2.69514E-19-2.80615E-19
 -1       978 9.47727E-05-2.78944E-05-2.86621E-05-7.57390E-07 5.21246E-20-6.75699E-19
 -1       979 1.16677E-04-4.54736E-05-3.05132E-05-4.10700E-06 1.23577E-18 9.42199E-19
 -1       980 9.90944E-05-3.68355E-05-2.66731E-05 2.00013E-05 7.33392E-19 3.86496E-19
 -1       981 1.14908E-04-4.49904E-05-2.99605E-05 6.13486E-06 5.13727E-19 2.32315E-19
 -1       982 9.58111E-05-2.95812E-05-2.83843E-05-5.34405E-06 7.22766E-20 3.38308E-18
 -1       983 8.67182E-05-2.17811E-05-2.78276E-05-3.41720E-06 1.59825E-19-1.23766E-18
 -1       984 1.15018E-04-3.69518E-05-3.34771E-05 8.95331E-06-1.23018E-18-6.05764E-19
 -1       985 9.61550E-05-2.90938E-05-2.87405E-05-8.17583E-07 1.33217E-19 1.35929E-19
 -1       986 9.55752E-05-2.87423E-05-2.86427E-05-7.32659E-07-4.13889E-19-4.43868E-19
 -1       987 7.58052E-05-1.81934E-05-2.46513E-05-1.51048E-05-2.37785E-19 9.51701E-19
 -1       988 9.55734E-05-2.43411E-05-3.05273E-05 1.58876E-09-2.37453E-19-4.53846E-19
 -1       989 9.64617E-05-2.89135E-05-2.89492E-05-7.65455E-07 2.63763E-19 1.99164E-19
 -1       990 9.60592E-05-2.62393E-05-2.99220E-05 6.44587E-07 1.69278E-19 2.08846E-21
 -1       991 9.57789E-05-2.89155E-05-2.86558E-05-7.57897E-07-1.09453E-19-4.75870E-19
 -1       992 9.56122E-05-2.44743E-05-3.04859E-05 4.89694E-07-1.10324E-20-2.13773E-19
 -1       993 1.10113E-04-2.22603E-05-3.77555E-05 1.05200E-05-1.57658E-18-1.00195E-18
 -1       994 9.68551E-05-2.83615E-05-2.93545E-05 2.70882E-07-1.48811E-19-1.24164E-19
 -1       995 9.68291E-05-2.88479E-05-2.91349E-05 3.85759E-07-2.22370E-19-1.46581E-20
 -1       996 9.66983E-05-2.91021E-05-2.89699E-05 4.39649E-07 2.18375E-19 3.48959E-19
 -1       997 9.65074E-05-2.91920E-05-2.88494E-05 4.55428E-07 3.59210E-19 9.06143E-19
 -1       998 9.62847E-05-2.91682E-05-2.87642E-05 4.52659E-07 4.76638E-19 8.53249E-19
 -1       999 9.60474E-05-2.90669E-05-2.87059E-05 4.45603E-07 2.65559E-19 1.30194E-18
 -1      1000 9.58056E-05-2.89144E-05-2.86677E-05 4.47172E-07-5.79235E-20 9.25607E-19
 -1      1001 9.55651E-05-2.87309E-05-2.86433E-05 4.70538E-07 3.88565E-19 4.62214E-19
 -1      1002 9.53295E-05-2.85327E-05-2.86272E-05 5.27279E-07-3.63526E-20 5.21881E-19
 -1      1003 9.51035E-05-2.83363E-05-2.86145E-05 6.32903E-07 1.37598E-19 5.60902E-19
 -1      1004 9.48974E-05-2.81629E-05-2.86005E-05 8.05768E-07 1.98626E-19 1.58953E-18
 -1      1005 9.47309E-05-2.80425E-05-2.85807E-05 1.06888E-06 1.90939E-19 1.41547E-18
 -1      1006 9.46396E-05-2.80198E-05-2.85513E-05 1.44978E-06-5.28893E-19 6.31079E-19
 -1      1007 9.46831E-05-2.81601E-05-2.85097E-05 1.97808E-06-1.51078E-19 5.28173E-19
 -1      1008 9.49552E-05-2.85561E-05-2.84565E-05 2.67847E-06-3.16714E-19 1.93671E-19
 -1      1009 9.55951E-05-2.93320E-05-2.83982E-05 3.55522E-06-1.11191E-19 1.09236E-18
 -1      1010 9.67957E-05-3.06382E-05-2.83529E-05 4.56207E-06 4.91922E-19 1.23885E-18
 -1      1011 9.87826E-05-3.26156E-05-2.83574E-05 5.56284E-06 4.95673E-19 2.13636E-18
 -1      1012 1.01855E-04-3.53925E-05-2.84816E-05 6.25712E-06-7.02193E-19 1.13307E-18
 -1      1013 1.06060E-04-3.87608E-05-2.88353E-05 6.17288E-06-4.90262E-19 7.13717E-19
 -1      1014 9.74541E-05-3.09651E-05-2.84939E-05-4.63125E-06-2.45965E-19 3.98275E-18
 -1      1015 1.10568E-04-4.17982E-05-2.94884E-05-4.97243E-06-2.54824E-19 1.44997E-18
 -1      1016 1.05386E-04-3.82320E-05-2.87777E-05-6.41265E-06 3.95220E-19 2.84294E-18
 -1      1017 1.01414E-04-3.49071E-05-2.85024E-05-6.32001E-06 7.51963E-19 3.31554E-18
 -1      1018 9.90740E-05-3.26599E-05-2.84614E-05-5.49760E-06 1.78018E-19 3.57383E-18
 -1      1019 9.63468E-05-2.63371E-05-3.00027E-05-2.52181E-07-2.58322E-19-2.40525E-19
 -1      1020 8.74386E-05-2.79651E-05-2.54501E-05-2.03250E-05 1.29862E-18 2.60750E-18
 -1      1021 9.33887E-05-2.66448E-05-2.86046E-05-8.76637E-08-2.34653E-19-6.88039E-19
 -1      1022 9.40241E-05-2.72137E-05-2.86331E-05-2.94704E-07 2.03751E-19-1.38278E-19
 -1      1023 9.15037E-05-2.51678E-05-2.84296E-05 9.83324E-07 3.25854E-19 8.32744E-19
 -1      1024 9.01587E-05-2.42865E-05-2.82306E-05 2.13692E-06-3.37040E-20-1.33982E-19
 -1      1025 8.85168E-05-2.34098E-05-2.79017E-05 4.00280E-06-1.00768E-18-6.66167E-19
 -1      1026 8.66352E-05-2.27338E-05-2.73819E-05 6.91702E-06-7.52299E-19 7.26888E-19
 -1      1027 8.46866E-05-2.26331E-05-2.65894E-05 1.12841E-05 7.93068E-20 8.87873E-19
 -1      1028 8.47637E-05-2.46606E-05-2.57538E-05 1.68972E-05 2.21136E-19-9.15006E-19
 -1      1029 8.71103E-05-2.52511E-05-2.65092E-05-1.39250E-05 1.75864E-18 1.44354E-18
 -1      1030 9.55835E-05-2.44109E-05-3.05044E-05-3.88023E-07-3.50879E-19-4.73542E-19
 -1      1031 9.63229E-05-2.90641E-05-2.88252E-05-8.18415E-07 2.86895E-19 3.28291E-19
 -1      1032 9.25657E-05-2.59634E-05-2.85439E-05 2.99142E-07 1.26671E-19 8.39769E-20
 -1      1033 9.52465E-05-2.83983E-05-2.86492E-05-4.81310E-07-2.24839E-19-3.40283E-19
 -1      1034 9.95618E-05-3.66232E-05-2.69612E-05-1.82759E-05 3.23626E-20-1.79110E-18
 -1      1035 9.67234E-05-2.75629E-05-2.96410E-05 6.68205E-08-3.83992E-19-2.25785E-19
 -1      1036 9.59035E-05-2.53412E-05-3.02406E-05 6.96853E-07 1.43944E-20-1.78524E-20
 -1      1037 8.78862E-05-2.41883E-05-2.73060E-05-8.95521E-06 8.89489E-19-6.27583E-19
 -1      1038 9.26944E-05-2.77390E-05-2.78454E-05-8.24657E-06 1.07285E-18-1.38791E-19
 -1      1039 9.45200E-05-2.76845E-05-2.86439E-05-3.99624E-07 1.22443E-19 5.13142E-19
 -1      1040 9.49168E-05-2.80744E-05-2.86468E-05-4.51827E-07 6.62717E-20 2.26379E-19
 -1      1041 9.39144E-05-3.14757E-05-2.67826E-05 1.64193E-05-2.97132E-20 7.65175E-20
 -1      1042 9.62677E-05-2.91488E-05-2.87653E-05-5.75139E-07 5.17322E-19 1.83314E-19
 -1      1043 9.55340E-05-2.86678E-05-2.86570E-05-5.04902E-07-8.85454E-19-7.36888E-19
 -1      1044 9.63539E-05-2.61985E-05-3.00655E-05-1.30041E-07-2.13608E-19-2.34488E-19
 -1      1045 1.05031E-04-3.93297E-05-2.81466E-05 1.24920E-05 3.91225E-20 2.95764E-19
 -1      1046 9.67688E-05-2.87769E-05-2.91395E-05-4.79889E-07 3.50329E-20 1.62778E-19
 -1      1047 9.63493E-05-2.64674E-05-2.99505E-05 2.69879E-07 8.46473E-20-2.52916E-20
 -1      1048 9.67764E-05-2.82582E-05-2.93650E-05-3.19228E-07 4.75864E-19 1.24320E-19
 -1      1049 9.60375E-05-2.90490E-05-2.87094E-05-5.53805E-07 4.34137E-20-5.75312E-19
 -1      1050 9.66563E-05-2.75308E-05-2.96255E-05-7.92980E-08 2.70586E-19 4.43178E-20
 -1      1051 9.56938E-05-3.00649E-05-2.81259E-05-7.48201E-06 5.12988E-20 1.96110E-18
 -1      1052 1.04369E-04-3.85733E-05-2.81908E-05-1.19087E-05 7.42787E-19-4.69480E-19
 -1      1053 9.63417E-05-2.61590E-05-3.00786E-05 6.29364E-08 1.11444E-19-6.94202E-20
 -1      1054 9.47559E-05-2.79482E-05-2.86320E-05-7.86283E-08 1.84040E-19-9.07261E-19
 -1      1055 9.68882E-05-2.90075E-05-2.90914E-05 1.59921E-07 2.58714E-20 5.00304E-19
 -1      1056 9.67129E-05-2.91841E-05-2.89410E-05 1.73646E-07 1.69302E-19 6.29778E-20
 -1      1057 9.64958E-05-2.92223E-05-2.88315E-05 1.76664E-07 4.21213E-19 1.09695E-19
 -1      1058 9.62476E-05-2.91506E-05-2.87557E-05 1.79377E-07 6.22656E-19 7.73992E-20
 -1      1059 9.59782E-05-2.90050E-05-2.87030E-05 1.87748E-07-1.27992E-19 2.08777E-20
 -1      1060 9.57092E-05-2.88168E-05-2.86680E-05 2.09061E-07 1.25638E-19 8.49197E-20
 -1      1061 9.54311E-05-2.85918E-05-2.86453E-05 2.55323E-07 1.83316E-19-1.04989E-19
 -1      1062 9.51470E-05-2.83471E-05-2.86284E-05 3.41186E-07 3.25962E-19 5.78998E-21
 -1      1063 9.48581E-05-2.80959E-05-2.86121E-05 4.85613E-07 3.59557E-19-3.01481E-21
 -1      1064 9.45697E-05-2.78565E-05-2.85911E-05 7.17086E-07-6.20299E-20-2.75844E-19
 -1      1065 9.42971E-05-2.76573E-05-2.85595E-05 1.07409E-06-6.01132E-19 3.86729E-19
 -1      1066 9.40735E-05-2.75449E-05-2.85117E-05 1.60679E-06-6.63996E-19 4.29433E-19
 -1      1067 9.39607E-05-2.75929E-05-2.84425E-05 2.37605E-06-3.84120E-19-4.27894E-20
 -1      1068 9.40659E-05-2.79148E-05-2.83494E-05 3.44716E-06 5.96844E-19-1.95727E-19
 -1      1069 9.45637E-05-2.86767E-05-2.82363E-05 4.87345E-06 4.32489E-19 4.69329E-19
 -1      1070 9.57269E-05-3.01105E-05-2.81216E-05 6.66407E-06 4.16757E-19 2.88981E-20
 -1      1071 9.78194E-05-3.24059E-05-2.80406E-05 8.63128E-06-5.88603E-19-6.25814E-19
 -1      1072 1.00672E-04-3.53065E-05-2.80222E-05 1.06663E-05-7.47600E-19-1.47130E-19
 -1      1073 9.38535E-05-2.71486E-05-2.85882E-05 3.41902E-07 1.98932E-19-1.13776E-20
 -1      1074 9.75759E-05-3.15509E-05-2.82956E-05-6.70811E-06-2.26709E-19 1.03127E-18
 -1      1075 9.32796E-05-2.66932E-05-2.85376E-05 7.83037E-07-1.79472E-19-6.38197E-20
 -1      1076 9.97089E-05-3.42801E-05-2.80455E-05-1.01871E-05 1.24658E-18 2.74224E-19
 -1      1077 9.26154E-05-2.62310E-05-2.84513E-05 1.49606E-06 3.28905E-19-1.39761E-19
 -1      1078 9.11462E-05-2.55879E-05-2.80978E-05 4.30072E-06 1.44154E-19 5.28548E-19
 -1      1079 9.18812E-05-2.58228E-05-2.83119E-05 2.61225E-06 2.04512E-19 3.90225E-19
 -1      1080 9.04567E-05-2.66381E-05-2.73449E-05 1.02404E-05-5.59904E-19-1.53882E-18
 -1      1081 9.14840E-05-2.84417E-05-2.70381E-05 1.31562E-05 1.41589E-19-1.47715E-18
 -1      1082 9.59881E-05-3.26996E-05-2.71399E-05-1.52764E-05 1.82160E-18-8.34788E-19
 -1      1083 9.37040E-05-2.95515E-05-2.74938E-05-1.14698E-05 2.00168E-18-1.12550E-18
 -1      1084 9.57938E-05-2.88841E-05-2.86756E-05-5.29462E-07-4.23755E-19-8.31829E-19
 -1      1085 9.51159E-05-2.82819E-05-2.86432E-05-1.69307E-07-3.02992E-19-9.19101E-19
 -1      1086 9.05717E-05-2.57434E-05-2.77851E-05 6.75920E-06-1.15183E-18-8.67509E-19
 -1      1087 9.43409E-05-2.75701E-05-2.86163E-05 7.69119E-08 2.82818E-19-2.56574E-19
 -1      1088 9.66544E-05-2.90540E-05-2.89716E-05-5.58086E-07 7.00713E-20 4.61322E-19
 -1      1089 9.69686E-05-2.86225E-05-2.92912E-05 1.23129E-07 1.16735E-19 5.02586E-19
 -1      1090 9.64778E-05-2.91610E-05-2.88500E-05-5.82944E-07 2.76874E-19 4.69215E-19
 -1      1091 9.68801E-05-2.89482E-05-2.91136E-05-2.75963E-07-1.10901E-19 3.01741E-19
 -1      1092 9.54367E-05-2.85727E-05-2.86561E-05-2.23253E-07-3.82553E-19-8.69881E-19
 -1      1093 9.65932E-05-2.69272E-05-2.98576E-05 5.38329E-08 2.64155E-19-1.58678E-19
 -1      1094 9.62725E-05-2.91580E-05-2.87636E-05-3.02825E-07 4.66421E-19-7.56318E-20
 -1      1095 9.67428E-05-2.73030E-05-2.97599E-05 1.76627E-09-1.91661E-19 3.26207E-19
 -1      1096 9.69228E-05-2.85125E-05-2.93195E-05-2.09834E-07-1.87980E-20 4.57647E-19
 -1      1097 9.65033E-05-2.92061E-05-2.88418E-05-3.14151E-07 5.26446E-19 8.59938E-20
 -1      1098 9.67278E-05-2.91610E-05-2.89574E-05-3.06241E-07 1.43438E-19 4.32503E-19
 -1      1099 9.68453E-05-2.78680E-05-2.95615E-05-1.03093E-07 1.91102E-19-6.39236E-20
 -1      1100 9.66256E-05-2.92247E-05-2.88853E-05-1.10978E-07 4.72415E-19 3.82352E-19
 -1      1101 9.58438E-05-2.89025E-05-2.86890E-05-7.81672E-08-2.21051E-19 1.44738E-19
 -1      1102 9.77770E-05-3.21231E-05-2.81492E-05-8.22168E-06 4.93031E-19 1.22768E-18
 -1      1103 9.68842E-05-2.79361E-05-2.95491E-05 5.80886E-08-6.12452E-20 4.96971E-20
 -1      1104 9.60123E-05-2.90183E-05-2.87116E-05-2.84596E-07 7.57861E-20 1.05914E-20
 -1      1105 9.69190E-05-2.80640E-05-2.95086E-05-5.53835E-08-1.24404E-19 6.32849E-19
 -1      1106 9.58326E-05-3.18954E-05-2.73892E-05 1.30808E-05-7.92092E-20 6.56641E-20
 -1      1107 1.16849E-04 2.57552E-10-4.18532E-05-4.14639E-05-4.23516E-20 4.11658E-18
 -1      1108 8.86468E-05 7.19147E-11-3.72496E-05-2.41676E-05-4.41516E-20 1.77067E-18
 -1      1109 8.40761E-05 4.14522E-11-3.57659E-05-1.78784E-05-4.02341E-20 5.43914E-19
 -1      1110 8.23342E-05 3.20265E-11-3.50727E-05-1.38360E-05-3.29284E-20-1.67051E-19
 -1      1111 8.15325E-05 2.73289E-11-3.47390E-05-1.05336E-05-2.03950E-20-5.80634E-19
 -1      1112 8.11317E-05 2.46088E-11-3.45742E-05-7.64072E-06-1.58686E-20-8.23071E-19
 -1      1113 8.09236E-05 2.29518E-11-3.44912E-05-4.97964E-06-1.43102E-20-1.01643E-18
 -1      1114 8.08221E-05 2.20560E-11-3.44522E-05-2.43206E-06-1.41713E-20-1.12439E-18
 -1      1115 8.07932E-05 2.17853E-11-3.44412E-05 5.24383E-08-7.40988E-21-1.17882E-18
 -1      1116 8.08264E-05 2.21000E-11-3.44536E-05 2.53945E-06 1.73046E-21-1.21173E-18
 -1      1117 8.09324E-05 2.30507E-11-3.44941E-05 5.09525E-06-3.30872E-22-1.22557E-18
 -1      1118 8.11474E-05 2.47682E-11-3.45785E-05 7.77234E-06 8.31151E-21-1.19050E-18
 -1      1119 8.15550E-05 2.76421E-11-3.47453E-05 1.06932E-05 1.46378E-20-1.14107E-18
 -1      1120 8.23581E-05 3.25007E-11-3.50826E-05 1.40429E-05 1.82377E-20-1.00359E-18
 -1      1121 8.40720E-05 4.19239E-11-3.57860E-05 1.81296E-05 2.97520E-20-5.88516E-19
 -1      1122 8.83448E-05 6.67401E-11-3.73199E-05 2.40104E-05 4.49986E-20 4.13273E-19
 -1      1123 1.06614E-04 1.63912E-10-4.06320E-05 3.61913E-05 1.01644E-19 2.63946E-18
 -1      1124 1.30214E-04-2.57550E-05-4.02715E-05-2.61047E-05-2.25205E-19 5.72848E-18
 -1      1125 9.74507E-05-2.88608E-05-3.15758E-05-6.80416E-07-6.59098E-20 5.24388E-18
 -1      1126 9.01528E-05-2.70245E-05-2.78912E-05 3.86944E-07-3.70312E-20 4.34758E-18
 -1      1127 8.82411E-05-2.65700E-05-2.66415E-05 2.50743E-07 1.58686E-20 3.83015E-18
 -1      1128 8.78825E-05-2.64432E-05-2.63850E-05 1.65812E-07-5.87613E-20 3.34361E-18
 -1      1129 8.82417E-05-2.65199E-05-2.64699E-05 1.17932E-07 6.31552E-21 3.17934E-18
 -1      1130 8.89286E-05-2.67046E-05-2.66728E-05 8.73112E-08-3.61288E-20 3.02700E-18
 -1      1131 8.97450E-05-2.69370E-05-2.69159E-05 6.60781E-08-2.63023E-21 2.30827E-18
 -1      1132 9.05815E-05-2.71808E-05-2.71654E-05 5.03858E-08-1.79952E-20 1.85283E-18
 -1      1133 9.13772E-05-2.74153E-05-2.74034E-05 3.83341E-08-5.21928E-20 9.09356E-19
 -1      1134 9.21004E-05-2.76299E-05-2.76205E-05 2.89228E-08-2.52308E-20 3.66047E-19
 -1      1135 9.27387E-05-2.78202E-05-2.78127E-05 2.15704E-08-1.19516E-20 4.54814E-19
 -1      1136 9.32916E-05-2.79856E-05-2.79798E-05 1.59025E-08 4.92865E-21 1.05885E-18
 -1      1137 9.37670E-05-2.81282E-05-2.81239E-05 1.16613E-08 4.48699E-20 1.04767E-18
 -1      1138 9.41778E-05-2.82517E-05-2.82488E-05 8.66402E-09-1.96822E-20 1.17189E-18
 -1      1139 9.45394E-05-2.83606E-05-2.83589E-05 6.78143E-09-3.02837E-20 4.58431E-19
 -1      1140 9.48684E-05-2.84597E-05-2.84591E-05 5.92025E-09-1.29814E-19-2.31847E-19
 -1      1141 9.51804E-05-2.85537E-05-2.85540E-05 5.99944E-09-1.65745E-20 2.46591E-20
 -1      1142 9.54880E-05-2.86459E-05-2.86471E-05 6.91272E-09-6.12916E-20-8.86498E-20
 -1      1143 9.57975E-05-2.87384E-05-2.87398E-05 8.46951E-09 1.01333E-19-4.93592E-19
 -1      1144 9.61057E-05-2.88298E-05-2.88309E-05 1.03083E-08 4.23093E-21-6.29698E-19
 -1      1145 9.63937E-05-2.89143E-05-2.89140E-05 1.17821E-08 6.67978E-20-2.05869E-20
 -1      1146 9.66216E-05-2.89797E-05-2.89765E-05 1.18312E-08 1.43523E-19 1.23729E-18
 -1      1147 9.67215E-05-2.90057E-05-2.89975E-05 8.88406E-09-2.20042E-19 4.30609E-19
 -1      1148 9.65935E-05-2.89625E-05-2.89471E-05 8.75077E-10 6.04313E-20 1.87489E-19
 -1      1149 9.61066E-05-2.88113E-05-2.87869E-05-1.44820E-08-9.76851E-20-1.52744E-19
 -1      1150 9.51112E-05-2.85084E-05-2.84746E-05-3.89983E-08 2.37872E-19-1.10105E-18
 -1      1151 9.34673E-05-2.80133E-05-2.79726E-05-7.28016E-08-1.60654E-19-1.37974E-18
 -1      1152 9.10914E-05-2.73030E-05-2.72618E-05-1.12797E-07-1.09039E-19-8.47417E-19
 -1      1153 8.80183E-05-2.63895E-05-2.63582E-05-1.51473E-07 6.53638E-20-5.28549E-19
 -1      1154 8.44568E-05-2.53361E-05-2.53269E-05-1.77215E-07-2.63762E-19-1.52844E-18
 -1      1155 8.08113E-05-2.42624E-05-2.42848E-05-1.77243E-07-5.60407E-20-2.15101E-18
 -1      1156 7.76349E-05-2.33300E-05-2.33861E-05-1.43094E-07 1.15713E-19-1.54494E-18
 -1      1157 7.55049E-05-2.27061E-05-2.27875E-05-7.63589E-08 7.11872E-21-1.03514E-18
 -1      1158 7.48503E-05-2.25145E-05-2.26039E-05 9.31051E-09-2.89646E-20-1.46512E-19
 -1      1159 7.58057E-05-2.27937E-05-2.28707E-05 9.24763E-08 2.42165E-20-9.95793E-20
 -1      1160 7.81616E-05-2.34835E-05-2.35324E-05 1.52748E-07-2.67312E-20-2.77358E-18
 -1      1161 8.14397E-05-2.44461E-05-2.44607E-05 1.78976E-07-4.47141E-20-1.57069E-18
 -1      1162 8.50517E-05-2.55104E-05-2.54948E-05 1.72050E-07-2.14765E-19-2.59565E-18
 -1      1163 8.84656E-05-2.65208E-05-2.64856E-05 1.41803E-07 1.34620E-19-2.27812E-18
 -1      1164 9.13152E-05-2.73687E-05-2.73258E-05 1.01143E-07-1.94677E-19-2.29001E-18
 -1      1165 9.34316E-05-2.80024E-05-2.79616E-05 6.10050E-08 3.08696E-20-3.28585E-18
 -1      1166 9.48125E-05-2.84196E-05-2.83866E-05 2.79958E-08 3.42282E-19-1.42725E-18
 -1      1167 9.55633E-05-2.86499E-05-2.86268E-05 4.53822E-09-3.49168E-19-6.96777E-19
 -1      1168 9.58398E-05-2.87387E-05-2.87252E-05-9.70378E-09 2.59690E-19-1.60057E-18
 -1      1169 9.58067E-05-2.87342E-05-2.87292E-05-1.62034E-08 9.33953E-20-3.43876E-19
 -1      1170 9.56148E-05-2.86813E-05-2.86835E-05-1.63754E-08-6.24854E-20 9.89983E-19
 -1      1171 9.53929E-05-2.86182E-05-2.86257E-05-1.05740E-08-7.72127E-21 5.82104E-19
 -1      1172 9.52471E-05-2.85792E-05-2.85821E-05 2.15103E-09 2.75107E-19 9.27452E-19
 -1      1173 9.52163E-05-2.85638E-05-2.85572E-05 6.99273E-09 1.23605E-19 1.61118E-18
 -1      1174 1.31048E-04-3.77364E-05-3.86571E-05 1.21741E-05-3.29813E-20 4.52316E-18
 -1      1175 9.65520E-05-2.81874E-05-3.13282E-05 8.01479E-07 5.25690E-20 3.24191E-18
 -1      1176 9.03667E-05-2.69271E-05-2.78719E-05 1.20213E-07-2.02295E-20 2.23232E-18
 -1      1177 8.83275E-05-2.64972E-05-2.66776E-05 9.08719E-09 9.33060E-21 1.43265E-18
 -1      1178 8.79220E-05-2.64055E-05-2.64117E-05-2.51565E-08-9.69621E-21 1.05360E-18
 -1      1179 8.82619E-05-2.65020E-05-2.64851E-05-3.41393E-08-9.68794E-21 7.82923E-19
 -1      1180 8.89390E-05-2.66969E-05-2.66821E-05-3.52688E-08 1.69187E-20 6.37856E-19
 -1      1181 8.97490E-05-2.69344E-05-2.69219E-05-3.34724E-08-7.90079E-20 9.92273E-19
 -1      1182 9.05802E-05-2.71803E-05-2.71689E-05-3.03093E-08 9.62545E-20-8.26387E-20
 -1      1183 9.13704E-05-2.74153E-05-2.74044E-05-2.64801E-08 1.27486E-20-6.25818E-19
 -1      1184 9.20874E-05-2.76290E-05-2.76189E-05-2.23862E-08-3.20601E-20-6.20524E-19
 -1      1185 9.27177E-05-2.78173E-05-2.78081E-05-1.82709E-08 4.55092E-20-7.42898E-19
 -1      1186 9.32608E-05-2.79798E-05-2.79717E-05-1.42632E-08 1.65088E-20-1.13625E-18
 -1      1187 9.37247E-05-2.81189E-05-2.81120E-05-1.04023E-08 4.35909E-21-1.29675E-18
 -1      1188 9.41234E-05-2.82387E-05-2.82330E-05-6.64877E-09 3.45300E-20-1.50084E-18
 -1      1189 9.44758E-05-2.83450E-05-2.83404E-05-2.88836E-09-6.71740E-20-1.13812E-18
 -1      1190 9.48058E-05-2.84450E-05-2.84416E-05 1.07479E-09-3.09110E-19 3.61854E-19
 -1      1191 9.51433E-05-2.85479E-05-2.85458E-05 5.53394E-09 1.77871E-19-1.20237E-18
 -1      1192 9.55275E-05-2.86657E-05-2.86651E-05 1.09053E-08 1.32275E-19-3.44805E-18
 -1      1193 9.60117E-05-2.88148E-05-2.88164E-05 1.77581E-08-1.54473E-19-2.16188E-18
 -1      1194 9.66716E-05-2.90185E-05-2.90236E-05 2.68304E-08 1.35591E-19-1.15604E-18
 -1      1195 9.76195E-05-2.93114E-05-2.93229E-05 3.89751E-08-1.64611E-19-1.56534E-19
 -1      1196 9.90256E-05-2.97456E-05-2.97689E-05 5.48881E-08-9.86123E-20 4.90488E-19
 -1      1197 1.01151E-04-3.04000E-05-3.04463E-05 7.42486E-08-1.33557E-20 9.45898E-19
 -1      1198 1.04393E-04-3.13937E-05-3.14840E-05 9.34212E-08 1.88564E-20 8.53915E-19
 -1      1199 1.09350E-04-3.29015E-05-3.30722E-05 9.99761E-08-7.26265E-21 7.91817E-19
 -1      1200 1.16863E-04-3.51644E-05-3.54644E-05 6.12021E-08 1.32018E-19-9.80123E-19
 -1      1201 1.27972E-04-3.84700E-05-3.89215E-05-9.48156E-08 1.28511E-19-2.92120E-18
 -1      1202 1.43504E-04-4.30313E-05-4.35009E-05-4.86839E-07 8.65429E-20-2.76069E-18
 -1      1203 1.62723E-04-4.86074E-05-4.85805E-05-1.17123E-06 1.48022E-19-9.56935E-19
 -1      1204 1.80295E-04-5.36447E-05-5.23064E-05-1.71817E-06-1.77877E-19 1.62720E-18
 -1      1205 1.83063E-04-5.47429E-05-5.17913E-05-6.72548E-07-2.15305E-19 4.51066E-18
 -1      1206 1.57309E-04-4.71625E-05-4.58638E-05 3.22470E-06-5.27834E-19 5.31005E-18
 -1      1207 1.11898E-04-3.30856E-05-3.80089E-05 6.01136E-06-2.18746E-19 7.25399E-18
 -1      1208 7.99048E-05-2.19952E-05-3.35568E-05 3.57262E-06 1.80947E-19 5.46548E-18
 -1      1209 8.55484E-05-2.33415E-05-3.46994E-05-1.88792E-06 3.80424E-19 3.71805E-18
 -1      1210 1.22372E-04-3.47243E-05-4.06745E-05-5.14248E-06-1.84918E-19 2.91549E-18
 -1      1211 1.65307E-04-4.92871E-05-4.82258E-05-4.68108E-06 4.64293E-19 7.80964E-19
 -1      1212 1.84567E-04-5.60202E-05-5.25439E-05-2.00191E-06-1.48654E-19 1.22820E-18
 -1      1213 1.78005E-04-5.39562E-05-5.17960E-05 6.81156E-08 7.39036E-20 5.35404E-18
 -1      1214 1.59342E-04-4.79797E-05-4.75388E-05 8.58904E-07 1.54205E-19 3.17637E-18
 -1      1215 1.40384E-04-4.21057E-05-4.24296E-05 8.63434E-07-7.01747E-20 4.23495E-18
 -1      1216 1.25436E-04-3.75841E-05-3.80268E-05 6.42954E-07 3.24122E-19 2.18778E-18
 -1      1217 1.14813E-04-3.44107E-05-3.47528E-05 4.27308E-07-2.33324E-19 5.87947E-19
 -1      1218 1.07594E-04-3.22635E-05-3.24844E-05 2.71272E-07-1.84370E-19 1.94545E-18
 -1      1219 1.02763E-04-3.08265E-05-3.09593E-05 1.71152E-07 9.27104E-21-9.90539E-19
 -1      1220 9.95334E-05-2.98641E-05-2.99437E-05 1.11651E-07-5.53053E-21-2.97317E-18
 -1      1221 9.73798E-05-2.92215E-05-2.92746E-05 7.76324E-08 6.52144E-19-4.12875E-18
 -1      1222 9.60040E-05-2.88105E-05-2.88534E-05 5.61136E-08 2.65265E-19-1.46751E-18
 -1      1223 9.52760E-05-2.85923E-05-2.86231E-05 2.65683E-08-4.42798E-19 3.17221E-18
 -1      1224 9.51508E-05-2.85446E-05-2.85078E-05-2.81039E-08-2.97576E-19 4.46427E-18
 -1      1225 9.52637E-05-2.86573E-05-2.85082E-05-3.00324E-08 6.03939E-18 4.49542E-19
 -1      1226 9.52072E-05-2.85148E-05-2.86244E-05-1.34891E-08 1.15849E-17-3.80718E-20
 -1      1227 9.50099E-05-2.78411E-05-2.88249E-05 4.11759E-08 9.63837E-18-1.18555E-18
 -1      1228 9.47187E-05-2.68259E-05-2.90988E-05 5.91337E-08 1.98447E-18-2.92562E-19
 -1      1229 9.44195E-05-2.58051E-05-2.93773E-05 5.08537E-08-2.86508E-18-1.33595E-18
 -1      1230 9.41984E-05-2.50520E-05-2.95887E-05 3.03129E-08-4.62344E-18 3.48101E-19
 -1      1231 9.40923E-05-2.46975E-05-2.96932E-05 7.93536E-09 8.14320E-19-1.74547E-19
 -1      1232 9.41086E-05-2.47615E-05-2.96815E-05-1.21476E-08 2.44304E-18-1.05943E-18
 -1      1233 9.42268E-05-2.51726E-05-2.95708E-05-2.48849E-08 1.34290E-18 1.00290E-18
 -1      1234 9.44094E-05-2.57998E-05-2.93959E-05-2.94920E-08 2.60960E-18 7.10628E-19
 -1      1235 9.46159E-05-2.65038E-05-2.91954E-05-2.74492E-08-2.63153E-18-1.36091E-18
 -1      1236 9.48113E-05-2.71658E-05-2.90033E-05-2.13392E-08-5.36170E-18 4.66813E-19
 -1      1237 9.49762E-05-2.77208E-05-2.88394E-05-1.45420E-08-3.19452E-18 1.40683E-18
 -1      1238 9.51028E-05-2.81427E-05-2.87131E-05-8.10753E-09-2.76695E-18 7.14078E-19
 -1      1239 9.51901E-05-2.84274E-05-2.86280E-05-4.11498E-09-2.52840E-18-2.76997E-19
 -1      1240 9.52258E-05-2.85605E-05-2.85807E-05 1.17269E-08-1.75778E-18-2.93692E-19
 -1      1241 9.52440E-05-2.85925E-05-2.85569E-05 7.46659E-09-7.57045E-19 3.48999E-19
 -1      1242 3.98080E-05-1.26760E-04 2.28614E-05-1.80984E-05 1.14474E-17 7.46607E-19
 -1      1243 2.28553E-05-9.32401E-05 1.63367E-05-3.95687E-05 1.16060E-17 3.77925E-18
 -1      1244 6.13844E-06-3.32570E-05 4.42616E-07-2.38446E-05 2.03796E-18 1.28580E-18
 -1      1245 2.67526E-05 1.13880E-05-2.23339E-05 3.19289E-05 5.94617E-19 1.30443E-19
 -1      1246 1.09051E-04 8.43557E-06-4.78694E-05 9.53784E-05 4.86875E-18 7.52335E-18
 -1      1247 2.40509E-04-4.19319E-05-7.17508E-05 1.20213E-04 2.82485E-18 6.02410E-18
 -1      1248 3.62070E-04-1.03017E-04-8.79241E-05 7.70290E-05-1.02173E-19-3.14419E-18
 -1      1249 3.96584E-04-1.21596E-04-9.19382E-05-2.08170E-05 1.47860E-19-5.71112E-18
 -1      1250 3.07931E-04-7.46812E-05-8.10297E-05-1.04169E-04 2.24930E-18-7.59111E-18
 -1      1251 1.65232E-04-1.02494E-05-5.88791E-05-1.13679E-04 2.51823E-18-5.58195E-18
 -1      1252 5.39732E-05 1.58083E-05-3.29095E-05-5.99768E-05 1.14688E-18-2.77827E-19
 -1      1253 8.71531E-06-1.36970E-05-7.76623E-06 5.06703E-06 2.16163E-18-1.40015E-18
 -1      1254 1.44883E-05-7.24365E-05 1.16511E-05 3.81538E-05 6.47726E-18-2.48985E-18
 -1      1255 3.62798E-05-1.20943E-04 2.16652E-05 2.90786E-05 7.88249E-18-1.80058E-18
 -1      1256 3.93106E-05-1.22061E-04 2.17930E-05-3.90158E-06 7.04435E-18 3.46436E-19
 -1      1257 2.29083E-05-7.79893E-05 1.25747E-05-2.31841E-05 9.65618E-20-7.81811E-19
 -1      1258 7.53186E-06-1.46106E-05-3.64685E-06-4.03047E-06-2.63258E-18-1.73726E-18
 -1      1259 2.48074E-05 2.76508E-05-2.38982E-05 4.72852E-05-6.25449E-18-5.25753E-18
 -1      1260 8.87398E-05 2.64474E-05-4.51739E-05 1.01752E-04-7.05409E-18-9.23605E-18
 -1      1261 1.85974E-04-1.47903E-05-6.39762E-05 1.23564E-04-5.16605E-18-1.13638E-17
 -1      1262 2.82073E-04-6.97159E-05-7.78798E-05 9.03020E-05-1.87639E-18-9.03445E-18
 -1      1263 3.30965E-04-1.00284E-04-8.38245E-05 1.04046E-05-5.76882E-19-7.84215E-18
 -1      1264 3.00473E-04-8.00204E-05-8.05221E-05-7.08420E-05 7.26119E-19-3.16113E-18
 -1      1265 2.20940E-04-3.36405E-05-6.91237E-05-1.19474E-04-4.06999E-19-2.67662E-19
 -1      1266 1.17368E-04 1.61937E-05-5.13467E-05-1.12707E-04 1.72117E-18-1.39422E-18
 -1      1267 3.88330E-05 2.95943E-05-2.91542E-05-6.16306E-05-1.14180E-18 9.48677E-19
 -1      1268 8.48395E-06-4.93655E-06-7.16529E-06-3.69456E-06-5.70900E-18 2.76556E-18
 -1      1269 1.83257E-05-6.54671E-05 9.90076E-06 2.32359E-05 9.47830E-19 9.33430E-19
 -1      1270 3.68771E-05-1.14842E-04 2.02355E-05 1.27322E-05 8.45339E-18-4.34898E-19
 -1      1271 1.04438E-04-2.20181E-05-3.78903E-05-1.72750E-05-7.55977E-20 3.79852E-18
 -1      1272 9.03159E-05-6.68074E-06-3.60157E-05-2.04718E-05-3.85929E-19 1.22544E-18
 -1      1273 9.26517E-05-6.73954E-06-3.72204E-05-2.57596E-05-4.38340E-19 1.86776E-18
 -1      1274 8.59027E-05-4.09657E-06-3.51291E-05-1.64337E-05-4.31616E-19 2.43628E-19
 -1      1275 8.71537E-05-4.08920E-06-3.55981E-05-1.88542E-05-4.77250E-19 6.98140E-19
 -1      1276 9.21304E-05-1.04624E-05-3.50921E-05-1.90354E-05-6.89008E-19 1.12968E-18
 -1      1277 8.40957E-05-3.19037E-06-3.46866E-05-1.28168E-05-4.02433E-19-3.53186E-19
 -1      1278 8.47068E-05-3.16092E-06-3.49107E-05-1.46315E-05-4.19043E-19-7.98593E-20
 -1      1279 8.78651E-05-7.39495E-06-3.45730E-05-1.54120E-05-6.68918E-19 2.64618E-19
 -1      1280 8.31856E-05-2.72738E-06-3.44705E-05-9.68730E-06-3.63893E-19-6.99173E-19
 -1      1281 8.34983E-05-2.70903E-06-3.45795E-05-1.12345E-05-3.74203E-19-5.32334E-19
 -1      1282 8.58661E-05-5.98198E-06-3.43053E-05-1.19553E-05-6.28922E-19-2.20229E-19
 -1      1283 8.26951E-05-2.45731E-06-3.43643E-05-6.91552E-06-2.62818E-19-8.94573E-19
 -1      1284 8.28641E-05-2.44892E-06-3.44187E-05-8.28663E-06-3.16420E-19-7.69781E-19
 -1      1285 8.48216E-05-5.21656E-06-3.41733E-05-8.94509E-06-5.59174E-19-5.38104E-19
 -1      1286 8.24201E-05-2.29172E-06-3.43117E-05-4.29517E-06-2.06479E-19-1.03370E-18
 -1      1287 8.25111E-05-2.28781E-06-3.43388E-05-5.59652E-06-2.27921E-19-9.57703E-19
 -1      1288 8.42365E-05-4.76142E-06-3.41101E-05-6.21689E-06-4.18634E-19-7.44224E-19
 -1      1289 8.22878E-05-2.20221E-06-3.42895E-05-1.79011E-06-1.26533E-19-1.14794E-18
 -1      1290 8.23267E-05-2.20064E-06-3.43006E-05-3.04122E-06-1.58680E-19-1.08419E-18
 -1      1291 8.39142E-05-4.49751E-06-3.40814E-05-3.64479E-06-2.95312E-19-7.99586E-19
 -1      1292 8.22618E-05-2.17467E-06-3.42869E-05 6.69798E-07-7.83505E-20-1.20051E-18
 -1      1293 8.22604E-05-2.17471E-06-3.42865E-05-5.66144E-07-1.10541E-19-1.18043E-18
 -1      1294 8.37729E-05-4.37776E-06-3.40706E-05-1.17064E-06-1.65218E-19-9.20222E-19
 -1      1295 8.23352E-05-2.20494E-06-3.43021E-05 3.14851E-06-1.75081E-20-1.22465E-18
 -1      1296 8.22935E-05-2.20658E-06-3.42903E-05 1.89480E-06-5.64447E-20-1.20770E-18
 -1      1297 8.37778E-05-4.38197E-06-3.40710E-05 1.27370E-06-1.14835E-19-9.59331E-19
 -1      1298 8.25281E-05-2.29803E-06-3.43415E-05 5.71295E-06 6.44274E-20-1.24585E-18
 -1      1299 8.24338E-05-2.30139E-06-3.43137E-05 4.40570E-06 3.47350E-20-1.24515E-18
 -1      1300 8.39296E-05-4.51099E-06-3.40825E-05 3.75216E-06 2.32471E-20-1.02466E-18
 -1      1301 8.28872E-05-2.46384E-06-3.44215E-05 8.39486E-06 1.30264E-19-1.21412E-18
 -1      1302 8.27147E-05-2.47252E-06-3.43667E-05 7.01499E-06 1.00661E-19-1.24336E-18
 -1      1303 8.42619E-05-4.78424E-06-3.41114E-05 6.31072E-06 1.17177E-19-1.00559E-18
 -1      1304 8.35445E-05-2.74123E-06-3.45846E-05 1.13954E-05 2.77059E-19-1.15658E-18
 -1      1305 8.32236E-05-2.75832E-06-3.44740E-05 9.83028E-06 2.15623E-19-1.17515E-18
 -1      1306 8.48642E-05-5.25760E-06-3.41742E-05 9.05392E-06 2.88650E-19-9.44812E-19
 -1      1307 8.47643E-05-3.20337E-06-3.49187E-05 1.48443E-05 3.35663E-19-9.74564E-19
 -1      1308 8.41526E-05-3.24011E-06-3.46922E-05 1.30039E-05 2.89553E-19-1.10259E-18
 -1      1309 8.59464E-05-6.06277E-06-3.43065E-05 1.21227E-05 4.57265E-19-9.04552E-19
 -1      1310 8.72531E-05-4.09033E-06-3.56198E-05 1.90916E-05 4.15628E-19-4.31907E-19
 -1      1311 8.59706E-05-4.15422E-06-3.51368E-05 1.66936E-05 3.46701E-19-7.41630E-19
 -1      1312 8.79900E-05-7.51708E-06-3.45753E-05 1.56505E-05 5.61080E-19-5.88556E-19
 -1      1313 9.34646E-05-6.79216E-06-3.71159E-05 2.50963E-05 3.98529E-19 5.98746E-19
 -1      1314 9.01316E-05-6.43774E-06-3.60385E-05 2.11492E-05 3.64701E-19-5.39984E-20
 -1      1315 9.23605E-05-1.06979E-05-3.50775E-05 1.96764E-05 6.50733E-19-1.61466E-20
 -1      1316 1.23623E-04-2.49227E-05-3.90138E-05 2.83660E-05 2.30605E-19 2.81511E-18
 -1      1317 1.00079E-04-1.44236E-05-3.73533E-05 2.40502E-05 2.42040E-19 1.24599E-18
 -1      1318 1.01678E-04-1.93421E-05-3.54018E-05 2.13984E-05 7.21976E-19 9.51642E-19
 -1      1319 1.02602E-04-2.78044E-05-3.47569E-05 7.32907E-06 4.02711E-19 2.64168E-18
 -1      1320 1.05145E-04-3.02299E-05-3.35246E-05-7.95942E-06-2.97203E-19 3.80932E-18
 -1      1321 9.82589E-05-2.78425E-05-3.07615E-05-4.98835E-06-3.23778E-19 3.49258E-18
 -1      1322 9.55011E-05-2.78487E-05-2.92541E-05-2.48967E-06-2.27640E-19 3.31465E-18
 -1      1323 9.32689E-05-2.75577E-05-2.82148E-05-2.04298E-06-2.61998E-19 2.98394E-18
 -1      1324 9.94837E-05-2.80517E-05-3.09824E-05-7.88675E-06-5.09808E-19 2.25676E-18
 -1      1325 9.15796E-05-2.71998E-05-2.75807E-05-8.37904E-07-1.61221E-19 2.86985E-18
 -1      1326 9.08633E-05-2.71046E-05-2.72785E-05-7.27620E-07-1.56443E-19 2.64052E-18
 -1      1327 9.47175E-05-2.77698E-05-2.88164E-05-3.12019E-06-3.89106E-19 1.99570E-18
 -1      1328 9.01138E-05-2.69221E-05-2.70354E-05-1.73246E-07-1.24441E-19 2.43593E-18
 -1      1329 9.00419E-05-2.69490E-05-2.70007E-05-1.15190E-07-1.66243E-19 2.19818E-18
 -1      1330 9.25193E-05-2.74994E-05-2.78958E-05-1.05211E-06-3.07169E-19 1.64696E-18
 -1      1331 8.97833E-05-2.68818E-05-2.69267E-05 1.55206E-07-3.29582E-20 2.24255E-18
 -1      1332 8.99986E-05-2.69721E-05-2.69886E-05 1.83946E-07-7.59203E-20 2.21874E-18
 -1      1333 9.15623E-05-2.73564E-05-2.75293E-05-6.85110E-08-1.47126E-19 1.44743E-18
 -1      1334 9.00038E-05-2.69756E-05-2.69955E-05 3.15464E-07-1.34801E-19 2.26553E-18
 -1      1335 9.03472E-05-2.70955E-05-2.70950E-05 3.27302E-07-1.93929E-19 2.03488E-18
 -1      1336 9.13113E-05-2.73448E-05-2.74221E-05 4.19489E-07-1.30632E-19 1.49922E-18
 -1      1337 9.04912E-05-2.71378E-05-2.71428E-05 3.82573E-07-1.81769E-19 1.92564E-18
 -1      1338 9.08808E-05-2.72666E-05-2.72554E-05 3.84444E-07-2.05639E-19 1.62527E-18
 -1      1339 9.14474E-05-2.74193E-05-2.74453E-05 6.49094E-07-3.34977E-19 1.60423E-18
 -1      1340 9.10919E-05-2.73277E-05-2.73227E-05 3.96119E-07-1.30424E-19 1.49307E-18
 -1      1341 9.14823E-05-2.74532E-05-2.74359E-05 3.92218E-07-2.67710E-19 1.15922E-18
 -1      1342 9.17848E-05-2.75394E-05-2.75358E-05 7.33734E-07-4.36364E-19 1.12841E-18
 -1      1343 9.17180E-05-2.75212E-05-2.75103E-05 3.79287E-07-1.84553E-19 1.06862E-18
 -1      1344 9.20846E-05-2.76369E-05-2.76169E-05 3.72331E-07-2.02714E-19 7.88836E-19
 -1      1345 9.22137E-05-2.76784E-05-2.76581E-05 7.35390E-07-3.66005E-19 9.97264E-19
 -1      1346 9.23203E-05-2.77046E-05-2.76909E-05 3.46645E-07-1.74574E-19 8.52949E-19
 -1      1347 9.26508E-05-2.78076E-05-2.77875E-05 3.38439E-07-6.29603E-20 5.80853E-19
 -1      1348 9.26686E-05-2.78196E-05-2.77914E-05 6.91289E-07-2.56366E-19 1.19268E-18
 -1      1349 9.28730E-05-2.78713E-05-2.78571E-05 3.07673E-07-7.65576E-20 5.09566E-19
 -1      1350 9.31635E-05-2.79609E-05-2.79423E-05 2.99423E-07-8.34191E-21 5.91206E-19
 -1      1351 9.31119E-05-2.79539E-05-2.79232E-05 6.25092E-07-1.42510E-19 7.85220E-19
 -1      1352 9.33661E-05-2.80189E-05-2.80056E-05 2.68597E-07 6.80224E-20 6.01847E-19
 -1      1353 9.36178E-05-2.80958E-05-2.80797E-05 2.61093E-07-4.53700E-20 5.21167E-19
 -1      1354 9.35241E-05-2.80765E-05-2.80471E-05 5.52226E-07 2.84672E-20 3.56421E-19
 -1      1355 9.37994E-05-2.81477E-05-2.81364E-05 2.33439E-07-6.33157E-20 8.06848E-19
 -1      1356 9.40170E-05-2.82136E-05-2.82007E-05 2.27179E-07-5.57499E-20 7.76790E-19
 -1      1357 9.38975E-05-2.81860E-05-2.81604E-05 4.82749E-07 5.06503E-21 3.91147E-19
 -1      1358 9.41796E-05-2.82600E-05-2.82514E-05 2.04668E-07-8.21048E-20 1.00184E-18
 -1      1359 9.43698E-05-2.83173E-05-2.83077E-05 1.99933E-07-2.59556E-19 6.82776E-19
 -1      1360 9.42327E-05-2.82832E-05-2.82626E-05 4.23017E-07-1.51882E-19 8.08166E-19
 -1      1361 9.45170E-05-2.83592E-05-2.83536E-05 1.83560E-07-3.59166E-19 4.89686E-19
 -1      1362 9.46873E-05-2.84103E-05-2.84041E-05 1.80454E-07-4.05272E-19-5.08079E-20
 -1      1363 9.45347E-05-2.83700E-05-2.83553E-05 3.76676E-07-4.58604E-19 4.81742E-19
 -1      1364 9.48238E-05-2.84493E-05-2.84466E-05 1.70362E-07-1.89942E-19 2.36825E-19
 -1      1365 9.49820E-05-2.84967E-05-2.84936E-05 1.68818E-07-1.61113E-19-3.54124E-20
 -1      1366 9.48116E-05-2.84493E-05-2.84404E-05 3.45165E-07-3.92922E-19 4.87927E-19
 -1      1367 9.51122E-05-2.85340E-05-2.85340E-05 1.64251E-07-2.00884E-20 3.11624E-20
 -1      1368 9.52650E-05-2.85801E-05-2.85793E-05 1.63996E-07 3.29437E-20 1.87193E-19
 -1      1369 9.50723E-05-2.85241E-05-2.85204E-05 3.27811E-07-9.87257E-20 6.51973E-19
 -1      1370 9.53923E-05-2.86170E-05-2.86187E-05 1.63101E-07 1.33449E-20 4.14852E-20
 -1      1371 9.55442E-05-2.86633E-05-2.86636E-05 1.63585E-07 1.06067E-20 7.19581E-20
 -1      1372 9.53247E-05-2.85976E-05-2.85974E-05 3.21551E-07 3.89723E-20-9.43417E-20
 -1      1373 9.56700E-05-2.87003E-05-2.87022E-05 1.63067E-07-1.60931E-19-8.23723E-20
 -1      1374 9.58216E-05-2.87473E-05-2.87468E-05 1.63360E-07-3.31995E-19-2.77049E-19
 -1      1375 9.55737E-05-2.86718E-05-2.86724E-05 3.20282E-07-3.82196E-19 5.39601E-20
 -1      1376 9.59434E-05-2.87840E-05-2.87836E-05 1.58038E-07-5.11912E-20-3.76377E-19
 -1      1377 9.60891E-05-2.88304E-05-2.88262E-05 1.56700E-07 5.22966E-20-4.09054E-19
 -1      1378 9.58185E-05-2.87478E-05-2.87445E-05 3.13923E-07-1.99943E-19-3.73575E-20
 -1      1379 9.61990E-05-2.88651E-05-2.88586E-05 1.39076E-07-4.15849E-20 1.31647E-19
 -1      1380 9.63244E-05-2.89068E-05-2.88947E-05 1.34036E-07 2.11898E-19 3.20882E-19
 -1      1381 9.60498E-05-2.88238E-05-2.88102E-05 2.87354E-07 1.72872E-19-3.12087E-19
 -1      1382 9.64072E-05-2.89353E-05-2.89177E-05 9.40915E-08 2.35225E-20 2.14336E-19
 -1      1383 9.64858E-05-2.89647E-05-2.89394E-05 8.26055E-08-3.19796E-19 2.91071E-19
 -1      1384 9.62455E-05-2.88950E-05-2.88621E-05 2.19633E-07-6.80894E-20 8.77180E-20
 -1      1385 9.65169E-05-2.89804E-05-2.89451E-05 8.20273E-09 1.26287E-19 2.20036E-19
 -1      1386 9.65080E-05-2.89849E-05-2.89405E-05-1.30031E-08 2.04452E-19 2.33364E-19
 -1      1387 9.63676E-05-2.89512E-05-2.88880E-05 8.41780E-08-9.65642E-20 1.08154E-19
 -1      1388 9.64527E-05-2.89778E-05-2.89179E-05-1.34579E-07-5.82525E-20 5.91253E-19
 -1      1389 9.63003E-05-2.89397E-05-2.88706E-05-1.68811E-07-1.29010E-19 7.21394E-19
 -1      1390 9.63587E-05-2.89755E-05-2.88703E-05-1.48991E-07 6.35614E-20 7.96990E-19
 -1      1391 9.61148E-05-2.88967E-05-2.88065E-05-3.47566E-07-2.37224E-19 6.07264E-19
 -1      1392 9.57509E-05-2.87936E-05-2.86970E-05-3.97138E-07-3.63445E-19 2.08236E-19
 -1      1393 9.61420E-05-2.89436E-05-2.87869E-05-5.07586E-07-3.53891E-19 1.09940E-18
 -1      1394 9.53867E-05-2.86990E-05-2.85771E-05-6.34948E-07-6.87189E-20-6.97561E-20
 -1      1395 9.47416E-05-2.85070E-05-2.83859E-05-6.99532E-07 1.68012E-19-1.60466E-19
 -1      1396 9.56258E-05-2.88232E-05-2.86126E-05-1.00670E-06-3.77019E-19 1.60327E-18
 -1      1397 9.41551E-05-2.83453E-05-2.81985E-05-9.83048E-07-9.58950E-20-2.22459E-19
 -1      1398 9.31748E-05-2.80441E-05-2.79114E-05-1.05761E-06-3.32811E-19-4.90677E-19
 -1      1399 9.47171E-05-2.85777E-05-2.83244E-05-1.63377E-06-1.62515E-19 8.29782E-19
 -1      1400 9.23425E-05-2.78044E-05-2.76516E-05-1.35153E-06 9.18667E-20-5.35073E-19
 -1      1401 9.10157E-05-2.73863E-05-2.72668E-05-1.42459E-06 1.99394E-19-5.18980E-19
 -1      1402 9.33453E-05-2.81730E-05-2.79083E-05-2.33159E-06-9.30744E-21 2.80332E-20
 -1      1403 8.99535E-05-2.70688E-05-2.69422E-05-1.66945E-06-1.71890E-19-4.59542E-19
 -1      1404 8.83392E-05-2.65495E-05-2.64783E-05-1.72309E-06-1.11439E-19-4.41741E-19
 -1      1405 9.14965E-05-2.75907E-05-2.73683E-05-2.98686E-06-6.20567E-20 1.96988E-19
 -1      1406 8.71196E-05-2.61730E-05-2.61131E-05-1.84290E-06-7.96792E-19-1.22449E-19
 -1      1407 8.53666E-05-2.55988E-05-2.56135E-05-1.85603E-06-5.50152E-19-6.36082E-19
 -1      1408 8.92522E-05-2.68457E-05-2.67346E-05-3.43567E-06-7.04558E-19 3.24003E-19
 -1      1409 8.41256E-05-2.52049E-05-2.52486E-05-1.77899E-06-1.93966E-19-4.29446E-19
 -1      1410 8.24661E-05-2.46535E-05-2.47790E-05-1.73455E-06-4.68082E-19-3.24175E-19
 -1      1411 8.68158E-05-2.60014E-05-2.60671E-05-3.49700E-06-9.81092E-19 7.29732E-19
 -1      1412 8.13883E-05-2.43037E-05-2.44669E-05-1.42351E-06 2.06249E-19-6.11981E-19
 -1      1413 8.00972E-05-2.38701E-05-2.41036E-05-1.31750E-06 2.59076E-19-2.84312E-19
 -1      1414 8.45070E-05-2.51741E-05-2.54507E-05-3.03505E-06-1.86122E-19 5.88747E-19
 -1      1415 7.93750E-05-2.36323E-05-2.38967E-05-7.96949E-07 1.96297E-19-5.15949E-19
 -1      1416 7.86973E-05-2.34033E-05-2.37065E-05-6.44422E-07 1.45951E-19-3.50443E-19
 -1      1417 8.27073E-05-2.45137E-05-2.49795E-05-2.03096E-06 2.27925E-19 6.16620E-19
 -1      1418 7.84741E-05-2.33296E-05-2.36428E-05-6.11147E-09 6.17302E-19 6.17077E-21
 -1      1419 7.85470E-05-2.33548E-05-2.36630E-05 1.61102E-07 4.93486E-19 5.53179E-19
 -1      1420 8.17599E-05-2.41619E-05-2.47341E-05-6.25105E-07 4.77098E-19 7.64523E-19
 -1      1421 7.88679E-05-2.34617E-05-2.37541E-05 7.83745E-07-7.19144E-19 6.06674E-19
 -1      1422 7.96733E-05-2.37345E-05-2.39799E-05 9.28141E-07-7.30940E-19-2.87157E-19
 -1      1423 8.18583E-05-2.42004E-05-2.47584E-05 9.06358E-07-9.95925E-20 7.95124E-19
 -1      1424 8.04680E-05-2.39964E-05-2.42075E-05 1.40719E-06-6.30901E-19-5.41863E-19
 -1      1425 8.18384E-05-2.44566E-05-2.45932E-05 1.49992E-06-1.33001E-19-9.18409E-19
 -1      1426 8.29767E-05-2.46184E-05-2.50467E-05 2.24200E-06-1.47884E-18 3.00432E-19
 -1      1427 8.29472E-05-2.48156E-05-2.49148E-05 1.75718E-06 4.77618E-19-1.35787E-18
 -1      1428 8.46228E-05-2.53718E-05-2.53892E-05 1.78747E-06-1.56293E-19-1.13029E-18
 -1      1429 8.48793E-05-2.53167E-05-2.55449E-05 3.12950E-06-5.05052E-19-4.62149E-19
 -1      1430 8.58495E-05-2.57597E-05-2.57509E-05 1.81314E-06-8.43835E-19-1.11640E-18
 -1      1431 8.75582E-05-2.63182E-05-2.62383E-05 1.78843E-06-3.70154E-19-2.08136E-18
 -1      1432 8.72032E-05-2.61472E-05-2.61667E-05 3.46357E-06-6.70846E-19-9.18508E-19
 -1      1433 8.87253E-05-2.66767E-05-2.65890E-05 1.62979E-06 3.07585E-19-2.19047E-18
 -1      1434 9.02491E-05-2.71655E-05-2.70274E-05 1.56878E-06 1.80216E-19-2.12199E-18
 -1      1435 8.95710E-05-2.69637E-05-2.68178E-05 3.29336E-06-1.75625E-19-1.13680E-18
 -1      1436 9.12332E-05-2.74578E-05-2.73293E-05 1.30131E-06-7.43735E-19-2.26092E-18
 -1      1437 9.24425E-05-2.78371E-05-2.76806E-05 1.22505E-06-7.90265E-19-2.84448E-18
 -1      1438 9.16838E-05-2.76599E-05-2.74174E-05 2.77107E-06-1.57901E-19-1.78672E-18
 -1      1439 9.31842E-05-2.80487E-05-2.79135E-05 9.23375E-07-1.67289E-20-2.47760E-18
 -1      1440 9.40374E-05-2.83089E-05-2.81640E-05 8.48800E-07 4.41471E-19-2.39861E-18
 -1      1441 9.33646E-05-2.81832E-05-2.79118E-05 2.08009E-06-7.40227E-19-8.44705E-19
 -1      1442 9.45321E-05-2.84429E-05-2.83236E-05 5.68702E-07 1.19403E-18-1.89761E-18
 -1      1443 9.50538E-05-2.85955E-05-2.84791E-05 5.06156E-07 8.94272E-19-1.37870E-18
 -1      1444 9.45564E-05-2.85276E-05-2.82774E-05 1.37783E-06 1.27507E-18-1.78404E-18
 -1      1445 9.53332E-05-2.86649E-05-2.85729E-05 2.79556E-07-2.21921E-19-2.08129E-19
 -1      1446 9.55865E-05-2.87328E-05-2.86504E-05 2.33366E-07 2.34602E-19-6.57147E-19
 -1      1447 9.52916E-05-2.87168E-05-2.85159E-05 7.68820E-07 1.28179E-18-1.43301E-18
 -1      1448 9.57003E-05-2.87544E-05-2.86925E-05 7.20792E-08 4.77607E-19-9.11432E-19
 -1      1449 9.57626E-05-2.87635E-05-2.87139E-05 4.25036E-08 8.41370E-19-7.16477E-19
 -1      1450 9.56543E-05-2.87877E-05-2.86460E-05 3.04255E-07 4.67059E-19-2.41384E-19
 -1      1451 9.57649E-05-2.87542E-05-2.87205E-05-5.45988E-08 7.83829E-19-6.15144E-19
 -1      1452 9.57125E-05-2.87292E-05-2.87080E-05-6.93027E-08 5.89388E-19 5.25030E-19
 -1      1453 9.57484E-05-2.87788E-05-2.86948E-05-4.26314E-09 9.20909E-19 2.07411E-19
 -1      1454 9.56535E-05-2.87037E-05-2.86947E-05-1.09870E-07 3.81909E-19 6.51090E-20
 -1      1455 9.55539E-05-2.86657E-05-2.86679E-05-1.12085E-07-5.57999E-19 2.10038E-20
 -1      1456 9.56768E-05-2.87247E-05-2.86914E-05-1.68008E-07 3.57628E-19 5.26865E-19
 -1      1457 9.54756E-05-2.86362E-05-2.86478E-05-1.06378E-07-3.11452E-19 8.81145E-19
 -1      1458 9.53842E-05-2.86030E-05-2.86223E-05-9.82543E-08 6.16464E-19 1.09374E-18
 -1      1459 9.55296E-05-2.86533E-05-2.86620E-05-2.08852E-07-4.09422E-19-2.11958E-19
 -1      1460 9.53160E-05-2.85776E-05-2.86043E-05-5.87348E-08 6.64380E-19 7.80588E-19
 -1      1461 9.52720E-05-2.85658E-05-2.85885E-05-4.47800E-08-6.40638E-20 9.56958E-19
 -1      1462 9.53767E-05-2.85861E-05-2.86267E-05-1.55376E-07 7.14883E-19 8.48364E-19
 -1      1463 9.52321E-05-2.85673E-05-2.85690E-05 6.11564E-09-1.22803E-18 7.40878E-19
 -1      1464 9.52606E-05-2.85547E-05-2.85889E-05-4.00762E-08-8.18721E-19 1.68950E-20
 -1      1465 9.65752E-05-2.83630E-05-2.97718E-05 2.99569E-06 2.98314E-19 1.91869E-18
 -1      1466 1.02534E-04-2.93978E-05-3.21551E-05 4.46278E-06 2.87356E-19 2.47260E-18
 -1      1467 1.02324E-04-2.67176E-05-3.27052E-05 1.27828E-05 5.90170E-19 1.56161E-18
 -1      1468 9.20289E-05-2.74287E-05-2.77612E-05 1.15193E-06 1.91800E-19 1.33027E-18
 -1      1469 9.39755E-05-2.75839E-05-2.86753E-05 1.47388E-06 2.01514E-19 1.67284E-18
 -1      1470 9.64855E-05-2.80299E-05-2.95333E-05 4.86752E-06 4.94773E-19 1.11741E-18
 -1      1471 9.01964E-05-2.70040E-05-2.70624E-05 3.31672E-07 7.94226E-20 8.38695E-19
 -1      1472 9.08113E-05-2.70215E-05-2.73350E-05 4.94546E-07 1.41071E-19 1.07684E-18
 -1      1473 9.30411E-05-2.75785E-05-2.80984E-05 1.85159E-06 4.03849E-19 7.73606E-19
 -1      1474 8.96793E-05-2.68858E-05-2.68868E-05-5.53122E-08 4.23053E-20 6.61983E-19
 -1      1475 8.97166E-05-2.68235E-05-2.69150E-05 3.38345E-08 1.04887E-20 6.71737E-19
 -1      1476 9.14883E-05-2.73074E-05-2.75148E-05 5.17478E-07 1.47450E-19 3.56124E-19
 -1      1477 8.98118E-05-2.69385E-05-2.69288E-05-2.42856E-07 2.85741E-20 4.67642E-19
 -1      1478 8.95831E-05-2.68308E-05-2.68637E-05-1.92558E-07 3.71735E-21 5.20131E-19
 -1      1479 9.09573E-05-2.72266E-05-2.73189E-05-1.32769E-07 1.25583E-19 3.20721E-19
 -1      1480 9.02656E-05-2.70812E-05-2.70674E-05-3.26392E-07 1.35294E-20 3.57660E-19
 -1      1481 8.99182E-05-2.69538E-05-2.69657E-05-2.98648E-07 6.84409E-21 3.09035E-19
 -1      1482 9.09760E-05-2.72700E-05-2.73084E-05-4.52164E-07 4.15509E-20 2.46741E-19
 -1      1483 9.08619E-05-2.72640E-05-2.72474E-05-3.51470E-07 2.51218E-19 2.97315E-19
 -1      1484 9.04734E-05-2.71333E-05-2.71336E-05-3.37654E-07 3.26455E-20 3.62557E-19
 -1      1485 9.12825E-05-2.73825E-05-2.73906E-05-5.93308E-07-7.81396E-21 5.49827E-20
 -1      1486 9.14989E-05-2.74571E-05-2.74392E-05-3.43220E-07 2.25445E-19-3.88788E-19
 -1      1487 9.11124E-05-2.73330E-05-2.73258E-05-3.38105E-07 3.30909E-19 1.52506E-19
 -1      1488 9.17264E-05-2.75271E-05-2.75176E-05-6.33246E-07 3.87107E-19 6.12941E-21
 -1      1489 9.21184E-05-2.76438E-05-2.76260E-05-3.16871E-07-1.53124E-20-5.88870E-19
 -1      1490 9.17577E-05-2.75312E-05-2.75197E-05-3.17062E-07-3.13631E-20-5.93555E-19
 -1      1491 9.22193E-05-2.76809E-05-2.76617E-05-6.15612E-07 1.92624E-19-3.39754E-19
 -1      1492 9.26896E-05-2.78151E-05-2.77984E-05-2.82193E-07 1.41271E-19-3.92299E-19
 -1      1493 9.23663E-05-2.77162E-05-2.77029E-05-2.85394E-07 1.06603E-19-4.28658E-19
 -1      1494 9.27100E-05-2.78305E-05-2.78070E-05-5.67221E-07 4.40226E-20-6.25448E-19
 -1      1495 9.31993E-05-2.79672E-05-2.79526E-05-2.45640E-07 2.80767E-19-7.83737E-19
 -1      1496 9.29169E-05-2.78823E-05-2.78689E-05-2.50259E-07 1.39971E-19-6.51757E-19
 -1      1497 9.31706E-05-2.79687E-05-2.79446E-05-5.05396E-07 3.30109E-19-4.82651E-19
 -1      1498 9.36459E-05-2.81000E-05-2.80878E-05-2.11580E-07 5.82798E-20-1.00009E-18
 -1      1499 9.34029E-05-2.80278E-05-2.80156E-05-2.16480E-07 1.87603E-19-9.04497E-19
 -1      1500 9.35887E-05-2.80926E-05-2.80703E-05-4.41680E-07 3.23609E-19-6.57618E-19
 -1      1501 9.40358E-05-2.82155E-05-2.82062E-05-1.83110E-07 1.25742E-19-1.24343E-18
 -1      1502 9.38270E-05-2.81540E-05-2.81438E-05-1.87436E-07 8.54043E-20-1.22803E-18
 -1      1503 9.39627E-05-2.82022E-05-2.81834E-05-3.84030E-07 3.07988E-19-1.05050E-18
 -1      1504 9.43820E-05-2.83176E-05-2.83114E-05-1.62675E-07-1.57228E-19-1.03550E-18
 -1      1505 9.41992E-05-2.82639E-05-2.82567E-05-1.65715E-07-9.57033E-20-1.17948E-18
 -1      1506 9.42984E-05-2.82996E-05-2.82856E-05-3.38305E-07-1.01520E-19-1.02580E-18
 -1      1507 9.47022E-05-2.84115E-05-2.84090E-05-1.52615E-07-1.98900E-19-4.19201E-19
 -1      1508 9.45351E-05-2.83622E-05-2.83587E-05-1.53668E-07-1.22140E-19-7.80422E-19
 -1      1509 9.46079E-05-2.83883E-05-2.83803E-05-3.09449E-07-2.28148E-19-3.71968E-19
 -1      1510 9.50201E-05-2.85042E-05-2.85060E-05-1.55746E-07 1.73508E-19-2.64550E-19
 -1      1511 9.48553E-05-2.84550E-05-2.84561E-05-1.53968E-07-9.54318E-20-3.12432E-19
 -1      1512 9.49083E-05-2.84734E-05-2.84730E-05-3.02598E-07-9.67080E-20-6.40621E-19
 -1      1513 9.53664E-05-2.86046E-05-2.86119E-05-1.76050E-07 8.47487E-19-1.70326E-18
 -1      1514 9.51868E-05-2.85500E-05-2.85574E-05-1.70261E-07 7.61570E-19-5.68429E-19
 -1      1515 9.52230E-05-2.85616E-05-2.85708E-05-3.24283E-07 8.42426E-19-6.98410E-19
 -1      1516 9.57823E-05-2.87246E-05-2.87393E-05-2.19633E-07-7.66899E-19-2.17831E-18
 -1      1517 9.55651E-05-2.86573E-05-2.86732E-05-2.08029E-07 9.60481E-20-1.93969E-18
 -1      1518 9.55832E-05-2.86613E-05-2.86835E-05-3.83969E-07 6.68149E-19-6.93325E-19
 -1      1519 9.63254E-05-2.88805E-05-2.89060E-05-2.96121E-07 3.48574E-21-1.32273E-18
 -1      1520 9.60382E-05-2.87901E-05-2.88184E-05-2.75832E-07-6.90433E-19-2.07830E-18
 -1      1521 9.60310E-05-2.87840E-05-2.88246E-05-4.96181E-07-9.10633E-19-1.21367E-18
 -1      1522 9.70780E-05-2.90959E-05-2.91375E-05-4.20750E-07-7.87099E-19-7.01379E-19
 -1      1523 9.66739E-05-2.89672E-05-2.90142E-05-3.87144E-07-4.12144E-19-1.14708E-18
 -1      1524 9.66251E-05-2.89453E-05-2.90129E-05-6.83623E-07-6.24217E-19-8.16880E-19
 -1      1525 9.81616E-05-2.94052E-05-2.94716E-05-6.17495E-07-1.83737E-19 2.84115E-19
 -1      1526 9.75705E-05-2.92152E-05-2.92911E-05-5.63078E-07-2.48252E-19-7.72148E-20
 -1      1527 9.74486E-05-2.91669E-05-2.92754E-05-9.81773E-07-1.05219E-18 1.11884E-20
 -1      1528 9.97578E-05-2.98594E-05-2.99652E-05-9.23549E-07 1.66144E-19 1.99615E-20
 -1      1529 9.88725E-05-2.95731E-05-2.96946E-05-8.36271E-07-9.81036E-20 1.91719E-19
 -1      1530 9.86211E-05-2.94795E-05-2.96512E-05-1.44547E-06 7.46812E-20 1.29544E-19
 -1      1531 1.02137E-04-3.05354E-05-3.07035E-05-1.39501E-06 1.34069E-19 1.94182E-19
 -1      1532 1.00795E-04-3.00990E-05-3.02926E-05-1.25586E-06 3.25644E-20 1.38073E-19
 -1      1533 1.00314E-04-2.99271E-05-3.01970E-05-2.15758E-06 8.47761E-20-6.70501E-19
 -1      1534 1.05698E-04-3.15464E-05-3.18119E-05-2.11190E-06 3.49666E-20 9.89970E-20
 -1      1535 1.03653E-04-3.08787E-05-3.11854E-05-1.89209E-06 2.62885E-19 3.38866E-19
 -1      1536 1.02772E-04-3.05725E-05-3.09935E-05-3.23790E-06 2.18270E-19-8.34079E-19
 -1      1537 1.10997E-04-3.30561E-05-3.34639E-05-3.17479E-06 1.77546E-19 2.35052E-20
 -1      1538 1.07899E-04-3.20387E-05-3.25157E-05-2.83470E-06-7.56837E-20 5.70821E-20
 -1      1539 1.06328E-04-3.15048E-05-3.21495E-05-4.84422E-06 9.12810E-20-7.45733E-19
 -1      1540 1.18740E-04-3.52865E-05-3.58653E-05-4.67042E-06 4.05603E-19-1.06689E-18
 -1      1541 1.14135E-04-3.37621E-05-3.44672E-05-4.16748E-06 2.32517E-19-6.55921E-20
 -1      1542 1.11406E-04-3.28512E-05-3.37945E-05-7.14053E-06 2.55169E-20 4.00355E-21
 -1      1543 1.29601E-04-3.85016E-05-3.91640E-05-6.54790E-06-8.44320E-20-1.86072E-18
 -1      1544 1.23051E-04-3.63041E-05-3.72230E-05-5.87464E-06 2.31055E-19-1.27177E-18
 -1      1545 1.18468E-04-3.47990E-05-3.60359E-05-1.01672E-05 5.63978E-19-3.96650E-19
 -1      1546 1.43642E-04-4.29039E-05-4.32006E-05-8.28525E-06-7.42408E-19-6.07111E-19
 -1      1547 1.35146E-04-3.99907E-05-4.08232E-05-7.58909E-06-7.27363E-19-1.28770E-18
 -1      1548 1.27847E-04-3.76388E-05-3.88417E-05-1.34741E-05-8.95770E-19 1.99503E-19
 -1      1549 1.58952E-04-4.82675E-05-4.70915E-05-8.23024E-06-6.84389E-19 1.45499E-18
 -1      1550 1.49967E-04-4.50960E-05-4.48658E-05-8.08577E-06-7.18390E-19 2.40663E-19
 -1      1551 1.39368E-04-4.18022E-05-4.18386E-05-1.53271E-05-1.40539E-18 1.15625E-18
 -1      1552 1.69520E-04-5.28737E-05-4.90877E-05-3.24679E-06-1.00956E-18 2.74396E-18
 -1      1553 1.64556E-04-5.11623E-05-4.81983E-05-4.81797E-06-6.54121E-19 1.49755E-18
 -1      1554 1.51646E-04-4.75581E-05-4.42218E-05-1.17369E-05-1.46081E-18 1.40299E-18
 -1      1555 1.65460E-04-5.24995E-05-4.77423E-05 8.95293E-06-2.42900E-19 3.85908E-18
 -1      1556 1.71757E-04-5.53603E-05-4.92696E-05 4.69583E-06-4.62268E-19 3.06287E-18
 -1      1557 1.61142E-04-5.36484E-05-4.53459E-05 2.33302E-06-1.18526E-18 1.71794E-18
 -1      1558 1.44405E-04-4.37697E-05-4.42756E-05 2.00561E-05-8.21516E-19 4.75185E-18
 -1      1559 1.62227E-04-5.17667E-05-4.74210E-05 1.61388E-05-7.93564E-19 3.54568E-18
 -1      1560 1.62108E-04-5.35861E-05-4.63179E-05 2.33700E-05-1.07181E-18 1.99450E-18
 -1      1561 1.20364E-04-3.13692E-05-4.17013E-05 1.65695E-05 4.97632E-20 5.09427E-18
 -1      1562 1.38225E-04-3.91632E-05-4.43637E-05 1.76327E-05-1.67289E-19 5.18554E-18
 -1      1563 1.54063E-04-4.38978E-05-4.79568E-05 3.19738E-05-9.77900E-19 3.09058E-18
 -1      1564 1.14199E-04-2.73680E-05-4.13847E-05-1.68617E-06 1.01559E-18 3.86999E-18
 -1      1565 1.17771E-04-2.81673E-05-4.19485E-05 3.81561E-06 5.01444E-19 4.93884E-18
 -1      1566 1.45608E-04-3.30024E-05-4.99011E-05 1.43189E-05 3.58295E-19 3.19529E-18
 -1      1567 1.28238E-04-3.46303E-05-4.27515E-05-1.71088E-05 8.72020E-19 3.13614E-18
 -1      1568 1.17299E-04-2.88790E-05-4.13023E-05-1.26258E-05 1.25128E-18 4.16041E-18
 -1      1569 1.46128E-04-3.39188E-05-4.98839E-05-1.49498E-05 1.61317E-18 3.47955E-18
 -1      1570 1.54446E-04-4.78559E-05-4.57739E-05-1.95905E-05 1.34509E-18 1.37050E-18
 -1      1571 1.34772E-04-3.93541E-05-4.26510E-05-1.91186E-05 9.75570E-19 1.88084E-18
 -1      1572 1.54406E-04-4.46495E-05-4.82360E-05-3.14108E-05 1.59327E-18 2.32325E-18
 -1      1573 1.71310E-04-5.46839E-05-4.86891E-05-8.22997E-06 1.35075E-19-1.03762E-20
 -1      1574 1.57870E-04-5.00074E-05-4.59976E-05-1.14527E-05 9.57703E-19 7.60636E-19
 -1      1575 1.62106E-04-5.40981E-05-4.65109E-05-2.36902E-05 1.52275E-18-2.14723E-19
 -1      1576 1.69982E-04-5.28785E-05-4.91919E-05 3.27497E-06-1.21319E-18 2.20623E-18
 -1      1577 1.68761E-04-5.33215E-05-4.86025E-05 3.66987E-07-1.29067E-18 9.76205E-20
 -1      1578 1.60921E-04-5.39328E-05-4.55553E-05-3.74634E-06-8.76520E-19 4.73227E-19
 -1      1579 1.56709E-04-4.73196E-05-4.66456E-05 8.30961E-06 1.06933E-18 2.83301E-18
 -1      1580 1.63935E-04-5.04129E-05-4.81739E-05 7.11065E-06 5.30401E-19 3.41225E-18
 -1      1581 1.51763E-04-4.81484E-05-4.41622E-05 1.08677E-05-6.90544E-19 9.81076E-19
 -1      1582 1.40893E-04-4.19017E-05-4.25782E-05 8.32450E-06-5.95849E-19 2.92766E-18
 -1      1583 1.50180E-04-4.51641E-05-4.49812E-05 8.29049E-06 3.40977E-19 2.97859E-18
 -1      1584 1.39457E-04-4.20083E-05-4.16839E-05 1.54663E-05 5.32466E-19 1.59629E-18
 -1      1585 1.27236E-04-3.77004E-05-3.85885E-05 6.58673E-06 6.53473E-19 2.38599E-18
 -1      1586 1.35287E-04-4.02498E-05-4.08693E-05 6.93622E-06-2.01455E-19 2.59393E-18
 -1      1587 1.27824E-04-3.76135E-05-3.86841E-05 1.40573E-05-1.15369E-19 6.63042E-19
 -1      1588 1.16868E-04-3.46809E-05-3.53857E-05 4.72544E-06 7.58558E-20 1.82319E-18
 -1      1589 1.22880E-04-3.64707E-05-3.71650E-05 5.10013E-06 1.32111E-19 2.27979E-18
 -1      1590 1.18291E-04-3.46730E-05-3.58857E-05 1.08276E-05 2.00469E-19 1.21938E-18
 -1      1591 1.09470E-04-3.25776E-05-3.30542E-05 3.24682E-06-5.02939E-19 1.54049E-18
 -1      1592 1.13667E-04-3.37831E-05-3.43189E-05 3.54280E-06 3.47231E-19 1.68099E-18
 -1      1593 1.11059E-04-3.26792E-05-3.36351E-05 7.72958E-06 4.98929E-19 2.45217E-18
 -1      1594 1.04342E-04-3.11301E-05-3.14333E-05 2.19617E-06 1.16101E-18 2.53528E-19
 -1      1595 1.07188E-04-3.19323E-05-3.22951E-05 2.40589E-06 5.88423E-20 4.27341E-19
 -1      1596 1.05810E-04-3.13003E-05-3.19642E-05 5.33127E-06 5.53119E-19-8.20836E-20
 -1      1597 1.00826E-04-3.01360E-05-3.03270E-05 1.48285E-06 7.97534E-19-2.45914E-18
 -1      1598 1.02740E-04-3.06708E-05-3.09055E-05 1.62512E-06 7.54025E-19-8.33090E-19
 -1      1599 1.02087E-04-3.03339E-05-3.07733E-05 3.63115E-06 1.39162E-18-1.50067E-18
 -1      1600 9.84257E-05-2.94526E-05-2.95787E-05 9.99736E-07-4.48567E-19-2.66765E-18
 -1      1601 9.97106E-05-2.98103E-05-2.99644E-05 1.09638E-06-6.31175E-19-2.04093E-18
 -1      1602 9.94784E-05-2.96508E-05-2.99421E-05 2.46426E-06-5.05900E-19-2.14991E-18
 -1      1603 9.68160E-05-2.89873E-05-2.90835E-05 6.50112E-07-8.88385E-19-8.84535E-19
 -1      1604 9.76603E-05-2.92206E-05-2.93346E-05 7.23480E-07-5.89460E-19-1.31947E-18
 -1      1605 9.76686E-05-2.91629E-05-2.93724E-05 1.64995E-06-1.66368E-18 6.06532E-19
 -1      1606 9.58163E-05-2.86948E-05-2.87788E-05 3.68978E-07-1.60806E-18 1.79801E-18
 -1      1607 9.63195E-05-2.88280E-05-2.89278E-05 4.31991E-07-1.00440E-18 1.55286E-19
 -1      1608 9.64506E-05-2.88248E-05-2.89956E-05 1.03412E-06-1.77091E-18 3.10546E-18
 -1      1609 9.53340E-05-2.85554E-05-2.86171E-05 1.05039E-07-9.35192E-19 4.15808E-18
 -1      1610 9.55278E-05-2.85892E-05-2.86889E-05 1.71407E-07-8.47807E-19 2.65055E-18
 -1      1611 9.56834E-05-2.85994E-05-2.87625E-05 5.10157E-07-2.05798E-18 3.87411E-18
 -1      1612 9.52303E-05-2.85545E-05-2.85657E-05-1.01056E-08 2.74469E-18 2.38599E-18
 -1      1613 9.51857E-05-2.81774E-05-2.87269E-05 2.88323E-07 6.32298E-18 5.50920E-19
 -1      1614 9.52578E-05-2.83936E-05-2.86527E-05 2.22105E-07 5.23041E-18 1.66615E-18
 -1      1615 9.49370E-05-2.74511E-05-2.89282E-05 4.93822E-07 3.08338E-18-2.52042E-18
 -1      1616 9.50838E-05-2.78711E-05-2.88109E-05 4.50984E-07 6.81915E-18-1.50886E-18
 -1      1617 9.51420E-05-2.78999E-05-2.88294E-05 7.28676E-07 9.87463E-19-1.29848E-18
 -1      1618 9.46246E-05-2.65753E-05-2.91647E-05 5.46716E-07-8.31307E-19-2.25318E-18
 -1      1619 9.47974E-05-2.70721E-05-2.90283E-05 5.49506E-07 3.41250E-18-2.12579E-18
 -1      1620 9.48693E-05-2.72016E-05-2.90028E-05 1.00851E-06 9.06951E-19-3.53076E-18
 -1      1621 9.43587E-05-2.57948E-05-2.93824E-05 4.52525E-07-2.03662E-18-1.40768E-18
 -1      1622 9.45051E-05-2.62253E-05-2.92623E-05 4.82780E-07-4.35716E-19-1.00333E-18
 -1      1623 9.45709E-05-2.64612E-05-2.91832E-05 9.87514E-07-2.52810E-19-2.41376E-18
 -1      1624 9.41911E-05-2.52828E-05-2.95291E-05 2.66878E-07-1.26221E-18 1.38264E-18
 -1      1625 9.42784E-05-2.55488E-05-2.94537E-05 3.09855E-07-2.99907E-18 1.30942E-19
 -1      1626 9.43422E-05-2.58614E-05-2.93360E-05 7.30582E-07-7.17175E-19-1.39205E-18
 -1      1627 9.41395E-05-2.51035E-05-2.95842E-05 4.49017E-08 5.34338E-19 3.41158E-19
 -1      1628 9.41596E-05-2.51741E-05-2.95633E-05 8.99926E-08-7.32884E-19 1.32940E-18
 -1      1629 9.42174E-05-2.55102E-05-2.94311E-05 3.40342E-07-8.66540E-19 1.76622E-18
 -1      1630 9.42009E-05-2.52610E-05-2.95443E-05-1.54639E-07-1.73817E-19-5.08240E-19
 -1      1631 9.41583E-05-2.51443E-05-2.95763E-05-1.18760E-07 1.19883E-18-1.19198E-18
 -1      1632 9.42075E-05-2.54526E-05-2.94532E-05-7.39601E-08-1.55152E-18 2.79974E-19
 -1      1633 9.43453E-05-2.56769E-05-2.94292E-05-2.94932E-07 1.03763E-18 5.89153E-19
 -1      1634 9.42587E-05-2.54235E-05-2.95006E-05-2.73462E-07 5.24169E-19 1.32202E-18
 -1      1635 9.42977E-05-2.56671E-05-2.94039E-05-4.15390E-07 1.64958E-19 2.90125E-19
 -1      1636 9.45335E-05-2.62409E-05-2.92691E-05-3.62861E-07-8.43671E-19-7.22824E-19
 -1      1637 9.44256E-05-2.59161E-05-2.93618E-05-3.56226E-07 8.95974E-19-3.43164E-19
 -1      1638 9.44542E-05-2.60783E-05-2.92997E-05-6.31219E-07-3.40551E-19-5.39836E-19
 -1      1639 9.47283E-05-2.68427E-05-2.90951E-05-3.65294E-07-2.43399E-18-1.23818E-18
 -1      1640 9.46198E-05-2.65082E-05-2.91916E-05-3.70477E-07-2.70571E-19-1.06743E-18
 -1      1641 9.46385E-05-2.65902E-05-2.91637E-05-7.11672E-07-1.40403E-18-1.10201E-18
 -1      1642 9.49000E-05-2.73886E-05-2.89346E-05-3.22438E-07-2.14617E-18 1.30852E-18
 -1      1643 9.48065E-05-2.70936E-05-2.90206E-05-3.34315E-07-2.38121E-18-1.44661E-19
 -1      1644 9.48167E-05-2.71094E-05-2.90206E-05-6.80335E-07-8.75943E-19-1.18616E-18
 -1      1645 9.50402E-05-2.78472E-05-2.87979E-05-2.54847E-07-6.48195E-19 1.88259E-18
 -1      1646 9.49656E-05-2.76066E-05-2.88686E-05-2.69595E-07-1.92339E-18 2.97652E-18
 -1      1647 9.49685E-05-2.75752E-05-2.88875E-05-5.77303E-07-4.25336E-21 3.25542E-18
 -1      1648 9.51416E-05-2.81878E-05-2.86952E-05-1.81618E-07-1.58803E-18-6.28673E-19
 -1      1649 9.50889E-05-2.80149E-05-2.87462E-05-1.95468E-07-1.57442E-18 1.69815E-18
 -1      1650 9.50860E-05-2.79553E-05-2.87753E-05-4.40589E-07-8.57704E-21 3.13547E-19
 -1      1651 9.52073E-05-2.84088E-05-2.86272E-05-1.13623E-07-2.45306E-18-3.30393E-19
 -1      1652 9.51730E-05-2.83038E-05-2.86588E-05-1.24249E-07-1.93183E-18-3.88614E-19
 -1      1653 9.51696E-05-2.82346E-05-2.86905E-05-2.99589E-07-7.67371E-19-6.72167E-19
 -1      1654 9.52456E-05-2.85146E-05-2.85969E-05-7.14174E-08-1.07796E-18-4.61672E-20
 -1      1655 9.52333E-05-2.84692E-05-2.86136E-05-9.19766E-08-1.59312E-18 1.75570E-19
 -1      1656 9.52333E-05-2.84045E-05-2.86424E-05-2.02418E-07-1.09332E-18 4.49788E-20
 -1      1657 9.52874E-05-2.85119E-05-2.86193E-05-1.42878E-07-3.33925E-19 1.73347E-19
 -1      1658 2.26554E-05-8.13050E-05 1.83216E-05-1.51872E-05 8.05232E-18 2.05278E-18
 -1      1659 2.52852E-05-8.57973E-05 1.91421E-05-4.28582E-06 7.23165E-18 1.13354E-18
 -1      1660 1.94376E-05-5.65510E-05 9.78071E-06-1.18139E-05 5.85808E-18 1.55536E-19
 -1      1661 2.55594E-05-7.79098E-05 1.52489E-05-1.10226E-05 8.13914E-18 1.69322E-18
 -1      1662 3.12852E-05-2.54891E-05-7.04076E-06 1.17188E-05 1.03169E-18-1.24599E-18
 -1      1663 2.79381E-05-5.04704E-05 2.64188E-06-5.39090E-06 4.00138E-18-1.93124E-19
 -1      1664 7.85078E-05-1.33023E-05-2.94603E-05 4.87113E-05 1.14519E-18 2.58514E-18
 -1      1665 5.15518E-05-2.31170E-05-1.75162E-05 2.14149E-05-1.02491E-19 6.48827E-19
 -1      1666 1.59927E-04-2.87481E-05-5.31311E-05 7.42694E-05 2.91888E-18 6.08678E-18
 -1      1667 1.08640E-04-1.72014E-05-4.09270E-05 5.44825E-05 2.11165E-18 4.32495E-18
 -1      1668 2.52555E-04-6.12176E-05-7.34950E-05 6.44731E-05 3.17764E-18 3.60836E-19
 -1      1669 1.92818E-04-3.68018E-05-6.34151E-05 6.88167E-05 3.80445E-18 3.99630E-18
 -1      1670 3.12329E-04-8.41052E-05-8.56507E-05 2.44169E-05 1.05180E-18-3.70280E-18
 -1      1671 2.75361E-04-6.61391E-05-8.06299E-05 5.54539E-05 1.77273E-18-1.64324E-19
 -1      1672 3.03846E-04-7.79296E-05-8.56519E-05-3.13746E-05 1.32476E-18-5.43287E-18
 -1      1673 3.15336E-04-8.36978E-05-8.70929E-05 1.10923E-05 3.19331E-19-4.92740E-18
 -1      1674 2.30795E-04-4.95462E-05-7.18966E-05-6.04719E-05 1.00479E-18-4.35375E-18
 -1      1675 2.86149E-04-7.47635E-05-8.05028E-05-3.96956E-05 1.23201E-18-4.67139E-18
 -1      1676 1.43079E-04-2.24822E-05-5.12426E-05-6.50459E-05 4.45539E-19-3.02899E-18
 -1      1677 2.02466E-04-4.29397E-05-6.30118E-05-7.50294E-05 1.04439E-18-4.87383E-18
 -1      1678 7.10555E-05-1.75765E-05-2.68447E-05-3.56539E-05 2.77827E-19-2.27852E-19
 -1      1679 1.09899E-04-1.63392E-05-3.96839E-05-6.29675E-05 4.06576E-20-1.55854E-18
 -1      1680 3.77438E-05-4.03955E-05-4.76002E-06-5.60659E-06 3.20856E-18-1.31714E-19
 -1      1681 4.94860E-05-2.02298E-05-1.57006E-05-2.73954E-05 1.14349E-18 2.22770E-19
 -1      1682 2.70044E-05-6.75183E-05 1.09139E-05 7.10945E-06 4.50452E-18-1.08595E-18
 -1      1683 2.40084E-05-4.40858E-05 3.66180E-06 7.49158E-07 3.34070E-18 5.33631E-19
 -1      1684 2.57178E-05-8.69208E-05 1.90299E-05 7.67620E-06 5.68857E-18-9.52912E-20
 -1      1685 2.03081E-05-7.49810E-05 1.66590E-05 1.73703E-05 5.09194E-18-1.27669E-18
 -1      1686 2.25049E-05-7.47166E-05 1.65091E-05-8.56717E-08 3.14419E-18-1.08039E-18
 -1      1687 2.50157E-05-8.43447E-05 1.87312E-05 1.02993E-05 5.28422E-18-6.42474E-19
 -1      1688 1.96927E-05-4.50783E-05 6.46632E-06 3.02152E-06-6.69156E-19-1.54224E-18
 -1      1689 2.59160E-05-7.07445E-05 1.28819E-05 2.35118E-06 1.85500E-18-1.42386E-18
 -1      1690 3.02147E-05-1.18986E-05-9.93976E-06 2.71577E-05-2.99172E-18-4.00181E-18
 -1      1691 2.74055E-05-3.63555E-05-9.72561E-07 1.03648E-05-1.38913E-18-2.14553E-18
 -1      1692 6.62475E-05 3.83052E-06-2.94739E-05 6.11438E-05-5.06102E-18-5.00596E-18
 -1      1693 4.52447E-05-6.25751E-06-1.92159E-05 3.68573E-05-4.04628E-18-4.09795E-18
 -1      1694 1.28256E-04-6.21677E-06-4.91645E-05 8.54744E-05-4.80861E-18-8.55080E-18
 -1      1695 8.89805E-05 2.92131E-06-3.92300E-05 6.83379E-05-4.92550E-18-6.44846E-18
 -1      1696 1.99280E-04-3.37885E-05-6.57416E-05 8.25324E-05-4.13839E-18-8.69649E-18
 -1      1697 1.54102E-04-1.27485E-05-5.77866E-05 8.52283E-05-4.53036E-18-8.99125E-18
 -1      1698 2.56064E-04-6.12009E-05-7.71120E-05 4.38807E-05-1.71948E-18-8.64524E-18
 -1      1699 2.21130E-04-4.16873E-05-7.19904E-05 7.06820E-05-2.86985E-18-8.98533E-18
 -1      1700 2.70811E-04-6.81183E-05-8.05646E-05-1.29558E-05-8.66938E-19-6.00652E-18
 -1      1701 2.67636E-04-6.58437E-05-8.00241E-05 2.61709E-05-1.17674E-18-7.38909E-18
 -1      1702 2.31804E-04-4.73508E-05-7.43233E-05-5.50978E-05-8.55503E-19-2.09810E-18
 -1      1703 2.56361E-04-6.10587E-05-7.79426E-05-2.69024E-05-9.50794E-19-3.80233E-18
 -1      1704 1.76063E-04-2.11875E-05-6.29943E-05-8.41015E-05 3.89635E-20-7.17437E-19
 -1      1705 2.19793E-04-4.36764E-05-7.01048E-05-7.29769E-05 3.14673E-19-8.53809E-19
 -1      1706 1.09074E-04-2.69615E-06-4.48140E-05-7.21698E-05 1.61699E-18-5.55654E-19
 -1      1707 1.52740E-04-1.62816E-05-5.46276E-05-8.42240E-05 1.06641E-18-2.54110E-19
 -1      1708 6.02448E-05-8.92829E-06-2.38271E-05-4.36227E-05-1.60259E-18 1.58395E-19
 -1      1709 8.78684E-05-4.05589E-06-3.47566E-05-6.73676E-05-3.03238E-19-7.18284E-19
 -1      1710 2.86555E-05-3.03570E-05-3.88411E-06-1.35295E-05-2.97139E-18 9.69853E-19
 -1      1711 3.49343E-05-7.11303E-06-1.36289E-05-3.36857E-05-2.55296E-18 5.59889E-19
 -1      1712 2.56120E-05-6.41322E-05 1.04208E-05-2.08710E-06 4.64598E-18 1.82620E-18
 -1      1713 2.05568E-05-3.90443E-05 3.85051E-06-6.12794E-06-9.31736E-19 3.71191E-18
 -1      1714 2.64680E-05-8.53247E-05 1.83039E-05-6.43777E-06 5.84707E-18 1.53313E-19
 -1      1715 2.22488E-05-7.11992E-05 1.50833E-05 2.09311E-06 4.98902E-18-4.39716E-19
 -1      1716 1.30065E-04-4.89101E-05-3.53748E-05 3.63702E-05 1.52466E-20 3.99630E-18
 -1      1717 7.43254E-05-4.80490E-05-1.44980E-05 2.93242E-05 1.32307E-18 3.33731E-19
 -1      1718 9.53057E-05-2.85283E-05-2.86219E-05 9.75420E-08 3.13334E-18 2.27741E-18
 -1      1719 9.53694E-05-2.83593E-05-2.87171E-05 3.81638E-07-7.07715E-20 3.27363E-18
 -1      1720 1.61500E-05-5.58824E-05 1.21156E-05 2.95314E-06 5.01528E-18 1.10961E-18
 -1      1721 3.57396E-05-5.20890E-05 2.39121E-06 1.60101E-05 4.20044E-18-2.92343E-18
 -1      1722 1.20966E-05-5.69323E-05 1.42875E-05-9.24799E-06 3.50100E-18 2.36661E-18
 -1      1723 1.90841E-04-5.25360E-05-5.59193E-05 2.95943E-05 2.80114E-18 2.29631E-18
 -1      1724 2.35360E-04-5.07052E-05-7.19298E-05 1.59614E-05 3.81631E-18-1.59327E-18
 -1      1725 2.57226E-04-4.76611E-05-8.01968E-05 5.22989E-06 1.58565E-18-3.08913E-18
 -1      1726 2.44919E-04-4.73635E-05-7.66836E-05-3.56527E-06 9.23266E-19-2.93709E-18
 -1      1727 2.13768E-04-5.23637E-05-6.40164E-05-1.90736E-05-2.00323E-19-1.69915E-18
 -1      1728 1.56814E-04-5.01618E-05-4.45640E-05-3.56230E-05-6.89908E-19-2.46995E-18
 -1      1729 9.75116E-05-4.96735E-05-2.28876E-05-3.32753E-05 5.65818E-19 6.25957E-19
 -1      1730 5.32167E-05-5.14668E-05-4.42717E-06-2.55299E-05 2.73253E-18 7.99599E-19
 -1      1731 2.25068E-05-5.32170E-05 8.84636E-06-1.12817E-05 2.68933E-18-2.23193E-19
 -1      1732 1.13369E-05-5.59678E-05 1.41976E-05 6.49395E-06 3.28474E-18-5.29819E-19
 -1      1733 1.72186E-05-5.20461E-05 1.06155E-05 1.81122E-05 1.39676E-18-3.07981E-18
 -1      1734 3.56195E-05-4.32056E-05 2.95056E-08 3.06636E-05-6.73391E-19-2.85125E-18
 -1      1735 6.61745E-05-3.23450E-05-1.58966E-05 4.38871E-05-2.16163E-18-4.62946E-18
 -1      1736 1.07450E-04-2.63527E-05-3.40430E-05 5.35096E-05-2.86128E-18-5.13810E-18
 -1      1737 1.53743E-04-2.69853E-05-5.15678E-05 5.43627E-05-3.31402E-18-7.37596E-18
 -1      1738 1.95536E-04-3.18410E-05-6.57816E-05 4.12627E-05-3.38993E-18-8.01632E-18
 -1      1739 2.22334E-04-3.58830E-05-7.44549E-05 1.72431E-05-2.06041E-18-6.73158E-18
 -1      1740 2.18349E-04-3.31399E-05-7.46368E-05-6.81630E-06-2.34205E-18-4.81538E-18
 -1      1741 2.00160E-04-3.03508E-05-6.82996E-05-3.17095E-05-1.03190E-18-1.78893E-18
 -1      1742 1.68739E-04-3.01216E-05-5.61929E-05-4.79196E-05 1.39697E-18-5.12455E-19
 -1      1743 1.26749E-04-3.43803E-05-3.87740E-05-4.89581E-05 2.87991E-20-4.86197E-19
 -1      1744 8.05560E-05-3.47295E-05-1.99651E-05-4.76331E-05-1.15874E-18-9.84676E-19
 -1      1745 4.05238E-05-4.09528E-05-2.71048E-06-3.31199E-05 4.69256E-19 2.71622E-18
 -1      1746 2.06814E-05-5.19735E-05 9.09244E-06-2.04590E-05 3.35044E-18 2.51696E-18
 -1      1747 1.06048E-04-2.31698E-05-3.56028E-05-1.68526E-05-3.83640E-19 3.23588E-18
 -1      1748 8.91521E-05-1.05872E-05-3.37960E-05-1.33268E-05-7.23052E-19 2.13505E-19
 -1      1749 9.04817E-05-1.16314E-05-3.39352E-05-1.51356E-05-7.71548E-19 5.58195E-19
 -1      1750 9.24882E-05-1.38751E-05-3.38533E-05-1.60009E-05-7.52620E-19 8.74509E-19
 -1      1751 9.42050E-05-1.58216E-05-3.40970E-05-1.76619E-05-7.41921E-19 1.27971E-18
 -1      1752 9.34166E-05-1.63480E-05-3.30440E-05-1.37687E-05-7.66254E-19 7.16749E-19
 -1      1753 8.62126E-05-7.67356E-06-3.37307E-05-7.86434E-06-5.97006E-19-4.15536E-19
 -1      1754 8.66162E-05-7.97164E-06-3.37646E-05-9.25314E-06-6.61493E-19-2.95641E-19
 -1      1755 8.55969E-05-7.03622E-06-3.37281E-05-5.32068E-06-4.68172E-19-5.24419E-19
 -1      1756 8.58311E-05-7.21495E-06-3.37430E-05-6.62532E-06-5.33147E-19-4.79791E-19
 -1      1757 8.75958E-05-9.86688E-06-3.33442E-05-6.92996E-06-6.27236E-19-3.45801E-19
 -1      1758 8.52626E-05-6.67742E-06-3.37317E-05-2.88911E-06-2.91570E-19-5.99130E-19
 -1      1759 8.53832E-05-6.77214E-06-3.37375E-05-4.12885E-06-3.53691E-19-5.51723E-19
 -1      1760 8.69610E-05-9.15498E-06-3.33778E-05-4.53777E-06-3.95434E-19-4.17534E-19
 -1      1761 8.51321E-05-6.52928E-06-3.37353E-05-5.17669E-07-1.44305E-19-7.08199E-19
 -1      1762 8.51676E-05-6.55779E-06-3.37367E-05-1.72736E-06-1.96121E-19-6.91880E-19
 -1      1763 8.66295E-05-8.77595E-06-3.33981E-05-2.21754E-06-2.29242E-19-5.72144E-19
 -1      1764 8.51774E-05-6.56684E-06-3.37368E-05 1.84516E-06-4.96755E-20-7.28594E-19
 -1      1765 8.51358E-05-6.53388E-06-3.37352E-05 6.34435E-07-1.02837E-19-6.97492E-19
 -1      1766 8.65316E-05-8.66247E-06-3.34048E-05 6.52376E-08-1.14183E-19-6.96413E-19
 -1      1767 8.54082E-05-6.79714E-06-3.37376E-05 4.25124E-06 2.96553E-20-8.06759E-19
 -1      1768 8.52804E-05-6.69642E-06-3.37316E-05 3.00834E-06-9.05763E-22-7.86973E-19
 -1      1769 8.66471E-05-8.79566E-06-3.33974E-05 2.34932E-06-1.19482E-20-6.83747E-19
 -1      1770 8.58648E-05-7.25055E-06-3.37428E-05 6.71262E-06 1.46892E-19-7.34179E-19
 -1      1771 8.56270E-05-7.06826E-06-3.37281E-05 5.42531E-06 9.25193E-20-7.60278E-19
 -1      1772 8.69950E-05-9.19280E-06-3.33763E-05 4.65270E-06 8.51888E-20-7.26430E-19
 -1      1773 8.66775E-05-8.04054E-06-3.37631E-05 9.37456E-06 4.39792E-19-7.13043E-19
 -1      1774 8.62570E-05-7.72392E-06-3.37296E-05 7.95360E-06 3.24799E-19-7.11190E-19
 -1      1775 8.76468E-05-9.92570E-06-3.33417E-05 7.02798E-06 2.94580E-19-6.60606E-19
 -1      1776 8.80888E-05-9.38818E-06-3.38180E-05 1.22537E-05 5.40400E-19-6.44433E-19
 -1      1777 8.73494E-05-8.83035E-06-3.37462E-05 1.06607E-05 4.99756E-19-7.10489E-19
 -1      1778 8.87674E-05-1.11607E-05-3.32908E-05 9.50255E-06 4.79333E-19-6.34586E-19
 -1      1779 9.06313E-05-1.18402E-05-3.39275E-05 1.53022E-05 6.80723E-19-3.05911E-19
 -1      1780 8.92517E-05-1.07410E-05-3.37880E-05 1.35125E-05 6.22907E-19-4.95303E-19
 -1      1781 9.06635E-05-1.32232E-05-3.32074E-05 1.19747E-05 6.25170E-19-4.88897E-19
 -1      1782 9.58743E-05-1.70343E-05-3.39925E-05 1.76900E-05 7.14770E-19 2.55275E-19
 -1      1783 9.28557E-05-1.43432E-05-3.38266E-05 1.61932E-05 6.81590E-19-8.99973E-20
 -1      1784 9.39694E-05-1.68870E-05-3.30240E-05 1.38937E-05 7.15720E-19-1.62445E-19
 -1      1785 1.01922E-04-2.50937E-05-3.33582E-05 1.44221E-05 6.55233E-19 1.09903E-18
 -1      1786 9.80742E-05-1.96162E-05-3.36244E-05 1.69638E-05 6.67058E-19 5.57930E-19
 -1      1787 9.73276E-05-2.18539E-05-3.24271E-05 1.32479E-05 7.08411E-19 3.07844E-19
 -1      1788 9.87493E-05-2.61346E-05-3.13415E-05 9.43465E-06 5.78735E-19 9.42364E-19
 -1      1789 1.00153E-04-1.95627E-05-3.42170E-05-1.88687E-05-5.59796E-19 1.99900E-18
 -1      1790 9.53086E-05-2.72849E-05-2.91845E-05 4.06656E-06 5.52464E-19 6.66390E-19
 -1      1791 9.77389E-05-2.73901E-05-3.01936E-05 6.40059E-06 5.61345E-19 8.42014E-19
 -1      1792 9.75744E-05-2.56143E-05-3.08321E-05 8.75945E-06 6.05470E-19 5.26113E-19
 -1      1793 9.98132E-05-2.25417E-05-3.28353E-05-1.44670E-05-5.77438E-19 1.65357E-18
 -1      1794 9.69573E-05-2.69775E-05-2.98768E-05-5.70441E-06-5.18649E-19 1.54621E-18
 -1      1795 9.51497E-05-2.70329E-05-2.91663E-05-3.89678E-06-4.50714E-19 1.41399E-18
 -1      1796 9.43320E-05-2.72352E-05-2.86589E-05-2.42067E-06-4.50688E-19 1.26367E-18
 -1      1797 9.35605E-05-2.73159E-05-2.83538E-05-1.56751E-06-4.34700E-19 1.10080E-18
 -1      1798 9.55059E-05-2.65442E-05-2.95758E-05-4.47112E-06-5.68796E-19 8.52133E-19
 -1      1799 9.30355E-05-2.73662E-05-2.80851E-05-7.40709E-07-2.44925E-19 1.17074E-18
 -1      1800 9.27344E-05-2.74295E-05-2.79632E-05-3.02173E-07-9.55758E-20 1.18179E-18
 -1      1801 9.42964E-05-2.72210E-05-2.87672E-05-1.82836E-06-3.47432E-19 8.51708E-19
 -1      1802 9.24591E-05-2.74570E-05-2.78273E-05 1.53610E-07-7.64786E-20 1.13373E-18
 -1      1803 9.24283E-05-2.75331E-05-2.77977E-05 3.78021E-07-1.18730E-19 1.09506E-18
 -1      1804 9.35954E-05-2.75265E-05-2.83316E-05-3.61152E-07-1.43526E-19 9.01516E-19
 -1      1805 9.23256E-05-2.75644E-05-2.77398E-05 6.18510E-07-2.82751E-19 1.20541E-18
 -1      1806 9.24414E-05-2.76495E-05-2.77593E-05 7.23134E-07-3.49431E-19 1.15411E-18
 -1      1807 9.32753E-05-2.77110E-05-2.81112E-05 4.42672E-07-1.92585E-19 8.26299E-19
 -1      1808 9.24479E-05-2.76875E-05-2.77479E-05 8.35473E-07-4.44064E-19 1.10809E-18
 -1      1809 9.26372E-05-2.77743E-05-2.77931E-05 8.70356E-07-5.02903E-19 9.60817E-19
 -1      1810 9.32133E-05-2.78536E-05-2.80196E-05 8.56310E-07-4.51482E-19 8.05958E-19
 -1      1811 9.27077E-05-2.78159E-05-2.78088E-05 9.05910E-07-3.63739E-19 1.08738E-18
 -1      1812 9.29267E-05-2.78989E-05-2.78659E-05 9.00410E-07-1.50235E-19 1.30018E-18
 -1      1813 9.33108E-05-2.79767E-05-2.80055E-05 1.03570E-06-3.71665E-19 1.03049E-18
 -1      1814 9.30309E-05-2.79406E-05-2.78963E-05 8.91202E-07-3.69889E-19 1.08514E-18
 -1      1815 9.32538E-05-2.80165E-05-2.79570E-05 8.63750E-07-3.48724E-19 1.08656E-18
 -1      1816 9.34977E-05-2.80855E-05-2.80367E-05 1.07524E-06-2.91212E-19 9.97917E-19
 -1      1817 9.33723E-05-2.80561E-05-2.79945E-05 8.30553E-07-3.66184E-19 8.79688E-19
 -1      1818 9.35848E-05-2.81233E-05-2.80539E-05 7.93150E-07-1.89822E-19 6.51686E-19
 -1      1819 9.37271E-05-2.81809E-05-2.80927E-05 1.03497E-06-6.13104E-19 5.12863E-19
 -1      1820 9.37057E-05-2.81595E-05-2.80937E-05 7.49704E-07-1.11549E-19 3.68725E-19
 -1      1821 9.39009E-05-2.82179E-05-2.81493E-05 7.10256E-07 5.10807E-20 2.19753E-19
 -1      1822 9.39697E-05-2.82629E-05-2.81606E-05 9.54269E-07-3.42622E-19 2.08241E-19
 -1      1823 9.40179E-05-2.82501E-05-2.81888E-05 6.65652E-07 1.99600E-19 1.99106E-19
 -1      1824 9.41941E-05-2.83004E-05-2.82398E-05 6.29300E-07 1.21906E-19 4.43645E-19
 -1      1825 9.42086E-05-2.83326E-05-2.82326E-05 8.59271E-07-6.40880E-20 2.25403E-19
 -1      1826 9.43045E-05-2.83290E-05-2.82777E-05 5.89408E-07-2.40155E-20 4.77970E-19
 -1      1827 9.44629E-05-2.83726E-05-2.83240E-05 5.59331E-07-1.07768E-19 7.14601E-19
 -1      1828 9.44355E-05-2.83915E-05-2.83043E-05 7.67140E-07 9.03308E-20 4.76176E-19
 -1      1829 9.45665E-05-2.83983E-05-2.83600E-05 5.27659E-07-3.72888E-19 5.36313E-19
 -1      1830 9.47105E-05-2.84369E-05-2.84025E-05 5.05538E-07-5.50111E-19 6.71998E-19
 -1      1831 9.46482E-05-2.84420E-05-2.83738E-05 6.88684E-07-3.52375E-19 5.63356E-19
 -1      1832 9.48087E-05-2.84609E-05-2.84366E-05 4.83702E-07-1.78784E-19 6.84552E-19
 -1      1833 9.49425E-05-2.84966E-05-2.84762E-05 4.69912E-07 2.09463E-19 9.83932E-19
 -1      1834 9.48483E-05-2.84870E-05-2.84403E-05 6.29870E-07-3.09704E-19 4.83073E-19
 -1      1835 9.50376E-05-2.85203E-05-2.85089E-05 4.57783E-07-4.40083E-20 9.80594E-19
 -1      1836 9.51653E-05-2.85550E-05-2.85466E-05 4.51366E-07-2.07741E-19 9.58930E-19
 -1      1837 9.50398E-05-2.85299E-05-2.85042E-05 5.92543E-07 2.93018E-20 5.51464E-19
 -1      1838 9.52597E-05-2.85800E-05-2.85781E-05 4.46925E-07-4.03618E-19 5.65014E-19
 -1      1839 9.53846E-05-2.86159E-05-2.86147E-05 4.45331E-07-3.06075E-19 3.55808E-19
 -1      1840 9.52279E-05-2.85750E-05-2.85656E-05 5.74452E-07-5.23584E-19 6.89209E-19
 -1      1841 9.54802E-05-2.86439E-05-2.86450E-05 4.44257E-07-8.52839E-20 2.10492E-19
 -1      1842 9.56034E-05-2.86826E-05-2.86805E-05 4.42900E-07-5.40152E-20 1.09090E-19
 -1      1843 9.54174E-05-2.86268E-05-2.86247E-05 5.68655E-07-1.91605E-19 8.03804E-19
 -1      1844 9.57011E-05-2.87154E-05-2.87089E-05 4.37942E-07-2.78494E-19 4.57297E-19
 -1      1845 9.58202E-05-2.87579E-05-2.87422E-05 4.29614E-07-1.61484E-19 5.07647E-19
 -1      1846 9.56118E-05-2.86906E-05-2.86807E-05 5.62392E-07-8.17925E-20 6.91813E-19
 -1      1847 9.59186E-05-2.87970E-05-2.87672E-05 4.09875E-07-6.79550E-21 3.46479E-19
 -1      1848 9.60260E-05-2.88429E-05-2.87958E-05 3.84196E-07 2.23068E-19 3.78338E-19
 -1      1849 9.58110E-05-2.87716E-05-2.87311E-05 5.35607E-07-2.36439E-19 6.35775E-19
 -1      1850 9.61204E-05-2.88892E-05-2.88145E-05 3.34596E-07-9.63707E-21 3.51844E-19
 -1      1851 9.62013E-05-2.89361E-05-2.88337E-05 2.77776E-07-2.05822E-19 1.61572E-19
 -1      1852 9.60099E-05-2.88743E-05-2.87719E-05 4.59563E-07 8.55704E-20 4.93782E-19
 -1      1853 9.62825E-05-2.89886E-05-2.88419E-05 1.79164E-07-1.77435E-19 3.32048E-19
 -1      1854 9.63133E-05-2.90305E-05-2.88448E-05 7.45953E-08 2.82468E-19 6.88943E-19
 -1      1855 9.61953E-05-2.90007E-05-2.87963E-05 2.96349E-07 4.11754E-20 4.05464E-19
 -1      1856 9.63659E-05-2.90855E-05-2.88369E-05-9.47474E-08 3.52422E-19 7.07387E-19
 -1      1857 9.63132E-05-2.91118E-05-2.88142E-05-2.64360E-07 2.29846E-19 8.11817E-19
 -1      1858 9.63428E-05-2.91469E-05-2.87956E-05 5.98592E-10 4.63598E-19 1.13792E-18
 -1      1859 9.63141E-05-2.91605E-05-2.87836E-05-5.24856E-07 1.36927E-19 1.00708E-18
 -1      1860 9.61357E-05-2.91545E-05-2.87242E-05-7.73031E-07-2.21959E-19 1.07296E-18
 -1      1861 9.64135E-05-2.92992E-05-2.87588E-05-4.74707E-07 4.72566E-19 7.44210E-19
 -1      1862 9.60537E-05-2.91814E-05-2.86643E-05-1.13663E-06-3.83117E-19 1.30652E-18
 -1      1863 9.57030E-05-2.91197E-05-2.85571E-05-1.46579E-06-1.61974E-19 1.33447E-18
 -1      1864 9.63517E-05-2.94276E-05-2.86749E-05-1.16622E-06-3.67434E-21 6.09406E-19
 -1      1865 9.55002E-05-2.91013E-05-2.84627E-05-1.92521E-06-4.65939E-19 1.26500E-18
 -1      1866 9.49349E-05-2.89561E-05-2.82992E-05-2.31706E-06-2.25934E-19 8.77550E-19
 -1      1867 9.60847E-05-2.94819E-05-2.85344E-05-2.08055E-06-2.26121E-19 7.41256E-19
 -1      1868 9.45728E-05-2.88625E-05-2.81687E-05-2.83308E-06 1.77404E-19 1.41999E-18
 -1      1869 9.37699E-05-2.86070E-05-2.79466E-05-3.23942E-06 2.10144E-19 1.42124E-18
 -1      1870 9.55305E-05-2.93908E-05-2.83334E-05-3.16813E-06 1.11044E-19 1.26818E-18
 -1      1871 9.32213E-05-2.84090E-05-2.77842E-05-3.73111E-06-6.15919E-21 1.27526E-18
 -1      1872 9.21954E-05-2.80291E-05-2.75116E-05-4.07048E-06 1.56046E-19 1.02494E-18
 -1      1873 9.46163E-05-2.90737E-05-2.80763E-05-4.29757E-06 1.08468E-20 1.85152E-18
 -1      1874 9.14637E-05-2.77119E-05-2.73283E-05-4.41700E-06-8.60632E-20 9.51115E-19
 -1      1875 9.02845E-05-2.72213E-05-2.70265E-05-4.58463E-06-9.66179E-19 1.08769E-18
 -1      1876 9.33114E-05-2.84675E-05-2.77784E-05-5.24512E-06-1.41517E-19 1.38446E-18
 -1      1877 8.94251E-05-2.68024E-05-2.68402E-05-4.64797E-06-1.52594E-18 1.66461E-18
 -1      1878 8.82240E-05-2.62554E-05-2.65428E-05-4.54375E-06-9.65158E-19 1.33191E-18
 -1      1879 9.16716E-05-2.75700E-05-2.74661E-05-5.71987E-06-4.43295E-19 1.90978E-18
 -1      1880 8.73554E-05-2.57981E-05-2.63761E-05-4.21535E-06-6.18374E-19 1.57985E-18
 -1      1881 8.63114E-05-2.52899E-05-2.61245E-05-3.78616E-06-4.22438E-19 1.87089E-18
 -1      1882 8.98759E-05-2.64813E-05-2.71733E-05-5.44002E-06-7.81090E-19 2.04691E-18
 -1      1883 8.56013E-05-2.48975E-05-2.59999E-05-3.04460E-06-1.80597E-19 1.71049E-18
 -1      1884 8.49013E-05-2.45421E-05-2.58342E-05-2.32294E-06 1.98242E-19 1.42593E-18
 -1      1885 8.82256E-05-2.54151E-05-2.69355E-05-4.25156E-06-4.41939E-19 2.82513E-18
 -1      1886 8.45168E-05-2.43250E-05-2.57699E-05-1.27149E-06 4.26339E-19 1.46699E-18
 -1      1887 8.43003E-05-2.42145E-05-2.57187E-05-3.84949E-07 5.20647E-19 1.57658E-18
 -1      1888 8.70772E-05-2.46467E-05-2.67829E-05-2.24089E-06 5.73888E-19 1.66713E-18
 -1      1889 8.43413E-05-2.42403E-05-2.57240E-05 7.63972E-07 2.17651E-19 1.36023E-18
 -1      1890 8.46521E-05-2.44045E-05-2.57961E-05 1.62860E-06-3.42598E-19 1.56692E-18
 -1      1891 8.67167E-05-2.44059E-05-2.67349E-05 2.35013E-07 2.57577E-19 1.71964E-18
 -1      1892 8.51052E-05-2.46644E-05-2.58698E-05 2.62578E-06-1.23349E-18 1.76403E-18
 -1      1893 8.58750E-05-2.50573E-05-2.60514E-05 3.28941E-06-1.45510E-18 2.07698E-18
 -1      1894 8.72372E-05-2.47688E-05-2.67972E-05 2.64896E-06-7.74752E-19 2.92007E-18
 -1      1895 8.66201E-05-2.54699E-05-2.61818E-05 3.94182E-06-1.66405E-18 2.32234E-18
 -1      1896 8.76936E-05-2.59906E-05-2.64408E-05 4.29622E-06-1.05056E-18 1.55161E-18
 -1      1897 8.84953E-05-2.56189E-05-2.69609E-05 4.49627E-06-1.24752E-18 4.10630E-18
 -1      1898 8.85576E-05-2.64436E-05-2.66082E-05 4.52849E-06-2.01964E-19 1.35100E-18
 -1      1899 8.97444E-05-2.69790E-05-2.69030E-05 4.56165E-06-4.62219E-19 1.63719E-18
 -1      1900 9.01772E-05-2.67062E-05-2.72034E-05 5.47525E-06-1.01428E-18 4.04961E-18
 -1      1901 9.05668E-05-2.73756E-05-2.70843E-05 4.41813E-06-5.71052E-19 8.55310E-19
 -1      1902 9.16948E-05-2.78379E-05-2.73743E-05 4.19705E-06 1.25760E-19 8.59978E-19
 -1      1903 9.19286E-05-2.77611E-05-2.74925E-05 5.55748E-06-6.72668E-19 2.36475E-18
 -1      1904 9.23695E-05-2.81242E-05-2.75477E-05 3.79787E-06 3.19338E-19 1.89223E-19
 -1      1905 9.33194E-05-2.84679E-05-2.78015E-05 3.42758E-06-3.56199E-19 2.24733E-19
 -1      1906 9.34696E-05-2.85916E-05-2.77922E-05 4.93522E-06-2.50819E-19 1.17216E-18
 -1      1907 9.38036E-05-2.86344E-05-2.79504E-05 2.91165E-06-1.02841E-18-7.32311E-20
 -1      1908 9.45189E-05-2.88527E-05-2.81500E-05 2.49497E-06-2.99969E-19-1.21575E-19
 -1      1909 9.46481E-05-2.91201E-05-2.80700E-05 3.90345E-06-4.05257E-19 1.11615E-18
 -1      1910 9.48180E-05-2.89186E-05-2.82652E-05 1.97761E-06 1.75882E-19-6.10812E-19
 -1      1911 9.52946E-05-2.90295E-05-2.84053E-05 1.59089E-06 1.02476E-18-9.85517E-19
 -1      1912 9.54308E-05-2.93650E-05-2.83022E-05 2.74710E-06-1.35044E-19-1.44939E-19
 -1      1913 9.54407E-05-2.90251E-05-2.84845E-05 1.14625E-06 1.96860E-18-1.54680E-18
 -1      1914 9.57096E-05-2.90566E-05-2.85698E-05 8.33106E-07 1.44010E-18-5.83478E-19
 -1      1915 9.58623E-05-2.93957E-05-2.84767E-05 1.67569E-06 6.90716E-19-2.46059E-19
 -1      1916 9.57435E-05-2.90107E-05-2.86165E-05 4.95918E-07 8.93567E-19-2.03194E-19
 -1      1917 9.58528E-05-2.89908E-05-2.86575E-05 2.72528E-07 1.68699E-18 1.38797E-18
 -1      1918 9.60222E-05-2.92922E-05-2.85924E-05 8.07921E-07 2.11114E-18-4.69221E-19
 -1      1919 9.58137E-05-2.89255E-05-2.86785E-05 4.91146E-08 1.06267E-18 1.10635E-18
 -1      1920 9.58152E-05-2.88772E-05-2.86884E-05-8.61282E-08 1.15121E-18 1.23356E-18
 -1      1921 9.59957E-05-2.91213E-05-2.86568E-05 1.87328E-07 1.44368E-18 4.28248E-19
 -1      1922 9.57356E-05-2.88069E-05-2.86915E-05-2.05287E-07-2.01294E-20 1.12115E-18
 -1      1923 9.56776E-05-2.87483E-05-2.86832E-05-2.62910E-07-2.29768E-19 2.25428E-19
 -1      1924 9.58576E-05-2.89290E-05-2.86820E-05-1.91280E-07 6.97471E-19 4.42706E-19
 -1      1925 9.55835E-05-2.86827E-05-2.86761E-05-2.95398E-07-4.58955E-20-3.44891E-19
 -1      1926 9.55051E-05-2.86265E-05-2.86605E-05-2.90627E-07-1.85080E-19 9.76303E-19
 -1      1927 9.56683E-05-2.87452E-05-2.86811E-05-3.57671E-07-6.22084E-19 6.80827E-19
 -1      1928 9.54235E-05-2.85795E-05-2.86494E-05-2.56370E-07 8.02117E-19 4.92607E-19
 -1      1929 9.53558E-05-2.85398E-05-2.86330E-05-2.11026E-07 7.10085E-19 3.81986E-19
 -1      1930 9.53337E-05-2.85017E-05-2.86423E-05-2.51828E-07 1.71251E-20 6.19378E-19
 -1      1931 9.54804E-05-2.85900E-05-2.86662E-05-3.56405E-07-6.92660E-20 6.14514E-19
 -1      1932 9.32095E-05-2.73619E-05-2.81925E-05 1.60493E-06 4.24992E-19 4.71268E-19
 -1      1933 9.44039E-05-2.74672E-05-2.86290E-05 2.67592E-06 4.72366E-19 6.30762E-19
 -1      1934 9.52283E-05-2.70465E-05-2.92262E-05 4.05346E-06 5.54886E-19 4.16879E-19
 -1      1935 9.21579E-05-2.73484E-05-2.77509E-05 3.47994E-07 2.73714E-19 2.18707E-19
 -1      1936 9.26520E-05-2.73807E-05-2.79232E-05 8.96144E-07 2.90549E-19 4.09044E-19
 -1      1937 9.36245E-05-2.73677E-05-2.84027E-05 1.58465E-06 4.26402E-19 4.22841E-19
 -1      1938 9.17832E-05-2.73861E-05-2.75831E-05-3.05813E-07 1.55885E-19 6.60950E-20
 -1      1939 9.18979E-05-2.73593E-05-2.76299E-05-1.31619E-08 1.67016E-19 9.07053E-20
 -1      1940 9.27940E-05-2.74829E-05-2.80005E-05 2.71494E-07 3.42870E-19 3.67698E-20
 -1      1941 9.18081E-05-2.74769E-05-2.75604E-05-6.32223E-07 9.07905E-20-9.22637E-20
 -1      1942 9.17197E-05-2.74148E-05-2.75438E-05-4.79176E-07 1.29195E-19 1.64478E-19
 -1      1943 9.24812E-05-2.75760E-05-2.78266E-05-4.22799E-07 1.77989E-19-1.15048E-19
 -1      1944 9.20544E-05-2.75992E-05-2.76166E-05-7.71155E-07 1.25951E-19-1.76540E-19
 -1      1945 9.18626E-05-2.75203E-05-2.75676E-05-6.99449E-07 2.98319E-20-9.22108E-20
 -1      1946 9.24864E-05-2.76814E-05-2.77818E-05-7.68971E-07 9.68744E-20-1.99988E-19
 -1      1947 9.24107E-05-2.77340E-05-2.77134E-05-8.00552E-07 3.38544E-19-1.70683E-19
 -1      1948 9.21738E-05-2.76503E-05-2.76495E-05-7.77423E-07 2.74701E-19-1.46671E-19
 -1      1949 9.26739E-05-2.77970E-05-2.78104E-05-9.12004E-07 2.69851E-19-3.53510E-19
 -1      1950 9.28085E-05-2.78683E-05-2.78276E-05-7.67508E-07 3.28690E-20-6.06619E-19
 -1      1951 9.25607E-05-2.77870E-05-2.77591E-05-7.72887E-07 1.68895E-19-2.66255E-19
 -1      1952 9.29553E-05-2.79145E-05-2.78789E-05-9.35792E-07 2.72159E-19-2.84850E-19
 -1      1953 9.32068E-05-2.79942E-05-2.79453E-05-7.02175E-07 1.11026E-19-5.04618E-19
 -1      1954 9.29678E-05-2.79194E-05-2.78781E-05-7.23025E-07-4.36218E-20-6.42486E-19
 -1      1955 9.32750E-05-2.80268E-05-2.79664E-05-8.92290E-07 6.61418E-20-3.51098E-19
 -1      1956 9.35836E-05-2.81079E-05-2.80587E-05-6.24519E-07 4.10457E-19-3.48107E-19
 -1      1957 9.33632E-05-2.80412E-05-2.79960E-05-6.52066E-07 5.39451E-19-2.56686E-19
 -1      1958 9.35993E-05-2.81297E-05-2.80604E-05-8.15229E-07 4.35426E-19-3.04213E-19
 -1      1959 9.39295E-05-2.82084E-05-2.81643E-05-5.48144E-07 3.72897E-19-3.24179E-19
 -1      1960 9.37310E-05-2.81501E-05-2.81072E-05-5.76296E-07 3.08789E-19-3.09196E-19
 -1      1961 9.39102E-05-2.82211E-05-2.81538E-05-7.27229E-07 3.82527E-19-1.55047E-19
 -1      1962 9.42441E-05-2.82966E-05-2.82616E-05-4.82723E-07 5.81674E-19-6.49166E-19
 -1      1963 9.40664E-05-2.82458E-05-2.82099E-05-5.07045E-07 4.18424E-19-4.98743E-19
 -1      1964 9.42002E-05-2.83011E-05-2.82434E-05-6.43973E-07 5.18262E-19-5.77781E-20
 -1      1965 9.45337E-05-2.83748E-05-2.83522E-05-4.35792E-07-4.38783E-19-6.30539E-19
 -1      1966 9.43723E-05-2.83299E-05-2.83047E-05-4.52733E-07-1.95810E-19-7.00482E-19
 -1      1967 9.44696E-05-2.83710E-05-2.83287E-05-5.76988E-07 4.73650E-20 2.92538E-22
 -1      1968 9.48101E-05-2.84465E-05-2.84396E-05-4.14263E-07-1.27259E-19-3.47391E-19
 -1      1969 9.46576E-05-2.84053E-05-2.83942E-05-4.20483E-07-1.57657E-19-4.57923E-19
 -1      1970 9.47248E-05-2.84330E-05-2.84115E-05-5.35782E-07-2.00350E-19-5.49401E-19
 -1      1971 9.50903E-05-2.85162E-05-2.85293E-05-4.25936E-07 3.72813E-19-4.39936E-19
 -1      1972 9.49364E-05-2.84757E-05-2.84829E-05-4.17605E-07 1.44576E-20-4.43246E-19
 -1      1973 9.49769E-05-2.84898E-05-2.84953E-05-5.29748E-07 9.64935E-20-8.13841E-19
 -1      1974 9.53975E-05-2.85892E-05-2.86287E-05-4.81238E-07 8.77442E-19-7.41855E-19
 -1      1975 9.52284E-05-2.85458E-05-2.85771E-05-4.53206E-07 6.62565E-19-5.57310E-19
 -1      1976 9.52419E-05-2.85448E-05-2.85856E-05-5.70147E-07 7.73926E-19-4.94280E-19
 -1      1977 9.57623E-05-2.86722E-05-2.87477E-05-5.95493E-07 4.78110E-21-5.83955E-19
 -1      1978 9.55595E-05-2.86214E-05-2.86854E-05-5.40166E-07 7.44352E-19-4.35311E-19
 -1      1979 9.55413E-05-2.86017E-05-2.86900E-05-6.72490E-07 7.57408E-19-6.59394E-19
 -1      1980 9.62265E-05-2.87739E-05-2.89005E-05-7.92089E-07-8.12254E-19-1.20276E-18
 -1      1981 9.59644E-05-2.87094E-05-2.88196E-05-6.97817E-07-7.01545E-19-1.07956E-18
 -1      1982 9.59031E-05-2.86640E-05-2.88190E-05-8.59681E-07-1.34504E-19-6.13148E-19
 -1      1983 9.68476E-05-2.89051E-05-2.91064E-05-1.10703E-06-1.19041E-18-7.21850E-19
 -1      1984 9.64900E-05-2.88184E-05-2.89960E-05-9.55736E-07-7.37428E-19-1.05609E-18
 -1      1985 9.63644E-05-2.87356E-05-2.89868E-05-1.16638E-06-7.95482E-19-8.35043E-19
 -1      1986 9.77053E-05-2.90802E-05-2.93929E-05-1.59540E-06-9.17555E-19-7.47603E-19
 -1      1987 9.72007E-05-2.89593E-05-2.92372E-05-1.35911E-06-1.21938E-18-1.02846E-18
 -1      1988 9.69740E-05-2.88197E-05-2.92130E-05-1.64511E-06-9.28578E-19-8.26023E-19
 -1      1989 9.89114E-05-2.93187E-05-2.97987E-05-2.34002E-06 6.59293E-19-9.75031E-19
 -1      1990 9.81852E-05-2.91463E-05-2.95750E-05-1.97606E-06 1.38649E-19-9.13990E-19
 -1      1991 9.77961E-05-2.89187E-05-2.95241E-05-2.37439E-06-1.40952E-20-1.55676E-18
 -1      1992 1.00620E-04-2.96479E-05-3.03776E-05-3.46140E-06 1.52109E-19-1.52651E-18
 -1      1993 9.95656E-05-2.93985E-05-3.00534E-05-2.90644E-06 4.49824E-19-1.22898E-18
 -1      1994 9.89140E-05-2.90341E-05-2.99554E-05-3.46852E-06 7.04923E-19-1.44655E-18
 -1      1995 1.03036E-04-3.01088E-05-3.12012E-05-5.12393E-06 2.84530E-19-1.26845E-18
 -1      1996 1.01507E-04-2.97440E-05-3.07321E-05-4.28928E-06-2.85020E-19-1.67906E-18
 -1      1997 1.00433E-04-2.91684E-05-3.05512E-05-5.08547E-06 1.00125E-19-1.61386E-18
 -1      1998 1.06424E-04-3.07708E-05-3.23558E-05-7.52273E-06-1.67130E-19-3.16115E-19
 -1      1999 1.04227E-04-3.02305E-05-3.16855E-05-6.29877E-06 1.23415E-19-5.31966E-19
 -1      2000 1.02480E-04-2.93370E-05-3.13612E-05-7.42249E-06-1.45875E-19-5.78763E-19
 -1      2001 1.11085E-04-3.17717E-05-3.39207E-05-1.08090E-05 1.52056E-19 3.07797E-19
 -1      2002 1.07998E-04-3.09553E-05-3.29931E-05-9.10158E-06-2.40703E-19 5.08021E-20
 -1      2003 1.05211E-04-2.96061E-05-3.24253E-05-1.06710E-05-2.50378E-19 3.22500E-19
 -1      2004 1.17319E-04-3.34183E-05-3.59042E-05-1.48602E-05-5.84181E-19 1.28839E-18
 -1      2005 1.13151E-04-3.21445E-05-3.47020E-05-1.27128E-05 3.96279E-19 7.67637E-19
 -1      2006 1.08830E-04-3.02021E-05-3.37353E-05-1.48683E-05-6.84575E-20 9.82373E-19
 -1      2007 1.25367E-04-3.63987E-05-3.81163E-05-1.87313E-05-1.44721E-18 1.92864E-18
 -1      2008 1.20098E-04-3.43385E-05-3.67454E-05-1.66323E-05-9.36964E-19 1.50661E-18
 -1      2009 1.13704E-04-3.17708E-05-3.51656E-05-1.95337E-05-9.01766E-19 2.33633E-18
 -1      2010 1.35395E-04-4.19826E-05-4.00545E-05-1.96185E-05-1.86281E-18 2.13698E-18
 -1      2011 1.29432E-04-3.86949E-05-3.88369E-05-1.91087E-05-1.39615E-18 2.06173E-18
 -1      2012 1.20702E-04-3.58330E-05-3.64203E-05-2.29421E-05-1.28112E-18 2.46502E-18
 -1      2013 1.47534E-04-5.11533E-05-4.12345E-05-1.20158E-05-1.02438E-18 1.49597E-18
 -1      2014 1.41902E-04-4.68042E-05-4.05694E-05-1.62310E-05-1.26377E-18 1.86871E-18
 -1      2015 1.31603E-04-4.47056E-05-3.72571E-05-2.12810E-05-1.26123E-18 2.47655E-18
 -1      2016 1.60742E-04-6.06076E-05-4.29359E-05 7.86242E-06-9.36660E-19 1.20670E-18
 -1      2017 1.56750E-04-5.74756E-05-4.22414E-05-3.17926E-06-1.61646E-18 8.40998E-19
 -1      2018 1.47822E-04-5.74145E-05-3.86418E-05-8.67890E-06-1.29437E-18 7.51742E-19
 -1      2019 1.67559E-04-4.30071E-05-5.39210E-05 2.72155E-05-7.06425E-19 2.48625E-18
 -1      2020 1.74069E-04-5.46541E-05-5.15725E-05 2.92028E-05-1.40565E-18 1.98502E-18
 -1      2021 1.68406E-04-3.61881E-05-5.71236E-05-2.05406E-05 2.15993E-18 2.60611E-18
 -1      2022 1.65213E-04-3.06889E-05-5.82428E-05-8.92454E-06 1.75336E-18 2.43427E-18
 -1      2023 1.72246E-04-5.46505E-05-5.08849E-05-3.01395E-05 2.55169E-18-1.33196E-19
 -1      2024 1.65471E-04-4.27001E-05-5.32427E-05-2.80257E-05 2.45089E-18 7.28025E-19
 -1      2025 1.67273E-04-6.30427E-05-4.45688E-05-1.45702E-05-1.07917E-19-1.69777E-19
 -1      2026 1.64537E-04-5.83683E-05-4.58610E-05-2.35382E-05 1.27097E-18-9.42748E-19
 -1      2027 1.51838E-04-5.58451E-05-4.06507E-05 8.20497E-06-1.32598E-18 1.73684E-18
 -1      2028 1.55520E-04-5.93620E-05-4.12207E-05-1.05962E-06-1.07361E-18 1.30207E-18
 -1      2029 1.36017E-04-4.38322E-05-3.92281E-05 1.94904E-05-1.99847E-19 8.80226E-19
 -1      2030 1.42290E-04-4.89368E-05-3.99687E-05 1.52434E-05-5.74182E-19 1.21231E-18
 -1      2031 1.35309E-04-5.29647E-05-3.54473E-05 1.88522E-05-6.75085E-19 9.84491E-19
 -1      2032 1.24395E-04-3.64073E-05-3.76749E-05 2.04901E-05 1.74568E-20 1.26721E-18
 -1      2033 1.30703E-04-3.98829E-05-3.88824E-05 2.03503E-05 1.23746E-19 1.05675E-18
 -1      2034 1.20578E-04-3.91420E-05-3.49513E-05 2.53577E-05-3.39078E-20 8.62332E-19
 -1      2035 1.16202E-04-3.28068E-05-3.57853E-05 1.70868E-05 5.94247E-19 1.15766E-19
 -1      2036 1.21570E-04-3.48368E-05-3.71132E-05 1.86071E-05 3.31044E-19 2.89579E-19
 -1      2037 1.12436E-04-3.18631E-05-3.45377E-05 2.37858E-05 4.78891E-19 2.13591E-19
 -1      2038 1.10226E-04-3.11114E-05-3.39466E-05 1.28503E-05-4.73551E-19 9.45309E-19
 -1      2039 1.14412E-04-3.23001E-05-3.51115E-05 1.46172E-05-9.19428E-20 5.75731E-19
 -1      2040 1.07715E-04-2.91740E-05-3.36551E-05 1.92171E-05 2.07321E-19 2.04750E-19
 -1      2041 1.05788E-04-3.02252E-05-3.24044E-05 9.18701E-06 6.01837E-19 9.09040E-19
 -1      2042 1.08885E-04-3.09583E-05-3.33118E-05 1.06672E-05 3.01755E-21 6.73768E-19
 -1      2043 1.04506E-04-2.84794E-05-3.25756E-05 1.43783E-05 1.06157E-19-7.37357E-19
 -1      2044 1.02492E-04-2.96760E-05-3.12127E-05 6.41585E-06 1.31288E-18-3.86590E-19
 -1      2045 1.04714E-04-3.01553E-05-3.18775E-05 7.51157E-06 1.01229E-18 6.31088E-19
 -1      2046 1.02062E-04-2.84227E-05-3.15551E-05 1.03338E-05 9.71428E-19-6.78834E-19
 -1      2047 1.00062E-04-2.92835E-05-3.03325E-05 4.44059E-06 7.53555E-19 1.78405E-19
 -1      2048 1.01632E-04-2.96123E-05-3.08046E-05 5.21020E-06 1.53244E-18 6.30121E-19
 -1      2049 1.00131E-04-2.84836E-05-3.07052E-05 7.28218E-06 1.12516E-18-2.23138E-19
 -1      2050 9.82893E-05-2.89782E-05-2.97005E-05 3.05750E-06-1.57767E-18 1.36478E-18
 -1      2051 9.93871E-05-2.92135E-05-3.00294E-05 3.59367E-06-3.04144E-19 4.79689E-19
 -1      2052 9.86102E-05-2.85106E-05-3.00453E-05 5.08548E-06 4.28936E-19 2.28324E-18
 -1      2053 9.70135E-05-2.87243E-05-2.92598E-05 2.06703E-06-2.94653E-18 1.31119E-18
 -1      2054 9.77700E-05-2.89026E-05-2.94830E-05 2.45637E-06-2.52549E-18 5.32792E-19
 -1      2055 9.74319E-05-2.84772E-05-2.95561E-05 3.52058E-06-1.68552E-18 2.39047E-18
 -1      2056 9.61204E-05-2.85246E-05-2.89652E-05 1.28522E-06-2.34566E-18 1.35853E-18
 -1      2057 9.66089E-05-2.86440E-05-2.91091E-05 1.59984E-06-2.09208E-18 7.24640E-19
 -1      2058 9.65168E-05-2.83695E-05-2.92075E-05 2.37587E-06-2.40307E-18-9.50084E-19
 -1      2059 9.55593E-05-2.83714E-05-2.87853E-05 6.76107E-07-1.23723E-18 2.23090E-18
 -1      2060 9.58699E-05-2.84590E-05-2.88763E-05 9.65343E-07-2.66997E-18 2.86222E-18
 -1      2061 9.58951E-05-2.82977E-05-2.89833E-05 1.48726E-06-3.41123E-18-4.60607E-20
 -1      2062 9.54696E-05-2.82154E-05-2.88204E-05 8.31937E-07-1.08838E-18 7.43865E-19
 -1      2063 9.43907E-05-2.62837E-05-2.91982E-05 1.27454E-06 6.98083E-20-1.88903E-18
 -1      2064 9.45791E-05-2.66263E-05-2.91202E-05 1.37375E-06 6.38501E-20-2.25134E-18
 -1      2065 9.47796E-05-2.69738E-05-2.90686E-05 1.41809E-06-6.79488E-19-2.53277E-18
 -1      2066 9.50061E-05-2.73458E-05-2.89869E-05 1.37352E-06-8.00834E-19-3.13081E-18
 -1      2067 9.46576E-05-2.67534E-05-2.90960E-05 1.76660E-06-1.08453E-18-2.35405E-18
 -1      2068 9.53210E-05-2.79062E-05-2.88975E-05 1.06800E-06-2.11331E-18-2.06261E-18
 -1      2069 9.41332E-05-2.58003E-05-2.92947E-05 8.56093E-07 5.28585E-20-1.88484E-18
 -1      2070 9.42508E-05-2.60400E-05-2.92379E-05 1.05901E-06 7.44042E-19-2.17846E-18
 -1      2071 9.42194E-05-2.61311E-05-2.91706E-05 1.45789E-06 6.05801E-19-1.82890E-18
 -1      2072 9.40373E-05-2.55863E-05-2.93437E-05 2.94368E-07-6.51690E-19 1.93251E-18
 -1      2073 9.40742E-05-2.56896E-05-2.93173E-05 5.43859E-07-7.28606E-19 1.40617E-18
 -1      2074 9.39673E-05-2.57610E-05-2.92199E-05 8.54092E-07 1.45166E-18-1.00636E-18
 -1      2075 9.41019E-05-2.56615E-05-2.93364E-05-2.55061E-07-1.26333E-18-6.76763E-19
 -1      2076 9.40620E-05-2.56198E-05-2.93443E-05-2.59370E-08-1.19554E-18 1.31228E-18
 -1      2077 9.39245E-05-2.56839E-05-2.92358E-05 1.36759E-07-6.89050E-19 5.66344E-19
 -1      2078 9.42814E-05-2.59710E-05-2.92778E-05-6.79260E-07-1.64816E-18-6.12909E-19
 -1      2079 9.41879E-05-2.58110E-05-2.93155E-05-5.13731E-07-1.19220E-18-6.11958E-19
 -1      2080 9.40631E-05-2.58787E-05-2.92146E-05-5.15165E-07-1.56233E-18-1.42241E-19
 -1      2081 9.45173E-05-2.64258E-05-2.91817E-05-9.23192E-07-1.45054E-18-2.32128E-18
 -1      2082 9.43987E-05-2.61916E-05-2.92398E-05-8.38524E-07-1.16417E-18-1.02937E-19
 -1      2083 9.43156E-05-2.62676E-05-2.91600E-05-9.82133E-07-3.06579E-18-5.53245E-19
 -1      2084 9.47552E-05-2.69314E-05-2.90655E-05-9.87081E-07-1.04208E-18-9.48869E-19
 -1      2085 9.46373E-05-2.66703E-05-2.91330E-05-9.77804E-07-9.76154E-19-5.88355E-19
 -1      2086 9.46068E-05-2.67525E-05-2.90804E-05-1.21747E-06-1.65404E-18-1.24592E-18
 -1      2087 9.49542E-05-2.74024E-05-2.89483E-05-9.12578E-07 2.41844E-19-3.51372E-19
 -1      2088 9.48559E-05-2.71571E-05-2.90141E-05-9.57042E-07 7.26161E-20-3.08784E-19
 -1      2089 9.48731E-05-2.72391E-05-2.89884E-05-1.23918E-06 4.44658E-19-2.71962E-20
 -1      2090 9.51039E-05-2.78062E-05-2.88393E-05-7.53281E-07 7.60053E-19 3.07793E-18
 -1      2091 9.50292E-05-2.75936E-05-2.88985E-05-8.28464E-07 1.21983E-18 2.17254E-18
 -1      2092 9.50784E-05-2.76666E-05-2.88945E-05-1.10637E-06 2.01087E-18 1.00647E-18
 -1      2093 9.52009E-05-2.81144E-05-2.87491E-05-5.62053E-07 7.60046E-19 5.49371E-19
 -1      2094 9.51513E-05-2.79500E-05-2.87964E-05-6.46349E-07 1.29407E-18 1.90594E-18
 -1      2095 9.52151E-05-2.80058E-05-2.88078E-05-8.88252E-07 1.64449E-18 2.56602E-18
 -1      2096 9.52580E-05-2.83326E-05-2.86811E-05-3.75669E-07-2.45714E-19-1.17933E-18
 -1      2097 9.52255E-05-2.82140E-05-2.87153E-05-4.56926E-07 5.14366E-19-4.61264E-19
 -1      2098 9.52907E-05-2.82486E-05-2.87354E-05-6.48144E-07 1.24918E-18-3.21523E-20
 -1      2099 5.52660E-05-4.57486E-05-5.26817E-06 3.15849E-05 2.34840E-18-4.24173E-18
 -1      2100 3.84693E-05-4.55719E-05 1.21373E-06 2.35060E-05 2.57583E-18-3.32842E-18
 -1      2101 1.05761E-05-3.65055E-05 9.74207E-06-6.40959E-06 2.16140E-18 2.72533E-18
 -1      2102 1.21421E-05-3.64774E-05 9.06606E-06-1.54111E-05 1.33874E-18 2.34755E-18
 -1      2103 2.14576E-05-3.96538E-05 6.35457E-06 1.50027E-05 2.14511E-18-7.54706E-19
 -1      2104 1.40733E-05-3.95676E-05 9.21304E-06 5.43286E-06 2.22463E-18 1.31756E-18
 -1      2105 1.06694E-04-5.59581E-05-2.22396E-05 3.55485E-05-3.47284E-19 3.63970E-18
 -1      2106 8.10505E-05-5.48406E-05-1.30879E-05 3.06051E-05 1.21083E-18-4.62904E-19
 -1      2107 1.56364E-04-6.09360E-05-4.07459E-05 2.51036E-05 4.34951E-19 3.70153E-18
 -1      2108 1.27062E-04-5.93640E-05-3.06747E-05 2.52884E-05-5.39560E-19 4.50283E-18
 -1      2109 8.72492E-05-8.72309E-06-3.37496E-05-1.05396E-05-6.46223E-19-1.84283E-19
 -1      2110 8.79546E-05-9.24131E-06-3.38214E-05-1.20968E-05-7.34801E-19 3.87253E-20
 -1      2111 9.04862E-05-1.30501E-05-3.32355E-05-1.18754E-05-7.57314E-19 1.58541E-19
 -1      2112 8.86875E-05-1.10555E-05-3.32959E-05-9.41194E-06-6.33316E-19-2.16695E-19
 -1      2113 2.09492E-04-5.02617E-05-6.63938E-05-8.25965E-06 3.33816E-18-1.72032E-18
 -1      2114 1.96002E-04-5.49634E-05-6.02267E-05-8.17799E-06 4.02468E-18-2.08709E-18
 -1      2115 2.16663E-04-3.88136E-05-7.34872E-05-4.57882E-06 1.67797E-18-1.35621E-18
 -1      2116 2.15323E-04-4.13990E-05-7.18720E-05-5.54095E-06 2.70373E-18-1.28961E-18
 -1      2117 2.03694E-04-4.14836E-05-6.80827E-05 8.11359E-06 8.89385E-21 1.70677E-19
 -1      2118 2.16012E-04-3.99220E-05-7.24788E-05 5.35466E-06 3.48131E-19-4.52527E-19
 -1      2119 1.89746E-04-5.50278E-05-5.70436E-05 5.38493E-07-6.14099E-19-3.87941E-19
 -1      2120 2.05053E-04-5.28161E-05-6.39484E-05 8.30623E-06-1.25149E-19 3.87094E-19
 -1      2121 1.48141E-04-6.03263E-05-3.88162E-05-1.97560E-05-8.89385E-19-1.84653E-18
 -1      2122 1.78025E-04-6.18088E-05-4.90536E-05-1.80616E-05-1.31078E-18-2.20398E-18
 -1      2123 1.00378E-04-5.76969E-05-2.00969E-05-3.00505E-05 1.39422E-18 7.67835E-19
 -1      2124 1.27025E-04-5.79159E-05-3.00225E-05-3.28944E-05 5.24313E-19-8.86843E-19
 -1      2125 5.66963E-05-4.76737E-05-4.94769E-06-3.11861E-05 1.42302E-18 6.50098E-19
 -1      2126 7.76989E-05-5.08552E-05-1.22112E-05-3.59575E-05 1.98460E-18 1.04079E-18
 -1      2127 1.96265E-05-3.94097E-05 6.72149E-06-1.16057E-05 1.51767E-18 1.65171E-19
 -1      2128 3.13104E-05-3.67074E-05 1.44648E-06-2.38052E-05 9.43595E-19 3.58295E-19
 -1      2129 1.04355E-05-3.25865E-05 8.51621E-06 8.04008E-06 1.06811E-18-8.45762E-19
 -1      2130 1.28104E-05-3.60189E-05 8.63485E-06-2.18152E-06 1.27828E-18 5.64124E-19
 -1      2131 1.92709E-05-2.40747E-05 1.68279E-06-1.19369E-05 1.46854E-19 5.68359E-19
 -1      2132 2.25390E-05-3.69191E-05 4.98675E-06 2.96621E-05-5.60736E-19-3.34049E-18
 -1      2133 1.48432E-05-3.71733E-05 8.23357E-06 2.13734E-05 4.12717E-19-3.16536E-18
 -1      2134 5.24210E-05-3.76670E-05-6.69574E-06 4.54166E-05-1.30867E-18-4.75958E-18
 -1      2135 3.86513E-05-4.10349E-05-2.38771E-07 3.73947E-05-7.46236E-19-3.04042E-18
 -1      2136 8.90675E-05-3.88387E-05-2.14430E-05 5.02367E-05-2.07396E-18-3.88110E-18
 -1      2137 7.03599E-05-4.23189E-05-1.31364E-05 4.43602E-05-1.16806E-18-5.04832E-18
 -1      2138 1.29004E-04-3.87006E-05-3.80443E-05 4.68784E-05-2.20864E-18-5.42101E-18
 -1      2139 1.07732E-04-4.07616E-05-2.93554E-05 4.42547E-05-2.26581E-18-4.24491E-18
 -1      2140 1.63175E-04-3.55616E-05-5.35454E-05 3.68741E-05-2.88690E-18-6.29769E-18
 -1      2141 1.42601E-04-3.57995E-05-4.58049E-05 3.85201E-05-2.41108E-18-5.99572E-18
 -1      2142 1.85794E-04-3.06865E-05-6.52940E-05 2.01140E-05-2.09069E-18-6.97362E-18
 -1      2143 1.71655E-04-3.06883E-05-5.97212E-05 2.79193E-05-2.51632E-18-6.56408E-18
 -1      2144 1.93883E-04-2.53030E-05-7.10850E-05 3.70192E-06-3.11454E-18-4.44205E-18
 -1      2145 1.86231E-04-2.41871E-05-6.85758E-05 1.18063E-05-3.07685E-18-5.80196E-18
 -1      2146 1.80650E-04-1.92731E-05-6.87209E-05-6.36056E-06-2.91803E-18-3.37246E-18
 -1      2147 1.93114E-04-2.34899E-05-7.11617E-05-1.90895E-07-3.23143E-18-3.96204E-18
 -1      2148 1.66449E-04-1.07016E-05-6.58136E-05 7.03865E-08-4.17121E-18-3.17674E-18
 -1      2149 1.73751E-04-2.93704E-05-6.13014E-05-1.90504E-05 4.29234E-19-1.91472E-18
 -1      2150 1.77380E-04-2.54841E-05-6.48546E-05-8.10076E-06-2.83756E-19-1.78343E-18
 -1      2151 1.52527E-04-3.75266E-05-4.95358E-05-2.75594E-05 1.03703E-18-9.73241E-19
 -1      2152 1.69934E-04-3.54260E-05-5.67916E-05-2.58485E-05 9.20301E-19-1.55473E-18
 -1      2153 1.60585E-04-3.16975E-05-5.44996E-05-4.22780E-06 6.24263E-19-2.27174E-18
 -1      2154 1.25962E-04-4.51135E-05-3.47244E-05-3.86790E-05 2.78462E-19-7.36919E-19
 -1      2155 1.44841E-04-4.14007E-05-4.34697E-05-3.81144E-05 9.53971E-19-1.14349E-19
 -1      2156 1.52403E-04-4.66027E-05-4.49001E-05-1.79332E-05 5.44986E-19-1.73049E-18
 -1      2157 7.88276E-05-4.45496E-05-1.57284E-05-4.50930E-05-4.19281E-20-1.24133E-18
 -1      2158 1.02384E-04-4.58471E-05-2.45953E-05-4.81274E-05-6.31040E-20-1.54605E-18
 -1      2159 4.55802E-05-4.19414E-05-2.84966E-06-3.97548E-05 2.26708E-18 3.39576E-18
 -1      2160 6.09215E-05-3.89526E-05-9.75237E-06-4.71971E-05 6.34004E-19 3.53530E-19
 -1      2161 8.34348E-05-4.78908E-05-1.50515E-05-5.05117E-05 1.38702E-18-4.67106E-19
 -1      2162 1.94037E-05-3.98833E-05 7.21561E-06-2.49275E-05 1.91175E-18 1.93166E-18
 -1      2163 2.71037E-05-3.65617E-05 3.07737E-06-3.31695E-05 1.81816E-18 3.48469E-18
 -1      2164 1.93394E-04-5.97010E-05-5.63404E-05 5.38467E-06 3.19734E-18-1.59157E-18
 -1      2165 1.70373E-04-6.05967E-05-4.76170E-05 1.17012E-05 1.65044E-18 1.55854E-18
 -1      2166 1.70139E-04-6.92898E-05-4.26231E-05 4.18635E-06 4.50833E-19 1.26886E-18
 -1      2167 1.83165E-04-5.80692E-05-5.24092E-05-1.58954E-05 2.97711E-18-1.85712E-18
 -1      2168 1.76188E-04-6.11502E-05-4.94004E-05-2.25801E-05 2.39329E-18-1.95389E-18
 -1      2169 9.71863E-05-2.43141E-05-3.13043E-05-1.00025E-05-5.86623E-19 1.48938E-18
 -1      2170 1.58318E-04-6.59714E-05-3.95782E-05-2.36757E-06-1.43837E-18-2.53051E-19
 -1      2171 9.63464E-05-2.31052E-05-3.14549E-05-1.03854E-05-6.61983E-19 1.04315E-18
 -1      2172 1.65889E-04-6.01649E-05-4.57095E-05 2.22180E-05-1.87348E-18 1.55261E-18
 -1      2173 1.66740E-04-6.41254E-05-4.40171E-05 1.26872E-05-1.03760E-18 9.44442E-19
 -1      2174 1.88516E-04-3.12326E-05-6.57227E-05 2.05366E-06 9.53759E-19 1.65452E-18
 -1      2175 1.62958E-04-3.00265E-05-5.76580E-05 7.68465E-06 5.71747E-19 2.85132E-18
 -1      2176 1.66743E-04-3.66814E-05-5.65707E-05 2.16150E-05-2.82909E-19 2.96827E-18
 -1      2177 9.53173E-05-2.76946E-05-2.89765E-05 1.54357E-06-2.47209E-18-1.86067E-18
 -1      2178 1.36018E-05-2.64158E-05 4.72097E-06 1.70322E-06-3.94823E-19 1.39168E-18
 -1      2179 3.68339E-05-3.67508E-05-7.85219E-07 2.69855E-05 8.07222E-19-2.78208E-18
 -1      2180 9.52878E-05-2.83974E-05-2.86657E-05-3.46258E-07 4.92281E-20-4.28804E-19
 -1      2181 8.42624E-05-5.40259E-05-1.33185E-05 3.67893E-05 4.18858E-19-1.69650E-18
 -1      2182 1.74551E-05-2.71478E-05 3.46911E-06-2.44898E-05 3.96200E-19 1.94055E-18
 -1      2183 1.33634E-04-6.84009E-05-2.81637E-05 2.45831E-05-6.45016E-19 3.90016E-18
 -1      2184 4.45026E-05-3.65934E-05-3.80095E-06-4.47162E-05 1.99392E-18 3.07939E-18
 -1      2185 1.17633E-04-5.63433E-05-2.55869E-05-4.15035E-05 4.37281E-19-1.54679E-18
 -1      2186 1.21504E-04-5.16391E-05-2.97838E-05-4.01216E-05-3.53636E-20-1.82938E-18
 -1      2187 1.36357E-04-5.77862E-05-3.44565E-05-2.90193E-05 6.64709E-19-2.50256E-18
 -1      2188 1.68257E-04-1.86720E-05-6.37394E-05-1.98691E-06-2.15252E-18-2.70309E-18
 -1      2189 1.51732E-04-1.04897E-05-6.10334E-05 4.43225E-06-3.31868E-18-3.71106E-18
 -1      2190 1.51883E-04-1.74762E-05-5.76849E-05 4.32814E-06-8.06375E-19-3.27272E-18
 -1      2191 1.70350E-04-2.07356E-05-6.29969E-05 4.51594E-06-2.49536E-18-4.94434E-18
 -1      2192 1.63798E-04-3.55660E-05-5.39041E-05 1.61779E-05-1.61820E-18-5.06780E-18
 -1      2193 1.43995E-04-4.76687E-05-4.06980E-05 3.06733E-05-1.12571E-18-5.14827E-18
 -1      2194 1.12287E-04-5.14190E-05-2.59660E-05 4.46855E-05-1.55558E-18-3.92579E-18
 -1      2195 7.35254E-05-4.54782E-05-1.23564E-05 5.01298E-05-1.01136E-18-4.96435E-18
 -1      2196 1.46371E-05-2.47213E-05 3.75269E-06 1.62951E-05-5.85300E-19-2.55931E-18
 -1      2197 4.95762E-05-3.96856E-05-4.67147E-06-3.09490E-05 7.26331E-19 5.26219E-19
 -1      2198 6.89304E-05-4.19972E-05-1.17367E-05-3.73196E-05 1.53736E-19 8.31998E-19
 -1      2199 4.40159E-05-2.91977E-05-5.93624E-06-3.12392E-05-1.02067E-19 2.53051E-19
 -1      2200 1.03874E-04-6.04306E-05-1.92849E-05-3.37107E-05 1.63520E-18 1.03423E-18
 -1      2201 1.51142E-04-6.88954E-05-3.53094E-05-1.62660E-05-4.82809E-20-1.56320E-18
 -1      2202 1.82976E-04-6.23821E-05-5.08712E-05 1.00766E-05-1.16483E-18-4.53586E-19
 -1      2203 1.88685E-04-4.32956E-05-6.09655E-05 2.30693E-05-8.70326E-19 1.72075E-18
 -1      2204 1.87386E-04-4.18350E-05-6.09699E-05-2.14691E-05 3.35425E-18-3.57448E-19
 -1      2205 3.67493E-05-3.36211E-05-1.74575E-06 4.18792E-05-1.20829E-18-4.10176E-18
 -1      2206 9.52120E-05-2.63757E-05-2.94881E-05 4.19585E-06 5.20707E-19 2.26515E-19
 -1      2207 9.61866E-05-2.58612E-05-3.00659E-05 6.00121E-06 5.20475E-19 2.50259E-19
 -1      2208 8.81375E-05-1.11816E-05-3.30203E-05-3.66103E-06-3.14347E-19-3.70312E-19
 -1      2209 8.83712E-05-1.14519E-05-3.30023E-05-4.80222E-06-4.55249E-19-3.81727E-19
 -1      2210 8.87226E-05-1.19353E-05-3.29537E-05-5.81934E-06-5.16597E-19-3.55608E-19
 -1      2211 8.91296E-05-1.24072E-05-3.29251E-05-6.99177E-06-5.90897E-19-2.46513E-19
 -1      2212 8.98908E-05-1.38201E-05-3.26005E-05-4.90302E-06-3.78615E-19-3.18478E-19
 -1      2213 8.77926E-05-1.07232E-05-3.30638E-05 6.15333E-07-8.57708E-20-6.74159E-19
 -1      2214 8.77881E-05-1.07183E-05-3.30640E-05-4.95712E-07-1.25719E-19-6.15396E-19
 -1      2215 8.79734E-05-1.09483E-05-3.30452E-05 2.75768E-06 5.72326E-21-6.88327E-19
 -1      2216 8.78588E-05-1.08153E-05-3.30545E-05 1.63817E-06-7.59696E-20-6.80783E-19
 -1      2217 8.91102E-05-1.27690E-05-3.27208E-05 1.04936E-06-7.95019E-20-6.40112E-19
 -1      2218 8.84070E-05-1.14954E-05-3.29997E-05 4.88695E-06 1.15054E-19-6.94938E-19
 -1      2219 8.81678E-05-1.12186E-05-3.30179E-05 3.76382E-06 4.94919E-20-7.06161E-19
 -1      2220 8.93755E-05-1.31250E-05-3.26806E-05 3.02077E-06-4.40660E-21-6.75969E-19
 -1      2221 8.91860E-05-1.24784E-05-3.29205E-05 7.07454E-06 3.81563E-19-5.62483E-19
 -1      2222 8.87683E-05-1.19918E-05-3.29498E-05 5.90269E-06 2.17999E-19-6.35698E-19
 -1      2223 8.99322E-05-1.38732E-05-3.25958E-05 4.97465E-06 1.75930E-19-5.49135E-19
 -1      2224 9.04544E-05-1.40872E-05-3.27931E-05 9.22380E-06 5.27654E-19-5.56944E-19
 -1      2225 8.97748E-05-1.32765E-05-3.28387E-05 8.04473E-06 4.15111E-19-5.93188E-19
 -1      2226 9.08672E-05-1.51333E-05-3.24505E-05 6.87099E-06 3.54046E-19-5.15287E-19
 -1      2227 9.24498E-05-1.66584E-05-3.25825E-05 1.11081E-05 6.34563E-19-4.52269E-19
 -1      2228 9.13723E-05-1.53187E-05-3.26548E-05 1.00280E-05 5.43526E-19-5.44417E-19
 -1      2229 9.22891E-05-1.70868E-05-3.22088E-05 8.51719E-06 4.69140E-19-4.96341E-19
 -1      2230 4.82231E-05-3.07877E-05-7.27266E-06 4.61084E-05-1.53249E-18-3.47199E-18
 -1      2231 3.23759E-05-2.52921E-05-2.73767E-06 3.67272E-05-1.80079E-18-3.74494E-18
 -1      2232 9.42323E-05-2.71157E-05-2.87475E-05 1.76543E-06 4.14560E-19 1.09479E-19
 -1      2233 9.48326E-05-2.68924E-05-2.90459E-05 2.73847E-06 5.06056E-19 2.39508E-19
 -1      2234 9.53370E-05-2.58465E-05-2.97895E-05 4.36164E-06 4.91540E-19 1.41018E-20
 -1      2235 9.59114E-05-2.50940E-05-3.03042E-05-6.18989E-06-6.35506E-19 6.73252E-19
 -1      2236 9.52526E-05-2.58518E-05-2.97602E-05-4.27907E-06-6.33184E-19 5.63282E-19
 -1      2237 1.78875E-04-6.27930E-05-4.97569E-05 1.80771E-05-1.81943E-18 2.40557E-19
 -1      2238 9.51373E-05-2.65357E-05-2.93433E-05-2.94000E-06-4.54010E-19 6.20763E-19
 -1      2239 9.46659E-05-2.69054E-05-2.90401E-05-1.87688E-06-2.09649E-19 6.24523E-19
 -1      2240 9.53352E-05-2.53621E-05-2.99951E-05-4.29372E-06-5.67001E-19 3.50663E-19
 -1      2241 9.44711E-05-2.72353E-05-2.87768E-05-1.02439E-06-2.29814E-19 6.35496E-19
 -1      2242 9.42133E-05-2.74486E-05-2.86109E-05-4.21672E-07-2.63325E-19 5.69079E-19
 -1      2243 9.50304E-05-2.66957E-05-2.92992E-05-1.91745E-06-2.83687E-19 2.33841E-19
 -1      2244 9.40652E-05-2.76287E-05-2.84501E-05 8.76108E-08-2.31629E-19 5.33136E-19
 -1      2245 9.39679E-05-2.77719E-05-2.83671E-05 4.19016E-07-2.78714E-19 5.35403E-19
 -1      2246 9.47270E-05-2.74237E-05-2.88571E-05-4.36041E-07-3.51506E-19 2.90359E-19
 -1      2247 9.38840E-05-2.78809E-05-2.82744E-05 7.03996E-07-2.70155E-19 4.80292E-19
 -1      2248 9.38914E-05-2.79874E-05-2.82422E-05 8.70607E-07-4.45015E-19 5.09467E-19
 -1      2249 9.45272E-05-2.78506E-05-2.85860E-05 4.38534E-07-3.92752E-19 1.31884E-19
 -1      2250 9.38612E-05-2.80588E-05-2.81945E-05 1.01136E-06-5.08572E-19 6.67289E-19
 -1      2251 9.39310E-05-2.81421E-05-2.81933E-05 1.07731E-06-1.71396E-19 8.10808E-19
 -1      2252 9.44364E-05-2.81179E-05-2.84298E-05 9.15706E-07-3.05674E-19 4.95855E-19
 -1      2253 9.39384E-05-2.81909E-05-2.81747E-05 1.12749E-06-2.04841E-19 7.42347E-19
 -1      2254 9.40414E-05-2.82572E-05-2.81916E-05 1.13335E-06-5.53531E-19 5.90489E-19
 -1      2255 9.44296E-05-2.82921E-05-2.83498E-05 1.13791E-06-3.44022E-19 3.40227E-19
 -1      2256 9.40725E-05-2.82909E-05-2.81916E-05 1.12927E-06-7.07224E-19 6.04119E-19
 -1      2257 9.41896E-05-2.83435E-05-2.82184E-05 1.10161E-06-7.13434E-19 4.99703E-19
 -1      2258 9.44788E-05-2.84071E-05-2.83198E-05 1.20164E-06-6.57612E-19 3.86847E-19
 -1      2259 9.42341E-05-2.83665E-05-2.82298E-05 1.06802E-06-6.23382E-19 5.47474E-19
 -1      2260 9.43536E-05-2.84079E-05-2.82613E-05 1.02456E-06-3.90651E-19 4.71503E-19
 -1      2261 9.45613E-05-2.84818E-05-2.83218E-05 1.17272E-06-7.38304E-19 6.58336E-19
 -1      2262 9.44045E-05-2.84232E-05-2.82793E-05 9.78324E-07-9.10953E-20 4.31526E-19
 -1      2263 9.45202E-05-2.84555E-05-2.83124E-05 9.30890E-07 1.15791E-19 3.57156E-19
 -1      2264 9.46608E-05-2.85282E-05-2.83437E-05 1.09614E-06-2.95690E-19 6.04766E-19
 -1      2265 9.45735E-05-2.84652E-05-2.83340E-05 8.83331E-07 1.40058E-19 4.20583E-19
 -1      2266 9.46827E-05-2.84906E-05-2.83670E-05 8.39638E-07 1.81506E-19 6.67822E-19
 -1      2267 9.47671E-05-2.85547E-05-2.83774E-05 1.00251E-06 1.56376E-19 2.43846E-19
 -1      2268 9.47364E-05-2.84967E-05-2.83904E-05 7.98092E-07-2.18147E-20 4.87043E-19
 -1      2269 9.48389E-05-2.85173E-05-2.84225E-05 7.62835E-07-3.25521E-19 5.85485E-19
 -1      2270 9.48750E-05-2.85678E-05-2.84177E-05 9.12158E-07 4.70640E-20 1.58904E-19
 -1      2271 9.48928E-05-2.85217E-05-2.84465E-05 7.31602E-07-5.01092E-19 7.36168E-19
 -1      2272 9.49901E-05-2.85400E-05-2.84775E-05 7.07074E-07-2.55910E-19 6.40732E-19
 -1      2273 9.49825E-05-2.85732E-05-2.84614E-05 8.37850E-07-2.29877E-19 2.59340E-19
 -1      2274 9.50451E-05-2.85449E-05-2.85016E-05 6.87914E-07-1.43657E-19 7.87801E-19
 -1      2275 9.51394E-05-2.85634E-05-2.85315E-05 6.74222E-07-2.30898E-19 8.09728E-19
 -1      2276 9.50909E-05-2.85764E-05-2.85064E-05 7.86361E-07-1.96022E-19 1.27929E-18
 -1      2277 9.51975E-05-2.85715E-05-2.85552E-05 6.66458E-07-3.52328E-19 6.41008E-19
 -1      2278 9.52914E-05-2.85931E-05-2.85840E-05 6.61402E-07-4.24964E-19 9.22975E-19
 -1      2279 9.52033E-05-2.85839E-05-2.85515E-05 7.59152E-07-5.35683E-19 1.55189E-18
 -1      2280 9.53553E-05-2.86077E-05-2.86069E-05 6.61645E-07-2.49979E-19 8.22080E-19
 -1      2281 9.54509E-05-2.86360E-05-2.86345E-05 6.60278E-07 1.87578E-19 1.11354E-18
 -1      2282 9.53248E-05-2.86031E-05-2.85955E-05 7.52241E-07-2.29502E-19 1.45697E-18
 -1      2283 9.55242E-05-2.86614E-05-2.86557E-05 6.61824E-07-1.95118E-19 8.83867E-19
 -1      2284 9.56224E-05-2.87002E-05-2.86813E-05 6.55773E-07-4.64229E-19 8.10236E-19
 -1      2285 9.54620E-05-2.86437E-05-2.86370E-05 7.55331E-07-3.63287E-19 6.08961E-19
 -1      2286 9.57091E-05-2.87418E-05-2.86999E-05 6.47743E-07-4.30409E-19 5.83302E-19
 -1      2287 9.58088E-05-2.87952E-05-2.87218E-05 6.24429E-07-3.04535E-19 6.07883E-19
 -1      2288 9.56229E-05-2.87178E-05-2.86744E-05 7.50331E-07-5.73266E-19 6.45620E-19
 -1      2289 9.59128E-05-2.88590E-05-2.87363E-05 5.90858E-07-1.15153E-19 5.56794E-19
 -1      2290 9.60097E-05-2.89304E-05-2.87520E-05 5.32916E-07-1.17925E-20 2.26167E-19
 -1      2291 9.58156E-05-2.88396E-05-2.87050E-05 7.09529E-07-2.11099E-19 3.74703E-19
 -1      2292 9.61340E-05-2.90221E-05-2.87604E-05 4.52179E-07-3.81289E-21 6.06059E-19
 -1      2293 9.62190E-05-2.91128E-05-2.87664E-05 3.37615E-07 3.39458E-19 7.50644E-19
 -1      2294 9.60476E-05-2.90237E-05-2.87256E-05 5.94022E-07 1.14775E-19 7.68210E-19
 -1      2295 9.63636E-05-2.92358E-05-2.87664E-05 1.82850E-07 6.72517E-19 7.68500E-19
 -1      2296 9.64213E-05-2.93426E-05-2.87582E-05-1.32606E-08 6.84197E-19 1.24192E-18
 -1      2297 9.63222E-05-2.92818E-05-2.87327E-05 3.53461E-07 3.97881E-19 1.27542E-18
 -1      2298 9.65804E-05-2.94944E-05-2.87478E-05-2.71637E-07 3.63301E-19 9.61289E-19
 -1      2299 9.65872E-05-2.96056E-05-2.87206E-05-5.72841E-07 1.59648E-19 8.22393E-19
 -1      2300 9.66340E-05-2.96152E-05-2.87230E-05-7.11472E-08 2.71714E-19 6.47394E-19
 -1      2301 9.67444E-05-2.97725E-05-2.86989E-05-9.61138E-07-2.18822E-19 4.64042E-19
 -1      2302 9.66683E-05-2.98639E-05-2.86483E-05-1.38159E-06-6.93632E-20 5.15929E-19
 -1      2303 9.69607E-05-3.00044E-05-2.86951E-05-7.39027E-07-2.29153E-19-5.08766E-20
 -1      2304 9.67914E-05-3.00152E-05-2.86160E-05-1.91189E-06 5.83030E-20 1.06573E-19
 -1      2305 9.65930E-05-3.00468E-05-2.85397E-05-2.44425E-06 2.37914E-20 3.95806E-19
 -1      2306 9.72533E-05-3.03955E-05-2.86509E-05-1.69259E-06-2.95086E-19-1.43434E-19
 -1      2307 9.66313E-05-3.01313E-05-2.85002E-05-3.09804E-06 4.86619E-19 5.76415E-19
 -1      2308 9.62696E-05-3.00487E-05-2.83991E-05-3.69881E-06 6.88955E-19 1.18451E-18
 -1      2309 9.74269E-05-3.06879E-05-2.85968E-05-2.92939E-06 3.35416E-19 2.25124E-19
 -1      2310 9.61571E-05-2.99980E-05-2.83584E-05-4.40778E-06 1.24222E-19 1.02869E-18
 -1      2311 9.56032E-05-2.97439E-05-2.82381E-05-4.98525E-06-3.90537E-20 1.04328E-18
 -1      2312 9.73610E-05-3.07342E-05-2.85447E-05-4.36451E-06 2.98080E-19 9.12390E-20
 -1      2313 9.52761E-05-2.94903E-05-2.82037E-05-5.61765E-06 3.36778E-20 1.69504E-18
 -1      2314 9.45327E-05-2.90284E-05-2.80745E-05-6.03218E-06 1.58366E-19 1.46187E-18
 -1      2315 9.69198E-05-3.03666E-05-2.85096E-05-5.79374E-06-9.35541E-22 1.13371E-18
 -1      2316 9.39640E-05-2.85400E-05-2.80531E-05-6.39999E-06 5.08975E-20 1.50013E-18
 -1      2317 9.30877E-05-2.78893E-05-2.79284E-05-6.48830E-06-4.04842E-19 1.98517E-18
 -1      2318 9.60054E-05-2.94613E-05-2.85052E-05-6.88178E-06-6.95067E-20 1.76685E-18
 -1      2319 9.23300E-05-2.72118E-05-2.79222E-05-6.39131E-06-7.38354E-19 1.94928E-18
 -1      2320 9.14429E-05-2.64737E-05-2.78161E-05-6.02010E-06-6.66611E-19 2.19037E-18
 -1      2321 9.46394E-05-2.80342E-05-2.85364E-05-7.21088E-06-2.63395E-19 2.10431E-18
 -1      2322 9.06523E-05-2.57539E-05-2.78215E-05-5.32896E-06-4.20936E-19 1.85011E-18
 -1      2323 8.99269E-05-2.51061E-05-2.77454E-05-4.46566E-06 9.89920E-20 2.90978E-18
 -1      2324 9.30348E-05-2.63212E-05-2.85940E-05-6.41391E-06-5.46047E-19 2.31248E-18
 -1      2325 8.93338E-05-2.45623E-05-2.77533E-05-3.21508E-06 2.75617E-21 2.45325E-18
 -1      2326 8.89410E-05-2.42001E-05-2.77148E-05-1.97860E-06 2.69193E-19 1.83719E-18
 -1      2327 9.15948E-05-2.47726E-05-2.86543E-05-4.36962E-06-2.96012E-19 2.40786E-18
 -1      2328 8.87504E-05-2.40274E-05-2.77165E-05-4.04247E-07 7.26829E-19 1.77938E-18
 -1      2329 8.87926E-05-2.40725E-05-2.77187E-05 9.50217E-07 3.02047E-19 2.29773E-18
 -1      2330 9.07771E-05-2.38938E-05-2.86890E-05-1.35988E-06-2.44324E-20 2.52658E-18
 -1      2331 8.90744E-05-2.43368E-05-2.77113E-05 2.48152E-06-3.78463E-19 2.48951E-18
 -1      2332 8.95376E-05-2.47732E-05-2.77538E-05 3.65255E-06-5.55665E-19 2.84067E-18
 -1      2333 9.08731E-05-2.40075E-05-2.86805E-05 1.95833E-06 1.46179E-19 2.64192E-18
 -1      2334 9.01855E-05-2.53738E-05-2.77418E-05 4.79127E-06-1.04949E-18 3.40353E-18
 -1      2335 9.09471E-05-2.60557E-05-2.78205E-05 5.54800E-06-9.82921E-19 3.48413E-18
 -1      2336 9.18433E-05-2.50685E-05-2.86306E-05 4.79848E-06-4.95944E-20 3.13029E-18
 -1      2337 9.17401E-05-2.67827E-05-2.78133E-05 6.10099E-06-1.19917E-18 3.24694E-18
 -1      2338 9.26227E-05-2.75123E-05-2.79196E-05 6.35906E-06-1.19930E-18 3.35190E-18
 -1      2339 9.33426E-05-2.66978E-05-2.85613E-05 6.57129E-06-1.00897E-18 1.87637E-18
 -1      2340 9.33415E-05-2.81582E-05-2.79250E-05 6.33234E-06-1.57995E-18 3.01769E-18
 -1      2341 9.41802E-05-2.87708E-05-2.80465E-05 6.15095E-06-1.76329E-18 2.09863E-18
 -1      2342 9.49082E-05-2.83816E-05-2.85008E-05 7.08896E-06-1.70648E-18 1.98645E-18
 -1      2343 9.46885E-05-2.92084E-05-2.80669E-05 5.69670E-06-1.18817E-18 1.55766E-18
 -1      2344 9.53738E-05-2.96199E-05-2.81893E-05 5.22211E-06-8.81992E-19 7.42009E-19
 -1      2345 9.61708E-05-2.97088E-05-2.84696E-05 6.53913E-06-2.26347E-18 1.55823E-18
 -1      2346 9.56383E-05-2.98219E-05-2.82214E-05 4.54573E-06-7.36780E-19 7.56382E-19
 -1      2347 9.61265E-05-3.00272E-05-2.83321E-05 3.94162E-06-6.84996E-19 1.00329E-18
 -1      2348 9.69581E-05-3.04897E-05-2.84739E-05 5.31719E-06-1.18079E-18 1.52520E-18
 -1      2349 9.61861E-05-3.00364E-05-2.83692E-05 3.22379E-06-3.13521E-19 6.63685E-19
 -1      2350 9.64837E-05-3.00784E-05-2.84590E-05 2.62282E-06 2.89095E-19 1.00204E-18
 -1      2351 9.72808E-05-3.07446E-05-2.85068E-05 3.83659E-06-3.97447E-19 1.47596E-18
 -1      2352 9.64050E-05-2.99644E-05-2.84943E-05 1.98400E-06-8.44452E-20 3.79485E-19
 -1      2353 9.65460E-05-2.99010E-05-2.85593E-05 1.46991E-06 6.79568E-19 3.69857E-19
 -1      2354 9.72515E-05-3.06126E-05-2.85548E-05 2.41115E-06-3.35819E-19 9.56122E-19
 -1      2355 9.63929E-05-2.97284E-05-2.85877E-05 9.69740E-07 1.52510E-18-9.76723E-19
 -1      2356 9.64202E-05-2.96108E-05-2.86286E-05 5.80916E-07 1.49644E-18-1.62742E-18
 -1      2357 9.70064E-05-3.02593E-05-2.86041E-05 1.22360E-06-3.69845E-20-1.48370E-18
 -1      2358 9.62396E-05-2.94255E-05-2.86480E-05 2.34374E-07 7.38497E-19-1.14744E-18
 -1      2359 9.61938E-05-2.92901E-05-2.86687E-05-2.28885E-08 1.04162E-18-8.16997E-19
 -1      2360 9.66595E-05-2.98204E-05-2.86454E-05 3.46133E-07 1.15103E-18-1.45171E-18
 -1      2361 9.60146E-05-2.91180E-05-2.86795E-05-2.26952E-07 1.68920E-18-3.09698E-19
 -1      2362 9.59288E-05-2.89860E-05-2.86854E-05-3.64579E-07 8.68357E-19 6.25495E-19
 -1      2363 9.62884E-05-2.93842E-05-2.86742E-05-2.20976E-07 1.39157E-18-5.21551E-19
 -1      2364 9.57652E-05-2.88378E-05-2.86892E-05-4.48005E-07-7.67505E-19 1.42151E-19
 -1      2365 9.56647E-05-2.87247E-05-2.86858E-05-4.83903E-07-1.25190E-18 1.59601E-19
 -1      2366 9.59377E-05-2.89958E-05-2.86905E-05-5.15397E-07 2.85363E-19-9.90196E-19
 -1      2367 9.33397E-05-2.76896E-05-2.81284E-05-4.13942E-07 1.64470E-19-1.16105E-19
 -1      2368 9.34166E-05-2.75845E-05-2.81894E-05-1.26998E-07 3.31733E-19-9.43871E-20
 -1      2369 9.32914E-05-2.78544E-05-2.80396E-05-8.23567E-07 1.42038E-19-2.01945E-19
 -1      2370 9.32447E-05-2.77633E-05-2.80505E-05-6.82672E-07 9.93390E-20-1.93362E-19
 -1      2371 9.40129E-05-2.78059E-05-2.83856E-05-4.49448E-07 1.96941E-19-1.40325E-19
 -1      2372 9.33897E-05-2.79902E-05-2.80251E-05-1.00453E-06 3.14659E-19-2.54093E-19
 -1      2373 9.32742E-05-2.79092E-05-2.80071E-05-9.51148E-07 1.88376E-19-3.20519E-19
 -1      2374 9.39291E-05-2.80150E-05-2.82570E-05-9.01840E-07 2.99850E-19-6.09301E-21
 -1      2375 9.35709E-05-2.81054E-05-2.80545E-05-1.04695E-06 2.28480E-19-2.38335E-19
 -1      2376 9.34224E-05-2.80343E-05-2.80209E-05-1.04533E-06 2.47296E-19-2.12704E-19
 -1      2377 9.39622E-05-2.81635E-05-2.82049E-05-1.10534E-06 2.15852E-19-8.35279E-20
 -1      2378 9.37919E-05-2.82030E-05-2.81081E-05-1.00957E-06-7.82937E-21-1.04829E-19
 -1      2379 9.36326E-05-2.81417E-05-2.80672E-05-1.03662E-06 1.80760E-19-1.44123E-19
 -1      2380 9.40671E-05-2.82735E-05-2.82007E-05-1.15673E-06 9.32271E-20-1.18244E-19
 -1      2381 9.40256E-05-2.82845E-05-2.81737E-05-9.31724E-07 5.58473E-19-9.61716E-20
 -1      2382 9.38683E-05-2.82327E-05-2.81305E-05-9.71999E-07 2.79944E-19-1.54893E-19
 -1      2383 9.42110E-05-2.83557E-05-2.82258E-05-1.12033E-06 2.68429E-19 1.41260E-19
 -1      2384 9.42565E-05-2.83515E-05-2.82441E-05-8.40347E-07 4.66107E-19-2.03023E-19
 -1      2385 9.41077E-05-2.83085E-05-2.82013E-05-8.83233E-07 5.15855E-19-3.14809E-19
 -1      2386 9.43719E-05-2.84165E-05-2.82678E-05-1.03990E-06 5.94926E-19-2.33402E-19
 -1      2387 9.44780E-05-2.84058E-05-2.83156E-05-7.54486E-07 5.13297E-19-3.29563E-20
 -1      2388 9.43394E-05-2.83705E-05-2.82743E-05-7.92384E-07 4.87344E-19-8.11306E-20
 -1      2389 9.45371E-05-2.84601E-05-2.83194E-05-9.45836E-07 3.08809E-19-1.23563E-19
 -1      2390 9.46896E-05-2.84493E-05-2.83873E-05-6.88426E-07-1.55411E-19 1.68230E-21
 -1      2391 9.45597E-05-2.84204E-05-2.83473E-05-7.15449E-07 4.09860E-19 6.98437E-20
 -1      2392 9.47003E-05-2.84895E-05-2.83765E-05-8.59920E-07 3.36194E-19-5.10755E-20
 -1      2393 9.48960E-05-2.84839E-05-2.84604E-05-6.54201E-07 2.14422E-19-4.24425E-19
 -1      2394 9.47705E-05-2.84600E-05-2.84204E-05-6.65092E-07-1.12741E-19-1.17515E-19
 -1      2395 9.48600E-05-2.85067E-05-2.84375E-05-7.98858E-07 6.28009E-20-2.02713E-19
 -1      2396 9.51057E-05-2.85109E-05-2.85377E-05-6.63855E-07 1.40756E-19-6.29855E-19
 -1      2397 9.49778E-05-2.84907E-05-2.84957E-05-6.52950E-07 1.00080E-19-5.82239E-19
 -1      2398 9.50183E-05-2.85125E-05-2.85031E-05-7.77092E-07 1.76007E-19-2.75000E-19
 -1      2399 9.53307E-05-2.85311E-05-2.86241E-05-7.31804E-07 8.94014E-19-8.01535E-19
 -1      2400 9.51913E-05-2.85136E-05-2.85771E-05-6.91885E-07 4.41681E-19-7.64110E-19
 -1      2401 9.51800E-05-2.85061E-05-2.85754E-05-8.09400E-07 3.87802E-19-4.68455E-19
 -1      2402 9.55867E-05-2.85438E-05-2.87263E-05-8.77620E-07 4.74226E-19-5.23581E-20
 -1      2403 9.54239E-05-2.85283E-05-2.86701E-05-7.98476E-07 9.29290E-19-2.83805E-19
 -1      2404 9.53513E-05-2.84845E-05-2.86583E-05-9.13593E-07 6.67321E-19-4.82078E-19
 -1      2405 9.58934E-05-2.85463E-05-2.88536E-05-1.12961E-06-3.18587E-19-3.61159E-20
 -1      2406 9.56913E-05-2.85327E-05-2.87824E-05-9.96116E-07 1.28236E-19 1.79986E-19
 -1      2407 9.55390E-05-2.84410E-05-2.87577E-05-1.11365E-06 2.23645E-20 1.49186E-19
 -1      2408 9.62741E-05-2.85323E-05-2.90184E-05-1.52959E-06-4.77418E-19-2.32381E-19
 -1      2409 9.60121E-05-2.85216E-05-2.89245E-05-1.31906E-06-4.82423E-19-9.70161E-20
 -1      2410 9.57487E-05-2.83638E-05-2.88807E-05-1.44360E-06-3.92718E-19 2.83220E-19
 -1      2411 9.67561E-05-2.84901E-05-2.92369E-05-2.13921E-06-4.93943E-19-6.45826E-19
 -1      2412 9.64076E-05-2.84847E-05-2.91098E-05-1.81784E-06-5.12146E-19-1.80409E-19
 -1      2413 9.59827E-05-2.82328E-05-2.90369E-05-1.95246E-06-3.58304E-19 1.92341E-19
 -1      2414 9.73690E-05-2.84000E-05-2.95295E-05-3.04783E-06 3.92323E-19-1.34559E-18
 -1      2415 9.68993E-05-2.84044E-05-2.93555E-05-2.56621E-06-2.01587E-19-1.15198E-18
 -1      2416 9.62350E-05-2.80161E-05-2.92367E-05-2.71027E-06-4.65827E-20-2.61115E-19
 -1      2417 9.81406E-05-2.82329E-05-2.99202E-05-4.38049E-06 5.80087E-19-6.62132E-19
 -1      2418 9.75066E-05-2.82533E-05-2.96820E-05-3.66921E-06 5.94740E-19-1.07912E-18
 -1      2419 9.64835E-05-2.76653E-05-2.94908E-05-3.81471E-06 3.47747E-19-9.15372E-19
 -1      2420 9.90908E-05-2.79529E-05-3.04334E-05-6.30168E-06-9.92683E-20-8.00595E-19
 -1      2421 9.82400E-05-2.79930E-05-3.01111E-05-5.27018E-06 2.35369E-19-6.17852E-19
 -1      2422 9.66796E-05-2.71138E-05-2.98060E-05-5.39618E-06 1.71812E-19 2.03578E-19
 -1      2423 1.00225E-04-2.75375E-05-3.10827E-05-9.00260E-06-5.57301E-19 1.01522E-19
 -1      2424 9.90953E-05-2.75843E-05-3.06591E-05-7.55006E-06-3.21720E-19-4.43491E-19
 -1      2425 9.67342E-05-2.62851E-05-3.01756E-05-7.61652E-06-3.73320E-19-2.96553E-19
 -1      2426 1.01547E-04-2.70468E-05-3.18476E-05-1.26454E-05-5.59194E-19-2.15265E-19
 -1      2427 1.00058E-04-2.70269E-05-3.13205E-05-1.07040E-05-4.36143E-19-6.88677E-20
 -1      2428 9.65151E-05-2.51336E-05-3.05620E-05-1.06517E-05-5.56970E-19-4.26306E-19
 -1      2429 1.03143E-04-2.68119E-05-3.26250E-05-1.72127E-05-8.05608E-19 7.64775E-19
 -1      2430 1.01155E-04-2.64813E-05-3.20351E-05-1.48631E-05-7.04496E-19 1.19478E-19
 -1      2431 9.58903E-05-2.37706E-05-3.08616E-05-1.46434E-05-9.71067E-19-3.23537E-19
 -1      2432 1.05483E-04-2.78507E-05-3.31655E-05-2.21907E-05-1.23207E-18 1.03781E-18
 -1      2433 1.02657E-04-2.65657E-05-3.26315E-05-1.99023E-05-6.06817E-19 9.93831E-19
 -1      2434 9.49138E-05-2.27705E-05-3.08529E-05-1.95974E-05-8.87097E-19 2.10537E-19
 -1      2435 1.10064E-04-3.25903E-05-3.30708E-05-2.61235E-05-1.15964E-18 1.27223E-18
 -1      2436 1.05604E-04-2.89384E-05-3.27852E-05-2.50805E-05-1.51542E-18 1.74582E-18
 -1      2437 9.42841E-05-2.37220E-05-3.01548E-05-2.52374E-05-1.73051E-18 3.69015E-19
 -1      2438 1.20159E-04-4.44573E-05-3.22387E-05-2.56595E-05-1.40502E-18 2.25361E-18
 -1      2439 1.12872E-04-3.68388E-05-3.22116E-05-2.78662E-05-8.34063E-19 2.33350E-18
 -1      2440 9.68054E-05-3.05311E-05-2.83650E-05-3.06388E-05-1.59592E-18 1.53768E-18
 -1      2441 1.63327E-04-6.80144E-05-4.08368E-05 4.20136E-06-1.40946E-18 1.16044E-19
 -1      2442 9.50704E-05-2.00238E-05-3.22114E-05-1.17498E-05-7.01608E-19 6.65649E-19
 -1      2443 9.54665E-05-2.33623E-05-3.09272E-05-7.96744E-06-6.41568E-19 6.60884E-19
 -1      2444 9.50810E-05-2.25588E-05-3.10539E-05-7.64918E-06-7.31459E-19 3.89286E-19
 -1      2445 9.32143E-05-1.76214E-05-3.24149E-05-1.14068E-05-7.58362E-19 3.86366E-19
 -1      2446 1.13877E-04-4.45545E-05-2.91685E-05 2.94976E-05 1.13502E-19 4.62295E-19
 -1      2447 1.24794E-04-5.50385E-05-2.94891E-05 2.51190E-05-9.93993E-19 4.86726E-19
 -1      2448 9.84411E-05-2.47074E-05-3.16456E-05 1.84146E-05 8.70654E-19 8.72689E-19
 -1      2449 1.00271E-04-2.52980E-05-3.20319E-05 2.08384E-05 1.16359E-18 1.18339E-18
 -1      2450 9.81734E-05-2.53895E-05-3.12367E-05 1.36790E-05 4.90624E-19-8.25650E-20
 -1      2451 9.94836E-05-2.53547E-05-3.16895E-05 1.58940E-05 3.68188E-19 4.76459E-19
 -1      2452 9.22247E-05-2.14833E-05-3.02377E-05 1.75078E-05 9.38709E-19 1.04034E-18
 -1      2453 9.78531E-05-2.63093E-05-3.06913E-05 9.92749E-06 1.16924E-18-1.84547E-19
 -1      2454 9.88844E-05-2.61359E-05-3.11079E-05 1.16874E-05 6.38372E-19 4.69467E-19
 -1      2455 9.39934E-05-2.31330E-05-3.03139E-05 1.31089E-05 6.41037E-19 1.68029E-18
 -1      2456 9.73986E-05-2.70500E-05-3.01672E-05 7.11670E-06 1.10160E-18 1.01087E-18
 -1      2457 9.82257E-05-2.69015E-05-3.05094E-05 8.42394E-06 1.54510E-18 5.38196E-19
 -1      2458 9.50724E-05-2.47474E-05-3.01051E-05 9.65435E-06 9.74988E-19 9.42295E-19
 -1      2459 9.68763E-05-2.75395E-05-2.97271E-05 5.06463E-06-2.15922E-19 2.01385E-18
 -1      2460 9.75356E-05-2.74519E-05-2.99904E-05 6.00989E-06 7.06138E-19 2.05411E-18
 -1      2461 9.55827E-05-2.59824E-05-2.98111E-05 7.03187E-06-9.72136E-20 2.29199E-18
 -1      2462 9.63655E-05-2.78105E-05-2.93853E-05 3.56563E-06-1.68597E-18 1.07918E-18
 -1      2463 9.68797E-05-2.77824E-05-2.95788E-05 4.25241E-06-9.41427E-19 2.49660E-18
 -1      2464 9.57186E-05-2.68041E-05-2.95276E-05 5.08097E-06-1.16344E-18 7.05504E-19
 -1      2465 9.59332E-05-2.79155E-05-2.91379E-05 2.43819E-06-1.74023E-18-3.61824E-19
 -1      2466 9.62985E-05-2.79480E-05-2.92715E-05 2.95318E-06-1.50344E-18 8.27113E-19
 -1      2467 9.56347E-05-2.72795E-05-2.92929E-05 3.61913E-06-7.95203E-19 3.48303E-19
 -1      2468 9.36028E-05-2.56045E-05-2.91501E-05 7.43149E-07 1.16645E-18-1.09257E-18
 -1      2469 9.36944E-05-2.57189E-05-2.91383E-05 1.12423E-06 2.00619E-18-2.54545E-18
 -1      2470 9.38494E-05-2.58776E-05-2.91431E-05 1.54703E-06 7.57531E-19-1.17149E-18
 -1      2471 9.40706E-05-2.61214E-05-2.91187E-05 1.81463E-06-1.10345E-19-8.08095E-19
 -1      2472 9.35202E-05-2.56291E-05-2.90825E-05 1.49164E-06 3.32283E-19-6.51432E-19
 -1      2473 9.43882E-05-2.64732E-05-2.91204E-05 2.09693E-06-8.59694E-19-1.74631E-18
 -1      2474 9.47266E-05-2.68493E-05-2.90837E-05 2.14793E-06-1.07657E-18-1.99505E-18
 -1      2475 9.40214E-05-2.61202E-05-2.90995E-05 2.24831E-06-2.71207E-20-1.38273E-18
 -1      2476 2.04695E-05-1.90883E-05-3.40468E-07 1.21392E-05-1.36881E-18-3.64224E-20
 -1      2477 1.55977E-05-1.56042E-05 3.05351E-07-3.27686E-06-1.41194E-18 1.66230E-18
 -1      2478 9.36539E-05-2.56723E-05-2.91376E-05-1.27256E-07-4.29412E-19 5.21951E-20
 -1      2479 9.36080E-05-2.56400E-05-2.91407E-05 2.56452E-07 3.27133E-19 6.30127E-19
 -1      2480 9.33280E-05-2.54992E-05-2.90580E-05 4.99300E-07 1.12265E-18-1.21692E-18
 -1      2481 9.39309E-05-2.60148E-05-2.91050E-05-8.55441E-07-2.12589E-18 8.44080E-20
 -1      2482 9.37878E-05-2.58635E-05-2.91234E-05-5.49294E-07-1.36845E-18-9.33032E-19
 -1      2483 9.34942E-05-2.57367E-05-2.90307E-05-4.75959E-07-8.55071E-20-3.64124E-19
 -1      2484 9.43230E-05-2.65203E-05-2.90537E-05-1.32605E-06-2.76811E-18-7.33141E-19
 -1      2485 9.41351E-05-2.62963E-05-2.90852E-05-1.14087E-06-2.66595E-18 6.10393E-19
 -1      2486 9.38981E-05-2.62263E-05-2.89987E-05-1.22700E-06-1.55106E-18-6.80116E-20
 -1      2487 9.47226E-05-2.70713E-05-2.89880E-05-1.51200E-06-1.06168E-18-7.69311E-19
 -1      2488 9.45379E-05-2.68232E-05-2.90284E-05-1.45260E-06-1.42169E-18-1.48313E-18
 -1      2489 9.43982E-05-2.68286E-05-2.89591E-05-1.65573E-06-1.15644E-18-7.19374E-20
 -1      2490 9.50477E-05-2.75663E-05-2.89158E-05-1.45883E-06 1.43830E-18 7.14143E-19
 -1      2491 9.49009E-05-2.73374E-05-2.89591E-05-1.49938E-06 2.50620E-19 2.24762E-20
 -1      2492 9.48656E-05-2.74125E-05-2.89120E-05-1.76377E-06-1.66288E-19 5.71731E-19
 -1      2493 9.52720E-05-2.79668E-05-2.88417E-05-1.24534E-06 1.89278E-18 1.79439E-18
 -1      2494 9.51725E-05-2.77737E-05-2.88847E-05-1.35045E-06 1.64385E-18 1.13944E-18
 -1      2495 9.52218E-05-2.78960E-05-2.88590E-05-1.62308E-06 1.18240E-18 9.19917E-19
 -1      2496 9.53911E-05-2.82472E-05-2.87741E-05-9.62228E-07 1.39185E-18 2.40608E-18
 -1      2497 9.53362E-05-2.81012E-05-2.88118E-05-1.09144E-06 1.70937E-18 2.39357E-18
 -1      2498 9.54384E-05-2.82416E-05-2.88038E-05-1.33214E-06 2.30937E-18 1.47824E-18
 -1      2499 9.54266E-05-2.84149E-05-2.87173E-05-6.76895E-07 2.97349E-19-1.06423E-18
 -1      2500 9.54069E-05-2.83184E-05-2.87479E-05-7.98295E-07 8.29734E-19-1.01057E-19
 -1      2501 9.55394E-05-2.84517E-05-2.87521E-05-9.92301E-07 5.61377E-19 1.00092E-18
 -1      2502 1.04214E-04-5.41013E-05-2.15626E-05 3.62605E-05-2.16205E-19 1.03889E-18
 -1      2503 7.96272E-05-4.40861E-05-1.48800E-05 3.63529E-05 5.22196E-19-2.07512E-18
 -1      2504 9.36211E-05-2.74701E-05-2.83388E-05 3.68901E-07 4.08561E-19-4.29389E-20
 -1      2505 9.39030E-05-2.73344E-05-2.84857E-05 9.03411E-07 4.22066E-19 1.21505E-19
 -1      2506 9.42670E-05-2.74864E-05-2.86337E-05 4.01306E-07 3.73609E-19 1.61573E-20
 -1      2507 5.14601E-05-3.35131E-05-7.70472E-06 3.49358E-05-8.08916E-20-4.53269E-18
 -1      2508 3.29978E-05-2.54884E-05-2.99065E-06 2.39614E-05-7.37130E-19-2.61860E-18
 -1      2509 1.78111E-05-1.78210E-05 3.34003E-07-1.93161E-05-5.82018E-19 9.70276E-19
 -1      2510 2.53357E-05-2.18849E-05-1.27789E-06-3.24931E-05 1.83383E-19 1.78555E-18
 -1      2511 1.55394E-04-1.53834E-05-6.05778E-05-3.51822E-06-2.51823E-18-1.28760E-18
 -1      2512 1.57186E-04-2.31324E-05-5.76771E-05-1.03011E-06-1.55240E-18-2.87335E-18
 -1      2513 3.91784E-05-2.93564E-05-3.93343E-06-4.11784E-05 1.31184E-18 3.16896E-18
 -1      2514 5.72297E-05-3.57681E-05-9.08786E-06-4.93941E-05 1.75717E-18 1.46156E-18
 -1      2515 9.53585E-05-2.84473E-05-2.86778E-05-4.19690E-07 4.59863E-19 2.50572E-20
 -1      2516 9.93051E-05-2.55272E-05-3.16086E-05 2.38170E-05 6.39781E-19 1.38743E-18
 -1      2517 1.02337E-04-2.78960E-05-3.17512E-05 2.56973E-05 4.47750E-19 1.41993E-18
 -1      2518 9.00602E-05-2.09370E-05-2.95162E-05 2.28381E-05 1.22902E-18 2.03002E-18
 -1      2519 1.02936E-04-3.06843E-05-3.07194E-05 2.86000E-05 1.01300E-19 1.11702E-19
 -1      2520 1.08747E-04-3.68364E-05-3.05296E-05 2.84015E-05-1.67236E-19 6.21802E-19
 -1      2521 9.33373E-05-3.58324E-05-2.46547E-05 3.45177E-05-3.69942E-19 1.34996E-19
 -1      2522 8.78444E-05-1.07977E-05-3.30557E-05-1.51843E-06-1.51133E-19-5.96946E-19
 -1      2523 8.79496E-05-1.09197E-05-3.30470E-05-2.63709E-06-2.37200E-19-4.88182E-19
 -1      2524 8.93483E-05-1.30914E-05-3.26834E-05-2.92991E-06-2.35439E-19-3.68377E-19
 -1      2525 8.91001E-05-1.27566E-05-3.27218E-05-9.41123E-07-1.43421E-19-6.01688E-19
 -1      2526 1.00431E-04-5.50165E-05-1.93631E-05-3.42854E-05 8.22469E-19 1.90879E-18
 -1      2527 1.26082E-04-6.52397E-05-2.62696E-05-2.96407E-05 1.06176E-18 1.16742E-18
 -1      2528 2.07158E-05-1.45478E-05-2.13018E-06-6.86844E-06-1.14225E-18-2.28699E-20
 -1      2529 2.88649E-05-1.88407E-05-3.82550E-06-2.01031E-05-5.61689E-19 5.31090E-19
 -1      2530 2.07716E-05-1.81654E-05-8.66080E-07 2.49975E-05-1.96787E-18-4.21822E-18
 -1      2531 1.68520E-05-1.38887E-05-7.79741E-07 8.15623E-06-1.93951E-18-1.82239E-18
 -1      2532 3.27000E-05-1.68351E-05-6.15547E-06 2.99529E-05-2.42389E-18-3.85019E-18
 -1      2533 8.99119E-05-4.85329E-05-1.76587E-05 5.07373E-05-4.17799E-19-3.48041E-18
 -1      2534 7.10161E-05-4.19986E-05-1.21614E-05 5.02803E-05-5.98005E-19-4.09466E-18
 -1      2535 1.25499E-04-5.59853E-05-2.99782E-05 3.84941E-05-9.96958E-19-4.40256E-18
 -1      2536 1.08451E-04-5.43596E-05-2.31183E-05 4.35741E-05-5.80218E-19-3.94220E-18
 -1      2537 1.49225E-04-4.99820E-05-4.28052E-05 1.85099E-05-5.44219E-19-4.59092E-18
 -1      2538 1.38354E-04-5.42990E-05-3.61345E-05 2.53324E-05-5.74182E-19-4.52824E-18
 -1      2539 1.57796E-04-3.37943E-05-5.35757E-05 3.56573E-06-1.11057E-18-3.54060E-18
 -1      2540 1.52940E-04-4.11361E-05-4.81927E-05 8.92000E-06-1.01538E-18-3.79090E-18
 -1      2541 1.50871E-04-7.51215E-06-6.21182E-05-3.24296E-08-3.79386E-18-2.35949E-18
 -1      2542 1.53497E-04-9.25623E-06-6.21422E-05-2.26802E-06-3.42201E-18-2.14130E-18
 -1      2543 1.46149E-04-5.21353E-05-4.03144E-05-1.46330E-05 9.96574E-19-1.85987E-18
 -1      2544 1.51075E-04-4.61346E-05-4.54932E-05-7.65214E-06 6.68785E-19-1.65426E-18
 -1      2545 1.50858E-04-3.66581E-05-4.93225E-05 1.05160E-06 9.38089E-20-2.36915E-18
 -1      2546 1.51588E-04-2.90268E-05-5.31197E-05 3.50487E-06 6.44592E-19-2.07184E-18
 -1      2547 7.89166E-05-4.52368E-05-1.41090E-05-4.95190E-05 1.64176E-18-7.66141E-19
 -1      2548 9.50431E-05-5.02869E-05-1.92315E-05-4.89481E-05 1.79402E-18-1.17534E-18
 -1      2549 9.63310E-05-2.50942E-05-3.05559E-05 7.59382E-06 5.90686E-19 2.03920E-19
 -1      2550 9.74524E-05-2.37778E-05-3.15963E-05 1.06934E-05 6.36175E-19 2.55036E-19
 -1      2551 9.58874E-05-2.13025E-05-3.20208E-05 1.18952E-05 6.71816E-19 1.75627E-20
 -1      2552 9.58766E-05-2.41606E-05-3.07686E-05 7.68477E-06 5.62767E-19-9.40504E-22
 -1      2553 9.08066E-05-1.50504E-05-3.24595E-05-6.80067E-06-4.91523E-19-2.14217E-19
 -1      2554 8.97018E-05-1.31894E-05-3.28457E-05-7.95811E-06-5.98965E-19-2.34615E-19
 -1      2555 9.03332E-05-1.38983E-05-3.28181E-05-9.17699E-06-6.59389E-19-1.28769E-19
 -1      2556 7.86012E-05-4.08780E-05-1.62694E-05 4.82241E-05-4.73809E-19-2.66466E-18
 -1      2557 6.42140E-05-3.62635E-05-1.15162E-05 4.83241E-05-1.27733E-18-3.15382E-18
 -1      2558 5.79679E-05-2.83489E-05-1.20280E-05 4.47745E-05-1.60163E-18-3.33519E-18
 -1      2559 9.42442E-05-1.90811E-05-3.22580E-05 1.16042E-05 6.58436E-19-2.16854E-19
 -1      2560 1.75103E-04-6.87886E-05-4.60262E-05-1.07724E-05 1.96882E-18-2.28826E-18
 -1      2561 8.92350E-05-2.43102E-05-2.76326E-05 2.90289E-05-3.70577E-20 1.18611E-19
 -1      2562 1.47960E-04-6.86148E-05-3.39628E-05-1.22311E-05-7.64447E-19 4.78150E-19
 -1      2563 1.41817E-04-6.41451E-05-3.33176E-05-1.41008E-05-3.91964E-19 7.17503E-19
 -1      2564 1.31726E-04-5.58625E-05-3.20774E-05-2.26911E-05-6.13358E-19 1.95692E-18
 -1      2565 1.08813E-04-4.71594E-05-2.62877E-05-3.17504E-05-5.33737E-19 2.56767E-18
 -1      2566 9.20547E-05-1.62415E-05-3.25335E-05-1.03903E-05-7.58741E-19 1.66336E-19
 -1      2567 9.51884E-05-2.72855E-05-2.91089E-05 2.37931E-06-1.22934E-18-4.76173E-19
 -1      2568 9.57214E-05-2.79086E-05-2.90522E-05 2.04300E-06-2.88514E-18 1.15620E-19
 -1      2569 9.49799E-05-2.69509E-05-2.91471E-05 2.78730E-06-1.16921E-18-8.84699E-19
 -1      2570 2.28610E-05-1.25577E-05-3.83886E-06-1.04288E-05-1.32262E-18 7.00496E-19
 -1      2571 3.45755E-05-1.75473E-05-6.63855E-06 1.95858E-05-1.71694E-18-1.30888E-18
 -1      2572 7.47728E-05-3.52327E-05-1.62386E-05 3.55492E-05-4.27540E-19-1.85606E-18
 -1      2573 1.30597E-04-6.29616E-05-2.88195E-05 2.24125E-05-1.76564E-18 1.36039E-18
 -1      2574 9.47317E-05-2.69372E-05-2.90672E-05 1.88388E-06 4.86892E-19 2.64747E-20
 -1      2575 9.47148E-05-2.06024E-05-3.17181E-05 9.67085E-06 5.55905E-19-2.38969E-19
 -1      2576 1.51175E-04-6.90031E-05-3.52907E-05-1.10632E-05-3.28225E-19-5.38501E-19
 -1      2577 3.85741E-05-2.24485E-05-6.37340E-06-3.73601E-05-2.70415E-19 1.42767E-18
 -1      2578 1.49458E-04-2.81230E-05-5.20815E-05-5.70534E-06-9.22842E-19-1.02533E-18
 -1      2579 1.10517E-04-5.52351E-05-2.33212E-05-4.26603E-05 1.15239E-18-3.53530E-19
 -1      2580 1.22301E-04-5.89924E-05-2.77174E-05-3.40507E-05-1.51831E-19-2.06210E-18
 -1      2581 1.04614E-04-5.22218E-05-2.20464E-05-4.31078E-05 1.58130E-18-2.20970E-19
 -1      2582 1.43952E-04-2.22995E-05-5.26282E-05 9.32610E-06-7.87317E-19-2.66985E-18
 -1      2583 7.18430E-05-3.90555E-05-1.35621E-05-4.87084E-05 1.96999E-18-5.71747E-21
 -1      2584 1.46537E-04-4.24124E-05-4.47783E-05 1.91713E-06-1.97994E-20-1.26886E-18
 -1      2585 1.40444E-04-5.67276E-05-3.58335E-05-1.94524E-05 6.99702E-19-1.72615E-18
 -1      2586 1.45010E-04-8.03550E-06-5.90944E-05 3.00422E-06-3.42646E-18-2.40399E-18
 -1      2587 1.34673E-04-5.28228E-06-5.59665E-05 1.61148E-06-2.47037E-18-8.01823E-19
 -1      2588 1.35504E-04-8.49641E-06-5.50185E-05 5.98389E-06-2.32087E-18-1.59073E-18
 -1      2589 4.45524E-05-2.21375E-05-9.07475E-06-2.55730E-05-6.53698E-19 4.67350E-19
 -1      2590 1.48853E-04-4.78093E-05-4.32670E-05 5.42204E-06-2.34099E-19-2.83248E-18
 -1      2591 1.35466E-04-5.86644E-05-3.27552E-05 2.63108E-05-5.35325E-19-4.48112E-18
 -1      2592 9.54810E-05-2.85641E-05-2.86762E-05-4.49755E-07-4.82687E-19 1.47480E-19
 -1      2593 9.54461E-05-2.84745E-05-2.86997E-05-5.67935E-07 1.84033E-20-4.99933E-19
 -1      2594 9.55588E-05-2.85735E-05-2.87112E-05-7.03301E-07-9.96497E-19-6.49972E-19
 -1      2595 9.55663E-05-2.86444E-05-2.86849E-05-4.80541E-07-1.06748E-18 5.65626E-19
 -1      2596 2.57685E-05-1.04970E-05-5.83493E-06 4.25491E-07-2.31274E-18-1.94458E-18
 -1      2597 1.44421E-04-1.08039E-05-5.75324E-05-5.21467E-06-2.26475E-18 6.23204E-19
 -1      2598 1.72433E-04-7.23786E-05-4.30091E-05 1.06506E-06-1.73938E-18-7.09814E-19
 -1      2599 1.06041E-04-5.39424E-05-2.20120E-05 4.45427E-05-2.99003E-19-3.83505E-18
 -1      2600 9.56733E-05-2.87129E-05-2.86956E-05-5.88545E-07-1.38742E-18-1.45962E-18
 -1      2601 1.62748E-04-6.93554E-05-4.02822E-05-8.77325E-07-6.25428E-19-2.96885E-19
 -1      2602 1.51428E-04-6.87794E-05-3.55281E-05 1.32315E-05-2.69526E-18 1.45001E-18
 -1      2603 3.61262E-05-1.57661E-05-8.10366E-06-3.09334E-05-1.54456E-18 5.25584E-19
 -1      2604 4.83669E-05-2.34386E-05-1.03864E-05-4.11389E-05 6.38028E-19 4.93397E-19
 -1      2605 9.05614E-05-1.51719E-05-3.23322E-05 3.19488E-06-4.34529E-20-5.95984E-19
 -1      2606 9.03720E-05-1.49005E-05-3.23651E-05 2.26097E-06-7.52368E-20-6.18193E-19
 -1      2607 9.02376E-05-1.46973E-05-3.23942E-05 1.42199E-06-8.35970E-20-6.56391E-19
 -1      2608 9.01723E-05-1.46047E-05-3.24053E-05 4.65039E-07-8.24816E-20-5.70406E-19
 -1      2609 9.14235E-05-1.65917E-05-3.20577E-05 1.64053E-06-1.20436E-19-6.07170E-19
 -1      2610 9.21452E-05-1.75520E-05-3.20064E-05 6.47379E-06 3.83787E-19-4.88131E-19
 -1      2611 9.16199E-05-1.67566E-05-3.21067E-05 5.63379E-06 2.88551E-19-4.08609E-19
 -1      2612 9.35615E-05-1.97745E-05-3.16652E-05 7.59729E-06 4.45182E-19-5.16086E-19
 -1      2613 9.27730E-05-1.85209E-05-3.18394E-05 7.01980E-06 4.13701E-19-4.76833E-19
 -1      2614 9.34390E-05-1.98665E-05-3.15081E-05 5.73502E-06 3.41452E-19-4.38112E-19
 -1      2615 1.14847E-04-5.62044E-05-2.53906E-05 3.87742E-05-1.43784E-19-3.57991E-18
 -1      2616 9.96769E-05-4.99393E-05-2.07384E-05 4.39248E-05 1.34890E-19-3.25404E-18
 -1      2617 9.52176E-05-2.54083E-05-2.99305E-05 3.97765E-06 4.69210E-19-2.07933E-19
 -1      2618 9.55538E-05-2.45585E-05-3.03941E-05 5.61056E-06 4.51177E-19-2.01034E-19
 -1      2619 9.28515E-05-1.80008E-05-3.20783E-05-8.82031E-06-7.30520E-19 1.50567E-19
 -1      2620 9.52467E-05-2.39910E-05-3.05168E-05-5.30396E-06-6.63525E-19 3.48019E-19
 -1      2621 9.51641E-05-2.50039E-05-3.00879E-05-3.79659E-06-4.69218E-19 3.22215E-19
 -1      2622 9.53603E-05-2.59009E-05-2.97376E-05-2.70046E-06-3.74416E-19 2.12768E-19
 -1      2623 9.51938E-05-2.64886E-05-2.94567E-05-1.71834E-06-3.63133E-19 1.67298E-19
 -1      2624 9.52105E-05-2.46886E-05-3.02187E-05-3.54236E-06-5.10624E-19 2.28579E-19
 -1      2625 9.52171E-05-2.70022E-05-2.92114E-05-9.75237E-07-3.36177E-19 1.41432E-19
 -1      2626 9.50831E-05-2.73560E-05-2.90320E-05-3.68787E-07-3.16641E-19 6.98800E-20
 -1      2627 9.54149E-05-2.63247E-05-2.96154E-05-1.61513E-06-4.27357E-19 1.09032E-19
 -1      2628 9.50502E-05-2.76609E-05-2.88651E-05 9.97222E-08-2.69828E-19 5.81318E-20
 -1      2629 9.49732E-05-2.78844E-05-2.87552E-05 4.52898E-07-3.91472E-19 1.35793E-19
 -1      2630 9.54168E-05-2.73196E-05-2.91918E-05-3.33024E-07-3.31255E-19 1.23125E-19
 -1      2631 9.49311E-05-2.80681E-05-2.86453E-05 7.25083E-07-3.73408E-19 2.30416E-19
 -1      2632 9.49040E-05-2.82136E-05-2.85825E-05 9.11620E-07-2.63673E-19 2.56360E-19
 -1      2633 9.53560E-05-2.79312E-05-2.89031E-05 4.61363E-07-3.49097E-19 7.77726E-20
 -1      2634 9.48691E-05-2.83235E-05-2.85135E-05 1.04990E-06-3.43887E-19 2.02882E-19
 -1      2635 9.48778E-05-2.84188E-05-2.84822E-05 1.12962E-06-4.60929E-19 8.02601E-20
 -1      2636 9.52917E-05-2.83078E-05-2.87128E-05 9.10324E-07-4.65071E-19-3.83445E-20
 -1      2637 9.48535E-05-2.84815E-05-2.84419E-05 1.18088E-06-3.50967E-19 2.42568E-19
 -1      2638 9.48849E-05-2.85429E-05-2.84315E-05 1.19500E-06-4.79817E-19 4.45941E-19
 -1      2639 9.52424E-05-2.85340E-05-2.85934E-05 1.12631E-06-2.86917E-19-2.60819E-20
 -1      2640 9.48702E-05-2.85746E-05-2.84111E-05 1.19331E-06-5.73385E-19 8.07244E-19
 -1      2641 9.49145E-05-2.86123E-05-2.84141E-05 1.17028E-06-5.19793E-19 1.03290E-18
 -1      2642 9.52108E-05-2.86613E-05-2.85242E-05 1.19338E-06-2.51387E-19 7.49834E-19
 -1      2643 9.49074E-05-2.86234E-05-2.84074E-05 1.13988E-06-6.75834E-19 1.06718E-18
 -1      2644 9.49579E-05-2.86444E-05-2.84187E-05 1.09928E-06-3.72391E-19 7.85515E-19
 -1      2645 9.51941E-05-2.87223E-05-2.84900E-05 1.17246E-06-5.25189E-19 1.29450E-18
 -1      2646 9.49564E-05-2.86420E-05-2.84212E-05 1.05715E-06-1.06412E-19 6.23480E-19
 -1      2647 9.50091E-05-2.86513E-05-2.84376E-05 1.01226E-06-5.39385E-20 4.96849E-19
 -1      2648 9.51889E-05-2.87389E-05-2.84800E-05 1.10679E-06-4.17465E-19 1.04955E-18
 -1      2649 9.50119E-05-2.86405E-05-2.84461E-05 9.69998E-07 9.79718E-21 3.37309E-19
 -1      2650 9.50650E-05-2.86425E-05-2.84653E-05 9.29541E-07 3.50108E-20 3.27116E-19
 -1      2651 9.51924E-05-2.87267E-05-2.84863E-05 1.02650E-06-1.15221E-19 5.93712E-19
 -1      2652 9.50718E-05-2.86272E-05-2.84776E-05 8.94713E-07 4.93129E-22 4.04450E-19
 -1      2653 9.51250E-05-2.86255E-05-2.84982E-05 8.63930E-07-5.85354E-20 7.19543E-19
 -1      2654 9.52031E-05-2.86972E-05-2.85033E-05 9.51899E-07 1.53545E-19 8.78100E-19
 -1      2655 9.51362E-05-2.86096E-05-2.85127E-05 8.40950E-07 2.11657E-20 9.53258E-19
 -1      2656 9.51906E-05-2.86078E-05-2.85340E-05 8.22209E-07 4.42767E-20 1.54911E-18
 -1      2657 9.52215E-05-2.86600E-05-2.85270E-05 8.95817E-07 2.56019E-19 8.94338E-19
 -1      2658 9.52079E-05-2.85951E-05-2.85495E-05 8.12765E-07-2.81989E-19 1.76134E-18
 -1      2659 9.52656E-05-2.85975E-05-2.85706E-05 8.05726E-07-5.95499E-19 1.66934E-18
 -1      2660 9.52499E-05-2.86246E-05-2.85543E-05 8.64996E-07-1.66142E-19 1.05757E-18
 -1      2661 9.52922E-05-2.85929E-05-2.85862E-05 8.08803E-07-8.18462E-19 1.74556E-18
 -1      2662 9.53561E-05-2.86048E-05-2.86065E-05 8.10196E-07-6.01964E-19 1.55378E-18
 -1      2663 9.52933E-05-2.86013E-05-2.85830E-05 8.60621E-07-5.34718E-19 1.98327E-18
 -1      2664 9.53970E-05-2.86147E-05-2.86212E-05 8.21693E-07-4.81413E-19 1.15860E-18
 -1      2665 9.54708E-05-2.86425E-05-2.86399E-05 8.24745E-07-4.03734E-19 9.99615E-19
 -1      2666 9.53601E-05-2.86034E-05-2.86110E-05 8.78023E-07-8.91248E-19 1.75709E-18
 -1      2667 9.55333E-05-2.86755E-05-2.86527E-05 8.36697E-07-2.83788E-19 1.00683E-18
 -1      2668 9.56211E-05-2.87273E-05-2.86688E-05 8.30287E-07-3.64241E-19 1.06840E-18
 -1      2669 9.54626E-05-2.86482E-05-2.86362E-05 9.05579E-07-4.15791E-19 1.25407E-18
 -1      2670 9.57153E-05-2.87939E-05-2.86788E-05 8.29767E-07-3.60668E-19 1.17690E-18
 -1      2671 9.58213E-05-2.88790E-05-2.86908E-05 7.97512E-07-1.39438E-19 9.50308E-19
 -1      2672 9.56182E-05-2.87576E-05-2.86567E-05 9.22869E-07-4.45102E-19 1.33669E-18
 -1      2673 9.59594E-05-2.89915E-05-2.86971E-05 7.65393E-07 1.45664E-19 9.78392E-19
 -1      2674 9.60867E-05-2.91190E-05-2.87035E-05 6.85024E-07 3.78187E-19 9.63355E-19
 -1      2675 9.58495E-05-2.89580E-05-2.86708E-05 8.98310E-07 5.33498E-21 1.45874E-18
 -1      2676 9.62822E-05-2.92891E-05-2.87059E-05 5.95003E-07 2.21842E-19 1.39699E-18
 -1      2677 9.64309E-05-2.94650E-05-2.87053E-05 4.38690E-07 2.83926E-19 1.12773E-18
 -1      2678 9.61824E-05-2.92771E-05-2.86778E-05 7.86799E-07 1.04016E-19 8.51904E-19
 -1      2679 9.66950E-05-2.97000E-05-2.87045E-05 2.57362E-07 2.71657E-19 7.68831E-19
 -1      2680 9.68590E-05-2.99220E-05-2.86961E-05-5.97176E-09-1.22147E-19 7.18145E-19
 -1      2681 9.66422E-05-2.97371E-05-2.86788E-05 5.28465E-07-4.57692E-20 8.04268E-19
 -1      2682 9.71946E-05-3.02172E-05-2.86949E-05-3.16626E-07-2.31556E-19 3.23830E-19
 -1      2683 9.73567E-05-3.04669E-05-2.86795E-05-7.15586E-07-2.51922E-19 3.23172E-19
 -1      2684 9.72442E-05-3.03415E-05-2.86784E-05 5.05585E-08-3.60741E-19 8.65356E-19
 -1      2685 9.77489E-05-3.07959E-05-2.86834E-05-1.19108E-06-4.58814E-19 4.14435E-19
 -1      2686 9.78758E-05-3.10298E-05-2.86640E-05-1.74105E-06-4.86383E-19 1.72369E-19
 -1      2687 9.79777E-05-3.10554E-05-2.86864E-05-7.23982E-07-4.35897E-19 9.01240E-19
 -1      2688 9.82796E-05-3.13329E-05-2.86817E-05-2.39985E-06 1.23066E-19 1.03919E-18
 -1      2689 9.83186E-05-3.14756E-05-2.86642E-05-3.08624E-06 6.51921E-19 1.07491E-18
 -1      2690 9.87845E-05-3.17799E-05-2.87192E-05-1.85605E-06 8.59112E-20 1.69551E-18
 -1      2691 9.86494E-05-3.16539E-05-2.87070E-05-3.90567E-06 6.33278E-19 8.00472E-19
 -1      2692 9.85325E-05-3.16015E-05-2.86997E-05-4.66287E-06 4.97322E-19 7.58335E-19
 -1      2693 9.95351E-05-3.23309E-05-2.87995E-05-3.35210E-06 9.03110E-19 1.80419E-18
 -1      2694 9.86700E-05-3.15263E-05-2.87791E-05-5.54809E-06 7.16864E-19 1.58104E-18
 -1      2695 9.83324E-05-3.11708E-05-2.87905E-05-6.24187E-06 3.54154E-19 1.95590E-18
 -1      2696 1.00022E-04-3.24410E-05-2.89532E-05-5.10655E-06 8.70788E-19 1.86550E-18
 -1      2697 9.81527E-05-3.07243E-05-2.89129E-05-7.00156E-06-3.28596E-19 2.51368E-18
 -1      2698 9.75681E-05-3.00066E-05-2.89480E-05-7.43076E-06-1.03235E-19 2.72613E-18
 -1      2699 9.99922E-05-3.18170E-05-2.91999E-05-6.83861E-06 3.02035E-19 2.52118E-18
 -1      2700 9.70114E-05-2.91547E-05-2.91077E-05-7.78872E-06 1.99013E-19 2.35825E-18
 -1      2701 9.62356E-05-2.81332E-05-2.91633E-05-7.72776E-06-4.01853E-20 2.81013E-18
 -1      2702 9.92499E-05-3.02741E-05-2.95402E-05-8.06680E-06-2.69092E-19 2.12888E-18
 -1      2703 9.53886E-05-2.70057E-05-2.93368E-05-7.40204E-06-3.32509E-19 2.21167E-18
 -1      2704 9.45818E-05-2.59007E-05-2.93991E-05-6.69140E-06-3.13414E-19 1.84228E-18
 -1      2705 9.78130E-05-2.79210E-05-2.99394E-05-8.19128E-06-7.87848E-21 2.00569E-18
 -1      2706 9.37123E-05-2.48162E-05-2.95477E-05-5.54099E-06 4.57406E-20 2.27682E-18
 -1      2707 9.31087E-05-2.39720E-05-2.95953E-05-4.20040E-06-9.01991E-20 2.50269E-18
 -1      2708 9.60394E-05-2.52858E-05-3.03243E-05-6.72946E-06 2.12858E-19 2.00583E-18
 -1      2709 9.25856E-05-2.33393E-05-2.96761E-05-2.37938E-06-4.15675E-19 3.00049E-18
 -1      2710 9.23923E-05-2.30702E-05-2.96901E-05-6.69627E-07 1.01180E-19 2.85567E-18
 -1      2711 9.45935E-05-2.32426E-05-3.05980E-05-3.65238E-06-2.63424E-19 3.09499E-18
 -1      2712 9.24575E-05-2.31525E-05-2.96785E-05 1.37027E-06 2.13413E-19 2.67345E-18
 -1      2713 9.27443E-05-2.35658E-05-2.96526E-05 3.03179E-06-1.70913E-19 2.72114E-18
 -1      2714 9.41176E-05-2.25845E-05-3.06811E-05 3.92151E-07 1.66123E-19 2.73229E-18
 -1      2715 9.33708E-05-2.43326E-05-2.95506E-05 4.73448E-06-4.14990E-19 2.36987E-18
 -1      2716 9.40307E-05-2.52649E-05-2.94943E-05 5.94751E-06-5.73386E-19 2.58390E-18
 -1      2717 9.48377E-05-2.35989E-05-3.05466E-05 4.31247E-06-5.25673E-19 2.24329E-18
 -1      2718 9.49214E-05-2.63929E-05-2.93345E-05 6.91555E-06-1.56651E-18 1.88896E-18
 -1      2719 9.57312E-05-2.75063E-05-2.92689E-05 7.47481E-06-1.52075E-18 1.28929E-18
 -1      2720 9.64116E-05-2.58548E-05-3.02350E-05 7.05986E-06-1.69105E-18 9.33157E-19
 -1      2721 9.65340E-05-2.86003E-05-2.90936E-05 7.62789E-06-1.09834E-18 6.91337E-19
 -1      2722 9.72710E-05-2.95716E-05-2.90382E-05 7.55657E-06-1.98622E-18 2.63442E-19
 -1      2723 9.81580E-05-2.84990E-05-2.98360E-05 8.14758E-06-1.94181E-18 7.37136E-19
 -1      2724 9.77490E-05-3.03459E-05-2.88833E-05 7.07436E-06-2.16348E-18 3.17251E-19
 -1      2725 9.82724E-05-3.09859E-05-2.88499E-05 6.55578E-06-1.46758E-18 9.16243E-19
 -1      2726 9.94672E-05-3.07207E-05-2.94415E-05 7.71729E-06-1.45682E-18-5.89344E-19
 -1      2727 9.83726E-05-3.13463E-05-2.87349E-05 5.73257E-06-1.24467E-18 1.73937E-18
 -1      2728 9.86465E-05-3.16252E-05-2.87248E-05 4.99647E-06-7.66507E-19 1.47133E-18
 -1      2729 1.00046E-04-3.20699E-05-2.91165E-05 6.30207E-06-1.03508E-18 7.56208E-19
 -1      2730 9.84510E-05-3.16316E-05-2.86529E-05 4.09810E-06-3.21623E-19 5.24241E-19
 -1      2731 9.85137E-05-3.16244E-05-2.86604E-05 3.33535E-06-4.37197E-19 1.58182E-19
 -1      2732 9.99360E-05-3.25112E-05-2.88885E-05 4.50072E-06-9.79856E-19 2.51437E-19
 -1      2733 9.81504E-05-3.14012E-05-2.86240E-05 2.53373E-06-1.16084E-18 4.51743E-19
 -1      2734 9.80701E-05-3.12175E-05-2.86408E-05 1.86578E-06-1.41522E-18-6.76594E-19
 -1      2735 9.93585E-05-3.22676E-05-2.87525E-05 2.75868E-06-9.96012E-19-1.09707E-18
 -1      2736 9.76522E-05-3.08873E-05-2.86288E-05 1.24064E-06-8.85834E-19-1.71750E-19
 -1      2737 9.74946E-05-3.06244E-05-2.86476E-05 7.24079E-07 2.59908E-19-1.17938E-18
 -1      2738 9.85621E-05-3.16330E-05-2.86876E-05 1.31956E-06-9.53456E-19 5.64468E-19
 -1      2739 9.70969E-05-3.02761E-05-2.86495E-05 2.90843E-07 1.54804E-18-1.18190E-18
 -1      2740 9.69107E-05-3.00009E-05-2.86656E-05-6.33039E-08 1.66655E-18-3.51957E-20
 -1      2741 9.77366E-05-3.08547E-05-2.86693E-05 2.66734E-07 9.38802E-19 4.25612E-19
 -1      2742 9.65684E-05-2.96834E-05-2.86737E-05-3.23257E-07 9.08439E-19-9.59551E-19
 -1      2743 9.63843E-05-2.94326E-05-2.86851E-05-5.28511E-07 9.10505E-19-1.63320E-18
 -1      2744 9.69919E-05-3.00923E-05-2.86767E-05-4.14089E-07 9.25319E-19-1.37579E-18
 -1      2745 9.61067E-05-2.91663E-05-2.86947E-05-6.45231E-07 5.06245E-19-2.26797E-18
 -1      2746 9.59416E-05-2.89578E-05-2.87011E-05-7.21838E-07-6.99498E-19-2.67951E-18
 -1      2747 9.63685E-05-2.94253E-05-2.86952E-05-7.77016E-07-8.24398E-20-2.52616E-18
 -1      2748 9.38539E-05-2.64041E-05-2.88976E-05-1.69822E-06-1.13913E-18 7.78999E-19
 -1      2749 9.35514E-05-2.61210E-05-2.89128E-05-1.39331E-06-1.44653E-18 1.94669E-20
 -1      2750 2.93456E-05-7.28980E-06-8.71061E-06 8.60606E-06-2.99463E-18-2.59192E-18
 -1      2751 3.17522E-05-7.70254E-06-9.89584E-06-7.84654E-06-2.12404E-18-1.21803E-18
 -1      2752 9.44824E-05-2.83057E-05-2.83606E-05-1.11731E-06 1.01410E-19-9.12335E-20
 -1      2753 9.44495E-05-2.82169E-05-2.83791E-05-1.04420E-06 2.40825E-19-7.48926E-20
 -1      2754 9.45573E-05-2.78483E-05-2.85904E-05-4.48869E-07 2.65938E-19-1.23153E-19
 -1      2755 9.46410E-05-2.76603E-05-2.86885E-05-1.04820E-07 2.47465E-19-6.54330E-20
 -1      2756 9.45329E-05-2.84246E-05-2.83310E-05-1.17699E-06 6.62579E-20 1.38902E-20
 -1      2757 9.44720E-05-2.83620E-05-2.83298E-05-1.16761E-06 7.14031E-20-6.26349E-21
 -1      2758 9.49048E-05-2.84361E-05-2.84912E-05-1.14066E-06 1.27844E-19-6.14920E-20
 -1      2759 9.46137E-05-2.85005E-05-2.83330E-05-1.14742E-06 4.37464E-19-1.72345E-19
 -1      2760 9.45386E-05-2.84570E-05-2.83197E-05-1.17360E-06 1.89119E-19-1.73981E-19
 -1      2761 9.49086E-05-2.85575E-05-2.84394E-05-1.20516E-06 1.61282E-19-3.84898E-19
 -1      2762 9.47106E-05-2.85453E-05-2.83551E-05-1.07309E-06 4.77653E-19-1.00891E-19
 -1      2763 9.46299E-05-2.85164E-05-2.83346E-05-1.11533E-06 6.39376E-19-1.19563E-19
 -1      2764 9.49361E-05-2.86236E-05-2.84218E-05-1.18000E-06 5.12676E-19-3.46149E-19
 -1      2765 9.48144E-05-2.85670E-05-2.83902E-05-9.85494E-07 2.53112E-19 1.57050E-19
 -1      2766 9.47331E-05-2.85495E-05-2.83655E-05-1.03003E-06 1.58645E-19 1.16516E-19
 -1      2767 9.49781E-05-2.86509E-05-2.84274E-05-1.11057E-06 2.44073E-19 1.74999E-20
 -1      2768 9.49204E-05-2.85703E-05-2.84340E-05-9.07661E-07 1.13060E-19 2.28201E-19
 -1      2769 9.48404E-05-2.85621E-05-2.84065E-05-9.44321E-07 4.61220E-19 3.36280E-19
 -1      2770 9.50282E-05-2.86498E-05-2.84489E-05-1.02944E-06 2.11376E-19 2.23550E-20
 -1      2771 9.50269E-05-2.85578E-05-2.84846E-05-8.57483E-07-6.89414E-20 1.30313E-19
 -1      2772 9.49479E-05-2.85577E-05-2.84547E-05-8.78108E-07-3.88379E-20 2.29501E-19
 -1      2773 9.50821E-05-2.86260E-05-2.84819E-05-9.60676E-07 8.68447E-20 7.96696E-19
 -1      2774 9.51339E-05-2.85294E-05-2.85421E-05-8.50580E-07 1.32575E-19 2.34072E-19
 -1      2775 9.50544E-05-2.85373E-05-2.85093E-05-8.47648E-07 1.19953E-19 2.93473E-19
 -1      2776 9.51365E-05-2.85817E-05-2.85240E-05-9.23181E-07-3.03190E-20 5.62312E-19
 -1      2777 9.52426E-05-2.84822E-05-2.86081E-05-9.02915E-07 7.22856E-19-7.60623E-20
 -1      2778 9.51598E-05-2.84994E-05-2.85709E-05-8.68222E-07 3.30477E-19 4.09362E-19
 -1      2779 9.51886E-05-2.85152E-05-2.85747E-05-9.33592E-07 1.61976E-19 8.30161E-19
 -1      2780 9.53533E-05-2.84095E-05-2.86855E-05-1.03343E-06 3.46587E-19 3.29672E-19
 -1      2781 9.52640E-05-2.84388E-05-2.86419E-05-9.56689E-07 5.55258E-19-1.70940E-20
 -1      2782 9.52342E-05-2.84202E-05-2.86348E-05-1.00882E-06 5.79108E-19 9.16955E-19
 -1      2783 9.54640E-05-2.82986E-05-2.87789E-05-1.26701E-06 5.86310E-20 7.28871E-19
 -1      2784 9.53652E-05-2.83457E-05-2.87258E-05-1.13418E-06 3.48943E-19 6.66303E-19
 -1      2785 9.52657E-05-2.82846E-05-2.87060E-05-1.16852E-06 2.10250E-19 1.27340E-18
 -1      2786 9.55669E-05-2.81291E-05-2.88935E-05-1.63784E-06-2.26337E-19 3.96829E-19
 -1      2787 9.54568E-05-2.82034E-05-2.88273E-05-1.42915E-06-2.93933E-19 4.60435E-19
 -1      2788 9.52688E-05-2.80880E-05-2.87908E-05-1.43765E-06 8.27481E-20 1.01371E-18
 -1      2789 9.56436E-05-2.78681E-05-2.90353E-05-2.19344E-06-3.64895E-19 1.24812E-19
 -1      2790 9.55235E-05-2.79847E-05-2.89516E-05-1.88096E-06-3.08824E-19 7.83370E-20
 -1      2791 9.52179E-05-2.77979E-05-2.88918E-05-1.84906E-06-1.14481E-19 4.97616E-19
 -1      2792 9.56569E-05-2.74664E-05-2.92097E-05-2.99879E-06 2.48208E-19-8.41435E-20
 -1      2793 9.55345E-05-2.76479E-05-2.91039E-05-2.54383E-06-6.63573E-20 2.56534E-19
 -1      2794 9.50680E-05-2.73653E-05-2.90100E-05-2.44591E-06-1.41956E-19 9.41064E-20
 -1      2795 9.55385E-05-2.68524E-05-2.94179E-05-4.13979E-06 4.65458E-19-7.26037E-21
 -1      2796 9.54328E-05-2.71310E-05-2.92869E-05-3.49073E-06 3.44069E-19 3.20836E-20
 -1      2797 9.47432E-05-2.67188E-05-2.91427E-05-3.28330E-06 3.73917E-19 1.36760E-19
 -1      2798 9.51720E-05-2.59317E-05-2.96510E-05-5.72357E-06-4.03896E-20 3.20580E-19
 -1      2799 9.51204E-05-2.63484E-05-2.94963E-05-4.81599E-06 4.44062E-19-2.17143E-20
 -1      2800 9.41201E-05-2.57598E-05-2.92780E-05-4.42791E-06 5.24211E-19 3.63970E-19
 -1      2801 9.43757E-05-2.45997E-05-2.98770E-05-7.87179E-06-3.55047E-19-3.02463E-19
 -1      2802 9.44401E-05-2.51940E-05-2.97112E-05-6.63406E-06-2.64412E-19 2.98055E-19
 -1      2803 9.30075E-05-2.43653E-05-2.93847E-05-5.95401E-06-2.15767E-19 2.45191E-19
 -1      2804 9.29015E-05-2.27953E-05-3.00161E-05-1.07022E-05-5.96434E-19-3.75880E-19
 -1      2805 9.31626E-05-2.35705E-05-2.98760E-05-9.07197E-06-2.14495E-19-2.07443E-19
 -1      2806 9.11270E-05-2.24110E-05-2.93949E-05-7.93602E-06-4.25830E-19 3.38813E-19
 -1      2807 9.04972E-05-2.06495E-05-2.98986E-05-1.43001E-05-1.35569E-18 2.24843E-19
 -1      2808 9.10041E-05-2.14794E-05-2.98675E-05-1.22562E-05-8.57932E-19-8.23053E-20
 -1      2809 8.81131E-05-1.98457E-05-2.91708E-05-1.04456E-05-7.54480E-19 6.38279E-19
 -1      2810 8.71254E-05-1.88328E-05-2.91999E-05-1.87017E-05-9.84811E-19 4.84609E-19
 -1      2811 8.77448E-05-1.92545E-05-2.94384E-05-1.63110E-05-1.04087E-18 3.79759E-19
 -1      2812 8.35679E-05-1.68701E-05-2.84499E-05-1.35878E-05-1.35709E-18 3.26578E-19
 -1      2813 8.35776E-05-1.92097E-05-2.73901E-05-2.38628E-05-2.14510E-18 6.94977E-19
 -1      2814 8.36047E-05-1.80593E-05-2.81413E-05-2.13398E-05-1.67288E-18 6.07098E-19
 -1      2815 7.73441E-05-1.43679E-05-2.67555E-05-1.76760E-05-1.40273E-18 4.82911E-19
 -1      2816 8.18604E-05-2.61698E-05-2.36511E-05-3.05261E-05-1.69062E-18 1.27436E-18
 -1      2817 7.95920E-05-2.01586E-05-2.52770E-05-2.77008E-05-1.98611E-18 6.30881E-19
 -1      2818 6.96970E-05-1.42793E-05-2.32779E-05-2.31596E-05-2.06353E-18 7.21090E-19
 -1      2819 9.25000E-05-2.35862E-05-2.95810E-05 8.12386E-06-8.09363E-20 1.57830E-18
 -1      2820 9.20684E-05-2.27660E-05-2.96818E-05 9.51823E-06 9.45170E-19 8.37117E-19
 -1      2821 2.81504E-05-7.63457E-06-8.21945E-06-1.31807E-06-1.58236E-18 9.38301E-19
 -1      2822 2.98586E-05-9.62324E-06-8.07008E-06-1.85651E-05-1.58887E-18 1.70550E-18
 -1      2823 9.42219E-05-2.62375E-05-2.91270E-05 2.97812E-06-5.38969E-19-7.27883E-19
 -1      2824 9.47577E-05-2.66989E-05-2.91771E-05 3.26317E-06-7.22325E-19-3.77685E-19
 -1      2825 9.48207E-05-2.64917E-05-2.92658E-05 3.88379E-06-2.24726E-19 3.26688E-19
 -1      2826 8.48544E-05-4.71136E-05-1.58850E-05-3.74503E-05 5.13302E-19 1.55632E-18
 -1      2827 1.04245E-04-5.19605E-05-2.24591E-05-3.42818E-05-1.40607E-19 2.19260E-18
 -1      2828 9.44824E-05-2.81246E-05-2.84388E-05-9.04800E-07 3.30878E-19-4.36954E-20
 -1      2829 9.44968E-05-2.79978E-05-2.84885E-05-7.26541E-07 4.00776E-19 4.35333E-20
 -1      2830 9.49357E-05-2.82333E-05-2.85931E-05-9.22583E-07 3.47769E-19-9.38972E-20
 -1      2831 9.02274E-05-2.14463E-05-2.95438E-05 1.07632E-05 1.30625E-18 8.27009E-19
 -1      2832 8.94336E-05-2.04477E-05-2.95456E-05 1.25254E-05 6.54187E-19 7.76543E-19
 -1      2833 8.81148E-05-2.02327E-05-2.90132E-05 9.02810E-06 7.29001E-19-1.18965E-18
 -1      2834 7.09746E-05-2.58579E-05-1.86249E-05 3.21751E-05-1.31872E-18-1.53959E-18
 -1      2835 8.66908E-05-1.88900E-05-2.91453E-05 1.41117E-05 1.12856E-18 1.17583E-18
 -1      2836 8.55379E-05-1.80076E-05-2.89046E-05 1.62442E-05 2.18426E-18 1.06696E-18
 -1      2837 8.36702E-05-1.71425E-05-2.83870E-05 1.14541E-05 1.52969E-18 8.91856E-19
 -1      2838 9.38216E-05-2.51434E-05-2.94706E-05 6.06888E-06-1.18838E-18 1.10197E-18
 -1      2839 9.36697E-05-2.45562E-05-2.95966E-05 7.15046E-06 1.31902E-19 2.24740E-18
 -1      2840 9.10303E-05-2.27228E-05-2.92272E-05 7.03932E-06-7.17941E-19 1.65531E-18
 -1      2841 9.44322E-05-2.61051E-05-2.93090E-05 4.47080E-06 1.63132E-19-1.61868E-19
 -1      2842 9.44258E-05-2.57148E-05-2.94219E-05 5.29238E-06-6.72550E-19 5.13211E-19
 -1      2843 9.26596E-05-2.43962E-05-2.92327E-05 5.39531E-06 3.19726E-20 1.09712E-18
 -1      2844 9.35686E-05-2.54693E-05-2.91747E-05 4.06118E-06-1.90727E-19 4.17916E-19
 -1      2845 9.32338E-05-2.57289E-05-2.89251E-05-9.49555E-07-1.59323E-18-2.79800E-18
 -1      2846 9.30296E-05-2.55382E-05-2.89394E-05-4.86064E-07-2.37282E-20-2.01759E-18
 -1      2847 9.31354E-05-2.58735E-05-2.88218E-05-1.46494E-06-1.13505E-18-2.24315E-18
 -1      2848 9.37139E-05-2.58332E-05-2.91004E-05 2.65153E-06 6.63561E-19-1.47667E-19
 -1      2849 9.28692E-05-2.52923E-05-2.89622E-05 1.35574E-07 4.39383E-19-1.48299E-18
 -1      2850 9.28499E-05-2.52629E-05-2.89781E-05 6.75841E-07 6.82955E-19-2.50075E-18
 -1      2851 9.25684E-05-2.52133E-05-2.88562E-05-3.52013E-07-8.19542E-19-3.22501E-18
 -1      2852 9.45289E-05-2.71384E-05-2.88716E-05-2.04295E-06-7.13291E-19 5.25080E-19
 -1      2853 9.42175E-05-2.68331E-05-2.88898E-05-1.91776E-06-1.40629E-18 1.31125E-18
 -1      2854 9.39276E-05-2.67152E-05-2.88069E-05-2.14153E-06-5.31559E-19 9.05499E-19
 -1      2855 9.50980E-05-2.77798E-05-2.88422E-05-2.02861E-06 1.02853E-19 2.41592E-18
 -1      2856 9.48455E-05-2.75108E-05-2.88636E-05-2.05609E-06-7.09122E-19 1.73211E-18
 -1      2857 9.47149E-05-2.75318E-05-2.87983E-05-2.35919E-06-7.26265E-19 2.09227E-18
 -1      2858 9.54948E-05-2.82659E-05-2.88067E-05-1.76058E-06 8.20351E-19 9.03549E-19
 -1      2859 9.53260E-05-2.80560E-05-2.88311E-05-1.89270E-06 3.57695E-19 1.06553E-18
 -1      2860 9.53424E-05-2.81902E-05-2.87867E-05-2.20543E-06-3.86848E-19 2.10501E-18
 -1      2861 9.56935E-05-2.85692E-05-2.87676E-05-1.36660E-06 1.85675E-18 2.27276E-18
 -1      2862 9.56130E-05-2.84244E-05-2.87924E-05-1.54548E-06 1.72548E-18 2.29954E-18
 -1      2863 9.57350E-05-2.86267E-05-2.87677E-05-1.81669E-06 5.36000E-19 2.15189E-18
 -1      2864 7.59401E-05-1.65372E-05-2.54533E-05 2.36953E-05 3.58441E-19-2.07872E-18
 -1      2865 7.56407E-05-1.96262E-05-2.38810E-05 2.69379E-05-6.96592E-19-1.85151E-18
 -1      2866 9.47062E-05-2.19065E-05-3.12065E-05 7.84280E-06 4.81803E-19-2.59579E-19
 -1      2867 1.42745E-04-4.71996E-05-4.09513E-05 1.55469E-06 4.49351E-19 1.25996E-20
 -1      2868 1.39978E-04-3.82513E-05-4.41842E-05 7.51550E-06-5.47819E-19-8.57621E-20
 -1      2869 7.30403E-05-3.61667E-05-1.53356E-05-3.76818E-05-3.73542E-19 1.15832E-18
 -1      2870 4.22000E-05-1.79808E-05-9.89690E-06 3.53415E-05-1.98386E-18-3.55246E-18
 -1      2871 3.18807E-05-1.08147E-05-8.39727E-06 2.23972E-05-2.28159E-18-3.19797E-18
 -1      2872 1.39876E-04-2.29180E-05-5.08856E-05-9.92154E-06-1.46156E-18 1.34414E-18
 -1      2873 1.42513E-04-3.26790E-05-4.74117E-05-8.21571E-06-7.26754E-19 1.83700E-19
 -1      2874 8.17406E-05-1.66379E-05-2.79895E-05 1.83351E-05 3.68016E-19 5.72078E-19
 -1      2875 8.05316E-05-1.66981E-05-2.72612E-05 2.08301E-05-5.29536E-20-4.98876E-19
 -1      2876 7.72603E-05-1.39345E-05-2.69423E-05 1.44714E-05 5.98712E-19-4.08591E-19
 -1      2877 9.49820E-05-2.66890E-05-2.92733E-05 1.78119E-06 3.74683E-19-1.39673E-19
 -1      2878 9.52471E-05-2.61939E-05-2.95579E-05 2.78717E-06 4.41585E-19-1.67841E-19
 -1      2879 9.52712E-05-2.50176E-05-3.01050E-05 3.81888E-06 4.41169E-19-4.14664E-19
 -1      2880 9.47268E-05-2.74119E-05-2.88514E-05 3.84320E-07 3.34759E-19-1.24631E-19
 -1      2881 9.49023E-05-2.71190E-05-2.90235E-05 9.87496E-07 3.61024E-19-7.28963E-20
 -1      2882 9.52548E-05-2.64962E-05-2.94723E-05 1.73149E-06 3.23310E-19-3.03845E-19
 -1      2883 9.51309E-05-2.73731E-05-2.90466E-05 3.71041E-07 3.40842E-19-2.54828E-19
 -1      2884 4.54278E-05-1.74151E-05-1.16657E-05 2.67104E-05-2.13124E-18-3.30428E-18
 -1      2885 3.32310E-05-1.04332E-05-9.05779E-06 1.30553E-05-2.06597E-18-1.18945E-18
 -1      2886 9.29282E-05-2.52486E-05-2.90148E-05 1.35834E-06 2.97086E-19-8.40524E-19
 -1      2887 9.31515E-05-2.54149E-05-2.90291E-05 1.84011E-06 4.50419E-19-8.42012E-19
 -1      2888 9.24531E-05-2.49413E-05-2.89221E-05 1.01626E-06-4.58893E-19-1.16416E-18
 -1      2889 1.44310E-04-4.35489E-05-4.38345E-05-2.38296E-06-4.10811E-20-6.77309E-19
 -1      2890 1.42550E-04-5.09924E-05-3.92874E-05 4.46492E-06 6.73788E-19-1.52201E-18
 -1      2891 1.33319E-04-7.35720E-06-5.47639E-05-5.22864E-06-1.91451E-18 1.40708E-18
 -1      2892 1.36324E-04-1.30575E-05-5.33609E-05-9.04710E-06-1.69385E-18 1.85024E-18
 -1      2893 9.11798E-05-1.60883E-05-3.22101E-05 4.91632E-06 2.68261E-19-3.51110E-19
 -1      2894 9.08366E-05-1.55888E-05-3.22709E-05 3.99364E-06 7.09116E-20-4.57236E-19
 -1      2895 9.18158E-05-1.71991E-05-3.19628E-05 3.19759E-06 9.87137E-21-4.60412E-19
 -1      2896 9.24851E-05-1.82609E-05-3.17904E-05 4.61376E-06 2.42738E-19-3.43763E-19
 -1      2897 9.08005E-05-1.55400E-05-3.22759E-05-3.93159E-06-2.79757E-19-3.21437E-19
 -1      2898 9.11346E-05-1.60261E-05-3.22165E-05-4.85615E-06-2.99839E-19-2.97269E-19
 -1      2899 9.57860E-05-2.88124E-05-2.87065E-05-7.32260E-07-1.02182E-19-1.93811E-18
 -1      2900 9.56840E-05-2.86949E-05-2.87075E-05-7.28978E-07-3.51352E-19-9.78116E-19
 -1      2901 9.59591E-05-2.89713E-05-2.87121E-05-8.86559E-07-1.60915E-19-3.41050E-18
 -1      2902 9.56688E-05-2.86529E-05-2.87231E-05-8.60142E-07 2.06845E-19-1.04821E-18
 -1      2903 1.37539E-04-5.78066E-05-3.46724E-05 1.67473E-05 7.33478E-19-2.59176E-18
 -1      2904 1.28304E-04-5.86069E-05-2.96025E-05 2.69923E-05 3.41195E-19-2.86361E-18
 -1      2905 1.34306E-04-5.88207E-05-3.20116E-05-2.24229E-05-7.88376E-19-1.56214E-18
 -1      2906 1.40646E-04-5.53895E-05-3.71314E-05-1.02755E-05 6.16302E-19-8.75514E-19
 -1      2907 6.44001E-05-3.22525E-05-1.30938E-05-4.56118E-05 2.11462E-18 8.40468E-19
 -1      2908 8.20764E-05-4.12505E-05-1.73668E-05-4.69767E-05 2.11398E-18-1.25043E-18
 -1      2909 6.11062E-05-2.65265E-05-1.42479E-05-4.07043E-05 1.51322E-18 1.12338E-19
 -1      2910 1.35429E-04-2.48030E-05-4.78433E-05 1.10140E-05-1.83827E-18 1.12968E-18
 -1      2911 1.35036E-04-1.56500E-05-5.18033E-05 9.78108E-06-2.28265E-18-7.32683E-19
 -1      2912 4.77773E-05-1.23441E-05-1.44139E-05-2.13574E-05-2.04066E-18 2.85662E-19
 -1      2913 6.26015E-05-2.28012E-05-1.63434E-05-3.16555E-05-1.61339E-18-3.82224E-19
 -1      2914 6.78427E-05-1.98899E-05-2.01068E-05 2.81096E-05-1.48379E-18-1.77157E-18
 -1      2915 9.24313E-05-1.81857E-05-3.17993E-05-4.57276E-06-2.56423E-19-1.43233E-19
 -1      2916 9.15621E-05-1.66761E-05-3.21157E-05-5.57819E-06-3.61962E-19-1.53045E-19
 -1      2917 9.20242E-05-1.73964E-05-3.20246E-05-6.44493E-06-5.15100E-19-7.33478E-20
 -1      2918 9.09273E-05-4.39116E-05-1.97677E-05 4.37460E-05-2.01382E-19-2.66757E-18
 -1      2919 9.12903E-05-1.63883E-05-3.20887E-05 2.79948E-08-8.31207E-20-5.27761E-19
 -1      2920 9.01680E-05-1.45997E-05-3.24058E-05-3.83326E-07-1.11012E-19-6.02020E-19
 -1      2921 9.02245E-05-1.46800E-05-3.23958E-05-1.34077E-06-1.38254E-19-6.20435E-19
 -1      2922 1.21906E-04-5.63151E-05-2.79366E-05 2.87877E-05 6.54174E-19-2.29959E-18
 -1      2923 9.03495E-05-1.48711E-05-3.23680E-05-2.17706E-06-1.63210E-19-3.30052E-19
 -1      2924 9.05342E-05-1.51351E-05-3.23357E-05-3.12763E-06-3.20789E-19-1.74762E-19
 -1      2925 9.17829E-05-1.71562E-05-3.19679E-05-3.14123E-06-2.08943E-19-2.28007E-19
 -1      2926 9.14081E-05-1.65717E-05-3.20599E-05-1.58269E-06-1.35248E-19-4.64854E-19
 -1      2927 3.75547E-05-8.37216E-06-1.18453E-05 1.47167E-05-2.28773E-18-2.41277E-18
 -1      2928 1.28319E-04-1.21765E-05-5.03096E-05 9.37991E-06-2.34861E-18 3.14355E-19
 -1      2929 1.29233E-04-6.07446E-06-5.33316E-05-2.11603E-06-1.92531E-18 3.29284E-19
 -1      2930 1.22976E-04-7.82155E-06-4.97360E-05-5.01352E-06-1.28008E-18 9.23689E-19
 -1      2931 1.23323E-04-5.73565E-06-5.09508E-05 1.39382E-06-2.02716E-18 8.30033E-19
 -1      2932 4.89525E-05-9.90038E-06-1.63901E-05-1.48301E-05-2.36709E-18-2.92544E-19
 -1      2933 3.82928E-05-7.82362E-06-1.24777E-05 5.36427E-06-1.30542E-18-7.87105E-19
 -1      2934 9.33563E-05-3.75195E-05-2.31814E-05-3.42056E-05-9.94999E-19 2.64825E-18
 -1      2935 4.01723E-05-1.12811E-05-1.17153E-05-2.24478E-05-9.66597E-19 8.31151E-19
 -1      2936 9.56702E-05-2.85874E-05-2.87462E-05-1.02743E-06 4.38351E-19 5.01566E-19
 -1      2937 9.50128E-05-2.79070E-05-2.87678E-05-4.60514E-07 2.69681E-19-1.59783E-19
 -1      2938 9.42178E-05-2.07498E-05-3.15192E-05-8.18860E-06-7.49737E-19 3.13260E-19
 -1      2939 9.47217E-05-2.26490E-05-3.09117E-05-6.42917E-06-7.08149E-19 3.41732E-19
 -1      2940 9.31477E-05-2.53556E-05-2.90487E-05 2.64517E-06 1.52519E-19-5.50487E-19
 -1      2941 5.50533E-05-1.13460E-05-1.79902E-05 2.09984E-05-1.62408E-18-1.74584E-18
 -1      2942 9.58583E-05-2.87977E-05-2.87380E-05-1.22401E-06 4.56322E-19 3.16495E-20
 -1      2943 6.91119E-05-1.22463E-05-2.40150E-05 1.87310E-05-1.20182E-18-2.74668E-18
 -1      2944 9.43545E-05-2.14232E-05-3.12605E-05 7.21586E-06 4.72767E-19-4.49566E-19
 -1      2945 9.62813E-05-4.73098E-05-2.04169E-05-4.40472E-05 1.07457E-18 1.94553E-19
 -1      2946 1.07035E-04-5.18220E-05-2.38829E-05-3.81005E-05 2.10329E-19 5.86531E-19
 -1      2947 8.73565E-05-4.08637E-05-1.96320E-05-4.28291E-05 5.57242E-19 7.38507E-19
 -1      2948 1.38069E-04-5.15470E-05-3.72013E-05-3.48930E-06 5.29329E-20 1.48760E-20
 -1      2949 5.38268E-05-2.27021E-05-1.26834E-05 3.89272E-05-1.63191E-18-2.82570E-18
 -1      2950 5.17221E-05-1.70758E-05-1.43604E-05 3.27432E-05-2.01271E-18-2.44665E-18
 -1      2951 6.52735E-05-2.77333E-05-1.61058E-05 4.07672E-05-1.19178E-18-2.39753E-18
 -1      2952 1.27580E-04-5.81402E-05-2.96159E-05-2.60866E-05-9.54924E-19-1.16716E-18
 -1      2953 9.45396E-05-2.22431E-05-3.09765E-05-5.83594E-06-6.38626E-19 2.98884E-19
 -1      2954 1.38210E-04-3.76426E-05-4.32922E-05-8.44340E-06-5.63700E-19 1.04757E-18
 -1      2955 9.46135E-05-2.24647E-05-3.09135E-05 5.69124E-06 4.39867E-19-4.91695E-19
 -1      2956 1.31752E-04-1.85195E-05-4.89019E-05-1.10566E-05-1.29723E-18 1.79878E-18
 -1      2957 1.37202E-04-5.39056E-05-3.57610E-05 7.30497E-06 9.39624E-19-3.70630E-19
 -1      2958 1.31772E-04-3.62022E-05-4.11606E-05 9.95158E-06-1.20115E-18 1.63832E-18
 -1      2959 1.34668E-04-3.12695E-05-4.46791E-05 1.14486E-05-9.98070E-19 7.77470E-19
 -1      2960 1.26407E-04-2.38834E-05-4.43107E-05 1.30742E-05-2.07523E-18 1.24527E-18
 -1      2961 7.38676E-05-2.69646E-05-1.97355E-05-3.20554E-05-1.47246E-18 5.18172E-19
 -1      2962 4.39415E-05-9.61609E-06-1.42281E-05 2.07370E-05-1.82131E-18-1.95876E-18
 -1      2963 4.04998E-05-5.86012E-06-1.45319E-05 7.69024E-06-2.36056E-18-1.79010E-18
 -1      2964 9.42743E-05-2.18483E-05-3.10613E-05 4.97137E-06 2.99115E-19-4.22922E-19
 -1      2965 9.38146E-05-2.09067E-05-3.12475E-05 4.62303E-06 2.66404E-19-3.42043E-19
 -1      2966 9.86361E-05-4.59640E-05-2.28078E-05 3.88616E-05 2.77297E-19-2.38154E-18
 -1      2967 8.22540E-05-3.64440E-05-1.89504E-05 4.16721E-05-7.12990E-19-2.37275E-18
 -1      2968 9.52529E-05-2.86786E-05-2.85312E-05-1.17501E-06 4.80561E-19-6.80251E-19
 -1      2969 9.52468E-05-2.86196E-05-2.85514E-05-1.16017E-06 2.99402E-19-5.07910E-19
 -1      2970 1.31123E-04-3.22676E-05-4.29220E-05-1.15525E-05-1.44181E-18 1.47288E-18
 -1      2971 1.33891E-04-4.05898E-05-3.99656E-05-8.09799E-06-3.26319E-19 5.69418E-19
 -1      2972 9.54955E-05-2.55595E-05-2.99573E-05-2.13521E-06-4.20863E-19 1.63142E-19
 -1      2973 9.55358E-05-2.62608E-05-2.97018E-05-1.32408E-06-4.49676E-19 8.04317E-20
 -1      2974 9.56803E-05-2.68717E-05-2.94749E-05-7.35431E-07-4.21461E-19 2.47151E-19
 -1      2975 9.56561E-05-2.73177E-05-2.92959E-05-2.07956E-07-3.38695E-19 7.71030E-20
 -1      2976 9.57078E-05-2.61931E-05-2.97931E-05-1.16228E-06-3.23716E-19 2.43691E-19
 -1      2977 9.56991E-05-2.77008E-05-2.91309E-05 1.75369E-07-4.35156E-19 1.54554E-19
 -1      2978 9.56621E-05-2.79847E-05-2.90091E-05 4.94277E-07-5.86997E-19 6.60315E-20
 -1      2979 9.58950E-05-2.73171E-05-2.93936E-05-1.50419E-07-4.16527E-19-8.52616E-22
 -1      2980 9.56531E-05-2.82199E-05-2.88921E-05 7.20425E-07-6.36718E-19 7.72226E-20
 -1      2981 9.56210E-05-2.83975E-05-2.88121E-05 8.93730E-07-4.46849E-19-2.86204E-20
 -1      2982 9.59338E-05-2.80349E-05-2.91031E-05 4.92332E-07-6.25392E-19 2.37054E-19
 -1      2983 9.55872E-05-2.85348E-05-2.87317E-05 1.00893E-06-1.25457E-19-2.02414E-19
 -1      2984 9.55643E-05-2.86411E-05-2.86819E-05 1.08554E-06-1.37828E-19 1.17909E-21
 -1      2985 9.58970E-05-2.84775E-05-2.88975E-05 8.60679E-07-3.21648E-19-7.25652E-20
 -1      2986 9.55203E-05-2.87130E-05-2.86287E-05 1.12740E-06-2.26306E-21 2.80194E-19
 -1      2987 9.55062E-05-2.87708E-05-2.86004E-05 1.14356E-06-1.18300E-20 5.89426E-19
 -1      2988 9.58247E-05-2.87333E-05-2.87564E-05 1.03869E-06 3.67211E-20-1.03414E-20
 -1      2989 9.54596E-05-2.87990E-05-2.85674E-05 1.14077E-06-2.95752E-19 8.15902E-19
 -1      2990 9.54526E-05-2.88236E-05-2.85542E-05 1.12268E-06-4.39270E-19 9.63464E-19
 -1      2991 9.57385E-05-2.88621E-05-2.86638E-05 1.09355E-06-8.13633E-21 1.51313E-19
 -1      2992 9.54071E-05-2.88229E-05-2.85357E-05 1.09642E-06-5.56312E-19 1.14533E-18
 -1      2993 9.54055E-05-2.88252E-05-2.85329E-05 1.06264E-06-4.58136E-19 9.22627E-19
 -1      2994 9.56500E-05-2.89051E-05-2.86069E-05 1.07615E-06-3.69388E-19 8.41660E-19
 -1      2995 9.53633E-05-2.88059E-05-2.85249E-05 1.02806E-06-3.56095E-19 1.32622E-18
 -1      2996 9.53658E-05-2.87938E-05-2.85292E-05 9.91437E-07-4.11195E-20 9.53645E-19
 -1      2997 9.55650E-05-2.88912E-05-2.85760E-05 1.02380E-06-3.19188E-19 1.35277E-18
 -1      2998 9.53280E-05-2.87635E-05-2.85284E-05 9.59127E-07 7.59478E-20 9.48087E-19
 -1      2999 9.53343E-05-2.87433E-05-2.85373E-05 9.28179E-07 2.09047E-19 9.61774E-19
 -1      3000 9.54868E-05-2.88413E-05-2.85636E-05 9.63094E-07 1.42887E-19 1.43289E-18
 -1      3001 9.53020E-05-2.87079E-05-2.85414E-05 9.05208E-07 9.91914E-20 8.65651E-19
 -1      3002 9.53128E-05-2.86849E-05-2.85530E-05 8.85103E-07 1.11456E-19 7.23806E-19
 -1      3003 9.54179E-05-2.87710E-05-2.85639E-05 9.12378E-07-8.60324E-20 6.29230E-19
 -1      3004 9.52877E-05-2.86501E-05-2.85600E-05 8.75780E-07 1.29479E-19 6.92556E-19
 -1      3005 9.53047E-05-2.86300E-05-2.85730E-05 8.68827E-07-6.01557E-20 7.50850E-19
 -1      3006 9.53611E-05-2.86939E-05-2.85725E-05 8.83699E-07 1.14306E-19 5.51769E-19
 -1      3007 9.52897E-05-2.86019E-05-2.85814E-05 8.75044E-07-2.24354E-19 1.11059E-18
 -1      3008 9.53162E-05-2.85912E-05-2.85947E-05 8.80801E-07-6.08148E-19 1.44165E-18
 -1      3009 9.53210E-05-2.86232E-05-2.85857E-05 8.83916E-07 4.56962E-20 5.18231E-19
 -1      3010 9.53168E-05-2.85776E-05-2.86031E-05 9.02004E-07-7.56053E-19 1.68667E-18
 -1      3011 9.53579E-05-2.85846E-05-2.86155E-05 9.16979E-07-7.60117E-19 1.79928E-18
 -1      3012 9.53060E-05-2.85745E-05-2.86004E-05 9.15129E-07-5.48421E-19 8.67606E-19
 -1      3013 9.53826E-05-2.85958E-05-2.86227E-05 9.49691E-07-7.86547E-19 1.52943E-18
 -1      3014 9.54459E-05-2.86316E-05-2.86333E-05 9.66646E-07-5.38283E-19 1.34990E-18
 -1      3015 9.53297E-05-2.85678E-05-2.86140E-05 9.74280E-07-7.00362E-19 1.60081E-18
 -1      3016 9.55075E-05-2.86814E-05-2.86384E-05 1.00349E-06-2.27165E-19 1.68120E-18
 -1      3017 9.56031E-05-2.87598E-05-2.86462E-05 1.01041E-06-2.99034E-19 1.64929E-18
 -1      3018 9.54134E-05-2.86296E-05-2.86243E-05 1.05181E-06-4.66031E-19 1.78222E-18
 -1      3019 9.57196E-05-2.88655E-05-2.86487E-05 1.03861E-06-3.95853E-19 1.61563E-18
 -1      3020 9.58600E-05-2.90026E-05-2.86530E-05 1.01742E-06-7.95972E-20 1.49116E-18
 -1      3021 9.55877E-05-2.87943E-05-2.86298E-05 1.12929E-06-1.82348E-19 1.95410E-18
 -1      3022 9.60546E-05-2.91839E-05-2.86533E-05 1.01683E-06 6.13288E-20 1.32007E-18
 -1      3023 9.62533E-05-2.93959E-05-2.86545E-05 9.42304E-07 2.19339E-19 1.42221E-18
 -1      3024 9.58937E-05-2.91030E-05-2.86306E-05 1.17587E-06-3.29455E-19 1.59952E-18
 -1      3025 9.65525E-05-2.96717E-05-2.86545E-05 8.83140E-07-7.25624E-20 1.16191E-18
 -1      3026 9.68209E-05-2.99695E-05-2.86540E-05 7.22495E-07-3.22864E-19 9.96738E-19
 -1      3027 9.63812E-05-2.95993E-05-2.86292E-05 1.14387E-06-1.62634E-19 1.44008E-18
 -1      3028 9.72495E-05-3.03508E-05-2.86585E-05 5.63725E-07-2.88704E-19 1.37711E-18
 -1      3029 9.75902E-05-3.07314E-05-2.86604E-05 2.78281E-07-2.92179E-19 1.64225E-18
 -1      3030 9.71028E-05-3.03183E-05-2.86329E-05 9.64140E-07-4.38116E-21 1.74077E-18
 -1      3031 9.81612E-05-3.12094E-05-2.86777E-05-3.17683E-08-5.96807E-19 1.58313E-18
 -1      3032 9.85584E-05-3.16421E-05-2.86891E-05-4.80834E-07-5.74536E-19 2.14527E-18
 -1      3033 9.80985E-05-3.12657E-05-2.86556E-05 5.43667E-07-2.92395E-19 1.82934E-18
 -1      3034 9.92558E-05-3.21708E-05-2.87325E-05-9.97748E-07-2.77948E-19 2.00304E-18
 -1      3035 9.96632E-05-3.25807E-05-2.87647E-05-1.63634E-06 4.15206E-19 2.04113E-18
 -1      3036 9.93694E-05-3.23851E-05-2.87208E-05-2.29617E-07-4.17130E-19 1.97820E-18
 -1      3037 1.00420E-04-3.30576E-05-2.88522E-05-2.40075E-06 1.04834E-18 1.84340E-18
 -1      3038 1.00750E-04-3.33133E-05-2.89192E-05-3.21822E-06 1.26830E-18 2.18987E-18
 -1      3039 1.00837E-04-3.35145E-05-2.88624E-05-1.46438E-06 5.95200E-19 1.10340E-18
 -1      3040 1.01427E-04-3.35689E-05-2.90714E-05-4.21815E-06 1.19726E-18 1.73845E-18
 -1      3041 1.01558E-04-3.34896E-05-2.91877E-05-5.13339E-06 8.09148E-19 2.11797E-18
 -1      3042 1.02298E-04-3.43477E-05-2.91225E-05-3.21162E-06 1.30452E-18 1.21025E-18
 -1      3043 1.01948E-04-3.33069E-05-2.94216E-05-6.24768E-06 4.18237E-19 2.24397E-18
 -1      3044 1.01755E-04-3.27125E-05-2.95954E-05-7.07615E-06-1.62500E-20 2.68363E-18
 -1      3045 1.03404E-04-3.44378E-05-2.95436E-05-5.36683E-06 9.12615E-19 1.61607E-18
 -1      3046 1.01644E-04-3.19058E-05-2.99127E-05-8.02407E-06-7.86680E-19 2.43463E-18
 -1      3047 1.01068E-04-3.07213E-05-3.01367E-05-8.47527E-06-3.58656E-19 2.36644E-18
 -1      3048 1.03719E-04-3.33071E-05-3.01491E-05-7.54824E-06-2.29778E-19 2.12771E-18
 -1      3049 1.00366E-04-2.92824E-05-3.05092E-05-8.83168E-06-4.21304E-19 2.93073E-18
 -1      3050 9.94996E-05-2.76692E-05-3.07521E-05-8.58317E-06-6.77358E-19 2.41358E-18
 -1      3051 1.02911E-04-3.07085E-05-3.09125E-05-9.02829E-06-3.15548E-19 3.18580E-18
 -1      3052 9.83943E-05-2.59086E-05-3.11134E-05-7.93818E-06 2.19979E-19 2.69095E-18
 -1      3053 9.75064E-05-2.43185E-05-3.13222E-05-6.79942E-06 8.22200E-19 2.73507E-18
 -1      3054 1.01069E-04-2.69854E-05-3.17306E-05-8.89901E-06-8.02407E-20 3.08369E-18
 -1      3055 9.64863E-05-2.28601E-05-3.15837E-05-5.01328E-06 2.87703E-19 2.82131E-18
 -1      3056 9.59630E-05-2.19275E-05-3.16977E-05-3.11005E-06-7.20871E-19 2.99002E-18
 -1      3057 9.88594E-05-2.31861E-05-3.24285E-05-6.49319E-06 4.17972E-19 2.73145E-18
 -1      3058 9.56259E-05-2.14626E-05-3.17769E-05-6.28037E-07-6.16608E-19 2.67890E-18
 -1      3059 9.56908E-05-2.15801E-05-3.17615E-05 1.51639E-06 4.28364E-20 2.39694E-18
 -1      3060 9.74644E-05-2.09567E-05-3.28119E-05-2.07645E-06-6.65071E-19 3.14696E-18
 -1      3061 9.62051E-05-2.23023E-05-3.16363E-05 3.91753E-06-4.62612E-19 1.56235E-18
 -1      3062 9.68460E-05-2.34415E-05-3.14936E-05 5.68720E-06-1.10956E-18 6.29995E-19
 -1      3063 9.76481E-05-2.12376E-05-3.27606E-05 3.01511E-06-7.03745E-19 1.17859E-18
 -1      3064 9.79389E-05-2.50315E-05-3.12010E-05 7.22203E-06-1.26999E-18 3.46564E-19
 -1      3065 9.88397E-05-2.66697E-05-3.09783E-05 8.16466E-06-1.66224E-18 1.14626E-18
 -1      3066 9.93268E-05-2.39701E-05-3.22910E-05 7.09805E-06-1.34288E-18-5.47163E-20
 -1      3067 9.99029E-05-2.84141E-05-3.06071E-05 8.57777E-06-2.47742E-18 1.00720E-18
 -1      3068 1.00728E-04-2.99740E-05-3.03631E-05 8.64438E-06-2.22214E-18 2.19259E-19
 -1      3069 1.01534E-04-2.78573E-05-3.15486E-05 8.96774E-06-2.31039E-18 8.60035E-19
 -1      3070 1.01320E-04-3.13043E-05-2.99983E-05 8.11035E-06-1.24998E-18-5.59003E-19
 -1      3071 1.01818E-04-3.23744E-05-2.97820E-05 7.53572E-06-8.69895E-19-7.78749E-21
 -1      3072 1.03229E-04-3.14469E-05-3.07308E-05 8.67948E-06-2.09038E-18 2.12236E-19
 -1      3073 1.01811E-04-3.30429E-05-2.94814E-05 6.50082E-06-8.16837E-19 5.34113E-19
 -1      3074 1.01924E-04-3.35151E-05-2.93189E-05 5.61717E-06-8.06202E-19 2.61062E-19
 -1      3075 1.03801E-04-3.37555E-05-2.99958E-05 6.93894E-06-4.62606E-19 4.89727E-19
 -1      3076 1.01455E-04-3.35852E-05-2.91042E-05 4.49339E-06-1.19641E-18 7.85534E-19
 -1      3077 1.01264E-04-3.35715E-05-2.89992E-05 3.57345E-06-1.61537E-18 3.28931E-19
 -1      3078 1.03286E-04-3.45941E-05-2.94313E-05 4.67895E-06-5.56903E-19 1.83651E-19
 -1      3079 1.00556E-04-3.32462E-05-2.88648E-05 2.60438E-06-1.41906E-18-1.54119E-19
 -1      3080 1.00192E-04-3.29329E-05-2.88076E-05 1.81049E-06-8.07679E-19 2.64400E-19
 -1      3081 1.02072E-04-3.42949E-05-2.90514E-05 2.56105E-06-1.49426E-18 1.19259E-18
 -1      3082 9.94370E-05-3.24203E-05-2.87357E-05 1.08998E-06-2.99572E-19 5.90399E-19
 -1      3083 9.90149E-05-3.19771E-05-2.87124E-05 4.88118E-07 2.16557E-20 1.40672E-18
 -1      3084 1.00584E-04-3.33450E-05-2.88279E-05 8.97670E-07-1.38047E-19 1.21373E-18
 -1      3085 9.83337E-05-3.14299E-05-2.86831E-05 1.66086E-08-1.94657E-19 1.58548E-18
 -1      3086 9.79309E-05-3.09733E-05-2.86802E-05-3.89115E-07 7.59380E-20 9.63602E-20
 -1      3087 9.91368E-05-3.21568E-05-2.87191E-05-2.44167E-07 8.03885E-21 1.83929E-18
 -1      3088 9.73761E-05-3.04802E-05-2.86768E-05-6.52803E-07 2.41208E-20-2.48025E-19
 -1      3089 9.70296E-05-3.00699E-05-2.86845E-05-8.90792E-07 4.56596E-19-1.21435E-18
 -1      3090 9.78994E-05-3.09967E-05-2.86844E-05-9.26367E-07-4.51432E-19 1.99329E-18
 -1      3091 9.66059E-05-2.96615E-05-2.86950E-05-9.97058E-07 3.73617E-19-1.04766E-18
 -1      3092 9.63340E-05-2.93311E-05-2.87061E-05-1.09944E-06 1.20419E-19-8.38586E-19
 -1      3093 9.69325E-05-2.99969E-05-2.86933E-05-1.24860E-06 7.05165E-19 9.53802E-19
 -1      3094 9.50451E-05-2.79739E-05-2.87311E-05-2.73338E-06 1.80294E-19 2.84193E-18
 -1      3095 9.46157E-05-2.75988E-05-2.87311E-05-2.74246E-06 4.24713E-19 1.25954E-18
 -1      3096 8.99018E-05-2.24551E-05-2.89526E-05 5.26614E-06-1.60546E-18 9.63285E-20
 -1      3097 8.87391E-05-2.13643E-05-2.88889E-05 6.03997E-06-1.47555E-18-5.65876E-20
 -1      3098 9.52810E-05-2.85516E-05-2.85985E-05-1.11470E-06 1.53860E-20-3.94114E-19
 -1      3099 9.52900E-05-2.84504E-05-2.86400E-05-1.03723E-06 7.63204E-20-3.82154E-19
 -1      3100 9.55872E-05-2.86541E-05-2.86890E-05-1.08753E-06 2.05048E-19-6.67121E-19
 -1      3101 9.52317E-05-2.87487E-05-2.84911E-05-1.08968E-06 1.75950E-19-2.24972E-19
 -1      3102 9.52096E-05-2.87405E-05-2.84865E-05-1.12488E-06 2.35811E-19-1.86023E-19
 -1      3103 9.52324E-05-2.87251E-05-2.85013E-05-1.01808E-06-6.70674E-20 4.08115E-20
 -1      3104 9.52071E-05-2.87329E-05-2.84896E-05-1.05393E-06 1.93577E-20-3.66835E-19
 -1      3105 9.54221E-05-2.88233E-05-2.85438E-05-1.07411E-06 4.54240E-21-2.12029E-19
 -1      3106 9.52363E-05-2.86737E-05-2.85248E-05-9.60904E-07-9.72334E-20 4.30193E-19
 -1      3107 9.52098E-05-2.86948E-05-2.85076E-05-9.86474E-07-6.91282E-20 3.35782E-19
 -1      3108 9.53768E-05-2.87754E-05-2.85445E-05-1.01263E-06-3.03372E-19-3.66228E-19
 -1      3109 9.52396E-05-2.85967E-05-2.85589E-05-9.36516E-07-1.64985E-19 5.81759E-19
 -1      3110 9.52133E-05-2.86304E-05-2.85372E-05-9.42886E-07-6.87331E-20 6.48093E-19
 -1      3111 9.53324E-05-2.86941E-05-2.85599E-05-9.67197E-07-2.79572E-19 1.05401E-20
 -1      3112 9.52367E-05-2.84910E-05-2.86027E-05-9.60963E-07 3.38669E-19 6.13896E-19
 -1      3113 9.52124E-05-2.85391E-05-2.85765E-05-9.39880E-07-4.43533E-20 5.74612E-19
 -1      3114 9.52831E-05-2.85806E-05-2.85870E-05-9.55498E-07-1.36677E-19 5.24609E-19
 -1      3115 9.52189E-05-2.83480E-05-2.86559E-05-1.05014E-06 2.33453E-19 1.14513E-18
 -1      3116 9.51996E-05-2.84150E-05-2.86248E-05-9.92857E-07 3.02487E-19 9.21379E-19
 -1      3117 9.52197E-05-2.84296E-05-2.86240E-05-9.92549E-07 7.54602E-20 5.49730E-19
 -1      3118 9.51715E-05-2.81513E-05-2.87195E-05-1.22177E-06 4.40227E-19 1.43387E-18
 -1      3119 9.51625E-05-2.82455E-05-2.86825E-05-1.11790E-06 4.23999E-19 1.54405E-18
 -1      3120 9.51277E-05-2.82288E-05-2.86698E-05-1.09241E-06 2.03804E-19 1.03482E-18
 -1      3121 9.50698E-05-2.78746E-05-2.87940E-05-1.49706E-06-1.23899E-19 1.21983E-18
 -1      3122 9.50810E-05-2.80094E-05-2.87502E-05-1.33353E-06 4.28374E-19 1.41646E-18
 -1      3123 9.49839E-05-2.79564E-05-2.87236E-05-1.26941E-06 4.07713E-19 1.31773E-18
 -1      3124 9.48725E-05-2.74776E-05-2.88793E-05-1.90194E-06 2.97576E-19 7.43146E-19
 -1      3125 9.49218E-05-2.76735E-05-2.88280E-05-1.66205E-06-3.07190E-19 1.04882E-18
 -1      3126 9.47512E-05-2.75783E-05-2.87838E-05-1.53859E-06 3.04972E-19 8.38286E-19
 -1      3127 9.45126E-05-2.69011E-05-2.89723E-05-2.46725E-06 4.41696E-20 2.67933E-19
 -1      3128 9.46302E-05-2.71880E-05-2.89144E-05-2.13023E-06 5.30161E-19 6.59800E-19
 -1      3129 9.43717E-05-2.70446E-05-2.88464E-05-1.91506E-06 3.96762E-19 5.28126E-19
 -1      3130 9.38829E-05-2.60615E-05-2.90634E-05-3.22700E-06 3.46516E-19 1.04915E-19
 -1      3131 9.41192E-05-2.64816E-05-2.90028E-05-2.76852E-06-1.12000E-19 7.18444E-20
 -1      3132 9.37553E-05-2.62838E-05-2.89026E-05-2.41128E-06 2.08606E-19 2.71241E-19
 -1      3133 9.28173E-05-2.48477E-05-2.91300E-05-4.21322E-06 2.88335E-19 8.06167E-19
 -1      3134 9.32526E-05-2.54563E-05-2.90777E-05-3.60788E-06 6.44604E-19 4.61576E-19
 -1      3135 9.27650E-05-2.51996E-05-2.89338E-05-3.03125E-06 9.54304E-20 4.55687E-19
 -1      3136 9.10684E-05-2.31266E-05-2.91243E-05-5.44655E-06-2.96796E-19 7.87125E-19
 -1      3137 9.18242E-05-2.39877E-05-2.91049E-05-4.67296E-06-5.95487E-20 7.38536E-19
 -1      3138 9.11975E-05-2.36707E-05-2.89033E-05-3.76056E-06 1.31330E-19 1.04561E-18
 -1      3139 8.82865E-05-2.07710E-05-2.89522E-05-6.92479E-06-4.75265E-20 1.53044E-19
 -1      3140 8.95341E-05-2.19391E-05-2.90157E-05-5.97228E-06 2.34696E-20 5.47499E-19
 -1      3141 8.87607E-05-2.15619E-05-2.87417E-05-4.55287E-06-5.15416E-21 8.77433E-19
 -1      3142 8.40157E-05-1.77365E-05-2.84356E-05-8.62319E-06-1.24983E-18 1.51535E-19
 -1      3143 8.59691E-05-1.92084E-05-2.86784E-05-7.49192E-06-4.00657E-19 1.28318E-19
 -1      3144 8.50517E-05-1.87596E-05-2.83214E-05-5.31951E-06-1.38377E-19 4.55432E-19
 -1      3145 7.77213E-05-1.42327E-05-2.72449E-05-1.05555E-05-1.76761E-18-2.18065E-19
 -1      3146 8.05985E-05-1.58384E-05-2.78467E-05-9.21517E-06-1.68281E-18-2.26368E-19
 -1      3147 7.95372E-05-1.52520E-05-2.74097E-05-5.94025E-06-1.17758E-18-2.90714E-19
 -1      3148 6.87092E-05-1.10404E-05-2.47466E-05-1.30769E-05-1.65181E-18-4.37678E-20
 -1      3149 7.27459E-05-1.21941E-05-2.60629E-05-1.12171E-05-1.36345E-18 4.97830E-20
 -1      3150 7.15347E-05-1.12847E-05-2.55829E-05-6.32353E-06-1.76042E-18-9.52947E-19
 -1      3151 5.68817E-05-9.86945E-06-2.00186E-05-1.50592E-05-2.41734E-18-1.80259E-19
 -1      3152 6.18543E-05-9.34881E-06-2.25650E-05-1.26636E-05-2.15373E-18-2.48287E-19
 -1      3153 6.04459E-05-7.52637E-06-2.21965E-05-5.14673E-06-2.09738E-18-1.35225E-18
 -1      3154 4.50916E-05-5.09718E-06-1.63656E-05-1.92446E-06-2.32172E-18-1.51238E-18
 -1      3155 6.41484E-05-9.32838E-06-2.35391E-05 1.04660E-05-8.93540E-19-1.62821E-18
 -1      3156 5.90868E-05-9.08576E-06-2.13535E-05 1.25579E-05-1.69784E-18-1.64430E-18
 -1      3157 9.40843E-05-2.70382E-05-2.87178E-05-2.69479E-06-1.86011E-19 5.47363E-19
 -1      3158 9.35817E-05-2.66076E-05-2.87184E-05-2.48521E-06-5.59697E-20 1.93827E-18
 -1      3159 9.43466E-05-2.75256E-05-2.86455E-05-3.14238E-06 7.97562E-19 7.15198E-19
 -1      3160 1.21981E-04-1.43829E-05-4.64819E-05 1.02185E-05-1.95241E-18 2.86946E-19
 -1      3161 1.22920E-04-9.10633E-06-4.93408E-05 6.50688E-06-2.02727E-18 6.09228E-19
 -1      3162 1.17961E-04-8.55421E-06-4.72223E-05 3.56756E-06-1.92467E-18 9.34807E-19
 -1      3163 9.27934E-05-1.83856E-05-3.18904E-05-7.48367E-06-6.24870E-19 2.29625E-21
 -1      3164 8.66750E-05-1.99533E-05-2.86506E-05 6.41579E-06-4.35497E-19-5.38282E-19
 -1      3165 8.47956E-05-1.85256E-05-2.84361E-05 7.28275E-06 6.46390E-19-6.04721E-19
 -1      3166 8.61691E-05-1.97514E-05-2.83972E-05 4.51065E-06-1.64210E-18-2.85915E-19
 -1      3167 9.18567E-05-2.44313E-05-2.88923E-05 1.89157E-06-1.78310E-19-1.48562E-18
 -1      3168 9.24410E-05-2.48362E-05-2.89908E-05 2.88906E-06-7.26705E-19-4.12065E-19
 -1      3169 9.20157E-05-2.43272E-05-2.89967E-05 3.40778E-06-4.28174E-19-4.77030E-19
 -1      3170 8.17492E-05-1.67205E-05-2.79467E-05 7.58699E-06 1.24306E-18-9.14661E-19
 -1      3171 7.89371E-05-1.50214E-05-2.74356E-05 8.54499E-06 1.14291E-18-1.27615E-18
 -1      3172 8.12647E-05-1.65132E-05-2.76303E-05 4.72247E-06 6.86249E-19-8.50666E-19
 -1      3173 9.30151E-05-2.59840E-05-2.87128E-05-2.13030E-06-2.46047E-19-9.81148E-19
 -1      3174 9.25636E-05-2.55910E-05-2.87210E-05-1.67029E-06 3.13763E-19-3.57682E-18
 -1      3175 9.30883E-05-2.63187E-05-2.86175E-05-2.76799E-06 3.69279E-19 6.62711E-20
 -1      3176 5.71907E-05-2.00608E-05-1.54077E-05-3.43744E-05 1.16443E-18 1.24683E-18
 -1      3177 7.02123E-05-2.86817E-05-1.76321E-05-3.93239E-05 9.32001E-19 1.23137E-18
 -1      3178 4.29931E-05-7.41604E-06-1.48720E-05-1.40458E-05 4.15026E-19 5.47713E-19
 -1      3179 4.82672E-05-1.30601E-05-1.47474E-05-2.66030E-05 4.84715E-19-2.22029E-19
 -1      3180 5.88039E-05-1.60857E-05-1.79210E-05-2.63820E-05 8.61538E-19-1.39019E-19
 -1      3181 7.45198E-05-1.29971E-05-2.64719E-05 8.81687E-06 1.19717E-18-2.25099E-18
 -1      3182 7.05728E-05-1.13911E-05-2.53917E-05 9.91832E-06 5.23407E-20-2.43957E-18
 -1      3183 7.40874E-05-1.26254E-05-2.61361E-05 4.51484E-06 5.25164E-19-2.21912E-18
 -1      3184 9.21294E-05-2.50565E-05-2.87364E-05-9.98363E-07-3.78520E-19-3.44202E-18
 -1      3185 9.18838E-05-2.48135E-05-2.87620E-05-3.31386E-07-5.52212E-19-1.93242E-18
 -1      3186 9.19319E-05-2.51305E-05-2.86211E-05-1.72339E-06 7.12320E-19-2.82485E-18
 -1      3187 9.57389E-05-2.86588E-05-2.87389E-05-2.38267E-06 2.60955E-21 2.09499E-18
 -1      3188 9.54418E-05-2.83834E-05-2.87427E-05-2.54561E-06-3.82375E-19 2.67635E-18
 -1      3189 9.54155E-05-2.85102E-05-2.86807E-05-2.95587E-06 1.07807E-18 1.85492E-18
 -1      3190 9.61071E-05-2.90454E-05-2.87345E-05-1.83031E-06 6.66951E-19 2.97314E-18
 -1      3191 9.59609E-05-2.88898E-05-2.87436E-05-2.06744E-06 3.50184E-19 1.99939E-18
 -1      3192 9.61136E-05-2.91465E-05-2.87051E-05-2.41195E-06 6.48513E-19 2.94030E-18
 -1      3193 9.53730E-05-2.79475E-05-2.89004E-05-4.88222E-07 3.32686E-19-4.19093E-19
 -1      3194 9.54224E-05-2.76896E-05-2.90170E-05-1.51901E-07 1.86722E-19-3.32137E-19
 -1      3195 9.23753E-05-1.83376E-05-3.17456E-05 1.80951E-06-9.21527E-20-5.37978E-19
 -1      3196 9.22540E-05-1.81336E-05-3.17776E-05 1.05666E-06-1.86640E-19-5.71882E-19
 -1      3197 1.20581E-04-5.56406E-05-2.73532E-05-2.90719E-05-1.24196E-19-7.86126E-19
 -1      3198 1.28390E-04-5.69405E-05-3.10347E-05-1.89595E-05-4.99802E-19-2.25251E-18
 -1      3199 1.23419E-04-5.50197E-05-2.95113E-05 2.17201E-05 6.95639E-19-9.93133E-19
 -1      3200 1.14348E-04-5.24343E-05-2.60290E-05 3.12954E-05 1.05831E-18-2.24100E-18
 -1      3201 9.53229E-05-2.83249E-05-2.87151E-05-9.12531E-07 2.95580E-19-3.18460E-19
 -1      3202 9.53528E-05-2.81620E-05-2.87873E-05-7.33544E-07 4.13291E-19-3.28950E-19
 -1      3203 9.56470E-05-2.84111E-05-2.88197E-05-8.94041E-07 2.90808E-19-5.52694E-19
 -1      3204 9.17099E-05-2.45267E-05-2.87899E-05 3.57336E-07-1.11062E-18-1.41131E-18
 -1      3205 9.17520E-05-2.45049E-05-2.88361E-05 1.09766E-06-4.78532E-19-1.58450E-18
 -1      3206 9.10532E-05-2.39371E-05-2.87512E-05 1.18135E-06-1.40663E-18-1.44024E-18
 -1      3207 9.12147E-05-2.43081E-05-2.86654E-05-3.18633E-07-8.10907E-19-9.95020E-19
 -1      3208 5.38065E-05-8.17252E-06-1.93248E-05 1.07653E-05-1.87859E-18-5.51524E-19
 -1      3209 4.32228E-05-7.05731E-06-1.52996E-05 8.69130E-06-1.52662E-18-9.64876E-19
 -1      3210 4.10770E-05-5.35446E-06-1.46926E-05-5.72561E-06-7.00562E-19 2.73168E-20
 -1      3211 5.19255E-05-5.82870E-06-1.92659E-05 1.09787E-06-8.89040E-19-7.18866E-19
 -1      3212 9.52132E-05-2.42784E-05-3.04032E-05 4.26865E-06 4.06546E-19-4.25643E-19
 -1      3213 9.46392E-05-2.27304E-05-3.08072E-05 4.77050E-06 3.48205E-19-4.19826E-19
 -1      3214 9.49139E-05-2.35871E-05-3.05689E-05 3.66380E-06 2.89440E-19-3.30676E-19
 -1      3215 9.52408E-05-2.52035E-05-3.00291E-05 2.99540E-06 3.21412E-19-3.81679E-19
 -1      3216 9.49604E-05-2.35116E-05-3.06207E-05-4.14432E-06-5.89609E-19 1.82927E-19
 -1      3217 9.51580E-05-2.45915E-05-3.02612E-05-2.96223E-06-4.47480E-19 1.41760E-19
 -1      3218 9.52414E-05-2.44607E-05-3.03300E-05-2.62092E-06-4.73940E-19 1.87931E-19
 -1      3219 1.34990E-04-4.96266E-05-3.70427E-05-4.54850E-07 9.33549E-19-2.67874E-19
 -1      3220 1.31545E-04-5.39734E-05-3.31943E-05 9.28479E-06 9.87604E-19-6.88294E-19
 -1      3221 9.52375E-05-2.87375E-05-2.84988E-05-1.15240E-06 1.40712E-19-3.78306E-19
 -1      3222 9.52214E-05-2.87081E-05-2.85043E-05-1.17250E-06 3.21303E-19-6.27507E-19
 -1      3223 9.55270E-05-2.87817E-05-2.86078E-05-1.14725E-06 3.19133E-19-7.86157E-19
 -1      3224 9.54717E-05-2.88303E-05-2.85626E-05-1.12906E-06-3.39352E-20-4.32172E-19
 -1      3225 1.34495E-04-5.40090E-05-3.42380E-05-6.85846E-06 1.40290E-20 6.23416E-19
 -1      3226 1.33985E-04-4.73635E-05-3.74826E-05 2.61897E-06 2.57286E-20 2.24056E-18
 -1      3227 1.23929E-04-1.51623E-05-4.71666E-05-1.08033E-05-9.84464E-19 6.75588E-19
 -1      3228 1.27975E-04-2.33574E-05-4.51057E-05-1.29680E-05-1.49290E-18 8.92349E-19
 -1      3229 1.25030E-04-2.79783E-05-4.17580E-05-1.26226E-05-1.22899E-18 8.63444E-20
 -1      3230 9.34803E-05-1.98236E-05-3.15499E-05-6.20005E-06-5.22579E-19 4.74454E-20
 -1      3231 9.21941E-05-1.80336E-05-3.17961E-05 4.07673E-07-1.30093E-19-5.83438E-19
 -1      3232 9.21905E-05-1.80289E-05-3.17965E-05-3.60060E-07-9.09357E-20-6.51029E-19
 -1      3233 9.31467E-05-1.96160E-05-3.14955E-05 6.27625E-07-1.90155E-19-6.14770E-19
 -1      3234 9.43559E-05-2.19791E-05-3.09915E-05 3.63921E-06 2.22756E-19-2.43795E-19
 -1      3235 9.34333E-05-2.02105E-05-3.14069E-05 4.24016E-06 2.06136E-19-3.09104E-19
 -1      3236 9.30761E-05-1.95508E-05-3.15207E-05 3.65577E-06 1.20311E-19-2.85625E-19
 -1      3237 7.63829E-05-3.05897E-05-1.92637E-05 3.77411E-05-7.56983E-19-2.44501E-18
 -1      3238 1.11871E-04-5.14749E-05-2.57694E-05-3.17284E-05 1.22185E-19-6.48907E-20
 -1      3239 1.28338E-04-4.54034E-05-3.56899E-05 3.86592E-06-1.52969E-19 2.12043E-18
 -1      3240 1.31582E-04-4.20396E-05-3.84817E-05 7.93284E-06-7.18575E-19 1.22769E-18
 -1      3241 1.25823E-04-3.51713E-05-3.90243E-05 1.12531E-05-1.08553E-18 5.18093E-19
 -1      3242 1.30402E-04-4.39654E-05-3.71472E-05-5.39701E-06 3.86254E-19 6.39219E-19
 -1      3243 6.38045E-05-8.73685E-06-2.32932E-05 4.24924E-06-1.47291E-19-1.09550E-18
 -1      3244 4.95969E-05-6.43565E-06-1.82573E-05 4.16235E-06-2.17342E-18-1.46838E-18
 -1      3245 9.30428E-05-1.94956E-05-3.15289E-05-3.60944E-06-2.50346E-19-8.61310E-20
 -1      3246 9.33974E-05-2.01507E-05-3.14178E-05-4.22300E-06-4.14225E-19 5.44996E-20
 -1      3247 9.13485E-05-2.38252E-05-2.89684E-05 3.89245E-06 9.72127E-20-2.43743E-19
 -1      3248 9.07239E-05-2.30994E-05-2.89711E-05 4.56279E-06-5.86497E-19-6.32570E-20
 -1      3249 8.88272E-05-2.18569E-05-2.86751E-05 3.58657E-06-1.07798E-18-4.51508E-19
 -1      3250 9.03726E-05-2.32389E-05-2.87644E-05 2.45807E-06-3.51799E-19-4.33864E-19
 -1      3251 7.62646E-05-2.85893E-05-2.01975E-05-3.49486E-05 5.25425E-19 2.09307E-18
 -1      3252 8.09153E-05-3.44106E-05-1.94545E-05-3.95760E-05 5.02396E-19 1.41645E-18
 -1      3253 9.13162E-05-4.01830E-05-2.19958E-05-3.75910E-05-2.75709E-19 2.54639E-18
 -1      3254 1.22087E-04-1.96706E-05-4.42736E-05 1.23897E-05-1.97221E-18 2.48260E-19
 -1      3255 1.16838E-04-1.55556E-05-4.35979E-05 1.04164E-05-2.00064E-18-2.06173E-19
 -1      3256 1.21385E-04-2.45821E-05-4.16322E-05 1.24948E-05-2.21526E-18 4.01639E-19
 -1      3257 4.90712E-05-7.60545E-06-1.73787E-05-1.00091E-05-1.80127E-19-4.18434E-19
 -1      3258 9.54267E-05-2.60315E-05-2.97309E-05 2.10323E-06 3.10781E-19-4.38218E-19
 -1      3259 9.53682E-05-2.53259E-05-3.00125E-05 2.48992E-06 3.26476E-19-4.03467E-19
 -1      3260 9.53676E-05-2.66147E-05-2.94749E-05 1.24443E-06 3.41069E-19-3.88626E-19
 -1      3261 9.62005E-05-2.91688E-05-2.87288E-05-1.47526E-06 4.56923E-19 2.04805E-18
 -1      3262 9.64420E-05-2.94700E-05-2.87090E-05-1.70704E-06 5.14565E-19 1.91167E-18
 -1      3263 9.56923E-05-2.79973E-05-2.90172E-05-4.92854E-07 2.69762E-19-6.68172E-19
 -1      3264 9.25433E-05-1.86287E-05-3.16893E-05 2.41991E-06-3.06806E-20-3.97691E-19
 -1      3265 9.33594E-05-1.99981E-05-3.14189E-05 1.80706E-06-7.20388E-20-3.89150E-19
 -1      3266 9.27846E-05-1.90503E-05-3.16218E-05 3.11109E-06 4.59329E-20-3.24147E-19
 -1      3267 1.27387E-04-5.46072E-05-3.11853E-05 1.38690E-05 8.73106E-19-6.79466E-19
 -1      3268 1.19858E-04-5.15392E-05-2.93328E-05 1.74855E-05 4.37188E-19-8.90060E-19
 -1      3269 1.26643E-04-5.06714E-05-3.25481E-05 5.64378E-06 9.88706E-19-7.04930E-19
 -1      3270 1.15641E-04-9.47219E-06-4.58775E-05-5.46963E-06-1.64833E-18 5.11131E-19
 -1      3271 1.20359E-04-1.19876E-05-4.68436E-05-8.72048E-06-1.30485E-18 2.62051E-21
 -1      3272 1.17705E-04-1.68043E-05-4.34570E-05-1.03234E-05-1.31211E-18-7.21712E-19
 -1      3273 1.28162E-04-5.37956E-05-3.18982E-05-1.16034E-05 1.74092E-19-2.07682E-19
 -1      3274 1.04658E-04-4.64485E-05-2.48351E-05 3.20330E-05 4.63115E-19-2.04347E-18
 -1      3275 9.53834E-05-2.74155E-05-2.91352E-05 1.82109E-07 1.32374E-19-2.41317E-19
 -1      3276 9.54474E-05-2.70294E-05-2.93101E-05 7.36968E-07 2.22977E-19-4.40871E-19
 -1      3277 9.55685E-05-2.66158E-05-2.95527E-05 1.04536E-06 2.29343E-19-4.62348E-19
 -1      3278 9.56726E-05-2.74093E-05-2.92616E-05 1.37931E-07 1.23540E-19-6.15067E-19
 -1      3279 5.10077E-05-1.30986E-05-1.57225E-05 2.53844E-05-1.62554E-18-2.74788E-18
 -1      3280 5.26975E-05-1.04895E-05-1.78498E-05 1.86650E-05-1.90135E-18-1.94188E-18
 -1      3281 5.90796E-05-1.75236E-05-1.78161E-05 2.93925E-05-1.43689E-18-1.93473E-18
 -1      3282 9.60199E-05-2.89889E-05-2.87291E-05-1.22756E-06 5.14016E-20-4.93200E-19
 -1      3283 9.25280E-05-1.85998E-05-3.16939E-05-2.36974E-06-1.93832E-19-1.73848E-19
 -1      3284 9.27589E-05-1.90034E-05-3.16279E-05-3.08309E-06-1.53720E-19-2.98129E-19
 -1      3285 9.37330E-05-2.07467E-05-3.12660E-05-2.79373E-06-2.55359E-19-1.39136E-19
 -1      3286 9.39970E-05-2.12764E-05-3.11698E-05-5.13011E-06-5.53548E-19 6.09847E-20
 -1      3287 9.39593E-05-2.12151E-05-3.11700E-05-4.44245E-06-4.79142E-19 5.80565E-20
 -1      3288 9.22456E-05-1.81207E-05-3.17793E-05-1.00800E-06-1.39378E-19-4.82543E-19
 -1      3289 9.23559E-05-1.83110E-05-3.17484E-05-1.76218E-06-2.21221E-19-3.08483E-19
 -1      3290 9.33393E-05-1.99799E-05-3.14228E-05-1.75341E-06-2.02922E-19-2.46188E-19
 -1      3291 1.13160E-04-1.05756E-05-4.42266E-05 4.00539E-06-2.13876E-18 4.78367E-19
 -1      3292 1.14280E-04-8.85825E-06-4.55597E-05-1.02225E-06-1.51942E-18 7.82930E-19
 -1      3293 1.11742E-04-1.14515E-05-4.30848E-05-4.22843E-06-1.53636E-18 5.75678E-19
 -1      3294 9.60320E-05-2.68990E-05-2.96198E-05-4.37169E-07-3.99610E-19 1.63144E-19
 -1      3295 9.60808E-05-2.73896E-05-2.94465E-05-1.99382E-08-4.82090E-19 9.26634E-20
 -1      3296 9.61617E-05-2.78073E-05-2.92872E-05 2.62719E-07-5.42590E-19 5.54675E-20
 -1      3297 9.61559E-05-2.81224E-05-2.91617E-05 5.19276E-07-5.50628E-19 6.23489E-20
 -1      3298 9.62640E-05-2.74372E-05-2.94974E-05 2.97997E-08-5.06782E-19 1.73577E-19
 -1      3299 9.61620E-05-2.83805E-05-2.90436E-05 6.85062E-07-5.09279E-19 2.03371E-19
 -1      3300 9.61303E-05-2.85732E-05-2.89553E-05 8.25977E-07-2.66677E-19 2.44745E-19
 -1      3301 9.63510E-05-2.81884E-05-2.92140E-05 4.97486E-07-4.64411E-19 1.22940E-19
 -1      3302 9.60930E-05-2.87207E-05-2.88700E-05 9.08455E-07-3.35856E-20 7.79265E-20
 -1      3303 9.60502E-05-2.88286E-05-2.88099E-05 9.71057E-07 9.07180E-20 4.40028E-20
 -1      3304 9.63216E-05-2.86480E-05-2.90050E-05 7.64583E-07-2.52673E-19 3.54363E-19
 -1      3305 9.59894E-05-2.89000E-05-2.87502E-05 9.98382E-07 1.11621E-19-3.62871E-20
 -1      3306 9.59433E-05-2.89495E-05-2.87112E-05 1.01183E-06 2.23341E-20 1.55678E-19
 -1      3307 9.62259E-05-2.89030E-05-2.88548E-05 8.90908E-07 5.92551E-20 2.12493E-19
 -1      3308 9.58713E-05-2.89690E-05-2.86712E-05 1.00631E-06-2.59139E-20 1.62237E-19
 -1      3309 9.58261E-05-2.89788E-05-2.86478E-05 9.92505E-07-2.03683E-19 5.68734E-19
 -1      3310 9.60957E-05-2.90159E-05-2.87505E-05 9.26591E-07-3.57378E-20-7.44818E-20
 -1      3311 9.57505E-05-2.89639E-05-2.86224E-05 9.71052E-07-3.70739E-19 7.76211E-19
 -1      3312 9.57083E-05-2.89473E-05-2.86104E-05 9.45884E-07-2.60089E-19 8.71974E-19
 -1      3313 9.59505E-05-2.90318E-05-2.86812E-05 9.10955E-07-8.51484E-20 5.29226E-20
 -1      3314 9.56337E-05-2.89105E-05-2.85959E-05 9.20877E-07-1.50016E-19 9.12071E-19
 -1      3315 9.55957E-05-2.88776E-05-2.85918E-05 8.95591E-07 2.04583E-20 6.66819E-19
 -1      3316 9.58024E-05-2.89836E-05-2.86381E-05 8.73519E-07-1.37700E-19 3.28544E-19
 -1      3317 9.55248E-05-2.88280E-05-2.85849E-05 8.75975E-07 4.74139E-20 5.95576E-19
 -1      3318 9.54922E-05-2.87866E-05-2.85863E-05 8.58297E-07-1.09743E-19 7.40001E-19
 -1      3319 9.56585E-05-2.88952E-05-2.86140E-05 8.35902E-07-1.49074E-19 2.54430E-19
 -1      3320 9.54272E-05-2.87319E-05-2.85846E-05 8.50495E-07-1.54236E-19 9.93127E-19
 -1      3321 9.54018E-05-2.86890E-05-2.85892E-05 8.45382E-07 4.51711E-20 9.34952E-19
 -1      3322 9.55237E-05-2.87852E-05-2.86033E-05 8.13923E-07 2.19737E-19 8.56144E-19
 -1      3323 9.53455E-05-2.86365E-05-2.85905E-05 8.53865E-07-8.06837E-20 7.07700E-19
 -1      3324 9.53304E-05-2.85997E-05-2.85968E-05 8.63933E-07-1.90616E-19 6.64733E-19
 -1      3325 9.54029E-05-2.86697E-05-2.86009E-05 8.19025E-07-2.58590E-19 8.56771E-19
 -1      3326 9.52872E-05-2.85577E-05-2.85992E-05 8.91581E-07-2.73312E-19 6.83077E-19
 -1      3327 9.52879E-05-2.85361E-05-2.86057E-05 9.17201E-07-4.77709E-19 7.03971E-19
 -1      3328 9.53031E-05-2.85656E-05-2.86029E-05 8.59300E-07-1.17184E-19 8.62777E-19
 -1      3329 9.52656E-05-2.85154E-05-2.86077E-05 9.65277E-07-7.31353E-19 9.51384E-19
 -1      3330 9.52906E-05-2.85213E-05-2.86130E-05 1.00421E-06-7.20929E-19 1.15726E-18
 -1      3331 9.52362E-05-2.84932E-05-2.86057E-05 9.39993E-07-3.99919E-19 9.11707E-19
 -1      3332 9.53018E-05-2.85367E-05-2.86133E-05 1.07181E-06-3.18171E-19 1.45390E-18
 -1      3333 9.53642E-05-2.85864E-05-2.86164E-05 1.11839E-06 2.47734E-20 1.63475E-18
 -1      3334 9.52222E-05-2.84796E-05-2.86064E-05 1.06306E-06-2.82301E-19 1.20350E-18
 -1      3335 9.54281E-05-2.86575E-05-2.86143E-05 1.20122E-06-2.27574E-19 1.91240E-18
 -1      3336 9.55460E-05-2.87717E-05-2.86148E-05 1.24491E-06-3.16702E-19 1.86851E-18
 -1      3337 9.52923E-05-2.85617E-05-2.86027E-05 1.22559E-06-8.65917E-20 2.07640E-18
 -1      3338 9.56900E-05-2.89237E-05-2.86103E-05 1.33314E-06-2.53223E-19 1.86398E-18
 -1      3339 9.58869E-05-2.91270E-05-2.86088E-05 1.35657E-06-2.75302E-19 1.83188E-18
 -1      3340 9.54925E-05-2.87877E-05-2.85940E-05 1.41665E-06-2.31683E-19 2.03846E-18
 -1      3341 9.61472E-05-2.93887E-05-2.86039E-05 1.43141E-06-4.08475E-19 1.93945E-18
 -1      3342 9.64499E-05-2.97062E-05-2.86027E-05 1.40779E-06-2.86187E-19 1.74745E-18
 -1      3343 9.58861E-05-2.92166E-05-2.85820E-05 1.61170E-06-1.48904E-19 2.21754E-18
 -1      3344 9.68698E-05-3.01058E-05-2.86018E-05 1.43682E-06 8.20717E-20 1.90355E-18
 -1      3345 9.73033E-05-3.05555E-05-2.86062E-05 1.32744E-06 1.87880E-19 1.94529E-18
 -1      3346 9.65529E-05-2.99129E-05-2.85735E-05 1.76424E-06-4.19359E-20 1.89144E-18
 -1      3347 9.79264E-05-3.11105E-05-2.86186E-05 1.25914E-06-3.79563E-19 1.73367E-18
 -1      3348 9.85037E-05-3.16895E-05-2.86382E-05 1.01240E-06-8.10970E-19 1.15286E-18
 -1      3349 9.75815E-05-3.09317E-05-2.85823E-05 1.79461E-06-3.31587E-19 9.97855E-19
 -1      3350 9.93597E-05-3.23887E-05-2.86792E-05 7.71766E-07-6.07266E-19 1.52049E-18
 -1      3351 1.00064E-04-3.30511E-05-2.87292E-05 3.26870E-07-2.63905E-19 1.68153E-18
 -1      3352 9.90491E-05-3.22894E-05-2.86338E-05 1.57802E-06-6.22262E-19 8.75773E-19
 -1      3353 1.01141E-04-3.38259E-05-2.88221E-05-1.80765E-07 1.36680E-19 1.32078E-18
 -1      3354 1.01903E-04-3.44539E-05-2.89234E-05-8.78350E-07 9.12959E-19 1.37738E-18
 -1      3355 1.00981E-04-3.39109E-05-2.87684E-05 9.38712E-07-1.94997E-19 1.77637E-18
 -1      3356 1.03107E-04-3.51454E-05-2.90993E-05-1.74278E-06 1.40770E-18 1.07236E-18
 -1      3357 1.03785E-04-3.55254E-05-2.92765E-05-2.70599E-06 1.45799E-18 1.30106E-18
 -1      3358 1.03280E-04-3.55577E-05-2.90442E-05-3.27198E-07 9.95537E-19 1.59492E-18
 -1      3359 1.04900E-04-3.58586E-05-2.95702E-05-3.95169E-06 1.12610E-18 1.13384E-18
 -1      3360 1.05284E-04-3.56914E-05-2.98461E-05-5.08900E-06 6.31261E-19 1.18240E-18
 -1      3361 1.05646E-04-3.67500E-05-2.95324E-05-2.37579E-06 1.35708E-18 5.68340E-19
 -1      3362 1.05968E-04-3.53146E-05-3.02852E-05-6.56578E-06 3.68772E-19 1.46060E-18
 -1      3363 1.05837E-04-3.43056E-05-3.06658E-05-7.61955E-06 3.27676E-19 2.03869E-18
 -1      3364 1.07520E-04-3.67604E-05-3.03065E-05-5.14061E-06 6.31953E-19 1.15442E-18
 -1      3365 1.05722E-04-3.29205E-05-3.12428E-05-8.88857E-06-2.17697E-19 1.98250E-18
 -1      3366 1.04994E-04-3.09920E-05-3.16987E-05-9.40637E-06-3.70767E-19 1.81697E-18
 -1      3367 1.08161E-04-3.48187E-05-3.13947E-05-8.08213E-06 2.61289E-19 1.46194E-18
 -1      3368 1.03961E-04-2.86750E-05-3.23446E-05-9.74665E-06-1.14776E-19 2.06763E-18
 -1      3369 1.02823E-04-2.62137E-05-3.27930E-05-9.23728E-06 7.06114E-19 2.62403E-18
 -1      3370 1.07006E-04-3.05934E-05-3.27225E-05-1.00343E-05 2.69874E-19 1.28768E-18
 -1      3371 1.01360E-04-2.36656E-05-3.33628E-05-8.11127E-06 2.91604E-19 2.36563E-18
 -1      3372 1.00291E-04-2.15181E-05-3.36997E-05-6.40702E-06-2.03255E-19 2.15269E-18
 -1      3373 1.04523E-04-2.51808E-05-3.39925E-05-9.35672E-06 5.04395E-19 1.63223E-18
 -1      3374 9.91371E-05-1.98838E-05-3.40287E-05-3.52293E-06-4.72783E-19 1.61391E-18
 -1      3375 9.89003E-05-1.92419E-05-3.41255E-05-1.02133E-06-7.90672E-19 1.57309E-18
 -1      3376 1.01581E-04-1.96493E-05-3.50833E-05-5.62513E-06-5.69319E-19 9.25463E-19
 -1      3377 9.90201E-05-1.94657E-05-3.40750E-05 2.19116E-06-1.15249E-18 1.75031E-18
 -1      3378 9.95595E-05-2.04892E-05-3.39202E-05 4.61064E-06-1.46287E-18 6.25946E-19
 -1      3379 1.00844E-04-1.83663E-05-3.53618E-05 6.59458E-07-1.11019E-18 4.09420E-19
 -1      3380 1.00793E-04-2.24410E-05-3.35344E-05 7.08742E-06-1.11618E-18 2.86664E-19
 -1      3381 1.01867E-04-2.47369E-05-3.31625E-05 8.50422E-06-1.53372E-18 4.27922E-19
 -1      3382 1.02326E-04-2.09539E-05-3.48288E-05 6.56480E-06-1.57310E-18 3.56106E-19
 -1      3383 1.03402E-04-2.73044E-05-3.25622E-05 9.42484E-06-2.27540E-18 3.90739E-19
 -1      3384 1.04511E-04-2.97481E-05-3.21020E-05 9.68546E-06-2.87525E-18 1.62001E-19
 -1      3385 1.04947E-04-2.59562E-05-3.37892E-05 9.87693E-06-1.88430E-18-4.65633E-19
 -1      3386 1.05354E-04-3.19329E-05-3.14592E-05 9.01861E-06-2.38441E-18 8.08149E-19
 -1      3387 1.05997E-04-3.36931E-05-3.10159E-05 8.33927E-06-1.34005E-18 8.89030E-19
 -1      3388 1.07544E-04-3.17422E-05-3.24369E-05 9.69412E-06-1.93008E-18 8.41739E-19
 -1      3389 1.05914E-04-3.48656E-05-3.04656E-05 6.94052E-06-8.08456E-19 1.40060E-18
 -1      3390 1.05928E-04-3.56772E-05-3.01071E-05 5.82054E-06 1.19197E-20 1.30108E-18
 -1      3391 1.08289E-04-3.55737E-05-3.11349E-05 7.33611E-06-8.51240E-19 2.25062E-18
 -1      3392 1.05124E-04-3.58728E-05-2.97035E-05 4.35392E-06 4.10514E-19 8.19525E-19
 -1      3393 1.04660E-04-3.58940E-05-2.94517E-05 3.22400E-06-2.07912E-19 1.11111E-18
 -1      3394 1.07324E-04-3.70333E-05-3.01184E-05 4.32565E-06 7.10569E-21 1.94168E-18
 -1      3395 1.03512E-04-3.54556E-05-2.91892E-05 2.04130E-06-1.16645E-18 1.65426E-18
 -1      3396 1.02801E-04-3.49934E-05-2.90331E-05 1.11891E-06-7.78087E-19 2.54340E-18
 -1      3397 1.05304E-04-3.66899E-05-2.94180E-05 1.66581E-06-1.17215E-19 2.54819E-18
 -1      3398 1.01617E-04-3.42562E-05-2.88838E-05 3.21915E-07-6.42330E-19 2.44996E-18
 -1      3399 1.00855E-04-3.35905E-05-2.88012E-05-3.27447E-07-1.10412E-19 1.80583E-18
 -1      3400 1.02932E-04-3.53388E-05-2.89906E-05-2.39283E-07-4.34008E-19 1.85285E-18
 -1      3401 9.98231E-05-3.28022E-05-2.87312E-05-7.79718E-07 1.16864E-19 2.14338E-18
 -1      3402 9.91348E-05-3.21211E-05-2.86979E-05-1.17932E-06 3.19556E-20 1.89336E-18
 -1      3403 1.00701E-04-3.36334E-05-2.87672E-05-1.37733E-06-1.53508E-19 1.98997E-18
 -1      3404 9.83249E-05-3.14201E-05-2.86777E-05-1.37550E-06 6.12355E-19 2.28520E-18
 -1      3405 9.77702E-05-3.08222E-05-2.86747E-05-1.58087E-06 8.71992E-19 3.08526E-18
 -1      3406 9.88617E-05-3.19911E-05-2.86785E-05-1.91828E-06 9.85818E-19 2.12837E-18
 -1      3407 9.72624E-05-3.03528E-05-2.86795E-05-1.65523E-06 2.71439E-19 3.30135E-18
 -1      3408 9.68354E-05-2.98623E-05-2.86920E-05-1.71300E-06 5.73314E-19 2.46639E-18
 -1      3409 9.67028E-05-2.97658E-05-2.86928E-05-2.11855E-06-9.24009E-20 2.94636E-18
 -1      3410 9.75797E-05-3.07183E-05-2.86679E-05-2.10768E-06 1.39256E-18 2.84016E-18
 -1      3411 9.65051E-05-2.95778E-05-2.86739E-05-2.58934E-06 8.30368E-19 2.46725E-18
 -1      3412 9.62002E-05-2.93337E-05-2.86620E-05-2.93752E-06 1.47062E-18 3.18977E-18
 -1      3413 9.68948E-05-3.00418E-05-2.86539E-05-2.65581E-06 6.71920E-19 2.02707E-18
 -1      3414 9.55092E-05-2.88170E-05-2.85806E-05-9.60942E-07-4.32831E-19-1.95035E-19
 -1      3415 9.55324E-05-2.88515E-05-2.85780E-05-9.85668E-07-2.72804E-19-3.34030E-19
 -1      3416 9.55962E-05-2.88889E-05-2.85873E-05-1.01308E-06-8.99610E-20-5.10929E-19
 -1      3417 9.56210E-05-2.89023E-05-2.85934E-05-1.03938E-06 8.02652E-20-3.29356E-19
 -1      3418 9.57144E-05-2.89308E-05-2.86229E-05-9.56330E-07-2.27011E-19-5.86940E-19
 -1      3419 9.53213E-05-2.85599E-05-2.86101E-05-9.23735E-07-5.03685E-20-1.26498E-19
 -1      3420 9.53495E-05-2.86310E-05-2.85953E-05-9.17510E-07-1.83693E-19 2.15922E-19
 -1      3421 9.52013E-05-2.83689E-05-2.86406E-05-9.66666E-07-1.03103E-19 1.73303E-19
 -1      3422 9.52398E-05-2.84624E-05-2.86212E-05-9.34159E-07-2.42345E-19-4.55084E-20
 -1      3423 9.53040E-05-2.85067E-05-2.86270E-05-8.91608E-07-1.26646E-19-5.33076E-19
 -1      3424 9.50406E-05-2.81193E-05-2.86790E-05-1.06528E-06 3.96010E-20 3.52338E-19
 -1      3425 9.50988E-05-2.82434E-05-2.86555E-05-1.00014E-06 4.22800E-20 2.13506E-19
 -1      3426 9.51233E-05-2.82689E-05-2.86505E-05-9.34179E-07-1.17663E-19-3.53988E-19
 -1      3427 9.48093E-05-2.77868E-05-2.87229E-05-1.22838E-06 2.84211E-19 7.52995E-19
 -1      3428 9.49021E-05-2.79544E-05-2.86962E-05-1.12450E-06 2.15760E-19 5.17507E-19
 -1      3429 9.48873E-05-2.79611E-05-2.86798E-05-1.02110E-06 2.46057E-20-7.46260E-20
 -1      3430 9.44611E-05-2.73338E-05-2.87689E-05-1.46222E-06 6.60356E-19-1.31779E-19
 -1      3431 9.46122E-05-2.75649E-05-2.87405E-05-1.31401E-06 7.35202E-19 4.81118E-19
 -1      3432 9.45595E-05-2.75553E-05-2.87110E-05-1.15334E-06 5.38778E-19 1.32904E-19
 -1      3433 9.39256E-05-2.67070E-05-2.88101E-05-1.76777E-06 1.24912E-19 3.92380E-19
 -1      3434 9.41717E-05-2.70299E-05-2.87832E-05-1.57143E-06 2.66947E-19 7.49600E-20
 -1      3435 9.40856E-05-2.70106E-05-2.87382E-05-1.32474E-06 4.61220E-19 7.05999E-20
 -1      3436 9.30968E-05-2.58328E-05-2.88334E-05-2.13528E-06-4.98227E-20 2.02244E-19
 -1      3437 9.34950E-05-2.62865E-05-2.88147E-05-1.89147E-06 3.00289E-20 7.75062E-20
 -1      3438 9.33861E-05-2.62704E-05-2.87506E-05-1.51681E-06 9.10361E-20-3.70032E-19
 -1      3439 9.18189E-05-2.46163E-05-2.88135E-05-2.53461E-06-2.06034E-20 7.38628E-20
 -1      3440 9.24547E-05-2.52511E-05-2.88166E-05-2.25341E-06-6.70360E-20-3.96459E-20
 -1      3441 9.23462E-05-2.52615E-05-2.87299E-05-1.69001E-06 8.95165E-20-2.08466E-19
 -1      3442 8.98679E-05-2.29443E-05-2.87046E-05-2.90060E-06 2.90634E-20 8.72932E-20
 -1      3443 9.08669E-05-2.38197E-05-2.87548E-05-2.60911E-06 6.10749E-20 1.58916E-19
 -1      3444 9.08038E-05-2.38958E-05-2.86432E-05-1.76989E-06-1.40201E-19-6.30351E-19
 -1      3445 8.69311E-05-2.07019E-05-2.84239E-05-3.11465E-06-1.28943E-19 1.14397E-19
 -1      3446 8.84714E-05-2.18772E-05-2.85679E-05-2.86619E-06-1.23835E-19 4.56962E-19
 -1      3447 8.85362E-05-2.20795E-05-2.84339E-05-1.62779E-06-2.35441E-19-4.73352E-19
 -1      3448 8.25863E-05-1.78116E-05-2.78247E-05-2.98957E-06-6.60502E-19 6.02993E-19
 -1      3449 8.49108E-05-1.93227E-05-2.81468E-05-2.86974E-06-2.27804E-19 2.07117E-19
 -1      3450 8.52455E-05-1.97365E-05-2.80048E-05-1.05763E-06-5.11339E-19-4.20140E-19
 -1      3451 7.62764E-05-1.43159E-05-2.66462E-05-2.27697E-06-1.30136E-18-2.23966E-19
 -1      3452 7.97058E-05-1.61272E-05-2.72987E-05-2.39446E-06-6.55097E-19 3.55530E-19
 -1      3453 8.05421E-05-1.68545E-05-2.71889E-05 2.44135E-07-3.84273E-19-3.96239E-19
 -1      3454 6.73334E-05-1.05386E-05-2.44105E-05-7.08772E-07-1.51687E-18-1.32310E-18
 -1      3455 7.22169E-05-1.24185E-05-2.56791E-05-1.17208E-06-1.66882E-18-6.99461E-19
 -1      3456 7.39240E-05-1.35745E-05-2.56947E-05 2.68271E-06-1.22195E-18-8.21817E-19
 -1      3457 5.60141E-05-7.49556E-06-2.07907E-05 2.60282E-06-2.13163E-18-1.34808E-18
 -1      3458 6.24385E-05-8.95893E-06-2.29147E-05 5.00372E-07-1.75331E-18-1.33413E-18
 -1      3459 6.51730E-05-1.02730E-05-2.32332E-05 6.32437E-06-1.77600E-18-1.49869E-18
 -1      3460 5.41253E-05-7.97614E-06-1.92787E-05 1.08291E-05-1.88566E-18-1.31322E-18
 -1      3461 9.48203E-05-2.80941E-05-2.85777E-05-3.68974E-06 9.43484E-19 1.25126E-18
 -1      3462 9.41197E-05-2.75274E-05-2.85539E-05-3.68989E-06 3.53194E-20 1.28867E-18
 -1      3463 9.44573E-05-2.23082E-05-3.09114E-05-3.43152E-06-4.55907E-19 1.31834E-19
 -1      3464 8.63032E-05-2.03895E-05-2.82870E-05 2.43466E-06-1.40898E-18 5.89796E-20
 -1      3465 8.42721E-05-1.90267E-05-2.80122E-05 2.42626E-06-7.10009E-19 3.56857E-19
 -1      3466 5.71710E-05-7.90153E-06-2.09409E-05-2.88368E-06 5.63674E-20-8.44545E-19
 -1      3467 5.16963E-05-6.87267E-06-1.90447E-05-5.92567E-06-5.42713E-19-8.00764E-19
 -1      3468 5.43773E-05-9.18736E-06-1.91425E-05-1.41309E-05 6.55127E-21-1.59412E-18
 -1      3469 8.18074E-05-1.75579E-05-2.75733E-05 1.77047E-06-7.73880E-19 5.94005E-19
 -1      3470 7.87670E-05-1.58891E-05-2.70341E-05 1.47545E-06 2.61439E-20-6.06514E-19
 -1      3471 8.27810E-05-1.83872E-05-2.75157E-05-4.46560E-07-3.36627E-19 2.90529E-19
 -1      3472 9.32835E-05-2.66905E-05-2.85154E-05-3.57954E-06 2.51108E-19 7.49735E-19
 -1      3473 9.25181E-05-2.60668E-05-2.85006E-05-3.24340E-06 3.90085E-19-8.73328E-19
 -1      3474 9.36562E-05-2.73267E-05-2.84386E-05-4.24749E-06 3.37940E-19 7.42974E-19
 -1      3475 5.86999E-05-1.32060E-05-1.93141E-05-2.06483E-05 1.62472E-19-1.30295E-18
 -1      3476 6.63618E-05-1.98072E-05-1.98105E-05-2.82814E-05 7.50498E-19 1.09055E-19
 -1      3477 7.53609E-05-1.42030E-05-2.62579E-05 2.54270E-07 7.69903E-19-9.94155E-19
 -1      3478 7.11876E-05-1.22848E-05-2.53065E-05-5.12663E-07 3.90350E-19-1.12402E-18
 -1      3479 7.71494E-05-1.54764E-05-2.62971E-05-2.88184E-06 2.63075E-19-5.39524E-19
 -1      3480 8.37128E-05-3.32989E-05-2.17668E-05 3.49148E-05-4.93185E-19-2.62932E-18
 -1      3481 7.07826E-05-2.44476E-05-1.92808E-05 3.37464E-05-7.52271E-19-2.13235E-18
 -1      3482 6.81843E-05-2.04863E-05-2.02839E-05 2.81210E-05-1.20490E-18-2.02033E-18
 -1      3483 9.16714E-05-2.51640E-05-2.84837E-05-2.68407E-06 7.25756E-19-3.16243E-18
 -1      3484 9.10664E-05-2.46306E-05-2.84960E-05-1.95541E-06 2.46168E-19-2.92431E-18
 -1      3485 9.17493E-05-2.55606E-05-2.83699E-05-3.61842E-06 4.13987E-19-2.06992E-18
 -1      3486 9.59514E-05-2.80702E-05-2.90963E-05-5.23234E-07 3.13030E-19-4.26416E-19
 -1      3487 9.59699E-05-2.77714E-05-2.92193E-05-2.41401E-07 9.28981E-20-5.64650E-19
 -1      3488 9.54199E-05-2.87072E-05-2.85893E-05-9.25993E-07-5.26440E-19 1.87975E-20
 -1      3489 9.54437E-05-2.87597E-05-2.85800E-05-9.39221E-07-5.98146E-19-3.92902E-19
 -1      3490 9.55873E-05-2.88333E-05-2.86097E-05-9.13798E-07-2.47477E-19-2.00946E-19
 -1      3491 9.54535E-05-2.86920E-05-2.86124E-05-8.87868E-07-5.08823E-19-4.93412E-19
 -1      3492 9.59219E-05-2.85044E-05-2.88954E-05-8.68832E-07 1.68856E-19-4.03659E-19
 -1      3493 9.59524E-05-2.83183E-05-2.89795E-05-7.14583E-07 3.13836E-19-4.58680E-19
 -1      3494 9.61799E-05-2.81301E-05-2.91666E-05-5.11952E-07 2.19812E-19-3.26201E-19
 -1      3495 9.58549E-05-2.87547E-05-2.87578E-05-1.03315E-06 2.95794E-19-3.77031E-19
 -1      3496 9.58878E-05-2.86476E-05-2.88129E-05-9.64853E-07 1.40395E-19-2.77351E-19
 -1      3497 9.61504E-05-2.85818E-05-2.89606E-05-8.21292E-07 1.97536E-19-2.35979E-19
 -1      3498 1.04990E-04-4.68433E-05-2.44749E-05-3.32779E-05 6.27678E-19 3.41076E-19
 -1      3499 1.14734E-04-5.11949E-05-2.75008E-05-2.54509E-05 7.64222E-19-2.58254E-18
 -1      3500 9.73791E-05-4.09706E-05-2.40295E-05-3.19268E-05 3.83918E-19 6.59614E-19
 -1      3501 9.56768E-05-2.55151E-05-3.00641E-05-1.49155E-06-3.44482E-19 2.48379E-19
 -1      3502 9.58327E-05-2.62534E-05-2.98297E-05-8.67627E-07-3.13379E-19 2.34149E-19
 -1      3503 9.59896E-05-2.62871E-05-2.98721E-05-7.04962E-07-4.10255E-19 3.46593E-19
 -1      3504 1.24960E-04-3.89712E-05-3.72126E-05-9.41708E-06 2.91101E-20 5.22937E-19
 -1      3505 1.26577E-04-4.53080E-05-3.48050E-05-3.54453E-06 1.01422E-18 1.88988E-19
 -1      3506 9.49972E-05-2.35702E-05-3.06161E-05-2.82406E-06-4.32943E-19 1.48376E-19
 -1      3507 9.53336E-05-2.46326E-05-3.03104E-05-1.98026E-06-3.83171E-19 2.28740E-19
 -1      3508 9.54519E-05-2.46603E-05-3.03327E-05-1.64838E-06-3.51086E-19 3.11026E-19
 -1      3509 9.45472E-05-2.25032E-05-3.08685E-05-2.72133E-06-3.66624E-19 7.73423E-20
 -1      3510 6.30935E-05-9.28936E-06-2.30077E-05-2.05312E-06 4.66464E-20-1.05588E-18
 -1      3511 1.23199E-04-5.25829E-05-2.99173E-05-1.54187E-05 5.24926E-19-1.07142E-18
 -1      3512 1.26277E-04-5.07889E-05-3.25521E-05-5.52632E-06 8.45609E-19 1.83999E-18
 -1      3513 9.58646E-05-2.90248E-05-2.86343E-05-3.26532E-06 1.47356E-18 2.20849E-18
 -1      3514 9.53465E-05-2.86004E-05-2.86135E-05-3.49679E-06 1.62679E-18 1.54115E-18
 -1      3515 9.52067E-05-2.86710E-05-2.85259E-05-4.08276E-06 4.47733E-19 1.84449E-18
 -1      3516 9.62353E-05-2.95034E-05-2.85966E-05-3.52742E-06 2.01470E-18 2.46916E-18
 -1      3517 1.18829E-04-2.38826E-05-4.10228E-05-1.25392E-05-7.54706E-19-1.12280E-18
 -1      3518 1.22271E-04-3.06522E-05-3.92360E-05-1.24084E-05-3.33863E-19-1.17327E-19
 -1      3519 1.08243E-04-4.63493E-05-2.66217E-05 2.58311E-05 1.83912E-19-8.21185E-19
 -1      3520 9.70504E-05-3.99387E-05-2.40227E-05 3.16708E-05-3.04270E-19-1.57612E-18
 -1      3521 9.53402E-05-2.47643E-05-3.02448E-05 2.76077E-06 3.33493E-19-3.03870E-19
 -1      3522 9.50591E-05-2.39322E-05-3.04903E-05 2.99187E-06 3.06420E-19-1.51633E-19
 -1      3523 9.54796E-05-2.56051E-05-2.99516E-05 1.85910E-06 3.27433E-19-3.25898E-19
 -1      3524 9.48156E-05-2.32852E-05-3.06634E-05 2.77539E-06 1.84264E-19-1.29195E-19
 -1      3525 1.12682E-04-1.32559E-05-4.29324E-05 7.27433E-06-2.30012E-18-4.92503E-19
 -1      3526 1.09094E-04-1.23628E-05-4.15925E-05 3.65386E-06-1.84261E-18-1.03594E-18
 -1      3527 1.12540E-04-1.69673E-05-4.10818E-05 9.21342E-06-1.88229E-18-8.83309E-19
 -1      3528 1.26967E-04-4.84155E-05-3.36136E-05-4.09988E-08 9.88007E-19 2.17535E-18
 -1      3529 1.24245E-04-4.36343E-05-3.45989E-05 4.96847E-06 4.71208E-19 1.14743E-18
 -1      3530 1.22175E-04-4.85270E-05-3.16845E-05-4.60922E-06 1.70096E-18 1.59832E-18
 -1      3531 9.38671E-05-2.10420E-05-3.12229E-05 8.08099E-07-1.85169E-19-4.64812E-19
 -1      3532 9.38188E-05-2.09422E-05-3.12424E-05 2.46429E-07-2.22394E-19-6.80111E-19
 -1      3533 1.21398E-04-4.30200E-05-3.35369E-05-4.59029E-06 1.11342E-18-6.77891E-20
 -1      3534 1.25360E-04-4.79446E-05-3.32769E-05 1.96054E-07 1.49258E-18-3.39812E-19
 -1      3535 1.21514E-04-4.79542E-05-3.15726E-05 4.37511E-06 9.69065E-19-4.03561E-19
 -1      3536 1.20149E-04-3.44438E-05-3.67991E-05-1.06759E-05 2.39022E-19-4.60429E-19
 -1      3537 1.16129E-04-4.95143E-05-2.85893E-05-1.85953E-05 7.19052E-19-1.36609E-18
 -1      3538 9.01608E-05-2.34111E-05-2.86079E-05 5.77279E-07-1.31295E-18-3.16912E-18
 -1      3539 9.01871E-05-2.33434E-05-2.86683E-05 1.34952E-06-8.35017E-19-1.72059E-18
 -1      3540 8.94834E-05-2.26838E-05-2.86155E-05 1.80810E-06 1.07122E-19-1.91324E-18
 -1      3541 9.58387E-05-2.89768E-05-2.86569E-05-9.97620E-07 1.47622E-20-5.58070E-19
 -1      3542 9.56839E-05-2.89147E-05-2.86143E-05-1.06224E-06-6.65209E-20-3.22769E-19
 -1      3543 9.57116E-05-2.89005E-05-2.86320E-05-1.07693E-06-7.90848E-20-4.12185E-19
 -1      3544 1.15827E-04-2.02901E-05-4.10894E-05-1.18844E-05-1.08603E-18-8.46477E-19
 -1      3545 1.13780E-04-2.37736E-05-3.86252E-05-1.15116E-05-6.15039E-19-8.59426E-19
 -1      3546 1.11745E-04-1.66812E-05-4.10022E-05-9.57369E-06-1.52585E-18-7.56999E-19
 -1      3547 5.87254E-05-1.09542E-05-2.03540E-05 1.51614E-05-1.81415E-18-1.83422E-18
 -1      3548 9.31392E-05-1.96076E-05-3.14967E-05-5.86563E-07-1.27576E-19-5.92759E-19
 -1      3549 6.64286E-05-1.14109E-05-2.33994E-05-7.04961E-06-4.15509E-20-2.23597E-18
 -1      3550 8.84682E-05-2.20364E-05-2.85005E-05 1.79945E-06-6.50797E-19-1.14166E-18
 -1      3551 8.75942E-05-2.12470E-05-2.84401E-05 2.42320E-06-1.47040E-18 8.80119E-20
 -1      3552 8.62316E-05-2.04958E-05-2.81084E-05 4.87968E-07-1.12907E-18-1.32499E-18
 -1      3553 8.84277E-05-2.21172E-05-2.83995E-05 6.77365E-07-4.99476E-19-3.31082E-18
 -1      3554 1.22534E-04-3.08375E-05-3.95390E-05 1.23953E-05-1.75916E-18-4.58615E-19
 -1      3555 1.17757E-04-2.55183E-05-3.96341E-05 1.25785E-05-1.81241E-18-7.66565E-19
 -1      3556 1.22417E-04-3.59565E-05-3.71563E-05 1.02922E-05-1.00390E-18-1.00666E-18
 -1      3557 9.02947E-05-2.40767E-05-2.83632E-05-2.27271E-06-2.79397E-19-1.63478E-18
 -1      3558 9.05830E-05-2.40290E-05-2.85074E-05-1.24905E-06-1.91794E-19 2.48835E-19
 -1      3559 9.02638E-05-2.37095E-05-2.85344E-05-5.50496E-07-6.04961E-19-9.27377E-19
 -1      3560 6.17335E-05-1.26440E-05-2.08327E-05-1.64549E-05 1.96644E-19-1.58408E-18
 -1      3561 9.61104E-05-2.73966E-05-2.94510E-05 2.91454E-08 2.53408E-19-8.78999E-20
 -1      3562 9.59060E-05-2.73621E-05-2.93810E-05 8.95533E-08 1.82214E-19-4.98361E-19
 -1      3563 9.58603E-05-2.69801E-05-2.95111E-05 4.69807E-07 1.91900E-19-3.95742E-19
 -1      3564 7.24201E-05-2.10360E-05-2.18968E-05-2.53087E-05 2.51886E-19 1.11296E-18
 -1      3565 7.33217E-05-2.40629E-05-2.07793E-05-3.00673E-05 9.89705E-19 2.04453E-18
 -1      3566 8.12579E-05-2.96871E-05-2.22242E-05-3.12664E-05 7.18866E-19 3.82997E-18
 -1      3567 9.05090E-05-3.48679E-05-2.38083E-05 2.96305E-05-3.00895E-19-1.84568E-18
 -1      3568 9.38049E-05-2.08014E-05-3.12574E-05 2.86279E-06 6.99688E-20-3.00960E-19
 -1      3569 9.43740E-05-2.21030E-05-3.09840E-05-2.40449E-06-2.89695E-19-4.22677E-20
 -1      3570 9.49265E-05-2.32807E-05-3.07012E-05-1.88624E-06-2.70355E-19 6.71052E-20
 -1      3571 9.41694E-05-2.16384E-05-3.10835E-05-1.98030E-06-2.24926E-19-1.61079E-19
 -1      3572 9.58027E-05-2.88261E-05-2.87017E-05-1.06645E-06 4.42745E-19-4.59297E-19
 -1      3573 9.60678E-05-2.88367E-05-2.88158E-05-9.69050E-07 3.65194E-19-4.32852E-20
 -1      3574 9.57718E-05-2.88785E-05-2.86681E-05-1.08118E-06 2.22248E-19-3.17139E-19
 -1      3575 9.41077E-05-2.15303E-05-3.11236E-05 1.77402E-06-3.86417E-20-3.15020E-19
 -1      3576 9.39591E-05-2.12184E-05-3.11818E-05 1.24000E-06-8.89097E-20-3.82476E-19
 -1      3577 9.46128E-05-2.23776E-05-3.09397E-05 8.23766E-07-1.74513E-19-3.37115E-19
 -1      3578 1.16983E-04-4.81659E-05-2.94526E-05 1.34451E-05 4.98907E-19-1.68606E-19
 -1      3579 1.14249E-04-4.85774E-05-2.80055E-05 2.04837E-05 5.22130E-19-2.27662E-19
 -1      3580 1.06209E-04-4.33310E-05-2.70437E-05 2.16555E-05 3.18299E-20-1.86863E-19
 -1      3581 9.63374E-05-2.70808E-05-2.96763E-05-1.70325E-07-5.08781E-19 8.42434E-20
 -1      3582 9.64201E-05-2.75747E-05-2.95111E-05 1.29649E-07-4.74208E-19 5.96761E-20
 -1      3583 9.65058E-05-2.79885E-05-2.93598E-05 3.13684E-07-3.31323E-19-5.05976E-22
 -1      3584 9.65139E-05-2.83054E-05-2.92358E-05 4.99175E-07-4.60054E-19 9.12867E-20
 -1      3585 9.65596E-05-2.76643E-05-2.95256E-05 1.48283E-07-4.07623E-19 1.36875E-19
 -1      3586 9.65173E-05-2.85600E-05-2.91209E-05 6.03871E-07-2.84952E-19 3.18522E-19
 -1      3587 9.64814E-05-2.87485E-05-2.90302E-05 7.05336E-07-3.66866E-20 3.76696E-19
 -1      3588 9.66475E-05-2.83856E-05-2.92554E-05 4.49063E-07-2.42591E-19 1.99718E-19
 -1      3589 9.64332E-05-2.88887E-05-2.89450E-05 7.54185E-07-1.07716E-19 3.34740E-19
 -1      3590 9.63733E-05-2.89866E-05-2.88804E-05 7.98457E-07-1.23987E-19 1.88144E-19
 -1      3591 9.66023E-05-2.88180E-05-2.90516E-05 6.16302E-07-1.61995E-19 4.13838E-19
 -1      3592 9.62951E-05-2.90466E-05-2.88191E-05 8.11072E-07 2.29750E-20 1.57235E-19
 -1      3593 9.62236E-05-2.90812E-05-2.87748E-05 8.20003E-07 3.25521E-20 3.19361E-20
 -1      3594 9.64768E-05-2.90433E-05-2.89016E-05 6.91326E-07-9.07971E-20 1.34808E-19
 -1      3595 9.61300E-05-2.90861E-05-2.87322E-05 8.12414E-07 7.50809E-20 2.39680E-19
 -1      3596 9.60546E-05-2.90778E-05-2.87033E-05 8.02872E-07 8.58987E-20 3.28541E-19
 -1      3597 9.63064E-05-2.91228E-05-2.87946E-05 7.08779E-07 1.49622E-19 3.94436E-19
 -1      3598 9.59548E-05-2.90461E-05-2.86749E-05 7.87337E-07-7.07321E-20 2.95624E-19
 -1      3599 9.58802E-05-2.90096E-05-2.86574E-05 7.71801E-07 2.24658E-20 3.58512E-19
 -1      3600 9.61146E-05-2.91025E-05-2.87210E-05 6.96476E-07 1.75313E-19 7.20546E-19
 -1      3601 9.57796E-05-2.89544E-05-2.86396E-05 7.57598E-07 4.08669E-20 3.63053E-19
 -1      3602 9.57085E-05-2.89006E-05-2.86303E-05 7.45317E-07-4.75319E-22 5.49148E-19
 -1      3603 9.59159E-05-2.90162E-05-2.86727E-05 6.75618E-07 1.48529E-19 6.28249E-19
 -1      3604 9.56104E-05-2.88320E-05-2.86199E-05 7.39853E-07 3.13976E-19 6.68260E-19
 -1      3605 9.55452E-05-2.87697E-05-2.86162E-05 7.37734E-07 2.93036E-19 1.05068E-18
 -1      3606 9.57187E-05-2.88883E-05-2.86427E-05 6.62882E-07 2.87157E-19 8.13461E-19
 -1      3607 9.54523E-05-2.86961E-05-2.86107E-05 7.47026E-07-7.82509E-20 1.03049E-18
 -1      3608 9.53957E-05-2.86337E-05-2.86102E-05 7.60108E-07-2.58259E-19 1.09454E-18
 -1      3609 9.55288E-05-2.87383E-05-2.86254E-05 6.72053E-07 1.48690E-19 7.70563E-19
 -1      3610 9.53111E-05-2.85635E-05-2.86072E-05 7.89444E-07-2.47380E-19 1.30734E-18
 -1      3611 9.52677E-05-2.85100E-05-2.86080E-05 8.21530E-07-3.10952E-19 1.33948E-18
 -1      3612 9.53517E-05-2.85838E-05-2.86157E-05 7.14808E-07-1.34213E-19 1.12884E-18
 -1      3613 9.51969E-05-2.84532E-05-2.86056E-05 8.76004E-07-2.19475E-19 1.26028E-18
 -1      3614 9.51745E-05-2.84204E-05-2.86060E-05 9.29672E-07-1.77525E-19 1.34961E-18
 -1      3615 9.51957E-05-2.84437E-05-2.86091E-05 8.02462E-07-3.25008E-19 1.84289E-18
 -1      3616 9.51271E-05-2.83906E-05-2.86023E-05 1.01414E-06-9.60447E-20 1.49017E-18
 -1      3617 9.51384E-05-2.83946E-05-2.86009E-05 1.09042E-06 1.67687E-19 1.84875E-18
 -1      3618 9.50753E-05-2.83420E-05-2.86017E-05 9.46375E-07 7.25486E-20 1.58970E-18
 -1      3619 9.51306E-05-2.84107E-05-2.85945E-05 1.20902E-06 3.03640E-19 2.07651E-18
 -1      3620 9.51949E-05-2.84734E-05-2.85905E-05 1.30639E-06-8.00035E-21 2.20805E-18
 -1      3621 9.50156E-05-2.83121E-05-2.85900E-05 1.15776E-06 2.62933E-19 2.02325E-18
 -1      3622 9.52520E-05-2.85614E-05-2.85806E-05 1.46111E-06-4.04578E-19 2.33534E-18
 -1      3623 9.53971E-05-2.87116E-05-2.85741E-05 1.57352E-06 3.93324E-20 2.17653E-18
 -1      3624 9.50572E-05-2.84008E-05-2.85719E-05 1.44611E-06 2.60594E-20 2.01066E-18
 -1      3625 9.55568E-05-2.89054E-05-2.85614E-05 1.76112E-06-1.50115E-20 2.08490E-18
 -1      3626 9.58193E-05-2.91783E-05-2.85541E-05 1.87466E-06-4.12527E-19 1.70195E-18
 -1      3627 9.52620E-05-2.86714E-05-2.85468E-05 1.81502E-06-1.05006E-19 1.95355E-18
 -1      3628 9.61332E-05-2.95186E-05-2.85418E-05 2.08117E-06-4.51663E-19 1.63399E-18
 -1      3629 9.65569E-05-2.99519E-05-2.85385E-05 2.16892E-06-4.07345E-19 1.21162E-18
 -1      3630 9.57185E-05-2.92052E-05-2.85182E-05 2.25394E-06-2.43264E-19 1.55591E-18
 -1      3631 9.70907E-05-3.04812E-05-2.85338E-05 2.36090E-06-3.54728E-19 1.16131E-18
 -1      3632 9.77200E-05-3.11053E-05-2.85440E-05 2.37634E-06-4.07385E-19 8.94757E-19
 -1      3633 9.65437E-05-3.00965E-05-2.84963E-05 2.72374E-06-5.43917E-19 9.58546E-19
 -1      3634 9.85464E-05-3.18548E-05-2.85610E-05 2.48936E-06-2.85069E-19 1.08447E-18
 -1      3635 9.94118E-05-3.26741E-05-2.86010E-05 2.35982E-06-2.57784E-19 1.64941E-18
 -1      3636 9.78775E-05-3.14349E-05-2.85020E-05 3.13512E-06-2.49052E-20 1.54936E-18
 -1      3637 1.00594E-04-3.36398E-05-2.86637E-05 2.28262E-06 4.50569E-20 1.89328E-18
 -1      3638 1.01683E-04-3.45963E-05-2.87591E-05 1.90717E-06 2.77854E-19 2.26039E-18
 -1      3639 9.98615E-05-3.32713E-05-2.85737E-05 3.32040E-06 3.94137E-20 2.10633E-18
 -1      3640 1.03229E-04-3.56886E-05-2.89060E-05 1.47563E-06-1.49223E-21 2.08819E-18
 -1      3641 1.04446E-04-3.66115E-05-2.90919E-05 7.44363E-07 6.91510E-19 1.81830E-18
 -1      3642 1.02582E-04-3.55337E-05-2.87757E-05 2.99778E-06 1.62756E-19 2.51675E-18
 -1      3643 1.06241E-04-3.76010E-05-2.93750E-05-2.23949E-07 1.19320E-18 5.37284E-19
 -1      3644 1.07365E-04-3.81506E-05-2.96937E-05-1.38229E-06 1.30087E-18 4.20884E-19
 -1      3645 1.05943E-04-3.79086E-05-2.92056E-05 1.77347E-06 1.32889E-19 1.31083E-18
 -1      3646 1.09109E-04-3.86268E-05-3.01753E-05-2.97817E-06 1.21312E-18 5.31538E-20
 -1      3647 1.09809E-04-3.83272E-05-3.06645E-05-4.49015E-06 8.16465E-19 3.18116E-19
 -1      3648 1.09555E-04-3.95312E-05-2.99983E-05-7.60513E-07 1.09394E-18 1.58380E-19
 -1      3649 1.10856E-04-3.76291E-05-3.13938E-05-6.56810E-06 3.77058E-19 3.46259E-19
 -1      3650 1.10773E-04-3.59810E-05-3.20565E-05-7.98749E-06 2.17241E-19 5.49786E-19
 -1      3651 1.12525E-04-3.95533E-05-3.12286E-05-4.44516E-06 7.10586E-19-4.58648E-19
 -1      3652 1.10563E-04-3.36786E-05-3.30154E-05-9.80377E-06 2.24269E-19 9.84469E-19
 -1      3653 1.09456E-04-3.07459E-05-3.37193E-05-1.02628E-05 7.86417E-19 1.66791E-18
 -1      3654 1.13562E-04-3.64146E-05-3.30110E-05-8.59661E-06 6.14340E-19 2.69972E-19
 -1      3655 1.07914E-04-2.44751E-05-3.58286E-05-1.05337E-05 2.12137E-19 7.74976E-19
 -1      3656 1.06472E-04-2.12226E-05-3.66118E-05-9.23529E-06-8.46001E-19 1.16450E-18
 -1      3657 1.05048E-04-1.82545E-05-3.72135E-05-6.63485E-06-1.33364E-18 2.32292E-19
 -1      3658 1.02215E-04-1.59850E-05-3.70752E-05-8.98746E-07-2.31908E-19-1.09681E-19
 -1      3659 1.02550E-04-1.63915E-05-3.69167E-05 2.40777E-06-6.19113E-19 6.46959E-19
 -1      3660 1.04480E-04-1.67392E-05-3.76709E-05 5.22134E-06-1.65768E-18-3.29774E-19
 -1      3661 1.05650E-04-1.90799E-05-3.71825E-05 7.83860E-06-2.07941E-18-7.62660E-19
 -1      3662 1.10399E-04-2.61385E-05-3.61541E-05 1.07668E-05-1.46022E-18-7.72428E-19
 -1      3663 1.12199E-04-3.01251E-05-3.52601E-05 1.12152E-05-1.77011E-18-6.41391E-19
 -1      3664 1.10811E-04-3.68690E-05-3.17223E-05 7.09910E-06-7.85286E-19 1.34384E-18
 -1      3665 1.10784E-04-3.81783E-05-3.10961E-05 5.64302E-06-6.73251E-19 1.47987E-18
 -1      3666 1.09494E-04-3.85902E-05-3.04277E-05 3.57213E-06-5.97531E-19 2.13363E-18
 -1      3667 1.08688E-04-3.86480E-05-2.99827E-05 2.14301E-06-3.76533E-20 1.60635E-18
 -1      3668 1.12180E-04-4.00225E-05-3.09548E-05 3.43450E-06-1.80287E-19 8.59760E-19
 -1      3669 1.06941E-04-3.80566E-05-2.95522E-05 6.60152E-07 1.82608E-19 1.82612E-18
 -1      3670 1.05781E-04-3.73874E-05-2.92686E-05-4.23262E-07-3.29422E-19 2.65102E-18
 -1      3671 1.08989E-04-3.95387E-05-2.97999E-05-1.12017E-07-1.07054E-20 6.95728E-19
 -1      3672 1.04025E-04-3.63381E-05-2.90264E-05-1.28104E-06-8.75208E-19 2.15188E-18
 -1      3673 1.02828E-04-3.53733E-05-2.88702E-05-1.94089E-06-5.87122E-19 1.50413E-18
 -1      3674 1.05421E-04-3.75829E-05-2.91147E-05-2.34372E-06-6.72606E-19 1.84521E-18
 -1      3675 1.01367E-04-3.42820E-05-2.87564E-05-2.28959E-06-1.88004E-19 2.07012E-18
 -1      3676 1.00322E-04-3.33205E-05-2.86861E-05-2.61564E-06 1.22748E-19 2.70074E-18
 -1      3677 1.02188E-04-3.51599E-05-2.87640E-05-3.33930E-06-2.09633E-19 3.38589E-18
 -1      3678 9.92265E-05-3.23727E-05-2.86508E-05-2.64403E-06 5.78163E-19 2.37493E-18
 -1      3679 9.84198E-05-3.15584E-05-2.86344E-05-2.73291E-06 1.49544E-18 2.32243E-18
 -1      3680 9.96418E-05-3.29144E-05-2.86242E-05-3.53069E-06 6.11101E-19 4.24116E-18
 -1      3681 9.78445E-05-3.10294E-05-2.86341E-05-2.72162E-06 1.21714E-18 2.16135E-18
 -1      3682 9.73429E-05-3.04829E-05-2.86403E-05-2.73452E-06 6.01951E-19 1.94612E-18
 -1      3683 9.70262E-05-3.02916E-05-2.86108E-05-3.28553E-06 1.07283E-18 2.10463E-18
 -1      3684 9.80291E-05-3.13530E-05-2.85972E-05-3.44313E-06 4.33979E-19 1.93034E-18
 -1      3685 9.58164E-05-2.89651E-05-2.86492E-05-8.64164E-07-3.74813E-19-4.80540E-19
 -1      3686 9.58804E-05-2.90018E-05-2.86620E-05-8.82152E-07-2.71992E-19-5.26092E-19
 -1      3687 9.59261E-05-2.57133E-05-3.00866E-05-9.14288E-07-3.93445E-19 1.89975E-19
 -1      3688 9.61194E-05-2.64322E-05-2.98711E-05-4.54324E-07-4.89556E-19 9.51267E-20
 -1      3689 9.62665E-05-2.65510E-05-2.98752E-05-3.25092E-07-4.64932E-19 3.02344E-20
 -1      3690 9.50525E-05-2.81859E-05-2.86567E-05-8.49342E-07-3.10867E-19-2.56372E-19
 -1      3691 9.51559E-05-2.83239E-05-2.86445E-05-8.20061E-07-3.13012E-19-4.69040E-19
 -1      3692 9.52861E-05-2.84586E-05-2.86393E-05-8.14001E-07-1.77153E-19-2.56139E-19
 -1      3693 9.53683E-05-2.85670E-05-2.86307E-05-8.03287E-07-2.22285E-19-3.74472E-19
 -1      3694 9.52240E-05-2.83806E-05-2.86461E-05-7.27400E-07-2.77596E-19-2.69560E-20
 -1      3695 9.43450E-05-2.73886E-05-2.86978E-05-1.00189E-06 4.09367E-19-3.60346E-19
 -1      3696 9.45432E-05-2.76215E-05-2.86845E-05-9.36573E-07 2.44294E-19-3.93420E-19
 -1      3697 9.37717E-05-2.67966E-05-2.87087E-05-1.09296E-06 1.98809E-19 1.60423E-19
 -1      3698 9.40621E-05-2.71063E-05-2.87001E-05-1.01905E-06 5.15017E-19 4.06920E-19
 -1      3699 9.40959E-05-2.71757E-05-2.86732E-05-7.88660E-07 4.29267E-20-2.72706E-19
 -1      3700 9.29491E-05-2.60106E-05-2.86974E-05-1.15069E-06 4.27725E-19 6.27606E-20
 -1      3701 9.33801E-05-2.64257E-05-2.87007E-05-1.08555E-06 2.50989E-19 2.92702E-19
 -1      3702 9.34383E-05-2.65322E-05-2.86635E-05-7.62088E-07 3.55761E-19 5.41871E-19
 -1      3703 9.17610E-05-2.49679E-05-2.86420E-05-1.10874E-06-1.83185E-20 2.12211E-19
 -1      3704 9.24020E-05-2.55231E-05-2.86694E-05-1.08506E-06 4.68861E-19 1.29620E-19
 -1      3705 9.25248E-05-2.57021E-05-2.86226E-05-6.31140E-07 4.38783E-19 9.81582E-19
 -1      3706 9.00505E-05-2.36003E-05-2.85058E-05-8.55099E-07-4.29810E-19 1.16715E-20
 -1      3707 9.09982E-05-2.43338E-05-2.85784E-05-9.29835E-07-1.73377E-19-7.70510E-20
 -1      3708 9.12523E-05-2.46399E-05-2.85254E-05-2.96643E-07-1.81099E-20 6.06894E-19
 -1      3709 8.76121E-05-2.18496E-05-2.82271E-05-2.10033E-07-3.93869E-19 2.09176E-19
 -1      3710 8.89980E-05-2.27950E-05-2.83810E-05-4.76404E-07-5.20633E-19 1.58734E-19
 -1      3711 8.94922E-05-2.33105E-05-2.83314E-05 3.98102E-07-5.94158E-19 2.05397E-19
 -1      3712 8.41865E-05-1.96983E-05-2.77043E-05 1.09913E-06-5.56869E-19-5.84428E-20
 -1      3713 8.61847E-05-2.08688E-05-2.80002E-05 4.98434E-07-1.26523E-19 1.65427E-19
 -1      3714 8.70935E-05-2.17118E-05-2.79763E-05 1.69163E-06-3.44129E-19 6.97520E-20
 -1      3715 7.94553E-05-1.72251E-05-2.67684E-05 3.45890E-06-3.08244E-19-5.77715E-19
 -1      3716 8.22950E-05-1.85837E-05-2.73102E-05 2.32263E-06-4.63100E-19-6.12570E-19
 -1      3717 8.38947E-05-1.99163E-05-2.73589E-05 3.93077E-06-4.30729E-20-8.45345E-20
 -1      3718 7.30568E-05-1.46849E-05-2.51279E-05 7.41190E-06-1.00266E-18-7.84908E-19
 -1      3719 7.70166E-05-1.61023E-05-2.61001E-05 5.45335E-06-6.05557E-19-3.08175E-19
 -1      3720 7.97587E-05-1.81571E-05-2.63197E-05 7.61383E-06-5.73221E-19 3.43326E-19
 -1      3721 6.57855E-05-1.27829E-05-2.27578E-05 1.26297E-05-1.91504E-18-1.13549E-18
 -1      3722 7.04164E-05-1.40230E-05-2.41560E-05 9.98101E-06-1.45972E-18-1.14379E-18
 -1      3723 7.48412E-05-1.68884E-05-2.47269E-05 1.28813E-05-9.69942E-19 1.04986E-20
 -1      3724 9.45363E-05-2.22038E-05-3.09820E-05 1.30042E-08-2.35631E-19-6.01267E-19
 -1      3725 9.38189E-05-2.09382E-05-3.12431E-05-2.13532E-07-1.88284E-19-7.35983E-19
 -1      3726 9.38623E-05-2.10324E-05-3.12242E-05-7.72671E-07-2.09244E-19-4.63149E-19
 -1      3727 9.62815E-05-2.75017E-05-2.94822E-05-8.44775E-08 2.31190E-19-9.88558E-20
 -1      3728 9.62040E-05-2.70079E-05-2.96502E-05 2.60461E-07 1.61321E-19-1.55292E-20
 -1      3729 8.44019E-05-1.99532E-05-2.76350E-05-2.14036E-06-9.40505E-19-9.72840E-19
 -1      3730 8.20375E-05-1.87807E-05-2.71861E-05-3.19054E-06 3.06930E-19-2.88580E-19
 -1      3731 9.43234E-05-2.80775E-05-2.83626E-05-5.06445E-06-1.22906E-19 1.70484E-18
 -1      3732 9.32356E-05-2.72308E-05-2.83084E-05-5.03032E-06 4.70769E-19 3.29435E-19
 -1      3733 9.54059E-05-2.45517E-05-3.03450E-05 1.99906E-06 2.06127E-19-7.74806E-20
 -1      3734 9.46740E-05-2.28184E-05-3.08141E-05 2.51589E-06 1.21049E-19-2.59805E-19
 -1      3735 9.19875E-05-2.60108E-05-2.82352E-05-4.80589E-06 6.93250E-19-6.61129E-19
 -1      3736 9.08574E-05-2.51319E-05-2.82044E-05-4.31147E-06 3.91117E-19-2.20526E-18
 -1      3737 9.24988E-05-2.68732E-05-2.81430E-05-5.78793E-06 5.50786E-19-4.48055E-19
 -1      3738 9.63428E-05-2.86805E-05-2.90000E-05-7.74187E-07 1.81465E-19-1.49256E-20
 -1      3739 9.63752E-05-2.84904E-05-2.90890E-05-6.56293E-07 1.88318E-19-1.01131E-19
 -1      3740 1.14872E-04-3.07659E-05-3.61743E-05-1.15396E-05 3.89913E-19 1.36309E-19
 -1      3741 1.17643E-04-3.70073E-05-3.45230E-05-9.22486E-06 1.03007E-18 4.46090E-19
 -1      3742 9.20323E-05-3.59683E-05-2.36810E-05-3.06606E-05 4.96686E-19 1.51935E-18
 -1      3743 1.02085E-04-4.24481E-05-2.57473E-05-2.71020E-05 1.03917E-18-2.55568E-18
 -1      3744 8.81361E-05-3.19382E-05-2.39977E-05-2.73272E-05 9.72142E-19 3.18472E-18
 -1      3745 9.63694E-05-2.82341E-05-2.92046E-05-5.26303E-07 2.99377E-19-9.92636E-20
 -1      3746 9.63648E-05-2.79188E-05-2.93283E-05-3.10464E-07 2.54886E-19-5.08749E-20
 -1      3747 9.64405E-05-2.75759E-05-2.95129E-05-1.18359E-07 2.98141E-19 9.54062E-20
 -1      3748 9.65306E-05-2.83097E-05-2.92385E-05-4.89769E-07 2.20667E-19 7.74636E-20
 -1      3749 9.36325E-05-3.48314E-05-2.52556E-05 2.49153E-05-1.97941E-19-1.39492E-18
 -1      3750 8.33289E-05-2.80840E-05-2.33861E-05 2.73566E-05-3.21849E-19-1.91222E-18
 -1      3751 1.10197E-04-4.58499E-05-2.73174E-05-2.16729E-05 7.37216E-19-1.67844E-18
 -1      3752 1.16048E-04-4.78480E-05-2.93688E-05-1.32663E-05 7.97683E-19 2.94183E-19
 -1      3753 6.59281E-05-1.47555E-05-2.15592E-05 1.91312E-05-1.64265E-18-1.08518E-18
 -1      3754 8.00218E-05-1.78390E-05-2.66387E-05-5.06894E-06 5.14240E-19-8.20795E-20
 -1      3755 7.66551E-05-1.65981E-05-2.58584E-05-6.87301E-06-5.78437E-19-1.34069E-18
 -1      3756 8.25259E-05-1.98133E-05-2.68390E-05-6.80784E-06 1.99385E-19-1.81793E-18
 -1      3757 9.57333E-05-2.66070E-05-2.96305E-05 8.27734E-07 2.49150E-19-3.52673E-19
 -1      3758 9.56627E-05-2.61059E-05-2.98022E-05 1.37442E-06 3.44527E-19-2.70952E-19
 -1      3759 9.55976E-05-2.55630E-05-3.00219E-05 1.59335E-06 3.50946E-19-6.76621E-20
 -1      3760 9.58961E-05-2.64981E-05-2.97435E-05 7.36028E-07 2.68491E-19-1.64131E-19
 -1      3761 9.53047E-05-2.41427E-05-3.05027E-05-1.59293E-06-2.60585E-19 8.62975E-20
 -1      3762 9.56491E-05-2.50628E-05-3.02603E-05-1.12057E-06-3.14461E-19 1.90455E-19
 -1      3763 9.58047E-05-2.52561E-05-3.02461E-05-8.78062E-07-3.33676E-19-1.36621E-19
 -1      3764 9.51599E-05-2.37080E-05-3.06162E-05-1.37100E-06-2.24967E-19-7.90164E-20
 -1      3765 9.39113E-05-2.11405E-05-3.11956E-05-1.13036E-06-1.87897E-19-2.60411E-19
 -1      3766 9.40521E-05-2.14287E-05-3.11395E-05-1.63358E-06-2.57246E-19-2.22268E-19
 -1      3767 9.47313E-05-2.26795E-05-3.08696E-05-1.35217E-06-2.62602E-19-1.58741E-19
 -1      3768 9.45898E-05-2.23164E-05-3.09519E-05-7.29362E-07-2.66972E-19-4.06787E-19
 -1      3769 7.37628E-05-2.10675E-05-2.26414E-05 2.35419E-05-9.61551E-19-1.48723E-18
 -1      3770 9.47523E-05-2.78386E-05-2.86779E-05-9.14450E-07-1.20590E-20-2.54721E-19
 -1      3771 9.48919E-05-2.80163E-05-2.86639E-05-8.65846E-07-1.25413E-19-2.49247E-19
 -1      3772 9.45765E-05-2.76757E-05-2.86675E-05-7.71208E-07 4.56535E-20-9.14828E-19
 -1      3773 9.44550E-05-2.23125E-05-3.09247E-05 2.11815E-06 3.66427E-20-2.83797E-19
 -1      3774 1.19589E-04-4.77329E-05-3.05921E-05-6.73379E-06 1.61741E-18 1.35929E-18
 -1      3775 1.19299E-04-4.58693E-05-3.15514E-05-1.81794E-06 1.57373E-18 1.08754E-18
 -1      3776 1.05244E-04-4.10983E-05-2.74193E-05 1.83692E-05 4.78484E-19 5.58437E-19
 -1      3777 1.00171E-04-3.86043E-05-2.62307E-05 2.30402E-05 1.88227E-19-4.50383E-19
 -1      3778 9.31442E-05-3.30606E-05-2.57762E-05 2.18487E-05 9.60555E-20-8.61667E-19
 -1      3779 1.17793E-04-4.51434E-05-3.10713E-05 2.40007E-06 7.92851E-19 2.70283E-19
 -1      3780 1.18784E-04-4.79385E-05-3.03625E-05 8.13521E-06 5.51131E-19-2.55056E-19
 -1      3781 1.13183E-04-4.53083E-05-2.91491E-05 1.14568E-05 4.51038E-19-6.93872E-20
 -1      3782 9.51617E-05-2.88401E-05-2.84329E-05-4.80687E-06-3.10872E-19 3.12348E-18
 -1      3783 9.48780E-05-2.88592E-05-2.83079E-05-5.65516E-06 3.79547E-19 2.62537E-18
 -1      3784 9.58326E-05-2.93379E-05-2.84768E-05-4.57198E-06 3.23862E-19 2.73519E-18
 -1      3785 8.56902E-05-2.07867E-05-2.78634E-05-1.59060E-06 4.86217E-21-9.57867E-19
 -1      3786 8.55861E-05-2.10168E-05-2.75892E-05-4.07088E-06 2.84275E-19-1.61639E-18
 -1      3787 8.69170E-05-2.15314E-05-2.80433E-05-1.34049E-06 4.62154E-19-1.88966E-18
 -1      3788 1.07083E-04-1.61742E-05-3.90243E-05-5.23197E-06-1.32845E-18-1.47559E-19
 -1      3789 1.16822E-04-3.41522E-05-3.54281E-05 1.05957E-05-1.39523E-18-8.57925E-19
 -1      3790 1.10767E-04-3.30448E-05-3.33309E-05 9.61942E-06-2.07053E-18 6.15773E-19
 -1      3791 9.66491E-05-2.99724E-05-2.85760E-05-3.68648E-06 1.01044E-18 2.17046E-18
 -1      3792 1.11673E-04-3.56360E-05-3.26080E-05 8.81349E-06-1.01283E-18 8.67171E-19
 -1      3793 9.60570E-05-2.90651E-05-2.87123E-05-8.04637E-07-7.71268E-21-2.96959E-20
 -1      3794 9.59725E-05-2.90327E-05-2.86875E-05-9.01038E-07-9.66763E-20-3.68726E-19
 -1      3795 9.60353E-05-2.90372E-05-2.87125E-05-9.11625E-07 8.00104E-20-4.24197E-19
 -1      3796 8.93714E-05-2.30243E-05-2.84338E-05-4.28391E-07-3.25071E-19-1.77031E-18
 -1      3797 9.49385E-05-2.80684E-05-2.86562E-05-7.44640E-07-1.45073E-19-4.73390E-19
 -1      3798 1.08568E-04-1.28539E-05-4.10924E-05-3.72109E-06-1.18362E-18-6.39722E-19
 -1      3799 9.54627E-05-2.86310E-05-2.86420E-05-7.27309E-07-3.23930E-19-3.68272E-19
 -1      3800 9.54807E-05-2.86748E-05-2.86297E-05-8.08701E-07-4.69470E-19-5.21613E-19
 -1      3801 9.55517E-05-2.87592E-05-2.86263E-05-8.13543E-07-3.08563E-19-4.48699E-19
 -1      3802 7.91847E-05-2.26063E-05-2.41990E-05 2.02556E-05-4.95276E-19-1.14081E-18
 -1      3803 7.83291E-05-1.86977E-05-2.54747E-05-1.19163E-05-5.37421E-19-7.01780E-20
 -1      3804 7.44300E-05-1.59032E-05-2.50560E-05-9.65237E-06-8.27803E-19-9.96617E-19
 -1      3805 9.50538E-05-2.33219E-05-3.07511E-05 1.94091E-07-2.38607E-19-4.93861E-19
 -1      3806 9.50496E-05-2.33182E-05-3.07512E-05-1.78591E-07-3.29834E-19-5.93786E-19
 -1      3807 9.59588E-05-2.89546E-05-2.87183E-05-1.01301E-06 1.08289E-19-3.41196E-19
 -1      3808 1.14165E-04-3.81683E-05-3.25765E-05 7.21371E-06-6.48999E-19-1.03192E-19
 -1      3809 1.20317E-04-3.87994E-05-3.49792E-05 8.88535E-06-6.64785E-19-8.56668E-19
 -1      3810 9.55802E-05-2.51576E-05-3.01842E-05 1.47172E-06 2.32745E-19-1.75682E-19
 -1      3811 6.69389E-05-1.36654E-05-2.28217E-05-1.32404E-05-2.72877E-19-1.21815E-18
 -1      3812 8.88758E-05-2.37245E-05-2.79367E-05-4.65785E-06 7.76408E-20-1.13858E-18
 -1      3813 8.89564E-05-2.33064E-05-2.81098E-05-3.21298E-06-4.06076E-19-2.25897E-18
 -1      3814 9.63005E-05-2.88236E-05-2.89155E-05-8.36966E-07 2.71160E-19 6.46069E-20
 -1      3815 9.64945E-05-2.87524E-05-2.90338E-05-6.98694E-07 1.97884E-19 1.34107E-19
 -1      3816 9.62493E-05-2.89253E-05-2.88536E-05-8.88941E-07 2.99368E-19 3.88778E-20
 -1      3817 1.17702E-04-4.00731E-05-3.33649E-05-6.80627E-06 8.93165E-19-1.29854E-19
 -1      3818 9.61966E-05-2.66652E-05-2.97972E-05 3.77749E-07 1.85475E-19 1.27571E-20
 -1      3819 9.60523E-05-2.65974E-05-2.97726E-05 5.10883E-07 2.13476E-19-6.41612E-20
 -1      3820 9.59326E-05-2.61568E-05-2.98974E-05 8.83249E-07 2.66521E-19-2.88778E-20
 -1      3821 9.56539E-05-2.88433E-05-2.86317E-05-8.28681E-07-9.20213E-20-4.71012E-19
 -1      3822 9.57198E-05-2.89051E-05-2.86353E-05-8.43779E-07-2.33501E-19-4.28717E-19
 -1      3823 9.58705E-05-2.89760E-05-2.86702E-05-7.74161E-07-1.95447E-19-4.19560E-19
 -1      3824 9.56743E-05-2.88290E-05-2.86486E-05-7.44719E-07-1.52488E-19-5.43718E-19
 -1      3825 1.04337E-04-4.18166E-05-2.68195E-05-2.17978E-05 6.22662E-19-1.64196E-18
 -1      3826 9.49977E-05-2.33155E-05-3.07056E-05 1.52663E-06 9.96298E-21-1.95112E-19
 -1      3827 1.19027E-04-4.16442E-05-3.32051E-05 5.23285E-06 4.12929E-20-2.79764E-19
 -1      3828 1.14114E-04-4.55543E-05-2.93873E-05-1.04034E-05 8.58848E-19 5.37085E-19
 -1      3829 7.15938E-05-1.74978E-05-2.29701E-05-1.87974E-05 2.52257E-20-4.49457E-20
 -1      3830 1.10998E-04-2.76537E-05-3.57581E-05-1.15488E-05 7.12317E-19 6.46021E-19
 -1      3831 9.51335E-05-2.35700E-05-3.06871E-05 8.24755E-07-7.70058E-20-1.99430E-19
 -1      3832 9.50773E-05-2.33900E-05-3.07299E-05 4.80881E-07-1.34567E-19-2.73219E-19
 -1      3833 9.55884E-05-2.43537E-05-3.05111E-05 2.42887E-07-1.20561E-19-2.52339E-19
 -1      3834 7.64298E-05-2.13710E-05-2.36486E-05-2.07599E-05 3.65880E-19 2.36698E-18
 -1      3835 1.16668E-04-4.17120E-05-3.21336E-05-3.87824E-06 7.47239E-19 8.40018E-20
 -1      3836 1.13502E-04-2.13624E-05-3.96401E-05 1.13669E-05-1.58514E-18-8.66078E-19
 -1      3837 1.09307E-04-1.83847E-05-3.90635E-05 8.59026E-06-1.91815E-18-1.52606E-18
 -1      3838 1.06440E-04-1.42714E-05-3.95694E-05 3.44254E-06-1.12021E-18-1.21642E-18
 -1      3839 9.67549E-05-2.82261E-05-2.93671E-05 2.95979E-07-2.20600E-19-4.52449E-20
 -1      3840 9.67592E-05-2.85188E-05-2.92483E-05 4.14232E-07-2.02956E-19-7.83128E-20
 -1      3841 9.67463E-05-2.87483E-05-2.91399E-05 4.65997E-07-2.47659E-19 7.61285E-20
 -1      3842 9.66991E-05-2.89155E-05-2.90511E-05 5.29225E-07-2.36446E-19 1.71128E-19
 -1      3843 9.68360E-05-2.86045E-05-2.92422E-05 3.31721E-07-1.85771E-19-1.95874E-19
 -1      3844 9.66337E-05-2.90336E-05-2.89699E-05 5.49742E-07-6.24882E-20 1.72899E-19
 -1      3845 9.65563E-05-2.91105E-05-2.89053E-05 5.76597E-07 6.44170E-20 2.18540E-19
 -1      3846 9.67567E-05-2.89754E-05-2.90503E-05 4.14349E-07-2.99563E-20 1.86017E-19
 -1      3847 9.64605E-05-2.91501E-05-2.88462E-05 5.78137E-07 1.74104E-19 4.58306E-19
 -1      3848 9.63671E-05-2.91637E-05-2.88008E-05 5.83594E-07 4.22245E-19 5.83531E-19
 -1      3849 9.65957E-05-2.91474E-05-2.89079E-05 4.48652E-07 3.24274E-19 5.67543E-19
 -1      3850 9.62557E-05-2.91496E-05-2.87591E-05 5.76473E-07 3.80446E-19 7.46618E-19
 -1      3851 9.61560E-05-2.91205E-05-2.87284E-05 5.71814E-07 2.36610E-19 9.46119E-19
 -1      3852 9.63893E-05-2.91800E-05-2.88055E-05 4.54434E-07 3.68462E-19 8.48797E-19
 -1      3853 9.60370E-05-2.90699E-05-2.87000E-05 5.63440E-07 1.13187E-19 1.14298E-18
 -1      3854 9.59365E-05-2.90127E-05-2.86803E-05 5.58070E-07 3.30430E-19 1.14052E-18
 -1      3855 9.61605E-05-2.91177E-05-2.87341E-05 4.48928E-07 3.75885E-19 1.18345E-18
 -1      3856 9.58152E-05-2.89385E-05-2.86618E-05 5.55057E-07 1.42429E-19 1.08313E-18
 -1      3857 9.57169E-05-2.88637E-05-2.86498E-05 5.56485E-07 2.56322E-20 7.57835E-19
 -1      3858 9.59220E-05-2.89908E-05-2.86861E-05 4.45751E-07 2.12518E-19 1.11468E-18
 -1      3859 9.55966E-05-2.87759E-05-2.86381E-05 5.65410E-07 3.09050E-19 5.75162E-19
 -1      3860 9.55035E-05-2.86929E-05-2.86313E-05 5.79702E-07 1.69452E-19 6.94676E-19
 -1      3861 9.56819E-05-2.88223E-05-2.86550E-05 4.57698E-07 1.03423E-19 7.94619E-19
 -1      3862 9.53855E-05-2.85995E-05-2.86237E-05 6.06228E-07-3.82336E-20 7.71936E-19
 -1      3863 9.53006E-05-2.85166E-05-2.86195E-05 6.39466E-07-6.15237E-20 8.57061E-19
 -1      3864 9.54451E-05-2.86317E-05-2.86350E-05 4.97169E-07 1.85950E-19 3.35288E-19
 -1      3865 9.51877E-05-2.84262E-05-2.86136E-05 6.90967E-07 6.88139E-20 9.41924E-19
 -1      3866 9.51165E-05-2.83534E-05-2.86100E-05 7.49248E-07-2.01143E-19 1.20891E-18
 -1      3867 9.52149E-05-2.84342E-05-2.86208E-05 5.77620E-07-1.73060E-21 4.93696E-19
 -1      3868 9.50138E-05-2.82769E-05-2.86034E-05 8.34318E-07-7.52257E-20 1.58748E-18
 -1      3869 9.49661E-05-2.82278E-05-2.85984E-05 9.24140E-07 2.53765E-19 1.56480E-18
 -1      3870 9.49988E-05-2.82492E-05-2.86077E-05 7.15971E-07 1.51950E-19 8.92913E-19
 -1      3871 9.48836E-05-2.81804E-05-2.85891E-05 1.05326E-06 2.81536E-19 1.69812E-18
 -1      3872 9.48755E-05-2.81743E-05-2.85812E-05 1.18133E-06 2.12055E-19 1.77525E-18
 -1      3873 9.48113E-05-2.81021E-05-2.85909E-05 9.32821E-07 3.00624E-19 1.40918E-18
 -1      3874 9.48311E-05-2.81784E-05-2.85672E-05 1.36665E-06-2.43735E-19 1.47869E-18
 -1      3875 9.48884E-05-2.82429E-05-2.85554E-05 1.53879E-06-3.02852E-19 1.20418E-18
 -1      3876 9.46793E-05-2.80301E-05-2.85664E-05 1.25348E-06-3.67681E-19 1.00993E-18
 -1      3877 9.49122E-05-2.83303E-05-2.85358E-05 1.79260E-06-2.16299E-19 1.24040E-18
 -1      3878 9.50726E-05-2.85032E-05-2.85205E-05 2.01110E-06-1.98208E-20 1.11969E-18
 -1      3879 9.46492E-05-2.80884E-05-2.85309E-05 1.70667E-06-2.21369E-19 4.47502E-19
 -1      3880 9.52117E-05-2.87178E-05-2.84958E-05 2.34198E-06-1.02944E-19 1.10783E-18
 -1      3881 9.55278E-05-2.90478E-05-2.84798E-05 2.60039E-06-5.31973E-19 7.41152E-19
 -1      3882 9.47964E-05-2.83559E-05-2.84833E-05 2.31995E-06-1.89358E-19 3.88847E-19
 -1      3883 9.58518E-05-2.94461E-05-2.84536E-05 3.00516E-06-3.32023E-19 8.21397E-19
 -1      3884 9.63901E-05-2.99899E-05-2.84437E-05 3.27945E-06-1.77570E-19 1.25871E-18
 -1      3885 9.52354E-05-2.89410E-05-2.84269E-05 3.10868E-06-2.45271E-19 5.85595E-19
 -1      3886 9.69946E-05-3.06369E-05-2.84255E-05 3.72821E-06 1.71195E-20 1.39980E-18
 -1      3887 9.78293E-05-3.14478E-05-2.84358E-05 3.96345E-06 1.86910E-19 1.54713E-18
 -1      3888 9.61303E-05-2.99815E-05-2.83736E-05 4.05378E-06 1.03133E-19 1.30456E-18
 -1      3889 9.88301E-05-3.24017E-05-2.84442E-05 4.38079E-06 6.87052E-20 2.07378E-18
 -1      3890 1.00028E-04-3.35090E-05-2.84989E-05 4.47497E-06 2.99384E-19 2.50887E-18
 -1      3891 9.76931E-05-3.16252E-05-2.83509E-05 5.06328E-06 5.79241E-19 1.70064E-18
 -1      3892 1.01554E-04-3.47969E-05-2.85690E-05 4.70759E-06-1.04358E-19 2.03474E-18
 -1      3893 1.03139E-04-3.61456E-05-2.87099E-05 4.48909E-06-1.62879E-19 1.92641E-18
 -1      3894 1.00165E-04-3.39955E-05-2.84103E-05 5.93696E-06-1.20676E-19 1.66596E-18
 -1      3895 1.05263E-04-3.76698E-05-2.89025E-05 4.29065E-06-4.87092E-19 1.52221E-18
 -1      3896 1.07112E-04-3.90477E-05-2.91773E-05 3.54078E-06 3.97444E-20 9.98965E-19
 -1      3897 1.03765E-04-3.70763E-05-2.86492E-05 6.24801E-06-6.14958E-19 6.31844E-19
 -1      3898 1.11241E-04-4.17495E-05-2.97589E-05 3.19295E-06 6.68731E-19 8.90094E-19
 -1      3899 1.13151E-04-4.25285E-05-3.03010E-05 1.66413E-06 7.78883E-19 2.75348E-19
 -1      3900 1.15622E-04-4.26357E-05-3.13045E-05-1.63597E-06 9.19953E-19 1.87753E-19
 -1      3901 9.56966E-05-2.52277E-05-3.01994E-05 1.19308E-06 1.71012E-19-1.55085E-19
 -1      3902 9.75157E-05-3.08658E-05-2.85470E-05-4.01158E-06 5.22334E-19 2.91352E-18
 -1      3903 9.65507E-05-3.00262E-05-2.85233E-05-4.26640E-06 7.40376E-19 3.21364E-18
 -1      3904 9.66440E-05-3.03044E-05-2.84378E-05-5.02535E-06-2.55141E-19 3.33221E-18
 -1      3905 9.80880E-05-3.14646E-05-2.85478E-05-4.06239E-06 2.86914E-19 3.03744E-18
 -1      3906 1.10921E-04-4.11563E-05-2.98874E-05-1.84538E-06 1.18662E-19 1.18605E-18
 -1      3907 1.08972E-04-4.01422E-05-2.94272E-05-3.18329E-06-5.08609E-19 5.72755E-19
 -1      3908 1.06445E-04-3.86125E-05-2.90822E-05-4.01813E-06-1.50188E-19 1.76943E-18
 -1      3909 1.04632E-04-3.71970E-05-2.88432E-05-4.62172E-06-1.90601E-19 2.35374E-18
 -1      3910 1.07652E-04-4.00190E-05-2.90912E-05-5.81890E-06 1.16498E-19 2.47028E-18
 -1      3911 1.02668E-04-3.57123E-05-2.86948E-05-4.74094E-06-2.21978E-19 3.15298E-18
 -1      3912 1.01173E-04-3.43828E-05-2.85904E-05-4.87816E-06 6.32959E-19 4.14467E-18
 -1      3913 1.03217E-04-3.65732E-05-2.86238E-05-6.41753E-06 3.45902E-19 3.04621E-18
 -1      3914 1.00011E-04-3.33474E-05-2.85624E-05-4.56752E-06 4.43095E-19 4.21443E-18
 -1      3915 9.88885E-05-3.22647E-05-2.85334E-05-4.45103E-06 3.67332E-19 3.71701E-18
 -1      3916 9.81828E-05-3.17873E-05-2.84749E-05-5.04696E-06-4.49876E-19 3.97538E-18
 -1      3917 1.00126E-04-3.37685E-05-2.84758E-05-5.91584E-06 8.30448E-19 3.35078E-18
 -1      3918 9.62011E-05-2.61141E-05-3.00437E-05-4.45508E-07-2.48553E-19-1.48798E-19
 -1      3919 9.64026E-05-2.67844E-05-2.98432E-05-1.41996E-07-3.51000E-19-4.61670E-21
 -1      3920 8.84332E-05-2.24206E-05-2.83114E-05-5.61599E-07 1.59037E-19-1.33086E-18
 -1      3921 8.16314E-05-2.31853E-05-2.49830E-05-1.79399E-05 9.27870E-19 2.14657E-18
 -1      3922 8.33580E-05-2.65294E-05-2.41522E-05-2.36012E-05 1.39676E-18 4.22169E-18
 -1      3923 9.31890E-05-2.64177E-05-2.86260E-05-3.91261E-07 1.07118E-19 8.39692E-22
 -1      3924 9.35792E-05-2.67593E-05-2.86389E-05-4.46590E-07 4.00905E-20-1.08489E-19
 -1      3925 9.38997E-05-2.70596E-05-2.86515E-05-5.32089E-07 2.92529E-20 1.54162E-19
 -1      3926 9.41822E-05-2.73296E-05-2.86531E-05-5.45111E-07-7.09229E-20-4.62614E-19
 -1      3927 9.37264E-05-2.69302E-05-2.86201E-05-1.97008E-07-1.54123E-20-4.49498E-19
 -1      3928 9.09369E-05-2.46379E-05-2.84380E-05 5.05007E-07 9.56643E-20 4.65579E-19
 -1      3929 9.16924E-05-2.51707E-05-2.85083E-05 2.16402E-07 3.73900E-19 7.26283E-19
 -1      3930 8.92172E-05-2.34809E-05-2.82085E-05 1.56444E-06-6.64241E-19-3.04976E-19
 -1      3931 9.02550E-05-2.41178E-05-2.83397E-05 1.02555E-06-2.90102E-19-6.39766E-20
 -1      3932 9.08832E-05-2.47283E-05-2.83350E-05 1.53478E-06 2.06287E-19 5.70072E-19
 -1      3933 8.69828E-05-2.22050E-05-2.78134E-05 3.35802E-06-3.81372E-19-1.75914E-19
 -1      3934 8.83820E-05-2.29195E-05-2.80435E-05 2.42029E-06-9.08350E-19-3.60484E-19
 -1      3935 8.94019E-05-2.38484E-05-2.80734E-05 3.03172E-06-5.83455E-19-6.79151E-19
 -1      3936 8.41895E-05-2.09700E-05-2.71612E-05 6.25973E-06-5.51707E-19 7.64526E-19
 -1      3937 8.60196E-05-2.16841E-05-2.75483E-05 4.71121E-06-3.08026E-19 5.71420E-19
 -1      3938 8.76498E-05-2.30722E-05-2.76520E-05 5.40219E-06-9.51166E-19 9.09902E-20
 -1      3939 8.09115E-05-2.01323E-05-2.61089E-05 1.07404E-05-4.76774E-19 8.23607E-19
 -1      3940 8.31813E-05-2.06626E-05-2.67504E-05 8.27817E-06-2.00198E-19 8.38073E-19
 -1      3941 8.57042E-05-2.26470E-05-2.70008E-05 9.01943E-06-1.97266E-19 1.00648E-18
 -1      3942 7.83522E-05-2.05236E-05-2.47593E-05 1.67099E-05-4.87140E-19-5.86193E-19
 -1      3943 8.08515E-05-2.08425E-05-2.56451E-05 1.35209E-05-4.49065E-19 1.75753E-19
 -1      3944 8.45950E-05-2.35877E-05-2.61701E-05 1.39827E-05-6.96254E-20 1.25771E-19
 -1      3945 8.58695E-05-2.69892E-05-2.53066E-05 2.00444E-05 2.44852E-19-1.40322E-18
 -1      3946 8.38166E-05-2.20853E-05-2.63758E-05-1.14506E-05 9.47542E-19 3.78254E-19
 -1      3947 8.16126E-05-2.18861E-05-2.55986E-05-1.46136E-05 9.54523E-19 1.74768E-18
 -1      3948 8.71677E-05-2.67022E-05-2.59882E-05-1.70611E-05 1.00567E-18 1.62474E-18
 -1      3949 9.55841E-05-2.43384E-05-3.05173E-05-1.89900E-07-3.17835E-19-4.64710E-19
 -1      3950 9.50689E-05-2.33643E-05-3.07378E-05-4.04819E-07-3.59407E-19-5.90136E-19
 -1      3951 9.51251E-05-2.34945E-05-3.07109E-05-7.11596E-07-2.88076E-19-3.99599E-19
 -1      3952 9.61198E-05-2.90287E-05-2.87529E-05-9.18753E-07 1.65984E-19-2.56043E-19
 -1      3953 9.61794E-05-2.89891E-05-2.87939E-05-9.07564E-07 3.27706E-19-6.34174E-21
 -1      3954 9.63838E-05-2.89888E-05-2.88853E-05-7.94896E-07 2.85888E-19 3.26250E-19
 -1      3955 9.62314E-05-2.90790E-05-2.87814E-05-8.19661E-07 2.01618E-19 1.83943E-19
 -1      3956 9.22296E-05-2.56178E-05-2.85636E-05-8.59877E-08 3.38170E-19 6.58589E-19
 -1      3957 9.27733E-05-2.60480E-05-2.85975E-05-2.25058E-07 5.24919E-19 3.79631E-19
 -1      3958 9.30059E-05-2.63053E-05-2.85762E-05 9.57460E-08-1.17014E-19-4.77739E-19
 -1      3959 9.51675E-05-2.83195E-05-2.86493E-05-6.05978E-07-2.12544E-19-3.15785E-19
 -1      3960 9.52982E-05-2.84592E-05-2.86464E-05-6.03030E-07-2.02212E-19-9.38307E-20
 -1      3961 1.15322E-04-4.26682E-05-3.11699E-05 9.74222E-07 5.13843E-19 5.30222E-19
 -1      3962 1.13804E-04-4.26616E-05-3.04288E-05-1.06536E-06 5.33677E-19 9.59833E-19
 -1      3963 8.83004E-05-2.26854E-05-2.81164E-05-2.43242E-06 5.86636E-20-3.11666E-19
 -1      3964 1.18133E-04-4.27473E-05-3.22441E-05 3.55088E-06 6.54320E-19 6.00586E-19
 -1      3965 9.86584E-05-3.71288E-05-2.62027E-05-2.21932E-05 4.23015E-19-1.81123E-18
 -1      3966 1.04838E-04-4.06255E-05-2.75113E-05-1.75682E-05-3.68162E-20-9.63145E-19
 -1      3967 9.65999E-05-2.73776E-05-2.96635E-05 3.05137E-09-4.77263E-19-2.13021E-20
 -1      3968 9.66847E-05-2.78404E-05-2.95085E-05 2.01102E-07-4.15309E-19-1.14090E-19
 -1      3969 9.67828E-05-2.79618E-05-2.94943E-05 1.78200E-07-2.56115E-19-3.06775E-20
 -1      3970 9.65320E-05-2.69674E-05-2.98169E-05-7.39617E-08-3.68256E-19-2.76407E-19
 -1      3971 1.10903E-04-4.31831E-05-2.89578E-05-1.02622E-05 2.43601E-19 6.98906E-19
 -1      3972 1.13293E-04-4.36755E-05-2.99718E-05-4.66282E-06 2.11144E-19 8.57197E-19
 -1      3973 9.55928E-05-2.47570E-05-3.03679E-05 1.20693E-06 4.77260E-20-1.97534E-19
 -1      3974 9.53230E-05-2.39928E-05-3.05642E-05 9.89263E-07-3.24317E-20-1.39527E-19
 -1      3975 9.57692E-05-2.48755E-05-3.03659E-05 6.14529E-07 3.11887E-20-1.58861E-19
 -1      3976 9.59692E-05-2.57834E-05-3.00837E-05 6.63741E-07 2.48436E-20-6.55556E-21
 -1      3977 8.59667E-05-2.22577E-05-2.73117E-05-6.91324E-06 9.79123E-19-1.20986E-18
 -1      3978 8.42247E-05-2.17438E-05-2.68106E-05-9.05820E-06 4.44203E-19-5.79990E-19
 -1      3979 8.74880E-05-2.47444E-05-2.69122E-05-1.13582E-05 1.69537E-18 8.54905E-19
 -1      3980 9.14921E-05-3.26409E-05-2.53223E-05-2.33976E-05 1.32899E-18 1.29480E-18
 -1      3981 1.14363E-04-2.60080E-05-3.78289E-05 1.18340E-05-1.30488E-18-9.05068E-19
 -1      3982 9.33927E-05-2.78566E-05-2.80451E-05-7.05342E-06 5.51003E-19 3.30776E-19
 -1      3983 9.17597E-05-2.65748E-05-2.79533E-05-6.84394E-06 9.05635E-19-7.90379E-19
 -1      3984 1.07054E-04-1.28551E-05-4.06797E-05 7.68678E-07-1.13334E-18-7.09777E-19
 -1      3985 8.70294E-05-2.27935E-05-2.75494E-05-6.09682E-06 8.38033E-20-1.04354E-18
 -1      3986 9.44320E-05-2.75727E-05-2.86571E-05-5.86197E-07-1.82513E-20-7.87720E-20
 -1      3987 9.46412E-05-2.77873E-05-2.86535E-05-5.81960E-07 2.19007E-19-1.09896E-19
 -1      3988 9.42852E-05-2.74498E-05-2.86391E-05-3.50304E-07 1.72538E-19 1.41343E-19
 -1      3989 9.48408E-05-2.79851E-05-2.86538E-05-6.01498E-07 2.47703E-19-3.80663E-19
 -1      3990 9.50018E-05-2.81574E-05-2.86491E-05-5.94286E-07-6.44082E-20 2.49403E-20
 -1      3991 9.50855E-05-2.82367E-05-2.86479E-05-4.67076E-07-1.23184E-19 4.20665E-20
 -1      3992 9.47262E-05-2.78799E-05-2.86456E-05-4.27203E-07 1.44163E-19 2.84081E-19
 -1      3993 9.61889E-05-3.41556E-05-2.67150E-05 1.82946E-05 4.25752E-19 2.90711E-19
 -1      3994 9.08874E-05-3.01930E-05-2.59101E-05 1.94038E-05-1.96141E-19-9.32305E-19
 -1      3995 8.95615E-05-2.81242E-05-2.62738E-05 1.67234E-05 2.14648E-19-1.15847E-18
 -1      3996 1.10071E-04-4.17547E-05-2.93170E-05 6.38200E-06 3.33858E-20 4.81634E-19
 -1      3997 8.96915E-05-2.49208E-05-2.77107E-05-7.14219E-06 5.88927E-19-1.37136E-18
 -1      3998 9.58362E-05-2.51127E-05-3.03012E-05-5.58893E-07-3.05463E-19-2.23264E-19
 -1      3999 9.59753E-05-2.53762E-05-3.02531E-05-3.51822E-07-2.85242E-19-3.25577E-19
 -1      4000 1.06142E-04-2.24616E-05-3.60378E-05 9.61147E-06-1.82172E-18-4.19367E-19
 -1      4001 9.61224E-05-2.90934E-05-2.87258E-05-6.85259E-07 1.90144E-19 5.27380E-20
 -1      4002 9.62147E-05-2.91198E-05-2.87542E-05-6.93038E-07 3.44401E-19 3.04812E-19
 -1      4003 9.53898E-05-2.85325E-05-2.86528E-05-4.93307E-07-5.45737E-19-6.16397E-19
 -1      4004 9.54417E-05-2.85921E-05-2.86493E-05-6.13945E-07-4.94362E-19-4.31736E-19
 -1      4005 9.55548E-05-2.87051E-05-2.86505E-05-6.17218E-07-6.69907E-19-3.93624E-19
 -1      4006 9.20743E-05-2.55670E-05-2.84899E-05 6.24980E-07 2.75011E-19 4.76144E-19
 -1      4007 9.36027E-05-3.24314E-05-2.61842E-05-1.96468E-05 7.48660E-19 4.49600E-19
 -1      4008 9.59631E-05-2.52960E-05-3.02937E-05-8.05700E-08-2.09761E-19-3.83935E-19
 -1      4009 9.59601E-05-2.53324E-05-3.02800E-05-2.37371E-07-3.09385E-19-3.80473E-19
 -1      4010 9.63612E-05-2.62448E-05-3.00355E-05-2.00687E-07-2.67471E-19-1.94884E-19
 -1      4011 1.10066E-04-4.22956E-05-2.89875E-05 9.59971E-06 2.55213E-19 1.58455E-19
 -1      4012 1.07965E-04-4.22740E-05-2.81861E-05 1.46550E-05 1.86541E-19 2.10693E-19
 -1      4013 1.02231E-04-3.81292E-05-2.74513E-05 1.60845E-05 4.55065E-19 4.63770E-19
 -1      4014 1.05568E-04-3.89788E-05-2.85071E-05 9.12157E-06-2.39690E-19 6.17673E-19
 -1      4015 9.66190E-05-2.88514E-05-2.90446E-05-6.24574E-07 1.93089E-19 9.53952E-20
 -1      4016 9.66604E-05-2.86757E-05-2.91335E-05-5.45508E-07 1.30171E-19 9.92296E-20
 -1      4017 9.63478E-05-2.67866E-05-2.98149E-05 1.95971E-07 1.76008E-19 5.77529E-20
 -1      4018 9.61993E-05-2.63312E-05-2.99418E-05 4.67516E-07 6.25253E-20 1.42108E-20
 -1      4019 9.61179E-05-2.59207E-05-3.00930E-05 4.71831E-07 5.17858E-20-9.27037E-22
 -1      4020 9.51253E-05-2.35227E-05-3.06726E-05-1.12724E-06-2.95916E-19-2.20299E-19
 -1      4021 9.66646E-05-2.84344E-05-2.92442E-05-4.72189E-07 2.44886E-19 4.06522E-20
 -1      4022 9.66562E-05-2.81321E-05-2.93650E-05-3.24969E-07 4.23415E-19 2.02276E-19
 -1      4023 9.67675E-05-2.85200E-05-2.92493E-05-4.05070E-07 2.10938E-19 1.36033E-19
 -1      4024 9.59103E-05-2.89821E-05-2.86824E-05-6.57745E-07-2.14190E-20-3.98359E-19
 -1      4025 9.60071E-05-2.90423E-05-2.86990E-05-6.69812E-07-2.64580E-20-3.48043E-19
 -1      4026 9.61470E-05-2.90988E-05-2.87363E-05-5.64885E-07 2.85356E-19-1.76429E-19
 -1      4027 9.65947E-05-2.77833E-05-2.94941E-05-2.12135E-07 4.06563E-19 1.42876E-19
 -1      4028 9.65103E-05-2.73203E-05-2.96520E-05 2.19568E-08 2.41837E-19 1.68234E-19
 -1      4029 9.64973E-05-2.69964E-05-2.97837E-05 8.57104E-08 1.17314E-19-2.67117E-20
 -1      4030 9.67108E-05-2.78914E-05-2.94928E-05-2.02291E-07 4.34772E-19 1.25834E-19
 -1      4031 9.57650E-05-2.97833E-05-2.82561E-05-6.37003E-06 3.99299E-19 2.78175E-18
 -1      4032 9.47230E-05-2.90250E-05-2.81720E-05-6.69399E-06 4.97727E-19 1.18808E-18
 -1      4033 9.42882E-05-2.89816E-05-2.79886E-05-7.91070E-06 3.50533E-19 5.66591E-19
 -1      4034 1.07161E-04-4.15514E-05-2.81712E-05-1.41805E-05 6.86306E-19 4.33426E-20
 -1      4035 1.07813E-04-4.03597E-05-2.88482E-05-8.41530E-06 1.69896E-19 8.67269E-19
 -1      4036 1.05101E-04-3.84029E-05-2.85064E-05-9.00713E-06 5.45169E-19 1.14554E-18
 -1      4037 1.01856E-04-3.75062E-05-2.75896E-05-1.49329E-05 3.87037E-19-9.73680E-19
 -1      4038 9.59784E-05-2.53465E-05-3.02799E-05 2.52156E-07 5.01698E-20-1.31945E-19
 -1      4039 9.59671E-05-2.52873E-05-3.02984E-05 5.18700E-08-1.65854E-20-2.11949E-19
 -1      4040 9.63480E-05-2.61409E-05-3.00750E-05-3.51714E-08-2.88354E-20-1.77348E-19
 -1      4041 9.03946E-05-2.60933E-05-2.75794E-05-8.67720E-06 1.19251E-18-7.10823E-19
 -1      4042 9.46328E-05-2.78201E-05-2.86375E-05-2.37260E-07 1.33255E-19-9.68567E-20
 -1      4043 9.48339E-05-2.80074E-05-2.86399E-05-2.68261E-07 7.56563E-20-1.09629E-19
 -1      4044 9.68569E-05-2.89242E-05-2.91132E-05 2.66072E-07-2.18537E-20 3.71120E-19
 -1      4045 9.67941E-05-2.90559E-05-2.90300E-05 3.03541E-07 1.92883E-19 5.94494E-19
 -1      4046 9.67087E-05-2.91433E-05-2.89559E-05 3.00140E-07 2.95184E-19 4.71614E-19
 -1      4047 9.66127E-05-2.91898E-05-2.88949E-05 3.16424E-07 3.32028E-19 5.39667E-19
 -1      4048 9.67937E-05-2.91005E-05-2.90137E-05 1.65426E-07 3.75039E-20 3.77068E-19
 -1      4049 9.65024E-05-2.92043E-05-2.88412E-05 3.14336E-07 2.90741E-19 6.29090E-19
 -1      4050 9.63929E-05-2.91945E-05-2.87980E-05 3.20095E-07 4.50492E-19 3.94483E-19
 -1      4051 9.65925E-05-2.92018E-05-2.88838E-05 1.75977E-07 3.36292E-19-1.46549E-19
 -1      4052 9.62664E-05-2.91587E-05-2.87601E-05 3.12479E-07 6.42798E-19 3.14995E-19
 -1      4053 9.61484E-05-2.91073E-05-2.87305E-05 3.15830E-07 4.58083E-19 5.27214E-19
 -1      4054 9.63643E-05-2.91880E-05-2.87924E-05 1.75557E-07 5.20435E-19 6.61737E-20
 -1      4055 9.60152E-05-2.90377E-05-2.87047E-05 3.13228E-07 1.06713E-20 5.43483E-19
 -1      4056 9.58934E-05-2.89587E-05-2.86851E-05 3.18785E-07-4.90508E-20 3.65694E-19
 -1      4057 9.61072E-05-2.90795E-05-2.87281E-05 1.82414E-07 2.63198E-19 8.47446E-20
 -1      4058 9.57578E-05-2.88660E-05-2.86682E-05 3.27427E-07 4.47396E-20 3.30990E-19
 -1      4059 9.56384E-05-2.87710E-05-2.86557E-05 3.42364E-07 2.88525E-19 3.32703E-19
 -1      4060 9.58372E-05-2.89094E-05-2.86845E-05 1.97673E-07-2.64646E-21 5.03841E-20
 -1      4061 9.54982E-05-2.86637E-05-2.86444E-05 3.61508E-07 3.77179E-19-4.96180E-20
 -1      4062 9.53812E-05-2.85586E-05-2.86362E-05 3.92394E-07 1.86345E-19 2.16660E-19
 -1      4063 9.55678E-05-2.87052E-05-2.86563E-05 2.29362E-07 1.25428E-19-1.63056E-19
 -1      4064 9.52379E-05-2.84434E-05-2.86280E-05 4.32928E-07 1.58703E-19 3.23142E-19
 -1      4065 9.51264E-05-2.83367E-05-2.86215E-05 4.87232E-07 1.82124E-19 7.39968E-19
 -1      4066 9.52878E-05-2.84700E-05-2.86367E-05 2.94781E-07 2.78128E-19-1.78725E-19
 -1      4067 9.49801E-05-2.82211E-05-2.86136E-05 5.57865E-07 4.06688E-19 6.74681E-19
 -1      4068 9.48795E-05-2.81224E-05-2.86064E-05 6.45316E-07 3.55290E-19 1.10957E-18
 -1      4069 9.50032E-05-2.82224E-05-2.86204E-05 4.08425E-07 3.90625E-19 3.21481E-19
 -1      4070 9.47324E-05-2.80163E-05-2.85962E-05 7.59354E-07 1.00252E-19 1.14788E-18
 -1      4071 9.46531E-05-2.79396E-05-2.85859E-05 8.92464E-07 5.45150E-20 8.83358E-19
 -1      4072 9.47153E-05-2.79774E-05-2.86021E-05 5.94191E-07 6.35937E-20-2.66531E-19
 -1      4073 9.45123E-05-2.78581E-05-2.85706E-05 1.06780E-06-4.75294E-19 1.20739E-18
 -1      4074 9.44728E-05-2.78245E-05-2.85553E-05 1.26199E-06-7.03615E-19 7.79221E-19
 -1      4075 9.44334E-05-2.77586E-05-2.85760E-05 8.85330E-07-2.21141E-19 1.61616E-19
 -1      4076 9.43542E-05-2.77914E-05-2.85321E-05 1.52152E-06-5.21476E-19 5.63859E-19
 -1      4077 9.43851E-05-2.78332E-05-2.85103E-05 1.79427E-06-2.83127E-19 2.66120E-19
 -1      4078 9.41802E-05-2.76036E-05-2.85365E-05 1.32603E-06-7.42567E-19 4.25285E-19
 -1      4079 9.43190E-05-2.78848E-05-2.84769E-05 2.16497E-06-2.86463E-19 6.49959E-20
 -1      4080 9.44682E-05-2.80491E-05-2.84485E-05 2.53279E-06-2.74111E-19-1.95686E-19
 -1      4081 9.40005E-05-2.75724E-05-2.84778E-05 1.97185E-06-4.58021E-19 1.76711E-19
 -1      4082 9.45072E-05-2.82396E-05-2.84040E-05 3.04194E-06 3.40620E-19-1.75488E-19
 -1      4083 9.48455E-05-2.85922E-05-2.83716E-05 3.51340E-06 3.80410E-19 2.59837E-19
 -1      4084 9.39749E-05-2.77585E-05-2.83960E-05 2.88627E-06 4.65515E-20-2.12216E-19
 -1      4085 9.50765E-05-2.89980E-05-2.83183E-05 4.17907E-06 7.31352E-21 4.87666E-19
 -1      4086 9.57017E-05-2.96241E-05-2.82903E-05 4.74064E-06 3.11535E-19 8.27052E-19
 -1      4087 9.42384E-05-2.83013E-05-2.82911E-05 4.12983E-06 5.52823E-19-1.13312E-19
 -1      4088 9.62619E-05-3.03488E-05-2.82381E-05 5.54973E-06 7.07489E-19 5.78610E-19
 -1      4089 9.72847E-05-3.13395E-05-2.82326E-05 6.14202E-06 7.58500E-19 8.74412E-19
 -1      4090 9.50080E-05-2.93975E-05-2.81733E-05 5.73575E-06 3.72675E-19 4.80736E-19
 -1      4091 9.83647E-05-3.24852E-05-2.82045E-05 6.99102E-06-6.08714E-20 6.16329E-19
 -1      4092 9.98971E-05-3.39014E-05-2.82565E-05 7.45867E-06-8.79728E-19 3.78419E-19
 -1      4093 9.66449E-05-3.13071E-05-2.80743E-05 7.65891E-06-8.37380E-20-4.56537E-19
 -1      4094 1.01382E-04-3.53376E-05-2.82617E-05 8.38497E-06-9.97194E-19 1.28852E-19
 -1      4095 1.03566E-04-3.71350E-05-2.84297E-05 8.45972E-06-4.81733E-19 2.70931E-19
 -1      4096 1.02668E-04-3.73893E-05-2.80755E-05 1.16031E-05-2.64151E-19 1.79370E-19
 -1      4097 9.89296E-05-3.37582E-05-2.80226E-05 9.61583E-06-7.01403E-19-5.63872E-19
 -1      4098 9.36089E-05-2.69079E-05-2.85956E-05 1.31185E-07 2.90695E-20-3.45135E-19
 -1      4099 9.39321E-05-2.71686E-05-2.86111E-05 1.47035E-08 4.11708E-19-6.44805E-20
 -1      4100 9.75525E-05-3.12405E-05-2.83995E-05-5.61877E-06-4.83943E-19 2.37728E-18
 -1      4101 9.66179E-05-3.05322E-05-2.83358E-05-6.02278E-06 4.76412E-20 1.86462E-18
 -1      4102 9.65883E-05-3.08078E-05-2.82052E-05-7.13599E-06-1.49866E-19 1.84014E-18
 -1      4103 9.83837E-05-3.21282E-05-2.83814E-05-6.09264E-06-1.04132E-19 2.38290E-18
 -1      4104 9.54194E-05-2.42634E-05-3.04951E-05-9.10643E-07-3.00464E-19-2.33606E-19
 -1      4105 9.29047E-05-2.63454E-05-2.85397E-05 5.46119E-07-3.01014E-19 4.09144E-22
 -1      4106 9.33235E-05-2.66478E-05-2.85712E-05 3.34723E-07-2.07248E-19-2.37766E-19
 -1      4107 9.35811E-05-2.69259E-05-2.85646E-05 5.48648E-07-3.26211E-20-1.75290E-20
 -1      4108 1.02681E-04-3.63208E-05-2.84022E-05-8.41754E-06 7.85538E-19 1.32088E-18
 -1      4109 1.00664E-04-3.45893E-05-2.82856E-05-8.20097E-06 1.02403E-18 1.36600E-18
 -1      4110 1.01731E-04-3.64104E-05-2.80981E-05-1.11130E-05 8.19409E-19-6.21787E-19
 -1      4111 9.20338E-05-2.57241E-05-2.84390E-05 1.24518E-06 1.67508E-19 3.78188E-19
 -1      4112 9.25743E-05-2.60630E-05-2.84970E-05 8.79743E-07 9.10297E-20-3.14937E-20
 -1      4113 9.29616E-05-2.64685E-05-2.84968E-05 1.11873E-06 5.22844E-20-1.52536E-19
 -1      4114 8.97863E-05-2.45442E-05-2.79975E-05 4.15316E-06-5.94262E-19-3.60927E-19
 -1      4115 9.06187E-05-2.48585E-05-2.81591E-05 3.19063E-06 1.27583E-19 1.86484E-19
 -1      4116 9.09845E-05-2.50889E-05-2.82693E-05 2.37928E-06 3.83071E-19 1.79594E-19
 -1      4117 9.16685E-05-2.54422E-05-2.83686E-05 1.77449E-06 1.73376E-19 4.20813E-19
 -1      4118 9.22561E-05-2.60343E-05-2.83846E-05 2.02382E-06 1.87627E-19-8.26254E-20
 -1      4119 9.15040E-05-2.57127E-05-2.82083E-05 3.41411E-06 3.73021E-19 6.39795E-19
 -1      4120 8.76216E-05-2.46967E-05-2.69801E-05 1.07884E-05-2.44585E-19-2.28263E-19
 -1      4121 8.85361E-05-2.45836E-05-2.73507E-05 8.54260E-06-7.20218E-19-5.64009E-19
 -1      4122 8.84010E-05-2.66581E-05-2.64372E-05 1.49381E-05 2.07886E-19-1.30826E-18
 -1      4123 8.82444E-05-2.55608E-05-2.68038E-05 1.22973E-05 6.37392E-20-6.07449E-19
 -1      4124 9.08564E-05-2.74250E-05-2.71782E-05 1.16418E-05-3.38086E-19-1.54568E-18
 -1      4125 9.24198E-05-2.99030E-05-2.68984E-05 1.47429E-05 9.20189E-20-5.92394E-19
 -1      4126 9.19133E-05-3.03608E-05-2.63395E-05-1.76949E-05 1.11167E-18 5.67113E-19
 -1      4127 9.76274E-05-3.48277E-05-2.70418E-05-1.68052E-05 8.02766E-19-1.60952E-18
 -1      4128 1.00303E-04-3.56625E-05-2.76531E-05-1.37252E-05 1.27783E-18-1.03049E-18
 -1      4129 9.16071E-05-2.88958E-05-2.67957E-05-1.47323E-05 1.51712E-18 2.04692E-19
 -1      4130 9.65497E-05-2.69026E-05-2.98515E-05-4.98375E-08-2.25274E-19-1.95696E-19
 -1      4131 9.07811E-05-2.67919E-05-2.73754E-05-1.03314E-05 1.54016E-18-7.47620E-19
 -1      4132 9.04359E-05-2.74706E-05-2.70058E-05-1.26860E-05 1.88877E-18-2.68588E-19
 -1      4133 9.45989E-05-3.10734E-05-2.73043E-05-1.33520E-05 2.27556E-18-7.47591E-19
 -1      4134 9.30749E-05-2.85667E-05-2.76647E-05-9.78868E-06 1.54632E-18-2.90689E-19
 -1      4135 9.56859E-05-2.88134E-05-2.86587E-05-6.32391E-07-3.67322E-19-6.22438E-19
 -1      4136 9.57877E-05-2.89004E-05-2.86663E-05-6.42088E-07-2.01717E-19-5.72931E-19
 -1      4137 9.59110E-05-2.89665E-05-2.86915E-05-5.41356E-07-1.83683E-19-6.62652E-19
 -1      4138 9.56629E-05-2.87771E-05-2.86658E-05-5.17840E-07-6.80256E-19-8.41762E-19
 -1      4139 9.50132E-05-2.81798E-05-2.86446E-05-3.09755E-07-2.71932E-19-2.40956E-19
 -1      4140 9.51800E-05-2.83380E-05-2.86466E-05-3.26343E-07-4.05851E-19-4.20901E-19
 -1      4141 9.49403E-05-2.81170E-05-2.86378E-05-1.27639E-07-3.78900E-21-8.66182E-19
 -1      4142 8.85537E-05-2.42973E-05-2.75814E-05 6.83139E-06-9.24334E-19-4.84904E-19
 -1      4143 8.95009E-05-2.44663E-05-2.78330E-05 5.35175E-06-9.75980E-19-7.50206E-19
 -1      4144 9.08120E-05-2.56696E-05-2.79446E-05 5.47362E-06-5.18560E-19-1.24796E-19
 -1      4145 9.04221E-05-2.62000E-05-2.75714E-05 8.39528E-06-1.07817E-18-1.58803E-18
 -1      4146 9.41745E-05-2.73987E-05-2.86241E-05-1.05936E-07 3.81590E-19 1.76809E-20
 -1      4147 9.44263E-05-2.76201E-05-2.86306E-05-1.66985E-07 2.47174E-19 1.24401E-19
 -1      4148 9.45568E-05-2.77619E-05-2.86247E-05-6.55487E-09 1.88083E-19-8.31737E-19
 -1      4149 9.41092E-05-2.73631E-05-2.86033E-05 2.00470E-07 3.21688E-19 1.01138E-19
 -1      4150 9.65618E-05-2.89782E-05-2.89623E-05-6.56659E-07 1.95449E-19 4.28529E-19
 -1      4151 9.67040E-05-2.89156E-05-2.90534E-05-5.22054E-07 5.26772E-20 2.56348E-19
 -1      4152 9.64924E-05-2.90629E-05-2.88985E-05-6.90493E-07 1.90941E-19 5.03251E-19
 -1      4153 9.69095E-05-2.84850E-05-2.93231E-05 1.94730E-07-3.96360E-20 2.74005E-19
 -1      4154 9.68978E-05-2.87364E-05-2.92123E-05 2.60396E-07-8.12676E-20 3.19094E-19
 -1      4155 9.69159E-05-2.88167E-05-2.91879E-05 1.39586E-07 5.83900E-20 6.37876E-19
 -1      4156 9.63661E-05-2.91554E-05-2.88063E-05-5.80021E-07 3.54897E-19 1.90669E-19
 -1      4157 9.63199E-05-2.91297E-05-2.87953E-05-7.02863E-07 2.79703E-19 3.56826E-19
 -1      4158 9.64039E-05-2.91092E-05-2.88392E-05-6.96267E-07 3.13045E-19 5.05222E-19
 -1      4159 9.96599E-05-3.55033E-05-2.74438E-05 1.47867E-05 1.43412E-19 3.76893E-19
 -1      4160 9.67654E-05-2.90031E-05-2.90416E-05-4.22640E-07-1.52642E-19 3.79752E-19
 -1      4161 9.68251E-05-2.88567E-05-2.91267E-05-3.72841E-07-1.52576E-19 3.73327E-19
 -1      4162 9.53405E-05-2.84861E-05-2.86524E-05-3.52707E-07-2.91175E-19-5.85317E-19
 -1      4163 9.54865E-05-2.86200E-05-2.86569E-05-3.64008E-07-6.63057E-19-9.08084E-19
 -1      4164 9.52771E-05-2.84285E-05-2.86496E-05-1.98719E-07-2.82536E-19-8.01402E-19
 -1      4165 9.66241E-05-2.72329E-05-2.97420E-05-1.29574E-08 2.64020E-19-8.95805E-20
 -1      4166 9.64673E-05-2.66929E-05-2.99061E-05 1.48082E-07 1.82911E-19-3.63885E-20
 -1      4167 9.61549E-05-2.91012E-05-2.87364E-05-4.31269E-07 2.94802E-19-3.49161E-19
 -1      4168 9.62714E-05-2.91496E-05-2.87653E-05-4.35066E-07 5.46079E-19-2.38877E-20
 -1      4169 9.65410E-05-2.67448E-05-2.99161E-05 1.63696E-08 2.39898E-20 1.96168E-19
 -1      4170 9.65493E-05-2.67673E-05-2.99113E-05-4.66139E-08-1.78720E-19-1.51360E-20
 -1      4171 9.68950E-05-2.87331E-05-2.92141E-05-2.48719E-07-3.86687E-20 3.41568E-19
 -1      4172 9.68487E-05-2.86520E-05-2.92294E-05-3.49955E-07 3.69959E-20 4.44086E-19
 -1      4173 9.68529E-05-2.83812E-05-2.93436E-05-2.63020E-07 3.08047E-19 3.27316E-19
 -1      4174 9.48092E-05-2.98489E-05-2.78352E-05-9.34998E-06 7.37732E-19 3.97565E-19
 -1      4175 9.60000E-05-2.54993E-05-3.02149E-05 4.06776E-07 3.35474E-20-2.39731E-19
 -1      4176 9.63833E-05-2.91864E-05-2.88006E-05-3.10385E-07 5.14030E-19-4.89002E-20
 -1      4177 9.63908E-05-2.91810E-05-2.88041E-05-4.47780E-07 5.42476E-19 8.97539E-20
 -1      4178 9.64956E-05-2.91834E-05-2.88474E-05-4.44435E-07 4.17020E-19 1.90675E-19
 -1      4179 9.67330E-05-2.74043E-05-2.97067E-05 2.81416E-08-2.70416E-19-6.48420E-20
 -1      4180 9.63448E-05-2.62740E-05-3.00223E-05 1.74094E-07 4.76299E-20-4.16034E-20
 -1      4181 9.66923E-05-2.91030E-05-2.89648E-05-4.25582E-07 1.21048E-19 3.60177E-19
 -1      4182 9.67915E-05-2.90560E-05-2.90327E-05-2.98181E-07-2.45483E-20 3.81746E-19
 -1      4183 9.67512E-05-2.76946E-05-2.95951E-05-8.90420E-08 1.74453E-19-3.09646E-20
 -1      4184 9.67172E-05-2.73965E-05-2.97069E-05-2.93124E-08 2.39798E-19-1.27841E-19
 -1      4185 9.68107E-05-2.80649E-05-2.94646E-05-2.11827E-07 3.17014E-19 1.32483E-21
 -1      4186 9.66769E-05-2.92058E-05-2.89151E-05 3.20186E-08 2.73430E-19 7.74534E-20
 -1      4187 9.65676E-05-2.92264E-05-2.88592E-05 3.45999E-08 5.28042E-19 2.24861E-19
 -1      4188 9.63965E-05-2.91938E-05-2.87999E-05-6.53213E-08 4.09704E-19 2.17860E-19
 -1      4189 9.62709E-05-2.91525E-05-2.87631E-05-5.73672E-08 4.38706E-19 1.10341E-19
 -1      4190 9.59138E-05-2.89547E-05-2.86965E-05 5.68896E-08-9.96956E-20 3.36198E-19
 -1      4191 9.57791E-05-2.88597E-05-2.86784E-05 6.81620E-08-2.53549E-20 3.49463E-19
 -1      4192 9.55767E-05-2.86986E-05-2.86623E-05-6.79652E-09-1.20400E-19-3.95199E-19
 -1      4193 9.54353E-05-2.85784E-05-2.86517E-05 1.90190E-08-9.90270E-20-3.39770E-19
 -1      4194 9.52763E-05-2.84411E-05-2.86443E-05 4.79582E-08 2.19876E-20-5.36910E-19
 -1      4195 9.51298E-05-2.83090E-05-2.86361E-05 8.97894E-08 1.02732E-19-8.56702E-19
 -1      4196 9.49525E-05-2.81535E-05-2.86297E-05 1.40063E-07 3.08323E-19-7.20620E-19
 -1      4197 9.48022E-05-2.80136E-05-2.86217E-05 2.09203E-07 2.04552E-19-8.06789E-19
 -1      4198 9.46002E-05-2.78419E-05-2.86132E-05 2.95240E-07 8.30350E-20-5.62187E-19
 -1      4199 9.44483E-05-2.77013E-05-2.86026E-05 4.06207E-07 5.04146E-20-5.63124E-19
 -1      4200 9.42147E-05-2.75164E-05-2.85883E-05 5.50335E-07 5.37421E-20-3.18496E-19
 -1      4201 9.40685E-05-2.73872E-05-2.85720E-05 7.23028E-07-1.06106E-19-1.32344E-19
 -1      4202 9.37987E-05-2.71970E-05-2.85472E-05 9.58130E-07-3.04777E-19-1.48273E-19
 -1      4203 9.36746E-05-2.71001E-05-2.85221E-05 1.21908E-06-3.99901E-19 1.60049E-19
 -1      4204 9.33699E-05-2.69214E-05-2.84809E-05 1.59142E-06-1.27577E-19 2.92894E-19
 -1      4205 9.32992E-05-2.68921E-05-2.84438E-05 1.97394E-06 6.64856E-20 1.67723E-19
 -1      4206 9.29745E-05-2.67578E-05-2.83788E-05 2.54528E-06-1.83063E-19 6.48038E-19
 -1      4207 9.30120E-05-2.68532E-05-2.83275E-05 3.08736E-06 1.73934E-19 7.64570E-19
 -1      4208 9.27069E-05-2.68231E-05-2.82300E-05 3.93416E-06 4.34905E-19 7.11356E-19
 -1      4209 9.29428E-05-2.71312E-05-2.81648E-05 4.67218E-06 4.80593E-19 5.89769E-19
 -1      4210 9.27406E-05-2.73070E-05-2.80263E-05 5.87614E-06-1.70866E-19 2.93774E-19
 -1      4211 9.33096E-05-2.79554E-05-2.79534E-05 6.83432E-06-6.34716E-19-1.54275E-19
 -1      4212 9.33599E-05-2.84997E-05-2.77694E-05 8.44452E-06-1.80248E-19-5.88731E-19
 -1      4213 9.43352E-05-2.96661E-05-2.76908E-05 9.64972E-06-2.25637E-19-8.84230E-19
 -1      4214 9.79667E-05-3.34679E-05-2.76180E-05-1.25786E-05 1.67070E-18-3.77573E-19
 -1      4215 9.64633E-05-2.65393E-05-2.99695E-05 7.07276E-08 1.48798E-19-1.26465E-19
 -1      4216 9.96972E-05-3.35387E-05-2.83233E-05-7.31689E-06 6.22305E-19 1.97324E-18
 -1      4217 9.85232E-05-3.24219E-05-2.83120E-05-6.84537E-06 2.31750E-19 2.25935E-18
 -1      4218 9.69415E-05-2.87915E-05-2.92070E-05-6.77800E-08 1.12286E-19 3.06068E-19
 -1      4219 9.68978E-05-2.89718E-05-2.91083E-05-5.01640E-08 8.62491E-21 2.59919E-19
 -1      4220 9.86070E-05-3.32021E-05-2.80932E-05-9.18530E-06 1.23004E-18 1.25405E-18
 -1      4221 9.76319E-05-3.35417E-05-2.74310E-05 1.35470E-05-3.79787E-19 3.35695E-19
 -1      4222 9.68357E-05-3.19296E-05-2.77644E-05-1.09121E-05 1.79259E-18-1.74628E-19
 -1      4223 9.68038E-05-2.77442E-05-2.95981E-05 6.89076E-08-2.37789E-19-4.40555E-20
 -1      4224 9.68714E-05-2.81552E-05-2.94522E-05 1.68378E-07-1.73201E-19 5.07462E-20
 -1      4225 9.66710E-05-2.71029E-05-2.98108E-05 2.50504E-08 7.56155E-20 2.00799E-19
 -1      4226 9.68264E-05-2.90916E-05-2.90284E-05-7.15186E-08-6.28713E-20 2.67448E-19
 -1      4227 9.67348E-05-2.91701E-05-2.89546E-05-6.23748E-08 5.25901E-20 2.60578E-19
 -1      4228 9.60243E-05-2.90316E-05-2.87105E-05-4.14697E-07 2.65621E-20-4.66290E-19
 -1      4229 9.61336E-05-2.90875E-05-2.87365E-05-2.96335E-07 2.44677E-19-2.42915E-19
 -1      4230 9.59012E-05-2.89489E-05-2.86932E-05-4.06426E-07-1.60871E-19-4.37980E-19
 -1      4231 9.69182E-05-2.82844E-05-2.94154E-05 9.66002E-08 5.15331E-20 2.62169E-19
 -1      4232 9.65583E-05-2.91072E-05-2.89091E-05-5.72045E-07 2.05556E-19 5.75461E-19
 -1      4233 9.68100E-05-2.76180E-05-2.96544E-05 1.66136E-08-1.45572E-19 1.14971E-19
 -1      4234 9.68239E-05-2.76828E-05-2.96322E-05-1.50738E-08-1.72923E-19 5.20642E-19
 -1      4235 9.69030E-05-2.79886E-05-2.95305E-05-1.57487E-09 1.92003E-20 3.36868E-19
 -1      4236 9.66018E-05-2.91599E-05-2.89030E-05-4.46678E-07 2.67844E-19 3.89900E-19
 -1      4237 9.61400E-05-2.90887E-05-2.87352E-05-5.44406E-08 2.89858E-19 2.39792E-19
 -1      4238 9.69558E-05-2.85510E-05-2.93128E-05-4.15222E-08 4.98751E-20 2.32766E-19
 -1      4239 9.69485E-05-2.83527E-05-2.94001E-05 1.57835E-08 6.05258E-20 4.19475E-19
 -1      4240 9.56371E-05-2.87399E-05-2.86709E-05-1.51302E-07-4.14336E-19-4.85224E-19
 -1      4241 9.56893E-05-2.87865E-05-2.86729E-05-2.94226E-07-5.98224E-19-5.52672E-19
 -1      4242 9.66721E-05-2.91925E-05-2.89215E-05-2.12311E-07 2.70856E-19 5.11878E-19
 -1      4243 9.58945E-05-3.09270E-05-2.78385E-05-9.83218E-06 1.51711E-18-3.20425E-20
 -1      4244 9.60034E-05-2.90115E-05-2.87096E-05-4.64821E-08 6.06890E-20 2.16591E-19
 -1      4245 9.58216E-05-2.88913E-05-2.86841E-05-3.04011E-07-3.33035E-19-5.71117E-19
 -1      4246 9.67976E-05-2.75857E-05-2.96631E-05-4.26523E-08 1.00881E-19 2.47810E-19
 -1      4247 9.28354E-05-2.91805E-05-2.73331E-05 1.17749E-05-1.24337E-19-7.46967E-19
 -1      4248 9.70450E-05-3.21718E-05-2.77368E-05 1.08075E-05-1.84412E-19-3.63258E-19
 -1      4249 9.64421E-05-2.91954E-05-2.88214E-05-2.07116E-07 5.21390E-19 2.20709E-19
 -1      4250 9.68804E-05-2.81943E-05-2.94368E-05-1.58682E-07 5.14169E-20 2.16748E-19
 -1      4251 9.59254E-05-2.89596E-05-2.87006E-05-1.83238E-07-1.48548E-20 2.53930E-19
 -1      4252 9.66691E-05-3.10396E-05-2.81351E-05-7.83581E-06 1.11825E-19 1.76217E-18
 -1      4253 9.76645E-05-3.18363E-05-2.82219E-05-7.45555E-06-1.31821E-19 1.29771E-18
 -1      4254 9.68770E-05-2.79616E-05-2.95348E-05-7.41804E-08 5.99505E-20 3.24565E-19
 -1      4255 9.69237E-05-2.82973E-05-2.94134E-05-1.28721E-07-1.75644E-19 4.82980E-19
 -1      4256 9.66048E-05-2.91817E-05-2.88967E-05-3.09014E-07 3.85752E-19 3.46638E-19
 -1      4257 9.84796E-05-3.36711E-05-2.77206E-05 1.18682E-05-4.51354E-19-1.01975E-20
 -1      4258 9.65583E-05-2.92094E-05-2.88628E-05-2.12931E-07 4.39602E-19 2.84412E-19
 -1      4259 9.48864E-05-3.17373E-05-2.70962E-05 1.46008E-05-1.74013E-19 2.40849E-19
 -1      4260 9.33989E-05-3.00483E-05-2.71942E-05 1.32118E-05 6.27714E-20-5.64667E-19
 -3
    1PSTEP                         4           1           1          
  100CL  101 1.000000000        4260                     0    1           1
 -4  ERROR       1    1
 -5  STR(%)      1    1    0    0
 -1         1 4.89509E+01
 -1         2 2.38678E+01
 -1         3 4.64865E-02
 -1         4 1.04103E-02
 -1         5 1.40399E+01
 -1         6 1.31441E+01
 -1         7 1.31441E+01
 -1         8 3.66306E+00
 -1         9 1.82308E+00
 -1        10 1.29133E+00
 -1        11 1.04567E+00
 -1        12 8.99070E-01
 -1        13 8.08662E-01
 -1        14 7.53853E-01
 -1        15 7.55799E-01
 -1        16 8.12959E-01
 -1        17 9.00595E-01
 -1        18 1.05228E+00
 -1        19 1.30735E+00
 -1        20 1.83501E+00
 -1        21 3.50485E+00
 -1        22 8.64152E+00
 -1        23 1.31441E+01
 -1        24 4.31883E+00
 -1        25 3.34226E+00
 -1        26 2.11286E+00
 -1        27 1.36430E+00
 -1        28 1.01612E+00
 -1        29 7.77816E-01
 -1        30 5.98838E-01
 -1        31 4.59620E-01
 -1        32 3.51897E-01
 -1        33 2.73918E-01
 -1        34 2.11420E-01
 -1        35 1.62214E-01
 -1        36 1.24113E-01
 -1        37 9.49926E-02
 -1        38 8.39681E-02
 -1        39 7.68975E-02
 -1        40 7.35085E-02
 -1        41 7.42678E-02
 -1        42 8.36052E-02
 -1        43 1.06251E-01
 -1        44 1.26940E-01
 -1        45 1.37977E-01
 -1        46 1.90263E-01
 -1        47 2.37997E-01
 -1        48 3.55887E-01
 -1        49 5.28127E-01
 -1        50 7.08196E-01
 -1        51 1.01496E+00
 -1        52 1.43475E+00
 -1        53 1.92091E+00
 -1        54 2.30079E+00
 -1        55 2.46394E+00
 -1        56 2.46394E+00
 -1        57 2.44744E+00
 -1        58 2.44744E+00
 -1        59 2.23124E+00
 -1        60 1.81966E+00
 -1        61 1.33654E+00
 -1        62 9.35223E-01
 -1        63 6.52054E-01
 -1        64 4.67658E-01
 -1        65 2.96555E-01
 -1        66 1.74282E-01
 -1        67 1.10143E-01
 -1        68 7.52581E-02
 -1        69 5.98843E-02
 -1        70 4.78347E-02
 -1        71 4.19924E-02
 -1        72 1.40399E+01
 -1        73 3.39558E+00
 -1        74 2.41417E+00
 -1        75 1.66714E+00
 -1        76 1.14629E+00
 -1        77 9.07700E-01
 -1        78 7.33670E-01
 -1        79 5.91075E-01
 -1        80 4.72693E-01
 -1        81 3.74763E-01
 -1        82 3.00996E-01
 -1        83 2.41335E-01
 -1        84 1.93119E-01
 -1        85 1.55767E-01
 -1        86 1.28589E-01
 -1        87 1.10993E-01
 -1        88 1.16851E-01
 -1        89 1.39510E-01
 -1        90 1.78050E-01
 -1        91 2.36735E-01
 -1        92 3.21375E-01
 -1        93 4.57199E-01
 -1        94 6.71539E-01
 -1        95 9.75679E-01
 -1        96 1.38181E+00
 -1        97 1.86999E+00
 -1        98 2.35304E+00
 -1        99 2.64607E+00
 -1       100 3.75394E+00
 -1       101 4.86358E+00
 -1       102 4.88800E+00
 -1       103 5.01719E+00
 -1       104 1.04387E+01
 -1       105 1.56673E+01
 -1       106 1.60849E+01
 -1       107 1.60849E+01
 -1       108 1.03066E+01
 -1       109 4.46979E+00
 -1       110 5.75727E+00
 -1       111 5.75727E+00
 -1       112 5.26364E+00
 -1       113 4.19118E+00
 -1       114 3.13411E+00
 -1       115 2.20246E+00
 -1       116 1.47606E+00
 -1       117 9.76470E-01
 -1       118 6.90356E-01
 -1       119 4.77926E-01
 -1       120 3.06452E-01
 -1       121 1.81073E-01
 -1       122 7.53738E-02
 -1       123 7.53738E-02
 -1       124 5.17756E-02
 -1       125 3.91976E-02
 -1       126 5.83078E-02
 -1       127 6.01435E-02
 -1       128 6.01435E-02
 -1       129 4.95209E-02
 -1       130 3.09082E-02
 -1       131 1.09686E-02
 -1       132 1.68175E-02
 -1       133 2.04113E-02
 -1       134 2.04113E-02
 -1       135 1.99542E-02
 -1       136 2.24605E-02
 -1       137 2.31647E-02
 -1       138 2.54752E+01
 -1       139 2.69786E+01
 -1       140 3.19020E+01
 -1       141 3.12005E+01
 -1       142 1.45432E+01
 -1       143 1.34787E+01
 -1       144 1.34881E+01
 -1       145 1.44347E+01
 -1       146 1.44347E+01
 -1       147 2.09814E+01
 -1       148 4.79073E+01
 -1       149 4.79073E+01
 -1       150 2.64853E+01
 -1       151 2.48344E+01
 -1       152 2.48344E+01
 -1       153 4.89509E+01
 -1       154 2.24403E+01
 -1       155 1.14861E+01
 -1       156 1.21512E+01
 -1       157 1.21512E+01
 -1       158 1.31492E+01
 -1       159 1.31492E+01
 -1       160 1.20672E+01
 -1       161 1.85290E+01
 -1       162 4.71713E+01
 -1       163 4.71713E+01
 -1       164 2.37875E+01
 -1       165 6.07722E+00
 -1       166 2.29741E+00
 -1       167 1.50794E+00
 -1       168 1.15724E+00
 -1       169 9.73006E-01
 -1       170 8.63979E-01
 -1       171 7.95951E-01
 -1       172 7.55799E-01
 -1       173 7.99356E-01
 -1       174 8.67076E-01
 -1       175 9.80778E-01
 -1       176 1.17217E+00
 -1       177 1.52714E+00
 -1       178 2.26033E+00
 -1       179 3.93071E+00
 -1       180 1.40399E+01
 -1       181 4.31883E+00
 -1       182 3.34226E+00
 -1       183 2.11286E+00
 -1       184 1.44852E+00
 -1       185 1.02711E+00
 -1       186 7.77816E-01
 -1       187 5.98838E-01
 -1       188 4.71201E-01
 -1       189 3.71852E-01
 -1       190 2.92509E-01
 -1       191 2.35854E-01
 -1       192 1.87544E-01
 -1       193 1.47247E-01
 -1       194 1.14124E-01
 -1       195 8.70696E-02
 -1       196 7.68975E-02
 -1       197 7.35085E-02
 -1       198 7.30969E-02
 -1       199 7.42678E-02
 -1       200 8.36052E-02
 -1       201 1.06251E-01
 -1       202 1.26940E-01
 -1       203 1.37977E-01
 -1       204 1.90263E-01
 -1       205 2.37997E-01
 -1       206 3.82617E-01
 -1       207 6.00963E-01
 -1       208 8.54345E-01
 -1       209 1.12921E+00
 -1       210 1.48600E+00
 -1       211 1.92091E+00
 -1       212 2.30079E+00
 -1       213 2.46394E+00
 -1       214 2.39181E+00
 -1       215 2.44744E+00
 -1       216 2.23124E+00
 -1       217 1.81966E+00
 -1       218 1.41041E+00
 -1       219 1.06845E+00
 -1       220 8.08403E-01
 -1       221 5.65075E-01
 -1       222 3.61474E-01
 -1       223 2.07267E-01
 -1       224 1.10143E-01
 -1       225 7.52581E-02
 -1       226 5.98843E-02
 -1       227 4.78347E-02
 -1       228 4.19924E-02
 -1       229 3.39558E+00
 -1       230 2.41417E+00
 -1       231 1.66714E+00
 -1       232 1.14629E+00
 -1       233 9.07700E-01
 -1       234 7.33670E-01
 -1       235 5.91075E-01
 -1       236 4.72693E-01
 -1       237 3.74763E-01
 -1       238 3.00996E-01
 -1       239 2.41335E-01
 -1       240 1.93701E-01
 -1       241 1.57254E-01
 -1       242 1.29254E-01
 -1       243 1.10993E-01
 -1       244 1.07293E-01
 -1       245 1.17839E-01
 -1       246 1.43098E-01
 -1       247 1.97616E-01
 -1       248 2.79486E-01
 -1       249 4.00425E-01
 -1       250 5.78172E-01
 -1       251 8.27430E-01
 -1       252 1.15708E+00
 -1       253 1.54841E+00
 -1       254 1.97632E+00
 -1       255 2.56359E+00
 -1       256 3.31097E+00
 -1       257 3.76052E+00
 -1       258 4.86358E+00
 -1       259 4.88800E+00
 -1       260 5.78515E+00
 -1       261 1.11456E+01
 -1       262 1.56673E+01
 -1       263 1.60849E+01
 -1       264 1.03066E+01
 -1       265 4.92299E+00
 -1       266 5.57597E+00
 -1       267 5.75727E+00
 -1       268 5.26364E+00
 -1       269 4.19118E+00
 -1       270 3.19436E+00
 -1       271 2.34851E+00
 -1       272 1.63162E+00
 -1       273 1.08340E+00
 -1       274 6.90356E-01
 -1       275 4.77926E-01
 -1       276 3.06452E-01
 -1       277 1.81073E-01
 -1       278 1.50840E-01
 -1       279 1.50840E-01
 -1       280 7.42193E-02
 -1       281 1.07995E-01
 -1       282 1.17631E-01
 -1       283 1.17631E-01
 -1       284 1.11785E-01
 -1       285 8.46922E-02
 -1       286 4.75589E-02
 -1       287 3.05538E-02
 -1       288 3.86820E-02
 -1       289 3.86820E-02
 -1       290 3.86107E-02
 -1       291 3.30818E-02
 -1       292 3.52523E-02
 -1       293 2.90222E+01
 -1       294 2.60178E+01
 -1       295 3.19020E+01
 -1       296 3.19020E+01
 -1       297 1.45432E+01
 -1       298 1.28176E+01
 -1       299 1.34787E+01
 -1       300 1.34881E+01
 -1       301 1.44347E+01
 -1       302 1.26176E+01
 -1       303 2.14285E+01
 -1       304 4.79073E+01
 -1       305 2.81802E+01
 -1       306 3.32061E+01
 -1       307 3.32061E+01
 -1       308 3.17188E+01
 -1       309 4.89509E+01
 -1       310 2.44800E+01
 -1       311 1.14664E+01
 -1       312 1.14861E+01
 -1       313 1.21512E+01
 -1       314 1.15377E+01
 -1       315 1.31492E+01
 -1       316 1.20672E+01
 -1       317 1.06848E+01
 -1       318 2.13483E+01
 -1       319 4.71713E+01
 -1       320 2.89917E+01
 -1       321 2.90222E+01
 -1       322 1.04594E+00
 -1       323 2.47940E+00
 -1       324 7.91484E-01
 -1       325 6.93896E-01
 -1       326 6.31540E-01
 -1       327 5.87482E-01
 -1       328 5.90720E-01
 -1       329 6.34346E-01
 -1       330 7.01037E-01
 -1       331 7.96169E-01
 -1       332 9.31499E-01
 -1       333 1.15943E+00
 -1       334 1.32840E+00
 -1       335 2.20098E+00
 -1       336 1.91447E+00
 -1       337 1.73014E+00
 -1       338 1.26852E+00
 -1       339 9.08327E-01
 -1       340 6.57360E-01
 -1       341 5.40786E-01
 -1       342 4.44189E-01
 -1       343 3.59198E-01
 -1       344 2.92509E-01
 -1       345 2.37192E-01
 -1       346 1.89399E-01
 -1       347 1.50709E-01
 -1       348 1.19707E-01
 -1       349 9.27658E-02
 -1       350 6.95662E-02
 -1       351 6.39349E-02
 -1       352 6.17907E-02
 -1       353 6.09179E-02
 -1       354 5.99544E-02
 -1       355 7.14539E-02
 -1       356 7.75976E-02
 -1       357 7.21328E-02
 -1       358 7.99607E-02
 -1       359 1.76645E-01
 -1       360 3.12084E-01
 -1       361 4.83165E-01
 -1       362 6.80995E-01
 -1       363 9.21618E-01
 -1       364 1.17782E+00
 -1       365 1.41602E+00
 -1       366 1.66188E+00
 -1       367 1.78706E+00
 -1       368 1.76568E+00
 -1       369 1.77882E+00
 -1       370 1.77010E+00
 -1       371 1.61727E+00
 -1       372 1.35397E+00
 -1       373 1.13246E+00
 -1       374 8.74575E-01
 -1       375 6.52819E-01
 -1       376 4.64087E-01
 -1       377 3.05114E-01
 -1       378 1.82729E-01
 -1       379 1.11273E-01
 -1       380 7.34262E-02
 -1       381 5.14296E-02
 -1       382 5.15064E-02
 -1       383 1.13129E+00
 -1       384 8.92304E-01
 -1       385 7.04915E-01
 -1       386 5.46215E-01
 -1       387 4.39877E-01
 -1       388 3.73819E-01
 -1       389 3.10608E-01
 -1       390 2.54514E-01
 -1       391 2.09419E-01
 -1       392 1.72594E-01
 -1       393 1.42417E-01
 -1       394 1.18548E-01
 -1       395 1.00923E-01
 -1       396 9.23387E-02
 -1       397 9.42467E-02
 -1       398 1.18881E-01
 -1       399 1.72346E-01
 -1       400 2.75932E-01
 -1       401 4.34080E-01
 -1       402 6.74427E-01
 -1       403 1.03421E+00
 -1       404 1.55753E+00
 -1       405 2.28225E+00
 -1       406 3.20645E+00
 -1       407 4.23380E+00
 -1       408 5.11658E+00
 -1       409 5.66124E+00
 -1       410 8.16271E+00
 -1       411 8.70045E+00
 -1       412 7.42498E+00
 -1       413 1.16750E+01
 -1       414 1.14156E+01
 -1       415 5.13308E+00
 -1       416 1.00639E+01
 -1       417 7.36505E+00
 -1       418 5.89877E+00
 -1       419 4.96506E+00
 -1       420 3.87830E+00
 -1       421 2.82600E+00
 -1       422 1.95667E+00
 -1       423 1.30301E+00
 -1       424 8.38471E-01
 -1       425 5.19872E-01
 -1       426 3.01694E-01
 -1       427 2.03680E-01
 -1       428 1.66441E-01
 -1       429 2.03680E-01
 -1       430 1.85352E-01
 -1       431 1.85352E-01
 -1       432 1.73470E-01
 -1       433 1.50493E-01
 -1       434 1.00217E-01
 -1       435 6.18215E-02
 -1       436 6.15106E-02
 -1       437 6.15106E-02
 -1       438 5.75985E-02
 -1       439 5.18814E-02
 -1       440 2.63277E+01
 -1       441 3.96403E+01
 -1       442 3.96403E+01
 -1       443 2.22362E+01
 -1       444 1.26412E+01
 -1       445 9.18209E-01
 -1       446 1.17424E+01
 -1       447 1.00146E+01
 -1       448 1.69001E+01
 -1       449 2.81802E+01
 -1       450 2.95011E+01
 -1       451 3.46604E+01
 -1       452 3.46604E+01
 -1       453 3.17188E+01
 -1       454 1.80294E+01
 -1       455 1.03667E+01
 -1       456 7.13380E+00
 -1       457 8.98465E+00
 -1       458 1.10126E+01
 -1       459 1.10817E+01
 -1       460 9.40411E+00
 -1       461 8.17881E+00
 -1       462 8.74779E+00
 -1       463 1.60102E+01
 -1       464 2.89917E+01
 -1       465 2.49313E+01
 -1       466 7.22579E+00
 -1       467 9.11170E+00
 -1       468 8.94266E+00
 -1       469 9.71762E+00
 -1       470 2.35064E+01
 -1       471 1.04873E+00
 -1       472 4.85991E-01
 -1       473 5.09728E-01
 -1       474 4.31518E-01
 -1       475 4.57334E-01
 -1       476 4.86940E-01
 -1       477 5.11083E-01
 -1       478 5.11083E-01
 -1       479 6.08081E-01
 -1       480 2.14113E+01
 -1       481 8.92304E-01
 -1       482 8.02832E-01
 -1       483 7.03018E-01
 -1       484 5.89573E-01
 -1       485 4.77149E-01
 -1       486 3.78232E-01
 -1       487 3.24695E-01
 -1       488 2.74699E-01
 -1       489 2.27237E-01
 -1       490 1.86140E-01
 -1       491 1.51180E-01
 -1       492 1.19971E-01
 -1       493 9.27658E-02
 -1       494 6.95662E-02
 -1       495 4.96469E-02
 -1       496 4.78721E-02
 -1       497 4.77247E-02
 -1       498 4.80594E-02
 -1       499 5.16254E-02
 -1       500 5.77430E-02
 -1       501 7.86011E-02
 -1       502 1.06288E-01
 -1       503 1.46037E-01
 -1       504 2.50526E-01
 -1       505 3.85600E-01
 -1       506 5.41762E-01
 -1       507 7.60312E-01
 -1       508 9.85518E-01
 -1       509 1.16563E+00
 -1       510 1.28993E+00
 -1       511 1.38080E+00
 -1       512 1.37204E+00
 -1       513 1.30699E+00
 -1       514 1.38006E+00
 -1       515 1.37059E+00
 -1       516 1.26104E+00
 -1       517 1.14093E+00
 -1       518 9.51074E-01
 -1       519 7.26071E-01
 -1       520 5.33328E-01
 -1       521 3.85624E-01
 -1       522 2.61650E-01
 -1       523 1.68846E-01
 -1       524 1.11273E-01
 -1       525 7.34262E-02
 -1       526 5.46215E-01
 -1       527 4.39877E-01
 -1       528 3.73819E-01
 -1       529 3.10608E-01
 -1       530 2.54514E-01
 -1       531 2.09515E-01
 -1       532 1.70272E-01
 -1       533 1.36429E-01
 -1       534 1.07784E-01
 -1       535 8.41098E-02
 -1       536 6.76054E-02
 -1       537 7.53231E-02
 -1       538 9.20613E-02
 -1       539 1.45972E-01
 -1       540 2.28973E-01
 -1       541 3.49679E-01
 -1       542 5.26446E-01
 -1       543 7.85400E-01
 -1       544 1.16339E+00
 -1       545 1.71238E+00
 -1       546 2.50786E+00
 -1       547 3.66086E+00
 -1       548 5.34838E+00
 -1       549 7.87853E+00
 -1       550 9.43965E+00
 -1       551 8.74198E-01
 -1       552 1.65629E+01
 -1       553 4.69331E+00
 -1       554 3.11635E+00
 -1       555 2.04063E+00
 -1       556 1.35688E+00
 -1       557 9.04544E-01
 -1       558 6.38474E-01
 -1       559 4.28466E-01
 -1       560 2.90436E-01
 -1       561 2.90436E-01
 -1       562 2.96203E-01
 -1       563 3.96403E+01
 -1       564 2.41060E-01
 -1       565 2.33932E-01
 -1       566 1.73785E-01
 -1       567 1.22281E-01
 -1       568 9.80239E-02
 -1       569 9.80239E-02
 -1       570 9.11644E-02
 -1       571 5.18814E-02
 -1       572 7.04915E-01
 -1       573 2.63277E+01
 -1       574 2.49313E+01
 -1       575 6.56490E+00
 -1       576 2.00143E+01
 -1       577 7.34981E+00
 -1       578 1.51151E+01
 -1       579 4.57224E-01
 -1       580 1.34482E+01
 -1       581 2.95011E+01
 -1       582 3.46604E+01
 -1       583 1.36342E+01
 -1       584 8.68267E+00
 -1       585 5.99052E+00
 -1       586 5.11587E+00
 -1       587 7.52487E+00
 -1       588 5.28242E+00
 -1       589 4.72510E+00
 -1       590 1.31295E+01
 -1       591 1.32818E+00
 -1       592 7.20665E-01
 -1       593 1.29167E+01
 -1       594 7.77606E+00
 -1       595 7.26350E+00
 -1       596 5.15064E-02
 -1       597 1.52764E+01
 -1       598 3.58241E-01
 -1       599 3.42817E-01
 -1       600 3.61798E-01
 -1       601 3.37845E-01
 -1       602 1.00019E+01
 -1       603 5.43818E-01
 -1       604 4.04996E-01
 -1       605 3.97657E-01
 -1       606 3.84360E-01
 -1       607 3.43298E-01
 -1       608 2.93247E-01
 -1       609 2.42904E-01
 -1       610 2.11144E-01
 -1       611 1.77449E-01
 -1       612 1.44736E-01
 -1       613 1.16045E-01
 -1       614 9.08265E-02
 -1       615 6.87395E-02
 -1       616 4.94177E-02
 -1       617 3.24745E-02
 -1       618 3.33451E-02
 -1       619 3.61852E-02
 -1       620 4.67018E-02
 -1       621 5.91756E-02
 -1       622 7.86011E-02
 -1       623 1.16056E-01
 -1       624 1.72898E-01
 -1       625 2.50526E-01
 -1       626 3.85600E-01
 -1       627 5.41762E-01
 -1       628 6.97588E-01
 -1       629 8.65548E-01
 -1       630 1.02691E+00
 -1       631 1.16190E+00
 -1       632 1.23536E+00
 -1       633 1.33350E+00
 -1       634 1.20045E+00
 -1       635 1.25802E+00
 -1       636 1.31555E+00
 -1       637 1.22880E+00
 -1       638 1.15000E+00
 -1       639 9.98694E-01
 -1       640 8.48981E-01
 -1       641 6.86917E-01
 -1       642 5.33328E-01
 -1       643 3.85624E-01
 -1       644 2.61650E-01
 -1       645 1.69020E-01
 -1       646 1.22923E-01
 -1       647 2.78211E-01
 -1       648 1.63377E+01
 -1       649 2.73107E-01
 -1       650 3.96887E-01
 -1       651 2.35523E-01
 -1       652 1.98385E-01
 -1       653 1.63809E-01
 -1       654 1.32946E-01
 -1       655 1.06015E-01
 -1       656 8.25697E-02
 -1       657 6.16095E-02
 -1       658 5.15403E-02
 -1       659 5.98529E-02
 -1       660 9.98065E-02
 -1       661 1.55862E-01
 -1       662 2.31213E-01
 -1       663 3.65046E-01
 -1       664 5.80746E-01
 -1       665 9.09821E-01
 -1       666 1.40987E+00
 -1       667 2.16457E+00
 -1       668 3.34494E+00
 -1       669 5.36981E+00
 -1       670 9.09816E+00
 -1       671 1.68576E+01
 -1       672 1.81311E+00
 -1       673 1.64538E+01
 -1       674 6.65161E-01
 -1       675 1.22326E+01
 -1       676 3.28309E-01
 -1       677 2.81390E+00
 -1       678 4.39814E+00
 -1       679 1.15223E+00
 -1       680 8.54680E-01
 -1       681 3.39632E-01
 -1       682 3.74217E-01
 -1       683 2.12281E-01
 -1       684 1.72650E-01
 -1       685 1.52226E-01
 -1       686 1.40687E-01
 -1       687 1.08154E+01
 -1       688 3.40923E+00
 -1       689 1.63491E+01
 -1       690 3.85828E+00
 -1       691 7.15719E+00
 -1       692 5.15727E-01
 -1       693 4.64504E-01
 -1       694 1.78755E+01
 -1       695 5.98924E-01
 -1       696 3.52218E+00
 -1       697 5.56764E+00
 -1       698 3.61798E-01
 -1       699 3.62314E-01
 -1       700 7.23922E-02
 -1       701 5.86958E+00
 -1       702 5.65529E+00
 -1       703 1.07356E+01
 -1       704 4.27879E+00
 -1       705 4.17336E-01
 -1       706 3.42341E-01
 -1       707 3.57816E-01
 -1       708 6.04227E+00
 -1       709 4.27608E-01
 -1       710 7.51147E+00
 -1       711 9.74868E+00
 -1       712 3.83077E+00
 -1       713 1.01622E+01
 -1       714 2.41743E-01
 -1       715 8.86039E+00
 -1       716 1.87288E-01
 -1       717 2.27793E+00
 -1       718 2.34323E-01
 -1       719 2.55596E-01
 -1       720 2.48203E-01
 -1       721 2.25799E-01
 -1       722 1.96592E-01
 -1       723 1.69813E-01
 -1       724 1.47325E-01
 -1       725 1.23229E-01
 -1       726 9.92643E-02
 -1       727 7.62990E-02
 -1       728 5.45844E-02
 -1       729 3.39893E-02
 -1       730 1.75790E-02
 -1       731 2.57564E-02
 -1       732 4.37047E-02
 -1       733 6.02111E-02
 -1       734 8.34980E-02
 -1       735 1.16056E-01
 -1       736 1.72898E-01
 -1       737 2.49629E-01
 -1       738 3.60736E-01
 -1       739 5.04133E-01
 -1       740 6.93149E-01
 -1       741 8.65548E-01
 -1       742 1.05235E+00
 -1       743 1.15436E+00
 -1       744 1.23496E+00
 -1       745 1.48737E+00
 -1       746 1.53732E+00
 -1       747 1.33936E+00
 -1       748 1.60736E+00
 -1       749 1.39337E+00
 -1       750 1.20797E+00
 -1       751 1.15769E+00
 -1       752 1.02019E+00
 -1       753 8.48981E-01
 -1       754 6.71795E-01
 -1       755 4.90160E-01
 -1       756 3.36368E-01
 -1       757 2.31391E-01
 -1       758 1.69020E-01
 -1       759 2.90652E-01
 -1       760 1.30244E+00
 -1       761 2.16257E-01
 -1       762 1.32884E-01
 -1       763 1.06265E-01
 -1       764 8.11385E-02
 -1       765 5.73956E-02
 -1       766 3.44103E-02
 -1       767 3.56382E-02
 -1       768 7.00353E-02
 -1       769 1.22737E-01
 -1       770 2.00281E-01
 -1       771 3.12688E-01
 -1       772 4.77607E-01
 -1       773 7.21746E-01
 -1       774 1.08758E+00
 -1       775 1.64742E+00
 -1       776 2.53491E+00
 -1       777 4.01019E+00
 -1       778 6.16482E+00
 -1       779 1.07948E+01
 -1       780 7.15719E+00
 -1       781 3.38263E-01
 -1       782 3.83643E+00
 -1       783 1.97443E+00
 -1       784 7.96001E-01
 -1       785 3.10838E+00
 -1       786 4.35292E-01
 -1       787 8.61038E+00
 -1       788 9.83985E+00
 -1       789 5.44129E+00
 -1       790 4.62343E-01
 -1       791 2.14878E-01
 -1       792 1.53931E-01
 -1       793 2.85908E-01
 -1       794 2.88006E-01
 -1       795 5.97274E+00
 -1       796 6.52555E+00
 -1       797 2.53641E-01
 -1       798 4.62343E-01
 -1       799 1.08154E+01
 -1       800 2.81852E-01
 -1       801 2.66168E-01
 -1       802 2.58617E+00
 -1       803 1.60413E-01
 -1       804 3.63875E+00
 -1       805 3.54298E+00
 -1       806 2.81580E-01
 -1       807 2.82042E-01
 -1       808 2.56525E+00
 -1       809 2.81220E-01
 -1       810 9.38361E-01
 -1       811 5.88088E+00
 -1       812 2.96311E+00
 -1       813 2.40147E-01
 -1       814 2.88006E-01
 -1       815 3.57843E+00
 -1       816 4.29887E+00
 -1       817 2.74610E-01
 -1       818 6.89391E+00
 -1       819 2.88556E-01
 -1       820 2.88556E-01
 -1       821 3.38069E+00
 -1       822 1.74550E-01
 -1       823 1.81894E-01
 -1       824 1.74016E-01
 -1       825 1.57384E-01
 -1       826 1.36438E-01
 -1       827 1.20235E-01
 -1       828 1.02101E-01
 -1       829 8.30923E-02
 -1       830 6.40650E-02
 -1       831 4.52798E-02
 -1       832 3.55542E-02
 -1       833 3.00157E-02
 -1       834 4.36437E-02
 -1       835 6.10001E-02
 -1       836 8.74028E-02
 -1       837 1.20337E-01
 -1       838 1.69131E-01
 -1       839 2.49629E-01
 -1       840 3.60736E-01
 -1       841 4.91634E-01
 -1       842 6.79690E-01
 -1       843 8.49652E-01
 -1       844 1.05235E+00
 -1       845 1.28388E+00
 -1       846 1.39427E+00
 -1       847 2.94560E+00
 -1       848 2.15467E+00
 -1       849 2.96262E+00
 -1       850 2.51321E+00
 -1       851 3.55003E+00
 -1       852 2.71050E+00
 -1       853 1.61560E+00
 -1       854 1.27076E+00
 -1       855 1.02019E+00
 -1       856 8.21463E-01
 -1       857 6.32675E-01
 -1       858 4.53423E-01
 -1       859 3.36368E-01
 -1       860 2.09797E-01
 -1       861 2.88441E-01
 -1       862 8.99108E-02
 -1       863 1.11041E-01
 -1       864 4.90594E-02
 -1       865 4.86398E-02
 -1       866 5.68975E-02
 -1       867 9.69104E-02
 -1       868 1.51749E-01
 -1       869 2.26067E-01
 -1       870 3.27334E-01
 -1       871 4.65011E-01
 -1       872 6.66886E-01
 -1       873 1.05113E+00
 -1       874 1.64567E+00
 -1       875 2.54732E+00
 -1       876 3.75887E+00
 -1       877 5.67664E+00
 -1       878 4.60726E-01
 -1       879 1.36600E+00
 -1       880 6.12665E+00
 -1       881 2.05749E+00
 -1       882 5.16500E-01
 -1       883 6.19319E+00
 -1       884 5.44129E+00
 -1       885 6.89391E+00
 -1       886 1.00248E+00
 -1       887 2.09312E-01
 -1       888 6.91518E-02
 -1       889 1.95518E-01
 -1       890 1.73913E-01
 -1       891 5.76526E+00
 -1       892 1.41684E-01
 -1       893 2.16858E+00
 -1       894 1.47257E-01
 -1       895 3.88447E+00
 -1       896 3.88480E-01
 -1       897 2.94560E+00
 -1       898 5.84917E+00
 -1       899 1.65735E-01
 -1       900 2.67839E+00
 -1       901 2.69238E+00
 -1       902 2.19680E-01
 -1       903 2.47908E+00
 -1       904 5.60048E-01
 -1       905 1.31663E-01
 -1       906 3.15510E+00
 -1       907 7.48290E-01
 -1       908 3.55003E+00
 -1       909 1.00248E+00
 -1       910 2.05915E-01
 -1       911 4.76100E+00
 -1       912 1.93088E-01
 -1       913 1.50092E-01
 -1       914 2.34330E-01
 -1       915 3.65576E+00
 -1       916 1.23725E-01
 -1       917 1.35412E-01
 -1       918 1.34205E-01
 -1       919 1.24587E-01
 -1       920 1.10173E-01
 -1       921 9.59369E-02
 -1       922 8.21351E-02
 -1       923 6.72043E-02
 -1       924 5.33963E-02
 -1       925 5.00439E-02
 -1       926 4.67815E-02
 -1       927 4.92083E-02
 -1       928 6.78896E-02
 -1       929 8.93940E-02
 -1       930 1.27548E-01
 -1       931 1.84575E-01
 -1       932 2.51418E-01
 -1       933 3.50172E-01
 -1       934 4.91634E-01
 -1       935 6.79690E-01
 -1       936 8.96903E-01
 -1       937 1.69108E+00
 -1       938 2.06843E+00
 -1       939 2.16858E+00
 -1       940 2.54422E+00
 -1       941 3.20296E+00
 -1       942 1.73340E+00
 -1       943 1.27076E+00
 -1       944 1.12155E+00
 -1       945 8.33691E-01
 -1       946 6.32675E-01
 -1       947 4.48534E-01
 -1       948 3.88480E-01
 -1       949 9.04138E-02
 -1       950 1.61173E-01
 -1       951 6.12820E-02
 -1       952 5.62260E-02
 -1       953 1.08270E-01
 -1       954 1.59604E-01
 -1       955 2.37378E-01
 -1       956 3.52540E-01
 -1       957 5.18783E-01
 -1       958 7.50775E-01
 -1       959 1.11470E+00
 -1       960 1.90314E+00
 -1       961 3.26727E+00
 -1       962 5.16310E+00
 -1       963 2.14995E-01
 -1       964 1.45963E-01
 -1       965 1.86246E+00
 -1       966 7.17651E-01
 -1       967 2.34330E-01
 -1       968 1.21945E+00
 -1       969 1.50857E-01
 -1       970 4.76100E+00
 -1       971 1.54955E-01
 -1       972 4.70172E+00
 -1       973 3.34112E+00
 -1       974 2.83183E+00
 -1       975 1.80939E-01
 -1       976 9.93375E-02
 -1       977 2.14995E-01
 -1       978 7.63266E-02
 -1       979 2.78503E+00
 -1       980 3.53258E+00
 -1       981 2.58179E+00
 -1       982 4.51955E-01
 -1       983 1.21945E+00
 -1       984 2.71050E+00
 -1       985 1.05948E-01
 -1       986 5.78995E-02
 -1       987 5.83543E+00
 -1       988 1.56104E-01
 -1       989 1.38276E-01
 -1       990 1.03825E-01
 -1       991 7.39793E-02
 -1       992 1.72368E-01
 -1       993 3.55003E+00
 -1       994 1.01524E-01
 -1       995 1.02596E-01
 -1       996 9.66967E-02
 -1       997 8.65153E-02
 -1       998 7.40216E-02
 -1       999 6.57900E-02
 -1      1000 6.14553E-02
 -1      1001 6.11006E-02
 -1      1002 6.01046E-02
 -1      1003 6.24423E-02
 -1      1004 7.00104E-02
 -1      1005 9.73882E-02
 -1      1006 1.33827E-01
 -1      1007 1.79988E-01
 -1      1008 2.70939E-01
 -1      1009 3.91802E-01
 -1      1010 5.27224E-01
 -1      1011 6.86024E-01
 -1      1012 1.01284E+00
 -1      1013 1.91843E+00
 -1      1014 3.93786E-01
 -1      1015 1.56251E+00
 -1      1016 1.34262E+00
 -1      1017 9.29972E-01
 -1      1018 6.19275E-01
 -1      1019 1.06101E-01
 -1      1020 3.49555E+00
 -1      1021 1.87180E-01
 -1      1022 1.35943E-01
 -1      1023 3.55021E-01
 -1      1024 5.73301E-01
 -1      1025 8.95567E-01
 -1      1026 1.35982E+00
 -1      1027 1.90314E+00
 -1      1028 3.63070E+00
 -1      1029 2.83183E+00
 -1      1030 1.61173E-01
 -1      1031 1.21054E-01
 -1      1032 2.57060E-01
 -1      1033 6.23201E-02
 -1      1034 3.05656E+00
 -1      1035 9.00746E-02
 -1      1036 1.72368E-01
 -1      1037 1.86246E+00
 -1      1038 1.16957E+00
 -1      1039 9.99991E-02
 -1      1040 7.58253E-02
 -1      1041 2.47773E+00
 -1      1042 8.29153E-02
 -1      1043 8.01376E-02
 -1      1044 1.07003E-01
 -1      1045 2.47954E+00
 -1      1046 1.15869E-01
 -1      1047 9.92242E-02
 -1      1048 1.15769E-01
 -1      1049 7.14204E-02
 -1      1050 1.03715E-01
 -1      1051 6.95470E-01
 -1      1052 2.39999E+00
 -1      1053 1.07003E-01
 -1      1054 9.56808E-02
 -1      1055 8.47552E-02
 -1      1056 7.34300E-02
 -1      1057 9.86008E-02
 -1      1058 7.03152E-02
 -1      1059 6.57900E-02
 -1      1060 8.73530E-02
 -1      1061 6.27705E-02
 -1      1062 7.35890E-02
 -1      1063 1.00138E-01
 -1      1064 1.38990E-01
 -1      1065 2.06227E-01
 -1      1066 3.13107E-01
 -1      1067 4.71951E-01
 -1      1068 6.95591E-01
 -1      1069 9.86553E-01
 -1      1070 1.30721E+00
 -1      1071 1.73448E+00
 -1      1072 1.92809E+00
 -1      1073 2.06227E-01
 -1      1074 4.78129E-01
 -1      1075 3.13107E-01
 -1      1076 1.38571E+00
 -1      1077 4.71951E-01
 -1      1078 9.86553E-01
 -1      1079 6.95591E-01
 -1      1080 1.73448E+00
 -1      1081 1.71383E+00
 -1      1082 2.20608E+00
 -1      1083 1.72023E+00
 -1      1084 6.92815E-02
 -1      1085 7.18637E-02
 -1      1086 1.30721E+00
 -1      1087 1.37578E-01
 -1      1088 1.08246E-01
 -1      1089 8.06841E-02
 -1      1090 9.61456E-02
 -1      1091 8.76402E-02
 -1      1092 8.73530E-02
 -1      1093 5.70536E-02
 -1      1094 9.86008E-02
 -1      1095 5.50719E-02
 -1      1096 8.61802E-02
 -1      1097 9.68384E-02
 -1      1098 8.47552E-02
 -1      1099 7.45012E-02
 -1      1100 9.86008E-02
 -1      1101 8.73530E-02
 -1      1102 1.06173E+00
 -1      1103 6.69769E-02
 -1      1104 7.01606E-02
 -1      1105 6.01353E-02
 -1      1106 1.73448E+00
 -1      1107 1.31441E+01
 -1      1108 8.40356E+00
 -1      1109 2.74307E+00
 -1      1110 1.55721E+00
 -1      1111 1.16850E+00
 -1      1112 9.72372E-01
 -1      1113 8.53866E-01
 -1      1114 7.81257E-01
 -1      1115 7.54826E-01
 -1      1116 7.84379E-01
 -1      1117 8.56777E-01
 -1      1118 9.76440E-01
 -1      1119 1.17982E+00
 -1      1120 1.57118E+00
 -1      1121 2.66993E+00
 -1      1122 6.07319E+00
 -1      1123 1.13407E+01
 -1      1124 1.31441E+01
 -1      1125 8.73144E+00
 -1      1126 3.83055E+00
 -1      1127 2.72756E+00
 -1      1128 1.73858E+00
 -1      1129 1.19021E+00
 -1      1130 8.96969E-01
 -1      1131 6.88327E-01
 -1      1132 5.29229E-01
 -1      1133 4.05759E-01
 -1      1134 3.12908E-01
 -1      1135 2.42669E-01
 -1      1136 1.86817E-01
 -1      1137 1.43164E-01
 -1      1138 1.09553E-01
 -1      1139 8.94804E-02
 -1      1140 8.04328E-02
 -1      1141 7.52030E-02
 -1      1142 7.38881E-02
 -1      1143 7.89365E-02
 -1      1144 9.49280E-02
 -1      1145 1.16595E-01
 -1      1146 1.32458E-01
 -1      1147 1.64120E-01
 -1      1148 2.14130E-01
 -1      1149 2.96942E-01
 -1      1150 4.42007E-01
 -1      1151 6.18162E-01
 -1      1152 8.61577E-01
 -1      1153 1.22486E+00
 -1      1154 1.67783E+00
 -1      1155 2.11085E+00
 -1      1156 2.38236E+00
 -1      1157 2.46394E+00
 -1      1158 2.45569E+00
 -1      1159 2.44744E+00
 -1      1160 2.33934E+00
 -1      1161 2.02545E+00
 -1      1162 1.57810E+00
 -1      1163 1.13588E+00
 -1      1164 7.93638E-01
 -1      1165 5.59856E-01
 -1      1166 3.82106E-01
 -1      1167 2.35418E-01
 -1      1168 1.42212E-01
 -1      1169 9.27003E-02
 -1      1170 6.75712E-02
 -1      1171 5.38595E-02
 -1      1172 4.49136E-02
 -1      1173 2.62013E-02
 -1      1174 1.40399E+01
 -1      1175 8.71775E+00
 -1      1176 2.90487E+00
 -1      1177 2.04065E+00
 -1      1178 1.40671E+00
 -1      1179 1.02699E+00
 -1      1180 8.20685E-01
 -1      1181 6.62373E-01
 -1      1182 5.31884E-01
 -1      1183 4.23728E-01
 -1      1184 3.37880E-01
 -1      1185 2.71165E-01
 -1      1186 2.17227E-01
 -1      1187 1.74443E-01
 -1      1188 1.42178E-01
 -1      1189 1.19791E-01
 -1      1190 1.13922E-01
 -1      1191 1.28181E-01
 -1      1192 1.58780E-01
 -1      1193 2.07393E-01
 -1      1194 2.79055E-01
 -1      1195 3.89287E-01
 -1      1196 5.64369E-01
 -1      1197 8.23609E-01
 -1      1198 1.17874E+00
 -1      1199 1.62590E+00
 -1      1200 2.11151E+00
 -1      1201 2.49955E+00
 -1      1202 3.20000E+00
 -1      1203 4.30876E+00
 -1      1204 4.87579E+00
 -1      1205 4.95259E+00
 -1      1206 7.72796E+00
 -1      1207 1.30530E+01
 -1      1208 1.58761E+01
 -1      1209 1.60849E+01
 -1      1210 1.31957E+01
 -1      1211 7.38821E+00
 -1      1212 5.11353E+00
 -1      1213 5.75727E+00
 -1      1214 5.51045E+00
 -1      1215 4.72741E+00
 -1      1216 3.66264E+00
 -1      1217 2.66829E+00
 -1      1218 1.83926E+00
 -1      1219 1.22626E+00
 -1      1220 8.33413E-01
 -1      1221 5.84141E-01
 -1      1222 3.92189E-01
 -1      1223 2.43763E-01
 -1      1224 1.13780E-01
 -1      1225 6.09301E-02
 -1      1226 7.53738E-02
 -1      1227 6.35747E-02
 -1      1228 4.54866E-02
 -1      1229 4.87527E-02
 -1      1230 5.92256E-02
 -1      1231 6.01435E-02
 -1      1232 5.48322E-02
 -1      1233 4.02146E-02
 -1      1234 2.09384E-02
 -1      1235 1.38930E-02
 -1      1236 1.86144E-02
 -1      1237 2.04113E-02
 -1      1238 2.01827E-02
 -1      1239 2.12073E-02
 -1      1240 2.28126E-02
 -1      1241 1.67875E-02
 -1      1242 2.46715E+01
 -1      1243 2.62269E+01
 -1      1244 2.94403E+01
 -1      1245 3.15512E+01
 -1      1246 2.28719E+01
 -1      1247 1.40110E+01
 -1      1248 1.34834E+01
 -1      1249 1.39614E+01
 -1      1250 1.44347E+01
 -1      1251 1.77080E+01
 -1      1252 3.44444E+01
 -1      1253 4.79073E+01
 -1      1254 3.71963E+01
 -1      1255 2.56599E+01
 -1      1256 2.48344E+01
 -1      1257 3.68927E+01
 -1      1258 4.89509E+01
 -1      1259 3.56956E+01
 -1      1260 1.69632E+01
 -1      1261 1.18187E+01
 -1      1262 1.21512E+01
 -1      1263 1.26502E+01
 -1      1264 1.31492E+01
 -1      1265 1.26082E+01
 -1      1266 1.52981E+01
 -1      1267 3.28501E+01
 -1      1268 4.71713E+01
 -1      1269 3.54794E+01
 -1      1270 2.38276E+01
 -1      1271 1.31441E+01
 -1      1272 4.87014E+00
 -1      1273 9.61064E+00
 -1      1274 2.06025E+00
 -1      1275 2.98024E+00
 -1      1276 4.18732E+00
 -1      1277 1.39964E+00
 -1      1278 1.66551E+00
 -1      1279 1.90268E+00
 -1      1280 1.10146E+00
 -1      1281 1.22428E+00
 -1      1282 1.33259E+00
 -1      1283 9.36038E-01
 -1      1284 1.00934E+00
 -1      1285 1.06512E+00
 -1      1286 8.36321E-01
 -1      1287 8.81525E-01
 -1      1288 9.18493E-01
 -1      1289 7.74902E-01
 -1      1290 8.02306E-01
 -1      1291 8.29965E-01
 -1      1292 7.55799E-01
 -1      1293 7.54826E-01
 -1      1294 7.75875E-01
 -1      1295 8.06158E-01
 -1      1296 7.77578E-01
 -1      1297 7.77578E-01
 -1      1298 8.83836E-01
 -1      1299 8.40017E-01
 -1      1300 8.33216E-01
 -1      1301 1.01653E+00
 -1      1302 9.40686E-01
 -1      1303 9.23927E-01
 -1      1304 1.23976E+00
 -1      1305 1.11223E+00
 -1      1306 1.07647E+00
 -1      1307 1.68107E+00
 -1      1308 1.41724E+00
 -1      1309 1.34965E+00
 -1      1310 2.88259E+00
 -1      1311 2.04767E+00
 -1      1312 1.89373E+00
 -1      1313 6.28612E+00
 -1      1314 3.71778E+00
 -1      1315 3.09552E+00
 -1      1316 1.40399E+01
 -1      1317 1.13407E+01
 -1      1318 8.98532E+00
 -1      1319 1.40399E+01
 -1      1320 8.73144E+00
 -1      1321 4.31883E+00
 -1      1322 3.83055E+00
 -1      1323 3.34226E+00
 -1      1324 3.83055E+00
 -1      1325 2.72756E+00
 -1      1326 2.11286E+00
 -1      1327 2.72756E+00
 -1      1328 1.78069E+00
 -1      1329 1.40641E+00
 -1      1330 1.78069E+00
 -1      1331 1.19571E+00
 -1      1332 1.02162E+00
 -1      1333 1.23782E+00
 -1      1334 8.96969E-01
 -1      1335 7.77816E-01
 -1      1336 9.02465E-01
 -1      1337 6.88327E-01
 -1      1338 5.98838E-01
 -1      1339 6.88327E-01
 -1      1340 5.35020E-01
 -1      1341 4.65411E-01
 -1      1342 5.35020E-01
 -1      1343 4.15736E-01
 -1      1344 3.61874E-01
 -1      1345 4.21526E-01
 -1      1346 3.22203E-01
 -1      1347 2.83213E-01
 -1      1348 3.32180E-01
 -1      1349 2.54886E-01
 -1      1350 2.23637E-01
 -1      1351 2.64182E-01
 -1      1352 1.99482E-01
 -1      1353 1.74879E-01
 -1      1354 2.11699E-01
 -1      1355 1.54731E-01
 -1      1356 1.35680E-01
 -1      1357 1.67396E-01
 -1      1358 1.19119E-01
 -1      1359 1.04558E-01
 -1      1360 1.30686E-01
 -1      1361 9.10311E-02
 -1      1362 8.55189E-02
 -1      1363 1.00597E-01
 -1      1364 8.04328E-02
 -1      1365 7.68975E-02
 -1      1366 8.19836E-02
 -1      1367 7.52030E-02
 -1      1368 7.35085E-02
 -1      1369 7.52030E-02
 -1      1370 7.33027E-02
 -1      1371 7.36824E-02
 -1      1372 7.33027E-02
 -1      1373 7.42678E-02
 -1      1374 7.89365E-02
 -1      1375 7.36824E-02
 -1      1376 8.36052E-02
 -1      1377 9.49280E-02
 -1      1378 7.89365E-02
 -1      1379 1.06251E-01
 -1      1380 1.16595E-01
 -1      1381 9.49280E-02
 -1      1382 1.26940E-01
 -1      1383 1.32458E-01
 -1      1384 1.16595E-01
 -1      1385 1.37977E-01
 -1      1386 1.64120E-01
 -1      1387 1.32458E-01
 -1      1388 1.90263E-01
 -1      1389 2.14130E-01
 -1      1390 1.64120E-01
 -1      1391 2.37997E-01
 -1      1392 2.96942E-01
 -1      1393 2.14130E-01
 -1      1394 3.69252E-01
 -1      1395 4.55372E-01
 -1      1396 3.10307E-01
 -1      1397 5.64545E-01
 -1      1398 6.54580E-01
 -1      1399 4.91790E-01
 -1      1400 7.81271E-01
 -1      1401 9.34652E-01
 -1      1402 7.27654E-01
 -1      1403 1.07209E+00
 -1      1404 1.28198E+00
 -1      1405 9.91779E-01
 -1      1406 1.46038E+00
 -1      1407 1.70346E+00
 -1      1408 1.30761E+00
 -1      1409 1.92091E+00
 -1      1410 2.11085E+00
 -1      1411 1.70346E+00
 -1      1412 2.30079E+00
 -1      1413 2.38236E+00
 -1      1414 2.11085E+00
 -1      1415 2.46394E+00
 -1      1416 2.46394E+00
 -1      1417 2.38236E+00
 -1      1418 2.42788E+00
 -1      1419 2.41963E+00
 -1      1420 2.42788E+00
 -1      1421 2.44744E+00
 -1      1422 2.44744E+00
 -1      1423 2.41963E+00
 -1      1424 2.33934E+00
 -1      1425 2.23124E+00
 -1      1426 2.33934E+00
 -1      1427 2.02545E+00
 -1      1428 1.81966E+00
 -1      1429 2.02545E+00
 -1      1430 1.61503E+00
 -1      1431 1.37347E+00
 -1      1432 1.61503E+00
 -1      1433 1.20250E+00
 -1      1434 1.00184E+00
 -1      1435 1.23943E+00
 -1      1436 8.71813E-01
 -1      1437 7.30228E-01
 -1      1438 9.38429E-01
 -1      1439 6.08564E-01
 -1      1440 5.16366E-01
 -1      1441 6.86739E-01
 -1      1442 4.14566E-01
 -1      1443 3.29014E-01
 -1      1444 4.63274E-01
 -1      1445 2.51911E-01
 -1      1446 1.90775E-01
 -1      1447 2.84370E-01
 -1      1448 1.42212E-01
 -1      1449 1.10143E-01
 -1      1450 1.58705E-01
 -1      1451 9.27003E-02
 -1      1452 7.52581E-02
 -1      1453 9.27003E-02
 -1      1454 6.75712E-02
 -1      1455 5.98843E-02
 -1      1456 6.75712E-02
 -1      1457 5.38595E-02
 -1      1458 4.78347E-02
 -1      1459 5.38595E-02
 -1      1460 4.49136E-02
 -1      1461 4.19924E-02
 -1      1462 4.49136E-02
 -1      1463 3.25786E-02
 -1      1464 3.25786E-02
 -1      1465 3.39558E+00
 -1      1466 8.71775E+00
 -1      1467 8.71775E+00
 -1      1468 2.41417E+00
 -1      1469 2.90487E+00
 -1      1470 2.90487E+00
 -1      1471 1.66714E+00
 -1      1472 2.04065E+00
 -1      1473 2.04065E+00
 -1      1474 1.14629E+00
 -1      1475 1.40671E+00
 -1      1476 1.40671E+00
 -1      1477 9.07700E-01
 -1      1478 1.02699E+00
 -1      1479 1.02699E+00
 -1      1480 7.33670E-01
 -1      1481 8.20685E-01
 -1      1482 8.20685E-01
 -1      1483 5.91075E-01
 -1      1484 6.62373E-01
 -1      1485 6.62373E-01
 -1      1486 4.72693E-01
 -1      1487 5.31884E-01
 -1      1488 5.31884E-01
 -1      1489 3.74763E-01
 -1      1490 4.23728E-01
 -1      1491 4.23728E-01
 -1      1492 3.00996E-01
 -1      1493 3.37880E-01
 -1      1494 3.37880E-01
 -1      1495 2.41335E-01
 -1      1496 2.71165E-01
 -1      1497 2.71165E-01
 -1      1498 1.93410E-01
 -1      1499 2.17518E-01
 -1      1500 2.17518E-01
 -1      1501 1.56511E-01
 -1      1502 1.75186E-01
 -1      1503 1.75477E-01
 -1      1504 1.28922E-01
 -1      1505 1.42511E-01
 -1      1506 1.43254E-01
 -1      1507 1.10993E-01
 -1      1508 1.19791E-01
 -1      1509 1.20123E-01
 -1      1510 1.12072E-01
 -1      1511 1.09143E-01
 -1      1512 1.09143E-01
 -1      1513 1.28674E-01
 -1      1514 1.17345E-01
 -1      1515 1.12566E-01
 -1      1516 1.60574E-01
 -1      1517 1.41304E-01
 -1      1518 1.30468E-01
 -1      1519 2.17176E-01
 -1      1520 1.87833E-01
 -1      1521 1.70357E-01
 -1      1522 3.00430E-01
 -1      1523 2.58110E-01
 -1      1524 2.38551E-01
 -1      1525 4.28812E-01
 -1      1526 3.60900E-01
 -1      1527 3.39955E-01
 -1      1528 6.24856E-01
 -1      1529 5.17685E-01
 -1      1530 4.89299E-01
 -1      1531 9.01555E-01
 -1      1532 7.49484E-01
 -1      1533 7.02801E-01
 -1      1534 1.26944E+00
 -1      1535 1.06638E+00
 -1      1536 9.92255E-01
 -1      1537 1.70920E+00
 -1      1538 1.46511E+00
 -1      1539 1.35275E+00
 -1      1540 2.16468E+00
 -1      1541 1.92316E+00
 -1      1542 1.76237E+00
 -1      1543 2.60483E+00
 -1      1544 2.45831E+00
 -1      1545 2.26996E+00
 -1      1546 3.53245E+00
 -1      1547 2.97852E+00
 -1      1548 2.93728E+00
 -1      1549 4.31205E+00
 -1      1550 3.75723E+00
 -1      1551 3.53574E+00
 -1      1552 4.87579E+00
 -1      1553 4.86358E+00
 -1      1554 4.31205E+00
 -1      1555 4.95259E+00
 -1      1556 4.88800E+00
 -1      1557 4.87579E+00
 -1      1558 8.11195E+00
 -1      1559 5.40117E+00
 -1      1560 5.33658E+00
 -1      1561 1.34064E+01
 -1      1562 1.07922E+01
 -1      1563 8.46537E+00
 -1      1564 1.58761E+01
 -1      1565 1.56673E+01
 -1      1566 1.34064E+01
 -1      1567 1.60849E+01
 -1      1568 1.60849E+01
 -1      1569 1.58761E+01
 -1      1570 1.03066E+01
 -1      1571 1.31957E+01
 -1      1572 1.31957E+01
 -1      1573 4.69639E+00
 -1      1574 7.61481E+00
 -1      1575 7.61481E+00
 -1      1576 5.66662E+00
 -1      1577 5.02288E+00
 -1      1578 5.24948E+00
 -1      1579 5.75727E+00
 -1      1580 5.75727E+00
 -1      1581 5.66662E+00
 -1      1582 5.26364E+00
 -1      1583 5.51045E+00
 -1      1584 5.51045E+00
 -1      1585 4.19118E+00
 -1      1586 4.72741E+00
 -1      1587 4.72741E+00
 -1      1588 3.16424E+00
 -1      1589 3.69277E+00
 -1      1590 3.69277E+00
 -1      1591 2.27549E+00
 -1      1592 2.74131E+00
 -1      1593 2.77144E+00
 -1      1594 1.55384E+00
 -1      1595 1.91704E+00
 -1      1596 1.99007E+00
 -1      1597 1.02994E+00
 -1      1598 1.27973E+00
 -1      1599 1.35751E+00
 -1      1600 6.90356E-01
 -1      1601 8.33413E-01
 -1      1602 8.86880E-01
 -1      1603 4.77926E-01
 -1      1604 5.84141E-01
 -1      1605 5.84141E-01
 -1      1606 3.06452E-01
 -1      1607 3.92189E-01
 -1      1608 3.92189E-01
 -1      1609 1.81073E-01
 -1      1610 2.43763E-01
 -1      1611 2.43763E-01
 -1      1612 1.28224E-01
 -1      1613 1.13107E-01
 -1      1614 1.13107E-01
 -1      1615 1.01308E-01
 -1      1616 1.13107E-01
 -1      1617 1.50840E-01
 -1      1618 5.67085E-02
 -1      1619 6.29974E-02
 -1      1620 1.12530E-01
 -1      1621 8.31512E-02
 -1      1622 7.35961E-02
 -1      1623 9.11070E-02
 -1      1624 8.88871E-02
 -1      1625 8.79693E-02
 -1      1626 1.12813E-01
 -1      1627 8.88871E-02
 -1      1628 8.88871E-02
 -1      1629 1.17631E-01
 -1      1630 8.06527E-02
 -1      1631 8.59640E-02
 -1      1632 1.14708E-01
 -1      1633 5.78002E-02
 -1      1634 6.71066E-02
 -1      1635 9.82384E-02
 -1      1636 2.92637E-02
 -1      1637 3.92336E-02
 -1      1638 6.61255E-02
 -1      1639 2.36856E-02
 -1      1640 2.07612E-02
 -1      1641 3.90563E-02
 -1      1642 2.95466E-02
 -1      1643 2.77497E-02
 -1      1644 3.46179E-02
 -1      1645 2.95466E-02
 -1      1646 2.95466E-02
 -1      1647 3.86820E-02
 -1      1648 2.92824E-02
 -1      1649 2.95110E-02
 -1      1650 3.86463E-02
 -1      1651 2.77711E-02
 -1      1652 2.65180E-02
 -1      1653 3.58462E-02
 -1      1654 2.92085E-02
 -1      1655 2.88564E-02
 -1      1656 3.41670E-02
 -1      1657 3.86223E-02
 -1      1658 2.72487E+01
 -1      1659 2.64450E+01
 -1      1660 2.64982E+01
 -1      1661 2.57465E+01
 -1      1662 3.19020E+01
 -1      1663 2.94403E+01
 -1      1664 3.15512E+01
 -1      1665 3.19020E+01
 -1      1666 1.45432E+01
 -1      1667 2.28719E+01
 -1      1668 1.31482E+01
 -1      1669 1.36804E+01
 -1      1670 1.34834E+01
 -1      1671 1.34787E+01
 -1      1672 1.39614E+01
 -1      1673 1.34881E+01
 -1      1674 1.44347E+01
 -1      1675 1.44347E+01
 -1      1676 1.67995E+01
 -1      1677 1.35261E+01
 -1      1678 3.46679E+01
 -1      1679 2.12049E+01
 -1      1680 4.79073E+01
 -1      1681 4.79073E+01
 -1      1682 2.73327E+01
 -1      1683 3.80437E+01
 -1      1684 2.90203E+01
 -1      1685 2.98457E+01
 -1      1686 2.90203E+01
 -1      1687 2.90203E+01
 -1      1688 4.03349E+01
 -1      1689 2.82766E+01
 -1      1690 4.89509E+01
 -1      1691 4.89509E+01
 -1      1692 2.34602E+01
 -1      1693 3.67155E+01
 -1      1694 1.14763E+01
 -1      1695 1.69534E+01
 -1      1696 1.18187E+01
 -1      1697 1.14861E+01
 -1      1698 1.21512E+01
 -1      1699 1.21512E+01
 -1      1700 1.23435E+01
 -1      1701 1.18445E+01
 -1      1702 1.31492E+01
 -1      1703 1.31492E+01
 -1      1704 1.20672E+01
 -1      1705 1.26082E+01
 -1      1706 1.46069E+01
 -1      1707 1.13760E+01
 -1      1708 3.42598E+01
 -1      1709 1.99387E+01
 -1      1710 4.71713E+01
 -1      1711 4.71713E+01
 -1      1712 2.63896E+01
 -1      1713 3.80815E+01
 -1      1714 2.64450E+01
 -1      1715 2.64048E+01
 -1      1716 2.32226E+01
 -1      1717 3.19020E+01
 -1      1718 1.28224E-01
 -1      1719 1.65957E-01
 -1      1720 2.75200E+01
 -1      1721 2.89599E+01
 -1      1722 2.90222E+01
 -1      1723 1.36804E+01
 -1      1724 1.31482E+01
 -1      1725 1.34834E+01
 -1      1726 1.39614E+01
 -1      1727 1.35261E+01
 -1      1728 1.70231E+01
 -1      1729 3.46679E+01
 -1      1730 3.80437E+01
 -1      1731 3.06932E+01
 -1      1732 3.32061E+01
 -1      1733 3.24625E+01
 -1      1734 4.03349E+01
 -1      1735 3.67155E+01
 -1      1736 1.79732E+01
 -1      1737 1.14763E+01
 -1      1738 1.18187E+01
 -1      1739 1.18445E+01
 -1      1740 1.23435E+01
 -1      1741 1.26082E+01
 -1      1742 1.13760E+01
 -1      1743 1.60166E+01
 -1      1744 3.42598E+01
 -1      1745 3.80815E+01
 -1      1746 2.90070E+01
 -1      1747 9.61064E+00
 -1      1748 1.27694E+00
 -1      1749 1.67167E+00
 -1      1750 2.38840E+00
 -1      1751 4.27831E+00
 -1      1752 1.76267E+00
 -1      1753 8.82245E-01
 -1      1754 9.74362E-01
 -1      1755 7.78938E-01
 -1      1756 8.33451E-01
 -1      1757 7.42690E-01
 -1      1758 7.13745E-01
 -1      1759 7.47760E-01
 -1      1760 6.62718E-01
 -1      1761 6.71641E-01
 -1      1762 6.91717E-01
 -1      1763 6.09511E-01
 -1      1764 6.95038E-01
 -1      1765 6.73260E-01
 -1      1766 5.89101E-01
 -1      1767 7.50711E-01
 -1      1768 7.16851E-01
 -1      1769 6.12533E-01
 -1      1770 8.40907E-01
 -1      1771 7.84056E-01
 -1      1772 6.67691E-01
 -1      1773 9.84168E-01
 -1      1774 8.88473E-01
 -1      1775 7.48603E-01
 -1      1776 1.22932E+00
 -1      1777 1.05183E+00
 -1      1778 8.63834E-01
 -1      1779 1.70988E+00
 -1      1780 1.34328E+00
 -1      1781 1.04546E+00
 -1      1782 2.62956E+00
 -1      1783 1.79436E+00
 -1      1784 1.24391E+00
 -1      1785 8.12045E+00
 -1      1786 3.06584E+00
 -1      1787 1.76469E+00
 -1      1788 2.79828E+00
 -1      1789 5.19803E+00
 -1      1790 2.16432E+00
 -1      1791 2.65502E+00
 -1      1792 2.05772E+00
 -1      1793 3.39912E+00
 -1      1794 2.53620E+00
 -1      1795 1.92150E+00
 -1      1796 1.69069E+00
 -1      1797 1.35852E+00
 -1      1798 1.49933E+00
 -1      1799 1.17842E+00
 -1      1800 9.67720E-01
 -1      1801 1.08842E+00
 -1      1802 8.42237E-01
 -1      1803 7.17588E-01
 -1      1804 7.82844E-01
 -1      1805 6.59301E-01
 -1      1806 5.69812E-01
 -1      1807 5.99073E-01
 -1      1808 5.21513E-01
 -1      1809 4.57695E-01
 -1      1810 4.92487E-01
 -1      1811 4.15200E-01
 -1      1812 3.65525E-01
 -1      1813 4.01693E-01
 -1      1814 3.32180E-01
 -1      1815 2.92509E-01
 -1      1816 3.25854E-01
 -1      1817 2.64850E-01
 -1      1818 2.36523E-01
 -1      1819 2.64850E-01
 -1      1820 2.12627E-01
 -1      1821 1.88471E-01
 -1      1822 2.13295E-01
 -1      1823 1.69126E-01
 -1      1824 1.48978E-01
 -1      1825 1.70054E-01
 -1      1826 1.33477E-01
 -1      1827 1.16915E-01
 -1      1828 1.35208E-01
 -1      1829 1.03445E-01
 -1      1830 8.99177E-02
 -1      1831 1.06236E-01
 -1      1832 7.83179E-02
 -1      1833 7.32318E-02
 -1      1834 8.11660E-02
 -1      1835 7.04162E-02
 -1      1836 6.87217E-02
 -1      1837 6.67505E-02
 -1      1838 6.76496E-02
 -1      1839 6.74438E-02
 -1      1840 6.28628E-02
 -1      1841 6.70074E-02
 -1      1842 6.75928E-02
 -1      1843 6.13543E-02
 -1      1844 6.71111E-02
 -1      1845 7.17798E-02
 -1      1846 6.04362E-02
 -1      1847 7.75295E-02
 -1      1848 8.88523E-02
 -1      1849 6.57042E-02
 -1      1850 9.19242E-02
 -1      1851 1.02269E-01
 -1      1852 7.45257E-02
 -1      1853 9.95364E-02
 -1      1854 1.05055E-01
 -1      1855 7.48652E-02
 -1      1856 1.08969E-01
 -1      1857 1.35112E-01
 -1      1858 7.60467E-02
 -1      1859 1.83454E-01
 -1      1860 2.07321E-01
 -1      1861 1.28303E-01
 -1      1862 2.75041E-01
 -1      1863 3.47351E-01
 -1      1864 2.44364E-01
 -1      1865 4.32891E-01
 -1      1866 5.42064E-01
 -1      1867 3.97625E-01
 -1      1868 6.40979E-01
 -1      1869 7.67670E-01
 -1      1870 5.82080E-01
 -1      1871 8.87981E-01
 -1      1872 1.02542E+00
 -1      1873 8.01306E-01
 -1      1874 1.15351E+00
 -1      1875 1.33191E+00
 -1      1876 1.04972E+00
 -1      1877 1.45101E+00
 -1      1878 1.66847E+00
 -1      1879 1.29692E+00
 -1      1880 1.79140E+00
 -1      1881 1.98133E+00
 -1      1882 1.53895E+00
 -1      1883 2.04392E+00
 -1      1884 2.12550E+00
 -1      1885 1.72447E+00
 -1      1886 2.11481E+00
 -1      1887 2.07874E+00
 -1      1888 1.77637E+00
 -1      1889 2.08531E+00
 -1      1890 2.11313E+00
 -1      1891 1.77225E+00
 -1      1892 2.10877E+00
 -1      1893 2.00067E+00
 -1      1894 1.77446E+00
 -1      1895 1.92426E+00
 -1      1896 1.71846E+00
 -1      1897 1.69369E+00
 -1      1898 1.58681E+00
 -1      1899 1.38219E+00
 -1      1900 1.48562E+00
 -1      1901 1.27143E+00
 -1      1902 1.10046E+00
 -1      1903 1.24321E+00
 -1      1904 9.71515E-01
 -1      1905 8.41489E-01
 -1      1906 1.00352E+00
 -1      1907 7.30611E-01
 -1      1908 6.08947E-01
 -1      1909 7.63697E-01
 -1      1910 5.14581E-01
 -1      1911 4.12781E-01
 -1      1912 5.58453E-01
 -1      1913 3.33294E-01
 -1      1914 2.56191E-01
 -1      1915 3.84601E-01
 -1      1916 1.94998E-01
 -1      1917 1.46436E-01
 -1      1918 2.43921E-01
 -1      1919 1.10708E-01
 -1      1920 9.32654E-02
 -1      1921 1.47001E-01
 -1      1922 7.43422E-02
 -1      1923 6.66553E-02
 -1      1924 9.23495E-02
 -1      1925 5.56570E-02
 -1      1926 4.96322E-02
 -1      1927 6.24279E-02
 -1      1928 4.96706E-02
 -1      1929 4.67494E-02
 -1      1930 4.33793E-02
 -1      1931 5.14680E-02
 -1      1932 1.39922E+00
 -1      1933 1.77273E+00
 -1      1934 1.52288E+00
 -1      1935 1.01930E+00
 -1      1936 1.27972E+00
 -1      1937 1.01180E+00
 -1      1938 8.06307E-01
 -1      1939 9.25601E-01
 -1      1940 7.98609E-01
 -1      1941 6.39943E-01
 -1      1942 7.26958E-01
 -1      1943 6.25565E-01
 -1      1944 5.15476E-01
 -1      1945 5.86773E-01
 -1      1946 4.93046E-01
 -1      1947 4.23256E-01
 -1      1948 4.82447E-01
 -1      1949 4.06848E-01
 -1      1950 3.42686E-01
 -1      1951 3.91651E-01
 -1      1952 3.42214E-01
 -1      1953 2.77755E-01
 -1      1954 3.14639E-01
 -1      1955 2.82561E-01
 -1      1956 2.25377E-01
 -1      1957 2.55207E-01
 -1      1958 2.31966E-01
 -1      1959 1.83148E-01
 -1      1960 2.06964E-01
 -1      1961 1.91006E-01
 -1      1962 1.49835E-01
 -1      1963 1.68059E-01
 -1      1964 1.57505E-01
 -1      1965 1.23901E-01
 -1      1966 1.37901E-01
 -1      1967 1.30482E-01
 -1      1968 1.05958E-01
 -1      1969 1.15088E-01
 -1      1970 1.09735E-01
 -1      1971 9.98160E-02
 -1      1972 1.01666E-01
 -1      1973 9.66308E-02
 -1      1974 1.06043E-01
 -1      1975 1.00770E-01
 -1      1976 9.32927E-02
 -1      1977 1.30989E-01
 -1      1978 1.18360E-01
 -1      1979 1.06564E-01
 -1      1980 1.84981E-01
 -1      1981 1.57722E-01
 -1      1982 1.45613E-01
 -1      1983 2.77709E-01
 -1      1984 2.36774E-01
 -1      1985 2.24139E-01
 -1      1986 4.17253E-01
 -1      1987 3.56783E-01
 -1      1988 3.55006E-01
 -1      1989 6.26300E-01
 -1      1990 5.37426E-01
 -1      1991 5.54254E-01
 -1      1992 9.30818E-01
 -1      1993 8.06189E-01
 -1      1994 8.54317E-01
 -1      1995 1.35731E+00
 -1      1996 1.19248E+00
 -1      1997 1.29587E+00
 -1      1998 1.91533E+00
 -1      1999 1.71967E+00
 -1      2000 1.91989E+00
 -1      2001 2.59139E+00
 -1      2002 2.37743E+00
 -1      2003 2.74435E+00
 -1      2004 3.39870E+00
 -1      2005 3.10506E+00
 -1      2006 3.72013E+00
 -1      2007 4.21378E+00
 -1      2008 3.84009E+00
 -1      2009 4.67519E+00
 -1      2010 4.71088E+00
 -1      2011 4.48611E+00
 -1      2012 5.38891E+00
 -1      2013 6.51314E+00
 -1      2014 5.96161E+00
 -1      2015 6.91198E+00
 -1      2016 6.79423E+00
 -1      2017 6.78202E+00
 -1      2018 8.43158E+00
 -1      2019 9.28528E+00
 -1      2020 6.60507E+00
 -1      2021 1.38799E+01
 -1      2022 1.36711E+01
 -1      2023 1.08611E+01
 -1      2024 1.37502E+01
 -1      2025 5.02803E+00
 -1      2026 7.71986E+00
 -1      2027 7.81993E+00
 -1      2028 7.49344E+00
 -1      2029 6.56116E+00
 -1      2030 6.47051E+00
 -1      2031 8.71447E+00
 -1      2032 5.58120E+00
 -1      2033 5.82802E+00
 -1      2034 6.63191E+00
 -1      2035 4.57812E+00
 -1      2036 5.11435E+00
 -1      2037 5.43192E+00
 -1      2038 3.53633E+00
 -1      2039 4.03474E+00
 -1      2040 4.42168E+00
 -1      2041 2.58725E+00
 -1      2042 3.01018E+00
 -1      2043 3.35215E+00
 -1      2044 1.79414E+00
 -1      2045 2.15259E+00
 -1      2046 2.39133E+00
 -1      2047 1.19321E+00
 -1      2048 1.46732E+00
 -1      2049 1.62984E+00
 -1      2050 7.64414E-01
 -1      2051 9.60938E-01
 -1      2052 1.07074E+00
 -1      2053 4.98899E-01
 -1      2054 6.05114E-01
 -1      2055 6.79172E-01
 -1      2056 3.04073E-01
 -1      2057 3.89810E-01
 -1      2058 4.10783E-01
 -1      2059 1.92377E-01
 -1      2060 2.55066E-01
 -1      2061 2.52687E-01
 -1      2062 1.77260E-01
 -1      2063 1.37218E-01
 -1      2064 1.20330E-01
 -1      2065 1.38950E-01
 -1      2066 1.77260E-01
 -1      2067 1.85060E-01
 -1      2068 1.77260E-01
 -1      2069 1.51491E-01
 -1      2070 1.46673E-01
 -1      2071 1.75896E-01
 -1      2072 1.51491E-01
 -1      2073 1.51491E-01
 -1      2074 1.85352E-01
 -1      2075 1.42627E-01
 -1      2076 1.45550E-01
 -1      2077 1.79411E-01
 -1      2078 1.17592E-01
 -1      2079 1.31139E-01
 -1      2080 1.61981E-01
 -1      2081 7.38878E-02
 -1      2082 9.24545E-02
 -1      2083 1.25355E-01
 -1      2084 4.61876E-02
 -1      2085 5.46902E-02
 -1      2086 8.10191E-02
 -1      2087 5.00963E-02
 -1      2088 4.60322E-02
 -1      2089 6.16660E-02
 -1      2090 5.00963E-02
 -1      2091 5.00963E-02
 -1      2092 6.15106E-02
 -1      2093 4.81046E-02
 -1      2094 4.81402E-02
 -1      2095 5.95545E-02
 -1      2096 4.24816E-02
 -1      2097 4.52461E-02
 -1      2098 5.47400E-02
 -1      2099 2.91149E+01
 -1      2100 2.61728E+01
 -1      2101 3.43313E+01
 -1      2102 3.43313E+01
 -1      2103 3.28291E+01
 -1      2104 3.43313E+01
 -1      2105 2.70691E+01
 -1      2106 2.70691E+01
 -1      2107 1.35922E+01
 -1      2108 2.22716E+01
 -1      2109 1.03772E+00
 -1      2110 1.21308E+00
 -1      2111 9.82074E-01
 -1      2112 8.54846E-01
 -1      2113 1.24471E+01
 -1      2114 1.21166E+01
 -1      2115 1.25815E+01
 -1      2116 1.25768E+01
 -1      2117 1.30885E+01
 -1      2118 1.26153E+01
 -1      2119 1.00213E+01
 -1      2120 1.09298E+01
 -1      2121 1.57216E+01
 -1      2122 1.13161E+01
 -1      2123 3.24037E+01
 -1      2124 1.91643E+01
 -1      2125 2.81802E+01
 -1      2126 3.80437E+01
 -1      2127 3.13536E+01
 -1      2128 2.88406E+01
 -1      2129 3.39333E+01
 -1      2130 3.39333E+01
 -1      2131 3.20808E+01
 -1      2132 3.31896E+01
 -1      2133 3.39333E+01
 -1      2134 4.03349E+01
 -1      2135 3.17188E+01
 -1      2136 2.12547E+01
 -1      2137 3.34902E+01
 -1      2138 1.09166E+01
 -1      2139 1.74234E+01
 -1      2140 9.30995E+00
 -1      2141 9.30011E+00
 -1      2142 1.05679E+01
 -1      2143 1.02354E+01
 -1      2144 1.12752E+01
 -1      2145 1.15819E+01
 -1      2146 1.21155E+01
 -1      2147 1.13097E+01
 -1      2148 1.10472E+01
 -1      2149 1.07356E+01
 -1      2150 1.12767E+01
 -1      2151 9.43180E+00
 -1      2152 1.01230E+01
 -1      2153 8.79146E+00
 -1      2154 1.50481E+01
 -1      2155 9.71629E+00
 -1      2156 8.46330E+00
 -1      2157 3.15907E+01
 -1      2158 1.86793E+01
 -1      2159 2.89917E+01
 -1      2160 3.80815E+01
 -1      2161 2.25009E+01
 -1      2162 2.69767E+01
 -1      2163 2.69615E+01
 -1      2164 1.00217E+01
 -1      2165 1.08845E+01
 -1      2166 9.93350E+00
 -1      2167 9.32068E+00
 -1      2168 8.27432E+00
 -1      2169 2.91083E+00
 -1      2170 7.59848E+00
 -1      2171 2.10477E+00
 -1      2172 7.44843E+00
 -1      2173 6.99985E+00
 -1      2174 1.17087E+01
 -1      2175 1.37049E+01
 -1      2176 1.14440E+01
 -1      2177 2.03680E-01
 -1      2178 3.96403E+01
 -1      2179 3.29840E+01
 -1      2180 4.35668E-02
 -1      2181 2.42820E+01
 -1      2182 3.22858E+01
 -1      2183 1.74387E+01
 -1      2184 2.69615E+01
 -1      2185 1.24764E+01
 -1      2186 1.51455E+01
 -1      2187 8.84522E+00
 -1      2188 1.14334E+01
 -1      2189 1.03997E+01
 -1      2190 9.56086E+00
 -1      2191 9.99864E+00
 -1      2192 8.05922E+00
 -1      2193 8.75025E+00
 -1      2194 1.41980E+01
 -1      2195 2.48741E+01
 -1      2196 3.46604E+01
 -1      2197 2.58433E+01
 -1      2198 2.58433E+01
 -1      2199 2.65038E+01
 -1      2200 2.25401E+01
 -1      2201 1.34574E+01
 -1      2202 8.71981E+00
 -1      2203 9.58370E+00
 -1      2204 1.15453E+01
 -1      2205 3.31896E+01
 -1      2206 1.09001E+00
 -1      2207 1.48160E+00
 -1      2208 5.58765E-01
 -1      2209 5.89944E-01
 -1      2210 6.01812E-01
 -1      2211 6.50606E-01
 -1      2212 4.97859E-01
 -1      2213 5.11119E-01
 -1      2214 5.09500E-01
 -1      2215 5.45840E-01
 -1      2216 5.24027E-01
 -1      2217 4.44426E-01
 -1      2218 5.93988E-01
 -1      2219 5.60643E-01
 -1      2220 4.72137E-01
 -1      2221 6.53626E-01
 -1      2222 6.06060E-01
 -1      2223 4.99012E-01
 -1      2224 7.21291E-01
 -1      2225 6.53626E-01
 -1      2226 5.11083E-01
 -1      2227 8.83753E-01
 -1      2228 7.69790E-01
 -1      2229 5.59582E-01
 -1      2230 2.65650E+01
 -1      2231 2.80358E+01
 -1      2232 8.92304E-01
 -1      2233 1.01180E+00
 -1      2234 9.70517E-01
 -1      2235 1.26648E+00
 -1      2236 1.03568E+00
 -1      2237 8.26834E+00
 -1      2238 9.85769E-01
 -1      2239 8.05672E-01
 -1      2240 7.52925E-01
 -1      2241 7.48950E-01
 -1      2242 6.23467E-01
 -1      2243 6.46295E-01
 -1      2244 5.67255E-01
 -1      2245 5.08968E-01
 -1      2246 5.33361E-01
 -1      2247 4.59509E-01
 -1      2248 4.11210E-01
 -1      2249 4.27691E-01
 -1      2250 3.84442E-01
 -1      2251 3.41947E-01
 -1      2252 3.51463E-01
 -1      2253 3.16949E-01
 -1      2254 2.83604E-01
 -1      2255 2.99697E-01
 -1      2256 2.59873E-01
 -1      2257 2.32215E-01
 -1      2258 2.50968E-01
 -1      2259 2.11666E-01
 -1      2260 1.87770E-01
 -1      2261 2.06689E-01
 -1      2262 1.70289E-01
 -1      2263 1.50944E-01
 -1      2264 1.68660E-01
 -1      2265 1.35340E-01
 -1      2266 1.19839E-01
 -1      2267 1.35575E-01
 -1      2268 1.06236E-01
 -1      2269 9.27658E-02
 -1      2270 1.06368E-01
 -1      2271 8.11660E-02
 -1      2272 6.95662E-02
 -1      2273 8.11660E-02
 -1      2274 5.96065E-02
 -1      2275 5.67909E-02
 -1      2276 5.96065E-02
 -1      2277 5.59035E-02
 -1      2278 5.48314E-02
 -1      2279 4.87595E-02
 -1      2280 5.47577E-02
 -1      2281 5.43213E-02
 -1      2282 4.77984E-02
 -1      2283 5.44886E-02
 -1      2284 5.40069E-02
 -1      2285 4.78921E-02
 -1      2286 5.57899E-02
 -1      2287 6.15396E-02
 -1      2288 4.98424E-02
 -1      2289 6.45984E-02
 -1      2290 6.76703E-02
 -1      2291 5.46842E-02
 -1      2292 7.80993E-02
 -1      2293 7.53669E-02
 -1      2294 6.81720E-02
 -1      2295 8.92104E-02
 -1      2296 9.31243E-02
 -1      2297 9.24445E-02
 -1      2298 1.12999E-01
 -1      2299 1.61341E-01
 -1      2300 1.26162E-01
 -1      2301 2.13585E-01
 -1      2302 2.81305E-01
 -1      2303 1.98281E-01
 -1      2304 3.48842E-01
 -1      2305 4.34382E-01
 -1      2306 3.18063E-01
 -1      2307 5.12463E-01
 -1      2308 6.11378E-01
 -1      2309 4.63681E-01
 -1      2310 7.20654E-01
 -1      2311 8.40965E-01
 -1      2312 6.51037E-01
 -1      2313 9.53568E-01
 -1      2314 1.08167E+00
 -1      2315 8.72915E-01
 -1      2316 1.17172E+00
 -1      2317 1.29082E+00
 -1      2318 1.07557E+00
 -1      2319 1.35297E+00
 -1      2320 1.47591E+00
 -1      2321 1.22778E+00
 -1      2322 1.52134E+00
 -1      2323 1.58393E+00
 -1      2324 1.33537E+00
 -1      2325 1.57955E+00
 -1      2326 1.56886E+00
 -1      2327 1.37642E+00
 -1      2328 1.53633E+00
 -1      2329 1.54290E+00
 -1      2330 1.33951E+00
 -1      2331 1.57944E+00
 -1      2332 1.57508E+00
 -1      2333 1.34352E+00
 -1      2334 1.57035E+00
 -1      2335 1.49393E+00
 -1      2336 1.37532E+00
 -1      2337 1.43915E+00
 -1      2338 1.30751E+00
 -1      2339 1.31581E+00
 -1      2340 1.24745E+00
 -1      2341 1.13670E+00
 -1      2342 1.20099E+00
 -1      2343 1.04177E+00
 -1      2344 9.12824E-01
 -1      2345 1.04600E+00
 -1      2346 8.00323E-01
 -1      2347 6.89445E-01
 -1      2348 8.38573E-01
 -1      2349 5.93074E-01
 -1      2350 4.98708E-01
 -1      2351 6.29700E-01
 -1      2352 4.24856E-01
 -1      2353 3.45369E-01
 -1      2354 4.59476E-01
 -1      2355 2.83382E-01
 -1      2356 2.22190E-01
 -1      2357 3.23637E-01
 -1      2358 1.75787E-01
 -1      2359 1.40060E-01
 -1      2360 2.15248E-01
 -1      2361 1.11273E-01
 -1      2362 9.23495E-02
 -1      2363 1.40060E-01
 -1      2364 7.34262E-02
 -1      2365 6.24279E-02
 -1      2366 9.23495E-02
 -1      2367 5.46215E-01
 -1      2368 6.25565E-01
 -1      2369 4.39877E-01
 -1      2370 4.93046E-01
 -1      2371 4.93046E-01
 -1      2372 3.73819E-01
 -1      2373 4.06848E-01
 -1      2374 4.06848E-01
 -1      2375 3.10608E-01
 -1      2376 3.42214E-01
 -1      2377 3.42214E-01
 -1      2378 2.54514E-01
 -1      2379 2.82561E-01
 -1      2380 2.82561E-01
 -1      2381 2.09467E-01
 -1      2382 2.32014E-01
 -1      2383 2.32014E-01
 -1      2384 1.71433E-01
 -1      2385 1.89845E-01
 -1      2386 1.89894E-01
 -1      2387 1.39423E-01
 -1      2388 1.54512E-01
 -1      2389 1.53351E-01
 -1      2390 1.13166E-01
 -1      2391 1.25100E-01
 -1      2392 1.22106E-01
 -1      2393 9.25163E-02
 -1      2394 1.01329E-01
 -1      2395 9.59467E-02
 -1      2396 7.99721E-02
 -1      2397 8.42641E-02
 -1      2398 7.58576E-02
 -1      2399 8.47849E-02
 -1      2400 8.38309E-02
 -1      2401 7.14642E-02
 -1      2402 1.05471E-01
 -1      2403 9.31540E-02
 -1      2404 8.36922E-02
 -1      2405 1.59159E-01
 -1      2406 1.32426E-01
 -1      2407 1.19017E-01
 -1      2408 2.52452E-01
 -1      2409 2.00659E-01
 -1      2410 1.87472E-01
 -1      2411 3.91880E-01
 -1      2412 3.12805E-01
 -1      2413 2.89326E-01
 -1      2414 6.00436E-01
 -1      2415 4.80263E-01
 -1      2416 4.38062E-01
 -1      2417 9.09803E-01
 -1      2418 7.29914E-01
 -1      2419 6.55923E-01
 -1      2420 1.36046E+00
 -1      2421 1.09880E+00
 -1      2422 9.74396E-01
 -1      2423 1.99732E+00
 -1      2424 1.63496E+00
 -1      2425 1.43789E+00
 -1      2426 2.85715E+00
 -1      2427 2.39505E+00
 -1      2428 2.11012E+00
 -1      2429 3.94733E+00
 -1      2430 3.43365E+00
 -1      2431 3.08436E+00
 -1      2432 5.23248E+00
 -1      2433 4.79109E+00
 -1      2434 4.50462E+00
 -1      2435 6.76989E+00
 -1      2436 6.49756E+00
 -1      2437 6.61345E+00
 -1      2438 8.80118E+00
 -1      2439 7.55045E+00
 -1      2440 8.65909E+00
 -1      2441 8.90608E+00
 -1      2442 1.67680E+00
 -1      2443 1.30217E+00
 -1      2444 8.38515E-01
 -1      2445 9.60068E-01
 -1      2446 1.19640E+01
 -1      2447 1.33134E+01
 -1      2448 4.28580E+00
 -1      2449 4.82918E+00
 -1      2450 2.97117E+00
 -1      2451 3.49732E+00
 -1      2452 3.90483E+00
 -1      2453 1.99865E+00
 -1      2454 2.43331E+00
 -1      2455 2.57849E+00
 -1      2456 1.32995E+00
 -1      2457 1.65678E+00
 -1      2458 1.69875E+00
 -1      2459 8.71508E-01
 -1      2460 1.10378E+00
 -1      2461 1.13071E+00
 -1      2462 5.79173E-01
 -1      2463 7.38473E-01
 -1      2464 7.71509E-01
 -1      2465 3.65080E-01
 -1      2466 4.74169E-01
 -1      2467 5.33470E-01
 -1      2468 2.37894E-01
 -1      2469 2.37894E-01
 -1      2470 2.37894E-01
 -1      2471 2.28438E-01
 -1      2472 2.90436E-01
 -1      2473 2.31322E-01
 -1      2474 2.49942E-01
 -1      2475 2.93320E-01
 -1      2476 3.96403E+01
 -1      2477 3.96403E+01
 -1      2478 2.07265E-01
 -1      2479 2.13206E-01
 -1      2480 2.65748E-01
 -1      2481 1.92212E-01
 -1      2482 2.03701E-01
 -1      2483 2.37496E-01
 -1      2484 1.37001E-01
 -1      2485 1.62139E-01
 -1      2486 2.03859E-01
 -1      2487 9.20510E-02
 -1      2488 1.11249E-01
 -1      2489 1.48033E-01
 -1      2490 7.97673E-02
 -1      2491 7.99227E-02
 -1      2492 1.10152E-01
 -1      2493 7.97673E-02
 -1      2494 7.97673E-02
 -1      2495 9.80239E-02
 -1      2496 7.43814E-02
 -1      2497 7.63375E-02
 -1      2498 9.45942E-02
 -1      2499 5.18814E-02
 -1      2500 5.47400E-02
 -1      2501 7.15229E-02
 -1      2502 1.93996E+01
 -1      2503 2.14453E+01
 -1      2504 7.04915E-01
 -1      2505 7.98609E-01
 -1      2506 6.25565E-01
 -1      2507 2.63277E+01
 -1      2508 3.29840E+01
 -1      2509 3.22858E+01
 -1      2510 2.49313E+01
 -1      2511 8.78877E+00
 -1      2512 7.77477E+00
 -1      2513 2.24728E+01
 -1      2514 2.45030E+01
 -1      2515 5.16939E-02
 -1      2516 6.15743E+00
 -1      2517 6.62429E+00
 -1      2518 6.02156E+00
 -1      2519 1.05069E+01
 -1      2520 1.12401E+01
 -1      2521 1.58390E+01
 -1      2522 5.22353E-01
 -1      2523 5.44382E-01
 -1      2524 4.71607E-01
 -1      2525 4.44371E-01
 -1      2526 2.08142E+01
 -1      2527 1.51741E+01
 -1      2528 3.20808E+01
 -1      2529 2.95011E+01
 -1      2530 3.46604E+01
 -1      2531 3.46604E+01
 -1      2532 2.80358E+01
 -1      2533 1.58318E+01
 -1      2534 2.26765E+01
 -1      2535 9.52469E+00
 -1      2536 1.33560E+01
 -1      2537 6.56216E+00
 -1      2538 8.17861E+00
 -1      2539 7.05026E+00
 -1      2540 6.12484E+00
 -1      2541 9.30328E+00
 -1      2542 9.26876E+00
 -1      2543 7.01510E+00
 -1      2544 6.73061E+00
 -1      2545 6.45195E+00
 -1      2546 7.06460E+00
 -1      2547 2.10606E+01
 -1      2548 1.45699E+01
 -1      2549 1.62132E+00
 -1      2550 1.76458E+00
 -1      2551 1.32829E+00
 -1      2552 1.18845E+00
 -1      2553 6.15196E-01
 -1      2554 7.56074E-01
 -1      2555 8.19437E-01
 -1      2556 1.32754E+01
 -1      2557 2.23177E+01
 -1      2558 1.71640E+01
 -1      2559 1.24380E+00
 -1      2560 6.17943E+00
 -1      2561 1.12324E+01
 -1      2562 1.12799E+01
 -1      2563 1.10743E+01
 -1      2564 1.08055E+01
 -1      2565 1.14439E+01
 -1      2566 8.96203E-01
 -1      2567 3.16073E-01
 -1      2568 3.16073E-01
 -1      2569 3.62335E-01
 -1      2570 3.22858E+01
 -1      2571 3.29840E+01
 -1      2572 2.14453E+01
 -1      2573 1.61500E+01
 -1      2574 7.98609E-01
 -1      2575 9.68128E-01
 -1      2576 1.30059E+01
 -1      2577 2.24728E+01
 -1      2578 5.84039E+00
 -1      2579 1.18931E+01
 -1      2580 8.35936E+00
 -1      2581 1.04528E+01
 -1      2582 7.22136E+00
 -1      2583 1.65719E+01
 -1      2584 5.00376E+00
 -1      2585 7.11254E+00
 -1      2586 9.17260E+00
 -1      2587 7.39419E+00
 -1      2588 8.49056E+00
 -1      2589 2.65038E+01
 -1      2590 5.55320E+00
 -1      2591 7.33659E+00
 -1      2592 5.15064E-02
 -1      2593 5.16939E-02
 -1      2594 5.16939E-02
 -1      2595 5.14680E-02
 -1      2596 3.20808E+01
 -1      2597 7.04489E+00
 -1      2598 9.56317E+00
 -1      2599 1.11584E+01
 -1      2600 6.24663E-02
 -1      2601 8.88715E+00
 -1      2602 1.13526E+01
 -1      2603 2.01038E+01
 -1      2604 1.76453E+01
 -1      2605 4.22590E-01
 -1      2606 4.07787E-01
 -1      2607 4.00076E-01
 -1      2608 3.87168E-01
 -1      2609 3.50529E-01
 -1      2610 4.36441E-01
 -1      2611 4.36441E-01
 -1      2612 4.72963E-01
 -1      2613 4.24464E-01
 -1      2614 3.49822E-01
 -1      2615 9.34228E+00
 -1      2616 1.18180E+01
 -1      2617 7.18061E-01
 -1      2618 7.96273E-01
 -1      2619 7.97432E-01
 -1      2620 6.03914E-01
 -1      2621 5.54007E-01
 -1      2622 5.50337E-01
 -1      2623 4.93615E-01
 -1      2624 4.01326E-01
 -1      2625 4.86966E-01
 -1      2626 4.30755E-01
 -1      2627 3.91008E-01
 -1      2628 4.10224E-01
 -1      2629 3.60765E-01
 -1      2630 3.63829E-01
 -1      2631 3.35739E-01
 -1      2632 3.08971E-01
 -1      2633 3.18272E-01
 -1      2634 2.83800E-01
 -1      2635 2.58802E-01
 -1      2636 2.68076E-01
 -1      2637 2.42921E-01
 -1      2638 2.19190E-01
 -1      2639 2.27024E-01
 -1      2640 2.02343E-01
 -1      2641 1.81795E-01
 -1      2642 1.94297E-01
 -1      2643 1.65438E-01
 -1      2644 1.47958E-01
 -1      2645 1.61093E-01
 -1      2646 1.33613E-01
 -1      2647 1.18008E-01
 -1      2648 1.30391E-01
 -1      2649 1.05399E-01
 -1      2650 9.17961E-02
 -1      2651 1.03436E-01
 -1      2652 8.07527E-02
 -1      2653 6.91528E-02
 -1      2654 7.97830E-02
 -1      2655 5.94919E-02
 -1      2656 4.95323E-02
 -1      2657 5.90786E-02
 -1      2658 4.10607E-02
 -1      2659 4.01733E-02
 -1      2660 4.09461E-02
 -1      2661 4.06086E-02
 -1      2662 4.05349E-02
 -1      2663 3.29098E-02
 -1      2664 4.19550E-02
 -1      2665 4.21223E-02
 -1      2666 3.47652E-02
 -1      2667 4.73806E-02
 -1      2668 4.91636E-02
 -1      2669 4.14435E-02
 -1      2670 5.54005E-02
 -1      2671 5.84593E-02
 -1      2672 5.29387E-02
 -1      2673 6.81720E-02
 -1      2674 7.86011E-02
 -1      2675 6.88884E-02
 -1      2676 9.73287E-02
 -1      2677 1.11172E-01
 -1      2678 9.73287E-02
 -1      2679 1.39593E-01
 -1      2680 1.59467E-01
 -1      2681 1.44477E-01
 -1      2682 1.98281E-01
 -1      2683 2.50526E-01
 -1      2684 2.11712E-01
 -1      2685 3.18063E-01
 -1      2686 3.85600E-01
 -1      2687 3.18063E-01
 -1      2688 4.63681E-01
 -1      2689 5.41762E-01
 -1      2690 4.63681E-01
 -1      2691 6.19675E-01
 -1      2692 7.28950E-01
 -1      2693 6.19675E-01
 -1      2694 8.12930E-01
 -1      2695 9.25533E-01
 -1      2696 7.81568E-01
 -1      2697 1.00621E+00
 -1      2698 1.09627E+00
 -1      2699 9.46228E-01
 -1      2700 1.16377E+00
 -1      2701 1.22591E+00
 -1      2702 1.09440E+00
 -1      2703 1.26264E+00
 -1      2704 1.30808E+00
 -1      2705 1.19863E+00
 -1      2706 1.35715E+00
 -1      2707 1.35277E+00
 -1      2708 1.28443E+00
 -1      2709 1.28624E+00
 -1      2710 1.25372E+00
 -1      2711 1.26698E+00
 -1      2712 1.28250E+00
 -1      2713 1.31904E+00
 -1      2714 1.22923E+00
 -1      2715 1.34780E+00
 -1      2716 1.34307E+00
 -1      2717 1.28678E+00
 -1      2718 1.29970E+00
 -1      2719 1.24492E+00
 -1      2720 1.27217E+00
 -1      2721 1.20552E+00
 -1      2722 1.14547E+00
 -1      2723 1.18940E+00
 -1      2724 1.06981E+00
 -1      2725 9.74884E-01
 -1      2726 1.07435E+00
 -1      2727 9.00028E-01
 -1      2728 7.87526E-01
 -1      2729 9.23838E-01
 -1      2730 7.06494E-01
 -1      2731 6.10123E-01
 -1      2732 7.67949E-01
 -1      2733 5.33328E-01
 -1      2734 4.59476E-01
 -1      2735 6.10123E-01
 -1      2736 3.85624E-01
 -1      2737 3.23637E-01
 -1      2738 4.59476E-01
 -1      2739 2.61650E-01
 -1      2740 2.15248E-01
 -1      2741 3.23637E-01
 -1      2742 1.68933E-01
 -1      2743 1.40146E-01
 -1      2744 2.15335E-01
 -1      2745 1.17098E-01
 -1      2746 9.81747E-02
 -1      2747 1.45972E-01
 -1      2748 2.25998E-01
 -1      2749 2.56072E-01
 -1      2750 2.54991E+01
 -1      2751 2.29194E+01
 -1      2752 2.91858E-01
 -1      2753 3.23463E-01
 -1      2754 4.18382E-01
 -1      2755 4.71551E-01
 -1      2756 2.45018E-01
 -1      2757 2.73066E-01
 -1      2758 2.54315E-01
 -1      2759 2.03950E-01
 -1      2760 2.26449E-01
 -1      2761 2.16954E-01
 -1      2762 1.67041E-01
 -1      2763 1.86662E-01
 -1      2764 1.81097E-01
 -1      2765 1.34688E-01
 -1      2766 1.51609E-01
 -1      2767 1.48377E-01
 -1      2768 1.06899E-01
 -1      2769 1.21222E-01
 -1      2770 1.19480E-01
 -1      2771 8.33397E-02
 -1      2772 9.51766E-02
 -1      2773 9.42921E-02
 -1      2774 6.46074E-02
 -1      2775 7.28596E-02
 -1      2776 7.20896E-02
 -1      2777 6.34317E-02
 -1      2778 5.95729E-02
 -1      2779 5.65749E-02
 -1      2780 7.59571E-02
 -1      2781 6.75880E-02
 -1      2782 5.56966E-02
 -1      2783 1.22889E-01
 -1      2784 9.59339E-02
 -1      2785 7.98297E-02
 -1      2786 1.92417E-01
 -1      2787 1.50917E-01
 -1      2788 1.27834E-01
 -1      2789 2.90446E-01
 -1      2790 2.30093E-01
 -1      2791 1.93537E-01
 -1      2792 4.45746E-01
 -1      2793 3.57362E-01
 -1      2794 2.98129E-01
 -1      2795 6.83073E-01
 -1      2796 5.53596E-01
 -1      2797 4.72896E-01
 -1      2798 1.03661E+00
 -1      2799 8.47611E-01
 -1      2800 7.45283E-01
 -1      2801 1.56112E+00
 -1      2802 1.28663E+00
 -1      2803 1.15984E+00
 -1      2804 2.33621E+00
 -1      2805 1.93847E+00
 -1      2806 1.78722E+00
 -1      2807 3.50290E+00
 -1      2808 2.92640E+00
 -1      2809 2.75475E+00
 -1      2810 5.35909E+00
 -1      2811 4.51533E+00
 -1      2812 4.35737E+00
 -1      2813 8.48835E+00
 -1      2814 7.22327E+00
 -1      2815 7.23399E+00
 -1      2816 1.31486E+01
 -1      2817 1.23681E+01
 -1      2818 1.29779E+01
 -1      2819 1.58500E+00
 -1      2820 1.92687E+00
 -1      2821 2.80470E+01
 -1      2822 2.06925E+01
 -1      2823 4.80682E-01
 -1      2824 5.46814E-01
 -1      2825 6.51818E-01
 -1      2826 2.02064E+01
 -1      2827 1.28404E+01
 -1      2828 3.51064E-01
 -1      2829 3.84093E-01
 -1      2830 3.00708E-01
 -1      2831 2.42726E+00
 -1      2832 2.96513E+00
 -1      2833 2.31351E+00
 -1      2834 2.07214E+01
 -1      2835 3.75725E+00
 -1      2836 4.54573E+00
 -1      2837 3.60602E+00
 -1      2838 1.02839E+00
 -1      2839 1.25455E+00
 -1      2840 1.48267E+00
 -1      2841 7.46577E-01
 -1      2842 8.79612E-01
 -1      2843 1.00345E+00
 -1      2844 7.59920E-01
 -1      2845 2.86782E-01
 -1      2846 2.90346E-01
 -1      2847 3.08922E-01
 -1      2848 4.77799E-01
 -1      2849 3.07639E-01
 -1      2850 3.32327E-01
 -1      2851 3.56925E-01
 -1      2852 1.67281E-01
 -1      2853 1.93033E-01
 -1      2854 2.45246E-01
 -1      2855 1.35337E-01
 -1      2856 1.47465E-01
 -1      2857 1.92465E-01
 -1      2858 1.25125E-01
 -1      2859 1.25125E-01
 -1      2860 1.62438E-01
 -1      2861 1.15926E-01
 -1      2862 1.19356E-01
 -1      2863 1.46456E-01
 -1      2864 9.08260E+00
 -1      2865 1.29652E+01
 -1      2866 8.28405E-01
 -1      2867 4.34582E+00
 -1      2868 4.06717E+00
 -1      2869 1.78695E+01
 -1      2870 1.88802E+01
 -1      2871 2.55047E+01
 -1      2872 5.21159E+00
 -1      2873 4.48708E+00
 -1      2874 5.92525E+00
 -1      2875 7.25350E+00
 -1      2876 5.77767E+00
 -1      2877 6.10321E-01
 -1      2878 7.04016E-01
 -1      2879 5.29773E-01
 -1      2880 5.05359E-01
 -1      2881 5.84709E-01
 -1      2882 4.90115E-01
 -1      2883 4.30695E-01
 -1      2884 2.21016E+01
 -1      2885 2.87579E+01
 -1      2886 4.44680E-01
 -1      2887 4.44680E-01
 -1      2888 4.86571E-01
 -1      2889 4.31903E+00
 -1      2890 4.75635E+00
 -1      2891 6.54626E+00
 -1      2892 6.06627E+00
 -1      2893 4.36441E-01
 -1      2894 4.24369E-01
 -1      2895 3.60020E-01
 -1      2896 3.61798E-01
 -1      2897 4.24153E-01
 -1      2898 4.36021E-01
 -1      2899 7.29092E-02
 -1      2900 6.19493E-02
 -1      2901 9.76577E-02
 -1      2902 6.21368E-02
 -1      2903 5.93005E+00
 -1      2904 7.27612E+00
 -1      2905 7.29897E+00
 -1      2906 5.46885E+00
 -1      2907 1.53749E+01
 -1      2908 1.19326E+01
 -1      2909 1.30060E+01
 -1      2910 4.50195E+00
 -1      2911 6.99821E+00
 -1      2912 2.31794E+01
 -1      2913 2.01820E+01
 -1      2914 1.64953E+01
 -1      2915 3.89825E-01
 -1      2916 4.63532E-01
 -1      2917 5.69001E-01
 -1      2918 1.14593E+01
 -1      2919 3.42579E-01
 -1      2920 3.86929E-01
 -1      2921 3.99782E-01
 -1      2922 7.93574E+00
 -1      2923 4.07520E-01
 -1      2924 4.21903E-01
 -1      2925 3.60065E-01
 -1      2926 3.50079E-01
 -1      2927 1.63434E+01
 -1      2928 5.77114E+00
 -1      2929 6.78357E+00
 -1      2930 5.80496E+00
 -1      2931 6.65289E+00
 -1      2932 1.65977E+01
 -1      2933 1.71646E+01
 -1      2934 1.08361E+01
 -1      2935 1.58651E+01
 -1      2936 8.17783E-02
 -1      2937 3.62598E-01
 -1      2938 6.50903E-01
 -1      2939 6.15220E-01
 -1      2940 6.32043E-01
 -1      2941 1.43454E+01
 -1      2942 1.06540E-01
 -1      2943 8.98629E+00
 -1      2944 5.75949E-01
 -1      2945 1.03205E+01
 -1      2946 7.64376E+00
 -1      2947 9.12351E+00
 -1      2948 4.53226E+00
 -1      2949 1.55800E+01
 -1      2950 1.30489E+01
 -1      2951 1.13327E+01
 -1      2952 6.71568E+00
 -1      2953 4.16302E-01
 -1      2954 3.69023E+00
 -1      2955 4.40831E-01
 -1      2956 4.71296E+00
 -1      2957 4.69588E+00
 -1      2958 3.62000E+00
 -1      2959 4.27793E+00
 -1      2960 4.05478E+00
 -1      2961 1.45451E+01
 -1      2962 1.32556E+01
 -1      2963 1.32500E+01
 -1      2964 2.89794E-01
 -1      2965 3.01771E-01
 -1      2966 9.43114E+00
 -1      2967 1.08885E+01
 -1      2968 1.92836E-01
 -1      2969 2.11405E-01
 -1      2970 3.06810E+00
 -1      2971 2.90005E+00
 -1      2972 3.15990E-01
 -1      2973 3.09341E-01
 -1      2974 3.19978E-01
 -1      2975 2.99447E-01
 -1      2976 2.44959E-01
 -1      2977 2.95750E-01
 -1      2978 2.70725E-01
 -1      2979 2.51899E-01
 -1      2980 2.59523E-01
 -1      2981 2.34352E-01
 -1      2982 2.37001E-01
 -1      2983 2.19748E-01
 -1      2984 2.03868E-01
 -1      2985 2.11196E-01
 -1      2986 1.90479E-01
 -1      2987 1.73631E-01
 -1      2988 1.83203E-01
 -1      2989 1.62387E-01
 -1      2990 1.46030E-01
 -1      2991 1.58569E-01
 -1      2992 1.33982E-01
 -1      2993 1.19637E-01
 -1      2994 1.35277E-01
 -1      2995 1.07655E-01
 -1      2996 9.50454E-02
 -1      2997 1.11247E-01
 -1      2998 8.35628E-02
 -1      2999 7.25193E-02
 -1      3000 8.77817E-02
 -1      3001 6.16620E-02
 -1      3002 5.20011E-02
 -1      3003 6.54417E-02
 -1      3004 4.17035E-02
 -1      3005 3.32319E-02
 -1      3006 4.42869E-02
 -1      3007 2.50267E-02
 -1      3008 2.54620E-02
 -1      3009 2.57842E-02
 -1      3010 2.95507E-02
 -1      3011 3.09708E-02
 -1      3012 2.16677E-02
 -1      3013 3.99450E-02
 -1      3014 4.52032E-02
 -1      3015 3.47306E-02
 -1      3016 5.34564E-02
 -1      3017 5.96934E-02
 -1      3018 5.19579E-02
 -1      3019 7.13368E-02
 -1      3020 8.10496E-02
 -1      3021 7.18546E-02
 -1      3022 9.73287E-02
 -1      3023 1.16056E-01
 -1      3024 9.97772E-02
 -1      3025 1.44477E-01
 -1      3026 1.72898E-01
 -1      3027 1.44477E-01
 -1      3028 2.11264E-01
 -1      3029 2.50078E-01
 -1      3030 2.11264E-01
 -1      3031 3.05631E-01
 -1      3032 3.73168E-01
 -1      3033 3.05182E-01
 -1      3034 4.44867E-01
 -1      3035 5.22948E-01
 -1      3036 4.32434E-01
 -1      3037 6.17455E-01
 -1      3038 6.95369E-01
 -1      3039 5.98641E-01
 -1      3040 7.81568E-01
 -1      3041 8.65548E-01
 -1      3042 7.79348E-01
 -1      3043 9.58949E-01
 -1      3044 1.03963E+00
 -1      3045 9.58949E-01
 -1      3046 1.09063E+00
 -1      3047 1.15813E+00
 -1      3048 1.10335E+00
 -1      3049 1.19843E+00
 -1      3050 1.23516E+00
 -1      3051 1.19466E+00
 -1      3052 1.36136E+00
 -1      3053 1.41043E+00
 -1      3054 1.36116E+00
 -1      3055 1.43541E+00
 -1      3056 1.36889E+00
 -1      3057 1.51235E+00
 -1      3058 1.26991E+00
 -1      3059 1.29869E+00
 -1      3060 1.43834E+00
 -1      3061 1.43269E+00
 -1      3062 1.46145E+00
 -1      3063 1.47336E+00
 -1      3064 1.35446E+00
 -1      3065 1.31109E+00
 -1      3066 1.50037E+00
 -1      3067 1.21839E+00
 -1      3068 1.17899E+00
 -1      3069 1.30067E+00
 -1      3070 1.15385E+00
 -1      3071 1.07819E+00
 -1      3072 1.18283E+00
 -1      3073 1.00944E+00
 -1      3074 9.34586E-01
 -1      3075 1.08894E+00
 -1      3076 8.48981E-01
 -1      3077 7.67949E-01
 -1      3078 9.34586E-01
 -1      3079 6.79356E-01
 -1      3080 6.02562E-01
 -1      3081 7.60388E-01
 -1      3082 5.11744E-01
 -1      3083 4.37892E-01
 -1      3084 5.80978E-01
 -1      3085 3.60996E-01
 -1      3086 2.99009E-01
 -1      3087 4.13264E-01
 -1      3088 2.46521E-01
 -1      3089 2.00206E-01
 -1      3090 2.83879E-01
 -1      3091 1.69020E-01
 -1      3092 1.45972E-01
 -1      3093 2.00206E-01
 -1      3094 2.31651E-01
 -1      3095 2.51467E-01
 -1      3096 1.22733E+00
 -1      3097 1.55777E+00
 -1      3098 2.25890E-01
 -1      3099 2.44682E-01
 -1      3100 2.01772E-01
 -1      3101 1.32915E-01
 -1      3102 1.48347E-01
 -1      3103 1.06140E-01
 -1      3104 1.19605E-01
 -1      3105 1.19575E-01
 -1      3106 8.18541E-02
 -1      3107 9.35765E-02
 -1      3108 9.37018E-02
 -1      3109 5.95025E-02
 -1      3110 6.99826E-02
 -1      3111 6.92670E-02
 -1      3112 4.29753E-02
 -1      3113 4.80099E-02
 -1      3114 4.59029E-02
 -1      3115 4.77456E-02
 -1      3116 4.35893E-02
 -1      3117 3.50243E-02
 -1      3118 8.49209E-02
 -1      3119 6.49441E-02
 -1      3120 5.28368E-02
 -1      3121 1.39299E-01
 -1      3122 1.11272E-01
 -1      3123 9.63862E-02
 -1      3124 2.15747E-01
 -1      3125 1.78071E-01
 -1      3126 1.61509E-01
 -1      3127 3.38867E-01
 -1      3128 2.71950E-01
 -1      3129 2.56484E-01
 -1      3130 5.29177E-01
 -1      3131 4.21326E-01
 -1      3132 3.95148E-01
 -1      3133 8.15783E-01
 -1      3134 6.51246E-01
 -1      3135 5.99676E-01
 -1      3136 1.24872E+00
 -1      3137 9.98699E-01
 -1      3138 9.04661E-01
 -1      3139 1.90599E+00
 -1      3140 1.52864E+00
 -1      3141 1.36750E+00
 -1      3142 2.93992E+00
 -1      3143 2.34974E+00
 -1      3144 2.09116E+00
 -1      3145 4.69000E+00
 -1      3146 3.67756E+00
 -1      3147 3.27255E+00
 -1      3148 7.63149E+00
 -1      3149 5.76732E+00
 -1      3150 5.08750E+00
 -1      3151 1.38262E+01
 -1      3152 9.94650E+00
 -1      3153 8.47983E+00
 -1      3154 1.35663E+01
 -1      3155 7.15719E+00
 -1      3156 8.98629E+00
 -1      3157 2.75272E-01
 -1      3158 3.08237E-01
 -1      3159 3.14458E-01
 -1      3160 4.05761E+00
 -1      3161 5.54997E+00
 -1      3162 4.93935E+00
 -1      3163 5.74137E-01
 -1      3164 1.89377E+00
 -1      3165 2.39416E+00
 -1      3166 1.63843E+00
 -1      3167 6.97463E-01
 -1      3168 7.30581E-01
 -1      3169 8.25340E-01
 -1      3170 2.96114E+00
 -1      3171 3.75326E+00
 -1      3172 2.54140E+00
 -1      3173 3.56752E-01
 -1      3174 3.87462E-01
 -1      3175 3.86778E-01
 -1      3176 1.19434E+01
 -1      3177 9.67297E+00
 -1      3178 1.31468E+01
 -1      3179 1.25581E+01
 -1      3180 9.22511E+00
 -1      3181 4.91972E+00
 -1      3182 6.29924E+00
 -1      3183 4.27484E+00
 -1      3184 4.00988E-01
 -1      3185 4.18280E-01
 -1      3186 4.48818E-01
 -1      3187 1.83552E-01
 -1      3188 1.93764E-01
 -1      3189 2.52765E-01
 -1      3190 1.47309E-01
 -1      3191 1.53078E-01
 -1      3192 1.84405E-01
 -1      3193 3.07109E-01
 -1      3194 3.41398E-01
 -1      3195 3.23123E-01
 -1      3196 3.15412E-01
 -1      3197 6.87440E+00
 -1      3198 5.81402E+00
 -1      3199 6.19756E+00
 -1      3200 8.26372E+00
 -1      3201 2.63374E-01
 -1      3202 2.90975E-01
 -1      3203 2.34949E-01
 -1      3204 4.18280E-01
 -1      3205 5.30634E-01
 -1      3206 6.29172E-01
 -1      3207 4.62343E-01
 -1      3208 1.08154E+01
 -1      3209 1.43454E+01
 -1      3210 1.36346E+01
 -1      3211 8.98629E+00
 -1      3212 4.12835E-01
 -1      3213 3.09849E-01
 -1      3214 2.61798E-01
 -1      3215 3.98790E-01
 -1      3216 3.35582E-01
 -1      3217 3.31912E-01
 -1      3218 2.50245E-01
 -1      3219 3.05418E+00
 -1      3220 4.22788E+00
 -1      3221 1.62111E-01
 -1      3222 1.79399E-01
 -1      3223 1.73850E-01
 -1      3224 1.46649E-01
 -1      3225 4.64702E+00
 -1      3226 3.52399E+00
 -1      3227 4.55531E+00
 -1      3228 3.70063E+00
 -1      3229 2.91045E+00
 -1      3230 4.22472E-01
 -1      3231 3.12199E-01
 -1      3232 3.11960E-01
 -1      3233 2.84793E-01
 -1      3234 2.61893E-01
 -1      3235 3.21920E-01
 -1      3236 3.21920E-01
 -1      3237 9.30453E+00
 -1      3238 6.74211E+00
 -1      3239 3.10200E+00
 -1      3240 2.98724E+00
 -1      3241 3.19801E+00
 -1      3242 2.43205E+00
 -1      3243 6.29924E+00
 -1      3244 1.04785E+01
 -1      3245 3.21767E-01
 -1      3246 3.49278E-01
 -1      3247 8.96520E-01
 -1      3248 1.04529E+00
 -1      3249 1.12040E+00
 -1      3250 8.67181E-01
 -1      3251 7.24563E+00
 -1      3252 8.30822E+00
 -1      3253 6.69618E+00
 -1      3254 3.62095E+00
 -1      3255 3.39977E+00
 -1      3256 3.39694E+00
 -1      3257 1.03276E+01
 -1      3258 3.77937E-01
 -1      3259 2.61000E-01
 -1      3260 3.52325E-01
 -1      3261 1.54854E-01
 -1      3262 1.61476E-01
 -1      3263 2.69775E-01
 -1      3264 3.23123E-01
 -1      3265 2.88006E-01
 -1      3266 3.24902E-01
 -1      3267 4.72401E+00
 -1      3268 5.05199E+00
 -1      3269 3.08230E+00
 -1      3270 5.17057E+00
 -1      3271 4.93326E+00
 -1      3272 3.92093E+00
 -1      3273 4.80575E+00
 -1      3274 7.69297E+00
 -1      3275 3.35748E-01
 -1      3276 3.69557E-01
 -1      3277 2.57378E-01
 -1      3278 2.80259E-01
 -1      3279 1.16215E+01
 -1      3280 8.52806E+00
 -1      3281 8.32130E+00
 -1      3282 1.31805E-01
 -1      3283 3.23186E-01
 -1      3284 3.25435E-01
 -1      3285 2.84888E-01
 -1      3286 4.11166E-01
 -1      3287 3.41752E-01
 -1      3288 3.15448E-01
 -1      3289 3.23186E-01
 -1      3290 2.88556E-01
 -1      3291 3.60856E+00
 -1      3292 4.71148E+00
 -1      3293 3.83978E+00
 -1      3294 2.15073E-01
 -1      3295 2.11376E-01
 -1      3296 2.15048E-01
 -1      3297 2.03847E-01
 -1      3298 1.78222E-01
 -1      3299 1.99908E-01
 -1      3300 1.85304E-01
 -1      3301 1.77955E-01
 -1      3302 1.76988E-01
 -1      3303 1.63599E-01
 -1      3304 1.65700E-01
 -1      3305 1.53126E-01
 -1      3306 1.41882E-01
 -1      3307 1.46911E-01
 -1      3308 1.33780E-01
 -1      3309 1.21732E-01
 -1      3310 1.28337E-01
 -1      3311 1.12665E-01
 -1      3312 1.00683E-01
 -1      3313 1.11168E-01
 -1      3314 9.11783E-02
 -1      3315 7.96957E-02
 -1      3316 9.25968E-02
 -1      3317 7.01820E-02
 -1      3318 5.93247E-02
 -1      3319 7.35786E-02
 -1      3320 4.99321E-02
 -1      3321 3.96346E-02
 -1      3322 5.46724E-02
 -1      3323 3.47718E-02
 -1      3324 2.65666E-02
 -1      3325 4.04170E-02
 -1      3326 2.37974E-02
 -1      3327 2.78861E-02
 -1      3328 3.27850E-02
 -1      3329 3.47001E-02
 -1      3330 4.36742E-02
 -1      3331 3.68297E-02
 -1      3332 5.23524E-02
 -1      3333 6.06056E-02
 -1      3334 5.23219E-02
 -1      3335 7.38070E-02
 -1      3336 8.54504E-02
 -1      3337 7.42015E-02
 -1      3338 1.01918E-01
 -1      3339 1.18197E-01
 -1      3340 1.03870E-01
 -1      3341 1.42594E-01
 -1      3342 1.71015E-01
 -1      3343 1.44734E-01
 -1      3344 2.11264E-01
 -1      3345 2.49629E-01
 -1      3346 2.09380E-01
 -1      3347 3.05182E-01
 -1      3348 3.60736E-01
 -1      3349 3.05182E-01
 -1      3350 4.26185E-01
 -1      3351 4.97884E-01
 -1      3352 4.26185E-01
 -1      3353 5.91912E-01
 -1      3354 6.86420E-01
 -1      3355 5.85662E-01
 -1      3356 7.71401E-01
 -1      3357 8.57600E-01
 -1      3358 7.64671E-01
 -1      3359 9.58949E-01
 -1      3360 1.05235E+00
 -1      3361 9.51001E-01
 -1      3362 1.16811E+00
 -1      3363 1.21912E+00
 -1      3364 1.16811E+00
 -1      3365 1.27432E+00
 -1      3366 1.31462E+00
 -1      3367 1.33908E+00
 -1      3368 2.09028E+00
 -1      3369 2.21648E+00
 -1      3370 2.16994E+00
 -1      3371 1.82102E+00
 -1      3372 1.84600E+00
 -1      3373 2.55013E+00
 -1      3374 2.24997E+00
 -1      3375 2.15099E+00
 -1      3376 2.55864E+00
 -1      3377 1.92629E+00
 -1      3378 2.06028E+00
 -1      3379 2.73791E+00
 -1      3380 2.57869E+00
 -1      3381 2.47170E+00
 -1      3382 3.03162E+00
 -1      3383 2.05194E+00
 -1      3384 1.95924E+00
 -1      3385 3.13026E+00
 -1      3386 1.41179E+00
 -1      3387 1.38665E+00
 -1      3388 2.16305E+00
 -1      3389 1.21423E+00
 -1      3390 1.14547E+00
 -1      3391 1.44318E+00
 -1      3392 1.02019E+00
 -1      3393 9.34586E-01
 -1      3394 1.14547E+00
 -1      3395 8.35222E-01
 -1      3396 7.46629E-01
 -1      3397 9.20827E-01
 -1      3398 6.52235E-01
 -1      3399 5.61418E-01
 -1      3400 7.27069E-01
 -1      3401 4.71792E-01
 -1      3402 3.94896E-01
 -1      3403 5.43049E-01
 -1      3404 3.36368E-01
 -1      3405 2.83879E-01
 -1      3406 3.94896E-01
 -1      3407 2.20594E-01
 -1      3408 1.89409E-01
 -1      3409 1.81864E-01
 -1      3410 2.73083E-01
 -1      3411 2.21186E-01
 -1      3412 2.51659E-01
 -1      3413 2.49119E-01
 -1      3414 8.55246E-02
 -1      3415 9.80879E-02
 -1      3416 1.08653E-01
 -1      3417 1.21963E-01
 -1      3418 1.00476E-01
 -1      3419 4.17348E-02
 -1      3420 5.32275E-02
 -1      3421 4.21390E-02
 -1      3422 4.15250E-02
 -1      3423 4.88496E-02
 -1      3424 6.34664E-02
 -1      3425 4.62679E-02
 -1      3426 5.27686E-02
 -1      3427 1.09824E-01
 -1      3428 8.34728E-02
 -1      3429 7.69039E-02
 -1      3430 1.76015E-01
 -1      3431 1.37243E-01
 -1      3432 1.24330E-01
 -1      3433 2.69377E-01
 -1      3434 2.13174E-01
 -1      3435 1.88908E-01
 -1      3436 4.02471E-01
 -1      3437 3.20011E-01
 -1      3438 2.76701E-01
 -1      3439 5.93379E-01
 -1      3440 4.71309E-01
 -1      3441 3.96173E-01
 -1      3442 8.77231E-01
 -1      3443 6.94316E-01
 -1      3444 5.65949E-01
 -1      3445 1.34927E+00
 -1      3446 1.06935E+00
 -1      3447 8.59008E-01
 -1      3448 2.09029E+00
 -1      3449 1.64654E+00
 -1      3450 1.34840E+00
 -1      3451 3.27875E+00
 -1      3452 2.54112E+00
 -1      3453 2.09649E+00
 -1      3454 4.96185E+00
 -1      3455 3.88453E+00
 -1      3456 3.15310E+00
 -1      3457 8.23574E+00
 -1      3458 5.92073E+00
 -1      3459 4.71776E+00
 -1      3460 7.91943E+00
 -1      3461 3.75689E-01
 -1      3462 3.99494E-01
 -1      3463 2.73694E-01
 -1      3464 1.33422E+00
 -1      3465 1.67021E+00
 -1      3466 6.64192E+00
 -1      3467 8.47102E+00
 -1      3468 7.98325E+00
 -1      3469 2.01596E+00
 -1      3470 2.58294E+00
 -1      3471 1.71174E+00
 -1      3472 4.27381E-01
 -1      3473 4.75896E-01
 -1      3474 4.88613E-01
 -1      3475 8.01652E+00
 -1      3476 7.40178E+00
 -1      3477 4.27484E+00
 -1      3478 5.44129E+00
 -1      3479 3.74939E+00
 -1      3480 7.87715E+00
 -1      3481 8.32130E+00
 -1      3482 6.89391E+00
 -1      3483 7.18887E-01
 -1      3484 7.32413E-01
 -1      3485 7.59491E-01
 -1      3486 2.31477E-01
 -1      3487 2.47610E-01
 -1      3488 6.32737E-02
 -1      3489 7.51451E-02
 -1      3490 7.95313E-02
 -1      3491 5.91056E-02
 -1      3492 2.05887E-01
 -1      3493 2.24579E-01
 -1      3494 2.02415E-01
 -1      3495 1.80600E-01
 -1      3496 1.95085E-01
 -1      3497 1.84715E-01
 -1      3498 6.63836E+00
 -1      3499 5.86900E+00
 -1      3500 5.82307E+00
 -1      3501 1.88003E-01
 -1      3502 1.98640E-01
 -1      3503 1.58117E-01
 -1      3504 2.22325E+00
 -1      3505 2.37738E+00
 -1      3506 2.06713E-01
 -1      3507 1.90790E-01
 -1      3508 1.44471E-01
 -1      3509 2.14238E-01
 -1      3510 5.78397E+00
 -1      3511 4.92861E+00
 -1      3512 3.76161E+00
 -1      3513 3.01679E-01
 -1      3514 3.39566E-01
 -1      3515 4.24603E-01
 -1      3516 3.38461E-01
 -1      3517 3.24429E+00
 -1      3518 2.61176E+00
 -1      3519 6.18736E+00
 -1      3520 7.35478E+00
 -1      3521 2.23794E-01
 -1      3522 2.03739E-01
 -1      3523 2.02941E-01
 -1      3524 2.23889E-01
 -1      3525 3.25741E+00
 -1      3526 3.02954E+00
 -1      3527 2.82075E+00
 -1      3528 3.16557E+00
 -1      3529 2.62882E+00
 -1      3530 3.28842E+00
 -1      3531 2.53843E-01
 -1      3532 2.50630E-01
 -1      3533 2.32383E+00
 -1      3534 2.53262E+00
 -1      3535 3.02875E+00
 -1      3536 2.55709E+00
 -1      3537 4.82486E+00
 -1      3538 5.11196E-01
 -1      3539 6.78025E-01
 -1      3540 7.49205E-01
 -1      3541 1.21352E-01
 -1      3542 1.32273E-01
 -1      3543 1.46038E-01
 -1      3544 3.34904E+00
 -1      3545 3.05035E+00
 -1      3546 3.72699E+00
 -1      3547 6.28528E+00
 -1      3548 2.85068E-01
 -1      3549 5.78397E+00
 -1      3550 8.43326E-01
 -1      3551 1.02536E+00
 -1      3552 1.05714E+00
 -1      3553 6.54169E-01
 -1      3554 3.69040E+00
 -1      3555 3.25657E+00
 -1      3556 3.05764E+00
 -1      3557 1.00248E+00
 -1      3558 7.32413E-01
 -1      3559 7.32413E-01
 -1      3560 6.15992E+00
 -1      3561 2.07614E-01
 -1      3562 2.45912E-01
 -1      3563 2.40262E-01
 -1      3564 5.47710E+00
 -1      3565 6.68569E+00
 -1      3566 5.32094E+00
 -1      3567 6.37154E+00
 -1      3568 2.85024E-01
 -1      3569 2.37154E-01
 -1      3570 1.70173E-01
 -1      3571 2.40822E-01
 -1      3572 1.68690E-01
 -1      3573 1.62002E-01
 -1      3574 1.55252E-01
 -1      3575 2.61168E-01
 -1      3576 2.61168E-01
 -1      3577 2.27005E-01
 -1      3578 3.61710E+00
 -1      3579 5.09065E+00
 -1      3580 4.75246E+00
 -1      3581 1.49138E-01
 -1      3582 1.52810E-01
 -1      3583 1.58653E-01
 -1      3584 1.54714E-01
 -1      3585 1.29568E-01
 -1      3586 1.54111E-01
 -1      3587 1.45795E-01
 -1      3588 1.34809E-01
 -1      3589 1.40985E-01
 -1      3590 1.30513E-01
 -1      3591 1.29396E-01
 -1      3592 1.23305E-01
 -1      3593 1.15204E-01
 -1      3594 1.17380E-01
 -1      3595 1.08086E-01
 -1      3596 9.90191E-02
 -1      3597 1.03055E-01
 -1      3598 9.21182E-02
 -1      3599 8.26137E-02
 -1      3600 8.90360E-02
 -1      3601 7.51483E-02
 -1      3602 6.56346E-02
 -1      3603 7.46697E-02
 -1      3604 5.87306E-02
 -1      3605 4.93380E-02
 -1      3606 6.03003E-02
 -1      3607 4.76618E-02
 -1      3608 4.27991E-02
 -1      3609 5.17201E-02
 -1      3610 4.11679E-02
 -1      3611 3.83986E-02
 -1      3612 4.84127E-02
 -1      3613 3.96120E-02
 -1      3614 4.64260E-02
 -1      3615 4.79949E-02
 -1      3616 5.57667E-02
 -1      3617 6.44449E-02
 -1      3618 5.85489E-02
 -1      3619 7.51970E-02
 -1      3620 8.83984E-02
 -1      3621 7.86418E-02
 -1      3622 1.07475E-01
 -1      3623 1.23943E-01
 -1      3624 1.08471E-01
 -1      3625 1.52456E-01
 -1      3626 1.76853E-01
 -1      3627 1.56062E-01
 -1      3628 2.10274E-01
 -1      3629 2.50524E-01
 -1      3630 2.17996E-01
 -1      3631 2.99901E-01
 -1      3632 3.55454E-01
 -1      3633 3.00795E-01
 -1      3634 4.26185E-01
 -1      3635 4.91634E-01
 -1      3636 4.20903E-01
 -1      3637 5.85662E-01
 -1      3638 6.79690E-01
 -1      3639 5.85662E-01
 -1      3640 7.88297E-01
 -1      3641 8.73277E-01
 -1      3642 7.88297E-01
 -1      3643 1.27036E+00
 -1      3644 1.37171E+00
 -1      3645 1.29399E+00
 -1      3646 1.56039E+00
 -1      3647 1.67615E+00
 -1      3648 1.87975E+00
 -1      3649 1.72623E+00
 -1      3650 1.78143E+00
 -1      3651 2.11851E+00
 -1      3652 1.96925E+00
 -1      3653 2.74491E+00
 -1      3654 2.35640E+00
 -1      3655 3.05035E+00
 -1      3656 2.65489E+00
 -1      3657 3.05886E+00
 -1      3658 3.08279E+00
 -1      3659 2.85808E+00
 -1      3660 2.59580E+00
 -1      3661 3.11421E+00
 -1      3662 3.55003E+00
 -1      3663 3.13026E+00
 -1      3664 1.67450E+00
 -1      3665 1.50208E+00
 -1      3666 1.27076E+00
 -1      3667 1.14547E+00
 -1      3668 1.50208E+00
 -1      3669 1.07087E+00
 -1      3670 9.71507E-01
 -1      3671 1.19615E+00
 -1      3672 8.27577E-01
 -1      3673 7.33183E-01
 -1      3674 9.77621E-01
 -1      3675 6.32675E-01
 -1      3676 5.43049E-01
 -1      3677 7.33183E-01
 -1      3678 4.50979E-01
 -1      3679 3.92451E-01
 -1      3680 5.40605E-01
 -1      3681 3.62424E-01
 -1      3682 2.99139E-01
 -1      3683 3.38461E-01
 -1      3684 4.18507E-01
 -1      3685 9.01623E-02
 -1      3686 1.00728E-01
 -1      3687 1.51428E-01
 -1      3688 1.67861E-01
 -1      3689 1.42449E-01
 -1      3690 5.90897E-02
 -1      3691 5.49609E-02
 -1      3692 5.24329E-02
 -1      3693 5.26427E-02
 -1      3694 5.87540E-02
 -1      3695 1.30009E-01
 -1      3696 1.02590E-01
 -1      3697 1.92835E-01
 -1      3698 1.55676E-01
 -1      3699 1.33937E-01
 -1      3700 2.82356E-01
 -1      3701 2.31723E-01
 -1      3702 1.98491E-01
 -1      3703 4.08775E-01
 -1      3704 3.39937E-01
 -1      3705 2.94959E-01
 -1      3706 5.92835E-01
 -1      3707 4.91897E-01
 -1      3708 4.35662E-01
 -1      3709 9.00952E-01
 -1      3710 7.08830E-01
 -1      3711 6.34779E-01
 -1      3712 1.38018E+00
 -1      3713 1.08291E+00
 -1      3714 9.32735E-01
 -1      3715 2.22523E+00
 -1      3716 1.77440E+00
 -1      3717 1.50892E+00
 -1      3718 3.51307E+00
 -1      3719 2.90729E+00
 -1      3720 2.58520E+00
 -1      3721 5.41987E+00
 -1      3722 4.46099E+00
 -1      3723 4.21518E+00
 -1      3724 2.17337E-01
 -1      3725 2.48287E-01
 -1      3726 2.51775E-01
 -1      3727 1.77637E-01
 -1      3728 1.75939E-01
 -1      3729 1.61423E+00
 -1      3730 1.95997E+00
 -1      3731 5.89189E-01
 -1      3732 6.17076E-01
 -1      3733 2.00032E-01
 -1      3734 2.58186E-01
 -1      3735 8.67974E-01
 -1      3736 1.11096E+00
 -1      3737 9.68549E-01
 -1      3738 1.62385E-01
 -1      3739 1.73188E-01
 -1      3740 2.74491E+00
 -1      3741 2.35640E+00
 -1      3742 5.32094E+00
 -1      3743 5.26313E+00
 -1      3744 4.76100E+00
 -1      3745 1.75236E-01
 -1      3746 1.82133E-01
 -1      3747 1.50459E-01
 -1      3748 1.52906E-01
 -1      3749 5.27544E+00
 -1      3750 5.79781E+00
 -1      3751 4.55319E+00
 -1      3752 3.61279E+00
 -1      3753 6.02850E+00
 -1      3754 2.44466E+00
 -1      3755 4.13656E+00
 -1      3756 2.34714E+00
 -1      3757 2.27774E-01
 -1      3758 2.10543E-01
 -1      3759 1.73337E-01
 -1      3760 1.93427E-01
 -1      3761 1.23297E-01
 -1      3762 1.20511E-01
 -1      3763 1.30255E-01
 -1      3764 1.46213E-01
 -1      3765 2.51775E-01
 -1      3766 2.51775E-01
 -1      3767 2.04041E-01
 -1      3768 2.14995E-01
 -1      3769 6.02850E+00
 -1      3770 8.66185E-02
 -1      3771 6.66120E-02
 -1      3772 9.22982E-02
 -1      3773 2.61168E-01
 -1      3774 3.33475E+00
 -1      3775 2.73870E+00
 -1      3776 3.59417E+00
 -1      3777 4.69087E+00
 -1      3778 4.11715E+00
 -1      3779 2.53044E+00
 -1      3780 3.08011E+00
 -1      3781 3.11878E+00
 -1      3782 4.56340E-01
 -1      3783 5.84803E-01
 -1      3784 4.20218E-01
 -1      3785 1.29272E+00
 -1      3786 1.54095E+00
 -1      3787 9.83869E-01
 -1      3788 3.17903E+00
 -1      3789 3.13026E+00
 -1      3790 2.71050E+00
 -1      3791 3.88480E-01
 -1      3792 2.16305E+00
 -1      3793 9.81808E-02
 -1      3794 1.08494E-01
 -1      3795 1.18805E-01
 -1      3796 7.81265E-01
 -1      3797 6.88043E-02
 -1      3798 3.75092E+00
 -1      3799 5.70628E-02
 -1      3800 5.34795E-02
 -1      3801 6.35257E-02
 -1      3802 4.93241E+00
 -1      3803 4.33363E+00
 -1      3804 5.63836E+00
 -1      3805 1.87892E-01
 -1      3806 1.85549E-01
 -1      3807 1.40877E-01
 -1      3808 2.22195E+00
 -1      3809 2.63788E+00
 -1      3810 2.07634E-01
 -1      3811 5.98104E+00
 -1      3812 1.21945E+00
 -1      3813 1.11096E+00
 -1      3814 1.56094E-01
 -1      3815 1.44567E-01
 -1      3816 1.44184E-01
 -1      3817 2.16858E+00
 -1      3818 1.24894E-01
 -1      3819 1.54870E-01
 -1      3820 1.42382E-01
 -1      3821 7.15655E-02
 -1      3822 8.19450E-02
 -1      3823 8.21966E-02
 -1      3824 6.59394E-02
 -1      3825 4.05106E+00
 -1      3826 2.34330E-01
 -1      3827 2.70144E+00
 -1      3828 3.06307E+00
 -1      3829 6.01431E+00
 -1      3830 2.94560E+00
 -1      3831 2.03349E-01
 -1      3832 1.96024E-01
 -1      3833 1.64236E-01
 -1      3834 5.29821E+00
 -1      3835 2.32383E+00
 -1      3836 3.25657E+00
 -1      3837 3.11421E+00
 -1      3838 2.94067E+00
 -1      3839 1.18468E-01
 -1      3840 1.17865E-01
 -1      3841 1.18400E-01
 -1      3842 1.13591E-01
 -1      3843 1.02060E-01
 -1      3844 1.10642E-01
 -1      3845 1.03435E-01
 -1      3846 9.96462E-02
 -1      3847 9.83439E-02
 -1      3848 9.12261E-02
 -1      3849 9.16060E-02
 -1      3850 8.49793E-02
 -1      3851 7.80783E-02
 -1      3852 8.02684E-02
 -1      3853 7.39626E-02
 -1      3854 6.64972E-02
 -1      3855 6.99058E-02
 -1      3856 6.43298E-02
 -1      3857 5.74258E-02
 -1      3858 6.36226E-02
 -1      3859 5.72485E-02
 -1      3860 5.55722E-02
 -1      3861 6.12779E-02
 -1      3862 5.50742E-02
 -1      3863 5.34430E-02
 -1      3864 6.06026E-02
 -1      3865 5.46119E-02
 -1      3866 5.58253E-02
 -1      3867 6.12734E-02
 -1      3868 5.96093E-02
 -1      3869 6.89500E-02
 -1      3870 6.62264E-02
 -1      3871 8.26389E-02
 -1      3872 9.33911E-02
 -1      3873 8.36993E-02
 -1      3874 1.11611E-01
 -1      3875 1.30688E-01
 -1      3876 1.15608E-01
 -1      3877 1.53768E-01
 -1      3878 1.82281E-01
 -1      3879 1.56907E-01
 -1      3880 2.27757E-01
 -1      3881 2.61178E-01
 -1      3882 2.25463E-01
 -1      3883 3.21610E-01
 -1      3884 3.70987E-01
 -1      3885 3.31371E-01
 -1      3886 4.38698E-01
 -1      3887 5.09429E-01
 -1      3888 4.59513E-01
 -1      3889 5.88829E-01
 -1      3890 6.82857E-01
 -1      3891 6.06624E-01
 -1      3892 8.46267E-01
 -1      3893 9.54874E-01
 -1      3894 8.49434E-01
 -1      3895 1.40767E+00
 -1      3896 1.80475E+00
 -1      3897 1.46564E+00
 -1      3898 2.13644E+00
 -1      3899 2.32511E+00
 -1      3900 2.27375E+00
 -1      3901 1.69077E-01
 -1      3902 3.91133E-01
 -1      3903 3.91133E-01
 -1      3904 4.22870E-01
 -1      3905 4.21160E-01
 -1      3906 1.41663E+00
 -1      3907 1.34203E+00
 -1      3908 1.23209E+00
 -1      3909 1.08816E+00
 -1      3910 1.45257E+00
 -1      3911 8.81832E-01
 -1      3912 7.81324E-01
 -1      3913 1.13630E+00
 -1      3914 6.25975E-01
 -1      3915 5.33904E-01
 -1      3916 5.06530E-01
 -1      3917 7.74623E-01
 -1      3918 1.33637E-01
 -1      3919 1.14913E-01
 -1      3920 8.75386E-01
 -1      3921 4.66549E+00
 -1      3922 4.12828E+00
 -1      3923 2.12279E-01
 -1      3924 1.73392E-01
 -1      3925 1.47774E-01
 -1      3926 1.22107E-01
 -1      3927 1.61562E-01
 -1      3928 4.36902E-01
 -1      3929 3.53781E-01
 -1      3930 6.62038E-01
 -1      3931 5.46042E-01
 -1      3932 4.64161E-01
 -1      3933 1.00513E+00
 -1      3934 8.23171E-01
 -1      3935 7.34434E-01
 -1      3936 1.63148E+00
 -1      3937 1.23726E+00
 -1      3938 1.12769E+00
 -1      3939 2.58520E+00
 -1      3940 1.90314E+00
 -1      3941 1.63148E+00
 -1      3942 4.39690E+00
 -1      3943 3.44898E+00
 -1      3944 2.76692E+00
 -1      3945 4.16621E+00
 -1      3946 2.83183E+00
 -1      3947 4.33363E+00
 -1      3948 3.16369E+00
 -1      3949 1.58638E-01
 -1      3950 1.88084E-01
 -1      3951 1.88084E-01
 -1      3952 1.26358E-01
 -1      3953 1.35573E-01
 -1      3954 1.29665E-01
 -1      3955 1.13501E-01
 -1      3956 3.04800E-01
 -1      3957 2.47219E-01
 -1      3958 2.22120E-01
 -1      3959 6.18010E-02
 -1      3960 5.92731E-02
 -1      3961 2.25921E+00
 -1      3962 2.02789E+00
 -1      3963 1.11096E+00
 -1      3964 2.21289E+00
 -1      3965 3.90878E+00
 -1      3966 3.19884E+00
 -1      3967 1.06900E-01
 -1      3968 1.12743E-01
 -1      3969 9.57994E-02
 -1      3970 9.80877E-02
 -1      3971 2.45181E+00
 -1      3972 2.17377E+00
 -1      3973 2.03349E-01
 -1      3974 2.03349E-01
 -1      3975 1.72368E-01
 -1      3976 1.38096E-01
 -1      3977 1.86246E+00
 -1      3978 2.34714E+00
 -1      3979 2.34714E+00
 -1      3980 4.12828E+00
 -1      3981 3.55003E+00
 -1      3982 9.43608E-01
 -1      3983 1.19451E+00
 -1      3984 3.29182E+00
 -1      3985 1.54095E+00
 -1      3986 1.04134E-01
 -1      3987 8.81628E-02
 -1      3988 1.17971E-01
 -1      3989 7.60759E-02
 -1      3990 6.85536E-02
 -1      3991 6.90727E-02
 -1      3992 8.79122E-02
 -1      3993 3.00515E+00
 -1      3994 3.58972E+00
 -1      3995 3.05422E+00
 -1      3996 2.25011E+00
 -1      3997 1.54095E+00
 -1      3998 1.61173E-01
 -1      3999 1.33637E-01
 -1      4000 3.55003E+00
 -1      4001 8.66646E-02
 -1      4002 9.44315E-02
 -1      4003 7.12289E-02
 -1      4004 6.81818E-02
 -1      4005 6.90186E-02
 -1      4006 3.06041E-01
 -1      4007 3.27606E+00
 -1      4008 1.31553E-01
 -1      4009 1.34088E-01
 -1      4010 1.06552E-01
 -1      4011 2.53067E+00
 -1      4012 3.06765E+00
 -1      4013 3.00606E+00
 -1      4014 2.19898E+00
 -1      4015 1.27072E-01
 -1      4016 1.33363E-01
 -1      4017 1.22593E-01
 -1      4018 1.01524E-01
 -1      4019 1.35796E-01
 -1      4020 1.57166E-01
 -1      4021 1.33313E-01
 -1      4022 1.35362E-01
 -1      4023 1.15819E-01
 -1      4024 7.26998E-02
 -1      4025 8.09171E-02
 -1      4026 7.71679E-02
 -1      4027 1.29335E-01
 -1      4028 1.24839E-01
 -1      4029 1.01470E-01
 -1      4030 1.09742E-01
 -1      4031 5.73713E-01
 -1      4032 7.06561E-01
 -1      4033 9.32518E-01
 -1      4034 2.87055E+00
 -1      4035 1.98125E+00
 -1      4036 1.87131E+00
 -1      4037 2.72828E+00
 -1      4038 1.39685E-01
 -1      4039 1.31553E-01
 -1      4040 1.07003E-01
 -1      4041 1.51601E+00
 -1      4042 9.78400E-02
 -1      4043 8.57530E-02
 -1      4044 9.36754E-02
 -1      4045 9.07259E-02
 -1      4046 8.50634E-02
 -1      4047 7.99726E-02
 -1      4048 7.90926E-02
 -1      4049 9.25581E-02
 -1      4050 8.63112E-02
 -1      4051 8.60154E-02
 -1      4052 7.21684E-02
 -1      4053 6.80526E-02
 -1      4054 8.44580E-02
 -1      4055 6.57900E-02
 -1      4056 6.36226E-02
 -1      4057 6.80526E-02
 -1      4058 7.44042E-02
 -1      4059 7.42268E-02
 -1      4060 7.65715E-02
 -1      4061 6.19356E-02
 -1      4062 6.14376E-02
 -1      4063 7.50618E-02
 -1      4064 6.68468E-02
 -1      4065 6.80156E-02
 -1      4066 6.81798E-02
 -1      4067 8.12902E-02
 -1      4068 8.50743E-02
 -1      4069 8.68636E-02
 -1      4070 1.04500E-01
 -1      4071 1.18189E-01
 -1      4072 1.19564E-01
 -1      4073 1.51808E-01
 -1      4074 1.70027E-01
 -1      4075 1.72608E-01
 -1      4076 2.23467E-01
 -1      4077 2.46547E-01
 -1      4078 2.59667E-01
 -1      4079 3.25969E-01
 -1      4080 3.71445E-01
 -1      4081 3.92529E-01
 -1      4082 4.83265E-01
 -1      4083 5.43697E-01
 -1      4084 5.83771E-01
 -1      4085 6.89177E-01
 -1      4086 7.56888E-01
 -1      4087 8.41072E-01
 -1      4088 9.17216E-01
 -1      4089 9.96616E-01
 -1      4090 1.14688E+00
 -1      4091 1.21025E+00
 -1      4092 1.37366E+00
 -1      4093 1.52085E+00
 -1      4094 1.47047E+00
 -1      4095 1.92326E+00
 -1      4096 2.20381E+00
 -1      4097 1.83129E+00
 -1      4098 1.96704E-01
 -1      4099 1.71085E-01
 -1      4100 4.35957E-01
 -1      4101 4.65042E-01
 -1      4102 5.86800E-01
 -1      4103 5.48702E-01
 -1      4104 1.88084E-01
 -1      4105 2.85083E-01
 -1      4106 2.50144E-01
 -1      4107 2.59667E-01
 -1      4108 1.36417E+00
 -1      4109 1.15784E+00
 -1      4110 1.89285E+00
 -1      4111 4.13486E-01
 -1      4112 3.64505E-01
 -1      4113 3.92529E-01
 -1      4114 9.41060E-01
 -1      4115 7.79927E-01
 -1      4116 6.34446E-01
 -1      4117 5.25306E-01
 -1      4118 5.83771E-01
 -1      4119 8.41072E-01
 -1      4120 1.81881E+00
 -1      4121 1.54715E+00
 -1      4122 2.67226E+00
 -1      4123 1.80848E+00
 -1      4124 1.72416E+00
 -1      4125 2.09578E+00
 -1      4126 2.85082E+00
 -1      4127 2.63132E+00
 -1      4128 2.30303E+00
 -1      4129 2.51895E+00
 -1      4130 9.85387E-02
 -1      4131 1.79134E+00
 -1      4132 2.27603E+00
 -1      4133 1.96315E+00
 -1      4134 1.44490E+00
 -1      4135 6.35905E-02
 -1      4136 7.16304E-02
 -1      4137 7.03510E-02
 -1      4138 7.47096E-02
 -1      4139 7.38445E-02
 -1      4140 6.70919E-02
 -1      4141 8.37722E-02
 -1      4142 1.33351E+00
 -1      4143 1.10139E+00
 -1      4144 1.14688E+00
 -1      4145 1.52085E+00
 -1      4146 1.36761E-01
 -1      4147 1.18788E-01
 -1      4148 1.16629E-01
 -1      4149 1.71902E-01
 -1      4150 1.23261E-01
 -1      4151 1.12057E-01
 -1      4152 1.14650E-01
 -1      4153 9.11041E-02
 -1      4154 9.16399E-02
 -1      4155 8.27196E-02
 -1      4156 8.95305E-02
 -1      4157 1.01047E-01
 -1      4158 1.08600E-01
 -1      4159 2.47863E+00
 -1      4160 9.79429E-02
 -1      4161 1.01755E-01
 -1      4162 7.48366E-02
 -1      4163 8.37453E-02
 -1      4164 7.96084E-02
 -1      4165 8.03843E-02
 -1      4166 7.81389E-02
 -1      4167 8.50106E-02
 -1      4168 9.07581E-02
 -1      4169 8.10374E-02
 -1      4170 8.10374E-02
 -1      4171 8.69102E-02
 -1      4172 1.01025E-01
 -1      4173 1.00975E-01
 -1      4174 1.20785E+00
 -1      4175 1.35796E-01
 -1      4176 9.77196E-02
 -1      4177 8.98769E-02
 -1      4178 9.64920E-02
 -1      4179 7.25732E-02
 -1      4180 1.03114E-01
 -1      4181 9.65004E-02
 -1      4182 8.61977E-02
 -1      4183 8.91081E-02
 -1      4184 6.57774E-02
 -1      4185 9.51350E-02
 -1      4186 8.60154E-02
 -1      4187 9.86008E-02
 -1      4188 9.86008E-02
 -1      4189 8.44580E-02
 -1      4190 7.65715E-02
 -1      4191 8.73530E-02
 -1      4192 8.73530E-02
 -1      4193 7.50618E-02
 -1      4194 6.73171E-02
 -1      4195 7.27264E-02
 -1      4196 8.46349E-02
 -1      4197 9.79095E-02
 -1      4198 1.18858E-01
 -1      4199 1.38284E-01
 -1      4200 1.72608E-01
 -1      4201 2.06227E-01
 -1      4202 2.59667E-01
 -1      4203 3.13107E-01
 -1      4204 3.92529E-01
 -1      4205 4.71951E-01
 -1      4206 5.83771E-01
 -1      4207 6.95591E-01
 -1      4208 8.41072E-01
 -1      4209 9.86553E-01
 -1      4210 1.14688E+00
 -1      4211 1.30721E+00
 -1      4212 1.52085E+00
 -1      4213 1.73448E+00
 -1      4214 1.79589E+00
 -1      4215 8.20282E-02
 -1      4216 9.95853E-01
 -1      4217 8.40505E-01
 -1      4218 8.41622E-02
 -1      4219 8.61977E-02
 -1      4220 1.22372E+00
 -1      4221 2.20291E+00
 -1      4222 1.55297E+00
 -1      4223 7.85257E-02
 -1      4224 8.42505E-02
 -1      4225 5.60627E-02
 -1      4226 8.47552E-02
 -1      4227 7.90926E-02
 -1      4228 7.07905E-02
 -1      4229 8.43807E-02
 -1      4230 6.97211E-02
 -1      4231 7.38305E-02
 -1      4232 1.02196E-01
 -1      4233 6.10244E-02
 -1      4234 5.76036E-02
 -1      4235 6.35561E-02
 -1      4236 9.04504E-02
 -1      4237 7.02379E-02
 -1      4238 8.34322E-02
 -1      4239 7.04097E-02
 -1      4240 8.73530E-02
 -1      4241 8.37453E-02
 -1      4242 9.16780E-02
 -1      4243 1.39098E+00
 -1      4244 6.79753E-02
 -1      4245 7.83173E-02
 -1      4246 6.47865E-02
 -1      4247 1.73448E+00
 -1      4248 1.73448E+00
 -1      4249 9.86008E-02
 -1      4250 8.03407E-02
 -1      4251 7.87568E-02
 -1      4252 8.78603E-01
 -1      4253 7.69932E-01
 -1      4254 6.73183E-02
 -1      4255 7.31578E-02
 -1      4256 9.07968E-02
 -1      4257 1.83129E+00
 -1      4258 9.77196E-02
 -1      4259 2.10611E+00
 -1      4260 1.72416E+00
 -3
 9999
