    1C
    1UUSER                                                              
    1UDATE              27.october.2022                                 
    1UTIME              01:03:16                                        
    1UHOST                                                              
    1UPGM               CalculiX                                        
    1UVERSION           Version 2.17                             
    1UCOMPILETIME       Thu Jul 23 21:43:50 CEST 2020                    
    1UDIR                                                               
    1UDBN                                                               
    1UMAT    1SOLIDMATERIAL                                             
    2C                          4265                                     1
 -1         1 3.58714E+01 2.31259E+01 0.00000E+00
 -1         2 4.28708E+01 1.61259E+01 0.00000E+00
 -1         3 1.50000E+02 0.00000E+00 0.00000E+00
 -1         4 1.50000E+02 5.00000E+01 0.00000E+00
 -1         5 0.00000E+00 0.00000E+00 0.00000E+00
 -1         6 0.00000E+00 5.00000E+01 0.00000E+00
 -1         7 0.00000E+00 4.70500E+01 0.00000E+00
 -1         8 0.00000E+00 4.41000E+01 0.00000E+00
 -1         9 0.00000E+00 4.11500E+01 0.00000E+00
 -1        10 0.00000E+00 3.82000E+01 0.00000E+00
 -1        11 0.00000E+00 3.52500E+01 0.00000E+00
 -1        12 0.00000E+00 3.23500E+01 0.00000E+00
 -1        13 0.00000E+00 2.94000E+01 0.00000E+00
 -1        14 0.00000E+00 2.64500E+01 0.00000E+00
 -1        15 0.00000E+00 2.35000E+01 0.00000E+00
 -1        16 0.00000E+00 2.05500E+01 0.00000E+00
 -1        17 0.00000E+00 1.76000E+01 0.00000E+00
 -1        18 0.00000E+00 1.47000E+01 0.00000E+00
 -1        19 0.00000E+00 1.17500E+01 0.00000E+00
 -1        20 0.00000E+00 8.80000E+00 0.00000E+00
 -1        21 0.00000E+00 5.85000E+00 0.00000E+00
 -1        22 0.00000E+00 2.90000E+00 0.00000E+00
 -1        23 3.15000E+00 5.00000E+01 0.00000E+00
 -1        24 6.15000E+00 5.00000E+01 0.00000E+00
 -1        25 9.15000E+00 5.00000E+01 0.00000E+00
 -1        26 1.21500E+01 5.00000E+01 0.00000E+00
 -1        27 1.51500E+01 5.00000E+01 0.00000E+00
 -1        28 1.81500E+01 5.00000E+01 0.00000E+00
 -1        29 2.11500E+01 5.00000E+01 0.00000E+00
 -1        30 2.41500E+01 5.00000E+01 0.00000E+00
 -1        31 2.71500E+01 5.00000E+01 0.00000E+00
 -1        32 3.01500E+01 5.00000E+01 0.00000E+00
 -1        33 3.31500E+01 5.00000E+01 0.00000E+00
 -1        34 3.61500E+01 5.00000E+01 0.00000E+00
 -1        35 3.91500E+01 5.00000E+01 0.00000E+00
 -1        36 4.21500E+01 5.00000E+01 0.00000E+00
 -1        37 4.51500E+01 5.00000E+01 0.00000E+00
 -1        38 4.81500E+01 5.00000E+01 0.00000E+00
 -1        39 5.11500E+01 5.00000E+01 0.00000E+00
 -1        40 5.41500E+01 5.00000E+01 0.00000E+00
 -1        41 5.71500E+01 5.00000E+01 0.00000E+00
 -1        42 6.01500E+01 5.00000E+01 0.00000E+00
 -1        43 6.31500E+01 5.00000E+01 0.00000E+00
 -1        44 6.61500E+01 5.00000E+01 0.00000E+00
 -1        45 6.91500E+01 5.00000E+01 0.00000E+00
 -1        46 7.21500E+01 5.00000E+01 0.00000E+00
 -1        47 7.51500E+01 5.00000E+01 0.00000E+00
 -1        48 7.81500E+01 5.00000E+01 0.00000E+00
 -1        49 8.11500E+01 5.00000E+01 0.00000E+00
 -1        50 8.41500E+01 5.00000E+01 0.00000E+00
 -1        51 8.71500E+01 5.00000E+01 0.00000E+00
 -1        52 9.01500E+01 5.00000E+01 0.00000E+00
 -1        53 9.31500E+01 5.00000E+01 0.00000E+00
 -1        54 9.61500E+01 5.00000E+01 0.00000E+00
 -1        55 9.91500E+01 5.00000E+01 0.00000E+00
 -1        56 1.02150E+02 5.00000E+01 0.00000E+00
 -1        57 1.05150E+02 5.00000E+01 0.00000E+00
 -1        58 1.08150E+02 5.00000E+01 0.00000E+00
 -1        59 1.11150E+02 5.00000E+01 0.00000E+00
 -1        60 1.14150E+02 5.00000E+01 0.00000E+00
 -1        61 1.17150E+02 5.00000E+01 0.00000E+00
 -1        62 1.20150E+02 5.00000E+01 0.00000E+00
 -1        63 1.23150E+02 5.00000E+01 0.00000E+00
 -1        64 1.26150E+02 5.00000E+01 0.00000E+00
 -1        65 1.29150E+02 5.00000E+01 0.00000E+00
 -1        66 1.32150E+02 5.00000E+01 0.00000E+00
 -1        67 1.35150E+02 5.00000E+01 0.00000E+00
 -1        68 1.38150E+02 5.00000E+01 0.00000E+00
 -1        69 1.41150E+02 5.00000E+01 0.00000E+00
 -1        70 1.44150E+02 5.00000E+01 0.00000E+00
 -1        71 1.47150E+02 5.00000E+01 0.00000E+00
 -1        72 3.15000E+00 0.00000E+00 0.00000E+00
 -1        73 6.15000E+00 0.00000E+00 0.00000E+00
 -1        74 9.15000E+00 0.00000E+00 0.00000E+00
 -1        75 1.21500E+01 0.00000E+00 0.00000E+00
 -1        76 1.51500E+01 0.00000E+00 0.00000E+00
 -1        77 1.81500E+01 0.00000E+00 0.00000E+00
 -1        78 2.13000E+01 0.00000E+00 0.00000E+00
 -1        79 2.43000E+01 0.00000E+00 0.00000E+00
 -1        80 2.73000E+01 0.00000E+00 0.00000E+00
 -1        81 3.03000E+01 0.00000E+00 0.00000E+00
 -1        82 3.33000E+01 0.00000E+00 0.00000E+00
 -1        83 3.63000E+01 0.00000E+00 0.00000E+00
 -1        84 3.88500E+01 0.00000E+00 0.00000E+00
 -1        85 4.12500E+01 0.00000E+00 0.00000E+00
 -1        86 4.42500E+01 0.00000E+00 0.00000E+00
 -1        87 4.72500E+01 0.00000E+00 0.00000E+00
 -1        88 5.02500E+01 0.00000E+00 0.00000E+00
 -1        89 5.32500E+01 0.00000E+00 0.00000E+00
 -1        90 5.62500E+01 0.00000E+00 0.00000E+00
 -1        91 5.94000E+01 0.00000E+00 0.00000E+00
 -1        92 6.24000E+01 0.00000E+00 0.00000E+00
 -1        93 6.54000E+01 0.00000E+00 0.00000E+00
 -1        94 6.84000E+01 0.00000E+00 0.00000E+00
 -1        95 7.14000E+01 0.00000E+00 0.00000E+00
 -1        96 7.44000E+01 0.00000E+00 0.00000E+00
 -1        97 7.75500E+01 0.00000E+00 0.00000E+00
 -1        98 8.05500E+01 0.00000E+00 0.00000E+00
 -1        99 8.35500E+01 0.00000E+00 0.00000E+00
 -1       100 8.65500E+01 0.00000E+00 0.00000E+00
 -1       101 8.95500E+01 0.00000E+00 0.00000E+00
 -1       102 9.25500E+01 0.00000E+00 0.00000E+00
 -1       103 9.57000E+01 0.00000E+00 0.00000E+00
 -1       104 9.87000E+01 0.00000E+00 0.00000E+00
 -1       105 1.01700E+02 0.00000E+00 0.00000E+00
 -1       106 1.04700E+02 0.00000E+00 0.00000E+00
 -1       107 1.07700E+02 0.00000E+00 0.00000E+00
 -1       108 1.10700E+02 0.00000E+00 0.00000E+00
 -1       109 1.13850E+02 0.00000E+00 0.00000E+00
 -1       110 1.16850E+02 0.00000E+00 0.00000E+00
 -1       111 1.19850E+02 0.00000E+00 0.00000E+00
 -1       112 1.22850E+02 0.00000E+00 0.00000E+00
 -1       113 1.25850E+02 0.00000E+00 0.00000E+00
 -1       114 1.28850E+02 0.00000E+00 0.00000E+00
 -1       115 1.32000E+02 0.00000E+00 0.00000E+00
 -1       116 1.35000E+02 0.00000E+00 0.00000E+00
 -1       117 1.38000E+02 0.00000E+00 0.00000E+00
 -1       118 1.41000E+02 0.00000E+00 0.00000E+00
 -1       119 1.44000E+02 0.00000E+00 0.00000E+00
 -1       120 1.47000E+02 0.00000E+00 0.00000E+00
 -1       121 1.50000E+02 2.95000E+00 0.00000E+00
 -1       122 1.50000E+02 5.90000E+00 0.00000E+00
 -1       123 1.50000E+02 8.85000E+00 0.00000E+00
 -1       124 1.50000E+02 1.18000E+01 0.00000E+00
 -1       125 1.50000E+02 1.47500E+01 0.00000E+00
 -1       126 1.50000E+02 1.76500E+01 0.00000E+00
 -1       127 1.50000E+02 2.06000E+01 0.00000E+00
 -1       128 1.50000E+02 2.35500E+01 0.00000E+00
 -1       129 1.50000E+02 2.65000E+01 0.00000E+00
 -1       130 1.50000E+02 2.94500E+01 0.00000E+00
 -1       131 1.50000E+02 3.24000E+01 0.00000E+00
 -1       132 1.50000E+02 3.53000E+01 0.00000E+00
 -1       133 1.50000E+02 3.82500E+01 0.00000E+00
 -1       134 1.50000E+02 4.12000E+01 0.00000E+00
 -1       135 1.50000E+02 4.41500E+01 0.00000E+00
 -1       136 1.50000E+02 4.71000E+01 0.00000E+00
 -1       137 4.27144E+01 1.46543E+01 0.00000E+00
 -1       138 4.22007E+01 1.31372E+01 0.00000E+00
 -1       139 4.14602E+01 1.19119E+01 0.00000E+00
 -1       140 4.04938E+01 1.08697E+01 0.00000E+00
 -1       141 3.93084E+01 1.00282E+01 0.00000E+00
 -1       142 3.78345E+01 9.40699E+00 0.00000E+00
 -1       143 3.64454E+01 9.14954E+00 0.00000E+00
 -1       144 3.48533E+01 9.20026E+00 0.00000E+00
 -1       145 3.33577E+01 9.59257E+00 0.00000E+00
 -1       146 3.20026E+01 1.02918E+01 0.00000E+00
 -1       147 3.08141E+01 1.12855E+01 0.00000E+00
 -1       148 2.99110E+01 1.24543E+01 0.00000E+00
 -1       149 2.92990E+01 1.37153E+01 0.00000E+00
 -1       150 2.89327E+01 1.51968E+01 0.00000E+00
 -1       151 2.88880E+01 1.66157E+01 0.00000E+00
 -1       152 2.91738E+01 1.81632E+01 0.00000E+00
 -1       153 2.97351E+01 1.94954E+01 0.00000E+00
 -1       154 3.05856E+01 2.07158E+01 0.00000E+00
 -1       155 3.16212E+01 2.16884E+01 0.00000E+00
 -1       156 3.29633E+01 2.24935E+01 0.00000E+00
 -1       157 3.43727E+01 2.29637E+01 0.00000E+00
 -1       158 3.73945E+01 2.29581E+01 0.00000E+00
 -1       159 3.89545E+01 2.24101E+01 0.00000E+00
 -1       160 4.02435E+01 2.15921E+01 0.00000E+00
 -1       161 4.13244E+01 2.05144E+01 0.00000E+00
 -1       162 4.21486E+01 1.92225E+01 0.00000E+00
 -1       163 4.26957E+01 1.76819E+01 0.00000E+00
 -1       164 2.59800E+00 4.55750E+01 0.00000E+00
 -1       165 2.59800E+00 4.26250E+01 0.00000E+00
 -1       166 2.59800E+00 3.96750E+01 0.00000E+00
 -1       167 2.59800E+00 3.67250E+01 0.00000E+00
 -1       168 2.59800E+00 3.38250E+01 0.00000E+00
 -1       169 2.59800E+00 3.08750E+01 0.00000E+00
 -1       170 2.59800E+00 2.79250E+01 0.00000E+00
 -1       171 2.59800E+00 2.49750E+01 0.00000E+00
 -1       172 2.59800E+00 2.20250E+01 0.00000E+00
 -1       173 2.59800E+00 1.90750E+01 0.00000E+00
 -1       174 2.59800E+00 1.61750E+01 0.00000E+00
 -1       175 2.59800E+00 1.32250E+01 0.00000E+00
 -1       176 2.59800E+00 1.02750E+01 0.00000E+00
 -1       177 2.59800E+00 7.32500E+00 0.00000E+00
 -1       178 2.59800E+00 4.37500E+00 0.00000E+00
 -1       179 2.87400E+00 2.18750E+00 0.00000E+00
 -1       180 4.65000E+00 4.74020E+01 0.00000E+00
 -1       181 7.65000E+00 4.74020E+01 0.00000E+00
 -1       182 1.06500E+01 4.74020E+01 0.00000E+00
 -1       183 1.36500E+01 4.74020E+01 0.00000E+00
 -1       184 1.66500E+01 4.74020E+01 0.00000E+00
 -1       185 1.96500E+01 4.74020E+01 0.00000E+00
 -1       186 2.26500E+01 4.74020E+01 0.00000E+00
 -1       187 2.56500E+01 4.74020E+01 0.00000E+00
 -1       188 2.86500E+01 4.74020E+01 0.00000E+00
 -1       189 3.16500E+01 4.74020E+01 0.00000E+00
 -1       190 3.46500E+01 4.74020E+01 0.00000E+00
 -1       191 3.76500E+01 4.74020E+01 0.00000E+00
 -1       192 4.06500E+01 4.74020E+01 0.00000E+00
 -1       193 4.36500E+01 4.74020E+01 0.00000E+00
 -1       194 4.66500E+01 4.74020E+01 0.00000E+00
 -1       195 4.96500E+01 4.74020E+01 0.00000E+00
 -1       196 5.26500E+01 4.74020E+01 0.00000E+00
 -1       197 5.56500E+01 4.74020E+01 0.00000E+00
 -1       198 5.86500E+01 4.74020E+01 0.00000E+00
 -1       199 6.16500E+01 4.74020E+01 0.00000E+00
 -1       200 6.46500E+01 4.74020E+01 0.00000E+00
 -1       201 6.76500E+01 4.74020E+01 0.00000E+00
 -1       202 7.06500E+01 4.74020E+01 0.00000E+00
 -1       203 7.36500E+01 4.74020E+01 0.00000E+00
 -1       204 7.66500E+01 4.74020E+01 0.00000E+00
 -1       205 7.96500E+01 4.74020E+01 0.00000E+00
 -1       206 8.26500E+01 4.74020E+01 0.00000E+00
 -1       207 8.56500E+01 4.74020E+01 0.00000E+00
 -1       208 8.86500E+01 4.74020E+01 0.00000E+00
 -1       209 9.16500E+01 4.74020E+01 0.00000E+00
 -1       210 9.46500E+01 4.74020E+01 0.00000E+00
 -1       211 9.76500E+01 4.74020E+01 0.00000E+00
 -1       212 1.00650E+02 4.74020E+01 0.00000E+00
 -1       213 1.03650E+02 4.74020E+01 0.00000E+00
 -1       214 1.06650E+02 4.74020E+01 0.00000E+00
 -1       215 1.09650E+02 4.74020E+01 0.00000E+00
 -1       216 1.12650E+02 4.74020E+01 0.00000E+00
 -1       217 1.15650E+02 4.74020E+01 0.00000E+00
 -1       218 1.18650E+02 4.74020E+01 0.00000E+00
 -1       219 1.21650E+02 4.74020E+01 0.00000E+00
 -1       220 1.24650E+02 4.74020E+01 0.00000E+00
 -1       221 1.27650E+02 4.74020E+01 0.00000E+00
 -1       222 1.30650E+02 4.74020E+01 0.00000E+00
 -1       223 1.33650E+02 4.74020E+01 0.00000E+00
 -1       224 1.36650E+02 4.74020E+01 0.00000E+00
 -1       225 1.39650E+02 4.74020E+01 0.00000E+00
 -1       226 1.42650E+02 4.74020E+01 0.00000E+00
 -1       227 1.45650E+02 4.74020E+01 0.00000E+00
 -1       228 5.87400E+00 2.18750E+00 0.00000E+00
 -1       229 8.87400E+00 2.18750E+00 0.00000E+00
 -1       230 1.18740E+01 2.18750E+00 0.00000E+00
 -1       231 1.48740E+01 2.18750E+00 0.00000E+00
 -1       232 1.78740E+01 2.18750E+00 0.00000E+00
 -1       233 2.10240E+01 2.18750E+00 0.00000E+00
 -1       234 2.40240E+01 2.18750E+00 0.00000E+00
 -1       235 2.70240E+01 2.18750E+00 0.00000E+00
 -1       236 3.00240E+01 2.18750E+00 0.00000E+00
 -1       237 3.30240E+01 2.18750E+00 0.00000E+00
 -1       238 3.60240E+01 2.18750E+00 0.00000E+00
 -1       239 3.85740E+01 2.18750E+00 0.00000E+00
 -1       240 4.09740E+01 2.18750E+00 0.00000E+00
 -1       241 4.39740E+01 2.18750E+00 0.00000E+00
 -1       242 4.69740E+01 2.18750E+00 0.00000E+00
 -1       243 4.99740E+01 2.18750E+00 0.00000E+00
 -1       244 5.29740E+01 2.18750E+00 0.00000E+00
 -1       245 5.59740E+01 2.18750E+00 0.00000E+00
 -1       246 5.91240E+01 2.18750E+00 0.00000E+00
 -1       247 6.21240E+01 2.18750E+00 0.00000E+00
 -1       248 6.51240E+01 2.18750E+00 0.00000E+00
 -1       249 6.81240E+01 2.18750E+00 0.00000E+00
 -1       250 7.11240E+01 2.18750E+00 0.00000E+00
 -1       251 7.41240E+01 2.18750E+00 0.00000E+00
 -1       252 7.72740E+01 2.18750E+00 0.00000E+00
 -1       253 8.02740E+01 2.18750E+00 0.00000E+00
 -1       254 8.32740E+01 2.18750E+00 0.00000E+00
 -1       255 8.62740E+01 2.18750E+00 0.00000E+00
 -1       256 8.92740E+01 2.18750E+00 0.00000E+00
 -1       257 9.22740E+01 2.18750E+00 0.00000E+00
 -1       258 9.54240E+01 2.18750E+00 0.00000E+00
 -1       259 9.84240E+01 2.18750E+00 0.00000E+00
 -1       260 1.01424E+02 2.18750E+00 0.00000E+00
 -1       261 1.04424E+02 2.18750E+00 0.00000E+00
 -1       262 1.07424E+02 2.18750E+00 0.00000E+00
 -1       263 1.10424E+02 2.18750E+00 0.00000E+00
 -1       264 1.13574E+02 2.18750E+00 0.00000E+00
 -1       265 1.16574E+02 2.18750E+00 0.00000E+00
 -1       266 1.19574E+02 2.18750E+00 0.00000E+00
 -1       267 1.22574E+02 2.18750E+00 0.00000E+00
 -1       268 1.25574E+02 2.18750E+00 0.00000E+00
 -1       269 1.28574E+02 2.18750E+00 0.00000E+00
 -1       270 1.31724E+02 2.18750E+00 0.00000E+00
 -1       271 1.34724E+02 2.18750E+00 0.00000E+00
 -1       272 1.37724E+02 2.18750E+00 0.00000E+00
 -1       273 1.40724E+02 2.18750E+00 0.00000E+00
 -1       274 1.43724E+02 2.18750E+00 0.00000E+00
 -1       275 1.46724E+02 2.18750E+00 0.00000E+00
 -1       276 1.47402E+02 4.42500E+00 0.00000E+00
 -1       277 1.47402E+02 7.37500E+00 0.00000E+00
 -1       278 1.47402E+02 1.03250E+01 0.00000E+00
 -1       279 1.47402E+02 1.32750E+01 0.00000E+00
 -1       280 1.47402E+02 1.61750E+01 0.00000E+00
 -1       281 1.47402E+02 1.91250E+01 0.00000E+00
 -1       282 1.47402E+02 2.20750E+01 0.00000E+00
 -1       283 1.47402E+02 2.50250E+01 0.00000E+00
 -1       284 1.47402E+02 2.79750E+01 0.00000E+00
 -1       285 1.47402E+02 3.09250E+01 0.00000E+00
 -1       286 1.47402E+02 3.38250E+01 0.00000E+00
 -1       287 1.47402E+02 3.67750E+01 0.00000E+00
 -1       288 1.47402E+02 3.97250E+01 0.00000E+00
 -1       289 1.47402E+02 4.26750E+01 0.00000E+00
 -1       290 1.46526E+02 4.50385E+01 0.00000E+00
 -1       291 4.40815E+01 1.52531E+01 0.00000E+00
 -1       292 4.38440E+01 1.34263E+01 0.00000E+00
 -1       293 4.29398E+01 1.18541E+01 0.00000E+00
 -1       294 4.19275E+01 1.05094E+01 0.00000E+00
 -1       295 4.06515E+01 9.39203E+00 0.00000E+00
 -1       296 3.91399E+01 8.36870E+00 0.00000E+00
 -1       297 3.73609E+01 8.08619E+00 0.00000E+00
 -1       298 3.56054E+01 7.79565E+00 0.00000E+00
 -1       299 3.37341E+01 7.98058E+00 0.00000E+00
 -1       300 3.20474E+01 8.71584E+00 0.00000E+00
 -1       301 3.04157E+01 9.60142E+00 0.00000E+00
 -1       302 2.94032E+01 1.11286E+01 0.00000E+00
 -1       303 2.85143E+01 1.25555E+01 0.00000E+00
 -1       304 2.77762E+01 1.41249E+01 0.00000E+00
 -1       305 2.76985E+01 1.58680E+01 0.00000E+00
 -1       306 2.78387E+01 1.76097E+01 0.00000E+00
 -1       307 2.83372E+01 1.93000E+01 0.00000E+00
 -1       308 2.90282E+01 2.08946E+01 0.00000E+00
 -1       309 3.02734E+01 2.20859E+01 0.00000E+00
 -1       310 3.16686E+01 2.31306E+01 0.00000E+00
 -1       311 3.32843E+01 2.38787E+01 0.00000E+00
 -1       312 3.49826E+01 2.43335E+01 0.00000E+00
 -1       313 3.67657E+01 2.42471E+01 0.00000E+00
 -1       314 3.86318E+01 2.39861E+01 0.00000E+00
 -1       315 4.02935E+01 2.30955E+01 0.00000E+00
 -1       316 4.18175E+01 2.20897E+01 0.00000E+00
 -1       317 4.28292E+01 2.05656E+01 0.00000E+00
 -1       318 4.36436E+01 1.88859E+01 0.00000E+00
 -1       319 4.40713E+01 1.70489E+01 0.00000E+00
 -1       320 5.19600E+00 4.11500E+01 0.00000E+00
 -1       321 5.19600E+00 4.41000E+01 0.00000E+00
 -1       322 5.19600E+00 3.52750E+01 0.00000E+00
 -1       323 5.19600E+00 3.23250E+01 0.00000E+00
 -1       324 5.19600E+00 2.93750E+01 0.00000E+00
 -1       325 5.19600E+00 2.64250E+01 0.00000E+00
 -1       326 5.19600E+00 2.34750E+01 0.00000E+00
 -1       327 5.19600E+00 2.05250E+01 0.00000E+00
 -1       328 5.19600E+00 1.76250E+01 0.00000E+00
 -1       329 5.19600E+00 1.46750E+01 0.00000E+00
 -1       330 5.19600E+00 1.17250E+01 0.00000E+00
 -1       331 5.19600E+00 8.77500E+00 0.00000E+00
 -1       332 5.19600E+00 5.82500E+00 0.00000E+00
 -1       333 5.53500E+00 4.00625E+00 0.00000E+00
 -1       334 8.53500E+00 4.00625E+00 0.00000E+00
 -1       335 9.15000E+00 4.48040E+01 0.00000E+00
 -1       336 1.21500E+01 4.48040E+01 0.00000E+00
 -1       337 1.51500E+01 4.48040E+01 0.00000E+00
 -1       338 1.81500E+01 4.48040E+01 0.00000E+00
 -1       339 2.11500E+01 4.48040E+01 0.00000E+00
 -1       340 2.41500E+01 4.48040E+01 0.00000E+00
 -1       341 2.71500E+01 4.48040E+01 0.00000E+00
 -1       342 3.01500E+01 4.48040E+01 0.00000E+00
 -1       343 3.31500E+01 4.48040E+01 0.00000E+00
 -1       344 3.61500E+01 4.48040E+01 0.00000E+00
 -1       345 3.91500E+01 4.48040E+01 0.00000E+00
 -1       346 4.21500E+01 4.48040E+01 0.00000E+00
 -1       347 4.51500E+01 4.48040E+01 0.00000E+00
 -1       348 4.81500E+01 4.48040E+01 0.00000E+00
 -1       349 5.11500E+01 4.48040E+01 0.00000E+00
 -1       350 5.41500E+01 4.48040E+01 0.00000E+00
 -1       351 5.71500E+01 4.48040E+01 0.00000E+00
 -1       352 6.01500E+01 4.48040E+01 0.00000E+00
 -1       353 6.31500E+01 4.48040E+01 0.00000E+00
 -1       354 6.61500E+01 4.48040E+01 0.00000E+00
 -1       355 6.91500E+01 4.48040E+01 0.00000E+00
 -1       356 7.21500E+01 4.48040E+01 0.00000E+00
 -1       357 7.51500E+01 4.48040E+01 0.00000E+00
 -1       358 7.81500E+01 4.48040E+01 0.00000E+00
 -1       359 8.11500E+01 4.48040E+01 0.00000E+00
 -1       360 8.41500E+01 4.48040E+01 0.00000E+00
 -1       361 8.71500E+01 4.48040E+01 0.00000E+00
 -1       362 9.01500E+01 4.48040E+01 0.00000E+00
 -1       363 9.31500E+01 4.48040E+01 0.00000E+00
 -1       364 9.61500E+01 4.48040E+01 0.00000E+00
 -1       365 9.91500E+01 4.48040E+01 0.00000E+00
 -1       366 1.02150E+02 4.48040E+01 0.00000E+00
 -1       367 1.05150E+02 4.48040E+01 0.00000E+00
 -1       368 1.08150E+02 4.48040E+01 0.00000E+00
 -1       369 1.11150E+02 4.48040E+01 0.00000E+00
 -1       370 1.14150E+02 4.48040E+01 0.00000E+00
 -1       371 1.17150E+02 4.48040E+01 0.00000E+00
 -1       372 1.20150E+02 4.48040E+01 0.00000E+00
 -1       373 1.23150E+02 4.48040E+01 0.00000E+00
 -1       374 1.26150E+02 4.48040E+01 0.00000E+00
 -1       375 1.29150E+02 4.48040E+01 0.00000E+00
 -1       376 1.32150E+02 4.48040E+01 0.00000E+00
 -1       377 1.35150E+02 4.48040E+01 0.00000E+00
 -1       378 1.38150E+02 4.48040E+01 0.00000E+00
 -1       379 1.41150E+02 4.48040E+01 0.00000E+00
 -1       380 1.43838E+02 4.49212E+01 0.00000E+00
 -1       381 1.15350E+01 4.00625E+00 0.00000E+00
 -1       382 1.45350E+01 4.00625E+00 0.00000E+00
 -1       383 1.75350E+01 4.00625E+00 0.00000E+00
 -1       384 2.06850E+01 4.00625E+00 0.00000E+00
 -1       385 2.36850E+01 4.00625E+00 0.00000E+00
 -1       386 2.66850E+01 4.00625E+00 0.00000E+00
 -1       387 2.96850E+01 4.00625E+00 0.00000E+00
 -1       388 3.26850E+01 4.00625E+00 0.00000E+00
 -1       389 3.56850E+01 4.00625E+00 0.00000E+00
 -1       390 3.82350E+01 4.00625E+00 0.00000E+00
 -1       391 4.06350E+01 4.00625E+00 0.00000E+00
 -1       392 4.36350E+01 4.00625E+00 0.00000E+00
 -1       393 4.66350E+01 4.00625E+00 0.00000E+00
 -1       394 4.96350E+01 4.00625E+00 0.00000E+00
 -1       395 5.26350E+01 4.00625E+00 0.00000E+00
 -1       396 5.56350E+01 4.00625E+00 0.00000E+00
 -1       397 5.87850E+01 4.00625E+00 0.00000E+00
 -1       398 6.17850E+01 4.00625E+00 0.00000E+00
 -1       399 6.47850E+01 4.00625E+00 0.00000E+00
 -1       400 6.77850E+01 4.00625E+00 0.00000E+00
 -1       401 7.07850E+01 4.00625E+00 0.00000E+00
 -1       402 7.37850E+01 4.00625E+00 0.00000E+00
 -1       403 7.69350E+01 4.00625E+00 0.00000E+00
 -1       404 7.99350E+01 4.00625E+00 0.00000E+00
 -1       405 8.29350E+01 4.00625E+00 0.00000E+00
 -1       406 8.59350E+01 4.00625E+00 0.00000E+00
 -1       407 8.89350E+01 4.00625E+00 0.00000E+00
 -1       408 9.19350E+01 4.00625E+00 0.00000E+00
 -1       409 9.50850E+01 4.00625E+00 0.00000E+00
 -1       410 9.80850E+01 4.00625E+00 0.00000E+00
 -1       411 1.01085E+02 4.00625E+00 0.00000E+00
 -1       412 1.04085E+02 4.00625E+00 0.00000E+00
 -1       413 1.07085E+02 4.00625E+00 0.00000E+00
 -1       414 1.10085E+02 4.00625E+00 0.00000E+00
 -1       415 1.13235E+02 4.00625E+00 0.00000E+00
 -1       416 1.16235E+02 4.00625E+00 0.00000E+00
 -1       417 1.19235E+02 4.00625E+00 0.00000E+00
 -1       418 1.22235E+02 4.00625E+00 0.00000E+00
 -1       419 1.25235E+02 4.00625E+00 0.00000E+00
 -1       420 1.28235E+02 4.00625E+00 0.00000E+00
 -1       421 1.31385E+02 4.00625E+00 0.00000E+00
 -1       422 1.34385E+02 4.00625E+00 0.00000E+00
 -1       423 1.37385E+02 4.00625E+00 0.00000E+00
 -1       424 1.40385E+02 4.00625E+00 0.00000E+00
 -1       425 1.43385E+02 4.00625E+00 0.00000E+00
 -1       426 1.45393E+02 4.21562E+00 0.00000E+00
 -1       427 1.44804E+02 1.18000E+01 0.00000E+00
 -1       428 1.44804E+02 8.85000E+00 0.00000E+00
 -1       429 1.45099E+02 6.53281E+00 0.00000E+00
 -1       430 1.44804E+02 1.47000E+01 0.00000E+00
 -1       431 1.44804E+02 1.76500E+01 0.00000E+00
 -1       432 1.44804E+02 2.06000E+01 0.00000E+00
 -1       433 1.44804E+02 2.35500E+01 0.00000E+00
 -1       434 1.44804E+02 2.65000E+01 0.00000E+00
 -1       435 1.44804E+02 2.94500E+01 0.00000E+00
 -1       436 1.44804E+02 3.23500E+01 0.00000E+00
 -1       437 1.44804E+02 3.53000E+01 0.00000E+00
 -1       438 1.44804E+02 3.82500E+01 0.00000E+00
 -1       439 1.44804E+02 4.12000E+01 0.00000E+00
 -1       440 4.46608E+01 1.19105E+01 0.00000E+00
 -1       441 4.55401E+01 1.61593E+01 0.00000E+00
 -1       442 4.56635E+01 1.41185E+01 0.00000E+00
 -1       443 4.35361E+01 1.03518E+01 0.00000E+00
 -1       444 4.23090E+01 8.78652E+00 0.00000E+00
 -1       445 5.19600E+00 3.82125E+01 0.00000E+00
 -1       446 3.85062E+01 6.61631E+00 0.00000E+00
 -1       447 3.67508E+01 6.32577E+00 0.00000E+00
 -1       448 3.45176E+01 6.34810E+00 0.00000E+00
 -1       449 3.22724E+01 6.92959E+00 0.00000E+00
 -1       450 3.06407E+01 7.81517E+00 0.00000E+00
 -1       451 2.87593E+01 9.60249E+00 0.00000E+00
 -1       452 2.77874E+01 1.11124E+01 0.00000E+00
 -1       453 2.68965E+01 1.27529E+01 0.00000E+00
 -1       454 2.63588E+01 1.49350E+01 0.00000E+00
 -1       455 2.62260E+01 1.68629E+01 0.00000E+00
 -1       456 2.67643E+01 1.88452E+01 0.00000E+00
 -1       457 2.74165E+01 2.06460E+01 0.00000E+00
 -1       458 2.85231E+01 2.26690E+01 0.00000E+00
 -1       459 2.99183E+01 2.37138E+01 0.00000E+00
 -1       460 3.17910E+01 2.49850E+01 0.00000E+00
 -1       461 3.37548E+01 2.55200E+01 0.00000E+00
 -1       462 3.59531E+01 2.59197E+01 0.00000E+00
 -1       463 3.78192E+01 2.56587E+01 0.00000E+00
 -1       464 4.01937E+01 2.49048E+01 0.00000E+00
 -1       465 4.19541E+01 2.39542E+01 0.00000E+00
 -1       466 4.34731E+01 2.20909E+01 0.00000E+00
 -1       467 4.44028E+01 2.02912E+01 0.00000E+00
 -1       468 4.51199E+01 1.82613E+01 0.00000E+00
 -1       469 4.06693E+01 7.73763E+00 0.00000E+00
 -1       470 2.89842E+01 7.81624E+00 0.00000E+00
 -1       471 1.00350E+01 6.60425E+00 0.00000E+00
 -1       472 7.79400E+00 3.08500E+01 0.00000E+00
 -1       473 7.79400E+00 3.38000E+01 0.00000E+00
 -1       474 7.79400E+00 2.49500E+01 0.00000E+00
 -1       475 7.79400E+00 2.20000E+01 0.00000E+00
 -1       476 7.79400E+00 1.91000E+01 0.00000E+00
 -1       477 7.79400E+00 1.61500E+01 0.00000E+00
 -1       478 7.79400E+00 1.32000E+01 0.00000E+00
 -1       479 7.79400E+00 1.02500E+01 0.00000E+00
 -1       480 1.30350E+01 6.60425E+00 0.00000E+00
 -1       481 1.06500E+01 4.22060E+01 0.00000E+00
 -1       482 4.24134E+01 6.81727E+00 0.00000E+00
 -1       483 1.36500E+01 4.22060E+01 0.00000E+00
 -1       484 1.66500E+01 4.22060E+01 0.00000E+00
 -1       485 1.96500E+01 4.22060E+01 0.00000E+00
 -1       486 2.26500E+01 4.22060E+01 0.00000E+00
 -1       487 2.56500E+01 4.22060E+01 0.00000E+00
 -1       488 2.86500E+01 4.22060E+01 0.00000E+00
 -1       489 3.16500E+01 4.22060E+01 0.00000E+00
 -1       490 3.46500E+01 4.22060E+01 0.00000E+00
 -1       491 3.76500E+01 4.22060E+01 0.00000E+00
 -1       492 4.06500E+01 4.22060E+01 0.00000E+00
 -1       493 4.36500E+01 4.22060E+01 0.00000E+00
 -1       494 4.66500E+01 4.22060E+01 0.00000E+00
 -1       495 4.96500E+01 4.22060E+01 0.00000E+00
 -1       496 5.26500E+01 4.22060E+01 0.00000E+00
 -1       497 5.56500E+01 4.22060E+01 0.00000E+00
 -1       498 5.86500E+01 4.22060E+01 0.00000E+00
 -1       499 6.16500E+01 4.22060E+01 0.00000E+00
 -1       500 6.46500E+01 4.22060E+01 0.00000E+00
 -1       501 6.76500E+01 4.22060E+01 0.00000E+00
 -1       502 7.06500E+01 4.22060E+01 0.00000E+00
 -1       503 7.36500E+01 4.22060E+01 0.00000E+00
 -1       504 7.66500E+01 4.22060E+01 0.00000E+00
 -1       505 7.96500E+01 4.22060E+01 0.00000E+00
 -1       506 8.26500E+01 4.22060E+01 0.00000E+00
 -1       507 8.56500E+01 4.22060E+01 0.00000E+00
 -1       508 8.86500E+01 4.22060E+01 0.00000E+00
 -1       509 9.16500E+01 4.22060E+01 0.00000E+00
 -1       510 9.46500E+01 4.22060E+01 0.00000E+00
 -1       511 9.76500E+01 4.22060E+01 0.00000E+00
 -1       512 1.00650E+02 4.22060E+01 0.00000E+00
 -1       513 1.03650E+02 4.22060E+01 0.00000E+00
 -1       514 1.06650E+02 4.22060E+01 0.00000E+00
 -1       515 1.09650E+02 4.22060E+01 0.00000E+00
 -1       516 1.12650E+02 4.22060E+01 0.00000E+00
 -1       517 1.15650E+02 4.22060E+01 0.00000E+00
 -1       518 1.18650E+02 4.22060E+01 0.00000E+00
 -1       519 1.21650E+02 4.22060E+01 0.00000E+00
 -1       520 1.24650E+02 4.22060E+01 0.00000E+00
 -1       521 1.27650E+02 4.22060E+01 0.00000E+00
 -1       522 1.30650E+02 4.22060E+01 0.00000E+00
 -1       523 1.33650E+02 4.22060E+01 0.00000E+00
 -1       524 1.36650E+02 4.22060E+01 0.00000E+00
 -1       525 1.39650E+02 4.22060E+01 0.00000E+00
 -1       526 1.91100E+01 6.60425E+00 0.00000E+00
 -1       527 2.21100E+01 6.60425E+00 0.00000E+00
 -1       528 2.51100E+01 6.60425E+00 0.00000E+00
 -1       529 2.81850E+01 6.05650E+00 0.00000E+00
 -1       530 3.94350E+01 5.72134E+00 0.00000E+00
 -1       531 4.54134E+01 6.81727E+00 0.00000E+00
 -1       532 4.84134E+01 6.81727E+00 0.00000E+00
 -1       533 5.14134E+01 6.81727E+00 0.00000E+00
 -1       534 5.44134E+01 6.81727E+00 0.00000E+00
 -1       535 5.75634E+01 6.81727E+00 0.00000E+00
 -1       536 6.05634E+01 6.81727E+00 0.00000E+00
 -1       537 6.35634E+01 6.81727E+00 0.00000E+00
 -1       538 6.65634E+01 6.81727E+00 0.00000E+00
 -1       539 6.95634E+01 6.81727E+00 0.00000E+00
 -1       540 7.25634E+01 6.81727E+00 0.00000E+00
 -1       541 7.57134E+01 6.81727E+00 0.00000E+00
 -1       542 7.87134E+01 6.81727E+00 0.00000E+00
 -1       543 8.17134E+01 6.81727E+00 0.00000E+00
 -1       544 8.47134E+01 6.81727E+00 0.00000E+00
 -1       545 8.77134E+01 6.81727E+00 0.00000E+00
 -1       546 9.07134E+01 6.81727E+00 0.00000E+00
 -1       547 9.38634E+01 6.81727E+00 0.00000E+00
 -1       548 9.68634E+01 6.81727E+00 0.00000E+00
 -1       549 9.98634E+01 6.81727E+00 0.00000E+00
 -1       550 1.02863E+02 6.81727E+00 0.00000E+00
 -1       551 1.05863E+02 6.81727E+00 0.00000E+00
 -1       552 1.08863E+02 6.81727E+00 0.00000E+00
 -1       553 1.12013E+02 6.81727E+00 0.00000E+00
 -1       554 1.15013E+02 6.81727E+00 0.00000E+00
 -1       555 1.18013E+02 6.81727E+00 0.00000E+00
 -1       556 1.21013E+02 6.81727E+00 0.00000E+00
 -1       557 1.24013E+02 6.81727E+00 0.00000E+00
 -1       558 1.27013E+02 6.81727E+00 0.00000E+00
 -1       559 1.30163E+02 6.81727E+00 0.00000E+00
 -1       560 1.33163E+02 6.81727E+00 0.00000E+00
 -1       561 1.36163E+02 6.81727E+00 0.00000E+00
 -1       562 1.39163E+02 6.81727E+00 0.00000E+00
 -1       563 1.42206E+02 1.61750E+01 0.00000E+00
 -1       564 1.42206E+02 1.91250E+01 0.00000E+00
 -1       565 1.42206E+02 1.03250E+01 0.00000E+00
 -1       566 1.42206E+02 1.32500E+01 0.00000E+00
 -1       567 1.42206E+02 2.20750E+01 0.00000E+00
 -1       568 1.42206E+02 2.50250E+01 0.00000E+00
 -1       569 1.42206E+02 2.79750E+01 0.00000E+00
 -1       570 1.42206E+02 3.08750E+01 0.00000E+00
 -1       571 1.42206E+02 3.38250E+01 0.00000E+00
 -1       572 1.42206E+02 3.67750E+01 0.00000E+00
 -1       573 1.42206E+02 3.97250E+01 0.00000E+00
 -1       574 4.72302E+01 1.52374E+01 0.00000E+00
 -1       575 4.53534E+01 1.02256E+01 0.00000E+00
 -1       576 1.60350E+01 6.60425E+00 0.00000E+00
 -1       577 4.70118E+01 1.75465E+01 0.00000E+00
 -1       578 4.67238E+01 1.23053E+01 0.00000E+00
 -1       579 7.92300E+00 4.16780E+01 0.00000E+00
 -1       580 4.62205E+01 1.97917E+01 0.00000E+00
 -1       581 3.45621E+01 2.73249E+01 0.00000E+00
 -1       582 2.64651E+01 2.24806E+01 0.00000E+00
 -1       583 7.79400E+00 2.79000E+01 0.00000E+00
 -1       584 2.70425E+01 9.56520E+00 0.00000E+00
 -1       585 3.07183E+01 6.01225E+00 0.00000E+00
 -1       586 3.23221E+01 2.69073E+01 0.00000E+00
 -1       587 2.61515E+01 1.12058E+01 0.00000E+00
 -1       588 2.49623E+01 1.34336E+01 0.00000E+00
 -1       589 2.49157E+01 1.58042E+01 0.00000E+00
 -1       590 2.45166E+01 1.83913E+01 0.00000E+00
 -1       591 2.54909E+01 2.04360E+01 0.00000E+00
 -1       592 2.81926E+01 2.45642E+01 0.00000E+00
 -1       593 4.20480E+01 2.62335E+01 0.00000E+00
 -1       594 3.00654E+01 2.58355E+01 0.00000E+00
 -1       595 3.70889E+01 2.72388E+01 0.00000E+00
 -1       596 3.96736E+01 2.69874E+01 0.00000E+00
 -1       597 4.40429E+01 2.41062E+01 0.00000E+00
 -1       598 4.54617E+01 2.19782E+01 0.00000E+00
 -1       599 7.61550E+00 6.21462E+00 0.00000E+00
 -1       600 4.41263E+01 8.66036E+00 0.00000E+00
 -1       601 7.79400E+00 3.67375E+01 0.00000E+00
 -1       602 1.41678E+02 4.22645E+01 0.00000E+00
 -1       603 1.42594E+02 6.42812E+00 0.00000E+00
 -1       604 4.82904E+01 1.34242E+01 0.00000E+00
 -1       605 1.03920E+01 2.05500E+01 0.00000E+00
 -1       606 1.03920E+01 2.35000E+01 0.00000E+00
 -1       607 1.03920E+01 1.46750E+01 0.00000E+00
 -1       608 1.03920E+01 1.17250E+01 0.00000E+00
 -1       609 4.83918E+01 1.92950E+01 0.00000E+00
 -1       610 1.40178E+02 3.96665E+01 0.00000E+00
 -1       611 1.51500E+01 3.96080E+01 0.00000E+00
 -1       612 1.81500E+01 3.96080E+01 0.00000E+00
 -1       613 2.11500E+01 3.96080E+01 0.00000E+00
 -1       614 2.41500E+01 3.96080E+01 0.00000E+00
 -1       615 2.71500E+01 3.96080E+01 0.00000E+00
 -1       616 3.01500E+01 3.96080E+01 0.00000E+00
 -1       617 3.31500E+01 3.96080E+01 0.00000E+00
 -1       618 3.61500E+01 3.96080E+01 0.00000E+00
 -1       619 3.91500E+01 3.96080E+01 0.00000E+00
 -1       620 4.21500E+01 3.96080E+01 0.00000E+00
 -1       621 4.51500E+01 3.96080E+01 0.00000E+00
 -1       622 4.81500E+01 3.96080E+01 0.00000E+00
 -1       623 5.11500E+01 3.96080E+01 0.00000E+00
 -1       624 5.41500E+01 3.96080E+01 0.00000E+00
 -1       625 5.71500E+01 3.96080E+01 0.00000E+00
 -1       626 6.01500E+01 3.96080E+01 0.00000E+00
 -1       627 6.31500E+01 3.96080E+01 0.00000E+00
 -1       628 6.61500E+01 3.96080E+01 0.00000E+00
 -1       629 6.91500E+01 3.96080E+01 0.00000E+00
 -1       630 7.21500E+01 3.96080E+01 0.00000E+00
 -1       631 7.51500E+01 3.96080E+01 0.00000E+00
 -1       632 7.81500E+01 3.96080E+01 0.00000E+00
 -1       633 8.11500E+01 3.96080E+01 0.00000E+00
 -1       634 8.41500E+01 3.96080E+01 0.00000E+00
 -1       635 8.71500E+01 3.96080E+01 0.00000E+00
 -1       636 9.01500E+01 3.96080E+01 0.00000E+00
 -1       637 9.31500E+01 3.96080E+01 0.00000E+00
 -1       638 9.61500E+01 3.96080E+01 0.00000E+00
 -1       639 9.91500E+01 3.96080E+01 0.00000E+00
 -1       640 1.02150E+02 3.96080E+01 0.00000E+00
 -1       641 1.05150E+02 3.96080E+01 0.00000E+00
 -1       642 1.08150E+02 3.96080E+01 0.00000E+00
 -1       643 1.11150E+02 3.96080E+01 0.00000E+00
 -1       644 1.14150E+02 3.96080E+01 0.00000E+00
 -1       645 1.17150E+02 3.96080E+01 0.00000E+00
 -1       646 1.20150E+02 3.96080E+01 0.00000E+00
 -1       647 1.23150E+02 3.96080E+01 0.00000E+00
 -1       648 1.26150E+02 3.96080E+01 0.00000E+00
 -1       649 1.29150E+02 3.96080E+01 0.00000E+00
 -1       650 1.32150E+02 3.96080E+01 0.00000E+00
 -1       651 1.35150E+02 3.96080E+01 0.00000E+00
 -1       652 1.37664E+02 3.96372E+01 0.00000E+00
 -1       653 2.36100E+01 9.15721E+00 0.00000E+00
 -1       654 2.06100E+01 9.15721E+00 0.00000E+00
 -1       655 2.69216E+01 7.47861E+00 0.00000E+00
 -1       656 2.38961E+01 1.14331E+01 0.00000E+00
 -1       657 5.29134E+01 9.41527E+00 0.00000E+00
 -1       658 5.60634E+01 9.41527E+00 0.00000E+00
 -1       659 5.90634E+01 9.41527E+00 0.00000E+00
 -1       660 6.20634E+01 9.41527E+00 0.00000E+00
 -1       661 6.50634E+01 9.41527E+00 0.00000E+00
 -1       662 6.80634E+01 9.41527E+00 0.00000E+00
 -1       663 7.10634E+01 9.41527E+00 0.00000E+00
 -1       664 7.42134E+01 9.41527E+00 0.00000E+00
 -1       665 7.72134E+01 9.41527E+00 0.00000E+00
 -1       666 8.02134E+01 9.41527E+00 0.00000E+00
 -1       667 8.32134E+01 9.41527E+00 0.00000E+00
 -1       668 8.62134E+01 9.41527E+00 0.00000E+00
 -1       669 8.92134E+01 9.41527E+00 0.00000E+00
 -1       670 9.23634E+01 9.41527E+00 0.00000E+00
 -1       671 9.53634E+01 9.41527E+00 0.00000E+00
 -1       672 9.83634E+01 9.41527E+00 0.00000E+00
 -1       673 1.01363E+02 9.41527E+00 0.00000E+00
 -1       674 1.04363E+02 9.41527E+00 0.00000E+00
 -1       675 1.07363E+02 9.41527E+00 0.00000E+00
 -1       676 1.10513E+02 9.41527E+00 0.00000E+00
 -1       677 1.13513E+02 9.41527E+00 0.00000E+00
 -1       678 1.16513E+02 9.41527E+00 0.00000E+00
 -1       679 1.19513E+02 9.41527E+00 0.00000E+00
 -1       680 1.22513E+02 9.41527E+00 0.00000E+00
 -1       681 1.25513E+02 9.41527E+00 0.00000E+00
 -1       682 1.28663E+02 9.41527E+00 0.00000E+00
 -1       683 1.31663E+02 9.41527E+00 0.00000E+00
 -1       684 1.34663E+02 9.41527E+00 0.00000E+00
 -1       685 1.37663E+02 9.41527E+00 0.00000E+00
 -1       686 1.39608E+02 2.35500E+01 0.00000E+00
 -1       687 1.39608E+02 1.76500E+01 0.00000E+00
 -1       688 1.39608E+02 2.65000E+01 0.00000E+00
 -1       689 1.39608E+02 2.06000E+01 0.00000E+00
 -1       690 4.76330E+01 2.14815E+01 0.00000E+00
 -1       691 1.39608E+02 2.94000E+01 0.00000E+00
 -1       692 1.39608E+02 3.23500E+01 0.00000E+00
 -1       693 1.39608E+02 3.53000E+01 0.00000E+00
 -1       694 4.15319E+01 2.87243E+01 0.00000E+00
 -1       695 1.45350E+01 9.20225E+00 0.00000E+00
 -1       696 3.03860E+01 2.80720E+01 0.00000E+00
 -1       697 4.77506E+01 1.01374E+01 0.00000E+00
 -1       698 9.78035E+00 3.93914E+01 0.00000E+00
 -1       699 3.30971E+01 2.89669E+01 0.00000E+00
 -1       700 1.24652E+01 3.94997E+01 0.00000E+00
 -1       701 2.56215E+01 2.49380E+01 0.00000E+00
 -1       702 4.88285E+01 1.65534E+01 0.00000E+00
 -1       703 1.75725E+01 9.17973E+00 0.00000E+00
 -1       704 1.03920E+01 1.76125E+01 0.00000E+00
 -1       705 3.58839E+01 2.89960E+01 0.00000E+00
 -1       706 1.03920E+01 3.23250E+01 0.00000E+00
 -1       707 2.54088E+01 9.45586E+00 0.00000E+00
 -1       708 4.44188E+01 2.64577E+01 0.00000E+00
 -1       709 3.89473E+01 2.89757E+01 0.00000E+00
 -1       710 2.33080E+01 1.45868E+01 0.00000E+00
 -1       711 2.80716E+01 2.67575E+01 0.00000E+00
 -1       712 4.63188E+01 2.40866E+01 0.00000E+00
 -1       713 2.30211E+01 1.68363E+01 0.00000E+00
 -1       714 1.17135E+01 9.16463E+00 0.00000E+00
 -1       715 1.03920E+01 3.52625E+01 0.00000E+00
 -1       716 1.03920E+01 2.64500E+01 0.00000E+00
 -1       717 2.22417E+01 1.25863E+01 0.00000E+00
 -1       718 4.98888E+01 1.47402E+01 0.00000E+00
 -1       719 4.39027E+01 2.89485E+01 0.00000E+00
 -1       720 2.41042E+01 2.30436E+01 0.00000E+00
 -1       721 1.39608E+02 1.47250E+01 0.00000E+00
 -1       722 1.38636E+02 1.20701E+01 0.00000E+00
 -1       723 4.93173E+01 1.12562E+01 0.00000E+00
 -1       724 5.03653E+01 9.03676E+00 0.00000E+00
 -1       725 1.03920E+01 2.93875E+01 0.00000E+00
 -1       726 2.24118E+01 1.89188E+01 0.00000E+00
 -1       727 2.32580E+01 2.09812E+01 0.00000E+00
 -1       728 1.37010E+02 2.79500E+01 0.00000E+00
 -1       729 1.29900E+01 1.32000E+01 0.00000E+00
 -1       730 1.96500E+01 3.70100E+01 0.00000E+00
 -1       731 2.26500E+01 3.70100E+01 0.00000E+00
 -1       732 2.56500E+01 3.70100E+01 0.00000E+00
 -1       733 2.86500E+01 3.70100E+01 0.00000E+00
 -1       734 3.16500E+01 3.70100E+01 0.00000E+00
 -1       735 3.46500E+01 3.70100E+01 0.00000E+00
 -1       736 3.76500E+01 3.70100E+01 0.00000E+00
 -1       737 4.06500E+01 3.70100E+01 0.00000E+00
 -1       738 4.36500E+01 3.70100E+01 0.00000E+00
 -1       739 4.66500E+01 3.70100E+01 0.00000E+00
 -1       740 4.96500E+01 3.70100E+01 0.00000E+00
 -1       741 5.26500E+01 3.70100E+01 0.00000E+00
 -1       742 5.56500E+01 3.70100E+01 0.00000E+00
 -1       743 5.86500E+01 3.70100E+01 0.00000E+00
 -1       744 6.16500E+01 3.70100E+01 0.00000E+00
 -1       745 6.46500E+01 3.70100E+01 0.00000E+00
 -1       746 6.76500E+01 3.70100E+01 0.00000E+00
 -1       747 7.06500E+01 3.70100E+01 0.00000E+00
 -1       748 7.36500E+01 3.70100E+01 0.00000E+00
 -1       749 7.66500E+01 3.70100E+01 0.00000E+00
 -1       750 7.96500E+01 3.70100E+01 0.00000E+00
 -1       751 8.26500E+01 3.70100E+01 0.00000E+00
 -1       752 8.56500E+01 3.70100E+01 0.00000E+00
 -1       753 8.86500E+01 3.70100E+01 0.00000E+00
 -1       754 9.16500E+01 3.70100E+01 0.00000E+00
 -1       755 9.46500E+01 3.70100E+01 0.00000E+00
 -1       756 9.76500E+01 3.70100E+01 0.00000E+00
 -1       757 1.00650E+02 3.70100E+01 0.00000E+00
 -1       758 1.03650E+02 3.70100E+01 0.00000E+00
 -1       759 1.06650E+02 3.70100E+01 0.00000E+00
 -1       760 1.09650E+02 3.70100E+01 0.00000E+00
 -1       761 1.12650E+02 3.70100E+01 0.00000E+00
 -1       762 1.15650E+02 3.70100E+01 0.00000E+00
 -1       763 1.18650E+02 3.70100E+01 0.00000E+00
 -1       764 1.21650E+02 3.70100E+01 0.00000E+00
 -1       765 1.24650E+02 3.70100E+01 0.00000E+00
 -1       766 1.27650E+02 3.70100E+01 0.00000E+00
 -1       767 1.30650E+02 3.70100E+01 0.00000E+00
 -1       768 1.33650E+02 3.70100E+01 0.00000E+00
 -1       769 3.44709E+01 3.08640E+01 0.00000E+00
 -1       770 5.03039E+01 1.81940E+01 0.00000E+00
 -1       771 6.05634E+01 1.20133E+01 0.00000E+00
 -1       772 5.75634E+01 1.20133E+01 0.00000E+00
 -1       773 5.44134E+01 1.20133E+01 0.00000E+00
 -1       774 6.35634E+01 1.20133E+01 0.00000E+00
 -1       775 6.65634E+01 1.20133E+01 0.00000E+00
 -1       776 6.95634E+01 1.20133E+01 0.00000E+00
 -1       777 7.27134E+01 1.20133E+01 0.00000E+00
 -1       778 7.57134E+01 1.20133E+01 0.00000E+00
 -1       779 7.87134E+01 1.20133E+01 0.00000E+00
 -1       780 8.17134E+01 1.20133E+01 0.00000E+00
 -1       781 8.47134E+01 1.20133E+01 0.00000E+00
 -1       782 8.77134E+01 1.20133E+01 0.00000E+00
 -1       783 9.08634E+01 1.20133E+01 0.00000E+00
 -1       784 9.38634E+01 1.20133E+01 0.00000E+00
 -1       785 9.68634E+01 1.20133E+01 0.00000E+00
 -1       786 9.98634E+01 1.20133E+01 0.00000E+00
 -1       787 1.02863E+02 1.20133E+01 0.00000E+00
 -1       788 1.05863E+02 1.20133E+01 0.00000E+00
 -1       789 1.09013E+02 1.20133E+01 0.00000E+00
 -1       790 1.12013E+02 1.20133E+01 0.00000E+00
 -1       791 1.15013E+02 1.20133E+01 0.00000E+00
 -1       792 1.18013E+02 1.20133E+01 0.00000E+00
 -1       793 1.21013E+02 1.20133E+01 0.00000E+00
 -1       794 1.24013E+02 1.20133E+01 0.00000E+00
 -1       795 1.27163E+02 1.20133E+01 0.00000E+00
 -1       796 1.30163E+02 1.20133E+01 0.00000E+00
 -1       797 1.33163E+02 1.20133E+01 0.00000E+00
 -1       798 1.35900E+02 1.20417E+01 0.00000E+00
 -1       799 2.32627E+01 2.52725E+01 0.00000E+00
 -1       800 3.10464E+01 3.06255E+01 0.00000E+00
 -1       801 1.37010E+02 2.50000E+01 0.00000E+00
 -1       802 1.37010E+02 3.38250E+01 0.00000E+00
 -1       803 4.88064E+01 2.37075E+01 0.00000E+00
 -1       804 4.72303E+01 2.67638E+01 0.00000E+00
 -1       805 2.82163E+01 2.91975E+01 0.00000E+00
 -1       806 3.75342E+01 3.08438E+01 0.00000E+00
 -1       807 1.37337E+02 3.67311E+01 0.00000E+00
 -1       808 1.37010E+02 3.08875E+01 0.00000E+00
 -1       809 2.54244E+01 2.77628E+01 0.00000E+00
 -1       810 2.09095E+01 1.73489E+01 0.00000E+00
 -1       811 4.04706E+01 3.12242E+01 0.00000E+00
 -1       812 4.97910E+01 2.10054E+01 0.00000E+00
 -1       813 1.66500E+01 3.70100E+01 0.00000E+00
 -1       814 2.11964E+01 1.50995E+01 0.00000E+00
 -1       815 5.18653E+01 1.16348E+01 0.00000E+00
 -1       816 1.37625E+01 1.12011E+01 0.00000E+00
 -1       817 1.29900E+01 2.20250E+01 0.00000E+00
 -1       818 2.14259E+01 1.08718E+01 0.00000E+00
 -1       819 1.29900E+01 2.49750E+01 0.00000E+00
 -1       820 1.29900E+01 1.61375E+01 0.00000E+00
 -1       821 2.09381E+01 2.07283E+01 0.00000E+00
 -1       822 4.67141E+01 2.92546E+01 0.00000E+00
 -1       823 1.37010E+02 1.61875E+01 0.00000E+00
 -1       824 1.29900E+01 1.90812E+01 0.00000E+00
 -1       825 1.37010E+02 2.20500E+01 0.00000E+00
 -1       826 1.37010E+02 1.91187E+01 0.00000E+00
 -1       827 1.39652E+01 3.69017E+01 0.00000E+00
 -1       828 5.13642E+01 1.63808E+01 0.00000E+00
 -1       829 2.16086E+01 2.33747E+01 0.00000E+00
 -1       830 1.29900E+01 3.08563E+01 0.00000E+00
 -1       831 1.94358E+01 1.91584E+01 0.00000E+00
 -1       832 4.28413E+01 3.14484E+01 0.00000E+00
 -1       833 1.83884E+01 1.08943E+01 0.00000E+00
 -1       834 1.60754E+01 1.10477E+01 0.00000E+00
 -1       835 1.29900E+01 3.37938E+01 0.00000E+00
 -1       836 5.03928E+01 1.24994E+01 0.00000E+00
 -1       837 2.41500E+01 3.44120E+01 0.00000E+00
 -1       838 2.71500E+01 3.44120E+01 0.00000E+00
 -1       839 3.01500E+01 3.44120E+01 0.00000E+00
 -1       840 3.31500E+01 3.44120E+01 0.00000E+00
 -1       841 3.61500E+01 3.44120E+01 0.00000E+00
 -1       842 3.91500E+01 3.44120E+01 0.00000E+00
 -1       843 4.21500E+01 3.44120E+01 0.00000E+00
 -1       844 4.51500E+01 3.44120E+01 0.00000E+00
 -1       845 4.81500E+01 3.44120E+01 0.00000E+00
 -1       846 5.11500E+01 3.44120E+01 0.00000E+00
 -1       847 5.41500E+01 3.44120E+01 0.00000E+00
 -1       848 5.71500E+01 3.44120E+01 0.00000E+00
 -1       849 6.01500E+01 3.44120E+01 0.00000E+00
 -1       850 6.31500E+01 3.44120E+01 0.00000E+00
 -1       851 6.61500E+01 3.44120E+01 0.00000E+00
 -1       852 6.91500E+01 3.44120E+01 0.00000E+00
 -1       853 7.21500E+01 3.44120E+01 0.00000E+00
 -1       854 7.51500E+01 3.44120E+01 0.00000E+00
 -1       855 7.81500E+01 3.44120E+01 0.00000E+00
 -1       856 8.11500E+01 3.44120E+01 0.00000E+00
 -1       857 8.41500E+01 3.44120E+01 0.00000E+00
 -1       858 8.71500E+01 3.44120E+01 0.00000E+00
 -1       859 9.01500E+01 3.44120E+01 0.00000E+00
 -1       860 9.31500E+01 3.44120E+01 0.00000E+00
 -1       861 9.61500E+01 3.44120E+01 0.00000E+00
 -1       862 9.91500E+01 3.44120E+01 0.00000E+00
 -1       863 1.02150E+02 3.44120E+01 0.00000E+00
 -1       864 1.05150E+02 3.44120E+01 0.00000E+00
 -1       865 1.08150E+02 3.44120E+01 0.00000E+00
 -1       866 1.11150E+02 3.44120E+01 0.00000E+00
 -1       867 1.14150E+02 3.44120E+01 0.00000E+00
 -1       868 1.17150E+02 3.44120E+01 0.00000E+00
 -1       869 1.20150E+02 3.44120E+01 0.00000E+00
 -1       870 1.23150E+02 3.44120E+01 0.00000E+00
 -1       871 1.26150E+02 3.44120E+01 0.00000E+00
 -1       872 1.29150E+02 3.44120E+01 0.00000E+00
 -1       873 1.32150E+02 3.44120E+01 0.00000E+00
 -1       874 1.53029E+01 1.30466E+01 0.00000E+00
 -1       875 6.20634E+01 1.46113E+01 0.00000E+00
 -1       876 5.59884E+01 1.46113E+01 0.00000E+00
 -1       877 6.80634E+01 1.46113E+01 0.00000E+00
 -1       878 7.12134E+01 1.46113E+01 0.00000E+00
 -1       879 7.42134E+01 1.46113E+01 0.00000E+00
 -1       880 7.72134E+01 1.46113E+01 0.00000E+00
 -1       881 8.02134E+01 1.46113E+01 0.00000E+00
 -1       882 8.32134E+01 1.46113E+01 0.00000E+00
 -1       883 8.62134E+01 1.46113E+01 0.00000E+00
 -1       884 8.93634E+01 1.46113E+01 0.00000E+00
 -1       885 9.23634E+01 1.46113E+01 0.00000E+00
 -1       886 9.53634E+01 1.46113E+01 0.00000E+00
 -1       887 9.83634E+01 1.46113E+01 0.00000E+00
 -1       888 1.01363E+02 1.46113E+01 0.00000E+00
 -1       889 1.04363E+02 1.46113E+01 0.00000E+00
 -1       890 1.07513E+02 1.46113E+01 0.00000E+00
 -1       891 1.10513E+02 1.46113E+01 0.00000E+00
 -1       892 1.13513E+02 1.46113E+01 0.00000E+00
 -1       893 1.16513E+02 1.46113E+01 0.00000E+00
 -1       894 1.19513E+02 1.46113E+01 0.00000E+00
 -1       895 1.22513E+02 1.46113E+01 0.00000E+00
 -1       896 1.25663E+02 1.46113E+01 0.00000E+00
 -1       897 1.28663E+02 1.46113E+01 0.00000E+00
 -1       898 1.31663E+02 1.46113E+01 0.00000E+00
 -1       899 1.36455E+02 1.41146E+01 0.00000E+00
 -1       900 1.29900E+01 2.79188E+01 0.00000E+00
 -1       901 2.03806E+01 1.33849E+01 0.00000E+00
 -1       902 2.57300E+01 3.06018E+01 0.00000E+00
 -1       903 2.04771E+01 2.60306E+01 0.00000E+00
 -1       904 5.18682E+01 1.41400E+01 0.00000E+00
 -1       905 1.34412E+02 2.64750E+01 0.00000E+00
 -1       906 5.13825E+01 2.31158E+01 0.00000E+00
 -1       907 5.90634E+01 1.46113E+01 0.00000E+00
 -1       908 5.03274E+01 2.64264E+01 0.00000E+00
 -1       909 1.81500E+01 3.44120E+01 0.00000E+00
 -1       910 1.91854E+01 1.59860E+01 0.00000E+00
 -1       911 2.86323E+01 3.18916E+01 0.00000E+00
 -1       912 6.50634E+01 1.46113E+01 0.00000E+00
 -1       913 2.11500E+01 3.44120E+01 0.00000E+00
 -1       914 2.26388E+01 2.85209E+01 0.00000E+00
 -1       915 5.22293E+01 1.99977E+01 0.00000E+00
 -1       916 1.91234E+01 2.25961E+01 0.00000E+00
 -1       917 1.53029E+01 1.59841E+01 0.00000E+00
 -1       918 5.32895E+01 1.81845E+01 0.00000E+00
 -1       919 1.32150E+02 3.14745E+01 0.00000E+00
 -1       920 4.98112E+01 2.89172E+01 0.00000E+00
 -1       921 1.55880E+01 2.35000E+01 0.00000E+00
 -1       922 1.55880E+01 2.05562E+01 0.00000E+00
 -1       923 1.34059E+02 1.43629E+01 0.00000E+00
 -1       924 1.34614E+02 1.64358E+01 0.00000E+00
 -1       925 1.34412E+02 2.35250E+01 0.00000E+00
 -1       926 1.55880E+01 2.93875E+01 0.00000E+00
 -1       927 1.55880E+01 3.23250E+01 0.00000E+00
 -1       928 1.33281E+02 2.89748E+01 0.00000E+00
 -1       929 1.73832E+01 2.52660E+01 0.00000E+00
 -1       930 6.65634E+01 1.72093E+01 0.00000E+00
 -1       931 1.54455E+01 1.82702E+01 0.00000E+00
 -1       932 1.55880E+01 2.64438E+01 0.00000E+00
 -1       933 4.66500E+01 3.18140E+01 0.00000E+00
 -1       934 4.96500E+01 3.18140E+01 0.00000E+00
 -1       935 5.26500E+01 3.18140E+01 0.00000E+00
 -1       936 5.56500E+01 3.18140E+01 0.00000E+00
 -1       937 5.86500E+01 3.18140E+01 0.00000E+00
 -1       938 6.16500E+01 3.18140E+01 0.00000E+00
 -1       939 6.46500E+01 3.18140E+01 0.00000E+00
 -1       940 6.76500E+01 3.18140E+01 0.00000E+00
 -1       941 7.06500E+01 3.18140E+01 0.00000E+00
 -1       942 7.36500E+01 3.18140E+01 0.00000E+00
 -1       943 7.66500E+01 3.18140E+01 0.00000E+00
 -1       944 7.96500E+01 3.18140E+01 0.00000E+00
 -1       945 8.26500E+01 3.18140E+01 0.00000E+00
 -1       946 8.56500E+01 3.18140E+01 0.00000E+00
 -1       947 8.86500E+01 3.18140E+01 0.00000E+00
 -1       948 9.16500E+01 3.18140E+01 0.00000E+00
 -1       949 9.46500E+01 3.18140E+01 0.00000E+00
 -1       950 9.76500E+01 3.18140E+01 0.00000E+00
 -1       951 1.00650E+02 3.18140E+01 0.00000E+00
 -1       952 1.03650E+02 3.18140E+01 0.00000E+00
 -1       953 1.06650E+02 3.18140E+01 0.00000E+00
 -1       954 1.09650E+02 3.18140E+01 0.00000E+00
 -1       955 1.12650E+02 3.18140E+01 0.00000E+00
 -1       956 1.15650E+02 3.18140E+01 0.00000E+00
 -1       957 1.18650E+02 3.18140E+01 0.00000E+00
 -1       958 1.21650E+02 3.18140E+01 0.00000E+00
 -1       959 1.24650E+02 3.18140E+01 0.00000E+00
 -1       960 1.27650E+02 3.18140E+01 0.00000E+00
 -1       961 1.29900E+02 3.16443E+01 0.00000E+00
 -1       962 1.68456E+01 1.34392E+01 0.00000E+00
 -1       963 4.50502E+01 3.14729E+01 0.00000E+00
 -1       964 1.61190E+01 3.46675E+01 0.00000E+00
 -1       965 2.26500E+01 3.18140E+01 0.00000E+00
 -1       966 6.97134E+01 1.72093E+01 0.00000E+00
 -1       967 7.87134E+01 1.72093E+01 0.00000E+00
 -1       968 8.17134E+01 1.72093E+01 0.00000E+00
 -1       969 8.47134E+01 1.72093E+01 0.00000E+00
 -1       970 8.78634E+01 1.72093E+01 0.00000E+00
 -1       971 9.08634E+01 1.72093E+01 0.00000E+00
 -1       972 9.38634E+01 1.72093E+01 0.00000E+00
 -1       973 9.68634E+01 1.72093E+01 0.00000E+00
 -1       974 9.98634E+01 1.72093E+01 0.00000E+00
 -1       975 1.02863E+02 1.72093E+01 0.00000E+00
 -1       976 1.06013E+02 1.72093E+01 0.00000E+00
 -1       977 1.09013E+02 1.72093E+01 0.00000E+00
 -1       978 1.12013E+02 1.72093E+01 0.00000E+00
 -1       979 1.15013E+02 1.72093E+01 0.00000E+00
 -1       980 1.18013E+02 1.72093E+01 0.00000E+00
 -1       981 1.21013E+02 1.72093E+01 0.00000E+00
 -1       982 1.24163E+02 1.72093E+01 0.00000E+00
 -1       983 1.27163E+02 1.72093E+01 0.00000E+00
 -1       984 1.30163E+02 1.72093E+01 0.00000E+00
 -1       985 1.34412E+02 2.05938E+01 0.00000E+00
 -1       986 5.46390E+01 1.63979E+01 0.00000E+00
 -1       987 6.05634E+01 1.72093E+01 0.00000E+00
 -1       988 7.57134E+01 1.72093E+01 0.00000E+00
 -1       989 7.27134E+01 1.72093E+01 0.00000E+00
 -1       990 5.32874E+01 2.55463E+01 0.00000E+00
 -1       991 5.74884E+01 1.72093E+01 0.00000E+00
 -1       992 5.41341E+01 2.24283E+01 0.00000E+00
 -1       993 1.96500E+01 3.18140E+01 0.00000E+00
 -1       994 6.35634E+01 1.72093E+01 0.00000E+00
 -1       995 1.95960E+01 2.89788E+01 0.00000E+00
 -1       996 1.76190E+01 3.20695E+01 0.00000E+00
 -1       997 5.27712E+01 2.80371E+01 0.00000E+00
 -1       998 1.31479E+02 2.66539E+01 0.00000E+00
 -1       999 5.51944E+01 2.06151E+01 0.00000E+00
 -1      1000 1.31479E+02 2.37039E+01 0.00000E+00
 -1      1001 7.72134E+01 1.98073E+01 0.00000E+00
 -1      1002 1.30348E+02 2.91537E+01 0.00000E+00
 -1      1003 5.41500E+01 2.92160E+01 0.00000E+00
 -1      1004 5.71500E+01 2.92160E+01 0.00000E+00
 -1      1005 6.01500E+01 2.92160E+01 0.00000E+00
 -1      1006 6.31500E+01 2.92160E+01 0.00000E+00
 -1      1007 6.61500E+01 2.92160E+01 0.00000E+00
 -1      1008 6.91500E+01 2.92160E+01 0.00000E+00
 -1      1009 7.21500E+01 2.92160E+01 0.00000E+00
 -1      1010 7.51500E+01 2.92160E+01 0.00000E+00
 -1      1011 7.81500E+01 2.92160E+01 0.00000E+00
 -1      1012 8.11500E+01 2.92160E+01 0.00000E+00
 -1      1013 8.41500E+01 2.92160E+01 0.00000E+00
 -1      1014 8.71500E+01 2.92160E+01 0.00000E+00
 -1      1015 9.01500E+01 2.92160E+01 0.00000E+00
 -1      1016 9.31500E+01 2.92160E+01 0.00000E+00
 -1      1017 9.61500E+01 2.92160E+01 0.00000E+00
 -1      1018 9.91500E+01 2.92160E+01 0.00000E+00
 -1      1019 1.02150E+02 2.92160E+01 0.00000E+00
 -1      1020 1.05150E+02 2.92160E+01 0.00000E+00
 -1      1021 1.08150E+02 2.92160E+01 0.00000E+00
 -1      1022 1.11150E+02 2.92160E+01 0.00000E+00
 -1      1023 1.14150E+02 2.92160E+01 0.00000E+00
 -1      1024 1.17150E+02 2.92160E+01 0.00000E+00
 -1      1025 1.20150E+02 2.92160E+01 0.00000E+00
 -1      1026 1.23150E+02 2.92160E+01 0.00000E+00
 -1      1027 1.26150E+02 2.92160E+01 0.00000E+00
 -1      1028 8.62884E+01 1.98073E+01 0.00000E+00
 -1      1029 6.81384E+01 1.98073E+01 0.00000E+00
 -1      1030 8.32884E+01 1.98073E+01 0.00000E+00
 -1      1031 8.02134E+01 1.98073E+01 0.00000E+00
 -1      1032 8.92884E+01 1.98073E+01 0.00000E+00
 -1      1033 9.22884E+01 1.98073E+01 0.00000E+00
 -1      1034 9.52884E+01 1.98073E+01 0.00000E+00
 -1      1035 9.82884E+01 1.98073E+01 0.00000E+00
 -1      1036 1.01288E+02 1.98073E+01 0.00000E+00
 -1      1037 1.04438E+02 1.98073E+01 0.00000E+00
 -1      1038 1.07438E+02 1.98073E+01 0.00000E+00
 -1      1039 1.10438E+02 1.98073E+01 0.00000E+00
 -1      1040 1.13438E+02 1.98073E+01 0.00000E+00
 -1      1041 1.16438E+02 1.98073E+01 0.00000E+00
 -1      1042 1.19438E+02 1.98073E+01 0.00000E+00
 -1      1043 1.22588E+02 1.98073E+01 0.00000E+00
 -1      1044 1.25588E+02 1.98073E+01 0.00000E+00
 -1      1045 1.28588E+02 1.98073E+01 0.00000E+00
 -1      1046 5.63414E+01 1.89122E+01 0.00000E+00
 -1      1047 5.94164E+01 1.89122E+01 0.00000E+00
 -1      1048 5.62179E+01 2.46682E+01 0.00000E+00
 -1      1049 7.42134E+01 1.98073E+01 0.00000E+00
 -1      1050 7.12134E+01 1.98073E+01 0.00000E+00
 -1      1051 1.28547E+02 2.68329E+01 0.00000E+00
 -1      1052 1.28249E+02 2.91848E+01 0.00000E+00
 -1      1053 6.51384E+01 1.98073E+01 0.00000E+00
 -1      1054 5.72782E+01 2.28550E+01 0.00000E+00
 -1      1055 1.28547E+02 2.38829E+01 0.00000E+00
 -1      1056 1.30669E+02 2.09336E+01 0.00000E+00
 -1      1057 6.21384E+01 1.98073E+01 0.00000E+00
 -1      1058 6.96759E+01 2.24053E+01 0.00000E+00
 -1      1059 7.87134E+01 2.24053E+01 0.00000E+00
 -1      1060 6.16500E+01 2.66180E+01 0.00000E+00
 -1      1061 6.46500E+01 2.66180E+01 0.00000E+00
 -1      1062 6.76500E+01 2.66180E+01 0.00000E+00
 -1      1063 7.06500E+01 2.66180E+01 0.00000E+00
 -1      1064 7.36500E+01 2.66180E+01 0.00000E+00
 -1      1065 7.66500E+01 2.66180E+01 0.00000E+00
 -1      1066 7.96500E+01 2.66180E+01 0.00000E+00
 -1      1067 8.26500E+01 2.66180E+01 0.00000E+00
 -1      1068 8.56500E+01 2.66180E+01 0.00000E+00
 -1      1069 8.86500E+01 2.66180E+01 0.00000E+00
 -1      1070 9.16500E+01 2.66180E+01 0.00000E+00
 -1      1071 9.46500E+01 2.66180E+01 0.00000E+00
 -1      1072 9.76500E+01 2.66180E+01 0.00000E+00
 -1      1073 1.00650E+02 2.66180E+01 0.00000E+00
 -1      1074 1.03650E+02 2.66180E+01 0.00000E+00
 -1      1075 1.06650E+02 2.66180E+01 0.00000E+00
 -1      1076 1.09650E+02 2.66180E+01 0.00000E+00
 -1      1077 1.12650E+02 2.66180E+01 0.00000E+00
 -1      1078 1.15650E+02 2.66180E+01 0.00000E+00
 -1      1079 1.18650E+02 2.66180E+01 0.00000E+00
 -1      1080 1.21650E+02 2.66180E+01 0.00000E+00
 -1      1081 1.24650E+02 2.66180E+01 0.00000E+00
 -1      1082 9.07884E+01 2.24053E+01 0.00000E+00
 -1      1083 8.47884E+01 2.24053E+01 0.00000E+00
 -1      1084 5.82694E+01 2.06151E+01 0.00000E+00
 -1      1085 5.87141E+01 2.60355E+01 0.00000E+00
 -1      1086 9.37884E+01 2.24053E+01 0.00000E+00
 -1      1087 9.67884E+01 2.24053E+01 0.00000E+00
 -1      1088 9.97884E+01 2.24053E+01 0.00000E+00
 -1      1089 1.02938E+02 2.24053E+01 0.00000E+00
 -1      1090 1.05938E+02 2.24053E+01 0.00000E+00
 -1      1091 1.08938E+02 2.24053E+01 0.00000E+00
 -1      1092 1.11938E+02 2.24053E+01 0.00000E+00
 -1      1093 1.14938E+02 2.24053E+01 0.00000E+00
 -1      1094 1.17938E+02 2.24053E+01 0.00000E+00
 -1      1095 1.21088E+02 2.24053E+01 0.00000E+00
 -1      1096 1.24088E+02 2.24053E+01 0.00000E+00
 -1      1097 1.27379E+02 2.16694E+01 0.00000E+00
 -1      1098 7.57134E+01 2.24053E+01 0.00000E+00
 -1      1099 8.77884E+01 2.24053E+01 0.00000E+00
 -1      1100 6.09914E+01 2.15102E+01 0.00000E+00
 -1      1101 7.27134E+01 2.24053E+01 0.00000E+00
 -1      1102 8.17509E+01 2.24053E+01 0.00000E+00
 -1      1103 1.26598E+02 2.67254E+01 0.00000E+00
 -1      1104 6.66759E+01 2.24053E+01 0.00000E+00
 -1      1105 6.36759E+01 2.24053E+01 0.00000E+00
 -1      1106 1.25343E+02 2.45654E+01 0.00000E+00
 -1      1107 6.03640E+01 2.33762E+01 0.00000E+00
 -1      1108 0.00000E+00 4.85250E+01 0.00000E+00
 -1      1109 0.00000E+00 4.55750E+01 0.00000E+00
 -1      1110 0.00000E+00 4.26250E+01 0.00000E+00
 -1      1111 0.00000E+00 3.96750E+01 0.00000E+00
 -1      1112 0.00000E+00 3.67250E+01 0.00000E+00
 -1      1113 0.00000E+00 3.38000E+01 0.00000E+00
 -1      1114 0.00000E+00 3.08750E+01 0.00000E+00
 -1      1115 0.00000E+00 2.79250E+01 0.00000E+00
 -1      1116 0.00000E+00 2.49750E+01 0.00000E+00
 -1      1117 0.00000E+00 2.20250E+01 0.00000E+00
 -1      1118 0.00000E+00 1.90750E+01 0.00000E+00
 -1      1119 0.00000E+00 1.61500E+01 0.00000E+00
 -1      1120 0.00000E+00 1.32250E+01 0.00000E+00
 -1      1121 0.00000E+00 1.02750E+01 0.00000E+00
 -1      1122 0.00000E+00 7.32500E+00 0.00000E+00
 -1      1123 0.00000E+00 4.37500E+00 0.00000E+00
 -1      1124 0.00000E+00 1.45000E+00 0.00000E+00
 -1      1125 1.57500E+00 5.00000E+01 0.00000E+00
 -1      1126 4.65000E+00 5.00000E+01 0.00000E+00
 -1      1127 7.65000E+00 5.00000E+01 0.00000E+00
 -1      1128 1.06500E+01 5.00000E+01 0.00000E+00
 -1      1129 1.36500E+01 5.00000E+01 0.00000E+00
 -1      1130 1.66500E+01 5.00000E+01 0.00000E+00
 -1      1131 1.96500E+01 5.00000E+01 0.00000E+00
 -1      1132 2.26500E+01 5.00000E+01 0.00000E+00
 -1      1133 2.56500E+01 5.00000E+01 0.00000E+00
 -1      1134 2.86500E+01 5.00000E+01 0.00000E+00
 -1      1135 3.16500E+01 5.00000E+01 0.00000E+00
 -1      1136 3.46500E+01 5.00000E+01 0.00000E+00
 -1      1137 3.76500E+01 5.00000E+01 0.00000E+00
 -1      1138 4.06500E+01 5.00000E+01 0.00000E+00
 -1      1139 4.36500E+01 5.00000E+01 0.00000E+00
 -1      1140 4.66500E+01 5.00000E+01 0.00000E+00
 -1      1141 4.96500E+01 5.00000E+01 0.00000E+00
 -1      1142 5.26500E+01 5.00000E+01 0.00000E+00
 -1      1143 5.56500E+01 5.00000E+01 0.00000E+00
 -1      1144 5.86500E+01 5.00000E+01 0.00000E+00
 -1      1145 6.16500E+01 5.00000E+01 0.00000E+00
 -1      1146 6.46500E+01 5.00000E+01 0.00000E+00
 -1      1147 6.76500E+01 5.00000E+01 0.00000E+00
 -1      1148 7.06500E+01 5.00000E+01 0.00000E+00
 -1      1149 7.36500E+01 5.00000E+01 0.00000E+00
 -1      1150 7.66500E+01 5.00000E+01 0.00000E+00
 -1      1151 7.96500E+01 5.00000E+01 0.00000E+00
 -1      1152 8.26500E+01 5.00000E+01 0.00000E+00
 -1      1153 8.56500E+01 5.00000E+01 0.00000E+00
 -1      1154 8.86500E+01 5.00000E+01 0.00000E+00
 -1      1155 9.16500E+01 5.00000E+01 0.00000E+00
 -1      1156 9.46500E+01 5.00000E+01 0.00000E+00
 -1      1157 9.76500E+01 5.00000E+01 0.00000E+00
 -1      1158 1.00650E+02 5.00000E+01 0.00000E+00
 -1      1159 1.03650E+02 5.00000E+01 0.00000E+00
 -1      1160 1.06650E+02 5.00000E+01 0.00000E+00
 -1      1161 1.09650E+02 5.00000E+01 0.00000E+00
 -1      1162 1.12650E+02 5.00000E+01 0.00000E+00
 -1      1163 1.15650E+02 5.00000E+01 0.00000E+00
 -1      1164 1.18650E+02 5.00000E+01 0.00000E+00
 -1      1165 1.21650E+02 5.00000E+01 0.00000E+00
 -1      1166 1.24650E+02 5.00000E+01 0.00000E+00
 -1      1167 1.27650E+02 5.00000E+01 0.00000E+00
 -1      1168 1.30650E+02 5.00000E+01 0.00000E+00
 -1      1169 1.33650E+02 5.00000E+01 0.00000E+00
 -1      1170 1.36650E+02 5.00000E+01 0.00000E+00
 -1      1171 1.39650E+02 5.00000E+01 0.00000E+00
 -1      1172 1.42650E+02 5.00000E+01 0.00000E+00
 -1      1173 1.45650E+02 5.00000E+01 0.00000E+00
 -1      1174 1.48575E+02 5.00000E+01 0.00000E+00
 -1      1175 1.57500E+00 0.00000E+00 0.00000E+00
 -1      1176 4.65000E+00 0.00000E+00 0.00000E+00
 -1      1177 7.65000E+00 0.00000E+00 0.00000E+00
 -1      1178 1.06500E+01 0.00000E+00 0.00000E+00
 -1      1179 1.36500E+01 0.00000E+00 0.00000E+00
 -1      1180 1.66500E+01 0.00000E+00 0.00000E+00
 -1      1181 1.97250E+01 0.00000E+00 0.00000E+00
 -1      1182 2.28000E+01 0.00000E+00 0.00000E+00
 -1      1183 2.58000E+01 0.00000E+00 0.00000E+00
 -1      1184 2.88000E+01 0.00000E+00 0.00000E+00
 -1      1185 3.18000E+01 0.00000E+00 0.00000E+00
 -1      1186 3.48000E+01 0.00000E+00 0.00000E+00
 -1      1187 3.75750E+01 0.00000E+00 0.00000E+00
 -1      1188 4.00500E+01 0.00000E+00 0.00000E+00
 -1      1189 4.27500E+01 0.00000E+00 0.00000E+00
 -1      1190 4.57500E+01 0.00000E+00 0.00000E+00
 -1      1191 4.87500E+01 0.00000E+00 0.00000E+00
 -1      1192 5.17500E+01 0.00000E+00 0.00000E+00
 -1      1193 5.47500E+01 0.00000E+00 0.00000E+00
 -1      1194 5.78250E+01 0.00000E+00 0.00000E+00
 -1      1195 6.09000E+01 0.00000E+00 0.00000E+00
 -1      1196 6.39000E+01 0.00000E+00 0.00000E+00
 -1      1197 6.69000E+01 0.00000E+00 0.00000E+00
 -1      1198 6.99000E+01 0.00000E+00 0.00000E+00
 -1      1199 7.29000E+01 0.00000E+00 0.00000E+00
 -1      1200 7.59750E+01 0.00000E+00 0.00000E+00
 -1      1201 7.90500E+01 0.00000E+00 0.00000E+00
 -1      1202 8.20500E+01 0.00000E+00 0.00000E+00
 -1      1203 8.50500E+01 0.00000E+00 0.00000E+00
 -1      1204 8.80500E+01 0.00000E+00 0.00000E+00
 -1      1205 9.10500E+01 0.00000E+00 0.00000E+00
 -1      1206 9.41250E+01 0.00000E+00 0.00000E+00
 -1      1207 9.72000E+01 0.00000E+00 0.00000E+00
 -1      1208 1.00200E+02 0.00000E+00 0.00000E+00
 -1      1209 1.03200E+02 0.00000E+00 0.00000E+00
 -1      1210 1.06200E+02 0.00000E+00 0.00000E+00
 -1      1211 1.09200E+02 0.00000E+00 0.00000E+00
 -1      1212 1.12275E+02 0.00000E+00 0.00000E+00
 -1      1213 1.15350E+02 0.00000E+00 0.00000E+00
 -1      1214 1.18350E+02 0.00000E+00 0.00000E+00
 -1      1215 1.21350E+02 0.00000E+00 0.00000E+00
 -1      1216 1.24350E+02 0.00000E+00 0.00000E+00
 -1      1217 1.27350E+02 0.00000E+00 0.00000E+00
 -1      1218 1.30425E+02 0.00000E+00 0.00000E+00
 -1      1219 1.33500E+02 0.00000E+00 0.00000E+00
 -1      1220 1.36500E+02 0.00000E+00 0.00000E+00
 -1      1221 1.39500E+02 0.00000E+00 0.00000E+00
 -1      1222 1.42500E+02 0.00000E+00 0.00000E+00
 -1      1223 1.45500E+02 0.00000E+00 0.00000E+00
 -1      1224 1.48500E+02 0.00000E+00 0.00000E+00
 -1      1225 1.50000E+02 1.47500E+00 0.00000E+00
 -1      1226 1.50000E+02 4.42500E+00 0.00000E+00
 -1      1227 1.50000E+02 7.37500E+00 0.00000E+00
 -1      1228 1.50000E+02 1.03250E+01 0.00000E+00
 -1      1229 1.50000E+02 1.32750E+01 0.00000E+00
 -1      1230 1.50000E+02 1.62000E+01 0.00000E+00
 -1      1231 1.50000E+02 1.91250E+01 0.00000E+00
 -1      1232 1.50000E+02 2.20750E+01 0.00000E+00
 -1      1233 1.50000E+02 2.50250E+01 0.00000E+00
 -1      1234 1.50000E+02 2.79750E+01 0.00000E+00
 -1      1235 1.50000E+02 3.09250E+01 0.00000E+00
 -1      1236 1.50000E+02 3.38500E+01 0.00000E+00
 -1      1237 1.50000E+02 3.67750E+01 0.00000E+00
 -1      1238 1.50000E+02 3.97250E+01 0.00000E+00
 -1      1239 1.50000E+02 4.26750E+01 0.00000E+00
 -1      1240 1.50000E+02 4.56250E+01 0.00000E+00
 -1      1241 1.50000E+02 4.85500E+01 0.00000E+00
 -1      1242 4.28316E+01 1.53860E+01 0.00000E+00
 -1      1243 4.25011E+01 1.38810E+01 0.00000E+00
 -1      1244 4.18619E+01 1.25055E+01 0.00000E+00
 -1      1245 4.10036E+01 1.13662E+01 0.00000E+00
 -1      1246 3.99230E+01 1.04181E+01 0.00000E+00
 -1      1247 3.85892E+01 9.67534E+00 0.00000E+00
 -1      1248 3.71465E+01 9.24314E+00 0.00000E+00
 -1      1249 3.56479E+01 9.12947E+00 0.00000E+00
 -1      1250 3.40947E+01 9.35500E+00 0.00000E+00
 -1      1251 3.26611E+01 9.90518E+00 0.00000E+00
 -1      1252 3.13808E+01 1.07557E+01 0.00000E+00
 -1      1253 3.03316E+01 1.18460E+01 0.00000E+00
 -1      1254 2.95733E+01 1.30695E+01 0.00000E+00
 -1      1255 2.90754E+01 1.44460E+01 0.00000E+00
 -1      1256 2.88743E+01 1.59051E+01 0.00000E+00
 -1      1257 2.89873E+01 1.73975E+01 0.00000E+00
 -1      1258 2.94200E+01 1.88438E+01 0.00000E+00
 -1      1259 3.01279E+01 2.01283E+01 0.00000E+00
 -1      1260 3.10787E+01 2.12284E+01 0.00000E+00
 -1      1261 3.22697E+01 2.21286E+01 0.00000E+00
 -1      1262 3.36555E+01 2.27661E+01 0.00000E+00
 -1      1263 3.51176E+01 2.30853E+01 0.00000E+00
 -1      1264 3.66375E+01 2.30838E+01 0.00000E+00
 -1      1265 3.81907E+01 2.27303E+01 0.00000E+00
 -1      1266 3.96214E+01 2.20363E+01 0.00000E+00
 -1      1267 4.08134E+01 2.10828E+01 0.00000E+00
 -1      1268 4.17720E+01 1.98910E+01 0.00000E+00
 -1      1269 4.24673E+01 1.84682E+01 0.00000E+00
 -1      1270 4.28269E+01 1.69088E+01 0.00000E+00
 -1      1271 1.57500E+00 4.85250E+01 0.00000E+00
 -1      1272 1.29900E+00 4.48375E+01 0.00000E+00
 -1      1273 1.29900E+00 4.63125E+01 0.00000E+00
 -1      1274 1.29900E+00 4.18875E+01 0.00000E+00
 -1      1275 1.29900E+00 4.33625E+01 0.00000E+00
 -1      1276 2.59800E+00 4.41000E+01 0.00000E+00
 -1      1277 1.29900E+00 3.89375E+01 0.00000E+00
 -1      1278 1.29900E+00 4.04125E+01 0.00000E+00
 -1      1279 2.59800E+00 4.11500E+01 0.00000E+00
 -1      1280 1.29900E+00 3.59875E+01 0.00000E+00
 -1      1281 1.29900E+00 3.74625E+01 0.00000E+00
 -1      1282 2.59800E+00 3.82000E+01 0.00000E+00
 -1      1283 1.29900E+00 3.30875E+01 0.00000E+00
 -1      1284 1.29900E+00 3.45375E+01 0.00000E+00
 -1      1285 2.59800E+00 3.52750E+01 0.00000E+00
 -1      1286 1.29900E+00 3.01375E+01 0.00000E+00
 -1      1287 1.29900E+00 3.16125E+01 0.00000E+00
 -1      1288 2.59800E+00 3.23500E+01 0.00000E+00
 -1      1289 1.29900E+00 2.71875E+01 0.00000E+00
 -1      1290 1.29900E+00 2.86625E+01 0.00000E+00
 -1      1291 2.59800E+00 2.94000E+01 0.00000E+00
 -1      1292 1.29900E+00 2.42375E+01 0.00000E+00
 -1      1293 1.29900E+00 2.57125E+01 0.00000E+00
 -1      1294 2.59800E+00 2.64500E+01 0.00000E+00
 -1      1295 1.29900E+00 2.12875E+01 0.00000E+00
 -1      1296 1.29900E+00 2.27625E+01 0.00000E+00
 -1      1297 2.59800E+00 2.35000E+01 0.00000E+00
 -1      1298 1.29900E+00 1.83375E+01 0.00000E+00
 -1      1299 1.29900E+00 1.98125E+01 0.00000E+00
 -1      1300 2.59800E+00 2.05500E+01 0.00000E+00
 -1      1301 1.29900E+00 1.54375E+01 0.00000E+00
 -1      1302 1.29900E+00 1.68875E+01 0.00000E+00
 -1      1303 2.59800E+00 1.76250E+01 0.00000E+00
 -1      1304 1.29900E+00 1.24875E+01 0.00000E+00
 -1      1305 1.29900E+00 1.39625E+01 0.00000E+00
 -1      1306 2.59800E+00 1.47000E+01 0.00000E+00
 -1      1307 1.29900E+00 9.53750E+00 0.00000E+00
 -1      1308 1.29900E+00 1.10125E+01 0.00000E+00
 -1      1309 2.59800E+00 1.17500E+01 0.00000E+00
 -1      1310 1.29900E+00 6.58750E+00 0.00000E+00
 -1      1311 1.29900E+00 8.06250E+00 0.00000E+00
 -1      1312 2.59800E+00 8.80000E+00 0.00000E+00
 -1      1313 1.29900E+00 3.63750E+00 0.00000E+00
 -1      1314 1.29900E+00 5.11250E+00 0.00000E+00
 -1      1315 2.59800E+00 5.85000E+00 0.00000E+00
 -1      1316 1.43700E+00 1.09375E+00 0.00000E+00
 -1      1317 1.43700E+00 2.54375E+00 0.00000E+00
 -1      1318 2.73600E+00 3.28125E+00 0.00000E+00
 -1      1319 3.01200E+00 1.09375E+00 0.00000E+00
 -1      1320 3.90000E+00 4.87010E+01 0.00000E+00
 -1      1321 5.40000E+00 4.87010E+01 0.00000E+00
 -1      1322 6.90000E+00 4.87010E+01 0.00000E+00
 -1      1323 8.40000E+00 4.87010E+01 0.00000E+00
 -1      1324 6.15000E+00 4.74020E+01 0.00000E+00
 -1      1325 9.90000E+00 4.87010E+01 0.00000E+00
 -1      1326 1.14000E+01 4.87010E+01 0.00000E+00
 -1      1327 9.15000E+00 4.74020E+01 0.00000E+00
 -1      1328 1.29000E+01 4.87010E+01 0.00000E+00
 -1      1329 1.44000E+01 4.87010E+01 0.00000E+00
 -1      1330 1.21500E+01 4.74020E+01 0.00000E+00
 -1      1331 1.59000E+01 4.87010E+01 0.00000E+00
 -1      1332 1.74000E+01 4.87010E+01 0.00000E+00
 -1      1333 1.51500E+01 4.74020E+01 0.00000E+00
 -1      1334 1.89000E+01 4.87010E+01 0.00000E+00
 -1      1335 2.04000E+01 4.87010E+01 0.00000E+00
 -1      1336 1.81500E+01 4.74020E+01 0.00000E+00
 -1      1337 2.19000E+01 4.87010E+01 0.00000E+00
 -1      1338 2.34000E+01 4.87010E+01 0.00000E+00
 -1      1339 2.11500E+01 4.74020E+01 0.00000E+00
 -1      1340 2.49000E+01 4.87010E+01 0.00000E+00
 -1      1341 2.64000E+01 4.87010E+01 0.00000E+00
 -1      1342 2.41500E+01 4.74020E+01 0.00000E+00
 -1      1343 2.79000E+01 4.87010E+01 0.00000E+00
 -1      1344 2.94000E+01 4.87010E+01 0.00000E+00
 -1      1345 2.71500E+01 4.74020E+01 0.00000E+00
 -1      1346 3.09000E+01 4.87010E+01 0.00000E+00
 -1      1347 3.24000E+01 4.87010E+01 0.00000E+00
 -1      1348 3.01500E+01 4.74020E+01 0.00000E+00
 -1      1349 3.39000E+01 4.87010E+01 0.00000E+00
 -1      1350 3.54000E+01 4.87010E+01 0.00000E+00
 -1      1351 3.31500E+01 4.74020E+01 0.00000E+00
 -1      1352 3.69000E+01 4.87010E+01 0.00000E+00
 -1      1353 3.84000E+01 4.87010E+01 0.00000E+00
 -1      1354 3.61500E+01 4.74020E+01 0.00000E+00
 -1      1355 3.99000E+01 4.87010E+01 0.00000E+00
 -1      1356 4.14000E+01 4.87010E+01 0.00000E+00
 -1      1357 3.91500E+01 4.74020E+01 0.00000E+00
 -1      1358 4.29000E+01 4.87010E+01 0.00000E+00
 -1      1359 4.44000E+01 4.87010E+01 0.00000E+00
 -1      1360 4.21500E+01 4.74020E+01 0.00000E+00
 -1      1361 4.59000E+01 4.87010E+01 0.00000E+00
 -1      1362 4.74000E+01 4.87010E+01 0.00000E+00
 -1      1363 4.51500E+01 4.74020E+01 0.00000E+00
 -1      1364 4.89000E+01 4.87010E+01 0.00000E+00
 -1      1365 5.04000E+01 4.87010E+01 0.00000E+00
 -1      1366 4.81500E+01 4.74020E+01 0.00000E+00
 -1      1367 5.19000E+01 4.87010E+01 0.00000E+00
 -1      1368 5.34000E+01 4.87010E+01 0.00000E+00
 -1      1369 5.11500E+01 4.74020E+01 0.00000E+00
 -1      1370 5.49000E+01 4.87010E+01 0.00000E+00
 -1      1371 5.64000E+01 4.87010E+01 0.00000E+00
 -1      1372 5.41500E+01 4.74020E+01 0.00000E+00
 -1      1373 5.79000E+01 4.87010E+01 0.00000E+00
 -1      1374 5.94000E+01 4.87010E+01 0.00000E+00
 -1      1375 5.71500E+01 4.74020E+01 0.00000E+00
 -1      1376 6.09000E+01 4.87010E+01 0.00000E+00
 -1      1377 6.24000E+01 4.87010E+01 0.00000E+00
 -1      1378 6.01500E+01 4.74020E+01 0.00000E+00
 -1      1379 6.39000E+01 4.87010E+01 0.00000E+00
 -1      1380 6.54000E+01 4.87010E+01 0.00000E+00
 -1      1381 6.31500E+01 4.74020E+01 0.00000E+00
 -1      1382 6.69000E+01 4.87010E+01 0.00000E+00
 -1      1383 6.84000E+01 4.87010E+01 0.00000E+00
 -1      1384 6.61500E+01 4.74020E+01 0.00000E+00
 -1      1385 6.99000E+01 4.87010E+01 0.00000E+00
 -1      1386 7.14000E+01 4.87010E+01 0.00000E+00
 -1      1387 6.91500E+01 4.74020E+01 0.00000E+00
 -1      1388 7.29000E+01 4.87010E+01 0.00000E+00
 -1      1389 7.44000E+01 4.87010E+01 0.00000E+00
 -1      1390 7.21500E+01 4.74020E+01 0.00000E+00
 -1      1391 7.59000E+01 4.87010E+01 0.00000E+00
 -1      1392 7.74000E+01 4.87010E+01 0.00000E+00
 -1      1393 7.51500E+01 4.74020E+01 0.00000E+00
 -1      1394 7.89000E+01 4.87010E+01 0.00000E+00
 -1      1395 8.04000E+01 4.87010E+01 0.00000E+00
 -1      1396 7.81500E+01 4.74020E+01 0.00000E+00
 -1      1397 8.19000E+01 4.87010E+01 0.00000E+00
 -1      1398 8.34000E+01 4.87010E+01 0.00000E+00
 -1      1399 8.11500E+01 4.74020E+01 0.00000E+00
 -1      1400 8.49000E+01 4.87010E+01 0.00000E+00
 -1      1401 8.64000E+01 4.87010E+01 0.00000E+00
 -1      1402 8.41500E+01 4.74020E+01 0.00000E+00
 -1      1403 8.79000E+01 4.87010E+01 0.00000E+00
 -1      1404 8.94000E+01 4.87010E+01 0.00000E+00
 -1      1405 8.71500E+01 4.74020E+01 0.00000E+00
 -1      1406 9.09000E+01 4.87010E+01 0.00000E+00
 -1      1407 9.24000E+01 4.87010E+01 0.00000E+00
 -1      1408 9.01500E+01 4.74020E+01 0.00000E+00
 -1      1409 9.39000E+01 4.87010E+01 0.00000E+00
 -1      1410 9.54000E+01 4.87010E+01 0.00000E+00
 -1      1411 9.31500E+01 4.74020E+01 0.00000E+00
 -1      1412 9.69000E+01 4.87010E+01 0.00000E+00
 -1      1413 9.84000E+01 4.87010E+01 0.00000E+00
 -1      1414 9.61500E+01 4.74020E+01 0.00000E+00
 -1      1415 9.99000E+01 4.87010E+01 0.00000E+00
 -1      1416 1.01400E+02 4.87010E+01 0.00000E+00
 -1      1417 9.91500E+01 4.74020E+01 0.00000E+00
 -1      1418 1.02900E+02 4.87010E+01 0.00000E+00
 -1      1419 1.04400E+02 4.87010E+01 0.00000E+00
 -1      1420 1.02150E+02 4.74020E+01 0.00000E+00
 -1      1421 1.05900E+02 4.87010E+01 0.00000E+00
 -1      1422 1.07400E+02 4.87010E+01 0.00000E+00
 -1      1423 1.05150E+02 4.74020E+01 0.00000E+00
 -1      1424 1.08900E+02 4.87010E+01 0.00000E+00
 -1      1425 1.10400E+02 4.87010E+01 0.00000E+00
 -1      1426 1.08150E+02 4.74020E+01 0.00000E+00
 -1      1427 1.11900E+02 4.87010E+01 0.00000E+00
 -1      1428 1.13400E+02 4.87010E+01 0.00000E+00
 -1      1429 1.11150E+02 4.74020E+01 0.00000E+00
 -1      1430 1.14900E+02 4.87010E+01 0.00000E+00
 -1      1431 1.16400E+02 4.87010E+01 0.00000E+00
 -1      1432 1.14150E+02 4.74020E+01 0.00000E+00
 -1      1433 1.17900E+02 4.87010E+01 0.00000E+00
 -1      1434 1.19400E+02 4.87010E+01 0.00000E+00
 -1      1435 1.17150E+02 4.74020E+01 0.00000E+00
 -1      1436 1.20900E+02 4.87010E+01 0.00000E+00
 -1      1437 1.22400E+02 4.87010E+01 0.00000E+00
 -1      1438 1.20150E+02 4.74020E+01 0.00000E+00
 -1      1439 1.23900E+02 4.87010E+01 0.00000E+00
 -1      1440 1.25400E+02 4.87010E+01 0.00000E+00
 -1      1441 1.23150E+02 4.74020E+01 0.00000E+00
 -1      1442 1.26900E+02 4.87010E+01 0.00000E+00
 -1      1443 1.28400E+02 4.87010E+01 0.00000E+00
 -1      1444 1.26150E+02 4.74020E+01 0.00000E+00
 -1      1445 1.29900E+02 4.87010E+01 0.00000E+00
 -1      1446 1.31400E+02 4.87010E+01 0.00000E+00
 -1      1447 1.29150E+02 4.74020E+01 0.00000E+00
 -1      1448 1.32900E+02 4.87010E+01 0.00000E+00
 -1      1449 1.34400E+02 4.87010E+01 0.00000E+00
 -1      1450 1.32150E+02 4.74020E+01 0.00000E+00
 -1      1451 1.35900E+02 4.87010E+01 0.00000E+00
 -1      1452 1.37400E+02 4.87010E+01 0.00000E+00
 -1      1453 1.35150E+02 4.74020E+01 0.00000E+00
 -1      1454 1.38900E+02 4.87010E+01 0.00000E+00
 -1      1455 1.40400E+02 4.87010E+01 0.00000E+00
 -1      1456 1.38150E+02 4.74020E+01 0.00000E+00
 -1      1457 1.41900E+02 4.87010E+01 0.00000E+00
 -1      1458 1.43400E+02 4.87010E+01 0.00000E+00
 -1      1459 1.41150E+02 4.74020E+01 0.00000E+00
 -1      1460 1.44900E+02 4.87010E+01 0.00000E+00
 -1      1461 1.46400E+02 4.87010E+01 0.00000E+00
 -1      1462 1.44150E+02 4.74020E+01 0.00000E+00
 -1      1463 1.48575E+02 4.85500E+01 0.00000E+00
 -1      1464 1.47825E+02 4.72510E+01 0.00000E+00
 -1      1465 6.01200E+00 1.09375E+00 0.00000E+00
 -1      1466 4.51200E+00 1.09375E+00 0.00000E+00
 -1      1467 4.37400E+00 2.18750E+00 0.00000E+00
 -1      1468 9.01200E+00 1.09375E+00 0.00000E+00
 -1      1469 7.51200E+00 1.09375E+00 0.00000E+00
 -1      1470 7.37400E+00 2.18750E+00 0.00000E+00
 -1      1471 1.20120E+01 1.09375E+00 0.00000E+00
 -1      1472 1.05120E+01 1.09375E+00 0.00000E+00
 -1      1473 1.03740E+01 2.18750E+00 0.00000E+00
 -1      1474 1.50120E+01 1.09375E+00 0.00000E+00
 -1      1475 1.35120E+01 1.09375E+00 0.00000E+00
 -1      1476 1.33740E+01 2.18750E+00 0.00000E+00
 -1      1477 1.80120E+01 1.09375E+00 0.00000E+00
 -1      1478 1.65120E+01 1.09375E+00 0.00000E+00
 -1      1479 1.63740E+01 2.18750E+00 0.00000E+00
 -1      1480 2.11620E+01 1.09375E+00 0.00000E+00
 -1      1481 1.95870E+01 1.09375E+00 0.00000E+00
 -1      1482 1.94490E+01 2.18750E+00 0.00000E+00
 -1      1483 2.41620E+01 1.09375E+00 0.00000E+00
 -1      1484 2.26620E+01 1.09375E+00 0.00000E+00
 -1      1485 2.25240E+01 2.18750E+00 0.00000E+00
 -1      1486 2.71620E+01 1.09375E+00 0.00000E+00
 -1      1487 2.56620E+01 1.09375E+00 0.00000E+00
 -1      1488 2.55240E+01 2.18750E+00 0.00000E+00
 -1      1489 3.01620E+01 1.09375E+00 0.00000E+00
 -1      1490 2.86620E+01 1.09375E+00 0.00000E+00
 -1      1491 2.85240E+01 2.18750E+00 0.00000E+00
 -1      1492 3.31620E+01 1.09375E+00 0.00000E+00
 -1      1493 3.16620E+01 1.09375E+00 0.00000E+00
 -1      1494 3.15240E+01 2.18750E+00 0.00000E+00
 -1      1495 3.61620E+01 1.09375E+00 0.00000E+00
 -1      1496 3.46620E+01 1.09375E+00 0.00000E+00
 -1      1497 3.45240E+01 2.18750E+00 0.00000E+00
 -1      1498 3.87120E+01 1.09375E+00 0.00000E+00
 -1      1499 3.74370E+01 1.09375E+00 0.00000E+00
 -1      1500 3.72990E+01 2.18750E+00 0.00000E+00
 -1      1501 4.11120E+01 1.09375E+00 0.00000E+00
 -1      1502 3.99120E+01 1.09375E+00 0.00000E+00
 -1      1503 3.97740E+01 2.18750E+00 0.00000E+00
 -1      1504 4.41120E+01 1.09375E+00 0.00000E+00
 -1      1505 4.26120E+01 1.09375E+00 0.00000E+00
 -1      1506 4.24740E+01 2.18750E+00 0.00000E+00
 -1      1507 4.71120E+01 1.09375E+00 0.00000E+00
 -1      1508 4.56120E+01 1.09375E+00 0.00000E+00
 -1      1509 4.54740E+01 2.18750E+00 0.00000E+00
 -1      1510 5.01120E+01 1.09375E+00 0.00000E+00
 -1      1511 4.86120E+01 1.09375E+00 0.00000E+00
 -1      1512 4.84740E+01 2.18750E+00 0.00000E+00
 -1      1513 5.31120E+01 1.09375E+00 0.00000E+00
 -1      1514 5.16120E+01 1.09375E+00 0.00000E+00
 -1      1515 5.14740E+01 2.18750E+00 0.00000E+00
 -1      1516 5.61120E+01 1.09375E+00 0.00000E+00
 -1      1517 5.46120E+01 1.09375E+00 0.00000E+00
 -1      1518 5.44740E+01 2.18750E+00 0.00000E+00
 -1      1519 5.92620E+01 1.09375E+00 0.00000E+00
 -1      1520 5.76870E+01 1.09375E+00 0.00000E+00
 -1      1521 5.75490E+01 2.18750E+00 0.00000E+00
 -1      1522 6.22620E+01 1.09375E+00 0.00000E+00
 -1      1523 6.07620E+01 1.09375E+00 0.00000E+00
 -1      1524 6.06240E+01 2.18750E+00 0.00000E+00
 -1      1525 6.52620E+01 1.09375E+00 0.00000E+00
 -1      1526 6.37620E+01 1.09375E+00 0.00000E+00
 -1      1527 6.36240E+01 2.18750E+00 0.00000E+00
 -1      1528 6.82620E+01 1.09375E+00 0.00000E+00
 -1      1529 6.67620E+01 1.09375E+00 0.00000E+00
 -1      1530 6.66240E+01 2.18750E+00 0.00000E+00
 -1      1531 7.12620E+01 1.09375E+00 0.00000E+00
 -1      1532 6.97620E+01 1.09375E+00 0.00000E+00
 -1      1533 6.96240E+01 2.18750E+00 0.00000E+00
 -1      1534 7.42620E+01 1.09375E+00 0.00000E+00
 -1      1535 7.27620E+01 1.09375E+00 0.00000E+00
 -1      1536 7.26240E+01 2.18750E+00 0.00000E+00
 -1      1537 7.74120E+01 1.09375E+00 0.00000E+00
 -1      1538 7.58370E+01 1.09375E+00 0.00000E+00
 -1      1539 7.56990E+01 2.18750E+00 0.00000E+00
 -1      1540 8.04120E+01 1.09375E+00 0.00000E+00
 -1      1541 7.89120E+01 1.09375E+00 0.00000E+00
 -1      1542 7.87740E+01 2.18750E+00 0.00000E+00
 -1      1543 8.34120E+01 1.09375E+00 0.00000E+00
 -1      1544 8.19120E+01 1.09375E+00 0.00000E+00
 -1      1545 8.17740E+01 2.18750E+00 0.00000E+00
 -1      1546 8.64120E+01 1.09375E+00 0.00000E+00
 -1      1547 8.49120E+01 1.09375E+00 0.00000E+00
 -1      1548 8.47740E+01 2.18750E+00 0.00000E+00
 -1      1549 8.94120E+01 1.09375E+00 0.00000E+00
 -1      1550 8.79120E+01 1.09375E+00 0.00000E+00
 -1      1551 8.77740E+01 2.18750E+00 0.00000E+00
 -1      1552 9.24120E+01 1.09375E+00 0.00000E+00
 -1      1553 9.09120E+01 1.09375E+00 0.00000E+00
 -1      1554 9.07740E+01 2.18750E+00 0.00000E+00
 -1      1555 9.55620E+01 1.09375E+00 0.00000E+00
 -1      1556 9.39870E+01 1.09375E+00 0.00000E+00
 -1      1557 9.38490E+01 2.18750E+00 0.00000E+00
 -1      1558 9.85620E+01 1.09375E+00 0.00000E+00
 -1      1559 9.70620E+01 1.09375E+00 0.00000E+00
 -1      1560 9.69240E+01 2.18750E+00 0.00000E+00
 -1      1561 1.01562E+02 1.09375E+00 0.00000E+00
 -1      1562 1.00062E+02 1.09375E+00 0.00000E+00
 -1      1563 9.99240E+01 2.18750E+00 0.00000E+00
 -1      1564 1.04562E+02 1.09375E+00 0.00000E+00
 -1      1565 1.03062E+02 1.09375E+00 0.00000E+00
 -1      1566 1.02924E+02 2.18750E+00 0.00000E+00
 -1      1567 1.07562E+02 1.09375E+00 0.00000E+00
 -1      1568 1.06062E+02 1.09375E+00 0.00000E+00
 -1      1569 1.05924E+02 2.18750E+00 0.00000E+00
 -1      1570 1.10562E+02 1.09375E+00 0.00000E+00
 -1      1571 1.09062E+02 1.09375E+00 0.00000E+00
 -1      1572 1.08924E+02 2.18750E+00 0.00000E+00
 -1      1573 1.13712E+02 1.09375E+00 0.00000E+00
 -1      1574 1.12137E+02 1.09375E+00 0.00000E+00
 -1      1575 1.11999E+02 2.18750E+00 0.00000E+00
 -1      1576 1.16712E+02 1.09375E+00 0.00000E+00
 -1      1577 1.15212E+02 1.09375E+00 0.00000E+00
 -1      1578 1.15074E+02 2.18750E+00 0.00000E+00
 -1      1579 1.19712E+02 1.09375E+00 0.00000E+00
 -1      1580 1.18212E+02 1.09375E+00 0.00000E+00
 -1      1581 1.18074E+02 2.18750E+00 0.00000E+00
 -1      1582 1.22712E+02 1.09375E+00 0.00000E+00
 -1      1583 1.21212E+02 1.09375E+00 0.00000E+00
 -1      1584 1.21074E+02 2.18750E+00 0.00000E+00
 -1      1585 1.25712E+02 1.09375E+00 0.00000E+00
 -1      1586 1.24212E+02 1.09375E+00 0.00000E+00
 -1      1587 1.24074E+02 2.18750E+00 0.00000E+00
 -1      1588 1.28712E+02 1.09375E+00 0.00000E+00
 -1      1589 1.27212E+02 1.09375E+00 0.00000E+00
 -1      1590 1.27074E+02 2.18750E+00 0.00000E+00
 -1      1591 1.31862E+02 1.09375E+00 0.00000E+00
 -1      1592 1.30287E+02 1.09375E+00 0.00000E+00
 -1      1593 1.30149E+02 2.18750E+00 0.00000E+00
 -1      1594 1.34862E+02 1.09375E+00 0.00000E+00
 -1      1595 1.33362E+02 1.09375E+00 0.00000E+00
 -1      1596 1.33224E+02 2.18750E+00 0.00000E+00
 -1      1597 1.37862E+02 1.09375E+00 0.00000E+00
 -1      1598 1.36362E+02 1.09375E+00 0.00000E+00
 -1      1599 1.36224E+02 2.18750E+00 0.00000E+00
 -1      1600 1.40862E+02 1.09375E+00 0.00000E+00
 -1      1601 1.39362E+02 1.09375E+00 0.00000E+00
 -1      1602 1.39224E+02 2.18750E+00 0.00000E+00
 -1      1603 1.43862E+02 1.09375E+00 0.00000E+00
 -1      1604 1.42362E+02 1.09375E+00 0.00000E+00
 -1      1605 1.42224E+02 2.18750E+00 0.00000E+00
 -1      1606 1.46862E+02 1.09375E+00 0.00000E+00
 -1      1607 1.45362E+02 1.09375E+00 0.00000E+00
 -1      1608 1.45224E+02 2.18750E+00 0.00000E+00
 -1      1609 1.48500E+02 1.47500E+00 0.00000E+00
 -1      1610 1.48701E+02 5.16250E+00 0.00000E+00
 -1      1611 1.48701E+02 3.68750E+00 0.00000E+00
 -1      1612 1.48701E+02 8.11250E+00 0.00000E+00
 -1      1613 1.48701E+02 6.63750E+00 0.00000E+00
 -1      1614 1.47402E+02 5.90000E+00 0.00000E+00
 -1      1615 1.48701E+02 1.10625E+01 0.00000E+00
 -1      1616 1.48701E+02 9.58750E+00 0.00000E+00
 -1      1617 1.47402E+02 8.85000E+00 0.00000E+00
 -1      1618 1.48701E+02 1.40125E+01 0.00000E+00
 -1      1619 1.48701E+02 1.25375E+01 0.00000E+00
 -1      1620 1.47402E+02 1.18000E+01 0.00000E+00
 -1      1621 1.48701E+02 1.69125E+01 0.00000E+00
 -1      1622 1.48701E+02 1.54625E+01 0.00000E+00
 -1      1623 1.47402E+02 1.47250E+01 0.00000E+00
 -1      1624 1.48701E+02 1.98625E+01 0.00000E+00
 -1      1625 1.48701E+02 1.83875E+01 0.00000E+00
 -1      1626 1.47402E+02 1.76500E+01 0.00000E+00
 -1      1627 1.48701E+02 2.28125E+01 0.00000E+00
 -1      1628 1.48701E+02 2.13375E+01 0.00000E+00
 -1      1629 1.47402E+02 2.06000E+01 0.00000E+00
 -1      1630 1.48701E+02 2.57625E+01 0.00000E+00
 -1      1631 1.48701E+02 2.42875E+01 0.00000E+00
 -1      1632 1.47402E+02 2.35500E+01 0.00000E+00
 -1      1633 1.48701E+02 2.87125E+01 0.00000E+00
 -1      1634 1.48701E+02 2.72375E+01 0.00000E+00
 -1      1635 1.47402E+02 2.65000E+01 0.00000E+00
 -1      1636 1.48701E+02 3.16625E+01 0.00000E+00
 -1      1637 1.48701E+02 3.01875E+01 0.00000E+00
 -1      1638 1.47402E+02 2.94500E+01 0.00000E+00
 -1      1639 1.48701E+02 3.45625E+01 0.00000E+00
 -1      1640 1.48701E+02 3.31125E+01 0.00000E+00
 -1      1641 1.47402E+02 3.23750E+01 0.00000E+00
 -1      1642 1.48701E+02 3.75125E+01 0.00000E+00
 -1      1643 1.48701E+02 3.60375E+01 0.00000E+00
 -1      1644 1.47402E+02 3.53000E+01 0.00000E+00
 -1      1645 1.48701E+02 4.04625E+01 0.00000E+00
 -1      1646 1.48701E+02 3.89875E+01 0.00000E+00
 -1      1647 1.47402E+02 3.82500E+01 0.00000E+00
 -1      1648 1.48701E+02 4.34125E+01 0.00000E+00
 -1      1649 1.48701E+02 4.19375E+01 0.00000E+00
 -1      1650 1.47402E+02 4.12000E+01 0.00000E+00
 -1      1651 1.48263E+02 4.60692E+01 0.00000E+00
 -1      1652 1.48263E+02 4.45942E+01 0.00000E+00
 -1      1653 1.46964E+02 4.38568E+01 0.00000E+00
 -1      1654 1.46088E+02 4.62202E+01 0.00000E+00
 -1      1655 4.33979E+01 1.49537E+01 0.00000E+00
 -1      1656 4.34761E+01 1.56895E+01 0.00000E+00
 -1      1657 4.30223E+01 1.32817E+01 0.00000E+00
 -1      1658 4.32792E+01 1.40403E+01 0.00000E+00
 -1      1659 4.22000E+01 1.18830E+01 0.00000E+00
 -1      1660 4.25702E+01 1.24956E+01 0.00000E+00
 -1      1661 4.12107E+01 1.06896E+01 0.00000E+00
 -1      1662 4.16939E+01 1.12107E+01 0.00000E+00
 -1      1663 3.99800E+01 9.71009E+00 0.00000E+00
 -1      1664 4.05727E+01 1.01309E+01 0.00000E+00
 -1      1665 3.84872E+01 8.88785E+00 0.00000E+00
 -1      1666 3.92242E+01 9.19843E+00 0.00000E+00
 -1      1667 3.69032E+01 8.61787E+00 0.00000E+00
 -1      1668 3.75977E+01 8.74659E+00 0.00000E+00
 -1      1669 3.52294E+01 8.49796E+00 0.00000E+00
 -1      1670 3.60254E+01 8.47260E+00 0.00000E+00
 -1      1671 3.35459E+01 8.78658E+00 0.00000E+00
 -1      1672 3.42937E+01 8.59042E+00 0.00000E+00
 -1      1673 3.20250E+01 9.50382E+00 0.00000E+00
 -1      1674 3.27026E+01 9.15421E+00 0.00000E+00
 -1      1675 3.06149E+01 1.04435E+01 0.00000E+00
 -1      1676 3.12091E+01 9.94661E+00 0.00000E+00
 -1      1677 2.96571E+01 1.17915E+01 0.00000E+00
 -1      1678 3.01086E+01 1.12071E+01 0.00000E+00
 -1      1679 2.89066E+01 1.31354E+01 0.00000E+00
 -1      1680 2.92126E+01 1.25049E+01 0.00000E+00
 -1      1681 2.83545E+01 1.46608E+01 0.00000E+00
 -1      1682 2.85376E+01 1.39201E+01 0.00000E+00
 -1      1683 2.82932E+01 1.62418E+01 0.00000E+00
 -1      1684 2.83156E+01 1.55324E+01 0.00000E+00
 -1      1685 2.85062E+01 1.78864E+01 0.00000E+00
 -1      1686 2.83633E+01 1.71127E+01 0.00000E+00
 -1      1687 2.90362E+01 1.93977E+01 0.00000E+00
 -1      1688 2.87555E+01 1.87316E+01 0.00000E+00
 -1      1689 2.98069E+01 2.08052E+01 0.00000E+00
 -1      1690 2.93817E+01 2.01950E+01 0.00000E+00
 -1      1691 3.09473E+01 2.18871E+01 0.00000E+00
 -1      1692 3.04295E+01 2.14008E+01 0.00000E+00
 -1      1693 3.23159E+01 2.28121E+01 0.00000E+00
 -1      1694 3.16449E+01 2.24095E+01 0.00000E+00
 -1      1695 3.38285E+01 2.34212E+01 0.00000E+00
 -1      1696 3.31238E+01 2.31861E+01 0.00000E+00
 -1      1697 3.54270E+01 2.37297E+01 0.00000E+00
 -1      1698 3.46776E+01 2.36486E+01 0.00000E+00
 -1      1699 3.70801E+01 2.36026E+01 0.00000E+00
 -1      1700 3.63185E+01 2.36865E+01 0.00000E+00
 -1      1701 3.87932E+01 2.31981E+01 0.00000E+00
 -1      1702 3.80131E+01 2.34721E+01 0.00000E+00
 -1      1703 4.02685E+01 2.23438E+01 0.00000E+00
 -1      1704 3.96240E+01 2.27528E+01 0.00000E+00
 -1      1705 4.15709E+01 2.13021E+01 0.00000E+00
 -1      1706 4.10305E+01 2.18409E+01 0.00000E+00
 -1      1707 4.24889E+01 1.98940E+01 0.00000E+00
 -1      1708 4.20768E+01 2.05400E+01 0.00000E+00
 -1      1709 4.31697E+01 1.82839E+01 0.00000E+00
 -1      1710 4.28961E+01 1.90542E+01 0.00000E+00
 -1      1711 4.34710E+01 1.65874E+01 0.00000E+00
 -1      1712 4.33835E+01 1.73654E+01 0.00000E+00
 -1      1713 4.12895E+01 9.95074E+00 0.00000E+00
 -1      1714 4.24336E+01 1.11818E+01 0.00000E+00
 -1      1715 1.48362E+02 2.56875E+00 0.00000E+00
 -1      1716 1.47063E+02 3.30625E+00 0.00000E+00
 -1      1717 4.39627E+01 1.43397E+01 0.00000E+00
 -1      1718 4.33919E+01 1.26402E+01 0.00000E+00
 -1      1719 4.40764E+01 1.61510E+01 0.00000E+00
 -1      1720 3.98957E+01 8.88037E+00 0.00000E+00
 -1      1721 3.82504E+01 8.22745E+00 0.00000E+00
 -1      1722 3.64832E+01 7.94092E+00 0.00000E+00
 -1      1723 3.46698E+01 7.88812E+00 0.00000E+00
 -1      1724 3.28908E+01 8.34821E+00 0.00000E+00
 -1      1725 3.12315E+01 9.15863E+00 0.00000E+00
 -1      1726 2.99094E+01 1.03650E+01 0.00000E+00
 -1      1727 2.89587E+01 1.18420E+01 0.00000E+00
 -1      1728 2.81452E+01 1.33402E+01 0.00000E+00
 -1      1729 2.77374E+01 1.49964E+01 0.00000E+00
 -1      1730 2.77686E+01 1.67388E+01 0.00000E+00
 -1      1731 2.80879E+01 1.84548E+01 0.00000E+00
 -1      1732 2.86827E+01 2.00973E+01 0.00000E+00
 -1      1733 2.96508E+01 2.14902E+01 0.00000E+00
 -1      1734 3.09710E+01 2.26082E+01 0.00000E+00
 -1      1735 3.24764E+01 2.35047E+01 0.00000E+00
 -1      1736 3.41334E+01 2.41061E+01 0.00000E+00
 -1      1737 3.58741E+01 2.42903E+01 0.00000E+00
 -1      1738 3.76988E+01 2.41166E+01 0.00000E+00
 -1      1739 3.94627E+01 2.35408E+01 0.00000E+00
 -1      1740 4.10555E+01 2.25926E+01 0.00000E+00
 -1      1741 4.23234E+01 2.13277E+01 0.00000E+00
 -1      1742 4.32364E+01 1.97257E+01 0.00000E+00
 -1      1743 4.38575E+01 1.79674E+01 0.00000E+00
 -1      1744 2.87400E+00 4.77875E+01 0.00000E+00
 -1      1745 3.89700E+00 4.04125E+01 0.00000E+00
 -1      1746 3.89700E+00 4.18875E+01 0.00000E+00
 -1      1747 3.89700E+00 4.33625E+01 0.00000E+00
 -1      1748 3.89700E+00 4.48375E+01 0.00000E+00
 -1      1749 5.19600E+00 4.26250E+01 0.00000E+00
 -1      1750 3.89700E+00 3.45500E+01 0.00000E+00
 -1      1751 3.89700E+00 3.60000E+01 0.00000E+00
 -1      1752 3.89700E+00 3.16000E+01 0.00000E+00
 -1      1753 3.89700E+00 3.30750E+01 0.00000E+00
 -1      1754 5.19600E+00 3.38000E+01 0.00000E+00
 -1      1755 3.89700E+00 2.86500E+01 0.00000E+00
 -1      1756 3.89700E+00 3.01250E+01 0.00000E+00
 -1      1757 5.19600E+00 3.08500E+01 0.00000E+00
 -1      1758 3.89700E+00 2.57000E+01 0.00000E+00
 -1      1759 3.89700E+00 2.71750E+01 0.00000E+00
 -1      1760 5.19600E+00 2.79000E+01 0.00000E+00
 -1      1761 3.89700E+00 2.27500E+01 0.00000E+00
 -1      1762 3.89700E+00 2.42250E+01 0.00000E+00
 -1      1763 5.19600E+00 2.49500E+01 0.00000E+00
 -1      1764 3.89700E+00 1.98000E+01 0.00000E+00
 -1      1765 3.89700E+00 2.12750E+01 0.00000E+00
 -1      1766 5.19600E+00 2.20000E+01 0.00000E+00
 -1      1767 3.89700E+00 1.69000E+01 0.00000E+00
 -1      1768 3.89700E+00 1.83500E+01 0.00000E+00
 -1      1769 5.19600E+00 1.90750E+01 0.00000E+00
 -1      1770 3.89700E+00 1.39500E+01 0.00000E+00
 -1      1771 3.89700E+00 1.54250E+01 0.00000E+00
 -1      1772 5.19600E+00 1.61500E+01 0.00000E+00
 -1      1773 3.89700E+00 1.10000E+01 0.00000E+00
 -1      1774 3.89700E+00 1.24750E+01 0.00000E+00
 -1      1775 5.19600E+00 1.32000E+01 0.00000E+00
 -1      1776 3.89700E+00 8.05000E+00 0.00000E+00
 -1      1777 3.89700E+00 9.52500E+00 0.00000E+00
 -1      1778 5.19600E+00 1.02500E+01 0.00000E+00
 -1      1779 3.89700E+00 5.10000E+00 0.00000E+00
 -1      1780 3.89700E+00 6.57500E+00 0.00000E+00
 -1      1781 5.19600E+00 7.30000E+00 0.00000E+00
 -1      1782 4.20450E+00 3.09687E+00 0.00000E+00
 -1      1783 4.06650E+00 4.19063E+00 0.00000E+00
 -1      1784 5.36550E+00 4.91563E+00 0.00000E+00
 -1      1785 5.70450E+00 3.09687E+00 0.00000E+00
 -1      1786 3.62400E+00 4.64885E+01 0.00000E+00
 -1      1787 8.70450E+00 3.09687E+00 0.00000E+00
 -1      1788 7.20450E+00 3.09687E+00 0.00000E+00
 -1      1789 7.03500E+00 4.00625E+00 0.00000E+00
 -1      1790 4.92300E+00 4.57510E+01 0.00000E+00
 -1      1791 8.40000E+00 4.61030E+01 0.00000E+00
 -1      1792 9.90000E+00 4.61030E+01 0.00000E+00
 -1      1793 1.14000E+01 4.61030E+01 0.00000E+00
 -1      1794 1.29000E+01 4.61030E+01 0.00000E+00
 -1      1795 1.06500E+01 4.48040E+01 0.00000E+00
 -1      1796 1.44000E+01 4.61030E+01 0.00000E+00
 -1      1797 1.59000E+01 4.61030E+01 0.00000E+00
 -1      1798 1.36500E+01 4.48040E+01 0.00000E+00
 -1      1799 1.74000E+01 4.61030E+01 0.00000E+00
 -1      1800 1.89000E+01 4.61030E+01 0.00000E+00
 -1      1801 1.66500E+01 4.48040E+01 0.00000E+00
 -1      1802 2.04000E+01 4.61030E+01 0.00000E+00
 -1      1803 2.19000E+01 4.61030E+01 0.00000E+00
 -1      1804 1.96500E+01 4.48040E+01 0.00000E+00
 -1      1805 2.34000E+01 4.61030E+01 0.00000E+00
 -1      1806 2.49000E+01 4.61030E+01 0.00000E+00
 -1      1807 2.26500E+01 4.48040E+01 0.00000E+00
 -1      1808 2.64000E+01 4.61030E+01 0.00000E+00
 -1      1809 2.79000E+01 4.61030E+01 0.00000E+00
 -1      1810 2.56500E+01 4.48040E+01 0.00000E+00
 -1      1811 2.94000E+01 4.61030E+01 0.00000E+00
 -1      1812 3.09000E+01 4.61030E+01 0.00000E+00
 -1      1813 2.86500E+01 4.48040E+01 0.00000E+00
 -1      1814 3.24000E+01 4.61030E+01 0.00000E+00
 -1      1815 3.39000E+01 4.61030E+01 0.00000E+00
 -1      1816 3.16500E+01 4.48040E+01 0.00000E+00
 -1      1817 3.54000E+01 4.61030E+01 0.00000E+00
 -1      1818 3.69000E+01 4.61030E+01 0.00000E+00
 -1      1819 3.46500E+01 4.48040E+01 0.00000E+00
 -1      1820 3.84000E+01 4.61030E+01 0.00000E+00
 -1      1821 3.99000E+01 4.61030E+01 0.00000E+00
 -1      1822 3.76500E+01 4.48040E+01 0.00000E+00
 -1      1823 4.14000E+01 4.61030E+01 0.00000E+00
 -1      1824 4.29000E+01 4.61030E+01 0.00000E+00
 -1      1825 4.06500E+01 4.48040E+01 0.00000E+00
 -1      1826 4.44000E+01 4.61030E+01 0.00000E+00
 -1      1827 4.59000E+01 4.61030E+01 0.00000E+00
 -1      1828 4.36500E+01 4.48040E+01 0.00000E+00
 -1      1829 4.74000E+01 4.61030E+01 0.00000E+00
 -1      1830 4.89000E+01 4.61030E+01 0.00000E+00
 -1      1831 4.66500E+01 4.48040E+01 0.00000E+00
 -1      1832 5.04000E+01 4.61030E+01 0.00000E+00
 -1      1833 5.19000E+01 4.61030E+01 0.00000E+00
 -1      1834 4.96500E+01 4.48040E+01 0.00000E+00
 -1      1835 5.34000E+01 4.61030E+01 0.00000E+00
 -1      1836 5.49000E+01 4.61030E+01 0.00000E+00
 -1      1837 5.26500E+01 4.48040E+01 0.00000E+00
 -1      1838 5.64000E+01 4.61030E+01 0.00000E+00
 -1      1839 5.79000E+01 4.61030E+01 0.00000E+00
 -1      1840 5.56500E+01 4.48040E+01 0.00000E+00
 -1      1841 5.94000E+01 4.61030E+01 0.00000E+00
 -1      1842 6.09000E+01 4.61030E+01 0.00000E+00
 -1      1843 5.86500E+01 4.48040E+01 0.00000E+00
 -1      1844 6.24000E+01 4.61030E+01 0.00000E+00
 -1      1845 6.39000E+01 4.61030E+01 0.00000E+00
 -1      1846 6.16500E+01 4.48040E+01 0.00000E+00
 -1      1847 6.54000E+01 4.61030E+01 0.00000E+00
 -1      1848 6.69000E+01 4.61030E+01 0.00000E+00
 -1      1849 6.46500E+01 4.48040E+01 0.00000E+00
 -1      1850 6.84000E+01 4.61030E+01 0.00000E+00
 -1      1851 6.99000E+01 4.61030E+01 0.00000E+00
 -1      1852 6.76500E+01 4.48040E+01 0.00000E+00
 -1      1853 7.14000E+01 4.61030E+01 0.00000E+00
 -1      1854 7.29000E+01 4.61030E+01 0.00000E+00
 -1      1855 7.06500E+01 4.48040E+01 0.00000E+00
 -1      1856 7.44000E+01 4.61030E+01 0.00000E+00
 -1      1857 7.59000E+01 4.61030E+01 0.00000E+00
 -1      1858 7.36500E+01 4.48040E+01 0.00000E+00
 -1      1859 7.74000E+01 4.61030E+01 0.00000E+00
 -1      1860 7.89000E+01 4.61030E+01 0.00000E+00
 -1      1861 7.66500E+01 4.48040E+01 0.00000E+00
 -1      1862 8.04000E+01 4.61030E+01 0.00000E+00
 -1      1863 8.19000E+01 4.61030E+01 0.00000E+00
 -1      1864 7.96500E+01 4.48040E+01 0.00000E+00
 -1      1865 8.34000E+01 4.61030E+01 0.00000E+00
 -1      1866 8.49000E+01 4.61030E+01 0.00000E+00
 -1      1867 8.26500E+01 4.48040E+01 0.00000E+00
 -1      1868 8.64000E+01 4.61030E+01 0.00000E+00
 -1      1869 8.79000E+01 4.61030E+01 0.00000E+00
 -1      1870 8.56500E+01 4.48040E+01 0.00000E+00
 -1      1871 8.94000E+01 4.61030E+01 0.00000E+00
 -1      1872 9.09000E+01 4.61030E+01 0.00000E+00
 -1      1873 8.86500E+01 4.48040E+01 0.00000E+00
 -1      1874 9.24000E+01 4.61030E+01 0.00000E+00
 -1      1875 9.39000E+01 4.61030E+01 0.00000E+00
 -1      1876 9.16500E+01 4.48040E+01 0.00000E+00
 -1      1877 9.54000E+01 4.61030E+01 0.00000E+00
 -1      1878 9.69000E+01 4.61030E+01 0.00000E+00
 -1      1879 9.46500E+01 4.48040E+01 0.00000E+00
 -1      1880 9.84000E+01 4.61030E+01 0.00000E+00
 -1      1881 9.99000E+01 4.61030E+01 0.00000E+00
 -1      1882 9.76500E+01 4.48040E+01 0.00000E+00
 -1      1883 1.01400E+02 4.61030E+01 0.00000E+00
 -1      1884 1.02900E+02 4.61030E+01 0.00000E+00
 -1      1885 1.00650E+02 4.48040E+01 0.00000E+00
 -1      1886 1.04400E+02 4.61030E+01 0.00000E+00
 -1      1887 1.05900E+02 4.61030E+01 0.00000E+00
 -1      1888 1.03650E+02 4.48040E+01 0.00000E+00
 -1      1889 1.07400E+02 4.61030E+01 0.00000E+00
 -1      1890 1.08900E+02 4.61030E+01 0.00000E+00
 -1      1891 1.06650E+02 4.48040E+01 0.00000E+00
 -1      1892 1.10400E+02 4.61030E+01 0.00000E+00
 -1      1893 1.11900E+02 4.61030E+01 0.00000E+00
 -1      1894 1.09650E+02 4.48040E+01 0.00000E+00
 -1      1895 1.13400E+02 4.61030E+01 0.00000E+00
 -1      1896 1.14900E+02 4.61030E+01 0.00000E+00
 -1      1897 1.12650E+02 4.48040E+01 0.00000E+00
 -1      1898 1.16400E+02 4.61030E+01 0.00000E+00
 -1      1899 1.17900E+02 4.61030E+01 0.00000E+00
 -1      1900 1.15650E+02 4.48040E+01 0.00000E+00
 -1      1901 1.19400E+02 4.61030E+01 0.00000E+00
 -1      1902 1.20900E+02 4.61030E+01 0.00000E+00
 -1      1903 1.18650E+02 4.48040E+01 0.00000E+00
 -1      1904 1.22400E+02 4.61030E+01 0.00000E+00
 -1      1905 1.23900E+02 4.61030E+01 0.00000E+00
 -1      1906 1.21650E+02 4.48040E+01 0.00000E+00
 -1      1907 1.25400E+02 4.61030E+01 0.00000E+00
 -1      1908 1.26900E+02 4.61030E+01 0.00000E+00
 -1      1909 1.24650E+02 4.48040E+01 0.00000E+00
 -1      1910 1.28400E+02 4.61030E+01 0.00000E+00
 -1      1911 1.29900E+02 4.61030E+01 0.00000E+00
 -1      1912 1.27650E+02 4.48040E+01 0.00000E+00
 -1      1913 1.31400E+02 4.61030E+01 0.00000E+00
 -1      1914 1.32900E+02 4.61030E+01 0.00000E+00
 -1      1915 1.30650E+02 4.48040E+01 0.00000E+00
 -1      1916 1.34400E+02 4.61030E+01 0.00000E+00
 -1      1917 1.35900E+02 4.61030E+01 0.00000E+00
 -1      1918 1.33650E+02 4.48040E+01 0.00000E+00
 -1      1919 1.37400E+02 4.61030E+01 0.00000E+00
 -1      1920 1.38900E+02 4.61030E+01 0.00000E+00
 -1      1921 1.36650E+02 4.48040E+01 0.00000E+00
 -1      1922 1.40400E+02 4.61030E+01 0.00000E+00
 -1      1923 1.41900E+02 4.61030E+01 0.00000E+00
 -1      1924 1.39650E+02 4.48040E+01 0.00000E+00
 -1      1925 1.43244E+02 4.61616E+01 0.00000E+00
 -1      1926 1.44744E+02 4.61616E+01 0.00000E+00
 -1      1927 1.45182E+02 4.49799E+01 0.00000E+00
 -1      1928 1.42494E+02 4.48626E+01 0.00000E+00
 -1      1929 1.17045E+01 3.09687E+00 0.00000E+00
 -1      1930 1.02045E+01 3.09687E+00 0.00000E+00
 -1      1931 1.00350E+01 4.00625E+00 0.00000E+00
 -1      1932 1.47045E+01 3.09687E+00 0.00000E+00
 -1      1933 1.32045E+01 3.09687E+00 0.00000E+00
 -1      1934 1.30350E+01 4.00625E+00 0.00000E+00
 -1      1935 1.77045E+01 3.09687E+00 0.00000E+00
 -1      1936 1.62045E+01 3.09687E+00 0.00000E+00
 -1      1937 1.60350E+01 4.00625E+00 0.00000E+00
 -1      1938 2.08545E+01 3.09687E+00 0.00000E+00
 -1      1939 1.92795E+01 3.09687E+00 0.00000E+00
 -1      1940 1.91100E+01 4.00625E+00 0.00000E+00
 -1      1941 2.38545E+01 3.09687E+00 0.00000E+00
 -1      1942 2.23545E+01 3.09687E+00 0.00000E+00
 -1      1943 2.21850E+01 4.00625E+00 0.00000E+00
 -1      1944 2.68545E+01 3.09687E+00 0.00000E+00
 -1      1945 2.53545E+01 3.09687E+00 0.00000E+00
 -1      1946 2.51850E+01 4.00625E+00 0.00000E+00
 -1      1947 2.98545E+01 3.09687E+00 0.00000E+00
 -1      1948 2.83545E+01 3.09687E+00 0.00000E+00
 -1      1949 2.81850E+01 4.00625E+00 0.00000E+00
 -1      1950 3.28545E+01 3.09687E+00 0.00000E+00
 -1      1951 3.13545E+01 3.09687E+00 0.00000E+00
 -1      1952 3.11850E+01 4.00625E+00 0.00000E+00
 -1      1953 3.58545E+01 3.09687E+00 0.00000E+00
 -1      1954 3.43545E+01 3.09687E+00 0.00000E+00
 -1      1955 3.41850E+01 4.00625E+00 0.00000E+00
 -1      1956 3.84045E+01 3.09687E+00 0.00000E+00
 -1      1957 3.71295E+01 3.09687E+00 0.00000E+00
 -1      1958 3.69600E+01 4.00625E+00 0.00000E+00
 -1      1959 4.08045E+01 3.09687E+00 0.00000E+00
 -1      1960 3.96045E+01 3.09687E+00 0.00000E+00
 -1      1961 3.94350E+01 4.00625E+00 0.00000E+00
 -1      1962 4.38045E+01 3.09687E+00 0.00000E+00
 -1      1963 4.23045E+01 3.09687E+00 0.00000E+00
 -1      1964 4.21350E+01 4.00625E+00 0.00000E+00
 -1      1965 4.68045E+01 3.09687E+00 0.00000E+00
 -1      1966 4.53045E+01 3.09687E+00 0.00000E+00
 -1      1967 4.51350E+01 4.00625E+00 0.00000E+00
 -1      1968 4.98045E+01 3.09687E+00 0.00000E+00
 -1      1969 4.83045E+01 3.09687E+00 0.00000E+00
 -1      1970 4.81350E+01 4.00625E+00 0.00000E+00
 -1      1971 5.28045E+01 3.09687E+00 0.00000E+00
 -1      1972 5.13045E+01 3.09687E+00 0.00000E+00
 -1      1973 5.11350E+01 4.00625E+00 0.00000E+00
 -1      1974 5.58045E+01 3.09687E+00 0.00000E+00
 -1      1975 5.43045E+01 3.09687E+00 0.00000E+00
 -1      1976 5.41350E+01 4.00625E+00 0.00000E+00
 -1      1977 5.89545E+01 3.09687E+00 0.00000E+00
 -1      1978 5.73795E+01 3.09687E+00 0.00000E+00
 -1      1979 5.72100E+01 4.00625E+00 0.00000E+00
 -1      1980 6.19545E+01 3.09687E+00 0.00000E+00
 -1      1981 6.04545E+01 3.09687E+00 0.00000E+00
 -1      1982 6.02850E+01 4.00625E+00 0.00000E+00
 -1      1983 6.49545E+01 3.09687E+00 0.00000E+00
 -1      1984 6.34545E+01 3.09687E+00 0.00000E+00
 -1      1985 6.32850E+01 4.00625E+00 0.00000E+00
 -1      1986 6.79545E+01 3.09687E+00 0.00000E+00
 -1      1987 6.64545E+01 3.09687E+00 0.00000E+00
 -1      1988 6.62850E+01 4.00625E+00 0.00000E+00
 -1      1989 7.09545E+01 3.09687E+00 0.00000E+00
 -1      1990 6.94545E+01 3.09687E+00 0.00000E+00
 -1      1991 6.92850E+01 4.00625E+00 0.00000E+00
 -1      1992 7.39545E+01 3.09687E+00 0.00000E+00
 -1      1993 7.24545E+01 3.09687E+00 0.00000E+00
 -1      1994 7.22850E+01 4.00625E+00 0.00000E+00
 -1      1995 7.71045E+01 3.09687E+00 0.00000E+00
 -1      1996 7.55295E+01 3.09687E+00 0.00000E+00
 -1      1997 7.53600E+01 4.00625E+00 0.00000E+00
 -1      1998 8.01045E+01 3.09687E+00 0.00000E+00
 -1      1999 7.86045E+01 3.09687E+00 0.00000E+00
 -1      2000 7.84350E+01 4.00625E+00 0.00000E+00
 -1      2001 8.31045E+01 3.09687E+00 0.00000E+00
 -1      2002 8.16045E+01 3.09687E+00 0.00000E+00
 -1      2003 8.14350E+01 4.00625E+00 0.00000E+00
 -1      2004 8.61045E+01 3.09687E+00 0.00000E+00
 -1      2005 8.46045E+01 3.09687E+00 0.00000E+00
 -1      2006 8.44350E+01 4.00625E+00 0.00000E+00
 -1      2007 8.91045E+01 3.09687E+00 0.00000E+00
 -1      2008 8.76045E+01 3.09687E+00 0.00000E+00
 -1      2009 8.74350E+01 4.00625E+00 0.00000E+00
 -1      2010 9.21045E+01 3.09687E+00 0.00000E+00
 -1      2011 9.06045E+01 3.09687E+00 0.00000E+00
 -1      2012 9.04350E+01 4.00625E+00 0.00000E+00
 -1      2013 9.52545E+01 3.09687E+00 0.00000E+00
 -1      2014 9.36795E+01 3.09687E+00 0.00000E+00
 -1      2015 9.35100E+01 4.00625E+00 0.00000E+00
 -1      2016 9.82545E+01 3.09687E+00 0.00000E+00
 -1      2017 9.67545E+01 3.09687E+00 0.00000E+00
 -1      2018 9.65850E+01 4.00625E+00 0.00000E+00
 -1      2019 1.01255E+02 3.09687E+00 0.00000E+00
 -1      2020 9.97545E+01 3.09687E+00 0.00000E+00
 -1      2021 9.95850E+01 4.00625E+00 0.00000E+00
 -1      2022 1.04255E+02 3.09687E+00 0.00000E+00
 -1      2023 1.02755E+02 3.09687E+00 0.00000E+00
 -1      2024 1.02585E+02 4.00625E+00 0.00000E+00
 -1      2025 1.07255E+02 3.09687E+00 0.00000E+00
 -1      2026 1.05755E+02 3.09687E+00 0.00000E+00
 -1      2027 1.05585E+02 4.00625E+00 0.00000E+00
 -1      2028 1.10255E+02 3.09687E+00 0.00000E+00
 -1      2029 1.08755E+02 3.09687E+00 0.00000E+00
 -1      2030 1.08585E+02 4.00625E+00 0.00000E+00
 -1      2031 1.13405E+02 3.09687E+00 0.00000E+00
 -1      2032 1.11829E+02 3.09687E+00 0.00000E+00
 -1      2033 1.11660E+02 4.00625E+00 0.00000E+00
 -1      2034 1.16405E+02 3.09687E+00 0.00000E+00
 -1      2035 1.14905E+02 3.09687E+00 0.00000E+00
 -1      2036 1.14735E+02 4.00625E+00 0.00000E+00
 -1      2037 1.19405E+02 3.09687E+00 0.00000E+00
 -1      2038 1.17905E+02 3.09687E+00 0.00000E+00
 -1      2039 1.17735E+02 4.00625E+00 0.00000E+00
 -1      2040 1.22405E+02 3.09687E+00 0.00000E+00
 -1      2041 1.20905E+02 3.09687E+00 0.00000E+00
 -1      2042 1.20735E+02 4.00625E+00 0.00000E+00
 -1      2043 1.25405E+02 3.09687E+00 0.00000E+00
 -1      2044 1.23905E+02 3.09687E+00 0.00000E+00
 -1      2045 1.23735E+02 4.00625E+00 0.00000E+00
 -1      2046 1.28404E+02 3.09687E+00 0.00000E+00
 -1      2047 1.26905E+02 3.09687E+00 0.00000E+00
 -1      2048 1.26735E+02 4.00625E+00 0.00000E+00
 -1      2049 1.31555E+02 3.09687E+00 0.00000E+00
 -1      2050 1.29980E+02 3.09687E+00 0.00000E+00
 -1      2051 1.29810E+02 4.00625E+00 0.00000E+00
 -1      2052 1.34555E+02 3.09687E+00 0.00000E+00
 -1      2053 1.33055E+02 3.09687E+00 0.00000E+00
 -1      2054 1.32885E+02 4.00625E+00 0.00000E+00
 -1      2055 1.37555E+02 3.09687E+00 0.00000E+00
 -1      2056 1.36055E+02 3.09687E+00 0.00000E+00
 -1      2057 1.35885E+02 4.00625E+00 0.00000E+00
 -1      2058 1.40555E+02 3.09687E+00 0.00000E+00
 -1      2059 1.39055E+02 3.09687E+00 0.00000E+00
 -1      2060 1.38885E+02 4.00625E+00 0.00000E+00
 -1      2061 1.43555E+02 3.09687E+00 0.00000E+00
 -1      2062 1.42055E+02 3.09687E+00 0.00000E+00
 -1      2063 1.41885E+02 4.00625E+00 0.00000E+00
 -1      2064 1.46059E+02 3.20156E+00 0.00000E+00
 -1      2065 1.44559E+02 3.20156E+00 0.00000E+00
 -1      2066 1.44389E+02 4.11094E+00 0.00000E+00
 -1      2067 1.46398E+02 4.32031E+00 0.00000E+00
 -1      2068 1.46103E+02 1.25375E+01 0.00000E+00
 -1      2069 1.46103E+02 1.10625E+01 0.00000E+00
 -1      2070 1.46103E+02 9.58750E+00 0.00000E+00
 -1      2071 1.46103E+02 8.11250E+00 0.00000E+00
 -1      2072 1.44804E+02 1.03250E+01 0.00000E+00
 -1      2073 1.46250E+02 6.95391E+00 0.00000E+00
 -1      2074 1.46250E+02 5.47891E+00 0.00000E+00
 -1      2075 1.45246E+02 5.37422E+00 0.00000E+00
 -1      2076 1.44951E+02 7.69141E+00 0.00000E+00
 -1      2077 1.46103E+02 1.54375E+01 0.00000E+00
 -1      2078 1.46103E+02 1.39875E+01 0.00000E+00
 -1      2079 1.44804E+02 1.32500E+01 0.00000E+00
 -1      2080 1.46103E+02 1.83875E+01 0.00000E+00
 -1      2081 1.46103E+02 1.69125E+01 0.00000E+00
 -1      2082 1.44804E+02 1.61750E+01 0.00000E+00
 -1      2083 1.46103E+02 2.13375E+01 0.00000E+00
 -1      2084 1.46103E+02 1.98625E+01 0.00000E+00
 -1      2085 1.44804E+02 1.91250E+01 0.00000E+00
 -1      2086 1.46103E+02 2.42875E+01 0.00000E+00
 -1      2087 1.46103E+02 2.28125E+01 0.00000E+00
 -1      2088 1.44804E+02 2.20750E+01 0.00000E+00
 -1      2089 1.46103E+02 2.72375E+01 0.00000E+00
 -1      2090 1.46103E+02 2.57625E+01 0.00000E+00
 -1      2091 1.44804E+02 2.50250E+01 0.00000E+00
 -1      2092 1.46103E+02 3.01875E+01 0.00000E+00
 -1      2093 1.46103E+02 2.87125E+01 0.00000E+00
 -1      2094 1.44804E+02 2.79750E+01 0.00000E+00
 -1      2095 1.46103E+02 3.30875E+01 0.00000E+00
 -1      2096 1.46103E+02 3.16375E+01 0.00000E+00
 -1      2097 1.44804E+02 3.09000E+01 0.00000E+00
 -1      2098 1.46103E+02 3.60375E+01 0.00000E+00
 -1      2099 1.46103E+02 3.45625E+01 0.00000E+00
 -1      2100 1.44804E+02 3.38250E+01 0.00000E+00
 -1      2101 1.46103E+02 3.89875E+01 0.00000E+00
 -1      2102 1.46103E+02 3.75125E+01 0.00000E+00
 -1      2103 1.44804E+02 3.67750E+01 0.00000E+00
 -1      2104 1.46103E+02 4.19375E+01 0.00000E+00
 -1      2105 1.46103E+02 4.04625E+01 0.00000E+00
 -1      2106 1.44804E+02 3.97250E+01 0.00000E+00
 -1      2107 4.38003E+01 1.18823E+01 0.00000E+00
 -1      2108 4.42524E+01 1.26684E+01 0.00000E+00
 -1      2109 4.48108E+01 1.57062E+01 0.00000E+00
 -1      2110 4.48057E+01 1.66041E+01 0.00000E+00
 -1      2111 4.47537E+01 1.37724E+01 0.00000E+00
 -1      2112 4.48725E+01 1.46858E+01 0.00000E+00
 -1      2113 4.27318E+01 1.04306E+01 0.00000E+00
 -1      2114 4.32380E+01 1.11030E+01 0.00000E+00
 -1      2115 4.14803E+01 9.08927E+00 0.00000E+00
 -1      2116 4.21182E+01 9.64798E+00 0.00000E+00
 -1      2117 3.89700E+00 3.74688E+01 0.00000E+00
 -1      2118 3.89700E+00 3.89437E+01 0.00000E+00
 -1      2119 5.19600E+00 3.96813E+01 0.00000E+00
 -1      2120 5.19600E+00 3.67438E+01 0.00000E+00
 -1      2121 3.79336E+01 7.35125E+00 0.00000E+00
 -1      2122 3.88231E+01 7.49251E+00 0.00000E+00
 -1      2123 3.61781E+01 7.06071E+00 0.00000E+00
 -1      2124 3.70558E+01 7.20598E+00 0.00000E+00
 -1      2125 3.76285E+01 6.47104E+00 0.00000E+00
 -1      2126 3.41259E+01 7.16434E+00 0.00000E+00
 -1      2127 3.50615E+01 7.07187E+00 0.00000E+00
 -1      2128 3.21599E+01 7.82272E+00 0.00000E+00
 -1      2129 3.30033E+01 7.45509E+00 0.00000E+00
 -1      2130 3.05282E+01 8.70830E+00 0.00000E+00
 -1      2131 3.13440E+01 8.26551E+00 0.00000E+00
 -1      2132 3.14565E+01 7.37238E+00 0.00000E+00
 -1      2133 2.90812E+01 1.03656E+01 0.00000E+00
 -1      2134 2.95875E+01 9.60195E+00 0.00000E+00
 -1      2135 2.81509E+01 1.18339E+01 0.00000E+00
 -1      2136 2.85953E+01 1.11205E+01 0.00000E+00
 -1      2137 2.73363E+01 1.34389E+01 0.00000E+00
 -1      2138 2.77054E+01 1.26542E+01 0.00000E+00
 -1      2139 2.70287E+01 1.54015E+01 0.00000E+00
 -1      2140 2.70675E+01 1.45299E+01 0.00000E+00
 -1      2141 2.70324E+01 1.72363E+01 0.00000E+00
 -1      2142 2.69623E+01 1.63654E+01 0.00000E+00
 -1      2143 2.75508E+01 1.90726E+01 0.00000E+00
 -1      2144 2.73015E+01 1.82274E+01 0.00000E+00
 -1      2145 2.82224E+01 2.07703E+01 0.00000E+00
 -1      2146 2.78769E+01 1.99730E+01 0.00000E+00
 -1      2147 2.93983E+01 2.23774E+01 0.00000E+00
 -1      2148 2.87757E+01 2.17818E+01 0.00000E+00
 -1      2149 3.07934E+01 2.34222E+01 0.00000E+00
 -1      2150 3.00959E+01 2.28998E+01 0.00000E+00
 -1      2151 2.92207E+01 2.31914E+01 0.00000E+00
 -1      2152 3.25377E+01 2.44319E+01 0.00000E+00
 -1      2153 3.17298E+01 2.40578E+01 0.00000E+00
 -1      2154 3.43687E+01 2.49268E+01 0.00000E+00
 -1      2155 3.35195E+01 2.46994E+01 0.00000E+00
 -1      2156 3.63594E+01 2.50834E+01 0.00000E+00
 -1      2157 3.54678E+01 2.51266E+01 0.00000E+00
 -1      2158 3.82255E+01 2.48224E+01 0.00000E+00
 -1      2159 3.72924E+01 2.49529E+01 0.00000E+00
 -1      2160 3.68861E+01 2.57892E+01 0.00000E+00
 -1      2161 4.02436E+01 2.40002E+01 0.00000E+00
 -1      2162 3.94128E+01 2.44454E+01 0.00000E+00
 -1      2163 4.18858E+01 2.30220E+01 0.00000E+00
 -1      2164 4.11238E+01 2.35249E+01 0.00000E+00
 -1      2165 4.31512E+01 2.13282E+01 0.00000E+00
 -1      2166 4.26453E+01 2.20903E+01 0.00000E+00
 -1      2167 4.40232E+01 1.95886E+01 0.00000E+00
 -1      2168 4.36160E+01 2.04284E+01 0.00000E+00
 -1      2169 4.45956E+01 1.76551E+01 0.00000E+00
 -1      2170 4.43818E+01 1.85736E+01 0.00000E+00
 -1      2171 3.99046E+01 8.05317E+00 0.00000E+00
 -1      2172 4.06604E+01 8.56483E+00 0.00000E+00
 -1      2173 4.29226E+01 9.56916E+00 0.00000E+00
 -1      2174 6.42300E+00 4.57510E+01 0.00000E+00
 -1      2175 4.14892E+01 8.26208E+00 0.00000E+00
 -1      2176 3.95878E+01 7.17697E+00 0.00000E+00
 -1      2177 7.17300E+00 4.44520E+01 0.00000E+00
 -1      2178 4.51621E+01 1.30145E+01 0.00000E+00
 -1      2179 4.56018E+01 1.51389E+01 0.00000E+00
 -1      2180 1.45665E+02 4.31193E+01 0.00000E+00
 -1      2181 4.40984E+01 1.11311E+01 0.00000E+00
 -1      2182 4.53300E+01 1.72103E+01 0.00000E+00
 -1      2183 4.47613E+01 1.92762E+01 0.00000E+00
 -1      2184 4.39379E+01 2.11910E+01 0.00000E+00
 -1      2185 4.27136E+01 2.30225E+01 0.00000E+00
 -1      2186 3.90064E+01 2.52817E+01 0.00000E+00
 -1      2187 3.48539E+01 2.57199E+01 0.00000E+00
 -1      2188 3.08546E+01 2.43494E+01 0.00000E+00
 -1      2189 2.79698E+01 2.16575E+01 0.00000E+00
 -1      2190 2.70904E+01 1.97456E+01 0.00000E+00
 -1      2191 2.64952E+01 1.78541E+01 0.00000E+00
 -1      2192 2.62924E+01 1.58990E+01 0.00000E+00
 -1      2193 2.66276E+01 1.38440E+01 0.00000E+00
 -1      2194 2.73420E+01 1.19326E+01 0.00000E+00
 -1      2195 2.97000E+01 8.70883E+00 0.00000E+00
 -1      2196 2.98124E+01 7.81571E+00 0.00000E+00
 -1      2197 2.88718E+01 8.70937E+00 0.00000E+00
 -1      2198 3.56342E+01 6.33694E+00 0.00000E+00
 -1      2199 3.33950E+01 6.63885E+00 0.00000E+00
 -1      2200 2.82734E+01 1.03574E+01 0.00000E+00
 -1      2201 3.27729E+01 2.52525E+01 0.00000E+00
 -1      2202 4.10739E+01 2.44295E+01 0.00000E+00
 -1      2203 1.07850E+01 5.30525E+00 0.00000E+00
 -1      2204 9.28500E+00 5.30525E+00 0.00000E+00
 -1      2205 6.49500E+00 3.01125E+01 0.00000E+00
 -1      2206 6.49500E+00 3.15875E+01 0.00000E+00
 -1      2207 6.49500E+00 3.30625E+01 0.00000E+00
 -1      2208 6.49500E+00 3.45375E+01 0.00000E+00
 -1      2209 7.79400E+00 3.23250E+01 0.00000E+00
 -1      2210 6.49500E+00 2.42125E+01 0.00000E+00
 -1      2211 6.49500E+00 2.56875E+01 0.00000E+00
 -1      2212 6.49500E+00 2.12625E+01 0.00000E+00
 -1      2213 6.49500E+00 2.27375E+01 0.00000E+00
 -1      2214 7.79400E+00 2.34750E+01 0.00000E+00
 -1      2215 6.49500E+00 1.83625E+01 0.00000E+00
 -1      2216 6.49500E+00 1.98125E+01 0.00000E+00
 -1      2217 7.79400E+00 2.05500E+01 0.00000E+00
 -1      2218 6.49500E+00 1.54125E+01 0.00000E+00
 -1      2219 6.49500E+00 1.68875E+01 0.00000E+00
 -1      2220 7.79400E+00 1.76250E+01 0.00000E+00
 -1      2221 6.49500E+00 1.24625E+01 0.00000E+00
 -1      2222 6.49500E+00 1.39375E+01 0.00000E+00
 -1      2223 7.79400E+00 1.46750E+01 0.00000E+00
 -1      2224 6.49500E+00 9.51250E+00 0.00000E+00
 -1      2225 6.49500E+00 1.09875E+01 0.00000E+00
 -1      2226 7.79400E+00 1.17250E+01 0.00000E+00
 -1      2227 1.37850E+01 5.30525E+00 0.00000E+00
 -1      2228 1.22850E+01 5.30525E+00 0.00000E+00
 -1      2229 1.15350E+01 6.60425E+00 0.00000E+00
 -1      2230 9.90000E+00 4.35050E+01 0.00000E+00
 -1      2231 1.14000E+01 4.35050E+01 0.00000E+00
 -1      2232 4.15413E+01 7.27745E+00 0.00000E+00
 -1      2233 4.23612E+01 7.80190E+00 0.00000E+00
 -1      2234 1.29000E+01 4.35050E+01 0.00000E+00
 -1      2235 1.44000E+01 4.35050E+01 0.00000E+00
 -1      2236 1.21500E+01 4.22060E+01 0.00000E+00
 -1      2237 1.59000E+01 4.35050E+01 0.00000E+00
 -1      2238 1.74000E+01 4.35050E+01 0.00000E+00
 -1      2239 1.51500E+01 4.22060E+01 0.00000E+00
 -1      2240 1.89000E+01 4.35050E+01 0.00000E+00
 -1      2241 2.04000E+01 4.35050E+01 0.00000E+00
 -1      2242 1.81500E+01 4.22060E+01 0.00000E+00
 -1      2243 2.19000E+01 4.35050E+01 0.00000E+00
 -1      2244 2.34000E+01 4.35050E+01 0.00000E+00
 -1      2245 2.11500E+01 4.22060E+01 0.00000E+00
 -1      2246 2.49000E+01 4.35050E+01 0.00000E+00
 -1      2247 2.64000E+01 4.35050E+01 0.00000E+00
 -1      2248 2.41500E+01 4.22060E+01 0.00000E+00
 -1      2249 2.79000E+01 4.35050E+01 0.00000E+00
 -1      2250 2.94000E+01 4.35050E+01 0.00000E+00
 -1      2251 2.71500E+01 4.22060E+01 0.00000E+00
 -1      2252 3.09000E+01 4.35050E+01 0.00000E+00
 -1      2253 3.24000E+01 4.35050E+01 0.00000E+00
 -1      2254 3.01500E+01 4.22060E+01 0.00000E+00
 -1      2255 3.39000E+01 4.35050E+01 0.00000E+00
 -1      2256 3.54000E+01 4.35050E+01 0.00000E+00
 -1      2257 3.31500E+01 4.22060E+01 0.00000E+00
 -1      2258 3.69000E+01 4.35050E+01 0.00000E+00
 -1      2259 3.84000E+01 4.35050E+01 0.00000E+00
 -1      2260 3.61500E+01 4.22060E+01 0.00000E+00
 -1      2261 3.99000E+01 4.35050E+01 0.00000E+00
 -1      2262 4.14000E+01 4.35050E+01 0.00000E+00
 -1      2263 3.91500E+01 4.22060E+01 0.00000E+00
 -1      2264 4.29000E+01 4.35050E+01 0.00000E+00
 -1      2265 4.44000E+01 4.35050E+01 0.00000E+00
 -1      2266 4.21500E+01 4.22060E+01 0.00000E+00
 -1      2267 4.59000E+01 4.35050E+01 0.00000E+00
 -1      2268 4.74000E+01 4.35050E+01 0.00000E+00
 -1      2269 4.51500E+01 4.22060E+01 0.00000E+00
 -1      2270 4.89000E+01 4.35050E+01 0.00000E+00
 -1      2271 5.04000E+01 4.35050E+01 0.00000E+00
 -1      2272 4.81500E+01 4.22060E+01 0.00000E+00
 -1      2273 5.19000E+01 4.35050E+01 0.00000E+00
 -1      2274 5.34000E+01 4.35050E+01 0.00000E+00
 -1      2275 5.11500E+01 4.22060E+01 0.00000E+00
 -1      2276 5.49000E+01 4.35050E+01 0.00000E+00
 -1      2277 5.64000E+01 4.35050E+01 0.00000E+00
 -1      2278 5.41500E+01 4.22060E+01 0.00000E+00
 -1      2279 5.79000E+01 4.35050E+01 0.00000E+00
 -1      2280 5.94000E+01 4.35050E+01 0.00000E+00
 -1      2281 5.71500E+01 4.22060E+01 0.00000E+00
 -1      2282 6.09000E+01 4.35050E+01 0.00000E+00
 -1      2283 6.24000E+01 4.35050E+01 0.00000E+00
 -1      2284 6.01500E+01 4.22060E+01 0.00000E+00
 -1      2285 6.39000E+01 4.35050E+01 0.00000E+00
 -1      2286 6.54000E+01 4.35050E+01 0.00000E+00
 -1      2287 6.31500E+01 4.22060E+01 0.00000E+00
 -1      2288 6.69000E+01 4.35050E+01 0.00000E+00
 -1      2289 6.84000E+01 4.35050E+01 0.00000E+00
 -1      2290 6.61500E+01 4.22060E+01 0.00000E+00
 -1      2291 6.99000E+01 4.35050E+01 0.00000E+00
 -1      2292 7.14000E+01 4.35050E+01 0.00000E+00
 -1      2293 6.91500E+01 4.22060E+01 0.00000E+00
 -1      2294 7.29000E+01 4.35050E+01 0.00000E+00
 -1      2295 7.44000E+01 4.35050E+01 0.00000E+00
 -1      2296 7.21500E+01 4.22060E+01 0.00000E+00
 -1      2297 7.59000E+01 4.35050E+01 0.00000E+00
 -1      2298 7.74000E+01 4.35050E+01 0.00000E+00
 -1      2299 7.51500E+01 4.22060E+01 0.00000E+00
 -1      2300 7.89000E+01 4.35050E+01 0.00000E+00
 -1      2301 8.04000E+01 4.35050E+01 0.00000E+00
 -1      2302 7.81500E+01 4.22060E+01 0.00000E+00
 -1      2303 8.19000E+01 4.35050E+01 0.00000E+00
 -1      2304 8.34000E+01 4.35050E+01 0.00000E+00
 -1      2305 8.11500E+01 4.22060E+01 0.00000E+00
 -1      2306 8.49000E+01 4.35050E+01 0.00000E+00
 -1      2307 8.64000E+01 4.35050E+01 0.00000E+00
 -1      2308 8.41500E+01 4.22060E+01 0.00000E+00
 -1      2309 8.79000E+01 4.35050E+01 0.00000E+00
 -1      2310 8.94000E+01 4.35050E+01 0.00000E+00
 -1      2311 8.71500E+01 4.22060E+01 0.00000E+00
 -1      2312 9.09000E+01 4.35050E+01 0.00000E+00
 -1      2313 9.24000E+01 4.35050E+01 0.00000E+00
 -1      2314 9.01500E+01 4.22060E+01 0.00000E+00
 -1      2315 9.39000E+01 4.35050E+01 0.00000E+00
 -1      2316 9.54000E+01 4.35050E+01 0.00000E+00
 -1      2317 9.31500E+01 4.22060E+01 0.00000E+00
 -1      2318 9.69000E+01 4.35050E+01 0.00000E+00
 -1      2319 9.84000E+01 4.35050E+01 0.00000E+00
 -1      2320 9.61500E+01 4.22060E+01 0.00000E+00
 -1      2321 9.99000E+01 4.35050E+01 0.00000E+00
 -1      2322 1.01400E+02 4.35050E+01 0.00000E+00
 -1      2323 9.91500E+01 4.22060E+01 0.00000E+00
 -1      2324 1.02900E+02 4.35050E+01 0.00000E+00
 -1      2325 1.04400E+02 4.35050E+01 0.00000E+00
 -1      2326 1.02150E+02 4.22060E+01 0.00000E+00
 -1      2327 1.05900E+02 4.35050E+01 0.00000E+00
 -1      2328 1.07400E+02 4.35050E+01 0.00000E+00
 -1      2329 1.05150E+02 4.22060E+01 0.00000E+00
 -1      2330 1.08900E+02 4.35050E+01 0.00000E+00
 -1      2331 1.10400E+02 4.35050E+01 0.00000E+00
 -1      2332 1.08150E+02 4.22060E+01 0.00000E+00
 -1      2333 1.11900E+02 4.35050E+01 0.00000E+00
 -1      2334 1.13400E+02 4.35050E+01 0.00000E+00
 -1      2335 1.11150E+02 4.22060E+01 0.00000E+00
 -1      2336 1.14900E+02 4.35050E+01 0.00000E+00
 -1      2337 1.16400E+02 4.35050E+01 0.00000E+00
 -1      2338 1.14150E+02 4.22060E+01 0.00000E+00
 -1      2339 1.17900E+02 4.35050E+01 0.00000E+00
 -1      2340 1.19400E+02 4.35050E+01 0.00000E+00
 -1      2341 1.17150E+02 4.22060E+01 0.00000E+00
 -1      2342 1.20900E+02 4.35050E+01 0.00000E+00
 -1      2343 1.22400E+02 4.35050E+01 0.00000E+00
 -1      2344 1.20150E+02 4.22060E+01 0.00000E+00
 -1      2345 1.23900E+02 4.35050E+01 0.00000E+00
 -1      2346 1.25400E+02 4.35050E+01 0.00000E+00
 -1      2347 1.23150E+02 4.22060E+01 0.00000E+00
 -1      2348 1.26900E+02 4.35050E+01 0.00000E+00
 -1      2349 1.28400E+02 4.35050E+01 0.00000E+00
 -1      2350 1.26150E+02 4.22060E+01 0.00000E+00
 -1      2351 1.29900E+02 4.35050E+01 0.00000E+00
 -1      2352 1.31400E+02 4.35050E+01 0.00000E+00
 -1      2353 1.29150E+02 4.22060E+01 0.00000E+00
 -1      2354 1.32900E+02 4.35050E+01 0.00000E+00
 -1      2355 1.34400E+02 4.35050E+01 0.00000E+00
 -1      2356 1.32150E+02 4.22060E+01 0.00000E+00
 -1      2357 1.35900E+02 4.35050E+01 0.00000E+00
 -1      2358 1.37400E+02 4.35050E+01 0.00000E+00
 -1      2359 1.35150E+02 4.22060E+01 0.00000E+00
 -1      2360 1.38900E+02 4.35050E+01 0.00000E+00
 -1      2361 1.40400E+02 4.35050E+01 0.00000E+00
 -1      2362 1.38150E+02 4.22060E+01 0.00000E+00
 -1      2363 1.98975E+01 5.30525E+00 0.00000E+00
 -1      2364 1.83225E+01 5.30525E+00 0.00000E+00
 -1      2365 2.28975E+01 5.30525E+00 0.00000E+00
 -1      2366 2.13975E+01 5.30525E+00 0.00000E+00
 -1      2367 2.06100E+01 6.60425E+00 0.00000E+00
 -1      2368 2.58975E+01 5.30525E+00 0.00000E+00
 -1      2369 2.43975E+01 5.30525E+00 0.00000E+00
 -1      2370 2.36100E+01 6.60425E+00 0.00000E+00
 -1      2371 2.89350E+01 5.03138E+00 0.00000E+00
 -1      2372 2.74350E+01 5.03138E+00 0.00000E+00
 -1      2373 3.51013E+01 5.17717E+00 0.00000E+00
 -1      2374 3.36013E+01 5.17717E+00 0.00000E+00
 -1      2375 3.74929E+01 5.16601E+00 0.00000E+00
 -1      2376 3.62179E+01 5.16601E+00 0.00000E+00
 -1      2377 4.00350E+01 4.86380E+00 0.00000E+00
 -1      2378 3.88350E+01 4.86380E+00 0.00000E+00
 -1      2379 4.30242E+01 5.41176E+00 0.00000E+00
 -1      2380 4.15242E+01 5.41176E+00 0.00000E+00
 -1      2381 4.60242E+01 5.41176E+00 0.00000E+00
 -1      2382 4.45242E+01 5.41176E+00 0.00000E+00
 -1      2383 4.39134E+01 6.81727E+00 0.00000E+00
 -1      2384 4.90242E+01 5.41176E+00 0.00000E+00
 -1      2385 4.75242E+01 5.41176E+00 0.00000E+00
 -1      2386 4.69134E+01 6.81727E+00 0.00000E+00
 -1      2387 5.20242E+01 5.41176E+00 0.00000E+00
 -1      2388 5.05242E+01 5.41176E+00 0.00000E+00
 -1      2389 4.99134E+01 6.81727E+00 0.00000E+00
 -1      2390 5.50242E+01 5.41176E+00 0.00000E+00
 -1      2391 5.35242E+01 5.41176E+00 0.00000E+00
 -1      2392 5.29134E+01 6.81727E+00 0.00000E+00
 -1      2393 5.81742E+01 5.41176E+00 0.00000E+00
 -1      2394 5.65992E+01 5.41176E+00 0.00000E+00
 -1      2395 5.59884E+01 6.81727E+00 0.00000E+00
 -1      2396 6.11742E+01 5.41176E+00 0.00000E+00
 -1      2397 5.96742E+01 5.41176E+00 0.00000E+00
 -1      2398 5.90634E+01 6.81727E+00 0.00000E+00
 -1      2399 6.41742E+01 5.41176E+00 0.00000E+00
 -1      2400 6.26742E+01 5.41176E+00 0.00000E+00
 -1      2401 6.20634E+01 6.81727E+00 0.00000E+00
 -1      2402 6.71742E+01 5.41176E+00 0.00000E+00
 -1      2403 6.56742E+01 5.41176E+00 0.00000E+00
 -1      2404 6.50634E+01 6.81727E+00 0.00000E+00
 -1      2405 7.01742E+01 5.41176E+00 0.00000E+00
 -1      2406 6.86742E+01 5.41176E+00 0.00000E+00
 -1      2407 6.80634E+01 6.81727E+00 0.00000E+00
 -1      2408 7.31742E+01 5.41176E+00 0.00000E+00
 -1      2409 7.16742E+01 5.41176E+00 0.00000E+00
 -1      2410 7.10634E+01 6.81727E+00 0.00000E+00
 -1      2411 7.63242E+01 5.41176E+00 0.00000E+00
 -1      2412 7.47492E+01 5.41176E+00 0.00000E+00
 -1      2413 7.41384E+01 6.81727E+00 0.00000E+00
 -1      2414 7.93242E+01 5.41176E+00 0.00000E+00
 -1      2415 7.78242E+01 5.41176E+00 0.00000E+00
 -1      2416 7.72134E+01 6.81727E+00 0.00000E+00
 -1      2417 8.23242E+01 5.41176E+00 0.00000E+00
 -1      2418 8.08242E+01 5.41176E+00 0.00000E+00
 -1      2419 8.02134E+01 6.81727E+00 0.00000E+00
 -1      2420 8.53242E+01 5.41176E+00 0.00000E+00
 -1      2421 8.38242E+01 5.41176E+00 0.00000E+00
 -1      2422 8.32134E+01 6.81727E+00 0.00000E+00
 -1      2423 8.83242E+01 5.41176E+00 0.00000E+00
 -1      2424 8.68242E+01 5.41176E+00 0.00000E+00
 -1      2425 8.62134E+01 6.81727E+00 0.00000E+00
 -1      2426 9.13242E+01 5.41176E+00 0.00000E+00
 -1      2427 8.98242E+01 5.41176E+00 0.00000E+00
 -1      2428 8.92134E+01 6.81727E+00 0.00000E+00
 -1      2429 9.44742E+01 5.41176E+00 0.00000E+00
 -1      2430 9.28992E+01 5.41176E+00 0.00000E+00
 -1      2431 9.22884E+01 6.81727E+00 0.00000E+00
 -1      2432 9.74742E+01 5.41176E+00 0.00000E+00
 -1      2433 9.59742E+01 5.41176E+00 0.00000E+00
 -1      2434 9.53634E+01 6.81727E+00 0.00000E+00
 -1      2435 1.00474E+02 5.41176E+00 0.00000E+00
 -1      2436 9.89742E+01 5.41176E+00 0.00000E+00
 -1      2437 9.83634E+01 6.81727E+00 0.00000E+00
 -1      2438 1.03474E+02 5.41176E+00 0.00000E+00
 -1      2439 1.01974E+02 5.41176E+00 0.00000E+00
 -1      2440 1.01363E+02 6.81727E+00 0.00000E+00
 -1      2441 1.06474E+02 5.41176E+00 0.00000E+00
 -1      2442 1.04974E+02 5.41176E+00 0.00000E+00
 -1      2443 1.04363E+02 6.81727E+00 0.00000E+00
 -1      2444 1.09474E+02 5.41176E+00 0.00000E+00
 -1      2445 1.07974E+02 5.41176E+00 0.00000E+00
 -1      2446 1.07363E+02 6.81727E+00 0.00000E+00
 -1      2447 1.12624E+02 5.41176E+00 0.00000E+00
 -1      2448 1.11049E+02 5.41176E+00 0.00000E+00
 -1      2449 1.10438E+02 6.81727E+00 0.00000E+00
 -1      2450 1.15624E+02 5.41176E+00 0.00000E+00
 -1      2451 1.14124E+02 5.41176E+00 0.00000E+00
 -1      2452 1.13513E+02 6.81727E+00 0.00000E+00
 -1      2453 1.18624E+02 5.41176E+00 0.00000E+00
 -1      2454 1.17124E+02 5.41176E+00 0.00000E+00
 -1      2455 1.16513E+02 6.81727E+00 0.00000E+00
 -1      2456 1.21624E+02 5.41176E+00 0.00000E+00
 -1      2457 1.20124E+02 5.41176E+00 0.00000E+00
 -1      2458 1.19513E+02 6.81727E+00 0.00000E+00
 -1      2459 1.24624E+02 5.41176E+00 0.00000E+00
 -1      2460 1.23124E+02 5.41176E+00 0.00000E+00
 -1      2461 1.22513E+02 6.81727E+00 0.00000E+00
 -1      2462 1.27624E+02 5.41176E+00 0.00000E+00
 -1      2463 1.26124E+02 5.41176E+00 0.00000E+00
 -1      2464 1.25513E+02 6.81727E+00 0.00000E+00
 -1      2465 1.30774E+02 5.41176E+00 0.00000E+00
 -1      2466 1.29199E+02 5.41176E+00 0.00000E+00
 -1      2467 1.28588E+02 6.81727E+00 0.00000E+00
 -1      2468 1.33774E+02 5.41176E+00 0.00000E+00
 -1      2469 1.32274E+02 5.41176E+00 0.00000E+00
 -1      2470 1.31663E+02 6.81727E+00 0.00000E+00
 -1      2471 1.36774E+02 5.41176E+00 0.00000E+00
 -1      2472 1.35274E+02 5.41176E+00 0.00000E+00
 -1      2473 1.34663E+02 6.81727E+00 0.00000E+00
 -1      2474 1.39774E+02 5.41176E+00 0.00000E+00
 -1      2475 1.38274E+02 5.41176E+00 0.00000E+00
 -1      2476 1.37663E+02 6.81727E+00 0.00000E+00
 -1      2477 1.44242E+02 5.26953E+00 0.00000E+00
 -1      2478 1.43505E+02 1.69125E+01 0.00000E+00
 -1      2479 1.43505E+02 1.54375E+01 0.00000E+00
 -1      2480 1.43505E+02 1.98625E+01 0.00000E+00
 -1      2481 1.43505E+02 1.83875E+01 0.00000E+00
 -1      2482 1.42206E+02 1.76500E+01 0.00000E+00
 -1      2483 1.43505E+02 1.10625E+01 0.00000E+00
 -1      2484 1.43505E+02 9.58750E+00 0.00000E+00
 -1      2485 1.43505E+02 1.39750E+01 0.00000E+00
 -1      2486 1.43505E+02 1.25250E+01 0.00000E+00
 -1      2487 1.42206E+02 1.17875E+01 0.00000E+00
 -1      2488 1.42206E+02 1.47125E+01 0.00000E+00
 -1      2489 1.43505E+02 2.28125E+01 0.00000E+00
 -1      2490 1.43505E+02 2.13375E+01 0.00000E+00
 -1      2491 1.42206E+02 2.06000E+01 0.00000E+00
 -1      2492 1.43505E+02 2.57625E+01 0.00000E+00
 -1      2493 1.43505E+02 2.42875E+01 0.00000E+00
 -1      2494 1.42206E+02 2.35500E+01 0.00000E+00
 -1      2495 1.43505E+02 2.87125E+01 0.00000E+00
 -1      2496 1.43505E+02 2.72375E+01 0.00000E+00
 -1      2497 1.42206E+02 2.65000E+01 0.00000E+00
 -1      2498 1.43505E+02 3.16125E+01 0.00000E+00
 -1      2499 1.43505E+02 3.01625E+01 0.00000E+00
 -1      2500 1.42206E+02 2.94250E+01 0.00000E+00
 -1      2501 1.43505E+02 3.45625E+01 0.00000E+00
 -1      2502 1.43505E+02 3.30875E+01 0.00000E+00
 -1      2503 1.42206E+02 3.23500E+01 0.00000E+00
 -1      2504 1.43505E+02 3.75125E+01 0.00000E+00
 -1      2505 1.43505E+02 3.60375E+01 0.00000E+00
 -1      2506 1.42206E+02 3.53000E+01 0.00000E+00
 -1      2507 1.43505E+02 4.04625E+01 0.00000E+00
 -1      2508 1.43505E+02 3.89875E+01 0.00000E+00
 -1      2509 1.42206E+02 3.82500E+01 0.00000E+00
 -1      2510 4.64468E+01 1.46780E+01 0.00000E+00
 -1      2511 4.63852E+01 1.56983E+01 0.00000E+00
 -1      2512 4.44448E+01 1.02887E+01 0.00000E+00
 -1      2513 4.50071E+01 1.10681E+01 0.00000E+00
 -1      2514 1.67850E+01 5.30525E+00 0.00000E+00
 -1      2515 1.52850E+01 5.30525E+00 0.00000E+00
 -1      2516 1.45350E+01 6.60425E+00 0.00000E+00
 -1      2517 1.44321E+02 4.30606E+01 0.00000E+00
 -1      2518 4.62760E+01 1.68529E+01 0.00000E+00
 -1      2519 4.60659E+01 1.79039E+01 0.00000E+00
 -1      2520 4.56923E+01 1.21079E+01 0.00000E+00
 -1      2521 4.61936E+01 1.32119E+01 0.00000E+00
 -1      2522 6.55950E+00 4.28890E+01 0.00000E+00
 -1      2523 8.53650E+00 4.32410E+01 0.00000E+00
 -1      2524 9.28650E+00 4.19420E+01 0.00000E+00
 -1      2525 6.55950E+00 4.14140E+01 0.00000E+00
 -1      2526 4.56702E+01 1.90265E+01 0.00000E+00
 -1      2527 4.53116E+01 2.00415E+01 0.00000E+00
 -1      2528 3.52576E+01 2.66223E+01 0.00000E+00
 -1      2529 3.41585E+01 2.64225E+01 0.00000E+00
 -1      2530 2.74941E+01 2.25748E+01 0.00000E+00
 -1      2531 2.69408E+01 2.15633E+01 0.00000E+00
 -1      2532 6.49500E+00 2.71625E+01 0.00000E+00
 -1      2533 6.49500E+00 2.86375E+01 0.00000E+00
 -1      2534 7.79400E+00 2.93750E+01 0.00000E+00
 -1      2535 7.79400E+00 2.64250E+01 0.00000E+00
 -1      2536 3.24787E+01 5.46792E+00 0.00000E+00
 -1      2537 2.74150E+01 1.03388E+01 0.00000E+00
 -1      2538 2.79009E+01 9.58385E+00 0.00000E+00
 -1      2539 3.06795E+01 6.91371E+00 0.00000E+00
 -1      2540 3.14954E+01 6.47092E+00 0.00000E+00
 -1      2541 3.30384E+01 2.62137E+01 0.00000E+00
 -1      2542 3.20565E+01 2.59462E+01 0.00000E+00
 -1      2543 2.65240E+01 1.19793E+01 0.00000E+00
 -1      2544 2.69695E+01 1.11591E+01 0.00000E+00
 -1      2545 2.65970E+01 1.03855E+01 0.00000E+00
 -1      2546 2.56606E+01 1.41843E+01 0.00000E+00
 -1      2547 2.59294E+01 1.30933E+01 0.00000E+00
 -1      2548 2.55709E+01 1.63335E+01 0.00000E+00
 -1      2549 2.56372E+01 1.53696E+01 0.00000E+00
 -1      2550 2.56405E+01 1.86183E+01 0.00000E+00
 -1      2551 2.53713E+01 1.76271E+01 0.00000E+00
 -1      2552 2.64537E+01 2.05410E+01 0.00000E+00
 -1      2553 2.61276E+01 1.96406E+01 0.00000E+00
 -1      2554 2.50037E+01 1.94137E+01 0.00000E+00
 -1      2555 2.59780E+01 2.14583E+01 0.00000E+00
 -1      2556 2.90555E+01 2.41390E+01 0.00000E+00
 -1      2557 2.83579E+01 2.36166E+01 0.00000E+00
 -1      2558 4.20011E+01 2.50938E+01 0.00000E+00
 -1      2559 4.11209E+01 2.55692E+01 0.00000E+00
 -1      2560 3.09282E+01 2.54102E+01 0.00000E+00
 -1      2561 2.99918E+01 2.47746E+01 0.00000E+00
 -1      2562 2.91290E+01 2.51998E+01 0.00000E+00
 -1      2563 3.74540E+01 2.64487E+01 0.00000E+00
 -1      2564 3.65210E+01 2.65793E+01 0.00000E+00
 -1      2565 3.99336E+01 2.59461E+01 0.00000E+00
 -1      2566 3.87464E+01 2.63230E+01 0.00000E+00
 -1      2567 4.08608E+01 2.66104E+01 0.00000E+00
 -1      2568 4.37580E+01 2.30986E+01 0.00000E+00
 -1      2569 4.29985E+01 2.40302E+01 0.00000E+00
 -1      2570 4.49322E+01 2.11347E+01 0.00000E+00
 -1      2571 4.44674E+01 2.20345E+01 0.00000E+00
 -1      2572 3.89706E+01 6.16883E+00 0.00000E+00
 -1      2573 4.00522E+01 6.72949E+00 0.00000E+00
 -1      2574 8.07525E+00 5.11044E+00 0.00000E+00
 -1      2575 6.57525E+00 5.11044E+00 0.00000E+00
 -1      2576 6.40575E+00 6.01981E+00 0.00000E+00
 -1      2577 8.82525E+00 6.40944E+00 0.00000E+00
 -1      2578 4.32177E+01 8.72344E+00 0.00000E+00
 -1      2579 4.38312E+01 9.50608E+00 0.00000E+00
 -1      2580 4.47399E+01 9.44300E+00 0.00000E+00
 -1      2581 3.17017E+01 5.00925E+00 0.00000E+00
 -1      2582 7.79400E+00 3.52687E+01 0.00000E+00
 -1      2583 6.49500E+00 3.60062E+01 0.00000E+00
 -1      2584 6.49500E+00 3.74750E+01 0.00000E+00
 -1      2585 1.42758E+02 4.35929E+01 0.00000E+00
 -1      2586 1.43241E+02 4.17323E+01 0.00000E+00
 -1      2587 1.41942E+02 4.09948E+01 0.00000E+00
 -1      2588 1.41414E+02 4.35342E+01 0.00000E+00
 -1      2589 6.40575E+00 7.49481E+00 0.00000E+00
 -1      2590 4.32698E+01 7.73882E+00 0.00000E+00
 -1      2591 4.66162E+01 1.86691E+01 0.00000E+00
 -1      2592 1.40664E+02 4.22352E+01 0.00000E+00
 -1      2593 7.70475E+00 8.23231E+00 0.00000E+00
 -1      2594 2.66475E+01 6.33038E+00 0.00000E+00
 -1      2595 3.02017E+01 5.00925E+00 0.00000E+00
 -1      2596 2.94517E+01 6.03437E+00 0.00000E+00
 -1      2597 2.80134E+01 8.69072E+00 0.00000E+00
 -1      2598 1.43847E+02 6.48047E+00 0.00000E+00
 -1      2599 1.42990E+02 5.21719E+00 0.00000E+00
 -1      2600 1.41490E+02 5.21719E+00 0.00000E+00
 -1      2601 1.43699E+02 7.63906E+00 0.00000E+00
 -1      2602 1.40879E+02 6.62270E+00 0.00000E+00
 -1      2603 1.42400E+02 8.37656E+00 0.00000E+00
 -1      2604 4.58411E+01 2.08850E+01 0.00000E+00
 -1      2605 4.71210E+01 1.63920E+01 0.00000E+00
 -1      2606 4.69770E+01 1.37714E+01 0.00000E+00
 -1      2607 4.77603E+01 1.43308E+01 0.00000E+00
 -1      2608 4.75071E+01 1.28648E+01 0.00000E+00
 -1      2609 4.60386E+01 1.12655E+01 0.00000E+00
 -1      2610 3.11937E+01 2.63714E+01 0.00000E+00
 -1      2611 3.58255E+01 2.72819E+01 0.00000E+00
 -1      2612 3.34421E+01 2.71161E+01 0.00000E+00
 -1      2613 2.73289E+01 2.35224E+01 0.00000E+00
 -1      2614 6.55950E+00 3.99453E+01 0.00000E+00
 -1      2615 1.75725E+01 6.60425E+00 0.00000E+00
 -1      2616 2.47161E+01 1.70978E+01 0.00000E+00
 -1      2617 3.80929E+01 6.02356E+00 0.00000E+00
 -1      2618 2.55569E+01 1.23197E+01 0.00000E+00
 -1      2619 2.98513E+01 6.91425E+00 0.00000E+00
 -1      2620 2.49390E+01 1.46189E+01 0.00000E+00
 -1      2621 4.30455E+01 2.51699E+01 0.00000E+00
 -1      2622 3.83812E+01 2.71131E+01 0.00000E+00
 -1      2623 4.47523E+01 2.30422E+01 0.00000E+00
 -1      2624 8.91450E+00 8.42712E+00 0.00000E+00
 -1      2625 9.09300E+00 1.98250E+01 0.00000E+00
 -1      2626 9.09300E+00 2.12750E+01 0.00000E+00
 -1      2627 9.09300E+00 2.27500E+01 0.00000E+00
 -1      2628 9.09300E+00 2.42250E+01 0.00000E+00
 -1      2629 1.03920E+01 2.20250E+01 0.00000E+00
 -1      2630 9.09300E+00 1.39375E+01 0.00000E+00
 -1      2631 9.09300E+00 1.54125E+01 0.00000E+00
 -1      2632 9.09300E+00 1.09875E+01 0.00000E+00
 -1      2633 9.09300E+00 1.24625E+01 0.00000E+00
 -1      2634 1.03920E+01 1.32000E+01 0.00000E+00
 -1      2635 4.77018E+01 1.84207E+01 0.00000E+00
 -1      2636 4.73061E+01 1.95433E+01 0.00000E+00
 -1      2637 1.39914E+02 4.09362E+01 0.00000E+00
 -1      2638 1.40928E+02 4.09655E+01 0.00000E+00
 -1      2639 1.41192E+02 3.96958E+01 0.00000E+00
 -1      2640 1.44000E+01 4.09070E+01 0.00000E+00
 -1      2641 1.59000E+01 4.09070E+01 0.00000E+00
 -1      2642 1.74000E+01 4.09070E+01 0.00000E+00
 -1      2643 1.89000E+01 4.09070E+01 0.00000E+00
 -1      2644 1.66500E+01 3.96080E+01 0.00000E+00
 -1      2645 2.04000E+01 4.09070E+01 0.00000E+00
 -1      2646 2.19000E+01 4.09070E+01 0.00000E+00
 -1      2647 1.96500E+01 3.96080E+01 0.00000E+00
 -1      2648 2.34000E+01 4.09070E+01 0.00000E+00
 -1      2649 2.49000E+01 4.09070E+01 0.00000E+00
 -1      2650 2.26500E+01 3.96080E+01 0.00000E+00
 -1      2651 2.64000E+01 4.09070E+01 0.00000E+00
 -1      2652 2.79000E+01 4.09070E+01 0.00000E+00
 -1      2653 2.56500E+01 3.96080E+01 0.00000E+00
 -1      2654 2.94000E+01 4.09070E+01 0.00000E+00
 -1      2655 3.09000E+01 4.09070E+01 0.00000E+00
 -1      2656 2.86500E+01 3.96080E+01 0.00000E+00
 -1      2657 3.24000E+01 4.09070E+01 0.00000E+00
 -1      2658 3.39000E+01 4.09070E+01 0.00000E+00
 -1      2659 3.16500E+01 3.96080E+01 0.00000E+00
 -1      2660 3.54000E+01 4.09070E+01 0.00000E+00
 -1      2661 3.69000E+01 4.09070E+01 0.00000E+00
 -1      2662 3.46500E+01 3.96080E+01 0.00000E+00
 -1      2663 3.84000E+01 4.09070E+01 0.00000E+00
 -1      2664 3.99000E+01 4.09070E+01 0.00000E+00
 -1      2665 3.76500E+01 3.96080E+01 0.00000E+00
 -1      2666 4.14000E+01 4.09070E+01 0.00000E+00
 -1      2667 4.29000E+01 4.09070E+01 0.00000E+00
 -1      2668 4.06500E+01 3.96080E+01 0.00000E+00
 -1      2669 4.44000E+01 4.09070E+01 0.00000E+00
 -1      2670 4.59000E+01 4.09070E+01 0.00000E+00
 -1      2671 4.36500E+01 3.96080E+01 0.00000E+00
 -1      2672 4.74000E+01 4.09070E+01 0.00000E+00
 -1      2673 4.89000E+01 4.09070E+01 0.00000E+00
 -1      2674 4.66500E+01 3.96080E+01 0.00000E+00
 -1      2675 5.04000E+01 4.09070E+01 0.00000E+00
 -1      2676 5.19000E+01 4.09070E+01 0.00000E+00
 -1      2677 4.96500E+01 3.96080E+01 0.00000E+00
 -1      2678 5.34000E+01 4.09070E+01 0.00000E+00
 -1      2679 5.49000E+01 4.09070E+01 0.00000E+00
 -1      2680 5.26500E+01 3.96080E+01 0.00000E+00
 -1      2681 5.64000E+01 4.09070E+01 0.00000E+00
 -1      2682 5.79000E+01 4.09070E+01 0.00000E+00
 -1      2683 5.56500E+01 3.96080E+01 0.00000E+00
 -1      2684 5.94000E+01 4.09070E+01 0.00000E+00
 -1      2685 6.09000E+01 4.09070E+01 0.00000E+00
 -1      2686 5.86500E+01 3.96080E+01 0.00000E+00
 -1      2687 6.24000E+01 4.09070E+01 0.00000E+00
 -1      2688 6.39000E+01 4.09070E+01 0.00000E+00
 -1      2689 6.16500E+01 3.96080E+01 0.00000E+00
 -1      2690 6.54000E+01 4.09070E+01 0.00000E+00
 -1      2691 6.69000E+01 4.09070E+01 0.00000E+00
 -1      2692 6.46500E+01 3.96080E+01 0.00000E+00
 -1      2693 6.84000E+01 4.09070E+01 0.00000E+00
 -1      2694 6.99000E+01 4.09070E+01 0.00000E+00
 -1      2695 6.76500E+01 3.96080E+01 0.00000E+00
 -1      2696 7.14000E+01 4.09070E+01 0.00000E+00
 -1      2697 7.29000E+01 4.09070E+01 0.00000E+00
 -1      2698 7.06500E+01 3.96080E+01 0.00000E+00
 -1      2699 7.44000E+01 4.09070E+01 0.00000E+00
 -1      2700 7.59000E+01 4.09070E+01 0.00000E+00
 -1      2701 7.36500E+01 3.96080E+01 0.00000E+00
 -1      2702 7.74000E+01 4.09070E+01 0.00000E+00
 -1      2703 7.89000E+01 4.09070E+01 0.00000E+00
 -1      2704 7.66500E+01 3.96080E+01 0.00000E+00
 -1      2705 8.04000E+01 4.09070E+01 0.00000E+00
 -1      2706 8.19000E+01 4.09070E+01 0.00000E+00
 -1      2707 7.96500E+01 3.96080E+01 0.00000E+00
 -1      2708 8.34000E+01 4.09070E+01 0.00000E+00
 -1      2709 8.49000E+01 4.09070E+01 0.00000E+00
 -1      2710 8.26500E+01 3.96080E+01 0.00000E+00
 -1      2711 8.64000E+01 4.09070E+01 0.00000E+00
 -1      2712 8.79000E+01 4.09070E+01 0.00000E+00
 -1      2713 8.56500E+01 3.96080E+01 0.00000E+00
 -1      2714 8.94000E+01 4.09070E+01 0.00000E+00
 -1      2715 9.09000E+01 4.09070E+01 0.00000E+00
 -1      2716 8.86500E+01 3.96080E+01 0.00000E+00
 -1      2717 9.24000E+01 4.09070E+01 0.00000E+00
 -1      2718 9.39000E+01 4.09070E+01 0.00000E+00
 -1      2719 9.16500E+01 3.96080E+01 0.00000E+00
 -1      2720 9.54000E+01 4.09070E+01 0.00000E+00
 -1      2721 9.69000E+01 4.09070E+01 0.00000E+00
 -1      2722 9.46500E+01 3.96080E+01 0.00000E+00
 -1      2723 9.84000E+01 4.09070E+01 0.00000E+00
 -1      2724 9.99000E+01 4.09070E+01 0.00000E+00
 -1      2725 9.76500E+01 3.96080E+01 0.00000E+00
 -1      2726 1.01400E+02 4.09070E+01 0.00000E+00
 -1      2727 1.02900E+02 4.09070E+01 0.00000E+00
 -1      2728 1.00650E+02 3.96080E+01 0.00000E+00
 -1      2729 1.04400E+02 4.09070E+01 0.00000E+00
 -1      2730 1.05900E+02 4.09070E+01 0.00000E+00
 -1      2731 1.03650E+02 3.96080E+01 0.00000E+00
 -1      2732 1.07400E+02 4.09070E+01 0.00000E+00
 -1      2733 1.08900E+02 4.09070E+01 0.00000E+00
 -1      2734 1.06650E+02 3.96080E+01 0.00000E+00
 -1      2735 1.10400E+02 4.09070E+01 0.00000E+00
 -1      2736 1.11900E+02 4.09070E+01 0.00000E+00
 -1      2737 1.09650E+02 3.96080E+01 0.00000E+00
 -1      2738 1.13400E+02 4.09070E+01 0.00000E+00
 -1      2739 1.14900E+02 4.09070E+01 0.00000E+00
 -1      2740 1.12650E+02 3.96080E+01 0.00000E+00
 -1      2741 1.16400E+02 4.09070E+01 0.00000E+00
 -1      2742 1.17900E+02 4.09070E+01 0.00000E+00
 -1      2743 1.15650E+02 3.96080E+01 0.00000E+00
 -1      2744 1.19400E+02 4.09070E+01 0.00000E+00
 -1      2745 1.20900E+02 4.09070E+01 0.00000E+00
 -1      2746 1.18650E+02 3.96080E+01 0.00000E+00
 -1      2747 1.22400E+02 4.09070E+01 0.00000E+00
 -1      2748 1.23900E+02 4.09070E+01 0.00000E+00
 -1      2749 1.21650E+02 3.96080E+01 0.00000E+00
 -1      2750 1.25400E+02 4.09070E+01 0.00000E+00
 -1      2751 1.26900E+02 4.09070E+01 0.00000E+00
 -1      2752 1.24650E+02 3.96080E+01 0.00000E+00
 -1      2753 1.28400E+02 4.09070E+01 0.00000E+00
 -1      2754 1.29900E+02 4.09070E+01 0.00000E+00
 -1      2755 1.27650E+02 3.96080E+01 0.00000E+00
 -1      2756 1.31400E+02 4.09070E+01 0.00000E+00
 -1      2757 1.32900E+02 4.09070E+01 0.00000E+00
 -1      2758 1.30650E+02 3.96080E+01 0.00000E+00
 -1      2759 1.34400E+02 4.09070E+01 0.00000E+00
 -1      2760 1.35900E+02 4.09070E+01 0.00000E+00
 -1      2761 1.33650E+02 3.96080E+01 0.00000E+00
 -1      2762 1.37157E+02 4.09216E+01 0.00000E+00
 -1      2763 1.38657E+02 4.09216E+01 0.00000E+00
 -1      2764 1.38921E+02 3.96519E+01 0.00000E+00
 -1      2765 1.36407E+02 3.96226E+01 0.00000E+00
 -1      2766 2.43600E+01 7.88073E+00 0.00000E+00
 -1      2767 2.28600E+01 7.88073E+00 0.00000E+00
 -1      2768 2.13600E+01 7.88073E+00 0.00000E+00
 -1      2769 1.98600E+01 7.88073E+00 0.00000E+00
 -1      2770 2.21100E+01 9.15721E+00 0.00000E+00
 -1      2771 1.40685E+02 8.57114E+00 0.00000E+00
 -1      2772 2.69821E+01 8.52190E+00 0.00000E+00
 -1      2773 2.79529E+01 7.64742E+00 0.00000E+00
 -1      2774 2.44292E+01 1.24334E+01 0.00000E+00
 -1      2775 2.50238E+01 1.13194E+01 0.00000E+00
 -1      2776 4.09242E+01 6.26931E+00 0.00000E+00
 -1      2777 4.47698E+01 7.73882E+00 0.00000E+00
 -1      2778 5.36634E+01 8.11627E+00 0.00000E+00
 -1      2779 5.21634E+01 8.11627E+00 0.00000E+00
 -1      2780 5.68134E+01 8.11627E+00 0.00000E+00
 -1      2781 5.52384E+01 8.11627E+00 0.00000E+00
 -1      2782 5.44884E+01 9.41527E+00 0.00000E+00
 -1      2783 5.98134E+01 8.11627E+00 0.00000E+00
 -1      2784 5.83134E+01 8.11627E+00 0.00000E+00
 -1      2785 5.75634E+01 9.41527E+00 0.00000E+00
 -1      2786 6.28134E+01 8.11627E+00 0.00000E+00
 -1      2787 6.13134E+01 8.11627E+00 0.00000E+00
 -1      2788 6.05634E+01 9.41527E+00 0.00000E+00
 -1      2789 6.58134E+01 8.11627E+00 0.00000E+00
 -1      2790 6.43134E+01 8.11627E+00 0.00000E+00
 -1      2791 6.35634E+01 9.41527E+00 0.00000E+00
 -1      2792 6.88134E+01 8.11627E+00 0.00000E+00
 -1      2793 6.73134E+01 8.11627E+00 0.00000E+00
 -1      2794 6.65634E+01 9.41527E+00 0.00000E+00
 -1      2795 7.18134E+01 8.11627E+00 0.00000E+00
 -1      2796 7.03134E+01 8.11627E+00 0.00000E+00
 -1      2797 6.95634E+01 9.41527E+00 0.00000E+00
 -1      2798 7.49634E+01 8.11627E+00 0.00000E+00
 -1      2799 7.33884E+01 8.11627E+00 0.00000E+00
 -1      2800 7.26384E+01 9.41527E+00 0.00000E+00
 -1      2801 7.79634E+01 8.11627E+00 0.00000E+00
 -1      2802 7.64634E+01 8.11627E+00 0.00000E+00
 -1      2803 7.57134E+01 9.41527E+00 0.00000E+00
 -1      2804 8.09634E+01 8.11627E+00 0.00000E+00
 -1      2805 7.94634E+01 8.11627E+00 0.00000E+00
 -1      2806 7.87134E+01 9.41527E+00 0.00000E+00
 -1      2807 8.39634E+01 8.11627E+00 0.00000E+00
 -1      2808 8.24634E+01 8.11627E+00 0.00000E+00
 -1      2809 8.17134E+01 9.41527E+00 0.00000E+00
 -1      2810 8.69634E+01 8.11627E+00 0.00000E+00
 -1      2811 8.54634E+01 8.11627E+00 0.00000E+00
 -1      2812 8.47134E+01 9.41527E+00 0.00000E+00
 -1      2813 8.99634E+01 8.11627E+00 0.00000E+00
 -1      2814 8.84634E+01 8.11627E+00 0.00000E+00
 -1      2815 8.77134E+01 9.41527E+00 0.00000E+00
 -1      2816 9.31134E+01 8.11627E+00 0.00000E+00
 -1      2817 9.15384E+01 8.11627E+00 0.00000E+00
 -1      2818 9.07884E+01 9.41527E+00 0.00000E+00
 -1      2819 9.61134E+01 8.11627E+00 0.00000E+00
 -1      2820 9.46134E+01 8.11627E+00 0.00000E+00
 -1      2821 9.38634E+01 9.41527E+00 0.00000E+00
 -1      2822 9.91134E+01 8.11627E+00 0.00000E+00
 -1      2823 9.76134E+01 8.11627E+00 0.00000E+00
 -1      2824 9.68634E+01 9.41527E+00 0.00000E+00
 -1      2825 1.02113E+02 8.11627E+00 0.00000E+00
 -1      2826 1.00613E+02 8.11627E+00 0.00000E+00
 -1      2827 9.98634E+01 9.41527E+00 0.00000E+00
 -1      2828 1.05113E+02 8.11627E+00 0.00000E+00
 -1      2829 1.03613E+02 8.11627E+00 0.00000E+00
 -1      2830 1.02863E+02 9.41527E+00 0.00000E+00
 -1      2831 1.08113E+02 8.11627E+00 0.00000E+00
 -1      2832 1.06613E+02 8.11627E+00 0.00000E+00
 -1      2833 1.05863E+02 9.41527E+00 0.00000E+00
 -1      2834 1.11263E+02 8.11627E+00 0.00000E+00
 -1      2835 1.09688E+02 8.11627E+00 0.00000E+00
 -1      2836 1.08938E+02 9.41527E+00 0.00000E+00
 -1      2837 1.14263E+02 8.11627E+00 0.00000E+00
 -1      2838 1.12763E+02 8.11627E+00 0.00000E+00
 -1      2839 1.12013E+02 9.41527E+00 0.00000E+00
 -1      2840 1.17263E+02 8.11627E+00 0.00000E+00
 -1      2841 1.15763E+02 8.11627E+00 0.00000E+00
 -1      2842 1.15013E+02 9.41527E+00 0.00000E+00
 -1      2843 1.20263E+02 8.11627E+00 0.00000E+00
 -1      2844 1.18763E+02 8.11627E+00 0.00000E+00
 -1      2845 1.18013E+02 9.41527E+00 0.00000E+00
 -1      2846 1.23263E+02 8.11627E+00 0.00000E+00
 -1      2847 1.21763E+02 8.11627E+00 0.00000E+00
 -1      2848 1.21013E+02 9.41527E+00 0.00000E+00
 -1      2849 1.26263E+02 8.11627E+00 0.00000E+00
 -1      2850 1.24763E+02 8.11627E+00 0.00000E+00
 -1      2851 1.24013E+02 9.41527E+00 0.00000E+00
 -1      2852 1.29413E+02 8.11627E+00 0.00000E+00
 -1      2853 1.27838E+02 8.11627E+00 0.00000E+00
 -1      2854 1.27088E+02 9.41527E+00 0.00000E+00
 -1      2855 1.32413E+02 8.11627E+00 0.00000E+00
 -1      2856 1.30913E+02 8.11627E+00 0.00000E+00
 -1      2857 1.30163E+02 9.41527E+00 0.00000E+00
 -1      2858 1.35413E+02 8.11627E+00 0.00000E+00
 -1      2859 1.33913E+02 8.11627E+00 0.00000E+00
 -1      2860 1.33163E+02 9.41527E+00 0.00000E+00
 -1      2861 1.38413E+02 8.11627E+00 0.00000E+00
 -1      2862 1.36913E+02 8.11627E+00 0.00000E+00
 -1      2863 1.36163E+02 9.41527E+00 0.00000E+00
 -1      2864 1.40907E+02 2.42875E+01 0.00000E+00
 -1      2865 1.40907E+02 2.28125E+01 0.00000E+00
 -1      2866 1.40907E+02 1.83875E+01 0.00000E+00
 -1      2867 1.40907E+02 1.69125E+01 0.00000E+00
 -1      2868 1.40907E+02 2.72375E+01 0.00000E+00
 -1      2869 1.40907E+02 2.57625E+01 0.00000E+00
 -1      2870 1.39608E+02 2.50250E+01 0.00000E+00
 -1      2871 1.40907E+02 2.13375E+01 0.00000E+00
 -1      2872 1.40907E+02 1.98625E+01 0.00000E+00
 -1      2873 1.39608E+02 1.91250E+01 0.00000E+00
 -1      2874 1.39608E+02 2.20750E+01 0.00000E+00
 -1      2875 4.69268E+01 2.06366E+01 0.00000E+00
 -1      2876 4.65474E+01 2.17298E+01 0.00000E+00
 -1      2877 4.80124E+01 2.03882E+01 0.00000E+00
 -1      2878 1.40907E+02 3.01375E+01 0.00000E+00
 -1      2879 1.40907E+02 2.86875E+01 0.00000E+00
 -1      2880 1.39608E+02 2.79500E+01 0.00000E+00
 -1      2881 1.40907E+02 3.30875E+01 0.00000E+00
 -1      2882 1.40907E+02 3.16125E+01 0.00000E+00
 -1      2883 1.39608E+02 3.08750E+01 0.00000E+00
 -1      2884 1.40907E+02 3.60375E+01 0.00000E+00
 -1      2885 1.40907E+02 3.45625E+01 0.00000E+00
 -1      2886 1.39608E+02 3.38250E+01 0.00000E+00
 -1      2887 1.41192E+02 3.82207E+01 0.00000E+00
 -1      2888 4.17900E+01 2.74789E+01 0.00000E+00
 -1      2889 4.06027E+01 2.78558E+01 0.00000E+00
 -1      2890 1.52850E+01 7.90325E+00 0.00000E+00
 -1      2891 1.37850E+01 7.90325E+00 0.00000E+00
 -1      2892 3.13540E+01 2.74897E+01 0.00000E+00
 -1      2893 3.02257E+01 2.69537E+01 0.00000E+00
 -1      2894 4.65520E+01 1.01815E+01 0.00000E+00
 -1      2895 4.72372E+01 1.12214E+01 0.00000E+00
 -1      2896 8.85168E+00 4.05347E+01 0.00000E+00
 -1      2897 1.02152E+01 4.07987E+01 0.00000E+00
 -1      2898 3.38296E+01 2.81459E+01 0.00000E+00
 -1      2899 3.27096E+01 2.79371E+01 0.00000E+00
 -1      2900 7.48818E+00 3.88019E+01 0.00000E+00
 -1      2901 4.80820E+01 8.47734E+00 0.00000E+00
 -1      2902 4.65820E+01 8.47734E+00 0.00000E+00
 -1      2903 2.85846E+01 6.93637E+00 0.00000E+00
 -1      2904 1.15576E+01 4.08528E+01 0.00000E+00
 -1      2905 1.30576E+01 4.08528E+01 0.00000E+00
 -1      2906 1.38076E+01 3.95538E+01 0.00000E+00
 -1      2907 1.11228E+01 3.94455E+01 0.00000E+00
 -1      2908 1.39935E+02 9.87014E+00 0.00000E+00
 -1      2909 2.69071E+01 2.47511E+01 0.00000E+00
 -1      2910 2.60433E+01 2.37093E+01 0.00000E+00
 -1      2911 4.80293E+01 1.58954E+01 0.00000E+00
 -1      2912 4.79202E+01 1.70500E+01 0.00000E+00
 -1      2913 1.83412E+01 7.89199E+00 0.00000E+00
 -1      2914 1.68037E+01 7.89199E+00 0.00000E+00
 -1      2915 1.60537E+01 9.19099E+00 0.00000E+00
 -1      2916 1.90912E+01 9.16847E+00 0.00000E+00
 -1      2917 9.09300E+00 1.68813E+01 0.00000E+00
 -1      2918 9.09300E+00 1.83563E+01 0.00000E+00
 -1      2919 1.03920E+01 1.90812E+01 0.00000E+00
 -1      2920 1.03920E+01 1.61437E+01 0.00000E+00
 -1      2921 3.64864E+01 2.81174E+01 0.00000E+00
 -1      2922 3.52230E+01 2.81604E+01 0.00000E+00
 -1      2923 9.09300E+00 3.15875E+01 0.00000E+00
 -1      2924 9.09300E+00 3.30625E+01 0.00000E+00
 -1      2925 2.57802E+01 1.03308E+01 0.00000E+00
 -1      2926 2.62257E+01 9.51053E+00 0.00000E+00
 -1      2927 2.61652E+01 8.46723E+00 0.00000E+00
 -1      2928 2.46524E+01 1.04445E+01 0.00000E+00
 -1      2929 4.42309E+01 2.52820E+01 0.00000E+00
 -1      2930 4.32334E+01 2.63456E+01 0.00000E+00
 -1      2931 3.93104E+01 2.79816E+01 0.00000E+00
 -1      2932 3.80181E+01 2.81073E+01 0.00000E+00
 -1      2933 4.02396E+01 2.88500E+01 0.00000E+00
 -1      2934 2.41118E+01 1.51955E+01 0.00000E+00
 -1      2935 2.41352E+01 1.40102E+01 0.00000E+00
 -1      2936 2.90685E+01 2.62965E+01 0.00000E+00
 -1      2937 2.81321E+01 2.56609E+01 0.00000E+00
 -1      2938 4.58903E+01 2.30324E+01 0.00000E+00
 -1      2939 4.51808E+01 2.40964E+01 0.00000E+00
 -1      2940 2.37688E+01 1.76138E+01 0.00000E+00
 -1      2941 2.39684E+01 1.63202E+01 0.00000E+00
 -1      2942 1.08743E+01 7.88444E+00 0.00000E+00
 -1      2943 9.75375E+00 9.70731E+00 0.00000E+00
 -1      2944 1.10527E+01 1.04448E+01 0.00000E+00
 -1      2945 1.23743E+01 7.88444E+00 0.00000E+00
 -1      2946 9.09300E+00 3.45313E+01 0.00000E+00
 -1      2947 9.09300E+00 3.60000E+01 0.00000E+00
 -1      2948 1.03920E+01 3.37938E+01 0.00000E+00
 -1      2949 1.03920E+01 2.49750E+01 0.00000E+00
 -1      2950 9.09300E+00 2.57000E+01 0.00000E+00
 -1      2951 9.09300E+00 2.71750E+01 0.00000E+00
 -1      2952 4.86101E+01 1.79242E+01 0.00000E+00
 -1      2953 2.75533E+01 6.76755E+00 0.00000E+00
 -1      2954 2.60158E+01 7.04143E+00 0.00000E+00
 -1      2955 2.27749E+01 1.35866E+01 0.00000E+00
 -1      2956 2.36020E+01 1.30100E+01 0.00000E+00
 -1      2957 2.30689E+01 1.20097E+01 0.00000E+00
 -1      2958 3.44905E+01 2.89814E+01 0.00000E+00
 -1      2959 4.85595E+01 1.49888E+01 0.00000E+00
 -1      2960 4.93586E+01 1.56468E+01 0.00000E+00
 -1      2961 4.90896E+01 1.40822E+01 0.00000E+00
 -1      2962 2.92288E+01 2.74148E+01 0.00000E+00
 -1      2963 4.53688E+01 2.52722E+01 0.00000E+00
 -1      2964 4.41607E+01 2.77031E+01 0.00000E+00
 -1      2965 4.29754E+01 2.75910E+01 0.00000E+00
 -1      2966 4.27173E+01 2.88364E+01 0.00000E+00
 -1      2967 4.69759E+01 2.27840E+01 0.00000E+00
 -1      2968 2.48629E+01 2.39908E+01 0.00000E+00
 -1      2969 2.52847E+01 2.27621E+01 0.00000E+00
 -1      2970 1.39608E+02 1.61875E+01 0.00000E+00
 -1      2971 1.40907E+02 1.54500E+01 0.00000E+00
 -1      2972 1.40907E+02 1.39875E+01 0.00000E+00
 -1      2973 1.40421E+02 1.26601E+01 0.00000E+00
 -1      2974 1.40421E+02 1.11976E+01 0.00000E+00
 -1      2975 1.38150E+02 1.07427E+01 0.00000E+00
 -1      2976 1.39122E+02 1.33976E+01 0.00000E+00
 -1      2977 3.17415E+01 2.85194E+01 0.00000E+00
 -1      2978 1.39893E+02 3.74832E+01 0.00000E+00
 -1      2979 2.47975E+01 2.17398E+01 0.00000E+00
 -1      2980 4.80205E+01 1.17808E+01 0.00000E+00
 -1      2981 4.88038E+01 1.23402E+01 0.00000E+00
 -1      2982 4.85339E+01 1.06968E+01 0.00000E+00
 -1      2983 1.31243E+01 9.18344E+00 0.00000E+00
 -1      2984 8.78718E+00 3.80644E+01 0.00000E+00
 -1      2985 4.93893E+01 7.92701E+00 0.00000E+00
 -1      2986 4.90580E+01 9.58708E+00 0.00000E+00
 -1      2987 4.98413E+01 1.01465E+01 0.00000E+00
 -1      2988 5.08893E+01 7.92701E+00 0.00000E+00
 -1      2989 9.09300E+00 2.86437E+01 0.00000E+00
 -1      2990 9.09300E+00 3.01187E+01 0.00000E+00
 -1      2991 1.03920E+01 3.08563E+01 0.00000E+00
 -1      2992 1.03920E+01 2.79188E+01 0.00000E+00
 -1      2993 2.68466E+01 2.58477E+01 0.00000E+00
 -1      2994 2.52594E+01 8.03006E+00 0.00000E+00
 -1      2995 2.34642E+01 1.86551E+01 0.00000E+00
 -1      2996 2.27165E+01 1.78775E+01 0.00000E+00
 -1      2997 2.43744E+01 2.07086E+01 0.00000E+00
 -1      2998 2.38873E+01 1.96863E+01 0.00000E+00
 -1      2999 2.28349E+01 1.99500E+01 0.00000E+00
 -1      3000 2.36811E+01 2.20124E+01 0.00000E+00
 -1      3001 2.45094E+01 9.30654E+00 0.00000E+00
 -1      3002 2.31645E+01 1.57115E+01 0.00000E+00
 -1      3003 5.16393E+01 9.22602E+00 0.00000E+00
 -1      3004 3.74156E+01 2.89859E+01 0.00000E+00
 -1      3005 1.38309E+02 2.86750E+01 0.00000E+00
 -1      3006 1.38309E+02 2.72250E+01 0.00000E+00
 -1      3007 1.16910E+01 1.24625E+01 0.00000E+00
 -1      3008 1.16910E+01 1.39375E+01 0.00000E+00
 -1      3009 1.89000E+01 3.83090E+01 0.00000E+00
 -1      3010 2.04000E+01 3.83090E+01 0.00000E+00
 -1      3011 2.19000E+01 3.83090E+01 0.00000E+00
 -1      3012 2.34000E+01 3.83090E+01 0.00000E+00
 -1      3013 2.11500E+01 3.70100E+01 0.00000E+00
 -1      3014 2.49000E+01 3.83090E+01 0.00000E+00
 -1      3015 2.64000E+01 3.83090E+01 0.00000E+00
 -1      3016 2.41500E+01 3.70100E+01 0.00000E+00
 -1      3017 2.79000E+01 3.83090E+01 0.00000E+00
 -1      3018 2.94000E+01 3.83090E+01 0.00000E+00
 -1      3019 2.71500E+01 3.70100E+01 0.00000E+00
 -1      3020 3.09000E+01 3.83090E+01 0.00000E+00
 -1      3021 3.24000E+01 3.83090E+01 0.00000E+00
 -1      3022 3.01500E+01 3.70100E+01 0.00000E+00
 -1      3023 3.39000E+01 3.83090E+01 0.00000E+00
 -1      3024 3.54000E+01 3.83090E+01 0.00000E+00
 -1      3025 3.31500E+01 3.70100E+01 0.00000E+00
 -1      3026 3.69000E+01 3.83090E+01 0.00000E+00
 -1      3027 3.84000E+01 3.83090E+01 0.00000E+00
 -1      3028 3.61500E+01 3.70100E+01 0.00000E+00
 -1      3029 3.99000E+01 3.83090E+01 0.00000E+00
 -1      3030 4.14000E+01 3.83090E+01 0.00000E+00
 -1      3031 3.91500E+01 3.70100E+01 0.00000E+00
 -1      3032 4.29000E+01 3.83090E+01 0.00000E+00
 -1      3033 4.44000E+01 3.83090E+01 0.00000E+00
 -1      3034 4.21500E+01 3.70100E+01 0.00000E+00
 -1      3035 4.59000E+01 3.83090E+01 0.00000E+00
 -1      3036 4.74000E+01 3.83090E+01 0.00000E+00
 -1      3037 4.51500E+01 3.70100E+01 0.00000E+00
 -1      3038 4.89000E+01 3.83090E+01 0.00000E+00
 -1      3039 5.04000E+01 3.83090E+01 0.00000E+00
 -1      3040 4.81500E+01 3.70100E+01 0.00000E+00
 -1      3041 5.19000E+01 3.83090E+01 0.00000E+00
 -1      3042 5.34000E+01 3.83090E+01 0.00000E+00
 -1      3043 5.11500E+01 3.70100E+01 0.00000E+00
 -1      3044 5.49000E+01 3.83090E+01 0.00000E+00
 -1      3045 5.64000E+01 3.83090E+01 0.00000E+00
 -1      3046 5.41500E+01 3.70100E+01 0.00000E+00
 -1      3047 5.79000E+01 3.83090E+01 0.00000E+00
 -1      3048 5.94000E+01 3.83090E+01 0.00000E+00
 -1      3049 5.71500E+01 3.70100E+01 0.00000E+00
 -1      3050 6.09000E+01 3.83090E+01 0.00000E+00
 -1      3051 6.24000E+01 3.83090E+01 0.00000E+00
 -1      3052 6.01500E+01 3.70100E+01 0.00000E+00
 -1      3053 6.39000E+01 3.83090E+01 0.00000E+00
 -1      3054 6.54000E+01 3.83090E+01 0.00000E+00
 -1      3055 6.31500E+01 3.70100E+01 0.00000E+00
 -1      3056 6.69000E+01 3.83090E+01 0.00000E+00
 -1      3057 6.84000E+01 3.83090E+01 0.00000E+00
 -1      3058 6.61500E+01 3.70100E+01 0.00000E+00
 -1      3059 6.99000E+01 3.83090E+01 0.00000E+00
 -1      3060 7.14000E+01 3.83090E+01 0.00000E+00
 -1      3061 6.91500E+01 3.70100E+01 0.00000E+00
 -1      3062 7.29000E+01 3.83090E+01 0.00000E+00
 -1      3063 7.44000E+01 3.83090E+01 0.00000E+00
 -1      3064 7.21500E+01 3.70100E+01 0.00000E+00
 -1      3065 7.59000E+01 3.83090E+01 0.00000E+00
 -1      3066 7.74000E+01 3.83090E+01 0.00000E+00
 -1      3067 7.51500E+01 3.70100E+01 0.00000E+00
 -1      3068 7.89000E+01 3.83090E+01 0.00000E+00
 -1      3069 8.04000E+01 3.83090E+01 0.00000E+00
 -1      3070 7.81500E+01 3.70100E+01 0.00000E+00
 -1      3071 8.19000E+01 3.83090E+01 0.00000E+00
 -1      3072 8.34000E+01 3.83090E+01 0.00000E+00
 -1      3073 8.11500E+01 3.70100E+01 0.00000E+00
 -1      3074 8.49000E+01 3.83090E+01 0.00000E+00
 -1      3075 8.64000E+01 3.83090E+01 0.00000E+00
 -1      3076 8.41500E+01 3.70100E+01 0.00000E+00
 -1      3077 8.79000E+01 3.83090E+01 0.00000E+00
 -1      3078 8.94000E+01 3.83090E+01 0.00000E+00
 -1      3079 8.71500E+01 3.70100E+01 0.00000E+00
 -1      3080 9.09000E+01 3.83090E+01 0.00000E+00
 -1      3081 9.24000E+01 3.83090E+01 0.00000E+00
 -1      3082 9.01500E+01 3.70100E+01 0.00000E+00
 -1      3083 9.39000E+01 3.83090E+01 0.00000E+00
 -1      3084 9.54000E+01 3.83090E+01 0.00000E+00
 -1      3085 9.31500E+01 3.70100E+01 0.00000E+00
 -1      3086 9.69000E+01 3.83090E+01 0.00000E+00
 -1      3087 9.84000E+01 3.83090E+01 0.00000E+00
 -1      3088 9.61500E+01 3.70100E+01 0.00000E+00
 -1      3089 9.99000E+01 3.83090E+01 0.00000E+00
 -1      3090 1.01400E+02 3.83090E+01 0.00000E+00
 -1      3091 9.91500E+01 3.70100E+01 0.00000E+00
 -1      3092 1.02900E+02 3.83090E+01 0.00000E+00
 -1      3093 1.04400E+02 3.83090E+01 0.00000E+00
 -1      3094 1.02150E+02 3.70100E+01 0.00000E+00
 -1      3095 1.05900E+02 3.83090E+01 0.00000E+00
 -1      3096 1.07400E+02 3.83090E+01 0.00000E+00
 -1      3097 1.05150E+02 3.70100E+01 0.00000E+00
 -1      3098 1.08900E+02 3.83090E+01 0.00000E+00
 -1      3099 1.10400E+02 3.83090E+01 0.00000E+00
 -1      3100 1.08150E+02 3.70100E+01 0.00000E+00
 -1      3101 1.11900E+02 3.83090E+01 0.00000E+00
 -1      3102 1.13400E+02 3.83090E+01 0.00000E+00
 -1      3103 1.11150E+02 3.70100E+01 0.00000E+00
 -1      3104 1.14900E+02 3.83090E+01 0.00000E+00
 -1      3105 1.16400E+02 3.83090E+01 0.00000E+00
 -1      3106 1.14150E+02 3.70100E+01 0.00000E+00
 -1      3107 1.17900E+02 3.83090E+01 0.00000E+00
 -1      3108 1.19400E+02 3.83090E+01 0.00000E+00
 -1      3109 1.17150E+02 3.70100E+01 0.00000E+00
 -1      3110 1.20900E+02 3.83090E+01 0.00000E+00
 -1      3111 1.22400E+02 3.83090E+01 0.00000E+00
 -1      3112 1.20150E+02 3.70100E+01 0.00000E+00
 -1      3113 1.23900E+02 3.83090E+01 0.00000E+00
 -1      3114 1.25400E+02 3.83090E+01 0.00000E+00
 -1      3115 1.23150E+02 3.70100E+01 0.00000E+00
 -1      3116 1.26900E+02 3.83090E+01 0.00000E+00
 -1      3117 1.28400E+02 3.83090E+01 0.00000E+00
 -1      3118 1.26150E+02 3.70100E+01 0.00000E+00
 -1      3119 1.29900E+02 3.83090E+01 0.00000E+00
 -1      3120 1.31400E+02 3.83090E+01 0.00000E+00
 -1      3121 1.29150E+02 3.70100E+01 0.00000E+00
 -1      3122 1.32900E+02 3.83090E+01 0.00000E+00
 -1      3123 1.34400E+02 3.83090E+01 0.00000E+00
 -1      3124 1.32150E+02 3.70100E+01 0.00000E+00
 -1      3125 3.51774E+01 2.99300E+01 0.00000E+00
 -1      3126 3.37840E+01 2.99155E+01 0.00000E+00
 -1      3127 4.95662E+01 1.73737E+01 0.00000E+00
 -1      3128 4.93478E+01 1.87445E+01 0.00000E+00
 -1      3129 6.13134E+01 1.07143E+01 0.00000E+00
 -1      3130 5.98134E+01 1.07143E+01 0.00000E+00
 -1      3131 5.83134E+01 1.07143E+01 0.00000E+00
 -1      3132 5.68134E+01 1.07143E+01 0.00000E+00
 -1      3133 5.90634E+01 1.20133E+01 0.00000E+00
 -1      3134 5.52384E+01 1.07143E+01 0.00000E+00
 -1      3135 5.36634E+01 1.07143E+01 0.00000E+00
 -1      3136 5.59884E+01 1.20133E+01 0.00000E+00
 -1      3137 6.43134E+01 1.07143E+01 0.00000E+00
 -1      3138 6.28134E+01 1.07143E+01 0.00000E+00
 -1      3139 6.20634E+01 1.20133E+01 0.00000E+00
 -1      3140 6.73134E+01 1.07143E+01 0.00000E+00
 -1      3141 6.58134E+01 1.07143E+01 0.00000E+00
 -1      3142 6.50634E+01 1.20133E+01 0.00000E+00
 -1      3143 7.03134E+01 1.07143E+01 0.00000E+00
 -1      3144 6.88134E+01 1.07143E+01 0.00000E+00
 -1      3145 6.80634E+01 1.20133E+01 0.00000E+00
 -1      3146 7.34634E+01 1.07143E+01 0.00000E+00
 -1      3147 7.18884E+01 1.07143E+01 0.00000E+00
 -1      3148 7.11384E+01 1.20133E+01 0.00000E+00
 -1      3149 7.64634E+01 1.07143E+01 0.00000E+00
 -1      3150 7.49634E+01 1.07143E+01 0.00000E+00
 -1      3151 7.42134E+01 1.20133E+01 0.00000E+00
 -1      3152 7.94634E+01 1.07143E+01 0.00000E+00
 -1      3153 7.79634E+01 1.07143E+01 0.00000E+00
 -1      3154 7.72134E+01 1.20133E+01 0.00000E+00
 -1      3155 8.24634E+01 1.07143E+01 0.00000E+00
 -1      3156 8.09634E+01 1.07143E+01 0.00000E+00
 -1      3157 8.02134E+01 1.20133E+01 0.00000E+00
 -1      3158 8.54634E+01 1.07143E+01 0.00000E+00
 -1      3159 8.39634E+01 1.07143E+01 0.00000E+00
 -1      3160 8.32134E+01 1.20133E+01 0.00000E+00
 -1      3161 8.84634E+01 1.07143E+01 0.00000E+00
 -1      3162 8.69634E+01 1.07143E+01 0.00000E+00
 -1      3163 8.62134E+01 1.20133E+01 0.00000E+00
 -1      3164 9.16134E+01 1.07143E+01 0.00000E+00
 -1      3165 9.00384E+01 1.07143E+01 0.00000E+00
 -1      3166 8.92884E+01 1.20133E+01 0.00000E+00
 -1      3167 9.46134E+01 1.07143E+01 0.00000E+00
 -1      3168 9.31134E+01 1.07143E+01 0.00000E+00
 -1      3169 9.23634E+01 1.20133E+01 0.00000E+00
 -1      3170 9.76134E+01 1.07143E+01 0.00000E+00
 -1      3171 9.61134E+01 1.07143E+01 0.00000E+00
 -1      3172 9.53634E+01 1.20133E+01 0.00000E+00
 -1      3173 1.00613E+02 1.07143E+01 0.00000E+00
 -1      3174 9.91134E+01 1.07143E+01 0.00000E+00
 -1      3175 9.83634E+01 1.20133E+01 0.00000E+00
 -1      3176 1.03613E+02 1.07143E+01 0.00000E+00
 -1      3177 1.02113E+02 1.07143E+01 0.00000E+00
 -1      3178 1.01363E+02 1.20133E+01 0.00000E+00
 -1      3179 1.06613E+02 1.07143E+01 0.00000E+00
 -1      3180 1.05113E+02 1.07143E+01 0.00000E+00
 -1      3181 1.04363E+02 1.20133E+01 0.00000E+00
 -1      3182 1.09763E+02 1.07143E+01 0.00000E+00
 -1      3183 1.08188E+02 1.07143E+01 0.00000E+00
 -1      3184 1.07438E+02 1.20133E+01 0.00000E+00
 -1      3185 1.12763E+02 1.07143E+01 0.00000E+00
 -1      3186 1.11263E+02 1.07143E+01 0.00000E+00
 -1      3187 1.10513E+02 1.20133E+01 0.00000E+00
 -1      3188 1.15763E+02 1.07143E+01 0.00000E+00
 -1      3189 1.14263E+02 1.07143E+01 0.00000E+00
 -1      3190 1.13513E+02 1.20133E+01 0.00000E+00
 -1      3191 1.18763E+02 1.07143E+01 0.00000E+00
 -1      3192 1.17263E+02 1.07143E+01 0.00000E+00
 -1      3193 1.16513E+02 1.20133E+01 0.00000E+00
 -1      3194 1.21763E+02 1.07143E+01 0.00000E+00
 -1      3195 1.20263E+02 1.07143E+01 0.00000E+00
 -1      3196 1.19513E+02 1.20133E+01 0.00000E+00
 -1      3197 1.24763E+02 1.07143E+01 0.00000E+00
 -1      3198 1.23263E+02 1.07143E+01 0.00000E+00
 -1      3199 1.22513E+02 1.20133E+01 0.00000E+00
 -1      3200 1.27913E+02 1.07143E+01 0.00000E+00
 -1      3201 1.26338E+02 1.07143E+01 0.00000E+00
 -1      3202 1.25588E+02 1.20133E+01 0.00000E+00
 -1      3203 1.30913E+02 1.07143E+01 0.00000E+00
 -1      3204 1.29413E+02 1.07143E+01 0.00000E+00
 -1      3205 1.28663E+02 1.20133E+01 0.00000E+00
 -1      3206 1.33913E+02 1.07143E+01 0.00000E+00
 -1      3207 1.32413E+02 1.07143E+01 0.00000E+00
 -1      3208 1.31663E+02 1.20133E+01 0.00000E+00
 -1      3209 1.36781E+02 1.07285E+01 0.00000E+00
 -1      3210 1.35281E+02 1.07285E+01 0.00000E+00
 -1      3211 1.34531E+02 1.20275E+01 0.00000E+00
 -1      3212 1.37268E+02 1.20559E+01 0.00000E+00
 -1      3213 2.44421E+01 2.51052E+01 0.00000E+00
 -1      3214 2.36834E+01 2.41580E+01 0.00000E+00
 -1      3215 3.20717E+01 2.97962E+01 0.00000E+00
 -1      3216 3.07162E+01 2.93487E+01 0.00000E+00
 -1      3217 1.38309E+02 2.57500E+01 0.00000E+00
 -1      3218 1.38309E+02 2.42750E+01 0.00000E+00
 -1      3219 1.37010E+02 2.64750E+01 0.00000E+00
 -1      3220 1.38309E+02 3.45625E+01 0.00000E+00
 -1      3221 1.38309E+02 3.30875E+01 0.00000E+00
 -1      3222 2.37530E+01 1.02952E+01 0.00000E+00
 -1      3223 4.82197E+01 2.25945E+01 0.00000E+00
 -1      3224 4.75626E+01 2.38971E+01 0.00000E+00
 -1      3225 4.67745E+01 2.54252E+01 0.00000E+00
 -1      3226 4.58245E+01 2.66108E+01 0.00000E+00
 -1      3227 2.93011E+01 2.86348E+01 0.00000E+00
 -1      3228 2.81440E+01 2.79775E+01 0.00000E+00
 -1      3229 3.82408E+01 2.99098E+01 0.00000E+00
 -1      3230 3.67091E+01 2.99199E+01 0.00000E+00
 -1      3231 3.60025E+01 3.08539E+01 0.00000E+00
 -1      3232 1.00862E+01 3.73269E+01 0.00000E+00
 -1      3233 4.53834E+01 8.52146E+00 0.00000E+00
 -1      3234 1.38758E+02 3.81988E+01 0.00000E+00
 -1      3235 1.38473E+02 3.60156E+01 0.00000E+00
 -1      3236 1.37173E+02 3.52781E+01 0.00000E+00
 -1      3237 1.37501E+02 3.81842E+01 0.00000E+00
 -1      3238 1.38309E+02 3.16187E+01 0.00000E+00
 -1      3239 1.38309E+02 3.01437E+01 0.00000E+00
 -1      3240 1.37010E+02 2.94188E+01 0.00000E+00
 -1      3241 1.37010E+02 3.23563E+01 0.00000E+00
 -1      3242 2.67480E+01 2.72602E+01 0.00000E+00
 -1      3243 2.55230E+01 2.63504E+01 0.00000E+00
 -1      3244 2.16607E+01 1.81339E+01 0.00000E+00
 -1      3245 2.19653E+01 1.70926E+01 0.00000E+00
 -1      3246 4.10012E+01 2.99742E+01 0.00000E+00
 -1      3247 3.97089E+01 3.01000E+01 0.00000E+00
 -1      3248 4.90914E+01 2.01502E+01 0.00000E+00
 -1      3249 4.87120E+01 2.12434E+01 0.00000E+00
 -1      3250 1.59000E+01 3.83090E+01 0.00000E+00
 -1      3251 1.74000E+01 3.83090E+01 0.00000E+00
 -1      3252 1.81500E+01 3.70100E+01 0.00000E+00
 -1      3253 2.21088E+01 1.59679E+01 0.00000E+00
 -1      3254 2.22522E+01 1.48431E+01 0.00000E+00
 -1      3255 2.10530E+01 1.62242E+01 0.00000E+00
 -1      3256 5.23893E+01 1.05250E+01 0.00000E+00
 -1      3257 5.11153E+01 1.03358E+01 0.00000E+00
 -1      3258 5.31393E+01 1.18240E+01 0.00000E+00
 -1      3259 1.27380E+01 1.01829E+01 0.00000E+00
 -1      3260 1.20772E+01 1.14631E+01 0.00000E+00
 -1      3261 1.33763E+01 1.22006E+01 0.00000E+00
 -1      3262 1.41488E+01 1.02017E+01 0.00000E+00
 -1      3263 1.16910E+01 2.12875E+01 0.00000E+00
 -1      3264 1.16910E+01 2.27625E+01 0.00000E+00
 -1      3265 2.26610E+01 1.11524E+01 0.00000E+00
 -1      3266 2.25179E+01 1.00145E+01 0.00000E+00
 -1      3267 2.10179E+01 1.00145E+01 0.00000E+00
 -1      3268 2.18338E+01 1.17290E+01 0.00000E+00
 -1      3269 1.16910E+01 2.42375E+01 0.00000E+00
 -1      3270 1.16910E+01 2.57125E+01 0.00000E+00
 -1      3271 1.29900E+01 2.35000E+01 0.00000E+00
 -1      3272 2.68203E+01 2.84802E+01 0.00000E+00
 -1      3273 2.17191E+01 1.38429E+01 0.00000E+00
 -1      3274 1.29900E+01 1.46687E+01 0.00000E+00
 -1      3275 1.16910E+01 1.54063E+01 0.00000E+00
 -1      3276 1.16910E+01 1.68750E+01 0.00000E+00
 -1      3277 5.00475E+01 1.95997E+01 0.00000E+00
 -1      3278 3.27586E+01 3.07448E+01 0.00000E+00
 -1      3279 1.14286E+01 3.73811E+01 0.00000E+00
 -1      3280 1.36243E+02 3.81696E+01 0.00000E+00
 -1      3281 2.20981E+01 2.08547E+01 0.00000E+00
 -1      3282 2.16750E+01 1.98235E+01 0.00000E+00
 -1      3283 4.55665E+01 2.78561E+01 0.00000E+00
 -1      3284 4.53084E+01 2.91015E+01 0.00000E+00
 -1      3285 4.69722E+01 2.80092E+01 0.00000E+00
 -1      3286 1.38309E+02 1.69188E+01 0.00000E+00
 -1      3287 1.38309E+02 1.54563E+01 0.00000E+00
 -1      3288 1.16910E+01 1.83469E+01 0.00000E+00
 -1      3289 1.16910E+01 1.98156E+01 0.00000E+00
 -1      3290 1.29900E+01 2.05531E+01 0.00000E+00
 -1      3291 1.29900E+01 1.76094E+01 0.00000E+00
 -1      3292 2.43435E+01 2.65176E+01 0.00000E+00
 -1      3293 2.96313E+01 2.99115E+01 0.00000E+00
 -1      3294 1.37010E+02 2.35250E+01 0.00000E+00
 -1      3295 1.38309E+02 2.28000E+01 0.00000E+00
 -1      3296 1.38309E+02 2.13250E+01 0.00000E+00
 -1      3297 1.38309E+02 1.98594E+01 0.00000E+00
 -1      3298 1.38309E+02 1.83844E+01 0.00000E+00
 -1      3299 1.37010E+02 1.76531E+01 0.00000E+00
 -1      3300 1.37010E+02 2.05844E+01 0.00000E+00
 -1      3301 1.45576E+01 3.82548E+01 0.00000E+00
 -1      3302 1.53076E+01 3.69558E+01 0.00000E+00
 -1      3303 1.32152E+01 3.82007E+01 0.00000E+00
 -1      3304 4.92987E+01 2.23565E+01 0.00000E+00
 -1      3305 5.06265E+01 1.55605E+01 0.00000E+00
 -1      3306 5.00963E+01 1.64671E+01 0.00000E+00
 -1      3307 5.08340E+01 1.72874E+01 0.00000E+00
 -1      3308 2.24356E+01 2.43236E+01 0.00000E+00
 -1      3309 2.28564E+01 2.32091E+01 0.00000E+00
 -1      3310 1.16910E+01 3.01219E+01 0.00000E+00
 -1      3311 1.16910E+01 3.15906E+01 0.00000E+00
 -1      3312 2.01870E+01 1.99433E+01 0.00000E+00
 -1      3313 2.09238E+01 1.90386E+01 0.00000E+00
 -1      3314 2.01726E+01 1.82537E+01 0.00000E+00
 -1      3315 4.21866E+01 3.00863E+01 0.00000E+00
 -1      3316 4.16559E+01 3.13363E+01 0.00000E+00
 -1      3317 4.33720E+01 3.01984E+01 0.00000E+00
 -1      3318 1.35493E+02 3.68706E+01 0.00000E+00
 -1      3319 1.94992E+01 1.00257E+01 0.00000E+00
 -1      3320 1.79804E+01 1.00370E+01 0.00000E+00
 -1      3321 1.99071E+01 1.08830E+01 0.00000E+00
 -1      3322 3.90024E+01 3.10340E+01 0.00000E+00
 -1      3323 4.80183E+01 2.52356E+01 0.00000E+00
 -1      3324 2.24333E+01 2.21779E+01 0.00000E+00
 -1      3325 1.68240E+01 1.01137E+01 0.00000E+00
 -1      3326 1.53052E+01 1.01250E+01 0.00000E+00
 -1      3327 1.49190E+01 1.11244E+01 0.00000E+00
 -1      3328 1.72319E+01 1.09710E+01 0.00000E+00
 -1      3329 5.05913E+01 1.14455E+01 0.00000E+00
 -1      3330 1.16910E+01 3.30594E+01 0.00000E+00
 -1      3331 1.16910E+01 3.45281E+01 0.00000E+00
 -1      3332 1.29900E+01 3.23250E+01 0.00000E+00
 -1      3333 4.93416E+01 1.29618E+01 0.00000E+00
 -1      3334 5.01408E+01 1.36198E+01 0.00000E+00
 -1      3335 2.34000E+01 3.57110E+01 0.00000E+00
 -1      3336 2.49000E+01 3.57110E+01 0.00000E+00
 -1      3337 2.64000E+01 3.57110E+01 0.00000E+00
 -1      3338 2.79000E+01 3.57110E+01 0.00000E+00
 -1      3339 2.56500E+01 3.44120E+01 0.00000E+00
 -1      3340 2.94000E+01 3.57110E+01 0.00000E+00
 -1      3341 3.09000E+01 3.57110E+01 0.00000E+00
 -1      3342 2.86500E+01 3.44120E+01 0.00000E+00
 -1      3343 3.24000E+01 3.57110E+01 0.00000E+00
 -1      3344 3.39000E+01 3.57110E+01 0.00000E+00
 -1      3345 3.16500E+01 3.44120E+01 0.00000E+00
 -1      3346 3.54000E+01 3.57110E+01 0.00000E+00
 -1      3347 3.69000E+01 3.57110E+01 0.00000E+00
 -1      3348 3.46500E+01 3.44120E+01 0.00000E+00
 -1      3349 3.84000E+01 3.57110E+01 0.00000E+00
 -1      3350 3.99000E+01 3.57110E+01 0.00000E+00
 -1      3351 3.76500E+01 3.44120E+01 0.00000E+00
 -1      3352 4.14000E+01 3.57110E+01 0.00000E+00
 -1      3353 4.29000E+01 3.57110E+01 0.00000E+00
 -1      3354 4.06500E+01 3.44120E+01 0.00000E+00
 -1      3355 4.44000E+01 3.57110E+01 0.00000E+00
 -1      3356 4.59000E+01 3.57110E+01 0.00000E+00
 -1      3357 4.36500E+01 3.44120E+01 0.00000E+00
 -1      3358 4.74000E+01 3.57110E+01 0.00000E+00
 -1      3359 4.89000E+01 3.57110E+01 0.00000E+00
 -1      3360 4.66500E+01 3.44120E+01 0.00000E+00
 -1      3361 5.04000E+01 3.57110E+01 0.00000E+00
 -1      3362 5.19000E+01 3.57110E+01 0.00000E+00
 -1      3363 4.96500E+01 3.44120E+01 0.00000E+00
 -1      3364 5.34000E+01 3.57110E+01 0.00000E+00
 -1      3365 5.49000E+01 3.57110E+01 0.00000E+00
 -1      3366 5.26500E+01 3.44120E+01 0.00000E+00
 -1      3367 5.64000E+01 3.57110E+01 0.00000E+00
 -1      3368 5.79000E+01 3.57110E+01 0.00000E+00
 -1      3369 5.56500E+01 3.44120E+01 0.00000E+00
 -1      3370 5.94000E+01 3.57110E+01 0.00000E+00
 -1      3371 6.09000E+01 3.57110E+01 0.00000E+00
 -1      3372 5.86500E+01 3.44120E+01 0.00000E+00
 -1      3373 6.24000E+01 3.57110E+01 0.00000E+00
 -1      3374 6.39000E+01 3.57110E+01 0.00000E+00
 -1      3375 6.16500E+01 3.44120E+01 0.00000E+00
 -1      3376 6.54000E+01 3.57110E+01 0.00000E+00
 -1      3377 6.69000E+01 3.57110E+01 0.00000E+00
 -1      3378 6.46500E+01 3.44120E+01 0.00000E+00
 -1      3379 6.84000E+01 3.57110E+01 0.00000E+00
 -1      3380 6.99000E+01 3.57110E+01 0.00000E+00
 -1      3381 6.76500E+01 3.44120E+01 0.00000E+00
 -1      3382 7.14000E+01 3.57110E+01 0.00000E+00
 -1      3383 7.29000E+01 3.57110E+01 0.00000E+00
 -1      3384 7.06500E+01 3.44120E+01 0.00000E+00
 -1      3385 7.44000E+01 3.57110E+01 0.00000E+00
 -1      3386 7.59000E+01 3.57110E+01 0.00000E+00
 -1      3387 7.36500E+01 3.44120E+01 0.00000E+00
 -1      3388 7.74000E+01 3.57110E+01 0.00000E+00
 -1      3389 7.89000E+01 3.57110E+01 0.00000E+00
 -1      3390 7.66500E+01 3.44120E+01 0.00000E+00
 -1      3391 8.04000E+01 3.57110E+01 0.00000E+00
 -1      3392 8.19000E+01 3.57110E+01 0.00000E+00
 -1      3393 7.96500E+01 3.44120E+01 0.00000E+00
 -1      3394 8.34000E+01 3.57110E+01 0.00000E+00
 -1      3395 8.49000E+01 3.57110E+01 0.00000E+00
 -1      3396 8.26500E+01 3.44120E+01 0.00000E+00
 -1      3397 8.64000E+01 3.57110E+01 0.00000E+00
 -1      3398 8.79000E+01 3.57110E+01 0.00000E+00
 -1      3399 8.56500E+01 3.44120E+01 0.00000E+00
 -1      3400 8.94000E+01 3.57110E+01 0.00000E+00
 -1      3401 9.09000E+01 3.57110E+01 0.00000E+00
 -1      3402 8.86500E+01 3.44120E+01 0.00000E+00
 -1      3403 9.24000E+01 3.57110E+01 0.00000E+00
 -1      3404 9.39000E+01 3.57110E+01 0.00000E+00
 -1      3405 9.16500E+01 3.44120E+01 0.00000E+00
 -1      3406 9.54000E+01 3.57110E+01 0.00000E+00
 -1      3407 9.69000E+01 3.57110E+01 0.00000E+00
 -1      3408 9.46500E+01 3.44120E+01 0.00000E+00
 -1      3409 9.84000E+01 3.57110E+01 0.00000E+00
 -1      3410 9.99000E+01 3.57110E+01 0.00000E+00
 -1      3411 9.76500E+01 3.44120E+01 0.00000E+00
 -1      3412 1.01400E+02 3.57110E+01 0.00000E+00
 -1      3413 1.02900E+02 3.57110E+01 0.00000E+00
 -1      3414 1.00650E+02 3.44120E+01 0.00000E+00
 -1      3415 1.04400E+02 3.57110E+01 0.00000E+00
 -1      3416 1.05900E+02 3.57110E+01 0.00000E+00
 -1      3417 1.03650E+02 3.44120E+01 0.00000E+00
 -1      3418 1.07400E+02 3.57110E+01 0.00000E+00
 -1      3419 1.08900E+02 3.57110E+01 0.00000E+00
 -1      3420 1.06650E+02 3.44120E+01 0.00000E+00
 -1      3421 1.10400E+02 3.57110E+01 0.00000E+00
 -1      3422 1.11900E+02 3.57110E+01 0.00000E+00
 -1      3423 1.09650E+02 3.44120E+01 0.00000E+00
 -1      3424 1.13400E+02 3.57110E+01 0.00000E+00
 -1      3425 1.14900E+02 3.57110E+01 0.00000E+00
 -1      3426 1.12650E+02 3.44120E+01 0.00000E+00
 -1      3427 1.16400E+02 3.57110E+01 0.00000E+00
 -1      3428 1.17900E+02 3.57110E+01 0.00000E+00
 -1      3429 1.15650E+02 3.44120E+01 0.00000E+00
 -1      3430 1.19400E+02 3.57110E+01 0.00000E+00
 -1      3431 1.20900E+02 3.57110E+01 0.00000E+00
 -1      3432 1.18650E+02 3.44120E+01 0.00000E+00
 -1      3433 1.22400E+02 3.57110E+01 0.00000E+00
 -1      3434 1.23900E+02 3.57110E+01 0.00000E+00
 -1      3435 1.21650E+02 3.44120E+01 0.00000E+00
 -1      3436 1.25400E+02 3.57110E+01 0.00000E+00
 -1      3437 1.26900E+02 3.57110E+01 0.00000E+00
 -1      3438 1.24650E+02 3.44120E+01 0.00000E+00
 -1      3439 1.28400E+02 3.57110E+01 0.00000E+00
 -1      3440 1.29900E+02 3.57110E+01 0.00000E+00
 -1      3441 1.27650E+02 3.44120E+01 0.00000E+00
 -1      3442 1.31400E+02 3.57110E+01 0.00000E+00
 -1      3443 1.32900E+02 3.57110E+01 0.00000E+00
 -1      3444 1.30650E+02 3.44120E+01 0.00000E+00
 -1      3445 2.12733E+01 2.20515E+01 0.00000E+00
 -1      3446 3.38104E+01 3.26380E+01 0.00000E+00
 -1      3447 3.20982E+01 3.25187E+01 0.00000E+00
 -1      3448 1.45327E+01 1.21239E+01 0.00000E+00
 -1      3449 1.41465E+01 1.31233E+01 0.00000E+00
 -1      3450 1.56892E+01 1.20471E+01 0.00000E+00
 -1      3451 6.28134E+01 1.33123E+01 0.00000E+00
 -1      3452 6.13134E+01 1.33123E+01 0.00000E+00
 -1      3453 5.67759E+01 1.33123E+01 0.00000E+00
 -1      3454 5.52009E+01 1.33123E+01 0.00000E+00
 -1      3455 6.88134E+01 1.33123E+01 0.00000E+00
 -1      3456 6.73134E+01 1.33123E+01 0.00000E+00
 -1      3457 7.19634E+01 1.33123E+01 0.00000E+00
 -1      3458 7.03884E+01 1.33123E+01 0.00000E+00
 -1      3459 6.96384E+01 1.46113E+01 0.00000E+00
 -1      3460 7.49634E+01 1.33123E+01 0.00000E+00
 -1      3461 7.34634E+01 1.33123E+01 0.00000E+00
 -1      3462 7.27134E+01 1.46113E+01 0.00000E+00
 -1      3463 7.79634E+01 1.33123E+01 0.00000E+00
 -1      3464 7.64634E+01 1.33123E+01 0.00000E+00
 -1      3465 7.57134E+01 1.46113E+01 0.00000E+00
 -1      3466 8.09634E+01 1.33123E+01 0.00000E+00
 -1      3467 7.94634E+01 1.33123E+01 0.00000E+00
 -1      3468 7.87134E+01 1.46113E+01 0.00000E+00
 -1      3469 8.39634E+01 1.33123E+01 0.00000E+00
 -1      3470 8.24634E+01 1.33123E+01 0.00000E+00
 -1      3471 8.17134E+01 1.46113E+01 0.00000E+00
 -1      3472 8.69634E+01 1.33123E+01 0.00000E+00
 -1      3473 8.54634E+01 1.33123E+01 0.00000E+00
 -1      3474 8.47134E+01 1.46113E+01 0.00000E+00
 -1      3475 9.01134E+01 1.33123E+01 0.00000E+00
 -1      3476 8.85384E+01 1.33123E+01 0.00000E+00
 -1      3477 8.77884E+01 1.46113E+01 0.00000E+00
 -1      3478 9.31134E+01 1.33123E+01 0.00000E+00
 -1      3479 9.16134E+01 1.33123E+01 0.00000E+00
 -1      3480 9.08634E+01 1.46113E+01 0.00000E+00
 -1      3481 9.61134E+01 1.33123E+01 0.00000E+00
 -1      3482 9.46134E+01 1.33123E+01 0.00000E+00
 -1      3483 9.38634E+01 1.46113E+01 0.00000E+00
 -1      3484 9.91134E+01 1.33123E+01 0.00000E+00
 -1      3485 9.76134E+01 1.33123E+01 0.00000E+00
 -1      3486 9.68634E+01 1.46113E+01 0.00000E+00
 -1      3487 1.02113E+02 1.33123E+01 0.00000E+00
 -1      3488 1.00613E+02 1.33123E+01 0.00000E+00
 -1      3489 9.98634E+01 1.46113E+01 0.00000E+00
 -1      3490 1.05113E+02 1.33123E+01 0.00000E+00
 -1      3491 1.03613E+02 1.33123E+01 0.00000E+00
 -1      3492 1.02863E+02 1.46113E+01 0.00000E+00
 -1      3493 1.08263E+02 1.33123E+01 0.00000E+00
 -1      3494 1.06688E+02 1.33123E+01 0.00000E+00
 -1      3495 1.05938E+02 1.46113E+01 0.00000E+00
 -1      3496 1.11263E+02 1.33123E+01 0.00000E+00
 -1      3497 1.09763E+02 1.33123E+01 0.00000E+00
 -1      3498 1.09013E+02 1.46113E+01 0.00000E+00
 -1      3499 1.14263E+02 1.33123E+01 0.00000E+00
 -1      3500 1.12763E+02 1.33123E+01 0.00000E+00
 -1      3501 1.12013E+02 1.46113E+01 0.00000E+00
 -1      3502 1.17263E+02 1.33123E+01 0.00000E+00
 -1      3503 1.15763E+02 1.33123E+01 0.00000E+00
 -1      3504 1.15013E+02 1.46113E+01 0.00000E+00
 -1      3505 1.20263E+02 1.33123E+01 0.00000E+00
 -1      3506 1.18763E+02 1.33123E+01 0.00000E+00
 -1      3507 1.18013E+02 1.46113E+01 0.00000E+00
 -1      3508 1.23263E+02 1.33123E+01 0.00000E+00
 -1      3509 1.21763E+02 1.33123E+01 0.00000E+00
 -1      3510 1.21013E+02 1.46113E+01 0.00000E+00
 -1      3511 1.26413E+02 1.33123E+01 0.00000E+00
 -1      3512 1.24838E+02 1.33123E+01 0.00000E+00
 -1      3513 1.24088E+02 1.46113E+01 0.00000E+00
 -1      3514 1.29413E+02 1.33123E+01 0.00000E+00
 -1      3515 1.27913E+02 1.33123E+01 0.00000E+00
 -1      3516 1.27163E+02 1.46113E+01 0.00000E+00
 -1      3517 1.32413E+02 1.33123E+01 0.00000E+00
 -1      3518 1.30913E+02 1.33123E+01 0.00000E+00
 -1      3519 1.30163E+02 1.46113E+01 0.00000E+00
 -1      3520 1.21786E+01 3.60821E+01 0.00000E+00
 -1      3521 1.38031E+02 1.44198E+01 0.00000E+00
 -1      3522 1.37545E+02 1.30924E+01 0.00000E+00
 -1      3523 1.36177E+02 1.30782E+01 0.00000E+00
 -1      3524 1.36732E+02 1.51511E+01 0.00000E+00
 -1      3525 1.16910E+01 2.86531E+01 0.00000E+00
 -1      3526 1.29900E+01 2.93875E+01 0.00000E+00
 -1      3527 1.16910E+01 2.71844E+01 0.00000E+00
 -1      3528 2.07885E+01 1.42422E+01 0.00000E+00
 -1      3529 2.13111E+01 1.29856E+01 0.00000E+00
 -1      3530 2.09032E+01 1.21283E+01 0.00000E+00
 -1      3531 2.69732E+01 2.98997E+01 0.00000E+00
 -1      3532 2.55772E+01 2.91823E+01 0.00000E+00
 -1      3533 4.98550E+01 1.18778E+01 0.00000E+00
 -1      3534 3.68421E+01 3.26279E+01 0.00000E+00
 -1      3535 3.53104E+01 3.26380E+01 0.00000E+00
 -1      3536 2.18699E+01 2.56516E+01 0.00000E+00
 -1      3537 2.10428E+01 2.47026E+01 0.00000E+00
 -1      3538 5.11305E+01 1.33197E+01 0.00000E+00
 -1      3539 5.08785E+01 1.44401E+01 0.00000E+00
 -1      3540 5.16162E+01 1.52604E+01 0.00000E+00
 -1      3541 1.35330E+02 3.54175E+01 0.00000E+00
 -1      3542 1.35711E+02 2.72125E+01 0.00000E+00
 -1      3543 1.35711E+02 2.57375E+01 0.00000E+00
 -1      3544 5.05868E+01 2.20606E+01 0.00000E+00
 -1      3545 5.00945E+01 2.34116E+01 0.00000E+00
 -1      3546 5.98134E+01 1.33123E+01 0.00000E+00
 -1      3547 5.83134E+01 1.33123E+01 0.00000E+00
 -1      3548 6.05634E+01 1.46113E+01 0.00000E+00
 -1      3549 4.95669E+01 2.50670E+01 0.00000E+00
 -1      3550 4.87788E+01 2.65951E+01 0.00000E+00
 -1      3551 1.74000E+01 3.57110E+01 0.00000E+00
 -1      3552 1.89000E+01 3.57110E+01 0.00000E+00
 -1      3553 2.00475E+01 1.66675E+01 0.00000E+00
 -1      3554 2.01909E+01 1.55427E+01 0.00000E+00
 -1      3555 2.98393E+01 3.12585E+01 0.00000E+00
 -1      3556 2.84243E+01 3.05445E+01 0.00000E+00
 -1      3557 6.58134E+01 1.33123E+01 0.00000E+00
 -1      3558 6.43134E+01 1.33123E+01 0.00000E+00
 -1      3559 6.65634E+01 1.46113E+01 0.00000E+00
 -1      3560 2.04000E+01 3.57110E+01 0.00000E+00
 -1      3561 2.19000E+01 3.57110E+01 0.00000E+00
 -1      3562 2.26500E+01 3.44120E+01 0.00000E+00
 -1      3563 2.40316E+01 2.81418E+01 0.00000E+00
 -1      3564 2.29507E+01 2.68967E+01 0.00000E+00
 -1      3565 2.15580E+01 2.72757E+01 0.00000E+00
 -1      3566 3.98103E+01 3.28181E+01 0.00000E+00
 -1      3567 3.83421E+01 3.26279E+01 0.00000E+00
 -1      3568 5.12666E+01 1.90959E+01 0.00000E+00
 -1      3569 5.10102E+01 2.05016E+01 0.00000E+00
 -1      3570 2.03660E+01 2.29854E+01 0.00000E+00
 -1      3571 2.00308E+01 2.16622E+01 0.00000E+00
 -1      3572 1.34580E+02 3.41185E+01 0.00000E+00
 -1      3573 1.98003E+01 2.43134E+01 0.00000E+00
 -1      3574 1.41465E+01 1.45920E+01 0.00000E+00
 -1      3575 1.41465E+01 1.60608E+01 0.00000E+00
 -1      3576 1.53029E+01 1.45153E+01 0.00000E+00
 -1      3577 5.17967E+01 1.81893E+01 0.00000E+00
 -1      3578 5.27594E+01 1.90911E+01 0.00000E+00
 -1      3579 5.23268E+01 1.72827E+01 0.00000E+00
 -1      3580 5.11291E+01 1.20671E+01 0.00000E+00
 -1      3581 1.34580E+02 3.26497E+01 0.00000E+00
 -1      3582 1.34580E+02 3.11810E+01 0.00000E+00
 -1      3583 1.32150E+02 3.29432E+01 0.00000E+00
 -1      3584 1.29900E+01 2.64469E+01 0.00000E+00
 -1      3585 4.85208E+01 2.78405E+01 0.00000E+00
 -1      3586 4.82627E+01 2.90859E+01 0.00000E+00
 -1      3587 5.00693E+01 2.76718E+01 0.00000E+00
 -1      3588 1.42890E+01 2.27625E+01 0.00000E+00
 -1      3589 1.42890E+01 2.42375E+01 0.00000E+00
 -1      3590 1.42890E+01 1.98188E+01 0.00000E+00
 -1      3591 1.42890E+01 2.12906E+01 0.00000E+00
 -1      3592 1.55880E+01 2.20281E+01 0.00000E+00
 -1      3593 6.35634E+01 1.46113E+01 0.00000E+00
 -1      3594 5.39283E+01 1.43756E+01 0.00000E+00
 -1      3595 5.31408E+01 1.30766E+01 0.00000E+00
 -1      3596 1.34776E+01 3.53477E+01 0.00000E+00
 -1      3597 5.18668E+01 1.28874E+01 0.00000E+00
 -1      3598 1.34979E+02 1.32023E+01 0.00000E+00
 -1      3599 1.33611E+02 1.31881E+01 0.00000E+00
 -1      3600 1.32861E+02 1.44871E+01 0.00000E+00
 -1      3601 1.35257E+02 1.42388E+01 0.00000E+00
 -1      3602 1.35812E+02 1.63117E+01 0.00000E+00
 -1      3603 1.35535E+02 1.52752E+01 0.00000E+00
 -1      3604 1.34337E+02 1.53994E+01 0.00000E+00
 -1      3605 1.35711E+02 2.42625E+01 0.00000E+00
 -1      3606 1.35711E+02 2.27875E+01 0.00000E+00
 -1      3607 1.34412E+02 2.50000E+01 0.00000E+00
 -1      3608 1.92796E+01 2.08772E+01 0.00000E+00
 -1      3609 1.97830E+01 1.46855E+01 0.00000E+00
 -1      3610 1.35812E+02 1.77773E+01 0.00000E+00
 -1      3611 1.93845E+01 1.21396E+01 0.00000E+00
 -1      3612 1.42890E+01 2.86531E+01 0.00000E+00
 -1      3613 1.42890E+01 3.01219E+01 0.00000E+00
 -1      3614 2.71811E+01 3.12467E+01 0.00000E+00
 -1      3615 5.18059E+01 2.15568E+01 0.00000E+00
 -1      3616 1.93106E+01 1.75722E+01 0.00000E+00
 -1      3617 4.24957E+01 3.29302E+01 0.00000E+00
 -1      3618 4.13103E+01 3.28181E+01 0.00000E+00
 -1      3619 1.55880E+01 3.08563E+01 0.00000E+00
 -1      3620 1.42890E+01 3.15906E+01 0.00000E+00
 -1      3621 1.42890E+01 3.30594E+01 0.00000E+00
 -1      3622 5.75259E+01 1.46113E+01 0.00000E+00
 -1      3623 5.08549E+01 2.47711E+01 0.00000E+00
 -1      3624 3.05982E+01 3.25187E+01 0.00000E+00
 -1      3625 1.96500E+01 3.44120E+01 0.00000E+00
 -1      3626 2.41844E+01 2.95613E+01 0.00000E+00
 -1      3627 1.35145E+02 2.99311E+01 0.00000E+00
 -1      3628 1.35145E+02 2.84624E+01 0.00000E+00
 -1      3629 1.33846E+02 2.77249E+01 0.00000E+00
 -1      3630 1.32715E+02 3.02246E+01 0.00000E+00
 -1      3631 1.89302E+01 2.56483E+01 0.00000E+00
 -1      3632 1.82533E+01 2.39311E+01 0.00000E+00
 -1      3633 6.73134E+01 1.59103E+01 0.00000E+00
 -1      3634 6.58134E+01 1.59103E+01 0.00000E+00
 -1      3635 1.42177E+01 1.72038E+01 0.00000E+00
 -1      3636 1.42177E+01 1.86757E+01 0.00000E+00
 -1      3637 1.55167E+01 1.94132E+01 0.00000E+00
 -1      3638 1.53742E+01 1.71271E+01 0.00000E+00
 -1      3639 1.42890E+01 2.57094E+01 0.00000E+00
 -1      3640 1.42890E+01 2.71812E+01 0.00000E+00
 -1      3641 1.55880E+01 2.79156E+01 0.00000E+00
 -1      3642 1.55880E+01 2.49719E+01 0.00000E+00
 -1      3643 4.39957E+01 3.29302E+01 0.00000E+00
 -1      3644 4.59000E+01 3.31130E+01 0.00000E+00
 -1      3645 4.74000E+01 3.31130E+01 0.00000E+00
 -1      3646 4.89000E+01 3.31130E+01 0.00000E+00
 -1      3647 5.04000E+01 3.31130E+01 0.00000E+00
 -1      3648 4.81500E+01 3.18140E+01 0.00000E+00
 -1      3649 5.19000E+01 3.31130E+01 0.00000E+00
 -1      3650 5.34000E+01 3.31130E+01 0.00000E+00
 -1      3651 5.11500E+01 3.18140E+01 0.00000E+00
 -1      3652 5.49000E+01 3.31130E+01 0.00000E+00
 -1      3653 5.64000E+01 3.31130E+01 0.00000E+00
 -1      3654 5.41500E+01 3.18140E+01 0.00000E+00
 -1      3655 5.79000E+01 3.31130E+01 0.00000E+00
 -1      3656 5.94000E+01 3.31130E+01 0.00000E+00
 -1      3657 5.71500E+01 3.18140E+01 0.00000E+00
 -1      3658 6.09000E+01 3.31130E+01 0.00000E+00
 -1      3659 6.24000E+01 3.31130E+01 0.00000E+00
 -1      3660 6.01500E+01 3.18140E+01 0.00000E+00
 -1      3661 6.39000E+01 3.31130E+01 0.00000E+00
 -1      3662 6.54000E+01 3.31130E+01 0.00000E+00
 -1      3663 6.31500E+01 3.18140E+01 0.00000E+00
 -1      3664 6.69000E+01 3.31130E+01 0.00000E+00
 -1      3665 6.84000E+01 3.31130E+01 0.00000E+00
 -1      3666 6.61500E+01 3.18140E+01 0.00000E+00
 -1      3667 6.99000E+01 3.31130E+01 0.00000E+00
 -1      3668 7.14000E+01 3.31130E+01 0.00000E+00
 -1      3669 6.91500E+01 3.18140E+01 0.00000E+00
 -1      3670 7.29000E+01 3.31130E+01 0.00000E+00
 -1      3671 7.44000E+01 3.31130E+01 0.00000E+00
 -1      3672 7.21500E+01 3.18140E+01 0.00000E+00
 -1      3673 7.59000E+01 3.31130E+01 0.00000E+00
 -1      3674 7.74000E+01 3.31130E+01 0.00000E+00
 -1      3675 7.51500E+01 3.18140E+01 0.00000E+00
 -1      3676 7.89000E+01 3.31130E+01 0.00000E+00
 -1      3677 8.04000E+01 3.31130E+01 0.00000E+00
 -1      3678 7.81500E+01 3.18140E+01 0.00000E+00
 -1      3679 8.19000E+01 3.31130E+01 0.00000E+00
 -1      3680 8.34000E+01 3.31130E+01 0.00000E+00
 -1      3681 8.11500E+01 3.18140E+01 0.00000E+00
 -1      3682 8.49000E+01 3.31130E+01 0.00000E+00
 -1      3683 8.64000E+01 3.31130E+01 0.00000E+00
 -1      3684 8.41500E+01 3.18140E+01 0.00000E+00
 -1      3685 8.79000E+01 3.31130E+01 0.00000E+00
 -1      3686 8.94000E+01 3.31130E+01 0.00000E+00
 -1      3687 8.71500E+01 3.18140E+01 0.00000E+00
 -1      3688 9.09000E+01 3.31130E+01 0.00000E+00
 -1      3689 9.24000E+01 3.31130E+01 0.00000E+00
 -1      3690 9.01500E+01 3.18140E+01 0.00000E+00
 -1      3691 9.39000E+01 3.31130E+01 0.00000E+00
 -1      3692 9.54000E+01 3.31130E+01 0.00000E+00
 -1      3693 9.31500E+01 3.18140E+01 0.00000E+00
 -1      3694 9.69000E+01 3.31130E+01 0.00000E+00
 -1      3695 9.84000E+01 3.31130E+01 0.00000E+00
 -1      3696 9.61500E+01 3.18140E+01 0.00000E+00
 -1      3697 9.99000E+01 3.31130E+01 0.00000E+00
 -1      3698 1.01400E+02 3.31130E+01 0.00000E+00
 -1      3699 9.91500E+01 3.18140E+01 0.00000E+00
 -1      3700 1.02900E+02 3.31130E+01 0.00000E+00
 -1      3701 1.04400E+02 3.31130E+01 0.00000E+00
 -1      3702 1.02150E+02 3.18140E+01 0.00000E+00
 -1      3703 1.05900E+02 3.31130E+01 0.00000E+00
 -1      3704 1.07400E+02 3.31130E+01 0.00000E+00
 -1      3705 1.05150E+02 3.18140E+01 0.00000E+00
 -1      3706 1.08900E+02 3.31130E+01 0.00000E+00
 -1      3707 1.10400E+02 3.31130E+01 0.00000E+00
 -1      3708 1.08150E+02 3.18140E+01 0.00000E+00
 -1      3709 1.11900E+02 3.31130E+01 0.00000E+00
 -1      3710 1.13400E+02 3.31130E+01 0.00000E+00
 -1      3711 1.11150E+02 3.18140E+01 0.00000E+00
 -1      3712 1.14900E+02 3.31130E+01 0.00000E+00
 -1      3713 1.16400E+02 3.31130E+01 0.00000E+00
 -1      3714 1.14150E+02 3.18140E+01 0.00000E+00
 -1      3715 1.17900E+02 3.31130E+01 0.00000E+00
 -1      3716 1.19400E+02 3.31130E+01 0.00000E+00
 -1      3717 1.17150E+02 3.18140E+01 0.00000E+00
 -1      3718 1.20900E+02 3.31130E+01 0.00000E+00
 -1      3719 1.22400E+02 3.31130E+01 0.00000E+00
 -1      3720 1.20150E+02 3.18140E+01 0.00000E+00
 -1      3721 1.23900E+02 3.31130E+01 0.00000E+00
 -1      3722 1.25400E+02 3.31130E+01 0.00000E+00
 -1      3723 1.23150E+02 3.18140E+01 0.00000E+00
 -1      3724 1.26900E+02 3.31130E+01 0.00000E+00
 -1      3725 1.28400E+02 3.31130E+01 0.00000E+00
 -1      3726 1.26150E+02 3.18140E+01 0.00000E+00
 -1      3727 1.29525E+02 3.30281E+01 0.00000E+00
 -1      3728 1.31025E+02 3.30281E+01 0.00000E+00
 -1      3729 1.31025E+02 3.15594E+01 0.00000E+00
 -1      3730 1.28775E+02 3.17291E+01 0.00000E+00
 -1      3731 1.64605E+01 1.22434E+01 0.00000E+00
 -1      3732 1.60743E+01 1.32429E+01 0.00000E+00
 -1      3733 1.60743E+01 1.47116E+01 0.00000E+00
 -1      3734 1.76170E+01 1.21667E+01 0.00000E+00
 -1      3735 4.58822E+01 3.03637E+01 0.00000E+00
 -1      3736 4.44764E+01 3.02107E+01 0.00000E+00
 -1      3737 2.93911E+01 3.31518E+01 0.00000E+00
 -1      3738 1.45545E+01 3.42306E+01 0.00000E+00
 -1      3739 1.50421E+01 3.57846E+01 0.00000E+00
 -1      3740 1.63845E+01 3.58387E+01 0.00000E+00
 -1      3741 1.58535E+01 3.34963E+01 0.00000E+00
 -1      3742 2.19000E+01 3.31130E+01 0.00000E+00
 -1      3743 2.34000E+01 3.31130E+01 0.00000E+00
 -1      3744 7.04634E+01 1.59103E+01 0.00000E+00
 -1      3745 6.88884E+01 1.59103E+01 0.00000E+00
 -1      3746 6.81384E+01 1.72093E+01 0.00000E+00
 -1      3747 7.94634E+01 1.59103E+01 0.00000E+00
 -1      3748 7.79634E+01 1.59103E+01 0.00000E+00
 -1      3749 8.24634E+01 1.59103E+01 0.00000E+00
 -1      3750 8.09634E+01 1.59103E+01 0.00000E+00
 -1      3751 8.02134E+01 1.72093E+01 0.00000E+00
 -1      3752 8.54634E+01 1.59103E+01 0.00000E+00
 -1      3753 8.39634E+01 1.59103E+01 0.00000E+00
 -1      3754 8.32134E+01 1.72093E+01 0.00000E+00
 -1      3755 8.86134E+01 1.59103E+01 0.00000E+00
 -1      3756 8.70384E+01 1.59103E+01 0.00000E+00
 -1      3757 8.62884E+01 1.72093E+01 0.00000E+00
 -1      3758 9.16134E+01 1.59103E+01 0.00000E+00
 -1      3759 9.01134E+01 1.59103E+01 0.00000E+00
 -1      3760 8.93634E+01 1.72093E+01 0.00000E+00
 -1      3761 9.46134E+01 1.59103E+01 0.00000E+00
 -1      3762 9.31134E+01 1.59103E+01 0.00000E+00
 -1      3763 9.23634E+01 1.72093E+01 0.00000E+00
 -1      3764 9.76134E+01 1.59103E+01 0.00000E+00
 -1      3765 9.61134E+01 1.59103E+01 0.00000E+00
 -1      3766 9.53634E+01 1.72093E+01 0.00000E+00
 -1      3767 1.00613E+02 1.59103E+01 0.00000E+00
 -1      3768 9.91134E+01 1.59103E+01 0.00000E+00
 -1      3769 9.83634E+01 1.72093E+01 0.00000E+00
 -1      3770 1.03613E+02 1.59103E+01 0.00000E+00
 -1      3771 1.02113E+02 1.59103E+01 0.00000E+00
 -1      3772 1.01363E+02 1.72093E+01 0.00000E+00
 -1      3773 1.06763E+02 1.59103E+01 0.00000E+00
 -1      3774 1.05188E+02 1.59103E+01 0.00000E+00
 -1      3775 1.04438E+02 1.72093E+01 0.00000E+00
 -1      3776 1.09763E+02 1.59103E+01 0.00000E+00
 -1      3777 1.08263E+02 1.59103E+01 0.00000E+00
 -1      3778 1.07513E+02 1.72093E+01 0.00000E+00
 -1      3779 1.12763E+02 1.59103E+01 0.00000E+00
 -1      3780 1.11263E+02 1.59103E+01 0.00000E+00
 -1      3781 1.10513E+02 1.72093E+01 0.00000E+00
 -1      3782 1.15763E+02 1.59103E+01 0.00000E+00
 -1      3783 1.14263E+02 1.59103E+01 0.00000E+00
 -1      3784 1.13513E+02 1.72093E+01 0.00000E+00
 -1      3785 1.18763E+02 1.59103E+01 0.00000E+00
 -1      3786 1.17263E+02 1.59103E+01 0.00000E+00
 -1      3787 1.16513E+02 1.72093E+01 0.00000E+00
 -1      3788 1.21763E+02 1.59103E+01 0.00000E+00
 -1      3789 1.20263E+02 1.59103E+01 0.00000E+00
 -1      3790 1.19513E+02 1.72093E+01 0.00000E+00
 -1      3791 1.24913E+02 1.59103E+01 0.00000E+00
 -1      3792 1.23338E+02 1.59103E+01 0.00000E+00
 -1      3793 1.22588E+02 1.72093E+01 0.00000E+00
 -1      3794 1.27913E+02 1.59103E+01 0.00000E+00
 -1      3795 1.26413E+02 1.59103E+01 0.00000E+00
 -1      3796 1.25663E+02 1.72093E+01 0.00000E+00
 -1      3797 1.30913E+02 1.59103E+01 0.00000E+00
 -1      3798 1.29413E+02 1.59103E+01 0.00000E+00
 -1      3799 1.28663E+02 1.72093E+01 0.00000E+00
 -1      3800 1.86131E+01 1.34120E+01 0.00000E+00
 -1      3801 1.71345E+01 3.45397E+01 0.00000E+00
 -1      3802 1.35711E+02 2.13219E+01 0.00000E+00
 -1      3803 1.35711E+02 1.98563E+01 0.00000E+00
 -1      3804 1.34412E+02 2.20594E+01 0.00000E+00
 -1      3805 1.80155E+01 1.47126E+01 0.00000E+00
 -1      3806 5.32536E+01 1.52689E+01 0.00000E+00
 -1      3807 5.30016E+01 1.63893E+01 0.00000E+00
 -1      3808 5.39642E+01 1.72912E+01 0.00000E+00
 -1      3809 5.53137E+01 1.55046E+01 0.00000E+00
 -1      3810 4.39458E+01 3.14607E+01 0.00000E+00
 -1      3811 6.13134E+01 1.59103E+01 0.00000E+00
 -1      3812 5.98134E+01 1.59103E+01 0.00000E+00
 -1      3813 7.64634E+01 1.59103E+01 0.00000E+00
 -1      3814 7.49634E+01 1.59103E+01 0.00000E+00
 -1      3815 7.72134E+01 1.72093E+01 0.00000E+00
 -1      3816 7.34634E+01 1.59103E+01 0.00000E+00
 -1      3817 7.19634E+01 1.59103E+01 0.00000E+00
 -1      3818 7.12134E+01 1.72093E+01 0.00000E+00
 -1      3819 5.23349E+01 2.43311E+01 0.00000E+00
 -1      3820 5.18074E+01 2.59864E+01 0.00000E+00
 -1      3821 5.82759E+01 1.59103E+01 0.00000E+00
 -1      3822 5.67384E+01 1.59103E+01 0.00000E+00
 -1      3823 5.90259E+01 1.72093E+01 0.00000E+00
 -1      3824 1.34513E+02 1.85148E+01 0.00000E+00
 -1      3825 5.31817E+01 2.12130E+01 0.00000E+00
 -1      3826 5.27583E+01 2.27720E+01 0.00000E+00
 -1      3827 5.37107E+01 2.39873E+01 0.00000E+00
 -1      3828 1.89000E+01 3.31130E+01 0.00000E+00
 -1      3829 2.04000E+01 3.31130E+01 0.00000E+00
 -1      3830 2.11500E+01 3.18140E+01 0.00000E+00
 -1      3831 2.41900E+01 3.12079E+01 0.00000E+00
 -1      3832 2.26444E+01 3.01674E+01 0.00000E+00
 -1      3833 1.73557E+01 2.15762E+01 0.00000E+00
 -1      3834 1.75119E+01 1.98573E+01 0.00000E+00
 -1      3835 6.43134E+01 1.59103E+01 0.00000E+00
 -1      3836 6.28134E+01 1.59103E+01 0.00000E+00
 -1      3837 6.20634E+01 1.72093E+01 0.00000E+00
 -1      3838 6.50634E+01 1.72093E+01 0.00000E+00
 -1      3839 2.11174E+01 2.87498E+01 0.00000E+00
 -1      3840 2.00366E+01 2.75047E+01 0.00000E+00
 -1      3841 4.66821E+01 3.05343E+01 0.00000E+00
 -1      3842 4.58501E+01 3.16435E+01 0.00000E+00
 -1      3843 1.68690E+01 3.33685E+01 0.00000E+00
 -1      3844 1.78845E+01 3.32407E+01 0.00000E+00
 -1      3845 1.86345E+01 3.19417E+01 0.00000E+00
 -1      3846 1.66035E+01 3.21973E+01 0.00000E+00
 -1      3847 2.78911E+01 3.31518E+01 0.00000E+00
 -1      3848 2.64400E+01 3.25069E+01 0.00000E+00
 -1      3849 2.49400E+01 3.25069E+01 0.00000E+00
 -1      3850 5.15493E+01 2.72318E+01 0.00000E+00
 -1      3851 5.12912E+01 2.84772E+01 0.00000E+00
 -1      3852 5.30293E+01 2.67917E+01 0.00000E+00
 -1      3853 1.84896E+01 2.71224E+01 0.00000E+00
 -1      3854 4.51001E+01 3.29425E+01 0.00000E+00
 -1      3855 1.32380E+02 2.78143E+01 0.00000E+00
 -1      3856 1.32946E+02 2.65645E+01 0.00000E+00
 -1      3857 1.64856E+01 2.43830E+01 0.00000E+00
 -1      3858 1.64856E+01 2.58549E+01 0.00000E+00
 -1      3859 5.42420E+01 1.93998E+01 0.00000E+00
 -1      3860 5.37118E+01 2.03064E+01 0.00000E+00
 -1      3861 5.46643E+01 2.15217E+01 0.00000E+00
 -1      3862 1.33139E+02 1.55236E+01 0.00000E+00
 -1      3863 1.31479E+02 2.51789E+01 0.00000E+00
 -1      3864 1.32946E+02 2.50895E+01 0.00000E+00
 -1      3865 1.32946E+02 2.36145E+01 0.00000E+00
 -1      3866 1.32389E+02 1.68226E+01 0.00000E+00
 -1      3867 1.72442E+01 1.59850E+01 0.00000E+00
 -1      3868 4.97306E+01 3.03656E+01 0.00000E+00
 -1      3869 4.81821E+01 3.05343E+01 0.00000E+00
 -1      3870 1.32288E+02 1.89015E+01 0.00000E+00
 -1      3871 1.73557E+01 2.30481E+01 0.00000E+00
 -1      3872 5.60637E+01 1.68036E+01 0.00000E+00
 -1      3873 1.66035E+01 3.07285E+01 0.00000E+00
 -1      3874 2.11230E+01 3.03964E+01 0.00000E+00
 -1      3875 7.42134E+01 1.72093E+01 0.00000E+00
 -1      3876 1.75920E+01 2.91832E+01 0.00000E+00
 -1      3877 1.86075E+01 3.05242E+01 0.00000E+00
 -1      3878 1.73694E+01 1.75712E+01 0.00000E+00
 -1      3879 7.79634E+01 1.85083E+01 0.00000E+00
 -1      3880 7.64634E+01 1.85083E+01 0.00000E+00
 -1      3881 1.31815E+02 2.90642E+01 0.00000E+00
 -1      3882 1.30914E+02 2.79038E+01 0.00000E+00
 -1      3883 1.31249E+02 3.03141E+01 0.00000E+00
 -1      3884 5.12306E+01 3.03656E+01 0.00000E+00
 -1      3885 5.34000E+01 3.05150E+01 0.00000E+00
 -1      3886 5.49000E+01 3.05150E+01 0.00000E+00
 -1      3887 5.64000E+01 3.05150E+01 0.00000E+00
 -1      3888 5.79000E+01 3.05150E+01 0.00000E+00
 -1      3889 5.56500E+01 2.92160E+01 0.00000E+00
 -1      3890 5.94000E+01 3.05150E+01 0.00000E+00
 -1      3891 6.09000E+01 3.05150E+01 0.00000E+00
 -1      3892 5.86500E+01 2.92160E+01 0.00000E+00
 -1      3893 6.24000E+01 3.05150E+01 0.00000E+00
 -1      3894 6.39000E+01 3.05150E+01 0.00000E+00
 -1      3895 6.16500E+01 2.92160E+01 0.00000E+00
 -1      3896 6.54000E+01 3.05150E+01 0.00000E+00
 -1      3897 6.69000E+01 3.05150E+01 0.00000E+00
 -1      3898 6.46500E+01 2.92160E+01 0.00000E+00
 -1      3899 6.84000E+01 3.05150E+01 0.00000E+00
 -1      3900 6.99000E+01 3.05150E+01 0.00000E+00
 -1      3901 6.76500E+01 2.92160E+01 0.00000E+00
 -1      3902 7.14000E+01 3.05150E+01 0.00000E+00
 -1      3903 7.29000E+01 3.05150E+01 0.00000E+00
 -1      3904 7.06500E+01 2.92160E+01 0.00000E+00
 -1      3905 7.44000E+01 3.05150E+01 0.00000E+00
 -1      3906 7.59000E+01 3.05150E+01 0.00000E+00
 -1      3907 7.36500E+01 2.92160E+01 0.00000E+00
 -1      3908 7.74000E+01 3.05150E+01 0.00000E+00
 -1      3909 7.89000E+01 3.05150E+01 0.00000E+00
 -1      3910 7.66500E+01 2.92160E+01 0.00000E+00
 -1      3911 8.04000E+01 3.05150E+01 0.00000E+00
 -1      3912 8.19000E+01 3.05150E+01 0.00000E+00
 -1      3913 7.96500E+01 2.92160E+01 0.00000E+00
 -1      3914 8.34000E+01 3.05150E+01 0.00000E+00
 -1      3915 8.49000E+01 3.05150E+01 0.00000E+00
 -1      3916 8.26500E+01 2.92160E+01 0.00000E+00
 -1      3917 8.64000E+01 3.05150E+01 0.00000E+00
 -1      3918 8.79000E+01 3.05150E+01 0.00000E+00
 -1      3919 8.56500E+01 2.92160E+01 0.00000E+00
 -1      3920 8.94000E+01 3.05150E+01 0.00000E+00
 -1      3921 9.09000E+01 3.05150E+01 0.00000E+00
 -1      3922 8.86500E+01 2.92160E+01 0.00000E+00
 -1      3923 9.24000E+01 3.05150E+01 0.00000E+00
 -1      3924 9.39000E+01 3.05150E+01 0.00000E+00
 -1      3925 9.16500E+01 2.92160E+01 0.00000E+00
 -1      3926 9.54000E+01 3.05150E+01 0.00000E+00
 -1      3927 9.69000E+01 3.05150E+01 0.00000E+00
 -1      3928 9.46500E+01 2.92160E+01 0.00000E+00
 -1      3929 9.84000E+01 3.05150E+01 0.00000E+00
 -1      3930 9.99000E+01 3.05150E+01 0.00000E+00
 -1      3931 9.76500E+01 2.92160E+01 0.00000E+00
 -1      3932 1.01400E+02 3.05150E+01 0.00000E+00
 -1      3933 1.02900E+02 3.05150E+01 0.00000E+00
 -1      3934 1.00650E+02 2.92160E+01 0.00000E+00
 -1      3935 1.04400E+02 3.05150E+01 0.00000E+00
 -1      3936 1.05900E+02 3.05150E+01 0.00000E+00
 -1      3937 1.03650E+02 2.92160E+01 0.00000E+00
 -1      3938 1.07400E+02 3.05150E+01 0.00000E+00
 -1      3939 1.08900E+02 3.05150E+01 0.00000E+00
 -1      3940 1.06650E+02 2.92160E+01 0.00000E+00
 -1      3941 1.10400E+02 3.05150E+01 0.00000E+00
 -1      3942 1.11900E+02 3.05150E+01 0.00000E+00
 -1      3943 1.09650E+02 2.92160E+01 0.00000E+00
 -1      3944 1.13400E+02 3.05150E+01 0.00000E+00
 -1      3945 1.14900E+02 3.05150E+01 0.00000E+00
 -1      3946 1.12650E+02 2.92160E+01 0.00000E+00
 -1      3947 1.16400E+02 3.05150E+01 0.00000E+00
 -1      3948 1.17900E+02 3.05150E+01 0.00000E+00
 -1      3949 1.15650E+02 2.92160E+01 0.00000E+00
 -1      3950 1.19400E+02 3.05150E+01 0.00000E+00
 -1      3951 1.20900E+02 3.05150E+01 0.00000E+00
 -1      3952 1.18650E+02 2.92160E+01 0.00000E+00
 -1      3953 1.22400E+02 3.05150E+01 0.00000E+00
 -1      3954 1.23900E+02 3.05150E+01 0.00000E+00
 -1      3955 1.21650E+02 2.92160E+01 0.00000E+00
 -1      3956 1.25400E+02 3.05150E+01 0.00000E+00
 -1      3957 1.26900E+02 3.05150E+01 0.00000E+00
 -1      3958 1.24650E+02 2.92160E+01 0.00000E+00
 -1      3959 8.70759E+01 1.85083E+01 0.00000E+00
 -1      3960 8.55009E+01 1.85083E+01 0.00000E+00
 -1      3961 6.89259E+01 1.85083E+01 0.00000E+00
 -1      3962 6.73509E+01 1.85083E+01 0.00000E+00
 -1      3963 8.40009E+01 1.85083E+01 0.00000E+00
 -1      3964 8.25009E+01 1.85083E+01 0.00000E+00
 -1      3965 8.47884E+01 1.98073E+01 0.00000E+00
 -1      3966 8.09634E+01 1.85083E+01 0.00000E+00
 -1      3967 7.94634E+01 1.85083E+01 0.00000E+00
 -1      3968 7.87134E+01 1.98073E+01 0.00000E+00
 -1      3969 9.00759E+01 1.85083E+01 0.00000E+00
 -1      3970 8.85759E+01 1.85083E+01 0.00000E+00
 -1      3971 8.77884E+01 1.98073E+01 0.00000E+00
 -1      3972 9.30759E+01 1.85083E+01 0.00000E+00
 -1      3973 9.15759E+01 1.85083E+01 0.00000E+00
 -1      3974 9.07884E+01 1.98073E+01 0.00000E+00
 -1      3975 9.60759E+01 1.85083E+01 0.00000E+00
 -1      3976 9.45759E+01 1.85083E+01 0.00000E+00
 -1      3977 9.37884E+01 1.98073E+01 0.00000E+00
 -1      3978 9.90759E+01 1.85083E+01 0.00000E+00
 -1      3979 9.75759E+01 1.85083E+01 0.00000E+00
 -1      3980 9.67884E+01 1.98073E+01 0.00000E+00
 -1      3981 1.02076E+02 1.85083E+01 0.00000E+00
 -1      3982 1.00576E+02 1.85083E+01 0.00000E+00
 -1      3983 9.97884E+01 1.98073E+01 0.00000E+00
 -1      3984 1.05226E+02 1.85083E+01 0.00000E+00
 -1      3985 1.03651E+02 1.85083E+01 0.00000E+00
 -1      3986 1.02863E+02 1.98073E+01 0.00000E+00
 -1      3987 1.08226E+02 1.85083E+01 0.00000E+00
 -1      3988 1.06726E+02 1.85083E+01 0.00000E+00
 -1      3989 1.05938E+02 1.98073E+01 0.00000E+00
 -1      3990 1.11226E+02 1.85083E+01 0.00000E+00
 -1      3991 1.09726E+02 1.85083E+01 0.00000E+00
 -1      3992 1.08938E+02 1.98073E+01 0.00000E+00
 -1      3993 1.14226E+02 1.85083E+01 0.00000E+00
 -1      3994 1.12726E+02 1.85083E+01 0.00000E+00
 -1      3995 1.11938E+02 1.98073E+01 0.00000E+00
 -1      3996 1.17226E+02 1.85083E+01 0.00000E+00
 -1      3997 1.15726E+02 1.85083E+01 0.00000E+00
 -1      3998 1.14938E+02 1.98073E+01 0.00000E+00
 -1      3999 1.20226E+02 1.85083E+01 0.00000E+00
 -1      4000 1.18726E+02 1.85083E+01 0.00000E+00
 -1      4001 1.17938E+02 1.98073E+01 0.00000E+00
 -1      4002 1.23376E+02 1.85083E+01 0.00000E+00
 -1      4003 1.21801E+02 1.85083E+01 0.00000E+00
 -1      4004 1.21013E+02 1.98073E+01 0.00000E+00
 -1      4005 1.26376E+02 1.85083E+01 0.00000E+00
 -1      4006 1.24876E+02 1.85083E+01 0.00000E+00
 -1      4007 1.24088E+02 1.98073E+01 0.00000E+00
 -1      4008 1.29376E+02 1.85083E+01 0.00000E+00
 -1      4009 1.27876E+02 1.85083E+01 0.00000E+00
 -1      4010 1.27088E+02 1.98073E+01 0.00000E+00
 -1      4011 5.54902E+01 1.76550E+01 0.00000E+00
 -1      4012 5.48155E+01 1.85483E+01 0.00000E+00
 -1      4013 5.57679E+01 1.97636E+01 0.00000E+00
 -1      4014 5.69149E+01 1.80607E+01 0.00000E+00
 -1      4015 1.32946E+02 2.21488E+01 0.00000E+00
 -1      4016 1.64856E+01 2.73268E+01 0.00000E+00
 -1      4017 5.99899E+01 1.80607E+01 0.00000E+00
 -1      4018 5.84524E+01 1.80607E+01 0.00000E+00
 -1      4019 5.78789E+01 1.89122E+01 0.00000E+00
 -1      4020 5.51760E+01 2.35482E+01 0.00000E+00
 -1      4021 5.47526E+01 2.51073E+01 0.00000E+00
 -1      4022 7.49634E+01 1.85083E+01 0.00000E+00
 -1      4023 7.34634E+01 1.85083E+01 0.00000E+00
 -1      4024 7.57134E+01 1.98073E+01 0.00000E+00
 -1      4025 1.74406E+01 1.87143E+01 0.00000E+00
 -1      4026 7.19634E+01 1.85083E+01 0.00000E+00
 -1      4027 7.04634E+01 1.85083E+01 0.00000E+00
 -1      4028 7.27134E+01 1.98073E+01 0.00000E+00
 -1      4029 1.96230E+01 3.03964E+01 0.00000E+00
 -1      4030 1.29448E+02 2.79933E+01 0.00000E+00
 -1      4031 1.30013E+02 2.67434E+01 0.00000E+00
 -1      4032 6.96759E+01 1.98073E+01 0.00000E+00
 -1      4033 1.30124E+02 3.03990E+01 0.00000E+00
 -1      4034 1.27950E+02 3.04994E+01 0.00000E+00
 -1      4035 1.29075E+02 3.04145E+01 0.00000E+00
 -1      4036 1.29299E+02 2.91693E+01 0.00000E+00
 -1      4037 1.27200E+02 2.92004E+01 0.00000E+00
 -1      4038 6.66384E+01 1.98073E+01 0.00000E+00
 -1      4039 6.58509E+01 1.85083E+01 0.00000E+00
 -1      4040 6.43509E+01 1.85083E+01 0.00000E+00
 -1      4041 5.62363E+01 2.17350E+01 0.00000E+00
 -1      4042 5.57062E+01 2.26416E+01 0.00000E+00
 -1      4043 5.67481E+01 2.37616E+01 0.00000E+00
 -1      4044 1.30013E+02 2.52684E+01 0.00000E+00
 -1      4045 1.30013E+02 2.37934E+01 0.00000E+00
 -1      4046 1.28547E+02 2.53579E+01 0.00000E+00
 -1      4047 8.17509E+01 1.98073E+01 0.00000E+00
 -1      4048 5.66840E+01 2.69421E+01 0.00000E+00
 -1      4049 5.52187E+01 2.73812E+01 0.00000E+00
 -1      4050 1.32540E+02 2.07637E+01 0.00000E+00
 -1      4051 1.30416E+02 1.90714E+01 0.00000E+00
 -1      4052 1.31074E+02 2.23188E+01 0.00000E+00
 -1      4053 1.29629E+02 2.03704E+01 0.00000E+00
 -1      4054 6.28509E+01 1.85083E+01 0.00000E+00
 -1      4055 6.13509E+01 1.85083E+01 0.00000E+00
 -1      4056 6.36384E+01 1.98073E+01 0.00000E+00
 -1      4057 5.27106E+01 2.99256E+01 0.00000E+00
 -1      4058 6.07774E+01 1.93597E+01 0.00000E+00
 -1      4059 1.28398E+02 2.80089E+01 0.00000E+00
 -1      4060 7.04446E+01 2.11063E+01 0.00000E+00
 -1      4061 6.89071E+01 2.11063E+01 0.00000E+00
 -1      4062 5.34606E+01 2.86266E+01 0.00000E+00
 -1      4063 7.94634E+01 2.11063E+01 0.00000E+00
 -1      4064 7.79634E+01 2.11063E+01 0.00000E+00
 -1      4065 6.09000E+01 2.79170E+01 0.00000E+00
 -1      4066 6.24000E+01 2.79170E+01 0.00000E+00
 -1      4067 6.39000E+01 2.79170E+01 0.00000E+00
 -1      4068 6.54000E+01 2.79170E+01 0.00000E+00
 -1      4069 6.31500E+01 2.66180E+01 0.00000E+00
 -1      4070 6.69000E+01 2.79170E+01 0.00000E+00
 -1      4071 6.84000E+01 2.79170E+01 0.00000E+00
 -1      4072 6.61500E+01 2.66180E+01 0.00000E+00
 -1      4073 6.99000E+01 2.79170E+01 0.00000E+00
 -1      4074 7.14000E+01 2.79170E+01 0.00000E+00
 -1      4075 6.91500E+01 2.66180E+01 0.00000E+00
 -1      4076 7.29000E+01 2.79170E+01 0.00000E+00
 -1      4077 7.44000E+01 2.79170E+01 0.00000E+00
 -1      4078 7.21500E+01 2.66180E+01 0.00000E+00
 -1      4079 7.59000E+01 2.79170E+01 0.00000E+00
 -1      4080 7.74000E+01 2.79170E+01 0.00000E+00
 -1      4081 7.51500E+01 2.66180E+01 0.00000E+00
 -1      4082 7.89000E+01 2.79170E+01 0.00000E+00
 -1      4083 8.04000E+01 2.79170E+01 0.00000E+00
 -1      4084 7.81500E+01 2.66180E+01 0.00000E+00
 -1      4085 8.19000E+01 2.79170E+01 0.00000E+00
 -1      4086 8.34000E+01 2.79170E+01 0.00000E+00
 -1      4087 8.11500E+01 2.66180E+01 0.00000E+00
 -1      4088 8.49000E+01 2.79170E+01 0.00000E+00
 -1      4089 8.64000E+01 2.79170E+01 0.00000E+00
 -1      4090 8.41500E+01 2.66180E+01 0.00000E+00
 -1      4091 8.79000E+01 2.79170E+01 0.00000E+00
 -1      4092 8.94000E+01 2.79170E+01 0.00000E+00
 -1      4093 8.71500E+01 2.66180E+01 0.00000E+00
 -1      4094 9.09000E+01 2.79170E+01 0.00000E+00
 -1      4095 9.24000E+01 2.79170E+01 0.00000E+00
 -1      4096 9.01500E+01 2.66180E+01 0.00000E+00
 -1      4097 9.39000E+01 2.79170E+01 0.00000E+00
 -1      4098 9.54000E+01 2.79170E+01 0.00000E+00
 -1      4099 9.31500E+01 2.66180E+01 0.00000E+00
 -1      4100 9.69000E+01 2.79170E+01 0.00000E+00
 -1      4101 9.84000E+01 2.79170E+01 0.00000E+00
 -1      4102 9.61500E+01 2.66180E+01 0.00000E+00
 -1      4103 9.99000E+01 2.79170E+01 0.00000E+00
 -1      4104 1.01400E+02 2.79170E+01 0.00000E+00
 -1      4105 9.91500E+01 2.66180E+01 0.00000E+00
 -1      4106 1.02900E+02 2.79170E+01 0.00000E+00
 -1      4107 1.04400E+02 2.79170E+01 0.00000E+00
 -1      4108 1.02150E+02 2.66180E+01 0.00000E+00
 -1      4109 1.05900E+02 2.79170E+01 0.00000E+00
 -1      4110 1.07400E+02 2.79170E+01 0.00000E+00
 -1      4111 1.05150E+02 2.66180E+01 0.00000E+00
 -1      4112 1.08900E+02 2.79170E+01 0.00000E+00
 -1      4113 1.10400E+02 2.79170E+01 0.00000E+00
 -1      4114 1.08150E+02 2.66180E+01 0.00000E+00
 -1      4115 1.11900E+02 2.79170E+01 0.00000E+00
 -1      4116 1.13400E+02 2.79170E+01 0.00000E+00
 -1      4117 1.11150E+02 2.66180E+01 0.00000E+00
 -1      4118 1.14900E+02 2.79170E+01 0.00000E+00
 -1      4119 1.16400E+02 2.79170E+01 0.00000E+00
 -1      4120 1.14150E+02 2.66180E+01 0.00000E+00
 -1      4121 1.17900E+02 2.79170E+01 0.00000E+00
 -1      4122 1.19400E+02 2.79170E+01 0.00000E+00
 -1      4123 1.17150E+02 2.66180E+01 0.00000E+00
 -1      4124 1.20900E+02 2.79170E+01 0.00000E+00
 -1      4125 1.22400E+02 2.79170E+01 0.00000E+00
 -1      4126 1.20150E+02 2.66180E+01 0.00000E+00
 -1      4127 1.23900E+02 2.79170E+01 0.00000E+00
 -1      4128 1.25400E+02 2.79170E+01 0.00000E+00
 -1      4129 1.23150E+02 2.66180E+01 0.00000E+00
 -1      4130 9.15384E+01 2.11063E+01 0.00000E+00
 -1      4131 9.00384E+01 2.11063E+01 0.00000E+00
 -1      4132 8.55384E+01 2.11063E+01 0.00000E+00
 -1      4133 8.40384E+01 2.11063E+01 0.00000E+00
 -1      4134 5.88429E+01 1.97636E+01 0.00000E+00
 -1      4135 5.73054E+01 1.97636E+01 0.00000E+00
 -1      4136 5.67319E+01 2.06151E+01 0.00000E+00
 -1      4137 5.74660E+01 2.53518E+01 0.00000E+00
 -1      4138 5.79320E+01 2.76257E+01 0.00000E+00
 -1      4139 5.94320E+01 2.76257E+01 0.00000E+00
 -1      4140 5.79961E+01 2.44452E+01 0.00000E+00
 -1      4141 9.45384E+01 2.11063E+01 0.00000E+00
 -1      4142 9.30384E+01 2.11063E+01 0.00000E+00
 -1      4143 9.22884E+01 2.24053E+01 0.00000E+00
 -1      4144 9.75384E+01 2.11063E+01 0.00000E+00
 -1      4145 9.60384E+01 2.11063E+01 0.00000E+00
 -1      4146 9.52884E+01 2.24053E+01 0.00000E+00
 -1      4147 1.00538E+02 2.11063E+01 0.00000E+00
 -1      4148 9.90384E+01 2.11063E+01 0.00000E+00
 -1      4149 9.82884E+01 2.24053E+01 0.00000E+00
 -1      4150 1.03688E+02 2.11063E+01 0.00000E+00
 -1      4151 1.02113E+02 2.11063E+01 0.00000E+00
 -1      4152 1.01363E+02 2.24053E+01 0.00000E+00
 -1      4153 1.06688E+02 2.11063E+01 0.00000E+00
 -1      4154 1.05188E+02 2.11063E+01 0.00000E+00
 -1      4155 1.04438E+02 2.24053E+01 0.00000E+00
 -1      4156 1.09688E+02 2.11063E+01 0.00000E+00
 -1      4157 1.08188E+02 2.11063E+01 0.00000E+00
 -1      4158 1.07438E+02 2.24053E+01 0.00000E+00
 -1      4159 1.12688E+02 2.11063E+01 0.00000E+00
 -1      4160 1.11188E+02 2.11063E+01 0.00000E+00
 -1      4161 1.10438E+02 2.24053E+01 0.00000E+00
 -1      4162 1.15688E+02 2.11063E+01 0.00000E+00
 -1      4163 1.14188E+02 2.11063E+01 0.00000E+00
 -1      4164 1.13438E+02 2.24053E+01 0.00000E+00
 -1      4165 1.18688E+02 2.11063E+01 0.00000E+00
 -1      4166 1.17188E+02 2.11063E+01 0.00000E+00
 -1      4167 1.16438E+02 2.24053E+01 0.00000E+00
 -1      4168 1.21838E+02 2.11063E+01 0.00000E+00
 -1      4169 1.20263E+02 2.11063E+01 0.00000E+00
 -1      4170 1.19513E+02 2.24053E+01 0.00000E+00
 -1      4171 1.24838E+02 2.11063E+01 0.00000E+00
 -1      4172 1.23338E+02 2.11063E+01 0.00000E+00
 -1      4173 1.22588E+02 2.24053E+01 0.00000E+00
 -1      4174 1.27984E+02 2.07383E+01 0.00000E+00
 -1      4175 1.26484E+02 2.07383E+01 0.00000E+00
 -1      4176 1.25734E+02 2.20373E+01 0.00000E+00
 -1      4177 1.29024E+02 2.13015E+01 0.00000E+00
 -1      4178 7.64634E+01 2.11063E+01 0.00000E+00
 -1      4179 7.49634E+01 2.11063E+01 0.00000E+00
 -1      4180 7.72134E+01 2.24053E+01 0.00000E+00
 -1      4181 1.29608E+02 2.24082E+01 0.00000E+00
 -1      4182 8.85384E+01 2.11063E+01 0.00000E+00
 -1      4183 8.70384E+01 2.11063E+01 0.00000E+00
 -1      4184 8.62884E+01 2.24053E+01 0.00000E+00
 -1      4185 6.15649E+01 2.06587E+01 0.00000E+00
 -1      4186 6.02039E+01 2.02112E+01 0.00000E+00
 -1      4187 5.96304E+01 2.10626E+01 0.00000E+00
 -1      4188 7.34634E+01 2.11063E+01 0.00000E+00
 -1      4189 7.19634E+01 2.11063E+01 0.00000E+00
 -1      4190 7.42134E+01 2.24053E+01 0.00000E+00
 -1      4191 8.25196E+01 2.11063E+01 0.00000E+00
 -1      4192 8.09821E+01 2.11063E+01 0.00000E+00
 -1      4193 8.02321E+01 2.24053E+01 0.00000E+00
 -1      4194 8.32696E+01 2.24053E+01 0.00000E+00
 -1      4195 7.11946E+01 2.24053E+01 0.00000E+00
 -1      4196 1.26374E+02 2.79707E+01 0.00000E+00
 -1      4197 1.27424E+02 2.79551E+01 0.00000E+00
 -1      4198 1.27573E+02 2.67792E+01 0.00000E+00
 -1      4199 1.25624E+02 2.66717E+01 0.00000E+00
 -1      4200 8.92884E+01 2.24053E+01 0.00000E+00
 -1      4201 5.77738E+01 2.17350E+01 0.00000E+00
 -1      4202 1.27573E+02 2.53042E+01 0.00000E+00
 -1      4203 5.37187E+01 2.73812E+01 0.00000E+00
 -1      4204 1.27963E+02 2.27761E+01 0.00000E+00
 -1      4205 6.01820E+01 2.63267E+01 0.00000E+00
 -1      4206 6.81759E+01 2.24053E+01 0.00000E+00
 -1      4207 6.74071E+01 2.11063E+01 0.00000E+00
 -1      4208 6.59071E+01 2.11063E+01 0.00000E+00
 -1      4209 6.44071E+01 2.11063E+01 0.00000E+00
 -1      4210 6.29071E+01 2.11063E+01 0.00000E+00
 -1      4211 6.51759E+01 2.24053E+01 0.00000E+00
 -1      4212 6.23336E+01 2.19577E+01 0.00000E+00
 -1      4213 1.26945E+02 2.42241E+01 0.00000E+00
 -1      4214 1.26361E+02 2.31174E+01 0.00000E+00
 -1      4215 1.24716E+02 2.34853E+01 0.00000E+00
 -1      4216 1.25971E+02 2.56454E+01 0.00000E+00
 -1      4217 9.87192E+01 2.45116E+01 0.00000E+00
 -1      4218 9.72192E+01 2.45116E+01 0.00000E+00
 -1      4219 8.97192E+01 2.45116E+01 0.00000E+00
 -1      4220 8.82192E+01 2.45116E+01 0.00000E+00
 -1      4221 6.56629E+01 2.45116E+01 0.00000E+00
 -1      4222 6.71629E+01 2.45116E+01 0.00000E+00
 -1      4223 6.86629E+01 2.45116E+01 0.00000E+00
 -1      4224 7.01629E+01 2.45116E+01 0.00000E+00
 -1      4225 7.16817E+01 2.45116E+01 0.00000E+00
 -1      4226 7.31817E+01 2.45116E+01 0.00000E+00
 -1      4227 7.46817E+01 2.45116E+01 0.00000E+00
 -1      4228 7.61817E+01 2.45116E+01 0.00000E+00
 -1      4229 7.76817E+01 2.45116E+01 0.00000E+00
 -1      4230 7.91817E+01 2.45116E+01 0.00000E+00
 -1      4231 8.07004E+01 2.45116E+01 0.00000E+00
 -1      4232 8.22004E+01 2.45116E+01 0.00000E+00
 -1      4233 8.37192E+01 2.45116E+01 0.00000E+00
 -1      4234 8.52192E+01 2.45116E+01 0.00000E+00
 -1      4235 8.67192E+01 2.45116E+01 0.00000E+00
 -1      4236 9.12192E+01 2.45116E+01 0.00000E+00
 -1      4237 9.27192E+01 2.45116E+01 0.00000E+00
 -1      4238 9.42192E+01 2.45116E+01 0.00000E+00
 -1      4239 9.57192E+01 2.45116E+01 0.00000E+00
 -1      4240 1.00219E+02 2.45116E+01 0.00000E+00
 -1      4241 1.01794E+02 2.45116E+01 0.00000E+00
 -1      4242 1.03294E+02 2.45116E+01 0.00000E+00
 -1      4243 1.04794E+02 2.45116E+01 0.00000E+00
 -1      4244 1.06294E+02 2.45116E+01 0.00000E+00
 -1      4245 1.07794E+02 2.45116E+01 0.00000E+00
 -1      4246 1.09294E+02 2.45116E+01 0.00000E+00
 -1      4247 1.10794E+02 2.45116E+01 0.00000E+00
 -1      4248 1.12294E+02 2.45116E+01 0.00000E+00
 -1      4249 1.13794E+02 2.45116E+01 0.00000E+00
 -1      4250 1.15294E+02 2.45116E+01 0.00000E+00
 -1      4251 1.16794E+02 2.45116E+01 0.00000E+00
 -1      4252 1.18294E+02 2.45116E+01 0.00000E+00
 -1      4253 1.19869E+02 2.45116E+01 0.00000E+00
 -1      4254 1.21369E+02 2.45116E+01 0.00000E+00
 -1      4255 5.88211E+01 2.31156E+01 0.00000E+00
 -1      4256 5.95390E+01 2.47059E+01 0.00000E+00
 -1      4257 1.22869E+02 2.45116E+01 0.00000E+00
 -1      4258 6.20199E+01 2.28907E+01 0.00000E+00
 -1      4259 6.06777E+01 2.24432E+01 0.00000E+00
 -1      4260 6.10070E+01 2.49971E+01 0.00000E+00
 -1      4261 5.93167E+01 2.19956E+01 0.00000E+00
 -1      4262 6.26629E+01 2.45116E+01 0.00000E+00
 -1      4263 6.41629E+01 2.45116E+01 0.00000E+00
 -1      4264 1.24997E+02 2.55917E+01 0.00000E+00
 -1      4265 1.23497E+02 2.55917E+01 0.00000E+00
 -3
    3C                          2051                                     1
 -1       164    8    0    1
 -2         6         7        23      1108      1271      1125
 -1       165    8    0    1
 -2         7         8       164      1109      1272      1273
 -1       166    8    0    1
 -2         8         9       165      1110      1274      1275
 -1       167    8    0    1
 -2         8       165       164      1275      1276      1272
 -1       168    8    0    1
 -2         9        10       166      1111      1277      1278
 -1       169    8    0    1
 -2         9       166       165      1278      1279      1274
 -1       170    8    0    1
 -2        10        11       167      1112      1280      1281
 -1       171    8    0    1
 -2        10       167       166      1281      1282      1277
 -1       172    8    0    1
 -2        11        12       168      1113      1283      1284
 -1       173    8    0    1
 -2        11       168       167      1284      1285      1280
 -1       174    8    0    1
 -2        12        13       169      1114      1286      1287
 -1       175    8    0    1
 -2        12       169       168      1287      1288      1283
 -1       176    8    0    1
 -2        13        14       170      1115      1289      1290
 -1       177    8    0    1
 -2        13       170       169      1290      1291      1286
 -1       178    8    0    1
 -2        14        15       171      1116      1292      1293
 -1       179    8    0    1
 -2        14       171       170      1293      1294      1289
 -1       180    8    0    1
 -2        15        16       172      1117      1295      1296
 -1       181    8    0    1
 -2        15       172       171      1296      1297      1292
 -1       182    8    0    1
 -2        16        17       173      1118      1298      1299
 -1       183    8    0    1
 -2        16       173       172      1299      1300      1295
 -1       184    8    0    1
 -2        17        18       174      1119      1301      1302
 -1       185    8    0    1
 -2        17       174       173      1302      1303      1298
 -1       186    8    0    1
 -2        18        19       175      1120      1304      1305
 -1       187    8    0    1
 -2        18       175       174      1305      1306      1301
 -1       188    8    0    1
 -2        19        20       176      1121      1307      1308
 -1       189    8    0    1
 -2        19       176       175      1308      1309      1304
 -1       190    8    0    1
 -2        20        21       177      1122      1310      1311
 -1       191    8    0    1
 -2        20       177       176      1311      1312      1307
 -1       192    8    0    1
 -2        21        22       178      1123      1313      1314
 -1       193    8    0    1
 -2        21       178       177      1314      1315      1310
 -1       194    8    0    1
 -2        22         5       179      1124      1316      1317
 -1       195    8    0    1
 -2       178        22       179      1313      1317      1318
 -1       196    8    0    1
 -2         5        72       179      1175      1319      1316
 -1       197    8    0    1
 -2        24        23       180      1126      1320      1321
 -1       198    8    0    1
 -2        25        24       181      1127      1322      1323
 -1       199    8    0    1
 -2        24       180       181      1321      1324      1322
 -1       200    8    0    1
 -2        26        25       182      1128      1325      1326
 -1       201    8    0    1
 -2        25       181       182      1323      1327      1325
 -1       202    8    0    1
 -2        27        26       183      1129      1328      1329
 -1       203    8    0    1
 -2        26       182       183      1326      1330      1328
 -1       204    8    0    1
 -2        28        27       184      1130      1331      1332
 -1       205    8    0    1
 -2        27       183       184      1329      1333      1331
 -1       206    8    0    1
 -2        29        28       185      1131      1334      1335
 -1       207    8    0    1
 -2        28       184       185      1332      1336      1334
 -1       208    8    0    1
 -2        30        29       186      1132      1337      1338
 -1       209    8    0    1
 -2        29       185       186      1335      1339      1337
 -1       210    8    0    1
 -2        31        30       187      1133      1340      1341
 -1       211    8    0    1
 -2        30       186       187      1338      1342      1340
 -1       212    8    0    1
 -2        32        31       188      1134      1343      1344
 -1       213    8    0    1
 -2        31       187       188      1341      1345      1343
 -1       214    8    0    1
 -2        33        32       189      1135      1346      1347
 -1       215    8    0    1
 -2        32       188       189      1344      1348      1346
 -1       216    8    0    1
 -2        34        33       190      1136      1349      1350
 -1       217    8    0    1
 -2        33       189       190      1347      1351      1349
 -1       218    8    0    1
 -2        35        34       191      1137      1352      1353
 -1       219    8    0    1
 -2        34       190       191      1350      1354      1352
 -1       220    8    0    1
 -2        36        35       192      1138      1355      1356
 -1       221    8    0    1
 -2        35       191       192      1353      1357      1355
 -1       222    8    0    1
 -2        37        36       193      1139      1358      1359
 -1       223    8    0    1
 -2        36       192       193      1356      1360      1358
 -1       224    8    0    1
 -2        38        37       194      1140      1361      1362
 -1       225    8    0    1
 -2        37       193       194      1359      1363      1361
 -1       226    8    0    1
 -2        39        38       195      1141      1364      1365
 -1       227    8    0    1
 -2        38       194       195      1362      1366      1364
 -1       228    8    0    1
 -2        40        39       196      1142      1367      1368
 -1       229    8    0    1
 -2        39       195       196      1365      1369      1367
 -1       230    8    0    1
 -2        41        40       197      1143      1370      1371
 -1       231    8    0    1
 -2        40       196       197      1368      1372      1370
 -1       232    8    0    1
 -2        42        41       198      1144      1373      1374
 -1       233    8    0    1
 -2        41       197       198      1371      1375      1373
 -1       234    8    0    1
 -2        43        42       199      1145      1376      1377
 -1       235    8    0    1
 -2        42       198       199      1374      1378      1376
 -1       236    8    0    1
 -2        44        43       200      1146      1379      1380
 -1       237    8    0    1
 -2        43       199       200      1377      1381      1379
 -1       238    8    0    1
 -2        45        44       201      1147      1382      1383
 -1       239    8    0    1
 -2        44       200       201      1380      1384      1382
 -1       240    8    0    1
 -2        46        45       202      1148      1385      1386
 -1       241    8    0    1
 -2        45       201       202      1383      1387      1385
 -1       242    8    0    1
 -2        47        46       203      1149      1388      1389
 -1       243    8    0    1
 -2        46       202       203      1386      1390      1388
 -1       244    8    0    1
 -2        48        47       204      1150      1391      1392
 -1       245    8    0    1
 -2        47       203       204      1389      1393      1391
 -1       246    8    0    1
 -2        49        48       205      1151      1394      1395
 -1       247    8    0    1
 -2        48       204       205      1392      1396      1394
 -1       248    8    0    1
 -2        50        49       206      1152      1397      1398
 -1       249    8    0    1
 -2        49       205       206      1395      1399      1397
 -1       250    8    0    1
 -2        51        50       207      1153      1400      1401
 -1       251    8    0    1
 -2        50       206       207      1398      1402      1400
 -1       252    8    0    1
 -2        52        51       208      1154      1403      1404
 -1       253    8    0    1
 -2        51       207       208      1401      1405      1403
 -1       254    8    0    1
 -2        53        52       209      1155      1406      1407
 -1       255    8    0    1
 -2        52       208       209      1404      1408      1406
 -1       256    8    0    1
 -2        54        53       210      1156      1409      1410
 -1       257    8    0    1
 -2        53       209       210      1407      1411      1409
 -1       258    8    0    1
 -2        55        54       211      1157      1412      1413
 -1       259    8    0    1
 -2        54       210       211      1410      1414      1412
 -1       260    8    0    1
 -2        56        55       212      1158      1415      1416
 -1       261    8    0    1
 -2        55       211       212      1413      1417      1415
 -1       262    8    0    1
 -2        57        56       213      1159      1418      1419
 -1       263    8    0    1
 -2        56       212       213      1416      1420      1418
 -1       264    8    0    1
 -2        58        57       214      1160      1421      1422
 -1       265    8    0    1
 -2        57       213       214      1419      1423      1421
 -1       266    8    0    1
 -2        59        58       215      1161      1424      1425
 -1       267    8    0    1
 -2        58       214       215      1422      1426      1424
 -1       268    8    0    1
 -2        60        59       216      1162      1427      1428
 -1       269    8    0    1
 -2        59       215       216      1425      1429      1427
 -1       270    8    0    1
 -2        61        60       217      1163      1430      1431
 -1       271    8    0    1
 -2        60       216       217      1428      1432      1430
 -1       272    8    0    1
 -2        62        61       218      1164      1433      1434
 -1       273    8    0    1
 -2        61       217       218      1431      1435      1433
 -1       274    8    0    1
 -2        63        62       219      1165      1436      1437
 -1       275    8    0    1
 -2        62       218       219      1434      1438      1436
 -1       276    8    0    1
 -2        64        63       220      1166      1439      1440
 -1       277    8    0    1
 -2        63       219       220      1437      1441      1439
 -1       278    8    0    1
 -2        65        64       221      1167      1442      1443
 -1       279    8    0    1
 -2        64       220       221      1440      1444      1442
 -1       280    8    0    1
 -2        66        65       222      1168      1445      1446
 -1       281    8    0    1
 -2        65       221       222      1443      1447      1445
 -1       282    8    0    1
 -2        67        66       223      1169      1448      1449
 -1       283    8    0    1
 -2        66       222       223      1446      1450      1448
 -1       284    8    0    1
 -2        68        67       224      1170      1451      1452
 -1       285    8    0    1
 -2        67       223       224      1449      1453      1451
 -1       286    8    0    1
 -2        69        68       225      1171      1454      1455
 -1       287    8    0    1
 -2        68       224       225      1452      1456      1454
 -1       288    8    0    1
 -2        70        69       226      1172      1457      1458
 -1       289    8    0    1
 -2        69       225       226      1455      1459      1457
 -1       290    8    0    1
 -2        71        70       227      1173      1460      1461
 -1       291    8    0    1
 -2        70       226       227      1458      1462      1460
 -1       292    8    0    1
 -2         4        71       136      1174      1463      1241
 -1       293    8    0    1
 -2       136        71       227      1463      1461      1464
 -1       294    8    0    1
 -2        72        73       228      1176      1465      1466
 -1       295    8    0    1
 -2        72       228       179      1466      1467      1319
 -1       296    8    0    1
 -2        73        74       229      1177      1468      1469
 -1       297    8    0    1
 -2        73       229       228      1469      1470      1465
 -1       298    8    0    1
 -2        74        75       230      1178      1471      1472
 -1       299    8    0    1
 -2        74       230       229      1472      1473      1468
 -1       300    8    0    1
 -2        75        76       231      1179      1474      1475
 -1       301    8    0    1
 -2        75       231       230      1475      1476      1471
 -1       302    8    0    1
 -2        76        77       232      1180      1477      1478
 -1       303    8    0    1
 -2        76       232       231      1478      1479      1474
 -1       304    8    0    1
 -2        77        78       233      1181      1480      1481
 -1       305    8    0    1
 -2        77       233       232      1481      1482      1477
 -1       306    8    0    1
 -2        78        79       234      1182      1483      1484
 -1       307    8    0    1
 -2        78       234       233      1484      1485      1480
 -1       308    8    0    1
 -2        79        80       235      1183      1486      1487
 -1       309    8    0    1
 -2        79       235       234      1487      1488      1483
 -1       310    8    0    1
 -2        80        81       236      1184      1489      1490
 -1       311    8    0    1
 -2        80       236       235      1490      1491      1486
 -1       312    8    0    1
 -2        81        82       237      1185      1492      1493
 -1       313    8    0    1
 -2        81       237       236      1493      1494      1489
 -1       314    8    0    1
 -2        82        83       238      1186      1495      1496
 -1       315    8    0    1
 -2        82       238       237      1496      1497      1492
 -1       316    8    0    1
 -2        83        84       239      1187      1498      1499
 -1       317    8    0    1
 -2        83       239       238      1499      1500      1495
 -1       318    8    0    1
 -2        84        85       240      1188      1501      1502
 -1       319    8    0    1
 -2        84       240       239      1502      1503      1498
 -1       320    8    0    1
 -2        85        86       241      1189      1504      1505
 -1       321    8    0    1
 -2        85       241       240      1505      1506      1501
 -1       322    8    0    1
 -2        86        87       242      1190      1507      1508
 -1       323    8    0    1
 -2        86       242       241      1508      1509      1504
 -1       324    8    0    1
 -2        87        88       243      1191      1510      1511
 -1       325    8    0    1
 -2        87       243       242      1511      1512      1507
 -1       326    8    0    1
 -2        88        89       244      1192      1513      1514
 -1       327    8    0    1
 -2        88       244       243      1514      1515      1510
 -1       328    8    0    1
 -2        89        90       245      1193      1516      1517
 -1       329    8    0    1
 -2        89       245       244      1517      1518      1513
 -1       330    8    0    1
 -2        90        91       246      1194      1519      1520
 -1       331    8    0    1
 -2        90       246       245      1520      1521      1516
 -1       332    8    0    1
 -2        91        92       247      1195      1522      1523
 -1       333    8    0    1
 -2        91       247       246      1523      1524      1519
 -1       334    8    0    1
 -2        92        93       248      1196      1525      1526
 -1       335    8    0    1
 -2        92       248       247      1526      1527      1522
 -1       336    8    0    1
 -2        93        94       249      1197      1528      1529
 -1       337    8    0    1
 -2        93       249       248      1529      1530      1525
 -1       338    8    0    1
 -2        94        95       250      1198      1531      1532
 -1       339    8    0    1
 -2        94       250       249      1532      1533      1528
 -1       340    8    0    1
 -2        95        96       251      1199      1534      1535
 -1       341    8    0    1
 -2        95       251       250      1535      1536      1531
 -1       342    8    0    1
 -2        96        97       252      1200      1537      1538
 -1       343    8    0    1
 -2        96       252       251      1538      1539      1534
 -1       344    8    0    1
 -2        97        98       253      1201      1540      1541
 -1       345    8    0    1
 -2        97       253       252      1541      1542      1537
 -1       346    8    0    1
 -2        98        99       254      1202      1543      1544
 -1       347    8    0    1
 -2        98       254       253      1544      1545      1540
 -1       348    8    0    1
 -2        99       100       255      1203      1546      1547
 -1       349    8    0    1
 -2        99       255       254      1547      1548      1543
 -1       350    8    0    1
 -2       100       101       256      1204      1549      1550
 -1       351    8    0    1
 -2       100       256       255      1550      1551      1546
 -1       352    8    0    1
 -2       101       102       257      1205      1552      1553
 -1       353    8    0    1
 -2       101       257       256      1553      1554      1549
 -1       354    8    0    1
 -2       102       103       258      1206      1555      1556
 -1       355    8    0    1
 -2       102       258       257      1556      1557      1552
 -1       356    8    0    1
 -2       103       104       259      1207      1558      1559
 -1       357    8    0    1
 -2       103       259       258      1559      1560      1555
 -1       358    8    0    1
 -2       104       105       260      1208      1561      1562
 -1       359    8    0    1
 -2       104       260       259      1562      1563      1558
 -1       360    8    0    1
 -2       105       106       261      1209      1564      1565
 -1       361    8    0    1
 -2       105       261       260      1565      1566      1561
 -1       362    8    0    1
 -2       106       107       262      1210      1567      1568
 -1       363    8    0    1
 -2       106       262       261      1568      1569      1564
 -1       364    8    0    1
 -2       107       108       263      1211      1570      1571
 -1       365    8    0    1
 -2       107       263       262      1571      1572      1567
 -1       366    8    0    1
 -2       108       109       264      1212      1573      1574
 -1       367    8    0    1
 -2       108       264       263      1574      1575      1570
 -1       368    8    0    1
 -2       109       110       265      1213      1576      1577
 -1       369    8    0    1
 -2       109       265       264      1577      1578      1573
 -1       370    8    0    1
 -2       110       111       266      1214      1579      1580
 -1       371    8    0    1
 -2       110       266       265      1580      1581      1576
 -1       372    8    0    1
 -2       111       112       267      1215      1582      1583
 -1       373    8    0    1
 -2       111       267       266      1583      1584      1579
 -1       374    8    0    1
 -2       112       113       268      1216      1585      1586
 -1       375    8    0    1
 -2       112       268       267      1586      1587      1582
 -1       376    8    0    1
 -2       113       114       269      1217      1588      1589
 -1       377    8    0    1
 -2       113       269       268      1589      1590      1585
 -1       378    8    0    1
 -2       114       115       270      1218      1591      1592
 -1       379    8    0    1
 -2       114       270       269      1592      1593      1588
 -1       380    8    0    1
 -2       115       116       271      1219      1594      1595
 -1       381    8    0    1
 -2       115       271       270      1595      1596      1591
 -1       382    8    0    1
 -2       116       117       272      1220      1597      1598
 -1       383    8    0    1
 -2       116       272       271      1598      1599      1594
 -1       384    8    0    1
 -2       117       118       273      1221      1600      1601
 -1       385    8    0    1
 -2       117       273       272      1601      1602      1597
 -1       386    8    0    1
 -2       118       119       274      1222      1603      1604
 -1       387    8    0    1
 -2       118       274       273      1604      1605      1600
 -1       388    8    0    1
 -2       119       120       275      1223      1606      1607
 -1       389    8    0    1
 -2       119       275       274      1607      1608      1603
 -1       390    8    0    1
 -2       120         3       121      1224      1225      1609
 -1       391    8    0    1
 -2       121       122       276      1226      1610      1611
 -1       392    8    0    1
 -2       122       123       277      1227      1612      1613
 -1       393    8    0    1
 -2       122       277       276      1613      1614      1610
 -1       394    8    0    1
 -2       123       124       278      1228      1615      1616
 -1       395    8    0    1
 -2       123       278       277      1616      1617      1612
 -1       396    8    0    1
 -2       124       125       279      1229      1618      1619
 -1       397    8    0    1
 -2       124       279       278      1619      1620      1615
 -1       398    8    0    1
 -2       125       126       280      1230      1621      1622
 -1       399    8    0    1
 -2       125       280       279      1622      1623      1618
 -1       400    8    0    1
 -2       126       127       281      1231      1624      1625
 -1       401    8    0    1
 -2       126       281       280      1625      1626      1621
 -1       402    8    0    1
 -2       127       128       282      1232      1627      1628
 -1       403    8    0    1
 -2       127       282       281      1628      1629      1624
 -1       404    8    0    1
 -2       128       129       283      1233      1630      1631
 -1       405    8    0    1
 -2       128       283       282      1631      1632      1627
 -1       406    8    0    1
 -2       129       130       284      1234      1633      1634
 -1       407    8    0    1
 -2       129       284       283      1634      1635      1630
 -1       408    8    0    1
 -2       130       131       285      1235      1636      1637
 -1       409    8    0    1
 -2       130       285       284      1637      1638      1633
 -1       410    8    0    1
 -2       131       132       286      1236      1639      1640
 -1       411    8    0    1
 -2       131       286       285      1640      1641      1636
 -1       412    8    0    1
 -2       132       133       287      1237      1642      1643
 -1       413    8    0    1
 -2       132       287       286      1643      1644      1639
 -1       414    8    0    1
 -2       133       134       288      1238      1645      1646
 -1       415    8    0    1
 -2       133       288       287      1646      1647      1642
 -1       416    8    0    1
 -2       134       135       289      1239      1648      1649
 -1       417    8    0    1
 -2       134       289       288      1649      1650      1645
 -1       418    8    0    1
 -2       135       136       290      1240      1651      1652
 -1       419    8    0    1
 -2       289       135       290      1648      1652      1653
 -1       420    8    0    1
 -2       136       227       290      1464      1654      1651
 -1       421    8    0    1
 -2         2       137       291      1242      1655      1656
 -1       422    8    0    1
 -2       137       138       292      1243      1657      1658
 -1       423    8    0    1
 -2       138       139       293      1244      1659      1660
 -1       424    8    0    1
 -2       139       140       294      1245      1661      1662
 -1       425    8    0    1
 -2       140       141       295      1246      1663      1664
 -1       426    8    0    1
 -2       141       142       296      1247      1665      1666
 -1       427    8    0    1
 -2       142       143       297      1248      1667      1668
 -1       428    8    0    1
 -2       143       144       298      1249      1669      1670
 -1       429    8    0    1
 -2       144       145       299      1250      1671      1672
 -1       430    8    0    1
 -2       145       146       300      1251      1673      1674
 -1       431    8    0    1
 -2       146       147       301      1252      1675      1676
 -1       432    8    0    1
 -2       147       148       302      1253      1677      1678
 -1       433    8    0    1
 -2       148       149       303      1254      1679      1680
 -1       434    8    0    1
 -2       149       150       304      1255      1681      1682
 -1       435    8    0    1
 -2       150       151       305      1256      1683      1684
 -1       436    8    0    1
 -2       151       152       306      1257      1685      1686
 -1       437    8    0    1
 -2       152       153       307      1258      1687      1688
 -1       438    8    0    1
 -2       153       154       308      1259      1689      1690
 -1       439    8    0    1
 -2       154       155       309      1260      1691      1692
 -1       440    8    0    1
 -2       155       156       310      1261      1693      1694
 -1       441    8    0    1
 -2       156       157       311      1262      1695      1696
 -1       442    8    0    1
 -2       157         1       312      1263      1697      1698
 -1       443    8    0    1
 -2         1       158       313      1264      1699      1700
 -1       444    8    0    1
 -2       158       159       314      1265      1701      1702
 -1       445    8    0    1
 -2       159       160       315      1266      1703      1704
 -1       446    8    0    1
 -2       160       161       316      1267      1705      1706
 -1       447    8    0    1
 -2       161       162       317      1268      1707      1708
 -1       448    8    0    1
 -2       162       163       318      1269      1709      1710
 -1       449    8    0    1
 -2       163         2       319      1270      1711      1712
 -1       450    8    0    1
 -2       294       140       295      1661      1664      1713
 -1       451    8    0    1
 -2       293       139       294      1659      1662      1714
 -1       452    8    0    1
 -2       120       121       275      1609      1715      1606
 -1       453    8    0    1
 -2       121       276       275      1611      1716      1715
 -1       454    8    0    1
 -2       291       137       292      1655      1658      1717
 -1       455    8    0    1
 -2       292       138       293      1657      1660      1718
 -1       456    8    0    1
 -2         2       291       319      1656      1719      1711
 -1       457    8    0    1
 -2       141       296       295      1666      1720      1663
 -1       458    8    0    1
 -2       142       297       296      1668      1721      1665
 -1       459    8    0    1
 -2       143       298       297      1670      1722      1667
 -1       460    8    0    1
 -2       144       299       298      1672      1723      1669
 -1       461    8    0    1
 -2       145       300       299      1674      1724      1671
 -1       462    8    0    1
 -2       146       301       300      1676      1725      1673
 -1       463    8    0    1
 -2       147       302       301      1678      1726      1675
 -1       464    8    0    1
 -2       148       303       302      1680      1727      1677
 -1       465    8    0    1
 -2       149       304       303      1682      1728      1679
 -1       466    8    0    1
 -2       150       305       304      1684      1729      1681
 -1       467    8    0    1
 -2       151       306       305      1686      1730      1683
 -1       468    8    0    1
 -2       152       307       306      1688      1731      1685
 -1       469    8    0    1
 -2       153       308       307      1690      1732      1687
 -1       470    8    0    1
 -2       154       309       308      1692      1733      1689
 -1       471    8    0    1
 -2       155       310       309      1694      1734      1691
 -1       472    8    0    1
 -2       156       311       310      1696      1735      1693
 -1       473    8    0    1
 -2       157       312       311      1698      1736      1695
 -1       474    8    0    1
 -2         1       313       312      1700      1737      1697
 -1       475    8    0    1
 -2       158       314       313      1702      1738      1699
 -1       476    8    0    1
 -2       159       315       314      1704      1739      1701
 -1       477    8    0    1
 -2       160       316       315      1706      1740      1703
 -1       478    8    0    1
 -2       161       317       316      1708      1741      1705
 -1       479    8    0    1
 -2       162       318       317      1710      1742      1707
 -1       480    8    0    1
 -2       163       319       318      1712      1743      1709
 -1       481    8    0    1
 -2        23         7       164      1271      1273      1744
 -1       482    8    0    1
 -2       165       166       320      1279      1745      1746
 -1       483    8    0    1
 -2       164       165       321      1276      1747      1748
 -1       484    8    0    1
 -2       165       320       321      1746      1749      1747
 -1       485    8    0    1
 -2       167       168       322      1285      1750      1751
 -1       486    8    0    1
 -2       168       169       323      1288      1752      1753
 -1       487    8    0    1
 -2       168       323       322      1753      1754      1750
 -1       488    8    0    1
 -2       169       170       324      1291      1755      1756
 -1       489    8    0    1
 -2       169       324       323      1756      1757      1752
 -1       490    8    0    1
 -2       170       171       325      1294      1758      1759
 -1       491    8    0    1
 -2       170       325       324      1759      1760      1755
 -1       492    8    0    1
 -2       171       172       326      1297      1761      1762
 -1       493    8    0    1
 -2       171       326       325      1762      1763      1758
 -1       494    8    0    1
 -2       172       173       327      1300      1764      1765
 -1       495    8    0    1
 -2       172       327       326      1765      1766      1761
 -1       496    8    0    1
 -2       173       174       328      1303      1767      1768
 -1       497    8    0    1
 -2       173       328       327      1768      1769      1764
 -1       498    8    0    1
 -2       174       175       329      1306      1770      1771
 -1       499    8    0    1
 -2       174       329       328      1771      1772      1767
 -1       500    8    0    1
 -2       175       176       330      1309      1773      1774
 -1       501    8    0    1
 -2       175       330       329      1774      1775      1770
 -1       502    8    0    1
 -2       176       177       331      1312      1776      1777
 -1       503    8    0    1
 -2       176       331       330      1777      1778      1773
 -1       504    8    0    1
 -2       177       178       332      1315      1779      1780
 -1       505    8    0    1
 -2       177       332       331      1780      1781      1776
 -1       506    8    0    1
 -2       178       179       333      1318      1782      1783
 -1       507    8    0    1
 -2       332       178       333      1779      1783      1784
 -1       508    8    0    1
 -2       179       228       333      1467      1785      1782
 -1       509    8    0    1
 -2       180        23       164      1320      1744      1786
 -1       510    8    0    1
 -2       228       229       334      1470      1787      1788
 -1       511    8    0    1
 -2       228       334       333      1788      1789      1785
 -1       512    8    0    1
 -2       180       164       321      1786      1748      1790
 -1       513    8    0    1
 -2       182       181       335      1327      1791      1792
 -1       514    8    0    1
 -2       183       182       336      1330      1793      1794
 -1       515    8    0    1
 -2       182       335       336      1792      1795      1793
 -1       516    8    0    1
 -2       184       183       337      1333      1796      1797
 -1       517    8    0    1
 -2       183       336       337      1794      1798      1796
 -1       518    8    0    1
 -2       185       184       338      1336      1799      1800
 -1       519    8    0    1
 -2       184       337       338      1797      1801      1799
 -1       520    8    0    1
 -2       186       185       339      1339      1802      1803
 -1       521    8    0    1
 -2       185       338       339      1800      1804      1802
 -1       522    8    0    1
 -2       187       186       340      1342      1805      1806
 -1       523    8    0    1
 -2       186       339       340      1803      1807      1805
 -1       524    8    0    1
 -2       188       187       341      1345      1808      1809
 -1       525    8    0    1
 -2       187       340       341      1806      1810      1808
 -1       526    8    0    1
 -2       189       188       342      1348      1811      1812
 -1       527    8    0    1
 -2       188       341       342      1809      1813      1811
 -1       528    8    0    1
 -2       190       189       343      1351      1814      1815
 -1       529    8    0    1
 -2       189       342       343      1812      1816      1814
 -1       530    8    0    1
 -2       191       190       344      1354      1817      1818
 -1       531    8    0    1
 -2       190       343       344      1815      1819      1817
 -1       532    8    0    1
 -2       192       191       345      1357      1820      1821
 -1       533    8    0    1
 -2       191       344       345      1818      1822      1820
 -1       534    8    0    1
 -2       193       192       346      1360      1823      1824
 -1       535    8    0    1
 -2       192       345       346      1821      1825      1823
 -1       536    8    0    1
 -2       194       193       347      1363      1826      1827
 -1       537    8    0    1
 -2       193       346       347      1824      1828      1826
 -1       538    8    0    1
 -2       195       194       348      1366      1829      1830
 -1       539    8    0    1
 -2       194       347       348      1827      1831      1829
 -1       540    8    0    1
 -2       196       195       349      1369      1832      1833
 -1       541    8    0    1
 -2       195       348       349      1830      1834      1832
 -1       542    8    0    1
 -2       197       196       350      1372      1835      1836
 -1       543    8    0    1
 -2       196       349       350      1833      1837      1835
 -1       544    8    0    1
 -2       198       197       351      1375      1838      1839
 -1       545    8    0    1
 -2       197       350       351      1836      1840      1838
 -1       546    8    0    1
 -2       199       198       352      1378      1841      1842
 -1       547    8    0    1
 -2       198       351       352      1839      1843      1841
 -1       548    8    0    1
 -2       200       199       353      1381      1844      1845
 -1       549    8    0    1
 -2       199       352       353      1842      1846      1844
 -1       550    8    0    1
 -2       201       200       354      1384      1847      1848
 -1       551    8    0    1
 -2       200       353       354      1845      1849      1847
 -1       552    8    0    1
 -2       202       201       355      1387      1850      1851
 -1       553    8    0    1
 -2       201       354       355      1848      1852      1850
 -1       554    8    0    1
 -2       203       202       356      1390      1853      1854
 -1       555    8    0    1
 -2       202       355       356      1851      1855      1853
 -1       556    8    0    1
 -2       204       203       357      1393      1856      1857
 -1       557    8    0    1
 -2       203       356       357      1854      1858      1856
 -1       558    8    0    1
 -2       205       204       358      1396      1859      1860
 -1       559    8    0    1
 -2       204       357       358      1857      1861      1859
 -1       560    8    0    1
 -2       206       205       359      1399      1862      1863
 -1       561    8    0    1
 -2       205       358       359      1860      1864      1862
 -1       562    8    0    1
 -2       207       206       360      1402      1865      1866
 -1       563    8    0    1
 -2       206       359       360      1863      1867      1865
 -1       564    8    0    1
 -2       208       207       361      1405      1868      1869
 -1       565    8    0    1
 -2       207       360       361      1866      1870      1868
 -1       566    8    0    1
 -2       209       208       362      1408      1871      1872
 -1       567    8    0    1
 -2       208       361       362      1869      1873      1871
 -1       568    8    0    1
 -2       210       209       363      1411      1874      1875
 -1       569    8    0    1
 -2       209       362       363      1872      1876      1874
 -1       570    8    0    1
 -2       211       210       364      1414      1877      1878
 -1       571    8    0    1
 -2       210       363       364      1875      1879      1877
 -1       572    8    0    1
 -2       212       211       365      1417      1880      1881
 -1       573    8    0    1
 -2       211       364       365      1878      1882      1880
 -1       574    8    0    1
 -2       213       212       366      1420      1883      1884
 -1       575    8    0    1
 -2       212       365       366      1881      1885      1883
 -1       576    8    0    1
 -2       214       213       367      1423      1886      1887
 -1       577    8    0    1
 -2       213       366       367      1884      1888      1886
 -1       578    8    0    1
 -2       215       214       368      1426      1889      1890
 -1       579    8    0    1
 -2       214       367       368      1887      1891      1889
 -1       580    8    0    1
 -2       216       215       369      1429      1892      1893
 -1       581    8    0    1
 -2       215       368       369      1890      1894      1892
 -1       582    8    0    1
 -2       217       216       370      1432      1895      1896
 -1       583    8    0    1
 -2       216       369       370      1893      1897      1895
 -1       584    8    0    1
 -2       218       217       371      1435      1898      1899
 -1       585    8    0    1
 -2       217       370       371      1896      1900      1898
 -1       586    8    0    1
 -2       219       218       372      1438      1901      1902
 -1       587    8    0    1
 -2       218       371       372      1899      1903      1901
 -1       588    8    0    1
 -2       220       219       373      1441      1904      1905
 -1       589    8    0    1
 -2       219       372       373      1902      1906      1904
 -1       590    8    0    1
 -2       221       220       374      1444      1907      1908
 -1       591    8    0    1
 -2       220       373       374      1905      1909      1907
 -1       592    8    0    1
 -2       222       221       375      1447      1910      1911
 -1       593    8    0    1
 -2       221       374       375      1908      1912      1910
 -1       594    8    0    1
 -2       223       222       376      1450      1913      1914
 -1       595    8    0    1
 -2       222       375       376      1911      1915      1913
 -1       596    8    0    1
 -2       224       223       377      1453      1916      1917
 -1       597    8    0    1
 -2       223       376       377      1914      1918      1916
 -1       598    8    0    1
 -2       225       224       378      1456      1919      1920
 -1       599    8    0    1
 -2       224       377       378      1917      1921      1919
 -1       600    8    0    1
 -2       226       225       379      1459      1922      1923
 -1       601    8    0    1
 -2       225       378       379      1920      1924      1922
 -1       602    8    0    1
 -2       227       226       380      1462      1925      1926
 -1       603    8    0    1
 -2       290       227       380      1654      1926      1927
 -1       604    8    0    1
 -2       226       379       380      1923      1928      1925
 -1       605    8    0    1
 -2       229       230       381      1473      1929      1930
 -1       606    8    0    1
 -2       229       381       334      1930      1931      1787
 -1       607    8    0    1
 -2       230       231       382      1476      1932      1933
 -1       608    8    0    1
 -2       230       382       381      1933      1934      1929
 -1       609    8    0    1
 -2       231       232       383      1479      1935      1936
 -1       610    8    0    1
 -2       231       383       382      1936      1937      1932
 -1       611    8    0    1
 -2       232       233       384      1482      1938      1939
 -1       612    8    0    1
 -2       232       384       383      1939      1940      1935
 -1       613    8    0    1
 -2       233       234       385      1485      1941      1942
 -1       614    8    0    1
 -2       233       385       384      1942      1943      1938
 -1       615    8    0    1
 -2       234       235       386      1488      1944      1945
 -1       616    8    0    1
 -2       234       386       385      1945      1946      1941
 -1       617    8    0    1
 -2       235       236       387      1491      1947      1948
 -1       618    8    0    1
 -2       235       387       386      1948      1949      1944
 -1       619    8    0    1
 -2       236       237       388      1494      1950      1951
 -1       620    8    0    1
 -2       236       388       387      1951      1952      1947
 -1       621    8    0    1
 -2       237       238       389      1497      1953      1954
 -1       622    8    0    1
 -2       237       389       388      1954      1955      1950
 -1       623    8    0    1
 -2       238       239       390      1500      1956      1957
 -1       624    8    0    1
 -2       238       390       389      1957      1958      1953
 -1       625    8    0    1
 -2       239       240       391      1503      1959      1960
 -1       626    8    0    1
 -2       239       391       390      1960      1961      1956
 -1       627    8    0    1
 -2       240       241       392      1506      1962      1963
 -1       628    8    0    1
 -2       240       392       391      1963      1964      1959
 -1       629    8    0    1
 -2       241       242       393      1509      1965      1966
 -1       630    8    0    1
 -2       241       393       392      1966      1967      1962
 -1       631    8    0    1
 -2       242       243       394      1512      1968      1969
 -1       632    8    0    1
 -2       242       394       393      1969      1970      1965
 -1       633    8    0    1
 -2       243       244       395      1515      1971      1972
 -1       634    8    0    1
 -2       243       395       394      1972      1973      1968
 -1       635    8    0    1
 -2       244       245       396      1518      1974      1975
 -1       636    8    0    1
 -2       244       396       395      1975      1976      1971
 -1       637    8    0    1
 -2       245       246       397      1521      1977      1978
 -1       638    8    0    1
 -2       245       397       396      1978      1979      1974
 -1       639    8    0    1
 -2       246       247       398      1524      1980      1981
 -1       640    8    0    1
 -2       246       398       397      1981      1982      1977
 -1       641    8    0    1
 -2       247       248       399      1527      1983      1984
 -1       642    8    0    1
 -2       247       399       398      1984      1985      1980
 -1       643    8    0    1
 -2       248       249       400      1530      1986      1987
 -1       644    8    0    1
 -2       248       400       399      1987      1988      1983
 -1       645    8    0    1
 -2       249       250       401      1533      1989      1990
 -1       646    8    0    1
 -2       249       401       400      1990      1991      1986
 -1       647    8    0    1
 -2       250       251       402      1536      1992      1993
 -1       648    8    0    1
 -2       250       402       401      1993      1994      1989
 -1       649    8    0    1
 -2       251       252       403      1539      1995      1996
 -1       650    8    0    1
 -2       251       403       402      1996      1997      1992
 -1       651    8    0    1
 -2       252       253       404      1542      1998      1999
 -1       652    8    0    1
 -2       252       404       403      1999      2000      1995
 -1       653    8    0    1
 -2       253       254       405      1545      2001      2002
 -1       654    8    0    1
 -2       253       405       404      2002      2003      1998
 -1       655    8    0    1
 -2       254       255       406      1548      2004      2005
 -1       656    8    0    1
 -2       254       406       405      2005      2006      2001
 -1       657    8    0    1
 -2       255       256       407      1551      2007      2008
 -1       658    8    0    1
 -2       255       407       406      2008      2009      2004
 -1       659    8    0    1
 -2       256       257       408      1554      2010      2011
 -1       660    8    0    1
 -2       256       408       407      2011      2012      2007
 -1       661    8    0    1
 -2       257       258       409      1557      2013      2014
 -1       662    8    0    1
 -2       257       409       408      2014      2015      2010
 -1       663    8    0    1
 -2       258       259       410      1560      2016      2017
 -1       664    8    0    1
 -2       258       410       409      2017      2018      2013
 -1       665    8    0    1
 -2       259       260       411      1563      2019      2020
 -1       666    8    0    1
 -2       259       411       410      2020      2021      2016
 -1       667    8    0    1
 -2       260       261       412      1566      2022      2023
 -1       668    8    0    1
 -2       260       412       411      2023      2024      2019
 -1       669    8    0    1
 -2       261       262       413      1569      2025      2026
 -1       670    8    0    1
 -2       261       413       412      2026      2027      2022
 -1       671    8    0    1
 -2       262       263       414      1572      2028      2029
 -1       672    8    0    1
 -2       262       414       413      2029      2030      2025
 -1       673    8    0    1
 -2       263       264       415      1575      2031      2032
 -1       674    8    0    1
 -2       263       415       414      2032      2033      2028
 -1       675    8    0    1
 -2       264       265       416      1578      2034      2035
 -1       676    8    0    1
 -2       264       416       415      2035      2036      2031
 -1       677    8    0    1
 -2       265       266       417      1581      2037      2038
 -1       678    8    0    1
 -2       265       417       416      2038      2039      2034
 -1       679    8    0    1
 -2       266       267       418      1584      2040      2041
 -1       680    8    0    1
 -2       266       418       417      2041      2042      2037
 -1       681    8    0    1
 -2       267       268       419      1587      2043      2044
 -1       682    8    0    1
 -2       267       419       418      2044      2045      2040
 -1       683    8    0    1
 -2       268       269       420      1590      2046      2047
 -1       684    8    0    1
 -2       268       420       419      2047      2048      2043
 -1       685    8    0    1
 -2       269       270       421      1593      2049      2050
 -1       686    8    0    1
 -2       269       421       420      2050      2051      2046
 -1       687    8    0    1
 -2       270       271       422      1596      2052      2053
 -1       688    8    0    1
 -2       270       422       421      2053      2054      2049
 -1       689    8    0    1
 -2       271       272       423      1599      2055      2056
 -1       690    8    0    1
 -2       271       423       422      2056      2057      2052
 -1       691    8    0    1
 -2       272       273       424      1602      2058      2059
 -1       692    8    0    1
 -2       272       424       423      2059      2060      2055
 -1       693    8    0    1
 -2       273       274       425      1605      2061      2062
 -1       694    8    0    1
 -2       273       425       424      2062      2063      2058
 -1       695    8    0    1
 -2       274       275       426      1608      2064      2065
 -1       696    8    0    1
 -2       425       274       426      2061      2065      2066
 -1       697    8    0    1
 -2       275       276       426      1716      2067      2064
 -1       698    8    0    1
 -2       278       279       427      1620      2068      2069
 -1       699    8    0    1
 -2       277       278       428      1617      2070      2071
 -1       700    8    0    1
 -2       278       427       428      2069      2072      2070
 -1       701    8    0    1
 -2       276       277       429      1614      2073      2074
 -1       702    8    0    1
 -2       426       276       429      2067      2074      2075
 -1       703    8    0    1
 -2       277       428       429      2071      2076      2073
 -1       704    8    0    1
 -2       279       280       430      1623      2077      2078
 -1       705    8    0    1
 -2       279       430       427      2078      2079      2068
 -1       706    8    0    1
 -2       280       281       431      1626      2080      2081
 -1       707    8    0    1
 -2       280       431       430      2081      2082      2077
 -1       708    8    0    1
 -2       281       282       432      1629      2083      2084
 -1       709    8    0    1
 -2       281       432       431      2084      2085      2080
 -1       710    8    0    1
 -2       282       283       433      1632      2086      2087
 -1       711    8    0    1
 -2       282       433       432      2087      2088      2083
 -1       712    8    0    1
 -2       283       284       434      1635      2089      2090
 -1       713    8    0    1
 -2       283       434       433      2090      2091      2086
 -1       714    8    0    1
 -2       284       285       435      1638      2092      2093
 -1       715    8    0    1
 -2       284       435       434      2093      2094      2089
 -1       716    8    0    1
 -2       285       286       436      1641      2095      2096
 -1       717    8    0    1
 -2       285       436       435      2096      2097      2092
 -1       718    8    0    1
 -2       286       287       437      1644      2098      2099
 -1       719    8    0    1
 -2       286       437       436      2099      2100      2095
 -1       720    8    0    1
 -2       287       288       438      1647      2101      2102
 -1       721    8    0    1
 -2       287       438       437      2102      2103      2098
 -1       722    8    0    1
 -2       288       289       439      1650      2104      2105
 -1       723    8    0    1
 -2       288       439       438      2105      2106      2101
 -1       724    8    0    1
 -2       292       293       440      1718      2107      2108
 -1       725    8    0    1
 -2       319       291       441      1719      2109      2110
 -1       726    8    0    1
 -2       291       292       442      1717      2111      2112
 -1       727    8    0    1
 -2       293       294       443      1714      2113      2114
 -1       728    8    0    1
 -2       294       295       444      1713      2115      2116
 -1       729    8    0    1
 -2       166       167       445      1282      2117      2118
 -1       730    8    0    1
 -2       320       166       445      1745      2118      2119
 -1       731    8    0    1
 -2       167       322       445      1751      2120      2117
 -1       732    8    0    1
 -2       296       297       446      1721      2121      2122
 -1       733    8    0    1
 -2       297       298       447      1722      2123      2124
 -1       734    8    0    1
 -2       297       447       446      2124      2125      2121
 -1       735    8    0    1
 -2       298       299       448      1723      2126      2127
 -1       736    8    0    1
 -2       299       300       449      1724      2128      2129
 -1       737    8    0    1
 -2       300       301       450      1725      2130      2131
 -1       738    8    0    1
 -2       300       450       449      2131      2132      2128
 -1       739    8    0    1
 -2       301       302       451      1726      2133      2134
 -1       740    8    0    1
 -2       302       303       452      1727      2135      2136
 -1       741    8    0    1
 -2       303       304       453      1728      2137      2138
 -1       742    8    0    1
 -2       304       305       454      1729      2139      2140
 -1       743    8    0    1
 -2       305       306       455      1730      2141      2142
 -1       744    8    0    1
 -2       306       307       456      1731      2143      2144
 -1       745    8    0    1
 -2       307       308       457      1732      2145      2146
 -1       746    8    0    1
 -2       308       309       458      1733      2147      2148
 -1       747    8    0    1
 -2       309       310       459      1734      2149      2150
 -1       748    8    0    1
 -2       309       459       458      2150      2151      2147
 -1       749    8    0    1
 -2       310       311       460      1735      2152      2153
 -1       750    8    0    1
 -2       311       312       461      1736      2154      2155
 -1       751    8    0    1
 -2       312       313       462      1737      2156      2157
 -1       752    8    0    1
 -2       313       314       463      1738      2158      2159
 -1       753    8    0    1
 -2       313       463       462      2159      2160      2156
 -1       754    8    0    1
 -2       314       315       464      1739      2161      2162
 -1       755    8    0    1
 -2       315       316       465      1740      2163      2164
 -1       756    8    0    1
 -2       316       317       466      1741      2165      2166
 -1       757    8    0    1
 -2       317       318       467      1742      2167      2168
 -1       758    8    0    1
 -2       318       319       468      1743      2169      2170
 -1       759    8    0    1
 -2       295       296       469      1720      2171      2172
 -1       760    8    0    1
 -2       443       294       444      2113      2116      2173
 -1       761    8    0    1
 -2       180       321       181      1790      2174      1324
 -1       762    8    0    1
 -2       444       295       469      2115      2172      2175
 -1       763    8    0    1
 -2       296       446       469      2122      2176      2171
 -1       764    8    0    1
 -2       335       181       321      1791      2174      2177
 -1       765    8    0    1
 -2       442       292       440      2111      2108      2178
 -1       766    8    0    1
 -2       441       291       442      2109      2112      2179
 -1       767    8    0    1
 -2       439       289       290      2104      1653      2180
 -1       768    8    0    1
 -2       440       293       443      2107      2114      2181
 -1       769    8    0    1
 -2       319       441       468      2110      2182      2169
 -1       770    8    0    1
 -2       467       318       468      2167      2170      2183
 -1       771    8    0    1
 -2       466       317       467      2165      2168      2184
 -1       772    8    0    1
 -2       465       316       466      2163      2166      2185
 -1       773    8    0    1
 -2       463       314       464      2158      2162      2186
 -1       774    8    0    1
 -2       461       312       462      2154      2157      2187
 -1       775    8    0    1
 -2       459       310       460      2149      2153      2188
 -1       776    8    0    1
 -2       457       308       458      2145      2148      2189
 -1       777    8    0    1
 -2       456       307       457      2143      2146      2190
 -1       778    8    0    1
 -2       455       306       456      2141      2144      2191
 -1       779    8    0    1
 -2       454       305       455      2139      2142      2192
 -1       780    8    0    1
 -2       453       304       454      2137      2140      2193
 -1       781    8    0    1
 -2       452       303       453      2135      2138      2194
 -1       782    8    0    1
 -2       450       301       470      2130      2195      2196
 -1       783    8    0    1
 -2       301       451       470      2134      2197      2195
 -1       784    8    0    1
 -2       298       448       447      2127      2198      2123
 -1       785    8    0    1
 -2       448       299       449      2126      2129      2199
 -1       786    8    0    1
 -2       451       302       452      2133      2136      2200
 -1       787    8    0    1
 -2       460       311       461      2152      2155      2201
 -1       788    8    0    1
 -2       464       315       465      2161      2164      2202
 -1       789    8    0    1
 -2       334       381       471      1931      2203      2204
 -1       790    8    0    1
 -2       323       324       472      1757      2205      2206
 -1       791    8    0    1
 -2       322       323       473      1754      2207      2208
 -1       792    8    0    1
 -2       323       472       473      2206      2209      2207
 -1       793    8    0    1
 -2       325       326       474      1763      2210      2211
 -1       794    8    0    1
 -2       326       327       475      1766      2212      2213
 -1       795    8    0    1
 -2       326       475       474      2213      2214      2210
 -1       796    8    0    1
 -2       327       328       476      1769      2215      2216
 -1       797    8    0    1
 -2       327       476       475      2216      2217      2212
 -1       798    8    0    1
 -2       328       329       477      1772      2218      2219
 -1       799    8    0    1
 -2       328       477       476      2219      2220      2215
 -1       800    8    0    1
 -2       329       330       478      1775      2221      2222
 -1       801    8    0    1
 -2       329       478       477      2222      2223      2218
 -1       802    8    0    1
 -2       330       331       479      1778      2224      2225
 -1       803    8    0    1
 -2       330       479       478      2225      2226      2221
 -1       804    8    0    1
 -2       381       382       480      1934      2227      2228
 -1       805    8    0    1
 -2       381       480       471      2228      2229      2203
 -1       806    8    0    1
 -2       336       335       481      1795      2230      2231
 -1       807    8    0    1
 -2       444       469       482      2175      2232      2233
 -1       808    8    0    1
 -2       337       336       483      1798      2234      2235
 -1       809    8    0    1
 -2       336       481       483      2231      2236      2234
 -1       810    8    0    1
 -2       338       337       484      1801      2237      2238
 -1       811    8    0    1
 -2       337       483       484      2235      2239      2237
 -1       812    8    0    1
 -2       339       338       485      1804      2240      2241
 -1       813    8    0    1
 -2       338       484       485      2238      2242      2240
 -1       814    8    0    1
 -2       340       339       486      1807      2243      2244
 -1       815    8    0    1
 -2       339       485       486      2241      2245      2243
 -1       816    8    0    1
 -2       341       340       487      1810      2246      2247
 -1       817    8    0    1
 -2       340       486       487      2244      2248      2246
 -1       818    8    0    1
 -2       342       341       488      1813      2249      2250
 -1       819    8    0    1
 -2       341       487       488      2247      2251      2249
 -1       820    8    0    1
 -2       343       342       489      1816      2252      2253
 -1       821    8    0    1
 -2       342       488       489      2250      2254      2252
 -1       822    8    0    1
 -2       344       343       490      1819      2255      2256
 -1       823    8    0    1
 -2       343       489       490      2253      2257      2255
 -1       824    8    0    1
 -2       345       344       491      1822      2258      2259
 -1       825    8    0    1
 -2       344       490       491      2256      2260      2258
 -1       826    8    0    1
 -2       346       345       492      1825      2261      2262
 -1       827    8    0    1
 -2       345       491       492      2259      2263      2261
 -1       828    8    0    1
 -2       347       346       493      1828      2264      2265
 -1       829    8    0    1
 -2       346       492       493      2262      2266      2264
 -1       830    8    0    1
 -2       348       347       494      1831      2267      2268
 -1       831    8    0    1
 -2       347       493       494      2265      2269      2267
 -1       832    8    0    1
 -2       349       348       495      1834      2270      2271
 -1       833    8    0    1
 -2       348       494       495      2268      2272      2270
 -1       834    8    0    1
 -2       350       349       496      1837      2273      2274
 -1       835    8    0    1
 -2       349       495       496      2271      2275      2273
 -1       836    8    0    1
 -2       351       350       497      1840      2276      2277
 -1       837    8    0    1
 -2       350       496       497      2274      2278      2276
 -1       838    8    0    1
 -2       352       351       498      1843      2279      2280
 -1       839    8    0    1
 -2       351       497       498      2277      2281      2279
 -1       840    8    0    1
 -2       353       352       499      1846      2282      2283
 -1       841    8    0    1
 -2       352       498       499      2280      2284      2282
 -1       842    8    0    1
 -2       354       353       500      1849      2285      2286
 -1       843    8    0    1
 -2       353       499       500      2283      2287      2285
 -1       844    8    0    1
 -2       355       354       501      1852      2288      2289
 -1       845    8    0    1
 -2       354       500       501      2286      2290      2288
 -1       846    8    0    1
 -2       356       355       502      1855      2291      2292
 -1       847    8    0    1
 -2       355       501       502      2289      2293      2291
 -1       848    8    0    1
 -2       357       356       503      1858      2294      2295
 -1       849    8    0    1
 -2       356       502       503      2292      2296      2294
 -1       850    8    0    1
 -2       358       357       504      1861      2297      2298
 -1       851    8    0    1
 -2       357       503       504      2295      2299      2297
 -1       852    8    0    1
 -2       359       358       505      1864      2300      2301
 -1       853    8    0    1
 -2       358       504       505      2298      2302      2300
 -1       854    8    0    1
 -2       360       359       506      1867      2303      2304
 -1       855    8    0    1
 -2       359       505       506      2301      2305      2303
 -1       856    8    0    1
 -2       361       360       507      1870      2306      2307
 -1       857    8    0    1
 -2       360       506       507      2304      2308      2306
 -1       858    8    0    1
 -2       362       361       508      1873      2309      2310
 -1       859    8    0    1
 -2       361       507       508      2307      2311      2309
 -1       860    8    0    1
 -2       363       362       509      1876      2312      2313
 -1       861    8    0    1
 -2       362       508       509      2310      2314      2312
 -1       862    8    0    1
 -2       364       363       510      1879      2315      2316
 -1       863    8    0    1
 -2       363       509       510      2313      2317      2315
 -1       864    8    0    1
 -2       365       364       511      1882      2318      2319
 -1       865    8    0    1
 -2       364       510       511      2316      2320      2318
 -1       866    8    0    1
 -2       366       365       512      1885      2321      2322
 -1       867    8    0    1
 -2       365       511       512      2319      2323      2321
 -1       868    8    0    1
 -2       367       366       513      1888      2324      2325
 -1       869    8    0    1
 -2       366       512       513      2322      2326      2324
 -1       870    8    0    1
 -2       368       367       514      1891      2327      2328
 -1       871    8    0    1
 -2       367       513       514      2325      2329      2327
 -1       872    8    0    1
 -2       369       368       515      1894      2330      2331
 -1       873    8    0    1
 -2       368       514       515      2328      2332      2330
 -1       874    8    0    1
 -2       370       369       516      1897      2333      2334
 -1       875    8    0    1
 -2       369       515       516      2331      2335      2333
 -1       876    8    0    1
 -2       371       370       517      1900      2336      2337
 -1       877    8    0    1
 -2       370       516       517      2334      2338      2336
 -1       878    8    0    1
 -2       372       371       518      1903      2339      2340
 -1       879    8    0    1
 -2       371       517       518      2337      2341      2339
 -1       880    8    0    1
 -2       373       372       519      1906      2342      2343
 -1       881    8    0    1
 -2       372       518       519      2340      2344      2342
 -1       882    8    0    1
 -2       374       373       520      1909      2345      2346
 -1       883    8    0    1
 -2       373       519       520      2343      2347      2345
 -1       884    8    0    1
 -2       375       374       521      1912      2348      2349
 -1       885    8    0    1
 -2       374       520       521      2346      2350      2348
 -1       886    8    0    1
 -2       376       375       522      1915      2351      2352
 -1       887    8    0    1
 -2       375       521       522      2349      2353      2351
 -1       888    8    0    1
 -2       377       376       523      1918      2354      2355
 -1       889    8    0    1
 -2       376       522       523      2352      2356      2354
 -1       890    8    0    1
 -2       378       377       524      1921      2357      2358
 -1       891    8    0    1
 -2       377       523       524      2355      2359      2357
 -1       892    8    0    1
 -2       379       378       525      1924      2360      2361
 -1       893    8    0    1
 -2       378       524       525      2358      2362      2360
 -1       894    8    0    1
 -2       383       384       526      1940      2363      2364
 -1       895    8    0    1
 -2       384       385       527      1943      2365      2366
 -1       896    8    0    1
 -2       384       527       526      2366      2367      2363
 -1       897    8    0    1
 -2       385       386       528      1946      2368      2369
 -1       898    8    0    1
 -2       385       528       527      2369      2370      2365
 -1       899    8    0    1
 -2       386       387       529      1949      2371      2372
 -1       900    8    0    1
 -2       388       389       448      1955      2373      2374
 -1       901    8    0    1
 -2       389       390       447      1958      2375      2376
 -1       902    8    0    1
 -2       390       391       530      1961      2377      2378
 -1       903    8    0    1
 -2       391       392       482      1964      2379      2380
 -1       904    8    0    1
 -2       392       393       531      1967      2381      2382
 -1       905    8    0    1
 -2       392       531       482      2382      2383      2379
 -1       906    8    0    1
 -2       393       394       532      1970      2384      2385
 -1       907    8    0    1
 -2       393       532       531      2385      2386      2381
 -1       908    8    0    1
 -2       394       395       533      1973      2387      2388
 -1       909    8    0    1
 -2       394       533       532      2388      2389      2384
 -1       910    8    0    1
 -2       395       396       534      1976      2390      2391
 -1       911    8    0    1
 -2       395       534       533      2391      2392      2387
 -1       912    8    0    1
 -2       396       397       535      1979      2393      2394
 -1       913    8    0    1
 -2       396       535       534      2394      2395      2390
 -1       914    8    0    1
 -2       397       398       536      1982      2396      2397
 -1       915    8    0    1
 -2       397       536       535      2397      2398      2393
 -1       916    8    0    1
 -2       398       399       537      1985      2399      2400
 -1       917    8    0    1
 -2       398       537       536      2400      2401      2396
 -1       918    8    0    1
 -2       399       400       538      1988      2402      2403
 -1       919    8    0    1
 -2       399       538       537      2403      2404      2399
 -1       920    8    0    1
 -2       400       401       539      1991      2405      2406
 -1       921    8    0    1
 -2       400       539       538      2406      2407      2402
 -1       922    8    0    1
 -2       401       402       540      1994      2408      2409
 -1       923    8    0    1
 -2       401       540       539      2409      2410      2405
 -1       924    8    0    1
 -2       402       403       541      1997      2411      2412
 -1       925    8    0    1
 -2       402       541       540      2412      2413      2408
 -1       926    8    0    1
 -2       403       404       542      2000      2414      2415
 -1       927    8    0    1
 -2       403       542       541      2415      2416      2411
 -1       928    8    0    1
 -2       404       405       543      2003      2417      2418
 -1       929    8    0    1
 -2       404       543       542      2418      2419      2414
 -1       930    8    0    1
 -2       405       406       544      2006      2420      2421
 -1       931    8    0    1
 -2       405       544       543      2421      2422      2417
 -1       932    8    0    1
 -2       406       407       545      2009      2423      2424
 -1       933    8    0    1
 -2       406       545       544      2424      2425      2420
 -1       934    8    0    1
 -2       407       408       546      2012      2426      2427
 -1       935    8    0    1
 -2       407       546       545      2427      2428      2423
 -1       936    8    0    1
 -2       408       409       547      2015      2429      2430
 -1       937    8    0    1
 -2       408       547       546      2430      2431      2426
 -1       938    8    0    1
 -2       409       410       548      2018      2432      2433
 -1       939    8    0    1
 -2       409       548       547      2433      2434      2429
 -1       940    8    0    1
 -2       410       411       549      2021      2435      2436
 -1       941    8    0    1
 -2       410       549       548      2436      2437      2432
 -1       942    8    0    1
 -2       411       412       550      2024      2438      2439
 -1       943    8    0    1
 -2       411       550       549      2439      2440      2435
 -1       944    8    0    1
 -2       412       413       551      2027      2441      2442
 -1       945    8    0    1
 -2       412       551       550      2442      2443      2438
 -1       946    8    0    1
 -2       413       414       552      2030      2444      2445
 -1       947    8    0    1
 -2       413       552       551      2445      2446      2441
 -1       948    8    0    1
 -2       414       415       553      2033      2447      2448
 -1       949    8    0    1
 -2       414       553       552      2448      2449      2444
 -1       950    8    0    1
 -2       415       416       554      2036      2450      2451
 -1       951    8    0    1
 -2       415       554       553      2451      2452      2447
 -1       952    8    0    1
 -2       416       417       555      2039      2453      2454
 -1       953    8    0    1
 -2       416       555       554      2454      2455      2450
 -1       954    8    0    1
 -2       417       418       556      2042      2456      2457
 -1       955    8    0    1
 -2       417       556       555      2457      2458      2453
 -1       956    8    0    1
 -2       418       419       557      2045      2459      2460
 -1       957    8    0    1
 -2       418       557       556      2460      2461      2456
 -1       958    8    0    1
 -2       419       420       558      2048      2462      2463
 -1       959    8    0    1
 -2       419       558       557      2463      2464      2459
 -1       960    8    0    1
 -2       420       421       559      2051      2465      2466
 -1       961    8    0    1
 -2       420       559       558      2466      2467      2462
 -1       962    8    0    1
 -2       421       422       560      2054      2468      2469
 -1       963    8    0    1
 -2       421       560       559      2469      2470      2465
 -1       964    8    0    1
 -2       422       423       561      2057      2471      2472
 -1       965    8    0    1
 -2       422       561       560      2472      2473      2468
 -1       966    8    0    1
 -2       423       424       562      2060      2474      2475
 -1       967    8    0    1
 -2       423       562       561      2475      2476      2471
 -1       968    8    0    1
 -2       425       426       429      2066      2075      2477
 -1       969    8    0    1
 -2       430       431       563      2082      2478      2479
 -1       970    8    0    1
 -2       431       432       564      2085      2480      2481
 -1       971    8    0    1
 -2       431       564       563      2481      2482      2478
 -1       972    8    0    1
 -2       428       427       565      2072      2483      2484
 -1       973    8    0    1
 -2       427       430       566      2079      2485      2486
 -1       974    8    0    1
 -2       565       427       566      2483      2486      2487
 -1       975    8    0    1
 -2       430       563       566      2479      2488      2485
 -1       976    8    0    1
 -2       432       433       567      2088      2489      2490
 -1       977    8    0    1
 -2       432       567       564      2490      2491      2480
 -1       978    8    0    1
 -2       433       434       568      2091      2492      2493
 -1       979    8    0    1
 -2       433       568       567      2493      2494      2489
 -1       980    8    0    1
 -2       434       435       569      2094      2495      2496
 -1       981    8    0    1
 -2       434       569       568      2496      2497      2492
 -1       982    8    0    1
 -2       435       436       570      2097      2498      2499
 -1       983    8    0    1
 -2       435       570       569      2499      2500      2495
 -1       984    8    0    1
 -2       436       437       571      2100      2501      2502
 -1       985    8    0    1
 -2       436       571       570      2502      2503      2498
 -1       986    8    0    1
 -2       437       438       572      2103      2504      2505
 -1       987    8    0    1
 -2       437       572       571      2505      2506      2501
 -1       988    8    0    1
 -2       438       439       573      2106      2507      2508
 -1       989    8    0    1
 -2       438       573       572      2508      2509      2504
 -1       990    8    0    1
 -2       441       442       574      2179      2510      2511
 -1       991    8    0    1
 -2       440       443       575      2181      2512      2513
 -1       992    8    0    1
 -2       382       383       576      1937      2514      2515
 -1       993    8    0    1
 -2       382       576       480      2515      2516      2227
 -1       994    8    0    1
 -2       439       290       380      2180      1927      2517
 -1       995    8    0    1
 -2       468       441       577      2182      2518      2519
 -1       996    8    0    1
 -2       442       440       578      2178      2520      2521
 -1       997    8    0    1
 -2       335       321       579      2177      2522      2523
 -1       998    8    0    1
 -2       481       335       579      2230      2523      2524
 -1       999    8    0    1
 -2       321       320       579      1749      2525      2522
 -1      1000    8    0    1
 -2       467       468       580      2183      2526      2527
 -1      1001    8    0    1
 -2       461       462       581      2187      2528      2529
 -1      1002    8    0    1
 -2       457       458       582      2189      2530      2531
 -1      1003    8    0    1
 -2       448       389       447      2373      2376      2198
 -1      1004    8    0    1
 -2       324       325       583      1760      2532      2533
 -1      1005    8    0    1
 -2       472       324       583      2205      2533      2534
 -1      1006    8    0    1
 -2       325       474       583      2211      2535      2532
 -1      1007    8    0    1
 -2       448       449       388      2199      2536      2374
 -1      1008    8    0    1
 -2       451       452       584      2200      2537      2538
 -1      1009    8    0    1
 -2       449       450       585      2132      2539      2540
 -1      1010    8    0    1
 -2       460       461       586      2201      2541      2542
 -1      1011    8    0    1
 -2       452       453       587      2194      2543      2544
 -1      1012    8    0    1
 -2       452       587       584      2544      2545      2537
 -1      1013    8    0    1
 -2       453       454       588      2193      2546      2547
 -1      1014    8    0    1
 -2       454       455       589      2192      2548      2549
 -1      1015    8    0    1
 -2       455       456       590      2191      2550      2551
 -1      1016    8    0    1
 -2       456       457       591      2190      2552      2553
 -1      1017    8    0    1
 -2       590       456       591      2550      2553      2554
 -1      1018    8    0    1
 -2       457       582       591      2531      2555      2552
 -1      1019    8    0    1
 -2       458       459       592      2151      2556      2557
 -1      1020    8    0    1
 -2       464       465       593      2202      2558      2559
 -1      1021    8    0    1
 -2       459       460       594      2188      2560      2561
 -1      1022    8    0    1
 -2       459       594       592      2561      2562      2556
 -1      1023    8    0    1
 -2       462       463       595      2160      2563      2564
 -1      1024    8    0    1
 -2       463       464       596      2186      2565      2566
 -1      1025    8    0    1
 -2       464       593       596      2559      2567      2565
 -1      1026    8    0    1
 -2       465       466       597      2185      2568      2569
 -1      1027    8    0    1
 -2       466       467       598      2184      2570      2571
 -1      1028    8    0    1
 -2       469       446       530      2176      2572      2573
 -1      1029    8    0    1
 -2       333       334       599      1789      2574      2575
 -1      1030    8    0    1
 -2       332       333       599      1784      2575      2576
 -1      1031    8    0    1
 -2       334       471       599      2204      2577      2574
 -1      1032    8    0    1
 -2       443       444       600      2173      2578      2579
 -1      1033    8    0    1
 -2       443       600       575      2579      2580      2512
 -1      1034    8    0    1
 -2       388       449       585      2536      2540      2581
 -1      1035    8    0    1
 -2       322       473       601      2208      2582      2583
 -1      1036    8    0    1
 -2       322       601       445      2583      2584      2120
 -1      1037    8    0    1
 -2       439       380       602      2517      2585      2586
 -1      1038    8    0    1
 -2       573       439       602      2507      2586      2587
 -1      1039    8    0    1
 -2       380       379       602      1928      2588      2585
 -1      1040    8    0    1
 -2       331       332       599      1781      2576      2589
 -1      1041    8    0    1
 -2       600       444       482      2578      2233      2590
 -1      1042    8    0    1
 -2       580       468       577      2526      2519      2591
 -1      1043    8    0    1
 -2       379       525       602      2361      2592      2588
 -1      1044    8    0    1
 -2       331       599       479      2589      2593      2224
 -1      1045    8    0    1
 -2       528       386       529      2368      2372      2594
 -1      1046    8    0    1
 -2       529       387       585      2371      2595      2596
 -1      1047    8    0    1
 -2       451       584       470      2538      2597      2197
 -1      1048    8    0    1
 -2       387       388       585      1952      2581      2595
 -1      1049    8    0    1
 -2       425       429       603      2477      2598      2599
 -1      1050    8    0    1
 -2       424       425       603      2063      2599      2600
 -1      1051    8    0    1
 -2       429       428       603      2076      2601      2598
 -1      1052    8    0    1
 -2       562       424       603      2474      2600      2602
 -1      1053    8    0    1
 -2       428       565       603      2484      2603      2601
 -1      1054    8    0    1
 -2       598       467       580      2570      2527      2604
 -1      1055    8    0    1
 -2       441       574       577      2511      2605      2518
 -1      1056    8    0    1
 -2       574       442       604      2510      2606      2607
 -1      1057    8    0    1
 -2       442       578       604      2521      2608      2606
 -1      1058    8    0    1
 -2       440       575       578      2513      2609      2520
 -1      1059    8    0    1
 -2       594       460       586      2560      2542      2610
 -1      1060    8    0    1
 -2       581       462       595      2528      2564      2611
 -1      1061    8    0    1
 -2       461       581       586      2529      2612      2541
 -1      1062    8    0    1
 -2       582       458       592      2530      2557      2613
 -1      1063    8    0    1
 -2       579       320       445      2525      2119      2614
 -1      1064    8    0    1
 -2       576       383       526      2514      2364      2615
 -1      1065    8    0    1
 -2       589       455       590      2548      2551      2616
 -1      1066    8    0    1
 -2       447       390       530      2375      2378      2617
 -1      1067    8    0    1
 -2       587       453       588      2543      2547      2618
 -1      1068    8    0    1
 -2       450       470       585      2196      2619      2539
 -1      1069    8    0    1
 -2       588       454       589      2546      2549      2620
 -1      1070    8    0    1
 -2       593       465       597      2558      2569      2621
 -1      1071    8    0    1
 -2       595       463       596      2563      2566      2622
 -1      1072    8    0    1
 -2       597       466       598      2568      2571      2623
 -1      1073    8    0    1
 -2       479       599       471      2593      2577      2624
 -1      1074    8    0    1
 -2       475       476       605      2217      2625      2626
 -1      1075    8    0    1
 -2       474       475       606      2214      2627      2628
 -1      1076    8    0    1
 -2       475       605       606      2626      2629      2627
 -1      1077    8    0    1
 -2       477       478       607      2223      2630      2631
 -1      1078    8    0    1
 -2       478       479       608      2226      2632      2633
 -1      1079    8    0    1
 -2       478       608       607      2633      2634      2630
 -1      1080    8    0    1
 -2       580       577       609      2591      2635      2636
 -1      1081    8    0    1
 -2       602       525       610      2592      2637      2638
 -1      1082    8    0    1
 -2       602       610       573      2638      2639      2587
 -1      1083    8    0    1
 -2       484       483       611      2239      2640      2641
 -1      1084    8    0    1
 -2       485       484       612      2242      2642      2643
 -1      1085    8    0    1
 -2       484       611       612      2641      2644      2642
 -1      1086    8    0    1
 -2       486       485       613      2245      2645      2646
 -1      1087    8    0    1
 -2       485       612       613      2643      2647      2645
 -1      1088    8    0    1
 -2       487       486       614      2248      2648      2649
 -1      1089    8    0    1
 -2       486       613       614      2646      2650      2648
 -1      1090    8    0    1
 -2       488       487       615      2251      2651      2652
 -1      1091    8    0    1
 -2       487       614       615      2649      2653      2651
 -1      1092    8    0    1
 -2       489       488       616      2254      2654      2655
 -1      1093    8    0    1
 -2       488       615       616      2652      2656      2654
 -1      1094    8    0    1
 -2       490       489       617      2257      2657      2658
 -1      1095    8    0    1
 -2       489       616       617      2655      2659      2657
 -1      1096    8    0    1
 -2       491       490       618      2260      2660      2661
 -1      1097    8    0    1
 -2       490       617       618      2658      2662      2660
 -1      1098    8    0    1
 -2       492       491       619      2263      2663      2664
 -1      1099    8    0    1
 -2       491       618       619      2661      2665      2663
 -1      1100    8    0    1
 -2       493       492       620      2266      2666      2667
 -1      1101    8    0    1
 -2       492       619       620      2664      2668      2666
 -1      1102    8    0    1
 -2       494       493       621      2269      2669      2670
 -1      1103    8    0    1
 -2       493       620       621      2667      2671      2669
 -1      1104    8    0    1
 -2       495       494       622      2272      2672      2673
 -1      1105    8    0    1
 -2       494       621       622      2670      2674      2672
 -1      1106    8    0    1
 -2       496       495       623      2275      2675      2676
 -1      1107    8    0    1
 -2       495       622       623      2673      2677      2675
 -1      1108    8    0    1
 -2       497       496       624      2278      2678      2679
 -1      1109    8    0    1
 -2       496       623       624      2676      2680      2678
 -1      1110    8    0    1
 -2       498       497       625      2281      2681      2682
 -1      1111    8    0    1
 -2       497       624       625      2679      2683      2681
 -1      1112    8    0    1
 -2       499       498       626      2284      2684      2685
 -1      1113    8    0    1
 -2       498       625       626      2682      2686      2684
 -1      1114    8    0    1
 -2       500       499       627      2287      2687      2688
 -1      1115    8    0    1
 -2       499       626       627      2685      2689      2687
 -1      1116    8    0    1
 -2       501       500       628      2290      2690      2691
 -1      1117    8    0    1
 -2       500       627       628      2688      2692      2690
 -1      1118    8    0    1
 -2       502       501       629      2293      2693      2694
 -1      1119    8    0    1
 -2       501       628       629      2691      2695      2693
 -1      1120    8    0    1
 -2       503       502       630      2296      2696      2697
 -1      1121    8    0    1
 -2       502       629       630      2694      2698      2696
 -1      1122    8    0    1
 -2       504       503       631      2299      2699      2700
 -1      1123    8    0    1
 -2       503       630       631      2697      2701      2699
 -1      1124    8    0    1
 -2       505       504       632      2302      2702      2703
 -1      1125    8    0    1
 -2       504       631       632      2700      2704      2702
 -1      1126    8    0    1
 -2       506       505       633      2305      2705      2706
 -1      1127    8    0    1
 -2       505       632       633      2703      2707      2705
 -1      1128    8    0    1
 -2       507       506       634      2308      2708      2709
 -1      1129    8    0    1
 -2       506       633       634      2706      2710      2708
 -1      1130    8    0    1
 -2       508       507       635      2311      2711      2712
 -1      1131    8    0    1
 -2       507       634       635      2709      2713      2711
 -1      1132    8    0    1
 -2       509       508       636      2314      2714      2715
 -1      1133    8    0    1
 -2       508       635       636      2712      2716      2714
 -1      1134    8    0    1
 -2       510       509       637      2317      2717      2718
 -1      1135    8    0    1
 -2       509       636       637      2715      2719      2717
 -1      1136    8    0    1
 -2       511       510       638      2320      2720      2721
 -1      1137    8    0    1
 -2       510       637       638      2718      2722      2720
 -1      1138    8    0    1
 -2       512       511       639      2323      2723      2724
 -1      1139    8    0    1
 -2       511       638       639      2721      2725      2723
 -1      1140    8    0    1
 -2       513       512       640      2326      2726      2727
 -1      1141    8    0    1
 -2       512       639       640      2724      2728      2726
 -1      1142    8    0    1
 -2       514       513       641      2329      2729      2730
 -1      1143    8    0    1
 -2       513       640       641      2727      2731      2729
 -1      1144    8    0    1
 -2       515       514       642      2332      2732      2733
 -1      1145    8    0    1
 -2       514       641       642      2730      2734      2732
 -1      1146    8    0    1
 -2       516       515       643      2335      2735      2736
 -1      1147    8    0    1
 -2       515       642       643      2733      2737      2735
 -1      1148    8    0    1
 -2       517       516       644      2338      2738      2739
 -1      1149    8    0    1
 -2       516       643       644      2736      2740      2738
 -1      1150    8    0    1
 -2       518       517       645      2341      2741      2742
 -1      1151    8    0    1
 -2       517       644       645      2739      2743      2741
 -1      1152    8    0    1
 -2       519       518       646      2344      2744      2745
 -1      1153    8    0    1
 -2       518       645       646      2742      2746      2744
 -1      1154    8    0    1
 -2       520       519       647      2347      2747      2748
 -1      1155    8    0    1
 -2       519       646       647      2745      2749      2747
 -1      1156    8    0    1
 -2       521       520       648      2350      2750      2751
 -1      1157    8    0    1
 -2       520       647       648      2748      2752      2750
 -1      1158    8    0    1
 -2       522       521       649      2353      2753      2754
 -1      1159    8    0    1
 -2       521       648       649      2751      2755      2753
 -1      1160    8    0    1
 -2       523       522       650      2356      2756      2757
 -1      1161    8    0    1
 -2       522       649       650      2754      2758      2756
 -1      1162    8    0    1
 -2       524       523       651      2359      2759      2760
 -1      1163    8    0    1
 -2       523       650       651      2757      2761      2759
 -1      1164    8    0    1
 -2       525       524       652      2362      2762      2763
 -1      1165    8    0    1
 -2       610       525       652      2637      2763      2764
 -1      1166    8    0    1
 -2       524       651       652      2760      2765      2762
 -1      1167    8    0    1
 -2       527       528       653      2370      2766      2767
 -1      1168    8    0    1
 -2       526       527       654      2367      2768      2769
 -1      1169    8    0    1
 -2       527       653       654      2767      2770      2768
 -1      1170    8    0    1
 -2       603       565       562      2603      2771      2602
 -1      1171    8    0    1
 -2       470       584       655      2597      2772      2773
 -1      1172    8    0    1
 -2       587       588       656      2618      2774      2775
 -1      1173    8    0    1
 -2       391       482       530      2380      2776      2377
 -1      1174    8    0    1
 -2       482       531       600      2383      2777      2590
 -1      1175    8    0    1
 -2       533       534       657      2392      2778      2779
 -1      1176    8    0    1
 -2       534       535       658      2395      2780      2781
 -1      1177    8    0    1
 -2       534       658       657      2781      2782      2778
 -1      1178    8    0    1
 -2       535       536       659      2398      2783      2784
 -1      1179    8    0    1
 -2       535       659       658      2784      2785      2780
 -1      1180    8    0    1
 -2       536       537       660      2401      2786      2787
 -1      1181    8    0    1
 -2       536       660       659      2787      2788      2783
 -1      1182    8    0    1
 -2       537       538       661      2404      2789      2790
 -1      1183    8    0    1
 -2       537       661       660      2790      2791      2786
 -1      1184    8    0    1
 -2       538       539       662      2407      2792      2793
 -1      1185    8    0    1
 -2       538       662       661      2793      2794      2789
 -1      1186    8    0    1
 -2       539       540       663      2410      2795      2796
 -1      1187    8    0    1
 -2       539       663       662      2796      2797      2792
 -1      1188    8    0    1
 -2       540       541       664      2413      2798      2799
 -1      1189    8    0    1
 -2       540       664       663      2799      2800      2795
 -1      1190    8    0    1
 -2       541       542       665      2416      2801      2802
 -1      1191    8    0    1
 -2       541       665       664      2802      2803      2798
 -1      1192    8    0    1
 -2       542       543       666      2419      2804      2805
 -1      1193    8    0    1
 -2       542       666       665      2805      2806      2801
 -1      1194    8    0    1
 -2       543       544       667      2422      2807      2808
 -1      1195    8    0    1
 -2       543       667       666      2808      2809      2804
 -1      1196    8    0    1
 -2       544       545       668      2425      2810      2811
 -1      1197    8    0    1
 -2       544       668       667      2811      2812      2807
 -1      1198    8    0    1
 -2       545       546       669      2428      2813      2814
 -1      1199    8    0    1
 -2       545       669       668      2814      2815      2810
 -1      1200    8    0    1
 -2       546       547       670      2431      2816      2817
 -1      1201    8    0    1
 -2       546       670       669      2817      2818      2813
 -1      1202    8    0    1
 -2       547       548       671      2434      2819      2820
 -1      1203    8    0    1
 -2       547       671       670      2820      2821      2816
 -1      1204    8    0    1
 -2       548       549       672      2437      2822      2823
 -1      1205    8    0    1
 -2       548       672       671      2823      2824      2819
 -1      1206    8    0    1
 -2       549       550       673      2440      2825      2826
 -1      1207    8    0    1
 -2       549       673       672      2826      2827      2822
 -1      1208    8    0    1
 -2       550       551       674      2443      2828      2829
 -1      1209    8    0    1
 -2       550       674       673      2829      2830      2825
 -1      1210    8    0    1
 -2       551       552       675      2446      2831      2832
 -1      1211    8    0    1
 -2       551       675       674      2832      2833      2828
 -1      1212    8    0    1
 -2       552       553       676      2449      2834      2835
 -1      1213    8    0    1
 -2       552       676       675      2835      2836      2831
 -1      1214    8    0    1
 -2       553       554       677      2452      2837      2838
 -1      1215    8    0    1
 -2       553       677       676      2838      2839      2834
 -1      1216    8    0    1
 -2       554       555       678      2455      2840      2841
 -1      1217    8    0    1
 -2       554       678       677      2841      2842      2837
 -1      1218    8    0    1
 -2       555       556       679      2458      2843      2844
 -1      1219    8    0    1
 -2       555       679       678      2844      2845      2840
 -1      1220    8    0    1
 -2       556       557       680      2461      2846      2847
 -1      1221    8    0    1
 -2       556       680       679      2847      2848      2843
 -1      1222    8    0    1
 -2       557       558       681      2464      2849      2850
 -1      1223    8    0    1
 -2       557       681       680      2850      2851      2846
 -1      1224    8    0    1
 -2       558       559       682      2467      2852      2853
 -1      1225    8    0    1
 -2       558       682       681      2853      2854      2849
 -1      1226    8    0    1
 -2       559       560       683      2470      2855      2856
 -1      1227    8    0    1
 -2       559       683       682      2856      2857      2852
 -1      1228    8    0    1
 -2       560       561       684      2473      2858      2859
 -1      1229    8    0    1
 -2       560       684       683      2859      2860      2855
 -1      1230    8    0    1
 -2       561       562       685      2476      2861      2862
 -1      1231    8    0    1
 -2       561       685       684      2862      2863      2858
 -1      1232    8    0    1
 -2       567       568       686      2494      2864      2865
 -1      1233    8    0    1
 -2       563       564       687      2482      2866      2867
 -1      1234    8    0    1
 -2       568       569       688      2497      2868      2869
 -1      1235    8    0    1
 -2       568       688       686      2869      2870      2864
 -1      1236    8    0    1
 -2       564       567       689      2491      2871      2872
 -1      1237    8    0    1
 -2       687       564       689      2866      2872      2873
 -1      1238    8    0    1
 -2       567       686       689      2865      2874      2871
 -1      1239    8    0    1
 -2       598       580       690      2604      2875      2876
 -1      1240    8    0    1
 -2       580       609       690      2636      2877      2875
 -1      1241    8    0    1
 -2       569       570       691      2500      2878      2879
 -1      1242    8    0    1
 -2       569       691       688      2879      2880      2868
 -1      1243    8    0    1
 -2       570       571       692      2503      2881      2882
 -1      1244    8    0    1
 -2       570       692       691      2882      2883      2878
 -1      1245    8    0    1
 -2       571       572       693      2506      2884      2885
 -1      1246    8    0    1
 -2       571       693       692      2885      2886      2881
 -1      1247    8    0    1
 -2       572       573       610      2509      2639      2887
 -1      1248    8    0    1
 -2       596       593       694      2567      2888      2889
 -1      1249    8    0    1
 -2       480       576       695      2516      2890      2891
 -1      1250    8    0    1
 -2       594       586       696      2610      2892      2893
 -1      1251    8    0    1
 -2       578       575       697      2609      2894      2895
 -1      1252    8    0    1
 -2       481       579       698      2524      2896      2897
 -1      1253    8    0    1
 -2       586       581       699      2612      2898      2899
 -1      1254    8    0    1
 -2       579       445       698      2614      2900      2896
 -1      1255    8    0    1
 -2       531       532       697      2386      2901      2902
 -1      1256    8    0    1
 -2       529       585       470      2596      2619      2903
 -1      1257    8    0    1
 -2       483       481       700      2236      2904      2905
 -1      1258    8    0    1
 -2       611       483       700      2640      2905      2906
 -1      1259    8    0    1
 -2       481       698       700      2897      2907      2904
 -1      1260    8    0    1
 -2       562       565       685      2771      2908      2861
 -1      1261    8    0    1
 -2       582       592       701      2613      2909      2910
 -1      1262    8    0    1
 -2       577       574       702      2605      2911      2912
 -1      1263    8    0    1
 -2       576       526       703      2615      2913      2914
 -1      1264    8    0    1
 -2       695       576       703      2890      2914      2915
 -1      1265    8    0    1
 -2       526       654       703      2769      2916      2913
 -1      1266    8    0    1
 -2       482       469       530      2232      2573      2776
 -1      1267    8    0    1
 -2       476       477       704      2220      2917      2918
 -1      1268    8    0    1
 -2       605       476       704      2625      2918      2919
 -1      1269    8    0    1
 -2       477       607       704      2631      2920      2917
 -1      1270    8    0    1
 -2       581       595       705      2611      2921      2922
 -1      1271    8    0    1
 -2       473       472       706      2209      2923      2924
 -1      1272    8    0    1
 -2       584       587       707      2545      2925      2926
 -1      1273    8    0    1
 -2       655       584       707      2772      2926      2927
 -1      1274    8    0    1
 -2       587       656       707      2775      2928      2925
 -1      1275    8    0    1
 -2       593       597       708      2621      2929      2930
 -1      1276    8    0    1
 -2       595       596       709      2622      2931      2932
 -1      1277    8    0    1
 -2       596       694       709      2889      2933      2931
 -1      1278    8    0    1
 -2       588       589       710      2620      2934      2935
 -1      1279    8    0    1
 -2       592       594       711      2562      2936      2937
 -1      1280    8    0    1
 -2       597       598       712      2623      2938      2939
 -1      1281    8    0    1
 -2       589       590       713      2616      2940      2941
 -1      1282    8    0    1
 -2       479       471       714      2624      2942      2943
 -1      1283    8    0    1
 -2       608       479       714      2632      2943      2944
 -1      1284    8    0    1
 -2       471       480       714      2229      2945      2942
 -1      1285    8    0    1
 -2       601       473       715      2582      2946      2947
 -1      1286    8    0    1
 -2       473       706       715      2924      2948      2946
 -1      1287    8    0    1
 -2       474       606       716      2628      2949      2950
 -1      1288    8    0    1
 -2       474       716       583      2950      2951      2535
 -1      1289    8    0    1
 -2       609       577       702      2635      2912      2952
 -1      1290    8    0    1
 -2       528       529       655      2594      2953      2954
 -1      1291    8    0    1
 -2       588       710       717      2935      2955      2956
 -1      1292    8    0    1
 -2       588       717       656      2956      2957      2774
 -1      1293    8    0    1
 -2       581       705       699      2922      2958      2898
 -1      1294    8    0    1
 -2       702       574       718      2911      2959      2960
 -1      1295    8    0    1
 -2       574       604       718      2607      2961      2959
 -1      1296    8    0    1
 -2       711       594       696      2936      2893      2962
 -1      1297    8    0    1
 -2       708       597       712      2929      2939      2963
 -1      1298    8    0    1
 -2       593       708       719      2930      2964      2965
 -1      1299    8    0    1
 -2       593       719       694      2965      2966      2888
 -1      1300    8    0    1
 -2       598       690       712      2876      2967      2938
 -1      1301    8    0    1
 -2       582       701       720      2910      2968      2969
 -1      1302    8    0    1
 -2       563       687       721      2867      2970      2971
 -1      1303    8    0    1
 -2       563       721       566      2971      2972      2488
 -1      1304    8    0    1
 -2       565       566       722      2487      2973      2974
 -1      1305    8    0    1
 -2       685       565       722      2908      2974      2975
 -1      1306    8    0    1
 -2       566       721       722      2972      2976      2973
 -1      1307    8    0    1
 -2       696       586       699      2892      2899      2977
 -1      1308    8    0    1
 -2       470       655       529      2773      2953      2903
 -1      1309    8    0    1
 -2       572       610       693      2887      2978      2884
 -1      1310    8    0    1
 -2       582       720       591      2969      2979      2555
 -1      1311    8    0    1
 -2       604       578       723      2608      2980      2981
 -1      1312    8    0    1
 -2       578       697       723      2895      2982      2980
 -1      1313    8    0    1
 -2       480       695       714      2891      2983      2945
 -1      1314    8    0    1
 -2       698       445       601      2900      2584      2984
 -1      1315    8    0    1
 -2       697       532       724      2901      2985      2986
 -1      1316    8    0    1
 -2       723       697       724      2982      2986      2987
 -1      1317    8    0    1
 -2       532       533       724      2389      2988      2985
 -1      1318    8    0    1
 -2       472       583       725      2534      2989      2990
 -1      1319    8    0    1
 -2       706       472       725      2923      2990      2991
 -1      1320    8    0    1
 -2       583       716       725      2951      2992      2989
 -1      1321    8    0    1
 -2       701       592       711      2909      2937      2993
 -1      1322    8    0    1
 -2       528       655       707      2954      2927      2994
 -1      1323    8    0    1
 -2       713       590       726      2940      2995      2996
 -1      1324    8    0    1
 -2       446       447       530      2125      2617      2572
 -1      1325    8    0    1
 -2       590       591       727      2554      2997      2998
 -1      1326    8    0    1
 -2       726       590       727      2995      2998      2999
 -1      1327    8    0    1
 -2       591       720       727      2979      3000      2997
 -1      1328    8    0    1
 -2       653       528       707      2766      2994      3001
 -1      1329    8    0    1
 -2       710       589       713      2934      2941      3002
 -1      1330    8    0    1
 -2       533       657       724      2779      3003      2988
 -1      1331    8    0    1
 -2       705       595       709      2921      2932      3004
 -1      1332    8    0    1
 -2       688       691       728      2880      3005      3006
 -1      1333    8    0    1
 -2       607       608       729      2634      3007      3008
 -1      1334    8    0    1
 -2       613       612       730      2647      3009      3010
 -1      1335    8    0    1
 -2       614       613       731      2650      3011      3012
 -1      1336    8    0    1
 -2       613       730       731      3010      3013      3011
 -1      1337    8    0    1
 -2       615       614       732      2653      3014      3015
 -1      1338    8    0    1
 -2       614       731       732      3012      3016      3014
 -1      1339    8    0    1
 -2       616       615       733      2656      3017      3018
 -1      1340    8    0    1
 -2       615       732       733      3015      3019      3017
 -1      1341    8    0    1
 -2       617       616       734      2659      3020      3021
 -1      1342    8    0    1
 -2       616       733       734      3018      3022      3020
 -1      1343    8    0    1
 -2       618       617       735      2662      3023      3024
 -1      1344    8    0    1
 -2       617       734       735      3021      3025      3023
 -1      1345    8    0    1
 -2       619       618       736      2665      3026      3027
 -1      1346    8    0    1
 -2       618       735       736      3024      3028      3026
 -1      1347    8    0    1
 -2       620       619       737      2668      3029      3030
 -1      1348    8    0    1
 -2       619       736       737      3027      3031      3029
 -1      1349    8    0    1
 -2       621       620       738      2671      3032      3033
 -1      1350    8    0    1
 -2       620       737       738      3030      3034      3032
 -1      1351    8    0    1
 -2       622       621       739      2674      3035      3036
 -1      1352    8    0    1
 -2       621       738       739      3033      3037      3035
 -1      1353    8    0    1
 -2       623       622       740      2677      3038      3039
 -1      1354    8    0    1
 -2       622       739       740      3036      3040      3038
 -1      1355    8    0    1
 -2       624       623       741      2680      3041      3042
 -1      1356    8    0    1
 -2       623       740       741      3039      3043      3041
 -1      1357    8    0    1
 -2       625       624       742      2683      3044      3045
 -1      1358    8    0    1
 -2       624       741       742      3042      3046      3044
 -1      1359    8    0    1
 -2       626       625       743      2686      3047      3048
 -1      1360    8    0    1
 -2       625       742       743      3045      3049      3047
 -1      1361    8    0    1
 -2       627       626       744      2689      3050      3051
 -1      1362    8    0    1
 -2       626       743       744      3048      3052      3050
 -1      1363    8    0    1
 -2       628       627       745      2692      3053      3054
 -1      1364    8    0    1
 -2       627       744       745      3051      3055      3053
 -1      1365    8    0    1
 -2       629       628       746      2695      3056      3057
 -1      1366    8    0    1
 -2       628       745       746      3054      3058      3056
 -1      1367    8    0    1
 -2       630       629       747      2698      3059      3060
 -1      1368    8    0    1
 -2       629       746       747      3057      3061      3059
 -1      1369    8    0    1
 -2       631       630       748      2701      3062      3063
 -1      1370    8    0    1
 -2       630       747       748      3060      3064      3062
 -1      1371    8    0    1
 -2       632       631       749      2704      3065      3066
 -1      1372    8    0    1
 -2       631       748       749      3063      3067      3065
 -1      1373    8    0    1
 -2       633       632       750      2707      3068      3069
 -1      1374    8    0    1
 -2       632       749       750      3066      3070      3068
 -1      1375    8    0    1
 -2       634       633       751      2710      3071      3072
 -1      1376    8    0    1
 -2       633       750       751      3069      3073      3071
 -1      1377    8    0    1
 -2       635       634       752      2713      3074      3075
 -1      1378    8    0    1
 -2       634       751       752      3072      3076      3074
 -1      1379    8    0    1
 -2       636       635       753      2716      3077      3078
 -1      1380    8    0    1
 -2       635       752       753      3075      3079      3077
 -1      1381    8    0    1
 -2       637       636       754      2719      3080      3081
 -1      1382    8    0    1
 -2       636       753       754      3078      3082      3080
 -1      1383    8    0    1
 -2       638       637       755      2722      3083      3084
 -1      1384    8    0    1
 -2       637       754       755      3081      3085      3083
 -1      1385    8    0    1
 -2       639       638       756      2725      3086      3087
 -1      1386    8    0    1
 -2       638       755       756      3084      3088      3086
 -1      1387    8    0    1
 -2       640       639       757      2728      3089      3090
 -1      1388    8    0    1
 -2       639       756       757      3087      3091      3089
 -1      1389    8    0    1
 -2       641       640       758      2731      3092      3093
 -1      1390    8    0    1
 -2       640       757       758      3090      3094      3092
 -1      1391    8    0    1
 -2       642       641       759      2734      3095      3096
 -1      1392    8    0    1
 -2       641       758       759      3093      3097      3095
 -1      1393    8    0    1
 -2       643       642       760      2737      3098      3099
 -1      1394    8    0    1
 -2       642       759       760      3096      3100      3098
 -1      1395    8    0    1
 -2       644       643       761      2740      3101      3102
 -1      1396    8    0    1
 -2       643       760       761      3099      3103      3101
 -1      1397    8    0    1
 -2       645       644       762      2743      3104      3105
 -1      1398    8    0    1
 -2       644       761       762      3102      3106      3104
 -1      1399    8    0    1
 -2       646       645       763      2746      3107      3108
 -1      1400    8    0    1
 -2       645       762       763      3105      3109      3107
 -1      1401    8    0    1
 -2       647       646       764      2749      3110      3111
 -1      1402    8    0    1
 -2       646       763       764      3108      3112      3110
 -1      1403    8    0    1
 -2       648       647       765      2752      3113      3114
 -1      1404    8    0    1
 -2       647       764       765      3111      3115      3113
 -1      1405    8    0    1
 -2       649       648       766      2755      3116      3117
 -1      1406    8    0    1
 -2       648       765       766      3114      3118      3116
 -1      1407    8    0    1
 -2       650       649       767      2758      3119      3120
 -1      1408    8    0    1
 -2       649       766       767      3117      3121      3119
 -1      1409    8    0    1
 -2       651       650       768      2761      3122      3123
 -1      1410    8    0    1
 -2       650       767       768      3120      3124      3122
 -1      1411    8    0    1
 -2       699       705       769      2958      3125      3126
 -1      1412    8    0    1
 -2       609       702       770      2952      3127      3128
 -1      1413    8    0    1
 -2       659       660       771      2788      3129      3130
 -1      1414    8    0    1
 -2       658       659       772      2785      3131      3132
 -1      1415    8    0    1
 -2       659       771       772      3130      3133      3131
 -1      1416    8    0    1
 -2       657       658       773      2782      3134      3135
 -1      1417    8    0    1
 -2       658       772       773      3132      3136      3134
 -1      1418    8    0    1
 -2       660       661       774      2791      3137      3138
 -1      1419    8    0    1
 -2       660       774       771      3138      3139      3129
 -1      1420    8    0    1
 -2       661       662       775      2794      3140      3141
 -1      1421    8    0    1
 -2       661       775       774      3141      3142      3137
 -1      1422    8    0    1
 -2       662       663       776      2797      3143      3144
 -1      1423    8    0    1
 -2       662       776       775      3144      3145      3140
 -1      1424    8    0    1
 -2       663       664       777      2800      3146      3147
 -1      1425    8    0    1
 -2       663       777       776      3147      3148      3143
 -1      1426    8    0    1
 -2       664       665       778      2803      3149      3150
 -1      1427    8    0    1
 -2       664       778       777      3150      3151      3146
 -1      1428    8    0    1
 -2       665       666       779      2806      3152      3153
 -1      1429    8    0    1
 -2       665       779       778      3153      3154      3149
 -1      1430    8    0    1
 -2       666       667       780      2809      3155      3156
 -1      1431    8    0    1
 -2       666       780       779      3156      3157      3152
 -1      1432    8    0    1
 -2       667       668       781      2812      3158      3159
 -1      1433    8    0    1
 -2       667       781       780      3159      3160      3155
 -1      1434    8    0    1
 -2       668       669       782      2815      3161      3162
 -1      1435    8    0    1
 -2       668       782       781      3162      3163      3158
 -1      1436    8    0    1
 -2       669       670       783      2818      3164      3165
 -1      1437    8    0    1
 -2       669       783       782      3165      3166      3161
 -1      1438    8    0    1
 -2       670       671       784      2821      3167      3168
 -1      1439    8    0    1
 -2       670       784       783      3168      3169      3164
 -1      1440    8    0    1
 -2       671       672       785      2824      3170      3171
 -1      1441    8    0    1
 -2       671       785       784      3171      3172      3167
 -1      1442    8    0    1
 -2       672       673       786      2827      3173      3174
 -1      1443    8    0    1
 -2       672       786       785      3174      3175      3170
 -1      1444    8    0    1
 -2       673       674       787      2830      3176      3177
 -1      1445    8    0    1
 -2       673       787       786      3177      3178      3173
 -1      1446    8    0    1
 -2       674       675       788      2833      3179      3180
 -1      1447    8    0    1
 -2       674       788       787      3180      3181      3176
 -1      1448    8    0    1
 -2       675       676       789      2836      3182      3183
 -1      1449    8    0    1
 -2       675       789       788      3183      3184      3179
 -1      1450    8    0    1
 -2       676       677       790      2839      3185      3186
 -1      1451    8    0    1
 -2       676       790       789      3186      3187      3182
 -1      1452    8    0    1
 -2       677       678       791      2842      3188      3189
 -1      1453    8    0    1
 -2       677       791       790      3189      3190      3185
 -1      1454    8    0    1
 -2       678       679       792      2845      3191      3192
 -1      1455    8    0    1
 -2       678       792       791      3192      3193      3188
 -1      1456    8    0    1
 -2       679       680       793      2848      3194      3195
 -1      1457    8    0    1
 -2       679       793       792      3195      3196      3191
 -1      1458    8    0    1
 -2       680       681       794      2851      3197      3198
 -1      1459    8    0    1
 -2       680       794       793      3198      3199      3194
 -1      1460    8    0    1
 -2       681       682       795      2854      3200      3201
 -1      1461    8    0    1
 -2       681       795       794      3201      3202      3197
 -1      1462    8    0    1
 -2       682       683       796      2857      3203      3204
 -1      1463    8    0    1
 -2       682       796       795      3204      3205      3200
 -1      1464    8    0    1
 -2       683       684       797      2860      3206      3207
 -1      1465    8    0    1
 -2       683       797       796      3207      3208      3203
 -1      1466    8    0    1
 -2       684       685       798      2863      3209      3210
 -1      1467    8    0    1
 -2       797       684       798      3206      3210      3211
 -1      1468    8    0    1
 -2       685       722       798      2975      3212      3209
 -1      1469    8    0    1
 -2       720       701       799      2968      3213      3214
 -1      1470    8    0    1
 -2       696       699       800      2977      3215      3216
 -1      1471    8    0    1
 -2       686       688       801      2870      3217      3218
 -1      1472    8    0    1
 -2       688       728       801      3006      3219      3217
 -1      1473    8    0    1
 -2       692       693       802      2886      3220      3221
 -1      1474    8    0    1
 -2       653       707       656      3001      2928      3222
 -1      1475    8    0    1
 -2       712       690       803      2967      3223      3224
 -1      1476    8    0    1
 -2       708       712       804      2963      3225      3226
 -1      1477    8    0    1
 -2       711       696       805      2962      3227      3228
 -1      1478    8    0    1
 -2       705       709       806      3004      3229      3230
 -1      1479    8    0    1
 -2       705       806       769      3230      3231      3125
 -1      1480    8    0    1
 -2       698       601       715      2984      2947      3232
 -1      1481    8    0    1
 -2       531       697       575      2902      2894      3233
 -1      1482    8    0    1
 -2       693       610       807      2978      3234      3235
 -1      1483    8    0    1
 -2       802       693       807      3220      3235      3236
 -1      1484    8    0    1
 -2       610       652       807      2764      3237      3234
 -1      1485    8    0    1
 -2       600       531       575      2777      3233      2580
 -1      1486    8    0    1
 -2       691       692       808      2883      3238      3239
 -1      1487    8    0    1
 -2       728       691       808      3005      3239      3240
 -1      1488    8    0    1
 -2       692       802       808      3221      3241      3238
 -1      1489    8    0    1
 -2       701       711       809      2993      3242      3243
 -1      1490    8    0    1
 -2       713       726       810      2996      3244      3245
 -1      1491    8    0    1
 -2       709       694       811      2933      3246      3247
 -1      1492    8    0    1
 -2       690       609       812      2877      3248      3249
 -1      1493    8    0    1
 -2       612       611       813      2644      3250      3251
 -1      1494    8    0    1
 -2       612       813       730      3251      3252      3009
 -1      1495    8    0    1
 -2       710       713       814      3002      3253      3254
 -1      1496    8    0    1
 -2       713       810       814      3245      3255      3253
 -1      1497    8    0    1
 -2       724       657       815      3003      3256      3257
 -1      1498    8    0    1
 -2       657       773       815      3135      3258      3256
 -1      1499    8    0    1
 -2       608       714       816      2944      3259      3260
 -1      1500    8    0    1
 -2       729       608       816      3007      3260      3261
 -1      1501    8    0    1
 -2       714       695       816      2983      3262      3259
 -1      1502    8    0    1
 -2       606       605       817      2629      3263      3264
 -1      1503    8    0    1
 -2       653       656       818      3222      3265      3266
 -1      1504    8    0    1
 -2       654       653       818      2770      3266      3267
 -1      1505    8    0    1
 -2       656       717       818      2957      3268      3265
 -1      1506    8    0    1
 -2       716       606       819      2949      3269      3270
 -1      1507    8    0    1
 -2       606       817       819      3264      3271      3269
 -1      1508    8    0    1
 -2       809       711       805      3242      3228      3272
 -1      1509    8    0    1
 -2       717       710       814      2955      3254      3273
 -1      1510    8    0    1
 -2       607       729       820      3008      3274      3275
 -1      1511    8    0    1
 -2       607       820       704      3275      3276      2920
 -1      1512    8    0    1
 -2       812       609       770      3248      3128      3277
 -1      1513    8    0    1
 -2       699       769       800      3126      3278      3215
 -1      1514    8    0    1
 -2       698       715       700      3232      3279      2907
 -1      1515    8    0    1
 -2       652       651       807      2765      3280      3237
 -1      1516    8    0    1
 -2       726       727       821      2999      3281      3282
 -1      1517    8    0    1
 -2       719       708       822      2964      3283      3284
 -1      1518    8    0    1
 -2       708       804       822      3226      3285      3283
 -1      1519    8    0    1
 -2       721       687       823      2970      3286      3287
 -1      1520    8    0    1
 -2       605       704       824      2919      3288      3289
 -1      1521    8    0    1
 -2       817       605       824      3263      3289      3290
 -1      1522    8    0    1
 -2       704       820       824      3276      3291      3288
 -1      1523    8    0    1
 -2       799       701       809      3213      3243      3292
 -1      1524    8    0    1
 -2       696       800       805      3216      3293      3227
 -1      1525    8    0    1
 -2       686       801       825      3218      3294      3295
 -1      1526    8    0    1
 -2       686       825       689      3295      3296      2874
 -1      1527    8    0    1
 -2       687       689       826      2873      3297      3298
 -1      1528    8    0    1
 -2       823       687       826      3286      3298      3299
 -1      1529    8    0    1
 -2       689       825       826      3296      3300      3297
 -1      1530    8    0    1
 -2       813       611       827      3250      3301      3302
 -1      1531    8    0    1
 -2       611       700       827      2906      3303      3301
 -1      1532    8    0    1
 -2       803       690       812      3223      3249      3304
 -1      1533    8    0    1
 -2       702       718       828      2960      3305      3306
 -1      1534    8    0    1
 -2       702       828       770      3306      3307      3127
 -1      1535    8    0    1
 -2       720       799       829      3214      3308      3309
 -1      1536    8    0    1
 -2       706       725       830      2991      3310      3311
 -1      1537    8    0    1
 -2       726       821       831      3282      3312      3313
 -1      1538    8    0    1
 -2       726       831       810      3313      3314      3244
 -1      1539    8    0    1
 -2       811       694       832      3246      3315      3316
 -1      1540    8    0    1
 -2       694       719       832      2966      3317      3315
 -1      1541    8    0    1
 -2       807       651       768      3280      3123      3318
 -1      1542    8    0    1
 -2       703       654       833      2916      3319      3320
 -1      1543    8    0    1
 -2       654       818       833      3267      3321      3319
 -1      1544    8    0    1
 -2       806       709       811      3229      3247      3322
 -1      1545    8    0    1
 -2       804       712       803      3225      3224      3323
 -1      1546    8    0    1
 -2       720       829       727      3309      3324      3000
 -1      1547    8    0    1
 -2       695       703       834      2915      3325      3326
 -1      1548    8    0    1
 -2       816       695       834      3262      3326      3327
 -1      1549    8    0    1
 -2       703       833       834      3320      3328      3325
 -1      1550    8    0    1
 -2       723       724       815      2987      3257      3329
 -1      1551    8    0    1
 -2       715       706       835      2948      3330      3331
 -1      1552    8    0    1
 -2       706       830       835      3311      3332      3330
 -1      1553    8    0    1
 -2       718       604       836      2961      3333      3334
 -1      1554    8    0    1
 -2       732       731       837      3016      3335      3336
 -1      1555    8    0    1
 -2       733       732       838      3019      3337      3338
 -1      1556    8    0    1
 -2       732       837       838      3336      3339      3337
 -1      1557    8    0    1
 -2       734       733       839      3022      3340      3341
 -1      1558    8    0    1
 -2       733       838       839      3338      3342      3340
 -1      1559    8    0    1
 -2       735       734       840      3025      3343      3344
 -1      1560    8    0    1
 -2       734       839       840      3341      3345      3343
 -1      1561    8    0    1
 -2       736       735       841      3028      3346      3347
 -1      1562    8    0    1
 -2       735       840       841      3344      3348      3346
 -1      1563    8    0    1
 -2       737       736       842      3031      3349      3350
 -1      1564    8    0    1
 -2       736       841       842      3347      3351      3349
 -1      1565    8    0    1
 -2       738       737       843      3034      3352      3353
 -1      1566    8    0    1
 -2       737       842       843      3350      3354      3352
 -1      1567    8    0    1
 -2       739       738       844      3037      3355      3356
 -1      1568    8    0    1
 -2       738       843       844      3353      3357      3355
 -1      1569    8    0    1
 -2       740       739       845      3040      3358      3359
 -1      1570    8    0    1
 -2       739       844       845      3356      3360      3358
 -1      1571    8    0    1
 -2       741       740       846      3043      3361      3362
 -1      1572    8    0    1
 -2       740       845       846      3359      3363      3361
 -1      1573    8    0    1
 -2       742       741       847      3046      3364      3365
 -1      1574    8    0    1
 -2       741       846       847      3362      3366      3364
 -1      1575    8    0    1
 -2       743       742       848      3049      3367      3368
 -1      1576    8    0    1
 -2       742       847       848      3365      3369      3367
 -1      1577    8    0    1
 -2       744       743       849      3052      3370      3371
 -1      1578    8    0    1
 -2       743       848       849      3368      3372      3370
 -1      1579    8    0    1
 -2       745       744       850      3055      3373      3374
 -1      1580    8    0    1
 -2       744       849       850      3371      3375      3373
 -1      1581    8    0    1
 -2       746       745       851      3058      3376      3377
 -1      1582    8    0    1
 -2       745       850       851      3374      3378      3376
 -1      1583    8    0    1
 -2       747       746       852      3061      3379      3380
 -1      1584    8    0    1
 -2       746       851       852      3377      3381      3379
 -1      1585    8    0    1
 -2       748       747       853      3064      3382      3383
 -1      1586    8    0    1
 -2       747       852       853      3380      3384      3382
 -1      1587    8    0    1
 -2       749       748       854      3067      3385      3386
 -1      1588    8    0    1
 -2       748       853       854      3383      3387      3385
 -1      1589    8    0    1
 -2       750       749       855      3070      3388      3389
 -1      1590    8    0    1
 -2       749       854       855      3386      3390      3388
 -1      1591    8    0    1
 -2       751       750       856      3073      3391      3392
 -1      1592    8    0    1
 -2       750       855       856      3389      3393      3391
 -1      1593    8    0    1
 -2       752       751       857      3076      3394      3395
 -1      1594    8    0    1
 -2       751       856       857      3392      3396      3394
 -1      1595    8    0    1
 -2       753       752       858      3079      3397      3398
 -1      1596    8    0    1
 -2       752       857       858      3395      3399      3397
 -1      1597    8    0    1
 -2       754       753       859      3082      3400      3401
 -1      1598    8    0    1
 -2       753       858       859      3398      3402      3400
 -1      1599    8    0    1
 -2       755       754       860      3085      3403      3404
 -1      1600    8    0    1
 -2       754       859       860      3401      3405      3403
 -1      1601    8    0    1
 -2       756       755       861      3088      3406      3407
 -1      1602    8    0    1
 -2       755       860       861      3404      3408      3406
 -1      1603    8    0    1
 -2       757       756       862      3091      3409      3410
 -1      1604    8    0    1
 -2       756       861       862      3407      3411      3409
 -1      1605    8    0    1
 -2       758       757       863      3094      3412      3413
 -1      1606    8    0    1
 -2       757       862       863      3410      3414      3412
 -1      1607    8    0    1
 -2       759       758       864      3097      3415      3416
 -1      1608    8    0    1
 -2       758       863       864      3413      3417      3415
 -1      1609    8    0    1
 -2       760       759       865      3100      3418      3419
 -1      1610    8    0    1
 -2       759       864       865      3416      3420      3418
 -1      1611    8    0    1
 -2       761       760       866      3103      3421      3422
 -1      1612    8    0    1
 -2       760       865       866      3419      3423      3421
 -1      1613    8    0    1
 -2       762       761       867      3106      3424      3425
 -1      1614    8    0    1
 -2       761       866       867      3422      3426      3424
 -1      1615    8    0    1
 -2       763       762       868      3109      3427      3428
 -1      1616    8    0    1
 -2       762       867       868      3425      3429      3427
 -1      1617    8    0    1
 -2       764       763       869      3112      3430      3431
 -1      1618    8    0    1
 -2       763       868       869      3428      3432      3430
 -1      1619    8    0    1
 -2       765       764       870      3115      3433      3434
 -1      1620    8    0    1
 -2       764       869       870      3431      3435      3433
 -1      1621    8    0    1
 -2       766       765       871      3118      3436      3437
 -1      1622    8    0    1
 -2       765       870       871      3434      3438      3436
 -1      1623    8    0    1
 -2       767       766       872      3121      3439      3440
 -1      1624    8    0    1
 -2       766       871       872      3437      3441      3439
 -1      1625    8    0    1
 -2       768       767       873      3124      3442      3443
 -1      1626    8    0    1
 -2       767       872       873      3440      3444      3442
 -1      1627    8    0    1
 -2       821       727       829      3281      3324      3445
 -1      1628    8    0    1
 -2       800       769       840      3278      3446      3447
 -1      1629    8    0    1
 -2       729       816       874      3261      3448      3449
 -1      1630    8    0    1
 -2       816       834       874      3327      3450      3448
 -1      1631    8    0    1
 -2       771       774       875      3139      3451      3452
 -1      1632    8    0    1
 -2       773       772       876      3136      3453      3454
 -1      1633    8    0    1
 -2       775       776       877      3145      3455      3456
 -1      1634    8    0    1
 -2       776       777       878      3148      3457      3458
 -1      1635    8    0    1
 -2       776       878       877      3458      3459      3455
 -1      1636    8    0    1
 -2       777       778       879      3151      3460      3461
 -1      1637    8    0    1
 -2       777       879       878      3461      3462      3457
 -1      1638    8    0    1
 -2       778       779       880      3154      3463      3464
 -1      1639    8    0    1
 -2       778       880       879      3464      3465      3460
 -1      1640    8    0    1
 -2       779       780       881      3157      3466      3467
 -1      1641    8    0    1
 -2       779       881       880      3467      3468      3463
 -1      1642    8    0    1
 -2       780       781       882      3160      3469      3470
 -1      1643    8    0    1
 -2       780       882       881      3470      3471      3466
 -1      1644    8    0    1
 -2       781       782       883      3163      3472      3473
 -1      1645    8    0    1
 -2       781       883       882      3473      3474      3469
 -1      1646    8    0    1
 -2       782       783       884      3166      3475      3476
 -1      1647    8    0    1
 -2       782       884       883      3476      3477      3472
 -1      1648    8    0    1
 -2       783       784       885      3169      3478      3479
 -1      1649    8    0    1
 -2       783       885       884      3479      3480      3475
 -1      1650    8    0    1
 -2       784       785       886      3172      3481      3482
 -1      1651    8    0    1
 -2       784       886       885      3482      3483      3478
 -1      1652    8    0    1
 -2       785       786       887      3175      3484      3485
 -1      1653    8    0    1
 -2       785       887       886      3485      3486      3481
 -1      1654    8    0    1
 -2       786       787       888      3178      3487      3488
 -1      1655    8    0    1
 -2       786       888       887      3488      3489      3484
 -1      1656    8    0    1
 -2       787       788       889      3181      3490      3491
 -1      1657    8    0    1
 -2       787       889       888      3491      3492      3487
 -1      1658    8    0    1
 -2       788       789       890      3184      3493      3494
 -1      1659    8    0    1
 -2       788       890       889      3494      3495      3490
 -1      1660    8    0    1
 -2       789       790       891      3187      3496      3497
 -1      1661    8    0    1
 -2       789       891       890      3497      3498      3493
 -1      1662    8    0    1
 -2       790       791       892      3190      3499      3500
 -1      1663    8    0    1
 -2       790       892       891      3500      3501      3496
 -1      1664    8    0    1
 -2       791       792       893      3193      3502      3503
 -1      1665    8    0    1
 -2       791       893       892      3503      3504      3499
 -1      1666    8    0    1
 -2       792       793       894      3196      3505      3506
 -1      1667    8    0    1
 -2       792       894       893      3506      3507      3502
 -1      1668    8    0    1
 -2       793       794       895      3199      3508      3509
 -1      1669    8    0    1
 -2       793       895       894      3509      3510      3505
 -1      1670    8    0    1
 -2       794       795       896      3202      3511      3512
 -1      1671    8    0    1
 -2       794       896       895      3512      3513      3508
 -1      1672    8    0    1
 -2       795       796       897      3205      3514      3515
 -1      1673    8    0    1
 -2       795       897       896      3515      3516      3511
 -1      1674    8    0    1
 -2       796       797       898      3208      3517      3518
 -1      1675    8    0    1
 -2       796       898       897      3518      3519      3514
 -1      1676    8    0    1
 -2       700       715       827      3279      3520      3303
 -1      1677    8    0    1
 -2       722       721       899      2976      3521      3522
 -1      1678    8    0    1
 -2       798       722       899      3212      3522      3523
 -1      1679    8    0    1
 -2       721       823       899      3287      3524      3521
 -1      1680    8    0    1
 -2       830       725       900      3310      3525      3526
 -1      1681    8    0    1
 -2       725       716       900      2992      3527      3525
 -1      1682    8    0    1
 -2       717       814       901      3273      3528      3529
 -1      1683    8    0    1
 -2       717       901       818      3529      3530      3268
 -1      1684    8    0    1
 -2       809       805       902      3272      3531      3532
 -1      1685    8    0    1
 -2       604       723       836      2981      3533      3333
 -1      1686    8    0    1
 -2       769       806       841      3231      3534      3535
 -1      1687    8    0    1
 -2       829       799       903      3308      3536      3537
 -1      1688    8    0    1
 -2       718       836       904      3334      3538      3539
 -1      1689    8    0    1
 -2       718       904       828      3539      3540      3305
 -1      1690    8    0    1
 -2       802       807       768      3236      3318      3541
 -1      1691    8    0    1
 -2       801       728       905      3219      3542      3543
 -1      1692    8    0    1
 -2       803       812       906      3304      3544      3545
 -1      1693    8    0    1
 -2       772       771       907      3133      3546      3547
 -1      1694    8    0    1
 -2       771       875       907      3452      3548      3546
 -1      1695    8    0    1
 -2       804       803       908      3323      3549      3550
 -1      1696    8    0    1
 -2       730       813       909      3252      3551      3552
 -1      1697    8    0    1
 -2       814       810       910      3255      3553      3554
 -1      1698    8    0    1
 -2       805       800       911      3293      3555      3556
 -1      1699    8    0    1
 -2       774       775       912      3142      3557      3558
 -1      1700    8    0    1
 -2       775       877       912      3456      3559      3557
 -1      1701    8    0    1
 -2       731       730       913      3013      3560      3561
 -1      1702    8    0    1
 -2       731       913       837      3561      3562      3335
 -1      1703    8    0    1
 -2       799       809       914      3292      3563      3564
 -1      1704    8    0    1
 -2       799       914       903      3564      3565      3536
 -1      1705    8    0    1
 -2       806       811       842      3322      3566      3567
 -1      1706    8    0    1
 -2       812       770       915      3277      3568      3569
 -1      1707    8    0    1
 -2       821       829       916      3445      3570      3571
 -1      1708    8    0    1
 -2       802       768       873      3541      3443      3572
 -1      1709    8    0    1
 -2       916       829       903      3570      3537      3573
 -1      1710    8    0    1
 -2       820       729       917      3274      3574      3575
 -1      1711    8    0    1
 -2       729       874       917      3449      3576      3574
 -1      1712    8    0    1
 -2       915       770       918      3568      3577      3578
 -1      1713    8    0    1
 -2       770       828       918      3307      3579      3577
 -1      1714    8    0    1
 -2       723       815       836      3329      3580      3533
 -1      1715    8    0    1
 -2       808       802       919      3241      3581      3582
 -1      1716    8    0    1
 -2       802       873       919      3572      3583      3581
 -1      1717    8    0    1
 -2       716       819       900      3270      3584      3527
 -1      1718    8    0    1
 -2       822       804       920      3285      3585      3586
 -1      1719    8    0    1
 -2       804       908       920      3550      3587      3585
 -1      1720    8    0    1
 -2       840       769       841      3446      3535      3348
 -1      1721    8    0    1
 -2       819       817       921      3271      3588      3589
 -1      1722    8    0    1
 -2       817       824       922      3290      3590      3591
 -1      1723    8    0    1
 -2       817       922       921      3591      3592      3588
 -1      1724    8    0    1
 -2       875       774       912      3451      3558      3593
 -1      1725    8    0    1
 -2       773       876       904      3454      3594      3595
 -1      1726    8    0    1
 -2       827       715       835      3520      3331      3596
 -1      1727    8    0    1
 -2       904       836       815      3538      3580      3597
 -1      1728    8    0    1
 -2       797       798       923      3211      3598      3599
 -1      1729    8    0    1
 -2       898       797       923      3517      3599      3600
 -1      1730    8    0    1
 -2       798       899       923      3523      3601      3598
 -1      1731    8    0    1
 -2       899       823       924      3524      3602      3603
 -1      1732    8    0    1
 -2       899       924       923      3603      3604      3601
 -1      1733    8    0    1
 -2       825       801       925      3294      3605      3606
 -1      1734    8    0    1
 -2       801       905       925      3543      3607      3605
 -1      1735    8    0    1
 -2       831       821       916      3312      3571      3608
 -1      1736    8    0    1
 -2       806       842       841      3567      3351      3534
 -1      1737    8    0    1
 -2       901       814       910      3528      3554      3609
 -1      1738    8    0    1
 -2       823       826       924      3299      3610      3602
 -1      1739    8    0    1
 -2       818       901       833      3530      3611      3321
 -1      1740    8    0    1
 -2       830       900       926      3526      3612      3613
 -1      1741    8    0    1
 -2       902       805       911      3531      3556      3614
 -1      1742    8    0    1
 -2       906       812       915      3544      3569      3615
 -1      1743    8    0    1
 -2       810       831       910      3314      3616      3553
 -1      1744    8    0    1
 -2       811       832       843      3316      3617      3618
 -1      1745    8    0    1
 -2       830       926       927      3613      3619      3620
 -1      1746    8    0    1
 -2       830       927       835      3620      3621      3332
 -1      1747    8    0    1
 -2       876       772       907      3453      3547      3622
 -1      1748    8    0    1
 -2       803       906       908      3545      3623      3549
 -1      1749    8    0    1
 -2       800       840       839      3447      3345      3624
 -1      1750    8    0    1
 -2       904       815       773      3597      3258      3595
 -1      1751    8    0    1
 -2       730       909       913      3552      3625      3560
 -1      1752    8    0    1
 -2       914       809       902      3563      3532      3626
 -1      1753    8    0    1
 -2       842       811       843      3566      3618      3354
 -1      1754    8    0    1
 -2       728       808       928      3240      3627      3628
 -1      1755    8    0    1
 -2       905       728       928      3542      3628      3629
 -1      1756    8    0    1
 -2       808       919       928      3582      3630      3627
 -1      1757    8    0    1
 -2       916       903       929      3573      3631      3632
 -1      1758    8    0    1
 -2       912       877       930      3559      3633      3634
 -1      1759    8    0    1
 -2       824       820       931      3291      3635      3636
 -1      1760    8    0    1
 -2       922       824       931      3590      3636      3637
 -1      1761    8    0    1
 -2       820       917       931      3575      3638      3635
 -1      1762    8    0    1
 -2       900       819       932      3584      3639      3640
 -1      1763    8    0    1
 -2       926       900       932      3612      3640      3641
 -1      1764    8    0    1
 -2       819       921       932      3589      3642      3639
 -1      1765    8    0    1
 -2       844       843       832      3357      3617      3643
 -1      1766    8    0    1
 -2       845       844       933      3360      3644      3645
 -1      1767    8    0    1
 -2       846       845       934      3363      3646      3647
 -1      1768    8    0    1
 -2       845       933       934      3645      3648      3646
 -1      1769    8    0    1
 -2       847       846       935      3366      3649      3650
 -1      1770    8    0    1
 -2       846       934       935      3647      3651      3649
 -1      1771    8    0    1
 -2       848       847       936      3369      3652      3653
 -1      1772    8    0    1
 -2       847       935       936      3650      3654      3652
 -1      1773    8    0    1
 -2       849       848       937      3372      3655      3656
 -1      1774    8    0    1
 -2       848       936       937      3653      3657      3655
 -1      1775    8    0    1
 -2       850       849       938      3375      3658      3659
 -1      1776    8    0    1
 -2       849       937       938      3656      3660      3658
 -1      1777    8    0    1
 -2       851       850       939      3378      3661      3662
 -1      1778    8    0    1
 -2       850       938       939      3659      3663      3661
 -1      1779    8    0    1
 -2       852       851       940      3381      3664      3665
 -1      1780    8    0    1
 -2       851       939       940      3662      3666      3664
 -1      1781    8    0    1
 -2       853       852       941      3384      3667      3668
 -1      1782    8    0    1
 -2       852       940       941      3665      3669      3667
 -1      1783    8    0    1
 -2       854       853       942      3387      3670      3671
 -1      1784    8    0    1
 -2       853       941       942      3668      3672      3670
 -1      1785    8    0    1
 -2       855       854       943      3390      3673      3674
 -1      1786    8    0    1
 -2       854       942       943      3671      3675      3673
 -1      1787    8    0    1
 -2       856       855       944      3393      3676      3677
 -1      1788    8    0    1
 -2       855       943       944      3674      3678      3676
 -1      1789    8    0    1
 -2       857       856       945      3396      3679      3680
 -1      1790    8    0    1
 -2       856       944       945      3677      3681      3679
 -1      1791    8    0    1
 -2       858       857       946      3399      3682      3683
 -1      1792    8    0    1
 -2       857       945       946      3680      3684      3682
 -1      1793    8    0    1
 -2       859       858       947      3402      3685      3686
 -1      1794    8    0    1
 -2       858       946       947      3683      3687      3685
 -1      1795    8    0    1
 -2       860       859       948      3405      3688      3689
 -1      1796    8    0    1
 -2       859       947       948      3686      3690      3688
 -1      1797    8    0    1
 -2       861       860       949      3408      3691      3692
 -1      1798    8    0    1
 -2       860       948       949      3689      3693      3691
 -1      1799    8    0    1
 -2       862       861       950      3411      3694      3695
 -1      1800    8    0    1
 -2       861       949       950      3692      3696      3694
 -1      1801    8    0    1
 -2       863       862       951      3414      3697      3698
 -1      1802    8    0    1
 -2       862       950       951      3695      3699      3697
 -1      1803    8    0    1
 -2       864       863       952      3417      3700      3701
 -1      1804    8    0    1
 -2       863       951       952      3698      3702      3700
 -1      1805    8    0    1
 -2       865       864       953      3420      3703      3704
 -1      1806    8    0    1
 -2       864       952       953      3701      3705      3703
 -1      1807    8    0    1
 -2       866       865       954      3423      3706      3707
 -1      1808    8    0    1
 -2       865       953       954      3704      3708      3706
 -1      1809    8    0    1
 -2       867       866       955      3426      3709      3710
 -1      1810    8    0    1
 -2       866       954       955      3707      3711      3709
 -1      1811    8    0    1
 -2       868       867       956      3429      3712      3713
 -1      1812    8    0    1
 -2       867       955       956      3710      3714      3712
 -1      1813    8    0    1
 -2       869       868       957      3432      3715      3716
 -1      1814    8    0    1
 -2       868       956       957      3713      3717      3715
 -1      1815    8    0    1
 -2       870       869       958      3435      3718      3719
 -1      1816    8    0    1
 -2       869       957       958      3716      3720      3718
 -1      1817    8    0    1
 -2       871       870       959      3438      3721      3722
 -1      1818    8    0    1
 -2       870       958       959      3719      3723      3721
 -1      1819    8    0    1
 -2       872       871       960      3441      3724      3725
 -1      1820    8    0    1
 -2       871       959       960      3722      3726      3724
 -1      1821    8    0    1
 -2       873       872       961      3444      3727      3728
 -1      1822    8    0    1
 -2       919       873       961      3583      3728      3729
 -1      1823    8    0    1
 -2       872       960       961      3725      3730      3727
 -1      1824    8    0    1
 -2       874       834       962      3450      3731      3732
 -1      1825    8    0    1
 -2       917       874       962      3576      3732      3733
 -1      1826    8    0    1
 -2       834       833       962      3328      3734      3731
 -1      1827    8    0    1
 -2       719       822       963      3284      3735      3736
 -1      1828    8    0    1
 -2       911       800       839      3555      3624      3737
 -1      1829    8    0    1
 -2       827       835       964      3596      3738      3739
 -1      1830    8    0    1
 -2       813       827       964      3302      3739      3740
 -1      1831    8    0    1
 -2       835       927       964      3621      3741      3738
 -1      1832    8    0    1
 -2       837       913       965      3562      3742      3743
 -1      1833    8    0    1
 -2       877       878       966      3459      3744      3745
 -1      1834    8    0    1
 -2       877       966       930      3745      3746      3633
 -1      1835    8    0    1
 -2       880       881       967      3468      3747      3748
 -1      1836    8    0    1
 -2       881       882       968      3471      3749      3750
 -1      1837    8    0    1
 -2       881       968       967      3750      3751      3747
 -1      1838    8    0    1
 -2       882       883       969      3474      3752      3753
 -1      1839    8    0    1
 -2       882       969       968      3753      3754      3749
 -1      1840    8    0    1
 -2       883       884       970      3477      3755      3756
 -1      1841    8    0    1
 -2       883       970       969      3756      3757      3752
 -1      1842    8    0    1
 -2       884       885       971      3480      3758      3759
 -1      1843    8    0    1
 -2       884       971       970      3759      3760      3755
 -1      1844    8    0    1
 -2       885       886       972      3483      3761      3762
 -1      1845    8    0    1
 -2       885       972       971      3762      3763      3758
 -1      1846    8    0    1
 -2       886       887       973      3486      3764      3765
 -1      1847    8    0    1
 -2       886       973       972      3765      3766      3761
 -1      1848    8    0    1
 -2       887       888       974      3489      3767      3768
 -1      1849    8    0    1
 -2       887       974       973      3768      3769      3764
 -1      1850    8    0    1
 -2       888       889       975      3492      3770      3771
 -1      1851    8    0    1
 -2       888       975       974      3771      3772      3767
 -1      1852    8    0    1
 -2       889       890       976      3495      3773      3774
 -1      1853    8    0    1
 -2       889       976       975      3774      3775      3770
 -1      1854    8    0    1
 -2       890       891       977      3498      3776      3777
 -1      1855    8    0    1
 -2       890       977       976      3777      3778      3773
 -1      1856    8    0    1
 -2       891       892       978      3501      3779      3780
 -1      1857    8    0    1
 -2       891       978       977      3780      3781      3776
 -1      1858    8    0    1
 -2       892       893       979      3504      3782      3783
 -1      1859    8    0    1
 -2       892       979       978      3783      3784      3779
 -1      1860    8    0    1
 -2       893       894       980      3507      3785      3786
 -1      1861    8    0    1
 -2       893       980       979      3786      3787      3782
 -1      1862    8    0    1
 -2       894       895       981      3510      3788      3789
 -1      1863    8    0    1
 -2       894       981       980      3789      3790      3785
 -1      1864    8    0    1
 -2       895       896       982      3513      3791      3792
 -1      1865    8    0    1
 -2       895       982       981      3792      3793      3788
 -1      1866    8    0    1
 -2       896       897       983      3516      3794      3795
 -1      1867    8    0    1
 -2       896       983       982      3795      3796      3791
 -1      1868    8    0    1
 -2       897       898       984      3519      3797      3798
 -1      1869    8    0    1
 -2       897       984       983      3798      3799      3794
 -1      1870    8    0    1
 -2       833       901       962      3611      3800      3734
 -1      1871    8    0    1
 -2       909       813       964      3551      3740      3801
 -1      1872    8    0    1
 -2       826       825       985      3300      3802      3803
 -1      1873    8    0    1
 -2       825       925       985      3606      3804      3802
 -1      1874    8    0    1
 -2       901       910       962      3609      3805      3800
 -1      1875    8    0    1
 -2       828       904       986      3540      3806      3807
 -1      1876    8    0    1
 -2       918       828       986      3579      3807      3808
 -1      1877    8    0    1
 -2       904       876       986      3594      3809      3806
 -1      1878    8    0    1
 -2       832       719       963      3317      3736      3810
 -1      1879    8    0    1
 -2       907       875       987      3548      3811      3812
 -1      1880    8    0    1
 -2       879       880       988      3465      3813      3814
 -1      1881    8    0    1
 -2       880       967       988      3748      3815      3813
 -1      1882    8    0    1
 -2       878       879       989      3462      3816      3817
 -1      1883    8    0    1
 -2       878       989       966      3817      3818      3744
 -1      1884    8    0    1
 -2       908       906       990      3623      3819      3820
 -1      1885    8    0    1
 -2       876       907       991      3622      3821      3822
 -1      1886    8    0    1
 -2       907       987       991      3812      3823      3821
 -1      1887    8    0    1
 -2       924       826       985      3610      3803      3824
 -1      1888    8    0    1
 -2       906       915       992      3615      3825      3826
 -1      1889    8    0    1
 -2       906       992       990      3826      3827      3819
 -1      1890    8    0    1
 -2       913       909       993      3625      3828      3829
 -1      1891    8    0    1
 -2       913       993       965      3829      3830      3742
 -1      1892    8    0    1
 -2       914       902       965      3626      3831      3832
 -1      1893    8    0    1
 -2       831       916       922      3608      3833      3834
 -1      1894    8    0    1
 -2       875       912       994      3593      3835      3836
 -1      1895    8    0    1
 -2       987       875       994      3811      3836      3837
 -1      1896    8    0    1
 -2       912       930       994      3634      3838      3835
 -1      1897    8    0    1
 -2       903       914       995      3565      3839      3840
 -1      1898    8    0    1
 -2       963       822       933      3735      3841      3842
 -1      1899    8    0    1
 -2       909       964       996      3801      3843      3844
 -1      1900    8    0    1
 -2       993       909       996      3828      3844      3845
 -1      1901    8    0    1
 -2       964       927       996      3741      3846      3843
 -1      1902    8    0    1
 -2       911       839       838      3737      3342      3847
 -1      1903    8    0    1
 -2       911       838       902      3847      3848      3614
 -1      1904    8    0    1
 -2       902       838       837      3848      3339      3849
 -1      1905    8    0    1
 -2       902       837       965      3849      3743      3831
 -1      1906    8    0    1
 -2       920       908       997      3587      3850      3851
 -1      1907    8    0    1
 -2       908       990       997      3820      3852      3850
 -1      1908    8    0    1
 -2       903       995       929      3840      3853      3631
 -1      1909    8    0    1
 -2       844       832       963      3643      3810      3854
 -1      1910    8    0    1
 -2       905       928       998      3629      3855      3856
 -1      1911    8    0    1
 -2       933       844       963      3644      3854      3842
 -1      1912    8    0    1
 -2       932       921       929      3642      3857      3858
 -1      1913    8    0    1
 -2       915       918       999      3578      3859      3860
 -1      1914    8    0    1
 -2       915       999       992      3860      3861      3825
 -1      1915    8    0    1
 -2       923       924       898      3604      3862      3600
 -1      1916    8    0    1
 -2       905       998      1000      3856      3863      3864
 -1      1917    8    0    1
 -2       905      1000       925      3864      3865      3607
 -1      1918    8    0    1
 -2       984       898       924      3797      3862      3866
 -1      1919    8    0    1
 -2       962       910       917      3805      3867      3733
 -1      1920    8    0    1
 -2       822       920       934      3586      3868      3869
 -1      1921    8    0    1
 -2       984       924       985      3866      3824      3870
 -1      1922    8    0    1
 -2       916       929       921      3632      3857      3871
 -1      1923    8    0    1
 -2       986       876       991      3809      3822      3872
 -1      1924    8    0    1
 -2       927       926       996      3619      3873      3846
 -1      1925    8    0    1
 -2       995       914       965      3839      3832      3874
 -1      1926    8    0    1
 -2       879       988       989      3814      3875      3816
 -1      1927    8    0    1
 -2       916       921       922      3871      3592      3833
 -1      1928    8    0    1
 -2       822       934       933      3869      3648      3841
 -1      1929    8    0    1
 -2       996       926       995      3873      3876      3877
 -1      1930    8    0    1
 -2       917       910       831      3867      3616      3878
 -1      1931    8    0    1
 -2       988       967      1001      3815      3879      3880
 -1      1932    8    0    1
 -2       998       928      1002      3855      3881      3882
 -1      1933    8    0    1
 -2       928       919      1002      3630      3883      3881
 -1      1934    8    0    1
 -2       935       934       920      3651      3868      3884
 -1      1935    8    0    1
 -2       936       935      1003      3654      3885      3886
 -1      1936    8    0    1
 -2       937       936      1004      3657      3887      3888
 -1      1937    8    0    1
 -2       936      1003      1004      3886      3889      3887
 -1      1938    8    0    1
 -2       938       937      1005      3660      3890      3891
 -1      1939    8    0    1
 -2       937      1004      1005      3888      3892      3890
 -1      1940    8    0    1
 -2       939       938      1006      3663      3893      3894
 -1      1941    8    0    1
 -2       938      1005      1006      3891      3895      3893
 -1      1942    8    0    1
 -2       940       939      1007      3666      3896      3897
 -1      1943    8    0    1
 -2       939      1006      1007      3894      3898      3896
 -1      1944    8    0    1
 -2       941       940      1008      3669      3899      3900
 -1      1945    8    0    1
 -2       940      1007      1008      3897      3901      3899
 -1      1946    8    0    1
 -2       942       941      1009      3672      3902      3903
 -1      1947    8    0    1
 -2       941      1008      1009      3900      3904      3902
 -1      1948    8    0    1
 -2       943       942      1010      3675      3905      3906
 -1      1949    8    0    1
 -2       942      1009      1010      3903      3907      3905
 -1      1950    8    0    1
 -2       944       943      1011      3678      3908      3909
 -1      1951    8    0    1
 -2       943      1010      1011      3906      3910      3908
 -1      1952    8    0    1
 -2       945       944      1012      3681      3911      3912
 -1      1953    8    0    1
 -2       944      1011      1012      3909      3913      3911
 -1      1954    8    0    1
 -2       946       945      1013      3684      3914      3915
 -1      1955    8    0    1
 -2       945      1012      1013      3912      3916      3914
 -1      1956    8    0    1
 -2       947       946      1014      3687      3917      3918
 -1      1957    8    0    1
 -2       946      1013      1014      3915      3919      3917
 -1      1958    8    0    1
 -2       948       947      1015      3690      3920      3921
 -1      1959    8    0    1
 -2       947      1014      1015      3918      3922      3920
 -1      1960    8    0    1
 -2       949       948      1016      3693      3923      3924
 -1      1961    8    0    1
 -2       948      1015      1016      3921      3925      3923
 -1      1962    8    0    1
 -2       950       949      1017      3696      3926      3927
 -1      1963    8    0    1
 -2       949      1016      1017      3924      3928      3926
 -1      1964    8    0    1
 -2       951       950      1018      3699      3929      3930
 -1      1965    8    0    1
 -2       950      1017      1018      3927      3931      3929
 -1      1966    8    0    1
 -2       952       951      1019      3702      3932      3933
 -1      1967    8    0    1
 -2       951      1018      1019      3930      3934      3932
 -1      1968    8    0    1
 -2       953       952      1020      3705      3935      3936
 -1      1969    8    0    1
 -2       952      1019      1020      3933      3937      3935
 -1      1970    8    0    1
 -2       954       953      1021      3708      3938      3939
 -1      1971    8    0    1
 -2       953      1020      1021      3936      3940      3938
 -1      1972    8    0    1
 -2       955       954      1022      3711      3941      3942
 -1      1973    8    0    1
 -2       954      1021      1022      3939      3943      3941
 -1      1974    8    0    1
 -2       956       955      1023      3714      3944      3945
 -1      1975    8    0    1
 -2       955      1022      1023      3942      3946      3944
 -1      1976    8    0    1
 -2       957       956      1024      3717      3947      3948
 -1      1977    8    0    1
 -2       956      1023      1024      3945      3949      3947
 -1      1978    8    0    1
 -2       958       957      1025      3720      3950      3951
 -1      1979    8    0    1
 -2       957      1024      1025      3948      3952      3950
 -1      1980    8    0    1
 -2       959       958      1026      3723      3953      3954
 -1      1981    8    0    1
 -2       958      1025      1026      3951      3955      3953
 -1      1982    8    0    1
 -2       960       959      1027      3726      3956      3957
 -1      1983    8    0    1
 -2       959      1026      1027      3954      3958      3956
 -1      1984    8    0    1
 -2       969       970      1028      3757      3959      3960
 -1      1985    8    0    1
 -2       930       966      1029      3746      3961      3962
 -1      1986    8    0    1
 -2       968       969      1030      3754      3963      3964
 -1      1987    8    0    1
 -2       969      1028      1030      3960      3965      3963
 -1      1988    8    0    1
 -2       967       968      1031      3751      3966      3967
 -1      1989    8    0    1
 -2       967      1031      1001      3967      3968      3879
 -1      1990    8    0    1
 -2       970       971      1032      3760      3969      3970
 -1      1991    8    0    1
 -2       970      1032      1028      3970      3971      3959
 -1      1992    8    0    1
 -2       971       972      1033      3763      3972      3973
 -1      1993    8    0    1
 -2       971      1033      1032      3973      3974      3969
 -1      1994    8    0    1
 -2       972       973      1034      3766      3975      3976
 -1      1995    8    0    1
 -2       972      1034      1033      3976      3977      3972
 -1      1996    8    0    1
 -2       973       974      1035      3769      3978      3979
 -1      1997    8    0    1
 -2       973      1035      1034      3979      3980      3975
 -1      1998    8    0    1
 -2       974       975      1036      3772      3981      3982
 -1      1999    8    0    1
 -2       974      1036      1035      3982      3983      3978
 -1      2000    8    0    1
 -2       975       976      1037      3775      3984      3985
 -1      2001    8    0    1
 -2       975      1037      1036      3985      3986      3981
 -1      2002    8    0    1
 -2       976       977      1038      3778      3987      3988
 -1      2003    8    0    1
 -2       976      1038      1037      3988      3989      3984
 -1      2004    8    0    1
 -2       977       978      1039      3781      3990      3991
 -1      2005    8    0    1
 -2       977      1039      1038      3991      3992      3987
 -1      2006    8    0    1
 -2       978       979      1040      3784      3993      3994
 -1      2007    8    0    1
 -2       978      1040      1039      3994      3995      3990
 -1      2008    8    0    1
 -2       979       980      1041      3787      3996      3997
 -1      2009    8    0    1
 -2       979      1041      1040      3997      3998      3993
 -1      2010    8    0    1
 -2       980       981      1042      3790      3999      4000
 -1      2011    8    0    1
 -2       980      1042      1041      4000      4001      3996
 -1      2012    8    0    1
 -2       981       982      1043      3793      4002      4003
 -1      2013    8    0    1
 -2       981      1043      1042      4003      4004      3999
 -1      2014    8    0    1
 -2       982       983      1044      3796      4005      4006
 -1      2015    8    0    1
 -2       982      1044      1043      4006      4007      4002
 -1      2016    8    0    1
 -2       983       984      1045      3799      4008      4009
 -1      2017    8    0    1
 -2       983      1045      1044      4009      4010      4005
 -1      2018    8    0    1
 -2       918       986      1046      3808      4011      4012
 -1      2019    8    0    1
 -2       999       918      1046      3859      4012      4013
 -1      2020    8    0    1
 -2       986       991      1046      3872      4014      4011
 -1      2021    8    0    1
 -2       985       925      1000      3804      3865      4015
 -1      2022    8    0    1
 -2       995       926       929      3876      4016      3853
 -1      2023    8    0    1
 -2       991       987      1047      3823      4017      4018
 -1      2024    8    0    1
 -2       991      1047      1046      4018      4019      4014
 -1      2025    8    0    1
 -2       990       992      1048      3827      4020      4021
 -1      2026    8    0    1
 -2       989       988      1049      3875      4022      4023
 -1      2027    8    0    1
 -2       988      1001      1049      3880      4024      4022
 -1      2028    8    0    1
 -2       831       922       931      3834      3637      4025
 -1      2029    8    0    1
 -2       966       989      1050      3818      4026      4027
 -1      2030    8    0    1
 -2       989      1049      1050      4023      4028      4026
 -1      2031    8    0    1
 -2       993       996       995      3845      3877      4029
 -1      2032    8    0    1
 -2       998      1002      1051      3882      4030      4031
 -1      2033    8    0    1
 -2       966      1050      1029      4027      4032      3961
 -1      2034    8    0    1
 -2      1002       919       961      3883      3729      4033
 -1      2035    8    0    1
 -2       961       960      1052      3730      4034      4035
 -1      2036    8    0    1
 -2      1002       961      1052      4033      4035      4036
 -1      2037    8    0    1
 -2       960      1027      1052      3957      4037      4034
 -1      2038    8    0    1
 -2       930      1029      1053      3962      4038      4039
 -1      2039    8    0    1
 -2       930      1053       994      4039      4040      3838
 -1      2040    8    0    1
 -2       992       999      1054      3861      4041      4042
 -1      2041    8    0    1
 -2       992      1054      1048      4042      4043      4020
 -1      2042    8    0    1
 -2      1000       998      1055      3863      4044      4045
 -1      2043    8    0    1
 -2       998      1051      1055      4031      4046      4044
 -1      2044    8    0    1
 -2       968      1030      1031      3964      4047      3966
 -1      2045    8    0    1
 -2       990      1048      1004      4021      4048      4049
 -1      2046    8    0    1
 -2       995       965       993      3874      3830      4029
 -1      2047    8    0    1
 -2       984       985      1056      3870      4050      4051
 -1      2048    8    0    1
 -2       985      1000      1056      4015      4052      4050
 -1      2049    8    0    1
 -2       917       831       931      3878      4025      3638
 -1      2050    8    0    1
 -2       984      1056      1045      4051      4053      4008
 -1      2051    8    0    1
 -2       987       994      1057      3837      4054      4055
 -1      2052    8    0    1
 -2       994      1053      1057      4040      4056      4054
 -1      2053    8    0    1
 -2       935       920       997      3884      3851      4057
 -1      2054    8    0    1
 -2       987      1057      1047      4055      4058      4017
 -1      2055    8    0    1
 -2      1051      1002      1052      4030      4036      4059
 -1      2056    8    0    1
 -2      1029      1050      1058      4032      4060      4061
 -1      2057    8    0    1
 -2      1003       935       997      3885      4057      4062
 -1      2058    8    0    1
 -2      1001      1031      1059      3968      4063      4064
 -1      2059    8    0    1
 -2      1006      1005      1060      3895      4065      4066
 -1      2060    8    0    1
 -2      1007      1006      1061      3898      4067      4068
 -1      2061    8    0    1
 -2      1006      1060      1061      4066      4069      4067
 -1      2062    8    0    1
 -2      1008      1007      1062      3901      4070      4071
 -1      2063    8    0    1
 -2      1007      1061      1062      4068      4072      4070
 -1      2064    8    0    1
 -2      1009      1008      1063      3904      4073      4074
 -1      2065    8    0    1
 -2      1008      1062      1063      4071      4075      4073
 -1      2066    8    0    1
 -2      1010      1009      1064      3907      4076      4077
 -1      2067    8    0    1
 -2      1009      1063      1064      4074      4078      4076
 -1      2068    8    0    1
 -2      1011      1010      1065      3910      4079      4080
 -1      2069    8    0    1
 -2      1010      1064      1065      4077      4081      4079
 -1      2070    8    0    1
 -2      1012      1011      1066      3913      4082      4083
 -1      2071    8    0    1
 -2      1011      1065      1066      4080      4084      4082
 -1      2072    8    0    1
 -2      1013      1012      1067      3916      4085      4086
 -1      2073    8    0    1
 -2      1012      1066      1067      4083      4087      4085
 -1      2074    8    0    1
 -2      1014      1013      1068      3919      4088      4089
 -1      2075    8    0    1
 -2      1013      1067      1068      4086      4090      4088
 -1      2076    8    0    1
 -2      1015      1014      1069      3922      4091      4092
 -1      2077    8    0    1
 -2      1014      1068      1069      4089      4093      4091
 -1      2078    8    0    1
 -2      1016      1015      1070      3925      4094      4095
 -1      2079    8    0    1
 -2      1015      1069      1070      4092      4096      4094
 -1      2080    8    0    1
 -2      1017      1016      1071      3928      4097      4098
 -1      2081    8    0    1
 -2      1016      1070      1071      4095      4099      4097
 -1      2082    8    0    1
 -2      1018      1017      1072      3931      4100      4101
 -1      2083    8    0    1
 -2      1017      1071      1072      4098      4102      4100
 -1      2084    8    0    1
 -2      1019      1018      1073      3934      4103      4104
 -1      2085    8    0    1
 -2      1018      1072      1073      4101      4105      4103
 -1      2086    8    0    1
 -2      1020      1019      1074      3937      4106      4107
 -1      2087    8    0    1
 -2      1019      1073      1074      4104      4108      4106
 -1      2088    8    0    1
 -2      1021      1020      1075      3940      4109      4110
 -1      2089    8    0    1
 -2      1020      1074      1075      4107      4111      4109
 -1      2090    8    0    1
 -2      1022      1021      1076      3943      4112      4113
 -1      2091    8    0    1
 -2      1021      1075      1076      4110      4114      4112
 -1      2092    8    0    1
 -2      1023      1022      1077      3946      4115      4116
 -1      2093    8    0    1
 -2      1022      1076      1077      4113      4117      4115
 -1      2094    8    0    1
 -2      1024      1023      1078      3949      4118      4119
 -1      2095    8    0    1
 -2      1023      1077      1078      4116      4120      4118
 -1      2096    8    0    1
 -2      1025      1024      1079      3952      4121      4122
 -1      2097    8    0    1
 -2      1024      1078      1079      4119      4123      4121
 -1      2098    8    0    1
 -2      1026      1025      1080      3955      4124      4125
 -1      2099    8    0    1
 -2      1025      1079      1080      4122      4126      4124
 -1      2100    8    0    1
 -2      1027      1026      1081      3958      4127      4128
 -1      2101    8    0    1
 -2      1026      1080      1081      4125      4129      4127
 -1      2102    8    0    1
 -2      1032      1033      1082      3974      4130      4131
 -1      2103    8    0    1
 -2      1030      1028      1083      3965      4132      4133
 -1      2104    8    0    1
 -2      1046      1047      1084      4019      4134      4135
 -1      2105    8    0    1
 -2      1046      1084       999      4135      4136      4013
 -1      2106    8    0    1
 -2      1004      1048      1085      4048      4137      4138
 -1      2107    8    0    1
 -2      1005      1004      1085      3892      4138      4139
 -1      2108    8    0    1
 -2      1048      1054      1085      4043      4140      4137
 -1      2109    8    0    1
 -2      1033      1034      1086      3977      4141      4142
 -1      2110    8    0    1
 -2      1033      1086      1082      4142      4143      4130
 -1      2111    8    0    1
 -2      1034      1035      1087      3980      4144      4145
 -1      2112    8    0    1
 -2      1034      1087      1086      4145      4146      4141
 -1      2113    8    0    1
 -2      1035      1036      1088      3983      4147      4148
 -1      2114    8    0    1
 -2      1035      1088      1087      4148      4149      4144
 -1      2115    8    0    1
 -2      1036      1037      1089      3986      4150      4151
 -1      2116    8    0    1
 -2      1036      1089      1088      4151      4152      4147
 -1      2117    8    0    1
 -2      1037      1038      1090      3989      4153      4154
 -1      2118    8    0    1
 -2      1037      1090      1089      4154      4155      4150
 -1      2119    8    0    1
 -2      1038      1039      1091      3992      4156      4157
 -1      2120    8    0    1
 -2      1038      1091      1090      4157      4158      4153
 -1      2121    8    0    1
 -2      1039      1040      1092      3995      4159      4160
 -1      2122    8    0    1
 -2      1039      1092      1091      4160      4161      4156
 -1      2123    8    0    1
 -2      1040      1041      1093      3998      4162      4163
 -1      2124    8    0    1
 -2      1040      1093      1092      4163      4164      4159
 -1      2125    8    0    1
 -2      1041      1042      1094      4001      4165      4166
 -1      2126    8    0    1
 -2      1041      1094      1093      4166      4167      4162
 -1      2127    8    0    1
 -2      1042      1043      1095      4004      4168      4169
 -1      2128    8    0    1
 -2      1042      1095      1094      4169      4170      4165
 -1      2129    8    0    1
 -2      1043      1044      1096      4007      4171      4172
 -1      2130    8    0    1
 -2      1043      1096      1095      4172      4173      4168
 -1      2131    8    0    1
 -2      1044      1045      1097      4010      4174      4175
 -1      2132    8    0    1
 -2      1096      1044      1097      4171      4175      4176
 -1      2133    8    0    1
 -2      1045      1056      1097      4053      4177      4174
 -1      2134    8    0    1
 -2      1049      1001      1098      4024      4178      4179
 -1      2135    8    0    1
 -2      1001      1059      1098      4064      4180      4178
 -1      2136    8    0    1
 -2      1056      1000      1055      4052      4045      4181
 -1      2137    8    0    1
 -2       926       932       929      3641      3858      4016
 -1      2138    8    0    1
 -2      1028      1032      1099      3971      4182      4183
 -1      2139    8    0    1
 -2      1028      1099      1083      4183      4184      4132
 -1      2140    8    0    1
 -2      1047      1057      1100      4058      4185      4186
 -1      2141    8    0    1
 -2      1047      1100      1084      4186      4187      4134
 -1      2142    8    0    1
 -2      1050      1049      1101      4028      4188      4189
 -1      2143    8    0    1
 -2      1049      1098      1101      4179      4190      4188
 -1      2144    8    0    1
 -2      1031      1030      1102      4047      4191      4192
 -1      2145    8    0    1
 -2      1059      1031      1102      4063      4192      4193
 -1      2146    8    0    1
 -2      1030      1083      1102      4133      4194      4191
 -1      2147    8    0    1
 -2      1058      1050      1101      4060      4189      4195
 -1      2148    8    0    1
 -2      1052      1027      1103      4037      4196      4197
 -1      2149    8    0    1
 -2      1051      1052      1103      4059      4197      4198
 -1      2150    8    0    1
 -2      1027      1081      1103      4128      4199      4196
 -1      2151    8    0    1
 -2      1032      1082      1099      4131      4200      4182
 -1      2152    8    0    1
 -2      1054       999      1084      4041      4136      4201
 -1      2153    8    0    1
 -2      1055      1051      1103      4046      4198      4202
 -1      2154    8    0    1
 -2       990      1004      1003      4049      3889      4203
 -1      2155    8    0    1
 -2      1097      1056      1055      4177      4181      4204
 -1      2156    8    0    1
 -2      1005      1085      1060      4139      4205      4065
 -1      2157    8    0    1
 -2      1029      1058      1104      4061      4206      4207
 -1      2158    8    0    1
 -2      1029      1104      1053      4207      4208      4038
 -1      2159    8    0    1
 -2       997       990      1003      3852      4203      4062
 -1      2160    8    0    1
 -2      1057      1053      1105      4056      4209      4210
 -1      2161    8    0    1
 -2      1053      1104      1105      4208      4211      4209
 -1      2162    8    0    1
 -2      1100      1057      1105      4185      4210      4212
 -1      2163    8    0    1
 -2      1097      1055      1106      4204      4213      4214
 -1      2164    8    0    1
 -2      1096      1097      1106      4176      4214      4215
 -1      2165    8    0    1
 -2      1055      1103      1106      4202      4216      4213
 -1      2166    8    0    1
 -2      1087      1088      1072      4149      4217      4218
 -1      2167    8    0    1
 -2      1099      1082      1069      4200      4219      4220
 -1      2168    8    0    1
 -2      1062      1061      1104      4072      4221      4222
 -1      2169    8    0    1
 -2      1063      1062      1058      4075      4223      4224
 -1      2170    8    0    1
 -2      1064      1063      1101      4078      4225      4226
 -1      2171    8    0    1
 -2      1065      1064      1098      4081      4227      4228
 -1      2172    8    0    1
 -2      1066      1065      1059      4084      4229      4230
 -1      2173    8    0    1
 -2      1067      1066      1102      4087      4231      4232
 -1      2174    8    0    1
 -2      1068      1067      1083      4090      4233      4234
 -1      2175    8    0    1
 -2      1069      1068      1099      4093      4235      4220
 -1      2176    8    0    1
 -2      1070      1069      1082      4096      4219      4236
 -1      2177    8    0    1
 -2      1071      1070      1086      4099      4237      4238
 -1      2178    8    0    1
 -2      1072      1071      1087      4102      4239      4218
 -1      2179    8    0    1
 -2      1073      1072      1088      4105      4217      4240
 -1      2180    8    0    1
 -2      1074      1073      1089      4108      4241      4242
 -1      2181    8    0    1
 -2      1075      1074      1090      4111      4243      4244
 -1      2182    8    0    1
 -2      1076      1075      1091      4114      4245      4246
 -1      2183    8    0    1
 -2      1077      1076      1092      4117      4247      4248
 -1      2184    8    0    1
 -2      1078      1077      1093      4120      4249      4250
 -1      2185    8    0    1
 -2      1079      1078      1094      4123      4251      4252
 -1      2186    8    0    1
 -2      1080      1079      1095      4126      4253      4254
 -1      2187    8    0    1
 -2      1086      1087      1071      4146      4239      4238
 -1      2188    8    0    1
 -2      1058      1101      1063      4195      4225      4224
 -1      2189    8    0    1
 -2      1092      1076      1091      4247      4246      4161
 -1      2190    8    0    1
 -2      1083      1067      1102      4233      4232      4194
 -1      2191    8    0    1
 -2      1073      1088      1089      4240      4152      4241
 -1      2192    8    0    1
 -2      1085      1054      1107      4140      4255      4256
 -1      2193    8    0    1
 -2      1089      1090      1074      4155      4243      4242
 -1      2194    8    0    1
 -2      1090      1091      1075      4158      4245      4244
 -1      2195    8    0    1
 -2      1092      1093      1077      4164      4249      4248
 -1      2196    8    0    1
 -2      1093      1094      1078      4167      4251      4250
 -1      2197    8    0    1
 -2      1094      1095      1079      4170      4253      4252
 -1      2198    8    0    1
 -2      1095      1096      1080      4173      4257      4254
 -1      2199    8    0    1
 -2      1098      1059      1065      4180      4229      4228
 -1      2200    8    0    1
 -2      1100      1105      1107      4212      4258      4259
 -1      2201    8    0    1
 -2      1060      1085      1107      4205      4256      4260
 -1      2202    8    0    1
 -2      1082      1086      1070      4143      4237      4236
 -1      2203    8    0    1
 -2      1098      1064      1101      4227      4226      4190
 -1      2204    8    0    1
 -2      1058      1062      1104      4223      4222      4206
 -1      2205    8    0    1
 -2      1083      1099      1068      4184      4235      4234
 -1      2206    8    0    1
 -2      1084      1100      1107      4187      4259      4261
 -1      2207    8    0    1
 -2      1054      1084      1107      4201      4261      4255
 -1      2208    8    0    1
 -2      1061      1060      1105      4069      4262      4263
 -1      2209    8    0    1
 -2      1066      1059      1102      4230      4193      4231
 -1      2210    8    0    1
 -2      1105      1060      1107      4262      4260      4258
 -1      2211    8    0    1
 -2      1061      1105      1104      4263      4211      4221
 -1      2212    8    0    1
 -2      1103      1081      1106      4199      4264      4216
 -1      2213    8    0    1
 -2      1080      1096      1106      4257      4215      4265
 -1      2214    8    0    1
 -2      1081      1080      1106      4129      4265      4264
 -3
    1PSTEP                         1           1           1          
  100CL  101 1.000000000        4265                     0    1           1
 -4  DISP        4    1
 -5  D1          1    2    1    0
 -5  D2          1    2    2    0
 -5  D3          1    2    3    0
 -5  ALL         1    2    0    0    1ALL
 -1         1 3.90329E-03-1.63271E-04-4.22486E-15
 -1         2 6.42185E-03 8.25919E-04-5.69763E-15
 -1         3 1.63944E-02 5.81555E-03-7.39785E-14
 -1         4 1.41533E-02 4.38647E-03-7.90279E-14
 -1         5 0.00000E+00 0.00000E+00 0.00000E+00
 -1         6 0.00000E+00 0.00000E+00 0.00000E+00
 -1         7 0.00000E+00 0.00000E+00 0.00000E+00
 -1         8 0.00000E+00 0.00000E+00 0.00000E+00
 -1         9 0.00000E+00 0.00000E+00 0.00000E+00
 -1        10 0.00000E+00 0.00000E+00 0.00000E+00
 -1        11 0.00000E+00 0.00000E+00 0.00000E+00
 -1        12 0.00000E+00 0.00000E+00 0.00000E+00
 -1        13 0.00000E+00 0.00000E+00 0.00000E+00
 -1        14 0.00000E+00 0.00000E+00 0.00000E+00
 -1        15 0.00000E+00 0.00000E+00 0.00000E+00
 -1        16 0.00000E+00 0.00000E+00 0.00000E+00
 -1        17 0.00000E+00 0.00000E+00 0.00000E+00
 -1        18 0.00000E+00 0.00000E+00 0.00000E+00
 -1        19 0.00000E+00 0.00000E+00 0.00000E+00
 -1        20 0.00000E+00 0.00000E+00 0.00000E+00
 -1        21 0.00000E+00 0.00000E+00 0.00000E+00
 -1        22 0.00000E+00 0.00000E+00 0.00000E+00
 -1        23 4.24057E-04-2.59386E-04 2.99172E-18
 -1        24 7.32024E-04-3.96442E-04-7.82997E-17
 -1        25 1.02117E-03-4.94590E-04-2.39311E-16
 -1        26 1.30553E-03-5.69840E-04-4.78184E-16
 -1        27 1.58726E-03-6.31690E-04-7.92470E-16
 -1        28 1.86557E-03-6.84587E-04-1.18201E-15
 -1        29 2.13828E-03-7.29721E-04-1.64542E-15
 -1        30 2.40279E-03-7.65425E-04-2.18292E-15
 -1        31 2.65721E-03-7.87593E-04-2.79597E-15
 -1        32 2.90129E-03-7.90548E-04-3.48338E-15
 -1        33 3.13706E-03-7.68493E-04-4.24444E-15
 -1        34 3.36886E-03-7.17272E-04-5.07559E-15
 -1        35 3.60235E-03-6.35833E-04-5.97916E-15
 -1        36 3.84309E-03-5.26759E-04-6.94991E-15
 -1        37 4.09509E-03-3.95639E-04-7.97962E-15
 -1        38 4.36003E-03-2.49612E-04-9.06852E-15
 -1        39 4.63731E-03-9.57270E-05-1.02127E-14
 -1        40 4.92465E-03 6.02659E-05-1.14127E-14
 -1        41 5.21906E-03 2.14464E-04-1.26703E-14
 -1        42 5.51752E-03 3.64764E-04-1.39831E-14
 -1        43 5.81754E-03 5.10479E-04-1.53643E-14
 -1        44 6.11733E-03 6.51844E-04-1.68131E-14
 -1        45 6.41576E-03 7.89583E-04-1.83324E-14
 -1        46 6.71227E-03 9.24590E-04-1.99197E-14
 -1        47 7.00669E-03 1.05773E-03-2.15648E-14
 -1        48 7.29912E-03 1.18973E-03-2.32634E-14
 -1        49 7.58981E-03 1.32117E-03-2.50210E-14
 -1        50 7.87904E-03 1.45245E-03-2.68458E-14
 -1        51 8.16711E-03 1.58384E-03-2.87409E-14
 -1        52 8.45431E-03 1.71551E-03-3.06974E-14
 -1        53 8.74086E-03 1.84753E-03-3.27003E-14
 -1        54 9.02695E-03 1.97993E-03-3.47582E-14
 -1        55 9.31275E-03 2.11269E-03-3.68608E-14
 -1        56 9.59835E-03 2.24579E-03-3.90026E-14
 -1        57 9.88384E-03 2.37919E-03-4.11881E-14
 -1        58 1.01693E-02 2.51283E-03-4.34230E-14
 -1        59 1.04547E-02 2.64668E-03-4.56946E-14
 -1        60 1.07401E-02 2.78069E-03-4.80124E-14
 -1        61 1.10256E-02 2.91483E-03-5.03670E-14
 -1        62 1.13111E-02 3.04906E-03-5.27814E-14
 -1        63 1.15966E-02 3.18337E-03-5.52572E-14
 -1        64 1.18822E-02 3.31774E-03-5.77701E-14
 -1        65 1.21678E-02 3.45214E-03-6.03284E-14
 -1        66 1.24534E-02 3.58657E-03-6.29265E-14
 -1        67 1.27391E-02 3.72101E-03-6.55631E-14
 -1        68 1.30248E-02 3.85545E-03-6.82363E-14
 -1        69 1.33104E-02 3.98990E-03-7.09331E-14
 -1        70 1.35962E-02 4.12434E-03-7.36578E-14
 -1        71 1.38819E-02 4.25877E-03-7.64030E-14
 -1        72 4.33250E-04 2.44425E-04 5.16555E-17
 -1        73 7.60878E-04 3.66102E-04 6.60855E-17
 -1        74 1.08657E-03 4.50556E-04 3.98072E-17
 -1        75 1.42543E-03 5.21144E-04-3.40101E-17
 -1        76 1.78758E-03 5.93876E-04-1.57941E-16
 -1        77 2.18094E-03 6.86684E-04-3.34639E-16
 -1        78 2.63099E-03 8.30263E-04-5.78584E-16
 -1        79 3.08617E-03 1.03594E-03-8.67172E-16
 -1        80 3.53824E-03 1.32093E-03-1.21704E-15
 -1        81 3.93953E-03 1.65628E-03-1.63460E-15
 -1        82 4.25251E-03 1.95096E-03-2.13393E-15
 -1        83 4.49798E-03 2.08873E-03-2.73198E-15
 -1        84 4.71521E-03 2.04758E-03-3.32959E-15
 -1        85 4.97268E-03 1.91442E-03-3.96981E-15
 -1        86 5.37794E-03 1.71728E-03-4.85872E-15
 -1        87 5.83933E-03 1.57202E-03-5.82900E-15
 -1        88 6.30741E-03 1.51192E-03-6.86347E-15
 -1        89 6.75173E-03 1.52788E-03-7.96108E-15
 -1        90 7.16239E-03 1.59769E-03-9.11601E-15
 -1        91 7.55929E-03 1.70694E-03-1.03925E-14
 -1        92 7.91084E-03 1.83058E-03-1.16750E-14
 -1        93 8.24303E-03 1.96440E-03-1.30213E-14
 -1        94 8.56114E-03 2.10328E-03-1.44128E-14
 -1        95 8.86920E-03 2.24433E-03-1.58529E-14
 -1        96 9.17017E-03 2.38597E-03-1.73561E-14
 -1        97 9.48086E-03 2.53443E-03-1.90113E-14
 -1        98 9.77323E-03 2.67515E-03-2.06741E-14
 -1        99 1.00632E-02 2.81507E-03-2.24153E-14
 -1       100 1.03516E-02 2.95416E-03-2.42306E-14
 -1       101 1.06388E-02 3.09247E-03-2.61294E-14
 -1       102 1.09253E-02 3.23008E-03-2.80957E-14
 -1       103 1.12256E-02 3.37390E-03-3.02179E-14
 -1       104 1.15113E-02 3.51033E-03-3.22993E-14
 -1       105 1.17968E-02 3.64633E-03-3.44349E-14
 -1       106 1.20823E-02 3.78198E-03-3.66231E-14
 -1       107 1.23676E-02 3.91733E-03-3.88497E-14
 -1       108 1.26530E-02 4.05246E-03-4.11193E-14
 -1       109 1.29527E-02 4.19415E-03-4.35669E-14
 -1       110 1.32382E-02 4.32896E-03-4.59480E-14
 -1       111 1.35236E-02 4.46366E-03-4.83678E-14
 -1       112 1.38092E-02 4.59828E-03-5.07784E-14
 -1       113 1.40947E-02 4.73285E-03-5.31927E-14
 -1       114 1.43803E-02 4.86738E-03-5.56301E-14
 -1       115 1.46802E-02 5.00860E-03-5.82383E-14
 -1       116 1.49659E-02 5.14309E-03-6.07846E-14
 -1       117 1.52516E-02 5.27758E-03-6.33671E-14
 -1       118 1.55372E-02 5.41206E-03-6.59913E-14
 -1       119 1.58229E-02 5.54655E-03-6.86359E-14
 -1       120 1.61087E-02 5.68105E-03-7.12888E-14
 -1       121 1.62621E-02 5.73127E-03-7.43047E-14
 -1       122 1.61298E-02 5.64698E-03-7.46278E-14
 -1       123 1.59976E-02 5.56269E-03-7.49217E-14
 -1       124 1.58653E-02 5.47838E-03-7.51989E-14
 -1       125 1.57330E-02 5.39406E-03-7.54557E-14
 -1       126 1.56030E-02 5.31116E-03-7.57164E-14
 -1       127 1.54707E-02 5.22682E-03-7.59905E-14
 -1       128 1.53385E-02 5.14247E-03-7.62581E-14
 -1       129 1.52062E-02 5.05812E-03-7.65380E-14
 -1       130 1.50740E-02 4.97377E-03-7.68235E-14
 -1       131 1.49418E-02 4.88943E-03-7.71240E-14
 -1       132 1.48119E-02 4.80653E-03-7.74564E-14
 -1       133 1.46797E-02 4.72221E-03-7.78005E-14
 -1       134 1.45476E-02 4.63791E-03-7.81391E-14
 -1       135 1.44154E-02 4.55361E-03-7.84591E-14
 -1       136 1.42832E-02 4.46933E-03-7.87487E-14
 -1       137 6.43132E-03 1.01101E-03-5.53760E-15
 -1       138 6.32437E-03 1.20641E-03-5.26945E-15
 -1       139 6.12683E-03 1.37544E-03-4.96912E-15
 -1       140 5.83878E-03 1.52998E-03-4.62831E-15
 -1       141 5.45738E-03 1.66367E-03-4.25034E-15
 -1       142 4.95751E-03 1.76415E-03-3.82551E-15
 -1       143 4.46322E-03 1.79421E-03-3.47034E-15
 -1       144 3.88686E-03 1.74975E-03-3.10846E-15
 -1       145 3.34298E-03 1.63097E-03-2.80836E-15
 -1       146 2.85162E-03 1.46001E-03-2.57238E-15
 -1       147 2.42695E-03 1.25493E-03-2.39855E-15
 -1       148 2.10610E-03 1.04809E-03-2.29583E-15
 -1       149 1.88848E-03 8.51786E-04-2.25474E-15
 -1       150 1.75270E-03 6.47829E-04-2.26733E-15
 -1       151 1.72400E-03 4.68429E-04-2.33303E-15
 -1       152 1.80084E-03 2.87501E-04-2.46496E-15
 -1       153 1.96782E-03 1.41246E-04-2.64058E-15
 -1       154 2.22776E-03 1.53420E-05-2.87525E-15
 -1       155 2.54929E-03-7.86878E-05-3.14610E-15
 -1       156 2.97158E-03-1.47342E-04-3.48861E-15
 -1       157 3.42068E-03-1.74725E-04-3.84564E-15
 -1       158 4.40324E-03-1.11268E-04-4.61081E-15
 -1       159 4.92374E-03-1.19299E-05-5.00188E-15
 -1       160 5.36721E-03 1.13524E-04-5.31189E-15
 -1       161 5.75278E-03 2.64823E-04-5.55250E-15
 -1       162 6.06642E-03 4.35740E-04-5.70493E-15
 -1       163 6.30267E-03 6.31773E-04-5.75932E-15
 -1       164 2.50477E-04-1.19110E-04-2.29377E-17
 -1       165 2.33651E-04-8.48083E-05-3.00256E-17
 -1       166 2.25655E-04-5.96764E-05-3.28445E-17
 -1       167 2.19954E-04-3.88327E-05-3.34747E-17
 -1       168 2.14826E-04-2.11280E-05-3.29123E-17
 -1       169 2.09531E-04-5.76215E-06-3.15367E-17
 -1       170 2.04242E-04 6.65663E-06-2.99104E-17
 -1       171 1.99580E-04 1.58495E-05-2.82197E-17
 -1       172 1.96574E-04 2.19764E-05-2.62309E-17
 -1       173 1.96400E-04 2.59665E-05-2.39304E-17
 -1       174 1.99938E-04 2.95769E-05-2.06541E-17
 -1       175 2.07786E-04 3.54994E-05-1.62292E-17
 -1       176 2.19822E-04 4.68121E-05-1.01644E-17
 -1       177 2.35909E-04 6.71849E-05-9.96111E-19
 -1       178 2.58467E-04 1.02431E-04 1.23464E-17
 -1       179 3.21914E-04 1.63758E-04 2.76607E-17
 -1       180 4.89160E-04-2.56115E-04-6.13049E-17
 -1       181 8.02845E-04-3.72657E-04-1.91707E-16
 -1       182 1.10305E-03-4.58896E-04-3.95785E-16
 -1       183 1.39647E-03-5.27583E-04-6.73493E-16
 -1       184 1.68513E-03-5.85592E-04-1.02406E-15
 -1       185 1.96918E-03-6.36007E-04-1.44731E-15
 -1       186 2.24776E-03-6.78685E-04-1.94364E-15
 -1       187 2.51982E-03-7.10564E-04-2.51228E-15
 -1       188 2.78489E-03-7.26258E-04-3.15490E-15
 -1       189 3.04367E-03-7.19293E-04-3.87075E-15
 -1       190 3.29833E-03-6.83943E-04-4.65772E-15
 -1       191 3.55223E-03-6.17145E-04-5.51494E-15
 -1       192 3.80909E-03-5.19702E-04-6.44293E-15
 -1       193 4.07208E-03-3.96218E-04-7.43423E-15
 -1       194 4.34302E-03-2.53821E-04-8.48709E-15
 -1       195 4.62222E-03-1.00324E-04-9.59771E-15
 -1       196 4.90867E-03 5.74033E-05-1.07646E-14
 -1       197 5.20061E-03 2.14359E-04-1.19890E-14
 -1       198 5.49606E-03 3.67597E-04-1.32702E-14
 -1       199 5.79320E-03 5.15902E-04-1.46133E-14
 -1       200 6.09062E-03 6.59267E-04-1.60219E-14
 -1       201 6.38733E-03 7.98369E-04-1.74974E-14
 -1       202 6.68275E-03 9.34169E-04-1.90431E-14
 -1       203 6.97662E-03 1.06765E-03-2.06502E-14
 -1       204 7.26893E-03 1.19968E-03-2.23145E-14
 -1       205 7.55976E-03 1.33093E-03-2.40376E-14
 -1       206 7.84932E-03 1.46190E-03-2.58244E-14
 -1       207 8.13781E-03 1.59294E-03-2.76785E-14
 -1       208 8.42545E-03 1.72425E-03-2.95946E-14
 -1       209 8.71243E-03 1.85593E-03-3.15678E-14
 -1       210 8.99893E-03 1.98803E-03-3.35939E-14
 -1       211 9.28507E-03 2.12054E-03-3.56682E-14
 -1       212 9.57096E-03 2.25343E-03-3.77835E-14
 -1       213 9.85670E-03 2.38665E-03-3.99456E-14
 -1       214 1.01423E-02 2.52016E-03-4.21553E-14
 -1       215 1.04279E-02 2.65390E-03-4.44061E-14
 -1       216 1.07135E-02 2.78783E-03-4.67045E-14
 -1       217 1.09990E-02 2.92192E-03-4.90429E-14
 -1       218 1.12846E-02 3.05612E-03-5.14239E-14
 -1       219 1.15702E-02 3.19040E-03-5.38614E-14
 -1       220 1.18558E-02 3.32475E-03-5.63456E-14
 -1       221 1.21414E-02 3.45914E-03-5.88710E-14
 -1       222 1.24270E-02 3.59356E-03-6.14317E-14
 -1       223 1.27127E-02 3.72800E-03-6.40357E-14
 -1       224 1.29983E-02 3.86245E-03-6.66772E-14
 -1       225 1.32840E-02 3.99690E-03-6.93536E-14
 -1       226 1.35697E-02 4.13135E-03-7.20594E-14
 -1       227 1.38554E-02 4.26578E-03-7.47855E-14
 -1       228 6.62251E-04 2.85841E-04 2.69390E-17
 -1       229 9.95390E-04 3.71482E-04-1.36440E-17
 -1       230 1.33175E-03 4.39726E-04-9.95738E-17
 -1       231 1.68034E-03 5.06811E-04-2.34238E-16
 -1       232 2.04757E-03 5.90684E-04-4.21517E-16
 -1       233 2.45703E-03 7.21973E-04-6.75892E-16
 -1       234 2.86801E-03 9.15967E-04-9.73925E-16
 -1       235 3.28912E-03 1.19580E-03-1.33154E-15
 -1       236 3.70029E-03 1.54148E-03-1.75759E-15
 -1       237 4.08095E-03 1.86290E-03-2.26470E-15
 -1       238 4.43268E-03 2.02625E-03-2.86975E-15
 -1       239 4.73286E-03 1.99072E-03-3.46943E-15
 -1       240 5.03624E-03 1.84965E-03-4.10652E-15
 -1       241 5.44678E-03 1.63723E-03-4.99088E-15
 -1       242 5.87422E-03 1.48147E-03-5.95827E-15
 -1       243 6.29626E-03 1.41744E-03-6.99598E-15
 -1       244 6.69971E-03 1.43387E-03-8.09463E-15
 -1       245 7.08033E-03 1.50620E-03-9.25034E-15
 -1       246 7.45668E-03 1.61869E-03-1.05282E-14
 -1       247 7.79638E-03 1.74523E-03-1.18083E-14
 -1       248 8.12169E-03 1.88151E-03-1.31456E-14
 -1       249 8.43603E-03 2.02237E-03-1.45345E-14
 -1       250 8.74222E-03 2.16497E-03-1.59748E-14
 -1       251 9.04242E-03 2.30779E-03-1.74839E-14
 -1       252 9.35296E-03 2.45717E-03-1.91434E-14
 -1       253 9.64552E-03 2.59855E-03-2.08007E-14
 -1       254 9.93586E-03 2.73896E-03-2.25340E-14
 -1       255 1.02246E-02 2.87842E-03-2.43470E-14
 -1       256 1.05123E-02 3.01700E-03-2.62316E-14
 -1       257 1.07992E-02 3.15480E-03-2.81884E-14
 -1       258 1.10998E-02 3.29876E-03-3.03027E-14
 -1       259 1.13858E-02 3.43530E-03-3.23716E-14
 -1       260 1.16716E-02 3.57137E-03-3.44982E-14
 -1       261 1.19572E-02 3.70706E-03-3.66714E-14
 -1       262 1.22428E-02 3.84245E-03-3.88873E-14
 -1       263 1.25283E-02 3.97759E-03-4.11526E-14
 -1       264 1.28281E-02 4.11930E-03-4.35909E-14
 -1       265 1.31136E-02 4.25411E-03-4.59644E-14
 -1       266 1.33992E-02 4.38881E-03-4.83694E-14
 -1       267 1.36847E-02 4.52343E-03-5.07872E-14
 -1       268 1.39703E-02 4.65800E-03-5.32157E-14
 -1       269 1.42559E-02 4.79252E-03-5.56647E-14
 -1       270 1.45559E-02 4.93375E-03-5.82734E-14
 -1       271 1.48415E-02 5.06823E-03-6.08090E-14
 -1       272 1.51272E-02 5.20271E-03-6.33870E-14
 -1       273 1.54129E-02 5.33719E-03-6.60014E-14
 -1       274 1.56986E-02 5.47168E-03-6.86406E-14
 -1       275 1.59843E-02 5.60617E-03-7.12923E-14
 -1       276 1.59485E-02 5.57264E-03-7.21438E-14
 -1       277 1.58163E-02 5.48835E-03-7.24575E-14
 -1       278 1.56840E-02 5.40405E-03-7.27577E-14
 -1       279 1.55517E-02 5.31974E-03-7.30430E-14
 -1       280 1.54217E-02 5.23685E-03-7.33115E-14
 -1       281 1.52894E-02 5.15252E-03-7.35781E-14
 -1       282 1.51571E-02 5.06819E-03-7.38455E-14
 -1       283 1.50249E-02 4.98385E-03-7.41165E-14
 -1       284 1.48927E-02 4.89951E-03-7.43954E-14
 -1       285 1.47605E-02 4.81518E-03-7.46861E-14
 -1       286 1.46306E-02 4.73228E-03-7.49864E-14
 -1       287 1.44984E-02 4.64796E-03-7.53017E-14
 -1       288 1.43662E-02 4.56366E-03-7.56167E-14
 -1       289 1.42341E-02 4.47935E-03-7.59254E-14
 -1       290 1.40447E-02 4.37257E-03-7.53599E-14
 -1       291 6.46876E-03 9.16080E-04-6.06397E-15
 -1       292 6.38753E-03 1.01795E-03-5.85120E-15
 -1       293 6.16622E-03 1.16115E-03-5.44289E-15
 -1       294 5.85796E-03 1.32932E-03-5.03606E-15
 -1       295 5.48564E-03 1.52591E-03-4.58491E-15
 -1       296 5.05151E-03 1.72768E-03-4.09615E-15
 -1       297 4.64256E-03 1.85519E-03-3.62007E-15
 -1       298 4.22418E-03 1.87414E-03-3.18705E-15
 -1       299 3.78571E-03 1.74105E-03-2.79665E-15
 -1       300 3.31931E-03 1.49870E-03-2.51058E-15
 -1       301 2.86474E-03 1.20602E-03-2.26972E-15
 -1       302 2.39592E-03 9.78491E-04-2.17443E-15
 -1       303 2.05225E-03 7.83748E-04-2.10146E-15
 -1       304 1.81001E-03 6.24709E-04-2.06380E-15
 -1       305 1.69893E-03 5.24920E-04-2.13001E-15
 -1       306 1.73382E-03 4.27200E-04-2.23386E-15
 -1       307 1.90722E-03 3.20056E-04-2.39792E-15
 -1       308 2.18760E-03 2.04175E-04-2.59975E-15
 -1       309 2.51719E-03 5.38868E-05-2.89572E-15
 -1       310 2.89657E-03-8.95648E-05-3.23737E-15
 -1       311 3.29351E-03-2.01820E-04-3.63679E-15
 -1       312 3.68293E-03-2.51123E-04-4.06909E-15
 -1       313 4.08062E-03-2.09905E-04-4.52355E-15
 -1       314 4.49852E-03-8.26308E-05-5.02241E-15
 -1       315 4.95338E-03 1.14330E-04-5.44779E-15
 -1       316 5.37471E-03 3.37886E-04-5.84582E-15
 -1       317 5.80282E-03 5.23444E-04-6.05572E-15
 -1       318 6.15819E-03 6.89322E-04-6.19618E-15
 -1       319 6.39318E-03 8.16461E-04-6.19726E-15
 -1       320 4.71867E-04-1.45527E-04-1.13197E-16
 -1       321 4.94544E-04-1.99222E-04-1.03399E-16
 -1       322 4.45205E-04-6.32400E-05-1.16264E-16
 -1       323 4.33367E-04-2.98708E-05-1.13330E-16
 -1       324 4.21033E-04-1.51300E-06-1.09067E-16
 -1       325 4.08952E-04 2.12627E-05-1.04155E-16
 -1       326 3.99090E-04 3.82400E-05-9.83981E-17
 -1       327 3.94222E-04 5.02867E-05-9.16828E-17
 -1       328 3.97036E-04 5.96802E-05-8.33040E-17
 -1       329 4.09609E-04 7.07036E-05-7.22519E-17
 -1       330 4.32556E-04 8.83436E-05-5.80421E-17
 -1       331 4.65317E-04 1.18417E-04-3.91770E-17
 -1       332 5.08403E-04 1.67343E-04-1.36677E-17
 -1       333 5.78985E-04 2.21293E-04 3.34747E-18
 -1       334 9.04686E-04 3.06735E-04-4.65326E-17
 -1       335 9.03435E-04-3.43572E-04-3.12887E-16
 -1       336 1.20519E-03-4.18615E-04-5.56301E-16
 -1       337 1.50341E-03-4.81073E-04-8.70096E-16
 -1       338 1.79860E-03-5.35501E-04-1.25437E-15
 -1       339 2.09043E-03-5.83432E-04-1.71030E-15
 -1       340 2.37805E-03-6.23299E-04-2.23665E-15
 -1       341 2.66051E-03-6.50572E-04-2.83520E-15
 -1       342 2.93745E-03-6.58552E-04-3.50657E-15
 -1       343 3.20970E-03-6.40052E-04-4.24919E-15
 -1       344 3.47951E-03-5.89714E-04-5.06291E-15
 -1       345 3.75002E-03-5.06061E-04-5.94683E-15
 -1       346 4.02422E-03-3.92257E-04-6.89930E-15
 -1       347 4.30405E-03-2.55183E-04-7.91486E-15
 -1       348 4.58992E-03-1.03360E-04-8.99066E-15
 -1       349 4.88098E-03 5.51758E-05-1.01244E-14
 -1       350 5.17570E-03 2.14266E-04-1.13149E-14
 -1       351 5.47243E-03 3.70065E-04-1.25624E-14
 -1       352 5.76976E-03 5.20784E-04-1.38683E-14
 -1       353 6.06668E-03 6.66117E-04-1.52386E-14
 -1       354 6.36257E-03 8.06646E-04-1.66734E-14
 -1       355 6.65711E-03 9.43354E-04-1.81772E-14
 -1       356 6.95019E-03 1.07731E-03-1.97461E-14
 -1       357 7.24187E-03 1.20947E-03-2.13740E-14
 -1       358 7.53228E-03 1.34064E-03-2.30622E-14
 -1       359 7.82159E-03 1.47139E-03-2.48108E-14
 -1       360 8.10998E-03 1.60212E-03-2.66257E-14
 -1       361 8.39764E-03 1.73309E-03-2.85060E-14
 -1       362 8.68471E-03 1.86445E-03-3.04439E-14
 -1       363 8.97134E-03 1.99625E-03-3.24377E-14
 -1       364 9.25763E-03 2.12850E-03-3.44805E-14
 -1       365 9.54369E-03 2.26116E-03-3.65718E-14
 -1       366 9.82957E-03 2.39420E-03-3.87082E-14
 -1       367 1.01153E-02 2.52756E-03-4.08918E-14
 -1       368 1.04010E-02 2.66119E-03-4.31205E-14
 -1       369 1.06867E-02 2.79503E-03-4.53944E-14
 -1       370 1.09723E-02 2.92905E-03-4.77171E-14
 -1       371 1.12580E-02 3.06320E-03-5.00753E-14
 -1       372 1.15436E-02 3.19745E-03-5.24783E-14
 -1       373 1.18292E-02 3.33177E-03-5.49307E-14
 -1       374 1.21149E-02 3.46615E-03-5.74277E-14
 -1       375 1.24005E-02 3.60056E-03-5.99604E-14
 -1       376 1.26862E-02 3.73500E-03-6.25269E-14
 -1       377 1.29719E-02 3.86945E-03-6.51379E-14
 -1       378 1.32576E-02 4.00390E-03-6.77892E-14
 -1       379 1.35433E-02 4.13835E-03-7.04683E-14
 -1       380 1.37940E-02 4.25546E-03-7.29057E-14
 -1       381 1.23135E-03 3.74124E-04-1.40865E-16
 -1       382 1.56383E-03 4.37717E-04-2.83431E-16
 -1       383 1.90754E-03 5.14265E-04-4.77615E-16
 -1       384 2.28641E-03 6.32326E-04-7.38765E-16
 -1       385 2.67011E-03 8.08770E-04-1.04179E-15
 -1       386 3.07921E-03 1.07215E-03-1.40343E-15
 -1       387 3.50751E-03 1.41844E-03-1.83129E-15
 -1       388 3.93466E-03 1.76965E-03-2.33772E-15
 -1       389 4.34783E-03 1.97142E-03-2.94140E-15
 -1       390 4.69739E-03 1.94747E-03-3.53955E-15
 -1       391 5.03752E-03 1.79797E-03-4.17395E-15
 -1       392 5.47101E-03 1.57109E-03-5.05587E-15
 -1       393 5.89448E-03 1.40797E-03-6.02099E-15
 -1       394 6.29410E-03 1.34214E-03-7.05946E-15
 -1       395 6.66919E-03 1.35872E-03-8.15739E-15
 -1       396 7.02400E-03 1.43165E-03-9.31080E-15
 -1       397 7.37943E-03 1.54496E-03-1.05862E-14
 -1       398 7.70513E-03 1.67237E-03-1.18610E-14
 -1       399 8.02107E-03 1.80955E-03-1.31931E-14
 -1       400 8.32939E-03 1.95128E-03-1.45791E-14
 -1       401 8.63183E-03 2.09464E-03-1.60177E-14
 -1       402 8.92977E-03 2.23813E-03-1.75235E-14
 -1       403 9.23897E-03 2.38809E-03-1.91824E-14
 -1       404 9.53086E-03 2.52992E-03-2.08336E-14
 -1       405 9.82091E-03 2.67069E-03-2.25600E-14
 -1       406 1.01096E-02 2.81042E-03-2.43652E-14
 -1       407 1.03973E-02 2.94922E-03-2.62420E-14
 -1       408 1.06843E-02 3.08719E-03-2.81864E-14
 -1       409 1.09851E-02 3.23129E-03-3.02906E-14
 -1       410 1.12712E-02 3.36792E-03-3.23502E-14
 -1       411 1.15571E-02 3.50406E-03-3.44673E-14
 -1       412 1.18429E-02 3.63981E-03-3.66281E-14
 -1       413 1.21285E-02 3.77523E-03-3.88350E-14
 -1       414 1.24142E-02 3.91040E-03-4.10906E-14
 -1       415 1.27140E-02 4.05212E-03-4.35208E-14
 -1       416 1.29996E-02 4.18694E-03-4.58859E-14
 -1       417 1.32852E-02 4.32165E-03-4.82843E-14
 -1       418 1.35708E-02 4.45628E-03-5.07038E-14
 -1       419 1.38564E-02 4.59084E-03-5.31407E-14
 -1       420 1.41421E-02 4.72537E-03-5.55960E-14
 -1       421 1.44420E-02 4.86659E-03-5.82075E-14
 -1       422 1.47277E-02 5.00108E-03-6.07346E-14
 -1       423 1.50134E-02 5.13555E-03-6.33037E-14
 -1       424 1.52991E-02 5.27003E-03-6.59111E-14
 -1       425 1.55848E-02 5.40452E-03-6.85438E-14
 -1       426 1.57667E-02 5.48858E-03-7.03389E-14
 -1       427 1.53704E-02 5.24542E-03-7.06065E-14
 -1       428 1.55027E-02 5.32972E-03-7.03073E-14
 -1       429 1.56347E-02 5.40915E-03-7.03279E-14
 -1       430 1.52404E-02 5.16254E-03-7.08885E-14
 -1       431 1.51081E-02 5.07822E-03-7.11665E-14
 -1       432 1.49758E-02 4.99390E-03-7.14339E-14
 -1       433 1.48436E-02 4.90957E-03-7.17017E-14
 -1       434 1.47113E-02 4.82524E-03-7.19715E-14
 -1       435 1.45791E-02 4.74091E-03-7.22489E-14
 -1       436 1.44492E-02 4.65802E-03-7.25340E-14
 -1       437 1.43170E-02 4.57370E-03-7.28278E-14
 -1       438 1.41849E-02 4.48939E-03-7.31244E-14
 -1       439 1.40527E-02 4.40509E-03-7.34202E-14
 -1       440 6.27455E-03 1.05135E-03-6.02343E-15
 -1       441 6.46795E-03 9.04390E-04-6.64991E-15
 -1       442 6.47494E-03 9.57641E-04-6.53635E-15
 -1       443 5.99027E-03 1.18869E-03-5.53594E-15
 -1       444 5.62435E-03 1.38361E-03-5.03722E-15
 -1       445 4.57176E-04-1.01278E-04-1.16586E-16
 -1       446 4.78410E-03 1.84985E-03-3.80734E-15
 -1       447 4.47252E-03 1.92929E-03-3.35240E-15
 -1       448 4.08281E-03 1.86269E-03-2.85659E-15
 -1       449 3.64219E-03 1.61054E-03-2.45294E-15
 -1       450 3.24615E-03 1.33676E-03-2.21795E-15
 -1       451 2.65481E-03 9.65059E-04-2.01077E-15
 -1       452 2.27178E-03 7.66387E-04-1.93803E-15
 -1       453 1.95203E-03 6.13405E-04-1.88516E-15
 -1       454 1.71929E-03 5.12217E-04-1.90358E-15
 -1       455 1.67871E-03 4.59259E-04-1.96639E-15
 -1       456 1.79915E-03 4.01307E-04-2.13096E-15
 -1       457 2.03434E-03 3.13828E-04-2.31455E-15
 -1       458 2.41442E-03 1.61289E-04-2.59687E-15
 -1       459 2.72939E-03 1.86290E-05-2.90901E-15
 -1       460 3.14245E-03-1.59532E-04-3.35950E-15
 -1       461 3.49176E-03-2.63053E-04-3.83526E-15
 -1       462 3.85734E-03-2.76433E-04-4.40697E-15
 -1       463 4.17499E-03-1.88448E-04-4.89811E-15
 -1       464 4.63356E-03 4.07910E-05-5.54304E-15
 -1       465 5.03252E-03 2.74412E-04-6.02703E-15
 -1       466 5.54983E-03 5.32582E-04-6.39153E-15
 -1       467 5.95651E-03 7.02469E-04-6.57257E-15
 -1       468 6.29046E-03 8.27964E-04-6.66545E-15
 -1       469 5.24357E-03 1.60807E-03-4.47728E-15
 -1       470 2.98765E-03 1.10876E-03-1.95383E-15
 -1       471 9.84967E-04 2.70945E-04-1.44900E-16
 -1       472 6.53543E-04-2.54258E-05-2.38572E-16
 -1       473 6.73496E-04-7.20188E-05-2.45416E-16
 -1       474 6.12430E-04 4.60480E-05-2.19094E-16
 -1       475 5.97788E-04 6.98206E-05-2.06622E-16
 -1       476 5.93763E-04 8.72151E-05-1.91877E-16
 -1       477 6.04887E-04 1.03090E-04-1.73313E-16
 -1       478 6.33829E-04 1.23446E-04-1.50152E-16
 -1       479 6.80157E-04 1.55433E-04-1.20885E-16
 -1       480 1.28973E-03 3.31158E-04-2.81859E-16
 -1       481 1.01943E-03-3.10060E-04-4.42917E-16
 -1       482 5.44049E-03 1.50043E-03-4.92044E-15
 -1       483 1.32167E-03-3.73776E-04-7.21476E-16
 -1       484 1.62455E-03-4.29713E-04-1.06807E-15
 -1       485 1.92724E-03-4.80444E-04-1.48437E-15
 -1       486 2.22859E-03-5.26084E-04-1.96987E-15
 -1       487 2.52687E-03-5.63558E-04-2.52451E-15
 -1       488 2.82036E-03-5.86526E-04-3.15096E-15
 -1       489 3.10832E-03-5.86441E-04-3.85011E-15
 -1       490 3.39187E-03-5.55056E-04-4.62075E-15
 -1       491 3.67398E-03-4.87613E-04-5.46181E-15
 -1       492 3.95832E-03-3.85071E-04-6.37273E-15
 -1       493 4.24754E-03-2.53938E-04-7.35015E-15
 -1       494 4.54231E-03-1.03851E-04-8.38976E-15
 -1       495 4.84146E-03 5.54950E-05-9.49007E-15
 -1       496 5.14292E-03 2.16505E-04-1.06482E-14
 -1       497 5.44465E-03 3.74412E-04-1.18617E-14
 -1       498 5.74520E-03 5.26973E-04-1.31320E-14
 -1       499 6.04381E-03 6.73721E-04-1.44651E-14
 -1       500 6.34022E-03 8.15228E-04-1.58609E-14
 -1       501 6.63452E-03 9.52535E-04-1.73242E-14
 -1       502 6.92695E-03 1.08678E-03-1.88528E-14
 -1       503 7.21782E-03 1.21902E-03-2.04429E-14
 -1       504 7.50744E-03 1.35009E-03-2.20936E-14
 -1       505 7.79606E-03 1.48063E-03-2.38063E-14
 -1       506 8.08390E-03 1.61111E-03-2.55825E-14
 -1       507 8.37116E-03 1.74181E-03-2.74244E-14
 -1       508 8.65796E-03 1.87289E-03-2.93296E-14
 -1       509 8.94443E-03 2.00443E-03-3.12894E-14
 -1       510 9.23066E-03 2.13644E-03-3.33024E-14
 -1       511 9.51670E-03 2.26891E-03-3.53658E-14
 -1       512 9.80261E-03 2.40177E-03-3.74745E-14
 -1       513 1.00884E-02 2.53499E-03-3.96325E-14
 -1       514 1.03742E-02 2.66851E-03-4.18375E-14
 -1       515 1.06599E-02 2.80226E-03-4.40908E-14
 -1       516 1.09456E-02 2.93621E-03-4.63900E-14
 -1       517 1.12313E-02 3.07030E-03-4.87288E-14
 -1       518 1.15170E-02 3.20452E-03-5.11084E-14
 -1       519 1.18027E-02 3.33881E-03-5.35301E-14
 -1       520 1.20883E-02 3.47317E-03-5.59968E-14
 -1       521 1.23740E-02 3.60757E-03-5.85033E-14
 -1       522 1.26597E-02 3.74200E-03-6.10406E-14
 -1       523 1.29454E-02 3.87645E-03-6.36165E-14
 -1       524 1.32311E-02 4.01090E-03-6.62359E-14
 -1       525 1.35168E-02 4.14536E-03-6.88886E-14
 -1       526 1.91705E-03 4.76726E-04-7.14821E-16
 -1       527 2.24601E-03 5.97903E-04-1.00715E-15
 -1       528 2.60686E-03 7.87746E-04-1.35260E-15
 -1       529 3.09118E-03 1.12234E-03-1.73464E-15
 -1       530 4.90501E-03 1.81665E-03-3.98551E-15
 -1       531 5.87218E-03 1.30652E-03-5.87003E-15
 -1       532 6.24874E-03 1.22842E-03-6.89696E-15
 -1       533 6.58361E-03 1.23874E-03-7.98113E-15
 -1       534 6.89759E-03 1.30583E-03-9.11974E-15
 -1       535 7.21677E-03 1.41374E-03-1.03737E-14
 -1       536 7.51628E-03 1.53740E-03-1.16261E-14
 -1       537 7.81343E-03 1.67224E-03-1.29398E-14
 -1       538 8.10881E-03 1.81277E-03-1.43100E-14
 -1       539 8.40259E-03 1.95573E-03-1.57322E-14
 -1       540 8.69489E-03 2.09929E-03-1.72184E-14
 -1       541 9.00035E-03 2.24960E-03-1.88521E-14
 -1       542 9.29007E-03 2.39188E-03-2.04821E-14
 -1       543 9.57882E-03 2.53312E-03-2.21811E-14
 -1       544 9.86677E-03 2.67330E-03-2.39579E-14
 -1       545 1.01541E-02 2.81250E-03-2.58061E-14
 -1       546 1.04409E-02 2.95082E-03-2.77178E-14
 -1       547 1.07417E-02 3.09522E-03-2.97956E-14
 -1       548 1.10279E-02 3.23209E-03-3.18285E-14
 -1       549 1.13139E-02 3.36842E-03-3.39162E-14
 -1       550 1.15998E-02 3.50432E-03-3.60534E-14
 -1       551 1.18856E-02 3.63986E-03-3.82355E-14
 -1       552 1.21713E-02 3.77512E-03-4.04662E-14
 -1       553 1.24713E-02 3.91691E-03-4.28677E-14
 -1       554 1.27570E-02 4.05178E-03-4.52119E-14
 -1       555 1.30426E-02 4.18652E-03-4.75957E-14
 -1       556 1.33283E-02 4.32117E-03-5.00045E-14
 -1       557 1.36140E-02 4.45576E-03-5.24399E-14
 -1       558 1.38996E-02 4.59029E-03-5.48985E-14
 -1       559 1.41996E-02 4.73152E-03-5.75105E-14
 -1       560 1.44853E-02 4.86601E-03-6.00237E-14
 -1       561 1.47710E-02 5.00048E-03-6.25713E-14
 -1       562 1.50567E-02 5.13496E-03-6.51581E-14
 -1       563 1.49268E-02 5.00392E-03-6.87511E-14
 -1       564 1.47945E-02 4.91960E-03-6.90271E-14
 -1       565 1.51891E-02 5.17111E-03-6.81754E-14
 -1       566 1.50579E-02 5.08752E-03-6.84669E-14
 -1       567 1.46622E-02 4.83528E-03-6.92958E-14
 -1       568 1.45300E-02 4.75096E-03-6.95604E-14
 -1       569 1.43978E-02 4.66663E-03-6.98274E-14
 -1       570 1.42678E-02 4.58374E-03-7.00958E-14
 -1       571 1.41357E-02 4.49942E-03-7.03761E-14
 -1       572 1.40035E-02 4.41511E-03-7.06552E-14
 -1       573 1.38714E-02 4.33081E-03-7.09388E-14
 -1       574 6.52447E-03 9.56550E-04-7.18189E-15
 -1       575 6.15295E-03 1.11237E-03-6.12981E-15
 -1       576 1.59629E-03 3.93775E-04-4.68985E-16
 -1       577 6.41455E-03 9.17406E-04-7.28391E-15
 -1       578 6.42683E-03 1.01051E-03-6.76869E-15
 -1       579 7.41501E-04-2.29962E-04-2.50783E-16
 -1       580 6.14241E-03 8.32340E-04-7.17196E-15
 -1       581 3.63242E-03-3.02074E-04-4.12609E-15
 -1       582 2.16532E-03 2.50845E-04-2.23417E-15
 -1       583 6.32436E-04 1.42725E-05-2.29634E-16
 -1       584 2.46090E-03 7.80532E-04-1.76153E-15
 -1       585 3.48350E-03 1.44837E-03-2.12586E-15
 -1       586 3.31328E-03-2.42711E-04-3.57058E-15
 -1       587 2.12717E-03 6.25139E-04-1.71606E-15
 -1       588 1.79512E-03 4.90601E-04-1.65343E-15
 -1       589 1.65775E-03 4.49363E-04-1.74172E-15
 -1       590 1.68410E-03 4.01497E-04-1.78428E-15
 -1       591 1.87755E-03 3.53854E-04-2.00237E-15
 -1       592 2.58084E-03 7.26267E-05-2.61775E-15
 -1       593 4.76270E-03 1.72370E-04-6.20322E-15
 -1       594 2.94034E-03-9.24051E-05-3.03537E-15
 -1       595 3.98511E-03-2.50214E-04-4.78566E-15
 -1       596 4.36192E-03-7.33673E-05-5.51324E-15
 -1       597 5.29202E-03 4.72686E-04-6.72312E-15
 -1       598 5.76773E-03 6.98373E-04-7.06485E-15
 -1       599 7.48815E-04 2.25244E-04-6.30735E-17
 -1       600 5.85580E-03 1.25614E-03-5.60094E-15
 -1       601 6.92242E-04-1.24397E-04-2.49102E-16
 -1       602 1.37073E-02 4.23458E-03-7.07060E-14
 -1       603 1.54009E-02 5.29988E-03-6.81128E-14
 -1       604 6.55042E-03 1.00336E-03-7.42027E-15
 -1       605 7.94647E-04 1.11418E-04-3.48303E-16
 -1       606 8.12849E-04 8.22522E-05-3.70350E-16
 -1       607 8.22733E-04 1.55062E-04-2.89733E-16
 -1       608 8.76939E-04 1.85058E-04-2.49854E-16
 -1       609 6.31827E-03 9.22656E-04-7.91438E-15
 -1       610 1.36808E-02 4.24159E-03-6.91248E-14
 -1       611 1.44766E-03-3.22645E-04-8.90808E-16
 -1       612 1.75667E-03-3.72138E-04-1.26787E-15
 -1       613 2.06857E-03-4.19704E-04-1.71306E-15
 -1       614 2.38102E-03-4.64358E-04-2.22553E-15
 -1       615 2.69086E-03-5.01217E-04-2.80726E-15
 -1       616 2.99508E-03-5.21150E-04-3.46036E-15
 -1       617 3.29269E-03-5.12507E-04-4.18750E-15
 -1       618 3.58593E-03-4.65502E-04-4.98482E-15
 -1       619 3.87946E-03-3.76942E-04-5.85398E-15
 -1       620 4.17770E-03-2.52225E-04-6.79359E-15
 -1       621 4.48230E-03-1.02794E-04-7.79652E-15
 -1       622 4.79177E-03 5.87617E-05-8.86141E-15
 -1       623 5.10296E-03 2.22527E-04-9.98593E-15
 -1       624 5.41277E-03 3.82576E-04-1.11679E-14
 -1       625 5.71921E-03 5.36395E-04-1.24050E-14
 -1       626 6.02150E-03 6.83686E-04-1.37002E-14
 -1       627 6.31975E-03 8.25286E-04-1.50589E-14
 -1       628 6.61453E-03 9.62448E-04-1.64818E-14
 -1       629 6.90658E-03 1.09645E-03-1.79695E-14
 -1       630 7.19660E-03 1.22840E-03-1.95221E-14
 -1       631 7.48517E-03 1.35919E-03-2.11347E-14
 -1       632 7.77275E-03 1.48947E-03-2.28098E-14
 -1       633 8.05967E-03 1.61970E-03-2.45485E-14
 -1       634 8.34616E-03 1.75017E-03-2.63534E-14
 -1       635 8.63236E-03 1.88103E-03-2.82254E-14
 -1       636 8.91839E-03 2.01238E-03-3.01529E-14
 -1       637 9.20430E-03 2.14422E-03-3.21348E-14
 -1       638 9.49014E-03 2.27653E-03-3.41689E-14
 -1       639 9.77593E-03 2.40927E-03-3.62498E-14
 -1       640 1.00617E-02 2.54238E-03-3.83805E-14
 -1       641 1.03474E-02 2.67580E-03-4.05610E-14
 -1       642 1.06332E-02 2.80949E-03-4.27917E-14
 -1       643 1.09189E-02 2.94337E-03-4.50705E-14
 -1       644 1.12046E-02 3.07742E-03-4.73871E-14
 -1       645 1.14903E-02 3.21160E-03-4.97420E-14
 -1       646 1.17760E-02 3.34587E-03-5.21423E-14
 -1       647 1.20618E-02 3.48020E-03-5.45812E-14
 -1       648 1.23475E-02 3.61459E-03-5.70560E-14
 -1       649 1.26332E-02 3.74901E-03-5.95665E-14
 -1       650 1.29189E-02 3.88345E-03-6.21131E-14
 -1       651 1.32046E-02 4.01791E-03-6.46986E-14
 -1       652 1.34427E-02 4.12975E-03-6.68985E-14
 -1       653 2.15554E-03 5.67774E-04-1.29703E-15
 -1       654 1.87288E-03 4.47326E-04-9.63415E-16
 -1       655 2.74226E-03 8.97183E-04-1.63665E-15
 -1       656 1.93432E-03 4.99609E-04-1.43306E-15
 -1       657 6.78618E-03 1.19300E-03-8.79084E-15
 -1       658 7.06353E-03 1.29372E-03-1.00198E-14
 -1       659 7.33224E-03 1.41021E-03-1.12458E-14
 -1       660 7.60636E-03 1.53913E-03-1.25306E-14
 -1       661 7.88505E-03 1.67538E-03-1.38751E-14
 -1       662 8.16702E-03 1.81553E-03-1.52775E-14
 -1       663 8.45110E-03 1.95741E-03-1.67405E-14
 -1       664 8.75072E-03 2.10680E-03-1.83473E-14
 -1       665 9.03672E-03 2.24871E-03-1.99469E-14
 -1       666 9.32299E-03 2.38989E-03-2.16120E-14
 -1       667 9.60933E-03 2.53018E-03-2.33532E-14
 -1       668 9.89563E-03 2.66957E-03-2.51672E-14
 -1       669 1.01818E-02 2.80810E-03-2.70492E-14
 -1       670 1.04822E-02 2.95273E-03-2.90891E-14
 -1       671 1.07682E-02 3.08980E-03-3.10943E-14
 -1       672 1.10542E-02 3.22631E-03-3.31503E-14
 -1       673 1.13400E-02 3.36235E-03-3.52555E-14
 -1       674 1.16258E-02 3.49801E-03-3.74117E-14
 -1       675 1.19116E-02 3.63337E-03-3.96182E-14
 -1       676 1.22116E-02 3.77525E-03-4.19906E-14
 -1       677 1.24974E-02 3.91017E-03-4.43067E-14
 -1       678 1.27831E-02 4.04496E-03-4.66664E-14
 -1       679 1.30688E-02 4.17965E-03-4.90595E-14
 -1       680 1.33545E-02 4.31425E-03-5.14819E-14
 -1       681 1.36402E-02 4.44881E-03-5.39362E-14
 -1       682 1.39402E-02 4.59005E-03-5.65441E-14
 -1       683 1.42259E-02 4.72454E-03-5.90482E-14
 -1       684 1.45116E-02 4.85901E-03-6.15776E-14
 -1       685 1.47973E-02 4.99348E-03-6.41395E-14
 -1       686 1.43487E-02 4.67667E-03-6.71694E-14
 -1       687 1.46132E-02 4.84531E-03-6.66341E-14
 -1       688 1.42164E-02 4.59235E-03-6.74299E-14
 -1       689 1.44809E-02 4.76099E-03-6.69090E-14
 -1       690 6.02569E-03 8.29412E-04-7.79691E-15
 -1       691 1.40865E-02 4.50946E-03-6.76858E-14
 -1       692 1.39543E-02 4.42514E-03-6.79528E-14
 -1       693 1.38222E-02 4.34083E-03-6.82194E-14
 -1       694 4.50523E-03 2.65685E-05-6.17802E-15
 -1       695 1.32225E-03 3.00978E-04-4.43886E-16
 -1       696 3.07166E-03-1.98462E-04-3.19552E-15
 -1       697 6.36464E-03 1.08745E-03-6.95475E-15
 -1       698 9.04478E-04-2.18318E-04-3.82605E-16
 -1       699 3.43379E-03-3.05270E-04-3.84518E-15
 -1       700 1.17378E-03-2.72376E-04-6.10243E-16
 -1       701 2.28128E-03 1.34336E-04-2.18043E-15
 -1       702 6.53533E-03 9.77031E-04-7.86597E-15
 -1       703 1.59735E-03 3.64395E-04-6.77623E-16
 -1       704 7.95860E-04 1.33412E-04-3.22083E-16
 -1       705 3.77933E-03-3.03320E-04-4.55030E-15
 -1       706 9.03459E-04-6.54973E-05-4.18082E-16
 -1       707 2.30136E-03 6.58869E-04-1.53608E-15
 -1       708 5.06818E-03 3.69035E-04-6.99517E-15
 -1       709 4.16016E-03-1.69218E-04-5.40543E-15
 -1       710 1.65381E-03 4.19232E-04-1.48425E-15
 -1       711 2.70990E-03-4.23583E-05-2.67961E-15
 -1       712 5.57102E-03 6.38655E-04-7.50530E-15
 -1       713 1.59239E-03 3.90453E-04-1.52734E-15
 -1       714 1.06528E-03 2.49009E-04-2.72745E-16
 -1       715 9.29913E-04-1.30364E-04-4.27125E-16
 -1       716 8.41851E-04 4.26879E-05-3.88998E-16
 -1       717 1.72654E-03 4.16814E-04-1.27848E-15
 -1       718 6.62826E-03 1.02081E-03-8.11312E-15
 -1       719 4.80011E-03 2.03748E-04-6.95853E-15
 -1       720 1.97684E-03 2.45575E-04-1.87965E-15
 -1       721 1.47444E-02 4.92891E-03-6.63530E-14
 -1       722 1.47708E-02 4.96120E-03-6.52468E-14
 -1       723 6.54309E-03 1.06770E-03-7.61460E-15
 -1       724 6.54715E-03 1.14865E-03-7.80314E-15
 -1       725 8.73630E-04-7.11252E-06-4.05014E-16
 -1       726 1.60658E-03 3.50975E-04-1.51489E-15
 -1       727 1.76187E-03 3.18542E-04-1.69305E-15
 -1       728 1.39040E-02 4.43446E-03-6.53059E-14
 -1       729 1.05405E-03 2.13403E-04-4.28602E-16
 -1       730 1.89589E-03-3.07099E-04-1.46829E-15
 -1       731 2.21903E-03-3.53222E-04-1.93888E-15
 -1       732 2.54440E-03-3.99868E-04-2.47647E-15
 -1       733 2.86671E-03-4.39504E-04-3.08379E-15
 -1       734 3.18130E-03-4.57980E-04-3.76407E-15
 -1       735 3.48775E-03-4.38457E-04-4.51785E-15
 -1       736 3.79092E-03-3.69742E-04-5.34424E-15
 -1       737 4.09793E-03-2.53342E-04-6.24352E-15
 -1       738 4.41288E-03-1.02857E-04-7.21079E-15
 -1       739 4.73451E-03 6.39430E-05-8.23979E-15
 -1       740 5.05806E-03 2.32846E-04-9.32987E-15
 -1       741 5.37861E-03 3.95989E-04-1.04788E-14
 -1       742 5.69312E-03 5.50777E-04-1.16841E-14
 -1       743 6.00063E-03 6.97609E-04-1.29450E-14
 -1       744 6.30165E-03 8.38077E-04-1.42656E-14
 -1       745 6.59736E-03 9.73961E-04-1.56499E-14
 -1       746 6.88914E-03 1.10682E-03-1.70979E-14
 -1       747 7.17817E-03 1.23786E-03-1.86115E-14
 -1       748 7.46545E-03 1.36799E-03-2.01888E-14
 -1       749 7.75166E-03 1.49780E-03-2.18260E-14
 -1       750 8.03730E-03 1.62771E-03-2.35270E-14
 -1       751 8.32267E-03 1.75795E-03-2.52945E-14
 -1       752 8.60796E-03 1.88867E-03-2.71278E-14
 -1       753 8.89327E-03 2.01990E-03-2.90241E-14
 -1       754 9.17864E-03 2.15165E-03-3.09742E-14
 -1       755 9.46409E-03 2.28390E-03-3.29783E-14
 -1       756 9.74962E-03 2.41657E-03-3.50349E-14
 -1       757 1.00352E-02 2.54963E-03-3.71381E-14
 -1       758 1.03209E-02 2.68301E-03-3.92914E-14
 -1       759 1.06065E-02 2.81665E-03-4.14987E-14
 -1       760 1.08922E-02 2.95050E-03-4.37551E-14
 -1       761 1.11780E-02 3.08452E-03-4.60510E-14
 -1       762 1.14637E-02 3.21867E-03-4.83844E-14
 -1       763 1.17494E-02 3.35292E-03-5.07609E-14
 -1       764 1.20352E-02 3.48725E-03-5.31732E-14
 -1       765 1.23209E-02 3.62162E-03-5.56216E-14
 -1       766 1.26066E-02 3.75603E-03-5.81059E-14
 -1       767 1.28924E-02 3.89047E-03-6.06275E-14
 -1       768 1.31781E-02 4.02492E-03-6.31842E-14
 -1       769 3.57833E-03-3.39463E-04-4.26550E-15
 -1       770 6.50850E-03 9.93118E-04-8.53421E-15
 -1       771 7.41433E-03 1.41963E-03-1.21203E-14
 -1       772 7.16638E-03 1.29932E-03-1.08633E-14
 -1       773 6.92205E-03 1.18676E-03-9.60348E-15
 -1       774 7.67371E-03 1.54872E-03-1.34385E-14
 -1       775 7.94152E-03 1.68348E-03-1.48166E-14
 -1       776 8.21533E-03 1.82155E-03-1.62571E-14
 -1       777 8.50725E-03 1.96830E-03-1.78375E-14
 -1       778 8.78809E-03 2.10862E-03-1.94094E-14
 -1       779 9.07073E-03 2.24883E-03-2.10476E-14
 -1       780 9.35455E-03 2.38858E-03-2.27519E-14
 -1       781 9.63910E-03 2.52769E-03-2.45321E-14
 -1       782 9.92414E-03 2.66611E-03-2.63789E-14
 -1       783 1.02237E-02 2.81073E-03-2.83875E-14
 -1       784 1.05092E-02 2.94784E-03-3.03600E-14
 -1       785 1.07949E-02 3.08441E-03-3.23916E-14
 -1       786 1.10805E-02 3.22052E-03-3.44720E-14
 -1       787 1.13663E-02 3.35625E-03-3.65989E-14
 -1       788 1.16520E-02 3.49167E-03-3.87772E-14
 -1       789 1.19520E-02 3.63360E-03-4.11215E-14
 -1       790 1.22378E-02 3.76857E-03-4.34124E-14
 -1       791 1.25235E-02 3.90340E-03-4.57491E-14
 -1       792 1.28092E-02 4.03811E-03-4.81254E-14
 -1       793 1.30950E-02 4.17274E-03-5.05312E-14
 -1       794 1.33807E-02 4.30731E-03-5.29688E-14
 -1       795 1.36807E-02 4.44856E-03-5.55621E-14
 -1       796 1.39665E-02 4.58306E-03-5.80634E-14
 -1       797 1.42522E-02 4.71754E-03-6.05859E-14
 -1       798 1.45115E-02 4.83937E-03-6.29046E-14
 -1       799 2.02917E-03 1.43862E-04-1.81468E-15
 -1       800 3.17746E-03-2.97573E-04-3.43773E-15
 -1       801 1.40362E-02 4.51878E-03-6.50527E-14
 -1       802 1.36408E-02 4.26654E-03-6.58193E-14
 -1       803 5.87991E-03 7.82856E-04-8.36924E-15
 -1       804 5.39739E-03 5.47273E-04-7.98586E-15
 -1       805 2.80842E-03-1.63117E-04-2.79269E-15
 -1       806 3.92854E-03-2.69342E-04-5.08790E-15
 -1       807 1.35418E-02 4.19814E-03-6.63557E-14
 -1       808 1.37724E-02 4.35050E-03-6.55596E-14
 -1       809 2.40653E-03-1.28389E-05-2.23301E-15
 -1       810 1.50037E-03 3.35651E-04-1.27781E-15
 -1       811 4.25753E-03-1.21531E-04-5.97015E-15
 -1       812 6.24308E-03 9.19046E-04-8.54827E-15
 -1       813 1.57878E-03-2.63354E-04-1.06352E-15
 -1       814 1.54240E-03 3.60375E-04-1.24311E-15
 -1       815 6.73440E-03 1.11650E-03-8.59387E-15
 -1       816 1.17570E-03 2.52301E-04-4.40633E-16
 -1       817 1.00681E-03 1.30591E-04-5.54153E-16
 -1       818 1.80346E-03 4.28109E-04-1.11867E-15
 -1       819 1.04595E-03 8.50734E-05-5.83734E-16
 -1       820 1.00142E-03 1.86794E-04-4.78265E-16
 -1       821 1.58219E-03 2.86564E-04-1.37309E-15
 -1       822 5.13496E-03 3.86849E-04-7.93623E-15
 -1       823 1.44313E-02 4.77066E-03-6.42623E-14
 -1       824 9.87677E-04 1.62650E-04-5.19628E-16
 -1       825 1.41685E-02 4.60310E-03-6.47974E-14
 -1       826 1.42999E-02 4.68688E-03-6.45368E-14
 -1       827 1.30072E-03-2.21684E-04-7.56841E-16
 -1       828 6.65706E-03 1.04205E-03-8.79414E-15
 -1       829 1.76033E-03 2.19026E-04-1.52778E-15
 -1       830 1.13419E-03-4.43835E-05-6.30294E-16
 -1       831 1.43653E-03 2.83203E-04-1.15052E-15
 -1       832 4.53099E-03 2.74433E-05-6.72905E-15
 -1       833 1.56544E-03 3.48461E-04-8.08354E-16
 -1       834 1.37225E-03 2.97634E-04-6.10158E-16
 -1       835 1.17023E-03-1.21614E-04-6.47333E-16
 -1       836 6.64782E-03 1.06340E-03-8.11642E-15
 -1       837 2.37433E-03-2.81725E-04-2.16068E-15
 -1       838 2.71503E-03-3.35552E-04-2.72251E-15
 -1       839 3.05169E-03-3.83063E-04-3.35435E-15
 -1       840 3.37681E-03-4.00255E-04-4.06099E-15
 -1       841 3.69346E-03-3.62830E-04-4.84265E-15
 -1       842 4.01055E-03-2.60970E-04-5.69977E-15
 -1       843 4.33686E-03-1.08401E-04-6.62936E-15
 -1       844 4.67293E-03 6.85636E-05-7.62452E-15
 -1       845 5.01181E-03 2.47175E-04-8.68006E-15
 -1       846 5.34575E-03 4.15672E-04-9.79495E-15
 -1       847 5.67007E-03 5.71611E-04-1.09686E-14
 -1       848 5.98364E-03 7.16912E-04-1.21960E-14
 -1       849 6.28760E-03 8.54734E-04-1.34815E-14
 -1       850 6.58407E-03 9.87864E-04-1.48264E-14
 -1       851 6.87518E-03 1.11837E-03-1.62384E-14
 -1       852 7.16280E-03 1.24763E-03-1.77131E-14
 -1       853 7.44833E-03 1.37651E-03-1.92530E-14
 -1       854 7.73275E-03 1.50553E-03-2.08531E-14
 -1       855 8.01673E-03 1.63498E-03-2.25176E-14
 -1       856 8.30065E-03 1.76498E-03-2.42481E-14
 -1       857 8.58473E-03 1.89559E-03-2.60423E-14
 -1       858 8.86908E-03 2.02680E-03-2.79027E-14
 -1       859 9.15370E-03 2.15857E-03-2.98219E-14
 -1       860 9.43859E-03 2.29085E-03-3.17983E-14
 -1       861 9.72371E-03 2.42356E-03-3.38282E-14
 -1       862 1.00090E-02 2.55665E-03-3.59071E-14
 -1       863 1.02945E-02 2.69004E-03-3.80337E-14
 -1       864 1.05800E-02 2.82370E-03-4.02155E-14
 -1       865 1.08657E-02 2.95756E-03-4.24439E-14
 -1       866 1.11514E-02 3.09158E-03-4.47190E-14
 -1       867 1.14371E-02 3.22572E-03-4.70301E-14
 -1       868 1.17228E-02 3.35997E-03-4.93857E-14
 -1       869 1.20086E-02 3.49428E-03-5.17796E-14
 -1       870 1.22943E-02 3.62865E-03-5.42066E-14
 -1       871 1.25801E-02 3.76306E-03-5.66646E-14
 -1       872 1.28658E-02 3.89749E-03-5.91564E-14
 -1       873 1.31516E-02 4.03194E-03-6.16875E-14
 -1       874 1.23560E-03 2.56662E-04-5.98076E-16
 -1       875 7.46648E-03 1.43364E-03-1.30005E-14
 -1       876 6.99636E-03 1.20242E-03-1.04485E-14
 -1       877 7.98405E-03 1.69285E-03-1.57685E-14
 -1       878 8.26783E-03 1.83516E-03-1.73214E-14
 -1       879 8.54293E-03 1.97255E-03-1.88652E-14
 -1       880 8.82133E-03 2.11076E-03-2.04771E-14
 -1       881 9.10204E-03 2.24916E-03-2.21509E-14
 -1       882 9.38437E-03 2.38740E-03-2.38947E-14
 -1       883 9.66780E-03 2.52527E-03-2.57139E-14
 -1       884 9.96623E-03 2.66954E-03-2.76888E-14
 -1       885 1.02510E-02 2.80644E-03-2.96320E-14
 -1       886 1.05361E-02 2.94290E-03-3.16327E-14
 -1       887 1.08214E-02 3.07896E-03-3.36889E-14
 -1       888 1.11069E-02 3.21467E-03-3.57928E-14
 -1       889 1.13925E-02 3.35009E-03-3.79463E-14
 -1       890 1.16925E-02 3.49203E-03-4.02641E-14
 -1       891 1.19782E-02 3.62701E-03-4.25227E-14
 -1       892 1.22640E-02 3.76185E-03-4.48357E-14
 -1       893 1.25497E-02 3.89658E-03-4.71921E-14
 -1       894 1.28355E-02 4.03122E-03-4.95847E-14
 -1       895 1.31212E-02 4.16580E-03-5.20079E-14
 -1       896 1.34213E-02 4.30706E-03-5.45851E-14
 -1       897 1.37070E-02 4.44157E-03-5.70659E-14
 -1       898 1.39928E-02 4.57605E-03-5.95753E-14
 -1       899 1.44714E-02 4.80502E-03-6.35845E-14
 -1       900 1.09157E-03 2.57108E-05-6.08857E-16
 -1       901 1.56733E-03 3.57362E-04-1.09418E-15
 -1       902 2.52138E-03-1.56196E-04-2.36332E-15
 -1       903 1.76767E-03 1.12219E-04-1.43055E-15
 -1       904 6.73846E-03 1.07932E-03-8.80605E-15
 -1       905 1.37226E-02 4.36017E-03-6.29498E-14
 -1       906 6.17819E-03 9.01582E-04-9.28492E-15
 -1       907 7.22517E-03 1.31422E-03-1.17097E-14
 -1       908 5.78199E-03 7.25030E-04-9.09381E-15
 -1       909 1.71029E-03-1.94369E-04-1.23874E-15
 -1       910 1.41560E-03 3.07896E-04-1.04138E-15
 -1       911 2.88683E-03-2.78917E-04-2.95982E-15
 -1       912 7.72061E-03 1.56065E-03-1.43529E-14
 -1       913 2.03738E-03-2.33664E-04-1.66732E-15
 -1       914 2.09589E-03-4.57849E-06-1.79547E-15
 -1       915 6.49985E-03 1.01213E-03-9.39156E-15
 -1       916 1.51074E-03 2.11274E-04-1.18863E-15
 -1       917 1.16882E-03 2.29282E-04-6.61011E-16
 -1       918 6.68340E-03 1.07242E-03-9.66556E-15
 -1       919 1.32832E-02 4.11589E-03-6.14392E-14
 -1       920 5.52811E-03 5.83717E-04-9.03817E-15
 -1       921 1.24041E-03 1.41073E-04-8.10722E-16
 -1       922 1.18996E-03 1.89492E-04-7.67801E-16
 -1       923 1.42321E-02 4.69054E-03-6.15765E-14
 -1       924 1.41920E-02 4.65618E-03-6.22434E-14
 -1       925 1.38549E-02 4.44449E-03-6.27004E-14
 -1       926 1.36429E-03-9.34283E-06-8.80237E-16
 -1       927 1.41333E-03-9.95337E-05-9.07494E-16
 -1       928 1.35029E-02 4.23803E-03-6.21946E-14
 -1       929 1.44091E-03 1.18406E-04-1.02959E-15
 -1       930 7.75204E-03 1.57108E-03-1.52776E-14
 -1       931 1.16380E-03 2.13095E-04-7.16336E-16
 -1       932 1.30420E-03 7.30550E-05-8.47968E-16
 -1       933 4.96990E-03 2.64456E-04-8.03502E-15
 -1       934 5.32019E-03 4.42546E-04-9.11889E-15
 -1       935 5.65546E-03 6.00275E-04-1.02600E-14
 -1       936 5.97473E-03 7.42754E-04-1.14546E-14
 -1       937 6.28062E-03 8.76066E-04-1.27052E-14
 -1       938 6.57655E-03 1.00464E-03-1.40146E-14
 -1       939 6.86582E-03 1.13133E-03-1.53869E-14
 -1       940 7.15101E-03 1.25775E-03-1.68257E-14
 -1       941 7.43399E-03 1.38471E-03-1.83287E-14
 -1       942 7.71601E-03 1.51254E-03-1.98926E-14
 -1       943 7.99785E-03 1.64133E-03-2.15209E-14
 -1       944 8.27995E-03 1.77106E-03-2.32112E-14
 -1       945 8.56254E-03 1.90162E-03-2.49684E-14
 -1       946 8.84569E-03 2.03290E-03-2.67900E-14
 -1       947 9.12938E-03 2.16481E-03-2.86762E-14
 -1       948 9.41357E-03 2.29724E-03-3.06240E-14
 -1       949 9.69817E-03 2.43010E-03-3.26263E-14
 -1       950 9.98310E-03 2.56332E-03-3.46792E-14
 -1       951 1.02683E-02 2.69682E-03-3.67820E-14
 -1       952 1.05537E-02 2.83056E-03-3.89357E-14
 -1       953 1.08392E-02 2.96448E-03-4.11390E-14
 -1       954 1.11248E-02 3.09854E-03-4.33882E-14
 -1       955 1.14105E-02 3.23272E-03-4.56792E-14
 -1       956 1.16963E-02 3.36698E-03-4.80089E-14
 -1       957 1.19820E-02 3.50130E-03-5.03824E-14
 -1       958 1.22678E-02 3.63568E-03-5.27970E-14
 -1       959 1.25536E-02 3.77008E-03-5.52396E-14
 -1       960 1.28393E-02 3.90451E-03-5.77065E-14
 -1       961 1.30613E-02 4.01020E-03-5.95590E-14
 -1       962 1.33470E-03 2.81329E-04-7.40205E-16
 -1       963 4.79631E-03 1.75588E-04-7.46659E-15
 -1       964 1.49885E-03-1.79661E-04-9.86231E-16
 -1       965 2.17432E-03-1.51353E-04-1.86300E-15
 -1       966 8.02903E-03 1.70756E-03-1.68026E-14
 -1       967 8.85092E-03 2.11236E-03-2.15478E-14
 -1       968 9.13086E-03 2.24909E-03-2.32593E-14
 -1       969 9.41252E-03 2.38591E-03-2.50435E-14
 -1       970 9.70958E-03 2.52943E-03-2.69903E-14
 -1       971 9.99339E-03 2.66585E-03-2.89058E-14
 -1       972 1.02778E-02 2.80198E-03-3.08782E-14
 -1       973 1.05627E-02 2.93782E-03-3.29077E-14
 -1       974 1.08479E-02 3.07338E-03-3.49887E-14
 -1       975 1.11333E-02 3.20871E-03-3.71186E-14
 -1       976 1.14331E-02 3.35059E-03-3.94084E-14
 -1       977 1.17188E-02 3.48554E-03-4.16418E-14
 -1       978 1.20045E-02 3.62036E-03-4.39247E-14
 -1       979 1.22902E-02 3.75508E-03-4.62585E-14
 -1       980 1.25760E-02 3.88972E-03-4.86316E-14
 -1       981 1.28618E-02 4.02430E-03-5.10424E-14
 -1       982 1.31618E-02 4.16557E-03-5.36071E-14
 -1       983 1.34476E-02 4.30008E-03-5.60721E-14
 -1       984 1.37334E-02 4.43457E-03-5.85634E-14
 -1       985 1.39863E-02 4.52828E-03-6.24468E-14
 -1       986 6.85007E-03 1.13570E-03-1.00550E-14
 -1       987 7.25208E-03 1.32832E-03-1.25623E-14
 -1       988 8.57334E-03 1.97608E-03-1.99003E-14
 -1       989 8.29898E-03 1.84085E-03-1.83171E-14
 -1       990 6.15558E-03 8.81792E-04-1.01681E-14
 -1       991 7.01677E-03 1.21726E-03-1.12664E-14
 -1       992 6.46774E-03 1.01013E-03-1.02998E-14
 -1       993 1.83581E-03-1.14248E-04-1.41275E-15
 -1       994 7.49655E-03 1.44617E-03-1.38869E-14
 -1       995 1.76864E-03-2.83401E-06-1.36334E-15
 -1       996 1.62106E-03-1.06088E-04-1.14659E-15
 -1       997 5.91749E-03 7.63320E-04-1.01140E-14
 -1       998 1.34353E-02 4.22362E-03-6.04794E-14
 -1       999 6.67353E-03 1.08537E-03-1.05936E-14
 -1      1000 1.35675E-02 4.30794E-03-6.02334E-14
 -1      1001 8.59982E-03 1.97820E-03-2.09393E-14
 -1      1002 1.32156E-02 4.10148E-03-5.97348E-14
 -1      1003 5.98030E-03 7.76048E-04-1.07177E-14
 -1      1004 6.28511E-03 9.02304E-04-1.19354E-14
 -1      1005 6.57758E-03 1.02423E-03-1.32084E-14
 -1      1006 6.86254E-03 1.14547E-03-1.45437E-14
 -1      1007 7.14350E-03 1.26795E-03-1.59455E-14
 -1      1008 7.42264E-03 1.39228E-03-1.74128E-14
 -1      1009 7.70136E-03 1.51854E-03-1.89408E-14
 -1      1010 7.98045E-03 1.64652E-03-2.05311E-14
 -1      1011 8.26033E-03 1.77595E-03-2.21852E-14
 -1      1012 8.54114E-03 1.90653E-03-2.39042E-14
 -1      1013 8.82290E-03 2.03802E-03-2.56888E-14
 -1      1014 9.10553E-03 2.17021E-03-2.75382E-14
 -1      1015 9.38892E-03 2.30294E-03-2.94552E-14
 -1      1016 9.67292E-03 2.43609E-03-3.14289E-14
 -1      1017 9.95742E-03 2.56956E-03-3.34543E-14
 -1      1018 1.02423E-02 2.70327E-03-3.55330E-14
 -1      1019 1.05275E-02 2.83717E-03-3.76594E-14
 -1      1020 1.08129E-02 2.97122E-03-3.98367E-14
 -1      1021 1.10984E-02 3.10538E-03-4.20606E-14
 -1      1022 1.13840E-02 3.23962E-03-4.43287E-14
 -1      1023 1.16697E-02 3.37393E-03-4.66377E-14
 -1      1024 1.19555E-02 3.50829E-03-4.89902E-14
 -1      1025 1.22413E-02 3.64268E-03-5.13855E-14
 -1      1026 1.25270E-02 3.77710E-03-5.38176E-14
 -1      1027 1.28128E-02 3.91154E-03-5.62704E-14
 -1      1028 9.44633E-03 2.38720E-03-2.62455E-14
 -1      1029 7.78006E-03 1.58128E-03-1.62450E-14
 -1      1030 9.16470E-03 2.25161E-03-2.44223E-14
 -1      1031 8.87769E-03 2.11290E-03-2.26239E-14
 -1      1032 9.72915E-03 2.52284E-03-2.81300E-14
 -1      1033 1.00128E-02 2.65840E-03-3.00777E-14
 -1      1034 1.02972E-02 2.79384E-03-3.20785E-14
 -1      1035 1.05820E-02 2.92912E-03-3.41344E-14
 -1      1036 1.08671E-02 3.06424E-03-3.62390E-14
 -1      1037 1.11668E-02 3.20597E-03-3.85040E-14
 -1      1038 1.14523E-02 3.34083E-03-4.07111E-14
 -1      1039 1.17380E-02 3.47559E-03-4.29690E-14
 -1      1040 1.20237E-02 3.61027E-03-4.52735E-14
 -1      1041 1.23094E-02 3.74489E-03-4.76234E-14
 -1      1042 1.25952E-02 3.87946E-03-5.00130E-14
 -1      1043 1.28953E-02 4.02072E-03-5.25625E-14
 -1      1044 1.31811E-02 4.15522E-03-5.50179E-14
 -1      1045 1.34668E-02 4.28971E-03-5.74930E-14
 -1      1046 6.85505E-03 1.15247E-03-1.09300E-14
 -1      1047 7.08857E-03 1.25625E-03-1.22052E-14
 -1      1048 6.49210E-03 1.01532E-03-1.12807E-14
 -1      1049 8.32475E-03 1.84465E-03-1.93227E-14
 -1      1050 8.05334E-03 1.71304E-03-1.77681E-14
 -1      1051 1.31479E-02 4.08707E-03-5.80528E-14
 -1      1052 1.30142E-02 4.00651E-03-5.79963E-14
 -1      1053 7.51958E-03 1.45726E-03-1.48167E-14
 -1      1054 6.70163E-03 1.10091E-03-1.15969E-14
 -1      1055 1.32802E-02 4.17138E-03-5.78116E-14
 -1      1056 1.36145E-02 4.35079E-03-5.93208E-14
 -1      1057 7.26681E-03 1.33947E-03-1.34531E-14
 -1      1058 7.79954E-03 1.58607E-03-1.72006E-14
 -1      1059 8.62370E-03 1.97861E-03-2.19905E-14
 -1      1060 6.86691E-03 1.15988E-03-1.37099E-14
 -1      1061 7.14090E-03 1.27747E-03-1.50739E-14
 -1      1062 7.41434E-03 1.39863E-03-1.65042E-14
 -1      1063 7.68857E-03 1.52307E-03-1.79951E-14
 -1      1064 7.96418E-03 1.65019E-03-1.95512E-14
 -1      1065 8.24138E-03 1.77938E-03-2.11666E-14
 -1      1066 8.52017E-03 1.91012E-03-2.28472E-14
 -1      1067 8.80040E-03 2.04197E-03-2.45953E-14
 -1      1068 9.08189E-03 2.17462E-03-2.64101E-14
 -1      1069 9.36443E-03 2.30783E-03-2.82917E-14
 -1      1070 9.64781E-03 2.44142E-03-3.02327E-14
 -1      1071 9.93186E-03 2.57527E-03-3.22333E-14
 -1      1072 1.02164E-02 2.70931E-03-3.42827E-14
 -1      1073 1.05014E-02 2.84347E-03-3.63823E-14
 -1      1074 1.07866E-02 2.97773E-03-3.85340E-14
 -1      1075 1.10720E-02 3.11205E-03-4.07339E-14
 -1      1076 1.13576E-02 3.24641E-03-4.29772E-14
 -1      1077 1.16433E-02 3.38080E-03-4.52678E-14
 -1      1078 1.19290E-02 3.51522E-03-4.75964E-14
 -1      1079 1.22148E-02 3.64965E-03-4.99747E-14
 -1      1080 1.25006E-02 3.78410E-03-5.23908E-14
 -1      1081 1.27863E-02 3.91855E-03-5.48327E-14
 -1      1082 9.75512E-03 2.51905E-03-2.93248E-14
 -1      1083 9.19011E-03 2.24969E-03-2.55504E-14
 -1      1084 6.91286E-03 1.18427E-03-1.18506E-14
 -1      1085 6.63164E-03 1.06527E-03-1.24038E-14
 -1      1086 1.00390E-02 2.65388E-03-3.13020E-14
 -1      1087 1.03234E-02 2.78872E-03-3.33337E-14
 -1      1088 1.06082E-02 2.92352E-03-3.54156E-14
 -1      1089 1.09077E-02 3.06500E-03-3.76569E-14
 -1      1090 1.11931E-02 3.19969E-03-3.98433E-14
 -1      1091 1.14787E-02 3.33433E-03-4.20755E-14
 -1      1092 1.17643E-02 3.46892E-03-4.43533E-14
 -1      1093 1.20501E-02 3.60348E-03-4.66764E-14
 -1      1094 1.23358E-02 3.73801E-03-4.90459E-14
 -1      1095 1.26359E-02 3.87925E-03-5.15803E-14
 -1      1096 1.29217E-02 4.01374E-03-5.40197E-14
 -1      1097 1.32681E-02 4.18227E-03-5.66586E-14
 -1      1098 8.34712E-03 1.84623E-03-2.03359E-14
 -1      1099 9.47209E-03 2.38428E-03-2.74068E-14
 -1      1100 7.08818E-03 1.26157E-03-1.30758E-14
 -1      1101 8.07332E-03 1.71562E-03-1.87460E-14
 -1      1102 8.90600E-03 2.11380E-03-2.37326E-14
 -1      1103 1.29671E-02 4.00281E-03-5.64394E-14
 -1      1104 7.53317E-03 1.46189E-03-1.57392E-14
 -1      1105 7.27140E-03 1.34277E-03-1.43381E-14
 -1      1106 1.29444E-02 4.00828E-03-5.52306E-14
 -1      1107 6.93451E-03 1.19613E-03-1.29350E-14
 -1      1108 0.00000E+00 0.00000E+00 0.00000E+00
 -1      1109 0.00000E+00 0.00000E+00 0.00000E+00
 -1      1110 0.00000E+00 0.00000E+00 0.00000E+00
 -1      1111 0.00000E+00 0.00000E+00 0.00000E+00
 -1      1112 0.00000E+00 0.00000E+00 0.00000E+00
 -1      1113 0.00000E+00 0.00000E+00 0.00000E+00
 -1      1114 0.00000E+00 0.00000E+00 0.00000E+00
 -1      1115 0.00000E+00 0.00000E+00 0.00000E+00
 -1      1116 0.00000E+00 0.00000E+00 0.00000E+00
 -1      1117 0.00000E+00 0.00000E+00 0.00000E+00
 -1      1118 0.00000E+00 0.00000E+00 0.00000E+00
 -1      1119 0.00000E+00 0.00000E+00 0.00000E+00
 -1      1120 0.00000E+00 0.00000E+00 0.00000E+00
 -1      1121 0.00000E+00 0.00000E+00 0.00000E+00
 -1      1122 0.00000E+00 0.00000E+00 0.00000E+00
 -1      1123 0.00000E+00 0.00000E+00 0.00000E+00
 -1      1124 0.00000E+00 0.00000E+00 0.00000E+00
 -1      1125 2.17426E-04-1.48408E-04 9.48677E-20
 -1      1126 5.72014E-04-3.33647E-04-4.88704E-17
 -1      1127 8.71527E-04-4.53232E-04-1.68282E-16
 -1      1128 1.16052E-03-5.38279E-04-3.68859E-16
 -1      1129 1.44483E-03-6.05273E-04-6.46063E-16
 -1      1130 1.72542E-03-6.61881E-04-9.97954E-16
 -1      1131 2.00118E-03-7.11079E-04-1.42472E-15
 -1      1132 2.26994E-03-7.52530E-04-1.92464E-15
 -1      1133 2.52955E-03-7.83112E-04-2.49955E-15
 -1      1134 2.77895E-03-7.97538E-04-3.14981E-15
 -1      1135 3.01904E-03-7.89564E-04-3.87415E-15
 -1      1136 3.25299E-03-7.53720E-04-4.67045E-15
 -1      1137 3.48579E-03-6.87105E-04-5.53714E-15
 -1      1138 3.72305E-03-5.90495E-04-6.47472E-15
 -1      1139 3.96955E-03-4.68285E-04-7.47457E-15
 -1      1140 4.22812E-03-3.27307E-04-8.53342E-15
 -1      1141 4.49926E-03-1.75107E-04-9.64951E-15
 -1      1142 4.78153E-03-1.83896E-05-1.08210E-14
 -1      1143 5.07230E-03 1.37903E-04-1.20501E-14
 -1      1144 5.36859E-03 2.90804E-04-1.33348E-14
 -1      1145 5.66769E-03 4.39037E-04-1.46830E-14
 -1      1146 5.96747E-03 5.82521E-04-1.61006E-14
 -1      1147 6.26648E-03 7.21864E-04-1.75830E-14
 -1      1148 6.56388E-03 8.57970E-04-1.91343E-14
 -1      1149 6.85931E-03 9.91778E-04-2.07511E-14
 -1      1150 7.15273E-03 1.12412E-03-2.24261E-14
 -1      1151 7.44430E-03 1.25566E-03-2.41529E-14
 -1      1152 7.73427E-03 1.38688E-03-2.59416E-14
 -1      1153 8.02295E-03 1.51813E-03-2.78030E-14
 -1      1154 8.31061E-03 1.64960E-03-2.97302E-14
 -1      1155 8.59750E-03 1.78141E-03-3.17067E-14
 -1      1156 8.88384E-03 1.91361E-03-3.37362E-14
 -1      1157 9.16980E-03 2.04619E-03-3.58142E-14
 -1      1158 9.45551E-03 2.17914E-03-3.79365E-14
 -1      1159 9.74107E-03 2.31240E-03-4.01027E-14
 -1      1160 1.00265E-02 2.44593E-03-4.23152E-14
 -1      1161 1.03120E-02 2.57969E-03-4.45648E-14
 -1      1162 1.05974E-02 2.71363E-03-4.68616E-14
 -1      1163 1.08829E-02 2.84771E-03-4.91972E-14
 -1      1164 1.11684E-02 2.98191E-03-5.15783E-14
 -1      1165 1.14539E-02 3.11619E-03-5.40261E-14
 -1      1166 1.17394E-02 3.25054E-03-5.65210E-14
 -1      1167 1.20250E-02 3.38493E-03-5.90565E-14
 -1      1168 1.23106E-02 3.51935E-03-6.16361E-14
 -1      1169 1.25963E-02 3.65378E-03-6.42529E-14
 -1      1170 1.28819E-02 3.78823E-03-6.69050E-14
 -1      1171 1.31676E-02 3.92268E-03-6.95896E-14
 -1      1172 1.34533E-02 4.05712E-03-7.22997E-14
 -1      1173 1.37390E-02 4.19156E-03-7.50325E-14
 -1      1174 1.40176E-02 4.32262E-03-7.77183E-14
 -1      1175 2.36759E-04 1.53858E-04 2.55736E-17
 -1      1176 5.92953E-04 3.12139E-04 5.43727E-17
 -1      1177 9.20971E-04 4.12370E-04 4.77320E-17
 -1      1178 1.25526E-03 4.85566E-04-2.94090E-18
 -1      1179 1.60681E-03 5.51362E-04-1.03013E-16
 -1      1180 1.98464E-03 6.27149E-04-2.54313E-16
 -1      1181 2.40542E-03 7.37419E-04-4.64675E-16
 -1      1182 2.85850E-03 9.08777E-04-7.32799E-16
 -1      1183 3.31453E-03 1.15948E-03-1.05352E-15
 -1      1184 3.74585E-03 1.48995E-03-1.43823E-15
 -1      1185 4.10502E-03 1.83714E-03-1.89603E-15
 -1      1186 4.37849E-03 2.07816E-03-2.44540E-15
 -1      1187 4.60321E-03 2.11684E-03-3.04626E-15
 -1      1188 4.83916E-03 2.00773E-03-3.66513E-15
 -1      1189 5.16871E-03 1.81565E-03-4.42550E-15
 -1      1190 5.60615E-03 1.62246E-03-5.35528E-15
 -1      1191 6.07306E-03 1.51418E-03-6.35580E-15
 -1      1192 6.52928E-03 1.49597E-03-7.42131E-15
 -1      1193 6.95608E-03 1.54543E-03-8.54746E-15
 -1      1194 7.35969E-03 1.64074E-03-9.76381E-15
 -1      1195 7.73343E-03 1.76196E-03-1.10410E-14
 -1      1196 8.07544E-03 1.89355E-03-1.23543E-14
 -1      1197 8.40083E-03 2.03168E-03-1.37249E-14
 -1      1198 8.71417E-03 2.17272E-03-1.51437E-14
 -1      1199 9.01892E-03 2.31469E-03-1.66157E-14
 -1      1200 9.32500E-03 2.46011E-03-1.81912E-14
 -1      1201 9.62663E-03 2.60488E-03-1.98513E-14
 -1      1202 9.91792E-03 2.74530E-03-2.15555E-14
 -1      1203 1.02072E-02 2.88484E-03-2.33330E-14
 -1      1204 1.04950E-02 3.02354E-03-2.51888E-14
 -1      1205 1.07820E-02 3.16149E-03-2.71227E-14
 -1      1206 1.10754E-02 3.30218E-03-2.91631E-14
 -1      1207 1.13684E-02 3.44228E-03-3.12644E-14
 -1      1208 1.16540E-02 3.57847E-03-3.33712E-14
 -1      1209 1.19395E-02 3.71427E-03-3.55340E-14
 -1      1210 1.22249E-02 3.84975E-03-3.77446E-14
 -1      1211 1.25103E-02 3.98497E-03-3.99914E-14
 -1      1212 1.28029E-02 4.12337E-03-4.23468E-14
 -1      1213 1.30954E-02 4.26160E-03-4.47600E-14
 -1      1214 1.33809E-02 4.39634E-03-4.71643E-14
 -1      1215 1.36664E-02 4.53099E-03-4.95798E-14
 -1      1216 1.39519E-02 4.66558E-03-5.19864E-14
 -1      1217 1.42375E-02 4.80012E-03-5.44131E-14
 -1      1218 1.45303E-02 4.93800E-03-5.69347E-14
 -1      1219 1.48231E-02 5.07585E-03-5.95182E-14
 -1      1220 1.51087E-02 5.21034E-03-6.20864E-14
 -1      1221 1.53944E-02 5.34482E-03-6.46822E-14
 -1      1222 1.56801E-02 5.47930E-03-6.73195E-14
 -1      1223 1.59658E-02 5.61380E-03-6.99686E-14
 -1      1224 1.62515E-02 5.74830E-03-7.26399E-14
 -1      1225 1.63282E-02 5.77341E-03-7.41457E-14
 -1      1226 1.61960E-02 5.68912E-03-7.44608E-14
 -1      1227 1.60637E-02 5.60483E-03-7.47711E-14
 -1      1228 1.59314E-02 5.52054E-03-7.50546E-14
 -1      1229 1.57991E-02 5.43622E-03-7.53275E-14
 -1      1230 1.56680E-02 5.35261E-03-7.55823E-14
 -1      1231 1.55368E-02 5.26899E-03-7.58543E-14
 -1      1232 1.54046E-02 5.18465E-03-7.61240E-14
 -1      1233 1.52723E-02 5.10030E-03-7.63998E-14
 -1      1234 1.51401E-02 5.01595E-03-7.66820E-14
 -1      1235 1.50079E-02 4.93160E-03-7.69692E-14
 -1      1236 1.48769E-02 4.84798E-03-7.72879E-14
 -1      1237 1.47458E-02 4.76437E-03-7.76324E-14
 -1      1238 1.46137E-02 4.68006E-03-7.79718E-14
 -1      1239 1.44815E-02 4.59576E-03-7.82982E-14
 -1      1240 1.43493E-02 4.51147E-03-7.86069E-14
 -1      1241 1.42183E-02 4.42790E-03-7.88966E-14
 -1      1242 6.48348E-03 9.06198E-04-5.63505E-15
 -1      1243 6.42165E-03 1.07238E-03-5.42167E-15
 -1      1244 6.24054E-03 1.24437E-03-5.13954E-15
 -1      1245 5.97005E-03 1.41494E-03-4.82827E-15
 -1      1246 5.61611E-03 1.58485E-03-4.47515E-15
 -1      1247 5.17307E-03 1.73799E-03-4.07375E-15
 -1      1248 4.68902E-03 1.83169E-03-3.68482E-15
 -1      1249 4.18009E-03 1.83384E-03-3.32530E-15
 -1      1250 3.64384E-03 1.73466E-03-2.98746E-15
 -1      1251 3.13541E-03 1.55703E-03-2.70809E-15
 -1      1252 2.66654E-03 1.33418E-03-2.49037E-15
 -1      1253 2.26849E-03 1.10739E-03-2.34459E-15
 -1      1254 1.97140E-03 9.04055E-04-2.27078E-15
 -1      1255 1.77041E-03 7.19375E-04-2.25524E-15
 -1      1256 1.68049E-03 5.53633E-04-2.29648E-15
 -1      1257 1.71100E-03 3.99647E-04-2.39738E-15
 -1      1258 1.85803E-03 2.53355E-04-2.55705E-15
 -1      1259 2.09935E-03 1.17441E-04-2.76854E-15
 -1      1260 2.41441E-03-7.58243E-06-3.03014E-15
 -1      1261 2.79594E-03-1.15547E-04-3.34409E-15
 -1      1262 3.22681E-03-1.90040E-04-3.70057E-15
 -1      1263 3.67338E-03-2.14320E-04-4.07091E-15
 -1      1264 4.13959E-03-1.82712E-04-4.45355E-15
 -1      1265 4.63040E-03-8.87743E-05-4.83782E-15
 -1      1266 5.10752E-03 5.23122E-05-5.18387E-15
 -1      1267 5.53549E-03 2.16787E-04-5.45648E-15
 -1      1268 5.91176E-03 3.91559E-04-5.64739E-15
 -1      1269 6.21828E-03 5.70705E-04-5.74939E-15
 -1      1270 6.41661E-03 7.44647E-04-5.74578E-15
 -1      1271 1.72957E-04-1.08850E-04-1.00424E-17
 -1      1272 1.17110E-04-5.28206E-05-1.93666E-17
 -1      1273 1.22529E-04-6.44684E-05-1.67238E-17
 -1      1274 1.12028E-04-3.73516E-05-2.34594E-17
 -1      1275 1.14378E-04-4.43731E-05-2.24023E-17
 -1      1276 2.35548E-04-9.87871E-05-5.33970E-17
 -1      1277 1.09246E-04-2.56061E-05-2.48824E-17
 -1      1278 1.10724E-04-3.12003E-05-2.45165E-17
 -1      1279 2.26279E-04-7.00671E-05-5.97937E-17
 -1      1280 1.06960E-04-1.56213E-05-2.53161E-17
 -1      1281 1.08192E-04-2.04414E-05-2.53568E-17
 -1      1282 2.20494E-04-4.74159E-05-6.22332E-17
 -1      1283 1.04743E-04-7.08330E-06-2.49909E-17
 -1      1284 1.05932E-04-1.11873E-05-2.51670E-17
 -1      1285 2.15605E-04-2.82189E-05-6.24500E-17
 -1      1286 1.02407E-04 1.95213E-07-2.41777E-17
 -1      1287 1.03629E-04-3.26668E-06-2.44217E-17
 -1      1288 2.10677E-04-1.16527E-05-6.11626E-17
 -1      1289 1.00135E-04 5.79382E-06-2.31613E-17
 -1      1290 1.01279E-04 3.16032E-06-2.35136E-17
 -1      1291 2.05523E-04 2.18192E-06-5.89399E-17
 -1      1292 9.82719E-05 9.53649E-06-2.18738E-17
 -1      1293 9.91442E-05 7.77651E-06-2.22126E-17
 -1      1294 2.00576E-04 1.27025E-05-5.62836E-17
 -1      1295 9.73017E-05 1.15674E-05-2.04101E-17
 -1      1296 9.76476E-05 1.05534E-05-2.07489E-17
 -1      1297 1.96684E-04 1.97440E-05-5.30446E-17
 -1      1298 9.77209E-05 1.25163E-05-1.87025E-17
 -1      1299 9.72965E-05 1.18831E-05-1.91633E-17
 -1      1300 1.94971E-04 2.38260E-05-4.93990E-17
 -1      1301 9.98335E-05 1.35081E-05-1.62359E-17
 -1      1302 9.85128E-05 1.26774E-05-1.69542E-17
 -1      1303 1.96503E-04 2.63919E-05-4.47369E-17
 -1      1304 1.03811E-04 1.61145E-05-1.31188E-17
 -1      1305 1.01520E-04 1.42938E-05-1.41759E-17
 -1      1306 2.01963E-04 2.98335E-05-3.86383E-17
 -1      1307 1.09470E-04 2.21366E-05-9.05309E-18
 -1      1308 1.06305E-04 1.84628E-05-1.06252E-17
 -1      1309 2.11561E-04 3.72707E-05-3.10624E-17
 -1      1310 1.16695E-04 3.37165E-05-3.11708E-18
 -1      1311 1.12608E-04 2.70920E-05-5.59719E-18
 -1      1312 2.24869E-04 5.22678E-05-2.07896E-17
 -1      1313 1.26836E-04 5.49037E-05 5.19062E-18
 -1      1314 1.20773E-04 4.28492E-05 1.35525E-18
 -1      1315 2.42120E-04 7.94120E-05-6.85758E-18
 -1      1316 1.68198E-04 1.01734E-04 1.67238E-17
 -1      1317 1.47455E-04 7.47068E-05 1.02457E-17
 -1      1318 2.79426E-04 1.26723E-04 9.03954E-18
 -1      1319 3.60577E-04 2.00384E-04 2.92870E-17
 -1      1320 4.38663E-04-2.56877E-04-4.96700E-17
 -1      1321 5.99554E-04-3.29843E-04-9.10594E-17
 -1      1322 7.54977E-04-3.89332E-04-1.53970E-16
 -1      1323 9.06688E-04-4.38728E-04-2.36329E-16
 -1      1324 6.40343E-04-3.21030E-04-1.38154E-16
 -1      1325 1.05543E-03-4.81451E-04-3.37051E-16
 -1      1326 1.20196E-03-5.18696E-04-4.57249E-16
 -1      1327 9.49471E-04-4.21947E-04-3.04973E-16
 -1      1328 1.34688E-03-5.52463E-04-5.95674E-16
 -1      1329 1.49045E-03-5.83142E-04-7.52965E-16
 -1      1330 1.24792E-03-4.97976E-04-5.45801E-16
 -1      1331 1.63281E-03-6.11758E-04-9.28673E-16
 -1      1332 1.77393E-03-6.38391E-04-1.12289E-15
 -1      1333 1.53968E-03-5.60315E-04-8.59962E-16
 -1      1334 1.91375E-03-6.63407E-04-1.33528E-15
 -1      1335 2.05208E-03-6.86636E-04-1.56576E-15
 -1      1336 1.82629E-03-6.14343E-04-1.24686E-15
 -1      1337 2.18875E-03-7.07934E-04-1.81482E-15
 -1      1338 2.32359E-03-7.26860E-04-2.08245E-15
 -1      1339 2.10769E-03-6.61563E-04-1.70647E-15
 -1      1340 2.45645E-03-7.42852E-04-2.36833E-15
 -1      1341 2.58726E-03-7.55242E-04-2.67288E-15
 -1      1342 2.38309E-03-7.00254E-04-2.23869E-15
 -1      1343 2.71601E-03-7.63179E-04-2.99630E-15
 -1      1344 2.84283E-03-7.65900E-04-3.33768E-15
 -1      1345 2.65179E-03-7.25900E-04-2.84442E-15
 -1      1346 2.96791E-03-7.62499E-04-3.69702E-15
 -1      1347 3.09159E-03-7.52317E-04-4.07534E-15
 -1      1348 2.91391E-03-7.32107E-04-3.52317E-15
 -1      1349 3.21429E-03-7.34682E-04-4.47140E-15
 -1      1350 3.33650E-03-7.09249E-04-4.88485E-15
 -1      1351 3.17088E-03-7.12236E-04-4.27444E-15
 -1      1352 3.45878E-03-6.75828E-04-5.31630E-15
 -1      1353 3.58167E-03-6.34523E-04-5.76432E-15
 -1      1354 3.42542E-03-6.61456E-04-5.09681E-15
 -1      1355 3.70572E-03-5.85714E-04-6.23021E-15
 -1      1356 3.83139E-03-5.29943E-04-6.71339E-15
 -1      1357 3.68105E-03-5.78477E-04-5.98959E-15
 -1      1358 3.95908E-03-4.68057E-04-7.21125E-15
 -1      1359 4.08907E-03-4.00895E-04-7.72299E-15
 -1      1360 3.94119E-03-4.66185E-04-6.94922E-15
 -1      1361 4.22152E-03-3.29517E-04-8.25098E-15
 -1      1362 4.35650E-03-2.54856E-04-8.79349E-15
 -1      1363 4.20831E-03-3.30883E-04-7.97103E-15
 -1      1364 4.49395E-03-1.77920E-04-9.34920E-15
 -1      1365 4.63373E-03-9.95503E-05-9.92025E-15
 -1      1366 4.48344E-03-1.80541E-04-9.05177E-15
 -1      1367 4.77563E-03-2.05173E-05-1.05047E-14
 -1      1368 4.91940E-03 5.85381E-05-1.11032E-14
 -1      1369 4.76622E-03-2.28931E-05-1.01900E-14
 -1      1370 5.06475E-03 1.37152E-04-1.17170E-14
 -1      1371 5.21138E-03 2.14911E-04-1.23451E-14
 -1      1372 5.05528E-03 1.35923E-04-1.13858E-14
 -1      1373 5.35900E-03 2.91627E-04-1.29869E-14
 -1      1374 5.50734E-03 3.67090E-04-1.36435E-14
 -1      1375 5.34879E-03 2.91911E-04-1.26388E-14
 -1      1376 5.65615E-03 4.41309E-04-1.43163E-14
 -1      1377 5.80520E-03 5.14220E-04-1.50074E-14
 -1      1378 5.64489E-03 4.43086E-04-1.39520E-14
 -1      1379 5.95432E-03 5.85948E-04-1.57139E-14
 -1      1380 6.10335E-03 6.56519E-04-1.64362E-14
 -1      1381 5.94200E-03 5.88980E-04-1.53282E-14
 -1      1382 6.25216E-03 7.26104E-04-1.71765E-14
 -1      1383 6.40068E-03 7.94776E-04-1.79331E-14
 -1      1384 6.23893E-03 7.30065E-04-1.67712E-14
 -1      1385 6.54883E-03 8.62706E-04-1.87066E-14
 -1      1386 6.69658E-03 9.29983E-04-1.94957E-14
 -1      1387 6.53490E-03 8.67271E-04-1.82808E-14
 -1      1388 6.84389E-03 9.96752E-04-2.03012E-14
 -1      1389 6.99077E-03 1.06310E-03-2.11228E-14
 -1      1390 6.82951E-03 1.00165E-03-1.98563E-14
 -1      1391 7.13722E-03 1.12914E-03-2.19579E-14
 -1      1392 7.28324E-03 1.19495E-03-2.28066E-14
 -1      1393 7.12258E-03 1.13415E-03-2.14919E-14
 -1      1394 7.42888E-03 1.26061E-03-2.36700E-14
 -1      1395 7.57413E-03 1.32617E-03-2.45469E-14
 -1      1396 7.41415E-03 1.26559E-03-2.31873E-14
 -1      1397 7.71905E-03 1.39169E-03-2.54410E-14
 -1      1398 7.86366E-03 1.45721E-03-2.63524E-14
 -1      1399 7.70437E-03 1.39655E-03-2.49422E-14
 -1      1400 8.00799E-03 1.52276E-03-2.72801E-14
 -1      1401 8.15207E-03 1.58836E-03-2.82258E-14
 -1      1402 7.99342E-03 1.52745E-03-2.67608E-14
 -1      1403 8.29593E-03 1.65404E-03-2.91862E-14
 -1      1404 8.43959E-03 1.71981E-03-3.01597E-14
 -1      1405 8.28151E-03 1.65855E-03-2.86453E-14
 -1      1406 8.58309E-03 1.78567E-03-3.11483E-14
 -1      1407 8.72644E-03 1.85164E-03-3.21492E-14
 -1      1408 8.56885E-03 1.79000E-03-3.05908E-14
 -1      1409 8.86968E-03 1.91771E-03-3.31635E-14
 -1      1410 9.01281E-03 1.98388E-03-3.41887E-14
 -1      1411 8.85561E-03 1.92187E-03-3.25910E-14
 -1      1412 9.15585E-03 2.05016E-03-3.52251E-14
 -1      1413 9.29882E-03 2.11652E-03-3.62737E-14
 -1      1414 9.14194E-03 2.05417E-03-3.46390E-14
 -1      1415 9.44174E-03 2.18298E-03-3.73338E-14
 -1      1416 9.58461E-03 2.24953E-03-3.84044E-14
 -1      1417 9.42798E-03 2.18687E-03-3.67324E-14
 -1      1418 9.72744E-03 2.31615E-03-3.94866E-14
 -1      1419 9.87025E-03 2.38285E-03-4.05826E-14
 -1      1420 9.71381E-03 2.31994E-03-3.88729E-14
 -1      1421 1.00130E-02 2.44961E-03-4.16854E-14
 -1      1422 1.01558E-02 2.51643E-03-4.27993E-14
 -1      1423 9.99950E-03 2.45332E-03-4.10570E-14
 -1      1424 1.02986E-02 2.58331E-03-4.39268E-14
 -1      1425 1.04413E-02 2.65024E-03-4.50636E-14
 -1      1426 1.02851E-02 2.58696E-03-4.32872E-14
 -1      1427 1.05841E-02 2.71721E-03-4.62112E-14
 -1      1428 1.07268E-02 2.78422E-03-4.73720E-14
 -1      1429 1.05707E-02 2.72081E-03-4.55626E-14
 -1      1430 1.08696E-02 2.85126E-03-4.85403E-14
 -1      1431 1.10123E-02 2.91834E-03-4.97161E-14
 -1      1432 1.08562E-02 2.85483E-03-4.78803E-14
 -1      1433 1.11551E-02 2.98544E-03-5.09096E-14
 -1      1434 1.12979E-02 3.05256E-03-5.21176E-14
 -1      1435 1.11418E-02 2.98898E-03-5.02408E-14
 -1      1436 1.14406E-02 3.11971E-03-5.33357E-14
 -1      1437 1.15834E-02 3.18687E-03-5.45698E-14
 -1      1438 1.14274E-02 3.12323E-03-5.26492E-14
 -1      1439 1.17262E-02 3.25404E-03-5.58159E-14
 -1      1440 1.18690E-02 3.32123E-03-5.70698E-14
 -1      1441 1.17130E-02 3.25755E-03-5.51102E-14
 -1      1442 1.20118E-02 3.38843E-03-5.83341E-14
 -1      1443 1.21546E-02 3.45563E-03-5.96087E-14
 -1      1444 1.19986E-02 3.39193E-03-5.76156E-14
 -1      1445 1.22974E-02 3.52284E-03-6.08952E-14
 -1      1446 1.24402E-02 3.59006E-03-6.21909E-14
 -1      1447 1.22842E-02 3.52634E-03-6.01594E-14
 -1      1448 1.25830E-02 3.65728E-03-6.34956E-14
 -1      1449 1.27259E-02 3.72450E-03-6.48099E-14
 -1      1450 1.25698E-02 3.66077E-03-6.27425E-14
 -1      1451 1.28687E-02 3.79173E-03-6.61330E-14
 -1      1452 1.30116E-02 3.85895E-03-6.74635E-14
 -1      1453 1.28555E-02 3.79522E-03-6.53645E-14
 -1      1454 1.31544E-02 3.92618E-03-6.88036E-14
 -1      1455 1.32972E-02 3.99340E-03-7.01517E-14
 -1      1456 1.31412E-02 3.92967E-03-6.80232E-14
 -1      1457 1.34401E-02 4.06062E-03-7.15038E-14
 -1      1458 1.35829E-02 4.12784E-03-7.28630E-14
 -1      1459 1.34269E-02 4.06412E-03-7.07113E-14
 -1      1460 1.37258E-02 4.19506E-03-7.42277E-14
 -1      1461 1.38686E-02 4.26228E-03-7.55979E-14
 -1      1462 1.37126E-02 4.19857E-03-7.34250E-14
 -1      1463 1.40826E-02 4.36405E-03-7.75805E-14
 -1      1464 1.40693E-02 4.36756E-03-7.67679E-14
 -1      1465 7.05769E-04 3.27569E-04 3.50062E-17
 -1      1466 5.35522E-04 2.70581E-04 3.69577E-17
 -1      1467 4.86952E-04 2.29818E-04 2.17654E-17
 -1      1468 1.04192E-03 4.11434E-04-4.06576E-20
 -1      1469 8.73931E-04 3.72619E-04 2.28496E-17
 -1      1470 8.26316E-04 3.32505E-04 9.62229E-19
 -1      1471 1.38374E-03 4.77460E-04-8.10848E-17
 -1      1472 1.21131E-03 4.45418E-04-3.45047E-17
 -1      1473 1.16346E-03 4.05487E-04-6.30870E-17
 -1      1474 1.74144E-03 5.42971E-04-2.11758E-16
 -1      1475 1.55998E-03 5.09133E-04-1.40106E-16
 -1      1476 1.50727E-03 4.67778E-04-1.74326E-16
 -1      1477 2.12205E-03 6.26498E-04-3.95056E-16
 -1      1478 1.92846E-03 5.81137E-04-2.96584E-16
 -1      1479 1.86541E-03 5.36680E-04-3.36265E-16
 -1      1480 2.54927E-03 7.60076E-04-6.43908E-16
 -1      1481 2.33213E-03 6.85751E-04-5.11879E-16
 -1      1482 2.25277E-03 6.36265E-04-5.56792E-16
 -1      1483 2.97715E-03 9.60606E-04-9.39963E-16
 -1      1484 2.76150E-03 8.50361E-04-7.84718E-16
 -1      1485 2.66236E-03 7.94278E-04-8.34334E-16
 -1      1486 3.40794E-03 1.25180E-03-1.29561E-15
 -1      1487 3.19414E-03 1.09598E-03-1.10961E-15
 -1      1488 3.07877E-03 1.03372E-03-1.16327E-15
 -1      1489 3.81174E-03 1.61007E-03-1.72022E-15
 -1      1490 3.61555E-03 1.42785E-03-1.49888E-15
 -1      1491 3.49764E-03 1.36420E-03-1.55606E-15
 -1      1492 4.16235E-03 1.93773E-03-2.22645E-15
 -1      1493 3.99396E-03 1.78647E-03-1.96270E-15
 -1      1494 3.89593E-03 1.73130E-03-2.02354E-15
 -1      1495 4.46909E-03 2.09655E-03-2.83124E-15
 -1      1496 4.31780E-03 2.04378E-03-2.51513E-15
 -1      1497 4.25922E-03 2.00429E-03-2.58016E-15
 -1      1498 4.73385E-03 2.04928E-03-3.42869E-15
 -1      1499 4.59820E-03 2.09106E-03-3.12021E-15
 -1      1500 4.58033E-03 2.06144E-03-3.18624E-15
 -1      1501 5.01555E-03 1.89587E-03-4.06493E-15
 -1      1502 4.86998E-03 1.98045E-03-3.73833E-15
 -1      1503 4.88107E-03 1.95056E-03-3.80560E-15
 -1      1504 5.41892E-03 1.67110E-03-4.94804E-15
 -1      1505 5.21146E-03 1.78096E-03-4.49486E-15
 -1      1506 5.23836E-03 1.74523E-03-4.56078E-15
 -1      1507 5.85583E-03 1.50980E-03-5.91458E-15
 -1      1508 5.63546E-03 1.57945E-03-5.42215E-15
 -1      1509 5.66033E-03 1.53732E-03-5.48575E-15
 -1      1510 6.29497E-03 1.44626E-03-6.94755E-15
 -1      1511 6.07677E-03 1.46668E-03-6.42281E-15
 -1      1512 6.08559E-03 1.42117E-03-6.48747E-15
 -1      1513 6.71614E-03 1.46557E-03-8.04578E-15
 -1      1514 6.50858E-03 1.44744E-03-7.48966E-15
 -1      1515 6.49728E-03 1.40111E-03-7.55528E-15
 -1      1516 7.11165E-03 1.54091E-03-9.20072E-15
 -1      1517 6.91726E-03 1.49785E-03-8.61572E-15
 -1      1518 6.88825E-03 1.45206E-03-8.68178E-15
 -1      1519 7.49958E-03 1.65566E-03-1.04796E-14
 -1      1520 7.30891E-03 1.59491E-03-9.83153E-15
 -1      1521 7.26652E-03 1.55030E-03-9.89765E-15
 -1      1522 7.84689E-03 1.78344E-03-1.17567E-14
 -1      1523 7.67563E-03 1.71795E-03-1.11103E-14
 -1      1524 7.62432E-03 1.67469E-03-1.11754E-14
 -1      1525 8.17723E-03 1.92029E-03-1.30971E-14
 -1      1526 8.01388E-03 1.85108E-03-1.24198E-14
 -1      1527 7.95715E-03 1.80906E-03-1.24836E-14
 -1      1528 8.49478E-03 2.06131E-03-1.44884E-14
 -1      1529 8.33735E-03 1.99047E-03-1.37871E-14
 -1      1530 8.27736E-03 1.94951E-03-1.38470E-14
 -1      1531 8.80294E-03 2.20384E-03-1.59372E-14
 -1      1532 8.64984E-03 2.13249E-03-1.52053E-14
 -1      1533 8.58799E-03 2.09239E-03-1.52659E-14
 -1      1534 9.10430E-03 2.34649E-03-1.74409E-14
 -1      1535 8.95432E-03 2.27521E-03-1.66797E-14
 -1      1536 8.89147E-03 2.23578E-03-1.67409E-14
 -1      1537 9.41551E-03 2.49568E-03-1.90964E-14
 -1      1538 9.26044E-03 2.42120E-03-1.82583E-14
 -1      1539 9.19712E-03 2.38229E-03-1.83220E-14
 -1      1540 9.70838E-03 2.63687E-03-2.07598E-14
 -1      1541 9.56229E-03 2.56639E-03-1.99181E-14
 -1      1542 9.49879E-03 2.52789E-03-1.99806E-14
 -1      1543 9.99884E-03 2.77710E-03-2.24978E-14
 -1      1544 9.85386E-03 2.70711E-03-2.16197E-14
 -1      1545 9.79037E-03 2.66890E-03-2.16788E-14
 -1      1546 1.02876E-02 2.91641E-03-2.43090E-14
 -1      1547 1.01434E-02 2.84687E-03-2.33938E-14
 -1      1548 1.00800E-02 2.80888E-03-2.34513E-14
 -1      1549 1.05752E-02 3.05486E-03-2.62016E-14
 -1      1550 1.04315E-02 2.98574E-03-2.52444E-14
 -1      1551 1.03683E-02 2.94791E-03-2.52991E-14
 -1      1552 1.08620E-02 3.19256E-03-2.81580E-14
 -1      1553 1.07187E-02 3.12380E-03-2.71721E-14
 -1      1554 1.06556E-02 3.08610E-03-2.72194E-14
 -1      1555 1.11626E-02 3.33645E-03-3.02752E-14
 -1      1556 1.10124E-02 3.26459E-03-2.92087E-14
 -1      1557 1.09494E-02 3.22697E-03-2.92531E-14
 -1      1558 1.14485E-02 3.47292E-03-3.23512E-14
 -1      1559 1.13056E-02 3.40474E-03-3.13071E-14
 -1      1560 1.12428E-02 3.36719E-03-3.13453E-14
 -1      1561 1.17342E-02 3.60894E-03-3.44784E-14
 -1      1562 1.15913E-02 3.54098E-03-3.34075E-14
 -1      1563 1.15287E-02 3.50347E-03-3.34423E-14
 -1      1564 1.20197E-02 3.74459E-03-3.66606E-14
 -1      1565 1.18769E-02 3.67681E-03-3.55633E-14
 -1      1566 1.18144E-02 3.63933E-03-3.55916E-14
 -1      1567 1.23052E-02 3.87995E-03-3.88831E-14
 -1      1568 1.21625E-02 3.81231E-03-3.77667E-14
 -1      1569 1.21000E-02 3.77485E-03-3.77881E-14
 -1      1570 1.25907E-02 4.01508E-03-4.11510E-14
 -1      1571 1.24479E-02 3.94754E-03-4.00106E-14
 -1      1572 1.23855E-02 3.91010E-03-4.00284E-14
 -1      1573 1.28904E-02 4.15676E-03-4.35925E-14
 -1      1574 1.27405E-02 4.08594E-03-4.23638E-14
 -1      1575 1.26782E-02 4.04851E-03-4.23783E-14
 -1      1576 1.31759E-02 4.29156E-03-4.59629E-14
 -1      1577 1.30332E-02 4.22418E-03-4.47717E-14
 -1      1578 1.29709E-02 4.18675E-03-4.47821E-14
 -1      1579 1.34614E-02 4.42625E-03-4.83747E-14
 -1      1580 1.33187E-02 4.35892E-03-4.71663E-14
 -1      1581 1.32564E-02 4.32149E-03-4.71717E-14
 -1      1582 1.37470E-02 4.56087E-03-5.07865E-14
 -1      1583 1.36042E-02 4.49357E-03-4.95803E-14
 -1      1584 1.35420E-02 4.45615E-03-4.95809E-14
 -1      1585 1.40325E-02 4.69543E-03-5.32072E-14
 -1      1586 1.38897E-02 4.62816E-03-5.19957E-14
 -1      1587 1.38275E-02 4.59073E-03-5.20029E-14
 -1      1588 1.43181E-02 4.82996E-03-5.56558E-14
 -1      1589 1.41753E-02 4.76270E-03-5.44279E-14
 -1      1590 1.41131E-02 4.72527E-03-5.44401E-14
 -1      1591 1.46181E-02 4.97118E-03-5.82702E-14
 -1      1592 1.44681E-02 4.90057E-03-5.69556E-14
 -1      1593 1.44059E-02 4.86314E-03-5.69729E-14
 -1      1594 1.49037E-02 5.10566E-03-6.08113E-14
 -1      1595 1.47609E-02 5.03842E-03-5.95341E-14
 -1      1596 1.46987E-02 5.00099E-03-5.95492E-14
 -1      1597 1.51894E-02 5.24014E-03-6.33899E-14
 -1      1598 1.50465E-02 5.17290E-03-6.20959E-14
 -1      1599 1.49844E-02 5.13547E-03-6.21055E-14
 -1      1600 1.54751E-02 5.37462E-03-6.60011E-14
 -1      1601 1.53322E-02 5.30738E-03-6.46916E-14
 -1      1602 1.52700E-02 5.26995E-03-6.46981E-14
 -1      1603 1.57608E-02 5.50911E-03-6.86422E-14
 -1      1604 1.56179E-02 5.44187E-03-6.73193E-14
 -1      1605 1.55557E-02 5.40443E-03-6.73228E-14
 -1      1606 1.60465E-02 5.64361E-03-7.13035E-14
 -1      1607 1.59036E-02 5.57636E-03-6.99694E-14
 -1      1608 1.58414E-02 5.53892E-03-6.99690E-14
 -1      1609 1.61854E-02 5.70616E-03-7.28023E-14
 -1      1610 1.60392E-02 5.60981E-03-7.33851E-14
 -1      1611 1.61053E-02 5.65195E-03-7.32245E-14
 -1      1612 1.59069E-02 5.52551E-03-7.36878E-14
 -1      1613 1.59731E-02 5.56766E-03-7.35397E-14
 -1      1614 1.58824E-02 5.53049E-03-7.23081E-14
 -1      1615 1.57746E-02 5.44121E-03-7.39759E-14
 -1      1616 1.58408E-02 5.48336E-03-7.38301E-14
 -1      1617 1.57501E-02 5.44620E-03-7.26073E-14
 -1      1618 1.56423E-02 5.35690E-03-7.42479E-14
 -1      1619 1.57085E-02 5.39906E-03-7.41161E-14
 -1      1620 1.56178E-02 5.36189E-03-7.28966E-14
 -1      1621 1.55123E-02 5.27400E-03-7.45105E-14
 -1      1622 1.55773E-02 5.31545E-03-7.43786E-14
 -1      1623 1.54867E-02 5.27829E-03-7.31723E-14
 -1      1624 1.53800E-02 5.18967E-03-7.47839E-14
 -1      1625 1.54462E-02 5.23184E-03-7.46479E-14
 -1      1626 1.53555E-02 5.19468E-03-7.34416E-14
 -1      1627 1.52478E-02 5.10533E-03-7.50508E-14
 -1      1628 1.53139E-02 5.14750E-03-7.49172E-14
 -1      1629 1.52233E-02 5.11035E-03-7.37110E-14
 -1      1630 1.51156E-02 5.02099E-03-7.53297E-14
 -1      1631 1.51817E-02 5.06316E-03-7.51906E-14
 -1      1632 1.50910E-02 5.02602E-03-7.39808E-14
 -1      1633 1.49834E-02 4.93665E-03-7.56111E-14
 -1      1634 1.50495E-02 4.97882E-03-7.54706E-14
 -1      1635 1.49588E-02 4.94168E-03-7.42592E-14
 -1      1636 1.48512E-02 4.85231E-03-7.59039E-14
 -1      1637 1.49173E-02 4.89448E-03-7.57554E-14
 -1      1638 1.48266E-02 4.85735E-03-7.45415E-14
 -1      1639 1.47212E-02 4.76941E-03-7.62179E-14
 -1      1640 1.47862E-02 4.81086E-03-7.60570E-14
 -1      1641 1.46955E-02 4.77373E-03-7.48337E-14
 -1      1642 1.45891E-02 4.68509E-03-7.65491E-14
 -1      1643 1.46551E-02 4.72725E-03-7.63838E-14
 -1      1644 1.45645E-02 4.69013E-03-7.51433E-14
 -1      1645 1.44569E-02 4.60079E-03-7.68726E-14
 -1      1646 1.45230E-02 4.64294E-03-7.67156E-14
 -1      1647 1.44323E-02 4.60581E-03-7.54616E-14
 -1      1648 1.43247E-02 4.51649E-03-7.71880E-14
 -1      1649 1.43908E-02 4.55863E-03-7.70318E-14
 -1      1650 1.43001E-02 4.52151E-03-7.57749E-14
 -1      1651 1.41640E-02 4.42095E-03-7.70547E-14
 -1      1652 1.42301E-02 4.46309E-03-7.69074E-14
 -1      1653 1.41394E-02 4.42596E-03-7.56464E-14
 -1      1654 1.39501E-02 4.31918E-03-7.50784E-14
 -1      1655 6.49697E-03 9.25590E-04-5.80593E-15
 -1      1656 6.49899E-03 8.78560E-04-5.88704E-15
 -1      1657 6.37526E-03 1.04366E-03-5.56703E-15
 -1      1658 6.45214E-03 9.84821E-04-5.70302E-15
 -1      1659 6.13210E-03 1.19954E-03-5.22048E-15
 -1      1660 6.25563E-03 1.12781E-03-5.37073E-15
 -1      1661 5.80386E-03 1.38057E-03-4.85633E-15
 -1      1662 5.96390E-03 1.29296E-03-5.02778E-15
 -1      1663 5.41488E-03 1.58498E-03-4.44736E-15
 -1      1664 5.59983E-03 1.48928E-03-4.63873E-15
 -1      1665 4.96129E-03 1.78283E-03-3.99499E-15
 -1      1666 5.16983E-03 1.69420E-03-4.20939E-15
 -1      1667 4.54730E-03 1.88848E-03-3.58472E-15
 -1      1668 4.73641E-03 1.85345E-03-3.76121E-15
 -1      1669 4.10074E-03 1.87448E-03-3.18772E-15
 -1      1670 4.31119E-03 1.90125E-03-3.36816E-15
 -1      1671 3.64350E-03 1.71605E-03-2.83719E-15
 -1      1672 3.85344E-03 1.80481E-03-2.98665E-15
 -1      1673 3.16481E-03 1.46575E-03-2.56547E-15
 -1      1674 3.38137E-03 1.58779E-03-2.68348E-15
 -1      1675 2.70365E-03 1.17744E-03-2.34822E-15
 -1      1676 2.91856E-03 1.30663E-03-2.43414E-15
 -1      1677 2.26114E-03 9.54524E-04-2.24123E-15
 -1      1678 2.44306E-03 1.05991E-03-2.29185E-15
 -1      1679 1.94521E-03 7.70136E-04-2.18167E-15
 -1      1680 2.07776E-03 8.47889E-04-2.20134E-15
 -1      1681 1.73194E-03 6.19378E-04-2.16817E-15
 -1      1682 1.81735E-03 6.79616E-04-2.16196E-15
 -1      1683 1.65916E-03 5.15504E-04-2.23426E-15
 -1      1684 1.67433E-03 5.62331E-04-2.20194E-15
 -1      1685 1.73353E-03 4.08262E-04-2.35541E-15
 -1      1686 1.67963E-03 4.59145E-04-2.29059E-15
 -1      1687 1.93477E-03 2.93579E-04-2.52999E-15
 -1      1688 1.82924E-03 3.47731E-04-2.44355E-15
 -1      1689 2.23952E-03 1.66528E-04-2.75391E-15
 -1      1690 2.09015E-03 2.31737E-04-2.63812E-15
 -1      1691 2.58199E-03 1.45481E-05-3.04416E-15
 -1      1692 2.41744E-03 8.09487E-05-2.90927E-15
 -1      1693 2.98086E-03-1.28829E-04-3.39312E-15
 -1      1694 2.78939E-03-6.36857E-05-3.22209E-15
 -1      1695 3.38265E-03-2.29059E-04-3.77530E-15
 -1      1696 3.19986E-03-1.90112E-04-3.59741E-15
 -1      1697 3.78229E-03-2.61227E-04-4.18217E-15
 -1      1698 3.59915E-03-2.56686E-04-3.99233E-15
 -1      1699 4.19502E-03-2.04357E-04-4.60011E-15
 -1      1700 4.00283E-03-2.40706E-04-4.40677E-15
 -1      1701 4.63679E-03-5.87829E-05-5.03709E-15
 -1      1702 4.42492E-03-1.38354E-04-4.84207E-15
 -1      1703 5.09188E-03 1.37621E-04-5.40047E-15
 -1      1704 4.88861E-03 4.43036E-05-5.24228E-15
 -1      1705 5.51724E-03 3.54925E-04-5.71476E-15
 -1      1706 5.31888E-03 2.58748E-04-5.59139E-15
 -1      1707 5.93005E-03 5.35643E-04-5.88749E-15
 -1      1708 5.75223E-03 4.51614E-04-5.81058E-15
 -1      1709 6.26341E-03 6.96512E-04-5.98112E-15
 -1      1710 6.12132E-03 6.26274E-04-5.95214E-15
 -1      1711 6.45934E-03 8.20761E-04-5.95225E-15
 -1      1712 6.38851E-03 7.68158E-04-5.98078E-15
 -1      1713 5.64179E-03 1.39407E-03-4.83485E-15
 -1      1714 6.00879E-03 1.19415E-03-5.25646E-15
 -1      1715 1.61232E-02 5.66872E-03-7.27985E-14
 -1      1716 1.59664E-02 5.58941E-03-7.17280E-14
 -1      1717 6.48060E-03 9.40940E-04-5.96283E-15
 -1      1718 6.30501E-03 1.03908E-03-5.65541E-15
 -1      1719 6.48913E-03 8.68375E-04-6.13447E-15
 -1      1720 5.22300E-03 1.62701E-03-4.36931E-15
 -1      1721 4.81577E-03 1.83146E-03-3.88971E-15
 -1      1722 4.41754E-03 1.92677E-03-3.43792E-15
 -1      1723 4.02248E-03 1.86596E-03-3.02343E-15
 -1      1724 3.59515E-03 1.64776E-03-2.67885E-15
 -1      1725 3.13076E-03 1.34180E-03-2.40532E-15
 -1      1726 2.65251E-03 1.05071E-03-2.23142E-15
 -1      1727 2.21406E-03 8.29309E-04-2.14195E-15
 -1      1728 1.89324E-03 6.59696E-04-2.08559E-15
 -1      1729 1.69853E-03 5.59380E-04-2.09953E-15
 -1      1730 1.66021E-03 4.88371E-04-2.18623E-15
 -1      1731 1.78196E-03 4.10234E-04-2.32409E-15
 -1      1732 2.03852E-03 3.08300E-04-2.51215E-15
 -1      1733 2.37175E-03 1.68451E-04-2.76492E-15
 -1      1734 2.74490E-03-1.58219E-06-3.08984E-15
 -1      1735 3.13589E-03-1.58978E-04-3.46525E-15
 -1      1736 3.51616E-03-2.63703E-04-3.88356E-15
 -1      1737 3.87955E-03-2.77976E-04-4.32597E-15
 -1      1738 4.26658E-03-1.85238E-04-4.79770E-15
 -1      1739 4.68285E-03 4.37873E-06-5.25437E-15
 -1      1740 5.12786E-03 2.44751E-04-5.66066E-15
 -1      1741 5.57223E-03 4.71508E-04-5.96022E-15
 -1      1742 5.99729E-03 6.51887E-04-6.12931E-15
 -1      1743 6.32146E-03 7.83544E-04-6.19880E-15
 -1      1744 2.97372E-04-1.71612E-04-4.03459E-17
 -1      1745 3.42876E-04-9.87412E-05-9.32278E-17
 -1      1746 3.48683E-04-1.17396E-04-9.05580E-17
 -1      1747 3.56082E-04-1.38727E-04-8.63703E-17
 -1      1748 3.66981E-04-1.63085E-04-7.96753E-17
 -1      1749 4.76736E-04-1.70659E-04-1.32435E-16
 -1      1750 3.25921E-04-3.83474E-05-9.51252E-17
 -1      1751 3.29854E-04-5.16131E-05-9.56944E-17
 -1      1752 3.17726E-04-1.41662E-05-9.26586E-17
 -1      1753 3.21882E-04-2.57276E-05-9.41494E-17
 -1      1754 4.36999E-04-4.46841E-05-1.39686E-16
 -1      1755 3.09218E-04 5.76531E-06-8.90808E-17
 -1      1756 3.13467E-04-3.61692E-06-9.10188E-17
 -1      1757 4.25136E-04-1.36719E-05-1.35701E-16
 -1      1758 3.01200E-04 2.09491E-05-8.48117E-17
 -1      1759 3.05038E-04 1.39811E-05-8.71427E-17
 -1      1760 4.12847E-04 1.18473E-05-1.30389E-16
 -1      1761 2.95222E-04 3.13712E-05-7.98921E-17
 -1      1762 2.97805E-04 2.67277E-05-8.24671E-17
 -1      1763 4.01557E-04 3.13186E-05-1.24060E-16
 -1      1764 2.93238E-04 3.80691E-05-7.41052E-17
 -1      1765 2.93579E-04 3.50754E-05-7.72630E-17
 -1      1766 3.93734E-04 4.49597E-05-1.16647E-16
 -1      1767 2.96928E-04 4.33350E-05-6.66513E-17
 -1      1768 2.94283E-04 4.06814E-05-7.08120E-17
 -1      1769 3.92285E-04 5.43714E-05-1.07878E-16
 -1      1770 3.07481E-04 5.09511E-05-5.70832E-17
 -1      1771 3.01326E-04 4.66176E-05-6.22332E-17
 -1      1772 3.99590E-04 6.30180E-05-9.66024E-17
 -1      1773 3.24955E-04 6.53679E-05-4.49537E-17
 -1      1774 3.15420E-04 5.70526E-05-5.15945E-17
 -1      1775 4.17103E-04 7.58258E-05-8.23723E-17
 -1      1776 3.48788E-04 9.17918E-05-2.84874E-17
 -1      1777 3.36154E-04 7.68296E-05-3.75947E-17
 -1      1778 4.44617E-04 9.85595E-05-6.41577E-17
 -1      1779 3.80404E-04 1.36923E-04-6.49166E-18
 -1      1780 3.63531E-04 1.11708E-04-1.84585E-17
 -1      1781 4.81431E-04 1.37702E-04-4.01155E-17
 -1      1782 4.46279E-04 1.95927E-04 1.13570E-17
 -1      1783 4.11717E-04 1.62655E-04 7.86047E-19
 -1      1784 5.37519E-04 1.91323E-04-1.70626E-17
 -1      1785 6.14104E-04 2.52355E-04 3.75405E-18
 -1      1786 3.55249E-04-1.83042E-04-6.28837E-17
 -1      1787 9.48624E-04 3.38009E-04-4.30835E-17
 -1      1788 7.81262E-04 2.98634E-04-1.44199E-17
 -1      1789 7.38568E-04 2.66181E-04-2.78233E-17
 -1      1790 4.79716E-04-2.25430E-04-1.05547E-16
 -1      1791 8.45597E-04-3.61434E-04-2.72324E-16
 -1      1792 9.98510E-04-4.04133E-04-3.75242E-16
 -1      1793 1.14913E-03-4.42113E-04-4.96104E-16
 -1      1794 1.29837E-03-4.76057E-04-6.35207E-16
 -1      1795 1.05160E-03-3.85393E-04-4.47044E-16
 -1      1796 1.44624E-03-5.07401E-04-7.91955E-16
 -1      1797 1.59286E-03-5.36336E-04-9.66905E-16
 -1      1798 1.35263E-03-4.53360E-04-7.25223E-16
 -1      1799 1.73852E-03-5.63606E-04-1.16006E-15
 -1      1800 1.88293E-03-5.89171E-04-1.37068E-15
 -1      1801 1.64996E-03-5.11475E-04-1.07411E-15
 -1      1802 2.02635E-03-6.13180E-04-1.59898E-15
 -1      1803 2.16839E-03-6.35329E-04-1.84584E-15
 -1      1804 1.94389E-03-5.63020E-04-1.49369E-15
 -1      1805 2.30923E-03-6.55252E-04-2.11081E-15
 -1      1806 2.44854E-03-6.72369E-04-2.39346E-15
 -1      1807 2.23396E-03-6.08023E-04-1.98463E-15
 -1      1808 2.58643E-03-6.85907E-04-2.69455E-15
 -1      1809 2.72281E-03-6.95075E-04-3.01424E-15
 -1      1810 2.51929E-03-6.43298E-04-2.54712E-15
 -1      1811 2.85769E-03-6.98894E-04-3.35146E-15
 -1      1812 2.99138E-03-6.96538E-04-3.70667E-15
 -1      1813 2.79919E-03-6.62881E-04-3.18154E-15
 -1      1814 3.12383E-03-6.87119E-04-4.07995E-15
 -1      1815 3.25573E-03-6.70025E-04-4.47143E-15
 -1      1816 3.07382E-03-6.59306E-04-3.88856E-15
 -1      1817 3.38698E-03-6.44773E-04-4.88041E-15
 -1      1818 3.51850E-03-6.11191E-04-5.30720E-15
 -1      1819 3.34474E-03-6.25760E-04-4.66657E-15
 -1      1820 3.65018E-03-5.69398E-04-5.75168E-15
 -1      1821 3.78293E-03-5.19744E-04-6.21272E-15
 -1      1822 3.61472E-03-5.58485E-04-5.51610E-15
 -1      1823 3.91663E-03-4.62941E-04-6.69003E-15
 -1      1824 4.05193E-03-3.99758E-04-7.18369E-15
 -1      1825 3.88696E-03-4.58343E-04-6.43383E-15
 -1      1826 4.18873E-03-3.31290E-04-7.69270E-15
 -1      1827 4.32729E-03-2.58491E-04-8.21706E-15
 -1      1828 4.16399E-03-3.30718E-04-7.41666E-15
 -1      1829 4.46754E-03-1.82542E-04-8.75600E-15
 -1      1830 4.60938E-03-1.04349E-04-9.30901E-15
 -1      1831 4.44698E-03-1.83834E-04-8.46175E-15
 -1      1832 4.75279E-03-2.49211E-05-9.87776E-15
 -1      1833 4.89741E-03 5.50410E-05-1.04600E-14
 -1      1834 4.73561E-03-2.64414E-05-9.56670E-15
 -1      1835 5.04326E-03 1.34833E-04-1.10560E-14
 -1      1836 5.18988E-03 2.14008E-04-1.16667E-14
 -1      1837 5.02862E-03 1.34082E-04-1.07288E-14
 -1      1838 5.33734E-03 2.92185E-04-1.22924E-14
 -1      1839 5.48515E-03 3.69143E-04-1.29324E-14
 -1      1840 5.32438E-03 2.92652E-04-1.19474E-14
 -1      1841 5.63341E-03 4.44764E-04-1.35872E-14
 -1      1842 5.78172E-03 5.18987E-04-1.42580E-14
 -1      1843 5.62137E-03 4.46513E-04-1.32252E-14
 -1      1844 5.93014E-03 5.91871E-04-1.49451E-14
 -1      1845 6.07839E-03 6.63453E-04-1.56481E-14
 -1      1846 5.91841E-03 5.94748E-04-1.45638E-14
 -1      1847 6.22653E-03 7.33882E-04-1.63681E-14
 -1      1848 6.37438E-03 8.03242E-04-1.71049E-14
 -1      1849 6.21472E-03 7.37633E-04-1.59672E-14
 -1      1850 6.52197E-03 8.71713E-04-1.78578E-14
 -1      1851 6.66921E-03 9.39391E-04-1.86268E-14
 -1      1852 6.50984E-03 8.76066E-04-1.74370E-14
 -1      1853 6.81611E-03 1.00645E-03-1.94118E-14
 -1      1854 6.96265E-03 1.07297E-03-2.02126E-14
 -1      1855 6.80358E-03 1.01116E-03-1.89718E-14
 -1      1856 7.10883E-03 1.13911E-03-2.10285E-14
 -1      1857 7.25468E-03 1.20493E-03-2.18602E-14
 -1      1858 7.09592E-03 1.14398E-03-2.05684E-14
 -1      1859 7.40018E-03 1.27054E-03-2.27066E-14
 -1      1860 7.54538E-03 1.33601E-03-2.35672E-14
 -1      1861 7.38694E-03 1.27544E-03-2.22273E-14
 -1      1862 7.69028E-03 1.40141E-03-2.44442E-14
 -1      1863 7.83492E-03 1.46677E-03-2.53358E-14
 -1      1864 7.67680E-03 1.40623E-03-2.39471E-14
 -1      1865 7.97930E-03 1.53215E-03-2.62436E-14
 -1      1866 8.12346E-03 1.59758E-03-2.71686E-14
 -1      1867 7.96566E-03 1.53684E-03-2.57284E-14
 -1      1868 8.26742E-03 1.66308E-03-2.81099E-14
 -1      1869 8.41121E-03 1.72867E-03-2.90655E-14
 -1      1870 8.25370E-03 1.66761E-03-2.75760E-14
 -1      1871 8.55483E-03 1.79436E-03-3.00360E-14
 -1      1872 8.69832E-03 1.86016E-03-3.10214E-14
 -1      1873 8.54108E-03 1.79872E-03-2.94847E-14
 -1      1874 8.84169E-03 1.92606E-03-3.20193E-14
 -1      1875 8.98495E-03 1.99208E-03-3.30296E-14
 -1      1876 8.82794E-03 1.93027E-03-3.14501E-14
 -1      1877 9.12812E-03 2.05821E-03-3.40531E-14
 -1      1878 9.27122E-03 2.12445E-03-3.50865E-14
 -1      1879 9.11442E-03 2.06228E-03-3.34679E-14
 -1      1880 9.41426E-03 2.19079E-03-3.61334E-14
 -1      1881 9.55724E-03 2.25723E-03-3.71909E-14
 -1      1882 9.40061E-03 2.19473E-03-3.55355E-14
 -1      1883 9.70018E-03 2.32375E-03-3.82592E-14
 -1      1884 9.84309E-03 2.39036E-03-3.93411E-14
 -1      1885 9.68659E-03 2.32759E-03-3.76488E-14
 -1      1886 9.98596E-03 2.45705E-03-4.04326E-14
 -1      1887 1.01288E-02 2.52380E-03-4.15345E-14
 -1      1888 9.97243E-03 2.46080E-03-3.98077E-14
 -1      1889 1.02716E-02 2.59062E-03-4.26497E-14
 -1      1890 1.04145E-02 2.65750E-03-4.37771E-14
 -1      1891 1.02582E-02 2.59430E-03-4.20140E-14
 -1      1892 1.05573E-02 2.72442E-03-4.49131E-14
 -1      1893 1.07001E-02 2.79139E-03-4.60619E-14
 -1      1894 1.05439E-02 2.72805E-03-4.42654E-14
 -1      1895 1.08429E-02 2.85840E-03-4.72222E-14
 -1      1896 1.09857E-02 2.92545E-03-4.83911E-14
 -1      1897 1.08295E-02 2.86199E-03-4.65629E-14
 -1      1898 1.11285E-02 2.99253E-03-4.95707E-14
 -1      1899 1.12713E-02 3.05963E-03-5.07630E-14
 -1      1900 1.11151E-02 2.99608E-03-4.89032E-14
 -1      1901 1.14141E-02 3.12676E-03-5.19676E-14
 -1      1902 1.15569E-02 3.19390E-03-5.31824E-14
 -1      1903 1.14008E-02 3.13029E-03-5.12845E-14
 -1      1904 1.16997E-02 3.26106E-03-5.44095E-14
 -1      1905 1.18425E-02 3.32824E-03-5.56497E-14
 -1      1906 1.16864E-02 3.26458E-03-5.37138E-14
 -1      1907 1.19853E-02 3.39543E-03-5.68996E-14
 -1      1908 1.21281E-02 3.46263E-03-5.81589E-14
 -1      1909 1.19721E-02 3.39894E-03-5.61864E-14
 -1      1910 1.22710E-02 3.52984E-03-5.94286E-14
 -1      1911 1.24138E-02 3.59705E-03-6.07069E-14
 -1      1912 1.22577E-02 3.53334E-03-5.87020E-14
 -1      1913 1.25566E-02 3.66427E-03-6.19962E-14
 -1      1914 1.26994E-02 3.73149E-03-6.32942E-14
 -1      1915 1.25434E-02 3.66777E-03-6.12529E-14
 -1      1916 1.28423E-02 3.79872E-03-6.46012E-14
 -1      1917 1.29851E-02 3.86595E-03-6.59176E-14
 -1      1918 1.28290E-02 3.80222E-03-6.38426E-14
 -1      1919 1.31280E-02 3.93317E-03-6.72441E-14
 -1      1920 1.32708E-02 4.00040E-03-6.85790E-14
 -1      1921 1.31147E-02 3.93667E-03-6.64695E-14
 -1      1922 1.34136E-02 4.06763E-03-6.99236E-14
 -1      1923 1.35565E-02 4.13485E-03-7.12725E-14
 -1      1924 1.34004E-02 4.07113E-03-6.91359E-14
 -1      1925 1.36819E-02 4.19341E-03-7.24884E-14
 -1      1926 1.38247E-02 4.26063E-03-7.38476E-14
 -1      1927 1.39194E-02 4.31402E-03-7.41341E-14
 -1      1928 1.36686E-02 4.19691E-03-7.16927E-14
 -1      1929 1.28359E-03 4.03333E-04-1.34522E-16
 -1      1930 1.11527E-03 3.72156E-04-8.28195E-17
 -1      1931 1.06704E-03 3.39783E-04-1.00506E-16
 -1      1932 1.62592E-03 4.64965E-04-2.74141E-16
 -1      1933 1.45317E-03 4.33632E-04-1.97948E-16
 -1      1934 1.39780E-03 4.00673E-04-2.19605E-16
 -1      1935 1.98172E-03 5.40897E-04-4.65963E-16
 -1      1936 1.80168E-03 4.99917E-04-3.63303E-16
 -1      1937 1.73597E-03 4.64644E-04-3.88565E-16
 -1      1938 2.37493E-03 6.61842E-04-7.23447E-16
 -1      1939 2.17566E-03 5.94292E-04-5.87407E-16
 -1      1940 2.09617E-03 5.53958E-04-6.15962E-16
 -1      1941 2.77110E-03 8.46923E-04-1.02593E-15
 -1      1942 2.57095E-03 7.44079E-04-8.67538E-16
 -1      1943 2.47681E-03 6.95179E-04-8.99264E-16
 -1      1944 3.18714E-03 1.12563E-03-1.38736E-15
 -1      1945 2.97846E-03 9.74222E-04-1.19888E-15
 -1      1946 2.87470E-03 9.14571E-04-1.23255E-15
 -1      1947 3.61002E-03 1.48803E-03-1.81695E-15
 -1      1948 3.40036E-03 1.30037E-03-1.59337E-15
 -1      1949 3.29933E-03 1.23381E-03-1.62817E-15
 -1      1950 4.01541E-03 1.84458E-03-2.32811E-15
 -1      1951 3.81600E-03 1.67666E-03-2.06195E-15
 -1      1952 3.73361E-03 1.61745E-03-2.09677E-15
 -1      1953 4.39233E-03 2.03663E-03-2.93504E-15
 -1      1954 4.20349E-03 1.96908E-03-2.61890E-15
 -1      1955 4.14947E-03 1.93185E-03-2.65325E-15
 -1      1956 4.71171E-03 1.99843E-03-3.53367E-15
 -1      1957 4.54796E-03 2.03808E-03-3.22447E-15
 -1      1958 4.51723E-03 2.01637E-03-3.25873E-15
 -1      1959 5.03219E-03 1.83775E-03-4.16853E-15
 -1      1960 4.86882E-03 1.92724E-03-3.84309E-15
 -1      1961 4.85451E-03 1.90451E-03-3.87620E-15
 -1      1962 5.45617E-03 1.59916E-03-5.04643E-15
 -1      1963 5.24342E-03 1.71631E-03-4.59573E-15
 -1      1964 5.24440E-03 1.68550E-03-4.62824E-15
 -1      1965 5.88167E-03 1.42931E-03-6.01067E-15
 -1      1966 5.67132E-03 1.50301E-03-5.51863E-15
 -1      1967 5.68083E-03 1.46624E-03-5.54999E-15
 -1      1968 6.29066E-03 1.36252E-03-7.04544E-15
 -1      1969 6.08941E-03 1.38427E-03-6.51978E-15
 -1      1970 6.09567E-03 1.34639E-03-6.55042E-15
 -1      1971 6.67837E-03 1.38136E-03-8.14306E-15
 -1      1972 6.48755E-03 1.36315E-03-7.58698E-15
 -1      1973 6.48254E-03 1.32583E-03-7.61747E-15
 -1      1974 7.04565E-03 1.45768E-03-9.29779E-15
 -1      1975 6.86454E-03 1.41388E-03-8.71326E-15
 -1      1976 6.84614E-03 1.37697E-03-8.74291E-15
 -1      1977 7.41205E-03 1.57418E-03-1.05748E-14
 -1      1978 7.23110E-03 1.51238E-03-9.92788E-15
 -1      1979 7.20052E-03 1.47571E-03-9.95654E-15
 -1      1980 7.74572E-03 1.70379E-03-1.18490E-14
 -1      1981 7.58048E-03 1.63729E-03-1.12035E-14
 -1      1982 7.54060E-03 1.60089E-03-1.12301E-14
 -1      1983 8.06739E-03 1.84238E-03-1.31822E-14
 -1      1984 7.90780E-03 1.77226E-03-1.25094E-14
 -1      1985 7.86151E-03 1.73618E-03-1.25327E-14
 -1      1986 8.37967E-03 1.98490E-03-1.45715E-14
 -1      1987 8.22448E-03 1.91331E-03-1.38705E-14
 -1      1988 8.17388E-03 1.87759E-03-1.38927E-14
 -1      1989 8.68475E-03 2.12868E-03-1.60190E-14
 -1      1990 8.53293E-03 2.05672E-03-1.52882E-14
 -1      1991 8.47953E-03 2.02137E-03-1.53089E-14
 -1      1992 8.98441E-03 2.27234E-03-1.75251E-14
 -1      1993 8.83512E-03 2.20056E-03-1.67633E-14
 -1      1994 8.77997E-03 2.16556E-03-1.67831E-14
 -1      1995 9.29476E-03 2.42233E-03-1.91823E-14
 -1      1996 9.14002E-03 2.34746E-03-1.83448E-14
 -1      1997 9.08379E-03 2.31276E-03-1.83637E-14
 -1      1998 9.58732E-03 2.56412E-03-2.08387E-14
 -1      1999 9.44133E-03 2.49336E-03-2.00003E-14
 -1      2000 9.38446E-03 2.45891E-03-2.00196E-14
 -1      2001 9.87776E-03 2.70482E-03-2.25704E-14
 -1      2002 9.73275E-03 2.63460E-03-2.16948E-14
 -1      2003 9.67555E-03 2.60036E-03-2.17088E-14
 -1      2004 1.01667E-02 2.84447E-03-2.43770E-14
 -1      2005 1.00224E-02 2.77477E-03-2.34644E-14
 -1      2006 9.96500E-03 2.74069E-03-2.34749E-14
 -1      2007 1.04545E-02 2.98319E-03-2.62568E-14
 -1      2008 1.03107E-02 2.91394E-03-2.53068E-14
 -1      2009 1.02533E-02 2.87999E-03-2.53147E-14
 -1      2010 1.07415E-02 3.12108E-03-2.82039E-14
 -1      2011 1.05981E-02 3.05223E-03-2.72220E-14
 -1      2012 1.05407E-02 3.01838E-03-2.72229E-14
 -1      2013 1.10423E-02 3.26512E-03-3.03117E-14
 -1      2014 1.08920E-02 3.19319E-03-2.92505E-14
 -1      2015 1.08346E-02 3.15941E-03-2.92464E-14
 -1      2016 1.13284E-02 3.40169E-03-3.23780E-14
 -1      2017 1.11854E-02 3.33347E-03-3.13374E-14
 -1      2018 1.11281E-02 3.29975E-03-3.13287E-14
 -1      2019 1.16143E-02 3.53779E-03-3.44947E-14
 -1      2020 1.14714E-02 3.46980E-03-3.34297E-14
 -1      2021 1.14141E-02 3.43612E-03-3.34157E-14
 -1      2022 1.19000E-02 3.67350E-03-3.66620E-14
 -1      2023 1.17572E-02 3.60569E-03-3.55722E-14
 -1      2024 1.17000E-02 3.57204E-03-3.55537E-14
 -1      2025 1.21856E-02 3.80889E-03-3.88751E-14
 -1      2026 1.20428E-02 3.74123E-03-3.77638E-14
 -1      2027 1.19857E-02 3.70761E-03-3.77382E-14
 -1      2028 1.24712E-02 3.94404E-03-4.11384E-14
 -1      2029 1.23284E-02 3.87650E-03-4.00017E-14
 -1      2030 1.22713E-02 3.84289E-03-3.99721E-14
 -1      2031 1.27711E-02 4.08575E-03-4.35720E-14
 -1      2032 1.26211E-02 4.01492E-03-4.23466E-14
 -1      2033 1.25641E-02 3.98133E-03-4.23151E-14
 -1      2034 1.30566E-02 4.22055E-03-4.59342E-14
 -1      2035 1.29138E-02 4.15317E-03-4.47470E-14
 -1      2036 1.28568E-02 4.11958E-03-4.47119E-14
 -1      2037 1.33422E-02 4.35525E-03-4.83336E-14
 -1      2038 1.31994E-02 4.28791E-03-4.71319E-14
 -1      2039 1.31424E-02 4.25433E-03-4.70926E-14
 -1      2040 1.36278E-02 4.48987E-03-5.07496E-14
 -1      2041 1.34850E-02 4.42257E-03-4.95402E-14
 -1      2042 1.34280E-02 4.38899E-03-4.94980E-14
 -1      2043 1.39134E-02 4.62443E-03-5.31805E-14
 -1      2044 1.37706E-02 4.55716E-03-5.19634E-14
 -1      2045 1.37136E-02 4.52358E-03-5.19241E-14
 -1      2046 1.41990E-02 4.75895E-03-5.56368E-14
 -1      2047 1.40562E-02 4.69170E-03-5.44043E-14
 -1      2048 1.39993E-02 4.65812E-03-5.43681E-14
 -1      2049 1.44989E-02 4.90018E-03-5.82540E-14
 -1      2050 1.43490E-02 4.82957E-03-5.69401E-14
 -1      2051 1.42920E-02 4.79599E-03-5.69048E-14
 -1      2052 1.47846E-02 5.03466E-03-6.07852E-14
 -1      2053 1.46418E-02 4.96742E-03-5.95133E-14
 -1      2054 1.45848E-02 4.93384E-03-5.94775E-14
 -1      2055 1.50703E-02 5.16913E-03-6.33563E-14
 -1      2056 1.49274E-02 5.10190E-03-6.20654E-14
 -1      2057 1.48705E-02 5.06832E-03-6.20255E-14
 -1      2058 1.53560E-02 5.30361E-03-6.59625E-14
 -1      2059 1.52131E-02 5.23637E-03-6.46561E-14
 -1      2060 1.51562E-02 5.20279E-03-6.46111E-14
 -1      2061 1.56417E-02 5.43809E-03-6.85942E-14
 -1      2062 1.54988E-02 5.37085E-03-6.72755E-14
 -1      2063 1.54419E-02 5.33727E-03-6.72291E-14
 -1      2064 1.58755E-02 5.54737E-03-7.08230E-14
 -1      2065 1.57326E-02 5.48013E-03-6.94921E-14
 -1      2066 1.56757E-02 5.44654E-03-6.94426E-14
 -1      2067 1.58576E-02 5.53061E-03-7.12457E-14
 -1      2068 1.54610E-02 5.28258E-03-7.18247E-14
 -1      2069 1.55272E-02 5.32473E-03-7.16803E-14
 -1      2070 1.55933E-02 5.36688E-03-7.15328E-14
 -1      2071 1.56595E-02 5.40903E-03-7.13855E-14
 -1      2072 1.54365E-02 5.28757E-03-7.04629E-14
 -1      2073 1.57255E-02 5.44875E-03-7.13961E-14
 -1      2074 1.57916E-02 5.49089E-03-7.12417E-14
 -1      2075 1.57007E-02 5.44886E-03-7.03401E-14
 -1      2076 1.55687E-02 5.36944E-03-7.03254E-14
 -1      2077 1.53310E-02 5.19969E-03-7.21005E-14
 -1      2078 1.53960E-02 5.24113E-03-7.19631E-14
 -1      2079 1.53054E-02 5.20398E-03-7.07518E-14
 -1      2080 1.51987E-02 5.11537E-03-7.23733E-14
 -1      2081 1.52649E-02 5.15753E-03-7.22355E-14
 -1      2082 1.51742E-02 5.12038E-03-7.10299E-14
 -1      2083 1.50665E-02 5.03104E-03-7.26413E-14
 -1      2084 1.51326E-02 5.07321E-03-7.25093E-14
 -1      2085 1.50419E-02 5.03606E-03-7.13036E-14
 -1      2086 1.49342E-02 4.94671E-03-7.29130E-14
 -1      2087 1.50003E-02 4.98888E-03-7.27745E-14
 -1      2088 1.49097E-02 4.95173E-03-7.15712E-14
 -1      2089 1.48020E-02 4.86238E-03-7.31903E-14
 -1      2090 1.48681E-02 4.90454E-03-7.30510E-14
 -1      2091 1.47775E-02 4.86740E-03-7.18422E-14
 -1      2092 1.46698E-02 4.77805E-03-7.34718E-14
 -1      2093 1.47359E-02 4.82021E-03-7.33302E-14
 -1      2094 1.46452E-02 4.78308E-03-7.21175E-14
 -1      2095 1.45399E-02 4.69515E-03-7.37614E-14
 -1      2096 1.46048E-02 4.73660E-03-7.36142E-14
 -1      2097 1.45142E-02 4.69947E-03-7.23973E-14
 -1      2098 1.44077E-02 4.61084E-03-7.40674E-14
 -1      2099 1.44738E-02 4.65299E-03-7.39134E-14
 -1      2100 1.43831E-02 4.61586E-03-7.26866E-14
 -1      2101 1.42756E-02 4.52653E-03-7.43698E-14
 -1      2102 1.43416E-02 4.56868E-03-7.42169E-14
 -1      2103 1.42510E-02 4.53154E-03-7.29806E-14
 -1      2104 1.41434E-02 4.44222E-03-7.46719E-14
 -1      2105 1.42095E-02 4.48437E-03-7.45230E-14
 -1      2106 1.41188E-02 4.44724E-03-7.32760E-14
 -1      2107 6.22290E-03 1.04536E-03-5.74581E-15
 -1      2108 6.34886E-03 9.92941E-04-5.95028E-15
 -1      2109 6.51096E-03 8.97356E-04-6.36245E-15
 -1      2110 6.47165E-03 8.79889E-04-6.42877E-15
 -1      2111 6.46307E-03 9.43537E-04-6.20149E-15
 -1      2112 6.51000E-03 9.22424E-04-6.31016E-15
 -1      2113 5.90019E-03 1.20348E-03-5.30634E-15
 -1      2114 6.06457E-03 1.12168E-03-5.50967E-15
 -1      2115 5.51028E-03 1.42199E-03-4.83505E-15
 -1      2116 5.69506E-03 1.31200E-03-5.06336E-15
 -1      2117 3.33810E-04-6.61450E-05-9.55318E-17
 -1      2118 3.38069E-04-8.16977E-05-9.47593E-17
 -1      2119 4.60365E-04-1.21785E-04-1.39510E-16
 -1      2120 4.48275E-04-8.05783E-05-1.41299E-16
 -1      2121 4.68753E-03 1.89405E-03-3.74841E-15
 -1      2122 4.85752E-03 1.81178E-03-3.98572E-15
 -1      2123 4.35972E-03 1.95699E-03-3.30538E-15
 -1      2124 4.51823E-03 1.94204E-03-3.52211E-15
 -1      2125 4.60680E-03 1.93614E-03-3.60814E-15
 -1      2126 3.97983E-03 1.84446E-03-2.86094E-15
 -1      2127 4.15277E-03 1.92129E-03-3.05563E-15
 -1      2128 3.54551E-03 1.56478E-03-2.50811E-15
 -1      2129 3.74515E-03 1.70599E-03-2.65101E-15
 -1      2130 3.11214E-03 1.24916E-03-2.26181E-15
 -1      2131 3.33075E-03 1.41251E-03-2.38275E-15
 -1      2132 3.48309E-03 1.48184E-03-2.35443E-15
 -1      2133 2.55919E-03 9.20714E-04-2.10284E-15
 -1      2134 2.79174E-03 1.04440E-03-2.14980E-15
 -1      2135 2.16157E-03 7.23146E-04-2.02668E-15
 -1      2136 2.34643E-03 8.12644E-04-2.06172E-15
 -1      2137 1.85246E-03 5.85489E-04-1.97941E-15
 -1      2138 1.98755E-03 6.42058E-04-1.99771E-15
 -1      2139 1.66643E-03 5.15604E-04-2.02083E-15
 -1      2140 1.72606E-03 5.35892E-04-1.98868E-15
 -1      2141 1.66826E-03 4.73740E-04-2.10615E-15
 -1      2142 1.64599E-03 4.90614E-04-2.05510E-15
 -1      2143 1.83547E-03 4.12219E-04-2.27386E-15
 -1      2144 1.73743E-03 4.43674E-04-2.19298E-15
 -1      2145 2.11960E-03 3.13315E-04-2.47066E-15
 -1      2146 1.97012E-03 3.65443E-04-2.37160E-15
 -1      2147 2.50515E-03 1.50622E-04-2.76541E-15
 -1      2148 2.33376E-03 2.29942E-04-2.61907E-15
 -1      2149 2.85780E-03-2.04229E-05-3.09706E-15
 -1      2150 2.67854E-03 6.73818E-05-2.92732E-15
 -1      2151 2.60108E-03 1.17836E-04-2.77186E-15
 -1      2152 3.25594E-03-1.98100E-04-3.52753E-15
 -1      2153 3.08553E-03-1.22811E-04-3.32850E-15
 -1      2154 3.59883E-03-2.95568E-04-3.98344E-15
 -1      2155 3.44383E-03-2.59611E-04-3.76766E-15
 -1      2156 3.94521E-03-2.86801E-04-4.49635E-15
 -1      2157 3.79289E-03-3.06507E-04-4.26804E-15
 -1      2158 4.28455E-03-1.62893E-04-4.98633E-15
 -1      2159 4.11561E-03-2.39145E-04-4.73821E-15
 -1      2160 4.00247E-03-2.72904E-04-4.67546E-15
 -1      2161 4.72794E-03 8.11589E-05-5.51704E-15
 -1      2162 4.52829E-03-3.57298E-05-5.30186E-15
 -1      2163 5.14951E-03 3.37391E-04-5.95460E-15
 -1      2164 4.94461E-03 2.11593E-04-5.75274E-15
 -1      2165 5.64995E-03 5.76997E-04-6.23411E-15
 -1      2166 5.43253E-03 4.78228E-04-6.12834E-15
 -1      2167 6.06546E-03 7.40383E-04-6.39009E-15
 -1      2168 5.87477E-03 6.67942E-04-6.31849E-15
 -1      2169 6.37639E-03 8.42914E-04-6.43592E-15
 -1      2170 6.24829E-03 8.04733E-04-6.43335E-15
 -1      2171 5.10465E-03 1.67267E-03-4.31445E-15
 -1      2172 5.30111E-03 1.55081E-03-4.56079E-15
 -1      2173 5.78956E-03 1.24402E-03-5.30701E-15
 -1      2174 6.35832E-04-2.85042E-04-1.67428E-16
 -1      2175 5.39928E-03 1.47743E-03-4.77832E-15
 -1      2176 4.97270E-03 1.75174E-03-4.16477E-15
 -1      2177 6.93450E-04-2.76378E-04-2.15607E-16
 -1      2178 6.41878E-03 9.63170E-04-6.29112E-15
 -1      2179 6.52258E-03 9.21687E-04-6.60255E-15
 -1      2180 1.40487E-02 4.38883E-03-7.43923E-14
 -1      2181 6.14206E-03 1.06978E-03-5.79580E-15
 -1      2182 6.42991E-03 8.84890E-04-6.66293E-15
 -1      2183 6.15327E-03 8.04752E-04-6.62413E-15
 -1      2184 5.75063E-03 6.60625E-04-6.48982E-15
 -1      2185 5.26229E-03 4.32492E-04-6.22133E-15
 -1      2186 4.36982E-03-1.02532E-04-5.23697E-15
 -1      2187 3.69019E-03-3.13798E-04-4.14390E-15
 -1      2188 2.97737E-03-6.88140E-05-3.15545E-15
 -1      2189 2.23052E-03 2.79814E-04-2.47096E-15
 -1      2190 1.89561E-03 3.98639E-04-2.23486E-15
 -1      2191 1.69322E-03 4.56570E-04-2.05740E-15
 -1      2192 1.64663E-03 4.83195E-04-1.94245E-15
 -1      2193 1.78570E-03 5.31673E-04-1.90084E-15
 -1      2194 2.09107E-03 6.42254E-04-1.91846E-15
 -1      2195 2.98307E-03 1.12127E-03-2.12642E-15
 -1      2196 3.14732E-03 1.20347E-03-2.09976E-15
 -1      2197 2.85656E-03 1.00518E-03-1.99706E-15
 -1      2198 4.28056E-03 1.95943E-03-3.13015E-15
 -1      2199 3.89160E-03 1.78260E-03-2.67695E-15
 -1      2200 2.47102E-03 8.19250E-04-1.98357E-15
 -1      2201 3.34972E-03-2.36200E-04-3.62129E-15
 -1      2202 4.79415E-03 1.61234E-04-5.80031E-15
 -1      2203 1.10445E-03 3.17412E-04-1.58443E-16
 -1      2204 9.44997E-04 2.85863E-04-1.06008E-16
 -1      2205 5.33046E-04-1.01382E-05-1.91375E-16
 -1      2206 5.41159E-04-2.80462E-05-1.94709E-16
 -1      2207 5.49073E-04-4.75691E-05-1.97284E-16
 -1      2208 5.56634E-04-6.84625E-05-1.99385E-16
 -1      2209 6.61416E-04-4.67507E-05-2.65914E-16
 -1      2210 5.01778E-04 4.41827E-05-1.74651E-16
 -1      2211 5.08673E-04 3.33599E-05-1.79449E-16
 -1      2212 4.92417E-04 6.09008E-05-1.63999E-16
 -1      2213 4.96116E-04 5.33040E-05-1.69596E-16
 -1      2214 6.01362E-04 5.96402E-05-2.34499E-16
 -1      2215 4.92418E-04 7.30107E-05-1.51314E-16
 -1      2216 4.91022E-04 6.72689E-05-1.58077E-16
 -1      2217 5.91106E-04 7.90437E-05-2.19890E-16
 -1      2218 5.04981E-04 8.53707E-05-1.34834E-16
 -1      2219 4.96997E-04 7.88308E-05-1.43521E-16
 -1      2220 5.93863E-04 9.40086E-05-2.02014E-16
 -1      2221 5.31549E-04 1.03884E-04-1.14532E-16
 -1      2222 5.16592E-04 9.34387E-05-1.25307E-16
 -1      2223 6.13638E-04 1.10243E-04-1.79720E-16
 -1      2224 5.71434E-04 1.35384E-04-8.87284E-17
 -1      2225 5.50073E-04 1.17593E-04-1.02579E-16
 -1      2226 6.51497E-04 1.34870E-04-1.52114E-16
 -1      2227 1.42410E-03 3.76115E-04-2.99253E-16
 -1      2228 1.26369E-03 3.47182E-04-2.22749E-16
 -1      2229 1.13567E-03 2.97530E-04-2.21381E-16
 -1      2230 9.56879E-04-3.29317E-04-3.98620E-16
 -1      2231 1.10858E-03-3.65607E-04-5.20444E-16
 -1      2232 5.30801E-03 1.54155E-03-4.72213E-15
 -1      2233 5.49017E-03 1.42042E-03-5.00531E-15
 -1      2234 1.25978E-03-3.98824E-04-6.59290E-16
 -1      2235 1.41059E-03-4.29388E-04-8.15794E-16
 -1      2236 1.16804E-03-3.44593E-04-5.95200E-16
 -1      2237 1.56099E-03-4.58134E-04-9.89904E-16
 -1      2238 1.71082E-03-4.85217E-04-1.18154E-15
 -1      2239 1.47156E-03-4.04223E-04-9.07464E-16
 -1      2240 1.86025E-03-5.11037E-04-1.39023E-15
 -1      2241 2.00893E-03-5.35461E-04-1.61652E-15
 -1      2242 1.77512E-03-4.57735E-04-1.28852E-15
 -1      2243 2.15700E-03-5.58419E-04-1.86045E-15
 -1      2244 2.30404E-03-5.79418E-04-2.12224E-15
 -1      2245 2.07785E-03-5.06743E-04-1.73876E-15
 -1      2246 2.45009E-03-5.97936E-04-2.40129E-15
 -1      2247 2.59486E-03-6.13108E-04-2.69884E-15
 -1      2248 2.37832E-03-5.49843E-04-2.25843E-15
 -1      2249 2.73827E-03-6.24067E-04-3.01445E-15
 -1      2250 2.88035E-03-6.29699E-04-3.34757E-15
 -1      2251 2.67466E-03-5.82163E-04-2.84909E-15
 -1      2252 3.02098E-03-6.29030E-04-3.69857E-15
 -1      2253 3.16062E-03-6.21010E-04-4.06818E-15
 -1      2254 2.96545E-03-5.95799E-04-3.51160E-15
 -1      2255 3.29914E-03-6.04894E-04-4.45503E-15
 -1      2256 3.43740E-03-5.80075E-04-4.86011E-15
 -1      2257 3.25078E-03-5.81682E-04-4.24612E-15
 -1      2258 3.57529E-03-5.46348E-04-5.28282E-15
 -1      2259 3.71382E-03-5.03817E-04-5.72292E-15
 -1      2260 3.53286E-03-5.32698E-04-5.05188E-15
 -1      2261 3.85286E-03-4.52938E-04-6.17961E-15
 -1      2262 3.99321E-03-3.94501E-04-6.65315E-15
 -1      2263 3.81534E-03-4.46717E-04-5.92747E-15
 -1      2264 4.13472E-03-3.29479E-04-7.14229E-15
 -1      2265 4.27778E-03-2.59059E-04-7.64798E-15
 -1      2266 4.10172E-03-3.27761E-04-6.87072E-15
 -1      2267 4.42222E-03-1.84422E-04-8.17041E-15
 -1      2268 4.56800E-03-1.06770E-04-8.70640E-15
 -1      2269 4.39377E-03-1.84530E-04-7.87924E-15
 -1      2270 4.71499E-03-2.71941E-05-9.25663E-15
 -1      2271 4.86283E-03 5.33633E-05-9.82306E-15
 -1      2272 4.69108E-03-2.73183E-05-8.94937E-15
 -1      2273 5.01149E-03 1.34086E-04-1.04031E-14
 -1      2274 5.16050E-03 2.14385E-04-1.09963E-14
 -1      2275 4.99182E-03 1.34831E-04-1.00778E-14
 -1      2276 5.30991E-03 2.93766E-04-1.16046E-14
 -1      2277 5.45926E-03 3.71958E-04-1.22276E-14
 -1      2278 5.29376E-03 2.95615E-04-1.12640E-14
 -1      2279 5.60867E-03 4.48745E-04-1.28653E-14
 -1      2280 5.75776E-03 5.24074E-04-1.35174E-14
 -1      2281 5.59511E-03 4.51594E-04-1.25066E-14
 -1      2282 5.90668E-03 5.97930E-04-1.41848E-14
 -1      2283 6.05516E-03 6.70383E-04-1.48692E-14
 -1      2284 5.89476E-03 6.01557E-04-1.38088E-14
 -1      2285 6.20333E-03 7.41536E-04-1.55688E-14
 -1      2286 6.35104E-03 8.11510E-04-1.62854E-14
 -1      2287 6.19224E-03 7.45707E-04-1.51735E-14
 -1      2288 6.49839E-03 8.80460E-04-1.70202E-14
 -1      2289 6.64530E-03 9.48517E-04-1.77694E-14
 -1      2290 6.48752E-03 8.84976E-04-1.66036E-14
 -1      2291 6.79183E-03 1.01584E-03-1.85348E-14
 -1      2292 6.93798E-03 1.08255E-03-1.93148E-14
 -1      2293 6.78080E-03 1.02054E-03-1.80997E-14
 -1      2294 7.08378E-03 1.14879E-03-2.01110E-14
 -1      2295 7.22925E-03 1.21466E-03-2.09237E-14
 -1      2296 7.07239E-03 1.15356E-03-1.96571E-14
 -1      2297 7.37441E-03 1.28026E-03-2.17514E-14
 -1      2298 7.51930E-03 1.34567E-03-2.25947E-14
 -1      2299 7.36258E-03 1.28501E-03-2.12773E-14
 -1      2300 7.66392E-03 1.41098E-03-2.34533E-14
 -1      2301 7.80833E-03 1.47623E-03-2.43276E-14
 -1      2302 7.65167E-03 1.41564E-03-2.29612E-14
 -1      2303 7.95251E-03 1.54147E-03-2.52173E-14
 -1      2304 8.09652E-03 1.60675E-03-2.61223E-14
 -1      2305 7.93988E-03 1.54603E-03-2.47065E-14
 -1      2306 8.24036E-03 1.67210E-03-2.70435E-14
 -1      2307 8.38405E-03 1.73753E-03-2.79817E-14
 -1      2308 8.22743E-03 1.67652E-03-2.65152E-14
 -1      2309 8.52761E-03 1.80306E-03-2.89346E-14
 -1      2310 8.67106E-03 1.86870E-03-2.99017E-14
 -1      2311 8.51447E-03 1.80734E-03-2.83873E-14
 -1      2312 8.81441E-03 1.93446E-03-3.08839E-14
 -1      2313 8.95768E-03 2.00034E-03-3.18784E-14
 -1      2314 8.80112E-03 1.93861E-03-3.03186E-14
 -1      2315 9.10086E-03 2.06633E-03-3.28855E-14
 -1      2316 9.24399E-03 2.13244E-03-3.39064E-14
 -1      2317 9.08747E-03 2.07036E-03-3.23054E-14
 -1      2318 9.38706E-03 2.19867E-03-3.49386E-14
 -1      2319 9.53008E-03 2.26500E-03-3.59825E-14
 -1      2320 9.37362E-03 2.20259E-03-3.43446E-14
 -1      2321 9.67306E-03 2.33143E-03-3.70383E-14
 -1      2322 9.81602E-03 2.39795E-03-3.81054E-14
 -1      2323 9.65961E-03 2.33526E-03-3.64291E-14
 -1      2324 9.95894E-03 2.46455E-03-3.91855E-14
 -1      2325 1.01018E-02 2.53124E-03-4.02759E-14
 -1      2326 9.94548E-03 2.46831E-03-3.85629E-14
 -1      2327 1.02447E-02 2.59799E-03-4.13790E-14
 -1      2328 1.03876E-02 2.66481E-03-4.24939E-14
 -1      2329 1.02313E-02 2.60168E-03-4.07455E-14
 -1      2330 1.05304E-02 2.73168E-03-4.36196E-14
 -1      2331 1.06733E-02 2.79861E-03-4.47569E-14
 -1      2332 1.05170E-02 2.73532E-03-4.29743E-14
 -1      2333 1.08161E-02 2.86558E-03-4.59045E-14
 -1      2334 1.09590E-02 2.93260E-03-4.70653E-14
 -1      2335 1.08028E-02 2.86918E-03-4.52494E-14
 -1      2336 1.11018E-02 2.99965E-03-4.82339E-14
 -1      2337 1.12446E-02 3.06673E-03-4.94134E-14
 -1      2338 1.10884E-02 3.00322E-03-4.75663E-14
 -1      2339 1.13875E-02 3.13383E-03-5.06051E-14
 -1      2340 1.15303E-02 3.20096E-03-5.18084E-14
 -1      2341 1.13741E-02 3.13738E-03-4.99258E-14
 -1      2342 1.16731E-02 3.26811E-03-5.30207E-14
 -1      2343 1.18159E-02 3.33527E-03-5.42424E-14
 -1      2344 1.16598E-02 3.27164E-03-5.23295E-14
 -1      2345 1.19588E-02 3.40245E-03-5.54777E-14
 -1      2346 1.21016E-02 3.46964E-03-5.67235E-14
 -1      2347 1.19455E-02 3.40597E-03-5.47730E-14
 -1      2348 1.22444E-02 3.53685E-03-5.79770E-14
 -1      2349 1.23873E-02 3.60406E-03-5.92422E-14
 -1      2350 1.22312E-02 3.54035E-03-5.72568E-14
 -1      2351 1.25301E-02 3.67127E-03-6.05138E-14
 -1      2352 1.26730E-02 3.73849E-03-6.17959E-14
 -1      2353 1.25169E-02 3.67477E-03-5.97785E-14
 -1      2354 1.28158E-02 3.80572E-03-6.30895E-14
 -1      2355 1.29586E-02 3.87294E-03-6.43893E-14
 -1      2356 1.28026E-02 3.80922E-03-6.23366E-14
 -1      2357 1.31015E-02 3.94017E-03-6.56998E-14
 -1      2358 1.32443E-02 4.00740E-03-6.70203E-14
 -1      2359 1.30882E-02 3.94367E-03-6.49338E-14
 -1      2360 1.33872E-02 4.07463E-03-6.83509E-14
 -1      2361 1.35300E-02 4.14185E-03-6.96904E-14
 -1      2362 1.33739E-02 4.07813E-03-6.75700E-14
 -1      2363 2.09792E-03 5.35647E-04-7.43492E-16
 -1      2364 1.91929E-03 4.82555E-04-6.08319E-16
 -1      2365 2.45627E-03 6.80449E-04-1.04188E-15
 -1      2366 2.27409E-03 5.98995E-04-8.85753E-16
 -1      2367 2.07800E-03 5.15695E-04-8.69205E-16
 -1      2368 2.85069E-03 9.10041E-04-1.39609E-15
 -1      2369 2.64943E-03 7.81264E-04-1.21154E-15
 -1      2370 2.42377E-03 6.63240E-04-1.18806E-15
 -1      2371 3.31974E-03 1.26754E-03-1.80257E-15
 -1      2372 3.09861E-03 1.08494E-03-1.58542E-15
 -1      2373 4.23785E-03 1.96301E-03-2.93122E-15
 -1      2374 4.01558E-03 1.85338E-03-2.62225E-15
 -1      2375 4.58234E-03 1.97764E-03-3.47750E-15
 -1      2376 4.39439E-03 1.99596E-03-3.17739E-15
 -1      2377 4.95287E-03 1.82257E-03-4.10839E-15
 -1      2378 4.77430E-03 1.91391E-03-3.78921E-15
 -1      2379 5.42995E-03 1.52763E-03-5.01460E-15
 -1      2380 5.20001E-03 1.65925E-03-4.57071E-15
 -1      2381 5.86832E-03 1.34014E-03-5.96884E-15
 -1      2382 5.65681E-03 1.42095E-03-5.48141E-15
 -1      2383 5.64615E-03 1.37089E-03-5.40810E-15
 -1      2384 6.26130E-03 1.26725E-03-6.99636E-15
 -1      2385 6.07144E-03 1.29217E-03-6.47427E-15
 -1      2386 6.06119E-03 1.23257E-03-6.39435E-15
 -1      2387 6.61823E-03 1.28248E-03-8.08655E-15
 -1      2388 6.44377E-03 1.26640E-03-7.53446E-15
 -1      2389 6.41944E-03 1.20688E-03-7.44850E-15
 -1      2390 6.95317E-03 1.35564E-03-9.23164E-15
 -1      2391 6.78777E-03 1.31351E-03-8.65182E-15
 -1      2392 6.74304E-03 1.25294E-03-8.55864E-15
 -1      2393 7.29117E-03 1.46976E-03-1.04962E-14
 -1      2394 7.12340E-03 1.40909E-03-9.85591E-15
 -1      2395 7.05809E-03 1.34622E-03-9.75289E-15
 -1      2396 7.60474E-03 1.59812E-03-1.17591E-14
 -1      2397 7.44865E-03 1.53217E-03-1.11208E-14
 -1      2398 7.36627E-03 1.46688E-03-1.10069E-14
 -1      2399 7.91236E-03 1.73631E-03-1.30814E-14
 -1      2400 7.75907E-03 1.66634E-03-1.24133E-14
 -1      2401 7.66412E-03 1.59922E-03-1.22902E-14
 -1      2402 8.21523E-03 1.87900E-03-1.44585E-14
 -1      2403 8.06422E-03 1.80730E-03-1.37624E-14
 -1      2404 7.96025E-03 1.73901E-03-1.36308E-14
 -1      2405 8.51423E-03 2.02325E-03-1.58963E-14
 -1      2406 8.36509E-03 1.95105E-03-1.51695E-14
 -1      2407 8.25488E-03 1.88213E-03-1.50283E-14
 -1      2408 8.81007E-03 2.16750E-03-1.73931E-14
 -1      2409 8.66245E-03 2.09544E-03-1.66362E-14
 -1      2410 8.54803E-03 2.02629E-03-1.64859E-14
 -1      2411 9.11800E-03 2.31814E-03-1.90382E-14
 -1      2412 8.96431E-03 2.24296E-03-1.82059E-14
 -1      2413 8.84706E-03 2.17380E-03-1.80456E-14
 -1      2414 9.40925E-03 2.46050E-03-2.06803E-14
 -1      2415 9.26382E-03 2.38947E-03-1.98506E-14
 -1      2416 9.14476E-03 2.32044E-03-1.96790E-14
 -1      2417 9.69897E-03 2.60169E-03-2.23939E-14
 -1      2418 9.55426E-03 2.53125E-03-2.15265E-14
 -1      2419 9.43410E-03 2.46241E-03-2.13433E-14
 -1      2420 9.98754E-03 2.74178E-03-2.41822E-14
 -1      2421 9.84337E-03 2.67188E-03-2.32781E-14
 -1      2422 9.72253E-03 2.60324E-03-2.30798E-14
 -1      2423 1.02752E-02 2.88085E-03-2.60423E-14
 -1      2424 1.01315E-02 2.81144E-03-2.51037E-14
 -1      2425 1.00102E-02 2.74300E-03-2.48907E-14
 -1      2426 1.05623E-02 3.01903E-03-2.79685E-14
 -1      2427 1.04188E-02 2.95005E-03-2.69977E-14
 -1      2428 1.02974E-02 2.88178E-03-2.67707E-14
 -1      2429 1.08632E-02 3.16331E-03-3.00584E-14
 -1      2430 1.07128E-02 3.09127E-03-2.90062E-14
 -1      2431 1.05912E-02 3.02316E-03-2.87646E-14
 -1      2432 1.11494E-02 3.30007E-03-3.21042E-14
 -1      2433 1.10063E-02 3.23176E-03-3.10732E-14
 -1      2434 1.08847E-02 3.16379E-03-3.08199E-14
 -1      2435 1.14354E-02 3.43630E-03-3.42043E-14
 -1      2436 1.12924E-02 3.36824E-03-3.31491E-14
 -1      2437 1.11709E-02 3.30037E-03-3.28795E-14
 -1      2438 1.17213E-02 3.57212E-03-3.63512E-14
 -1      2439 1.15784E-02 3.50426E-03-3.52722E-14
 -1      2440 1.14568E-02 3.43647E-03-3.49907E-14
 -1      2441 1.20070E-02 3.70759E-03-3.85482E-14
 -1      2442 1.18642E-02 3.63989E-03-3.74446E-14
 -1      2443 1.17427E-02 3.57218E-03-3.71511E-14
 -1      2444 1.22927E-02 3.84280E-03-4.07976E-14
 -1      2445 1.21499E-02 3.77523E-03-3.96664E-14
 -1      2446 1.20284E-02 3.70756E-03-3.93609E-14
 -1      2447 1.25927E-02 3.98455E-03-4.32123E-14
 -1      2448 1.24427E-02 3.91370E-03-4.19974E-14
 -1      2449 1.23213E-02 3.84608E-03-4.16803E-14
 -1      2450 1.28783E-02 4.11939E-03-4.55602E-14
 -1      2451 1.27355E-02 4.05199E-03-4.43807E-14
 -1      2452 1.26141E-02 3.98439E-03-4.40511E-14
 -1      2453 1.31639E-02 4.25411E-03-4.79479E-14
 -1      2454 1.30211E-02 4.18676E-03-4.67509E-14
 -1      2455 1.28998E-02 4.11919E-03-4.64104E-14
 -1      2456 1.34496E-02 4.38874E-03-5.03613E-14
 -1      2457 1.33067E-02 4.32144E-03-4.91513E-14
 -1      2458 1.31855E-02 4.25388E-03-4.88057E-14
 -1      2459 1.37352E-02 4.52332E-03-5.27947E-14
 -1      2460 1.35924E-02 4.45604E-03-5.15753E-14
 -1      2461 1.34711E-02 4.38849E-03-5.12249E-14
 -1      2462 1.40209E-02 4.65784E-03-5.52558E-14
 -1      2463 1.38780E-02 4.59058E-03-5.40215E-14
 -1      2464 1.37568E-02 4.52304E-03-5.36723E-14
 -1      2465 1.43208E-02 4.79907E-03-5.78686E-14
 -1      2466 1.41708E-02 4.72846E-03-5.65547E-14
 -1      2467 1.40496E-02 4.66092E-03-5.62068E-14
 -1      2468 1.46065E-02 4.93355E-03-6.03895E-14
 -1      2469 1.44636E-02 4.86631E-03-5.91253E-14
 -1      2470 1.43424E-02 4.79877E-03-5.87695E-14
 -1      2471 1.48922E-02 5.06802E-03-6.29467E-14
 -1      2472 1.47493E-02 5.00078E-03-6.16631E-14
 -1      2473 1.46281E-02 4.93325E-03-6.12995E-14
 -1      2474 1.51779E-02 5.20249E-03-6.55402E-14
 -1      2475 1.50350E-02 5.13526E-03-6.42394E-14
 -1      2476 1.49138E-02 5.06772E-03-6.38664E-14
 -1      2477 1.56097E-02 5.40683E-03-6.94404E-14
 -1      2478 1.50174E-02 5.04107E-03-6.99604E-14
 -1      2479 1.50836E-02 5.08323E-03-6.98217E-14
 -1      2480 1.48852E-02 4.95675E-03-7.02365E-14
 -1      2481 1.49513E-02 4.99891E-03-7.00994E-14
 -1      2482 1.48606E-02 4.96176E-03-6.88976E-14
 -1      2483 1.52798E-02 5.20826E-03-6.93932E-14
 -1      2484 1.53459E-02 5.25042E-03-6.92460E-14
 -1      2485 1.51491E-02 5.12503E-03-6.96823E-14
 -1      2486 1.52142E-02 5.16647E-03-6.95393E-14
 -1      2487 1.51235E-02 5.12932E-03-6.83277E-14
 -1      2488 1.49924E-02 5.04572E-03-6.86155E-14
 -1      2489 1.47529E-02 4.87243E-03-7.05028E-14
 -1      2490 1.48190E-02 4.91459E-03-7.03700E-14
 -1      2491 1.47284E-02 4.87744E-03-6.91720E-14
 -1      2492 1.46207E-02 4.78810E-03-7.07739E-14
 -1      2493 1.46868E-02 4.83026E-03-7.06372E-14
 -1      2494 1.45961E-02 4.79312E-03-6.94393E-14
 -1      2495 1.44885E-02 4.70377E-03-7.10459E-14
 -1      2496 1.45546E-02 4.74594E-03-7.09085E-14
 -1      2497 1.44639E-02 4.70880E-03-6.97042E-14
 -1      2498 1.43585E-02 4.62088E-03-7.13189E-14
 -1      2499 1.44235E-02 4.66233E-03-7.11812E-14
 -1      2500 1.43328E-02 4.62519E-03-6.99711E-14
 -1      2501 1.42264E-02 4.53656E-03-7.16071E-14
 -1      2502 1.42924E-02 4.57872E-03-7.14634E-14
 -1      2503 1.42018E-02 4.54158E-03-7.02451E-14
 -1      2504 1.40942E-02 4.45225E-03-7.18926E-14
 -1      2505 1.41603E-02 4.49441E-03-7.17514E-14
 -1      2506 1.40696E-02 4.45727E-03-7.05260E-14
 -1      2507 1.39620E-02 4.36795E-03-7.21822E-14
 -1      2508 1.40281E-02 4.41010E-03-7.20360E-14
 -1      2509 1.39374E-02 4.37296E-03-7.08058E-14
 -1      2510 6.53430E-03 9.37929E-04-6.86930E-15
 -1      2511 6.52779E-03 9.30688E-04-6.92418E-15
 -1      2512 6.06449E-03 1.10145E-03-5.85120E-15
 -1      2513 6.21315E-03 1.04113E-03-6.09577E-15
 -1      2514 1.74891E-03 4.40937E-04-4.90507E-16
 -1      2515 1.58541E-03 4.06776E-04-3.88321E-16
 -1      2516 1.44152E-03 3.54584E-04-3.83875E-16
 -1      2517 1.39234E-02 4.33027E-03-7.31682E-14
 -1      2518 6.47411E-03 9.16614E-04-6.97356E-15
 -1      2519 6.38023E-03 8.99693E-04-6.97951E-15
 -1      2520 6.36690E-03 9.86425E-04-6.40853E-15
 -1      2521 6.47559E-03 9.58764E-04-6.66813E-15
 -1      2522 6.13198E-04-2.19066E-04-1.92744E-16
 -1      2523 8.15791E-04-2.85906E-04-3.04634E-16
 -1      2524 8.76470E-04-2.71664E-04-3.62395E-16
 -1      2525 6.01249E-04-1.87916E-04-1.98531E-16
 -1      2526 6.23316E-03 8.59520E-04-6.92508E-15
 -1      2527 6.06034E-03 8.10690E-04-6.87696E-15
 -1      2528 3.74240E-03-3.23774E-04-4.29325E-15
 -1      2529 3.59090E-03-3.13215E-04-4.00830E-15
 -1      2530 2.30304E-03 2.46657E-04-2.43048E-15
 -1      2531 2.11472E-03 3.21439E-04-2.29296E-15
 -1      2532 5.16528E-04 2.06611E-05-1.83772E-16
 -1      2533 5.24697E-04 6.17412E-06-1.87797E-16
 -1      2534 6.40754E-04-3.31322E-06-2.57498E-16
 -1      2535 6.19606E-04 3.24060E-05-2.46968E-16
 -1      2536 3.83199E-03 1.71651E-03-2.42457E-15
 -1      2537 2.38011E-03 7.30408E-04-1.85963E-15
 -1      2538 2.57304E-03 8.28368E-04-1.89468E-15
 -1      2539 3.40946E-03 1.39084E-03-2.19327E-15
 -1      2540 3.59166E-03 1.53964E-03-2.30965E-15
 -1      2541 3.42481E-03-2.74781E-04-3.73036E-15
 -1      2542 3.27287E-03-2.15342E-04-3.49259E-15
 -1      2543 2.02860E-03 5.81260E-04-1.80828E-15
 -1      2544 2.19634E-03 6.47451E-04-1.83379E-15
 -1      2545 2.28849E-03 6.61569E-04-1.74855E-15
 -1      2546 1.72658E-03 4.84046E-04-1.78496E-15
 -1      2547 1.84748E-03 5.13415E-04-1.77586E-15
 -1      2548 1.63238E-03 4.62187E-04-1.86162E-15
 -1      2549 1.65346E-03 4.68812E-04-1.83048E-15
 -1      2550 1.71923E-03 4.35210E-04-1.96622E-15
 -1      2551 1.65331E-03 4.44080E-04-1.88691E-15
 -1      2552 1.95042E-03 3.77771E-04-2.17088E-15
 -1      2553 1.82869E-03 4.10983E-04-2.08130E-15
 -1      2554 1.75131E-03 4.07602E-04-1.90563E-15
 -1      2555 2.01381E-03 3.38411E-04-2.13332E-15
 -1      2556 2.68919E-03 6.99631E-05-2.78479E-15
 -1      2557 2.53379E-03 1.44581E-04-2.62979E-15
 -1      2558 4.84815E-03 2.32648E-04-6.13475E-15
 -1      2559 4.66270E-03 1.09228E-04-5.88841E-15
 -1      2560 3.07510E-03-1.25670E-04-3.22199E-15
 -1      2561 2.88611E-03-2.70400E-05-2.99800E-15
 -1      2562 2.79006E-03 8.98183E-07-2.84527E-15
 -1      2563 4.05495E-03-2.49620E-04-4.86715E-15
 -1      2564 3.92123E-03-2.96730E-04-4.62111E-15
 -1      2565 4.44955E-03-2.95473E-05-5.55006E-15
 -1      2566 4.24892E-03-1.53994E-04-5.22493E-15
 -1      2567 4.53301E-03 3.82501E-05-5.87090E-15
 -1      2568 5.38522E-03 5.35000E-04-6.57116E-15
 -1      2569 5.13484E-03 3.99667E-04-6.38591E-15
 -1      2570 5.85128E-03 7.40284E-04-6.82767E-15
 -1      2571 5.64750E-03 6.58302E-04-6.73520E-15
 -1      2572 4.81867E-03 1.85769E-03-3.92671E-15
 -1      2573 5.02242E-03 1.72630E-03-4.25772E-15
 -1      2574 8.22255E-04 2.62779E-04-6.87249E-17
 -1      2575 6.62080E-04 2.22901E-04-3.71068E-17
 -1      2576 6.25187E-04 1.96030E-04-4.65800E-17
 -1      2577 8.64927E-04 2.46741E-04-1.12852E-16
 -1      2578 5.71908E-03 1.28162E-03-5.33860E-15
 -1      2579 5.89882E-03 1.18242E-03-5.59227E-15
 -1      2580 6.00166E-03 1.14370E-03-5.88455E-15
 -1      2581 3.74440E-03 1.63637E-03-2.25307E-15
 -1      2582 6.80367E-04-9.66489E-05-2.71362E-16
 -1      2583 5.64034E-04-9.07477E-05-2.00618E-16
 -1      2584 5.71428E-04-1.14358E-04-2.00862E-16
 -1      2585 1.37507E-02 4.24502E-03-7.18091E-14
 -1      2586 1.38800E-02 4.31983E-03-7.20676E-14
 -1      2587 1.37893E-02 4.28269E-03-7.08308E-14
 -1      2588 1.36253E-02 4.18646E-03-7.05987E-14
 -1      2589 5.97261E-04 1.65700E-04-6.49979E-17
 -1      2590 5.62673E-03 1.35131E-03-5.28019E-15
 -1      2591 6.31498E-03 9.01371E-04-7.23530E-15
 -1      2592 1.36121E-02 4.18997E-03-6.98064E-14
 -1      2593 7.08713E-04 1.83053E-04-1.07594E-16
 -1      2594 2.85201E-03 9.22717E-04-1.55270E-15
 -1      2595 3.51661E-03 1.43715E-03-1.99942E-15
 -1      2596 3.30512E-03 1.27544E-03-1.94330E-15
 -1      2597 2.73530E-03 9.05670E-04-1.86857E-15
 -1      2598 1.55178E-02 5.35451E-03-6.92228E-14
 -1      2599 1.54928E-02 5.35220E-03-6.83304E-14
 -1      2600 1.53500E-02 5.28496E-03-6.70172E-14
 -1      2601 1.54518E-02 5.31480E-03-6.92146E-14
 -1      2602 1.52288E-02 5.21742E-03-6.66344E-14
 -1      2603 1.52950E-02 5.23550E-03-6.81506E-14
 -1      2604 5.96675E-03 8.00980E-04-7.12711E-15
 -1      2605 6.51465E-03 9.41093E-04-7.24302E-15
 -1      2606 6.52920E-03 9.57646E-04-6.98771E-15
 -1      2607 6.56596E-03 9.67892E-04-7.31324E-15
 -1      2608 6.51369E-03 9.80478E-04-7.10725E-15
 -1      2609 6.31412E-03 1.01851E-03-6.46560E-15
 -1      2610 3.15985E-03-1.81061E-04-3.32185E-15
 -1      2611 3.80821E-03-3.18062E-04-4.47334E-15
 -1      2612 3.49283E-03-3.03491E-04-3.86857E-15
 -1      2613 2.38720E-03 1.92246E-04-2.44137E-15
 -1      2614 5.91306E-04-1.59496E-04-2.01919E-16
 -1      2615 1.75428E-03 4.21087E-04-5.99862E-16
 -1      2616 1.62397E-03 4.33945E-04-1.77533E-15
 -1      2617 4.67843E-03 1.92395E-03-3.69011E-15
 -1      2618 1.92520E-03 5.18814E-04-1.69415E-15
 -1      2619 3.27126E-03 1.27152E-03-2.05696E-15
 -1      2620 1.67964E-03 4.55770E-04-1.70733E-15
 -1      2621 4.99419E-03 3.33535E-04-6.47548E-15
 -1      2622 4.15444E-03-1.95185E-04-5.16419E-15
 -1      2623 5.51804E-03 6.17682E-04-6.90443E-15
 -1      2624 8.20664E-04 2.05129E-04-1.50325E-16
 -1      2625 6.89709E-04 9.97855E-05-2.83749E-16
 -1      2626 6.93109E-04 8.98251E-05-2.93832E-16
 -1      2627 7.00348E-04 7.79481E-05-3.03292E-16
 -1      2628 7.10241E-04 6.38518E-05-3.11871E-16
 -1      2629 7.98182E-04 9.88823E-05-3.80162E-16
 -1      2630 7.25809E-04 1.37115E-04-2.30596E-16
 -1      2631 7.08436E-04 1.26282E-04-2.46060E-16
 -1      2632 7.77176E-04 1.67709E-04-1.94763E-16
 -1      2633 7.49011E-04 1.50471E-04-2.13642E-16
 -1      2634 8.42306E-04 1.65763E-04-2.87300E-16
 -1      2635 6.38626E-03 9.35001E-04-7.60744E-15
 -1      2636 6.24654E-03 9.04006E-04-7.54866E-15
 -1      2637 1.35988E-02 4.19347E-03-6.90181E-14
 -1      2638 1.36941E-02 4.23808E-03-6.99216E-14
 -1      2639 1.37761E-02 4.28620E-03-7.00387E-14
 -1      2640 1.38220E-03-3.50396E-04-8.27016E-16
 -1      2641 1.53517E-03-3.77403E-04-9.99824E-16
 -1      2642 1.68868E-03-4.03418E-04-1.18942E-15
 -1      2643 1.84243E-03-4.28580E-04-1.39584E-15
 -1      2644 1.60088E-03-3.48892E-04-1.09254E-15
 -1      2645 1.99643E-03-4.53041E-04-1.61972E-15
 -1      2646 2.15021E-03-4.76558E-04-1.86042E-15
 -1      2647 1.91238E-03-3.97931E-04-1.50325E-15
 -1      2648 2.30372E-03-4.98887E-04-2.11850E-15
 -1      2649 2.45640E-03-5.19249E-04-2.39378E-15
 -1      2650 2.22567E-03-4.45306E-04-1.98153E-15
 -1      2651 2.60809E-03-5.36979E-04-2.68683E-15
 -1      2652 2.75840E-03-5.50739E-04-2.99825E-15
 -1      2653 2.53780E-03-4.88215E-04-2.52806E-15
 -1      2654 2.90709E-03-5.59536E-04-3.32762E-15
 -1      2655 3.05426E-03-5.61732E-04-3.67455E-15
 -1      2656 2.84533E-03-5.19413E-04-3.14572E-15
 -1      2657 3.19970E-03-5.56320E-04-4.03951E-15
 -1      2658 3.34417E-03-5.41950E-04-4.42254E-15
 -1      2659 3.14584E-03-5.27761E-04-3.83562E-15
 -1      2660 3.48756E-03-5.18020E-04-4.82339E-15
 -1      2661 3.63108E-03-4.84091E-04-5.24221E-15
 -1      2662 3.43995E-03-5.01500E-04-4.59746E-15
 -1      2663 3.77465E-03-4.40298E-04-5.67821E-15
 -1      2664 3.91943E-03-3.87338E-04-6.13150E-15
 -1      2665 3.73167E-03-4.33409E-04-5.43074E-15
 -1      2666 4.06529E-03-3.26065E-04-6.60179E-15
 -1      2667 4.21288E-03-2.58006E-04-7.08785E-15
 -1      2668 4.02632E-03-3.24651E-04-6.33402E-15
 -1      2669 4.36195E-03-1.84377E-04-7.59047E-15
 -1      2670 4.51251E-03-1.06892E-04-8.10998E-15
 -1      2671 4.32741E-03-1.84468E-04-7.30507E-15
 -1      2672 4.66428E-03-2.67326E-05-8.64353E-15
 -1      2673 4.81682E-03 5.47348E-05-9.19130E-15
 -1      2674 4.63490E-03-2.58866E-05-8.33844E-15
 -1      2675 4.96997E-03 1.36614E-04-9.75426E-15
 -1      2676 5.12311E-03 2.18084E-04-1.03320E-14
 -1      2677 4.94604E-03 1.39186E-04-9.43282E-15
 -1      2678 5.27623E-03 2.98593E-04-1.09238E-14
 -1      2679 5.42879E-03 3.77804E-04-1.15297E-14
 -1      2680 5.25730E-03 3.02650E-04-1.05852E-14
 -1      2681 5.58089E-03 4.55457E-04-1.21505E-14
 -1      2682 5.73215E-03 5.31530E-04-1.27855E-14
 -1      2683 5.56596E-03 4.60412E-04-1.17955E-14
 -1      2684 5.88275E-03 6.05966E-04-1.34347E-14
 -1      2685 6.03246E-03 6.78902E-04-1.40996E-14
 -1      2686 5.87061E-03 6.11290E-04-1.30629E-14
 -1      2687 6.18147E-03 7.50402E-04-1.47808E-14
 -1      2688 6.32966E-03 8.20655E-04-1.54775E-14
 -1      2689 6.17097E-03 7.55754E-04-1.43901E-14
 -1      2690 6.47722E-03 8.89783E-04-1.61906E-14
 -1      2691 6.62411E-03 9.57972E-04-1.69210E-14
 -1      2692 6.46745E-03 8.94992E-04-1.57812E-14
 -1      2693 6.77046E-03 1.02536E-03-1.76672E-14
 -1      2694 6.91630E-03 1.09210E-03-1.84283E-14
 -1      2695 6.76079E-03 1.03036E-03-1.72363E-14
 -1      2696 7.06171E-03 1.15832E-03-1.92061E-14
 -1      2697 7.20673E-03 1.22414E-03-1.99984E-14
 -1      2698 7.05173E-03 1.16312E-03-1.87566E-14
 -1      2699 7.35142E-03 1.28968E-03-2.08075E-14
 -1      2700 7.49584E-03 1.35500E-03-2.16317E-14
 -1      2701 7.34094E-03 1.29429E-03-2.03400E-14
 -1      2702 7.64001E-03 1.42020E-03-2.24712E-14
 -1      2703 7.78398E-03 1.48534E-03-2.33266E-14
 -1      2704 7.62896E-03 1.42466E-03-2.19847E-14
 -1      2705 7.92776E-03 1.55046E-03-2.41979E-14
 -1      2706 8.07141E-03 1.61562E-03-2.50858E-14
 -1      2707 7.91617E-03 1.55478E-03-2.36919E-14
 -1      2708 8.21492E-03 1.68083E-03-2.59892E-14
 -1      2709 8.35834E-03 1.74613E-03-2.69077E-14
 -1      2710 8.20284E-03 1.68503E-03-2.54647E-14
 -1      2711 8.50165E-03 1.81153E-03-2.78431E-14
 -1      2712 8.64490E-03 1.87705E-03-2.87942E-14
 -1      2713 8.48918E-03 1.81562E-03-2.73015E-14
 -1      2714 8.78807E-03 1.94269E-03-2.97583E-14
 -1      2715 8.93120E-03 2.00845E-03-3.07367E-14
 -1      2716 8.77529E-03 1.94668E-03-2.92007E-14
 -1      2717 9.07427E-03 2.07434E-03-3.17293E-14
 -1      2718 9.21731E-03 2.14035E-03-3.27339E-14
 -1      2719 9.06127E-03 2.07825E-03-3.11546E-14
 -1      2720 9.36031E-03 2.20648E-03-3.37515E-14
 -1      2721 9.50329E-03 2.27272E-03-3.47810E-14
 -1      2722 9.34715E-03 2.21031E-03-3.31615E-14
 -1      2723 9.64624E-03 2.33906E-03-3.58236E-14
 -1      2724 9.78918E-03 2.40551E-03-3.68774E-14
 -1      2725 9.63298E-03 2.34283E-03-3.52193E-14
 -1      2726 9.93209E-03 2.47204E-03-3.79431E-14
 -1      2727 1.00750E-02 2.53867E-03-3.90223E-14
 -1      2728 9.91877E-03 2.47576E-03-3.73261E-14
 -1      2729 1.02179E-02 2.60536E-03-4.01125E-14
 -1      2730 1.03608E-02 2.67213E-03-4.12153E-14
 -1      2731 1.02045E-02 2.60903E-03-3.94816E-14
 -1      2732 1.05036E-02 2.73896E-03-4.23291E-14
 -1      2733 1.06465E-02 2.80585E-03-4.34573E-14
 -1      2734 1.04903E-02 2.74259E-03-4.16871E-14
 -1      2735 1.07894E-02 2.87278E-03-4.45936E-14
 -1      2736 1.09322E-02 2.93977E-03-4.57421E-14
 -1      2737 1.07760E-02 2.87638E-03-4.39399E-14
 -1      2738 1.10751E-02 3.00679E-03-4.69009E-14
 -1      2739 1.12179E-02 3.07384E-03-4.80673E-14
 -1      2740 1.10617E-02 3.01036E-03-4.62355E-14
 -1      2741 1.13608E-02 3.14093E-03-4.92483E-14
 -1      2742 1.15036E-02 3.20804E-03-5.04409E-14
 -1      2743 1.13475E-02 3.14448E-03-4.85721E-14
 -1      2744 1.16465E-02 3.27517E-03-5.16379E-14
 -1      2745 1.17893E-02 3.34232E-03-5.28476E-14
 -1      2746 1.16332E-02 3.27871E-03-5.09502E-14
 -1      2747 1.19322E-02 3.40949E-03-5.40695E-14
 -1      2748 1.20750E-02 3.47667E-03-5.52988E-14
 -1      2749 1.19189E-02 3.41301E-03-5.33665E-14
 -1      2750 1.22179E-02 3.54387E-03-5.65403E-14
 -1      2751 1.23607E-02 3.61107E-03-5.77887E-14
 -1      2752 1.22046E-02 3.54738E-03-5.58244E-14
 -1      2753 1.25036E-02 3.67828E-03-5.90458E-14
 -1      2754 1.26464E-02 3.74550E-03-6.03130E-14
 -1      2755 1.24903E-02 3.68179E-03-5.83180E-14
 -1      2756 1.27893E-02 3.81272E-03-6.15895E-14
 -1      2757 1.29321E-02 3.87995E-03-6.28772E-14
 -1      2758 1.27760E-02 3.81623E-03-6.08484E-14
 -1      2759 1.30750E-02 3.94717E-03-6.41738E-14
 -1      2760 1.32179E-02 4.01440E-03-6.54781E-14
 -1      2761 1.30617E-02 3.95068E-03-6.34154E-14
 -1      2762 1.33369E-02 4.07032E-03-6.65810E-14
 -1      2763 1.34798E-02 4.13755E-03-6.79039E-14
 -1      2764 1.35618E-02 4.18567E-03-6.80212E-14
 -1      2765 1.33237E-02 4.07383E-03-6.58112E-14
 -1      2766 2.37673E-03 6.47393E-04-1.34097E-15
 -1      2767 2.20767E-03 5.63180E-04-1.16423E-15
 -1      2768 2.04937E-03 4.99385E-04-1.00159E-15
 -1      2769 1.89737E-03 4.47184E-04-8.51234E-16
 -1      2770 2.00671E-03 4.82693E-04-1.13768E-15
 -1      2771 1.51229E-02 5.15303E-03-6.66727E-14
 -1      2772 2.62038E-03 8.09230E-04-1.71346E-15
 -1      2773 2.88191E-03 9.73021E-04-1.80686E-15
 -1      2774 1.84743E-03 4.71028E-04-1.55285E-15
 -1      2775 2.01842E-03 5.25274E-04-1.58164E-15
 -1      2776 5.14393E-03 1.66775E-03-4.46695E-15
 -1      2777 5.84275E-03 1.25342E-03-5.75816E-15
 -1      2778 6.83936E-03 1.23537E-03-8.96905E-15
 -1      2779 6.69499E-03 1.19594E-03-8.39941E-15
 -1      2780 7.13754E-03 1.34329E-03-1.02111E-14
 -1      2781 6.98847E-03 1.28584E-03-9.58291E-15
 -1      2782 6.92838E-03 1.22942E-03-9.41117E-15
 -1      2783 7.42144E-03 1.46617E-03-1.14516E-14
 -1      2784 7.27911E-03 1.40281E-03-1.08245E-14
 -1      2785 7.19935E-03 1.34281E-03-1.06405E-14
 -1      2786 7.70714E-03 1.60024E-03-1.27508E-14
 -1      2787 7.56391E-03 1.53210E-03-1.20935E-14
 -1      2788 7.46958E-03 1.46851E-03-1.18963E-14
 -1      2789 7.99443E-03 1.74029E-03-1.41064E-14
 -1      2790 7.85052E-03 1.66970E-03-1.34217E-14
 -1      2791 7.74541E-03 1.60317E-03-1.32115E-14
 -1      2792 8.28267E-03 1.88305E-03-1.55233E-14
 -1      2793 8.13840E-03 1.81144E-03-1.48067E-14
 -1      2794 8.02552E-03 1.74282E-03-1.45852E-14
 -1      2795 8.57125E-03 2.02663E-03-1.69992E-14
 -1      2796 8.42689E-03 1.95480E-03-1.62525E-14
 -1      2797 8.30850E-03 1.88482E-03-1.60178E-14
 -1      2798 8.87416E-03 2.17710E-03-1.86186E-14
 -1      2799 8.72269E-03 2.10194E-03-1.77999E-14
 -1      2800 8.60038E-03 2.03112E-03-1.75524E-14
 -1      2801 9.16232E-03 2.31960E-03-2.02338E-14
 -1      2802 9.01826E-03 2.24847E-03-1.94178E-14
 -1      2803 8.89327E-03 2.17721E-03-1.91568E-14
 -1      2804 9.45008E-03 2.46108E-03-2.19185E-14
 -1      2805 9.30624E-03 2.39047E-03-2.10687E-14
 -1      2806 9.17949E-03 2.31903E-03-2.07918E-14
 -1      2807 9.73743E-03 2.60149E-03-2.36744E-14
 -1      2808 9.59379E-03 2.53142E-03-2.27874E-14
 -1      2809 9.46587E-03 2.45993E-03-2.24955E-14
 -1      2810 1.00244E-02 2.74091E-03-2.55049E-14
 -1      2811 9.88095E-03 2.67132E-03-2.45820E-14
 -1      2812 9.75225E-03 2.59987E-03-2.42721E-14
 -1      2813 1.03110E-02 2.87940E-03-2.73992E-14
 -1      2814 1.01678E-02 2.81026E-03-2.64441E-14
 -1      2815 1.00385E-02 2.73889E-03-2.61188E-14
 -1      2816 1.06117E-02 3.02397E-03-2.94584E-14
 -1      2817 1.04614E-02 2.95179E-03-2.84205E-14
 -1      2818 1.03319E-02 2.88052E-03-2.80768E-14
 -1      2819 1.08979E-02 3.16096E-03-3.14743E-14
 -1      2820 1.07548E-02 3.09255E-03-3.04587E-14
 -1      2821 1.06251E-02 3.02137E-03-3.00997E-14
 -1      2822 1.11839E-02 3.29740E-03-3.35458E-14
 -1      2823 1.10409E-02 3.22925E-03-3.25042E-14
 -1      2824 1.09111E-02 3.15815E-03-3.21299E-14
 -1      2825 1.14698E-02 3.43337E-03-3.56669E-14
 -1      2826 1.13269E-02 3.36544E-03-3.46017E-14
 -1      2827 1.11970E-02 3.29442E-03-3.42120E-14
 -1      2828 1.17557E-02 3.56897E-03-3.78389E-14
 -1      2829 1.16128E-02 3.50121E-03-3.67475E-14
 -1      2830 1.14829E-02 3.43026E-03-3.63453E-14
 -1      2831 1.20414E-02 3.70428E-03-4.00603E-14
 -1      2832 1.18985E-02 3.63666E-03-3.89425E-14
 -1      2833 1.17687E-02 3.56576E-03-3.85264E-14
 -1      2834 1.23414E-02 3.84611E-03-4.24479E-14
 -1      2835 1.21914E-02 3.77522E-03-4.12471E-14
 -1      2836 1.20616E-02 3.70437E-03-4.08159E-14
 -1      2837 1.26271E-02 3.98100E-03-4.47713E-14
 -1      2838 1.24843E-02 3.91358E-03-4.36039E-14
 -1      2839 1.23545E-02 3.84276E-03-4.31598E-14
 -1      2840 1.29128E-02 4.11576E-03-4.71394E-14
 -1      2841 1.27700E-02 4.04840E-03-4.59514E-14
 -1      2842 1.26402E-02 3.97761E-03-4.54948E-14
 -1      2843 1.31985E-02 4.25043E-03-4.95411E-14
 -1      2844 1.30557E-02 4.18311E-03-4.83365E-14
 -1      2845 1.29259E-02 4.11233E-03-4.78707E-14
 -1      2846 1.34842E-02 4.38502E-03-5.19707E-14
 -1      2847 1.33414E-02 4.31773E-03-5.07536E-14
 -1      2848 1.32116E-02 4.24697E-03-5.02793E-14
 -1      2849 1.37699E-02 4.51956E-03-5.44276E-14
 -1      2850 1.36271E-02 4.45230E-03-5.31946E-14
 -1      2851 1.34973E-02 4.38155E-03-5.27176E-14
 -1      2852 1.40699E-02 4.66079E-03-5.70318E-14
 -1      2853 1.39199E-02 4.59018E-03-5.57253E-14
 -1      2854 1.37902E-02 4.51944E-03-5.52415E-14
 -1      2855 1.43556E-02 4.79528E-03-5.95411E-14
 -1      2856 1.42127E-02 4.72804E-03-5.82814E-14
 -1      2857 1.40830E-02 4.65730E-03-5.77944E-14
 -1      2858 1.46413E-02 4.92975E-03-6.20809E-14
 -1      2859 1.44984E-02 4.86251E-03-6.08087E-14
 -1      2860 1.43687E-02 4.79178E-03-6.03137E-14
 -1      2861 1.49270E-02 5.06422E-03-6.46551E-14
 -1      2862 1.47841E-02 4.99699E-03-6.33643E-14
 -1      2863 1.46544E-02 4.92625E-03-6.28615E-14
 -1      2864 1.44393E-02 4.71382E-03-6.83718E-14
 -1      2865 1.45055E-02 4.75598E-03-6.82411E-14
 -1      2866 1.47038E-02 4.88246E-03-6.78354E-14
 -1      2867 1.47700E-02 4.92462E-03-6.76935E-14
 -1      2868 1.43071E-02 4.62949E-03-6.86359E-14
 -1      2869 1.43732E-02 4.67165E-03-6.85046E-14
 -1      2870 1.42826E-02 4.63451E-03-6.73092E-14
 -1      2871 1.45716E-02 4.79814E-03-6.81065E-14
 -1      2872 1.46377E-02 4.84030E-03-6.79712E-14
 -1      2873 1.45470E-02 4.80315E-03-6.67761E-14
 -1      2874 1.44148E-02 4.71883E-03-6.70460E-14
 -1      2875 6.08552E-03 8.57729E-04-7.49218E-15
 -1      2876 5.90133E-03 7.96907E-04-7.43683E-15
 -1      2877 6.19105E-03 8.99901E-04-7.86446E-15
 -1      2878 1.41772E-02 4.54660E-03-6.88962E-14
 -1      2879 1.42421E-02 4.58805E-03-6.87657E-14
 -1      2880 1.41515E-02 4.55090E-03-6.75672E-14
 -1      2881 1.40450E-02 4.46228E-03-6.91712E-14
 -1      2882 1.41111E-02 4.50444E-03-6.90338E-14
 -1      2883 1.40204E-02 4.46730E-03-6.78287E-14
 -1      2884 1.39128E-02 4.37797E-03-6.94432E-14
 -1      2885 1.39789E-02 4.42012E-03-6.93073E-14
 -1      2886 1.38882E-02 4.38298E-03-6.80970E-14
 -1      2887 1.38422E-02 4.32835E-03-6.99012E-14
 -1      2888 4.59828E-03 9.23157E-05-6.21057E-15
 -1      2889 4.41231E-03-3.06880E-05-5.86234E-15
 -1      2890 1.45139E-03 3.36853E-04-4.73580E-16
 -1      2891 1.30656E-03 3.08665E-04-3.75269E-16
 -1      2892 3.21337E-03-2.29894E-04-3.40612E-15
 -1      2893 3.04270E-03-1.50484E-04-3.14087E-15
 -1      2894 6.26327E-03 1.06104E-03-6.55565E-15
 -1      2895 6.40279E-03 1.02069E-03-6.87947E-15
 -1      2896 8.19561E-04-2.26238E-04-3.36862E-16
 -1      2897 9.57972E-04-2.63557E-04-4.35592E-16
 -1      2898 3.54186E-03-3.26418E-04-4.01076E-15
 -1      2899 3.40040E-03-2.94489E-04-3.73350E-15
 -1      2900 6.73522E-04-1.58040E-04-2.54110E-16
 -1      2901 6.29910E-03 1.13369E-03-6.94566E-15
 -1      2902 6.13251E-03 1.15059E-03-6.42486E-15
 -1      2903 3.06892E-03 1.09819E-03-1.86132E-15
 -1      2904 1.09344E-03-2.93543E-04-5.46953E-16
 -1      2905 1.24521E-03-3.23441E-04-6.87167E-16
 -1      2906 1.30861E-03-2.98705E-04-7.65840E-16
 -1      2907 1.03600E-03-2.46236E-04-5.12231E-16
 -1      2908 1.49932E-02 5.08230E-03-6.61567E-14
 -1      2909 2.44556E-03 1.29504E-04-2.41524E-15
 -1      2910 2.24615E-03 2.16665E-04-2.22863E-15
 -1      2911 6.55741E-03 9.62902E-04-7.53312E-15
 -1      2912 6.50051E-03 9.56135E-04-7.58136E-15
 -1      2913 1.74745E-03 4.04526E-04-7.12782E-16
 -1      2914 1.59812E-03 3.68345E-04-5.85429E-16
 -1      2915 1.45590E-03 3.23320E-04-5.69274E-16
 -1      2916 1.72923E-03 3.90320E-04-8.28493E-16
 -1      2917 6.96744E-04 1.17250E-04-2.59680E-16
 -1      2918 6.90625E-04 1.08639E-04-2.72284E-16
 -1      2919 7.88145E-04 1.22776E-04-3.54765E-16
 -1      2920 8.01453E-04 1.42266E-04-3.24204E-16
 -1      2921 3.87149E-03-3.05189E-04-4.69140E-15
 -1      2922 3.71668E-03-3.31398E-04-4.36072E-15
 -1      2923 7.74168E-04-4.21873E-05-3.45305E-16
 -1      2924 7.86148E-04-6.95366E-05-3.49804E-16
 -1      2925 2.21602E-03 6.07974E-04-1.63648E-15
 -1      2926 2.38416E-03 6.82355E-04-1.65807E-15
 -1      2927 2.52294E-03 7.42769E-04-1.60016E-15
 -1      2928 2.09904E-03 5.42568E-04-1.49631E-15
 -1      2929 5.14707E-03 4.35760E-04-6.87502E-15
 -1      2930 4.89494E-03 2.81645E-04-6.60972E-15
 -1      2931 4.23381E-03-1.40445E-04-5.48108E-15
 -1      2932 4.06450E-03-2.33635E-04-5.11459E-15
 -1      2933 4.31442E-03-8.87450E-05-5.80414E-15
 -1      2934 1.62908E-03 4.28894E-04-1.62137E-15
 -1      2935 1.69520E-03 4.35569E-04-1.57866E-15
 -1      2936 2.84971E-03-5.83671E-05-2.87890E-15
 -1      2937 2.67839E-03 2.63274E-05-2.67238E-15
 -1      2938 5.65186E-03 6.95033E-04-7.29667E-15
 -1      2939 5.41935E-03 5.83317E-04-7.12234E-15
 -1      2940 1.60744E-03 4.09621E-04-1.66593E-15
 -1      2941 1.59977E-03 4.19760E-04-1.64464E-15
 -1      2942 1.02514E-03 2.55130E-04-2.19849E-16
 -1      2943 8.66232E-04 1.98781E-04-2.04101E-16
 -1      2944 9.62863E-04 2.11192E-04-2.78301E-16
 -1      2945 1.17116E-03 2.83085E-04-2.93995E-16
 -1      2946 7.97526E-04-9.84454E-05-3.53233E-16
 -1      2947 8.08333E-04-1.28738E-04-3.55673E-16
 -1      2948 9.15009E-04-9.63265E-05-4.45878E-16
 -1      2949 8.23543E-04 6.53003E-05-4.01521E-16
 -1      2950 7.22194E-04 4.72930E-05-3.19785E-16
 -1      2951 7.35059E-04 2.83016E-05-3.27212E-16
 -1      2952 6.46356E-03 9.62719E-04-7.89988E-15
 -1      2953 2.93201E-03 9.88913E-04-1.70198E-15
 -1      2954 2.68417E-03 8.17317E-04-1.50699E-15
 -1      2955 1.66766E-03 4.04173E-04-1.39254E-15
 -1      2956 1.74948E-03 4.32473E-04-1.47191E-15
 -1      2957 1.80958E-03 4.34727E-04-1.36710E-15
 -1      2958 3.61393E-03-3.37991E-04-4.21232E-15
 -1      2959 6.59274E-03 9.80410E-04-7.65450E-15
 -1      2960 6.60801E-03 9.96381E-04-7.99854E-15
 -1      2961 6.61385E-03 9.98484E-04-7.77619E-15
 -1      2962 2.91595E-03-1.22948E-04-2.95426E-15
 -1      2963 5.30250E-03 5.22888E-04-7.26100E-15
 -1      2964 4.90747E-03 2.88108E-04-6.99362E-15
 -1      2965 4.75289E-03 1.93232E-04-6.59719E-15
 -1      2966 4.63646E-03 1.13504E-04-6.57989E-15
 -1      2967 5.80137E-03 7.63002E-04-7.66130E-15
 -1      2968 2.13163E-03 2.13923E-04-2.04592E-15
 -1      2969 2.07660E-03 2.78318E-04-2.07158E-15
 -1      2970 1.46788E-02 4.88711E-03-6.65018E-14
 -1      2971 1.48356E-02 4.96642E-03-6.75565E-14
 -1      2972 1.49012E-02 5.00822E-03-6.74141E-14
 -1      2973 1.49144E-02 5.02436E-03-6.68606E-14
 -1      2974 1.49800E-02 5.06615E-03-6.67147E-14
 -1      2975 1.47841E-02 4.97735E-03-6.47045E-14
 -1      2976 1.47576E-02 4.94506E-03-6.58106E-14
 -1      2977 3.27496E-03-2.73896E-04-3.53572E-15
 -1      2978 1.37515E-02 4.29120E-03-6.86797E-14
 -1      2979 1.93488E-03 3.26627E-04-1.95988E-15
 -1      2980 6.49024E-03 1.01227E-03-7.20310E-15
 -1      2981 6.56303E-03 1.01595E-03-7.53063E-15
 -1      2982 6.46888E-03 1.05065E-03-7.29712E-15
 -1      2983 1.19100E-03 2.69679E-04-3.67788E-16
 -1      2984 7.93828E-04-1.68155E-04-3.35886E-16
 -1      2985 6.40909E-03 1.16035E-03-7.36023E-15
 -1      2986 6.45661E-03 1.09321E-03-7.38971E-15
 -1      2987 6.55056E-03 1.08851E-03-7.72188E-15
 -1      2988 6.56429E-03 1.17637E-03-7.90680E-15
 -1      2989 7.48387E-04 6.94287E-06-3.33731E-16
 -1      2990 7.61492E-04-1.66333E-05-3.39870E-16
 -1      2991 8.86840E-04-3.40170E-05-4.34508E-16
 -1      2992 8.55324E-04 2.05799E-05-4.19491E-16
 -1      2993 2.51120E-03 6.33501E-05-2.44364E-15
 -1      2994 2.46610E-03 6.97435E-04-1.45977E-15
 -1      2995 1.63050E-03 3.90931E-04-1.66087E-15
 -1      2996 1.57272E-03 3.79513E-04-1.53496E-15
 -1      2997 1.81444E-03 3.62614E-04-1.86048E-15
 -1      2998 1.70774E-03 3.80351E-04-1.75482E-15
 -1      2999 1.66150E-03 3.53242E-04-1.61739E-15
 -1      3000 1.85993E-03 3.05558E-04-1.80177E-15
 -1      3001 2.22614E-03 5.84198E-04-1.42667E-15
 -1      3002 1.58691E-03 4.01362E-04-1.51841E-15
 -1      3003 6.67445E-03 1.15165E-03-8.30419E-15
 -1      3004 3.96158E-03-2.72005E-04-4.98915E-15
 -1      3005 1.39952E-02 4.47196E-03-6.65031E-14
 -1      3006 1.40602E-02 4.51340E-03-6.63774E-14
 -1      3007 9.63112E-04 1.95654E-04-3.48923E-16
 -1      3008 9.31459E-04 1.80674E-04-3.73006E-16
 -1      3009 1.82577E-03-3.41772E-04-1.38930E-15
 -1      3010 1.98439E-03-3.65391E-04-1.60980E-15
 -1      3011 2.14398E-03-3.89165E-04-1.84711E-15
 -1      3012 2.30374E-03-4.12718E-04-2.10120E-15
 -1      3013 2.05808E-03-3.31245E-04-1.71613E-15
 -1      3014 2.46348E-03-4.35681E-04-2.37263E-15
 -1      3015 2.62230E-03-4.56766E-04-2.66101E-15
 -1      3016 2.38400E-03-3.79488E-04-2.22015E-15
 -1      3017 2.77985E-03-4.75110E-04-2.96747E-15
 -1      3018 2.93554E-03-4.88563E-04-3.29221E-15
 -1      3019 2.70925E-03-4.25827E-04-2.79280E-15
 -1      3020 3.08895E-03-4.95891E-04-3.63431E-15
 -1      3021 3.24046E-03-4.94533E-04-3.99473E-15
 -1      3022 3.02799E-03-4.59027E-04-3.43608E-15
 -1      3023 3.38981E-03-4.83389E-04-4.37366E-15
 -1      3024 3.53842E-03-4.60891E-04-4.77073E-15
 -1      3025 3.33702E-03-4.61995E-04-4.15248E-15
 -1      3026 3.68619E-03-4.26635E-04-5.18564E-15
 -1      3027 3.83496E-03-3.80823E-04-5.61828E-15
 -1      3028 3.63897E-03-4.19035E-04-4.94254E-15
 -1      3029 3.98462E-03-3.24131E-04-6.06856E-15
 -1      3030 4.13645E-03-2.58450E-04-6.53617E-15
 -1      3031 3.94132E-03-3.24599E-04-5.80480E-15
 -1      3032 4.29013E-03-1.85127E-04-7.01965E-15
 -1      3033 4.44585E-03-1.06773E-04-7.51994E-15
 -1      3034 4.25103E-03-1.87168E-04-6.73691E-15
 -1      3035 4.60321E-03-2.47657E-05-8.03590E-15
 -1      3036 4.76153E-03 5.87685E-05-8.56677E-15
 -1      3037 4.56971E-03-2.42218E-05-7.73436E-15
 -1      3038 4.92050E-03 1.42807E-04-9.11319E-15
 -1      3039 5.07920E-03 2.26126E-04-9.67329E-15
 -1      3040 4.89358E-03 1.46923E-04-8.79457E-15
 -1      3041 5.23751E-03 3.08147E-04-1.02488E-14
 -1      3042 5.39469E-03 3.88461E-04-1.08385E-14
 -1      3043 5.21698E-03 3.14879E-04-9.91363E-15
 -1      3044 5.55081E-03 4.66822E-04-1.14410E-14
 -1      3045 5.70540E-03 5.43296E-04-1.20597E-14
 -1      3046 5.53551E-03 4.74709E-04-1.10902E-14
 -1      3047 5.85870E-03 6.17840E-04-1.26920E-14
 -1      3048 6.01047E-03 6.90722E-04-1.33385E-14
 -1      3049 5.84710E-03 6.25739E-04-1.23224E-14
 -1      3050 6.16099E-03 7.61999E-04-1.40021E-14
 -1      3051 6.31020E-03 8.31981E-04-1.46799E-14
 -1      3052 6.15160E-03 7.69286E-04-1.36148E-14
 -1      3053 6.45836E-03 9.00766E-04-1.53729E-14
 -1      3054 6.60551E-03 9.68623E-04-1.60830E-14
 -1      3055 6.45000E-03 9.07231E-04-1.49680E-14
 -1      3056 6.75184E-03 1.03566E-03-1.68097E-14
 -1      3057 6.89744E-03 1.10209E-03-1.75514E-14
 -1      3058 6.74366E-03 1.04134E-03-1.63847E-14
 -1      3059 7.04247E-03 1.16801E-03-1.83101E-14
 -1      3060 7.18699E-03 1.23358E-03-1.90849E-14
 -1      3061 7.03395E-03 1.17305E-03-1.78663E-14
 -1      3062 7.33112E-03 1.29887E-03-1.98735E-14
 -1      3063 7.47494E-03 1.36398E-03-2.06790E-14
 -1      3064 7.32199E-03 1.30343E-03-1.94114E-14
 -1      3065 7.61850E-03 1.42900E-03-2.15014E-14
 -1      3066 7.76186E-03 1.49397E-03-2.23370E-14
 -1      3067 7.60864E-03 1.43323E-03-2.10193E-14
 -1      3068 7.90507E-03 1.55895E-03-2.31890E-14
 -1      3069 8.04817E-03 1.62397E-03-2.40586E-14
 -1      3070 7.89449E-03 1.56296E-03-2.26900E-14
 -1      3071 8.19119E-03 1.68907E-03-2.49431E-14
 -1      3072 8.33414E-03 1.75426E-03-2.58439E-14
 -1      3073 8.17995E-03 1.69294E-03-2.44243E-14
 -1      3074 8.47704E-03 1.81956E-03-2.67623E-14
 -1      3075 8.61993E-03 1.88499E-03-2.76948E-14
 -1      3076 8.46526E-03 1.82335E-03-2.62235E-14
 -1      3077 8.76278E-03 1.95055E-03-2.86425E-14
 -1      3078 8.90563E-03 2.01623E-03-2.96050E-14
 -1      3079 8.75054E-03 1.95428E-03-2.80879E-14
 -1      3080 9.04847E-03 2.08205E-03-3.05813E-14
 -1      3081 9.19131E-03 2.14800E-03-3.15715E-14
 -1      3082 9.03588E-03 2.08574E-03-3.00093E-14
 -1      3083 9.33414E-03 2.21406E-03-3.25738E-14
 -1      3084 9.47698E-03 2.28025E-03-3.35881E-14
 -1      3085 9.32129E-03 2.21772E-03-3.19875E-14
 -1      3086 9.61983E-03 2.34654E-03-3.46167E-14
 -1      3087 9.76267E-03 2.41294E-03-3.56585E-14
 -1      3088 9.60679E-03 2.35018E-03-3.40179E-14
 -1      3089 9.90552E-03 2.47943E-03-3.67106E-14
 -1      3090 1.00484E-02 2.54601E-03-3.77747E-14
 -1      3091 9.89236E-03 2.48304E-03-3.60973E-14
 -1      3092 1.01912E-02 2.61267E-03-3.88533E-14
 -1      3093 1.03341E-02 2.67940E-03-3.99437E-14
 -1      3094 1.01780E-02 2.61626E-03-3.82260E-14
 -1      3095 1.04769E-02 2.74620E-03-4.10458E-14
 -1      3096 1.06198E-02 2.81305E-03-4.21617E-14
 -1      3097 1.04637E-02 2.74978E-03-4.04073E-14
 -1      3098 1.07627E-02 2.87996E-03-4.32876E-14
 -1      3099 1.09055E-02 2.94692E-03-4.44236E-14
 -1      3100 1.07494E-02 2.88353E-03-4.26360E-14
 -1      3101 1.10484E-02 3.01392E-03-4.55713E-14
 -1      3102 1.11913E-02 3.08096E-03-4.67291E-14
 -1      3103 1.10351E-02 3.01748E-03-4.49089E-14
 -1      3104 1.13341E-02 3.14802E-03-4.78977E-14
 -1      3105 1.14770E-02 3.21512E-03-4.90767E-14
 -1      3106 1.13208E-02 3.15157E-03-4.72242E-14
 -1      3107 1.16199E-02 3.28224E-03-5.02641E-14
 -1      3108 1.17627E-02 3.34938E-03-5.14604E-14
 -1      3109 1.16065E-02 3.28577E-03-4.95789E-14
 -1      3110 1.19056E-02 3.41654E-03-5.26689E-14
 -1      3111 1.20485E-02 3.48371E-03-5.38856E-14
 -1      3112 1.18923E-02 3.42006E-03-5.19742E-14
 -1      3113 1.21913E-02 3.55090E-03-5.51124E-14
 -1      3114 1.23342E-02 3.61810E-03-5.63484E-14
 -1      3115 1.21780E-02 3.55442E-03-5.44048E-14
 -1      3116 1.24770E-02 3.68530E-03-5.75949E-14
 -1      3117 1.26199E-02 3.75251E-03-5.88471E-14
 -1      3118 1.24638E-02 3.68882E-03-5.68724E-14
 -1      3119 1.27628E-02 3.81973E-03-6.01075E-14
 -1      3120 1.29056E-02 3.88696E-03-6.13793E-14
 -1      3121 1.27495E-02 3.82324E-03-5.93737E-14
 -1      3122 1.30485E-02 3.95418E-03-6.26644E-14
 -1      3123 1.31914E-02 4.02141E-03-6.39558E-14
 -1      3124 1.30352E-02 3.95769E-03-6.19144E-14
 -1      3125 3.67825E-03-3.42683E-04-4.43059E-15
 -1      3126 3.51917E-03-3.44143E-04-4.07754E-15
 -1      3127 6.54124E-03 9.89592E-04-8.20976E-15
 -1      3128 6.43261E-03 9.70318E-04-8.23229E-15
 -1      3129 7.51048E-03 1.47361E-03-1.23428E-14
 -1      3130 7.37921E-03 1.40897E-03-1.16988E-14
 -1      3131 7.25067E-03 1.34700E-03-1.10692E-14
 -1      3132 7.12442E-03 1.28761E-03-1.04552E-14
 -1      3133 7.29188E-03 1.35354E-03-1.14996E-14
 -1      3134 6.99547E-03 1.22941E-03-9.82520E-15
 -1      3135 6.86889E-03 1.17572E-03-9.21004E-15
 -1      3136 7.04751E-03 1.23424E-03-1.02399E-14
 -1      3137 7.77882E-03 1.60783E-03-1.36727E-14
 -1      3138 7.64363E-03 1.53989E-03-1.30005E-14
 -1      3139 7.54449E-03 1.47997E-03-1.27891E-14
 -1      3140 8.05339E-03 1.74648E-03-1.50643E-14
 -1      3141 7.91538E-03 1.67669E-03-1.43607E-14
 -1      3142 7.80755E-03 1.61320E-03-1.41370E-14
 -1      3143 8.33225E-03 1.88735E-03-1.65173E-14
 -1      3144 8.19234E-03 1.81670E-03-1.57831E-14
 -1      3145 8.07812E-03 1.75057E-03-1.55464E-14
 -1      3146 8.62808E-03 2.03609E-03-1.81117E-14
 -1      3147 8.47982E-03 1.96166E-03-1.73053E-14
 -1      3148 8.36086E-03 1.89366E-03-1.70571E-14
 -1      3149 8.91161E-03 2.17768E-03-1.96961E-14
 -1      3150 8.76965E-03 2.10692E-03-1.88944E-14
 -1      3151 8.64728E-03 2.03769E-03-1.86323E-14
 -1      3152 9.19619E-03 2.31870E-03-2.13498E-14
 -1      3153 9.05378E-03 2.24827E-03-2.05142E-14
 -1      3154 8.92906E-03 2.17828E-03-2.02371E-14
 -1      3155 9.48139E-03 2.45895E-03-2.30737E-14
 -1      3156 9.33872E-03 2.38893E-03-2.22037E-14
 -1      3157 9.21234E-03 2.31847E-03-2.19097E-14
 -1      3158 9.76693E-03 2.59836E-03-2.48687E-14
 -1      3159 9.62412E-03 2.52876E-03-2.39621E-14
 -1      3160 9.49658E-03 2.45804E-03-2.36534E-14
 -1      3161 1.00526E-02 2.73694E-03-2.67314E-14
 -1      3162 9.90977E-03 2.66775E-03-2.57929E-14
 -1      3163 9.78142E-03 2.59689E-03-2.54665E-14
 -1      3164 1.03527E-02 2.88165E-03-2.87555E-14
 -1      3165 1.02027E-02 2.80940E-03-2.77347E-14
 -1      3166 1.00738E-02 2.73847E-03-2.73935E-14
 -1      3167 1.06386E-02 3.01878E-03-3.07413E-14
 -1      3168 1.04956E-02 2.95029E-03-2.97417E-14
 -1      3169 1.03664E-02 2.87935E-03-2.93838E-14
 -1      3170 1.09244E-02 3.15535E-03-3.27838E-14
 -1      3171 1.07815E-02 3.08713E-03-3.17549E-14
 -1      3172 1.06520E-02 3.01619E-03-3.13830E-14
 -1      3173 1.12102E-02 3.29144E-03-3.48773E-14
 -1      3174 1.10673E-02 3.22345E-03-3.38247E-14
 -1      3175 1.09376E-02 3.15254E-03-3.34379E-14
 -1      3176 1.14960E-02 3.42715E-03-3.70221E-14
 -1      3177 1.13531E-02 3.35934E-03-3.59446E-14
 -1      3178 1.12233E-02 3.28845E-03-3.55452E-14
 -1      3179 1.17817E-02 3.56254E-03-3.92142E-14
 -1      3180 1.16389E-02 3.49488E-03-3.81109E-14
 -1      3181 1.15091E-02 3.42402E-03-3.77002E-14
 -1      3182 1.20818E-02 3.70444E-03-4.15748E-14
 -1      3183 1.19318E-02 3.63352E-03-4.03867E-14
 -1      3184 1.18020E-02 3.56269E-03-3.99602E-14
 -1      3185 1.23675E-02 3.83939E-03-4.38724E-14
 -1      3186 1.22247E-02 3.77194E-03-4.27177E-14
 -1      3187 1.20949E-02 3.70113E-03-4.22757E-14
 -1      3188 1.26533E-02 3.97420E-03-4.62187E-14
 -1      3189 1.25104E-02 3.90681E-03-4.50399E-14
 -1      3190 1.23806E-02 3.83602E-03-4.45866E-14
 -1      3191 1.29390E-02 4.10889E-03-4.86002E-14
 -1      3192 1.27961E-02 4.04156E-03-4.74062E-14
 -1      3193 1.26664E-02 3.97078E-03-4.69435E-14
 -1      3194 1.32247E-02 4.24351E-03-5.10174E-14
 -1      3195 1.30819E-02 4.17621E-03-4.98042E-14
 -1      3196 1.29521E-02 4.10545E-03-4.93334E-14
 -1      3197 1.35104E-02 4.37807E-03-5.34625E-14
 -1      3198 1.33676E-02 4.31079E-03-5.22373E-14
 -1      3199 1.32378E-02 4.24004E-03-5.17572E-14
 -1      3200 1.38104E-02 4.51931E-03-5.60583E-14
 -1      3201 1.36604E-02 4.44869E-03-5.47566E-14
 -1      3202 1.35307E-02 4.37795E-03-5.42709E-14
 -1      3203 1.40962E-02 4.65380E-03-5.85577E-14
 -1      3204 1.39533E-02 4.58656E-03-5.73054E-14
 -1      3205 1.38236E-02 4.51582E-03-5.68133E-14
 -1      3206 1.43819E-02 4.78828E-03-6.10867E-14
 -1      3207 1.42390E-02 4.72104E-03-5.98194E-14
 -1      3208 1.41093E-02 4.65030E-03-5.93224E-14
 -1      3209 1.46544E-02 4.91643E-03-6.35247E-14
 -1      3210 1.45115E-02 4.84920E-03-6.22468E-14
 -1      3211 1.43818E-02 4.77846E-03-6.17431E-14
 -1      3212 1.46412E-02 4.90029E-03-6.40779E-14
 -1      3213 2.16011E-03 1.57558E-04-2.01340E-15
 -1      3214 2.01188E-03 2.10705E-04-1.86704E-15
 -1      3215 3.31597E-03-3.14715E-04-3.66257E-15
 -1      3216 3.14841E-03-2.60493E-04-3.34018E-15
 -1      3217 1.41263E-02 4.55556E-03-6.62473E-14
 -1      3218 1.41924E-02 4.59773E-03-6.61186E-14
 -1      3219 1.39701E-02 4.47662E-03-6.51889E-14
 -1      3220 1.37315E-02 4.30368E-03-6.70237E-14
 -1      3221 1.37975E-02 4.34584E-03-6.68932E-14
 -1      3222 2.03705E-03 5.08200E-04-1.37820E-15
 -1      3223 5.94713E-03 8.25380E-04-8.09200E-15
 -1      3224 5.72545E-03 7.33669E-04-7.94324E-15
 -1      3225 5.46381E-03 6.06945E-04-7.75962E-15
 -1      3226 5.22300E-03 4.74856E-04-7.49771E-15
 -1      3227 2.95625E-03-1.81411E-04-3.01438E-15
 -1      3228 2.78512E-03-1.02821E-04-2.75985E-15
 -1      3229 4.02961E-03-2.40776E-04-5.26712E-15
 -1      3230 3.85424E-03-3.08111E-04-4.83836E-15
 -1      3231 3.75280E-03-3.33937E-04-4.68836E-15
 -1      3232 9.14886E-04-1.73999E-04-4.29073E-16
 -1      3233 5.99314E-03 1.17626E-03-6.02417E-15
 -1      3234 1.36113E-02 4.21986E-03-6.77432E-14
 -1      3235 1.36820E-02 4.26948E-03-6.72976E-14
 -1      3236 1.35913E-02 4.23234E-03-6.60967E-14
 -1      3237 1.34922E-02 4.16394E-03-6.66401E-14
 -1      3238 1.38633E-02 4.38782E-03-6.67659E-14
 -1      3239 1.39294E-02 4.42998E-03-6.66333E-14
 -1      3240 1.38382E-02 4.39248E-03-6.54456E-14
 -1      3241 1.37066E-02 4.30852E-03-6.57000E-14
 -1      3242 2.57141E-03-1.52475E-05-2.47380E-15
 -1      3243 2.36538E-03 7.10969E-05-2.22912E-15
 -1      3244 1.53016E-03 3.51982E-04-1.40790E-15
 -1      3245 1.53051E-03 3.66326E-04-1.41368E-15
 -1      3246 4.35885E-03-6.14372E-05-6.09383E-15
 -1      3247 4.19715E-03-1.56713E-04-5.70685E-15
 -1      3248 6.28896E-03 9.36017E-04-8.24080E-15
 -1      3249 6.14403E-03 8.94495E-04-8.17896E-15
 -1      3250 1.51202E-03-2.94784E-04-9.98604E-16
 -1      3251 1.66814E-03-3.18290E-04-1.18578E-15
 -1      3252 1.73650E-03-2.85584E-04-1.27892E-15
 -1      3253 1.54320E-03 3.75314E-04-1.39486E-15
 -1      3254 1.57939E-03 3.81523E-04-1.37409E-15
 -1      3255 1.49448E-03 3.47547E-04-1.27548E-15
 -1      3256 6.76636E-03 1.14091E-03-8.70361E-15
 -1      3257 6.66035E-03 1.11129E-03-8.20758E-15
 -1      3258 6.83671E-03 1.13949E-03-9.10531E-15
 -1      3259 1.11926E-03 2.45279E-04-3.67301E-16
 -1      3260 1.02165E-03 2.14432E-04-3.53992E-16
 -1      3261 1.10657E-03 2.27649E-04-4.51408E-16
 -1      3262 1.24171E-03 2.69721E-04-4.58848E-16
 -1      3263 8.94498E-04 1.22909E-04-4.64730E-16
 -1      3264 9.06961E-04 1.06520E-04-4.78770E-16
 -1      3265 1.86111E-03 4.41584E-04-1.28404E-15
 -1      3266 1.96025E-03 4.70151E-04-1.22063E-15
 -1      3267 1.83153E-03 4.21697E-04-1.05444E-15
 -1      3268 1.75180E-03 4.05942E-04-1.21139E-15
 -1      3269 9.23380E-04 8.69699E-05-4.91713E-16
 -1      3270 9.41830E-04 6.41411E-05-5.03612E-16
 -1      3271 1.02088E-03 1.11704E-04-5.89874E-16
 -1      3272 2.62216E-03-8.28817E-05-2.52535E-15
 -1      3273 1.60247E-03 3.75320E-04-1.27565E-15
 -1      3274 1.01685E-03 1.96695E-04-4.71086E-16
 -1      3275 9.07836E-04 1.68887E-04-3.94772E-16
 -1      3276 8.92881E-04 1.58159E-04-4.14667E-16
 -1      3277 6.39899E-03 9.71014E-04-8.55379E-15
 -1      3278 3.38860E-03-3.44229E-04-3.86084E-15
 -1      3279 1.04809E-03-1.97118E-04-5.38306E-16
 -1      3280 1.33732E-02 4.10802E-03-6.55405E-14
 -1      3281 1.66129E-03 3.18009E-04-1.54476E-15
 -1      3282 1.58317E-03 3.29784E-04-1.45925E-15
 -1      3283 5.08128E-03 3.86776E-04-7.47885E-15
 -1      3284 4.95756E-03 3.01411E-04-7.45591E-15
 -1      3285 5.25046E-03 4.72785E-04-7.97646E-15
 -1      3286 1.45223E-02 4.80799E-03-6.54504E-14
 -1      3287 1.45878E-02 4.84979E-03-6.53113E-14
 -1      3288 8.86145E-04 1.47954E-04-4.32895E-16
 -1      3289 8.87010E-04 1.36386E-04-4.49551E-16
 -1      3290 9.88846E-04 1.49175E-04-5.56738E-16
 -1      3291 9.83796E-04 1.74618E-04-5.17639E-16
 -1      3292 2.22565E-03 8.11503E-05-2.03764E-15
 -1      3293 3.01243E-03-2.42210E-04-3.12731E-15
 -1      3294 1.41023E-02 4.56094E-03-6.49317E-14
 -1      3295 1.42586E-02 4.63989E-03-6.59884E-14
 -1      3296 1.43247E-02 4.68205E-03-6.58553E-14
 -1      3297 1.43904E-02 4.72394E-03-6.57233E-14
 -1      3298 1.44565E-02 4.76610E-03-6.55873E-14
 -1      3299 1.43656E-02 4.72877E-03-6.44050E-14
 -1      3300 1.42342E-02 4.64499E-03-6.46711E-14
 -1      3301 1.37307E-03-2.71864E-04-8.44919E-16
 -1      3302 1.43805E-03-2.42694E-04-9.25434E-16
 -1      3303 1.23550E-03-2.48597E-04-7.04813E-16
 -1      3304 6.07116E-03 8.71481E-04-8.46979E-15
 -1      3305 6.66349E-03 1.02742E-03-8.46194E-15
 -1      3306 6.60996E-03 1.00936E-03-8.33530E-15
 -1      3307 6.60386E-03 1.02109E-03-8.67381E-15
 -1      3308 1.89057E-03 1.99258E-04-1.68648E-15
 -1      3309 1.86662E-03 2.50530E-04-1.71743E-15
 -1      3310 9.99539E-04-2.20352E-05-5.33617E-16
 -1      3311 1.01698E-03-5.53655E-05-5.41911E-16
 -1      3312 1.49373E-03 2.94157E-04-1.27552E-15
 -1      3313 1.51173E-03 3.24278E-04-1.34191E-15
 -1      3314 1.45361E-03 3.13897E-04-1.22974E-15
 -1      3315 4.50106E-03 2.30545E-05-6.47297E-15
 -1      3316 4.38349E-03-5.62209E-05-6.36318E-15
 -1      3317 4.64509E-03 1.08620E-04-6.86197E-15
 -1      3318 1.33599E-02 4.11153E-03-6.47776E-14
 -1      3319 1.70421E-03 3.80689E-04-8.99291E-16
 -1      3320 1.57583E-03 3.45822E-04-7.56868E-16
 -1      3321 1.67613E-03 3.72583E-04-9.71228E-16
 -1      3322 4.08462E-03-2.15989E-04-5.54014E-15
 -1      3323 5.63208E-03 6.83983E-04-8.18963E-15
 -1      3324 1.76237E-03 2.84254E-04-1.62796E-15
 -1      3325 1.47439E-03 3.20682E-04-6.59466E-16
 -1      3326 1.34440E-03 2.91847E-04-5.39689E-16
 -1      3327 1.26895E-03 2.68779E-04-5.37114E-16
 -1      3328 1.46235E-03 3.13901E-04-7.20479E-16
 -1      3329 6.65073E-03 1.07327E-03-8.11070E-15
 -1      3330 1.03314E-03-9.05488E-05-5.48986E-16
 -1      3331 1.04796E-03-1.27001E-04-5.54624E-16
 -1      3332 1.15156E-03-8.10843E-05-6.61892E-16
 -1      3333 6.61095E-03 1.01721E-03-7.77707E-15
 -1      3334 6.66068E-03 1.03014E-03-8.12459E-15
 -1      3335 2.29906E-03-3.19685E-04-2.07138E-15
 -1      3336 2.46592E-03-3.45217E-04-2.33784E-15
 -1      3337 2.63307E-03-3.71116E-04-2.62133E-15
 -1      3338 2.79875E-03-3.95354E-04-2.92281E-15
 -1      3339 2.54913E-03-3.11027E-04-2.45427E-15
 -1      3340 2.96242E-03-4.16694E-04-3.24149E-15
 -1      3341 3.12337E-03-4.31219E-04-3.57833E-15
 -1      3342 2.88970E-03-3.66980E-04-3.05043E-15
 -1      3343 3.28098E-03-4.37174E-04-3.93431E-15
 -1      3344 3.43645E-03-4.30932E-04-4.30851E-15
 -1      3345 3.22018E-03-4.06167E-04-3.71911E-15
 -1      3346 3.58921E-03-4.11076E-04-4.70200E-15
 -1      3347 3.74240E-03-3.76300E-04-5.11361E-15
 -1      3348 3.53727E-03-4.00483E-04-4.46355E-15
 -1      3349 3.89549E-03-3.26777E-04-5.54258E-15
 -1      3350 4.05136E-03-2.64458E-04-5.99045E-15
 -1      3351 3.84874E-03-3.30162E-04-5.28246E-15
 -1      3352 4.20955E-03-1.90971E-04-6.45541E-15
 -1      3353 4.37073E-03-1.10232E-04-6.93663E-15
 -1      3354 4.16709E-03-1.97567E-04-6.17488E-15
 -1      3355 4.53441E-03-2.41565E-05-7.43439E-15
 -1      3356 4.69958E-03 6.36393E-05-7.94806E-15
 -1      3357 4.49816E-03-2.60351E-05-7.13587E-15
 -1      3358 4.86583E-03 1.51922E-04-8.47725E-15
 -1      3359 5.03151E-03 2.38667E-04-9.02131E-15
 -1      3360 4.83759E-03 1.56760E-04-8.16106E-15
 -1      3361 5.19651E-03 3.23257E-04-9.57969E-15
 -1      3362 5.35958E-03 4.05244E-04-1.01525E-14
 -1      3363 5.17629E-03 3.32898E-04-9.24701E-15
 -1      3364 5.52088E-03 4.84428E-04-1.07401E-14
 -1      3365 5.67974E-03 5.61085E-04-1.13405E-14
 -1      3366 5.50712E-03 4.95955E-04-1.03913E-14
 -1      3367 5.83648E-03 6.35253E-04-1.19555E-14
 -1      3368 5.99087E-03 7.07457E-04-1.25855E-14
 -1      3369 5.82704E-03 6.46512E-04-1.15906E-14
 -1      3370 6.14329E-03 7.77788E-04-1.32299E-14
 -1      3371 6.29377E-03 8.46770E-04-1.38907E-14
 -1      3372 6.13623E-03 7.87677E-04-1.28479E-14
 -1      3373 6.44267E-03 9.14496E-04-1.45658E-14
 -1      3374 6.59013E-03 9.81366E-04-1.52556E-14
 -1      3375 6.43654E-03 9.22703E-04-1.41641E-14
 -1      3376 6.73643E-03 1.04747E-03-1.59632E-14
 -1      3377 6.88173E-03 1.11307E-03-1.66872E-14
 -1      3378 6.73024E-03 1.05413E-03-1.55441E-14
 -1      3379 7.02626E-03 1.17826E-03-1.74252E-14
 -1      3380 7.17015E-03 1.24321E-03-1.81806E-14
 -1      3381 7.01946E-03 1.18371E-03-1.69877E-14
 -1      3382 7.31356E-03 1.30798E-03-1.89514E-14
 -1      3383 7.45660E-03 1.37267E-03-1.97369E-14
 -1      3384 7.30588E-03 1.31255E-03-1.84945E-14
 -1      3385 7.59937E-03 1.43734E-03-2.05398E-14
 -1      3386 7.74196E-03 1.50203E-03-2.13587E-14
 -1      3387 7.59072E-03 1.44133E-03-2.00641E-14
 -1      3388 7.88441E-03 1.56679E-03-2.21922E-14
 -1      3389 8.02679E-03 1.63164E-03-2.30425E-14
 -1      3390 7.87482E-03 1.57044E-03-2.16969E-14
 -1      3391 8.16912E-03 1.69661E-03-2.39087E-14
 -1      3392 8.31145E-03 1.76171E-03-2.47905E-14
 -1      3393 8.15869E-03 1.70008E-03-2.33952E-14
 -1      3394 8.45379E-03 1.82694E-03-2.56887E-14
 -1      3395 8.59616E-03 1.89231E-03-2.66043E-14
 -1      3396 8.44265E-03 1.83032E-03-2.51571E-14
 -1      3397 8.73856E-03 1.95783E-03-2.75355E-14
 -1      3398 8.88101E-03 2.02349E-03-2.84803E-14
 -1      3399 8.72684E-03 1.96120E-03-2.69841E-14
 -1      3400 9.02349E-03 2.08928E-03-2.94409E-14
 -1      3401 9.16603E-03 2.15521E-03-3.04156E-14
 -1      3402 9.01131E-03 2.09266E-03-2.88746E-14
 -1      3403 9.30860E-03 2.22126E-03-3.14037E-14
 -1      3404 9.45122E-03 2.28744E-03-3.24054E-14
 -1      3405 9.29606E-03 2.22467E-03-3.08219E-14
 -1      3406 9.59387E-03 2.35372E-03-3.34187E-14
 -1      3407 9.73656E-03 2.42011E-03-3.44462E-14
 -1      3408 9.58107E-03 2.35716E-03-3.28229E-14
 -1      3409 9.87928E-03 2.48659E-03-3.54866E-14
 -1      3410 1.00220E-02 2.55316E-03-3.65388E-14
 -1      3411 9.86629E-03 2.49005E-03-3.48768E-14
 -1      3412 1.01648E-02 2.61981E-03-3.76016E-14
 -1      3413 1.03076E-02 2.68654E-03-3.86796E-14
 -1      3414 1.01517E-02 2.62330E-03-3.69812E-14
 -1      3415 1.04504E-02 2.75333E-03-3.97707E-14
 -1      3416 1.05932E-02 2.82017E-03-4.08727E-14
 -1      3417 1.04372E-02 2.75683E-03-3.91344E-14
 -1      3418 1.07361E-02 2.88708E-03-4.19863E-14
 -1      3419 1.08789E-02 2.95402E-03-4.31117E-14
 -1      3420 1.07228E-02 2.89059E-03-4.13371E-14
 -1      3421 1.10218E-02 3.02102E-03-4.42481E-14
 -1      3422 1.11646E-02 3.08804E-03-4.53945E-14
 -1      3423 1.10085E-02 3.02453E-03-4.35882E-14
 -1      3424 1.13075E-02 3.15510E-03-4.65522E-14
 -1      3425 1.14504E-02 3.22219E-03-4.77206E-14
 -1      3426 1.12942E-02 3.15862E-03-4.58804E-14
 -1      3427 1.15932E-02 3.28930E-03-4.88960E-14
 -1      3428 1.17361E-02 3.35644E-03-5.00826E-14
 -1      3429 1.15799E-02 3.29282E-03-4.82130E-14
 -1      3430 1.18790E-02 3.42359E-03-5.12800E-14
 -1      3431 1.20219E-02 3.49076E-03-5.24873E-14
 -1      3432 1.18657E-02 3.42711E-03-5.05872E-14
 -1      3433 1.21647E-02 3.55794E-03-5.37001E-14
 -1      3434 1.23076E-02 3.62513E-03-5.49226E-14
 -1      3435 1.21515E-02 3.56145E-03-5.29989E-14
 -1      3436 1.24505E-02 3.69233E-03-5.61567E-14
 -1      3437 1.25934E-02 3.75954E-03-5.73973E-14
 -1      3438 1.24372E-02 3.69584E-03-5.54440E-14
 -1      3439 1.27362E-02 3.82675E-03-5.86467E-14
 -1      3440 1.28791E-02 3.89397E-03-5.99021E-14
 -1      3441 1.27230E-02 3.83027E-03-5.79207E-14
 -1      3442 1.30220E-02 3.96120E-03-6.11686E-14
 -1      3443 1.31648E-02 4.02843E-03-6.24503E-14
 -1      3444 1.30087E-02 3.96471E-03-6.04319E-14
 -1      3445 1.65929E-03 2.69140E-04-1.46684E-15
 -1      3446 3.48015E-03-3.80649E-04-4.18917E-15
 -1      3447 3.29471E-03-3.69154E-04-3.76709E-15
 -1      3448 1.20053E-03 2.48849E-04-5.32208E-16
 -1      3449 1.13935E-03 2.30679E-04-5.25418E-16
 -1      3450 1.29325E-03 2.70195E-04-6.20570E-16
 -1      3451 7.57201E-03 1.48727E-03-1.32371E-14
 -1      3452 7.44605E-03 1.42345E-03-1.25778E-14
 -1      3453 7.08793E-03 1.24436E-03-1.06707E-14
 -1      3454 6.97363E-03 1.18754E-03-1.00402E-14
 -1      3455 8.09985E-03 1.75498E-03-1.60309E-14
 -1      3456 7.96497E-03 1.68658E-03-1.53078E-14
 -1      3457 8.38735E-03 1.90012E-03-1.75982E-14
 -1      3458 8.24293E-03 1.82729E-03-1.68063E-14
 -1      3459 8.12569E-03 1.76259E-03-1.65537E-14
 -1      3460 8.66518E-03 2.03942E-03-1.91552E-14
 -1      3461 8.52585E-03 1.96968E-03-1.83696E-14
 -1      3462 8.40511E-03 1.90293E-03-1.81032E-14
 -1      3463 8.94566E-03 2.17898E-03-2.07808E-14
 -1      3464 8.80513E-03 2.10919E-03-1.99595E-14
 -1      3465 8.68184E-03 2.04106E-03-1.96815E-14
 -1      3466 9.22793E-03 2.31830E-03-2.24714E-14
 -1      3467 9.08660E-03 2.24868E-03-2.16164E-14
 -1      3468 8.96141E-03 2.17960E-03-2.13236E-14
 -1      3469 9.51141E-03 2.45716E-03-2.42333E-14
 -1      3470 9.36954E-03 2.38780E-03-2.33449E-14
 -1      3471 9.24296E-03 2.31809E-03-2.30330E-14
 -1      3472 9.79569E-03 2.59544E-03-2.60651E-14
 -1      3473 9.65346E-03 2.52637E-03-2.51402E-14
 -1      3474 9.52587E-03 2.45625E-03-2.48143E-14
 -1      3475 1.00948E-02 2.73997E-03-2.80550E-14
 -1      3476 9.94516E-03 2.66779E-03-2.70518E-14
 -1      3477 9.81683E-03 2.59739E-03-2.67103E-14
 -1      3478 1.03799E-02 2.87704E-03-3.00120E-14
 -1      3479 1.02373E-02 2.80858E-03-2.90267E-14
 -1      3480 1.01085E-02 2.73801E-03-2.86692E-14
 -1      3481 1.06653E-02 3.01360E-03-3.20257E-14
 -1      3482 1.05226E-02 2.94538E-03-3.10129E-14
 -1      3483 1.03934E-02 2.87471E-03-3.06417E-14
 -1      3484 1.09509E-02 3.14971E-03-3.40945E-14
 -1      3485 1.08081E-02 3.08171E-03-3.30529E-14
 -1      3486 1.06787E-02 3.01098E-03-3.26704E-14
 -1      3487 1.12365E-02 3.28545E-03-3.62114E-14
 -1      3488 1.10937E-02 3.21762E-03-3.51458E-14
 -1      3489 1.09641E-02 3.14687E-03-3.47488E-14
 -1      3490 1.15222E-02 3.42088E-03-3.83785E-14
 -1      3491 1.13793E-02 3.35320E-03-3.72895E-14
 -1      3492 1.12497E-02 3.28243E-03-3.68785E-14
 -1      3493 1.18222E-02 3.56282E-03-4.07082E-14
 -1      3494 1.16722E-02 3.49188E-03-3.95364E-14
 -1      3495 1.15425E-02 3.42110E-03-3.91139E-14
 -1      3496 1.21080E-02 3.69780E-03-4.29814E-14
 -1      3497 1.19651E-02 3.63033E-03-4.18394E-14
 -1      3498 1.18353E-02 3.55956E-03-4.14035E-14
 -1      3499 1.23937E-02 3.83264E-03-4.53036E-14
 -1      3500 1.22508E-02 3.76524E-03-4.41364E-14
 -1      3501 1.21211E-02 3.69446E-03-4.36877E-14
 -1      3502 1.26795E-02 3.96736E-03-4.76680E-14
 -1      3503 1.25366E-02 3.90001E-03-4.64802E-14
 -1      3504 1.24068E-02 3.82924E-03-4.60196E-14
 -1      3505 1.29652E-02 4.10199E-03-5.00667E-14
 -1      3506 1.28223E-02 4.03468E-03-4.88633E-14
 -1      3507 1.26926E-02 3.96392E-03-4.83921E-14
 -1      3508 1.32510E-02 4.23656E-03-5.24977E-14
 -1      3509 1.31081E-02 4.16928E-03-5.12774E-14
 -1      3510 1.29784E-02 4.09853E-03-5.07997E-14
 -1      3511 1.35510E-02 4.37782E-03-5.50782E-14
 -1      3512 1.34010E-02 4.30720E-03-5.37854E-14
 -1      3513 1.32713E-02 4.23645E-03-5.32988E-14
 -1      3514 1.38367E-02 4.51232E-03-5.75691E-14
 -1      3515 1.36939E-02 4.44507E-03-5.63227E-14
 -1      3516 1.35642E-02 4.37433E-03-5.58282E-14
 -1      3517 1.41225E-02 4.64680E-03-6.00836E-14
 -1      3518 1.39796E-02 4.57956E-03-5.88214E-14
 -1      3519 1.38499E-02 4.50882E-03-5.83226E-14
 -1      3520 1.11121E-03-1.73585E-04-6.02329E-16
 -1      3521 1.46079E-02 4.86697E-03-6.49720E-14
 -1      3522 1.46211E-02 4.88311E-03-6.44235E-14
 -1      3523 1.44915E-02 4.82220E-03-6.32508E-14
 -1      3524 1.44514E-02 4.78784E-03-6.39312E-14
 -1      3525 9.80794E-04 9.34043E-06-5.24374E-16
 -1      3526 1.11164E-03-6.33594E-06-6.42200E-16
 -1      3527 9.61454E-04 3.81027E-05-5.14481E-16
 -1      3528 1.53598E-03 3.51535E-04-1.18172E-15
 -1      3529 1.62982E-03 3.73660E-04-1.19817E-15
 -1      3530 1.66128E-03 3.75959E-04-1.12215E-15
 -1      3531 2.67482E-03-1.56453E-04-2.59623E-15
 -1      3532 2.48103E-03-8.31038E-05-2.32023E-15
 -1      3533 6.61264E-03 1.04731E-03-7.87548E-15
 -1      3534 3.80388E-03-3.30876E-04-4.98943E-15
 -1      3535 3.64185E-03-3.66854E-04-4.57602E-15
 -1      3536 1.89899E-03 1.39466E-04-1.63710E-15
 -1      3537 1.76776E-03 1.75404E-04-1.49913E-15
 -1      3538 6.71278E-03 1.05949E-03-8.46931E-15
 -1      3539 6.69620E-03 1.04236E-03-8.46671E-15
 -1      3540 6.71890E-03 1.05666E-03-8.80981E-15
 -1      3541 1.34094E-02 4.14573E-03-6.45107E-14
 -1      3542 1.38133E-02 4.39731E-03-6.41390E-14
 -1      3543 1.38794E-02 4.43948E-03-6.40108E-14
 -1      3544 6.21120E-03 9.22261E-04-8.92778E-15
 -1      3545 6.03482E-03 8.57690E-04-8.83302E-15
 -1      3546 7.32354E-03 1.36189E-03-1.19319E-14
 -1      3547 7.20474E-03 1.30222E-03-1.13007E-14
 -1      3548 7.34720E-03 1.37026E-03-1.23649E-14
 -1      3549 5.82035E-03 7.65009E-04-8.74183E-15
 -1      3550 5.58933E-03 6.51587E-04-8.54537E-15
 -1      3551 1.64484E-03-2.30052E-04-1.17256E-15
 -1      3552 1.80510E-03-2.50416E-04-1.37256E-15
 -1      3553 1.44115E-03 3.22212E-04-1.17137E-15
 -1      3554 1.46373E-03 3.30298E-04-1.15491E-15
 -1      3555 3.04118E-03-2.94019E-04-3.21626E-15
 -1      3556 2.86587E-03-2.27057E-04-2.89912E-15
 -1      3557 7.83186E-03 1.61909E-03-1.46016E-14
 -1      3558 7.70070E-03 1.55243E-03-1.39108E-14
 -1      3559 7.85238E-03 1.62475E-03-1.50695E-14
 -1      3560 1.96797E-03-2.71951E-04-1.58898E-15
 -1      3561 2.13265E-03-2.95044E-04-1.82180E-15
 -1      3562 2.20769E-03-2.57325E-04-1.92660E-15
 -1      3563 2.25620E-03 9.96469E-07-2.03013E-15
 -1      3564 2.07632E-03 7.75293E-05-1.82756E-15
 -1      3565 1.93240E-03 6.63200E-05-1.62800E-15
 -1      3566 4.12082E-03-2.05859E-04-5.85701E-15
 -1      3567 3.96604E-03-2.75217E-04-5.41460E-15
 -1      3568 6.51299E-03 1.00961E-03-8.97295E-15
 -1      3569 6.38429E-03 9.76966E-04-8.97786E-15
 -1      3570 1.62689E-03 2.27401E-04-1.37091E-15
 -1      3571 1.54246E-03 2.57324E-04-1.29796E-15
 -1      3572 1.33962E-02 4.14924E-03-6.37515E-14
 -1      3573 1.63128E-03 1.77026E-04-1.32655E-15
 -1      3574 1.10341E-03 2.17493E-04-5.55288E-16
 -1      3575 1.07928E-03 2.05957E-04-5.82677E-16
 -1      3576 1.18787E-03 2.38423E-04-6.46862E-16
 -1      3577 6.60412E-03 1.03572E-03-9.10688E-15
 -1      3578 6.60560E-03 1.04773E-03-9.54195E-15
 -1      3579 6.68322E-03 1.05837E-03-9.23923E-15
 -1      3580 6.70088E-03 1.07673E-03-8.36284E-15
 -1      3581 1.34620E-02 4.19121E-03-6.36296E-14
 -1      3582 1.35278E-02 4.23319E-03-6.35069E-14
 -1      3583 1.32174E-02 4.07391E-03-6.15802E-14
 -1      3584 1.06591E-03 5.92523E-05-6.18090E-16
 -1      3585 5.45321E-03 5.73640E-04-8.52098E-15
 -1      3586 5.32799E-03 4.94154E-04-8.49365E-15
 -1      3587 5.64810E-03 6.61868E-04-9.08049E-15
 -1      3588 1.11577E-03 1.39997E-04-6.95841E-16
 -1      3589 1.14095E-03 1.14274E-04-7.13635E-16
 -1      3590 1.08060E-03 1.78183E-04-6.55739E-16
 -1      3591 1.09467E-03 1.61115E-04-6.76623E-16
 -1      3592 1.20656E-03 1.70943E-04-8.09127E-16
 -1      3593 7.59406E-03 1.49438E-03-1.36862E-14
 -1      3594 6.87165E-03 1.13271E-03-9.62738E-15
 -1      3595 6.83680E-03 1.12273E-03-9.21390E-15
 -1      3596 1.23438E-03-1.69625E-04-7.23881E-16
 -1      3597 6.75545E-03 1.08641E-03-8.70997E-15
 -1      3598 1.43718E-02 4.76496E-03-6.22402E-14
 -1      3599 1.42421E-02 4.70404E-03-6.10809E-14
 -1      3600 1.41124E-02 4.63330E-03-6.05748E-14
 -1      3601 1.43517E-02 4.74778E-03-6.25831E-14
 -1      3602 1.43117E-02 4.71342E-03-6.32553E-14
 -1      3603 1.43317E-02 4.73060E-03-6.29223E-14
 -1      3604 1.42120E-02 4.67336E-03-6.19116E-14
 -1      3605 1.39455E-02 4.48164E-03-6.38834E-14
 -1      3606 1.40117E-02 4.52380E-03-6.37555E-14
 -1      3607 1.37888E-02 4.40233E-03-6.28398E-14
 -1      3608 1.45942E-03 2.57773E-04-1.18891E-15
 -1      3609 1.46649E-03 3.25884E-04-1.08397E-15
 -1      3610 1.42459E-02 4.67153E-03-6.33909E-14
 -1      3611 1.55805E-03 3.41506E-04-9.61152E-16
 -1      3612 1.22340E-03 1.30311E-05-7.59782E-16
 -1      3613 1.24809E-03-2.64650E-05-7.72738E-16
 -1      3614 2.71641E-03-2.20595E-04-2.67339E-15
 -1      3615 6.35313E-03 9.70926E-04-9.35309E-15
 -1      3616 1.40088E-03 2.98657E-04-1.11269E-15
 -1      3617 4.42083E-03-4.95136E-05-6.69964E-15
 -1      3618 4.28927E-03-1.20578E-04-6.31809E-15
 -1      3619 1.38974E-03-5.18424E-05-9.16178E-16
 -1      3620 1.27055E-03-6.81506E-05-7.84474E-16
 -1      3621 1.29042E-03-1.10918E-04-7.94666E-16
 -1      3622 7.11350E-03 1.25359E-03-1.10869E-14
 -1      3623 5.98121E-03 8.28441E-04-9.20389E-15
 -1      3624 3.12455E-03-3.47251E-04-3.42222E-15
 -1      3625 1.87355E-03-2.12759E-04-1.46603E-15
 -1      3626 2.31665E-03-7.28545E-05-2.08977E-15
 -1      3627 1.36376E-02 4.29426E-03-6.38838E-14
 -1      3628 1.37035E-02 4.33624E-03-6.37590E-14
 -1      3629 1.36128E-02 4.29910E-03-6.25887E-14
 -1      3630 1.33930E-02 4.17696E-03-6.18334E-14
 -1      3631 1.59789E-03 1.24854E-04-1.24148E-15
 -1      3632 1.47633E-03 1.70522E-04-1.12895E-15
 -1      3633 7.86951E-03 1.63009E-03-1.55406E-14
 -1      3634 7.73922E-03 1.56488E-03-1.48311E-14
 -1      3635 1.07354E-03 1.99278E-04-6.08414E-16
 -1      3636 1.07028E-03 1.87452E-04-6.32347E-16
 -1      3637 1.16645E-03 2.03981E-04-7.60514E-16
 -1      3638 1.15393E-03 2.21047E-04-7.06304E-16
 -1      3639 1.16867E-03 8.42187E-05-7.30224E-16
 -1      3640 1.19650E-03 5.04024E-05-7.45592E-16
 -1      3641 1.33396E-03 3.62156E-05-8.85861E-16
 -1      3642 1.26840E-03 1.12570E-04-8.50218E-16
 -1      3643 4.59463E-03 4.63746E-05-7.19182E-15
 -1      3644 4.80954E-03 1.62275E-04-7.84668E-15
 -1      3645 4.98408E-03 2.55276E-04-8.37417E-15
 -1      3646 5.15758E-03 3.44405E-04-8.91546E-15
 -1      3647 5.32795E-03 4.29278E-04-9.47240E-15
 -1      3648 5.14067E-03 3.57107E-04-8.58561E-15
 -1      3649 5.49553E-03 5.09668E-04-1.00431E-14
 -1      3650 5.65932E-03 5.86469E-04-1.06279E-14
 -1      3651 5.48639E-03 5.25519E-04-9.69687E-15
 -1      3652 5.81989E-03 6.59726E-04-1.12270E-14
 -1      3653 5.97699E-03 7.30522E-04-1.18394E-14
 -1      3654 5.81530E-03 6.75053E-04-1.08644E-14
 -1      3655 6.13121E-03 7.99011E-04-1.24670E-14
 -1      3656 6.28275E-03 8.66086E-04-1.31089E-14
 -1      3657 6.12854E-03 8.12014E-04-1.20879E-14
 -1      3658 6.43208E-03 9.31854E-04-1.37655E-14
 -1      3659 6.57951E-03 9.96908E-04-1.44373E-14
 -1      3660 6.42956E-03 9.42104E-04-1.33686E-14
 -1      3661 6.72539E-03 1.06131E-03-1.51265E-14
 -1      3662 6.87003E-03 1.12545E-03-1.58317E-14
 -1      3663 6.72205E-03 1.06911E-03-1.47111E-14
 -1      3664 7.01369E-03 1.18935E-03-1.65515E-14
 -1      3665 7.15662E-03 1.25323E-03-1.72874E-14
 -1      3666 7.00907E-03 1.19524E-03-1.61175E-14
 -1      3667 7.29898E-03 1.31710E-03-1.80399E-14
 -1      3668 7.44097E-03 1.38108E-03-1.88078E-14
 -1      3669 7.29295E-03 1.32165E-03-1.75872E-14
 -1      3670 7.58268E-03 1.44517E-03-1.95918E-14
 -1      3671 7.72424E-03 1.50944E-03-2.03908E-14
 -1      3672 7.57527E-03 1.44887E-03-1.91214E-14
 -1      3673 7.86570E-03 1.57387E-03-2.12055E-14
 -1      3674 8.00716E-03 1.63849E-03-2.20378E-14
 -1      3675 7.85707E-03 1.57706E-03-2.07180E-14
 -1      3676 8.14864E-03 1.70330E-03-2.28848E-14
 -1      3677 8.29018E-03 1.76829E-03-2.37485E-14
 -1      3678 8.13894E-03 1.70625E-03-2.23773E-14
 -1      3679 8.43180E-03 1.83347E-03-2.46281E-14
 -1      3680 8.57352E-03 1.89882E-03-2.55238E-14
 -1      3681 8.42122E-03 1.83635E-03-2.41016E-14
 -1      3682 8.71534E-03 1.96434E-03-2.64357E-14
 -1      3683 8.85727E-03 2.03002E-03-2.73641E-14
 -1      3684 8.70405E-03 1.96724E-03-2.58906E-14
 -1      3685 8.99930E-03 2.09585E-03-2.83075E-14
 -1      3686 9.14143E-03 2.16182E-03-2.92668E-14
 -1      3687 8.98745E-03 2.09883E-03-2.77434E-14
 -1      3688 9.28366E-03 2.22792E-03-3.02401E-14
 -1      3689 9.42598E-03 2.29413E-03-3.12269E-14
 -1      3690 9.27139E-03 2.23099E-03-2.96592E-14
 -1      3691 9.56838E-03 2.36046E-03-3.22286E-14
 -1      3692 9.71085E-03 2.42689E-03-3.32414E-14
 -1      3693 9.55578E-03 2.36363E-03-3.16337E-14
 -1      3694 9.85339E-03 2.49342E-03-3.42680E-14
 -1      3695 9.99598E-03 2.56002E-03-3.53075E-14
 -1      3696 9.84056E-03 2.49667E-03-3.36619E-14
 -1      3697 1.01386E-02 2.62671E-03-3.63600E-14
 -1      3698 1.02813E-02 2.69346E-03-3.74242E-14
 -1      3699 1.01256E-02 2.63003E-03-3.57390E-14
 -1      3700 1.04240E-02 2.76027E-03-3.84997E-14
 -1      3701 1.05668E-02 2.82714E-03-3.95898E-14
 -1      3702 1.04109E-02 2.76366E-03-3.78671E-14
 -1      3703 1.07096E-02 2.89406E-03-4.06914E-14
 -1      3704 1.08524E-02 2.96102E-03-4.18041E-14
 -1      3705 1.06964E-02 2.89749E-03-4.00455E-14
 -1      3706 1.09952E-02 3.02802E-03-4.29294E-14
 -1      3707 1.11381E-02 3.09506E-03-4.40638E-14
 -1      3708 1.09820E-02 3.03148E-03-4.22703E-14
 -1      3709 1.12809E-02 3.16213E-03-4.52087E-14
 -1      3710 1.14238E-02 3.22922E-03-4.63650E-14
 -1      3711 1.12677E-02 3.16561E-03-4.45390E-14
 -1      3712 1.15667E-02 3.29633E-03-4.75323E-14
 -1      3713 1.17095E-02 3.36347E-03-4.87070E-14
 -1      3714 1.15534E-02 3.29983E-03-4.68495E-14
 -1      3715 1.18524E-02 3.43062E-03-4.98938E-14
 -1      3716 1.19953E-02 3.49779E-03-5.10927E-14
 -1      3717 1.18391E-02 3.43412E-03-4.92018E-14
 -1      3718 1.21382E-02 3.56497E-03-5.22976E-14
 -1      3719 1.22811E-02 3.63216E-03-5.35103E-14
 -1      3720 1.21249E-02 3.56848E-03-5.15961E-14
 -1      3721 1.24239E-02 3.69936E-03-5.47304E-14
 -1      3722 1.25668E-02 3.76657E-03-5.59618E-14
 -1      3723 1.24107E-02 3.70287E-03-5.40226E-14
 -1      3724 1.27097E-02 3.83378E-03-5.72000E-14
 -1      3725 1.28526E-02 3.90100E-03-5.84427E-14
 -1      3726 1.26964E-02 3.83729E-03-5.64800E-14
 -1      3727 1.29635E-02 3.95384E-03-5.93776E-14
 -1      3728 1.31064E-02 4.02107E-03-6.06360E-14
 -1      3729 1.31722E-02 4.06304E-03-6.05169E-14
 -1      3730 1.29503E-02 3.95735E-03-5.86483E-14
 -1      3731 1.34374E-03 2.81987E-04-6.89878E-16
 -1      3732 1.27817E-03 2.63913E-04-6.82329E-16
 -1      3733 1.23654E-03 2.51100E-04-7.17606E-16
 -1      3734 1.43245E-03 3.04580E-04-7.90600E-16
 -1      3735 4.95118E-03 2.80372E-04-7.71627E-15
 -1      3736 4.78316E-03 1.89042E-04-7.22949E-15
 -1      3737 2.98152E-03-3.41267E-04-3.17603E-15
 -1      3738 1.33167E-03-1.48512E-04-8.30011E-16
 -1      3739 1.39887E-03-2.02085E-04-8.90875E-16
 -1      3740 1.53905E-03-2.21114E-04-1.04719E-15
 -1      3741 1.45636E-03-1.37943E-04-9.68802E-16
 -1      3742 2.11007E-03-1.92909E-04-1.78643E-15
 -1      3743 2.28220E-03-2.17333E-04-2.03071E-15
 -1      3744 8.14913E-03 1.76989E-03-1.70799E-14
 -1      3745 8.00840E-03 1.69949E-03-1.63011E-14
 -1      3746 7.89057E-03 1.63793E-03-1.60493E-14
 -1      3747 8.97639E-03 2.18013E-03-2.18684E-14
 -1      3748 8.83657E-03 2.11130E-03-2.10306E-14
 -1      3749 9.25746E-03 2.31780E-03-2.35975E-14
 -1      3750 9.11670E-03 2.24897E-03-2.27234E-14
 -1      3751 8.99067E-03 2.18045E-03-2.24150E-14
 -1      3752 9.53999E-03 2.45527E-03-2.53973E-14
 -1      3753 9.39857E-03 2.38656E-03-2.44889E-14
 -1      3754 9.27149E-03 2.31735E-03-2.41631E-14
 -1      3755 9.83774E-03 2.59927E-03-2.73569E-14
 -1      3756 9.68875E-03 2.52732E-03-2.63688E-14
 -1      3757 9.56085E-03 2.45760E-03-2.60268E-14
 -1      3758 1.01220E-02 2.73600E-03-2.92844E-14
 -1      3759 9.97981E-03 2.66768E-03-2.83133E-14
 -1      3760 9.85133E-03 2.59761E-03-2.79568E-14
 -1      3761 1.04068E-02 2.87235E-03-3.12709E-14
 -1      3762 1.02644E-02 2.80422E-03-3.02705E-14
 -1      3763 1.01355E-02 2.73392E-03-2.99007E-14
 -1      3764 1.06920E-02 3.00833E-03-3.33136E-14
 -1      3765 1.05494E-02 2.94038E-03-3.22866E-14
 -1      3766 1.04202E-02 2.86992E-03-3.19018E-14
 -1      3767 1.09773E-02 3.14399E-03-3.54036E-14
 -1      3768 1.08346E-02 3.07620E-03-3.43520E-14
 -1      3769 1.07052E-02 3.00563E-03-3.39568E-14
 -1      3770 1.12629E-02 3.27938E-03-3.75480E-14
 -1      3771 1.11201E-02 3.21172E-03-3.64694E-14
 -1      3772 1.09905E-02 3.14108E-03-3.60611E-14
 -1      3773 1.15628E-02 3.42130E-03-3.98512E-14
 -1      3774 1.14128E-02 3.35037E-03-3.86921E-14
 -1      3775 1.12832E-02 3.27968E-03-3.82713E-14
 -1      3776 1.18485E-02 3.55628E-03-4.20981E-14
 -1      3777 1.17056E-02 3.48881E-03-4.09685E-14
 -1      3778 1.15759E-02 3.41809E-03-4.05347E-14
 -1      3779 1.21342E-02 3.69111E-03-4.43954E-14
 -1      3780 1.19913E-02 3.62371E-03-4.32423E-14
 -1      3781 1.18616E-02 3.55298E-03-4.27947E-14
 -1      3782 1.24200E-02 3.82584E-03-4.67342E-14
 -1      3783 1.22771E-02 3.75848E-03-4.55586E-14
 -1      3784 1.21473E-02 3.68774E-03-4.51012E-14
 -1      3785 1.27057E-02 3.96048E-03-4.91179E-14
 -1      3786 1.25628E-02 3.89317E-03-4.79216E-14
 -1      3787 1.24331E-02 3.82242E-03-4.74511E-14
 -1      3788 1.29915E-02 4.09506E-03-5.15328E-14
 -1      3789 1.28486E-02 4.02778E-03-5.03204E-14
 -1      3790 1.27189E-02 3.95703E-03-4.98409E-14
 -1      3791 1.32916E-02 4.23632E-03-5.41000E-14
 -1      3792 1.31415E-02 4.16570E-03-5.28132E-14
 -1      3793 1.30118E-02 4.09495E-03-5.23266E-14
 -1      3794 1.35773E-02 4.37083E-03-5.65772E-14
 -1      3795 1.34344E-02 4.30358E-03-5.53359E-14
 -1      3796 1.33047E-02 4.23283E-03-5.48431E-14
 -1      3797 1.38631E-02 4.50531E-03-5.90741E-14
 -1      3798 1.37202E-02 4.43807E-03-5.78224E-14
 -1      3799 1.35905E-02 4.36733E-03-5.73221E-14
 -1      3800 1.44405E-03 3.10964E-04-9.22981E-16
 -1      3801 1.60386E-03-1.86389E-04-1.13063E-15
 -1      3802 1.40774E-02 4.56569E-03-6.36261E-14
 -1      3803 1.41431E-02 4.60758E-03-6.34969E-14
 -1      3804 1.39206E-02 4.48638E-03-6.25858E-14
 -1      3805 1.36197E-03 2.89748E-04-9.00118E-16
 -1      3806 6.80990E-03 1.10266E-03-9.43816E-15
 -1      3807 6.76004E-03 1.08575E-03-9.42910E-15
 -1      3808 6.77939E-03 1.10428E-03-9.87449E-15
 -1      3809 6.93268E-03 1.16567E-03-1.02664E-14
 -1      3810 4.65397E-03 9.83534E-05-7.11154E-15
 -1      3811 7.36385E-03 1.37830E-03-1.27987E-14
 -1      3812 7.24547E-03 1.31975E-03-1.21516E-14
 -1      3813 8.69737E-03 2.04256E-03-2.02071E-14
 -1      3814 8.55886E-03 1.97393E-03-1.94009E-14
 -1      3815 8.71191E-03 2.04378E-03-2.07358E-14
 -1      3816 8.42123E-03 1.90556E-03-1.86107E-14
 -1      3817 8.28458E-03 1.83747E-03-1.78371E-14
 -1      3818 8.16392E-03 1.77324E-03-1.75705E-14
 -1      3819 6.16324E-03 8.99111E-04-9.73886E-15
 -1      3820 5.97309E-03 8.14661E-04-9.63856E-15
 -1      3821 7.12860E-03 1.26278E-03-1.15046E-14
 -1      3822 7.01716E-03 1.20817E-03-1.08720E-14
 -1      3823 7.13657E-03 1.27029E-03-1.19238E-14
 -1      3824 1.40891E-02 4.59223E-03-6.23555E-14
 -1      3825 6.48651E-03 1.01783E-03-9.85728E-15
 -1      3826 6.32989E-03 9.64478E-04-9.79993E-15
 -1      3827 6.31711E-03 9.56000E-04-1.02498E-14
 -1      3828 1.77533E-03-1.54527E-04-1.34743E-15
 -1      3829 1.94059E-03-1.72202E-04-1.55899E-15
 -1      3830 2.00571E-03-1.28780E-04-1.65139E-15
 -1      3831 2.35170E-03-1.49777E-04-2.12746E-15
 -1      3832 2.14611E-03-7.59578E-05-1.85203E-15
 -1      3833 1.33501E-03 2.09184E-04-9.84862E-16
 -1      3834 1.31072E-03 2.37951E-04-9.68172E-16
 -1      3835 7.61125E-03 1.50112E-03-1.41376E-14
 -1      3836 7.48598E-03 1.43866E-03-1.34617E-14
 -1      3837 7.37545E-03 1.38507E-03-1.32344E-14
 -1      3838 7.62479E-03 1.50686E-03-1.45926E-14
 -1      3839 1.93213E-03 3.30337E-06-1.59359E-15
 -1      3840 1.77339E-03 5.98507E-05-1.41877E-15
 -1      3841 5.03916E-03 3.25589E-04-8.00330E-15
 -1      3842 4.87551E-03 2.20144E-04-7.76579E-15
 -1      3843 1.56101E-03-1.43158E-04-1.08835E-15
 -1      3844 1.66721E-03-1.48737E-04-1.21425E-15
 -1      3845 1.72845E-03-1.07946E-04-1.29810E-15
 -1      3846 1.51618E-03-1.01037E-04-1.04541E-15
 -1      3847 2.80825E-03-3.10439E-04-2.86350E-15
 -1      3848 2.63535E-03-2.53273E-04-2.56282E-15
 -1      3849 2.45731E-03-2.20912E-04-2.28601E-15
 -1      3850 5.84605E-03 7.50384E-04-9.61190E-15
 -1      3851 5.72339E-03 6.82204E-04-9.58332E-15
 -1      3852 6.03557E-03 8.29727E-04-1.01558E-14
 -1      3853 1.60063E-03 7.10663E-05-1.21132E-15
 -1      3854 4.72354E-03 1.17773E-04-7.56422E-15
 -1      3855 1.34691E-02 4.23082E-03-6.13501E-14
 -1      3856 1.35790E-02 4.29189E-03-6.17261E-14
 -1      3857 1.33386E-03 1.36591E-04-9.36642E-16
 -1      3858 1.37092E-03 9.89751E-05-9.57649E-16
 -1      3859 6.68587E-03 1.08268E-03-1.01425E-14
 -1      3860 6.59046E-03 1.05225E-03-1.00000E-14
 -1      3861 6.57866E-03 1.05328E-03-1.04611E-14
 -1      3862 1.40924E-02 4.61612E-03-6.09107E-14
 -1      3863 1.35014E-02 4.26578E-03-6.03719E-14
 -1      3864 1.36451E-02 4.33405E-03-6.16013E-14
 -1      3865 1.37112E-02 4.37621E-03-6.14751E-14
 -1      3866 1.39627E-02 4.54538E-03-6.04009E-14
 -1      3867 1.28714E-03 2.65475E-04-8.56418E-16
 -1      3868 5.41459E-03 5.15306E-04-9.09482E-15
 -1      3869 5.22041E-03 4.18715E-04-8.53655E-15
 -1      3870 1.38598E-02 4.48143E-03-6.05080E-14
 -1      3871 1.37269E-03 1.79594E-04-1.01069E-15
 -1      3872 6.93805E-03 1.17435E-03-1.06703E-14
 -1      3873 1.49148E-03-5.17442E-05-1.03048E-15
 -1      3874 1.97485E-03-6.86592E-05-1.62392E-15
 -1      3875 8.43598E-03 1.90780E-03-1.91191E-14
 -1      3876 1.56252E-03-1.58886E-06-1.13035E-15
 -1      3877 1.69895E-03-5.39577E-05-1.27632E-15
 -1      3878 1.28371E-03 2.57872E-04-9.05099E-16
 -1      3879 8.72560E-03 2.04470E-03-2.12648E-14
 -1      3880 8.58718E-03 1.97701E-03-2.04399E-14
 -1      3881 1.33592E-02 4.16975E-03-6.09771E-14
 -1      3882 1.33254E-02 4.16255E-03-6.01266E-14
 -1      3883 1.32494E-02 4.10869E-03-6.06042E-14
 -1      3884 5.58575E-03 5.94260E-04-9.65750E-15
 -1      3885 5.81497E-03 6.92654E-04-1.05045E-14
 -1      3886 5.97421E-03 7.61168E-04-1.11005E-14
 -1      3887 6.12936E-03 8.26501E-04-1.17107E-14
 -1      3888 6.28096E-03 8.90537E-04-1.23353E-14
 -1      3889 6.13406E-03 8.42955E-04-1.13347E-14
 -1      3890 6.42965E-03 9.53273E-04-1.29744E-14
 -1      3891 6.57606E-03 1.01553E-03-1.36281E-14
 -1      3892 6.43273E-03 9.65509E-04-1.25816E-14
 -1      3893 6.72058E-03 1.07735E-03-1.42979E-14
 -1      3894 6.86373E-03 1.13926E-03-1.49843E-14
 -1      3895 6.72123E-03 1.08612E-03-1.38868E-14
 -1      3896 7.00576E-03 1.20124E-03-1.56863E-14
 -1      3897 7.14708E-03 1.26353E-03-1.64040E-14
 -1      3898 7.00391E-03 1.20738E-03-1.52558E-14
 -1      3899 7.28782E-03 1.32610E-03-1.71373E-14
 -1      3900 7.42827E-03 1.38904E-03-1.78868E-14
 -1      3901 7.28368E-03 1.33043E-03-1.66900E-14
 -1      3902 7.56850E-03 1.45233E-03-1.86530E-14
 -1      3903 7.70868E-03 1.51598E-03-1.94344E-14
 -1      3904 7.56237E-03 1.45554E-03-1.81863E-14
 -1      3905 7.84887E-03 1.57997E-03-2.02309E-14
 -1      3906 7.98915E-03 1.64428E-03-2.10435E-14
 -1      3907 7.84110E-03 1.58256E-03-1.97463E-14
 -1      3908 8.12955E-03 1.70890E-03-2.18726E-14
 -1      3909 8.27013E-03 1.77379E-03-2.27166E-14
 -1      3910 8.12046E-03 1.71121E-03-2.13686E-14
 -1      3911 8.41087E-03 1.83893E-03-2.35779E-14
 -1      3912 8.55181E-03 1.90430E-03-2.44548E-14
 -1      3913 8.40073E-03 1.84120E-03-2.30555E-14
 -1      3914 8.69294E-03 1.96988E-03-2.53488E-14
 -1      3915 8.83425E-03 2.03564E-03-2.62581E-14
 -1      3916 8.68196E-03 1.97223E-03-2.48081E-14
 -1      3917 8.97574E-03 2.10157E-03-2.71842E-14
 -1      3918 9.11740E-03 2.16765E-03-2.81255E-14
 -1      3919 8.96413E-03 2.10407E-03-2.66261E-14
 -1      3920 9.25922E-03 2.23387E-03-2.90828E-14
 -1      3921 9.40118E-03 2.30020E-03-3.00558E-14
 -1      3922 9.24713E-03 2.23653E-03-2.85090E-14
 -1      3923 9.54327E-03 2.36664E-03-3.10419E-14
 -1      3924 9.68548E-03 2.43317E-03-3.20421E-14
 -1      3925 9.53082E-03 2.36947E-03-3.04521E-14
 -1      3926 9.82779E-03 2.49980E-03-3.30550E-14
 -1      3927 9.97020E-03 2.56649E-03-3.40809E-14
 -1      3928 9.81508E-03 2.50279E-03-3.24503E-14
 -1      3929 1.01127E-02 2.63326E-03-3.51198E-14
 -1      3930 1.02552E-02 2.70008E-03-3.61711E-14
 -1      3931 1.00998E-02 2.63638E-03-3.45011E-14
 -1      3932 1.03979E-02 2.76696E-03-3.72342E-14
 -1      3933 1.05405E-02 2.83389E-03-3.83103E-14
 -1      3934 1.03848E-02 2.77019E-03-3.66017E-14
 -1      3935 1.06832E-02 2.90086E-03-3.93990E-14
 -1      3936 1.08260E-02 2.96786E-03-4.04994E-14
 -1      3937 1.06701E-02 2.90417E-03-3.87530E-14
 -1      3938 1.09688E-02 3.03490E-03-4.16125E-14
 -1      3939 1.11116E-02 3.10197E-03-4.27351E-14
 -1      3940 1.09556E-02 3.03828E-03-4.09539E-14
 -1      3941 1.12544E-02 3.16906E-03-4.38689E-14
 -1      3942 1.13973E-02 3.23617E-03-4.50133E-14
 -1      3943 1.12412E-02 3.17248E-03-4.31999E-14
 -1      3944 1.15401E-02 3.30331E-03-4.61692E-14
 -1      3945 1.16830E-02 3.37045E-03-4.73345E-14
 -1      3946 1.15269E-02 3.30676E-03-4.54886E-14
 -1      3947 1.18259E-02 3.43762E-03-4.85114E-14
 -1      3948 1.19687E-02 3.50479E-03-4.96975E-14
 -1      3949 1.18126E-02 3.44110E-03-4.78193E-14
 -1      3950 1.21116E-02 3.57198E-03-5.08940E-14
 -1      3951 1.22545E-02 3.63918E-03-5.21000E-14
 -1      3952 1.20984E-02 3.57548E-03-5.01927E-14
 -1      3953 1.23974E-02 3.70638E-03-5.33141E-14
 -1      3954 1.25403E-02 3.77359E-03-5.45346E-14
 -1      3955 1.23841E-02 3.70988E-03-5.26047E-14
 -1      3956 1.26832E-02 3.84080E-03-5.57606E-14
 -1      3957 1.28261E-02 3.90802E-03-5.69959E-14
 -1      3958 1.26699E-02 3.84431E-03-5.50455E-14
 -1      3959 9.57788E-03 2.45806E-03-2.66340E-14
 -1      3960 9.42955E-03 2.38655E-03-2.56627E-14
 -1      3961 7.90612E-03 1.64337E-03-1.65402E-14
 -1      3962 7.76811E-03 1.57598E-03-1.57763E-14
 -1      3963 9.28860E-03 2.31843E-03-2.47523E-14
 -1      3964 9.14801E-03 2.25032E-03-2.38591E-14
 -1      3965 9.30535E-03 2.31928E-03-2.53439E-14
 -1      3966 9.00435E-03 2.18055E-03-2.29633E-14
 -1      3967 8.86468E-03 2.11255E-03-2.21054E-14
 -1      3968 8.73859E-03 2.04523E-03-2.17955E-14
 -1      3969 9.86118E-03 2.59416E-03-2.85346E-14
 -1      3970 9.71942E-03 2.52613E-03-2.75774E-14
 -1      3971 9.58759E-03 2.45496E-03-2.71986E-14
 -1      3972 1.01452E-02 2.73007E-03-3.04934E-14
 -1      3973 1.00031E-02 2.66214E-03-2.95063E-14
 -1      3974 9.87086E-03 2.59060E-03-2.91127E-14
 -1      3975 1.04299E-02 2.86574E-03-3.25080E-14
 -1      3976 1.02875E-02 2.79793E-03-3.14934E-14
 -1      3977 1.01549E-02 2.72612E-03-3.10859E-14
 -1      3978 1.07149E-02 3.00119E-03-3.45751E-14
 -1      3979 1.05723E-02 2.93349E-03-3.35364E-14
 -1      3980 1.04395E-02 2.86149E-03-3.31146E-14
 -1      3981 1.10002E-02 3.13644E-03-3.66929E-14
 -1      3982 1.08575E-02 3.06884E-03-3.56270E-14
 -1      3983 1.07245E-02 2.99670E-03-3.51950E-14
 -1      3984 1.12999E-02 3.27826E-03-3.89705E-14
 -1      3985 1.11500E-02 3.20737E-03-3.78245E-14
 -1      3986 1.10169E-02 3.13513E-03-3.73790E-14
 -1      3987 1.15855E-02 3.41317E-03-4.11918E-14
 -1      3988 1.14427E-02 3.34573E-03-4.00757E-14
 -1      3989 1.13095E-02 3.27342E-03-3.96179E-14
 -1      3990 1.18712E-02 3.54797E-03-4.34623E-14
 -1      3991 1.17283E-02 3.48059E-03-4.23192E-14
 -1      3992 1.15951E-02 3.40823E-03-4.18494E-14
 -1      3993 1.21569E-02 3.68268E-03-4.57755E-14
 -1      3994 1.20141E-02 3.61533E-03-4.46157E-14
 -1      3995 1.18808E-02 3.54295E-03-4.41275E-14
 -1      3996 1.24427E-02 3.81731E-03-4.81387E-14
 -1      3997 1.22998E-02 3.75000E-03-4.69529E-14
 -1      3998 1.21665E-02 3.67759E-03-4.64563E-14
 -1      3999 1.27285E-02 3.95188E-03-5.05360E-14
 -1      4000 1.25856E-02 3.88460E-03-4.93332E-14
 -1      4001 1.24523E-02 3.81218E-03-4.88256E-14
 -1      4002 1.30285E-02 4.09315E-03-5.30896E-14
 -1      4003 1.28785E-02 4.02252E-03-5.18082E-14
 -1      4004 1.27452E-02 3.95010E-03-5.12922E-14
 -1      4005 1.33143E-02 4.22765E-03-5.55503E-14
 -1      4006 1.31714E-02 4.16040E-03-5.43149E-14
 -1      4007 1.30382E-02 4.08798E-03-5.37905E-14
 -1      4008 1.36001E-02 4.36214E-03-5.80324E-14
 -1      4009 1.34572E-02 4.29490E-03-5.67894E-14
 -1      4010 1.33239E-02 4.22247E-03-5.62545E-14
 -1      4011 6.86274E-03 1.14492E-03-1.05055E-14
 -1      4012 6.77333E-03 1.11264E-03-1.03050E-14
 -1      4013 6.77299E-03 1.12148E-03-1.07760E-14
 -1      4014 6.94385E-03 1.18484E-03-1.11134E-14
 -1      4015 1.37769E-02 4.41811E-03-6.13500E-14
 -1      4016 1.40749E-03 5.68003E-05-9.76893E-16
 -1      4017 7.17511E-03 1.29144E-03-1.24008E-14
 -1      4018 7.05728E-03 1.23650E-03-1.17500E-14
 -1      4019 6.97466E-03 1.20328E-03-1.15759E-14
 -1      4020 6.47916E-03 1.01712E-03-1.08026E-14
 -1      4021 6.32867E-03 9.55059E-04-1.07332E-14
 -1      4022 8.44954E-03 1.90963E-03-1.96298E-14
 -1      4023 8.31279E-03 1.84258E-03-1.88378E-14
 -1      4024 8.46217E-03 1.91096E-03-2.01439E-14
 -1      4025 1.29252E-03 2.48996E-04-9.37198E-16
 -1      4026 8.17708E-03 1.77606E-03-1.80625E-14
 -1      4027 8.04257E-03 1.71010E-03-1.73036E-14
 -1      4028 8.18903E-03 1.77820E-03-1.85564E-14
 -1      4029 1.80690E-03-5.58472E-05-1.41030E-15
 -1      4030 1.31817E-02 4.09427E-03-5.89095E-14
 -1      4031 1.32916E-02 4.15534E-03-5.92749E-14
 -1      4032 7.91682E-03 1.64628E-03-1.70160E-14
 -1      4033 1.31384E-02 4.05584E-03-5.96691E-14
 -1      4034 1.29267E-02 3.95551E-03-5.78651E-14
 -1      4035 1.30377E-02 4.00835E-03-5.87931E-14
 -1      4036 1.31149E-02 4.05399E-03-5.88816E-14
 -1      4037 1.29135E-02 3.95902E-03-5.71402E-14
 -1      4038 7.65029E-03 1.51821E-03-1.55409E-14
 -1      4039 7.63851E-03 1.51315E-03-1.50667E-14
 -1      4040 7.51108E-03 1.45161E-03-1.43705E-14
 -1      4041 6.68966E-03 1.09627E-03-1.11074E-14
 -1      4042 6.58690E-03 1.05835E-03-1.09547E-14
 -1      4043 6.60115E-03 1.06254E-03-1.14544E-14
 -1      4044 1.33577E-02 4.19750E-03-5.91513E-14
 -1      4045 1.34238E-02 4.23966E-03-5.90281E-14
 -1      4046 1.32140E-02 4.12922E-03-5.79410E-14
 -1      4047 9.02101E-03 2.18205E-03-2.35335E-14
 -1      4048 6.38523E-03 9.64129E-04-1.16273E-14
 -1      4049 6.21310E-03 8.93378E-04-1.10568E-14
 -1      4050 1.38004E-02 4.43953E-03-6.08875E-14
 -1      4051 1.36739E-02 4.39268E-03-5.89547E-14
 -1      4052 1.35910E-02 4.32936E-03-5.97917E-14
 -1      4053 1.35407E-02 4.32025E-03-5.84134E-14
 -1      4054 7.38598E-03 1.39194E-03-1.36894E-14
 -1      4055 7.26376E-03 1.33407E-03-1.30254E-14
 -1      4056 7.39416E-03 1.39721E-03-1.41467E-14
 -1      4057 5.77881E-03 6.85344E-04-1.02038E-14
 -1      4058 7.17936E-03 1.29715E-03-1.28413E-14
 -1      4059 1.30811E-02 4.04679E-03-5.80374E-14
 -1      4060 7.92794E-03 1.64914E-03-1.75036E-14
 -1      4061 7.79114E-03 1.58388E-03-1.67383E-14
 -1      4062 5.94707E-03 7.73405E-04-1.04279E-14
 -1      4063 8.75101E-03 2.04540E-03-2.23276E-14
 -1      4064 8.61220E-03 1.97845E-03-2.14851E-14
 -1      4065 6.72435E-03 1.09501E-03-1.34772E-14
 -1      4066 6.86453E-03 1.15393E-03-1.41442E-14
 -1      4067 7.00362E-03 1.21337E-03-1.48283E-14
 -1      4068 7.14228E-03 1.27359E-03-1.55283E-14
 -1      4069 7.00505E-03 1.21918E-03-1.44021E-14
 -1      4070 7.28051E-03 1.33446E-03-1.62434E-14
 -1      4071 7.41870E-03 1.39609E-03-1.69740E-14
 -1      4072 7.27835E-03 1.33813E-03-1.57993E-14
 -1      4073 7.55684E-03 1.45836E-03-1.77220E-14
 -1      4074 7.69518E-03 1.52128E-03-1.84855E-14
 -1      4075 7.55189E-03 1.46075E-03-1.72591E-14
 -1      4076 7.83369E-03 1.58474E-03-1.92635E-14
 -1      4077 7.97250E-03 1.64872E-03-2.00574E-14
 -1      4078 7.82660E-03 1.58646E-03-1.87826E-14
 -1      4079 8.11158E-03 1.71314E-03-2.08679E-14
 -1      4080 8.25099E-03 1.77795E-03-2.16940E-14
 -1      4081 8.10286E-03 1.71462E-03-2.03693E-14
 -1      4082 8.39070E-03 1.84310E-03-2.25363E-14
 -1      4083 8.53074E-03 1.90855E-03-2.33949E-14
 -1      4084 8.38077E-03 1.84460E-03-2.20189E-14
 -1      4085 8.67107E-03 1.97425E-03-2.42701E-14
 -1      4086 8.81170E-03 2.04017E-03-2.51618E-14
 -1      4087 8.66022E-03 1.97593E-03-2.37349E-14
 -1      4088 8.95258E-03 2.10629E-03-2.60687E-14
 -1      4089 9.09372E-03 2.17256E-03-2.69937E-14
 -1      4090 8.94105E-03 2.10821E-03-2.55151E-14
 -1      4091 9.23508E-03 2.23897E-03-2.79351E-14
 -1      4092 9.37665E-03 2.30549E-03-2.88910E-14
 -1      4093 9.22305E-03 2.24116E-03-2.73627E-14
 -1      4094 9.51841E-03 2.37212E-03-2.98610E-14
 -1      4095 9.66033E-03 2.43884E-03-3.08463E-14
 -1      4096 9.50601E-03 2.37457E-03-2.92723E-14
 -1      4097 9.80240E-03 2.50563E-03-3.18464E-14
 -1      4098 9.94460E-03 2.57248E-03-3.28580E-14
 -1      4099 9.78973E-03 2.50831E-03-3.12420E-14
 -1      4100 1.00869E-02 2.63938E-03-3.38844E-14
 -1      4101 1.02293E-02 2.70634E-03-3.49223E-14
 -1      4102 1.00740E-02 2.64226E-03-3.32669E-14
 -1      4103 1.03718E-02 2.77333E-03-3.59711E-14
 -1      4104 1.05144E-02 2.84036E-03-3.70333E-14
 -1      4105 1.03588E-02 2.77637E-03-3.53418E-14
 -1      4106 1.06570E-02 2.90741E-03-3.81085E-14
 -1      4107 1.07997E-02 2.97450E-03-3.91967E-14
 -1      4108 1.06439E-02 2.91059E-03-3.74649E-14
 -1      4109 1.09424E-02 3.04160E-03-4.02959E-14
 -1      4110 1.10852E-02 3.10873E-03-4.14083E-14
 -1      4111 1.09293E-02 3.04488E-03-3.96397E-14
 -1      4112 1.12280E-02 3.17587E-03-4.25306E-14
 -1      4113 1.13708E-02 3.24303E-03-4.36635E-14
 -1      4114 1.12148E-02 3.17922E-03-4.18598E-14
 -1      4115 1.15136E-02 3.31019E-03-4.48075E-14
 -1      4116 1.16565E-02 3.37737E-03-4.59627E-14
 -1      4117 1.15004E-02 3.31360E-03-4.41268E-14
 -1      4118 1.17994E-02 3.44456E-03-4.71292E-14
 -1      4119 1.19422E-02 3.51176E-03-4.83056E-14
 -1      4120 1.17861E-02 3.44801E-03-4.64369E-14
 -1      4121 1.20851E-02 3.57896E-03-4.94942E-14
 -1      4122 1.22280E-02 3.64617E-03-5.06912E-14
 -1      4123 1.20719E-02 3.58243E-03-4.87920E-14
 -1      4124 1.23709E-02 3.71338E-03-5.18959E-14
 -1      4125 1.25138E-02 3.78060E-03-5.31093E-14
 -1      4126 1.23576E-02 3.71687E-03-5.11872E-14
 -1      4127 1.26567E-02 3.84782E-03-5.43297E-14
 -1      4128 1.27996E-02 3.91504E-03-5.55548E-14
 -1      4129 1.26434E-02 3.85132E-03-5.36135E-14
 -1      4130 9.88395E-03 2.58859E-03-2.97163E-14
 -1      4131 9.74218E-03 2.52098E-03-2.87443E-14
 -1      4132 9.31828E-03 2.31821E-03-2.59169E-14
 -1      4133 9.17757E-03 2.25069E-03-2.50037E-14
 -1      4134 7.00625E-03 1.22100E-03-1.20429E-14
 -1      4135 6.88796E-03 1.16958E-03-1.14020E-14
 -1      4136 6.79660E-03 1.13557E-03-1.12294E-14
 -1      4137 6.56199E-03 1.04256E-03-1.18531E-14
 -1      4138 6.46091E-03 9.89014E-04-1.21857E-14
 -1      4139 6.60346E-03 1.04687E-03-1.28223E-14
 -1      4140 6.66724E-03 1.08663E-03-1.20158E-14
 -1      4141 1.01680E-02 2.72376E-03-3.17050E-14
 -1      4142 1.00259E-02 2.65618E-03-3.07039E-14
 -1      4143 9.89692E-03 2.58644E-03-3.03220E-14
 -1      4144 1.04526E-02 2.85885E-03-3.37487E-14
 -1      4145 1.03103E-02 2.79132E-03-3.27203E-14
 -1      4146 1.01811E-02 2.72129E-03-3.23270E-14
 -1      4147 1.07376E-02 2.99383E-03-3.58409E-14
 -1      4148 1.05951E-02 2.92635E-03-3.47876E-14
 -1      4149 1.04657E-02 2.85612E-03-3.43816E-14
 -1      4150 1.10372E-02 3.13545E-03-3.80941E-14
 -1      4151 1.08874E-02 3.06465E-03-3.69610E-14
 -1      4152 1.07579E-02 2.99426E-03-3.65427E-14
 -1      4153 1.13227E-02 3.27024E-03-4.02920E-14
 -1      4154 1.11799E-02 3.20286E-03-3.91867E-14
 -1      4155 1.10503E-02 3.13235E-03-3.87564E-14
 -1      4156 1.16083E-02 3.40495E-03-4.25346E-14
 -1      4157 1.14655E-02 3.33760E-03-4.14082E-14
 -1      4158 1.13358E-02 3.26701E-03-4.09652E-14
 -1      4159 1.18940E-02 3.53959E-03-4.48239E-14
 -1      4160 1.17511E-02 3.47227E-03-4.36732E-14
 -1      4161 1.16215E-02 3.40163E-03-4.32203E-14
 -1      4162 1.21797E-02 3.67418E-03-4.71628E-14
 -1      4163 1.20368E-02 3.60689E-03-4.59879E-14
 -1      4164 1.19072E-02 3.53621E-03-4.55212E-14
 -1      4165 1.24655E-02 3.80873E-03-4.95417E-14
 -1      4166 1.23226E-02 3.74146E-03-4.83476E-14
 -1      4167 1.21929E-02 3.67075E-03-4.78684E-14
 -1      4168 1.27656E-02 3.94998E-03-5.20758E-14
 -1      4169 1.26155E-02 3.87936E-03-5.08048E-14
 -1      4170 1.24858E-02 3.80864E-03-5.03165E-14
 -1      4171 1.30513E-02 4.08448E-03-5.45226E-14
 -1      4172 1.29085E-02 4.01724E-03-5.32962E-14
 -1      4173 1.27788E-02 3.94650E-03-5.28009E-14
 -1      4174 1.33674E-02 4.23599E-03-5.70779E-14
 -1      4175 1.32246E-02 4.16875E-03-5.58391E-14
 -1      4176 1.30949E-02 4.09801E-03-5.53391E-14
 -1      4177 1.34413E-02 4.26653E-03-5.79917E-14
 -1      4178 8.47403E-03 1.91181E-03-2.06575E-14
 -1      4179 8.33660E-03 1.84550E-03-1.98464E-14
 -1      4180 8.48535E-03 1.91214E-03-2.11731E-14
 -1      4181 1.34473E-02 4.26108E-03-5.85739E-14
 -1      4182 9.60062E-03 2.45338E-03-2.77869E-14
 -1      4183 9.45930E-03 2.38578E-03-2.68441E-14
 -1      4184 9.33096E-03 2.31690E-03-2.64899E-14
 -1      4185 7.18122E-03 1.30088E-03-1.32827E-14
 -1      4186 7.09220E-03 1.26011E-03-1.26567E-14
 -1      4187 7.00212E-03 1.22299E-03-1.24728E-14
 -1      4188 8.19998E-03 1.77970E-03-1.90536E-14
 -1      4189 8.06428E-03 1.71443E-03-1.82753E-14
 -1      4190 8.21027E-03 1.78054E-03-1.95518E-14
 -1      4191 9.03550E-03 2.18241E-03-2.40962E-14
 -1      4192 8.89212E-03 2.11339E-03-2.31982E-14
 -1      4193 8.76473E-03 2.04600E-03-2.28727E-14
 -1      4194 9.04792E-03 2.18161E-03-2.46520E-14
 -1      4195 7.93664E-03 1.65036E-03-1.79834E-14
 -1      4196 1.28900E-02 3.95717E-03-5.63582E-14
 -1      4197 1.29907E-02 4.00466E-03-5.72256E-14
 -1      4198 1.30575E-02 4.04494E-03-5.72518E-14
 -1      4199 1.28767E-02 3.96068E-03-5.56377E-14
 -1      4200 9.61348E-03 2.45161E-03-2.83748E-14
 -1      4201 6.81352E-03 1.14577E-03-1.17389E-14
 -1      4202 1.31236E-02 4.08709E-03-5.71284E-14
 -1      4203 6.06259E-03 8.33969E-04-1.04605E-14
 -1      4204 1.32741E-02 4.17682E-03-5.72383E-14
 -1      4205 6.75030E-03 1.11363E-03-1.30661E-14
 -1      4206 7.66684E-03 1.52345E-03-1.64803E-14
 -1      4207 7.65894E-03 1.52137E-03-1.60084E-14
 -1      4208 7.52823E-03 1.46000E-03-1.52959E-14
 -1      4209 7.39899E-03 1.40021E-03-1.45981E-14
 -1      4210 7.27156E-03 1.34201E-03-1.39144E-14
 -1      4211 7.40317E-03 1.40187E-03-1.50490E-14
 -1      4212 7.18078E-03 1.30210E-03-1.37195E-14
 -1      4213 1.31123E-02 4.08983E-03-5.65219E-14
 -1      4214 1.31062E-02 4.09527E-03-5.59457E-14
 -1      4215 1.29330E-02 4.01101E-03-5.46288E-14
 -1      4216 1.29558E-02 4.00554E-03-5.58375E-14
 -1      4217 1.04123E-02 2.81629E-03-3.48644E-14
 -1      4218 1.02699E-02 2.74906E-03-3.38268E-14
 -1      4219 9.55992E-03 2.41322E-03-2.88266E-14
 -1      4220 9.41847E-03 2.34616E-03-2.78706E-14
 -1      4221 7.34159E-03 1.37155E-03-1.54270E-14
 -1      4222 7.47566E-03 1.43182E-03-1.61408E-14
 -1      4223 7.61027E-03 1.49326E-03-1.68713E-14
 -1      4224 7.74564E-03 1.55562E-03-1.76190E-14
 -1      4225 7.88332E-03 1.61967E-03-1.83910E-14
 -1      4226 8.02001E-03 1.68361E-03-1.91690E-14
 -1      4227 8.15730E-03 1.74821E-03-1.99623E-14
 -1      4228 8.29521E-03 1.81329E-03-2.07727E-14
 -1      4229 8.43365E-03 1.87883E-03-2.15987E-14
 -1      4230 8.57263E-03 1.94470E-03-2.24418E-14
 -1      4231 8.71381E-03 2.01171E-03-2.33112E-14
 -1      4232 8.85369E-03 2.07812E-03-2.41877E-14
 -1      4233 8.99571E-03 2.14556E-03-2.50923E-14
 -1      4234 9.13633E-03 2.21231E-03-2.60024E-14
 -1      4235 9.27726E-03 2.27920E-03-2.69287E-14
 -1      4236 9.70159E-03 2.48031E-03-2.97970E-14
 -1      4237 9.84345E-03 2.54746E-03-3.07842E-14
 -1      4238 9.98547E-03 2.61464E-03-3.17853E-14
 -1      4239 1.01276E-02 2.68184E-03-3.27996E-14
 -1      4240 1.05548E-02 2.88353E-03-3.59163E-14
 -1      4241 1.07045E-02 2.95414E-03-3.70353E-14
 -1      4242 1.08471E-02 3.02138E-03-3.81112E-14
 -1      4243 1.09898E-02 3.08863E-03-3.92017E-14
 -1      4244 1.11325E-02 3.15588E-03-4.03029E-14
 -1      4245 1.12753E-02 3.22313E-03-4.14161E-14
 -1      4246 1.14181E-02 3.29038E-03-4.25414E-14
 -1      4247 1.15609E-02 3.35763E-03-4.36775E-14
 -1      4248 1.17038E-02 3.42487E-03-4.48234E-14
 -1      4249 1.18466E-02 3.49211E-03-4.59817E-14
 -1      4250 1.19895E-02 3.55936E-03-4.71519E-14
 -1      4251 1.21324E-02 3.62660E-03-4.83320E-14
 -1      4252 1.22753E-02 3.69384E-03-4.95246E-14
 -1      4253 1.24253E-02 3.76444E-03-5.07841E-14
 -1      4254 1.25682E-02 3.83167E-03-5.19932E-14
 -1      4255 6.81952E-03 1.14942E-03-1.22744E-14
 -1      4256 6.78788E-03 1.13433E-03-1.26858E-14
 -1      4257 1.27111E-02 3.89891E-03-5.32109E-14
 -1      4258 7.10564E-03 1.26950E-03-1.36460E-14
 -1      4259 7.01495E-03 1.23037E-03-1.30234E-14
 -1      4260 6.90173E-03 1.18037E-03-1.33408E-14
 -1      4261 6.92558E-03 1.19214E-03-1.24056E-14
 -1      4262 7.07525E-03 1.25482E-03-1.40453E-14
 -1      4263 7.20826E-03 1.31246E-03-1.47288E-14
 -1      4264 1.28654E-02 3.96341E-03-5.50344E-14
 -1      4265 1.27225E-02 3.89618E-03-5.38108E-14
 -3
    1PSTEP                         2           1           1          
  100CL  101 1.000000000        4265                     0    1           1
 -4  STRESS      6    1
 -5  SXX         1    4    1    1
 -5  SYY         1    4    2    2
 -5  SZZ         1    4    3    3
 -5  SXY         1    4    1    2
 -5  SYZ         1    4    2    3
 -5  SZX         1    4    3    1
 -1         1 6.83301E+01 7.90078E-01 3.53861E+00 6.50994E-02-1.83707E-14 9.18540E-13
 -1         2-7.47398E-01-2.61806E+01-3.46470E+00-8.54971E-02-2.13857E-14-1.11158E-13
 -1         3 1.99998E+01 3.15467E-05-6.67191E-05 3.29021E-05 4.74430E-13 4.09273E-13
 -1         4 1.99998E+01 2.76113E-05-6.98770E-05-2.79499E-05 7.54892E-14 1.36916E-13
 -1         5 3.36825E+01 6.35741E+00 2.58781E+00 6.10598E+00-2.74364E-14 1.66914E-12
 -1         6 3.64853E+01 1.24803E+01 5.11548E+00-8.70736E+00-1.08344E-13 1.10373E-12
 -1         7 2.16912E+01 6.34170E+00-9.05359E-02-4.59378E+00-1.59317E-14 3.56312E-15
 -1         8 2.04105E+01 6.15289E+00 7.31840E-02-2.98483E+00-1.17267E-14-2.60696E-13
 -1         9 1.97034E+01 5.94108E+00 6.79888E-02-2.11267E+00-9.92609E-15-3.79344E-13
 -1        10 1.92388E+01 5.79563E+00 6.90709E-02-1.42198E+00 2.15106E-16-4.14834E-13
 -1        11 1.88396E+01 5.67213E+00 6.55799E-02-8.24252E-01 1.08247E-15-4.07856E-13
 -1        12 1.84508E+01 5.55347E+00 5.68514E-02-3.15189E-01 4.09568E-15-3.88274E-13
 -1        13 1.80523E+01 5.43335E+00 4.23699E-02 1.10811E-01 8.13065E-15-3.68093E-13
 -1        14 1.76835E+01 5.32295E+00 2.33913E-02 4.27768E-01 8.21912E-15-3.35937E-13
 -1        15 1.74086E+01 5.24118E+00 3.27302E-03 6.28677E-01 8.60076E-15-3.01397E-13
 -1        16 1.73092E+01 5.21225E+00-1.27134E-02 7.29907E-01 1.39311E-14-2.69586E-13
 -1        17 1.74627E+01 5.25901E+00-1.86531E-02 7.79712E-01 1.40478E-14-2.29479E-13
 -1        18 1.79038E+01 5.39217E+00-1.06687E-02 8.54869E-01 1.58033E-14-1.54756E-13
 -1        19 1.86511E+01 5.61732E+00 1.29184E-02 1.05826E+00 2.30788E-14-4.91599E-14
 -1        20 1.96626E+01 5.92273E+00 4.94697E-02 1.50303E+00 2.46539E-14 1.14807E-13
 -1        21 2.09288E+01 6.30613E+00 1.00813E-01 2.33305E+00 2.43486E-14 3.86319E-13
 -1        22 2.28478E+01 6.81304E+00 2.28319E-01 3.89833E+00 3.40006E-15 8.46939E-13
 -1        23 2.40237E+01-1.43490E+00-9.70256E-01-6.59495E-01-7.11098E-14 7.45418E-13
 -1        24 2.06185E+01-9.50939E-02-3.01137E-01 7.77146E-02-1.58033E-14 4.29927E-13
 -1        25 2.00606E+01-4.78857E-02-5.41792E-02 6.55914E-02-1.27743E-14 1.86561E-13
 -1        26 1.98300E+01-1.15990E-02 1.03209E-02 3.15168E-02 3.92974E-15 1.03910E-14
 -1        27 1.96273E+01 1.04174E-04 2.07030E-02 1.37423E-02-1.56786E-14-9.44661E-14
 -1        28 1.93143E+01 5.56056E-03 2.17267E-02-1.67181E-03 1.86797E-15-1.59947E-13
 -1        29 1.88283E+01 6.12310E-03 1.85766E-02-1.56525E-02 1.04884E-14-2.09407E-13
 -1        30 1.81772E+01 2.35129E-03 1.00480E-02-2.66091E-02-1.18305E-14-3.08839E-13
 -1        31 1.74422E+01-4.71680E-03-3.80632E-03-3.14753E-02 8.19071E-15-4.42204E-13
 -1        32 1.67668E+01-1.29467E-02-1.98757E-02-2.75321E-02-7.38537E-15-5.25042E-13
 -1        33 1.63188E+01-1.94196E-02-3.27342E-02-1.45507E-02 3.35196E-14-6.62026E-13
 -1        34 1.62322E+01-2.15675E-02-3.72453E-02 4.08342E-03-1.20294E-14-6.59425E-13
 -1        35 1.65532E+01-1.84451E-02-3.15131E-02 2.24259E-02-4.03127E-14-7.87333E-13
 -1        36 1.72204E+01-1.12155E-02-1.80623E-02 3.48022E-02 5.39797E-14-7.05753E-13
 -1        37 1.80904E+01-2.46412E-03-2.26003E-03 3.84709E-02-2.52228E-14-5.44705E-13
 -1        38 1.89933E+01 5.14757E-03 1.06892E-02 3.43167E-02 6.57281E-15-5.61383E-13
 -1        39 1.97872E+01 9.97856E-03 1.79861E-02 2.55256E-02 1.00375E-14-4.21331E-13
 -1        40 2.03884E+01 1.17155E-02 1.95951E-02 1.56043E-02 2.69596E-14-4.19382E-13
 -1        41 2.07738E+01 1.10074E-02 1.71985E-02 7.02944E-03-1.09394E-14-4.01459E-13
 -1        42 2.09645E+01 8.87537E-03 1.28865E-02 9.03294E-04-3.22100E-15-4.89450E-13
 -1        43 2.10045E+01 6.25351E-03 8.30898E-03-2.72750E-03-6.71058E-14-5.73342E-13
 -1        44 2.09432E+01 3.77960E-03 4.41508E-03-4.36714E-03 6.35781E-14-5.57404E-13
 -1        45 2.08244E+01 1.77953E-03 1.55668E-03-4.66859E-03-3.13887E-14-4.20709E-13
 -1        46 2.06817E+01 3.45755E-04-2.87990E-04-4.21032E-03 9.30382E-15-7.28515E-13
 -1        47 2.05379E+01-5.66651E-04-1.31293E-03-3.41523E-03 7.66954E-14-5.69633E-13
 -1        48 2.04065E+01-1.06332E-03-1.75371E-03-2.55100E-03 3.53964E-14-2.00421E-13
 -1        49 2.02943E+01-1.26175E-03-1.82084E-03-1.76351E-03 2.74168E-14-7.82609E-14
 -1        50 2.02031E+01-1.26615E-03-1.67604E-03-1.11602E-03-2.34545E-15-3.33969E-13
 -1        51 2.01323E+01-1.15800E-03-1.43139E-03-6.21969E-04 2.38765E-14-4.22496E-13
 -1        52 2.00793E+01-9.95468E-04-1.15793E-03-2.68557E-04 4.97916E-14-1.69524E-13
 -1        53 2.00412E+01-8.16823E-04-8.96473E-04-3.18195E-05-4.25049E-14-8.07999E-14
 -1        54 2.00150E+01-6.45073E-04-6.67367E-04 1.14613E-04-2.06151E-14-1.72128E-13
 -1        55 1.99979E+01-4.92400E-04-4.78044E-04 1.95004E-04-7.59872E-15-4.21096E-13
 -1        56 1.99876E+01-3.63815E-04-3.28439E-04 2.29622E-04 2.52976E-14-4.87332E-13
 -1        57 1.99821E+01-2.59916E-04-2.14606E-04 2.34329E-04 3.13746E-14-3.35271E-13
 -1        58 1.99800E+01-1.78830E-04-1.30981E-04 2.20927E-04 4.66972E-14-2.83584E-13
 -1        59 1.99800E+01-1.17510E-04-7.17071E-05 1.97807E-04-6.35649E-14-3.10423E-13
 -1        60 1.99813E+01-7.25377E-05-3.13518E-05 1.70670E-04 5.23108E-15-5.60524E-15
 -1        61 1.99834E+01-4.05916E-05-5.21768E-06 1.43196E-04 7.53210E-15-9.27656E-14
 -1        62 1.99858E+01-1.86864E-05 1.05683E-05 1.17603E-04-1.16088E-13-7.18357E-13
 -1        63 1.99882E+01-4.26355E-06 1.91010E-05 9.50888E-05 8.35739E-14-1.01335E-12
 -1        64 1.99906E+01 4.80479E-06 2.28140E-05 7.61620E-05-3.43563E-14-5.79566E-13
 -1        65 1.99927E+01 1.02621E-05 2.36388E-05 6.08642E-05-2.66828E-14-8.26122E-13
 -1        66 1.99946E+01 1.35299E-05 2.32114E-05 4.88888E-05 2.00263E-14-5.91759E-13
 -1        67 1.99963E+01 1.57808E-05 2.31820E-05 3.95681E-05 5.17516E-14-4.11485E-13
 -1        68 1.99977E+01 1.79328E-05 2.53738E-05 3.16720E-05 4.49562E-14-1.35983E-13
 -1        69 1.99988E+01 2.02740E-05 3.11815E-05 2.26015E-05 3.02076E-14 1.25755E-13
 -1        70 1.99996E+01 1.91671E-05 3.54126E-05 4.99739E-06 3.12305E-14 2.65239E-13
 -1        71 1.99999E+01-3.64291E-06 7.69790E-06-2.05234E-05 3.59392E-14 3.65089E-13
 -1        72 2.31330E+01-4.28150E-01-1.02086E+00-3.90618E-01 1.95191E-14 1.65135E-12
 -1        73 2.26172E+01-7.50349E-02-2.92816E-01-6.64637E-02 2.39652E-15 1.47363E-12
 -1        74 2.31806E+01-3.34105E-02-8.91708E-02-3.06843E-02 6.90962E-15 1.29335E-12
 -1        75 2.44885E+01-2.15146E-02-5.12909E-02-4.06718E-02 3.78387E-16 1.13563E-12
 -1        76 2.64277E+01-5.49839E-03-3.62597E-02-6.89164E-02 8.21337E-15 1.07281E-12
 -1        77 2.88142E+01 2.46299E-02 1.56672E-02-1.14669E-01 2.74845E-15 1.06633E-12
 -1        78 3.11980E+01 6.35225E-02 1.45217E-01-1.48904E-01 1.02175E-15 1.12091E-12
 -1        79 3.21950E+01 8.98917E-02 3.12611E-01-9.77762E-02 9.16541E-15 1.21498E-12
 -1        80 3.03009E+01 3.92942E-02 3.27255E-01 1.43166E-01-3.07913E-15 1.45602E-12
 -1        81 2.48503E+01-8.11108E-02-5.69944E-02 5.08742E-01-9.55486E-15 1.58479E-12
 -1        82 1.84854E+01-1.36941E-01-6.89398E-01 5.80609E-01-5.72285E-15 1.47432E-12
 -1        83 1.65723E+01-7.87307E-02-8.75456E-01 3.68776E-02 8.78117E-15 1.04219E-12
 -1        84 2.00316E+01-1.07150E-02-5.14973E-01-4.04398E-01 4.88758E-14 5.04763E-13
 -1        85 2.56610E+01 6.26348E-02 9.18076E-03-5.50414E-01 3.58602E-14 4.26326E-14
 -1        86 3.11584E+01 6.69586E-02 3.29453E-01-3.71262E-01-2.83055E-14-2.55004E-13
 -1        87 3.30823E+01 4.96720E-02 2.96096E-01-9.43424E-02-5.14515E-14-1.12431E-13
 -1        88 3.21160E+01 2.09579E-02 1.37433E-01 5.41598E-02 1.90885E-15 1.75571E-13
 -1        89 2.98869E+01-1.07442E-03 1.58493E-02 9.33475E-02 3.45264E-14 9.34391E-14
 -1        90 2.75069E+01-1.11056E-02-3.77601E-02 8.47089E-02-1.41422E-14 2.05443E-13
 -1        91 2.53927E+01-1.34044E-02-4.70878E-02 6.10286E-02-6.24254E-14 3.17305E-13
 -1        92 2.38377E+01-1.27340E-02-4.01360E-02 4.13240E-02 4.96184E-14 3.01611E-13
 -1        93 2.26919E+01-1.03522E-02-2.97342E-02 2.71217E-02-4.50323E-15 2.46582E-14
 -1        94 2.18680E+01-7.96623E-03-2.08710E-02 1.74561E-02-3.07809E-14 3.03832E-13
 -1        95 2.12833E+01-5.98169E-03-1.43450E-02 1.11600E-02-7.78858E-15 4.53083E-13
 -1        96 2.08704E+01-4.40763E-03-9.88624E-03 7.44785E-03 2.78721E-16 6.64885E-13
 -1        97 2.05703E+01-3.04337E-03-6.50623E-03 4.24449E-03 3.80517E-14 5.40221E-13
 -1        98 2.03725E+01-2.27965E-03-4.51415E-03 2.71911E-03-3.24243E-14 2.51745E-13
 -1        99 2.02353E+01-1.64582E-03-3.11440E-03 1.67196E-03-4.40790E-14 2.09934E-13
 -1       100 2.01411E+01-1.18722E-03-2.15116E-03 9.86797E-04 6.83656E-14 2.33799E-14
 -1       101 2.00775E+01-8.55478E-04-1.48410E-03 5.46989E-04-1.03710E-13-3.53980E-13
 -1       102 2.00353E+01-6.19366E-04-1.02569E-03 3.13353E-04 8.84886E-15 2.43315E-13
 -1       103 2.00072E+01-4.10058E-04-6.65577E-04 5.13257E-05 1.26826E-14-4.87480E-14
 -1       104 1.99912E+01-2.95747E-04-4.43965E-04-3.32795E-05-3.80238E-14-8.88792E-14
 -1       105 1.99823E+01-2.02086E-04-2.84418E-04-9.28910E-05-5.77160E-14-5.47486E-13
 -1       106 1.99781E+01-1.34708E-04-1.72740E-04-1.23237E-04 4.51638E-15-6.08060E-13
 -1       107 1.99770E+01-8.63136E-05-9.61091E-05-1.33444E-04-2.09615E-13-2.60380E-13
 -1       108 1.99778E+01-5.44232E-05-4.48321E-05-1.27047E-04-4.64592E-15-3.25566E-13
 -1       109 1.99798E+01-2.72640E-05-9.41735E-06-1.25802E-04 1.06243E-13-6.82200E-13
 -1       110 1.99824E+01-1.29282E-05 1.07188E-05-1.09696E-04-2.98339E-14-1.17940E-12
 -1       111 1.99851E+01-2.91923E-06 2.17696E-05-9.55800E-05-7.97601E-14-3.29621E-13
 -1       112 1.99877E+01 3.29461E-06 2.69768E-05-8.16341E-05-2.51418E-14 4.07283E-13
 -1       113 1.99902E+01 7.15119E-06 2.83401E-05-6.88659E-05-3.61553E-15 3.77862E-13
 -1       114 1.99925E+01 8.90012E-06 2.77626E-05-5.85178E-05 8.60508E-14 3.34929E-13
 -1       115 1.99946E+01 1.00950E-05 2.55944E-05-4.88168E-05 4.56806E-14-5.07642E-13
 -1       116 1.99963E+01 1.14865E-05 2.51227E-05-4.20740E-05 2.60594E-14-3.65445E-13
 -1       117 1.99977E+01 1.29480E-05 2.69536E-05-3.72828E-05 1.04694E-13-4.25761E-13
 -1       118 1.99988E+01 1.46711E-05 3.27609E-05-3.26899E-05-1.18050E-14-4.53182E-13
 -1       119 1.99995E+01 1.45122E-05 3.73960E-05-2.20502E-05 4.95736E-14 2.29049E-13
 -1       120 1.99998E+01-1.28836E-05 6.29379E-06 8.59557E-06-1.19498E-13 7.25815E-13
 -1       121 1.99998E+01 2.81787E-05 4.70195E-06 2.13063E-05 6.31235E-13-1.01364E-13
 -1       122 1.99998E+01-2.61524E-04 3.42340E-05-1.19039E-05 4.68472E-13 2.26175E-14
 -1       123 1.99998E+01-9.65501E-04 2.11968E-05-2.94895E-05 1.14636E-12 6.28408E-14
 -1       124 1.99998E+01-1.87644E-03 4.07078E-06-3.46628E-05 6.43975E-13-5.36413E-14
 -1       125 1.99998E+01-2.81815E-03-9.86644E-06-3.21613E-05 9.71432E-13-1.09310E-13
 -1       126 1.99998E+01-3.63561E-03-1.97246E-05-2.57111E-05-3.49988E-13-1.17780E-13
 -1       127 1.99998E+01-4.24781E-03-2.58681E-05-1.62942E-05-4.21507E-14 4.58944E-13
 -1       128 1.99998E+01-4.56859E-03-2.88366E-05-5.44794E-06-1.59666E-13 3.41988E-14
 -1       129 1.99998E+01-4.56292E-03-2.87340E-05 5.81104E-06 3.45588E-14 2.00044E-13
 -1       130 1.99998E+01-4.23195E-03-2.55807E-05 1.65431E-05-6.75152E-14-1.42683E-13
 -1       131 1.99998E+01-3.61305E-03-1.91508E-05 2.60551E-05-5.64621E-13-6.52903E-14
 -1       132 1.99998E+01-2.79386E-03-9.53082E-06 3.20813E-05-1.53588E-12 3.87072E-13
 -1       133 1.99998E+01-1.85480E-03 4.13483E-06 3.42719E-05-1.60244E-12-1.16103E-13
 -1       134 1.99998E+01-9.47032E-04 2.26926E-05 3.16809E-05-1.09554E-12 1.71719E-13
 -1       135 1.99998E+01-2.64890E-04 2.96573E-05 1.66676E-05-3.92737E-13 4.34055E-14
 -1       136 1.99998E+01 1.93994E-05 3.79788E-06-4.05515E-05-3.78195E-13-2.80719E-13
 -1       137-1.79286E+00-2.31250E+01-3.42283E+00-4.66687E+00 7.67081E-13 1.98693E-13
 -1       138-2.37789E+00-1.18356E+01-2.81872E+00-4.47249E+00 1.78402E-12 9.78773E-13
 -1       139 1.54500E+00 5.54833E-01-1.75934E+00 1.59304E+00 2.36655E-12 1.80367E-12
 -1       140 1.37994E+01 8.72245E+00-2.65992E-01 1.10429E+01 1.86229E-12 2.05513E-12
 -1       141 3.50995E+01 9.94395E+00 1.65205E+00 1.81423E+01 9.49962E-13 1.49714E-12
 -1       142 6.01153E+01 5.61633E+00 3.61543E+00 1.67503E+01 1.67116E-13 7.35800E-13
 -1       143 7.47301E+01 1.51706E+00 4.74291E+00 5.46363E+00 3.44863E-14-1.73195E-14
 -1       144 7.18054E+01 2.65734E+00 4.55779E+00-9.89633E+00 3.10242E-13-1.28936E-12
 -1       145 5.24817E+01 7.58279E+00 3.07317E+00-1.86122E+01 8.48294E-13-2.19136E-12
 -1       146 2.77086E+01 1.05336E+01 1.02827E+00-1.68113E+01 1.40860E-12-2.17892E-12
 -1       147 8.22577E+00 6.54370E+00-8.56029E-01-7.50246E+00 1.48603E-12-1.47982E-12
 -1       148-1.01477E+00-4.17061E+00-2.26983E+00 1.62330E+00 1.00725E-12-6.50535E-13
 -1       149-2.34508E+00-1.65448E+01-3.11735E+00 5.21591E+00 3.25906E-13-1.44898E-13
 -1       150-1.19255E+00-2.51784E+01-3.51222E+00 3.28339E+00-4.00499E-13 5.45033E-14
 -1       151-7.70650E-01-2.51378E+01-3.41018E+00-1.58635E+00-1.11905E-12-1.06167E-13
 -1       152-1.60831E+00-1.56004E+01-2.76133E+00-4.10428E+00-1.62070E-12-4.89275E-13
 -1       153-1.87331E-01-2.56820E+00-1.70755E+00-4.96960E-01-1.81588E-12-1.01749E-12
 -1       154 7.64674E+00 8.08865E+00-3.98723E-01 7.98522E+00-1.68304E-12-1.46572E-12
 -1       155 2.25751E+01 1.20713E+01 9.82477E-01 1.63202E+01-1.18755E-12-1.54288E-12
 -1       156 4.38192E+01 9.06655E+00 2.33082E+00 1.92371E+01-5.05540E-13-1.06071E-12
 -1       157 6.13137E+01 3.46520E+00 3.21622E+00 1.28322E+01-3.63494E-14-5.02931E-14
 -1       158 6.10952E+01 3.70409E+00 3.21981E+00-1.32987E+01-4.52159E-13 1.86307E-12
 -1       159 4.16770E+01 9.65472E+00 2.22569E+00-1.93423E+01-1.04142E-12 2.09205E-12
 -1       160 2.09851E+01 1.20038E+01 8.62982E-01-1.56604E+01-1.54893E-12 1.98569E-12
 -1       161 6.05747E+00 6.88944E+00-5.63507E-01-6.58608E+00-1.95255E-12 1.48453E-12
 -1       162-8.20198E-01-5.10814E+00-1.92539E+00 1.61819E+00-1.68388E-12 8.95312E-13
 -1       163-1.43734E+00-1.91497E+01-2.97835E+00 3.81013E+00-9.49796E-13 3.23547E-13
 -1       164 2.19235E+01 3.70418E+00-5.76946E-02-3.38297E+00-1.88141E-13-1.00409E-13
 -1       165 2.07471E+01 4.19171E+00-4.73314E-02-2.49483E+00-1.35417E-13-2.52184E-13
 -1       166 2.00662E+01 4.40561E+00-3.37230E-02-1.77898E+00-6.82536E-14-3.24119E-13
 -1       167 1.95700E+01 4.48643E+00-2.54597E-02-1.15049E+00-2.40949E-14-3.43137E-13
 -1       168 1.91138E+01 4.53633E+00-2.03587E-02-5.98860E-01 2.17105E-14-3.30375E-13
 -1       169 1.86365E+01 4.59399E+00-1.70996E-02-1.12526E-01 5.60624E-14-3.09059E-13
 -1       170 1.81533E+01 4.67836E+00-1.48238E-02 2.80441E-01 9.61197E-14-2.72409E-13
 -1       171 1.77217E+01 4.78900E+00-1.33415E-02 5.62205E-01 1.27834E-13-2.48729E-13
 -1       172 1.74367E+01 4.90771E+00-1.27720E-02 7.30663E-01 1.60871E-13-2.29271E-13
 -1       173 1.74086E+01 5.00235E+00-1.34016E-02 8.12234E-01 1.83080E-13-2.02289E-13
 -1       174 1.77204E+01 5.03546E+00-1.56552E-02 8.66640E-01 2.02633E-13-1.47560E-13
 -1       175 1.84270E+01 4.97383E+00-2.03421E-02 9.82949E-01 2.36237E-13-6.10866E-14
 -1       176 1.95166E+01 4.78049E+00-2.85229E-02 1.26348E+00 2.51982E-13 5.13253E-14
 -1       177 2.09628E+01 4.38807E+00-3.92766E-02 1.80410E+00 2.41687E-13 2.46667E-13
 -1       178 2.29003E+01 3.49881E+00-4.56491E-02 2.61517E+00 1.88160E-13 5.45342E-13
 -1       179 2.45509E+01 1.04769E+00-3.26132E-01 2.33542E+00 1.04531E-13 9.03291E-13
 -1       180 2.30053E+01 8.28041E-01-1.08914E-03-1.80612E+00-1.78267E-13 1.31326E-13
 -1       181 2.15544E+01 1.48290E-01-1.09449E-02-6.79347E-01-1.38117E-13 6.97697E-14
 -1       182 2.07958E+01 5.18493E-02 1.19098E-02-3.10039E-01-1.02343E-13 1.96293E-14
 -1       183 2.03749E+01-1.22121E-02 7.96149E-03-2.28308E-01-7.58725E-14-5.32287E-14
 -1       184 2.00403E+01-4.31864E-02 3.19502E-03-2.77852E-01-3.58779E-14-6.31051E-14
 -1       185 1.96861E+01-5.25889E-02 1.02597E-03-3.85410E-01-5.42405E-14-6.55161E-14
 -1       186 1.92688E+01-4.01152E-02 6.78722E-04-4.93593E-01-6.90046E-14-9.02721E-14
 -1       187 1.88005E+01-5.98049E-03 1.21334E-03-5.46300E-01-7.14920E-14-8.97832E-14
 -1       188 1.83412E+01 4.28562E-02 1.99972E-03-4.97090E-01-8.09929E-14-1.28756E-13
 -1       189 1.79818E+01 9.11343E-02 2.65700E-03-3.27552E-01-7.93480E-14-1.74380E-13
 -1       190 1.78134E+01 1.20244E-01 2.98296E-03-6.18654E-02-3.57067E-14-2.82838E-13
 -1       191 1.78901E+01 1.17697E-01 2.90008E-03 2.36618E-01-4.84161E-14-3.25614E-13
 -1       192 1.82055E+01 8.45115E-02 2.39345E-03 4.90012E-01 4.14035E-15-3.08526E-13
 -1       193 1.86936E+01 3.44501E-02 1.51555E-03 6.38980E-01 6.01134E-14-2.81314E-13
 -1       194 1.92554E+01-1.43369E-02 4.16365E-04 6.64192E-01-1.09235E-14-1.67233E-13
 -1       195 1.97931E+01-4.85099E-02-6.64247E-04 5.85607E-01 9.42974E-14-1.76928E-13
 -1       196 2.02360E+01-6.36474E-02-1.48634E-03 4.45192E-01 1.69927E-14-2.23694E-13
 -1       197 2.05499E+01-6.26891E-02-1.91598E-03 2.86687E-01 9.49349E-15-2.36307E-13
 -1       198 2.07327E+01-5.18674E-02-1.95399E-03 1.42479E-01-7.97838E-14-2.52675E-13
 -1       199 2.08032E+01-3.72494E-02-1.70154E-03 2.97642E-02-3.65546E-14-2.36451E-13
 -1       200 2.07899E+01-2.30607E-02-1.29430E-03-4.70088E-02-6.89716E-14-1.73867E-13
 -1       201 2.07218E+01-1.14841E-02-8.52805E-04-9.14012E-02-9.40941E-15-3.96470E-13
 -1       202 2.06241E+01-3.16968E-03-4.58447E-04-1.10594E-01-5.96653E-14-2.24497E-13
 -1       203 2.05159E+01 2.12355E-03-1.50886E-04-1.12380E-01 6.35594E-14-1.79418E-13
 -1       204 2.04100E+01 5.01988E-03 6.16486E-05-1.03556E-01 1.46737E-13-2.86153E-13
 -1       205 2.03143E+01 6.21327E-03 1.89667E-04-8.93207E-02 8.68362E-14-1.99337E-13
 -1       206 2.02323E+01 6.31164E-03 2.51755E-04-7.32632E-02-1.37640E-13-1.79188E-13
 -1       207 2.01653E+01 5.78300E-03 2.67591E-04-5.76249E-02 3.65068E-14-1.43005E-13
 -1       208 2.01124E+01 4.95563E-03 2.54284E-04-4.36365E-02 8.86249E-14-1.61045E-13
 -1       209 2.00721E+01 4.04152E-03 2.25034E-04-3.18334E-02 5.42603E-14-3.03966E-13
 -1       210 2.00425E+01 3.16540E-03 1.89129E-04-2.23113E-02-1.25225E-14-1.43159E-13
 -1       211 2.00215E+01 2.39154E-03 1.52553E-04-1.49140E-02-1.42521E-13 1.52811E-14
 -1       212 2.00072E+01 1.74504E-03 1.18776E-04-9.36209E-03-5.33316E-14-1.76176E-13
 -1       213 1.99979E+01 1.22750E-03 8.95057E-05-5.33459E-03 7.75528E-14-3.24640E-13
 -1       214 1.99924E+01 8.27808E-04 6.52980E-05-2.51764E-03-2.53667E-14-3.10195E-13
 -1       215 1.99896E+01 5.29102E-04 4.60152E-05-6.29753E-04 2.09702E-14-3.88576E-13
 -1       216 1.99886E+01 3.13043E-04 3.11481E-05 5.67446E-04 5.40934E-14-3.26157E-13
 -1       217 1.99887E+01 1.62170E-04 2.00268E-05 1.26746E-03 1.36194E-14-9.71503E-14
 -1       218 1.99895E+01 6.10572E-05 1.19489E-05 1.62191E-03-3.22949E-13-1.28666E-13
 -1       219 1.99908E+01-3.29050E-06 6.25223E-06 1.74584E-03-2.21034E-13-2.55041E-14
 -1       220 1.99922E+01-4.14953E-05 2.34762E-06 1.72360E-03 8.65615E-14-2.85478E-13
 -1       221 1.99936E+01-6.21090E-05-2.67904E-07 1.61443E-03 1.14762E-14-1.33534E-13
 -1       222 1.99950E+01-7.20537E-05-2.00552E-06 1.45727E-03 7.51967E-14 4.41308E-14
 -1       223 1.99963E+01-7.71487E-05-3.16948E-06 1.27438E-03 2.16501E-13 2.39918E-14
 -1       224 1.99974E+01-8.25403E-05-3.83698E-06 1.07398E-03 2.48176E-13 1.92428E-13
 -1       225 1.99983E+01-9.33739E-05-3.86874E-06 8.52035E-04 1.64904E-13 6.28069E-14
 -1       226 1.99990E+01-1.14056E-04-3.58340E-06 5.95261E-04 1.92305E-13 1.05539E-13
 -1       227 1.99995E+01-1.40414E-04-2.44572E-06 2.96516E-04 7.96062E-14 1.69983E-13
 -1       228 2.36804E+01 2.91105E-01-4.28509E-02 4.54301E-01 1.07640E-13 7.93371E-13
 -1       229 2.34321E+01 1.88109E-01 9.54191E-03-3.93294E-01 1.14804E-13 6.73650E-13
 -1       230 2.39876E+01 1.47479E-01 8.84329E-03-9.07976E-01 6.58926E-14 5.87944E-13
 -1       231 2.50754E+01 1.13756E-01 6.62453E-04-1.29755E+00 3.54521E-14 5.06850E-13
 -1       232 2.65029E+01 3.09304E-02-1.15155E-03-1.51083E+00-1.88009E-14 5.26452E-13
 -1       233 2.80576E+01-1.88097E-01 1.20099E-02-1.29186E+00-4.88819E-14 5.69331E-13
 -1       234 2.90896E+01-5.34367E-01 3.55735E-02-3.11726E-01-8.08225E-14 6.84915E-13
 -1       235 2.90556E+01-8.13529E-01 2.96722E-02 1.52735E+00-9.04745E-14 7.73180E-13
 -1       236 2.75629E+01-4.58042E-01-5.99227E-02 3.30755E+00-2.28463E-14 7.84633E-13
 -1       237 2.53669E+01 7.31051E-01-2.05377E-01 2.97747E+00 1.69642E-13 7.26212E-13
 -1       238 2.45843E+01 1.41165E+00-2.51590E-01-1.64747E-01 2.97887E-13 3.69916E-13
 -1       239 2.58420E+01 8.26191E-01-1.67435E-01-2.90041E+00 3.71120E-13 1.72348E-13
 -1       240 2.78004E+01-1.46916E-01-4.86261E-02-3.64805E+00 2.32403E-13-2.71588E-14
 -1       241 2.95919E+01-7.76525E-01 3.34274E-02-2.25349E+00 7.35479E-14-1.20882E-13
 -1       242 2.98113E+01-6.45249E-01 2.91846E-02-2.45048E-01-3.88509E-14-2.73014E-13
 -1       243 2.88650E+01-2.98435E-01 5.10272E-03 1.03582E+00-1.56110E-13-2.73954E-13
 -1       244 2.73828E+01-5.00114E-02-8.36917E-03 1.48411E+00 3.11491E-15-1.45391E-13
 -1       245 2.58242E+01 6.37223E-02-9.07526E-03 1.43938E+00-1.65746E-13 1.38179E-13
 -1       246 2.43689E+01 9.52923E-02-4.59906E-03 1.18546E+00 1.22732E-14 3.64384E-13
 -1       247 2.32431E+01 8.79911E-02-8.69192E-04 9.13176E-01 2.86412E-14 2.13320E-13
 -1       248 2.23651E+01 7.08824E-02 1.06039E-03 6.76846E-01 5.34271E-14 1.91565E-13
 -1       249 2.17028E+01 5.33623E-02 1.71929E-03 4.91145E-01-1.18615E-13 1.64491E-13
 -1       250 2.12124E+01 3.89064E-02 1.73366E-03 3.52177E-01-1.24654E-13 3.10896E-13
 -1       251 2.08531E+01 2.79870E-02 1.45203E-03 2.50711E-01-7.90004E-15 4.78677E-13
 -1       252 2.05820E+01 1.95913E-02 1.20735E-03 1.74577E-01 5.29300E-14 3.48724E-13
 -1       253 2.03981E+01 1.39329E-02 8.96516E-04 1.22853E-01 1.98630E-13 2.15745E-13
 -1       254 2.02663E+01 9.93117E-03 6.77910E-04 8.58443E-02-2.40043E-14 2.78586E-14
 -1       255 2.01729E+01 7.06671E-03 5.06958E-04 5.93622E-02 1.49440E-13 1.90926E-13
 -1       256 2.01075E+01 5.01603E-03 3.76577E-04 4.04402E-02-5.89373E-14 2.68015E-13
 -1       257 2.00623E+01 3.55812E-03 2.75515E-04 2.69621E-02-1.16723E-13 7.93092E-14
 -1       258 2.00306E+01 2.43855E-03 2.05348E-04 1.70503E-02 1.75241E-13 2.23428E-13
 -1       259 2.00110E+01 1.68853E-03 1.47281E-04 1.04805E-02-9.62286E-14 2.96436E-13
 -1       260 1.99987E+01 1.14681E-03 1.07139E-04 5.95419E-03 1.73926E-13 2.07868E-13
 -1       261 1.99915E+01 7.57826E-04 7.71706E-05 2.89588E-03 8.43843E-14 9.41343E-14
 -1       262 1.99877E+01 4.80914E-04 5.47235E-05 8.89976E-04-1.97133E-13-1.63589E-13
 -1       263 1.99863E+01 2.89934E-04 3.83438E-05-3.71338E-04 1.29891E-13-2.75409E-13
 -1       264 1.99864E+01 1.48686E-04 2.58900E-05-1.13495E-03 3.70752E-14-4.86852E-13
 -1       265 1.99873E+01 6.33694E-05 1.70486E-05-1.50470E-03-1.24714E-13-1.49487E-13
 -1       266 1.99888E+01 7.57369E-06 1.08120E-05-1.64342E-03-3.46032E-13-1.80090E-13
 -1       267 1.99904E+01-2.58869E-05 6.37238E-06-1.63656E-03 7.97242E-14-4.15252E-13
 -1       268 1.99921E+01-4.43641E-05 3.19909E-06-1.54309E-03 1.55093E-14-5.11712E-13
 -1       269 1.99937E+01-5.27455E-05 1.14910E-06-1.40306E-03 6.64088E-14-4.10914E-13
 -1       270 1.99953E+01-5.66321E-05-6.20880E-07-1.23155E-03 2.08290E-13-5.59962E-15
 -1       271 1.99966E+01-5.79629E-05-1.44242E-06-1.05699E-03-8.70392E-14 1.07348E-13
 -1       272 1.99977E+01-6.18289E-05-1.54884E-06-8.72649E-04 1.35724E-13 2.00456E-13
 -1       273 1.99986E+01-7.13390E-05-5.27749E-07-6.69663E-04-2.63865E-13 2.44737E-13
 -1       274 1.99992E+01-9.02114E-05-3.36364E-07-4.31618E-04 1.52240E-15 1.04331E-13
 -1       275 1.99996E+01-9.92617E-05-3.23267E-06-1.60281E-04-1.04377E-13-2.74637E-13
 -1       276 1.99997E+01-3.36028E-04-2.71621E-06-3.07509E-04 1.10810E-13 2.29713E-13
 -1       277 1.99997E+01-8.00700E-04-9.69734E-07-5.60608E-04 3.76064E-13 1.76012E-13
 -1       278 1.99998E+01-1.39957E-03-3.70434E-07-7.05161E-04 7.25388E-14-2.00151E-13
 -1       279 1.99998E+01-2.05113E-03 4.39657E-07-7.25010E-04 1.97108E-13 5.32344E-14
 -1       280 1.99999E+01-2.65575E-03 1.75719E-06-6.39812E-04 8.82522E-14-7.06182E-13
 -1       281 1.99999E+01-3.15601E-03 2.89073E-06-4.71175E-04 1.22420E-13 2.08564E-14
 -1       282 1.99999E+01-3.47897E-03 3.66545E-06-2.46963E-04 5.29788E-14 1.04931E-13
 -1       283 1.99999E+01-3.58782E-03 3.92211E-06 4.52247E-06-6.94971E-14 1.72329E-13
 -1       284 1.99999E+01-3.47053E-03 3.64402E-06 2.55067E-04 9.89384E-14-2.02233E-14
 -1       285 1.99999E+01-3.14069E-03 2.85933E-06 4.76782E-04-6.24626E-14-1.73811E-13
 -1       286 1.99999E+01-2.64660E-03 1.64640E-06 6.39777E-04-3.29371E-13-5.26006E-13
 -1       287 1.99998E+01-2.03138E-03 3.95416E-07 7.23084E-04-4.05791E-13-1.08008E-13
 -1       288 1.99998E+01-1.38258E-03-5.71436E-07 7.00517E-04-4.07750E-13 3.74400E-13
 -1       289 1.99997E+01-7.91943E-04-2.54247E-06 5.50837E-04-3.27396E-13 4.67484E-13
 -1       290 1.99996E+01-4.37797E-04-3.13875E-06 4.81824E-04-2.17563E-13 2.22383E-13
 -1       291-1.28175E+00-1.13196E+01-9.33856E-01 1.07005E-01 8.15042E-14 5.53113E-13
 -1       292 2.49741E+00-9.19602E+00-7.26473E-01 3.09978E+00 3.92492E-13 5.90708E-13
 -1       293 9.23814E+00-6.83427E+00-6.56284E-01 4.78514E+00 5.89528E-13 9.20444E-13
 -1       294 1.91630E+01-3.44501E+00-3.10204E-01 6.21429E+00 8.91148E-13 6.25916E-13
 -1       295 3.06980E+01 1.64651E-02 1.63728E-01 6.23709E+00 8.09741E-13 4.02789E-13
 -1       296 4.12990E+01 3.24034E+00 6.15229E-01 3.51045E+00 6.60428E-13 2.69562E-13
 -1       297 4.99277E+01 6.26673E+00 1.27368E+00 2.35585E+00 4.18415E-13 5.11535E-14
 -1       298 5.03152E+01 7.43744E+00 1.23525E+00-4.31621E-01 5.73847E-13-3.32952E-13
 -1       299 4.60786E+01 5.70373E+00 8.85196E-01-2.31866E+00 6.56308E-13-5.61218E-13
 -1       300 3.84652E+01 2.30039E+00 4.89824E-01-4.98626E+00 5.24553E-13-7.15039E-13
 -1       301 2.78792E+01-2.25644E+00 1.65593E-03-5.83792E+00 2.61124E-13-7.25919E-13
 -1       302 1.43296E+01-4.33961E+00-5.08746E-01-5.98025E+00 3.00537E-13-7.45348E-13
 -1       303 5.58727E+00-8.08076E+00-8.45060E-01-3.80899E+00 1.47493E-13-5.24044E-13
 -1       304 5.91086E-01-1.00180E+01-8.53952E-01-2.01771E+00-4.27158E-14-3.61183E-13
 -1       305-1.49740E+00-1.19045E+01-1.04859E+00 5.45927E-01-2.59295E-13-3.24019E-13
 -1       306 1.26860E-01-1.06093E+01-9.72349E-01 2.57708E+00-4.75592E-13-3.72175E-13
 -1       307 5.27570E+00-7.02266E+00-6.77570E-01 4.82460E+00-6.60694E-13-4.90544E-13
 -1       308 1.40823E+01-3.28140E+00-2.64114E-01 7.13130E+00-6.45262E-13-5.65145E-13
 -1       309 2.30361E+01 1.04555E+00 7.49830E-02 8.19308E+00-7.40741E-13-5.68851E-13
 -1       310 3.36671E+01 4.23980E+00 5.15467E-01 8.16162E+00-6.28414E-13-3.72702E-13
 -1       311 4.28615E+01 6.04715E+00 8.48046E-01 5.98211E+00-5.58609E-13-8.33777E-14
 -1       312 4.71777E+01 7.04666E+00 9.42915E-01 1.96107E+00-4.98990E-13 2.47594E-13
 -1       313 4.80021E+01 6.87198E+00 1.02180E+00-2.30275E+00-5.60454E-13 6.98400E-13
 -1       314 4.14588E+01 5.97142E+00 6.94952E-01-5.37504E+00-4.90913E-13 8.98198E-13
 -1       315 3.25817E+01 3.63265E+00 4.08726E-01-7.81407E+00-6.06584E-13 8.57286E-13
 -1       316 2.27579E+01-4.34728E-01 2.94153E-02-7.72962E+00-6.68160E-13 7.15011E-13
 -1       317 1.19683E+01-3.68450E+00-3.41415E-01-6.78167E+00-6.26610E-13 7.07198E-13
 -1       318 3.87368E+00-7.93417E+00-6.99293E-01-4.53084E+00-5.62966E-13 5.46889E-13
 -1       319-6.54879E-01-1.08570E+01-9.08405E-01-2.21123E+00-3.61988E-13 5.12757E-13
 -1       320 2.08963E+01 2.82671E+00-2.05509E-02-1.80676E+00-1.17329E-13-1.96433E-13
 -1       321 2.16616E+01 2.09992E+00-2.02589E-02-2.13924E+00-1.68814E-13-1.10254E-13
 -1       322 1.98371E+01 3.39479E+00-1.70891E-02-7.60254E-01-3.42120E-15-2.32990E-13
 -1       323 1.93179E+01 3.58465E+00-1.40944E-02-2.29959E-01 3.84503E-14-2.26676E-13
 -1       324 1.87537E+01 3.79838E+00-1.15284E-02 2.39742E-01 1.03714E-13-2.00190E-13
 -1       325 1.81809E+01 4.04880E+00-9.24069E-03 6.02957E-01 1.55176E-13-1.91497E-13
 -1       326 1.76933E+01 4.31042E+00-7.39857E-03 8.23195E-01 1.92948E-13-1.81402E-13
 -1       327 1.74274E+01 4.52243E+00-6.44832E-03 8.92598E-01 2.17714E-13-1.60649E-13
 -1       328 1.75187E+01 4.60556E+00-7.02213E-03 8.51147E-01 2.34325E-13-1.19547E-13
 -1       329 1.80685E+01 4.48888E+00-9.70745E-03 7.79377E-01 2.70168E-13-4.76437E-14
 -1       330 1.91017E+01 4.11263E+00-1.45511E-02 7.78973E-01 2.88188E-13 3.83669E-14
 -1       331 2.05610E+01 3.42464E+00-1.88158E-02 9.26863E-01 2.85693E-13 1.60382E-13
 -1       332 2.22688E+01 2.32140E+00-2.42459E-02 1.12435E+00 2.38849E-13 3.49195E-13
 -1       333 2.32565E+01 1.26013E+00-1.65562E-02 8.76996E-01 1.86937E-13 5.09853E-13
 -1       334 2.30447E+01 6.84493E-01 1.23120E-02-3.56057E-01 1.63282E-13 3.92737E-13
 -1       335 2.14639E+01 5.12373E-01 1.06487E-02-9.71977E-01-1.38042E-13-6.30609E-14
 -1       336 2.10572E+01 1.32542E-01 5.01303E-03-5.87363E-01-1.24593E-13-6.35000E-14
 -1       337 2.07651E+01-6.34124E-02 1.80386E-03-5.07708E-01-6.39523E-14-5.82181E-14
 -1       338 2.05134E+01-1.57679E-01-2.48623E-04-5.94021E-01-4.00589E-14-8.23558E-14
 -1       339 2.02486E+01-1.64394E-01-6.39540E-04-7.47598E-01-3.45398E-14-2.25150E-14
 -1       340 1.99426E+01-8.28522E-02 6.38607E-05-8.73039E-01-7.34546E-14-1.66671E-14
 -1       341 1.96058E+01 7.38507E-02 1.31353E-03-8.78577E-01-8.25275E-14-4.74546E-14
 -1       342 1.92894E+01 2.62534E-01 2.57973E-03-7.00505E-01-1.26729E-13-7.49917E-14
 -1       343 1.90710E+01 4.14904E-01 3.45472E-03-3.36250E-01-1.35115E-13-1.49412E-13
 -1       344 1.90198E+01 4.66881E-01 3.72820E-03 1.40779E-01-4.16926E-14-1.95457E-13
 -1       345 1.91591E+01 3.94413E-01 3.31170E-03 6.05294E-01-1.98457E-14-1.52302E-13
 -1       346 1.94512E+01 2.28135E-01 2.29454E-03 9.35821E-01 6.42627E-14-7.61183E-14
 -1       347 1.98162E+01 3.33650E-02 8.94851E-04 1.06716E+00 3.60142E-14-1.17145E-13
 -1       348 2.01697E+01-1.27361E-01-5.23346E-04 1.00682E+00 2.84081E-14-1.43021E-13
 -1       349 2.04525E+01-2.20718E-01-1.58980E-03 8.13752E-01 3.32273E-14-1.49308E-13
 -1       350 2.06395E+01-2.45811E-01-2.12783E-03 5.62347E-01-3.35147E-14-1.68138E-13
 -1       351 2.07332E+01-2.21584E-01-2.16520E-03 3.14534E-01-1.08485E-15-2.05041E-13
 -1       352 2.07507E+01-1.71942E-01-1.86171E-03 1.08172E-01-2.68778E-14-2.62669E-13
 -1       353 2.07139E+01-1.16338E-01-1.39568E-03-4.17556E-02-8.23153E-14-2.44242E-13
 -1       354 2.06434E+01-6.67047E-02-9.08438E-04-1.36196E-01-2.91762E-14-1.28956E-13
 -1       355 2.05561E+01-2.82818E-02-4.87107E-04-1.84542E-01 6.92060E-14-9.48756E-14
 -1       356 2.04640E+01-1.82597E-03-1.67529E-04-1.98998E-01-1.30833E-14-8.97076E-14
 -1       357 2.03754E+01 1.42638E-02 4.77580E-05-1.91205E-01 3.06648E-14-1.81427E-13
 -1       358 2.02952E+01 2.24447E-02 1.74172E-04-1.70675E-01 1.79080E-13-1.71776E-13
 -1       359 2.02258E+01 2.51658E-02 2.33558E-04-1.44395E-01 3.89252E-14-2.47176E-13
 -1       360 2.01679E+01 2.44736E-02 2.47311E-04-1.17034E-01 7.65430E-15-1.00991E-13
 -1       361 2.01211E+01 2.19031E-02 2.33182E-04-9.14048E-02 5.72180E-14-1.19145E-13
 -1       362 2.00843E+01 1.85113E-02 2.04390E-04-6.89683E-02-1.72036E-14-2.95887E-13
 -1       363 2.00562E+01 1.49699E-02 1.69946E-04-5.02707E-02-3.23149E-14-2.74035E-13
 -1       364 2.00353E+01 1.16654E-02 1.35473E-04-3.52916E-02 6.13705E-14-1.90704E-13
 -1       365 2.00202E+01 8.78877E-03 1.04110E-04-2.36942E-02-9.07904E-14 5.79354E-14
 -1       366 2.00097E+01 6.40566E-03 7.73009E-05-1.49964E-02-8.62071E-14-2.37327E-14
 -1       367 2.00026E+01 4.50706E-03 5.54222E-05-8.67747E-03 6.24916E-14-2.32492E-14
 -1       368 1.99982E+01 3.04450E-03 3.82293E-05-4.24189E-03 5.00497E-14-1.31350E-13
 -1       369 1.99956E+01 1.95252E-03 2.51640E-05-1.25092E-03 5.37123E-14-8.87697E-14
 -1       370 1.99943E+01 1.16242E-03 1.55486E-05 6.64594E-04 4.90772E-14-7.95816E-14
 -1       371 1.99939E+01 6.09759E-04 8.70083E-06 1.80337E-03-3.98554E-14-2.67066E-13
 -1       372 1.99941E+01 2.37974E-04 3.99502E-06 2.39921E-03 6.66288E-14 1.36846E-13
 -1       373 1.99946E+01-5.60629E-07 8.87162E-07 2.62939E-03-2.08614E-13 5.08142E-13
 -1       374 1.99953E+01-1.44898E-04-1.08061E-06 2.62377E-03 3.50031E-14 2.83548E-13
 -1       375 1.99961E+01-2.26689E-04-2.28198E-06 2.47325E-03 2.08031E-13 2.40367E-13
 -1       376 1.99969E+01-2.71723E-04-3.02043E-06 2.23720E-03 9.96037E-14 4.08218E-13
 -1       377 1.99976E+01-3.01626E-04-3.55039E-06 1.94942E-03 9.92801E-14 1.36577E-13
 -1       378 1.99983E+01-3.33405E-04-3.81218E-06 1.62341E-03 1.03124E-13-2.86809E-14
 -1       379 1.99988E+01-3.83664E-04-4.84945E-06 1.25927E-03 1.57931E-13 1.15999E-13
 -1       380 1.99992E+01-4.16113E-04-4.30024E-06 8.81177E-04 2.43127E-13 3.24258E-13
 -1       381 2.32012E+01 5.03425E-01 1.23290E-02-1.22071E+00 1.34934E-13 3.58542E-13
 -1       382 2.37416E+01 3.78978E-01 5.52613E-03-1.87207E+00 7.09508E-14 3.06000E-13
 -1       383 2.46160E+01 1.24114E-01-1.11093E-03-2.27357E+00-2.69216E-14 2.65755E-13
 -1       384 2.58626E+01-4.79135E-01-3.64067E-03-2.16347E+00-7.83301E-14 3.36738E-13
 -1       385 2.73399E+01-1.43537E+00-3.04352E-03-1.12154E+00-1.45507E-13 3.69974E-13
 -1       386 2.88735E+01-2.27272E+00-2.18333E-02 1.06745E+00-1.03987E-13 3.91468E-13
 -1       387 2.98877E+01-1.52684E+00-8.00965E-02 3.63997E+00-4.61523E-14 4.68405E-13
 -1       388 2.97102E+01 1.66382E+00-1.94730E-01 4.04072E+00 1.91722E-13 4.87310E-13
 -1       389 2.92499E+01 4.02335E+00-2.31869E-01 2.25717E-01 5.18349E-13 2.25854E-13
 -1       390 2.97349E+01 2.63429E+00-1.69253E-01-3.40220E+00 4.31474E-13-1.49793E-14
 -1       391 3.02570E+01-2.24495E-01-1.30498E-01-4.45753E+00 3.34135E-13-4.33603E-14
 -1       392 2.99200E+01-2.27845E+00-4.17531E-02-2.59466E+00 1.78352E-13-1.36638E-13
 -1       393 2.84372E+01-1.98311E+00-2.06296E-02 1.05958E-01-1.94211E-14-1.57011E-13
 -1       394 2.68164E+01-9.59890E-01-1.00110E-02 1.77258E+00-2.19778E-13-1.31007E-13
 -1       395 2.54050E+01-1.83328E-01-7.87996E-03 2.33325E+00-1.08634E-13 4.10080E-14
 -1       396 2.42519E+01 1.88965E-01-2.94687E-03 2.24717E+00-1.96265E-13 1.12967E-13
 -1       397 2.32652E+01 3.03442E-01 1.93788E-03 1.87497E+00-1.05860E-13 1.74927E-13
 -1       398 2.25051E+01 2.89944E-01 4.20512E-03 1.47094E+00 1.81336E-13 3.22988E-13
 -1       399 2.18939E+01 2.38198E-01 4.50817E-03 1.11112E+00 1.09857E-13 1.05074E-13
 -1       400 2.14129E+01 1.82482E-01 3.93995E-03 8.20940E-01-1.29234E-13-1.34064E-14
 -1       401 2.10410E+01 1.34963E-01 3.12597E-03 5.98554E-01-1.88128E-13 1.23775E-13
 -1       402 2.07571E+01 9.80704E-02 2.30275E-03 4.32695E-01-1.41684E-13 6.99907E-14
 -1       403 2.05347E+01 6.95618E-02 1.73259E-03 3.05598E-01 1.69516E-13 6.21713E-14
 -1       404 2.03784E+01 4.99366E-02 1.22124E-03 2.18144E-01 2.41693E-13 1.00120E-13
 -1       405 2.02629E+01 3.58278E-02 8.77918E-04 1.54514E-01-6.06597E-14 3.79419E-14
 -1       406 2.01786E+01 2.56755E-02 6.30576E-04 1.08381E-01 1.06804E-14 2.33319E-13
 -1       407 2.01177E+01 1.83563E-02 4.51417E-04 7.50142E-02 9.87193E-16 3.03429E-13
 -1       408 2.00744E+01 1.30657E-02 3.15825E-04 5.09822E-02-2.09230E-14 9.69982E-14
 -1       409 2.00428E+01 9.06711E-03 2.30269E-04 3.30425E-02-7.12958E-16 2.26573E-13
 -1       410 2.00225E+01 6.31995E-03 1.57051E-04 2.10524E-02-1.09823E-13 4.06333E-13
 -1       411 2.00090E+01 4.33504E-03 1.09035E-04 1.26518E-02 2.40412E-13 4.12338E-13
 -1       412 2.00004E+01 2.90287E-03 7.44244E-05 6.87614E-03 9.79309E-14 1.88987E-13
 -1       413 1.99953E+01 1.87880E-03 4.93707E-05 3.00153E-03 3.43373E-14 9.14894E-15
 -1       414 1.99925E+01 1.15713E-03 3.12229E-05 4.91809E-04-4.71372E-14-3.38711E-13
 -1       415 1.99913E+01 6.34266E-04 1.94396E-05-1.11307E-03 1.00235E-14-6.54496E-14
 -1       416 1.99913E+01 3.01927E-04 1.02325E-05-1.96004E-03-1.80624E-13 6.90233E-14
 -1       417 1.99918E+01 8.58453E-05 4.62870E-06-2.36421E-03-1.51376E-13-5.06815E-14
 -1       418 1.99927E+01-4.83796E-05 9.58063E-07-2.47856E-03 1.66694E-13-8.07858E-14
 -1       419 1.99938E+01-1.25905E-04-1.37776E-06-2.41230E-03 1.13435E-13-9.33173E-14
 -1       420 1.99949E+01-1.65979E-04-2.65336E-06-2.24013E-03-1.10571E-13-4.86712E-13
 -1       421 1.99960E+01-1.86159E-04-3.61080E-06-1.99714E-03-2.42488E-13-3.04968E-13
 -1       422 1.99970E+01-1.96252E-04-4.13039E-06-1.73351E-03-1.79175E-14 6.05812E-14
 -1       423 1.99979E+01-2.09673E-04-4.33355E-06-1.44696E-03-8.61694E-14 7.83455E-14
 -1       424 1.99986E+01-2.36486E-04-3.75826E-06-1.13162E-03 2.34692E-14 1.31554E-13
 -1       425 1.99991E+01-2.75326E-04-3.83911E-06-7.81366E-04 4.15443E-14-2.08739E-14
 -1       426 1.99994E+01-3.21603E-04-2.96799E-06-5.50760E-04 1.46984E-13 1.42426E-13
 -1       427 1.99998E+01-1.55348E-03-5.34263E-07-1.23717E-03-1.62917E-13 1.44965E-14
 -1       428 1.99996E+01-1.04014E-03-2.65072E-06-1.13077E-03-2.82864E-13-1.56941E-13
 -1       429 1.99995E+01-6.62043E-04-4.04744E-06-8.78948E-04-1.39777E-14 1.04331E-15
 -1       430 1.99999E+01-2.03459E-03 1.19581E-06-1.16615E-03-2.18704E-15-5.85136E-13
 -1       431 2.00001E+01-2.45362E-03 2.47433E-06-9.43260E-04 1.54144E-13-1.89232E-13
 -1       432 2.00002E+01-2.75690E-03 3.41120E-06-6.07823E-04 2.60518E-13 1.84315E-13
 -1       433 2.00002E+01-2.91414E-03 3.89196E-06-2.04446E-04-6.30747E-14-5.07327E-14
 -1       434 2.00002E+01-2.90980E-03 3.88636E-06 2.20584E-04-5.26812E-14-4.71699E-14
 -1       435 2.00002E+01-2.74469E-03 3.36288E-06 6.20774E-04-2.35143E-13-1.24435E-13
 -1       436 2.00001E+01-2.44223E-03 2.38414E-06 9.46025E-04-1.80624E-13-5.43038E-13
 -1       437 1.99999E+01-2.02225E-03 1.07944E-06 1.16461E-03 1.17588E-13-5.61449E-14
 -1       438 1.99998E+01-1.53398E-03-3.48367E-07 1.23213E-03 3.11046E-13 1.20238E-13
 -1       439 1.99996E+01-1.02448E-03-2.84018E-06 1.12957E-03 1.51434E-13 2.79783E-13
 -1       440 1.09547E+01-6.08957E+00-3.65247E-02 6.31609E+00-2.14551E-14 5.65888E-13
 -1       441 1.08467E+00-4.32480E+00-2.37970E-02-1.35836E+00-2.14193E-13 5.79259E-13
 -1       442 3.72697E+00-3.92920E+00 7.23147E-02 3.28968E+00-2.12073E-13 6.21378E-13
 -1       443 1.94526E+01-6.57648E+00-8.01601E-02 5.99229E+00 6.47538E-14 2.01911E-13
 -1       444 2.86904E+01-5.33077E+00-3.47812E-02 3.12903E+00 3.00371E-13-1.37251E-13
 -1       445 2.03517E+01 3.16576E+00-1.94439E-02-1.31681E+00-5.37565E-14-2.42818E-13
 -1       446 3.78157E+01 3.73710E+00 2.39887E-02-2.30848E+00 5.49366E-13 2.95597E-15
 -1       447 3.77684E+01 6.97876E+00 7.66424E-02-1.33008E+00 6.07903E-13-9.07607E-15
 -1       448 3.76937E+01 6.43892E+00 4.56822E-02 1.41498E+00 6.26915E-13-8.18096E-15
 -1       449 3.68104E+01 1.86835E+00-8.15539E-03 1.99316E+00 3.23880E-13 2.85882E-14
 -1       450 3.36612E+01-2.29001E+00-2.73961E-02-4.59004E-01 5.16965E-14-4.03844E-14
 -1       451 2.40668E+01-5.88971E+00-9.18279E-02-5.16579E+00-1.37140E-13-4.22253E-13
 -1       452 1.54211E+01-6.45732E+00-8.81283E-02-6.59678E+00-1.19127E-13-4.96550E-13
 -1       453 7.38790E+00-5.68378E+00-7.68138E-02-5.68882E+00-3.72341E-14-4.66224E-13
 -1       454 1.57738E+00-4.62002E+00-6.78095E-02-1.64888E+00 7.07073E-15-3.90410E-13
 -1       455 1.63064E+00-4.12120E+00-2.77423E-02 2.80417E+00 4.56996E-14-3.95628E-13
 -1       456 6.01717E+00-5.12394E+00-6.19341E-02 6.48391E+00-4.84335E-14-3.62446E-13
 -1       457 1.36914E+01-5.38204E+00-3.66002E-02 7.87364E+00-1.04805E-13-3.21307E-13
 -1       458 2.36869E+01-4.46235E+00 2.59173E-02 6.35000E+00-1.64410E-13-8.56260E-15
 -1       459 2.92900E+01-1.81625E+00-1.16576E-02 4.09998E+00-3.54189E-13 8.53900E-14
 -1       460 3.40964E+01 2.85233E+00-3.47932E-04 1.02618E+00-4.53547E-13 2.00145E-13
 -1       461 3.64271E+01 6.92587E+00 2.61332E-02 5.66908E-02-6.25569E-13 2.41251E-13
 -1       462 3.61643E+01 8.71285E+00-1.14044E-02-3.91833E-02-6.83870E-13 1.75089E-13
 -1       463 3.61296E+01 7.27510E+00 2.24132E-02 5.03623E-02-4.82392E-13 1.85518E-13
 -1       464 3.36145E+01 2.32191E+00-2.16532E-02-1.24753E+00-1.98092E-13 3.30333E-13
 -1       465 2.95384E+01-2.04790E+00 6.62682E-03-3.66651E+00-2.23037E-13 2.96346E-13
 -1       466 2.10397E+01-4.84750E+00-1.72796E-02-7.12271E+00-1.02404E-13 3.88009E-13
 -1       467 1.19698E+01-5.53132E+00-5.36232E-02-7.79038E+00-1.71224E-13 4.94861E-13
 -1       468 4.14080E+00-5.26066E+00-8.85627E-02-5.64344E+00-2.10734E-13 4.74634E-13
 -1       469 3.48606E+01-1.50092E+00 1.02887E-02-1.74994E-02 4.98683E-13-6.55587E-14
 -1       470 3.03631E+01-5.37167E+00-2.27062E-02-1.37539E+00-2.20247E-13 7.92422E-15
 -1       471 2.17792E+01 1.41082E+00 6.01032E-03-8.42360E-01 1.77564E-13 1.85832E-13
 -1       472 1.94756E+01 2.75118E+00-5.12177E-03 2.47530E-01 6.57384E-14-1.66799E-13
 -1       473 2.00581E+01 2.46832E+00-6.12536E-03-2.84616E-01 3.32502E-14-2.04014E-13
 -1       474 1.81090E+01 3.47524E+00-3.28551E-03 1.02190E+00 1.76294E-13-1.68117E-13
 -1       475 1.75450E+01 3.84674E+00-2.63617E-03 1.11251E+00 2.02663E-13-1.58010E-13
 -1       476 1.73063E+01 4.08926E+00-2.45957E-03 9.80476E-01 2.27756E-13-1.23445E-13
 -1       477 1.75615E+01 4.09146E+00-3.00325E-03 6.89166E-01 2.53113E-13-7.42492E-14
 -1       478 1.84041E+01 3.76144E+00-4.61067E-03 3.67150E-01 2.61040E-13-2.51752E-15
 -1       479 1.97762E+01 3.07435E+00-5.04213E-03 1.36243E-01 2.64469E-13 8.86444E-14
 -1       480 2.17145E+01 1.11498E+00 7.27339E-03-1.81638E+00 1.36341E-13 1.50175E-13
 -1       481 2.13194E+01 6.20653E-01 1.52449E-03-9.26242E-01-1.04219E-13-9.85161E-14
 -1       482 3.16067E+01-4.22696E+00-5.66576E-02-1.11428E+00 2.89832E-13-1.78774E-13
 -1       483 2.12407E+01 1.02838E-01 1.22578E-03-6.87376E-01-9.43860E-14-8.64275E-14
 -1       484 2.11629E+01-1.97688E-01-1.67349E-05-6.82905E-01-5.20811E-14-9.53086E-14
 -1       485 2.10762E+01-3.22454E-01-4.01017E-04-8.31204E-01-3.27217E-14-7.74330E-14
 -1       486 2.09406E+01-2.66872E-01-1.19564E-04-1.02832E+00-6.99677E-14-1.00831E-13
 -1       487 2.07284E+01-3.03600E-02 5.08200E-04-1.15006E+00-1.03034E-13-8.55521E-14
 -1       488 2.04537E+01 3.36970E-01 1.12540E-03-1.07402E+00-1.09453E-13-1.04688E-13
 -1       489 2.01868E+01 7.13769E-01 1.35691E-03-7.30626E-01-1.30108E-13-8.04742E-14
 -1       490 2.00289E+01 9.43848E-01 1.36696E-03-1.58340E-01-9.44483E-14-3.03572E-14
 -1       491 2.00510E+01 9.18965E-01 1.33902E-03 4.92318E-01-1.21520E-14-3.54190E-15
 -1       492 2.02433E+01 6.47300E-01 1.29050E-03 1.02629E+00 2.80183E-14 8.63957E-15
 -1       493 2.05195E+01 2.46982E-01 9.72791E-04 1.30489E+00 2.03727E-14-9.54710E-14
 -1       494 2.07734E+01-1.32482E-01 3.11645E-04 1.30286E+00 3.45644E-15-6.44412E-14
 -1       495 2.09349E+01-3.89180E-01-3.84044E-04 1.09005E+00 3.72550E-14-2.00313E-14
 -1       496 2.09867E+01-4.96261E-01-8.56703E-04 7.73163E-01-5.70306E-14-1.08710E-13
 -1       497 2.09495E+01-4.82262E-01-1.01430E-03 4.45503E-01-2.80605E-14 3.56146E-15
 -1       498 2.08568E+01-3.96630E-01-9.44330E-04 1.65468E-01-4.18159E-14-7.28950E-14
 -1       499 2.07392E+01-2.84551E-01-7.48213E-04-4.24129E-02-2.13195E-14 8.03163E-16
 -1       500 2.06176E+01-1.76494E-01-5.12268E-04-1.76951E-01 5.29026E-14-6.32433E-14
 -1       501 2.05040E+01-8.80036E-02-2.98432E-04-2.49294E-01-3.70977E-14-9.81945E-14
 -1       502 2.04038E+01-2.37554E-02-1.30425E-04-2.74945E-01 3.61823E-15-1.52668E-13
 -1       503 2.03185E+01 1.78685E-02-1.33347E-05-2.69086E-01 2.23004E-14-1.13070E-13
 -1       504 2.02475E+01 4.12719E-02 5.86983E-05-2.44398E-01 3.48033E-14-1.65143E-13
 -1       505 2.01896E+01 5.14588E-02 9.58808E-05-2.10413E-01 9.49989E-14-2.99792E-13
 -1       506 2.01429E+01 5.29148E-02 1.08738E-04-1.73697E-01 7.48348E-14-1.33781E-13
 -1       507 2.01058E+01 4.91818E-02 1.06244E-04-1.38378E-01 5.67404E-14-1.21082E-13
 -1       508 2.00768E+01 4.28162E-02 9.52262E-05-1.06751E-01-7.24318E-14-1.75351E-13
 -1       509 2.00544E+01 3.55244E-02 8.04329E-05-7.98338E-02 2.62609E-14-1.23863E-13
 -1       510 2.00374E+01 2.83537E-02 6.48996E-05-5.78171E-02 8.05337E-14-5.69939E-14
 -1       511 2.00247E+01 2.18786E-02 5.03830E-05-4.04014E-02 1.11363E-14-5.16775E-14
 -1       512 2.00155E+01 1.63559E-02 3.77543E-05-2.70348E-02-1.20936E-13-2.62607E-14
 -1       513 2.00088E+01 1.18432E-02 2.73149E-05-1.70694E-02-1.18261E-14 8.71797E-14
 -1       514 2.00043E+01 8.28314E-03 1.90272E-05-9.85816E-03-1.60749E-14 7.46028E-14
 -1       515 2.00012E+01 5.56104E-03 1.26738E-05-4.80809E-03 1.40028E-13 1.28363E-13
 -1       516 1.99993E+01 3.54076E-03 7.95999E-06-1.40635E-03 8.03568E-14-2.72445E-15
 -1       517 1.99982E+01 2.08633E-03 4.57645E-06 7.72600E-04-6.97007E-14 7.11732E-14
 -1       518 1.99976E+01 1.07341E-03 2.23307E-06 2.06993E-03 2.93335E-13 3.27140E-13
 -1       519 1.99974E+01 3.94356E-04 6.74891E-07 2.75091E-03 1.20205E-13 5.03988E-13
 -1       520 1.99975E+01-4.08131E-05-3.15975E-07 3.01563E-03-1.65481E-13 7.20675E-13
 -1       521 1.99977E+01-3.05693E-04-9.21007E-07 3.00985E-03-1.26433E-13 5.26845E-13
 -1       522 1.99980E+01-4.59893E-04-1.26711E-06 2.83504E-03-1.05479E-14 1.94378E-13
 -1       523 1.99984E+01-5.51644E-04-1.40941E-06 2.55716E-03-1.04609E-13 4.70462E-14
 -1       524 1.99987E+01-6.22302E-04-1.78895E-06 2.21447E-03 4.73842E-14 7.78088E-14
 -1       525 1.99990E+01-6.94528E-04-1.86007E-06 1.82321E-03 2.06370E-13 3.12062E-13
 -1       526 2.23034E+01-3.88785E-02 5.02561E-03-3.18620E+00-5.89548E-14 7.31845E-14
 -1       527 2.35100E+01-1.53311E+00 1.59056E-02-3.24107E+00-1.00713E-13 4.19048E-14
 -1       528 2.59969E+01-3.67787E+00 2.11517E-02-2.34707E+00-2.00080E-13 2.90393E-14
 -1       529 2.99715E+01-4.06849E+00-3.17153E-02 8.29260E-01-1.59982E-13 2.55119E-13
 -1       530 3.38806E+01 1.54559E+00-1.66356E-01-3.97371E+00 4.56968E-13-1.69378E-13
 -1       531 2.72934E+01-4.69994E+00 3.03254E-02 1.78002E+00 2.61648E-14-4.95294E-14
 -1       532 2.39650E+01-2.47970E+00 1.33615E-02 3.16421E+00-2.06982E-13-8.45001E-14
 -1       533 2.23480E+01-6.35830E-01 1.22481E-02 3.39462E+00-2.87496E-13 8.28140E-14
 -1       534 2.16137E+01 3.34877E-01 1.62201E-03 3.09997E+00-1.97034E-13 2.80037E-13
 -1       535 2.12646E+01 7.02588E-01 1.61529E-03 2.58391E+00-2.24029E-13 3.08996E-13
 -1       536 2.10764E+01 7.27598E-01 2.78052E-03 2.06842E+00 8.60229E-14 1.63113E-13
 -1       537 2.09192E+01 6.29472E-01 2.94016E-03 1.60722E+00 1.21350E-13 2.35210E-13
 -1       538 2.07701E+01 5.01300E-01 2.56574E-03 1.22371E+00 1.35723E-13 2.88430E-13
 -1       539 2.06289E+01 3.82394E-01 2.03348E-03 9.18673E-01-1.86144E-13-6.24248E-14
 -1       540 2.05005E+01 2.85036E-01 1.49841E-03 6.82476E-01-5.92198E-14-1.38070E-13
 -1       541 2.03843E+01 2.06646E-01 1.10624E-03 4.95356E-01 1.12804E-13-3.07380E-13
 -1       542 2.02926E+01 1.51110E-01 7.79466E-04 3.62222E-01 6.28470E-14-1.36079E-13
 -1       543 2.02180E+01 1.10167E-01 5.56732E-04 2.62745E-01 3.20655E-14 2.11813E-13
 -1       544 2.01590E+01 8.01239E-02 3.98426E-04 1.88800E-01-1.07676E-14 1.88709E-13
 -1       545 2.01134E+01 5.81061E-02 2.84624E-04 1.34087E-01-3.40802E-15 3.75830E-14
 -1       546 2.00788E+01 4.19633E-02 1.99093E-04 9.38014E-02 6.83576E-14 6.29292E-14
 -1       547 2.00519E+01 2.95992E-02 1.44252E-04 6.31268E-02-1.05484E-13 1.95987E-13
 -1       548 2.00334E+01 2.10111E-02 9.77799E-05 4.21222E-02-2.58631E-14 1.08268E-13
 -1       549 2.00202E+01 1.47188E-02 6.77834E-05 2.70704E-02 1.39348E-13 2.32331E-14
 -1       550 2.00110E+01 1.01213E-02 4.61452E-05 1.64381E-02 2.76937E-13 6.71512E-15
 -1       551 2.00048E+01 6.78587E-03 3.05121E-05 9.06993E-03 1.89884E-13-2.92570E-13
 -1       552 2.00008E+01 4.39256E-03 1.91893E-05 4.08963E-03 1.50304E-13-2.06594E-13
 -1       553 1.99982E+01 2.62733E-03 1.19845E-05 7.12426E-04-1.83150E-13-2.00583E-13
 -1       554 1.99969E+01 1.47256E-03 6.12326E-06-1.25651E-03-2.06329E-13-8.03428E-14
 -1       555 1.99964E+01 6.93615E-04 2.71023E-06-2.38235E-03-4.25875E-14 7.54311E-14
 -1       556 1.99963E+01 1.85752E-04 4.56001E-07-2.93496E-03-3.83253E-14 1.49457E-14
 -1       557 1.99965E+01-1.30127E-04-9.65884E-07-3.10971E-03 5.39201E-14 9.86278E-14
 -1       558 1.99969E+01-3.14849E-04-1.74564E-06-3.04515E-03 6.55687E-14 1.41392E-13
 -1       559 1.99974E+01-4.19988E-04-2.20743E-06-2.82295E-03 8.20605E-15 1.84075E-13
 -1       560 1.99979E+01-4.73987E-04-2.52936E-06-2.52510E-03-1.56915E-13-2.02211E-14
 -1       561 1.99983E+01-5.13778E-04-3.00136E-06-2.17772E-03-7.71462E-14 2.62070E-14
 -1       562 1.99988E+01-5.63065E-04-3.38574E-06-1.79325E-03 3.03747E-14-4.09345E-14
 -1       563 2.00002E+01-1.97577E-03 9.25485E-07-1.40240E-03 4.50150E-13-4.39368E-13
 -1       564 2.00005E+01-2.26506E-03 1.33821E-06-1.02332E-03 4.24404E-13 3.74485E-14
 -1       565 1.99996E+01-1.16945E-03-9.36898E-07-1.64161E-03 1.27891E-13 1.38314E-14
 -1       566 1.99999E+01-1.60447E-03-4.06913E-07-1.61876E-03 1.39622E-13 9.83341E-14
 -1       567 2.00006E+01-2.44504E-03 1.64797E-06-5.33157E-04 1.33855E-13-4.73535E-13
 -1       568 2.00006E+01-2.50279E-03 1.81397E-06 1.25246E-05 1.04340E-14 1.81252E-13
 -1       569 2.00006E+01-2.43442E-03 1.67674E-06 5.55652E-04-3.77399E-14-2.96565E-13
 -1       570 2.00005E+01-2.25022E-03 1.23701E-06 1.03168E-03-1.92532E-13-3.11208E-13
 -1       571 2.00002E+01-1.95888E-03 6.22996E-07 1.40361E-03-8.34084E-14-2.79252E-13
 -1       572 1.99999E+01-1.57803E-03-7.46956E-08 1.61034E-03 1.05923E-13 1.87461E-13
 -1       573 1.99996E+01-1.14903E-03-1.20418E-06 1.62085E-03 3.16329E-14 1.98335E-13
 -1       574 5.06414E+00-8.62635E-01 2.03252E-01 6.24632E-01-1.80295E-13 6.21336E-13
 -1       575 1.85327E+01-5.58316E+00 5.07823E-02 6.11210E+00-1.90237E-13 1.64140E-13
 -1       576 2.18228E+01 7.48200E-01 3.85008E-03-2.61826E+00 3.41436E-14 1.34368E-13
 -1       577 5.62249E+00-1.54742E+00 1.79938E-01-4.14013E+00-1.06078E-13 3.49401E-13
 -1       578 1.07966E+01-2.84087E+00 1.69586E-01 5.45501E+00-2.92204E-13 4.71331E-13
 -1       579 2.12706E+01 1.46597E+00-7.51358E-03-1.35028E+00-1.13202E-13-1.46736E-13
 -1       580 1.08118E+01-3.73057E+00 1.30677E-01-7.39862E+00-3.30569E-14 3.86378E-13
 -1       581 3.09188E+01 7.50760E+00-1.79245E-01-9.48769E-01-5.26593E-13 1.52746E-13
 -1       582 2.05515E+01-5.20049E+00 5.65743E-02 6.87624E+00 1.58464E-13 3.45462E-14
 -1       583 1.88021E+01 3.08837E+00-4.16295E-03 7.11664E-01 1.36614E-13-1.47422E-13
 -1       584 2.20299E+01-6.10393E+00 3.67047E-02-5.45415E+00-2.74947E-13-2.88686E-13
 -1       585 3.29742E+01-1.48175E+00-1.16382E-01 2.96715E+00-9.88792E-15 3.10245E-13
 -1       586 3.10999E+01 4.21678E+00-1.48216E-01-1.60203E+00-4.43236E-13 3.70579E-13
 -1       587 1.47323E+01-4.82296E+00 1.07759E-01-6.54861E+00-1.43732E-13-3.63917E-13
 -1       588 7.61889E+00-1.92681E+00 1.83566E-01-4.32957E+00 1.92693E-14-3.65624E-13
 -1       589 3.97423E+00-1.16673E+00 1.69628E-01 3.91271E-01 1.32052E-13-3.53648E-13
 -1       590 7.72159E+00-1.27759E+00 1.96004E-01 5.39640E+00 2.31627E-13-3.42351E-13
 -1       591 1.31836E+01-3.72516E+00 1.36743E-01 7.59378E+00 1.90556E-13-2.58828E-13
 -1       592 2.74658E+01-4.16969E+00-9.85784E-03 3.30319E+00-4.45963E-14 2.76883E-13
 -1       593 2.97985E+01-1.20130E+00-9.21528E-02 1.65281E-01 3.55289E-14-1.00496E-13
 -1       594 3.04935E+01-6.99693E-01-9.78399E-02 1.08775E-01-2.34535E-13 3.98945E-13
 -1       595 3.11315E+01 7.63542E+00-1.72287E-01 8.07760E-01-5.19668E-13-4.46344E-14
 -1       596 3.06773E+01 3.76669E+00-1.63913E-01 1.64935E+00-1.73944E-13-1.43836E-13
 -1       597 2.60783E+01-4.88729E+00-7.05139E-03-4.27527E+00 9.60135E-14 4.85584E-14
 -1       598 1.87444E+01-5.24349E+00 7.34593E-02-7.37281E+00 1.61753E-13 1.65848E-13
 -1       599 2.20742E+01 1.68541E+00 2.72867E-03 7.48366E-02 2.30877E-13 2.66288E-13
 -1       600 2.57340E+01-6.27431E+00 4.96848E-02 3.65447E+00 1.23374E-14-1.39055E-13
 -1       601 2.05347E+01 2.19430E+00-1.10290E-02-7.88290E-01-2.40252E-14-1.96993E-13
 -1       602 1.99992E+01-7.53180E-04-2.29650E-06 1.52662E-03 3.14241E-13 5.79709E-13
 -1       603 1.99992E+01-5.88148E-04-3.30585E-06-1.26012E-03-1.08891E-13-1.41946E-13
 -1       604 9.54358E+00-4.10466E-01 1.73301E-01 3.37785E+00-2.62181E-13 4.49307E-13
 -1       605 1.71754E+01 3.41880E+00-7.46396E-04 1.34963E+00 2.35645E-13-1.23945E-13
 -1       606 1.78630E+01 2.94631E+00-1.06448E-03 1.49054E+00 1.94122E-13-1.36626E-13
 -1       607 1.74703E+01 3.54218E+00-1.11884E-03 2.25899E-01 2.36266E-13-4.44968E-14
 -1       608 1.87008E+01 2.99285E+00-4.47338E-04-3.94385E-01 2.32915E-13 3.23451E-14
 -1       609 1.09341E+01-1.26892E+00 1.44247E-01-5.66712E+00 1.10831E-13 2.77112E-13
 -1       610 1.99995E+01-1.07156E-03-1.00363E-06 1.92887E-03 4.10664E-13 3.10476E-13
 -1       611 2.14909E+01-6.87626E-02-1.26926E-04-6.26793E-01-7.98245E-14-5.42657E-14
 -1       612 2.16463E+01-4.27571E-01-3.32152E-04-7.25261E-01-5.35993E-14-6.47246E-14
 -1       613 2.17493E+01-5.24527E-01-2.14539E-04-9.68462E-01-3.76246E-14-5.17517E-14
 -1       614 2.17414E+01-3.19349E-01 2.53311E-04-1.23716E+00-8.70023E-14-5.01401E-14
 -1       615 2.15819E+01 1.81052E-01 5.54715E-04-1.36466E+00-9.33667E-14-3.65990E-14
 -1       616 2.13029E+01 8.48638E-01 3.41413E-04-1.18172E+00-9.03017E-14-1.23800E-15
 -1       617 2.10344E+01 1.41744E+00-5.26457E-04-6.23727E-01-1.31629E-13 3.63358E-14
 -1       618 2.09281E+01 1.61426E+00-1.15193E-03 1.82283E-01-5.65865E-14-1.41445E-14
 -1       619 2.10462E+01 1.32826E+00-4.99598E-04 9.57934E-01-3.77043E-14-8.31594E-14
 -1       620 2.13012E+01 6.99414E-01 4.13318E-04 1.43700E+00 4.23609E-15-8.68639E-14
 -1       621 2.15317E+01 6.69145E-03 5.97986E-04 1.52106E+00 6.63997E-14 2.37603E-14
 -1       622 2.16202E+01-5.16852E-01 2.67282E-04 1.28930E+00 2.38529E-14 2.96095E-14
 -1       623 2.15443E+01-7.79501E-01-1.28390E-04 8.99369E-01-6.58780E-14-7.35673E-14
 -1       624 2.13508E+01-8.11989E-01-3.09466E-04 4.91503E-01-6.02254E-15 1.48300E-14
 -1       625 2.11054E+01-6.97990E-01-3.59493E-04 1.48406E-01 2.47107E-14 1.37480E-13
 -1       626 2.08610E+01-5.20635E-01-3.15606E-04-9.96868E-02-5.43995E-14 1.62079E-13
 -1       627 2.06473E+01-3.38454E-01-2.17437E-04-2.55106E-01-1.04601E-13 1.01898E-13
 -1       628 2.04753E+01-1.83162E-01-1.30603E-04-3.34800E-01-3.66345E-14-4.53037E-14
 -1       629 2.03442E+01-6.63830E-02-6.22552E-05-3.59345E-01-1.40204E-14-6.68122E-14
 -1       630 2.02477E+01 1.23336E-02-1.48516E-05-3.47568E-01-1.11100E-14-2.31757E-14
 -1       631 2.01782E+01 5.92080E-02 1.42437E-05-3.14520E-01-7.39966E-15-8.41778E-15
 -1       632 2.01286E+01 8.21928E-02 2.96123E-05-2.71219E-01-2.54552E-14 7.10222E-14
 -1       633 2.00934E+01 8.88083E-02 3.55796E-05-2.25143E-01 1.69554E-13-2.11670E-14
 -1       634 2.00682E+01 8.52207E-02 3.56415E-05-1.80971E-01 9.26235E-14 1.78811E-14
 -1       635 2.00500E+01 7.60320E-02 3.23920E-05-1.41312E-01 2.18326E-14 1.13435E-13
 -1       636 2.00367E+01 6.44230E-02 2.76115E-05-1.07341E-01-1.41437E-14 1.52592E-13
 -1       637 2.00268E+01 5.24306E-02 2.24336E-05-7.92941E-02 8.90069E-14 6.39462E-14
 -1       638 2.00195E+01 4.12424E-02 1.75185E-05-5.68449E-02-3.19110E-14 4.25423E-15
 -1       639 2.00139E+01 3.14562E-02 1.32007E-05-3.93677E-02 9.61646E-14 1.47419E-13
 -1       640 2.00098E+01 2.32853E-02 9.60499E-06-2.61142E-02-1.04442E-13 1.91366E-13
 -1       641 2.00067E+01 1.67097E-02 6.73294E-06-1.63249E-02 6.21232E-14 1.92113E-13
 -1       642 2.00044E+01 1.15824E-02 4.51968E-06-9.29409E-03 3.09194E-14 2.63190E-13
 -1       643 2.00028E+01 7.69873E-03 2.86907E-06-4.40185E-03 1.21668E-14 2.36688E-13
 -1       644 2.00016E+01 4.83960E-03 1.67781E-06-1.12609E-03 7.10666E-14 8.20842E-14
 -1       645 2.00007E+01 2.79643E-03 8.48846E-07 9.58593E-04 2.87677E-13 1.87669E-13
 -1       646 2.00002E+01 1.38344E-03 2.94981E-07 2.18885E-03 2.84366E-13 2.51505E-13
 -1       647 1.99998E+01 4.42329E-04-5.86166E-08 2.82388E-03-1.25232E-13 3.40703E-14
 -1       648 1.99996E+01-1.57979E-04-2.84512E-07 3.05764E-03-2.33617E-13 7.82938E-14
 -1       649 1.99995E+01-5.24191E-04-4.42582E-07 3.03037E-03-1.18133E-13 4.33729E-15
 -1       650 1.99994E+01-7.42021E-04-5.57313E-07 2.83881E-03-1.27013E-13 5.55798E-14
 -1       651 1.99995E+01-8.81183E-04-7.60077E-07 2.54580E-03-1.97258E-14 2.46444E-14
 -1       652 1.99995E+01-9.74073E-04-1.55643E-06 2.25209E-03 2.87194E-13 3.03957E-13
 -1       653 1.99591E+01-2.64579E+00 5.89845E-02-4.84532E+00-9.56041E-14-1.85647E-13
 -1       654 1.90575E+01-2.28160E-01 2.53179E-02-3.96437E+00-8.82194E-15-9.97692E-14
 -1       655 2.70546E+01-5.21486E+00 2.17617E-02-2.43507E+00-2.25500E-13-5.74211E-14
 -1       656 1.41980E+01-1.90161E+00 1.31949E-01-5.38363E+00-4.72435E-14-2.40113E-13
 -1       657 1.85048E+01 4.26169E-01 1.05241E-02 3.53078E+00-3.16975E-13 2.86087E-13
 -1       658 1.89028E+01 1.09197E+00 1.95254E-03 2.78997E+00-2.02576E-13 1.61204E-13
 -1       659 1.93283E+01 1.19037E+00 1.12824E-03 2.22835E+00 7.65356E-14-8.10339E-14
 -1       660 1.96660E+01 1.07307E+00 1.02434E-03 1.76742E+00 3.54938E-14-3.88818E-14
 -1       661 1.98936E+01 8.84792E-01 9.35628E-04 1.38744E+00 9.94288E-14 1.03935E-13
 -1       662 2.00281E+01 6.95297E-01 7.85952E-04 1.07691E+00 1.23174E-13 2.81519E-13
 -1       663 2.00960E+01 5.31610E-01 5.87486E-04 8.26573E-01 2.43640E-14 8.45021E-14
 -1       664 2.01220E+01 3.94279E-01 4.25836E-04 6.19579E-01 6.66425E-14-1.54789E-13
 -1       665 2.01221E+01 2.93956E-01 3.10789E-04 4.66267E-01 1.16318E-15-1.66932E-13
 -1       666 2.01098E+01 2.17942E-01 2.21066E-04 3.47388E-01-1.91776E-13-1.41816E-13
 -1       667 2.00926E+01 1.60963E-01 1.59146E-04 2.56126E-01-9.49391E-14-3.41210E-15
 -1       668 2.00745E+01 1.18438E-01 1.15221E-04 1.86618E-01 6.87519E-14-1.33463E-14
 -1       669 2.00578E+01 8.67524E-02 7.92724E-05 1.34061E-01 1.07004E-13 8.71990E-14
 -1       670 2.00428E+01 6.21331E-02 5.89916E-05 9.30480E-02-1.39716E-13 3.74437E-14
 -1       671 2.00312E+01 4.48327E-02 3.97062E-05 6.43044E-02-2.65129E-14 3.61971E-14
 -1       672 2.00221E+01 3.19753E-02 2.78672E-05 4.32070E-02 5.60476E-14-1.84148E-13
 -1       673 2.00150E+01 2.24617E-02 1.92006E-05 2.79387E-02 1.83745E-13 3.92784E-14
 -1       674 2.00098E+01 1.54652E-02 1.29399E-05 1.70693E-02 4.31618E-13 1.29215E-13
 -1       675 2.00060E+01 1.03663E-02 8.06811E-06 9.48344E-03 1.57701E-13 1.67258E-13
 -1       676 2.00032E+01 6.53997E-03 5.62085E-06 4.12631E-03-7.28069E-14 1.12161E-13
 -1       677 2.00014E+01 3.98501E-03 2.84806E-06 8.21455E-04-3.12025E-13-2.21665E-14
 -1       678 2.00003E+01 2.21306E-03 1.50059E-06-1.23979E-03-3.42673E-13-1.16158E-13
 -1       679 1.99996E+01 1.01776E-03 5.25425E-07-2.42755E-03 4.57047E-14-8.39613E-14
 -1       680 1.99992E+01 2.39281E-04-1.14567E-07-3.01787E-03 3.78920E-14-2.19982E-13
 -1       681 1.99990E+01-2.45670E-04-4.80939E-07-3.21213E-03 1.71979E-13-1.47928E-13
 -1       682 1.99989E+01-5.42896E-04-6.39963E-07-3.14511E-03-1.41672E-13 9.81302E-14
 -1       683 1.99990E+01-7.01302E-04-8.10411E-07-2.92313E-03-5.08828E-14 3.40789E-13
 -1       684 1.99991E+01-7.98037E-04-8.82649E-07-2.60972E-03-4.30387E-15 2.32701E-13
 -1       685 1.99992E+01-8.79719E-04-5.38116E-07-2.24141E-03 2.65283E-14 2.97535E-14
 -1       686 2.00012E+01-2.19161E-03 6.50353E-07-3.08228E-04 2.69722E-13-3.37131E-13
 -1       687 2.00007E+01-1.90251E-03 4.15390E-07-1.46291E-03 2.12669E-13-2.80117E-13
 -1       688 2.00011E+01-2.18364E-03 8.09789E-07 3.43850E-04 2.10749E-14-2.18959E-13
 -1       689 2.00010E+01-2.09623E-03 2.93255E-07-9.31706E-04 1.09594E-13-2.75324E-13
 -1       690 1.61197E+01-3.46064E+00 9.07764E-02-6.84438E+00 1.38306E-13 3.24497E-14
 -1       691 2.00010E+01-2.07819E-03 6.39747E-07 9.50246E-04-3.62739E-14-3.12140E-13
 -1       692 2.00007E+01-1.87736E-03 8.17630E-08 1.47257E-03-2.83199E-14-3.21766E-13
 -1       693 2.00003E+01-1.59097E-03 3.95648E-07 1.84651E-03 2.39244E-13 1.56855E-13
 -1       694 2.76666E+01 9.61647E-01-9.87480E-02 1.94418E+00 2.90740E-14-2.76904E-13
 -1       695 1.95702E+01 1.71698E+00 3.08376E-03-2.07491E+00 1.31989E-13 3.32478E-14
 -1       696 2.86194E+01 1.00216E+00-1.06489E-01-1.81834E+00-2.01093E-13 4.28085E-13
 -1       697 1.76550E+01-2.91359E+00 9.68738E-02 5.35308E+00-2.89255E-13 3.46171E-13
 -1       698 2.11485E+01 1.19179E+00-1.16256E-03-9.39118E-01-7.60039E-14-1.51006E-13
 -1       699 2.77513E+01 5.07758E+00-1.35048E-01-1.86436E+00-3.44266E-13 2.87298E-13
 -1       700 2.13472E+01 4.47391E-01-5.06819E-04-7.03925E-01-7.93534E-14-1.01209E-13
 -1       701 2.43601E+01-4.56305E+00 1.18693E-03 4.02471E+00 1.47490E-13 2.44850E-13
 -1       702 7.81405E+00 4.33021E-01 1.62421E-01-1.77090E+00 4.64212E-15 4.39634E-13
 -1       703 1.91443E+01 1.08009E+00 6.08276E-03-3.00691E+00 2.67991E-14-2.10038E-14
 -1       704 1.69709E+01 3.66794E+00-1.19814E-03 8.76706E-01 2.35095E-13-8.50967E-14
 -1       705 2.75827E+01 6.92955E+00-1.54500E-01 9.68605E-03-4.02664E-13 1.22003E-14
 -1       706 2.02723E+01 1.64041E+00-1.20624E-03 2.41876E-01 3.89025E-14-1.53094E-13
 -1       707 2.05680E+01-4.53852E+00 6.93352E-02-5.37508E+00-2.04461E-13-2.09300E-13
 -1       708 2.71886E+01-3.63451E+00-1.70592E-02-1.30846E+00 1.33065E-13-2.20629E-13
 -1       709 2.76390E+01 4.69608E+00-1.39132E-01 1.95652E+00-2.06737E-13-2.98844E-13
 -1       710 8.00080E+00 4.42480E-01 1.67859E-01-1.69059E+00 1.23434E-13-2.89588E-13
 -1       711 2.80446E+01-2.78272E+00-4.61730E-02 5.00084E-01-8.31223E-14 4.93317E-13
 -1       712 2.29162E+01-4.97232E+00 3.12858E-02-5.10952E+00 3.07726E-13 1.09124E-13
 -1       713 7.87302E+00 7.36793E-01 1.65619E-01 2.13066E+00 1.85186E-13-2.96881E-13
 -1       714 2.00158E+01 2.06483E+00 1.30175E-03-1.20096E+00 1.85024E-13 7.86524E-14
 -1       715 2.07780E+01 1.37099E+00-1.16902E-03-3.23026E-01 4.47852E-16-1.54722E-13
 -1       716 1.87516E+01 2.42364E+00-1.13175E-03 1.28054E+00 1.48606E-13-1.23314E-13
 -1       717 1.24826E+01 3.19320E-01 1.11908E-01-3.68746E+00 6.06286E-14-2.26003E-13
 -1       718 9.85691E+00 9.88502E-01 1.19665E-01 1.06225E+00-1.08479E-13 4.20008E-13
 -1       719 2.67183E+01-1.65013E+00-3.43053E-02 9.36760E-01 1.20553E-13-2.37790E-13
 -1       720 1.97841E+01-3.65081E+00 6.31893E-02 6.02415E+00 2.66058E-13 6.78589E-14
 -1       721 2.00003E+01-1.61724E-03 2.82366E-07-1.83830E-03 2.42284E-14 4.79954E-14
 -1       722 1.99999E+01-1.25110E-03-4.70502E-07-2.12809E-03 9.39669E-15 4.68640E-14
 -1       723 1.48883E+01-8.07262E-01 9.41414E-02 4.50715E+00-2.79127E-13 4.55136E-13
 -1       724 1.92568E+01-9.31698E-01 4.43333E-02 4.21080E+00-3.95043E-13 2.50440E-13
 -1       725 1.95942E+01 1.97720E+00-1.33658E-03 8.16480E-01 8.13762E-14-8.54720E-14
 -1       726 1.12459E+01 1.01696E-01 1.17394E-01 4.62832E+00 2.52196E-13-2.93481E-13
 -1       727 1.49026E+01-1.88008E+00 1.06298E-01 6.36209E+00 2.82385E-13-1.68802E-13
 -1       728 2.00017E+01-1.89736E-03 3.45851E-07 7.44036E-04 1.29690E-13-4.29787E-13
 -1       729 1.72765E+01 2.98447E+00-8.44140E-04-5.93654E-01 1.99422E-13-5.73909E-15
 -1       730 2.22443E+01-7.58762E-01-4.28262E-04-6.31603E-01-3.17461E-14-5.88192E-14
 -1       731 2.25559E+01-7.61467E-01-6.86468E-04-1.01956E+00-7.88492E-14-4.21586E-14
 -1       732 2.26712E+01-2.94573E-01-2.95882E-04-1.41289E+00-8.52819E-14-1.68376E-14
 -1       733 2.25139E+01 6.23262E-01-1.62116E-03-1.56424E+00-6.16367E-14 1.52950E-14
 -1       734 2.21797E+01 1.68496E+00-2.24156E-03-1.21273E+00-9.45033E-14-2.61072E-14
 -1       735 2.19008E+01 2.38238E+00-5.21384E-03-3.50239E-01-1.08940E-13 1.96408E-14
 -1       736 2.19053E+01 2.29893E+00-5.33842E-03 7.10478E-01-5.36390E-14 4.84784E-14
 -1       737 2.21636E+01 1.47502E+00-2.39460E-03 1.48866E+00-6.88448E-15 1.74301E-13
 -1       738 2.24340E+01 3.58333E-01-6.79679E-04 1.71191E+00 6.08864E-14 7.48446E-14
 -1       739 2.24943E+01-5.70644E-01 6.02950E-05 1.44676E+00-1.81132E-14-3.70626E-14
 -1       740 2.22912E+01-1.08489E+00 3.86408E-05 9.40861E-01-3.20859E-14-6.91364E-14
 -1       741 2.19091E+01-1.20530E+00 6.58776E-05 4.23178E-01-1.13065E-15 3.38187E-14
 -1       742 2.14662E+01-1.06762E+00-5.24108E-05 1.25930E-02 4.88219E-14 1.80925E-14
 -1       743 2.10522E+01-8.13165E-01-1.35653E-04-2.59750E-01 3.24901E-14 2.16772E-14
 -1       744 2.07124E+01-5.40926E-01-7.58224E-05-4.10743E-01-5.43173E-14 2.62001E-14
 -1       745 2.04573E+01-3.04103E-01-4.35533E-05-4.71845E-01-1.30022E-13 1.26667E-14
 -1       746 2.02787E+01-1.22983E-01-1.78423E-05-4.73444E-01-6.51385E-14 5.54784E-14
 -1       747 2.01610E+01 1.55956E-03-8.56279E-07-4.39661E-01 1.08144E-13 1.17685E-13
 -1       748 2.00878E+01 7.79655E-02 7.77608E-06-3.87698E-01 2.49172E-14 2.34554E-13
 -1       749 2.00449E+01 1.17650E-01 1.12073E-05-3.28987E-01-5.95542E-14 2.15011E-13
 -1       750 2.00215E+01 1.31660E-01 1.17760E-05-2.70669E-01 1.60997E-14 2.43844E-13
 -1       751 2.00099E+01 1.29222E-01 1.08658E-05-2.16846E-01 1.12155E-13 2.15053E-13
 -1       752 2.00050E+01 1.17352E-01 9.30533E-06-1.69567E-01 9.91407E-14 2.11840E-13
 -1       753 2.00036E+01 1.01004E-01 7.56952E-06-1.29546E-01-7.74690E-14 2.32774E-13
 -1       754 2.00037E+01 8.34359E-02 5.91671E-06-9.66657E-02-9.65452E-14 2.99405E-13
 -1       755 2.00042E+01 6.66211E-02 4.47159E-06-7.03420E-02-7.68689E-14 2.52516E-13
 -1       756 2.00047E+01 5.16181E-02 3.27314E-06-4.97574E-02-1.93214E-14 1.19690E-13
 -1       757 2.00050E+01 3.88739E-02 2.31608E-06-3.40195E-02-9.95087E-15-1.35794E-13
 -1       758 2.00049E+01 2.84522E-02 1.57455E-06-2.22566E-02 1.80338E-13 1.10831E-13
 -1       759 2.00047E+01 2.01960E-02 1.01825E-06-1.36723E-02 1.11842E-13 2.06992E-13
 -1       760 2.00042E+01 1.38387E-02 6.14716E-07-7.57149E-03-7.93215E-14 2.12047E-13
 -1       761 2.00037E+01 9.07441E-03 3.31463E-07-3.36846E-03-1.23238E-13-7.01526E-15
 -1       762 2.00031E+01 5.60064E-03 1.38956E-07-5.83525E-04 1.35453E-13-1.51605E-13
 -1       763 2.00025E+01 3.14099E-03 1.84408E-08 1.16622E-03 3.05015E-13-1.60895E-13
 -1       764 2.00020E+01 1.45544E-03-5.25159E-08 2.17917E-03 1.45562E-13-1.16057E-13
 -1       765 2.00015E+01 3.42809E-04-9.79940E-08 2.68226E-03 3.70377E-14 1.68001E-13
 -1       766 2.00011E+01-3.61756E-04-1.65986E-07 2.84382E-03-2.32090E-13 1.79030E-13
 -1       767 2.00007E+01-7.91946E-04-4.66743E-07 2.78481E-03 6.46892E-14 2.72072E-13
 -1       768 2.00004E+01-1.05589E-03-3.29143E-07 2.58361E-03 5.55019E-14 2.80012E-13
 -1       769 2.54116E+01 5.20147E+00-8.41188E-02-9.28709E-01-2.13433E-13-3.41584E-14
 -1       770 1.10973E+01 4.42460E-01 9.03060E-02-3.40425E+00 1.70197E-13 1.80425E-13
 -1       771 1.82011E+01 1.48406E+00 3.19982E-04 1.50305E+00 4.21491E-14-1.49827E-14
 -1       772 1.73049E+01 1.61301E+00 1.77890E-03 1.84697E+00 7.59716E-14-1.34386E-13
 -1       773 1.60231E+01 1.47680E+00 1.02329E-02 2.37282E+00-9.58899E-14 4.98657E-14
 -1       774 1.88379E+01 1.25779E+00 1.51753E-04 1.23441E+00-5.56164E-14-2.99029E-14
 -1       775 1.92734E+01 1.01692E+00 1.80534E-04 1.00752E+00-1.28767E-14 2.72929E-14
 -1       776 1.95622E+01 7.98583E-01 1.55687E-04 8.11775E-01-1.08921E-15 8.95844E-14
 -1       777 1.97549E+01 6.07694E-01 9.27090E-05 6.37445E-01 1.49163E-13 1.39733E-13
 -1       778 1.98682E+01 4.63073E-01 8.92833E-05 4.99094E-01 1.47603E-13 1.35387E-13
 -1       779 1.99364E+01 3.50117E-01 5.89720E-05 3.85174E-01-9.06197E-14-1.04313E-13
 -1       780 1.99759E+01 2.63202E-01 4.31088E-05 2.93166E-01-1.69915E-13-2.24771E-13
 -1       781 1.99976E+01 1.96858E-01 3.34792E-05 2.19978E-01 9.54984E-14-2.19552E-13
 -1       782 2.00084E+01 1.46421E-01 2.16474E-05 1.62520E-01-6.07756E-14-9.30561E-14
 -1       783 2.00130E+01 1.06550E-01 1.63918E-05 1.16182E-01-1.04419E-14 8.91667E-14
 -1       784 2.00139E+01 7.80758E-02 1.16550E-05 8.27436E-02-6.00177E-14-8.17315E-14
 -1       785 2.00130E+01 5.66001E-02 7.99249E-06 5.75328E-02 2.35282E-13-1.79444E-13
 -1       786 2.00114E+01 4.04865E-02 5.63597E-06 3.88224E-02 1.72340E-14-1.63499E-13
 -1       787 2.00095E+01 2.84709E-02 3.99998E-06 2.51599E-02 1.38072E-13-2.71124E-14
 -1       788 2.00076E+01 1.95852E-02 2.24865E-06 1.53613E-02 3.52362E-14 2.32954E-13
 -1       789 2.00059E+01 1.28137E-02 1.96839E-06 8.22170E-03 5.23695E-14 4.60259E-13
 -1       790 2.00045E+01 8.20994E-03 8.79657E-07 3.64262E-03-1.11811E-13 4.43672E-13
 -1       791 2.00034E+01 4.94954E-03 5.18731E-07 6.34263E-04-1.23503E-13 1.53884E-13
 -1       792 2.00025E+01 2.69359E-03 2.30340E-07-1.24097E-03-1.44882E-13-2.47118E-13
 -1       793 2.00017E+01 1.17634E-03 2.48473E-08-2.31898E-03 3.21888E-14-1.73062E-13
 -1       794 2.00012E+01 1.91196E-04-1.13174E-07-2.85097E-03 2.72017E-14 1.87033E-14
 -1       795 2.00007E+01-4.44335E-04-1.07621E-07-3.02035E-03-4.34477E-13 4.84735E-13
 -1       796 2.00004E+01-7.98706E-04-2.85513E-07-2.94527E-03 2.59342E-14 2.54057E-13
 -1       797 2.00001E+01-1.00774E-03 2.53275E-08-2.72867E-03-4.70695E-14 2.00846E-13
 -1       798 2.00000E+01-1.13853E-03 2.87198E-08-2.45372E-03 2.79095E-14 2.39556E-13
 -1       799 2.23750E+01-3.42900E+00 1.45326E-02 4.06060E+00 2.57118E-13 1.77921E-13
 -1       800 2.60513E+01 2.33857E+00-6.70580E-02-2.19018E+00-1.76180E-13 1.84278E-13
 -1       801 2.00018E+01-1.94525E-03 6.31659E-07 2.04314E-05 2.59660E-13-2.48108E-13
 -1       802 2.00009E+01-1.56492E-03-8.98971E-08 1.91980E-03 5.73370E-14 3.83730E-13
 -1       803 2.00371E+01-3.56509E+00 3.67164E-02-5.25770E+00 2.26371E-13-9.65790E-14
 -1       804 2.44930E+01-4.00205E+00 1.17349E-02-2.51890E+00 3.62142E-13-1.43107E-13
 -1       805 2.69357E+01-1.09599E+00-4.19928E-02-1.20858E+00-8.87823E-14 3.83735E-13
 -1       806 2.53919E+01 5.07721E+00-8.72777E-02 1.11130E+00-1.55705E-13-2.70239E-13
 -1       807 2.00002E+01-1.29466E-03 1.65369E-06 2.21222E-03 2.18988E-13 2.74220E-13
 -1       808 2.00014E+01-1.77288E-03-3.26534E-08 1.39921E-03-1.58014E-13-2.96961E-13
 -1       809 2.57002E+01-3.30548E+00-5.65352E-03 1.25730E+00 4.91159E-14 4.03302E-13
 -1       810 1.10060E+01 1.62947E+00 6.82089E-02 2.24037E+00 2.24239E-13-2.29285E-13
 -1       811 2.53821E+01 2.46900E+00-6.21915E-02 2.12399E+00-8.87988E-14-3.92695E-13
 -1       812 1.49985E+01-1.56065E+00 6.89120E-02-5.52823E+00 1.42554E-13 1.42237E-13
 -1       813 2.18366E+01-3.72640E-01-5.48380E-04-4.07302E-01-5.19217E-14-8.14589E-14
 -1       814 1.05713E+01 1.74803E+00 1.04028E-01-5.25079E-01 1.59610E-13-2.28217E-13
 -1       815 1.52134E+01 7.66210E-01 4.51880E-02 3.27552E+00-2.65806E-13 1.87253E-13
 -1       816 1.82237E+01 2.40693E+00 3.67305E-04-1.39380E+00 1.71724E-13 1.38856E-14
 -1       817 1.73039E+01 2.48632E+00-5.42494E-04 1.97247E+00 2.25929E-13-8.26654E-14
 -1       818 1.60838E+01-4.85442E-02 6.79265E-02-4.16106E+00 1.26704E-14-1.56540E-13
 -1       819 1.85075E+01 1.79957E+00-2.18185E-04 1.94932E+00 1.83326E-13-9.30833E-14
 -1       820 1.63724E+01 3.29071E+00 5.50127E-03 4.61796E-01 2.15506E-13-9.44235E-14
 -1       821 1.48435E+01-1.06787E-01 5.01053E-02 4.78817E+00 3.16316E-13-1.50709E-13
 -1       822 2.51310E+01-2.92913E+00-8.99570E-03-3.77097E-01 1.95564E-13-1.05436E-13
 -1       823 2.00009E+01-1.59201E-03-2.59038E-07-1.90419E-03-1.20203E-13 1.10289E-13
 -1       824 1.64401E+01 3.07963E+00 2.83378E-03 1.45206E+00 2.51688E-13-1.22692E-13
 -1       825 2.00017E+01-1.91528E-03 4.21236E-07-7.09040E-04 2.30485E-13-1.88934E-13
 -1       826 2.00014E+01-1.79820E-03-1.67436E-07-1.36480E-03 2.57502E-13-1.12829E-13
 -1       827 2.14782E+01 1.93746E-01 1.31223E-03-3.72359E-01-5.39836E-14-1.09341E-13
 -1       828 1.12853E+01 1.36213E+00 7.19688E-02-1.00204E+00 1.28243E-13 2.31986E-13
 -1       829 1.88605E+01-1.91400E+00 3.26134E-02 4.98873E+00 2.84173E-13 7.51786E-14
 -1       830 2.05216E+01 8.30300E-01 9.85444E-04 8.21847E-01 4.54136E-14-7.62751E-14
 -1       831 1.36829E+01 1.49210E+00 3.49113E-02 3.22422E+00 2.54540E-13-1.86527E-13
 -1       832 2.53183E+01 2.51826E-01-2.69300E-02 1.92158E+00 7.98840E-16-3.03391E-13
 -1       833 1.69750E+01 1.42783E+00 1.82361E-02-2.89835E+00 6.55636E-14-9.74711E-14
 -1       834 1.76150E+01 2.01032E+00 4.94592E-03-2.10212E+00 1.39957E-13-1.68858E-14
 -1       835 2.10579E+01 5.98662E-01-5.95782E-04 1.56835E-01-5.88668E-15-1.29337E-13
 -1       836 1.31237E+01 4.60440E-01 8.85733E-02 3.25183E+00-1.86571E-13 2.58502E-13
 -1       837 2.35572E+01-1.04576E+00-2.89418E-05-1.01443E+00-5.85503E-14-4.94375E-14
 -1       838 2.37806E+01-1.34956E-01-1.21172E-02-1.61878E+00-3.32406E-14 1.87352E-14
 -1       839 2.36173E+01 1.40002E+00-5.30687E-03-1.78108E+00-1.01300E-13-1.07026E-14
 -1       840 2.31447E+01 2.96407E+00-1.95324E-02-1.12230E+00-1.08026E-13-6.60340E-14
 -1       841 2.29304E+01 3.51322E+00-2.23098E-02 1.91565E-01-6.80862E-14-7.13535E-14
 -1       842 2.31600E+01 2.68785E+00-1.48003E-02 1.42510E+00 1.51862E-14-5.45195E-14
 -1       843 2.35206E+01 1.03332E+00-4.65839E-03 1.90671E+00-5.35864E-14-1.18483E-13
 -1       844 2.35917E+01-5.14059E-01-7.64038E-04 1.60035E+00 9.96029E-15-7.84138E-14
 -1       845 2.32427E+01-1.42603E+00-9.81610E-04 8.99661E-01-3.39971E-14 7.00004E-15
 -1       846 2.26050E+01-1.67740E+00 6.21396E-04 2.07762E-01 4.76598E-14 1.25492E-13
 -1       847 2.18974E+01-1.50861E+00 3.67694E-04-2.89251E-01 1.38675E-14 1.07265E-13
 -1       848 2.12634E+01-1.15024E+00-6.10591E-05-5.68343E-01 1.60613E-14 7.39226E-14
 -1       849 2.07684E+01-7.65340E-01 3.16203E-05-6.81260E-01-3.00866E-15 9.10518E-14
 -1       850 2.04158E+01-4.31778E-01 6.98823E-06-6.88064E-01-1.75177E-13 1.07522E-13
 -1       851 2.01843E+01-1.77613E-01 1.33138E-06-6.35919E-01-3.20076E-14 1.40138E-13
 -1       852 2.00448E+01-2.84663E-03 7.39787E-06-5.56809E-01 7.93713E-14 1.68936E-13
 -1       853 1.99693E+01 1.05046E-01 9.10084E-06-4.69951E-01 1.06976E-13 1.33812E-13
 -1       854 1.99356E+01 1.62077E-01 7.91481E-06-3.85910E-01-6.18072E-14 1.72358E-14
 -1       855 1.99269E+01 1.83431E-01 6.09024E-06-3.09938E-01 3.97986E-14 1.00540E-13
 -1       856 1.99320E+01 1.81708E-01 4.38344E-06-2.44148E-01 7.82080E-14 1.82215E-13
 -1       857 1.99434E+01 1.66502E-01 2.99713E-06-1.88883E-01 4.65864E-14 6.34201E-14
 -1       858 1.99566E+01 1.44636E-01 1.93316E-06-1.43548E-01-5.98758E-14 5.27213E-15
 -1       859 1.99692E+01 1.20654E-01 1.16668E-06-1.07097E-01 7.49534E-14 2.89315E-14
 -1       860 1.99798E+01 9.73631E-02 6.52857E-07-7.83151E-02-7.44994E-14 2.14903E-13
 -1       861 1.99883E+01 7.63209E-02 3.25007E-07-5.59767E-02-2.89891E-15 3.27460E-13
 -1       862 1.99945E+01 5.82355E-02 1.25072E-07-3.89360E-02-2.01977E-13 3.88595E-13
 -1       863 1.99989E+01 4.32727E-02 6.40409E-10-2.61680E-02 9.38681E-14 2.36450E-13
 -1       864 2.00017E+01 3.12760E-02-7.70031E-08-1.67846E-02 1.48278E-13 1.29104E-13
 -1       865 2.00034E+01 2.19193E-02-1.16989E-07-1.00371E-02 8.23383E-14 1.39480E-13
 -1       866 2.00042E+01 1.48083E-02-1.26865E-07-5.30668E-03-2.13604E-13 1.29390E-13
 -1       867 2.00044E+01 9.54075E-03-1.24565E-07-2.09223E-03-1.89861E-13 2.63398E-13
 -1       868 2.00042E+01 5.74181E-03-1.17921E-07 4.95899E-06 1.43933E-13-9.88525E-15
 -1       869 2.00037E+01 3.08098E-03-8.67727E-08 1.29617E-03 2.66594E-13-2.01848E-13
 -1       870 2.00032E+01 1.27768E-03-5.99534E-08 2.01976E-03 2.81270E-13-3.11470E-13
 -1       871 2.00026E+01 1.00723E-04 5.96459E-08 2.35414E-03 2.84653E-13 2.81762E-14
 -1       872 2.00021E+01-6.35184E-04 7.38442E-07 2.43107E-03 1.30022E-13 6.13261E-13
 -1       873 2.00015E+01-1.09426E-03 3.51306E-07 2.35113E-03-1.83716E-14 4.82717E-13
 -1       874 1.64941E+01 2.65762E+00 1.78356E-02-1.09350E+00 1.75069E-13-1.48642E-14
 -1       875 1.78051E+01 1.50975E+00-1.61923E-04 7.12311E-01-1.60953E-14 2.11292E-13
 -1       876 1.53327E+01 1.84426E+00 1.34638E-03 7.48444E-01 1.17829E-13-1.30237E-14
 -1       877 1.89948E+01 1.02230E+00 7.97068E-07 6.00793E-01 2.68044E-15 1.15135E-14
 -1       878 1.93447E+01 8.02286E-01-3.29134E-05 5.17127E-01 1.58025E-13-3.43173E-14
 -1       879 1.95700E+01 6.27762E-01 1.40219E-05 4.34162E-01 1.10331E-13 4.02212E-14
 -1       880 1.97221E+01 4.86046E-01 1.98863E-06 3.54660E-01 2.06602E-13 9.14111E-14
 -1       881 1.98238E+01 3.73254E-01 1.36454E-06 2.83001E-01 2.42207E-14 3.48278E-14
 -1       882 1.98911E+01 2.84591E-01 3.50519E-06 2.21081E-01-1.29995E-14-1.16382E-13
 -1       883 1.99351E+01 2.15425E-01-1.42626E-08 1.69183E-01-9.89819E-14 4.93543E-14
 -1       884 1.99646E+01 1.59513E-01-1.70765E-06 1.25096E-01 1.30831E-13 2.09489E-14
 -1       885 1.99823E+01 1.18765E-01 8.72702E-07 9.18842E-02 7.42454E-14-6.35031E-14
 -1       886 1.99931E+01 8.74840E-02-8.68826E-08 6.59328E-02 7.83810E-14-1.06175E-13
 -1       887 1.99996E+01 6.36323E-02-2.10135E-08 4.60685E-02 8.64781E-14 7.58904E-14
 -1       888 2.00032E+01 4.55746E-02 2.45891E-07 3.11476E-02-9.19140E-14 2.34901E-14
 -1       889 2.00050E+01 3.20191E-02-2.86580E-07 2.01486E-02 9.02050E-14 5.97495E-14
 -1       890 2.00057E+01 2.15323E-02 1.18179E-07 1.19044E-02-1.43435E-13 1.22394E-13
 -1       891 2.00056E+01 1.42849E-02-4.22260E-08 6.44754E-03-1.78396E-13 1.73688E-13
 -1       892 2.00052E+01 9.06003E-03-4.67808E-08 2.72492E-03 6.59434E-14 1.48694E-13
 -1       893 2.00046E+01 5.36993E-03-3.10406E-08 2.86324E-04 3.07279E-14 1.83145E-13
 -1       894 2.00039E+01 2.82615E-03-1.14273E-08-1.22597E-03-1.23805E-13 3.97676E-13
 -1       895 2.00032E+01 1.12333E-03-5.19404E-08-2.08667E-03-2.74446E-13 5.12630E-13
 -1       896 2.00025E+01-1.72149E-05 5.51484E-08-2.51052E-03-3.21572E-13 6.10851E-13
 -1       897 2.00019E+01-6.79398E-04-2.61669E-07-2.61292E-03-1.07562E-13 5.02956E-13
 -1       898 2.00013E+01-1.08543E-03-1.53627E-06-2.52840E-03 1.70510E-13 6.11069E-13
 -1       899 2.00005E+01-1.38022E-03 9.84800E-08-2.22739E-03-8.51157E-14-1.87047E-13
 -1       900 1.96653E+01 1.21334E+00 7.48060E-04 1.48569E+00 1.13941E-13-2.87491E-14
 -1       901 1.29062E+01 1.60896E+00 6.05632E-02-2.18022E+00 1.05658E-13-1.95540E-13
 -1       902 2.53239E+01-1.85907E+00-5.38853E-03-5.74978E-01-9.40719E-15 2.91603E-13
 -1       903 2.11533E+01-1.90983E+00 1.14030E-02 3.40577E+00 1.99858E-13 1.33868E-13
 -1       904 1.25113E+01 1.48643E+00 5.37752E-02 1.38622E+00-8.90501E-14 1.85867E-13
 -1       905 2.00024E+01-1.65227E-03-9.38796E-07 4.25258E-04 2.10558E-13-6.24003E-13
 -1       906 1.81010E+01-1.83919E+00 2.30897E-02-4.56299E+00 1.08355E-13-1.69119E-13
 -1       907 1.68027E+01 1.72961E+00 8.74986E-04 7.32034E-01 2.02969E-15 1.60106E-13
 -1       908 2.18902E+01-3.10174E+00 1.38809E-02-3.24900E+00 1.32849E-13-1.35307E-13
 -1       909 2.22612E+01-8.01544E-01 2.05105E-04-1.59529E-02-2.73076E-14-3.76403E-14
 -1       910 1.26034E+01 2.35159E+00 5.86343E-02 4.97826E-01 1.96162E-13-1.72928E-13
 -1       911 2.51933E+01 2.66415E-01-1.50036E-02-1.83246E+00-7.55333E-14 1.28024E-13
 -1       912 1.85063E+01 1.26121E+00-9.64373E-05 6.67802E-01-6.18206E-14 2.57042E-13
 -1       913 2.29749E+01-1.21687E+00-1.25799E-03-3.94568E-01-5.20829E-14-6.12501E-14
 -1       914 2.38100E+01-2.72974E+00-4.45167E-03 1.70423E+00 1.02317E-13 2.45505E-13
 -1       915 1.44586E+01 1.23108E-01 3.29529E-02-3.70794E+00 1.16888E-13 2.76777E-13
 -1       916 1.73689E+01-5.31286E-02 2.58709E-02 4.10332E+00 2.71087E-13-4.10327E-14
 -1       917 1.52960E+01 3.02927E+00 9.74663E-04 3.51291E-01 2.00820E-13-1.31837E-13
 -1       918 1.37017E+01 1.17624E+00 2.98588E-02-2.11814E+00-3.90164E-14 1.88283E-13
 -1       919 2.00023E+01-1.21840E-03-1.30180E-06 1.75629E-03-1.37838E-14-2.41874E-13
 -1       920 2.32649E+01-2.99499E+00-1.37857E-03-1.63145E+00 2.26932E-13-4.66970E-14
 -1       921 1.79665E+01 1.18126E+00-1.11880E-04 2.73246E+00 2.32766E-13-5.11510E-14
 -1       922 1.62513E+01 2.14975E+00 6.20256E-03 2.38943E+00 2.31002E-13-9.91809E-14
 -1       923 2.00009E+01-1.24778E-03-2.83147E-07-2.40464E-03 2.10348E-13 1.83249E-14
 -1       924 2.00014E+01-1.44575E-03 2.02546E-06-2.04513E-03 4.67494E-13 3.05184E-13
 -1       925 2.00024E+01-1.64928E-03 4.87280E-07-3.69707E-04 5.16383E-13-2.82440E-13
 -1       926 2.08349E+01-1.78919E-02 3.90054E-03 1.47316E+00 7.26564E-14 3.23439E-15
 -1       927 2.14650E+01-1.86122E-01-3.18202E-03 6.15896E-01 3.12042E-14-6.67075E-14
 -1       928 2.00025E+01-1.44646E-03-1.49461E-07 1.10593E-03 1.64182E-13-5.91891E-13
 -1       929 1.93920E+01-1.47708E-01-3.03429E-03 3.01831E+00 2.21475E-13 4.98774E-14
 -1       930 1.85188E+01 1.12941E+00-1.36300E-04 1.95886E-01 7.86400E-14-6.47874E-14
 -1       931 1.54219E+01 2.69012E+00-7.92290E-03 1.58396E+00 2.15641E-13-1.42320E-13
 -1       932 1.96123E+01 4.33035E-01-1.09852E-03 2.30350E+00 1.35562E-13-9.37824E-15
 -1       933 2.44176E+01-1.80335E+00-1.01427E-02 7.38612E-01 6.44589E-14-1.95517E-13
 -1       934 2.34012E+01-2.28120E+00-2.32593E-03-2.18480E-01 1.16643E-13-8.25924E-15
 -1       935 2.23485E+01-2.03889E+00 1.24390E-04-8.14405E-01 5.71257E-14 1.03488E-13
 -1       936 2.14132E+01-1.51778E+00-1.21499E-04-1.07783E+00 3.88150E-14 1.37896E-13
 -1       937 2.07407E+01-9.84746E-01 2.75377E-04-1.10125E+00 8.32567E-14 1.60337E-13
 -1       938 2.02923E+01-5.37440E-01 5.89109E-05-1.00430E+00-7.27583E-15 1.18457E-13
 -1       939 2.00198E+01-2.05225E-01-3.09894E-05-8.57838E-01-6.17682E-14 2.22242E-13
 -1       940 1.98727E+01 1.81064E-02-8.35886E-06-7.04099E-01 3.00091E-14 3.55063E-13
 -1       941 1.98078E+01 1.53502E-01-2.51862E-06-5.62774E-01 2.86977E-14 2.08761E-13
 -1       942 1.97933E+01 2.23626E-01-2.38368E-06-4.41318E-01-1.57965E-14 2.26621E-13
 -1       943 1.98072E+01 2.48625E-01-3.28091E-06-3.41023E-01 1.18502E-13 3.78883E-13
 -1       944 1.98347E+01 2.44690E-01-3.75134E-06-2.60280E-01 4.61003E-14 2.82146E-13
 -1       945 1.98666E+01 2.23939E-01-3.56198E-06-1.96391E-01-1.79749E-15 2.21147E-13
 -1       946 1.98976E+01 1.94907E-01-3.16372E-06-1.46477E-01-4.26374E-14 1.40498E-13
 -1       947 1.99251E+01 1.63265E-01-2.77289E-06-1.07886E-01 4.26937E-14 1.96600E-13
 -1       948 1.99478E+01 1.32534E-01-2.29590E-06-7.83330E-02 1.38956E-13 1.58706E-13
 -1       949 1.99657E+01 1.04681E-01-1.84164E-06-5.59165E-02-2.40557E-14 2.96624E-13
 -1       950 1.99793E+01 8.06192E-02-1.39943E-06-3.90883E-02-2.45613E-14 2.41882E-13
 -1       951 1.99891E+01 6.05783E-02-1.05311E-06-2.66037E-02-1.37023E-13 2.84715E-13
 -1       952 1.99959E+01 4.43848E-02-7.30620E-07-1.74671E-02 7.68920E-14 3.74014E-13
 -1       953 2.00003E+01 3.16382E-02-5.67248E-07-1.08883E-02-1.35361E-14 2.63759E-13
 -1       954 2.00030E+01 2.18483E-02-4.05917E-07-6.24476E-03-1.26614E-13 2.51282E-13
 -1       955 2.00044E+01 1.45074E-02-2.81489E-07-3.04714E-03-1.83246E-13 8.68953E-14
 -1       956 2.00050E+01 9.13682E-03-1.98657E-07-9.14840E-04-1.05681E-13-6.53904E-14
 -1       957 2.00049E+01 5.31058E-03-1.47068E-07 4.45441E-04 4.10221E-14-1.97592E-14
 -1       958 2.00046E+01 2.66415E-03-6.01800E-09 1.25727E-03 1.17323E-13-1.67023E-13
 -1       959 2.00040E+01 8.93905E-04 8.62766E-08 1.68744E-03 3.48985E-13-2.98394E-13
 -1       960 2.00033E+01-2.40898E-04 6.94711E-07 1.86016E-03 4.64782E-13-3.93646E-13
 -1       961 2.00028E+01-8.08261E-04 2.45786E-07 1.83762E-03 3.66234E-13-2.44702E-13
 -1       962 1.54021E+01 2.53514E+00 1.08994E-02-1.21768E+00 1.75088E-13-6.62248E-14
 -1       963 2.50183E+01-1.26281E+00-8.66160E-03 1.25259E+00 5.74686E-14-2.30981E-13
 -1       964 2.17978E+01-3.32653E-01-9.26448E-04 2.49702E-02-3.57611E-14-7.84211E-14
 -1       965 2.38500E+01-1.84522E+00 1.80717E-03 4.83303E-02-3.08054E-15 1.73175E-13
 -1       966 1.89751E+01 9.25413E-01-4.32154E-05 2.53561E-01 7.48270E-14-8.96087E-14
 -1       967 1.96611E+01 4.72132E-01-2.16584E-05 2.15811E-01 1.01331E-13 3.06168E-14
 -1       968 1.97712E+01 3.68578E-01-1.10592E-05 1.81050E-01-6.10495E-14 1.58398E-13
 -1       969 1.98483E+01 2.84878E-01-2.27405E-05 1.46568E-01-4.87935E-14 6.03350E-14
 -1       970 1.99040E+01 2.15192E-01-1.53261E-05 1.13735E-01 1.54156E-13-1.72559E-14
 -1       971 1.99401E+01 1.63040E-01-5.87415E-06 8.68731E-02 1.56208E-13-7.46777E-14
 -1       972 1.99646E+01 1.22112E-01-5.27418E-06 6.45975E-02-1.90950E-14-1.12233E-13
 -1       973 1.99809E+01 9.02934E-02-3.62817E-06 4.67346E-02 1.96073E-14-1.02905E-13
 -1       974 1.99916E+01 6.57801E-02-2.05884E-06 3.27916E-02 6.81725E-14-4.40555E-14
 -1       975 1.99983E+01 4.70761E-02-1.78262E-06 2.21636E-02 1.27243E-13-9.41564E-14
 -1       976 2.00025E+01 3.23777E-02-1.15235E-06 1.39474E-02-6.25835E-14-5.61317E-14
 -1       977 2.00046E+01 2.20575E-02-5.19035E-07 8.34122E-03-7.95323E-14-9.28466E-14
 -1       978 2.00055E+01 1.44951E-02-3.59625E-07 4.39042E-03-1.79970E-13-1.53554E-13
 -1       979 2.00056E+01 9.05868E-03-1.65801E-07 1.70290E-03-8.17136E-14 3.44146E-14
 -1       980 2.00053E+01 5.23420E-03 5.73397E-09-4.92734E-05-1.78255E-13 2.34845E-13
 -1       981 2.00047E+01 2.61170E-03 6.12723E-08-1.12637E-03-2.66875E-13 2.18742E-13
 -1       982 2.00040E+01 8.02534E-04 1.79991E-07-1.74581E-03-2.06353E-13 3.53743E-13
 -1       983 2.00032E+01-2.82139E-04 1.87026E-07-2.00592E-03-1.95992E-13 3.21897E-13
 -1       984 2.00025E+01-9.59817E-04 2.40654E-07-2.05966E-03 2.15595E-14 3.11664E-13
 -1       985 2.00022E+01-1.63503E-03-1.52928E-06-1.14498E-03 5.29167E-13-4.18532E-14
 -1       986 1.41746E+01 1.73617E+00 1.51451E-02-5.19720E-01 1.03476E-13 1.59014E-13
 -1       987 1.70709E+01 1.50295E+00-8.00803E-04-1.61027E-01-5.83150E-14 1.62082E-13
 -1       988 1.95047E+01 5.98562E-01-2.73740E-05 2.45742E-01 1.66874E-13 6.63023E-14
 -1       989 1.92842E+01 7.49787E-01-1.57381E-05 2.62595E-01 1.06539E-13-4.70530E-14
 -1       990 1.99040E+01-1.76814E+00 1.04372E-02-3.21770E+00 2.26026E-14-1.39903E-13
 -1       991 1.58574E+01 1.61423E+00 3.13390E-03-5.29289E-01 2.79214E-14 2.03686E-13
 -1       992 1.72268E+01-4.30756E-01 5.88302E-03-3.38395E+00 1.75923E-13-6.54988E-14
 -1       993 2.26755E+01-1.36451E+00-5.51744E-03 6.05716E-01-1.42369E-14 7.40666E-14
 -1       994 1.79100E+01 1.33046E+00 1.76853E-05 6.86893E-02 1.92404E-14-9.09436E-14
 -1       995 2.22732E+01-1.63621E+00 9.09554E-03 1.83060E+00 1.07817E-13 1.18654E-13
 -1       996 2.20538E+01-8.13342E-01 1.69818E-03 6.52457E-01 1.41779E-14-9.32414E-15
 -1       997 2.15116E+01-2.28413E+00 5.74171E-03-2.33486E+00 7.75189E-14-1.60379E-13
 -1       998 2.00032E+01-1.19543E-03-4.70879E-07 5.14676E-04 1.54257E-13-8.92931E-13
 -1       999 1.61181E+01 5.45743E-01 1.13704E-02-2.60468E+00 8.39252E-14-3.40838E-14
 -1      1000 2.00033E+01-1.21848E-03 2.84890E-07-3.20357E-04 2.53743E-13-3.07715E-13
 -1      1001 1.95192E+01 5.38896E-01-5.69642E-05 9.22660E-02 1.58922E-13 2.94346E-13
 -1      1002 2.00032E+01-9.27068E-04-3.85920E-07 1.20848E-03 2.55927E-13-7.84587E-13
 -1      1003 2.13535E+01-1.90602E+00-1.26452E-02-1.83401E+00 6.08843E-14-7.60197E-14
 -1      1004 2.05457E+01-1.17191E+00-1.70969E-03-1.69804E+00 5.66145E-14-1.73772E-14
 -1      1005 1.99942E+01-5.78215E-01-1.03298E-03-1.42828E+00-2.27320E-14 5.31462E-14
 -1      1006 1.97247E+01-1.69808E-01-4.52381E-05-1.13478E+00 2.62423E-14 8.76936E-14
 -1      1007 1.96077E+01 9.05433E-02 6.22098E-05-8.74479E-01 8.82038E-14 2.27112E-13
 -1      1008 1.95819E+01 2.41302E-01 5.11306E-05-6.58764E-01-7.43333E-14 2.05043E-13
 -1      1009 1.96075E+01 3.13716E-01 2.93333E-05-4.88556E-01 2.49014E-14 2.57524E-13
 -1      1010 1.96581E+01 3.33821E-01 7.52446E-06-3.58267E-01 1.42033E-13 2.64792E-13
 -1      1011 1.97176E+01 3.21410E-01-5.72187E-06-2.60529E-01-8.71996E-14 3.15124E-13
 -1      1012 1.97762E+01 2.90740E-01-1.16700E-05-1.88174E-01-9.01714E-14 9.48029E-14
 -1      1013 1.98291E+01 2.51600E-01-1.41628E-05-1.35059E-01-1.91581E-14 1.48794E-14
 -1      1014 1.98741E+01 2.10374E-01-1.45941E-05-9.62852E-02 1.01143E-13 2.17865E-13
 -1      1015 1.99106E+01 1.70960E-01-1.33313E-05-6.80937E-02 9.37448E-14 1.64259E-13
 -1      1016 1.99392E+01 1.35495E-01-1.15564E-05-4.76552E-02 1.06519E-13 1.18079E-13
 -1      1017 1.99609E+01 1.04925E-01-9.62738E-06-3.28859E-02-4.44156E-14 2.07579E-13
 -1      1018 1.99768E+01 7.94399E-02-7.53525E-06-2.22588E-02-1.23645E-14 2.56001E-13
 -1      1019 1.99880E+01 5.87750E-02-5.90378E-06-1.46673E-02-8.07369E-14 2.64216E-13
 -1      1020 1.99956E+01 4.24247E-02-4.75535E-06-9.28459E-03-1.31489E-13 3.18166E-13
 -1      1021 2.00006E+01 2.97776E-02-3.55201E-06-5.52312E-03-6.09840E-15 1.38406E-13
 -1      1022 2.00035E+01 2.02104E-02-2.59635E-06-2.93888E-03-2.29510E-13 1.27093E-13
 -1      1023 2.00050E+01 1.31349E-02-1.85482E-06-1.20623E-03-2.92120E-13 1.86822E-13
 -1      1024 2.00055E+01 8.02705E-03-1.29640E-06-8.40870E-05 3.59031E-14-4.31190E-14
 -1      1025 2.00055E+01 4.43743E-03-9.51632E-07 6.05771E-04 9.90703E-14-1.15740E-13
 -1      1026 2.00050E+01 1.98946E-03-5.85135E-07 9.96800E-04 1.04348E-13-7.59614E-14
 -1      1027 2.00043E+01 3.91825E-04 7.18783E-07 1.17847E-03 1.03589E-13-3.20051E-13
 -1      1028 1.98391E+01 2.67681E-01-2.38985E-05 7.90040E-02-1.11375E-13-1.41145E-13
 -1      1029 1.87285E+01 9.30253E-01 2.88381E-05-1.28270E-01 8.23839E-14 1.07281E-14
 -1      1030 1.97647E+01 3.41871E-01-5.04224E-05 9.13501E-02 2.72908E-14 1.29170E-13
 -1      1031 1.96596E+01 4.33504E-01-5.29421E-05 9.80942E-02 6.25432E-14 3.07205E-13
 -1      1032 1.98926E+01 2.06883E-01-2.44902E-05 6.48378E-02 8.89201E-14 1.10175E-13
 -1      1033 1.99307E+01 1.57835E-01-2.04910E-05 5.10122E-02 1.40357E-13 1.51566E-13
 -1      1034 1.99574E+01 1.18756E-01-1.53798E-05 3.87104E-02 1.09813E-13-5.73406E-14
 -1      1035 1.99758E+01 8.80075E-02-1.10454E-05 2.83756E-02 1.34081E-14-1.73121E-13
 -1      1036 1.99882E+01 6.40963E-02-8.89869E-06 2.00382E-02-8.67563E-14-2.37189E-14
 -1      1037 1.99965E+01 4.49830E-02-6.48086E-06 1.32976E-02 4.96724E-14 8.55369E-14
 -1      1038 2.00014E+01 3.13358E-02-4.06465E-06 8.51552E-03-1.65472E-13 2.23750E-13
 -1      1039 2.00042E+01 2.11742E-02-2.90806E-06 5.02058E-03-2.17444E-13 2.52345E-13
 -1      1040 2.00055E+01 1.37463E-02-1.89273E-06 2.55523E-03-1.93654E-13 2.02451E-13
 -1      1041 2.00059E+01 8.42540E-03-1.14080E-06 8.79588E-04-4.56592E-14 8.43329E-15
 -1      1042 2.00057E+01 4.69887E-03-7.91621E-07-2.09537E-04-5.62627E-13 2.12083E-13
 -1      1043 2.00051E+01 2.06691E-03 4.54672E-08-8.92846E-04-1.57678E-13 3.07794E-13
 -1      1044 2.00044E+01 4.38819E-04 1.92162E-07-1.23848E-03-2.37263E-13 2.20453E-13
 -1      1045 2.00036E+01-5.90988E-04 1.38798E-06-1.38553E-03-8.44291E-14 1.27825E-13
 -1      1046 1.57026E+01 1.22867E+00 7.19716E-03-1.57163E+00 1.26217E-13 2.30758E-13
 -1      1047 1.68499E+01 1.29583E+00-6.79613E-04-8.81728E-01 6.61167E-14 1.07460E-13
 -1      1048 1.87677E+01-6.22624E-01 1.61661E-03-2.62519E+00 1.33820E-13-2.49366E-15
 -1      1049 1.93295E+01 6.59323E-01-5.90868E-05 6.41801E-02-3.49261E-15 1.58744E-13
 -1      1050 1.90756E+01 7.91338E-01-6.64065E-05-8.30368E-04 4.29291E-14-2.77254E-14
 -1      1051 2.00040E+01-4.44655E-04-3.72346E-07 5.85389E-04 8.40886E-14-7.18069E-13
 -1      1052 2.00038E+01-3.72285E-04-7.74807E-07 1.21812E-03 1.37593E-13-8.24541E-13
 -1      1053 1.82817E+01 1.05221E+00 1.92763E-04-3.42982E-01 4.05001E-14-9.51845E-15
 -1      1054 1.77862E+01 1.38494E-01 4.31568E-03-2.31801E+00 1.80072E-13 3.85889E-14
 -1      1055 2.00041E+01-5.00963E-04 5.03079E-07-2.40126E-04-4.38137E-14-2.14037E-13
 -1      1056 2.00032E+01-1.05606E-03-8.62067E-07-1.09914E-03 2.02740E-13-1.28788E-13
 -1      1057 1.77040E+01 1.13006E+00 4.65611E-04-6.87244E-01 1.58503E-13-2.89842E-14
 -1      1058 1.89948E+01 7.25768E-01-2.82093E-04-3.23788E-01 2.28739E-14-2.37046E-13
 -1      1059 1.95769E+01 4.66166E-01-5.20108E-05-2.18114E-02 7.56247E-14 2.20043E-14
 -1      1060 1.92268E+01-3.48993E-02 5.14007E-04-1.44751E+00 1.69624E-13 4.24494E-14
 -1      1061 1.91993E+01 2.41276E-01-2.57569E-04-1.05170E+00 9.50756E-14-4.47658E-14
 -1      1062 1.92625E+01 3.87328E-01 8.58900E-05-7.43032E-01 4.35063E-14-1.52210E-14
 -1      1063 1.93625E+01 4.44535E-01 8.40858E-05-5.15775E-01-4.69531E-14-2.15549E-14
 -1      1064 1.94727E+01 4.46314E-01 4.07140E-05-3.52704E-01 2.99026E-14-2.05798E-13
 -1      1065 1.95787E+01 4.15771E-01 1.53317E-05-2.38274E-01-1.52094E-14-3.88037E-13
 -1      1066 1.96731E+01 3.68608E-01 1.16562E-05-1.59294E-01-1.21145E-13-3.36454E-13
 -1      1067 1.97532E+01 3.15026E-01 5.69024E-06-1.05560E-01-9.76711E-14-1.78513E-13
 -1      1068 1.98187E+01 2.61470E-01-3.40542E-06-6.94520E-02 2.78272E-13-1.75212E-13
 -1      1069 1.98707E+01 2.11733E-01-3.94733E-06-4.53987E-02 1.14261E-13 9.05349E-15
 -1      1070 1.99109E+01 1.67722E-01-2.12217E-06-2.94587E-02-9.30338E-14-4.93460E-15
 -1      1071 1.99411E+01 1.30140E-01-5.18080E-07-1.89433E-02 5.30899E-14-9.99641E-14
 -1      1072 1.99633E+01 9.89568E-02 1.65977E-06-1.20278E-02-3.45548E-14 8.40646E-14
 -1      1073 1.99791E+01 7.36987E-02 5.64278E-06-7.46869E-03 4.34089E-14 1.34767E-13
 -1      1074 1.99901E+01 5.36809E-02 4.18294E-06-4.48440E-03-8.27556E-14 2.10852E-14
 -1      1075 1.99973E+01 3.81371E-02 2.61797E-06-2.55435E-03-3.21127E-13-1.36840E-13
 -1      1076 2.00018E+01 2.63129E-02 2.68527E-06-1.30391E-03-1.49934E-13-2.72766E-13
 -1      1077 2.00044E+01 1.74991E-02 2.53576E-06-5.07848E-04-2.34178E-13-2.35426E-13
 -1      1078 2.00056E+01 1.10727E-02 2.33329E-06-1.41761E-05-2.22974E-13-3.27077E-13
 -1      1079 2.00059E+01 6.49616E-03 1.88059E-06 2.81139E-04-1.15460E-13-3.72162E-13
 -1      1080 2.00057E+01 3.31043E-03-5.54451E-07 4.50246E-04 5.87162E-14-5.51806E-13
 -1      1081 2.00050E+01 1.22866E-03 2.71019E-06 5.01710E-04-1.87377E-13-5.77888E-13
 -1      1082 1.98978E+01 1.88767E-01 1.20838E-05 2.34628E-02 4.32577E-14-2.09775E-13
 -1      1083 1.97831E+01 3.06247E-01-3.99217E-06 2.04736E-02 2.16772E-13 8.01548E-14
 -1      1084 1.69677E+01 8.86437E-01 1.38294E-03-1.63523E+00 1.40361E-13-1.42813E-13
 -1      1085 1.92141E+01-3.85638E-01 2.64429E-03-1.97479E+00 2.06509E-13-1.33668E-13
 -1      1086 1.99334E+01 1.44685E-01 1.12831E-05 2.02746E-02 2.06750E-14-1.20966E-14
 -1      1087 1.99588E+01 1.09088E-01 9.29807E-06 1.63249E-02 1.35707E-13 9.16820E-14
 -1      1088 1.99765E+01 8.07969E-02 3.90936E-06 1.24367E-02-1.62968E-13 5.21639E-14
 -1      1089 1.99891E+01 5.77381E-02 3.61684E-06 8.88550E-03-3.61700E-14-4.42061E-14
 -1      1090 1.99968E+01 4.09888E-02 4.41878E-06 6.10986E-03-2.23806E-13 6.14307E-14
 -1      1091 2.00016E+01 2.83130E-02 3.03757E-06 3.94325E-03-1.32160E-13 2.20856E-13
 -1      1092 2.00044E+01 1.89016E-02 1.93919E-06 2.32896E-03-3.30582E-13 8.03792E-14
 -1      1093 2.00057E+01 1.20501E-02 1.11294E-06 1.17390E-03 4.87717E-14 6.08648E-14
 -1      1094 2.00061E+01 7.17134E-03 7.54574E-07 3.82041E-04-3.17387E-13 1.43391E-13
 -1      1095 2.00058E+01 3.64711E-03 4.56265E-07-1.50795E-04-3.04794E-13-1.15779E-13
 -1      1096 2.00052E+01 1.40205E-03-1.38117E-06-4.58634E-04-8.68600E-14-1.58636E-13
 -1      1097 2.00042E+01-1.67891E-04-5.67479E-08-8.31849E-04 2.10957E-15-3.09105E-13
 -1      1098 1.94269E+01 5.56188E-01-9.25577E-05-7.58806E-02 1.12120E-14-1.23174E-13
 -1      1099 1.98490E+01 2.42381E-01 1.11280E-05 2.43745E-02 4.69456E-14-7.69541E-14
 -1      1100 1.78124E+01 8.31845E-01 3.99880E-03-1.21371E+00 4.98367E-14-1.41833E-13
 -1      1101 1.92362E+01 6.46114E-01-2.00803E-04-1.69149E-01-6.23089E-14-1.66097E-13
 -1      1102 1.96941E+01 3.81451E-01-2.20739E-05 7.28901E-03 1.56990E-14 5.02817E-14
 -1      1103 2.00046E+01 2.51670E-04-1.51560E-08 5.54169E-04-3.17393E-13-7.49681E-13
 -1      1104 1.87031E+01 7.74226E-01-3.79081E-04-5.63135E-01 7.67303E-14-1.62505E-13
 -1      1105 1.83581E+01 7.64358E-01-5.18585E-05-9.16639E-01 9.11327E-14-1.83469E-13
 -1      1106 2.00050E+01 8.04256E-04 2.42515E-06 2.14168E-05-9.71501E-14-4.45776E-13
 -1      1107 1.82379E+01 4.10206E-01-3.10210E-03-1.60234E+00 1.27774E-13-5.27999E-14
 -1      1108 2.87863E+01 9.34226E+00 2.35434E+00-6.67875E+00-3.36398E-14 5.40484E-13
 -1      1109 2.13541E+01 6.47968E+00 2.44804E-01-3.68543E+00-1.36002E-14-9.27175E-14
 -1      1110 2.00923E+01 6.05792E+00 1.00729E-01-2.53480E+00-8.99281E-15-3.14290E-13
 -1      1111 1.94831E+01 5.86943E+00 8.16923E-02-1.76304E+00-3.55271E-15-3.86160E-13
 -1      1112 1.90442E+01 5.73594E+00 7.55670E-02-1.11978E+00-1.80411E-16-4.04574E-13
 -1      1113 1.86467E+01 5.61405E+00 6.67643E-02-5.65662E-01 1.49186E-15-3.91877E-13
 -1      1114 1.82507E+01 5.49102E+00 5.27256E-02-9.67775E-02 1.71391E-15-3.68234E-13
 -1      1115 1.78651E+01 5.36954E+00 3.33656E-02 2.75749E-01 2.63678E-15-3.46391E-13
 -1      1116 1.75423E+01 5.26615E+00 1.15054E-02 5.34689E-01 3.13985E-15-3.12283E-13
 -1      1117 1.73555E+01 5.20424E+00-8.02379E-03 6.84082E-01 5.41581E-15-2.77552E-13
 -1      1118 1.73837E+01 5.20935E+00-1.91889E-02 7.55977E-01 6.94583E-15-2.43912E-13
 -1      1119 1.76847E+01 5.30053E+00-1.62696E-02 8.13767E-01 7.38992E-15-1.83689E-13
 -1      1120 1.82831E+01 5.48607E+00 3.81104E-03 9.46868E-01 9.07607E-15-9.28164E-14
 -1      1121 1.91711E+01 5.76404E+00 4.23378E-02 1.26479E+00 1.01308E-14 4.06723E-14
 -1      1122 2.03332E+01 6.13179E+00 1.06097E-01 1.89319E+00 1.07414E-14 2.55095E-13
 -1      1123 2.19438E+01 6.65848E+00 2.51079E-01 3.05823E+00 9.52016E-15 6.20896E-13
 -1      1124 2.66518E+01 8.43812E+00 1.47513E+00 5.43020E+00 7.60503E-15 1.24081E-12
 -1      1125 2.96480E+01 3.63005E+00 1.22522E+00-4.20861E+00-1.18239E-13 9.31255E-13
 -1      1126 2.13435E+01-1.79016E-01-6.22920E-01-7.94299E-02-4.13072E-14 6.38448E-13
 -1      1127 2.01756E+01-8.45500E-02-2.17339E-01 7.14954E-02-1.08906E-14 3.00647E-13
 -1      1128 1.98991E+01-3.13800E-02-3.44387E-02 4.19466E-02-9.75478E-15 8.65974E-14
 -1      1129 1.97288E+01-4.37700E-03 1.42226E-02 2.12637E-02-8.44480E-15-4.67959E-14
 -1      1130 1.94933E+01 9.15782E-03 2.71692E-02 5.24479E-03-1.84082E-14-1.41243E-13
 -1      1131 1.91007E+01 1.40256E-02 2.86923E-02-9.13799E-03 6.75696E-15-1.78271E-13
 -1      1132 1.85248E+01 1.08288E-02 2.09003E-02-2.13836E-02-3.48181E-15-2.57194E-13
 -1      1133 1.78112E+01 1.46891E-04 3.50198E-03-2.91173E-02-5.03521E-15-3.87284E-13
 -1      1134 1.70769E+01-1.54468E-02-2.04686E-02-2.94586E-02 1.19614E-14-4.79630E-13
 -1      1135 1.64867E+01-3.08768E-02-4.38381E-02-2.09474E-02 3.06873E-15-6.31994E-13
 -1      1136 1.62025E+01-4.01215E-02-5.78671E-02-5.15043E-03 4.27349E-15-6.60955E-13
 -1      1137 1.63213E+01-3.91656E-02-5.67323E-02 1.33054E-02-1.33340E-14-7.18894E-13
 -1      1138 1.68349E+01-2.83050E-02-4.09238E-02 2.86569E-02 2.43165E-15-8.32806E-13
 -1      1139 1.76332E+01-1.18978E-02-1.69020E-02 3.67271E-02 1.74021E-14-5.76060E-13
 -1      1140 1.85492E+01 4.25407E-03 6.70397E-03 3.65872E-02-1.88313E-14-5.67726E-13
 -1      1141 1.94189E+01 1.58084E-02 2.33975E-02 3.02384E-02 1.58729E-14-5.02366E-13
 -1      1142 2.01265E+01 2.12175E-02 3.08860E-02 2.09797E-02 1.23046E-14-3.73195E-13
 -1      1143 2.06200E+01 2.12928E-02 3.04791E-02 1.17693E-02-6.47204E-15-4.70738E-13
 -1      1144 2.09019E+01 1.79664E-02 2.51873E-02 4.39088E-03 2.01315E-15-4.24479E-13
 -1      1145 2.10085E+01 1.31971E-02 1.80082E-02-5.63371E-04-2.68680E-14-5.30761E-13
 -1      1146 2.09891E+01 8.40917E-03 1.10519E-02-3.29578E-03 1.74838E-15-6.24503E-13
 -1      1147 2.08917E+01 4.38789E-03 5.40801E-03-4.36173E-03 6.06199E-15-4.27941E-13
 -1      1148 2.07556E+01 1.41300E-03 1.39161E-03-4.36262E-03-4.74325E-14-5.95317E-13
 -1      1149 2.06088E+01-5.47197E-04-1.13075E-03-3.79370E-03 6.33702E-14-7.19240E-13
 -1      1150 2.04692E+01-1.67282E-03-2.48086E-03-3.00094E-03 1.67212E-14-3.63626E-13
 -1      1151 2.03465E+01-2.18484E-03-3.00936E-03-2.19497E-03 4.24897E-14-6.69603E-14
 -1      1152 2.02447E+01-2.28738E-03-3.01855E-03-1.48509E-03-9.24003E-15-2.31075E-13
 -1      1153 2.01640E+01-2.14403E-03-2.73743E-03-9.14015E-04 1.15751E-14-3.80551E-13
 -1      1154 2.01025E+01-1.87386E-03-2.32395E-03-4.85530E-04 1.95005E-14-3.80507E-13
 -1      1155 2.00576E+01-1.55676E-03-1.87814E-03-1.83711E-04 1.17975E-14-4.72416E-14
 -1      1156 2.00260E+01-1.24195E-03-1.45745E-03 1.50258E-05-1.62548E-14-1.28328E-13
 -1      1157 2.00049E+01-9.56573E-04-1.09031E-03 1.35085E-04-1.58560E-14-3.73220E-13
 -1      1158 1.99916E+01-7.12911E-04-7.86805E-04 1.98288E-04 2.21747E-14-4.27348E-13
 -1      1159 1.99840E+01-5.13937E-04-5.46214E-04 2.22560E-04 4.03743E-14-4.03090E-13
 -1      1160 1.99805E+01-3.57267E-04-3.62211E-04 2.21767E-04 1.28076E-14-4.06484E-13
 -1      1161 1.99796E+01-2.37822E-04-2.26103E-04 2.06129E-04 3.03324E-15-1.78319E-13
 -1      1162 1.99804E+01-1.49522E-04-1.28772E-04 1.82854E-04-2.49148E-14-2.81572E-13
 -1      1163 1.99822E+01-8.62790E-05-6.17273E-05 1.56795E-04-6.38153E-15 1.12329E-13
 -1      1164 1.99845E+01-4.25305E-05-1.75827E-05 1.31047E-04-3.96048E-14-4.49662E-13
 -1      1165 1.99870E+01-1.34655E-05 9.80829E-06 1.07441E-04-6.05272E-14-9.15775E-13
 -1      1166 1.99894E+01 4.93089E-06 2.54189E-05 8.69283E-05 9.46729E-14-7.08537E-13
 -1      1167 1.99917E+01 1.59417E-05 3.32304E-05 6.98555E-05-7.05009E-14-7.18460E-13
 -1      1168 1.99937E+01 2.22367E-05 3.64852E-05 5.61408E-05 3.26959E-14-6.82464E-13
 -1      1169 1.99955E+01 2.59997E-05 3.80239E-05 4.53265E-05-1.77390E-14-4.57357E-13
 -1      1170 1.99971E+01 2.90402E-05 4.05948E-05 3.64889E-05 2.05017E-14-3.05377E-13
 -1      1171 1.99983E+01 3.27366E-05 4.66456E-05 2.78065E-05 4.24884E-14-4.47078E-14
 -1      1172 1.99993E+01 3.69634E-05 5.51775E-05 1.52438E-05 7.06397E-14 1.98211E-13
 -1      1173 1.99998E+01 4.34332E-05 4.91825E-05-9.21958E-06-8.92964E-15 2.75776E-13
 -1      1174 1.99999E+01-1.71306E-05-3.44620E-05-1.80518E-05 5.51368E-14 2.72684E-13
 -1      1175 2.90373E+01 5.11813E-01 1.84154E-01 1.91466E+00-1.54390E-14 1.70103E-12
 -1      1176 2.27541E+01-9.41307E-02-6.01698E-01 1.04832E-01-2.11983E-15 1.57271E-12
 -1      1177 2.27359E+01-7.52413E-02-2.27776E-01 1.58224E-02-3.48679E-16 1.40832E-12
 -1      1178 2.36874E+01-6.18404E-02-1.11833E-01-2.84678E-03 7.53564E-15 1.21962E-12
 -1      1179 2.53224E+01-4.55677E-02-8.19118E-02-2.59515E-02-7.54258E-15 1.12538E-12
 -1      1180 2.75244E+01-5.14354E-03-3.29594E-02-6.48852E-02 8.89740E-15 1.05708E-12
 -1      1181 3.00483E+01 8.48567E-02 1.01586E-01-1.19539E-01 5.47999E-15 1.11308E-12
 -1      1182 3.20052E+01 2.03972E-01 3.30689E-01-1.47282E-01 3.03924E-15 1.15925E-12
 -1      1183 3.18581E+01 2.56273E-01 5.01558E-01-6.19304E-02-6.94583E-15 1.33341E-12
 -1      1184 2.82072E+01 9.01990E-02 3.00784E-01 1.96876E-01-2.30371E-15 1.54010E-12
 -1      1185 2.17282E+01-2.40047E-01-3.94293E-01 4.60302E-01-3.98136E-14 1.57052E-12
 -1      1186 1.67905E+01-3.26490E-01-1.00974E+00 3.77156E-01 7.20257E-15 1.27642E-12
 -1      1187 1.75688E+01-1.82217E-01-9.09692E-01-6.73158E-02 3.44169E-15 7.97667E-13
 -1      1188 2.24274E+01-2.08519E-03-3.49348E-01-3.61700E-01 1.08559E-14 2.70728E-13
 -1      1189 2.84602E+01 1.29527E-01 2.00391E-01-4.20827E-01 2.96586E-14-1.43607E-13
 -1      1190 3.24289E+01 1.02670E-01 3.89965E-01-2.62450E-01 4.65600E-15-2.19963E-13
 -1      1191 3.28445E+01 5.07216E-02 2.69760E-01-7.33188E-02-2.25028E-14 6.46080E-14
 -1      1192 3.11258E+01 1.26161E-02 1.01053E-01 3.40001E-02-1.77592E-15 1.36627E-13
 -1      1193 2.87400E+01-6.06088E-03-3.60909E-03 6.85355E-02 1.33309E-14 1.70752E-13
 -1      1194 2.64457E+01-1.43175E-02-4.38734E-02 6.71902E-02-2.23844E-14 2.75516E-13
 -1      1195 2.45949E+01-1.52144E-02-4.88791E-02 5.20055E-02-1.86576E-14 3.55584E-13
 -1      1196 2.32426E+01-1.33977E-02-4.03913E-02 3.75700E-02 5.74029E-14 1.60743E-13
 -1      1197 2.22600E+01-1.09000E-02-3.02649E-02 2.60149E-02-4.64709E-14 1.88634E-13
 -1      1198 2.15593E+01-8.52756E-03-2.17528E-02 1.76468E-02-2.85319E-15 3.53126E-13
 -1      1199 2.10645E+01-6.55179E-03-1.54080E-02 1.18682E-02-6.58252E-15 5.76122E-13
 -1      1200 2.07104E+01-4.59799E-03-1.05771E-02 8.19163E-03-1.85981E-14 6.80503E-13
 -1      1201 2.04641E+01-3.64327E-03-7.51473E-03 5.16466E-03 1.90264E-14 3.82824E-13
 -1      1202 2.02984E+01-2.72201E-03-5.32867E-03 3.43404E-03-4.54597E-14 2.12933E-13
 -1      1203 2.01840E+01-2.02863E-03-3.78994E-03 2.26386E-03 3.51688E-15 1.41165E-13
 -1      1204 2.01062E+01-1.50800E-03-2.69801E-03 1.47283E-03 6.79475E-14-2.99792E-13
 -1      1205 2.00540E+01-1.13500E-03-1.92769E-03 9.41498E-04-6.75346E-14 2.39873E-14
 -1      1206 2.00195E+01-7.65299E-04-1.32027E-03 6.14080E-04 2.66550E-14 1.58008E-13
 -1      1207 1.99980E+01-5.86335E-04-9.27092E-04 3.16151E-04-3.59261E-14-1.61959E-13
 -1      1208 1.99858E+01-4.21246E-04-6.38816E-04 1.58130E-04-1.85573E-14-2.87648E-13
 -1      1209 1.99795E+01-2.98107E-04-4.30050E-04 5.52824E-05-3.82587E-14-6.80547E-13
 -1      1210 1.99770E+01-2.06876E-04-2.80192E-04-8.78889E-06-6.37896E-14-4.17990E-13
 -1      1211 1.99770E+01-1.44851E-04-1.76602E-04-4.51978E-05-8.25339E-14-2.58461E-13
 -1      1212 1.99786E+01-8.46278E-05-9.72092E-05-6.16791E-05 4.53803E-15-5.59844E-13
 -1      1213 1.99809E+01-5.56619E-05-4.72903E-05-7.41250E-05 1.15778E-13-9.30972E-13
 -1      1214 1.99836E+01-3.21514E-05-1.56528E-05-7.40596E-05-4.15827E-14-9.33686E-13
 -1      1215 1.99863E+01-1.62287E-05 4.14379E-06-6.97193E-05-4.16500E-14 4.09157E-14
 -1      1216 1.99889E+01-5.68101E-06 1.55430E-05-6.32131E-05-5.99232E-16 4.75728E-13
 -1      1217 1.99913E+01 3.56868E-07 2.09540E-05-5.59023E-05 3.46406E-15 3.45147E-13
 -1      1218 1.99935E+01 5.93246E-06 2.36233E-05-4.97641E-05 5.87900E-14-2.81394E-14
 -1      1219 1.99954E+01 9.89520E-06 2.61830E-05-4.35939E-05 1.50164E-14-4.67484E-13
 -1      1220 1.99970E+01 1.42761E-05 2.96965E-05-3.97112E-05 1.21772E-14-3.91223E-13
 -1      1221 1.99983E+01 2.03486E-05 3.75335E-05-3.69740E-05 1.26419E-13-4.48871E-13
 -1      1222 1.99992E+01 2.73827E-05 4.85299E-05-3.28067E-05 4.27213E-14-2.12225E-13
 -1      1223 1.99998E+01 2.67752E-05 4.49956E-05-1.79618E-05 3.08148E-14 4.47556E-13
 -1      1224 1.99998E+01-1.63182E-05-3.39189E-05 1.47020E-05 3.89411E-14 6.41520E-13
 -1      1225 1.99998E+01 4.54341E-05-3.35803E-05 1.65487E-05 7.00813E-13 6.92266E-14
 -1      1226 1.99998E+01-3.40013E-05 4.49131E-05 7.91529E-06 3.63943E-13-9.49732E-14
 -1      1227 1.99998E+01-5.60899E-04 4.33703E-05-2.10217E-05 9.27899E-13 2.08136E-13
 -1      1228 1.99998E+01-1.39965E-03 1.88207E-05-3.20534E-05 9.62022E-13-2.19041E-13
 -1      1229 1.99998E+01-2.35639E-03-6.02967E-06-3.33457E-05 1.03743E-12 1.22574E-15
 -1      1230 1.99998E+01-3.25999E-03-2.55278E-05-2.86257E-05 2.40261E-13-2.39597E-13
 -1      1231 1.99998E+01-3.99227E-03-3.88200E-05-2.10081E-05-4.04376E-13 1.81116E-13
 -1      1232 1.99998E+01-4.46942E-03-4.67626E-05-1.08722E-05 2.34586E-14-1.11414E-15
 -1      1233 1.99998E+01-4.63032E-03-4.92519E-05 1.76534E-07-7.77356E-14 1.74740E-13
 -1      1234 1.99998E+01-4.45820E-03-4.64127E-05 1.11881E-05-2.95314E-14-2.34044E-14
 -1      1235 1.99998E+01-3.97224E-03-3.81394E-05 2.11845E-05-1.60157E-13-1.28110E-13
 -1      1236 1.99998E+01-3.23505E-03-2.46407E-05 2.90497E-05-1.25731E-12 9.64795E-14
 -1      1237 1.99998E+01-2.33250E-03-5.54018E-06 3.31484E-05-1.56346E-12 4.37318E-14
 -1      1238 1.99998E+01-1.37976E-03 1.93418E-05 3.22574E-05-1.34662E-12 1.97535E-14
 -1      1239 1.99998E+01-5.35767E-04 4.71856E-05 2.50303E-05-8.36395E-13 3.95762E-14
 -1      1240 1.99998E+01-4.80391E-05 4.14987E-05-1.83740E-05-1.36399E-13-1.21643E-13
 -1      1241 1.99998E+01 5.05844E-05-3.41136E-05-1.64545E-05-2.57800E-13 1.50553E-14
 -1      1242-1.28741E+00-2.67009E+01-4.00855E+00-2.66678E+00 2.92655E-13 7.77607E-14
 -1      1243-2.50648E+00-1.88779E+01-3.59896E+00-5.32073E+00 1.26499E-12 6.03129E-13
 -1      1244-1.17622E+00-6.17856E+00-2.65074E+00-2.19838E+00 2.22800E-12 1.48503E-12
 -1      1245 6.96702E+00 4.97980E+00-1.10284E+00 6.06145E+00 2.19536E-12 2.04259E-12
 -1      1246 2.43917E+01 1.02177E+01 9.44864E-01 1.51151E+01 1.41775E-12 1.85474E-12
 -1      1247 4.88584E+01 8.59221E+00 3.19152E+00 1.84276E+01 5.60219E-13 1.07936E-12
 -1      1248 7.04244E+01 3.82242E+00 5.09534E+00 1.19531E+01 9.28840E-14 4.36207E-13
 -1      1249 7.68374E+01 2.23385E+00 5.66106E+00-2.37585E+00 1.18190E-13-6.90892E-13
 -1      1250 6.47138E+01 5.76000E+00 4.70735E+00-1.52676E+01 5.95995E-13-1.82787E-12
 -1      1251 4.10349E+01 1.00053E+01 2.57732E+00-1.88011E+01 1.17051E-12-2.34102E-12
 -1      1252 1.76099E+01 9.35167E+00 2.28930E-01-1.23626E+01 1.51146E-12-1.90692E-12
 -1      1253 2.90952E+00 1.36204E+00-1.67762E+00-2.46338E+00 1.32228E-12-1.12577E-12
 -1      1254-2.22461E+00-1.12430E+01-3.08863E+00 4.20147E+00 6.41487E-13-3.83582E-13
 -1      1255-2.02732E+00-2.23806E+01-3.78482E+00 4.80096E+00-2.39808E-14-5.94524E-14
 -1      1256-9.63692E-01-2.70661E+01-3.98185E+00 9.20491E-01-7.97556E-13-3.27169E-14
 -1      1257-1.24152E+00-2.18672E+01-3.48755E+00-3.35285E+00-1.41642E-12-3.02508E-13
 -1      1258-1.29628E+00-9.70659E+00-2.50753E+00-2.96945E+00-1.76126E-12-7.76379E-13
 -1      1259 3.18581E+00 2.95607E+00-1.14034E+00 3.39417E+00-1.82188E-12-1.30407E-12
 -1      1260 1.47940E+01 1.07540E+01 3.93812E-01 1.23252E+01-1.47771E-12-1.58229E-12
 -1      1261 3.37268E+01 1.13311E+01 2.01305E+00 1.85593E+01-8.62199E-13-1.37135E-12
 -1      1262 5.42355E+01 6.67155E+00 3.35073E+00 1.68658E+01-2.38087E-13-5.91305E-13
 -1      1263 6.70779E+01 2.34858E+00 4.06202E+00 6.78970E+00-1.30312E-14 4.31544E-13
 -1      1264 6.72621E+01 2.22185E+00 4.07418E+00-6.99266E+00-2.10540E-13 1.43141E-12
 -1      1265 5.30017E+01 7.19904E+00 3.29957E+00-1.72328E+01-7.63389E-13 2.06368E-12
 -1      1266 3.18063E+01 1.17227E+01 1.93009E+00-1.83198E+01-1.33771E-12 2.11409E-12
 -1      1267 1.32211E+01 1.02202E+01 2.88578E-01-1.12447E+01-1.77902E-12 1.77969E-12
 -1      1268 2.05606E+00 1.04841E+00-1.34394E+00-2.03495E+00-1.98286E-12 1.36313E-12
 -1      1269-1.45651E+00-1.30881E+01-2.78509E+00 3.47580E+00-1.31561E-12 5.53557E-13
 -1      1270-1.09481E+00-2.44793E+01-3.70339E+00 2.21446E+00-4.28102E-13 1.12143E-13
 -1      1271 2.31876E+01 1.89800E+00-7.33179E-01-2.70237E+00-4.60465E-14 3.70481E-13
 -1      1272 2.11776E+01 4.79278E+00-4.31059E-02-3.05568E+00-9.17044E-14-2.01374E-13
 -1      1273 2.17519E+01 4.91823E+00-1.02992E-01-3.97078E+00-1.30951E-13-8.76521E-14
 -1      1274 2.01907E+01 5.06470E+00-1.36713E-02-2.29215E+00-7.10126E-14-3.48221E-13
 -1      1275 2.05756E+01 5.18460E+00 7.50506E-03-2.73992E+00-8.69721E-14-2.90046E-13
 -1      1276 2.13633E+01 3.96094E+00-2.31709E-02-2.80756E+00-1.51816E-13-1.61232E-13
 -1      1277 1.96332E+01 5.09601E+00 1.99153E-03-1.59849E+00-3.09197E-14-4.01703E-13
 -1      1278 1.98935E+01 5.18356E+00 1.65181E-02-1.94623E+00-4.77951E-14-3.81386E-13
 -1      1279 2.04131E+01 4.32812E+00-2.41385E-02-2.12524E+00-9.93337E-14-2.84245E-13
 -1      1280 1.91892E+01 5.07307E+00 7.11473E-03-9.86552E-01-7.98667E-15-4.05842E-13
 -1      1281 1.94098E+01 5.14507E+00 1.94349E-02-1.28627E+00-1.64452E-14-4.08520E-13
 -1      1282 1.98231E+01 4.45696E+00-2.12128E-02-1.46185E+00-4.54723E-14-3.31804E-13
 -1      1283 1.87675E+01 5.03818E+00 6.45841E-03-4.56649E-01 1.76838E-14-3.91033E-13
 -1      1284 1.89832E+01 5.10644E+00 2.07028E-02-7.12129E-01 1.01585E-14-3.99736E-13
 -1      1285 1.93446E+01 4.51565E+00-1.81691E-02-8.71480E-01-8.81240E-16-3.32373E-13
 -1      1286 1.83291E+01 5.00817E+00 1.84186E-03-2.68304E-04 3.98188E-14-3.64458E-13
 -1      1287 1.85531E+01 5.07724E+00 1.99003E-02-2.15755E-01 3.14956E-14-3.78655E-13
 -1      1288 1.88758E+01 4.56412E+00-1.65577E-02-3.52092E-01 3.55601E-14-3.19224E-13
 -1      1289 1.79034E+01 4.99843E+00-4.74741E-03 3.55257E-01 5.78530E-14-3.33466E-13
 -1      1290 1.81160E+01 5.06298E+00 1.65000E-02 1.91758E-01 5.21874E-14-3.47970E-13
 -1      1291 1.83935E+01 4.63064E+00-1.56468E-02 8.85241E-02 6.97810E-14-2.82916E-13
 -1      1292 1.75530E+01 5.01798E+00-1.11027E-02 5.97481E-01 7.47648E-14-3.01439E-13
 -1      1293 1.77179E+01 5.06744E+00 1.01163E-02 4.89128E-01 7.05963E-14-3.21181E-13
 -1      1294 1.79344E+01 4.72446E+00-1.49372E-02 4.26509E-01 1.07896E-13-2.61390E-13
 -1      1295 1.73671E+01 5.06910E+00-1.46228E-02 7.33450E-01 9.57404E-14-2.72854E-13
 -1      1296 1.74367E+01 5.08930E+00 1.16695E-03 6.72475E-01 8.76712E-14-2.90462E-13
 -1      1297 1.75751E+01 4.83707E+00-1.41793E-02 6.51210E-01 1.34963E-13-2.35043E-13
 -1      1298 1.74390E+01 5.14566E+00-1.31562E-02 8.00185E-01 1.08556E-13-2.40268E-13
 -1      1299 1.73668E+01 5.12296E+00-8.85468E-03 7.63776E-01 1.05261E-13-2.61643E-13
 -1      1300 1.74183E+01 4.94392E+00-1.35412E-02 7.74309E-01 1.64568E-13-2.12439E-13
 -1      1301 1.78269E+01 5.23355E+00-5.61812E-03 8.65669E-01 1.21410E-13-1.70259E-13
 -1      1302 1.75889E+01 5.15982E+00-1.77293E-02 8.17146E-01 1.13291E-13-2.11515E-13
 -1      1303 1.75620E+01 5.01038E+00-1.33913E-02 8.39079E-01 1.79958E-13-1.73623E-13
 -1      1304 1.85651E+01 5.31777E+00 7.29585E-03 1.02560E+00 1.44593E-13-7.38871E-14
 -1      1305 1.81470E+01 5.18882E+00-2.39527E-02 9.15406E-01 1.31520E-13-1.28160E-13
 -1      1306 1.80727E+01 5.00258E+00-1.40623E-02 9.19712E-01 2.08729E-13-9.69762E-14
 -1      1307 1.96242E+01 5.37483E+00 2.31553E-02 1.38701E+00 1.53266E-13 6.64260E-14
 -1      1308 1.90464E+01 5.19529E+00-2.70524E-02 1.16023E+00 1.45980E-13-2.12400E-14
 -1      1309 1.89751E+01 4.88687E+00-1.56510E-02 1.11293E+00 2.35763E-13-2.87617E-15
 -1      1310 2.09823E+01 5.36892E+00 4.14280E-02 2.06971E+00 1.50033E-13 3.03216E-13
 -1      1311 2.02495E+01 5.14109E+00-2.96817E-02 1.65379E+00 1.40207E-13 1.66762E-13
 -1      1312 2.02477E+01 4.61996E+00-1.57328E-02 1.51730E+00 2.30479E-13 1.56063E-13
 -1      1313 2.28312E+01 5.09358E+00 5.19592E-02 3.26842E+00 1.06637E-13 6.82676E-13
 -1      1314 2.18178E+01 4.88245E+00-3.52081E-02 2.48321E+00 1.09524E-13 4.57440E-13
 -1      1315 2.19340E+01 4.06565E+00-3.88753E-03 2.18728E+00 2.04805E-13 3.99972E-13
 -1      1316 2.87934E+01 3.23477E+00 8.71183E-01 4.18442E+00 2.88936E-14 1.26593E-12
 -1      1317 2.38540E+01 3.60668E+00-1.66121E-01 3.26398E+00 4.40481E-14 8.74828E-13
 -1      1318 2.40791E+01 2.58787E+00-1.35443E-03 2.63359E+00 1.57581E-13 7.33275E-13
 -1      1319 2.35774E+01 3.20143E-01-7.58405E-01 7.67778E-01 7.02841E-14 1.26490E-12
 -1      1320 2.30317E+01 1.11767E-01-4.08141E-01-1.18756E+00-1.16157E-13 4.16667E-13
 -1      1321 2.18154E+01 2.89790E-01-1.62537E-01-7.22746E-01-1.02633E-13 2.79839E-13
 -1      1322 2.12541E+01 1.36559E-01-7.21638E-02-3.50041E-01-6.86742E-14 2.37648E-13
 -1      1323 2.08400E+01 7.10713E-02-1.31497E-02-2.89569E-01-6.96110E-14 1.34209E-13
 -1      1324 2.20485E+01 3.33638E-01-1.03377E-01-1.15040E+00-1.71106E-13 1.05985E-13
 -1      1325 2.04930E+01 4.24217E-02 4.87400E-03-1.40929E-01-5.88410E-14 1.02470E-13
 -1      1326 2.03207E+01 1.67642E-02 1.41496E-02-1.35844E-01-5.10156E-14 2.58439E-14
 -1      1327 2.10540E+01 9.67554E-02-2.97213E-02-4.72514E-01-1.17139E-13 5.17815E-14
 -1      1328 2.01189E+01 4.24839E-03 1.51140E-02-1.03438E-01-3.22224E-14-1.79648E-14
 -1      1329 1.99924E+01-8.96398E-03 1.18311E-02-1.09250E-01-4.44894E-14-7.26016E-14
 -1      1330 2.05506E+01 1.06252E-02-1.56157E-03-2.61410E-01-9.40446E-14-1.77670E-14
 -1      1331 1.98300E+01-1.53323E-02 1.12143E-02-1.31236E-01-2.26522E-14-8.25728E-14
 -1      1332 1.96642E+01-2.07507E-02 7.55153E-03-1.43745E-01-1.63281E-14-1.04247E-13
 -1      1333 2.02024E+01-2.64485E-02 4.84896E-03-2.49501E-01-5.94054E-14-7.17542E-14
 -1      1334 1.94864E+01-2.35972E-02 7.76115E-03-1.89449E-01-2.39715E-14-1.04086E-13
 -1      1335 1.92468E+01-2.22995E-02 5.08718E-03-2.04120E-01-2.00970E-14-1.40681E-13
 -1      1336 1.98728E+01-4.13954E-02 6.71166E-03-3.30666E-01-4.73870E-14-5.02851E-14
 -1      1337 1.90326E+01-2.13049E-02 5.63210E-03-2.49640E-01-1.70653E-14-1.54125E-13
 -1      1338 1.87217E+01-1.35392E-02 3.44063E-03-2.61043E-01-4.52785E-14-1.93331E-13
 -1      1339 1.94899E+01-3.88856E-02 6.43727E-03-4.41283E-01-5.26610E-14-9.18551E-14
 -1      1340 1.84780E+01-8.27545E-03 3.58392E-03-2.83087E-01-3.60254E-14-1.94207E-13
 -1      1341 1.81334E+01 4.56521E-03 1.57417E-03-2.85451E-01-3.63807E-14-2.47503E-13
 -1      1342 1.90394E+01-1.91118E-02 3.49003E-03-5.24442E-01-7.30620E-14-9.19603E-14
 -1      1343 1.78926E+01 1.31399E-02 1.00084E-03-2.64831E-01-3.30228E-14-2.89282E-13
 -1      1344 1.75798E+01 2.76304E-02-7.30100E-04-2.54038E-01-4.08753E-14-3.28777E-13
 -1      1345 1.85598E+01 1.48376E-02-2.17423E-03-5.28016E-01-7.60470E-14-1.14070E-13
 -1      1346 1.73905E+01 3.66742E-02-1.76531E-03-1.83287E-01-5.61799E-14-3.59600E-13
 -1      1347 1.71853E+01 4.79071E-02-2.90333E-03-1.59321E-01-2.77473E-14-4.27046E-13
 -1      1348 1.81314E+01 5.39460E-02-9.17997E-03-4.18522E-01-8.80537E-14-1.66362E-13
 -1      1349 1.70961E+01 5.36613E-02-3.78974E-03-4.86113E-02 4.72625E-15-4.79804E-13
 -1      1350 1.70584E+01 5.72337E-02-4.03217E-03-1.66409E-02-2.12226E-14-4.87734E-13
 -1      1351 1.78523E+01 8.48524E-02-1.49412E-02-1.98409E-01-5.06557E-14-2.51538E-13
 -1      1352 1.70984E+01 5.71030E-02-4.29074E-03 1.07702E-01-3.45626E-14-4.69119E-13
 -1      1353 1.72487E+01 5.13902E-02-3.53049E-03 1.38981E-01-5.43532E-14-5.47746E-13
 -1      1354 1.78014E+01 9.54941E-02-1.69083E-02 8.77789E-02-4.09178E-14-2.97412E-13
 -1      1355 1.74145E+01 4.56086E-02-3.22581E-03 2.44661E-01-1.87263E-14-5.35356E-13
 -1      1356 1.77252E+01 3.26520E-02-1.63003E-03 2.66849E-01 4.43603E-14-5.24705E-13
 -1      1357 1.80051E+01 8.14622E-02-1.41158E-02 3.67693E-01-3.87676E-14-3.30534E-13
 -1      1358 1.79819E+01 2.41151E-02-1.32946E-03 3.29198E-01 5.86436E-14-4.49391E-13
 -1      1359 1.83886E+01 8.39571E-03 7.42216E-04 3.37800E-01 2.02527E-14-4.08614E-13
 -1      1360 1.84241E+01 4.84663E-02-7.80434E-03 5.71086E-01 4.94361E-14-3.16303E-13
 -1      1361 1.86836E+01 7.75895E-04 4.14783E-04 3.48658E-01-1.69834E-14-3.69094E-13
 -1      1362 1.91087E+01-1.31646E-02 2.56778E-03 3.44239E-01-7.78804E-15-3.72948E-13
 -1      1363 1.89696E+01 8.93498E-03-5.78627E-04 6.58070E-01 2.08019E-14-2.37672E-13
 -1      1364 1.93905E+01-1.74096E-02 1.36426E-03 3.11753E-01 5.43582E-14-3.85574E-13
 -1      1365 1.97681E+01-2.68167E-02 3.30581E-03 2.98472E-01 5.05397E-14-3.39133E-13
 -1      1366 1.95368E+01-2.46093E-02 5.16436E-03 6.29578E-01 3.92147E-14-1.62266E-13
 -1      1367 1.99996E+01-2.72006E-02 1.43938E-03 2.40035E-01 9.73353E-15-3.16762E-13
 -1      1368 2.02894E+01-3.15408E-02 3.02653E-03 2.23096E-01 3.98466E-15-3.26773E-13
 -1      1369 2.00380E+01-4.48444E-02 8.26978E-03 5.17697E-01 6.13658E-14-1.90185E-13
 -1      1370 2.04529E+01-2.90477E-02 9.52415E-04 1.56948E-01 2.08687E-14-3.46487E-13
 -1      1371 2.06422E+01-2.93348E-02 2.15917E-03 1.40598E-01-3.73876E-15-3.19304E-13
 -1      1372 2.04200E+01-5.09178E-02 8.84985E-03 3.66198E-01-9.19230E-15-2.33609E-13
 -1      1373 2.07369E+01-2.54531E-02 3.04109E-04 8.03142E-02-3.59868E-14-2.98228E-13
 -1      1374 2.08339E+01-2.32698E-02 1.16725E-03 6.70397E-02-5.77195E-14-3.91802E-13
 -1      1375 2.06665E+01-4.63790E-02 7.71650E-03 2.13553E-01-2.00564E-14-2.43110E-13
 -1      1376 2.08701E+01-1.92662E-02-2.22278E-04 1.98647E-02-5.73825E-15-3.90395E-13
 -1      1377 2.08943E+01-1.60521E-02 3.53784E-04 1.05223E-02-5.49426E-14-4.38262E-13
 -1      1378 2.07882E+01-3.61809E-02 5.78805E-03 8.45395E-02-8.33205E-14-2.61288E-13
 -1      1379 2.08871E+01-1.26867E-02-5.14503E-04-2.16416E-02-6.24531E-14-3.45036E-13
 -1      1380 2.08615E+01-9.43326E-03-1.67949E-04-2.72778E-02 3.57628E-14-3.89161E-13
 -1      1381 2.08108E+01-2.45358E-02 3.75953E-03-1.02341E-02-6.43658E-14-1.92271E-13
 -1      1382 2.08261E+01-6.99457E-03-5.86651E-04-4.58986E-02 3.58384E-14-4.46222E-13
 -1      1383 2.07713E+01-4.23330E-03-4.16487E-04-4.85786E-02-3.01753E-14-3.93386E-13
 -1      1384 2.07644E+01-1.40919E-02 2.02336E-03-7.05656E-02-1.38312E-14-3.19730E-13
 -1      1385 2.07209E+01-2.69915E-03-5.10624E-04-5.66539E-02-6.10482E-14-3.50091E-13
 -1      1386 2.06534E+01-6.19389E-04-4.68949E-04-5.72548E-02-3.18871E-14-4.59584E-13
 -1      1387 2.06770E+01-6.02870E-03 7.26230E-04-1.02009E-01-6.20476E-14-3.03444E-13
 -1      1388 2.05977E+01 1.83192E-04-3.64272E-04-5.80454E-02 4.99094E-14-4.47595E-13
 -1      1389 2.05286E+01 1.59661E-03-4.08757E-04-5.73531E-02 7.10971E-14-3.67383E-13
 -1      1390 2.05707E+01-5.21829E-04-1.35935E-04-1.12160E-01 2.96502E-15-2.30988E-13
 -1      1391 2.04743E+01 1.88013E-03-2.06064E-04-5.37044E-02 1.23048E-13-4.21409E-13
 -1      1392 2.04105E+01 2.73868E-03-3.01276E-04-5.23278E-02 1.01019E-13-2.52755E-13
 -1      1393 2.04616E+01 2.78184E-03-6.38314E-04-1.08363E-01 9.20473E-14-2.40359E-13
 -1      1394 2.03616E+01 2.69542E-03-6.98141E-05-4.64159E-02 7.90705E-14-1.91828E-13
 -1      1395 2.03066E+01 3.13805E-03-1.88162E-04-4.47787E-02 4.89230E-14-1.35110E-13
 -1      1396 2.03596E+01 4.42288E-03-8.75700E-04-9.66298E-02 1.25667E-13-2.19966E-13
 -1      1397 2.02649E+01 2.91690E-03 3.07983E-05-3.81053E-02-4.91864E-14-1.49049E-13
 -1      1398 2.02199E+01 3.07349E-03-9.10438E-05-3.64745E-02-7.80410E-14-2.52069E-13
 -1      1399 2.02703E+01 4.93426E-03-9.35698E-04-8.13466E-02-2.33783E-14-1.93505E-13
 -1      1400 2.01859E+01 2.77770E-03 9.49684E-05-2.99761E-02 1.41525E-14-2.21739E-13
 -1      1401 2.01506E+01 2.75400E-03-1.78739E-05-2.85005E-02 3.60647E-14-2.69252E-13
 -1      1402 2.01958E+01 4.75479E-03-8.88272E-04-6.54157E-02-6.04360E-14-1.49828E-13
 -1      1403 2.01239E+01 2.44833E-03 1.28414E-04-2.26906E-02 2.42997E-14-3.04834E-13
 -1      1404 2.00974E+01 2.32299E-03 3.13002E-05-2.14376E-02 5.75484E-14-2.12153E-13
 -1      1405 2.01360E+01 4.20757E-03-7.84215E-04-5.05583E-02 4.80907E-14-1.79155E-13
 -1      1406 2.00771E+01 2.04355E-03 1.39046E-04-1.65388E-02 8.12843E-14-2.15905E-13
 -1      1407 2.00579E+01 1.87095E-03 6.01846E-05-1.55244E-02 2.11122E-14-2.01589E-13
 -1      1408 2.00898E+01 3.51040E-03-6.57637E-04-3.76444E-02 9.10448E-14-2.27275E-13
 -1      1409 2.00430E+01 1.63433E-03 1.34524E-04-1.15759E-02-1.85719E-14-8.36338E-14
 -1      1410 2.00296E+01 1.44953E-03 7.36759E-05-1.07864E-02-1.07055E-14-6.94371E-14
 -1      1411 2.00553E+01 2.79789E-03-5.29697E-04-2.69798E-02 1.04356E-14-2.58941E-13
 -1      1412 2.00192E+01 1.26014E-03 1.21159E-04-7.72235E-03-7.28591E-14-4.47042E-14
 -1      1413 2.00104E+01 1.08392E-03 7.64897E-05-7.12931E-03-5.45750E-14-1.91764E-13
 -1      1414 2.00304E+01 2.14472E-03-4.12258E-04-1.85273E-02-9.06134E-14-5.72018E-14
 -1      1415 2.00033E+01 9.39253E-04 1.03624E-04-4.83254E-03-5.35141E-14-2.81214E-13
 -1      1416 1.99978E+01 7.82510E-04 7.25585E-05-4.40232E-03-4.47812E-14-3.81614E-13
 -1      1417 2.00131E+01 1.58544E-03-3.10923E-04-1.20642E-02-7.74903E-14-5.55465E-14
 -1      1418 1.99933E+01 6.76681E-04 8.50813E-05-2.73876E-03 4.35725E-14-4.05287E-13
 -1      1419 1.99903E+01 5.43820E-04 6.48715E-05-2.43801E-03 3.83511E-14-3.36966E-13
 -1      1420 2.00016E+01 1.12961E-03-2.27338E-04-7.28726E-03 6.54175E-15-2.57074E-13
 -1      1421 1.99877E+01 4.69798E-04 6.74738E-05-1.27671E-03-1.71067E-15-3.48964E-13
 -1      1422 1.99864E+01 3.61255E-04 5.55387E-05-1.07538E-03 2.76746E-14-3.10905E-13
 -1      1423 1.99945E+01 7.72549E-04-1.60843E-04-3.87743E-03 3.01445E-14-4.11852E-13
 -1      1424 1.99851E+01 3.12115E-04 5.18450E-05-2.99093E-04 1.57930E-14-3.46220E-13
 -1      1425 1.99849E+01 2.26093E-04 4.59435E-05-1.71650E-04-5.14654E-14-3.31785E-13
 -1      1426 1.99906E+01 5.02452E-04-1.09580E-04-1.53608E-03 3.08871E-15-3.27186E-13
 -1      1427 1.99845E+01 1.95667E-04 3.86221E-05 3.18818E-04 3.56748E-14-3.17957E-13
 -1      1428 1.99850E+01 1.29287E-04 3.69164E-05 3.93106E-04 6.07803E-14-1.80012E-13
 -1      1429 1.99888E+01 3.04868E-04-7.12051E-05-2.92109E-06 6.84161E-15-3.76950E-13
 -1      1430 1.99851E+01 1.12420E-04 2.78410E-05 6.78168E-04 9.69773E-15-1.46886E-14
 -1      1431 1.99861E+01 6.24380E-05 2.88916E-05 7.15564E-04-7.53666E-15-6.66414E-14
 -1      1432 1.99884E+01 1.65296E-04-4.33133E-05 9.38052E-04 6.08412E-14-2.63752E-13
 -1      1433 1.99865E+01 5.50105E-05 1.93109E-05 8.58157E-04-1.43517E-13-1.79219E-13
 -1      1434 1.99877E+01 1.82407E-05 2.20348E-05 8.71013E-04-2.45858E-13-4.49162E-13
 -1      1435 1.99890E+01 7.05483E-05-2.36742E-05 1.45928E-03-1.67696E-13-1.01388E-13
 -1      1436 1.99883E+01 1.70763E-05 1.27287E-05 9.18823E-04-1.75955E-13-3.84418E-13
 -1      1437 1.99895E+01-9.39589E-06 1.63411E-05 9.16223E-04-1.00061E-13-5.52239E-13
 -1      1438 1.99901E+01 9.31408E-06-1.03389E-05 1.69389E-03-2.87305E-13-5.40512E-14
 -1      1439 1.99902E+01-6.68432E-06 7.75365E-06 9.04163E-04 8.26460E-14-6.59393E-13
 -1      1440 1.99914E+01-2.54151E-05 1.17076E-05 8.92539E-04 5.59565E-14-4.77215E-13
 -1      1441 1.99915E+01-2.77435E-05-1.67169E-06 1.74136E-03-7.22435E-14-1.35725E-13
 -1      1442 1.99921E+01-2.05984E-05 4.05918E-06 8.45089E-04-4.68000E-14-3.91786E-13
 -1      1443 1.99932E+01-3.37797E-05 7.99270E-06 8.28750E-04-2.52845E-14-4.51226E-13
 -1      1444 1.99929E+01-4.81641E-05 3.66648E-06 1.67328E-03 4.66688E-14-2.70606E-13
 -1      1445 1.99939E+01-2.81891E-05 1.37634E-06 7.61940E-04 2.59803E-14-3.59944E-13
 -1      1446 1.99948E+01-3.76912E-05 5.07838E-06 7.43485E-04 4.89621E-14-2.85742E-13
 -1      1447 1.99943E+01-5.80158E-05 6.76166E-06 1.53857E-03 5.32885E-14 5.86828E-14
 -1      1448 1.99954E+01-3.24082E-05-4.42164E-07 6.66410E-04 1.06079E-13-3.44690E-13
 -1      1449 1.99963E+01-3.98203E-05 2.99412E-06 6.46990E-04 1.00768E-13-1.84755E-13
 -1      1450 1.99957E+01-6.23155E-05 8.50900E-06 1.36770E-03 1.53860E-13-4.93006E-14
 -1      1451 1.99968E+01-3.58128E-05-1.26587E-06 5.62892E-04 1.64243E-13-9.42184E-14
 -1      1452 1.99975E+01-4.25047E-05 2.00784E-06 5.42368E-04 1.55339E-13 3.15568E-14
 -1      1453 1.99968E+01-6.54286E-05 9.71470E-06 1.17581E-03 1.86934E-13 1.45590E-13
 -1      1454 1.99980E+01-4.08502E-05-6.19211E-07 4.49280E-04 1.13296E-13-3.76183E-14
 -1      1455 1.99985E+01-4.77743E-05 2.55794E-06 4.26083E-04 7.51923E-14 7.23557E-14
 -1      1456 1.99979E+01-7.17117E-05 1.10815E-05 9.65029E-04 1.91825E-13 1.47955E-13
 -1      1457 1.99989E+01-4.93204E-05 1.96881E-06 3.18427E-04 1.42322E-13 1.62895E-13
 -1      1458 1.99992E+01-5.60744E-05 3.52915E-06 2.89479E-04 1.68211E-13 2.04258E-13
 -1      1459 1.99987E+01-8.50298E-05 1.27384E-05 7.26209E-04 1.70441E-13 1.90784E-14
 -1      1460 1.99995E+01-6.52987E-05 3.30791E-06 1.61594E-04 1.14060E-14 2.83348E-13
 -1      1461 1.99996E+01-5.89423E-05-1.47323E-06 1.26567E-04 4.46996E-14 3.09985E-13
 -1      1462 1.99993E+01-1.07410E-04 1.33465E-05 4.49356E-04 1.57964E-13 1.74828E-13
 -1      1463 1.99998E+01-1.54126E-05-6.39630E-06-1.11038E-05-2.24136E-13 9.55704E-14
 -1      1464 1.99997E+01-9.04651E-05 4.77733E-06 1.18542E-04-1.55356E-13-9.72759E-14
 -1      1465 2.32833E+01 8.30737E-02-1.39594E-01 1.06711E-01 6.14786E-14 1.11844E-12
 -1      1466 2.40059E+01 2.40647E-01-2.21223E-01 3.36712E-01 5.85088E-14 1.20716E-12
 -1      1467 2.40581E+01 8.27230E-01-1.05546E-01 1.38227E+00 1.07622E-13 8.74190E-13
 -1      1468 2.33846E+01 5.66884E-02-2.37303E-02-2.57619E-01 6.28733E-14 9.75414E-13
 -1      1469 2.32116E+01 1.52039E-01-5.37065E-02-1.79624E-01 5.37001E-14 1.05672E-12
 -1      1470 2.33919E+01 2.04883E-01-6.87001E-02 2.47497E-02 9.96286E-14 7.35549E-13
 -1      1471 2.42940E+01 4.71743E-02-6.72734E-03-5.11963E-01 3.13291E-14 8.53088E-13
 -1      1472 2.36958E+01 1.08262E-01 1.55876E-03-4.41661E-01 3.62592E-14 9.20951E-13
 -1      1473 2.35943E+01 1.26405E-01-3.25711E-02-6.37200E-01 9.55416E-14 6.35315E-13
 -1      1474 2.57902E+01 3.36810E-02-6.30357E-03-7.11479E-01 2.78180E-14 7.85122E-13
 -1      1475 2.48810E+01 8.71512E-02 5.94252E-03-6.45577E-01 2.26008E-14 8.14501E-13
 -1      1476 2.44329E+01 9.80928E-02-2.79116E-02-1.09063E+00 4.87596E-14 5.58997E-13
 -1      1477 2.76597E+01-3.20260E-03 8.23118E-03-8.17340E-01-1.24972E-14 7.90090E-13
 -1      1478 2.65533E+01 4.64367E-02 4.27557E-03-7.71773E-01-6.73365E-15 7.80348E-13
 -1      1479 2.57169E+01 5.21608E-02-2.18664E-02-1.39997E+00 3.20750E-15 5.08784E-13
 -1      1480 2.95594E+01-9.03539E-02 5.76160E-02-6.75729E-01-1.85294E-14 8.38260E-13
 -1      1481 2.84826E+01-5.90048E-02 1.63567E-02-7.07875E-01-2.43538E-14 8.14571E-13
 -1      1482 2.72717E+01-6.43316E-02 6.92952E-03-1.42035E+00-3.48176E-14 5.63584E-13
 -1      1483 3.04833E+01-2.10111E-01 1.26404E-01-9.49066E-02-3.52322E-14 9.42968E-13
 -1      1484 3.00686E+01-2.47899E-01 4.90967E-02-2.75303E-01-3.88925E-14 8.76171E-13
 -1      1485 2.86843E+01-2.99046E-01 6.65070E-02-8.47839E-01-5.31485E-14 6.16021E-13
 -1      1486 2.94941E+01-2.75701E-01 1.29631E-01 9.71819E-01-4.79998E-14 1.10101E-12
 -1      1487 3.03687E+01-4.34587E-01 7.51694E-02 6.10752E-01-6.69811E-14 1.00177E-12
 -1      1488 2.93348E+01-5.70627E-01 1.23321E-01 5.47299E-01-1.16872E-13 7.68885E-13
 -1      1489 2.61504E+01-9.42350E-02-6.46853E-02 1.96758E+00 4.47212E-15 1.19049E-12
 -1      1490 2.85420E+01-3.67855E-01 1.54141E-02 1.61268E+00-7.71735E-15 1.11705E-12
 -1      1491 2.86353E+01-5.81116E-01 8.24937E-02 2.40918E+00-3.79631E-14 7.69773E-13
 -1      1492 2.20894E+01 3.18873E-01-4.08275E-01 1.70005E+00 8.87068E-14 1.09840E-12
 -1      1493 2.48281E+01 1.29585E-01-1.80776E-01 1.75365E+00 5.24858E-14 1.15630E-12
 -1      1494 2.66457E+01 8.10815E-02-9.60632E-02 3.23520E+00 3.66929E-14 7.88050E-13
 -1      1495 2.08414E+01 5.08825E-01-5.05627E-01-1.75354E-01 1.74569E-13 7.03243E-13
 -1      1496 2.16007E+01 6.37423E-01-3.80477E-01 3.67747E-01 1.46716E-13 9.02847E-13
 -1      1497 2.48541E+01 1.07479E+00-2.69310E-01 1.47059E+00 2.51299E-13 5.55861E-13
 -1      1498 2.31314E+01 2.65008E-01-2.87597E-01-1.71205E+00 2.19325E-13 3.62432E-13
 -1      1499 2.16152E+01 5.68607E-01-3.47732E-01-1.30902E+00 1.81022E-13 5.90583E-13
 -1      1500 2.49570E+01 1.09796E+00-3.00275E-01-1.59657E+00 3.12389E-13 2.84855E-13
 -1      1501 2.67257E+01-7.02570E-02 1.13430E-02-2.11065E+00 1.06120E-13 7.21645E-15
 -1      1502 2.42567E+01 1.19380E-01-1.66552E-01-1.98380E+00 1.32012E-13 2.11192E-13
 -1      1503 2.65919E+01 3.08672E-01-1.76753E-01-3.32598E+00 3.18023E-13 8.24896E-14
 -1      1504 3.02773E+01-2.69843E-01 1.96808E-01-1.28745E+00 3.45210E-16-1.92957E-13
 -1      1505 2.78339E+01-2.60551E-01 3.72512E-02-1.47216E+00 8.51853E-14-3.38340E-14
 -1      1506 2.85756E+01-5.12515E-01-4.94385E-02-2.97982E+00 1.77492E-13-4.04399E-14
 -1      1507 3.13420E+01-1.97508E-01 1.65720E-01-1.27285E-01-5.53186E-14-1.83464E-13
 -1      1508 3.04780E+01-3.30158E-01 1.14994E-01-3.91754E-01-1.04222E-14-2.33591E-13
 -1      1509 2.96862E+01-7.70217E-01 1.74611E-02-1.22254E+00 4.16472E-14-2.18131E-13
 -1      1510 3.04261E+01-7.92548E-02 6.67382E-02 5.77284E-01-6.96630E-14-5.48103E-14
 -1      1511 3.08553E+01-2.08985E-01 7.53028E-02 4.12925E-01-1.32006E-13-1.71495E-13
 -1      1512 2.93906E+01-4.82147E-01 3.18436E-02 4.22919E-01-1.49013E-13-2.70312E-13
 -1      1513 2.86117E+01-4.35626E-03-2.52886E-03 8.04733E-01 2.00582E-14-3.74353E-14
 -1      1514 2.96373E+01-7.68456E-02 1.94404E-02 7.44773E-01 1.53783E-14-2.83523E-14
 -1      1515 2.81864E+01-1.60018E-01 2.00259E-02 1.27192E+00-1.76630E-14-2.20348E-13
 -1      1516 2.66685E+01 2.63396E-02-2.88766E-02 7.66109E-01-8.35523E-14 1.73403E-13
 -1      1517 2.77875E+01 1.21404E-03-1.19444E-02 7.63718E-01-5.48953E-14 9.26689E-14
 -1      1518 2.66484E+01 2.32526E-02 7.06436E-03 1.46312E+00-1.10988E-13 2.03310E-14
 -1      1519 2.48932E+01 3.31986E-02-2.93144E-02 6.20837E-01-2.94842E-14 3.15026E-13
 -1      1520 2.59032E+01 3.31527E-02-1.96310E-02 6.43385E-01-3.25451E-14 2.29976E-13
 -1      1521 2.51191E+01 8.98865E-02 1.35569E-03 1.31015E+00-9.23090E-14 2.43014E-13
 -1      1522 2.35565E+01 2.85397E-02-2.22606E-02 4.71999E-01 1.57634E-14 2.28314E-13
 -1      1523 2.43095E+01 3.99518E-02-1.54405E-02 4.97377E-01-3.09813E-14 2.46140E-13
 -1      1524 2.38125E+01 9.64583E-02-1.09571E-03 1.04664E+00 3.27178E-14 3.34316E-13
 -1      1525 2.25432E+01 2.23398E-02-1.51325E-02 3.46527E-01 3.08091E-14 1.07414E-13
 -1      1526 2.31037E+01 3.57474E-02-9.84416E-03 3.68770E-01 8.56702E-14 2.47129E-13
 -1      1527 2.28010E+01 8.04942E-02-1.35196E-03 7.93223E-01 9.07625E-14 2.35849E-13
 -1      1528 2.17974E+01 1.65513E-02-9.79816E-03 2.49447E-01-8.32533E-14 2.30512E-13
 -1      1529 2.22034E+01 2.85772E-02-5.52686E-03 2.67038E-01-9.50156E-14 1.36105E-13
 -1      1530 2.20274E+01 6.13962E-02-1.16145E-03 5.83021E-01-9.95844E-14 1.94002E-13
 -1      1531 2.12572E+01 1.19553E-02-6.22002E-03 1.77662E-01-1.85242E-14 3.80407E-13
 -1      1532 2.15470E+01 2.17072E-02-2.80081E-03 1.90901E-01-3.54317E-14 2.83501E-13
 -1      1533 2.14502E+01 4.47137E-02-9.78575E-04 4.21250E-01-1.04585E-13 1.96714E-13
 -1      1534 2.08689E+01 8.41851E-03-4.10307E-03 1.25748E-01 1.35946E-14 5.43017E-13
 -1      1535 2.10747E+01 1.61177E-02-1.25171E-03 1.35442E-01-5.37779E-14 4.61386E-13
 -1      1536 2.10260E+01 3.18778E-02-8.51582E-04 3.01403E-01-1.31914E-13 3.93241E-13
 -1      1537 2.05812E+01 5.87212E-03-2.49004E-03 8.69555E-02 6.69178E-14 3.90947E-13
 -1      1538 2.07311E+01 1.15690E-02-4.76239E-04 9.45047E-02 2.74947E-14 4.48428E-13
 -1      1539 2.07116E+01 2.25481E-02-5.25138E-04 2.12744E-01 2.66952E-14 4.56034E-13
 -1      1540 2.03891E+01 4.24212E-03-1.55175E-03 6.09232E-02 5.89138E-14 2.44552E-13
 -1      1541 2.04886E+01 8.46745E-03 9.02057E-06 6.59877E-02 1.15223E-13 3.65909E-13
 -1      1542 2.04854E+01 1.54543E-02-6.40793E-04 1.48885E-01 1.60685E-13 2.97759E-13
 -1      1543 2.02536E+01 3.02403E-03-9.87800E-04 4.23436E-02-3.52977E-14 1.47072E-13
 -1      1544 2.03228E+01 6.10833E-03 1.46074E-04 4.60243E-02-5.60543E-15 1.38731E-13
 -1      1545 2.03283E+01 1.08805E-02-5.21923E-04 1.04552E-01 8.36380E-14 8.37113E-14
 -1      1546 2.01591E+01 2.15156E-03-6.22329E-04 2.91027E-02 6.14708E-14 8.08430E-14
 -1      1547 2.02068E+01 4.43044E-03 2.09792E-04 3.17797E-02 7.04200E-14 1.48877E-13
 -1      1548 2.02165E+01 7.64197E-03-4.32224E-04 7.27991E-02 7.96710E-14 1.27685E-13
 -1      1549 2.00940E+01 1.52612E-03-3.84220E-04 1.96840E-02-5.72941E-14-7.21867E-14
 -1      1550 2.01264E+01 3.20988E-03 2.23132E-04 2.16282E-02 5.75463E-14 9.69963E-14
 -1      1551 2.01378E+01 5.35671E-03-3.53889E-04 5.00757E-02 1.94184E-14 2.19908E-13
 -1      1552 2.00499E+01 1.05802E-03-2.48338E-04 1.29960E-02-8.23797E-14 1.73316E-13
 -1      1553 2.00715E+01 2.33269E-03 2.14611E-04 1.44121E-02-1.91565E-13-8.24666E-14
 -1      1554 2.00830E+01 3.73718E-03-2.90316E-04 3.38544E-02-1.50009E-13 1.77087E-13
 -1      1555 2.00197E+01 7.16218E-04-1.32624E-04 8.09352E-03 9.52715E-14 1.20384E-13
 -1      1556 2.00341E+01 1.64916E-03 1.88686E-04 9.18390E-03 7.73906E-14 2.09570E-13
 -1      1557 2.00450E+01 2.61855E-03-2.02779E-04 2.21397E-02 3.37593E-14 1.52811E-13
 -1      1558 2.00017E+01 5.09267E-04-5.82737E-05 4.89285E-03-7.20607E-14 8.68317E-14
 -1      1559 2.00101E+01 1.18028E-03 1.68451E-04 5.60842E-03-4.96174E-14 8.23834E-14
 -1      1560 2.00197E+01 1.72681E-03-1.84071E-04 1.38613E-02 4.32162E-14 2.55430E-13
 -1      1561 1.99909E+01 3.44012E-04-1.76058E-05 2.68814E-03 2.14134E-14-1.54094E-13
 -1      1562 1.99957E+01 8.21369E-04 1.36148E-04 3.19571E-03 8.37312E-14 7.08262E-14
 -1      1563 2.00040E+01 1.16854E-03-1.39075E-04 8.29610E-03 1.06392E-13 2.73900E-13
 -1      1564 1.99851E+01 2.25244E-04 7.78429E-06 1.21069E-03-1.12383E-14-2.69165E-13
 -1      1565 1.99874E+01 5.68000E-04 1.12569E-04 1.56451E-03-2.09679E-14-2.32103E-13
 -1      1566 1.99945E+01 7.63057E-04-1.06783E-04 4.48671E-03 1.08710E-13 1.53618E-13
 -1      1567 1.99825E+01 1.40845E-04 2.23534E-05 2.52943E-04-2.17323E-13-2.01369E-13
 -1      1568 1.99833E+01 3.83705E-04 9.21629E-05 4.93954E-04-4.04177E-14-3.37882E-13
 -1      1569 1.99892E+01 4.77254E-04-8.10432E-05 1.94065E-03-1.39223E-14-3.85691E-14
 -1      1570 1.99822E+01 7.99154E-05 2.87021E-05-3.42188E-04 3.58444E-14-2.87206E-13
 -1      1571 1.99819E+01 2.53691E-04 7.53866E-05-1.79317E-04-7.52167E-14-2.53047E-13
 -1      1572 1.99867E+01 2.77457E-04-6.13829E-05 2.96438E-04-9.38019E-14-2.18917E-13
 -1      1573 1.99832E+01 3.64238E-05 3.12632E-05-6.91488E-04 4.61272E-14-5.69964E-13
 -1      1574 1.99823E+01 1.56324E-04 6.06613E-05-5.82087E-04 2.49676E-14-4.53594E-13
 -1      1575 1.99861E+01 1.48306E-04-4.27570E-05-7.23136E-04 1.14982E-13-4.14484E-13
 -1      1576 1.99849E+01 1.49779E-05 3.22043E-05-8.45953E-04-9.96402E-14-6.48746E-13
 -1      1577 1.99838E+01 9.06417E-05 4.75984E-05-7.87424E-04 7.25735E-14-4.51185E-13
 -1      1578 1.99867E+01 4.85643E-05-3.29562E-05-1.29991E-03 1.92952E-14-3.12441E-13
 -1      1579 1.99870E+01-1.34428E-06 2.98281E-05-8.94221E-04-2.39921E-13-2.33129E-13
 -1      1580 1.99857E+01 4.45979E-05 3.63452E-05-8.62850E-04-2.10170E-13-5.88283E-13
 -1      1581 1.99879E+01-3.62263E-06-2.28423E-05-1.55913E-03-2.52078E-13-8.07251E-14
 -1      1582 1.99891E+01-1.09626E-05 2.65658E-05-8.73916E-04 8.31653E-15-5.48403E-14
 -1      1583 1.99878E+01 1.58757E-05 2.79206E-05-8.60700E-04-5.19062E-14-2.56686E-13
 -1      1584 1.99895E+01-3.62566E-05-1.60940E-05-1.62919E-03-1.69455E-13-3.36146E-13
 -1      1585 1.99912E+01-1.61134E-05 2.28706E-05-8.13981E-04 7.45644E-14-3.68046E-14
 -1      1586 1.99900E+01-2.16616E-06 2.11362E-05-8.12271E-04 4.03393E-14-2.53990E-14
 -1      1587 1.99912E+01-5.34900E-05-1.12039E-05-1.58210E-03 7.55880E-14-4.67354E-13
 -1      1588 1.99931E+01-1.83808E-05 1.97099E-05-7.34467E-04 1.20761E-13-5.11139E-14
 -1      1589 1.99920E+01-1.25719E-05 1.58286E-05-7.38748E-04-6.11199E-15-4.55682E-14
 -1      1590 1.99929E+01-6.10030E-05-7.73418E-06-1.46764E-03-2.70929E-15-4.61312E-13
 -1      1591 1.99949E+01-1.97728E-05 1.59005E-05-6.40453E-04 2.00757E-13-2.38583E-13
 -1      1592 1.99939E+01-1.85147E-05 1.17304E-05-6.50069E-04 1.16188E-13 1.54908E-13
 -1      1593 1.99945E+01-6.16979E-05-5.54611E-06-1.31344E-03 4.54011E-14-2.29307E-13
 -1      1594 1.99964E+01-1.99567E-05 1.36250E-05-5.46618E-04-4.68774E-15-9.20442E-14
 -1      1595 1.99956E+01-2.30985E-05 8.03734E-06-5.58721E-04-6.23756E-14-2.17465E-13
 -1      1596 1.99959E+01-6.10506E-05-2.92732E-06-1.14240E-03 4.89507E-14 5.13817E-14
 -1      1597 1.99977E+01-2.16858E-05 1.28526E-05-4.49145E-04 3.76650E-14-1.68339E-13
 -1      1598 1.99970E+01-2.75117E-05 5.91458E-06-4.64238E-04 3.24684E-14-1.13168E-13
 -1      1599 1.99971E+01-6.00313E-05-4.59875E-07-9.64652E-04 8.10420E-14 1.89618E-13
 -1      1600 1.99987E+01-2.54248E-05 1.41657E-05-3.41633E-04-1.63295E-13-1.23268E-13
 -1      1601 1.99981E+01-3.41101E-05 5.34443E-06-3.61649E-04-1.17257E-14-1.63437E-13
 -1      1602 1.99981E+01-6.29457E-05 2.92926E-06-7.72932E-04-3.13960E-14 2.02712E-13
 -1      1603 1.99994E+01-3.18911E-05 1.46424E-05-2.13482E-04-2.90509E-14 1.73950E-13
 -1      1604 1.99990E+01-4.50541E-05 5.79601E-06-2.43100E-04-8.06155E-14-9.56624E-14
 -1      1605 1.99989E+01-7.33241E-05 6.81469E-06-5.55269E-04-1.23680E-13 2.22794E-13
 -1      1606 1.99997E+01-3.83814E-05 1.10795E-07-6.84191E-05-5.38924E-14 2.50978E-13
 -1      1607 1.99996E+01-5.46414E-05 3.67299E-06-1.05372E-04-3.51252E-14 6.80011E-14
 -1      1608 1.99994E+01-8.57898E-05 9.23105E-06-2.99997E-04-3.96458E-14-1.60953E-13
 -1      1609 1.99998E+01-1.99536E-05-7.39667E-06 2.30060E-06 2.79796E-13 3.22995E-13
 -1      1610 1.99997E+01-3.25539E-04 7.89968E-06-1.68948E-04 2.36356E-13 1.08166E-13
 -1      1611 1.99997E+01-1.64400E-04-2.81267E-06-1.31073E-04 3.10466E-13 4.10598E-14
 -1      1612 1.99998E+01-8.97597E-04 4.59546E-06-2.99780E-04 6.91504E-13 1.01603E-13
 -1      1613 1.99998E+01-5.63750E-04 5.23856E-06-2.77523E-04 6.12516E-13 1.46144E-13
 -1      1614 1.99997E+01-5.37205E-04 9.49986E-06-4.36862E-04 3.45171E-13 3.04951E-13
 -1      1615 1.99998E+01-1.63526E-03 1.13949E-06-3.68858E-04 3.69509E-13-2.28110E-13
 -1      1616 1.99998E+01-1.20611E-03 3.27028E-06-3.60560E-04 6.18126E-13-6.16391E-14
 -1      1617 1.99997E+01-1.08013E-03 7.42625E-06-6.39331E-04 1.38522E-13-4.66115E-16
 -1      1618 1.99998E+01-2.41838E-03-8.46679E-07-3.73510E-04 6.36817E-13 5.66317E-15
 -1      1619 1.99998E+01-1.97305E-03 1.03033E-06-3.77792E-04 4.27134E-13 9.34277E-14
 -1      1620 1.99998E+01-1.72325E-03 7.10872E-07-7.21275E-04 2.22433E-13-1.32156E-13
 -1      1621 1.99998E+01-3.11970E-03-1.42969E-06-3.24604E-04-1.74889E-14-4.05376E-13
 -1      1622 1.99998E+01-2.73176E-03-3.04405E-08-3.38119E-04 4.68847E-13-4.12678E-13
 -1      1623 1.99998E+01-2.36984E-03-5.34076E-06-6.87100E-04 1.14290E-13-3.82159E-13
 -1      1624 1.99998E+01-3.67075E-03-1.42031E-06-2.33694E-04-1.81174E-14 3.06053E-13
 -1      1625 1.99998E+01-3.37949E-03-5.52957E-07-2.54340E-04-1.24835E-13-5.15684E-14
 -1      1626 1.99999E+01-2.93744E-03-9.80148E-06-5.59177E-04 1.25020E-13-4.29060E-13
 -1      1627 1.99998E+01-3.99112E-03-1.15946E-06-1.15532E-04-6.44264E-14-8.11524E-14
 -1      1628 1.99998E+01-3.83827E-03-7.15559E-07-1.40192E-04 1.94660E-14 2.78121E-13
 -1      1629 1.99999E+01-3.35947E-03-1.28284E-05-3.61241E-04 5.87021E-14 2.47081E-13
 -1      1630 1.99998E+01-4.04492E-03-9.02351E-07 1.52862E-05 2.02555E-14 1.51074E-13
 -1      1631 1.99998E+01-4.04758E-03-8.97049E-07-1.06399E-05-7.24824E-14 1.40992E-13
 -1      1632 1.99999E+01-3.58065E-03-1.42951E-05-1.21912E-04-1.22160E-14 1.62325E-14
 -1      1633 1.99998E+01-3.82646E-03-6.85072E-07 1.44250E-04-1.87066E-14-1.20043E-13
 -1      1634 1.99998E+01-3.98412E-03-1.15053E-06 1.19795E-04 6.78451E-14 1.34946E-13
 -1      1635 1.99999E+01-3.57625E-03-1.42345E-05 1.30587E-04-2.88268E-14 1.69077E-13
 -1      1636 1.99998E+01-3.36098E-03-4.49164E-07 2.56960E-04-2.16220E-13-1.48095E-13
 -1      1637 1.99998E+01-3.65549E-03-1.46049E-06 2.36725E-04-4.38786E-14-3.57897E-14
 -1      1638 1.99999E+01-3.34718E-03-1.26380E-05 3.68177E-04 3.92689E-14-4.98734E-14
 -1      1639 1.99998E+01-2.71606E-03-9.76175E-08 3.38041E-04-8.81959E-13-4.31634E-14
 -1      1640 1.99998E+01-3.10467E-03-1.46390E-06 3.25006E-04-4.19501E-13-3.73863E-13
 -1      1641 1.99999E+01-2.92407E-03-9.66847E-06 5.61835E-04-2.22366E-13-5.46640E-13
 -1      1642 1.99998E+01-1.95253E-03 9.57111E-07 3.76519E-04-1.03990E-12-1.36085E-13
 -1      1643 1.99998E+01-2.39683E-03-8.77939E-07 3.72622E-04-9.43665E-13 1.82819E-13
 -1      1644 1.99998E+01-2.35476E-03-5.07420E-06 6.86377E-04-4.27812E-13-1.05900E-13
 -1      1645 1.99998E+01-1.18975E-03 3.29153E-06 3.58951E-04-7.81209E-13 2.98408E-13
 -1      1646 1.99998E+01-1.61646E-03 9.79120E-07 3.66587E-04-9.82886E-13 1.33401E-13
 -1      1647 1.99998E+01-1.70443E-03 7.96326E-07 7.17875E-04-3.94671E-13 4.71350E-15
 -1      1648 1.99998E+01-5.62675E-04 1.34140E-06 2.75481E-04-3.87210E-13 2.85429E-13
 -1      1649 1.99998E+01-8.86328E-04 4.42342E-06 2.98060E-04-6.78399E-13 3.46858E-13
 -1      1650 1.99997E+01-1.06602E-03 7.09105E-06 6.34093E-04-4.71375E-13 4.24947E-13
 -1      1651 1.99997E+01-2.25408E-04-6.41476E-06 1.97404E-04-2.83775E-13-1.44058E-13
 -1      1652 1.99997E+01-3.90452E-04 3.78778E-06 2.51950E-04-2.96246E-13 1.49017E-13
 -1      1653 1.99997E+01-5.92456E-04 8.32441E-06 5.16818E-04-2.55532E-13 3.95034E-13
 -1      1654 1.99995E+01-2.82400E-04-1.56671E-06 3.91467E-04-4.63114E-14 2.32303E-14
 -1      1655-9.83786E-01-1.65300E+01-1.79140E+00-1.88438E+00 4.16722E-13 3.63598E-13
 -1      1656-8.00484E-01-1.79244E+01-1.88397E+00-2.95960E-01 2.18089E-14 2.11359E-13
 -1      1657 9.05407E-01-1.02185E+01-1.38404E+00-4.42387E-01 1.02940E-12 7.65041E-13
 -1      1658 2.96086E-01-1.50885E+01-1.79419E+00-7.63848E-01 6.20615E-13 4.15265E-13
 -1      1659 6.03301E+00-2.96777E+00-9.15099E-01 3.06580E+00 1.46705E-12 1.28175E-12
 -1      1660 3.26838E+00-8.53504E+00-1.58968E+00 4.81109E-01 1.18083E-12 9.71057E-13
 -1      1661 1.66383E+01 2.71164E+00-1.54208E-01 8.21919E+00 1.40465E-12 1.31983E-12
 -1      1662 1.02702E+01-1.29089E+00-1.06662E+00 4.40870E+00 1.56231E-12 1.25211E-12
 -1      1663 3.21349E+01 5.09713E+00 7.79163E-01 1.17331E+01 9.06719E-13 9.76108E-13
 -1      1664 2.21376E+01 3.91599E+00-2.78940E-01 8.98233E+00 1.25444E-12 1.20259E-12
 -1      1665 4.92846E+01 4.52182E+00 1.77534E+00 9.88157E+00 4.19470E-13 5.24913E-13
 -1      1666 3.82378E+01 5.54345E+00 7.56416E-01 1.07174E+01 7.55840E-13 8.21343E-13
 -1      1667 6.08205E+01 3.72342E+00 2.51879E+00 4.35350E+00 2.41890E-13 3.04201E-14
 -1      1668 5.42974E+01 5.06159E+00 1.92599E+00 9.17327E+00 2.84980E-13 3.81917E-13
 -1      1669 5.98377E+01 4.29392E+00 2.27574E+00-4.48357E+00 4.20664E-13-7.72937E-13
 -1      1670 6.12267E+01 3.99079E+00 2.43546E+00 1.88018E+00 3.00648E-13-2.22933E-13
 -1      1671 4.87347E+01 5.55968E+00 1.43317E+00-9.97673E+00 7.05644E-13-1.29274E-12
 -1      1672 5.70943E+01 4.09778E+00 2.17528E+00-6.29084E+00 5.20528E-13-9.11160E-13
 -1      1673 3.28917E+01 5.67521E+00 4.13676E-01-1.10286E+01 8.93285E-13-1.42331E-12
 -1      1674 4.41259E+01 5.11255E+00 1.48500E+00-1.15202E+01 7.03604E-13-1.42530E-12
 -1      1675 1.82436E+01 1.82738E+00-5.43625E-01-7.25292E+00 8.15348E-13-1.09490E-12
 -1      1676 2.73426E+01 4.04228E+00 4.41623E-01-1.06757E+01 8.41105E-13-1.38645E-12
 -1      1677 6.32811E+00-3.87372E+00-1.41247E+00-2.53504E+00 6.52367E-13-7.18425E-13
 -1      1678 1.13974E+01 1.18225E+00-5.63432E-01-6.37321E+00 8.96616E-13-1.07048E-12
 -1      1679 1.46759E+00-1.14464E+01-1.80070E+00 5.46245E-01 2.45470E-13-3.21881E-13
 -1      1680 2.98311E+00-5.91959E+00-1.24584E+00-1.09096E+00 5.64215E-13-5.57610E-13
 -1      1681-2.85284E-01-1.65963E+01-1.89266E+00 7.26190E-01-1.97953E-13-1.59872E-13
 -1      1682-1.63265E-01-1.28720E+01-1.61624E+00 1.25472E+00 1.29452E-13-2.53991E-13
 -1      1683-8.17105E-01-1.78316E+01-1.92114E+00-1.58368E-01-6.81399E-13-2.08084E-13
 -1      1684-9.41393E-01-1.78239E+01-1.94113E+00 1.57209E+00-3.39506E-13-1.35336E-13
 -1      1685-1.43477E-01-1.28144E+01-1.56759E+00-5.38700E-01-1.03884E-12-4.06397E-13
 -1      1686-3.16522E-01-1.70660E+01-1.95910E+00 2.51665E-01-7.91145E-13-2.52381E-13
 -1      1687 3.08875E+00-4.68952E+00-9.56972E-01 2.10687E+00-1.23124E-12-7.14151E-13
 -1      1688 1.57244E+00-1.06057E+01-1.62034E+00 4.48366E-01-1.12033E-12-5.02098E-13
 -1      1689 1.12755E+01 2.29436E+00-1.77949E-01 7.23391E+00-1.16263E-12-9.58789E-13
 -1      1690 6.87747E+00-2.65773E+00-9.80765E-01 3.79406E+00-1.18527E-12-7.93032E-13
 -1      1691 2.25696E+01 6.79831E+00 5.76188E-01 1.18535E+01-9.81881E-13-1.03251E-12
 -1      1692 1.51469E+01 4.41433E+00-3.17777E-01 8.44776E+00-1.16684E-12-9.95093E-13
 -1      1693 3.79029E+01 6.89554E+00 1.28378E+00 1.35158E+01-5.78981E-13-7.29194E-13
 -1      1694 2.79979E+01 7.45157E+00 4.49362E-01 1.24290E+01-8.52096E-13-9.58122E-13
 -1      1695 5.09448E+01 4.78373E+00 1.72137E+00 9.53493E+00-3.00447E-13-8.85958E-14
 -1      1696 4.30221E+01 6.65644E+00 1.18578E+00 1.23624E+01-4.92384E-13-5.14810E-13
 -1      1697 5.66605E+01 3.65203E+00 1.83873E+00 1.47483E+00-2.35562E-13 5.41095E-13
 -1      1698 5.35505E+01 4.55695E+00 1.64150E+00 6.90450E+00-2.47857E-13 1.45717E-13
 -1      1699 5.38568E+01 4.57762E+00 1.67944E+00-7.35062E+00-4.60659E-13 1.24328E-12
 -1      1700 5.71403E+01 3.55675E+00 1.89022E+00-1.56955E+00-3.01537E-13 8.27796E-13
 -1      1701 4.13302E+01 6.80749E+00 1.03966E+00-1.20902E+01-7.25753E-13 1.47293E-12
 -1      1702 5.00551E+01 4.94213E+00 1.65360E+00-9.39822E+00-5.20403E-13 1.35825E-12
 -1      1703 2.65664E+01 7.18111E+00 3.28516E-01-1.19143E+01-1.03473E-12 1.39178E-12
 -1      1704 3.62271E+01 6.89428E+00 1.16708E+00-1.32882E+01-8.53095E-13 1.42397E-12
 -1      1705 1.44745E+01 2.93488E+00-3.99885E-01-7.63593E+00-1.22691E-12 1.07747E-12
 -1      1706 2.17360E+01 5.69223E+00 4.47308E-01-1.11414E+01-1.12543E-12 1.29052E-12
 -1      1707 5.30059E+00-3.96329E+00-1.13404E+00-2.93321E+00-1.13975E-12 8.63865E-13
 -1      1708 9.28402E+00 1.57738E+00-3.24910E-01-6.36832E+00-1.30163E-12 1.00497E-12
 -1      1709 1.03071E+00-1.26648E+01-1.66543E+00-3.94192E-01-7.87148E-13 4.19165E-13
 -1      1710 2.18068E+00-6.42678E+00-1.04153E+00-1.50046E+00-1.08580E-12 6.30579E-13
 -1      1711-5.67078E-01-1.76109E+01-1.88490E+00-8.55716E-01-1.92291E-13 1.99896E-13
 -1      1712-4.77409E-01-1.45417E+01-1.60823E+00 4.65008E-01-6.52478E-13 4.07951E-13
 -1      1713 2.50885E+01-1.59264E+00 1.72957E-02 6.29448E+00 8.72635E-13 4.96270E-13
 -1      1714 1.39196E+01-5.40511E+00-6.29683E-01 5.45578E+00 7.88258E-13 8.23119E-13
 -1      1715 1.99997E+01-5.84125E-05 3.76588E-06-6.44519E-05 1.45715E-13-1.02565E-13
 -1      1716 1.99996E+01-2.11842E-04 1.79653E-06-2.31093E-04-2.64854E-14-8.84711E-14
 -1      1717 2.53526E-02-1.11066E+01-1.21914E+00 1.53110E+00 2.66454E-13 5.91305E-13
 -1      1718 5.39096E+00-8.81965E+00-1.02385E+00 3.75904E+00 4.93383E-13 8.11726E-13
 -1      1719-1.51842E+00-1.21086E+01-1.34110E+00-1.07024E+00-1.34448E-13 5.16809E-13
 -1      1720 3.70275E+01 2.01737E+00 7.64632E-01 5.16513E+00 7.64500E-13 3.26850E-13
 -1      1721 4.67102E+01 5.59137E+00 1.50319E+00 2.99544E+00 5.33518E-13 2.30149E-13
 -1      1722 5.20331E+01 7.78541E+00 2.03403E+00 9.57739E-01 4.91718E-13-1.71724E-13
 -1      1723 4.98653E+01 7.52144E+00 1.78450E+00-1.42459E+00 6.40488E-13-4.65905E-13
 -1      1724 4.36749E+01 4.67761E+00 1.25778E+00-3.82999E+00 5.98854E-13-6.72795E-13
 -1      1725 3.33953E+01 2.20229E-01 3.84580E-01-5.40386E+00 4.13114E-13-7.80598E-13
 -1      1726 2.13707E+01-2.94521E+00-1.04021E-01-6.34875E+00 3.10418E-13-7.74603E-13
 -1      1727 9.56713E+00-6.59588E+00-8.76064E-01-4.77996E+00 2.26485E-13-6.72240E-13
 -1      1728 2.61716E+00-9.90582E+00-1.19718E+00-2.75505E+00 3.75255E-14-4.37150E-13
 -1      1729-9.79453E-01-1.18508E+01-1.33547E+00-6.70735E-01-1.42497E-13-3.61655E-13
 -1      1730-1.20938E+00-1.22070E+01-1.40290E+00 1.53101E+00-3.93102E-13-3.63376E-13
 -1      1731 2.30243E+00-9.51896E+00-1.11098E+00 3.59911E+00-6.00187E-13-4.43645E-13
 -1      1732 9.48371E+00-5.31506E+00-5.75149E-01 6.03281E+00-6.78124E-13-5.60052E-13
 -1      1733 1.85011E+01-1.21558E+00-1.16157E-01 7.52967E+00-7.27640E-13-5.84310E-13
 -1      1734 2.87785E+01 3.00161E+00 5.15760E-01 8.37365E+00-7.06490E-13-5.28466E-13
 -1      1735 3.92288E+01 5.75629E+00 1.11716E+00 7.26303E+00-6.06355E-13-2.09721E-13
 -1      1736 4.64067E+01 7.19783E+00 1.45630E+00 4.11709E+00-5.24469E-13 6.31717E-14
 -1      1737 4.90309E+01 7.70673E+00 1.58641E+00-1.54309E-01-5.48450E-13 4.67397E-13
 -1      1738 4.59581E+01 7.13338E+00 1.39409E+00-3.97832E+00-5.17919E-13 8.30447E-13
 -1      1739 3.80478E+01 5.34814E+00 9.76757E-01-6.83597E+00-5.61981E-13 9.14158E-13
 -1      1740 2.79444E+01 1.86616E+00 3.95459E-01-7.73204E+00-6.66800E-13 8.27782E-13
 -1      1741 1.75073E+01-1.94696E+00-9.28764E-02-7.42928E+00-6.73572E-13 7.15206E-13
 -1      1742 7.65207E+00-6.19791E+00-6.84034E-01-5.59828E+00-5.83533E-13 7.46514E-13
 -1      1743 1.14539E+00-1.01888E+01-1.13032E+00-3.30261E+00-5.09370E-13 5.41400E-13
 -1      1744 2.38333E+01 1.99079E+00-2.58036E-02-2.58325E+00-1.35832E-13 2.91850E-13
 -1      1745 2.04815E+01 3.58333E+00-3.64808E-02-1.79498E+00-8.93469E-14-2.32855E-13
 -1      1746 2.08081E+01 3.45669E+00-4.37699E-02-2.13539E+00-1.28899E-13-2.00284E-13
 -1      1747 2.11962E+01 3.11579E+00-4.74640E-02-2.31857E+00-1.44318E-13-1.43753E-13
 -1      1748 2.14942E+01 2.76000E+00-1.43445E-01-2.62616E+00-1.75152E-13-7.94226E-14
 -1      1749 2.12506E+01 2.54643E+00-7.40659E-03-1.96290E+00-1.41344E-13-1.50806E-13
 -1      1750 1.94680E+01 3.96192E+00-2.13172E-02-6.81644E-01 8.02917E-15-2.50272E-13
 -1      1751 1.97078E+01 3.93866E+00-1.70670E-02-9.55613E-01-1.35707E-14-2.58626E-13
 -1      1752 1.89672E+01 4.08726E+00-1.86215E-02-1.72630E-01 4.66918E-14-2.39288E-13
 -1      1753 1.92249E+01 4.06495E+00-1.04210E-02-4.17478E-01 2.93394E-14-2.50484E-13
 -1      1754 1.95784E+01 3.49257E+00-1.45559E-02-4.93500E-01 1.21405E-14-2.32779E-13
 -1      1755 1.84405E+01 4.23633E+00-1.74924E-02 2.59247E-01 9.88749E-14-2.07478E-13
 -1      1756 1.87091E+01 4.20536E+00-5.43282E-03 5.84006E-02 7.64861E-14-2.27592E-13
 -1      1757 1.90334E+01 3.68701E+00-1.45188E-02 8.51456E-03 6.89583E-14-2.14575E-13
 -1      1758 1.79365E+01 4.41629E+00-1.68326E-02 5.82036E-01 1.41183E-13-1.93378E-13
 -1      1759 1.81848E+01 4.37565E+00-2.10717E-03 4.35121E-01 1.26022E-13-2.06342E-13
 -1      1760 1.84633E+01 3.91553E+00-1.29313E-02 4.26957E-01 1.28200E-13-1.94861E-13
 -1      1761 1.75516E+01 4.60617E+00-1.57047E-02 7.76664E-01 1.79897E-13-1.76373E-13
 -1      1762 1.77255E+01 4.56197E+00-1.29290E-03 6.86259E-01 1.61573E-13-1.89610E-13
 -1      1763 1.79337E+01 4.17248E+00-9.60024E-03 7.19968E-01 1.68013E-13-1.90913E-13
 -1      1764 1.74106E+01 4.76019E+00-1.36357E-02 8.52809E-01 2.00945E-13-1.54734E-13
 -1      1765 1.74452E+01 4.72409E+00-3.87630E-03 8.07365E-01 1.90003E-13-1.70915E-13
 -1      1766 1.75592E+01 4.41449E+00-5.15429E-03 8.64339E-01 2.01172E-13-1.68339E-13
 -1      1767 1.76220E+01 4.82003E+00-1.11291E-02 8.60221E-01 2.21040E-13-1.14687E-13
 -1      1768 1.74673E+01 4.80618E+00-1.01587E-02 8.30819E-01 2.08113E-13-1.39548E-13
 -1      1769 1.74763E+01 4.56945E+00-1.13618E-03 8.75557E-01 2.21593E-13-1.41719E-13
 -1      1770 1.82617E+01 4.73122E+00-1.00212E-02 8.83518E-01 2.55991E-13-3.29754E-14
 -1      1771 1.78834E+01 4.75504E+00-1.99377E-02 8.27182E-01 2.37447E-13-7.73765E-14
 -1      1772 1.77998E+01 4.56256E+00 1.17509E-03 8.14285E-01 2.47021E-13-8.29345E-14
 -1      1773 1.93310E+01 4.43987E+00-1.35361E-02 1.02220E+00 2.76220E-13 6.02764E-14
 -1      1774 1.87388E+01 4.52352E+00-3.26295E-02 8.90447E-01 2.60517E-13 4.38018E-15
 -1      1775 1.85949E+01 4.32794E+00 1.13653E-03 7.73459E-01 2.72098E-13-1.80671E-15
 -1      1776 2.07689E+01 3.86699E+00-2.90585E-02 1.35696E+00 2.64616E-13 2.11005E-13
 -1      1777 2.00008E+01 4.06136E+00-4.79164E-02 1.11008E+00 2.64696E-13 1.22354E-13
 -1      1778 1.98476E+01 3.81464E+00 2.41638E-03 8.43428E-01 2.83582E-13 1.01318E-13
 -1      1779 2.25807E+01 2.79988E+00-4.17439E-02 1.80502E+00 2.13961E-13 4.48919E-13
 -1      1780 2.16174E+01 3.27622E+00-5.57586E-02 1.50096E+00 2.38539E-13 3.04992E-13
 -1      1781 2.14474E+01 2.94521E+00 3.58808E-03 1.03477E+00 2.57515E-13 2.55799E-13
 -1      1782 2.38782E+01 1.22590E+00-1.11069E-01 1.48266E+00 1.54238E-13 7.15608E-13
 -1      1783 2.31889E+01 2.30013E+00-2.64743E-03 1.77214E+00 1.85801E-13 5.41678E-13
 -1      1784 2.27990E+01 1.83092E+00-6.21080E-03 1.01228E+00 2.10380E-13 4.33865E-13
 -1      1785 2.34189E+01 8.32152E-01-4.24203E-02 6.25024E-01 1.55174E-13 6.58461E-13
 -1      1786 2.27617E+01 2.44554E+00 8.78803E-02-2.85957E+00-1.73745E-13 5.50948E-14
 -1      1787 2.32408E+01 4.34910E-01 6.11396E-03-4.19324E-01 1.42983E-13 5.40845E-13
 -1      1788 2.33598E+01 5.47001E-01-4.07367E-03 5.48736E-02 1.29889E-13 5.86872E-13
 -1      1789 2.31092E+01 9.67321E-01-5.61501E-03 2.60692E-01 1.74270E-13 4.48379E-13
 -1      1790 2.24757E+01 1.68127E+00 7.83426E-02-2.14747E+00-1.72553E-13 8.49321E-15
 -1      1791 2.15759E+01 4.01946E-01 3.14299E-02-8.49773E-01-1.34722E-13 2.15062E-15
 -1      1792 2.11463E+01 2.37423E-01 1.46580E-03-6.19122E-01-1.14131E-13-3.16474E-14
 -1      1793 2.09619E+01 1.31825E-01 2.51852E-02-4.64641E-01-1.14237E-13-3.28314E-14
 -1      1794 2.07255E+01 3.82294E-02 2.87949E-03-4.04073E-01-9.97839E-14-6.57200E-14
 -1      1795 2.12228E+01 3.05001E-01-3.85003E-03-7.58941E-01-1.36571E-13-6.39844E-14
 -1      1796 2.05870E+01-1.70496E-02 1.39271E-02-3.74624E-01-6.72868E-14-4.99826E-14
 -1      1797 2.04030E+01-6.60023E-02-1.25287E-03-3.93680E-01-4.25600E-14-7.54301E-14
 -1      1798 2.08892E+01 2.79190E-02-2.63201E-03-5.37850E-01-1.00273E-13-5.74692E-14
 -1      1799 2.02819E+01-9.23691E-02 5.52724E-03-4.36629E-01-4.34067E-14-6.79448E-14
 -1      1800 2.00966E+01-1.10184E-01-3.03184E-03-4.92462E-01-4.47903E-14-6.56333E-14
 -1      1801 2.06320E+01-1.11462E-01-3.26255E-04-5.45988E-01-5.43060E-14-7.72756E-14
 -1      1802 1.99658E+01-1.10675E-01 9.35920E-04-5.64059E-01-5.00802E-14-4.18940E-14
 -1      1803 1.97573E+01-9.83204E-02-1.47702E-03-6.22629E-01-5.23667E-14-5.58121E-14
 -1      1804 2.03827E+01-1.58239E-01 1.65261E-03-6.70138E-01-4.08167E-14-6.09869E-14
 -1      1805 1.96022E+01-7.22299E-02-9.95234E-04-6.80189E-01-7.55740E-14-5.27098E-14
 -1      1806 1.93760E+01-3.08137E-02 2.57838E-03-7.08581E-01-6.50261E-14-6.03311E-14
 -1      1807 2.00993E+01-1.20072E-01 2.42524E-03-8.14128E-01-6.26808E-14-5.03926E-15
 -1      1808 1.92019E+01 1.80760E-02-7.30336E-04-7.11173E-01-6.92484E-14-6.67209E-14
 -1      1809 1.89857E+01 7.92080E-02 7.44776E-03-6.82048E-01-6.99675E-14-5.74402E-14
 -1      1810 1.97727E+01-3.54383E-03 1.09470E-03-8.83664E-01-7.13287E-14-4.30289E-14
 -1      1811 1.88200E+01 1.37724E-01 1.57105E-03-6.01636E-01-9.90215E-14-8.15615E-14
 -1      1812 1.86544E+01 1.98774E-01 1.09884E-02-5.03741E-01-8.39667E-14-8.82927E-14
 -1      1813 1.94352E+01 1.63511E-01-2.45359E-03-7.99348E-01-1.06980E-13-7.11421E-14
 -1      1814 1.85388E+01 2.45909E-01 5.32353E-03-3.39745E-01-9.68774E-14-1.45370E-13
 -1      1815 1.84632E+01 2.82807E-01 1.15910E-02-1.86582E-01-8.37117E-14-1.90555E-13
 -1      1816 1.91555E+01 3.27345E-01-6.91969E-03-5.26465E-01-1.37207E-13-1.06418E-13
 -1      1817 1.84352E+01 2.98796E-01 9.06268E-03 2.78861E-02-4.70943E-14-2.15185E-13
 -1      1818 1.84727E+01 2.95363E-01 9.14034E-03 1.99825E-01-2.44041E-14-2.58512E-13
 -1      1819 1.90131E+01 4.25186E-01-9.86331E-03-1.00496E-01-8.58081E-14-1.92340E-13
 -1      1820 1.85452E+01 2.72782E-01 1.08633E-02 4.08822E-01-3.01946E-14-2.45530E-13
 -1      1821 1.86927E+01 2.30266E-01 4.98943E-03 5.54436E-01-3.03364E-14-2.13865E-13
 -1      1822 1.90585E+01 4.15559E-01-9.40146E-03 3.76990E-01-2.55785E-14-1.93995E-13
 -1      1823 1.88454E+01 1.78600E-01 9.48526E-03 7.03709E-01 2.65139E-14-2.25476E-13
 -1      1824 1.90744E+01 1.14678E-01 9.67068E-04 7.88806E-01 8.70411E-14-1.89841E-13
 -1      1825 1.92843E+01 3.01584E-01-5.67341E-03 7.79455E-01 1.13277E-15-1.28336E-13
 -1      1826 1.92642E+01 5.41106E-02 5.25020E-03 8.48883E-01 5.79283E-14-1.99204E-13
 -1      1827 1.95310E+01-7.95096E-03-1.75879E-03 8.62663E-01 3.51850E-14-1.06939E-13
 -1      1828 1.96270E+01 1.28377E-01-7.30974E-04 1.01166E+00 7.65169E-14-1.17180E-13
 -1      1829 1.97131E+01-5.81325E-02-1.71924E-04 8.36405E-01 8.17347E-15-1.21470E-13
 -1      1830 1.99726E+01-1.01320E-01-2.98941E-03 7.90718E-01 7.31405E-14-1.08294E-13
 -1      1831 1.99991E+01-4.32460E-02 3.18518E-03 1.04511E+00 1.68729E-14-1.33911E-13
 -1      1832 2.01161E+01-1.30854E-01-4.86512E-03 7.04244E-01 6.38218E-14-1.21340E-13
 -1      1833 2.03342E+01-1.49593E-01-3.12323E-03 6.23348E-01 3.58342E-14-1.59154E-13
 -1      1834 2.03253E+01-1.66848E-01 5.07607E-03 9.14801E-01 4.43894E-14-1.43924E-13
 -1      1835 2.04270E+01-1.58191E-01-7.66146E-03 5.10099E-01 1.26201E-16-1.91101E-13
 -1      1836 2.05854E+01-1.56284E-01-2.68469E-03 4.19010E-01-1.85572E-14-1.95252E-13
 -1      1837 2.05631E+01-2.25199E-01 5.18212E-03 6.89120E-01-6.11230E-15-1.59115E-13
 -1      1838 2.06297E+01-1.49725E-01-8.39462E-03 3.07071E-01 2.13276E-14-2.47498E-13
 -1      1839 2.07255E+01-1.35148E-01-2.04921E-03 2.24211E-01-1.17532E-14-2.38228E-13
 -1      1840 2.07026E+01-2.26437E-01 4.27072E-03 4.37147E-01-1.30952E-14-1.81310E-13
 -1      1841 2.07310E+01-1.20710E-01-7.57167E-03 1.30868E-01-6.75883E-14-2.19537E-13
 -1      1842 2.07717E+01-1.01239E-01-1.41559E-03 6.60109E-02-5.03113E-14-1.92965E-13
 -1      1843 2.07552E+01-1.91104E-01 3.02443E-03 2.08910E-01-3.14896E-14-2.15906E-13
 -1      1844 2.07502E+01-8.48370E-02-5.91040E-03-1.84086E-03-5.61788E-14-1.71227E-13
 -1      1845 2.07486E+01-6.59227E-02-8.62509E-04-4.61377E-02-8.75615E-14-1.95999E-13
 -1      1846 2.07418E+01-1.40255E-01 1.84836E-03 3.05415E-02-5.88583E-14-2.75092E-13
 -1      1847 2.07109E+01-5.11858E-02-4.02690E-03-8.88842E-02-9.30543E-14-1.50988E-13
 -1      1848 2.06810E+01-3.56825E-02-4.13920E-04-1.14601E-01-2.51160E-14-2.53653E-13
 -1      1849 2.06846E+01-8.92354E-02 9.08785E-04-9.13259E-02-5.20023E-14-1.85629E-13
 -1      1850 2.06356E+01-2.42168E-02-2.31918E-03-1.36496E-01-3.30904E-15-2.24792E-13
 -1      1851 2.05897E+01-1.30100E-02-7.31583E-05-1.47687E-01 1.76903E-14-1.24582E-13
 -1      1852 2.06027E+01-4.64831E-02 2.31570E-04-1.62178E-01 1.62789E-14-1.20516E-13
 -1      1853 2.05426E+01-5.06879E-03-9.75605E-04-1.54269E-01-2.79838E-14-1.27055E-13
 -1      1854 2.04904E+01 2.12049E-03 1.66960E-04-1.55365E-01 3.09375E-14-1.44653E-13
 -1      1855 2.05108E+01-1.49644E-02-2.15946E-04-1.93014E-01 4.29034E-14-7.63430E-14
 -1      1856 2.04456E+01 6.99525E-03-3.57176E-05-1.51914E-01 5.55206E-14-1.77501E-13
 -1      1857 2.03937E+01 1.09642E-02 3.19232E-04-1.46807E-01 6.44853E-14-2.18072E-13
 -1      1858 2.04189E+01 5.70891E-03-4.83023E-04-1.95861E-01 1.97231E-14-1.69046E-13
 -1      1859 2.03534E+01 1.34907E-02 5.44750E-04-1.37630E-01 1.34835E-13-2.56056E-13
 -1      1860 2.03059E+01 1.51462E-02 3.99934E-04-1.29317E-01 1.55241E-13-1.94706E-13
 -1      1861 2.03336E+01 1.75048E-02-6.17516E-04-1.81330E-01 7.78542E-14-1.94725E-13
 -1      1862 2.02713E+01 1.60442E-02 8.44621E-04-1.17567E-01 6.83160E-14-2.33233E-13
 -1      1863 2.02303E+01 1.61940E-02 4.26479E-04-1.08137E-01-5.45801E-14-2.14961E-13
 -1      1864 2.02583E+01 2.28092E-02-6.59722E-04-1.57669E-01 1.48311E-13-1.97885E-13
 -1      1865 2.02015E+01 1.60669E-02 9.46793E-04-9.59150E-02-7.82906E-14-1.57019E-13
 -1      1866 2.01677E+01 1.53417E-02 4.15315E-04-8.66842E-02 1.58801E-14-1.31017E-13
 -1      1867 2.01945E+01 2.38089E-02-6.41494E-04-1.30688E-01 1.19341E-14-1.54788E-13
 -1      1868 2.01446E+01 1.46432E-02 9.22981E-04-7.52521E-02 5.59956E-14-1.54023E-13
 -1      1869 2.01178E+01 1.34921E-02 3.80525E-04-6.69539E-02 1.23643E-13-1.21713E-13
 -1      1870 2.01423E+01 2.22446E-02-5.86984E-04-1.04102E-01-1.45433E-14-1.50188E-13
 -1      1871 2.00996E+01 1.25360E-02 8.28402E-04-5.69618E-02 4.76665E-14-1.85458E-13
 -1      1872 2.00791E+01 1.12531E-02 3.33187E-04-4.99245E-02 1.10065E-14-2.51810E-13
 -1      1873 2.01007E+01 1.93747E-02-5.13797E-04-8.00292E-02 2.81379E-14-1.99026E-13
 -1      1874 2.00653E+01 1.02397E-02 7.01954E-04-4.16121E-02-1.16233E-14-3.00235E-13
 -1      1875 2.00501E+01 9.00115E-03 2.81365E-04-3.59047E-02-4.84801E-16-2.43563E-13
 -1      1876 2.00686E+01 1.60370E-02-4.34186E-04-5.94533E-02-4.56132E-15-2.78246E-13
 -1      1877 2.00398E+01 8.04697E-03 5.68839E-04-2.92582E-02-8.87647E-15-2.06245E-13
 -1      1878 2.00290E+01 6.94571E-03 2.30463E-04-2.47991E-02-9.50393E-14-8.30323E-14
 -1      1879 2.00444E+01 1.27432E-02-3.56170E-04-4.26245E-02 1.94272E-14-2.27193E-13
 -1      1880 2.00216E+01 6.10949E-03 4.43872E-04-1.96641E-02-1.32528E-13 2.23685E-14
 -1      1881 2.00141E+01 5.18362E-03 1.83754E-04-1.62962E-02-2.32916E-14 2.59613E-14
 -1      1882 2.00266E+01 9.77208E-03-2.84560E-04-2.93554E-02-5.27569E-14-8.96304E-14
 -1      1883 2.00090E+01 4.48682E-03 3.34574E-04-1.24542E-02-3.10103E-14-7.80252E-14
 -1      1884 2.00041E+01 3.74102E-03 1.42922E-04-9.99323E-03 9.84403E-15-1.00044E-13
 -1      1885 2.00141E+01 7.24665E-03-2.21828E-04-1.92303E-02-6.97937E-14 1.39899E-14
 -1      1886 2.00007E+01 3.18277E-03 2.43689E-04-7.20988E-03 1.01707E-13-1.87362E-13
 -1      1887 1.99978E+01 2.60318E-03 1.08548E-04-5.47336E-03 4.37235E-14-1.82761E-13
 -1      1888 2.00055E+01 5.19340E-03-1.68838E-04-1.17445E-02-4.83411E-14 1.37906E-14
 -1      1889 1.99956E+01 2.17063E-03 1.71070E-04-3.52622E-03-1.22078E-14-1.76903E-13
 -1      1890 1.99941E+01 1.73466E-03 8.05025E-05-2.34916E-03 7.63932E-14-1.31193E-13
 -1      1891 1.99999E+01 3.58388E-03-1.25411E-04-6.38776E-03 7.50562E-14-1.24248E-13
 -1      1892 1.99928E+01 1.40962E-03 1.14999E-04-1.04195E-03 2.86797E-14-1.85984E-13
 -1      1893 1.99922E+01 1.09202E-03 5.82392E-05-2.83583E-04-2.10415E-14-1.76853E-13
 -1      1894 1.99965E+01 2.36262E-03-9.07554E-05-2.69210E-03 4.14121E-14-7.40871E-14
 -1      1895 1.99916E+01 8.55052E-04 7.30569E-05 5.48443E-04 6.44854E-14-2.29777E-13
 -1      1896 1.99916E+01 6.31462E-04 4.10017E-05 1.00310E-03 8.00342E-14-7.91860E-14
 -1      1897 1.99947E+01 1.46456E-03-6.37661E-05-2.53341E-04 4.89564E-14-1.40043E-13
 -1      1898 1.99914E+01 4.64138E-04 4.26577E-05 1.49294E-03 7.26277E-15-1.95455E-13
 -1      1899 1.99918E+01 3.12778E-04 2.79612E-05 1.73455E-03-1.38995E-13-1.49635E-13
 -1      1900 1.99939E+01 8.25320E-04-4.32338E-05 1.26229E-03-2.06164E-14-2.08072E-13
 -1      1901 1.99919E+01 1.98800E-04 2.13549E-05 1.98607E-03-9.32646E-14 6.00420E-14
 -1      1902 1.99925E+01 1.01166E-04 1.82980E-05 2.08384E-03-8.75754E-14 1.44718E-13
 -1      1903 1.99939E+01 3.86525E-04-2.79725E-05 2.12074E-03 4.52927E-14-9.34893E-14
 -1      1904 1.99927E+01 2.67277E-05 6.99114E-06 2.17560E-03-2.40333E-13 2.56376E-13
 -1      1905 1.99934E+01-3.24066E-05 1.12441E-05 2.18063E-03-6.18910E-14 1.39032E-13
 -1      1906 1.99943E+01 9.79836E-05-1.68950E-05 2.52715E-03-1.31715E-13 3.96131E-13
 -1      1907 1.99938E+01-7.86939E-05-2.24579E-06 2.17002E-03 4.48479E-14 7.94004E-14
 -1      1908 1.99945E+01-1.11630E-04 6.10000E-06 2.11850E-03 5.94356E-14 4.39750E-14
 -1      1909 1.99950E+01-8.19911E-05-9.05131E-06 2.63470E-03-5.23047E-14 3.78610E-13
 -1      1910 1.99949E+01-1.39052E-04-7.81810E-06 2.04555E-03 9.82694E-14 1.04062E-13
 -1      1911 1.99956E+01-1.55708E-04 2.24406E-06 1.96155E-03 1.42957E-13 1.71007E-13
 -1      1912 1.99957E+01-1.87367E-04-3.63956E-06 2.55341E-03 1.12612E-13 1.73044E-13
 -1      1913 1.99959E+01-1.71884E-04-1.08550E-05 1.85226E-03 4.41660E-14 2.44893E-13
 -1      1914 1.99966E+01-1.80428E-04-8.72826E-07 1.74998E-03 1.44951E-13 2.75743E-13
 -1      1915 1.99965E+01-2.45730E-04-6.30646E-09 2.35814E-03 1.83182E-13 3.96533E-13
 -1      1916 1.99969E+01-1.91824E-04-1.21848E-05 1.61886E-03 1.75097E-13 1.91484E-13
 -1      1917 1.99975E+01-1.99039E-04-3.56911E-06 1.50422E-03 1.99803E-13 1.78912E-13
 -1      1918 1.99973E+01-2.79895E-04 2.33278E-06 2.09529E-03 5.89207E-14 3.09342E-13
 -1      1919 1.99978E+01-2.10878E-04-1.21601E-05 1.35679E-03 2.17999E-13 2.21168E-14
 -1      1920 1.99983E+01-2.22549E-04-5.86084E-06 1.22914E-03 1.80032E-13 1.30714E-13
 -1      1921 1.99980E+01-3.08446E-04 3.88319E-06 1.78806E-03 1.54211E-13-1.26194E-13
 -1      1922 1.99985E+01-2.39842E-04-1.09389E-05 1.06471E-03 1.80038E-13 6.21226E-14
 -1      1923 1.99989E+01-2.58303E-04-7.48136E-06 9.17890E-04 1.48865E-13 1.27629E-13
 -1      1924 1.99986E+01-3.47546E-04 4.26955E-06 1.44353E-03 1.29341E-13 1.09893E-13
 -1      1925 1.99991E+01-2.70704E-04-9.02999E-06 7.43519E-04 1.98706E-13 2.18110E-13
 -1      1926 1.99993E+01-2.89751E-04-9.27406E-06 5.80430E-04 2.26854E-13 1.45583E-13
 -1      1927 1.99994E+01-4.07358E-04 4.35164E-06 6.82480E-04 7.19876E-14 2.94664E-13
 -1      1928 1.99991E+01-3.89628E-04 6.58675E-06 1.06924E-03 2.00014E-13 2.42159E-13
 -1      1929 2.36182E+01 3.27992E-01 1.76016E-02-1.09690E+00 1.06876E-13 4.73194E-13
 -1      1930 2.33539E+01 3.79107E-01 2.11929E-02-7.75826E-01 1.31454E-13 5.13417E-13
 -1      1931 2.30522E+01 5.73686E-01-9.58680E-03-7.87834E-01 1.49058E-13 3.80881E-13
 -1      1932 2.44292E+01 2.39965E-01 9.36998E-03-1.61200E+00 4.80501E-14 4.11473E-13
 -1      1933 2.39027E+01 2.95161E-01 1.61034E-02-1.35745E+00 7.15747E-14 4.53519E-13
 -1      1934 2.34046E+01 4.20168E-01-1.31426E-02-1.54435E+00 1.03813E-13 3.43305E-13
 -1      1935 2.55520E+01 5.00684E-02-6.17601E-03-1.91103E+00-1.67372E-14 3.94709E-13
 -1      1936 2.48769E+01 1.61329E-01 7.64725E-03-1.75443E+00-3.87234E-15 3.88047E-13
 -1      1937 2.41245E+01 2.29615E-01-1.76556E-02-2.07777E+00 1.71952E-14 2.82925E-13
 -1      1938 2.68987E+01-3.84495E-01-2.08324E-02-1.72338E+00-5.70412E-14 4.53063E-13
 -1      1939 2.61900E+01-1.57993E-01 3.37705E-03-1.81985E+00-4.02560E-14 4.30662E-13
 -1      1940 2.51926E+01-1.88887E-01-1.93279E-02-2.24768E+00-4.99245E-14 2.98605E-13
 -1      1941 2.80958E+01-1.02508E+00-2.32914E-02-6.71809E-01-8.97511E-14 5.23075E-13
 -1      1942 2.76460E+01-7.43833E-01 4.71962E-03-1.21760E+00-8.99315E-14 4.72370E-13
 -1      1943 2.65647E+01-9.67817E-01-1.65354E-02-1.70280E+00-1.06717E-13 3.67943E-13
 -1      1944 2.88620E+01-1.49828E+00-1.72125E-02 1.39796E+00-7.94365E-14 5.64805E-13
 -1      1945 2.88671E+01-1.40311E+00-2.89163E-03 3.11715E-01-1.11237E-13 5.58855E-13
 -1      1946 2.81038E+01-1.84017E+00-6.98728E-03-1.03109E-01-1.31076E-13 3.97303E-13
 -1      1947 2.86944E+01-8.13044E-01-4.54432E-02 3.57308E+00-2.00048E-14 5.94615E-13
 -1      1948 2.93094E+01-1.35263E+00-5.00692E-02 2.46977E+00-4.34982E-14 5.82888E-13
 -1      1949 2.94342E+01-1.91690E+00-2.29364E-02 2.33926E+00-7.09433E-14 4.11737E-13
 -1      1950 2.75809E+01 1.29212E+00-1.71679E-01 3.46654E+00 1.94011E-13 5.81014E-13
 -1      1951 2.85588E+01 2.63848E-01-1.33616E-01 3.56058E+00 5.79814E-14 6.07445E-13
 -1      1952 2.98709E+01 1.87391E-03-1.33014E-01 3.96856E+00 5.67324E-14 4.77528E-13
 -1      1953 2.69605E+01 2.59941E+00-2.64369E-01-1.81458E-02 4.11227E-13 2.90899E-13
 -1      1954 2.74160E+01 2.34946E+00-1.70300E-01 1.65009E+00 3.83082E-13 4.64470E-13
 -1      1955 2.97060E+01 2.98158E+00-1.22271E-01 2.22546E+00 3.93907E-13 3.52482E-13
 -1      1956 2.77402E+01 1.55261E+00-2.22195E-01-3.21137E+00 3.98570E-13 5.68573E-14
 -1      1957 2.72646E+01 2.26409E+00-1.71871E-01-1.79050E+00 3.44030E-13 1.72203E-13
 -1      1958 2.96848E+01 3.42684E+00-1.33765E-01-1.70995E+00 4.35874E-13 1.19873E-13
 -1      1959 2.90406E+01-2.69698E-01-7.33730E-02-4.07678E+00 2.66967E-13-1.19245E-14
 -1      1960 2.80951E+01 5.09776E-01-1.31692E-01-3.66026E+00 3.58907E-13 4.74933E-14
 -1      1961 3.00716E+01 1.21265E+00-1.08258E-01-4.07889E+00 4.12032E-13-6.48301E-14
 -1      1962 2.98348E+01-1.41326E+00 7.96242E-02-2.44742E+00 9.05396E-14-1.34748E-13
 -1      1963 2.88662E+01-1.14324E+00-8.45864E-02-3.12078E+00 2.09164E-13-4.62824E-14
 -1      1964 2.99727E+01-1.25937E+00-1.03413E-01-3.61868E+00 2.64205E-13-5.55597E-14
 -1      1965 2.92336E+01-1.19017E+00 8.87791E-02-7.48990E-02-8.39953E-15-2.65980E-13
 -1      1966 2.89838E+01-1.47584E+00-4.73440E-02-1.02160E+00 4.93633E-14-1.71873E-13
 -1      1967 2.89759E+01-2.22697E+00-1.01135E-01-1.15850E+00 8.87311E-14-1.49156E-13
 -1      1968 2.78981E+01-5.57513E-01 3.98733E-02 1.41355E+00-2.01898E-13-2.30520E-13
 -1      1969 2.82873E+01-8.90114E-01-1.72290E-02 7.99087E-01-1.52468E-13-2.27825E-13
 -1      1970 2.74953E+01-1.54346E+00-6.87832E-02 1.00472E+00-1.45502E-13-1.48468E-13
 -1      1971 2.64035E+01-9.34549E-02-7.58149E-04 1.91961E+00-6.72665E-14-2.66245E-14
 -1      1972 2.71199E+01-2.85385E-01-4.31872E-03 1.69136E+00-9.34548E-14-1.34837E-13
 -1      1973 2.60596E+01-6.03091E-01-3.33871E-02 2.08435E+00-1.30493E-13-6.13520E-14
 -1      1974 2.50215E+01 1.26865E-01-1.59562E-02 1.85005E+00-1.75536E-13 1.29487E-13
 -1      1975 2.58100E+01 5.61250E-02 1.54701E-03 1.85738E+00-1.17371E-13 3.79280E-14
 -1      1976 2.48264E+01-7.53017E-03-1.10752E-02 2.29758E+00-1.69464E-13 9.79390E-14
 -1      1977 2.37934E+01 1.91693E-01-1.59207E-02 1.53155E+00-4.23164E-14 2.50438E-13
 -1      1978 2.45386E+01 1.85863E-01 6.17925E-03 1.64663E+00-1.58779E-13 1.61022E-13
 -1      1979 2.37687E+01 2.46766E-01 1.58659E-03 2.05931E+00-1.57751E-13 1.21292E-13
 -1      1980 2.28530E+01 1.80981E-01-1.11423E-02 1.18956E+00 1.00506E-13 1.84916E-13
 -1      1981 2.34377E+01 2.01170E-01 8.86609E-03 1.31954E+00 1.23318E-13 3.56330E-13
 -1      1982 2.28921E+01 2.98312E-01 4.87617E-03 1.66780E+00 2.94868E-14 3.05932E-13
 -1      1983 2.21130E+01 1.47965E-01-7.14323E-03 8.90265E-01 9.63448E-14 1.13012E-13
 -1      1984 2.25697E+01 1.73063E-01 9.41119E-03 1.00701E+00 1.14134E-13 1.50846E-13
 -1      1985 2.22000E+01 2.65458E-01 4.90944E-03 1.28629E+00 1.66273E-13 2.00150E-13
 -1      1986 2.15459E+01 1.13203E-01-4.25787E-03 6.52212E-01-1.18035E-13 1.00040E-13
 -1      1987 2.18911E+01 1.35708E-01 8.50822E-03 7.46222E-01-1.18042E-13 7.23717E-14
 -1      1988 2.16498E+01 2.10773E-01 3.60666E-03 9.62226E-01-6.50348E-14-1.26976E-15
 -1      1989 2.11184E+01 8.37603E-02-2.42597E-03 4.71926E-01-1.59379E-13 2.08948E-13
 -1      1990 2.13741E+01 1.01638E-01 7.03299E-03 5.43761E-01-1.32037E-13 1.02617E-13
 -1      1991 2.12214E+01 1.58372E-01 2.22295E-03 7.06948E-01-1.56648E-13 4.24335E-14
 -1      1992 2.07994E+01 6.08077E-02-1.48748E-03 3.38926E-01-5.19090E-14 2.27480E-13
 -1      1993 2.09870E+01 7.43916E-02 5.52168E-03 3.92269E-01-1.76326E-13 1.62482E-13
 -1      1994 2.08932E+01 1.15704E-01 1.15726E-03 5.13681E-01-1.54492E-13 1.47211E-13
 -1      1995 2.05546E+01 4.31775E-02-7.64550E-04 2.37801E-01 5.70715E-14 2.93652E-13
 -1      1996 2.06952E+01 5.32961E-02 4.18073E-03 2.78407E-01 1.09691E-13 3.13198E-13
 -1      1997 2.06403E+01 8.32223E-02 7.27151E-04 3.67755E-01 1.78811E-14 3.78060E-14
 -1      1998 2.03859E+01 3.11742E-02-2.96919E-04 1.68691E-01 2.44624E-13 1.36909E-13
 -1      1999 2.04819E+01 3.81594E-02 3.08655E-03 1.96811E-01 1.41613E-13 2.25316E-13
 -1      2000 2.04517E+01 5.87095E-02 2.63509E-05 2.61020E-01 1.97783E-13 8.28413E-14
 -1      2001 2.02630E+01 2.24168E-02-9.93781E-05 1.18782E-01-5.64152E-14 4.38771E-14
 -1      2002 2.03316E+01 2.74144E-02 2.26741E-03 1.39234E-01 9.92214E-14 1.03758E-13
 -1      2003 2.03164E+01 4.19427E-02-1.75077E-04 1.85722E-01 1.24775E-13 2.28683E-14
 -1      2004 2.01747E+01 1.61024E-02 1.15950E-05 8.27988E-02 1.14235E-13 2.82553E-13
 -1      2005 2.02234E+01 1.96878E-02 1.66169E-03 9.76452E-02-3.44901E-14 1.37282E-13
 -1      2006 2.02173E+01 2.99318E-02-2.61813E-04 1.31040E-01-7.50352E-14 1.10547E-13
 -1      2007 2.01120E+01 1.15362E-02 6.68454E-05 5.69081E-02-4.59565E-14 2.46827E-13
 -1      2008 2.01461E+01 1.41119E-02 1.21221E-03 6.76664E-02 4.65035E-14 2.63597E-13
 -1      2009 2.01454E+01 2.13270E-02-2.82098E-04 9.14249E-02 2.21611E-14 3.43846E-13
 -1      2010 2.00679E+01 8.21039E-03 7.06416E-05 3.83496E-02-3.68502E-14 8.98323E-14
 -1      2011 2.00915E+01 1.00862E-02 8.84631E-04 4.61240E-02-8.54394E-14 2.28745E-13
 -1      2012 2.00939E+01 1.51327E-02-2.72024E-04 6.28150E-02-3.02461E-14 2.20121E-13
 -1      2013 2.00365E+01 5.69453E-03 8.32990E-05 2.45740E-02 1.26624E-13 2.65132E-13
 -1      2014 2.00530E+01 7.07911E-03 6.34591E-04 3.03548E-02 3.41496E-14 1.68602E-13
 -1      2015 2.00569E+01 1.06924E-02-1.98759E-04 4.18934E-02-2.08982E-14 1.37083E-13
 -1      2016 2.00167E+01 3.99567E-03 9.29627E-05 1.54232E-02-1.31183E-13 3.55000E-13
 -1      2017 2.00269E+01 4.94080E-03 4.49754E-04 1.93243E-02 6.29285E-14 3.30063E-13
 -1      2018 2.00314E+01 7.33777E-03-2.02191E-04 2.69755E-02-1.93124E-14 3.07052E-13
 -1      2019 2.00038E+01 2.74519E-03 8.42630E-05 9.05033E-03 1.98980E-13 2.95001E-13
 -1      2020 2.00103E+01 3.41442E-03 3.15423E-04 1.17906E-02 7.41743E-14 3.43868E-13
 -1      2021 2.00148E+01 5.05906E-03-1.64942E-04 1.68002E-02 3.76166E-14 3.67038E-13
 -1      2022 1.99960E+01 1.84142E-03 7.38753E-05 4.70169E-03 1.37319E-13 1.79398E-13
 -1      2023 1.99998E+01 2.31416E-03 2.19671E-04 6.59365E-03 1.37305E-13 2.21480E-13
 -1      2024 2.00040E+01 3.41500E-03-1.32442E-04 9.73084E-03 1.73808E-13 3.30061E-13
 -1      2025 1.99915E+01 1.19366E-03 6.28518E-05 1.81293E-03-1.03957E-13-5.28995E-14
 -1      2026 1.99935E+01 1.52351E-03 1.50057E-04 3.08863E-03 8.42964E-14 1.38449E-13
 -1      2027 1.99973E+01 2.23821E-03-1.04475E-04 4.91868E-03 8.80506E-14 1.26941E-13
 -1      2028 1.99894E+01 7.35084E-04 5.09792E-05-3.66973E-05 5.54547E-14-2.97972E-13
 -1      2029 1.99902E+01 9.63486E-04 1.00724E-04 7.99767E-04-1.18059E-13-2.41838E-13
 -1      2030 1.99935E+01 1.40182E-03-8.19700E-05 1.73476E-03-2.47162E-14-2.30448E-13
 -1      2031 1.99889E+01 4.02099E-04 4.18301E-05-1.19153E-03-2.66492E-14-3.26974E-13
 -1      2032 1.99889E+01 5.60201E-04 6.39346E-05-6.57115E-04 1.39543E-13-2.16806E-13
 -1      2033 1.99917E+01 8.24602E-04-5.83590E-05-3.15582E-04-6.22749E-15-1.81850E-13
 -1      2034 1.99893E+01 1.95147E-04 3.46304E-05-1.77530E-03-1.47791E-13-2.81064E-14
 -1      2035 1.99889E+01 2.89520E-04 3.80238E-05-1.48612E-03-7.35610E-14-1.43926E-13
 -1      2036 1.99911E+01 4.10319E-04-4.63448E-05-1.53729E-03-1.29561E-13 3.97354E-14
 -1      2037 1.99903E+01 5.78871E-05 2.78079E-05-2.03153E-03-2.06130E-13-1.59383E-13
 -1      2038 1.99896E+01 1.13635E-04 2.02215E-05-1.88862E-03-1.26441E-13-2.74864E-14
 -1      2039 1.99914E+01 1.54888E-04-3.41125E-05-2.16165E-03-1.12187E-13 4.67440E-14
 -1      2040 1.99916E+01-2.76262E-05 2.19578E-05-2.07462E-03 9.43024E-14-2.44969E-13
 -1      2041 1.99908E+01 2.32367E-06 8.67315E-06-2.02727E-03-1.53008E-13-1.90860E-13
 -1      2042 1.99922E+01-7.44148E-06-2.48401E-05-2.41953E-03-6.42802E-14-1.04727E-13
 -1      2043 1.99930E+01-7.73880E-05 1.70196E-05-1.98736E-03-2.81590E-15-3.49566E-13
 -1      2044 1.99921E+01-6.42993E-05 1.18363E-06-1.99993E-03 1.66582E-13-3.24247E-13
 -1      2045 1.99932E+01-1.04004E-04-1.77824E-05-2.44285E-03 1.89382E-13-1.05317E-13
 -1      2046 1.99943E+01-1.03488E-04 1.31824E-05-1.82700E-03-2.12314E-14-5.03736E-13
 -1      2047 1.99935E+01-1.00737E-04-3.39480E-06-1.87388E-03-1.55817E-13-6.21456E-13
 -1      2048 1.99943E+01-1.56667E-04-1.25217E-05-2.32351E-03-4.68440E-14-2.23885E-13
 -1      2049 1.99957E+01-1.17455E-04 9.40991E-06-1.61589E-03-7.50624E-14-1.98450E-13
 -1      2050 1.99949E+01-1.19225E-04-6.26509E-06-1.68758E-03-1.19397E-13-3.99240E-13
 -1      2051 1.99955E+01-1.81245E-04-8.87489E-06-2.11617E-03-9.90251E-14-4.34695E-13
 -1      2052 1.99968E+01-1.25374E-04 5.89934E-06-1.39346E-03-8.07798E-14 5.58200E-14
 -1      2053 1.99961E+01-1.28973E-04-7.93905E-06-1.47444E-03 1.04333E-13 1.06058E-13
 -1      2054 1.99965E+01-1.92784E-04-5.24622E-06-1.86349E-03-1.16589E-13-6.57301E-15
 -1      2055 1.99978E+01-1.36258E-04 3.15401E-06-1.15578E-03 8.78386E-14 1.67713E-13
 -1      2056 1.99972E+01-1.37576E-04-8.73406E-06-1.24772E-03-7.89910E-14 1.29759E-13
 -1      2057 1.99974E+01-2.01639E-04-2.84783E-06-1.58969E-03-9.53231E-14 4.39031E-14
 -1      2058 1.99986E+01-1.55726E-04 1.32690E-06-8.95292E-04-1.68136E-13 2.46272E-13
 -1      2059 1.99981E+01-1.52235E-04-8.48580E-06-1.00188E-03 1.62979E-13 2.68042E-13
 -1      2060 1.99982E+01-2.19160E-04-8.86127E-07-1.29047E-03 3.63318E-14 1.05567E-13
 -1      2061 1.99992E+01-1.86462E-04-1.97316E-06-5.99181E-04 1.51920E-13 1.90061E-14
 -1      2062 1.99988E+01-1.76767E-04-7.34387E-06-7.27604E-04-1.08444E-13 1.13500E-13
 -1      2063 1.99989E+01-2.51999E-04-4.63985E-07-9.58685E-04-6.99711E-14-3.75858E-14
 -1      2064 1.99995E+01-2.16155E-04-6.15022E-06-3.47548E-04 4.76358E-14-1.71630E-13
 -1      2065 1.99993E+01-2.10388E-04-5.64503E-06-4.93136E-04 1.38717E-13 2.97463E-14
 -1      2066 1.99993E+01-2.92852E-04 2.14252E-06-6.65986E-04 1.46128E-13 7.24431E-14
 -1      2067 1.99996E+01-3.23039E-04 1.06423E-06-4.26890E-04 7.52484E-14 2.10925E-13
 -1      2068 1.99998E+01-1.79514E-03 3.48497E-06-9.77789E-04 6.61181E-14-2.75412E-15
 -1      2069 1.99998E+01-1.48296E-03-4.06641E-06-9.68041E-04-1.85985E-14-2.32866E-14
 -1      2070 1.99997E+01-1.21812E-03 9.15065E-07-9.20166E-04-2.33728E-13-1.39532E-13
 -1      2071 1.99996E+01-9.29825E-04-6.25328E-06-8.37542E-04-7.58187E-14 1.94920E-14
 -1      2072 1.99997E+01-1.29461E-03-4.05322E-07-1.19572E-03-2.57950E-13 5.50426E-14
 -1      2073 1.99996E+01-7.35882E-04-1.03386E-06-7.20428E-04 1.30158E-13 2.80096E-14
 -1      2074 1.99996E+01-5.00804E-04-6.09904E-06-5.81545E-04 5.66627E-14 2.30577E-13
 -1      2075 1.99994E+01-4.90025E-04-4.27369E-06-7.12564E-04 6.11628E-14 2.21522E-13
 -1      2076 1.99995E+01-8.47547E-04 1.71385E-06-1.00434E-03-1.21150E-13-2.97625E-13
 -1      2077 1.99999E+01-2.33266E-03 6.18369E-06-8.96292E-04-7.22449E-14-7.00904E-13
 -1      2078 1.99999E+01-2.04146E-03 5.19291E-07-9.46393E-04 5.74727E-14-2.12899E-13
 -1      2079 1.99999E+01-1.80175E-03-2.75415E-06-1.20915E-03-5.61655E-14-2.18287E-13
 -1      2080 2.00000E+01-2.78771E-03 8.53574E-06-6.98011E-04 1.10341E-13-1.58162E-13
 -1      2081 2.00000E+01-2.54655E-03 4.60620E-06-7.96609E-04 7.90158E-14-3.70860E-13
 -1      2082 2.00000E+01-2.26254E-03-5.34394E-06-1.06103E-03 6.55632E-14-4.97575E-13
 -1      2083 2.00000E+01-3.09828E-03 1.00429E-05-4.16745E-04 1.52605E-13 2.32007E-13
 -1      2084 2.00000E+01-2.94211E-03 7.86880E-06-5.47622E-04 2.08924E-13 2.22667E-13
 -1      2085 2.00001E+01-2.63186E-03-7.39710E-06-7.79763E-04 2.29520E-13-3.93195E-14
 -1      2086 2.00001E+01-3.23096E-03 1.04875E-05-8.90245E-05-6.62125E-14 5.34797E-14
 -1      2087 2.00001E+01-3.17821E-03 9.87238E-06-2.35845E-04 1.24070E-14-3.88372E-15
 -1      2088 2.00002E+01-2.86732E-03-8.64382E-06-4.08225E-04 6.63113E-14-9.01161E-14
 -1      2089 2.00001E+01-3.17203E-03 9.74089E-06 2.47855E-04-2.35398E-14-8.02504E-14
 -1      2090 2.00001E+01-3.22873E-03 1.05613E-05 1.01595E-04-7.58271E-14 1.73937E-13
 -1      2091 2.00002E+01-2.94545E-03-9.02366E-06 8.15814E-06 1.19850E-14 5.10838E-14
 -1      2092 2.00000E+01-2.92861E-03 7.78534E-06 5.56651E-04-1.77184E-13-1.76224E-13
 -1      2093 2.00000E+01-3.08814E-03 9.95366E-06 4.27373E-04-4.15677E-14-7.70149E-14
 -1      2094 2.00002E+01-2.85881E-03-8.51367E-06 4.22933E-04-1.46020E-13-1.54369E-13
 -1      2095 2.00000E+01-2.53625E-03 4.47723E-06 7.97644E-04-2.80460E-13-5.56370E-13
 -1      2096 2.00000E+01-2.77469E-03 8.38898E-06 7.02501E-04-1.68419E-13-3.36266E-13
 -1      2097 2.00001E+01-2.61927E-03-7.32139E-06 7.87552E-04-2.47373E-13-3.38305E-13
 -1      2098 1.99999E+01-2.02587E-03 3.06842E-07 9.44510E-04-9.67930E-14-5.84220E-14
 -1      2099 1.99999E+01-2.32192E-03 6.03979E-06 8.95474E-04-1.08894E-13-1.66462E-13
 -1      2100 2.00000E+01-2.25010E-03-5.27518E-06 1.06158E-03 2.09081E-14-3.49119E-13
 -1      2101 1.99998E+01-1.46435E-03-4.11553E-06 9.63058E-04-1.16581E-14 1.69065E-13
 -1      2102 1.99998E+01-1.77588E-03 3.37184E-06 9.74211E-04 6.91199E-14-8.39657E-14
 -1      2103 1.99999E+01-1.78502E-03-2.21607E-06 1.20587E-03 2.66731E-13 7.57377E-14
 -1      2104 1.99996E+01-9.04823E-04-3.28619E-06 8.35863E-04-1.53736E-13 3.11427E-13
 -1      2105 1.99997E+01-1.20159E-03 1.51940E-06 9.13805E-04-1.41331E-13 3.30916E-13
 -1      2106 1.99997E+01-1.27722E-03 7.40459E-08 1.18712E-03 1.56116E-13 1.59304E-13
 -1      2107 1.04466E+01-6.43073E+00-2.16386E-01 5.70738E+00 2.86104E-13 7.37181E-13
 -1      2108 6.66354E+00-7.33566E+00-3.62180E-01 4.65722E+00 1.76192E-13 5.38791E-13
 -1      2109 3.11512E-02-7.48066E+00-3.66329E-01-4.04579E-01-7.10959E-14 5.63882E-13
 -1      2110 3.25861E-01-7.28076E+00-3.51149E-01-2.04817E+00-2.86743E-13 5.05873E-13
 -1      2111 3.29371E+00-6.31706E+00-1.79742E-01 3.42290E+00 7.47180E-14 5.48450E-13
 -1      2112 1.23889E+00-7.21228E+00-3.44953E-01 1.53525E+00-1.04805E-13 6.16729E-13
 -1      2113 1.94141E+01-4.97537E+00-1.06527E-01 6.12084E+00 4.91052E-13 4.07674E-13
 -1      2114 1.42767E+01-6.63886E+00-4.30628E-01 5.40828E+00 3.00426E-13 6.01019E-13
 -1      2115 2.95498E+01-2.77201E+00 7.23449E-02 4.63333E+00 5.66158E-13 1.16351E-13
 -1      2116 2.39886E+01-4.58535E+00-2.83854E-01 4.63909E+00 5.42844E-13 1.65312E-13
 -1      2117 1.99480E+01 3.82232E+00-2.63331E-02-1.22920E+00-3.80885E-14-2.65399E-13
 -1      2118 2.01984E+01 3.77427E+00-2.72212E-02-1.53826E+00-6.78424E-14-2.53249E-13
 -1      2119 2.06205E+01 3.01438E+00-1.85364E-02-1.56616E+00-8.49295E-14-2.21094E-13
 -1      2120 2.00935E+01 3.30343E+00-1.12781E-02-1.03213E+00-2.44691E-14-2.38327E-13
 -1      2121 4.30960E+01 4.99207E+00 5.10415E-01 1.70587E-01 4.86500E-13 4.75175E-14
 -1      2122 3.92278E+01 3.34817E+00 1.33735E-01 1.56048E-01 5.96301E-13 1.42442E-13
 -1      2123 4.32643E+01 6.91174E+00 3.53151E-01-4.63946E-01 5.84865E-13-1.34233E-13
 -1      2124 4.33027E+01 6.27910E+00 4.08394E-01 4.00705E-04 5.11979E-13 2.03171E-14
 -1      2125 3.83005E+01 6.08636E+00 4.14659E-01-1.75479E+00 5.88196E-13-1.97897E-14
 -1      2126 4.15181E+01 5.83713E+00 2.62385E-01-3.96531E-02 6.16063E-13-2.83940E-13
 -1      2127 4.34075E+01 6.76906E+00 4.51987E-01 9.91653E-02 5.90306E-13-1.81910E-13
 -1      2128 3.76037E+01 1.74748E+00 8.95482E-02-1.25204E+00 4.35596E-13-3.17968E-13
 -1      2129 4.07968E+01 3.66729E+00 2.91768E-01-4.52960E-01 4.91329E-13-2.91822E-13
 -1      2130 3.08828E+01-2.27361E+00-5.37165E-02-3.18292E+00 1.61343E-13-3.99236E-13
 -1      2131 3.59693E+01-1.50954E-02 2.76029E-01-2.84974E+00 3.03146E-13-3.83027E-13
 -1      2132 3.58840E+01-1.01082E-01 1.94839E-01 7.34144E-01 1.97994E-13-2.78666E-14
 -1      2133 1.94034E+01-5.40233E+00-3.89740E-01-5.50629E+00 7.19425E-14-5.77427E-13
 -1      2134 2.55460E+01-4.11275E+00-1.10539E-01-5.36015E+00 6.06182E-14-5.42455E-13
 -1      2135 1.04284E+01-7.11320E+00-5.00955E-01-5.23840E+00 4.66294E-15-5.19279E-13
 -1      2136 1.50705E+01-5.46708E+00-2.11111E-01-6.32939E+00 7.50511E-14-5.88335E-13
 -1      2137 3.95987E+00-7.53968E+00-4.26815E-01-3.75669E+00-3.99680E-14-3.88023E-13
 -1      2138 6.84900E+00-6.81262E+00-3.27992E-01-4.94874E+00 5.28466E-14-4.85001E-13
 -1      2139 9.72668E-02-7.91759E+00-4.75350E-01-3.52911E-01-1.11536E-13-3.42337E-13
 -1      2140 1.25375E+00-7.05919E+00-3.36576E-01-2.02538E+00-6.82787E-15-3.66984E-13
 -1      2141 1.06177E+00-7.03301E+00-3.50034E-01 2.99821E+00-2.00451E-13-3.62710E-13
 -1      2142 1.75874E-01-7.59183E+00-4.13481E-01 1.47920E+00-9.54653E-14-3.51164E-13
 -1      2143 5.86915E+00-5.96952E+00-2.43239E-01 5.81149E+00-3.59268E-13-4.12670E-13
 -1      2144 3.04663E+00-7.51893E+00-4.65102E-01 4.41494E+00-2.52243E-13-3.70814E-13
 -1      2145 1.38611E+01-4.24341E+00-8.97221E-02 7.53421E+00-3.85247E-13-4.24868E-13
 -1      2146 9.46239E+00-6.13159E+00-3.96544E-01 6.31652E+00-3.62266E-13-4.04699E-13
 -1      2147 2.34999E+01-1.85051E+00 1.07982E-01 7.19844E+00-4.43701E-13-2.72116E-13
 -1      2148 1.89547E+01-3.91644E+00-1.85606E-01 6.74898E+00-3.77143E-13-3.05811E-13
 -1      2149 3.10823E+01 1.16945E+00 1.98240E-01 6.01162E+00-5.08066E-13-1.22680E-13
 -1      2150 2.60747E+01-7.29778E-01-1.33783E-01 6.04664E+00-5.03875E-13-2.29261E-13
 -1      2151 2.66485E+01-3.11292E+00 8.19065E-02 5.15885E+00-2.62401E-13 3.18079E-14
 -1      2152 3.78262E+01 4.42790E+00 2.93229E-01 3.50012E+00-5.21305E-13 6.89448E-14
 -1      2153 3.38140E+01 3.04987E+00 4.95093E-02 4.23386E+00-5.40935E-13-3.04201E-14
 -1      2154 4.10966E+01 6.91933E+00 2.90981E-01 1.21410E+00-5.83866E-13 2.51688E-13
 -1      2155 3.92526E+01 6.14437E+00 2.15879E-01 2.61572E+00-5.95080E-13 6.93889E-14
 -1      2156 4.14295E+01 7.57756E+00 2.78773E-01-7.63727E-01-6.41764E-13 4.16958E-13
 -1      2157 4.10295E+01 7.71910E+00 2.43522E-01 5.70394E-01-6.20226E-13 2.19269E-13
 -1      2158 3.84280E+01 6.30322E+00 1.26335E-01-2.28871E+00-4.55636E-13 5.60607E-13
 -1      2159 4.14119E+01 7.02850E+00 3.66287E-01-1.32158E+00-5.29077E-13 4.44311E-13
 -1      2160 3.67727E+01 8.42388E+00 3.02898E-01 8.81879E-03-5.85310E-13 1.68129E-13
 -1      2161 3.30329E+01 2.55224E+00 1.02540E-02-4.27717E+00-3.79939E-13 6.04516E-13
 -1      2162 3.70108E+01 4.18997E+00 2.49998E-01-3.41112E+00-3.56576E-13 6.15785E-13
 -1      2163 2.61592E+01-1.42781E+00-9.87286E-02-5.60140E+00-4.32654E-13 4.89664E-13
 -1      2164 3.08604E+01 7.06408E-01 2.00183E-01-5.65987E+00-4.24605E-13 5.66380E-13
 -1      2165 1.65486E+01-4.36966E+00-2.54340E-01-6.90969E+00-3.53495E-13 5.10092E-13
 -1      2166 2.16659E+01-2.59700E+00 1.39186E-03-7.43242E+00-3.94018E-13 5.38958E-13
 -1      2167 7.87223E+00-6.56836E+00-3.98453E-01-6.08578E+00-3.37952E-13 5.78336E-13
 -1      2168 1.20528E+01-4.60091E+00-1.29986E-01-7.34565E+00-3.99791E-13 6.02046E-13
 -1      2169 1.74768E+00-7.76304E+00-4.51511E-01-3.74685E+00-2.83551E-13 4.86500E-13
 -1      2170 4.19734E+00-6.47343E+00-2.84871E-01-5.28663E+00-3.88745E-13 4.65544E-13
 -1      2171 3.74567E+01 7.58798E-01 1.74037E-01 1.91006E+00 6.09433E-13 8.02691E-14
 -1      2172 3.27452E+01-1.08330E+00-5.31580E-02 2.89458E+00 6.40876E-13 1.42775E-13
 -1      2173 2.42646E+01-5.99699E+00-2.22518E-02 4.70212E+00 2.09388E-13-1.27398E-14
 -1      2174 2.17387E+01 1.02150E+00-2.49269E-02-1.46391E+00-1.58238E-13-2.68500E-14
 -1      2175 3.21222E+01-3.44033E+00 1.11050E-01 1.52332E+00 4.34486E-13-8.49876E-14
 -1      2176 3.71139E+01 1.43259E+00 2.42775E-01-1.35715E+00 5.15171E-13-4.38538E-15
 -1      2177 2.15889E+01 1.19474E+00-1.76908E-02-1.53361E+00-1.55494E-13-7.31828E-14
 -1      2178 6.99506E+00-5.42212E+00-1.10671E-01 4.84515E+00-9.53682E-14 5.82867E-13
 -1      2179 2.10947E+00-4.44635E+00-1.17758E-01 9.90393E-01-1.73334E-13 6.36435E-13
 -1      2180 1.99996E+01-7.28989E-04-4.41145E-06 8.08192E-04-3.73498E-14 3.84247E-13
 -1      2181 1.51193E+01-6.55466E+00-1.24199E-01 6.14758E+00-9.54792E-15 4.73968E-13
 -1      2182 2.30911E+00-5.17070E+00-1.98570E-01-3.51536E+00-2.33424E-13 5.14477E-13
 -1      2183 7.89631E+00-5.66562E+00-1.52269E-01-6.78347E+00-2.13718E-13 5.14644E-13
 -1      2184 1.66199E+01-5.23480E+00-5.90100E-03-7.55669E+00-1.48548E-13 4.17694E-13
 -1      2185 2.56702E+01-3.45347E+00 7.80729E-02-5.56700E+00-1.76470E-13 3.92908E-13
 -1      2186 3.55648E+01 5.09915E+00 2.21376E-01-6.20307E-01-3.43336E-13 3.05811E-13
 -1      2187 3.70846E+01 8.23127E+00 2.95427E-01 1.49628E-02-6.53921E-13 2.32758E-13
 -1      2188 3.23193E+01 7.22781E-01 1.97943E-01 2.65266E+00-4.30926E-13 1.36779E-13
 -1      2189 1.88120E+01-5.02036E+00 4.39954E-05 7.30459E+00-1.47049E-13-1.92360E-13
 -1      2190 9.75185E+00-5.46950E+00-1.16692E-01 7.20524E+00-1.01863E-13-3.51802E-13
 -1      2191 3.58370E+00-5.05305E+00-1.92986E-01 4.64555E+00-8.99281E-15-3.87024E-13
 -1      2192 1.36477E+00-4.73874E+00-1.93491E-01 5.98637E-01 1.51615E-14-3.98903E-13
 -1      2193 4.20957E+00-5.49171E+00-1.86755E-01-3.70836E+00-1.85407E-14-4.30989E-13
 -1      2194 1.12716E+01-6.31950E+00-1.71299E-01-6.13293E+00-7.60503E-14-4.97963E-13
 -1      2195 2.93894E+01-4.08615E+00-9.05040E-06-3.30997E+00-1.11022E-15-3.41061E-13
 -1      2196 3.15709E+01-4.20479E+00-2.42645E-01-8.85029E-01-7.97418E-14 9.32587E-15
 -1      2197 2.77334E+01-5.34194E+00 1.40929E-01-3.28069E+00-1.82382E-13-2.14773E-13
 -1      2198 3.86167E+01 7.20459E+00 3.84630E-01 8.61095E-02 6.36602E-13-1.53974E-14
 -1      2199 3.80305E+01 4.52347E+00 3.04617E-01 1.83844E+00 4.78784E-13 1.14353E-14
 -1      2200 1.99749E+01-6.25147E+00-4.36012E-02-5.92829E+00-1.26565E-13-4.79020E-13
 -1      2201 3.58354E+01 5.28142E+00 2.80865E-01 5.35779E-01-5.28438E-13 1.92124E-13
 -1      2202 3.19332E+01 3.06727E-01 1.53732E-01-2.38340E+00-2.13907E-13 3.06477E-13
 -1      2203 2.25157E+01 9.41285E-01 1.68790E-02-1.05262E+00 1.59855E-13 2.66260E-13
 -1      2204 2.24514E+01 1.07797E+00 1.73220E-02-5.84131E-01 1.73018E-13 2.86468E-13
 -1      2205 1.91042E+01 3.27303E+00-1.17323E-02 2.43944E-01 8.87145E-14-1.80753E-13
 -1      2206 1.94057E+01 3.17283E+00-4.34583E-03 6.03375E-03 5.18886E-14-1.96298E-13
 -1      2207 1.96844E+01 3.02435E+00-1.16968E-02-2.57621E-01 3.92223E-14-2.09608E-13
 -1      2208 1.99468E+01 2.92746E+00-1.09293E-02-5.21603E-01 1.13839E-14-2.19323E-13
 -1      2209 1.97650E+01 2.60877E+00-7.25960E-03-1.73800E-02 5.00840E-14-1.86717E-13
 -1      2210 1.78786E+01 3.88479E+00-1.45828E-02 9.20236E-01 1.86558E-13-1.78425E-13
 -1      2211 1.81688E+01 3.77478E+00 3.87983E-03 8.05669E-01 1.67996E-13-1.83281E-13
 -1      2212 1.74647E+01 4.17328E+00-1.47696E-02 9.97883E-01 2.13972E-13-1.59807E-13
 -1      2213 1.76429E+01 4.08853E+00 3.45074E-03 9.62958E-01 1.98964E-13-1.73058E-13
 -1      2214 1.78250E+01 3.65911E+00-2.14261E-03 1.07838E+00 1.86938E-13-1.63706E-13
 -1      2215 1.73990E+01 4.33495E+00-1.31385E-02 9.09683E-01 2.33966E-13-1.19721E-13
 -1      2216 1.73828E+01 4.30777E+00-1.18616E-03 9.35140E-01 2.25508E-13-1.44368E-13
 -1      2217 1.74309E+01 3.97773E+00 4.53360E-03 1.05609E+00 2.12473E-13-1.40784E-13
 -1      2218 1.78144E+01 4.27786E+00-1.07621E-02 7.28167E-01 2.63362E-13-6.43730E-14
 -1      2219 1.75408E+01 4.33921E+00-9.49048E-03 7.74915E-01 2.41591E-13-9.62490E-14
 -1      2220 1.74446E+01 4.11418E+00 1.06207E-02 8.39556E-01 2.36578E-13-9.59716E-14
 -1      2221 1.87622E+01 3.92251E+00-1.07284E-02 5.67061E-01 2.77276E-13 1.94853E-14
 -1      2222 1.82213E+01 4.10339E+00-1.94448E-02 5.83484E-01 2.64731E-13-3.04357E-14
 -1      2223 1.79977E+01 3.96072E+00 1.33020E-02 5.26159E-01 2.53168E-13-3.97373E-14
 -1      2224 2.01780E+01 3.23465E+00-1.23209E-02 5.15529E-01 2.78819E-13 1.19410E-13
 -1      2225 1.94133E+01 3.56058E+00-2.76695E-02 4.71313E-01 2.75148E-13 6.23633E-14
 -1      2226 1.91044E+01 3.46098E+00 1.27541E-02 2.45567E-01 2.61420E-13 4.71129E-14
 -1      2227 2.27478E+01 7.29000E-01 1.71775E-02-1.86242E+00 1.09256E-13 2.24655E-13
 -1      2228 2.24922E+01 8.34996E-01 1.76311E-02-1.51034E+00 1.32788E-13 2.57190E-13
 -1      2229 2.17145E+01 1.25120E+00-3.20000E-03-1.33822E+00 1.53926E-13 1.69421E-13
 -1      2230 2.13933E+01 6.03943E-01 1.40286E-02-9.66158E-01-1.15720E-13-8.06601E-14
 -1      2231 2.11823E+01 3.39223E-01-1.09121E-02-7.51088E-01-1.10733E-13-7.40681E-14
 -1      2232 3.28758E+01-3.31955E+00-1.77477E-01-3.80415E-01 3.84109E-13-1.30229E-13
 -1      2233 3.02451E+01-4.56703E+00 1.13761E-02 8.90793E-01 3.14332E-13-1.50602E-13
 -1      2234 2.11688E+01 1.51673E-01 1.70451E-02-6.48252E-01-1.03013E-13-6.11499E-14
 -1      2235 2.10023E+01-5.19730E-03-7.06007E-03-5.95681E-01-7.89238E-14-6.99176E-14
 -1      2236 2.12705E+01 3.54307E-01-7.06343E-05-7.93210E-01-1.04274E-13-8.31275E-14
 -1      2237 2.09779E+01-1.09163E-01 1.07174E-02-6.01811E-01-6.29147E-14-7.08256E-14
 -1      2238 2.08365E+01-1.91133E-01-6.12480E-03-6.38754E-01-4.45847E-14-8.05713E-14
 -1      2239 2.11891E+01-5.40603E-02-2.55763E-03-6.76257E-01-7.85886E-14-1.05210E-13
 -1      2240 2.08006E+01-2.32091E-01 4.48217E-03-7.14390E-01-3.34605E-14-7.63470E-14
 -1      2241 2.06613E+01-2.45378E-01-3.76522E-03-7.90134E-01-2.69484E-14-5.36452E-14
 -1      2242 2.11140E+01-2.61592E-01-4.70464E-04-7.52367E-01-4.05616E-14-8.91042E-14
 -1      2243 2.05932E+01-2.21723E-01-6.83825E-04-8.85909E-01-5.07536E-14-7.09993E-14
 -1      2244 2.04441E+01-1.63439E-01 8.90111E-04-9.50198E-01-7.37886E-14-6.82585E-14
 -1      2245 2.10101E+01-2.92674E-01 2.24468E-03-9.30325E-01-5.35170E-14-8.66029E-14
 -1      2246 2.03295E+01-7.55054E-02-4.34997E-03-1.00728E+00-9.28614E-14-4.92980E-14
 -1      2247 2.01757E+01 4.56842E-02 6.87371E-03-1.01094E+00-1.06574E-13-8.92899E-14
 -1      2248 2.08395E+01-1.44802E-01 3.81698E-03-1.09583E+00-8.74967E-14-6.12786E-14
 -1      2249 2.00235E+01 1.79415E-01-5.38596E-03-9.72552E-01-1.06198E-13-7.59852E-14
 -1      2250 1.98862E+01 3.29682E-01 1.16825E-02-8.80156E-01-1.29898E-13-9.59445E-14
 -1      2251 2.05929E+01 1.55681E-01 2.54612E-03-1.12397E+00-9.54808E-14-1.14482E-13
 -1      2252 1.97368E+01 4.65605E-01-2.79341E-03-7.15514E-01-1.38635E-13-8.60463E-14
 -1      2253 1.96459E+01 5.88757E-01 1.25233E-02-5.23992E-01-1.42554E-13-9.94463E-14
 -1      2254 2.03127E+01 5.22447E-01-1.97714E-03-9.15562E-01-1.23527E-13-9.74797E-14
 -1      2255 1.95568E+01 6.71419E-01 2.91059E-03-2.52441E-01-1.14572E-13-9.63535E-14
 -1      2256 1.95376E+01 7.13463E-01 8.63563E-03-3.66782E-04-6.05817E-14-9.68996E-14
 -1      2257 2.00903E+01 8.19851E-01-7.13853E-03-4.52908E-01-1.17953E-13-6.28070E-14
 -1      2258 1.95495E+01 7.04586E-01 9.00721E-03 3.07653E-01-2.88246E-14-1.03060E-13
 -1      2259 1.96098E+01 6.44985E-01 2.05365E-03 5.52701E-01 3.25694E-16-7.42397E-14
 -1      2260 2.00188E+01 9.20062E-01-9.11535E-03 1.67962E-01-5.58284E-14-2.82637E-14
 -1      2261 1.97174E+01 5.47490E-01 1.20223E-02 8.06791E-01 1.57170E-14-5.74785E-14
 -1      2262 1.98432E+01 4.12290E-01-3.70542E-03 9.79341E-01 3.80622E-14 5.82238E-15
 -1      2263 2.01323E+01 7.75522E-01-6.00835E-03 7.69328E-01 2.19475E-14-5.55315E-15
 -1      2264 1.99978E+01 2.67986E-01 1.02728E-02 1.11443E+00 3.87568E-14-6.03336E-14
 -1      2265 2.01583E+01 1.12000E-01-6.35835E-03 1.18047E+00 2.54013E-14-1.10412E-13
 -1      2266 2.03787E+01 4.46389E-01-1.73380E-04 1.17960E+00 2.01329E-14-3.30102E-14
 -1      2267 2.03001E+01-2.58599E-02 4.99369E-03 1.18317E+00-1.24676E-14-9.41085E-14
 -1      2268 2.04610E+01-1.51710E-01-5.89971E-03 1.14831E+00 1.65846E-14-1.15918E-13
 -1      2269 2.06544E+01 6.18917E-02 4.48333E-03 1.31609E+00 2.92851E-15-1.10717E-13
 -1      2270 2.05507E+01-2.46262E-01-9.78292E-04 1.04984E+00 2.09626E-14-1.06725E-13
 -1      2271 2.06853E+01-3.16536E-01-3.70631E-03 9.46497E-01 4.38742E-14-1.07123E-13
 -1      2272 2.08669E+01-2.54280E-01 6.04514E-03 1.20374E+00 2.59856E-14-1.18594E-14
 -1      2273 2.07134E+01-3.57463E-01-5.36075E-03 7.96616E-01-1.06898E-14-1.42420E-13
 -1      2274 2.08080E+01-3.73329E-01-1.28992E-03 6.64249E-01-3.12066E-14-1.34196E-13
 -1      2275 2.09729E+01-4.37008E-01 5.06946E-03 9.33838E-01-1.46764E-14-7.64991E-14
 -1      2276 2.07866E+01-3.70290E-01-7.36880E-03 5.07579E-01-1.24917E-14-1.07221E-13
 -1      2277 2.08391E+01-3.48065E-01 4.92257E-04 3.78241E-01-5.22000E-15-9.30094E-14
 -1      2278 2.09769E+01-4.85398E-01 3.10892E-03 6.08054E-01-3.29513E-14-4.82994E-14
 -1      2279 2.07873E+01-3.18595E-01-7.37706E-03 2.43364E-01-5.78303E-14-1.50935E-13
 -1      2280 2.08035E+01-2.77556E-01 1.43049E-03 1.36255E-01-4.33010E-14-1.66641E-13
 -1      2281 2.09083E+01-4.37360E-01 1.27999E-03 3.02470E-01-4.18176E-14-4.69557E-14
 -1      2282 2.07386E+01-2.37960E-01-6.18303E-03 3.55748E-02-1.03522E-14-1.88881E-13
 -1      2283 2.07274E+01-1.93241E-01 1.70356E-03-4.19342E-02-4.29507E-14-1.62778E-13
 -1      2284 2.08003E+01-3.39787E-01 3.13122E-05 5.81041E-02-4.69263E-14-4.27039E-14
 -1      2285 2.06612E+01-1.54661E-01-4.51752E-03-1.07437E-01-2.32955E-14-1.63595E-13
 -1      2286 2.06319E+01-1.15276E-01 1.58593E-03-1.56059E-01 2.19029E-14-1.20380E-13
 -1      2287 2.06787E+01-2.30519E-01-6.39236E-04-1.12757E-01 1.34857E-14-8.35116E-15
 -1      2288 2.05709E+01-8.34859E-02-2.87116E-03-1.91565E-01-1.29884E-14-1.28584E-13
 -1      2289 2.05315E+01-5.32378E-02 1.29883E-03-2.16253E-01 4.46242E-14-8.94103E-14
 -1      2290 2.05600E+01-1.32705E-01-9.11342E-04-2.15531E-01 6.49863E-15-1.11278E-13
 -1      2291 2.04785E+01-3.00482E-02-1.49626E-03-2.29178E-01 4.24537E-14-1.35593E-13
 -1      2292 2.04353E+01-9.34155E-03 9.82686E-04-2.36272E-01-7.12959E-15-1.31882E-13
 -1      2293 2.04525E+01-5.65793E-02-9.59420E-04-2.63814E-01 1.80789E-15-1.03610E-13
 -1      2294 2.03909E+01 5.75646E-03-4.76182E-04-2.33944E-01 2.89915E-15-1.13403E-13
 -1      2295 2.03482E+01 1.82702E-02 7.05424E-04-2.29473E-01 1.42601E-14-1.17042E-13
 -1      2296 2.03594E+01-3.75581E-03-9.02763E-04-2.73085E-01 1.37911E-14-1.62421E-13
 -1      2297 2.03119E+01 2.68251E-02 2.03116E-04-2.18023E-01 2.42404E-14-1.53252E-13
 -1      2298 2.02724E+01 3.31098E-02 4.89207E-04-2.06921E-01 9.78185E-14-1.34902E-13
 -1      2299 2.02811E+01 2.87260E-02-8.08261E-04-2.57325E-01 2.01565E-14-7.18522E-14
 -1      2300 2.02432E+01 3.69064E-02 6.00982E-04-1.90961E-01 1.48958E-13-1.92312E-13
 -1      2301 2.02086E+01 3.88950E-02 3.32562E-04-1.76859E-01 9.03578E-14-2.58472E-13
 -1      2302 2.02167E+01 4.55413E-02-7.06949E-04-2.27642E-01 6.73761E-14-2.63852E-13
 -1      2303 2.01854E+01 3.95410E-02 7.89199E-04-1.59559E-01 5.95062E-14-2.05625E-13
 -1      2304 2.01562E+01 3.88440E-02 2.24599E-04-1.44894E-01 9.71414E-14-8.44929E-14
 -1      2305 2.01644E+01 5.14167E-02-6.10587E-04-1.92065E-01 7.07422E-14-2.21186E-13
 -1      2306 2.01380E+01 3.76111E-02 8.34577E-04-1.28243E-01 2.35919E-14-1.06958E-13
 -1      2307 2.01141E+01 3.54369E-02 1.52667E-04-1.14494E-01 3.70709E-14-1.29571E-13
 -1      2308 2.01227E+01 5.03530E-02-5.22392E-04-1.55915E-01 3.79287E-14-4.62477E-14
 -1      2309 2.01000E+01 3.32440E-02 7.91599E-04-9.95926E-02-1.59993E-14-1.38494E-13
 -1      2310 2.00811E+01 3.04272E-02 1.05708E-04-8.75310E-02-5.64889E-14-2.42816E-13
 -1      2311 2.00899E+01 4.53894E-02-4.42580E-04-1.22375E-01 2.49884E-14-2.08144E-13
 -1      2312 2.00703E+01 2.78879E-02 7.00842E-04-7.48651E-02-1.00882E-14-2.57382E-13
 -1      2313 2.00558E+01 2.49608E-02 7.52503E-05-6.47861E-02-2.25368E-15-2.40029E-13
 -1      2314 2.00644E+01 3.86495E-02-3.70737E-04-9.30809E-02-5.08806E-14-1.21103E-13
 -1      2315 2.00477E+01 2.24520E-02 5.90315E-04-5.44439E-02-1.93443E-14-2.03113E-13
 -1      2316 2.00367E+01 1.97225E-02 5.53225E-05-4.63429E-02 1.09092E-13-1.61088E-13
 -1      2317 2.00448E+01 3.15046E-02-3.06548E-04-6.86190E-02 5.18576E-14-6.92661E-14
 -1      2318 2.00307E+01 1.74515E-02 4.77894E-04-3.81791E-02 6.99427E-14-1.38768E-13
 -1      2319 2.00228E+01 1.50727E-02 4.19566E-05-3.18832E-02-3.32922E-14 2.46105E-14
 -1      2320 2.00302E+01 2.47618E-02-2.49851E-04-4.89228E-02 5.43912E-14-7.70167E-14
 -1      2321 2.00184E+01 1.31330E-02 3.73930E-04-2.56328E-02-1.03320E-13 2.55589E-14
 -1      2322 2.00128E+01 1.11579E-02 3.26399E-05-2.08899E-02-1.28910E-13-6.27774E-14
 -1      2323 2.00194E+01 1.88343E-02-2.00506E-04-3.35585E-02-4.57167E-14 3.79119E-15
 -1      2324 2.00097E+01 9.57137E-03 2.83538E-04-1.62435E-02-4.10664E-14-3.93050E-15
 -1      2325 2.00059E+01 7.99332E-03 2.58430E-05-1.27796E-02 1.93276E-14 5.21004E-14
 -1      2326 2.00116E+01 1.38782E-02-1.58282E-04-2.19209E-02-7.46018E-14-4.14839E-14
 -1      2327 2.00038E+01 6.74083E-03 2.08420E-04-9.42887E-03 1.98188E-14 2.82465E-15
 -1      2328 2.00013E+01 5.52094E-03 2.06647E-05-6.98155E-03 4.13593E-14-9.86932E-14
 -1      2329 2.00061E+01 9.89361E-03-1.22795E-04-1.33595E-02-2.74052E-14 1.13226E-13
 -1      2330 1.99999E+01 4.56265E-03 1.48220E-04-4.64503E-03 6.40095E-14-5.33700E-14
 -1      2331 1.99985E+01 3.64812E-03 1.65838E-05-2.98085E-03 1.16740E-13-1.30619E-14
 -1      2332 2.00024E+01 6.79500E-03-9.35147E-05-7.25257E-03 7.08393E-14 1.04597E-13
 -1      2333 1.99976E+01 2.93644E-03 1.01467E-04-1.41570E-03 1.06468E-13-6.73373E-14
 -1      2334 1.99969E+01 2.27149E-03 1.32949E-05-3.37392E-04 1.09142E-14-6.51976E-14
 -1      2335 2.00000E+01 4.45783E-03-6.97970E-05-3.04671E-03 1.21067E-13 4.15383E-14
 -1      2336 1.99964E+01 1.75875E-03 6.62004E-05 6.57324E-04-4.70436E-14 2.64837E-14
 -1      2337 1.99961E+01 1.29084E-03 1.06073E-05 1.31010E-03-7.76845E-14-7.52464E-14
 -1      2338 1.99985E+01 2.74715E-03-5.09355E-05-2.72670E-04-3.23792E-14 2.27998E-14
 -1      2339 1.99958E+01 9.33386E-04 4.03595E-05 1.89506E-03 1.38282E-13 1.83422E-14
 -1      2340 1.99959E+01 6.16193E-04 8.38436E-06 2.24833E-03 2.21798E-13 1.21197E-13
 -1      2341 1.99978E+01 1.53397E-03-3.62071E-05 1.45262E-03 1.31844E-13 1.84526E-13
 -1      2342 1.99958E+01 3.76190E-04 2.20043E-05 2.54814E-03 8.60877E-14 2.87349E-13
 -1      2343 1.99960E+01 1.70564E-04 6.50839E-06 2.69790E-03-3.93510E-14 4.79214E-13
 -1      2344 1.99974E+01 7.03410E-04-2.49137E-05 2.43195E-03 1.91597E-13 4.67966E-13
 -1      2345 1.99961E+01 1.63706E-05 9.42874E-06 2.80624E-03-1.64436E-13 5.59170E-13
 -1      2346 1.99964E+01-1.09867E-04 4.85926E-06 2.82317E-03-7.67417E-14 4.99487E-13
 -1      2347 1.99974E+01 1.57686E-04-1.64150E-05 2.89752E-03-4.27347E-14 5.99792E-13
 -1      2348 1.99965E+01-2.04172E-04 1.20581E-06 2.80806E-03-2.60032E-14 3.80036E-13
 -1      2349 1.99969E+01-2.77094E-04 3.31258E-06 2.74200E-03 8.99912E-14 3.61454E-13
 -1      2350 1.99976E+01-1.84104E-04-1.01526E-05 3.02181E-03-1.47930E-13 6.27832E-13
 -1      2351 1.99971E+01-3.32577E-04-3.80037E-06 2.65054E-03 1.62278E-13 2.21412E-13
 -1      2352 1.99975E+01-3.73263E-04 1.75920E-06 2.53442E-03 1.28821E-13 2.33962E-13
 -1      2353 1.99979E+01-3.87810E-04-5.64720E-06 2.92803E-03-5.53058E-14 4.15034E-13
 -1      2354 1.99976E+01-4.07083E-04-6.44908E-06 2.39696E-03-2.41963E-14 8.26205E-14
 -1      2355 1.99980E+01-4.32781E-04 1.06707E-07 2.25016E-03-6.97027E-14 1.13364E-13
 -1      2356 1.99982E+01-5.06762E-04-2.49667E-06 2.69956E-03-9.05350E-14 5.65839E-14
 -1      2357 1.99982E+01-4.60288E-04-7.78709E-06 2.08376E-03 1.21398E-13 7.72556E-14
 -1      2358 1.99985E+01-4.83538E-04-1.43326E-06 1.91396E-03 8.47741E-14 3.62133E-14
 -1      2359 1.99985E+01-5.84568E-04-5.84189E-07 2.38832E-03-2.63882E-14 6.77904E-14
 -1      2360 1.99986E+01-5.13799E-04-7.56753E-06 1.72675E-03 1.15925E-13 1.53048E-13
 -1      2361 1.99989E+01-5.45966E-04-4.16766E-06 1.53655E-03 1.95881E-13 2.52210E-13
 -1      2362 1.99989E+01-6.53635E-04 1.68302E-06 2.01975E-03 1.31025E-13 1.77041E-13
 -1      2363 2.41118E+01-3.45316E-01-2.09953E-04-2.68463E+00-7.80695E-14 2.01870E-13
 -1      2364 2.35040E+01 1.09737E-01 2.37297E-02-2.71355E+00-4.30012E-14 1.85588E-13
 -1      2365 2.54886E+01-1.61076E+00-7.05521E-03-2.18807E+00-1.28186E-13 2.01435E-13
 -1      2366 2.47591E+01-8.96311E-01 4.89773E-02-2.65775E+00-9.58227E-14 1.97651E-13
 -1      2367 2.27757E+01-8.23816E-01-3.54791E-02-3.24734E+00-8.38288E-14 5.56569E-14
 -1      2368 2.75473E+01-3.06427E+00-2.59502E-02-5.94971E-01-1.36016E-13 2.18857E-13
 -1      2369 2.67515E+01-2.42554E+00 5.77834E-02-1.62609E+00-1.85151E-13 2.00421E-13
 -1      2370 2.44928E+01-2.63433E+00-4.71936E-02-2.86114E+00-1.53561E-13 4.56787E-14
 -1      2371 3.00418E+01-2.68437E+00-6.22990E-02 2.20217E+00-8.77224E-14 3.90167E-13
 -1      2372 2.94899E+01-3.20457E+00-8.15555E-03 9.70505E-01-1.29449E-13 3.34496E-13
 -1      2373 3.30635E+01 5.28205E+00-1.84496E-01 9.42774E-01 5.81535E-13 1.25400E-13
 -1      2374 3.31467E+01 3.75086E+00-2.15999E-01 2.63872E+00 4.14224E-13 2.75877E-13
 -1      2375 3.33215E+01 4.41814E+00-1.78589E-01-2.33907E+00 5.00822E-13-2.27041E-14
 -1      2376 3.32168E+01 5.45149E+00-1.57426E-01-7.17111E-01 5.45231E-13 9.50212E-14
 -1      2377 3.19588E+01 3.03621E-01-2.17192E-01-4.06932E+00 3.90243E-13-1.08025E-13
 -1      2378 3.16195E+01 2.36953E+00-1.47048E-01-3.61351E+00 4.63962E-13-8.79991E-14
 -1      2379 3.08430E+01-3.29800E+00-9.71384E-03-2.00083E+00 2.16820E-13-1.49936E-13
 -1      2380 3.12268E+01-1.92993E+00-7.17807E-02-2.97954E+00 3.15470E-13-8.99836E-14
 -1      2381 2.79644E+01-3.08572E+00 9.64747E-02 7.31993E-01-3.57474E-14-9.95072E-14
 -1      2382 2.86627E+01-3.51422E+00-3.63744E-02-4.45859E-01 1.33248E-13-8.79730E-14
 -1      2383 2.88995E+01-4.65328E+00-1.11815E-01 4.05960E-01 1.59497E-13-7.92422E-14
 -1      2384 2.55142E+01-1.58046E+00 6.39677E-02 2.38644E+00-2.35541E-13-9.51598E-14
 -1      2385 2.63301E+01-2.34298E+00 1.48777E-03 1.65982E+00-1.54196E-13-8.88660E-14
 -1      2386 2.52866E+01-3.70272E+00-6.33113E-02 2.58939E+00-9.80674E-14-1.10224E-13
 -1      2387 2.39355E+01-3.49289E-01 2.34898E-02 2.83853E+00-1.80675E-13 6.55422E-14
 -1      2388 2.46470E+01-8.48368E-01 1.80245E-02 2.59262E+00-2.25306E-13-1.95260E-14
 -1      2389 2.29763E+01-1.56735E+00-3.47215E-02 3.31454E+00-2.48607E-13-2.47719E-15
 -1      2390 2.29553E+01 2.77311E-01-6.77854E-05 2.67649E+00-1.94645E-13 1.73856E-13
 -1      2391 2.35365E+01 5.22324E-02 1.25205E-02 2.72235E+00-1.62639E-13 1.66435E-13
 -1      2392 2.19186E+01-1.66230E-01-2.02237E-02 3.25961E+00-2.57808E-13 1.79277E-13
 -1      2393 2.22745E+01 4.94915E-01-6.62481E-03 2.23976E+00-1.33342E-13 2.13303E-13
 -1      2394 2.27685E+01 4.39745E-01 1.24120E-02 2.42122E+00-2.12231E-13 1.88946E-13
 -1      2395 2.14288E+01 5.21913E-01-3.92303E-03 2.84511E+00-2.05852E-13 2.85332E-13
 -1      2396 2.17976E+01 4.94279E-01-5.87218E-03 1.77876E+00 1.35357E-13 2.48820E-13
 -1      2397 2.21825E+01 5.18671E-01 1.33367E-02 1.97729E+00-3.05931E-14 2.03704E-13
 -1      2398 2.11777E+01 7.17998E-01 2.74469E-03 2.32343E+00-9.91000E-14 2.57826E-13
 -1      2399 2.14129E+01 4.19244E-01-4.14896E-03 1.36555E+00 9.82118E-14 2.17004E-13
 -1      2400 2.17229E+01 4.67405E-01 1.29161E-02 1.54542E+00 1.71342E-13 2.57533E-13
 -1      2401 2.10043E+01 6.80890E-01 4.31539E-03 1.83409E+00 1.48636E-13 1.39667E-13
 -1      2402 2.10977E+01 3.29623E-01-2.53162E-03 1.02618E+00-1.50873E-14 1.16339E-13
 -1      2403 2.13428E+01 3.78454E-01 1.13982E-02 1.17340E+00 6.35898E-14 2.08735E-13
 -1      2404 2.08472E+01 5.66062E-01 3.35983E-03 1.41164E+00 1.28663E-13 2.92975E-13
 -1      2405 2.08408E+01 2.49186E-01-1.36933E-03 7.60660E-01-1.88520E-13 5.61111E-14
 -1      2406 2.10311E+01 2.90592E-01 9.44405E-03 8.75009E-01-1.37629E-13 4.28065E-15
 -1      2407 2.06985E+01 4.41229E-01 1.92081E-03 1.06782E+00-3.63069E-14 1.12281E-13
 -1      2408 2.06339E+01 1.84263E-01-8.39975E-04 5.58518E-01-1.03390E-13 3.45013E-14
 -1      2409 2.07800E+01 2.16948E-01 7.49136E-03 6.44883E-01-1.47699E-13 7.94222E-14
 -1      2410 2.05616E+01 3.32397E-01 7.53854E-04 7.97925E-01-1.64962E-13-1.14566E-13
 -1      2411 2.04636E+01 1.32815E-01-3.60052E-04 4.00654E-01 1.78386E-13-1.63427E-13
 -1      2412 2.05777E+01 1.58073E-01 5.73027E-03 4.67287E-01 1.97444E-14-8.92895E-14
 -1      2413 2.04386E+01 2.44662E-01 3.03565E-04 5.86700E-01 6.24202E-14-1.87153E-13
 -1      2414 2.03391E+01 9.69634E-02 4.35558E-05 2.90035E-01 1.76102E-13 5.72547E-14
 -1      2415 2.04200E+01 1.14738E-01 4.33442E-03 3.36554E-01 1.55691E-13-6.35493E-14
 -1      2416 2.03342E+01 1.77175E-01-4.62393E-04 4.27211E-01 6.31713E-14-2.50327E-13
 -1      2417 2.02434E+01 7.04642E-02 1.53987E-04 2.08323E-01 6.85541E-16 1.29770E-13
 -1      2418 2.03032E+01 8.34657E-02 3.24430E-03 2.42453E-01 1.47085E-13 2.02079E-13
 -1      2419 2.02512E+01 1.29125E-01-6.39159E-04 3.11275E-01 6.07837E-14 7.03971E-14
 -1      2420 2.01711E+01 5.11042E-02 1.99734E-04 1.48232E-01-3.02536E-14 1.46751E-13
 -1      2421 2.02149E+01 6.05856E-02 2.41525E-03 1.73181E-01-9.85309E-14 1.28923E-13
 -1      2422 2.01850E+01 9.38340E-02-6.68919E-04 2.24868E-01-1.19248E-14 2.03651E-13
 -1      2423 2.01174E+01 3.69557E-02 2.04561E-04 1.04198E-01 9.88424E-15 1.72719E-13
 -1      2424 2.01490E+01 4.38741E-02 1.78825E-03 1.22379E-01-1.44931E-15 1.21213E-13
 -1      2425 2.01333E+01 6.80212E-02-6.23762E-04 1.60771E-01 1.20758E-14 1.28605E-13
 -1      2426 2.00779E+01 2.65636E-02 1.59826E-04 7.20632E-02 5.15493E-14 6.19679E-14
 -1      2427 2.01006E+01 3.16709E-02 1.32120E-03 8.52725E-02 6.65900E-14 2.02384E-13
 -1      2428 2.00937E+01 4.91351E-02-5.47032E-04 1.13455E-01 5.04573E-14 5.83545E-14
 -1      2429 2.00484E+01 1.86489E-02 1.40165E-04 4.77989E-02-1.08854E-13 1.79906E-13
 -1      2430 2.00648E+01 2.24749E-02 9.55918E-04 5.76834E-02-3.33332E-14 9.99124E-14
 -1      2431 2.00634E+01 3.51754E-02-4.01488E-04 7.80814E-02-2.11160E-14 1.05317E-13
 -1      2432 2.00287E+01 1.32202E-02 1.37334E-04 3.13598E-02-4.91242E-14 2.94785E-13
 -1      2433 2.00395E+01 1.58831E-02 6.90960E-04 3.80403E-02-3.77431E-14 2.31469E-13
 -1      2434 2.00412E+01 2.47455E-02-3.69682E-04 5.23575E-02-9.86542E-14 1.72068E-13
 -1      2435 2.00152E+01 9.21262E-03 1.11679E-04 1.96752E-02 1.52715E-13 2.00721E-13
 -1      2436 2.00224E+01 1.11408E-02 4.92627E-04 2.43914E-02-9.26963E-15 2.06066E-13
 -1      2437 2.00257E+01 1.74479E-02-2.92354E-04 3.43940E-02 8.78405E-14-1.35942E-14
 -1      2438 2.00061E+01 6.29264E-03 8.90042E-05 1.15089E-02 1.55101E-13 1.09186E-13
 -1      2439 2.00107E+01 7.68671E-03 3.48924E-04 1.47810E-02 3.47323E-13 2.36722E-13
 -1      2440 2.00147E+01 1.21046E-02-2.27188E-04 2.16040E-02 2.62502E-13 9.73254E-15
 -1      2441 2.00003E+01 4.18055E-03 6.91879E-05 5.91945E-03 1.58800E-13-1.25735E-13
 -1      2442 2.00031E+01 5.17947E-03 2.42991E-04 8.13928E-03 1.17848E-13-7.39267E-14
 -1      2443 2.00072E+01 8.21899E-03-1.73398E-04 1.26441E-02 1.65362E-13-1.22988E-13
 -1      2444 1.99968E+01 2.66562E-03 5.00456E-05 2.19819E-03 3.21137E-14-3.66311E-13
 -1      2445 1.99984E+01 3.38049E-03 1.66632E-04 3.66176E-03 1.23019E-13-1.58590E-13
 -1      2446 2.00023E+01 5.41433E-03-1.30551E-04 6.50123E-03 1.84998E-13-1.97637E-13
 -1      2447 1.99949E+01 1.55784E-03 3.74362E-05-2.70273E-04-3.81775E-14-1.64666E-13
 -1      2448 1.99956E+01 2.06724E-03 1.08900E-04 6.80224E-04-7.39577E-14-2.68248E-13
 -1      2449 1.99991E+01 3.40157E-03-8.93560E-05 2.34174E-03-2.19812E-14-1.73810E-13
 -1      2450 1.99942E+01 8.46640E-04 2.95820E-05-1.65869E-03-2.00337E-13-7.96609E-14
 -1      2451 1.99943E+01 1.17311E-03 6.79998E-05-1.13596E-03-7.33975E-14-8.47210E-14
 -1      2452 1.99973E+01 1.96272E-03-6.83811E-05-3.09962E-04-1.90520E-13-1.75306E-13
 -1      2453 1.99942E+01 3.66271E-04 2.17858E-05-2.41079E-03-1.08116E-13-5.08304E-14
 -1      2454 1.99939E+01 5.76854E-04 3.93222E-05-2.14215E-03-9.73841E-14-6.06976E-14
 -1      2455 1.99965E+01 1.02552E-03-4.80776E-05-1.84623E-03-1.31752E-13-2.82390E-14
 -1      2456 1.99945E+01 5.67888E-05 1.57067E-05-2.73408E-03 1.22625E-13-8.50073E-14
 -1      2457 1.99941E+01 1.87289E-04 2.02454E-05-2.63381E-03-1.61011E-13-4.59274E-14
 -1      2458 1.99962E+01 4.01837E-04-3.30289E-05-2.67664E-03-9.43884E-14 8.65978E-14
 -1      2459 1.99952E+01-1.32633E-04 1.09222E-05-2.78051E-03 7.88689E-14-3.87142E-14
 -1      2460 1.99947E+01-5.73421E-05 7.51343E-06-2.78730E-03 2.05555E-13-1.44106E-14
 -1      2461 1.99963E+01 4.26523E-06-2.19097E-05-3.03379E-03 6.65531E-14 3.13417E-14
 -1      2462 1.99959E+01-2.41252E-04 7.39011E-06-2.65655E-03 1.37450E-14-1.25464E-13
 -1      2463 1.99954E+01-2.01485E-04-5.00201E-07-2.72756E-03 1.26606E-13 3.75840E-14
 -1      2464 1.99966E+01-2.36332E-04-1.38509E-05-3.08441E-03 3.02066E-14 1.00559E-13
 -1      2465 1.99967E+01-3.01886E-04 4.24381E-06-2.41891E-03-1.33559E-13-1.17044E-13
 -1      2466 1.99961E+01-2.82524E-04-5.39724E-06-2.53383E-03-4.68184E-14-1.69413E-13
 -1      2467 1.99971E+01-3.73205E-04-8.27011E-06-2.93866E-03 3.77763E-14 1.77421E-13
 -1      2468 1.99974E+01-3.33918E-04 1.23744E-06-2.13399E-03-4.09231E-14-2.36162E-14
 -1      2469 1.99969E+01-3.25273E-04-8.38965E-06-2.26566E-03-2.26384E-13-1.23170E-13
 -1      2470 1.99976E+01-4.48087E-04-3.74465E-06-2.67616E-03-9.81447E-14 8.66351E-14
 -1      2471 1.99981E+01-3.62697E-04-1.41767E-06-1.81377E-03-7.44036E-14 2.82744E-14
 -1      2472 1.99977E+01-3.53156E-04-9.69415E-06-1.96101E-03-2.77213E-14 1.99832E-14
 -1      2473 1.99981E+01-4.91331E-04-1.03616E-06-2.35281E-03-9.87463E-14 6.18174E-14
 -1      2474 1.99987E+01-4.03155E-04-1.64195E-06-1.46203E-03 1.98766E-14-5.81276E-14
 -1      2475 1.99983E+01-3.84528E-04-8.92170E-06-1.62501E-03-1.10973E-14-1.86789E-15
 -1      2476 1.99986E+01-5.34366E-04 7.24616E-07-1.98768E-03-1.04972E-14-2.58903E-14
 -1      2477 1.99993E+01-4.66745E-04-6.45619E-06-8.33705E-04-9.40592E-15 8.60956E-14
 -1      2478 2.00002E+01-2.20096E-03 8.66644E-06-1.16554E-03 3.00931E-13-3.23807E-13
 -1      2479 2.00001E+01-2.00443E-03-6.90908E-07-1.28459E-03 2.73941E-13-6.25426E-13
 -1      2480 2.00003E+01-2.49650E-03 8.88454E-06-8.07855E-04 3.72420E-13 1.94326E-13
 -1      2481 2.00003E+01-2.35395E-03 2.54999E-06-9.86306E-04 3.37476E-13 2.91367E-14
 -1      2482 2.00003E+01-2.13645E-03-5.48998E-06-1.21923E-03 4.07293E-13-1.55610E-13
 -1      2483 1.99997E+01-1.35218E-03 7.00465E-06-1.42843E-03-4.87721E-14 7.96229E-15
 -1      2484 1.99996E+01-1.11379E-03-8.48972E-06-1.38184E-03-3.59095E-14-1.47623E-14
 -1      2485 2.00000E+01-1.80674E-03 7.47975E-06-1.38590E-03 8.34500E-14-1.77675E-13
 -1      2486 1.99998E+01-1.58175E-03-4.91109E-06-1.42500E-03-5.35753E-14 3.98920E-15
 -1      2487 1.99998E+01-1.38996E-03-1.75702E-06-1.63750E-03 1.53971E-13 9.55124E-14
 -1      2488 2.00001E+01-1.79996E-03-3.51625E-06-1.51856E-03 2.94837E-13-1.94603E-13
 -1      2489 2.00004E+01-2.66562E-03 8.40669E-06-3.61269E-04-3.23617E-14-2.18078E-13
 -1      2490 2.00004E+01-2.59149E-03 5.36430E-06-5.75629E-04 1.59341E-13-1.59090E-13
 -1      2491 2.00005E+01-2.37459E-03-6.49959E-06-7.82048E-04 2.47710E-13-2.65992E-13
 -1      2492 2.00004E+01-2.69412E-03 7.19929E-06 1.23149E-04-2.15083E-14 7.13901E-14
 -1      2493 2.00004E+01-2.69607E-03 7.39138E-06-1.02668E-04-5.87169E-14 1.84322E-13
 -1      2494 2.00006E+01-2.49534E-03-6.99661E-06-2.61513E-04 8.94506E-14-7.09358E-14
 -1      2495 2.00004E+01-2.58037E-03 5.23321E-06 5.93154E-04-1.55275E-13-2.43330E-13
 -1      2496 2.00004E+01-2.65817E-03 8.48554E-06 3.80619E-04-5.78100E-14-2.56115E-13
 -1      2497 2.00006E+01-2.48992E-03-6.85431E-06 2.85556E-04 3.77211E-14-1.58149E-13
 -1      2498 2.00002E+01-2.34104E-03 2.40404E-06 9.91592E-04-2.42137E-13-4.51038E-13
 -1      2499 2.00003E+01-2.48321E-03 8.77777E-06 8.18723E-04-1.71821E-13-2.02913E-13
 -1      2500 2.00005E+01-2.36122E-03-6.42404E-06 7.97487E-04-7.45915E-14-2.73085E-13
 -1      2501 2.00001E+01-1.99083E-03-1.40195E-06 1.28483E-03 2.41376E-14-1.41182E-13
 -1      2502 2.00002E+01-2.18676E-03 8.51146E-06 1.16790E-03-1.35866E-13-4.67393E-13
 -1      2503 2.00003E+01-2.11987E-03-5.41323E-06 1.22386E-03-2.38471E-13-3.52933E-13
 -1      2504 1.99998E+01-1.56178E-03-5.00189E-06 1.41635E-03 2.72214E-13 2.10835E-13
 -1      2505 2.00000E+01-1.78876E-03 7.10498E-06 1.38242E-03 1.31276E-13 9.77357E-14
 -1      2506 2.00001E+01-1.77957E-03-4.77904E-06 1.51885E-03 3.50245E-14 5.15467E-14
 -1      2507 1.99996E+01-1.09199E-03-6.79973E-06 1.36616E-03 1.33401E-13 1.90540E-13
 -1      2508 1.99997E+01-1.33524E-03 5.11821E-06 1.42444E-03 1.31963E-13 1.23474E-13
 -1      2509 1.99998E+01-1.36768E-03 2.53664E-06 1.62144E-03 6.90815E-14 1.58428E-13
 -1      2510 4.28016E+00-2.34462E+00 1.12233E-01 1.92140E+00-1.85421E-13 5.80869E-13
 -1      2511 3.15635E+00-2.52504E+00 1.14578E-01-4.44230E-01-1.97838E-13 6.59361E-13
 -1      2512 1.88657E+01-6.10292E+00-2.55869E-02 6.11983E+00-8.76521E-14 1.69469E-13
 -1      2513 1.47652E+01-5.74788E+00-3.98333E-03 6.15037E+00-1.23956E-13 3.59601E-13
 -1      2514 2.32375E+01 3.94471E-01 9.11929E-03-2.45929E+00-2.92881E-15 1.97886E-13
 -1      2515 2.28140E+01 5.97879E-01 1.45832E-02-2.23808E+00 5.23388E-14 2.18499E-13
 -1      2516 2.17332E+01 9.20126E-01-7.88888E-03-2.22459E+00 9.37434E-14 1.44561E-13
 -1      2517 1.99994E+01-7.14392E-04-4.86302E-06 1.01723E-03 1.81809E-13 3.96900E-13
 -1      2518 3.35838E+00-2.80079E+00 8.72172E-02-2.71063E+00-1.80835E-13 4.22606E-13
 -1      2519 4.87933E+00-3.32536E+00 5.96232E-02-5.01017E+00-1.66367E-13 4.20941E-13
 -1      2520 1.08034E+01-4.46241E+00 8.03627E-02 5.97114E+00-1.16018E-13 4.86972E-13
 -1      2521 7.26565E+00-3.29014E+00 1.22659E-01 4.41273E+00-2.14412E-13 5.69433E-13
 -1      2522 2.14364E+01 1.76098E+00-1.47323E-02-1.69073E+00-1.32241E-13-1.30857E-13
 -1      2523 2.13442E+01 9.77055E-01-1.33275E-02-1.17150E+00-1.26998E-13-1.06244E-13
 -1      2524 2.13087E+01 1.06822E+00 9.84243E-03-1.13502E+00-1.12878E-13-1.19605E-13
 -1      2525 2.11057E+01 2.15588E+00-2.35744E-03-1.58869E+00-1.14101E-13-1.66128E-13
 -1      2526 7.57840E+00-4.32516E+00 5.59142E-02-6.46446E+00-1.03112E-13 4.54137E-13
 -1      2527 1.12301E+01-4.69704E+00-3.09588E-04-7.68228E+00-1.29896E-13 3.96461E-13
 -1      2528 3.33562E+01 8.02437E+00-1.60680E-01-3.68274E-01-5.97244E-13 1.40107E-13
 -1      2529 3.35695E+01 7.17276E+00-1.11424E-01-6.20418E-01-5.67102E-13 1.94622E-13
 -1      2530 2.17542E+01-4.97682E+00-5.02364E-02 6.69915E+00-1.31284E-14 3.18981E-14
 -1      2531 1.73266E+01-5.17653E+00 4.99853E-02 7.30055E+00 5.16254E-14-1.50701E-13
 -1      2532 1.84738E+01 3.56449E+00-1.30768E-02 6.56949E-01 1.50550E-13-1.69236E-13
 -1      2533 1.87956E+01 3.45409E+00 8.11537E-04 4.69993E-01 1.21734E-13-1.71816E-13
 -1      2534 1.91340E+01 2.91148E+00-8.56791E-03 4.84401E-01 1.00287E-13-1.53183E-13
 -1      2535 1.84502E+01 3.27297E+00-7.00421E-03 8.75562E-01 1.54270E-13-1.62994E-13
 -1      2536 3.31295E+01 1.91321E+00-1.50602E-01 3.33977E+00 2.40807E-13 3.06200E-13
 -1      2537 1.88719E+01-6.17725E+00-1.72912E-03-5.92908E+00-1.86018E-13-3.78846E-13
 -1      2538 2.28651E+01-6.10861E+00-7.60491E-02-5.44520E+00-2.06890E-13-3.46848E-13
 -1      2539 3.35080E+01-1.82941E+00-2.91773E-02 1.50838E+00 1.62509E-14 1.51101E-13
 -1      2540 3.44549E+01 3.49879E-02-1.81725E-01 2.38236E+00 1.45939E-13 1.66755E-13
 -1      2541 3.34505E+01 5.42398E+00-1.40145E-01-6.44518E-01-5.35905E-13 2.85549E-13
 -1      2542 3.25357E+01 3.57732E+00-9.70274E-02-4.45429E-01-4.43479E-13 2.73392E-13
 -1      2543 1.10857E+01-5.14868E+00 1.21459E-02-6.05510E+00-9.82547E-14-4.31155E-13
 -1      2544 1.50166E+01-5.67301E+00-6.65420E-03-6.62089E+00-1.13576E-13-4.27880E-13
 -1      2545 1.85103E+01-5.43473E+00 1.18578E-01-6.02596E+00-1.90403E-13-3.35718E-13
 -1      2546 4.62396E+00-3.11194E+00 8.53682E-02-2.95317E+00 1.60705E-14-3.73424E-13
 -1      2547 7.42228E+00-3.78356E+00 5.89233E-02-5.10171E+00-1.16573E-15-4.18887E-13
 -1      2548 2.74608E+00-2.60715E+00 5.32510E-02 1.66822E+00 8.63754E-14-3.69205E-13
 -1      2549 2.84204E+00-2.83816E+00 6.42721E-02-7.45123E-01 7.68968E-14-3.73479E-13
 -1      2550 6.91568E+00-3.09897E+00 1.07589E-01 6.07718E+00 9.77274E-14-3.28182E-13
 -1      2551 4.83118E+00-2.47032E+00 1.53260E-01 4.06213E+00 1.51670E-13-3.62821E-13
 -1      2552 1.32822E+01-4.53827E+00 4.27254E-02 7.82518E+00 3.98570E-14-2.80845E-13
 -1      2553 9.63009E+00-4.26717E+00 4.63103E-02 6.97913E+00 8.37941E-14-3.03285E-13
 -1      2554 1.03014E+01-2.66902E+00 1.19243E-01 6.49458E+00 2.05530E-13-3.07920E-13
 -1      2555 1.69561E+01-4.49817E+00 1.31535E-01 7.31947E+00 1.71863E-13-1.34691E-13
 -1      2556 2.81842E+01-3.15199E+00-7.56295E-02 3.79302E+00-2.13135E-13 1.64063E-13
 -1      2557 2.56825E+01-4.19500E+00 3.26429E-02 4.66918E+00-1.08302E-13 1.45189E-13
 -1      2558 2.97939E+01-1.52313E+00-2.10387E-02-1.52628E+00-6.50539E-14 6.13953E-14
 -1      2559 3.13680E+01 3.60089E-01-1.43302E-01-6.42697E-01-6.49272E-14 6.91391E-14
 -1      2560 3.19855E+01 9.18623E-01-1.39675E-01 6.89527E-01-3.48110E-13 2.74392E-13
 -1      2561 3.00660E+01-1.20893E+00-4.72864E-02 1.99151E+00-3.01030E-13 2.21045E-13
 -1      2562 2.92070E+01-2.42642E+00 5.95575E-03 1.65388E+00-1.52239E-13 3.28210E-13
 -1      2563 3.34641E+01 7.40335E+00-1.15711E-01 5.86964E-01-4.94382E-13 2.09555E-14
 -1      2564 3.34627E+01 8.06616E+00-1.51243E-01 2.40863E-01-5.90528E-13 3.96731E-14
 -1      2565 3.21165E+01 3.08681E+00-1.18737E-01 3.67323E-01-1.65451E-13 7.32747E-14
 -1      2566 3.31155E+01 5.39928E+00-1.49645E-01 7.28806E-01-3.33372E-13 7.85483E-15
 -1      2567 3.04524E+01 1.34232E+00-5.83499E-02 9.84841E-01-5.20695E-14-1.03195E-13
 -1      2568 2.38491E+01-4.75750E+00 5.56597E-02-5.56504E+00 3.76643E-14 2.58515E-13
 -1      2569 2.73772E+01-3.67460E+00-1.35575E-01-4.04239E+00-6.64468E-14 2.16271E-13
 -1      2570 1.56108E+01-5.26284E+00 6.00741E-02-7.50722E+00 1.88738E-15 2.90268E-13
 -1      2571 1.95628E+01-5.20513E+00-6.73308E-02-7.32131E+00 6.49480E-15 2.71252E-13
 -1      2572 3.55944E+01 2.16292E+00-2.62191E-01-3.06452E+00 4.94105E-13-9.73110E-14
 -1      2573 3.47733E+01 4.73742E-01 6.37976E-02-2.19345E+00 4.61270E-13-1.34615E-13
 -1      2574 2.25821E+01 1.17482E+00 7.14185E-03-1.52912E-01 2.02203E-13 3.26367E-13
 -1      2575 2.26855E+01 1.48188E+00-1.03403E-03 4.80593E-01 2.11817E-13 3.75954E-13
 -1      2576 2.21561E+01 2.00521E+00-9.35156E-03 5.94952E-01 2.34845E-13 3.10724E-13
 -1      2577 2.19031E+01 1.54926E+00-2.05985E-03-3.96905E-01 2.06207E-13 2.35083E-13
 -1      2578 2.68773E+01-5.91449E+00-7.52548E-02 3.51208E+00 1.50879E-13-1.18044E-13
 -1      2579 2.26336E+01-6.32788E+00-1.89133E-02 4.67564E+00 4.88498E-14-4.75731E-14
 -1      2580 2.21528E+01-5.85409E+00 7.26846E-02 4.84677E+00-8.88734E-14-8.50015E-16
 -1      2581 3.17616E+01 4.97692E-01-3.87332E-02 3.56885E+00 1.04305E-13 4.00791E-13
 -1      2582 2.03019E+01 2.34159E+00-5.09786E-03-5.42682E-01 3.58004E-16-2.00027E-13
 -1      2583 2.01916E+01 2.78783E+00-1.41296E-02-7.81420E-01-7.85125E-15-2.13771E-13
 -1      2584 2.04416E+01 2.65961E+00-1.64136E-02-1.03988E+00-3.48428E-14-2.20683E-13
 -1      2585 1.99992E+01-5.92371E-04-7.72995E-06 1.20010E-03 2.83530E-13 4.35345E-13
 -1      2586 1.99994E+01-8.81593E-04 3.25685E-06 1.32909E-03 3.05936E-13 4.13518E-13
 -1      2587 1.99994E+01-9.49324E-04-2.18205E-06 1.57739E-03 2.08920E-13 4.79582E-13
 -1      2588 1.99990E+01-5.70488E-04-9.05453E-06 1.39364E-03 2.10491E-13 3.24181E-13
 -1      2589 2.13116E+01 2.53320E+00-1.90098E-02 5.27546E-01 2.54207E-13 2.14714E-13
 -1      2590 2.88053E+01-5.32735E+00 2.24057E-02 1.56157E+00 1.77525E-13-1.40055E-13
 -1      2591 8.13337E+00-2.74034E+00 1.49001E-01-5.80689E+00-4.21330E-14 4.20886E-13
 -1      2592 1.99991E+01-7.16890E-04 3.36950E-06 1.67233E-03 1.67081E-13 5.20792E-13
 -1      2593 2.09281E+01 2.43357E+00 8.11833E-03 1.09340E-01 2.41341E-13 1.75136E-13
 -1      2594 2.78775E+01-4.01421E+00-1.84603E-02-8.05305E-01-1.81050E-13 1.49328E-13
 -1      2595 3.15190E+01-1.64493E+00-9.06675E-02 3.36164E+00-3.69010E-14 4.20108E-13
 -1      2596 3.13234E+01-2.91630E+00-1.10673E-01 1.95083E+00-8.90399E-14 2.83051E-13
 -1      2597 2.62811E+01-5.85226E+00 2.91312E-02-3.49062E+00-2.72421E-13-1.65090E-13
 -1      2598 1.99993E+01-6.23680E-04-3.12512E-06-1.06920E-03-6.45671E-14-1.70985E-13
 -1      2599 1.99991E+01-4.33847E-04-3.87356E-06-1.01337E-03-1.15638E-13 2.99691E-15
 -1      2600 1.99989E+01-4.10582E-04-7.95853E-06-1.19124E-03-4.77858E-14 3.73537E-14
 -1      2601 1.99994E+01-8.09425E-04 4.35705E-07-1.19635E-03-8.95480E-14-3.26560E-13
 -1      2602 1.99990E+01-5.73981E-04-4.00636E-06-1.52883E-03-3.46882E-14-5.70847E-14
 -1      2603 1.99994E+01-8.82763E-04-4.79835E-07-1.46573E-03-2.33525E-14-1.45433E-13
 -1      2604 1.48409E+01-4.54145E+00 1.17090E-01-7.52494E+00 2.97817E-14 2.29081E-13
 -1      2605 5.19421E+00-1.30237E+00 1.74980E-01-1.73860E+00-1.28671E-13 5.41234E-13
 -1      2606 7.00988E+00-2.01127E+00 1.84524E-01 3.32973E+00-2.26416E-13 5.46951E-13
 -1      2607 7.30154E+00-6.42221E-01 1.77867E-01 2.14983E+00-1.98813E-13 5.11646E-13
 -1      2608 9.98809E+00-1.63207E+00 1.18246E-01 4.29616E+00-2.95708E-13 4.65433E-13
 -1      2609 1.45996E+01-4.35312E+00 1.28056E-01 5.84947E+00-2.33258E-13 3.43975E-13
 -1      2610 3.11209E+01 1.81805E+00-4.24118E-02-7.84799E-01-3.36411E-13 3.81306E-13
 -1      2611 3.13000E+01 7.77860E+00-9.07597E-02-6.57782E-02-5.29021E-13 4.85011E-14
 -1      2612 3.12674E+01 6.00484E+00-6.63020E-02-1.32355E+00-4.83336E-13 2.89588E-13
 -1      2613 2.41902E+01-4.82489E+00 4.98551E-02 5.22680E+00 5.05151E-14 1.62259E-13
 -1      2614 2.08348E+01 2.32630E+00-1.31532E-02-1.37039E+00-8.58514E-14-1.97030E-13
 -1      2615 2.20017E+01 3.44351E-01-1.75613E-02-2.91746E+00-9.98897E-15 1.10389E-13
 -1      2616 5.62993E+00-1.27686E+00 1.53583E-01 2.99470E+00 1.79495E-13-3.58269E-13
 -1      2617 3.58202E+01 4.34398E+00-7.75037E-04-2.65753E+00 5.24136E-13-9.60343E-14
 -1      2618 1.09969E+01-3.52714E+00 1.23691E-01-5.53457E+00-7.96585E-14-3.86913E-13
 -1      2619 3.19326E+01-3.25845E+00-1.53837E-02 7.69724E-01-8.54421E-14 1.58318E-13
 -1      2620 5.61713E+00-1.61516E+00 1.54648E-01-2.03393E+00 7.78544E-14-3.67484E-13
 -1      2621 2.83251E+01-3.04764E+00 1.17804E-02-2.07016E+00 2.95389E-14-2.55351E-14
 -1      2622 3.11660E+01 5.84637E+00-8.41915E-02 1.25227E+00-3.46972E-13-7.21923E-14
 -1      2623 2.26423E+01-5.13146E+00 9.02603E-02-5.91958E+00 1.42442E-13 1.39118E-13
 -1      2624 2.07688E+01 2.23970E+00-5.27435E-04-3.38942E-01 2.18843E-13 1.45924E-13
 -1      2625 1.72084E+01 3.73258E+00-1.78615E-02 1.15579E+00 2.28973E-13-1.28546E-13
 -1      2626 1.73937E+01 3.64194E+00 8.19302E-03 1.22658E+00 2.13845E-13-1.40447E-13
 -1      2627 1.76670E+01 3.38082E+00-1.68849E-02 1.29543E+00 2.01912E-13-1.50984E-13
 -1      2628 1.80218E+01 3.22676E+00 1.10194E-02 1.24780E+00 1.86990E-13-1.50474E-13
 -1      2629 1.75196E+01 3.18667E+00 3.03759E-03 1.43752E+00 2.11122E-13-1.33874E-13
 -1      2630 1.79397E+01 3.63496E+00-8.78753E-03 2.87186E-01 2.50720E-13-2.73616E-14
 -1      2631 1.75129E+01 3.79884E+00-9.90054E-03 4.67466E-01 2.49317E-13-6.26641E-14
 -1      2632 1.92426E+01 3.01291E+00-7.29840E-03-1.30872E-01 2.52956E-13 5.32368E-14
 -1      2633 1.85317E+01 3.35242E+00-1.52766E-02-1.32758E-03 2.46865E-13 1.17853E-14
 -1      2634 1.80942E+01 3.30544E+00 1.63010E-02-9.42222E-02 2.28889E-13-1.05504E-15
 -1      2635 8.33237E+00-1.35794E+00 1.61809E-01-4.90392E+00-4.01623E-14 3.08809E-13
 -1      2636 1.07354E+01-2.53326E+00 8.48974E-02-6.55379E+00 6.02296E-14 3.59768E-13
 -1      2637 1.99993E+01-8.84403E-04-5.25225E-06 1.87148E-03 3.44195E-13 3.00404E-13
 -1      2638 1.99994E+01-9.16561E-04-2.17846E-06 1.72079E-03 3.64347E-13 5.10707E-13
 -1      2639 1.99995E+01-1.11127E-03-5.21479E-06 1.77094E-03 2.11474E-13 3.20480E-13
 -1      2640 2.13801E+01 4.20926E-02 1.14841E-02-6.65157E-01-8.26585E-14-7.21319E-14
 -1      2641 2.13234E+01-1.55831E-01-9.50132E-03-6.53022E-01-6.02666E-14-8.17259E-14
 -1      2642 2.14160E+01-2.92944E-01 9.03361E-03-7.09680E-01-5.02446E-14-7.50285E-14
 -1      2643 2.13576E+01-3.87156E-01-7.60133E-03-7.78720E-01-3.90298E-14-9.36316E-14
 -1      2644 2.15596E+01-2.54655E-01-1.94728E-03-6.66502E-01-7.11050E-14-4.96630E-14
 -1      2645 2.14159E+01-4.18083E-01 3.29628E-03-9.00703E-01-3.47683E-14-7.27932E-14
 -1      2646 2.13431E+01-3.93483E-01-3.47294E-03-9.99279E-01-4.73880E-14-7.33604E-14
 -1      2647 2.16952E+01-4.77161E-01 1.07073E-03-8.42318E-01-4.41593E-14-6.76126E-14
 -1      2648 2.13346E+01-3.06248E-01-3.45742E-03-1.12825E+00-6.90394E-14-4.77775E-14
 -1      2649 2.12379E+01-1.54801E-01 3.15053E-03-1.19334E+00-8.82594E-14-4.85794E-14
 -1      2650 2.17527E+01-4.18007E-01 5.31962E-03-1.10498E+00-5.74641E-14-4.30053E-14
 -1      2651 2.11415E+01 4.43476E-02-9.35408E-03-1.24897E+00-9.48581E-14-7.16127E-14
 -1      2652 2.10283E+01 2.94527E-01 1.04288E-02-1.21577E+00-9.26028E-14-8.15908E-14
 -1      2653 2.16753E+01-6.11110E-02 7.90461E-03-1.31179E+00-9.83902E-14-3.48985E-14
 -1      2654 2.08644E+01 5.53787E-01-1.12067E-02-1.12022E+00-1.09128E-13-6.59153E-14
 -1      2655 2.07607E+01 8.18833E-01 1.38523E-02-9.48456E-01-1.16221E-13-4.33335E-14
 -1      2656 2.14528E+01 5.21223E-01 5.04326E-03-1.29147E+00-8.77777E-14-3.52012E-14
 -1      2657 2.06046E+01 1.03714E+00-6.79064E-03-6.75288E-01-1.19611E-13-3.43529E-14
 -1      2658 2.05456E+01 1.20169E+00 1.01846E-02-3.82455E-01-1.05365E-13-2.12323E-14
 -1      2659 2.11669E+01 1.13215E+00-2.68765E-03-9.19985E-01-1.07129E-13 3.40380E-14
 -1      2660 2.04847E+01 1.27680E+00 2.36048E-03 6.54693E-03-8.59191E-14-2.54588E-14
 -1      2661 2.04933E+01 1.25838E+00 7.75765E-04 3.41314E-01-4.46219E-14-2.38038E-14
 -1      2662 2.09690E+01 1.50747E+00-9.75501E-03-2.27198E-01-9.74469E-14 1.84854E-14
 -1      2663 2.05632E+01 1.14952E+00 1.09539E-02 7.16338E-01-2.67236E-14-9.98325E-15
 -1      2664 2.06356E+01 9.54416E-01-8.31262E-03 9.88290E-01-9.61850E-15-5.35224E-14
 -1      2665 2.09767E+01 1.46402E+00-8.84019E-03 5.79341E-01-4.07405E-14-3.90588E-14
 -1      2666 2.07868E+01 7.13215E-01 1.34140E-02 1.22491E+00-3.55629E-15-4.98795E-14
 -1      2667 2.08934E+01 4.31649E-01-1.21481E-02 1.36148E+00 1.95549E-14-7.30449E-14
 -1      2668 2.11763E+01 1.01509E+00-7.04417E-04 1.21641E+00-2.14472E-14-1.12764E-13
 -1      2669 2.10335E+01 1.62351E-01 9.17881E-03 1.41065E+00 3.08341E-14-7.36263E-14
 -1      2670 2.11357E+01-9.60207E-02-1.02582E-02 1.40200E+00 2.51404E-14-5.32644E-14
 -1      2671 2.14316E+01 3.61471E-01 7.00004E-03 1.49729E+00 4.24522E-14-2.03427E-14
 -1      2672 2.11971E+01-3.04065E-01 2.16172E-03 1.29707E+00 1.11723E-14-5.46910E-15
 -1      2673 2.12665E+01-4.70173E-01-5.25629E-03 1.18293E+00 3.40579E-14 1.92000E-14
 -1      2674 2.15942E+01-2.45660E-01 9.28399E-03 1.41625E+00 4.72756E-14 4.66216E-14
 -1      2675 2.12351E+01-5.79241E-01-3.54188E-03 9.96929E-01-1.25119E-14-4.18623E-14
 -1      2676 2.12616E+01-6.40456E-01-2.50416E-04 8.33639E-01-6.19367E-14-8.37769E-14
 -1      2677 2.15951E+01-6.42308E-01 6.81789E-03 1.09756E+00-2.24607E-14-3.07283E-14
 -1      2678 2.11629E+01-6.59421E-01-6.30305E-03 6.34441E-01-2.87850E-14-2.71735E-14
 -1      2679 2.11517E+01-6.40435E-01 3.10827E-03 4.68966E-01-3.02258E-14 3.66318E-14
 -1      2680 2.14520E+01-7.94147E-01 2.82631E-03 6.93558E-01-1.79537E-14-2.58984E-14
 -1      2681 2.10223E+01-6.00107E-01-6.59984E-03 2.98470E-01-1.50604E-14 6.27814E-14
 -1      2682 2.09857E+01-5.36700E-01 4.53181E-03 1.59008E-01 1.75646E-14 7.75342E-14
 -1      2683 2.12257E+01-7.56473E-01-4.89836E-04 3.15844E-01-9.92220E-15 4.66741E-14
 -1      2684 2.08552E+01-4.69238E-01-5.52927E-03 3.38239E-02-1.85583E-14 8.45492E-14
 -1      2685 2.08055E+01-3.91717E-01 4.55615E-03-6.85248E-02-3.38268E-14 1.08760E-13
 -1      2686 2.09772E+01-6.12219E-01-2.36156E-03 1.99589E-02-1.65726E-15 1.80643E-13
 -1      2687 2.06910E+01-3.20605E-01-3.99316E-03-1.48263E-01-5.97374E-14 8.12465E-14
 -1      2688 2.06375E+01-2.48211E-01 3.84778E-03-2.13691E-01-1.87199E-14 1.05278E-14
 -1      2689 2.07471E+01-4.32676E-01-2.96173E-03-1.81162E-01-8.38696E-14 1.25715E-13
 -1      2690 2.05454E+01-1.86668E-01-2.51689E-03-2.55686E-01 2.10074E-14-6.78705E-14
 -1      2691 2.04937E+01-1.28573E-01 2.88692E-03-2.90150E-01-3.88721E-14-1.41063E-13
 -1      2692 2.05548E+01-2.63585E-01-2.81196E-03-2.97795E-01-7.39675E-14 3.13059E-14
 -1      2693 2.04238E+01-8.17787E-02-1.31847E-03-3.04347E-01-4.62662E-14-8.91786E-14
 -1      2694 2.03770E+01-4.02531E-02 1.96680E-03-3.15720E-01 1.44574E-15-9.30270E-14
 -1      2695 2.04044E+01-1.26992E-01-2.33652E-03-3.49016E-01-3.01403E-14-9.71118E-14
 -1      2696 2.03260E+01-8.39848E-03-4.43627E-04-3.11440E-01 5.45214E-15-5.92857E-14
 -1      2697 2.02852E+01 1.80955E-02 1.21601E-03-3.07305E-01 3.06580E-14-8.63728E-14
 -1      2698 2.02918E+01-2.87029E-02-1.79609E-03-3.54657E-01 4.21925E-15-6.52636E-14
 -1      2699 2.02490E+01 3.72885E-02 1.38523E-04-2.92097E-01 1.63285E-14-1.03246E-13
 -1      2700 2.02143E+01 5.18663E-02 6.64291E-04-2.78745E-01 7.04546E-15-1.11915E-13
 -1      2701 2.02099E+01 3.45333E-02-1.31863E-03-3.31686E-01-1.04783E-14 3.27167E-15
 -1      2702 2.01889E+01 6.14820E-02 4.86467E-04-2.58174E-01-1.20593E-14-1.55703E-13
 -1      2703 2.01600E+01 6.75044E-02 2.92114E-04-2.40321E-01 3.48102E-14-1.74938E-13
 -1      2704 2.01512E+01 6.97906E-02-9.45264E-04-2.93121E-01-5.86501E-14 2.50600E-14
 -1      2705 2.01424E+01 7.05172E-02 6.61357E-04-2.18179E-01 1.26807E-13-1.88577E-13
 -1      2706 2.01187E+01 7.09342E-02 6.16695E-05-1.99076E-01 1.29599E-13-1.30882E-13
 -1      2707 2.01094E+01 8.48229E-02-6.73484E-04-2.48180E-01 8.30920E-14 3.93685E-14
 -1      2708 2.01065E+01 6.98061E-02 7.16884E-04-1.77743E-01 7.09539E-14-6.44908E-14
 -1      2709 2.00874E+01 6.69230E-02-6.65423E-05-1.59431E-01 6.97925E-14-5.66761E-14
 -1      2710 2.00795E+01 8.64980E-02-4.84065E-04-2.02906E-01 1.39904E-13 1.93531E-14
 -1      2711 2.00788E+01 6.35011E-02 6.96094E-04-1.40239E-01 6.56210E-14-7.05647E-14
 -1      2712 2.00636E+01 5.89728E-02-1.26333E-04-1.23856E-01-6.28680E-15-5.80737E-14
 -1      2713 2.00581E+01 8.02222E-02-3.54925E-04-1.60916E-01 7.19952E-14 3.04133E-14
 -1      2714 2.00576E+01 5.45379E-02 6.31308E-04-1.07409E-01-3.41347E-14-8.32938E-15
 -1      2715 2.00457E+01 4.94652E-02-1.43657E-04-9.34572E-02 5.20018E-14 2.43331E-14
 -1      2716 2.00425E+01 6.99040E-02-2.67077E-04-1.24075E-01-3.53495E-14 1.57545E-13
 -1      2717 2.00413E+01 4.48398E-02 5.45429E-04-7.98866E-02 1.09546E-13 1.27948E-14
 -1      2718 2.00322E+01 3.98963E-02-1.36956E-04-6.84566E-02 1.18928E-13 5.75618E-14
 -1      2719 2.00311E+01 5.81638E-02-2.06300E-04-9.30701E-02 6.29355E-14 5.92083E-14
 -1      2720 2.00290E+01 3.55615E-02 4.53735E-04-5.76090E-02 2.68823E-14-1.22216E-14
 -1      2721 2.00222E+01 3.11150E-02-1.18504E-04-4.85467E-02-1.20387E-14-4.12986E-14
 -1      2722 2.00226E+01 4.66210E-02-1.62827E-04-6.78440E-02 6.54813E-15 5.85548E-14
 -1      2723 2.00198E+01 2.73149E-02 3.65682E-04-4.01176E-02 3.51250E-14 1.23554E-14
 -1      2724 2.00148E+01 2.35273E-02-9.59388E-05-3.31415E-02-1.50641E-14 6.54602E-14
 -1      2725 2.00163E+01 3.61727E-02-1.30360E-04-4.79112E-02 5.27843E-14 7.14844E-14
 -1      2726 2.00130E+01 2.03511E-02 2.86509E-04-2.67651E-02-6.46864E-14 1.08774E-13
 -1      2727 2.00094E+01 1.72552E-02-7.36441E-05-2.15451E-02-4.44830E-14 1.20918E-13
 -1      2728 2.00115E+01 2.72268E-02-1.05046E-04-3.25785E-02-6.70321E-15 1.93112E-13
 -1      2729 2.00081E+01 1.46984E-02 2.18572E-04-1.68495E-02 1.08538E-15 1.24741E-13
 -1      2730 2.00055E+01 1.22529E-02-5.38498E-05-1.30551E-02 1.44248E-14 1.58258E-13
 -1      2731 2.00080E+01 1.98813E-02-8.46205E-05-2.10886E-02-1.53728E-14 1.43104E-13
 -1      2732 2.00046E+01 1.02596E-02 1.62356E-04-9.69522E-03 6.53364E-15 1.75475E-13
 -1      2733 2.00029E+01 8.38558E-03-3.74393E-05-7.02287E-03 8.93223E-14 2.12719E-13
 -1      2734 2.00053E+01 1.40534E-02-6.77727E-05-1.27068E-02 8.35342E-14 2.42189E-13
 -1      2735 2.00022E+01 6.87663E-03 1.17228E-04-4.69607E-03 9.82104E-14 1.60497E-13
 -1      2736 2.00011E+01 5.48156E-03-2.45172E-05-2.88253E-03 5.59763E-14 1.06674E-13
 -1      2737 2.00034E+01 9.56774E-03-5.37417E-05-6.76943E-03 5.39129E-16 2.36189E-13
 -1      2738 2.00006E+01 4.37167E-03 8.19653E-05-1.33434E-03 1.01721E-13 5.74183E-14
 -1      2739 1.99999E+01 3.36339E-03-1.47836E-05-1.60535E-04 2.18840E-15 4.05738E-14
 -1      2740 2.00020E+01 6.21287E-03-4.20587E-05-2.70542E-03 2.64185E-14 2.02512E-13
 -1      2741 1.99996E+01 2.57120E-03 5.51076E-05 8.15883E-04 9.05604E-14 6.48125E-14
 -1      2742 1.99992E+01 1.86543E-03-7.76632E-06 1.52616E-03 2.87043E-13 2.31294E-13
 -1      2743 2.00010E+01 3.77530E-03-3.23942E-05-4.12228E-05 1.50275E-13 1.25310E-13
 -1      2744 1.99990E+01 1.31843E-03 3.51737E-05 2.09410E-03 2.53164E-13 3.57704E-13
 -1      2745 1.99988E+01 8.42112E-04-2.95809E-06 2.47834E-03 2.05301E-13 4.10538E-13
 -1      2746 2.00004E+01 2.05823E-03-2.44829E-05 1.60376E-03 3.01698E-13 2.81497E-13
 -1      2747 1.99987E+01 4.78491E-04 2.07906E-05 2.76316E-03 4.74542E-14 3.19757E-13
 -1      2748 1.99987E+01 1.70497E-04 1.08800E-07 2.92547E-03-7.53816E-14 3.84250E-13
 -1      2749 1.99999E+01 8.89950E-04-1.80926E-05 2.52693E-03 5.70701E-14 1.18524E-13
 -1      2750 1.99986E+01-6.09346E-05 1.07571E-05 3.02068E-03-1.67302E-13 3.97773E-13
 -1      2751 1.99987E+01-2.50620E-04 1.81809E-06 3.03728E-03-2.14252E-13 3.35549E-13
 -1      2752 1.99997E+01 1.26128E-04-1.30214E-05 2.95436E-03-1.50785E-13 2.88241E-14
 -1      2753 1.99986E+01-3.91581E-04 4.07340E-06 3.01019E-03-1.90549E-13 2.85412E-13
 -1      2754 1.99988E+01-5.03387E-04 2.49397E-06 2.93450E-03-6.53970E-14 1.10545E-13
 -1      2755 1.99995E+01-3.51839E-04-9.11137E-06 3.05268E-03-2.24683E-13 1.18470E-13
 -1      2756 1.99987E+01-5.87561E-04-2.46830E-08 2.83129E-03-1.25325E-13 1.56532E-13
 -1      2757 1.99989E+01-6.53829E-04 2.50721E-06 2.69844E-03-1.15234E-13 1.19741E-13
 -1      2758 1.99994E+01-6.39997E-04-6.19000E-06 2.93999E-03-5.34005E-14 2.10134E-14
 -1      2759 1.99989E+01-7.08283E-04-1.90080E-06 2.54918E-03-1.99325E-14 8.86891E-14
 -1      2760 1.99991E+01-7.54899E-04 2.51470E-06 2.38037E-03-3.52344E-14-1.47475E-14
 -1      2761 1.99994E+01-8.15074E-04-4.05355E-06 2.69632E-03-1.15919E-13-6.40678E-16
 -1      2762 1.99991E+01-7.98138E-04-5.27516E-06 2.23082E-03 9.48486E-14 5.58357E-14
 -1      2763 1.99992E+01-8.36185E-04 1.16288E-06 2.03280E-03 2.72549E-13 2.19386E-13
 -1      2764 1.99995E+01-1.01617E-03 5.94463E-06 2.08716E-03 3.93785E-13 3.98833E-13
 -1      2765 1.99995E+01-9.29252E-04-4.47225E-06 2.39982E-03 1.24000E-13 1.21488E-13
 -1      2766 2.31705E+01-3.22241E+00 7.24427E-02-3.67682E+00-1.44745E-13-1.07438E-13
 -1      2767 2.19349E+01-2.01746E+00 8.68931E-02-3.96699E+00-8.87693E-14-7.86142E-14
 -1      2768 2.13809E+01-9.24098E-01 4.86129E-02-3.64869E+00-5.74610E-14-4.53318E-14
 -1      2769 2.07793E+01-9.18687E-02 3.93544E-02-3.55757E+00-4.19751E-14-1.97516E-14
 -1      2770 1.93729E+01-1.42891E+00 1.05233E-02-4.42061E+00-4.59355E-14-1.38202E-13
 -1      2771 1.99992E+01-8.52464E-04-1.46351E-06-1.72643E-03 6.70538E-14 1.28428E-14
 -1      2772 2.47438E+01-5.58089E+00 6.69889E-02-3.82830E+00-2.72060E-13-1.69670E-13
 -1      2773 2.82393E+01-5.36544E+00-9.67846E-02-1.99299E+00-2.25542E-13-2.01367E-14
 -1      2774 1.09852E+01-1.89691E+00 1.48715E-01-4.91612E+00-1.67505E-14-3.10113E-13
 -1      2775 1.43653E+01-3.35054E+00 1.13516E-01-6.02311E+00-1.00725E-13-3.00732E-13
 -1      2776 3.32388E+01-1.30793E+00-8.48806E-03-2.76503E+00 3.67914E-13-1.70530E-13
 -1      2777 2.67309E+01-5.47005E+00 8.97609E-02 2.64359E+00 1.45994E-14-3.54577E-14
 -1      2778 2.00924E+01 3.90235E-01 4.89769E-03 3.30977E+00-2.43092E-13 2.72640E-13
 -1      2779 2.04643E+01-1.05528E-01 3.56753E-02 3.48233E+00-3.29129E-13 2.42710E-13
 -1      2780 2.00783E+01 8.85862E-01-1.00227E-02 2.69127E+00-2.21420E-13 2.49953E-13
 -1      2781 2.02733E+01 7.22571E-01 2.04192E-02 2.94078E+00-1.96842E-13 2.61105E-13
 -1      2782 1.87099E+01 7.75309E-01 2.79669E-03 3.15303E+00-2.19150E-13 2.37851E-13
 -1      2783 2.01903E+01 9.43560E-01-1.15590E-02 2.15363E+00 7.09659E-14 9.63175E-14
 -1      2784 2.03028E+01 9.53420E-01 1.24101E-02 2.39697E+00-1.07272E-13 1.88396E-13
 -1      2785 1.91485E+01 1.15566E+00 1.12117E-02 2.50398E+00-7.25438E-14 1.83310E-14
 -1      2786 2.02808E+01 8.36244E-01-9.95929E-03 1.69165E+00 9.13375E-14 1.43461E-13
 -1      2787 2.03727E+01 9.08371E-01 9.72533E-03 1.91141E+00 9.47675E-14 1.11960E-13
 -1      2788 1.95288E+01 1.14465E+00 1.12105E-02 1.99402E+00 4.96626E-14-6.71212E-14
 -1      2789 2.03228E+01 6.80097E-01-7.67450E-03 1.30837E+00 1.75290E-13 2.68260E-13
 -1      2790 2.04080E+01 7.65521E-01 8.20665E-03 1.49352E+00 1.22429E-13 2.39484E-13
 -1      2791 1.98035E+01 9.87854E-01 8.90392E-03 1.57426E+00 7.64702E-14 2.35091E-14
 -1      2792 2.03224E+01 5.28419E-01-5.58421E-03 9.99314E-01 1.73073E-14 1.23898E-13
 -1      2793 2.04017E+01 6.06479E-01 6.98224E-03 1.14859E+00 1.65929E-13 2.93408E-13
 -1      2794 1.99763E+01 7.95552E-01 6.23256E-03 1.22939E+00 1.00250E-13 1.92488E-13
 -1      2795 2.02943E+01 3.99982E-01-4.12769E-03 7.55325E-01-2.74254E-14-8.52750E-14
 -1      2796 2.03657E+01 4.64361E-01 5.78148E-03 8.72353E-01-9.50853E-14-3.69190E-15
 -1      2797 2.00712E+01 6.16659E-01 4.00852E-03 9.49458E-01 7.89708E-14 2.14105E-13
 -1      2798 2.02507E+01 2.94270E-01-2.84579E-03 5.57547E-01 5.66481E-14-2.97284E-13
 -1      2799 2.03141E+01 3.46075E-01 4.65542E-03 6.51001E-01 5.68557E-14-1.99178E-13
 -1      2800 2.01143E+01 4.64638E-01 2.55578E-03 7.20928E-01 7.92508E-14-3.60241E-14
 -1      2801 2.02062E+01 2.18054E-01-1.82434E-03 4.14068E-01 1.43347E-14-2.19981E-13
 -1      2802 2.02566E+01 2.55593E-01 3.73204E-03 4.81582E-01 3.80848E-14-2.66657E-13
 -1      2803 2.01239E+01 3.44617E-01 1.15559E-03 5.41330E-01 3.00442E-14-1.45653E-13
 -1      2804 2.01634E+01 1.60763E-01-1.22199E-03 3.04776E-01-4.95557E-14 2.42103E-14
 -1      2805 2.02041E+01 1.88830E-01 2.91721E-03 3.55635E-01-4.34179E-14-1.51125E-13
 -1      2806 2.01162E+01 2.55882E-01 4.73633E-04 4.05511E-01-8.13631E-14-1.77814E-13
 -1      2807 2.01257E+01 1.18130E-01-8.10441E-04 2.22141E-01-4.05476E-14 1.13981E-13
 -1      2808 2.01578E+01 1.38985E-01 2.25626E-03 2.60241E-01-7.66849E-14 1.34864E-13
 -1      2809 2.01006E+01 1.89128E-01 8.92480E-05 3.00719E-01-1.74537E-13-6.08936E-14
 -1      2810 2.00940E+01 8.65034E-02-5.32821E-04 1.60049E-01 2.91011E-14 8.69986E-14
 -1      2811 2.01188E+01 1.01964E-01 1.72845E-03 1.88433E-01 7.42312E-14 1.26814E-13
 -1      2812 2.00826E+01 1.39275E-01-1.11384E-04 2.20561E-01 8.78439E-15-6.38446E-14
 -1      2813 2.00684E+01 6.30008E-02-3.83371E-04 1.13672E-01 2.54722E-14 1.13320E-13
 -1      2814 2.00873E+01 7.45194E-02 1.31375E-03 1.34713E-01 3.82558E-14 4.76564E-14
 -1      2815 2.00651E+01 1.02161E-01-1.98405E-04 1.59730E-01 1.07956E-13 4.60636E-14
 -1      2816 2.00475E+01 4.48787E-02-2.51577E-04 7.78503E-02-1.25061E-13 1.66723E-13
 -1      2817 2.00620E+01 5.36582E-02 9.78272E-04 9.39001E-02-7.47708E-14 3.54830E-14
 -1      2818 2.00494E+01 7.41263E-02-1.68042E-04 1.13050E-01-4.35161E-14 5.65178E-14
 -1      2819 2.00325E+01 3.22321E-02-1.42987E-04 5.30358E-02-5.80157E-14 2.38174E-14
 -1      2820 2.00426E+01 3.84446E-02 7.32744E-04 6.41353E-02-7.06137E-14 1.02299E-13
 -1      2821 2.00362E+01 5.31258E-02-2.21971E-04 7.83185E-02-6.58457E-14 5.70500E-14
 -1      2822 2.00213E+01 2.28449E-02-8.85696E-05 3.49998E-02 9.64830E-14-8.04643E-14
 -1      2823 2.00285E+01 2.74143E-02 5.35813E-04 4.29924E-02 5.88699E-14-1.10213E-13
 -1      2824 2.00259E+01 3.81113E-02-1.96936E-04 5.34760E-02 7.12332E-14-1.14886E-13
 -1      2825 2.00131E+01 1.59257E-02-5.38855E-05 2.20826E-02 2.82832E-13 4.45338E-14
 -1      2826 2.00182E+01 1.92829E-02 3.90886E-04 2.77601E-02 2.43660E-13 1.19713E-13
 -1      2827 2.00179E+01 2.69820E-02-1.66358E-04 3.53603E-02 8.84249E-14-4.88313E-14
 -1      2828 2.00074E+01 1.08604E-02-3.14436E-05 1.29909E-02 3.14974E-13-6.90126E-14
 -1      2829 2.00108E+01 1.33089E-02 2.81397E-04 1.69507E-02 3.19478E-13 6.27330E-14
 -1      2830 2.00119E+01 1.87768E-02-1.35632E-04 2.23447E-02 3.25172E-13 8.64469E-14
 -1      2831 2.00035E+01 7.17905E-03-2.16937E-05 6.72822E-03 1.01334E-13 3.87501E-14
 -1      2832 2.00057E+01 8.95859E-03 2.00207E-04 9.42925E-03 1.12912E-13-1.18079E-13
 -1      2833 2.00075E+01 1.27700E-02-1.07516E-04 1.31606E-02 2.61137E-13 8.60596E-14
 -1      2834 2.00008E+01 4.44226E-03-1.12031E-05 2.37594E-03-1.67397E-13-7.35115E-16
 -1      2835 2.00022E+01 5.74427E-03 1.37579E-04 4.21695E-03 5.63957E-14-2.62815E-14
 -1      2836 2.00043E+01 8.36056E-03-7.41893E-05 6.71415E-03 4.48405E-14 1.73122E-13
 -1      2837 1.99992E+01 2.63775E-03-1.29360E-06-2.45147E-04-2.81484E-13 2.27388E-14
 -1      2838 2.00000E+01 3.50276E-03 9.22961E-05 8.49486E-04-2.88631E-13-6.46291E-14
 -1      2839 2.00021E+01 5.18020E-03-6.27908E-05 2.41418E-03-2.00618E-13 4.83677E-14
 -1      2840 1.99983E+01 1.39273E-03 2.53476E-06-1.82961E-03-1.49446E-13 9.91543E-14
 -1      2841 1.99987E+01 1.97672E-03 5.86099E-05-1.18964E-03-2.56020E-13 3.43869E-14
 -1      2842 2.00007E+01 3.04065E-03-4.64841E-05-2.52606E-04-3.53088E-13-9.86422E-14
 -1      2843 1.99979E+01 5.62499E-04 4.35054E-06-2.69299E-03 9.01348E-15 1.39452E-14
 -1      2844 1.99980E+01 9.46283E-04 3.56270E-05-2.36377E-03 1.23369E-14 1.48195E-13
 -1      2845 1.99998E+01 1.57389E-03-3.37675E-05-1.86393E-03-1.28417E-13-5.51161E-14
 -1      2846 1.99978E+01 3.01461E-05 5.01633E-06-3.07057E-03 5.97776E-14 1.00307E-13
 -1      2847 1.99978E+01 2.71660E-04 1.96365E-05-2.94805E-03 3.06302E-15 5.48553E-15
 -1      2848 1.99993E+01 5.99829E-04-2.39506E-05-2.74299E-03 4.48007E-14-1.94073E-13
 -1      2849 1.99979E+01-2.95639E-04 4.83377E-06-3.13233E-03 7.69653E-14 4.73519E-14
 -1      2850 1.99978E+01-1.50351E-04 9.02663E-06-3.14175E-03 1.27809E-13-5.72735E-15
 -1      2851 1.99990E+01-2.26235E-05-1.65096E-05-3.12803E-03 1.77174E-13-1.83914E-13
 -1      2852 1.99982E+01-4.90493E-04 4.24239E-06-2.98494E-03-2.01765E-14 2.16320E-13
 -1      2853 1.99979E+01-4.06307E-04 2.13495E-06-3.08276E-03-3.95783E-14 7.17635E-14
 -1      2854 1.99989E+01-4.05161E-04-1.06186E-05-3.18749E-03-1.32519E-14-3.56501E-14
 -1      2855 1.99984E+01-5.92361E-04 3.40653E-06-2.72283E-03-7.00178E-14 2.01360E-13
 -1      2856 1.99982E+01-5.48691E-04-2.37133E-06-2.86581E-03 5.85404E-14 3.67234E-13
 -1      2857 1.99989E+01-6.29026E-04-6.71672E-06-3.03875E-03-1.27566E-13 2.72220E-13
 -1      2858 1.99987E+01-6.59940E-04 1.71650E-06-2.39063E-03-5.03105E-14 1.20774E-13
 -1      2859 1.99985E+01-6.30696E-04-4.84135E-06-2.56346E-03-4.59060E-14 1.90667E-13
 -1      2860 1.99990E+01-7.52229E-04-3.79698E-06-2.76907E-03-4.48756E-14 3.21670E-13
 -1      2861 1.99990E+01-7.27478E-04-6.15935E-07-2.01147E-03 3.12575E-14 1.23247E-14
 -1      2862 1.99988E+01-6.92508E-04-6.00228E-06-2.20415E-03-2.29099E-14 8.13415E-14
 -1      2863 1.99992E+01-8.38197E-04-8.43467E-07-2.42492E-03-2.26330E-14 1.23779E-13
 -1      2864 2.00009E+01-2.33855E-03 5.01668E-06-1.43401E-04 1.20027E-13-1.00255E-13
 -1      2865 2.00009E+01-2.31223E-03 3.14588E-06-4.24017E-04 3.09224E-13-4.94184E-13
 -1      2866 2.00006E+01-2.07148E-03 7.93087E-06-1.23676E-03 3.02989E-13-1.87550E-13
 -1      2867 2.00005E+01-1.93994E-03-1.91099E-06-1.43244E-03 3.85181E-13-3.45430E-13
 -1      2868 2.00009E+01-2.30317E-03 3.06618E-06 4.52733E-04-9.05191E-15-2.39398E-13
 -1      2869 2.00009E+01-2.33448E-03 5.28665E-06 1.73599E-04 1.75861E-14-9.49278E-14
 -1      2870 2.00011E+01-2.20002E-03-5.07216E-06 1.80467E-05 8.90584E-14-2.84237E-13
 -1      2871 2.00008E+01-2.25971E-03 6.61792E-06-7.26915E-04 1.55373E-13-4.08216E-13
 -1      2872 2.00007E+01-2.17765E-03 6.32627E-07-9.79006E-04 2.50467E-13-2.67311E-13
 -1      2873 2.00009E+01-2.01030E-03-4.90350E-06-1.20278E-03 1.03170E-13-2.43849E-13
 -1      2874 2.00011E+01-2.15604E-03-5.26943E-06-6.22834E-04 2.67754E-13-3.16689E-13
 -1      2875 1.36995E+01-3.46778E+00 1.66303E-01-7.03477E+00 7.08322E-14 1.89140E-13
 -1      2876 1.70489E+01-4.48021E+00-3.72425E-02-7.17766E+00 1.52101E-13 8.21287E-14
 -1      2877 1.36258E+01-2.36937E+00 1.58088E-01-6.28970E+00 1.94178E-13 1.72848E-13
 -1      2878 2.00007E+01-2.16142E-03 5.21002E-07 9.92329E-04-9.90782E-14-3.36770E-13
 -1      2879 2.00008E+01-2.24550E-03 6.75216E-06 7.47471E-04 3.51919E-14-2.51494E-13
 -1      2880 2.00011E+01-2.14215E-03-4.71547E-06 6.49679E-04 3.30511E-14-2.42784E-13
 -1      2881 2.00005E+01-1.91875E-03-2.75551E-06 1.43768E-03-7.91341E-14-3.16749E-13
 -1      2882 2.00006E+01-2.05110E-03 7.80321E-06 1.24558E-03-1.06674E-13-2.98337E-13
 -1      2883 2.00009E+01-1.98735E-03-4.15551E-06 1.21639E-03-1.14536E-13-3.30324E-13
 -1      2884 2.00001E+01-1.59585E-03-8.36371E-06 1.73442E-03 9.95606E-14 2.03008E-13
 -1      2885 2.00003E+01-1.76085E-03 1.10077E-05 1.61386E-03 1.47301E-13-4.80125E-14
 -1      2886 2.00005E+01-1.74023E-03-3.66195E-06 1.66256E-03 1.14138E-13-1.09205E-13
 -1      2887 1.99998E+01-1.31008E-03 7.93280E-06 1.76761E-03 1.88121E-13 1.76438E-13
 -1      2888 2.87047E+01 7.44218E-02-7.64525E-02 1.11575E+00 4.68098E-14-1.76831E-13
 -1      2889 2.90458E+01 2.15849E+00-1.78829E-01 1.69759E+00-6.27831E-14-2.04420E-13
 -1      2890 2.06992E+01 1.22638E+00 1.30462E-02-2.35126E+00 8.56077E-14 8.47764E-14
 -1      2891 2.06497E+01 1.43155E+00 5.46383E-03-1.94343E+00 1.33105E-13 9.73778E-14
 -1      2892 2.96378E+01 2.40682E+00-2.13877E-01-1.62364E+00-3.10904E-13 3.95933E-13
 -1      2893 2.96345E+01 3.36442E-01-4.22050E-02-9.53893E-01-2.04059E-13 4.51042E-13
 -1      2894 1.79751E+01-4.32516E+00 4.10796E-02 5.79280E+00-2.13718E-13 2.76335E-13
 -1      2895 1.42514E+01-2.79952E+00 1.35942E-01 5.38373E+00-3.22548E-13 3.84415E-13
 -1      2896 2.11912E+01 1.32931E+00-8.25931E-03-1.13639E+00-9.14000E-14-1.51601E-13
 -1      2897 2.12027E+01 8.98895E-01-1.31713E-02-9.26038E-01-9.44826E-14-1.31849E-13
 -1      2898 2.91669E+01 6.13668E+00-2.12240E-01-1.32611E+00-4.25354E-13 2.31905E-13
 -1      2899 2.94190E+01 4.77744E+00-1.03566E-01-1.81446E+00-3.74173E-13 3.30902E-13
 -1      2900 2.07873E+01 2.14970E+00-3.98631E-03-1.13990E+00-6.31737E-14-1.91826E-13
 -1      2901 2.10934E+01-2.72565E+00 9.65313E-02 4.26436E+00-2.24661E-13 9.49518E-14
 -1      2902 2.26183E+01-4.01446E+00 8.71631E-02 3.91081E+00-1.01225E-13 1.23274E-13
 -1      2903 3.01931E+01-4.53657E+00 2.00744E-02-1.47650E-01-1.92929E-13 1.22791E-13
 -1      2904 2.13375E+01 5.57041E-01 9.40975E-03-8.21743E-01-8.72521E-14-1.01573E-13
 -1      2905 2.12795E+01 2.56820E-01-1.07039E-02-6.95101E-01-8.96651E-14-9.44492E-14
 -1      2906 2.14071E+01 1.94616E-01 5.47387E-04-6.56687E-01-8.87015E-14-7.23849E-14
 -1      2907 2.12376E+01 8.19539E-01-2.29793E-03-8.06706E-01-7.97095E-14-1.24068E-13
 -1      2908 1.99994E+01-1.01798E-03 1.69639E-06-1.94468E-03 9.32648E-14 3.98073E-15
 -1      2909 2.55842E+01-4.59698E+00-1.15907E-01 3.78202E+00 6.16729E-14 2.67904E-13
 -1      2910 2.26280E+01-4.71661E+00 7.29822E-02 5.35510E+00 1.53669E-13 1.51861E-13
 -1      2911 6.36722E+00-2.28233E-01 1.51693E-01-5.83278E-01-9.19178E-14 5.39346E-13
 -1      2912 6.68271E+00-5.48249E-01 1.59136E-01-2.95724E+00-3.97182E-14 4.11754E-13
 -1      2913 2.07564E+01 5.10071E-01 2.48290E-02-3.11078E+00-8.50058E-15 1.77146E-14
 -1      2914 2.05175E+01 9.36651E-01 1.14022E-02-2.80993E+00 3.11667E-14 5.33289E-14
 -1      2915 1.93517E+01 1.40530E+00 1.68601E-04-2.53951E+00 7.70159E-14 3.28963E-15
 -1      2916 1.90638E+01 4.35335E-01 5.02361E-04-3.47718E+00 6.33087E-15-5.45571E-14
 -1      2917 1.72504E+01 3.85863E+00-1.42358E-02 7.72236E-01 2.48636E-13-8.24837E-14
 -1      2918 1.71573E+01 3.87515E+00 1.33825E-04 9.32638E-01 2.31656E-13-1.07912E-13
 -1      2919 1.70832E+01 3.56514E+00 1.20704E-02 1.12768E+00 2.34675E-13-1.06138E-13
 -1      2920 1.72366E+01 3.63810E+00 1.70167E-02 5.55136E-01 2.34283E-13-6.53768E-14
 -1      2921 2.92786E+01 7.31270E+00-1.65306E-01 4.79785E-01-4.70568E-13-4.86416E-15
 -1      2922 2.91825E+01 7.24211E+00-1.70967E-01-5.27648E-01-4.69874E-13 9.69398E-14
 -1      2923 1.98714E+01 2.19607E+00-3.28552E-03 2.45879E-01 5.47548E-14-1.61439E-13
 -1      2924 2.01628E+01 2.05276E+00-3.80574E-03-2.07108E-02 3.86100E-14-1.81545E-13
 -1      2925 1.77056E+01-4.61746E+00 8.66353E-02-5.89535E+00-1.72251E-13-2.56239E-13
 -1      2926 2.10371E+01-5.40463E+00-4.10239E-02-5.47837E+00-2.27152E-13-2.39364E-13
 -1      2927 2.40565E+01-4.85710E+00 1.16944E-01-3.88829E+00-2.36339E-13-1.53100E-13
 -1      2928 1.73609E+01-3.23210E+00 1.42899E-01-5.45648E+00-1.32325E-13-2.23793E-13
 -1      2929 2.69319E+01-4.07683E+00 8.33411E-02-2.63530E+00 1.11685E-13-1.22236E-13
 -1      2930 2.82382E+01-2.56817E+00-1.36932E-01-6.31396E-01 7.14324E-14-1.43774E-13
 -1      2931 2.91227E+01 4.32765E+00-1.32821E-01 1.85168E+00-1.83326E-13-2.20601E-13
 -1      2932 2.92318E+01 6.07726E+00-1.92882E-01 1.32898E+00-3.62071E-13-1.44391E-13
 -1      2933 2.78235E+01 2.80161E+00-8.13126E-02 2.01926E+00-8.66252E-14-2.72504E-13
 -1      2934 5.97674E+00-3.67664E-01 1.43959E-01-6.66290E-01 1.24152E-13-3.19800E-13
 -1      2935 7.69128E+00-7.08592E-01 1.48176E-01-2.95013E+00 7.06032E-14-3.17690E-13
 -1      2936 2.89711E+01-1.95010E+00-1.78576E-01 4.24261E-01-1.56167E-13 4.61201E-13
 -1      2937 2.78775E+01-3.26550E+00 3.98292E-02 1.74572E+00-5.20833E-14 3.87454E-13
 -1      2938 2.11322E+01-4.91797E+00 1.56682E-01-6.11401E+00 2.54713E-13 1.60124E-13
 -1      2939 2.40419E+01-5.13933E+00-1.38194E-01-4.80541E+00 1.93456E-13 4.27505E-14
 -1      2940 7.54014E+00-3.36665E-01 1.11832E-01 3.67312E+00 2.16167E-13-3.31180E-13
 -1      2941 6.07969E+00-1.25693E-01 2.09585E-01 1.28664E+00 1.60675E-13-3.21326E-13
 -1      2942 2.08959E+01 1.74804E+00 1.87074E-03-1.01398E+00 1.71810E-13 1.32204E-13
 -1      2943 1.98969E+01 2.54941E+00-2.79043E-03-5.26201E-01 2.24664E-13 9.37479E-14
 -1      2944 1.93664E+01 2.53836E+00 1.00061E-02-7.88762E-01 2.14525E-13 6.03523E-14
 -1      2945 2.08677E+01 1.58445E+00 8.61703E-03-1.51016E+00 1.57355E-13 1.12401E-13
 -1      2946 2.04180E+01 1.92463E+00-6.30639E-04-2.99246E-01 1.91113E-14-1.78133E-13
 -1      2947 2.06313E+01 1.78645E+00-1.04800E-02-5.48485E-01-1.62876E-14-1.71184E-13
 -1      2948 2.05173E+01 1.51372E+00-1.56072E-03-3.94311E-02 1.94692E-14-1.53962E-13
 -1      2949 1.83014E+01 2.67511E+00-4.61301E-03 1.40053E+00 1.71559E-13-1.26339E-13
 -1      2950 1.84011E+01 2.94114E+00-1.24251E-02 1.14943E+00 1.61425E-13-1.44825E-13
 -1      2951 1.88033E+01 2.77083E+00 8.46635E-03 9.87718E-01 1.38108E-13-1.37762E-13
 -1      2952 9.22973E+00-3.90948E-01 1.71850E-01-3.79004E+00 2.97679E-14 3.15192E-13
 -1      2953 2.84939E+01-4.67045E+00-1.82118E-02-8.85421E-01-1.71113E-13 8.29753E-14
 -1      2954 2.64416E+01-4.50172E+00-4.83016E-03-2.39630E+00-2.03670E-13-8.21999E-15
 -1      2955 1.01973E+01 3.45690E-01 1.03985E-01-2.82064E+00 9.42441E-14-2.72976E-13
 -1      2956 1.04138E+01-7.48968E-01 1.78073E-01-3.96687E+00 3.98778E-14-2.96735E-13
 -1      2957 1.33045E+01-7.47229E-01 1.16620E-01-4.41293E+00 7.82707E-15-2.24099E-13
 -1      2958 2.77600E+01 6.09108E+00-1.23024E-01-9.86362E-01-3.80002E-13 1.76196E-13
 -1      2959 7.76839E+00 1.35415E-01 2.09766E-01 8.39614E-01-1.64375E-13 5.17253E-13
 -1      2960 8.82291E+00 6.97318E-01 1.30312E-01-2.35683E-01-5.81132E-14 4.35041E-13
 -1      2961 9.49240E+00 2.30012E-01 8.21232E-02 2.14375E+00-1.85161E-13 4.59577E-13
 -1      2962 2.85084E+01-8.96848E-01-4.36108E-02-6.97693E-01-1.36651E-13 4.71040E-13
 -1      2963 2.53377E+01-4.41372E+00 4.24379E-02-3.21461E+00 2.34819E-13-6.87436E-14
 -1      2964 2.69299E+01-2.56367E+00-2.89312E-02-2.02594E-01 1.19748E-13-1.96617E-13
 -1      2965 2.81850E+01-1.48127E+00-5.32422E-02 5.70223E-01 9.12083E-14-1.53474E-13
 -1      2966 2.72242E+01-3.70538E-01-5.07015E-02 1.48508E+00 8.74301E-14-2.98227E-13
 -1      2967 1.96359E+01-4.26773E+00 9.84945E-02-6.11901E+00 1.88807E-13 1.08889E-13
 -1      2968 2.22039E+01-4.10527E+00 8.65398E-02 5.05981E+00 2.04885E-13 1.38066E-13
 -1      2969 1.99837E+01-4.47467E+00-1.82140E-03 6.50322E+00 2.11803E-13 5.05082E-14
 -1      2970 2.00005E+01-1.76964E-03-3.02801E-06-1.66019E-03 2.09024E-13-1.41216E-13
 -1      2971 2.00003E+01-1.78546E-03 7.99846E-06-1.61470E-03 3.05904E-13-7.01949E-14
 -1      2972 2.00001E+01-1.61259E-03-2.68854E-06-1.72234E-03 9.78727E-14 7.85333E-14
 -1      2973 1.99999E+01-1.42055E-03 5.09327E-06-1.86917E-03 1.08481E-13 7.85568E-14
 -1      2974 1.99997E+01-1.21892E-03-4.90733E-06-1.87569E-03 1.33262E-13 6.51824E-14
 -1      2975 1.99996E+01-1.05931E-03-1.64424E-06-2.19206E-03 2.72630E-14-1.88449E-14
 -1      2976 2.00001E+01-1.43359E-03-2.03669E-06-1.98863E-03-4.40301E-14 4.28710E-15
 -1      2977 2.83388E+01 3.05577E+00-9.81858E-02-1.89980E+00-2.66800E-13 3.43114E-13
 -1      2978 1.99999E+01-1.34368E-03-2.50348E-06 1.91211E-03 2.10691E-13 2.52573E-13
 -1      2979 1.66669E+01-3.63730E+00 9.52696E-02 6.82798E+00 2.39309E-13-8.85403E-14
 -1      2980 1.31232E+01-1.77108E+00 1.68166E-01 4.93641E+00-3.06033E-13 4.14085E-13
 -1      2981 1.22573E+01-6.52243E-01 1.30995E-01 4.05950E+00-2.86701E-13 3.90923E-13
 -1      2982 1.61340E+01-1.73881E+00 9.93767E-02 4.79417E+00-2.97741E-13 4.21871E-13
 -1      2983 1.97963E+01 1.88798E+00-2.71558E-04-1.64295E+00 1.58855E-13 5.30500E-14
 -1      2984 2.08698E+01 1.70021E+00 1.37725E-03-8.80639E-01-4.80998E-14-1.77444E-13
 -1      2985 2.16732E+01-1.67069E+00 6.74796E-02 3.68394E+00-2.75863E-13 7.66696E-14
 -1      2986 1.84897E+01-1.94786E+00 3.87027E-02 4.73025E+00-3.34427E-13 2.95354E-13
 -1      2987 1.70363E+01-8.90018E-01 4.72516E-02 4.36079E+00-3.30354E-13 4.04843E-13
 -1      2988 2.08516E+01-7.55458E-01 4.46815E-02 3.74983E+00-3.32573E-13 1.35418E-13
 -1      2989 1.91828E+01 2.53078E+00-7.09631E-03 7.64930E-01 1.10964E-13-1.13760E-13
 -1      2990 1.95470E+01 2.37230E+00 2.77393E-03 5.27412E-01 7.38346E-14-1.27957E-13
 -1      2991 1.99288E+01 1.80035E+00-6.14935E-03 5.30688E-01 5.89124E-14-1.20927E-13
 -1      2992 1.91647E+01 2.18632E+00-7.94902E-03 1.05657E+00 1.12218E-13-1.02377E-13
 -1      2993 2.64126E+01-3.79014E+00 2.10639E-02 2.29142E+00 3.47569E-14 3.63987E-13
 -1      2994 2.35304E+01-4.06260E+00 7.70634E-02-3.84204E+00-1.93408E-13-1.11654E-13
 -1      2995 9.76352E+00-5.57610E-01 2.06160E-01 4.96997E+00 2.41654E-13-3.11778E-13
 -1      2996 9.46382E+00 4.00680E-01 1.20656E-01 3.50833E+00 2.12289E-13-2.88214E-13
 -1      2997 1.41084E+01-2.79897E+00 1.22797E-01 7.00220E+00 2.32994E-13-2.12302E-13
 -1      2998 1.13652E+01-1.60982E+00 1.20323E-01 5.99140E+00 2.51424E-13-2.67619E-13
 -1      2999 1.29515E+01-8.94509E-01 1.05834E-01 5.51310E+00 2.76709E-13-2.45554E-13
 -1      3000 1.74447E+01-2.78448E+00 1.13976E-01 6.17659E+00 2.72136E-13-4.71498E-14
 -1      3001 2.02002E+01-3.67359E+00 2.51300E-02-5.10878E+00-1.40277E-13-1.92173E-13
 -1      3002 7.94940E+00 5.73010E-01 1.93146E-01 2.69998E-01 1.46846E-13-2.92988E-13
 -1      3003 1.87934E+01-2.77642E-01 2.57114E-04 3.87759E+00-3.91617E-13 2.74400E-13
 -1      3004 2.77156E+01 5.94871E+00-1.22170E-01 1.03670E+00-3.11862E-13-1.52281E-13
 -1      3005 2.00013E+01-1.98557E-03-2.55775E-09 8.45133E-04-6.76479E-15-2.71310E-13
 -1      3006 2.00014E+01-2.03320E-03 4.17207E-06 5.40524E-04 7.76885E-14-2.73311E-13
 -1      3007 1.80052E+01 2.96940E+00-7.03635E-03-4.94127E-01 2.13833E-13 1.60805E-14
 -1      3008 1.73698E+01 3.25476E+00-4.76743E-03-1.71687E-01 2.12228E-13-2.32952E-14
 -1      3009 2.19556E+01-5.72841E-01 8.83340E-03-6.84251E-01-4.87968E-14-5.51679E-14
 -1      3010 2.19907E+01-6.53653E-01-9.23817E-03-8.01429E-01-4.64362E-14-5.10334E-14
 -1      3011 2.21522E+01-6.40489E-01 1.66869E-03-9.92905E-01-6.03576E-14-3.67664E-14
 -1      3012 2.21441E+01-5.33713E-01-4.21256E-03-1.13074E+00-9.32975E-14-6.07546E-14
 -1      3013 2.24004E+01-7.60771E-01 2.71613E-03-8.20227E-01-5.34721E-14-3.57788E-14
 -1      3014 2.21906E+01-3.29872E-01-8.27816E-03-1.31560E+00-8.83753E-14-3.20872E-14
 -1      3015 2.21283E+01-2.31584E-02 5.12159E-03-1.39061E+00-8.76198E-14-1.33528E-14
 -1      3016 2.26293E+01-5.20043E-01 9.14463E-03-1.21965E+00-8.05932E-14-3.34636E-14
 -1      3017 2.20234E+01 3.50916E-01-1.77841E-02-1.44903E+00-7.50652E-14-1.82877E-14
 -1      3018 2.19215E+01 7.87990E-01 1.39027E-02-1.36970E+00-7.02368E-14 1.89519E-16
 -1      3019 2.26214E+01 1.78785E-01 1.24002E-02-1.50834E+00-8.14014E-14-4.09200E-15
 -1      3020 2.17173E+01 1.21054E+00-1.91073E-02-1.18568E+00-8.19258E-14 9.55160E-15
 -1      3021 2.16236E+01 1.59580E+00 1.45071E-02-9.09589E-01-1.23540E-13 2.27406E-14
 -1      3022 2.23695E+01 1.16870E+00 6.63579E-03-1.41707E+00-6.58389E-14 6.19665E-15
 -1      3023 2.14607E+01 1.86695E+00-1.03108E-02-4.86025E-01-1.38011E-13 2.72429E-14
 -1      3024 2.14230E+01 2.00314E+00 2.55454E-03-7.64111E-02-8.21131E-14 3.34675E-14
 -1      3025 2.20475E+01 2.03440E+00-6.16972E-03-8.05296E-01-1.09385E-13-1.60648E-14
 -1      3026 2.14272E+01 1.97133E+00 4.98014E-03 4.38215E-01-5.97543E-14 7.65121E-15
 -1      3027 2.14643E+01 1.77395E+00-1.28119E-02 8.30797E-01-4.76958E-14-1.26565E-14
 -1      3028 2.19029E+01 2.33401E+00-1.32598E-02 1.83290E-01-8.48288E-14 3.94954E-14
 -1      3029 2.16214E+01 1.45192E+00 1.51517E-02 1.21542E+00-2.92366E-14 6.78212E-15
 -1      3030 2.17058E+01 1.02726E+00-2.03355E-02 1.44871E+00-2.61943E-15 4.71368E-14
 -1      3031 2.20441E+01 1.88969E+00-4.97810E-03 1.12563E+00-2.56980E-14 1.03228E-13
 -1      3032 2.18778E+01 5.82072E-01 1.32953E-02 1.57245E+00 4.56974E-14-6.81052E-15
 -1      3033 2.19556E+01 1.32639E-01-1.74748E-02 1.59994E+00 8.56821E-14 6.15679E-14
 -1      3034 2.23243E+01 9.30499E-01 7.94946E-03 1.62964E+00 2.63454E-14 1.56606E-13
 -1      3035 2.20130E+01-2.49553E-01 4.36362E-03 1.48607E+00 3.97272E-14 2.23333E-14
 -1      3036 2.20402E+01-5.68755E-01-8.56162E-03 1.35746E+00 1.86726E-14-2.58815E-14
 -1      3037 2.24933E+01-9.06594E-02 1.33491E-02 1.59660E+00 2.78572E-14 1.33123E-14
 -1      3038 2.19502E+01-7.92600E-01-3.60787E-03 1.11800E+00-1.78156E-14-4.24430E-14
 -1      3039 2.19136E+01-9.34178E-01 2.28662E-04 9.17566E-01-4.91867E-14-1.16538E-13
 -1      3040 2.24106E+01-8.20100E-01 9.70804E-03 1.19776E+00-3.65061E-14-4.65667E-14
 -1      3041 2.17209E+01-9.99158E-01-7.01299E-03 6.62720E-01-3.81910E-14-4.21718E-14
 -1      3042 2.16354E+01-9.97028E-01 5.84659E-03 4.60189E-01 9.15254E-15 3.16506E-15
 -1      3043 2.21014E+01-1.14556E+00 2.80353E-03 6.78282E-01-2.97977E-15-6.15578E-14
 -1      3044 2.14051E+01-9.52316E-01-6.88638E-03 2.51883E-01 2.61456E-14-1.12573E-15
 -1      3045 2.12959E+01-8.66550E-01 7.84493E-03 8.57815E-02 3.33134E-14 7.64444E-14
 -1      3046 2.16767E+01-1.14215E+00-2.77587E-03 2.11411E-01 2.39086E-14 3.62350E-14
 -1      3047 2.10781E+01-7.67917E-01-5.15741E-03-5.68184E-02 2.44788E-14 8.77238E-14
 -1      3048 2.09674E+01-6.51460E-01 7.47178E-03-1.74235E-01-2.03480E-14 6.32273E-14
 -1      3049 2.12428E+01-9.48000E-01-5.70478E-03-1.29665E-01 3.72084E-14 4.41700E-14
 -1      3050 2.07877E+01-5.40538E-01-3.18556E-03-2.56669E-01-5.59460E-14 9.03632E-14
 -1      3051 2.06893E+01-4.27325E-01 6.06456E-03-3.28291E-01-7.34162E-14 8.76537E-14
 -1      3052 2.08658E+01-6.84168E-01-6.20452E-03-3.39888E-01-1.16133E-14 1.72165E-14
 -1      3053 2.05541E+01-3.28050E-01-1.60325E-03-3.64848E-01-1.32147E-13 1.02376E-13
 -1      3054 2.04735E+01-2.34770E-01 4.38298E-03-3.99846E-01-9.51925E-14 6.09654E-14
 -1      3055 2.05709E+01-4.28316E-01-5.45810E-03-4.44455E-01-8.70439E-14 4.07104E-14
 -1      3056 2.03790E+01-1.57261E-01-5.21879E-04-4.05257E-01-6.43565E-14 3.25158E-14
 -1      3057 2.03165E+01-8.89005E-02 2.86992E-03-4.13999E-01-4.56533E-14-5.68954E-15
 -1      3058 2.03574E+01-2.17813E-01-4.26092E-03-4.74595E-01-1.07220E-13 1.66147E-14
 -1      3059 2.02544E+01-3.46422E-02 1.44847E-04-4.00382E-01 4.53673E-14 1.90476E-14
 -1      3060 2.02076E+01 1.03429E-02 1.68333E-03-3.92078E-01 4.17243E-14 1.45069E-14
 -1      3061 2.02125E+01-6.36404E-02-3.06147E-03-4.57625E-01 1.02233E-14 6.73751E-14
 -1      3062 2.01693E+01 4.42878E-02 5.15453E-04-3.68302E-01-1.13243E-14 1.22278E-13
 -1      3063 2.01349E+01 7.02816E-02 8.35369E-04-3.50189E-01 3.40128E-14 1.59673E-13
 -1      3064 2.01195E+01 3.78632E-02-2.06390E-03-4.14159E-01 5.97239E-14 1.59420E-13
 -1      3065 2.01128E+01 8.84622E-02 6.92124E-04-3.22270E-01-1.08532E-14 1.37540E-13
 -1      3066 2.00878E+01 1.00485E-01 2.76445E-04-2.99595E-01-3.88118E-14 2.55199E-13
 -1      3067 2.00633E+01 9.66360E-02-1.31686E-03-3.58444E-01 1.49279E-14 1.74153E-13
 -1      3068 2.00761E+01 1.07500E-01 7.47576E-04-2.71357E-01 3.44098E-15 2.24981E-13
 -1      3069 2.00579E+01 1.10101E-01-6.08096E-05-2.47656E-01 7.15097E-14 1.39734E-13
 -1      3070 2.00313E+01 1.23965E-01-7.97278E-04-2.99704E-01-3.01808E-14 2.28453E-13
 -1      3071 2.00526E+01 1.09876E-01 7.30258E-04-2.21338E-01 1.39258E-13 1.13079E-13
 -1      3072 2.00392E+01 1.06702E-01-2.40656E-04-1.98808E-01 8.70691E-14 1.66296E-13
 -1      3073 2.00147E+01 1.30051E-01-4.57554E-04-2.43511E-01 7.31704E-14 1.83270E-13
 -1      3074 2.00374E+01 1.02262E-01 6.71873E-04-1.75564E-01 8.86653E-14 1.13127E-13
 -1      3075 2.00275E+01 9.59975E-02-3.16063E-04-1.55420E-01 7.37231E-14 1.75911E-13
 -1      3076 2.00069E+01 1.23073E-01-2.48073E-04-1.92908E-01 8.86930E-14 2.30697E-13
 -1      3077 2.00275E+01 8.94948E-02 5.93014E-04-1.35687E-01-4.91776E-14 1.95174E-13
 -1      3078 2.00200E+01 8.19773E-02-3.27045E-04-1.18461E-01-7.70789E-14 2.72599E-13
 -1      3079 2.00040E+01 1.09060E-01-1.26686E-04-1.49249E-01 3.02439E-14 1.89088E-13
 -1      3080 2.00207E+01 7.48399E-02 5.06939E-04-1.02230E-01-7.91559E-14 2.22481E-13
 -1      3081 2.00151E+01 6.72346E-02-3.01943E-04-8.80097E-02-6.15403E-15 1.93757E-13
 -1      3082 2.00035E+01 9.21509E-02-6.14110E-05-1.12815E-01-1.17124E-13 2.82777E-13
 -1      3083 2.00160E+01 6.03334E-02 4.22003E-04-7.50159E-02-5.79850E-14 1.60110E-13
 -1      3084 2.00117E+01 5.33119E-02-2.59696E-04-6.36229E-02-6.26474E-14 9.90055E-14
 -1      3085 2.00038E+01 7.49814E-02-2.97430E-05-8.32444E-02-5.57903E-14 3.19477E-13
 -1      3086 2.00125E+01 4.71204E-02 3.43183E-04-5.34719E-02 1.50416E-15 4.75782E-14
 -1      3087 2.00092E+01 4.10126E-02-2.12193E-04-4.45862E-02 5.30295E-14 1.51438E-13
 -1      3088 2.00044E+01 5.90807E-02-1.67741E-05-5.98272E-02-2.89193E-14 1.70339E-13
 -1      3089 2.00098E+01 3.57373E-02 2.73124E-04-3.68387E-02 3.57286E-14 3.67510E-14
 -1      3090 2.00073E+01 3.06518E-02-1.66326E-04-3.00831E-02-1.08117E-13-1.63298E-14
 -1      3091 2.00048E+01 4.52095E-02-1.32063E-05-4.17035E-02-3.48626E-14-3.69206E-14
 -1      3092 2.00077E+01 2.63309E-02 2.12896E-04-2.43067E-02-2.30044E-14 1.09927E-13
 -1      3093 2.00058E+01 2.22427E-02-1.25646E-04-1.93001E-02 9.12062E-14 9.70645E-14
 -1      3094 2.00049E+01 3.36272E-02-1.36302E-05-2.79885E-02 6.44776E-14-7.59902E-15
 -1      3095 2.00059E+01 1.88175E-02 1.62533E-04-1.50981E-02 9.28268E-14 2.82687E-13
 -1      3096 2.00045E+01 1.56291E-02-9.15613E-05-1.14870E-02 1.05621E-13 2.61689E-13
 -1      3097 2.00047E+01 2.42890E-02-1.51258E-05-1.78464E-02 1.60746E-13 1.59328E-13
 -1      3098 2.00045E+01 1.29917E-02 1.21420E-04-8.51298E-03-3.68619E-14 2.90802E-13
 -1      3099 2.00035E+01 1.05739E-02-6.42078E-05-5.98641E-03-3.34688E-14 2.56841E-13
 -1      3100 2.00044E+01 1.69839E-02-1.62981E-05-1.05307E-02 3.24312E-14 1.43751E-13
 -1      3101 2.00034E+01 8.59861E-03 8.85851E-05-3.94857E-03-4.60110E-14 1.44046E-13
 -1      3102 2.00026E+01 6.81501E-03-4.30412E-05-2.24439E-03-5.16613E-14-8.89023E-15
 -1      3103 2.00039E+01 1.14257E-02-1.66569E-05-5.40115E-03-9.74401E-14 1.26129E-13
 -1      3104 2.00024E+01 5.37635E-03 6.29095E-05-9.03988E-04 9.26507E-14-5.62168E-14
 -1      3105 2.00019E+01 4.09800E-03-2.72059E-05 1.91878E-04 2.39271E-13-2.07797E-14
 -1      3106 2.00033E+01 7.30996E-03-1.61618E-05-1.92520E-03-3.22955E-14-1.12894E-13
 -1      3107 2.00017E+01 3.08096E-03 4.32542E-05 1.02503E-03 3.27486E-13 6.60568E-14
 -1      3108 2.00014E+01 2.19332E-03-1.57614E-05 1.68245E-03 2.78144E-13 4.40728E-15
 -1      3109 2.00027E+01 4.34692E-03-1.49781E-05 3.27932E-04 3.16855E-13-1.43389E-13
 -1      3110 2.00011E+01 1.49788E-03 2.85411E-05 2.15622E-03 1.56782E-13 6.17988E-15
 -1      3111 2.00009E+01 9.03432E-04-7.80911E-06 2.50637E-03-8.46560E-14-8.96458E-14
 -1      3112 2.00022E+01 2.27810E-03-1.33365E-05 1.69835E-03 1.81659E-13-1.52216E-13
 -1      3113 2.00007E+01 4.45642E-04 1.78026E-05 2.73292E-03-1.33807E-13 7.03432E-14
 -1      3114 2.00006E+01 6.37782E-05-2.55616E-06 2.87431E-03-1.08501E-13 3.79000E-14
 -1      3115 2.00017E+01 8.82668E-04-1.14659E-05 2.44818E-03 7.92829E-14 5.39532E-14
 -1      3116 2.00004E+01-2.25212E-04 1.01978E-05 2.93650E-03-2.69509E-13 7.66780E-14
 -1      3117 2.00003E+01-4.60085E-04 6.33853E-07 2.94076E-03-2.05098E-13 3.03506E-14
 -1      3118 2.00013E+01-2.25002E-05-9.58503E-06 2.77452E-03-9.96735E-14 1.61598E-13
 -1      3119 2.00001E+01-6.36222E-04 5.02219E-06 2.89765E-03-6.51922E-14 8.86605E-14
 -1      3120 2.00001E+01-7.77271E-04 1.99780E-06 2.81465E-03-3.33145E-14 5.78295E-14
 -1      3121 2.00009E+01-5.86890E-04-7.97630E-06 2.82140E-03-6.88749E-14 2.31206E-13
 -1      3122 2.00000E+01-8.83580E-04 2.24564E-06 2.70456E-03-1.27375E-14 5.02659E-14
 -1      3123 2.00000E+01-9.74155E-04 3.39973E-06 2.56908E-03 2.04001E-14 1.58204E-13
 -1      3124 2.00006E+01-9.31819E-04-6.62605E-06 2.68958E-03 3.62545E-14 1.55941E-13
 -1      3125 2.64483E+01 5.99217E+00-1.41243E-01-4.20668E-01-2.89296E-13-1.97691E-14
 -1      3126 2.66276E+01 5.28978E+00-6.22258E-02-1.44619E+00-2.90046E-13 1.42043E-13
 -1      3127 9.45571E+00 4.27895E-01 1.19153E-01-2.61832E+00 8.05120E-14 2.90851E-13
 -1      3128 1.08402E+01-4.50717E-01 7.00107E-02-4.52541E+00 1.32540E-13 2.02782E-13
 -1      3129 1.89068E+01 1.25943E+00-1.50077E-02 1.64816E+00 1.64870E-14-7.07780E-14
 -1      3130 1.87450E+01 1.34191E+00 2.95787E-03 1.85301E+00 5.59730E-14-1.00361E-13
 -1      3131 1.82821E+01 1.37365E+00-1.93164E-02 2.05497E+00 9.04281E-14-1.62006E-13
 -1      3132 1.80884E+01 1.36428E+00 1.02137E-02 2.30211E+00-7.49893E-14-6.05884E-14
 -1      3133 1.78235E+01 1.57520E+00 2.43661E-02 1.67061E+00 2.76101E-14-9.72371E-14
 -1      3134 1.74344E+01 1.25035E+00-1.63538E-02 2.60925E+00-1.25700E-13 8.62908E-14
 -1      3135 1.72419E+01 9.77181E-01 3.03516E-02 2.95759E+00-1.88332E-13 1.30843E-13
 -1      3136 1.67499E+01 1.57439E+00 3.10860E-02 2.09832E+00 4.77081E-15-3.94418E-14
 -1      3137 1.93460E+01 1.05745E+00-1.11341E-02 1.31990E+00-9.90370E-15-1.11191E-14
 -1      3138 1.92367E+01 1.16793E+00 1.34443E-03 1.49200E+00-2.14585E-14-6.81089E-14
 -1      3139 1.85707E+01 1.38984E+00 1.74141E-02 1.36675E+00 7.93679E-15-1.25904E-14
 -1      3140 1.96369E+01 8.45606E-01-8.14458E-03 1.04821E+00 6.44527E-14 1.26810E-13
 -1      3141 1.95733E+01 9.53410E-01 1.34626E-03 1.19177E+00 4.01088E-14-1.01902E-14
 -1      3142 1.90909E+01 1.15031E+00 1.23266E-02 1.11962E+00-3.66693E-14-2.25271E-14
 -1      3143 1.98195E+01 6.56776E-01-6.06575E-03 8.23291E-01 1.00542E-14 1.14927E-13
 -1      3144 1.97890E+01 7.49854E-01 1.53970E-03 9.41123E-01 3.86587E-14 1.27596E-13
 -1      3145 1.94412E+01 9.16586E-01 8.53660E-03 9.08556E-01 7.17048E-15 3.70513E-14
 -1      3146 1.99320E+01 4.94661E-01-4.37171E-03 6.30994E-01 8.61731E-14 7.04345E-14
 -1      3147 1.99219E+01 5.73013E-01 1.70551E-03 7.29742E-01 7.86993E-14 9.99477E-14
 -1      3148 1.96744E+01 7.08467E-01 5.72357E-03 7.23289E-01 8.50565E-14 1.38772E-13
 -1      3149 1.99912E+01 3.73632E-01-3.06037E-03 4.84135E-01 5.80599E-14-3.87667E-14
 -1      3150 1.99940E+01 4.31974E-01 1.72926E-03 5.58744E-01 7.75670E-14 2.26669E-14
 -1      3151 1.98208E+01 5.38853E-01 3.57058E-03 5.67228E-01 1.41101E-13 1.83098E-13
 -1      3152 2.00206E+01 2.80263E-01-2.19460E-03 3.67155E-01-1.59348E-13-1.37751E-13
 -1      3153 2.00292E+01 3.25184E-01 1.63041E-03 4.25609E-01-5.08420E-14-1.61455E-13
 -1      3154 1.99078E+01 4.08561E-01 2.19598E-03 4.41133E-01 4.34444E-14 1.44550E-14
 -1      3155 2.00327E+01 2.09198E-01-1.56213E-03 2.75150E-01-1.06574E-13-1.33117E-13
 -1      3156 2.00434E+01 2.43346E-01 1.43251E-03 3.20470E-01-2.07155E-13-1.67611E-13
 -1      3157 1.99593E+01 3.07770E-01 1.31512E-03 3.38308E-01-1.44494E-13-1.64477E-13
 -1      3158 2.00351E+01 1.55450E-01-1.10618E-03 2.03576E-01 2.65447E-14-1.76712E-13
 -1      3159 2.00459E+01 1.81269E-01 1.21351E-03 2.38382E-01-4.20744E-15-1.28624E-13
 -1      3160 1.99884E+01 2.30612E-01 7.55331E-04 2.55842E-01-4.15414E-14-2.03116E-13
 -1      3161 2.00325E+01 1.14856E-01-8.18936E-04 1.48454E-01 8.99084E-14-1.92940E-14
 -1      3162 2.00423E+01 1.34377E-01 9.94233E-04 1.74965E-01 4.06577E-14-7.92716E-14
 -1      3163 2.00038E+01 1.71931E-01 4.15082E-04 1.90669E-01 2.99880E-14-2.10481E-13
 -1      3164 2.00275E+01 8.30503E-02-5.77065E-04 1.04670E-01-1.06672E-13 5.76124E-14
 -1      3165 2.00361E+01 9.82353E-02 7.93085E-04 1.25408E-01 3.39167E-14 1.07838E-13
 -1      3166 2.00111E+01 1.26617E-01 2.51016E-04 1.38833E-01-4.24316E-14 7.74717E-15
 -1      3167 2.00224E+01 6.05084E-02-3.84911E-04 7.35390E-02-1.77292E-14 2.38122E-14
 -1      3168 2.00291E+01 7.13691E-02 6.31227E-04 8.82338E-02-5.82560E-14-1.23174E-15
 -1      3169 2.00134E+01 9.23010E-02 6.99796E-05 9.90871E-02-5.27990E-14 3.24842E-14
 -1      3170 2.00175E+01 4.35796E-02-2.68477E-04 5.03637E-02 1.48303E-13-1.32810E-13
 -1      3171 2.00227E+01 5.17067E-02 4.88583E-04 6.11938E-02 1.38649E-13-2.38950E-16
 -1      3172 2.00133E+01 6.72681E-02 1.10484E-06 6.98305E-02 9.69623E-14-1.22956E-13
 -1      3173 2.00132E+01 3.09458E-02-1.86141E-04 3.33640E-02 2.62089E-14-1.23720E-13
 -1      3174 2.00172E+01 3.70013E-02 3.73702E-04 4.12423E-02 4.14811E-15-1.48826E-13
 -1      3175 2.00120E+01 4.84566E-02-3.18722E-05 4.79374E-02 1.38652E-13-1.99215E-13
 -1      3176 2.00096E+01 2.15772E-02-1.27372E-04 2.10947E-02 2.74338E-13 7.67093E-14
 -1      3177 2.00127E+01 2.60578E-02 2.81594E-04 2.67332E-02 8.10517E-14-8.76167E-14
 -1      3178 2.00102E+01 3.43909E-02-4.54437E-05 3.18061E-02 1.93714E-14-1.15260E-13
 -1      3179 2.00068E+01 1.46771E-02-9.18504E-05 1.24031E-02 9.70623E-14 2.34234E-13
 -1      3180 2.00090E+01 1.79756E-02 2.09072E-04 1.63651E-02 1.81117E-13 1.74567E-13
 -1      3181 2.00084E+01 2.39488E-02-4.74909E-05 2.01237E-02 1.41036E-13 1.34200E-13
 -1      3182 2.00046E+01 9.46285E-03-6.05419E-05 6.15304E-03 1.74217E-14 2.11273E-13
 -1      3183 2.00062E+01 1.19266E-02 1.51135E-04 8.95694E-03 1.97772E-13 2.70909E-13
 -1      3184 2.00066E+01 1.61443E-02-3.45168E-05 1.16805E-02 1.71630E-14 3.22678E-13
 -1      3185 2.00030E+01 5.95317E-03-3.44281E-05 2.21603E-03-2.45841E-13 1.19141E-13
 -1      3186 2.00041E+01 7.62118E-03 1.07699E-04 3.97226E-03-9.82102E-14 2.09471E-13
 -1      3187 2.00051E+01 1.04531E-02-3.99817E-05 5.85791E-03-3.91624E-14 4.73046E-13
 -1      3188 2.00018E+01 3.48192E-03-1.97220E-05-3.16100E-04-2.95923E-13-7.97679E-14
 -1      3189 2.00025E+01 4.64185E-03 7.39559E-05 7.91343E-04-1.60883E-13 2.43210E-14
 -1      3190 2.00038E+01 6.53208E-03-3.38884E-05 2.08271E-03-1.27493E-13 2.93899E-13
 -1      3191 2.00010E+01 1.78873E-03-1.00652E-05-1.84504E-03-9.84302E-14-1.92288E-13
 -1      3192 2.00015E+01 2.57645E-03 4.97145E-05-1.19390E-03-2.82845E-13-2.29170E-13
 -1      3193 2.00028E+01 3.78382E-03-2.76672E-05-3.43127E-04-1.39752E-13-4.75953E-14
 -1      3194 2.00005E+01 6.64177E-04-3.78250E-06-2.67684E-03 1.34783E-14-3.04995E-13
 -1      3195 2.00007E+01 1.18166E-03 3.20292E-05-2.33984E-03 3.01276E-15-2.54001E-13
 -1      3196 2.00020E+01 1.90571E-03-2.20217E-05-1.80753E-03-8.73504E-14-2.32248E-13
 -1      3197 2.00001E+01-5.58021E-05-2.83701E-07-3.03834E-03 1.40464E-13-2.34861E-13
 -1      3198 2.00002E+01 2.72407E-04 1.95745E-05-2.91052E-03 6.40395E-14-3.50156E-13
 -1      3199 2.00014E+01 6.61563E-04-1.70981E-05-2.60324E-03 6.03934E-14-6.82415E-14
 -1      3200 1.99998E+01-5.10805E-04 1.93575E-06-3.08783E-03-2.25725E-13 2.23828E-13
 -1      3201 1.99999E+01-3.08167E-04 1.08336E-05-3.10034E-03-1.18040E-13 5.51009E-14
 -1      3202 2.00009E+01-1.41519E-04-1.22303E-05-2.94840E-03-2.03841E-13 3.39470E-13
 -1      3203 1.99997E+01-7.58723E-04 3.38394E-06-2.93715E-03-9.06325E-14 1.96737E-13
 -1      3204 1.99997E+01-6.48325E-04 4.76179E-06-3.03457E-03-1.24430E-13 2.21036E-13
 -1      3205 2.00005E+01-6.33492E-04-9.74518E-06-2.99001E-03-1.83497E-13 4.57174E-13
 -1      3206 1.99996E+01-9.07068E-04 3.50347E-06-2.66993E-03-6.96338E-14 2.87194E-13
 -1      3207 1.99996E+01-8.42627E-04 7.81441E-07-2.81962E-03-1.23607E-13 1.68789E-13
 -1      3208 2.00002E+01-9.10599E-04-6.89156E-06-2.84163E-03-3.82694E-14 1.18457E-13
 -1      3209 1.99996E+01-1.01498E-03 1.70836E-06-2.34750E-03-2.94391E-15 8.62619E-14
 -1      3210 1.99995E+01-9.62392E-04-1.53435E-06-2.52948E-03 6.27760E-15 1.97892E-13
 -1      3211 2.00001E+01-1.07843E-03-4.19627E-06-2.59299E-03 6.04020E-14 2.88006E-13
 -1      3212 1.99999E+01-1.19472E-03 3.00217E-07-2.29290E-03 1.25920E-14 1.69687E-13
 -1      3213 2.31027E+01-4.11306E+00-8.80236E-02 4.11413E+00 2.01023E-13 2.04831E-13
 -1      3214 2.11126E+01-3.44953E+00 6.55523E-02 4.96177E+00 2.56184E-13 1.19023E-13
 -1      3215 2.67687E+01 3.50617E+00-1.72863E-01-1.95865E+00-2.83176E-13 2.29983E-13
 -1      3216 2.74085E+01 1.85318E+00-2.39321E-02-2.06220E+00-2.06529E-13 2.98317E-13
 -1      3217 2.00015E+01-2.06114E-03 2.34298E-06 1.83607E-04 1.87166E-13-2.63620E-13
 -1      3218 2.00015E+01-2.06497E-03 2.41610E-06-1.45322E-04 2.44996E-13-2.32775E-13
 -1      3219 2.00017E+01-1.92268E-03-1.83922E-06 3.83744E-04 2.22599E-13-4.30240E-13
 -1      3220 2.00006E+01-1.58015E-03-8.53418E-06 1.87165E-03 1.72411E-13 2.23216E-13
 -1      3221 2.00008E+01-1.70737E-03 7.08538E-06 1.68881E-03-1.02560E-14-1.46730E-14
 -1      3222 1.70623E+01-2.32452E+00 7.10774E-02-5.16691E+00-7.49817E-14-1.96357E-13
 -1      3223 1.83326E+01-3.36430E+00 1.51550E-01-5.97206E+00 1.24567E-13-1.32394E-14
 -1      3224 2.11053E+01-4.43445E+00-9.58710E-02-5.26119E+00 2.62824E-13 4.25007E-14
 -1      3225 2.40020E+01-4.32072E+00 1.18869E-01-3.67423E+00 3.58415E-13-5.47652E-14
 -1      3226 2.55930E+01-3.95732E+00-7.99464E-02-1.96685E+00 2.22627E-13-1.96032E-13
 -1      3227 2.75818E+01-2.37973E-01-1.59263E-01-1.41843E+00-1.44981E-13 3.96981E-13
 -1      3228 2.75776E+01-1.70440E+00 3.09245E-02-4.53326E-01-8.72774E-14 4.46677E-13
 -1      3229 2.65320E+01 5.01767E+00-8.90926E-02 1.55131E+00-2.01159E-13-3.15033E-13
 -1      3230 2.64520E+01 5.98026E+00-1.32404E-01 5.34347E-01-2.79277E-13-1.58071E-13
 -1      3231 2.54534E+01 5.21469E+00-8.34807E-02 1.00293E-01-1.71883E-13-1.51051E-13
 -1      3232 2.09779E+01 1.30492E+00 4.57476E-03-6.54631E-01-3.56165E-14-1.56028E-13
 -1      3233 2.34090E+01-5.12214E+00 9.08480E-02 3.96565E+00-5.01404E-14 2.94677E-14
 -1      3234 1.99998E+01-1.19653E-03-5.06368E-06 2.07624E-03 3.11061E-13 3.32402E-13
 -1      3235 2.00003E+01-1.43063E-03 1.15670E-05 2.02805E-03 2.44078E-13 2.12402E-13
 -1      3236 2.00006E+01-1.43504E-03 7.62358E-07 2.07619E-03 1.92305E-13 3.28508E-13
 -1      3237 1.99998E+01-1.13823E-03-3.27884E-06 2.23771E-03 2.37196E-13 3.68974E-13
 -1      3238 2.00010E+01-1.82314E-03-3.26390E-06 1.42873E-03-1.21687E-13-3.21319E-13
 -1      3239 2.00012E+01-1.91308E-03 5.43215E-06 1.16869E-03-1.57313E-13-2.28064E-13
 -1      3240 2.00015E+01-1.83173E-03-4.20488E-07 1.07566E-03-3.68610E-14-3.01618E-13
 -1      3241 2.00011E+01-1.66202E-03 7.92709E-07 1.66706E-03-1.46057E-13-7.58863E-14
 -1      3242 2.66086E+01-3.26555E+00-1.30232E-01 9.91571E-01-1.94671E-14 4.38715E-13
 -1      3243 2.52121E+01-3.74544E+00 7.20617E-02 2.54713E+00 9.34344E-14 3.42695E-13
 -1      3244 1.10101E+01 8.55750E-01 6.62743E-02 3.36761E+00 2.32515E-13-2.65191E-13
 -1      3245 9.66385E+00 1.24015E+00 1.70117E-01 2.17279E+00 2.10013E-13-2.62179E-13
 -1      3246 2.65530E+01 1.84639E+00-5.85015E-02 2.04293E+00-5.55944E-14-3.26274E-13
 -1      3247 2.64360E+01 3.38508E+00-1.47494E-01 1.99346E+00-1.47021E-13-3.41512E-13
 -1      3248 1.31344E+01-1.36172E+00 1.44300E-01-5.53807E+00 1.55591E-13 2.38726E-13
 -1      3249 1.52940E+01-2.60141E+00-2.01352E-02-6.19610E+00 1.50074E-13 7.97001E-14
 -1      3250 2.16758E+01-1.98743E-01 9.20685E-03-5.22981E-01-7.03979E-14-7.32353E-14
 -1      3251 2.17387E+01-4.24377E-01-1.07977E-02-5.64197E-01-5.71140E-14-7.74440E-14
 -1      3252 2.20304E+01-5.77040E-01-3.15906E-03-5.08972E-01-3.86003E-14-6.61752E-14
 -1      3253 9.10511E+00 1.20597E+00 8.18864E-02 7.16306E-01 1.67071E-13-2.53839E-13
 -1      3254 9.42836E+00 1.16925E+00 1.81811E-01-1.10799E+00 1.46379E-13-2.56961E-13
 -1      3255 1.07999E+01 1.67322E+00 9.83457E-02 9.35959E-01 1.91206E-13-2.25236E-13
 -1      3256 1.68303E+01 5.72981E-01 1.00985E-02 3.39864E+00-3.33369E-13 1.95977E-13
 -1      3257 1.71458E+01-5.34697E-02 5.64776E-02 3.80114E+00-3.77812E-13 2.53363E-13
 -1      3258 1.56261E+01 1.09361E+00 1.30898E-02 2.82645E+00-1.89664E-13 1.21200E-13
 -1      3259 1.91153E+01 2.23289E+00-7.51793E-03-1.30200E+00 1.72974E-13 4.22253E-14
 -1      3260 1.84773E+01 2.69998E+00 1.52051E-03-8.93645E-01 2.01448E-13 2.67106E-14
 -1      3261 1.77701E+01 2.68956E+00 6.70719E-03-9.74455E-01 1.96135E-13 1.32343E-14
 -1      3262 1.89031E+01 2.06299E+00 8.05511E-03-1.72691E+00 1.45533E-13 1.79930E-14
 -1      3263 1.71824E+01 2.92729E+00-2.38980E-02 1.65006E+00 2.36190E-13-1.06285E-13
 -1      3264 1.76383E+01 2.73943E+00 1.83730E-02 1.71965E+00 2.05749E-13-1.09389E-13
 -1      3265 1.53002E+01-9.50282E-01 1.24358E-01-4.70676E+00-1.21222E-14-1.93762E-13
 -1      3266 1.79245E+01-1.27974E+00 8.82876E-02-4.53813E+00-4.73926E-14-1.65798E-13
 -1      3267 1.75003E+01-1.49588E-01 1.95538E-02-4.04281E+00 1.91618E-14-1.26975E-13
 -1      3268 1.42127E+01 6.16949E-02 4.40641E-02-3.94841E+00 3.75776E-14-1.73445E-13
 -1      3269 1.81373E+01 2.35710E+00-1.74694E-02 1.71630E+00 1.84678E-13-1.15130E-13
 -1      3270 1.86749E+01 2.13395E+00 1.65751E-02 1.60268E+00 1.67008E-13-1.09244E-13
 -1      3271 1.78935E+01 2.13010E+00-5.69156E-03 1.98454E+00 2.00559E-13-9.12189E-14
 -1      3272 2.64406E+01-2.25880E+00 3.96021E-03-5.24452E-03-2.24712E-14 3.89303E-13
 -1      3273 1.13983E+01 1.04343E+00 1.14033E-01-2.10421E+00 1.08025E-13-2.43860E-13
 -1      3274 1.68023E+01 3.15445E+00 7.05561E-03-5.52888E-02 2.04782E-13-4.99640E-14
 -1      3275 1.69140E+01 3.38216E+00-1.35208E-02 3.47823E-01 2.24034E-13-6.95507E-14
 -1      3276 1.66954E+01 3.47703E+00 5.11545E-03 6.77462E-01 2.20967E-13-8.59350E-14
 -1      3277 1.30022E+01-5.20246E-01 1.09109E-01-4.55746E+00 1.45710E-13 2.14204E-13
 -1      3278 2.58219E+01 3.86744E+00-5.13843E-02-1.66773E+00-2.23446E-13 9.26620E-14
 -1      3279 2.10950E+01 8.88292E-01-4.43147E-03-5.33560E-01-3.91877E-14-1.34759E-13
 -1      3280 1.99999E+01-1.07638E-03 1.21889E-06 2.36990E-03 9.62982E-14 2.03297E-13
 -1      3281 1.47904E+01-1.02732E+00 5.23078E-02 5.56852E+00 2.97387E-13-1.53974E-13
 -1      3282 1.29962E+01 2.24371E-03 5.63886E-02 4.69228E+00 2.85362E-13-2.28678E-13
 -1      3283 2.61475E+01-3.25467E+00 6.34976E-03-7.96267E-01 1.65592E-13-1.83926E-13
 -1      3284 2.58710E+01-2.34382E+00-3.78923E-02 2.88764E-01 1.52760E-13-1.52977E-13
 -1      3285 2.47892E+01-3.45307E+00-1.41193E-02-1.45423E+00 2.28793E-13-1.24527E-13
 -1      3286 2.00008E+01-1.73915E-03 7.24926E-06-1.68190E-03 9.97059E-15-5.78247E-14
 -1      3287 2.00006E+01-1.60937E-03-1.55911E-06-1.86796E-03-1.31871E-13 2.46817E-14
 -1      3288 1.66611E+01 3.33868E+00-2.34838E-02 1.15581E+00 2.46495E-13-9.92041E-14
 -1      3289 1.68608E+01 3.25635E+00 1.41820E-02 1.39692E+00 2.46913E-13-1.19329E-13
 -1      3290 1.68759E+01 2.78772E+00 7.27799E-03 1.73867E+00 2.36662E-13-1.00244E-13
 -1      3291 1.63707E+01 3.20470E+00 6.30070E-03 9.72548E-01 2.35024E-13-1.05995E-13
 -1      3292 2.42380E+01-3.40345E+00 4.91314E-02 2.69401E+00 1.57586E-13 3.00008E-13
 -1      3293 2.66449E+01 6.25769E-01-3.64866E-02-1.75559E+00-1.19273E-13 2.73392E-13
 -1      3294 2.00017E+01-1.93310E-03-1.85658E-06-3.44783E-04 2.34287E-13-3.20940E-13
 -1      3295 2.00014E+01-2.04703E-03 4.22343E-06-5.05482E-04 2.21585E-13-2.59804E-13
 -1      3296 2.00013E+01-2.00512E-03-5.48235E-07-8.21043E-04 1.37972E-13-2.15003E-13
 -1      3297 2.00012E+01-1.93720E-03 5.82039E-06-1.14475E-03 1.33566E-13-1.30476E-13
 -1      3298 2.00011E+01-1.85586E-03-3.73429E-06-1.41215E-03 1.31405E-13-1.47028E-13
 -1      3299 2.00012E+01-1.70119E-03 5.16741E-07-1.64522E-03 1.24477E-13-2.53894E-14
 -1      3300 2.00015E+01-1.85846E-03-3.75148E-06-1.04391E-03 3.18424E-13-1.07195E-13
 -1      3301 2.14750E+01 4.33287E-02-1.03851E-02-4.98721E-01-7.94560E-14-9.51988E-14
 -1      3302 2.16506E+01-8.39077E-02 2.73356E-03-3.83551E-01-5.63421E-14-1.02341E-13
 -1      3303 2.14208E+01 3.35210E-01 6.23727E-03-5.40771E-01-6.87038E-14-1.05811E-13
 -1      3304 1.76144E+01-2.56297E+00 9.21421E-02-5.46351E+00 1.66360E-13 1.40235E-14
 -1      3305 1.03926E+01 1.12096E+00 3.90810E-02-1.81270E-02-5.07060E-15 3.01453E-13
 -1      3306 9.75379E+00 9.39329E-01 1.52828E-01-1.38069E+00 5.06904E-14 3.27433E-13
 -1      3307 1.11785E+01 9.17311E-01 8.94428E-02-2.11543E+00 1.85683E-13 1.93269E-13
 -1      3308 2.06913E+01-2.64248E+00 7.13457E-02 4.52006E+00 2.78784E-13 1.15300E-13
 -1      3309 1.91421E+01-2.83081E+00-9.13450E-03 5.50482E+00 2.65121E-13 8.05883E-14
 -1      3310 2.00511E+01 1.40748E+00 4.87564E-04 8.21378E-01 6.66116E-14-8.09932E-14
 -1      3311 2.03960E+01 1.23856E+00 8.93386E-04 5.29067E-01 3.68863E-14-1.16563E-13
 -1      3312 1.41584E+01 6.02959E-01-5.17826E-03 4.03232E+00 2.88049E-13-1.69947E-13
 -1      3313 1.26824E+01 7.88071E-01 1.07679E-01 3.91922E+00 2.55681E-13-2.39378E-13
 -1      3314 1.23681E+01 1.60064E+00 6.79660E-02 2.74894E+00 2.35374E-13-2.12108E-13
 -1      3315 2.64555E+01 5.12959E-01-8.07470E-02 1.90305E+00 1.45856E-14-2.96475E-13
 -1      3316 2.54266E+01 1.37599E+00-1.86737E-02 2.07265E+00-4.06307E-14-3.63980E-13
 -1      3317 2.60346E+01-6.25239E-01-3.18982E-02 1.42886E+00 4.77673E-14-2.92918E-13
 -1      3318 2.00003E+01-1.17829E-03-4.47818E-06 2.39743E-03 1.16132E-13 3.21018E-13
 -1      3319 1.79981E+01 6.40645E-01 4.22139E-02-3.41059E+00 2.71150E-14-1.03622E-13
 -1      3320 1.80159E+01 1.22268E+00-9.46565E-03-2.94856E+00 4.02989E-14-5.31051E-14
 -1      3321 1.65527E+01 7.09181E-01 4.10733E-02-3.51510E+00 4.04225E-14-1.32110E-13
 -1      3322 2.54741E+01 3.79438E+00-5.49772E-02 1.71885E+00-1.18704E-13-3.48988E-13
 -1      3323 2.24677E+01-3.90748E+00 3.84975E-02-3.93880E+00 3.49720E-13-1.28422E-13
 -1      3324 1.70221E+01-1.87129E+00 8.55162E-02 5.61329E+00 2.76033E-13-3.57839E-14
 -1      3325 1.83883E+01 1.56291E+00 1.99073E-02-2.53103E+00 7.54245E-14-2.34565E-14
 -1      3326 1.85901E+01 1.86033E+00-4.64950E-03-2.07833E+00 1.30693E-13 1.03069E-14
 -1      3327 1.79414E+01 2.21609E+00 8.11950E-03-1.75026E+00 1.54845E-13-7.30319E-16
 -1      3328 1.73380E+01 1.73831E+00 3.02846E-02-2.48758E+00 1.00843E-13-5.61816E-14
 -1      3329 1.49922E+01-1.03801E-03 5.95758E-02 3.85592E+00-2.51670E-13 3.48915E-13
 -1      3330 2.06757E+01 1.12539E+00 4.60642E-03 1.96528E-01 2.04157E-14-1.36082E-13
 -1      3331 2.09042E+01 9.80907E-01-3.35348E-03-7.43671E-02-8.47683E-16-1.40913E-13
 -1      3332 2.07903E+01 7.09486E-01-3.76081E-03 4.82371E-01 1.40419E-14-1.03145E-13
 -1      3333 1.15267E+01 5.87923E-02 1.75730E-01 3.29744E+00-2.15123E-13 3.26641E-13
 -1      3334 1.14176E+01 6.85487E-01 8.99554E-02 2.26803E+00-1.42483E-13 3.25351E-13
 -1      3335 2.30458E+01-8.98718E-01 7.12031E-04-1.00868E+00-7.69588E-14-5.21597E-14
 -1      3336 2.30980E+01-6.54047E-01-6.09069E-03-1.21063E+00-7.60921E-14-4.79751E-14
 -1      3337 2.32020E+01-2.63542E-01-1.89141E-02-1.48880E+00-5.52739E-14-5.46958E-15
 -1      3338 2.31544E+01 2.92999E-01 4.67751E-03-1.58628E+00-5.25639E-14 2.59764E-14
 -1      3339 2.36929E+01-5.68085E-01 1.01456E-02-1.32927E+00-4.36786E-14-2.43347E-14
 -1      3340 2.30220E+01 9.34182E-01-3.25139E-02-1.64762E+00-8.05767E-14 1.67128E-14
 -1      3341 2.29082E+01 1.63387E+00 1.76295E-02-1.49851E+00-1.01584E-13-3.90631E-14
 -1      3342 2.37620E+01 6.41283E-01 1.29427E-02-1.72734E+00-7.01748E-14 3.88023E-14
 -1      3343 2.26331E+01 2.22540E+00-4.09077E-02-1.13920E+00-1.04599E-13-7.28848E-14
 -1      3344 2.25597E+01 2.70505E+00 5.93233E-03-7.28989E-01-9.85045E-14-3.73820E-14
 -1      3345 2.34241E+01 2.25473E+00 9.33568E-03-1.50799E+00-1.14666E-13-5.28683E-14
 -1      3346 2.24239E+01 2.92532E+00-1.88110E-02-7.53675E-02-9.37098E-14-5.18101E-14
 -1      3347 2.24257E+01 2.86919E+00-2.17982E-02 4.45514E-01-6.12834E-14-1.52107E-14
 -1      3348 2.31113E+01 3.24920E+00-4.74849E-03-4.98100E-01-8.51480E-14-6.93408E-14
 -1      3349 2.25590E+01 2.55410E+00 8.35910E-03 1.06214E+00-2.62342E-14-8.98977E-15
 -1      3350 2.26340E+01 1.99510E+00-3.71952E-02 1.43668E+00 7.48013E-15 4.88984E-14
 -1      3351 2.30992E+01 3.10976E+00-1.10048E-02 8.34951E-01-3.04956E-14-4.49551E-14
 -1      3352 2.28615E+01 1.34287E+00 1.74378E-02 1.69672E+00-1.65545E-14 2.06428E-14
 -1      3353 2.29389E+01 6.19983E-01-3.13364E-02 1.78862E+00-4.79781E-15 6.01830E-15
 -1      3354 2.33975E+01 1.88644E+00 3.93247E-03 1.71437E+00-2.31586E-15-1.15227E-13
 -1      3355 2.30180E+01-2.38651E-02 7.07607E-03 1.65661E+00 1.58929E-14-2.58456E-14
 -1      3356 2.30206E+01-5.77450E-01-1.38852E-02 1.50710E+00-3.51802E-15-5.43757E-14
 -1      3357 2.36053E+01 2.53693E-01 1.07908E-02 1.78058E+00-2.12050E-14-9.88328E-14
 -1      3358 2.28594E+01-9.87063E-01-6.30700E-03 1.17675E+00-4.05421E-14-2.16603E-14
 -1      3359 2.27617E+01-1.25442E+00 5.78885E-04 9.16986E-01-3.26402E-14 6.63423E-15
 -1      3360 2.34421E+01-9.72187E-01 7.23424E-03 1.26026E+00 2.20830E-15-3.97070E-14
 -1      3361 2.24410E+01-1.39352E+00-9.87682E-03 5.75420E-01-1.65876E-14 4.81919E-14
 -1      3362 2.22680E+01-1.42092E+00 9.94935E-03 3.22303E-01 2.31020E-14 6.64188E-14
 -1      3363 2.29207E+01-1.55453E+00 2.52157E-03 5.46031E-01-9.85223E-15 8.61557E-14
 -1      3364 2.19016E+01-1.37549E+00-8.38118E-03 6.50265E-02 2.02345E-14 1.09563E-13
 -1      3365 2.16995E+01-1.26228E+00 1.24625E-02-1.28205E-01 2.32602E-14 7.55486E-14
 -1      3366 2.22275E+01-1.60472E+00-6.09051E-03-5.09278E-02 5.24165E-14 9.37293E-14
 -1      3367 2.13679E+01-1.12492E+00-5.14014E-03-2.81684E-01 1.26384E-14 7.46178E-14
 -1      3368 2.11758E+01-9.59765E-01 1.10016E-02-4.04552E-01 1.53876E-14 5.14679E-14
 -1      3369 2.15489E+01-1.34338E+00-1.06385E-02-4.37822E-01 9.90321E-15 1.05451E-13
 -1      3370 2.09157E+01-7.99899E-01-2.07919E-03-4.74513E-01 2.26291E-14 5.40093E-14
 -1      3371 2.07552E+01-6.37142E-01 8.39546E-03-5.38505E-01-2.47901E-14-1.67826E-15
 -1      3372 2.09868E+01-9.70085E-01-1.06609E-02-6.30589E-01-1.36295E-15 8.96898E-14
 -1      3373 2.05699E+01-4.92407E-01-1.04507E-04-5.52858E-01-1.32537E-13 7.54630E-14
 -1      3374 2.04474E+01-3.57550E-01 5.68883E-03-5.74634E-01-1.55228E-13 3.45160E-15
 -1      3375 2.05688E+01-6.08047E-01-8.84103E-03-6.88021E-01-6.69328E-14 1.22639E-13
 -1      3376 2.03259E+01-2.43649E-01 9.10106E-04-5.56535E-01-5.93788E-14-3.54770E-15
 -1      3377 2.02388E+01-1.44222E-01 3.48219E-03-5.51225E-01-2.35320E-14 1.00852E-13
 -1      3378 2.02833E+01-3.11321E-01-6.58370E-03-6.63635E-01-1.14901E-13 9.32123E-14
 -1      3379 2.01658E+01-6.36792E-02 1.30189E-03-5.17011E-01-6.84977E-15 1.22345E-13
 -1      3380 2.01073E+01 2.44719E-03 1.87955E-03-4.96171E-01 1.07738E-13 1.36216E-13
 -1      3381 2.01034E+01-9.45333E-02-4.51284E-03-5.96963E-01-2.83343E-15 1.90471E-13
 -1      3382 2.00682E+01 5.36755E-02 1.34739E-03-4.56075E-01 1.28518E-13 1.43921E-13
 -1      3383 2.00310E+01 9.26704E-02 8.01213E-04-4.27714E-01 5.13059E-14 1.87257E-13
 -1      3384 2.00001E+01 4.84889E-02-2.88191E-03-5.13402E-01 1.43245E-13 1.51021E-13
 -1      3385 2.00138E+01 1.20974E-01 1.23417E-03-3.87628E-01-2.55840E-14 1.31162E-13
 -1      3386 1.99913E+01 1.39864E-01 1.26712E-04-3.56951E-01-5.76913E-14 1.00539E-13
 -1      3387 1.99485E+01 1.32113E-01-1.70475E-03-4.27656E-01-1.20071E-14 7.46155E-14
 -1      3388 1.99874E+01 1.51740E-01 1.06550E-03-3.19987E-01-2.90440E-14 1.62110E-13
 -1      3389 1.99745E+01 1.56901E-01-2.58414E-04-2.90170E-01 3.25094E-14 1.46305E-13
 -1      3390 1.99293E+01 1.72053E-01-9.09750E-04-3.47517E-01 1.56635E-15 4.43874E-14
 -1      3391 1.99778E+01 1.57938E-01 8.91451E-04-2.57743E-01 5.15621E-14 1.80220E-13
 -1      3392 1.99708E+01 1.54514E-01-4.47961E-04-2.30561E-01 1.23177E-13 1.57005E-13
 -1      3393 1.99287E+01 1.82317E-01-4.06161E-04-2.76598E-01 4.69871E-14 1.42734E-13
 -1      3394 1.99774E+01 1.49066E-01 7.32957E-04-2.03085E-01 9.06189E-14 1.68850E-13
 -1      3395 1.99739E+01 1.40881E-01-5.12721E-04-1.79380E-01 5.89017E-14 1.23597E-13
 -1      3396 1.99376E+01 1.74099E-01-1.09833E-04-2.16083E-01 8.47080E-14 1.69362E-13
 -1      3397 1.99814E+01 1.32092E-01 5.96347E-04-1.56714E-01 5.69511E-15 1.21264E-13
 -1      3398 1.99797E+01 1.21804E-01-5.03155E-04-1.36729E-01-4.65874E-14 2.22830E-14
 -1      3399 1.99502E+01 1.55680E-01 4.77415E-05-1.65821E-01-4.10241E-14 2.32010E-14
 -1      3400 1.99868E+01 1.11797E-01 4.81503E-04-1.18442E-01-2.51246E-14 8.15395E-14
 -1      3401 1.99860E+01 1.01125E-01-4.53624E-04-1.02056E-01-1.19517E-14 1.48517E-13
 -1      3402 1.99632E+01 1.32795E-01 1.17801E-04-1.24977E-01 3.31417E-15-9.03720E-15
 -1      3403 1.99921E+01 9.12299E-02 3.86080E-04-8.75904E-02-8.89248E-14 2.25075E-13
 -1      3404 1.99917E+01 8.11993E-02-3.86533E-04-7.44786E-02-6.06162E-14 2.52134E-13
 -1      3405 1.99748E+01 1.09156E-01 1.36286E-04-9.24124E-02 2.26916E-14 1.30855E-13
 -1      3406 1.99965E+01 7.21679E-02 3.07272E-04-6.32471E-02-4.90631E-14 2.76640E-13
 -1      3407 1.99962E+01 6.33100E-02-3.15704E-04-5.29872E-02-3.15733E-14 2.90724E-13
 -1      3408 1.99843E+01 8.69664E-02 1.27247E-04-6.69018E-02-2.79203E-14 2.28541E-13
 -1      3409 1.99998E+01 5.55002E-02 2.42446E-04-4.44255E-02-1.27889E-13 2.27495E-13
 -1      3410 1.99995E+01 4.80221E-02-2.48993E-04-3.65687E-02-7.22084E-14 1.60672E-13
 -1      3411 1.99916E+01 6.73731E-02 1.05840E-04-4.72576E-02-1.17601E-13 3.52868E-13
 -1      3412 2.00021E+01 4.15366E-02 1.89350E-04-3.01646E-02 9.52982E-14 9.43620E-14
 -1      3413 2.00017E+01 3.54432E-02-1.90341E-04-2.42777E-02 1.56476E-13 1.91147E-13
 -1      3414 1.99969E+01 5.08202E-02 8.10355E-05-3.23932E-02-6.71502E-15 3.67752E-13
 -1      3415 2.00035E+01 3.02318E-02 1.46144E-04-1.95837E-02 2.57903E-13 9.64918E-14
 -1      3416 2.00031E+01 2.54137E-02-1.41212E-04-1.52729E-02 1.44171E-13 1.92714E-13
 -1      3417 2.00004E+01 3.73156E-02 5.75390E-05-2.13516E-02 1.02199E-13 4.29303E-14
 -1      3418 2.00041E+01 2.13445E-02 1.11267E-04-1.19098E-02 5.74580E-14 1.52239E-13
 -1      3419 2.00037E+01 1.76369E-02-1.01554E-04-8.83253E-03 3.21375E-14 1.97235E-13
 -1      3420 2.00026E+01 2.66195E-02 3.76844E-05-1.33146E-02 8.90797E-14 2.29295E-13
 -1      3421 2.00043E+01 1.45433E-02 8.33790E-05-6.48636E-03-1.29079E-13 2.13988E-13
 -1      3422 2.00039E+01 1.17638E-02-7.05342E-05-4.35387E-03-1.65994E-13 1.66564E-13
 -1      3423 2.00038E+01 1.83715E-02 2.20951E-05-7.59888E-03-5.21051E-14 6.92705E-14
 -1      3424 2.00041E+01 9.47282E-03 6.13402E-05-2.77005E-03-1.55847E-13 1.62982E-13
 -1      3425 2.00037E+01 7.44381E-03-4.69696E-05-1.34577E-03-5.07980E-14 8.15427E-14
 -1      3426 2.00042E+01 1.21726E-02 1.06105E-05-3.64515E-03-2.12827E-13 2.16174E-13
 -1      3427 2.00037E+01 5.79297E-03 4.41527E-05-3.21947E-04 2.05953E-13-7.69238E-14
 -1      3428 2.00033E+01 4.35332E-03-2.95724E-05 5.83293E-04 2.93876E-13-9.85518E-14
 -1      3429 2.00042E+01 7.63347E-03 2.66779E-06-1.00405E-03 7.23267E-15 1.39284E-13
 -1      3430 2.00032E+01 3.19872E-03 3.09674E-05 1.20488E-03 2.54272E-13-2.12699E-13
 -1      3431 2.00029E+01 2.20913E-03-1.71162E-05 1.73885E-03 2.70035E-13-8.74724E-14
 -1      3432 2.00039E+01 4.40046E-03-2.42779E-06 6.78768E-04 2.10271E-13-1.31804E-13
 -1      3433 2.00026E+01 1.42825E-03 2.10307E-05 2.07871E-03 2.40031E-13-1.31278E-13
 -1      3434 2.00024E+01 7.72264E-04-8.52656E-06 2.35409E-03 1.85966E-13 2.90605E-14
 -1      3435 2.00034E+01 2.16726E-03-5.36418E-06 1.67756E-03 2.48133E-13-2.02927E-13
 -1      3436 2.00021E+01 2.63971E-04 1.37087E-05 2.50222E-03 1.66657E-13 7.55702E-14
 -1      3437 2.00019E+01-1.53410E-04-2.77153E-06 2.60288E-03 4.41085E-15 2.63802E-13
 -1      3438 2.00029E+01 6.77274E-04-6.75525E-06 2.20022E-03 2.79006E-13-2.25270E-13
 -1      3439 2.00016E+01-4.71586E-04 8.29415E-06 2.62556E-03-2.25703E-14 4.77296E-13
 -1      3440 2.00014E+01-7.27662E-04 5.06041E-07 2.61218E-03 1.38949E-13 5.92425E-13
 -1      3441 2.00023E+01-2.78940E-04-7.22967E-06 2.40063E-03 2.01612E-13 4.04305E-13
 -1      3442 2.00011E+01-9.21713E-04 4.45475E-06 2.55487E-03 8.47933E-14 3.90401E-13
 -1      3443 2.00010E+01-1.08600E-03 1.79638E-06 2.47145E-03 7.24078E-14 4.42856E-13
 -1      3444 2.00018E+01-8.76701E-04-7.59173E-06 2.39534E-03 1.43032E-15 5.22832E-13
 -1      3445 1.69404E+01-1.02847E+00 7.16486E-02 4.97554E+00 2.95663E-13-3.92845E-14
 -1      3446 2.41536E+01 3.94614E+00-8.65638E-02-1.00217E+00-1.72813E-13-4.13888E-14
 -1      3447 2.45362E+01 2.85148E+00-1.95569E-02-1.65118E+00-1.47479E-13 6.23468E-14
 -1      3448 1.73183E+01 2.52077E+00-1.02074E-02-1.24545E+00 1.77432E-13-4.70826E-15
 -1      3449 1.69223E+01 2.82200E+00 1.49879E-02-8.55031E-01 1.85613E-13-1.54542E-14
 -1      3450 1.70021E+01 2.33456E+00 1.37733E-03-1.59457E+00 1.64333E-13-1.30026E-14
 -1      3451 1.82912E+01 1.37163E+00-1.28347E-02 9.87264E-01-5.08213E-14 1.39987E-13
 -1      3452 1.79691E+01 1.48913E+00-7.52710E-03 1.09109E+00 8.57387E-15 1.32374E-13
 -1      3453 1.62411E+01 1.69276E+00-2.62851E-02 1.34095E+00 1.08602E-13 1.94389E-14
 -1      3454 1.56595E+01 1.68004E+00 1.37827E-02 1.51998E+00 2.66714E-15 1.44134E-14
 -1      3455 1.92643E+01 9.04206E-01-6.53063E-03 7.12833E-01 8.95312E-15 6.55031E-14
 -1      3456 1.91186E+01 1.01520E+00-3.52586E-03 7.96702E-01-2.47217E-14 6.91947E-14
 -1      3457 1.95402E+01 7.00099E-01-4.81476E-03 5.81606E-01 1.86283E-13 6.54353E-14
 -1      3458 1.94435E+01 7.98372E-01-1.89976E-03 6.59031E-01 5.96440E-14 4.90205E-14
 -1      3459 1.91948E+01 9.20624E-01 8.51094E-03 5.59183E-01 6.38919E-14-5.38627E-14
 -1      3460 1.97126E+01 5.41306E-01-3.55462E-03 4.69376E-01 9.31819E-14 6.16950E-14
 -1      3461 1.96566E+01 6.17149E-01-8.38791E-04 5.32993E-01 1.35374E-13 7.07601E-14
 -1      3462 1.94733E+01 7.21182E-01 5.85899E-03 4.75650E-01 1.74479E-13 6.34679E-14
 -1      3463 1.98248E+01 4.14675E-01-2.66966E-03 3.71751E-01 8.24522E-14 3.19404E-14
 -1      3464 1.97917E+01 4.75135E-01-1.09580E-04 4.25170E-01 1.67550E-13 1.52216E-13
 -1      3465 1.96566E+01 5.60826E-01 3.92163E-03 3.94125E-01 1.30518E-13 2.45625E-14
 -1      3466 1.98969E+01 3.15448E-01-1.98846E-03 2.89296E-01-9.30892E-14-1.99758E-13
 -1      3467 1.98783E+01 3.62762E-01 2.54327E-04 3.33159E-01-3.73101E-14-4.63298E-14
 -1      3468 1.97799E+01 4.32216E-01 2.61271E-03 3.18440E-01 1.41714E-13 1.44064E-13
 -1      3469 1.99423E+01 2.38490E-01-1.47124E-03 2.21326E-01 9.73188E-14-1.55980E-13
 -1      3470 1.99327E+01 2.75163E-01 4.28702E-04 2.56668E-01-7.70629E-14-1.67506E-13
 -1      3471 1.98619E+01 3.30575E-01 1.72297E-03 2.51606E-01-7.48688E-15-7.86942E-14
 -1      3472 1.99704E+01 1.79095E-01-1.11687E-03 1.66408E-01-1.33235E-13 3.92807E-14
 -1      3473 1.99661E+01 2.07401E-01 4.72643E-04 1.94437E-01 2.36633E-14-9.12887E-14
 -1      3474 1.99159E+01 2.51105E-01 1.13066E-03 1.94731E-01-3.95521E-14-8.67283E-14
 -1      3475 1.99879E+01 1.31611E-01-8.18957E-04 1.20978E-01 9.13420E-14 3.38910E-14
 -1      3476 1.99865E+01 1.54132E-01 4.61326E-04 1.43696E-01 2.56704E-15-2.07704E-14
 -1      3477 1.99518E+01 1.88106E-01 7.53793E-04 1.46724E-01 7.53762E-15 1.10630E-13
 -1      3478 1.99975E+01 9.73289E-02-5.79584E-04 8.75241E-02-3.14191E-14-7.99535E-14
 -1      3479 1.99978E+01 1.13681E-01 4.20332E-04 1.04131E-01 6.36136E-14-8.55942E-15
 -1      3480 1.99745E+01 1.39549E-01 4.46489E-04 1.08168E-01 1.04398E-13-1.75663E-14
 -1      3481 2.00027E+01 7.11978E-02-4.21883E-04 6.18664E-02 1.63156E-13-1.93981E-13
 -1      3482 2.00038E+01 8.36500E-02 3.63297E-04 7.44483E-02 2.01455E-14-1.68290E-13
 -1      3483 1.99883E+01 1.03341E-01 2.69666E-04 7.86247E-02 6.34776E-14-1.10853E-13
 -1      3484 2.00052E+01 5.14133E-02-3.04103E-04 4.25277E-02 1.06390E-13-7.48689E-14
 -1      3485 2.00066E+01 6.08318E-02 2.99679E-04 5.19198E-02 1.57250E-13-1.34011E-13
 -1      3486 1.99967E+01 7.56733E-02 1.59579E-04 5.57691E-02 8.44206E-14-5.16867E-15
 -1      3487 2.00062E+01 3.65345E-02-2.16405E-04 2.82028E-02 2.36341E-14 1.05420E-14
 -1      3488 2.00076E+01 4.36055E-02 2.40333E-04 3.50989E-02-3.24682E-14 3.73656E-14
 -1      3489 2.00016E+01 5.46564E-02 8.98803E-05 3.84223E-02 2.83384E-14 7.96554E-14
 -1      3490 2.00062E+01 2.54249E-02-1.58683E-04 1.77848E-02 9.16919E-14 1.90437E-13
 -1      3491 2.00075E+01 3.06986E-02 1.87282E-04 2.27616E-02 1.24795E-13 8.77839E-14
 -1      3492 2.00042E+01 3.88187E-02 4.78134E-05 2.55072E-02-1.59440E-14 1.80297E-14
 -1      3493 2.00057E+01 1.68984E-02-1.09290E-04 1.00739E-02-1.40945E-13 3.33251E-13
 -1      3494 2.00068E+01 2.09085E-02 1.42537E-04 1.37051E-02-4.71070E-14 1.78664E-13
 -1      3495 2.00054E+01 2.67796E-02 3.04214E-05 1.59078E-02 3.30547E-14 7.88209E-14
 -1      3496 2.00051E+01 1.10563E-02-6.88931E-05 5.04857E-03-1.38832E-13 3.92607E-13
 -1      3497 2.00059E+01 1.38144E-02 1.06852E-04 7.41003E-03-1.36853E-13 3.93592E-13
 -1      3498 2.00056E+01 1.78943E-02 3.07350E-06 9.09511E-03-2.27325E-13 1.33079E-13
 -1      3499 2.00043E+01 6.87015E-03-4.40660E-05 1.67808E-03-6.78793E-14 1.53121E-13
 -1      3500 2.00050E+01 8.83037E-03 7.78920E-05 3.24102E-03-1.74600E-14 2.77296E-13
 -1      3501 2.00054E+01 1.16505E-02-6.35735E-06 4.52363E-03-6.39108E-14 1.92382E-13
 -1      3502 2.00035E+01 3.93896E-03-2.67270E-05-4.81610E-04 9.84285E-15 2.66352E-14
 -1      3503 2.00041E+01 5.30242E-03 5.56326E-05 5.05316E-04-3.89332E-14 1.69521E-13
 -1      3504 2.00048E+01 7.19212E-03-1.06784E-05 1.45997E-03 5.33939E-14 2.18749E-13
 -1      3505 2.00028E+01 1.93921E-03-1.47492E-05-1.77798E-03-8.57845E-14 1.75300E-13
 -1      3506 2.00032E+01 2.86176E-03 3.86367E-05-1.19867E-03-1.35635E-13 2.08073E-14
 -1      3507 2.00042E+01 4.07639E-03-1.22613E-05-5.02301E-04-5.29482E-14 1.97716E-13
 -1      3508 2.00022E+01 6.15808E-04-7.34432E-06-2.47490E-03-1.67983E-13 3.99674E-13
 -1      3509 2.00025E+01 1.22162E-03 2.59816E-05-2.17582E-03-1.14100E-13 1.96873E-13
 -1      3510 2.00035E+01 1.95594E-03-1.21081E-05-1.67836E-03-1.88926E-13 5.36330E-13
 -1      3511 2.00016E+01-2.56089E-04-2.02064E-06-2.77160E-03-4.71286E-13 6.76881E-13
 -1      3512 2.00018E+01 1.35026E-04 1.65987E-05-2.66192E-03-2.42058E-13 4.75155E-13
 -1      3513 2.00028E+01 5.37633E-04-1.01087E-05-2.31432E-03-2.99373E-13 5.25952E-13
 -1      3514 2.00011E+01-7.52371E-04 1.47626E-06-2.78436E-03 2.86668E-14 3.79702E-13
 -1      3515 2.00013E+01-5.29851E-04 9.94040E-06-2.80239E-03-3.20243E-13 4.09863E-13
 -1      3516 2.00021E+01-3.61853E-04-1.01552E-05-2.57114E-03-1.90294E-13 5.84317E-13
 -1      3517 2.00007E+01-1.04858E-03 3.60438E-06-2.63250E-03 9.81328E-14 3.83446E-13
 -1      3518 2.00009E+01-9.19390E-04 5.15520E-06-2.72826E-03 1.40176E-13 4.70851E-13
 -1      3519 2.00016E+01-8.91631E-04-9.78982E-06-2.57909E-03 1.46720E-14 6.92373E-13
 -1      3520 2.11436E+01 7.66566E-01 2.10174E-03-3.40297E-01-2.37587E-14-1.26246E-13
 -1      3521 2.00004E+01-1.49601E-03 1.94381E-06-2.03327E-03-1.13850E-13-2.66381E-14
 -1      3522 2.00002E+01-1.32182E-03 3.23831E-07-2.17498E-03-3.97965E-14-5.33076E-14
 -1      3523 2.00003E+01-1.25312E-03-1.03755E-07-2.33626E-03-6.84103E-16-2.53567E-14
 -1      3524 2.00007E+01-1.48281E-03-2.56340E-07-2.06377E-03-1.49005E-13 3.45344E-14
 -1      3525 1.96483E+01 1.61059E+00 8.85310E-03 1.14240E+00 9.65326E-14-5.48235E-14
 -1      3526 2.00857E+01 1.00870E+00-6.69445E-03 1.15617E+00 7.86156E-14-5.10178E-14
 -1      3527 1.91793E+01 1.81523E+00-7.61111E-03 1.38542E+00 1.40900E-13-7.44899E-14
 -1      3528 1.15864E+01 1.57808E+00 1.75067E-02-1.34697E+00 1.42043E-13-2.21018E-13
 -1      3529 1.27067E+01 9.94516E-01 1.15567E-01-2.91084E+00 8.40196E-14-1.99785E-13
 -1      3530 1.44681E+01 8.02030E-01 8.68506E-02-3.21123E+00 4.35103E-14-1.67172E-13
 -1      3531 2.59523E+01-1.66262E+00-1.02600E-01-7.87311E-01-6.34102E-14 3.32415E-13
 -1      3532 2.56037E+01-2.42067E+00 5.27833E-02 2.73753E-01 1.31249E-14 3.58592E-13
 -1      3533 1.39418E+01-2.25736E-01 6.73645E-02 3.85216E+00-2.30333E-13 3.55167E-13
 -1      3534 2.40714E+01 4.30294E+00-5.31552E-02 6.38603E-01-9.74151E-14-1.27906E-13
 -1      3535 2.40619E+01 4.37972E+00-5.08684E-02-3.35085E-01-1.39277E-13-5.81171E-14
 -1      3536 2.15826E+01-2.73674E+00-5.64122E-02 3.75452E+00 2.26881E-13 1.45361E-13
 -1      3537 2.01124E+01-1.84349E+00 6.10239E-02 4.14280E+00 2.46470E-13 1.01048E-13
 -1      3538 1.26239E+01 9.20949E-01 2.26016E-02 2.32880E+00-1.54924E-13 2.54068E-13
 -1      3539 1.13437E+01 1.30260E+00 1.52131E-01 1.21493E+00-8.75047E-14 3.09454E-13
 -1      3540 1.17915E+01 1.40092E+00 4.72280E-02 2.53910E-01 1.36453E-14 2.06030E-13
 -1      3541 2.00007E+01-1.29005E-03 3.68742E-06 2.24528E-03 9.71743E-14 4.84636E-13
 -1      3542 2.00020E+01-1.77606E-03 1.50080E-07 5.82369E-04 1.92535E-13-5.41447E-13
 -1      3543 2.00021E+01-1.80063E-03-3.42551E-07 2.24798E-04 1.78466E-13-3.22658E-13
 -1      3544 1.67414E+01-1.62640E+00 1.03323E-01-4.98800E+00 1.21684E-13-4.28928E-14
 -1      3545 1.87731E+01-2.79218E+00-6.96845E-02-4.93587E+00 1.62065E-13-1.65305E-13
 -1      3546 1.74554E+01 1.58588E+00-1.88337E-02 1.13899E+00 3.18907E-15 8.22838E-14
 -1      3547 1.70061E+01 1.66772E+00-6.38311E-03 1.26477E+00 3.47435E-14 7.68673E-14
 -1      3548 1.73815E+01 1.64692E+00 2.61527E-02 7.23801E-01-3.08087E-15 1.38947E-13
 -1      3549 2.12085E+01-3.22020E+00 1.01303E-01-4.17412E+00 2.13324E-13-1.45095E-13
 -1      3550 2.29967E+01-3.64895E+00-4.80221E-02-2.92746E+00 3.04254E-13-1.07702E-13
 -1      3551 2.20609E+01-5.63013E-01 9.62182E-03-2.22061E-01-2.85749E-14-6.31835E-14
 -1      3552 2.22499E+01-8.09398E-01-1.20356E-02-3.19337E-01-1.25122E-14-6.82969E-14
 -1      3553 1.16860E+01 1.89517E+00 6.62174E-03 1.41210E+00 2.09461E-13-1.91104E-13
 -1      3554 1.17574E+01 2.09952E+00 1.36677E-01 3.90260E-03 1.77921E-13-1.90563E-13
 -1      3555 2.55870E+01 1.19798E+00-5.83762E-02-1.98615E+00-1.15106E-13 1.63577E-13
 -1      3556 2.61241E+01-2.62963E-01 1.90839E-02-1.58304E+00-8.46337E-14 2.64941E-13
 -1      3557 1.88695E+01 1.13079E+00-8.97902E-03 8.46991E-01-4.78976E-14 1.75908E-13
 -1      3558 1.86492E+01 1.25292E+00-5.44653E-03 9.39741E-01-3.77130E-14 1.54805E-13
 -1      3559 1.87863E+01 1.15524E+00 1.25234E-02 6.35232E-01-1.42045E-14 1.16433E-13
 -1      3560 2.26219E+01-9.59148E-01 1.11780E-02-5.19700E-01-3.05034E-14-7.17746E-14
 -1      3561 2.27538E+01-1.00275E+00-1.35171E-02-7.08659E-01-6.48308E-14-5.67482E-14
 -1      3562 2.32552E+01-1.14139E+00-1.32772E-03-6.95180E-01-6.54027E-14-4.66155E-14
 -1      3563 2.45236E+01-3.16775E+00-1.02032E-01 1.54955E+00 7.17672E-14 3.19812E-13
 -1      3564 2.32368E+01-2.96758E+00 5.14934E-02 2.81254E+00 1.80998E-13 2.35546E-13
 -1      3565 2.26004E+01-2.31537E+00 4.13317E-02 2.55149E+00 1.71715E-13 1.80505E-13
 -1      3566 2.42508E+01 2.69445E+00-1.36530E-02 1.76875E+00-2.94903E-14-2.10106E-13
 -1      3567 2.41722E+01 3.74585E+00-7.42482E-02 1.25015E+00-5.63646E-14-1.41125E-13
 -1      3568 1.28512E+01 3.04096E-01 7.14028E-02-3.55913E+00 1.53724E-13 2.64413E-13
 -1      3569 1.45108E+01-7.57899E-01-1.21582E-02-4.61835E+00 1.38521E-13 2.18117E-13
 -1      3570 1.79115E+01-1.08319E+00-4.52241E-02 4.56015E+00 2.78333E-13 2.43659E-14
 -1      3571 1.63155E+01 1.11694E-02 1.16723E-01 4.42732E+00 2.97148E-13-9.53213E-14
 -1      3572 2.00012E+01-1.34443E-03-4.36910E-06 2.14235E-03 9.61254E-14 4.72375E-13
 -1      3573 1.92734E+01-1.04286E+00 1.59578E-02 3.84262E+00 2.31867E-13 5.01014E-14
 -1      3574 1.62647E+01 2.99256E+00-9.03339E-03-1.56209E-01 1.96669E-13-7.22126E-14
 -1      3575 1.59750E+01 3.20385E+00 5.50887E-02 3.77290E-01 2.08085E-13-1.19893E-13
 -1      3576 1.58114E+01 2.80151E+00-1.30098E-02-3.45431E-01 1.85636E-13-7.73236E-14
 -1      3577 1.25035E+01 8.52288E-01 7.52392E-02-2.74727E+00 8.35200E-14 1.38514E-13
 -1      3578 1.40730E+01 6.63234E-01 4.05955E-02-2.84996E+00 4.33176E-14 2.24609E-13
 -1      3579 1.24338E+01 1.25764E+00 2.49645E-02-1.61149E+00 8.63155E-14 2.08972E-13
 -1      3580 1.42234E+01 6.45982E-01 8.54838E-02 3.21786E+00-2.06224E-13 2.33556E-13
 -1      3581 2.00016E+01-1.41936E-03-1.75342E-06 1.84689E-03 4.21169E-14 7.47551E-14
 -1      3582 2.00018E+01-1.51010E-03 1.50989E-07 1.58279E-03-3.61906E-14-2.84388E-13
 -1      3583 2.00019E+01-1.13692E-03 3.36871E-06 2.05573E-03-3.45684E-14 1.56141E-13
 -1      3584 1.90769E+01 1.48472E+00-9.26498E-03 1.73481E+00 1.53495E-13-6.09076E-14
 -1      3585 2.39009E+01-3.44661E+00 3.08395E-02-2.03386E+00 2.88940E-13-8.49845E-14
 -1      3586 2.41712E+01-2.98367E+00-4.92367E-03-1.01530E+00 2.19656E-13-7.77486E-14
 -1      3587 2.25235E+01-3.08782E+00-2.50736E-02-2.46301E+00 1.91772E-13-5.48251E-14
 -1      3588 1.75443E+01 1.81464E+00-2.81059E-02 2.35303E+00 2.31528E-13-7.41534E-14
 -1      3589 1.83018E+01 1.52374E+00 2.47165E-02 2.31787E+00 2.08957E-13-7.03300E-14
 -1      3590 1.62823E+01 2.57134E+00-2.39656E-02 1.90397E+00 2.39168E-13-1.05845E-13
 -1      3591 1.68676E+01 2.35429E+00 3.62720E-02 2.16997E+00 2.29703E-13-8.40749E-14
 -1      3592 1.70326E+01 1.65877E+00-1.15017E-02 2.61900E+00 2.34211E-13-8.12033E-14
 -1      3593 1.82084E+01 1.40470E+00 1.78520E-02 6.91421E-01-6.08987E-14 2.77224E-13
 -1      3594 1.40885E+01 1.71323E+00 4.86581E-02 1.02566E+00 2.55651E-14 3.10169E-15
 -1      3595 1.42820E+01 1.47293E+00 1.19616E-02 1.91915E+00-1.19429E-13 1.25545E-13
 -1      3596 2.12664E+01 3.87468E-01-5.40972E-03-1.13494E-01-2.62083E-14-1.12381E-13
 -1      3597 1.38317E+01 1.08281E+00 4.76968E-02 2.37958E+00-1.83568E-13 2.05041E-13
 -1      3598 2.00004E+01-1.19921E-03 3.26323E-06-2.43106E-03 8.49421E-15 1.19005E-13
 -1      3599 2.00005E+01-1.12214E-03 1.49598E-06-2.56058E-03 6.50643E-14 1.71052E-13
 -1      3600 2.00011E+01-1.17033E-03-5.63474E-06-2.45922E-03 2.92709E-13 2.36914E-13
 -1      3601 2.00007E+01-1.31964E-03-2.36236E-06-2.32048E-03 8.20651E-14-1.93244E-13
 -1      3602 2.00011E+01-1.52660E-03-7.18615E-06-1.97289E-03 1.82494E-13 2.44146E-13
 -1      3603 2.00009E+01-1.42103E-03 1.20633E-07-2.13750E-03 1.86477E-13 8.42317E-14
 -1      3604 2.00011E+01-1.33672E-03 4.69776E-06-2.22324E-03 4.69125E-13 1.25871E-13
 -1      3605 2.00021E+01-1.79965E-03 2.14085E-06-1.76410E-04 3.91874E-13-2.02794E-13
 -1      3606 2.00021E+01-1.78590E-03 1.12477E-06-5.34462E-04 3.56075E-13-2.58658E-13
 -1      3607 2.00024E+01-1.64831E-03 1.15835E-06 2.37195E-05 4.09867E-13-3.60885E-13
 -1      3608 1.55235E+01 6.42335E-01 1.77702E-02 3.80560E+00 2.62138E-13-1.22864E-13
 -1      3609 1.26596E+01 2.01604E+00 6.06143E-02-7.94041E-01 1.59464E-13-1.88766E-13
 -1      3610 2.00014E+01-1.60955E-03 8.67753E-06-1.70302E-03 2.81898E-13 9.12150E-14
 -1      3611 1.49456E+01 1.49475E+00 1.08970E-02-2.61367E+00 7.98007E-14-1.41262E-13
 -1      3612 2.02172E+01 5.99542E-01-2.25661E-03 1.47049E+00 9.40532E-14-1.02414E-14
 -1      3613 2.06583E+01 4.13138E-01 2.25914E-04 1.14825E+00 6.52508E-14-3.82673E-14
 -1      3614 2.53722E+01-8.08199E-01 1.29464E-02-1.26587E+00-3.57067E-14 2.02716E-13
 -1      3615 1.62685E+01-8.34023E-01 5.37434E-02-4.22540E+00 1.18520E-13 5.21475E-14
 -1      3616 1.29214E+01 1.92286E+00 1.50425E-02 1.94226E+00 2.24279E-13-1.90254E-13
 -1      3617 2.43966E+01 7.27860E-01-7.21887E-04 1.90883E+00-5.30513E-14-2.04002E-13
 -1      3618 2.43856E+01 1.63223E+00-5.98795E-02 1.96104E+00-7.90513E-14-2.30462E-13
 -1      3619 2.11751E+01-1.01270E-01 5.59307E-03 1.04465E+00 5.13771E-14-2.53593E-14
 -1      3620 2.10104E+01 3.31508E-01 8.82847E-03 7.14918E-01 4.00029E-14-6.95806E-14
 -1      3621 2.12538E+01 2.11050E-01-7.36593E-04 3.91743E-01 9.42605E-15-1.04109E-13
 -1      3622 1.61670E+01 1.82758E+00 3.76657E-02 7.41246E-01 6.51153E-14 1.22106E-13
 -1      3623 2.01201E+01-2.54620E+00 2.94474E-02-3.96427E+00 1.06387E-13-2.00347E-13
 -1      3624 2.47287E+01 1.78626E+00-5.51450E-02-1.93851E+00-1.14008E-13 7.67615E-14
 -1      3625 2.25954E+01-1.02950E+00-7.36130E-03-1.87075E-01-3.02735E-14-4.49567E-14
 -1      3626 2.47087E+01-2.34264E+00 2.84882E-02 5.69295E-01 3.90764E-14 2.68098E-13
 -1      3627 2.00019E+01-1.62698E-03-1.13223E-06 1.25329E-03 2.57907E-14-4.81616E-13
 -1      3628 2.00021E+01-1.67934E-03 5.28622E-07 9.25933E-04 1.48159E-13-5.17416E-13
 -1      3629 2.00025E+01-1.53633E-03 2.27681E-06 7.59055E-04 1.76583E-13-5.85964E-13
 -1      3630 2.00024E+01-1.31430E-03 3.04482E-06 1.42654E-03 6.79726E-14-5.14939E-13
 -1      3631 2.00894E+01-1.10438E+00-5.64296E-02 3.25887E+00 2.10651E-13 1.03315E-13
 -1      3632 1.84750E+01-7.78836E-02 3.02545E-02 3.52986E+00 2.43215E-13 2.18575E-15
 -1      3633 1.87408E+01 1.07504E+00-4.89178E-03 4.06113E-01 3.38387E-14-3.00591E-14
 -1      3634 1.84888E+01 1.18183E+00-9.01610E-03 4.20924E-01 1.45446E-14 6.32391E-14
 -1      3635 1.57832E+01 2.97304E+00-3.54441E-02 1.00147E+00 2.19706E-13-1.21289E-13
 -1      3636 1.60010E+01 2.91926E+00 2.61529E-02 1.50447E+00 2.33734E-13-1.38787E-13
 -1      3637 1.59111E+01 2.39360E+00 9.51498E-03 2.00479E+00 2.18627E-13-1.17020E-13
 -1      3638 1.52504E+01 2.85891E+00-2.59952E-02 9.79996E-01 2.06276E-13-1.32893E-13
 -1      3639 1.90082E+01 1.11819E+00-1.00743E-02 2.12613E+00 1.62273E-13-5.52776E-14
 -1      3640 1.96832E+01 8.48053E-01 1.80123E-02 1.88658E+00 1.23122E-13-3.19024E-14
 -1      3641 2.02805E+01 2.02487E-01 8.31422E-03 1.87056E+00 1.03790E-13 5.91497E-15
 -1      3642 1.87727E+01 7.75160E-01-1.23586E-02 2.52921E+00 1.83234E-13-2.37640E-14
 -1      3643 2.43875E+01-2.05518E-01-3.01651E-02 1.70827E+00 8.46545E-15-1.69635E-13
 -1      3644 2.40255E+01-1.15071E+00-1.31354E-02 1.18523E+00 3.87407E-14-1.15401E-13
 -1      3645 2.38386E+01-1.61711E+00 7.45587E-04 8.16790E-01 1.86556E-14-9.22856E-14
 -1      3646 2.33357E+01-1.87625E+00-1.30950E-02 3.43820E-01 3.15230E-14 2.43182E-14
 -1      3647 2.30305E+01-1.94419E+00 1.41233E-02 4.30802E-03 9.46061E-14 9.32793E-14
 -1      3648 2.39222E+01-2.06094E+00 5.09047E-03 2.63654E-01 8.35772E-14-1.26527E-13
 -1      3649 2.24735E+01-1.88518E+00-1.01019E-02-3.09260E-01 5.13840E-14 9.43410E-14
 -1      3650 2.21417E+01-1.73469E+00 1.73495E-02-5.39437E-01-3.78349E-15 1.02496E-13
 -1      3651 2.28413E+01-2.14099E+00-4.37527E-04-5.18411E-01 8.47697E-14 6.69560E-15
 -1      3652 2.16657E+01-1.53457E+00-4.34685E-03-6.90677E-01 3.67488E-14 4.68736E-14
 -1      3653 2.13665E+01-1.30320E+00 1.55860E-02-8.07582E-01 5.32452E-14 5.90910E-14
 -1      3654 2.18160E+01-1.79276E+00-1.74581E-02-9.64678E-01 4.15346E-14 1.33496E-13
 -1      3655 2.10139E+01-1.07918E+00-1.55967E-04-8.42361E-01 6.01779E-14 6.01099E-14
 -1      3656 2.07762E+01-8.55001E-01 1.09885E-02-8.80184E-01 1.14813E-14 1.27927E-13
 -1      3657 2.10304E+01-1.27047E+00-1.67773E-02-1.09672E+00 7.63184E-14 1.34012E-13
 -1      3658 2.05418E+01-6.55751E-01 2.35292E-03-8.48875E-01 6.15041E-15 1.30574E-13
 -1      3659 2.03687E+01-4.73317E-01 6.64465E-03-8.38845E-01-3.88360E-14 1.27314E-13
 -1      3660 2.04817E+01-7.74797E-01-1.29453E-02-1.05584E+00-5.83734E-15 1.59728E-13
 -1      3661 2.02272E+01-3.18628E-01 3.14071E-03-7.77431E-01-9.39626E-14 1.94882E-13
 -1      3662 2.01112E+01-1.86169E-01 3.53989E-03-7.42501E-01-6.55529E-14 2.37527E-13
 -1      3663 2.01324E+01-3.80154E-01-9.10656E-03-9.31899E-01-3.02525E-15 1.34415E-13
 -1      3664 2.00354E+01-7.78567E-02 3.06710E-03-6.73055E-01-2.53244E-14 2.67270E-13
 -1      3665 1.99639E+01 9.33033E-03 1.54906E-03-6.28073E-01 4.39021E-14 2.86064E-13
 -1      3666 1.99317E+01-9.89592E-02-5.87136E-03-7.80600E-01-3.25095E-14 2.99368E-13
 -1      3667 1.99311E+01 7.78955E-02 2.61569E-03-5.61749E-01 9.40753E-14 2.46474E-13
 -1      3668 1.98910E+01 1.29018E-01 3.45226E-04-5.15258E-01 7.38410E-14 1.91600E-13
 -1      3669 1.98319E+01 8.27550E-02-3.51887E-03-6.32622E-01 5.25080E-14 3.25979E-13
 -1      3670 1.98845E+01 1.66920E-01 2.07681E-03-4.56816E-01 4.12270E-15 1.46056E-13
 -1      3671 1.98652E+01 1.91623E-01-3.27983E-04-4.13281E-01-3.04211E-14 1.66035E-13
 -1      3672 1.97963E+01 1.87067E-01-1.91249E-03-5.01117E-01-3.17904E-14 1.69164E-13
 -1      3673 1.98733E+01 2.07670E-01 1.57983E-03-3.64129E-01 9.91850E-14 1.78028E-13
 -1      3674 1.98669E+01 2.14410E-01-6.58911E-04-3.25576E-01 1.23138E-13 2.47313E-13
 -1      3675 1.97985E+01 2.35585E-01-8.74608E-04-3.90288E-01 8.00497E-14 2.86586E-13
 -1      3676 1.98820E+01 2.16028E-01 1.17199E-03-2.85447E-01 2.82850E-14 2.00599E-13
 -1      3677 1.98827E+01 2.11518E-01-7.79348E-04-2.52519E-01 4.04346E-14 2.47667E-13
 -1      3678 1.98207E+01 2.46664E-01-2.44721E-04-2.99880E-01 6.77479E-14 3.55357E-13
 -1      3679 1.99000E+01 2.04443E-01 8.58508E-04-2.20417E-01 4.13882E-14 2.26017E-13
 -1      3680 1.99042E+01 1.93647E-01-7.77698E-04-1.93018E-01 2.52399E-14 1.88278E-13
 -1      3681 1.98512E+01 2.34600E-01 1.07093E-04-2.27692E-01 4.77146E-14 2.46558E-13
 -1      3682 1.99209E+01 1.82018E-01 6.26740E-04-1.67727E-01-2.66498E-14 4.34298E-14
 -1      3683 1.99263E+01 1.68382E-01-7.11130E-04-1.45393E-01-6.02250E-14 2.44413E-14
 -1      3684 1.98830E+01 2.09820E-01 2.78049E-04-1.70911E-01-7.75291E-14 2.08224E-13
 -1      3685 1.99410E+01 1.55007E-01 4.58975E-04-1.25718E-01-4.10379E-14 7.62363E-14
 -1      3686 1.99463E+01 1.40780E-01-6.15140E-04-1.07833E-01 3.87769E-14 8.72473E-14
 -1      3687 1.99123E+01 1.79496E-01 3.37223E-04-1.26762E-01 1.88189E-14 1.62881E-13
 -1      3688 1.99586E+01 1.27440E-01 3.38657E-04-9.27014E-02 1.00055E-13 9.92307E-14
 -1      3689 1.99632E+01 1.13976E-01-5.11148E-04-7.86094E-02 4.01427E-14 2.07869E-13
 -1      3690 1.99373E+01 1.48272E-01 3.32101E-04-9.27774E-02 8.28900E-14 1.30435E-13
 -1      3691 1.99729E+01 1.01698E-01 2.52399E-04-6.71032E-02-4.08107E-14 2.94828E-13
 -1      3692 1.99765E+01 8.97176E-02-4.11411E-04-5.61737E-02 2.37274E-14 3.10510E-13
 -1      3693 1.99575E+01 1.18919E-01 2.94228E-04-6.68639E-02 5.46283E-14 2.33827E-13
 -1      3694 1.99838E+01 7.90073E-02 1.90036E-04-4.75277E-02-6.13858E-16 3.11959E-13
 -1      3695 1.99865E+01 6.88086E-02-3.22205E-04-3.91855E-02-1.18595E-13 3.09780E-13
 -1      3696 1.99731E+01 9.28954E-02 2.43281E-04-4.72989E-02-2.89877E-14 2.25952E-13
 -1      3697 1.99919E+01 5.98320E-02 1.44253E-04-3.27741E-02-1.36154E-13 3.64401E-13
 -1      3698 1.99937E+01 5.14462E-02-2.46004E-04-2.65132E-02-4.02254E-14 3.08990E-13
 -1      3699 1.99846E+01 7.07823E-02 1.90799E-04-3.26883E-02-6.32002E-14 2.41889E-13
 -1      3700 1.99974E+01 4.41625E-02 1.10027E-04-2.18297E-02 4.67460E-14 2.90089E-13
 -1      3701 1.99986E+01 3.74655E-02-1.83263E-04-1.72158E-02 8.73226E-14 2.16017E-13
 -1      3702 1.99928E+01 5.26124E-02 1.42963E-04-2.19145E-02-6.64034E-14 2.99426E-13
 -1      3703 2.00011E+01 3.17172E-02 8.40560E-05-1.38541E-02 8.93339E-14 2.25113E-13
 -1      3704 2.00017E+01 2.65063E-02-1.33073E-04-1.05234E-02 7.42565E-14 1.79448E-13
 -1      3705 1.99983E+01 3.80998E-02 1.02391E-04-1.40855E-02 8.08586E-14 3.24577E-13
 -1      3706 2.00032E+01 2.20843E-02 6.40114E-05-8.16171E-03-2.79965E-14 1.40211E-13
 -1      3707 2.00035E+01 1.81289E-02-9.38839E-05-5.81455E-03-1.72512E-13 1.71251E-13
 -1      3708 2.00018E+01 2.67988E-02 6.98048E-05-8.49725E-03-1.14114E-13 2.44640E-13
 -1      3709 2.00043E+01 1.48105E-02 4.84262E-05-4.19877E-03-1.62950E-13 1.42281E-13
 -1      3710 2.00043E+01 1.18813E-02-6.40299E-05-2.59259E-03-1.53567E-13 1.37646E-13
 -1      3711 2.00038E+01 1.82094E-02 4.47963E-05-4.59452E-03-1.65252E-13 2.00966E-13
 -1      3712 2.00047E+01 9.45330E-03 3.62438E-05-1.52487E-03-1.72355E-13 1.14323E-13
 -1      3713 2.00045E+01 7.33973E-03-4.18306E-05-4.66732E-04-6.21669E-14 4.89286E-14
 -1      3714 2.00047E+01 1.18367E-02 2.63681E-05-1.94339E-03-1.72949E-13-6.82497E-14
 -1      3715 2.00046E+01 5.61070E-03 2.67245E-05 2.05459E-04 2.30489E-14 2.24342E-14
 -1      3716 2.00043E+01 4.12846E-03-2.57154E-05 8.66424E-04 1.23863E-13-1.01664E-13
 -1      3717 2.00050E+01 7.22704E-03 1.33403E-05-2.07715E-04 1.93971E-14-2.63639E-14
 -1      3718 2.00042E+01 2.93376E-03 1.93942E-05 1.25918E-03 1.40486E-13-2.13561E-13
 -1      3719 2.00039E+01 1.92706E-03-1.43452E-05 1.63881E-03 2.37465E-13-3.28730E-13
 -1      3720 2.00047E+01 3.98371E-03 4.59604E-06 8.70272E-04-5.06493E-15-9.21818E-14
 -1      3721 2.00036E+01 1.12929E-03 1.37832E-05 1.83878E-03 3.33260E-13-3.97002E-13
 -1      3722 2.00033E+01 4.70577E-04-6.40390E-06 2.02392E-03 3.58503E-13-2.52294E-13
 -1      3723 2.00042E+01 1.77147E-03-9.04210E-07 1.48551E-03 2.78371E-13-1.61679E-13
 -1      3724 2.00030E+01-4.30432E-05 9.59124E-06 2.09592E-03 4.90133E-13-1.47851E-13
 -1      3725 2.00027E+01-4.51900E-04 8.48077E-08 2.14722E-03 3.37422E-13 6.33666E-14
 -1      3726 2.00036E+01 3.14101E-04-4.72911E-06 1.78322E-03 4.66243E-13-3.49790E-13
 -1      3727 2.00024E+01-6.99879E-04 7.36287E-06 2.12536E-03 2.14021E-13 1.39745E-13
 -1      3728 2.00022E+01-9.62276E-04 2.21537E-06 2.09413E-03 7.62302E-14 1.43622E-13
 -1      3729 2.00025E+01-1.02027E-03-6.68798E-06 1.80130E-03 1.45986E-13-2.24919E-13
 -1      3730 2.00030E+01-5.35208E-04-8.26441E-06 1.85669E-03 3.43170E-13-3.18159E-13
 -1      3731 1.64512E+01 2.21747E+00-1.67772E-02-1.68652E+00 1.61210E-13-3.34637E-14
 -1      3732 1.60210E+01 2.61302E+00 4.42849E-02-1.15108E+00 1.72345E-13-3.18461E-14
 -1      3733 1.52716E+01 2.75177E+00-1.89897E-02-3.41956E-01 1.82857E-13-1.07643E-13
 -1      3734 1.61598E+01 1.97954E+00 1.80724E-02-2.03150E+00 1.30609E-13-6.60652E-14
 -1      3735 2.51197E+01-2.10221E+00-1.33092E-02 4.40206E-01 8.85130E-14-1.79298E-13
 -1      3736 2.58670E+01-1.44309E+00-1.64721E-02 1.08625E+00 6.65440E-14-2.37485E-13
 -1      3737 2.43562E+01 8.65775E-01-1.74200E-02-1.75705E+00-8.96592E-14 5.70212E-14
 -1      3738 2.14342E+01 1.33179E-01 4.83210E-03 9.79529E-02-2.04743E-14-1.12046E-13
 -1      3739 2.16354E+01-5.94918E-02 3.89689E-03-1.73007E-01-3.92301E-14-8.94751E-14
 -1      3740 2.18058E+01-3.63127E-01-9.28895E-03-1.88026E-01-4.31767E-14-7.62952E-14
 -1      3741 2.16352E+01-2.68450E-01-5.46230E-03 3.20268E-01-5.63536E-15-8.58599E-14
 -1      3742 2.34345E+01-1.46923E+00 2.37198E-02-1.90577E-01-2.78665E-14 5.12024E-14
 -1      3743 2.36985E+01-1.46044E+00-1.07477E-02-4.72839E-01-2.40246E-14 5.89728E-14
 -1      3744 1.91490E+01 8.62307E-01-3.81695E-03 3.90680E-01 1.18309E-13-8.61453E-14
 -1      3745 1.89694E+01 9.64700E-01-5.84995E-03 4.19060E-01 3.08593E-14-6.81890E-14
 -1      3746 1.87768E+01 1.03768E+00 9.91146E-03 2.27245E-01 7.44090E-14-5.41550E-14
 -1      3747 1.97385E+01 4.20839E-01-1.92905E-03 2.51160E-01 4.50023E-14 1.23455E-13
 -1      3748 1.96873E+01 4.77661E-01-1.19236E-03 2.83150E-01 1.16692E-13 3.25643E-14
 -1      3749 1.98283E+01 3.24858E-01-1.51706E-03 2.02309E-01-5.11721E-14 1.18578E-14
 -1      3750 1.97948E+01 3.70433E-01-5.95329E-04 2.30728E-01 2.82122E-14 1.00245E-13
 -1      3751 1.97229E+01 4.22939E-01 2.51589E-03 1.98502E-01 3.38133E-14 1.41936E-13
 -1      3752 1.98897E+01 2.48672E-01-1.18749E-03 1.58756E-01-3.89465E-14-4.53422E-14
 -1      3753 1.98681E+01 2.84850E-01-2.30178E-04 1.83068E-01-4.66253E-14 3.05028E-15
 -1      3754 1.98143E+01 3.28511E-01 1.74873E-03 1.63714E-01-8.60614E-14 1.26730E-13
 -1      3755 1.99328E+01 1.86090E-01-9.16573E-04 1.20001E-01 1.48284E-13-2.33030E-14
 -1      3756 1.99186E+01 2.15678E-01-1.78668E-05 1.40882E-01 4.41684E-14 2.25147E-14
 -1      3757 1.98794E+01 2.51116E-01 1.19812E-03 1.29970E-01 5.06282E-14 1.58273E-16
 -1      3758 1.99601E+01 1.39856E-01-6.85936E-04 8.97656E-02 6.12840E-14-6.67860E-14
 -1      3759 1.99519E+01 1.61792E-01 9.70807E-05 1.05766E-01 1.24710E-13-2.22849E-14
 -1      3760 1.99240E+01 1.89947E-01 8.16573E-04 1.00113E-01 1.98680E-13-3.42693E-14
 -1      3761 1.99781E+01 1.03949E-01-5.19092E-04 6.55310E-02 4.71138E-14-8.49959E-14
 -1      3762 1.99732E+01 1.20994E-01 1.52590E-04 7.81272E-02 9.86140E-14-2.91521E-14
 -1      3763 1.99536E+01 1.43091E-01 5.47146E-04 7.55348E-02 4.43280E-14-4.09478E-14
 -1      3764 1.99898E+01 7.62894E-02-3.86863E-04 4.65813E-02 5.93108E-14 5.40751E-14
 -1      3765 1.99870E+01 8.94074E-02 1.61035E-04 5.62977E-02 7.01546E-14-4.79873E-14
 -1      3766 1.99736E+01 1.06537E-01 3.66221E-04 5.54851E-02-3.97334E-15-1.97457E-13
 -1      3767 1.99971E+01 5.51537E-02-2.83901E-04 3.20894E-02 1.60611E-14-3.75725E-14
 -1      3768 1.99956E+01 6.51613E-02 1.50508E-04 3.94374E-02 5.44966E-14 6.22003E-14
 -1      3769 1.99868E+01 7.82482E-02 2.42149E-04 3.96062E-02 2.70460E-14-5.98691E-14
 -1      3770 2.00014E+01 3.91365E-02-2.11658E-04 2.12384E-02 1.13788E-13-1.29075E-13
 -1      3771 2.00008E+01 4.67071E-02 1.28998E-04 2.66916E-02-7.07182E-15-1.75626E-13
 -1      3772 1.99953E+01 5.65681E-02 1.59537E-04 2.73525E-02 1.13704E-13-5.31487E-14
 -1      3773 2.00039E+01 2.66500E-02-1.50119E-04 1.29731E-02-4.00926E-14-6.76877E-15
 -1      3774 2.00038E+01 3.25062E-02 1.07018E-04 1.70670E-02 3.74221E-14-6.27636E-14
 -1      3775 2.00006E+01 3.98012E-02 1.08521E-04 1.79445E-02 2.89209E-14-3.57215E-14
 -1      3776 2.00050E+01 1.79523E-02-9.99120E-05 7.42116E-03-1.24968E-13-4.27831E-14
 -1      3777 2.00052E+01 2.20407E-02 8.61790E-05 1.01695E-02-9.32817E-14 3.77773E-14
 -1      3778 2.00036E+01 2.72609E-02 5.86470E-05 1.10662E-02-6.98194E-14-4.44793E-14
 -1      3779 2.00053E+01 1.16201E-02-6.71874E-05 3.57144E-03-3.32176E-14-4.91710E-15
 -1      3780 2.00056E+01 1.45797E-02 6.76608E-05 5.45796E-03-1.34895E-13 1.03709E-14
 -1      3781 2.00050E+01 1.82902E-02 3.14287E-05 6.30283E-03-1.34719E-13-1.18859E-13
 -1      3782 2.00051E+01 7.10364E-03-4.34297E-05 9.99788E-04-2.64593E-14 8.45808E-14
 -1      3783 2.00055E+01 9.20308E-03 5.13507E-05 2.24862E-03 3.47144E-14 1.45976E-13
 -1      3784 2.00055E+01 1.17771E-02 1.45520E-05 2.99950E-03-1.34741E-13-3.46590E-14
 -1      3785 2.00046E+01 3.95470E-03-2.64399E-05-6.37697E-04-1.38494E-13 2.31690E-13
 -1      3786 2.00050E+01 5.40854E-03 3.79949E-05 1.48271E-04-8.09699E-14 1.59634E-13
 -1      3787 2.00054E+01 7.13883E-03 3.97675E-06 7.92234E-04-9.54377E-14 1.26027E-13
 -1      3788 2.00039E+01 1.81632E-03-1.53675E-05-1.60979E-03-2.51138E-13 3.27442E-13
 -1      3789 2.00043E+01 2.79669E-03 2.72830E-05-1.15071E-03-1.66652E-13 2.96497E-13
 -1      3790 2.00050E+01 3.91281E-03-2.01296E-06-6.11897E-04-2.42405E-13 1.99532E-13
 -1      3791 2.00032E+01 3.60861E-04-7.13606E-06-2.13350E-03-2.63583E-13 3.24120E-13
 -1      3792 2.00036E+01 1.01637E-03 1.88559E-05-1.89784E-03-2.32533E-13 3.56488E-13
 -1      3793 2.00043E+01 1.69464E-03-4.23996E-06-1.45365E-03-2.32624E-13 2.84466E-13
 -1      3794 2.00026E+01-4.99592E-04-1.45103E-06-2.31479E-03-1.85069E-13 4.12154E-13
 -1      3795 2.00029E+01-1.12341E-04 1.27865E-05-2.24152E-03-2.06794E-13 4.09069E-13
 -1      3796 2.00036E+01 2.48287E-04-7.25263E-06-1.88606E-03-1.98030E-13 3.18243E-13
 -1      3797 2.00019E+01-1.02849E-03 1.07190E-06-2.30972E-03 8.33659E-14 4.80246E-13
 -1      3798 2.00022E+01-7.84091E-04 9.70952E-06-2.32162E-03-1.03862E-13 5.02888E-13
 -1      3799 2.00028E+01-6.28295E-04-8.60996E-06-2.03491E-03-1.65385E-13 3.82159E-13
 -1      3800 1.43123E+01 2.13408E+00 6.59950E-02-1.69163E+00 1.46775E-13-1.28626E-13
 -1      3801 2.20085E+01-5.61906E-01-3.86024E-03 5.65255E-03-3.53293E-14-4.96654E-14
 -1      3802 2.00020E+01-1.76475E-03 2.94713E-06-9.22916E-04 4.48975E-13-5.54520E-14
 -1      3803 2.00018E+01-1.72255E-03-1.00354E-05-1.25008E-03 4.58113E-13-6.68130E-14
 -1      3804 2.00023E+01-1.62468E-03 5.30010E-06-7.52128E-04 4.56646E-13-2.34645E-13
 -1      3805 1.39265E+01 2.45271E+00 2.17210E-03-4.58817E-01 1.82012E-13-1.32620E-13
 -1      3806 1.32851E+01 1.62840E+00 1.85276E-02 3.38818E-01 5.34616E-14 5.19931E-14
 -1      3807 1.28900E+01 1.61682E+00 8.70245E-02-7.77512E-01 1.06205E-13 1.78944E-13
 -1      3808 1.38643E+01 1.43146E+00 2.43582E-03-1.25054E+00 1.78399E-14 2.50393E-13
 -1      3809 1.46602E+01 1.76077E+00-2.54824E-02 1.43675E-01 1.18818E-13 1.08229E-14
 -1      3810 2.51931E+01-5.11272E-01-9.97869E-03 1.59981E+00 3.02345E-14-2.57724E-13
 -1      3811 1.73963E+01 1.50605E+00-1.04987E-02 2.94875E-01-1.25617E-14 1.25623E-13
 -1      3812 1.68872E+01 1.59581E+00-1.58343E-02 2.66397E-01-1.09144E-14 1.33195E-13
 -1      3813 1.96078E+01 5.40377E-01-2.44168E-03 3.02703E-01 1.42328E-13 5.39638E-14
 -1      3814 1.95306E+01 6.10173E-01-2.14567E-03 3.36695E-01 1.38607E-13 4.22436E-14
 -1      3815 1.95927E+01 5.39038E-01 3.57352E-03 2.31110E-01 1.37653E-13 2.89476E-14
 -1      3816 1.94193E+01 6.86954E-01-3.04203E-03 3.51949E-01 1.20243E-13 1.75426E-14
 -1      3817 1.93040E+01 7.70417E-01-3.69861E-03 3.84978E-01 1.33777E-13-6.95828E-14
 -1      3818 1.91497E+01 8.45403E-01 7.23755E-03 2.59498E-01 1.05815E-13-2.15387E-14
 -1      3819 1.91351E+01-1.72513E+00 6.45920E-02-3.85874E+00 6.56513E-14-1.21685E-13
 -1      3820 2.07198E+01-2.48727E+00-3.63250E-02-3.25865E+00 3.11947E-14-1.31926E-13
 -1      3821 1.62672E+01 1.66353E+00-1.43497E-02 1.27396E-01 1.06143E-14 1.29892E-13
 -1      3822 1.55416E+01 1.71944E+00-5.66419E-03 6.66902E-02 5.06630E-14 1.07218E-13
 -1      3823 1.65351E+01 1.57954E+00 2.17714E-02-3.38722E-01-1.32121E-14 1.49555E-13
 -1      3824 2.00018E+01-1.53364E-03 3.72199E-06-1.61397E-03 4.40674E-13 1.46839E-13
 -1      3825 1.59301E+01-1.44361E-01 3.54394E-02-3.56240E+00 1.40313E-13 8.74127E-14
 -1      3826 1.74922E+01-1.18119E+00-4.05976E-02-3.97962E+00 1.45132E-13-6.18186E-14
 -1      3827 1.85803E+01-1.12498E+00 1.58303E-02-3.37908E+00 1.14265E-13-6.30446E-14
 -1      3828 2.25059E+01-1.05235E+00 1.54147E-02 2.80872E-01-2.79525E-14 2.65942E-14
 -1      3829 2.28399E+01-1.34138E+00-1.64134E-02 1.19493E-01-3.86340E-14 1.44294E-14
 -1      3830 2.32050E+01-1.66774E+00-2.67025E-02 3.63138E-01-4.40479E-15 1.23100E-13
 -1      3831 2.44555E+01-1.93126E+00-4.23660E-02-2.05248E-01-1.51452E-14 2.29534E-13
 -1      3832 2.39333E+01-2.18281E+00 4.64813E-02 8.09607E-01 3.51316E-14 2.18903E-13
 -1      3833 1.66136E+01 1.07805E+00-1.83162E-02 3.21614E+00 2.56297E-13-8.50986E-14
 -1      3834 1.51315E+01 1.85230E+00 4.35545E-02 2.79385E+00 2.37635E-13-1.38501E-13
 -1      3835 1.81842E+01 1.29420E+00-6.94998E-03 3.79389E-01-4.44837E-14 7.38130E-14
 -1      3836 1.78231E+01 1.40180E+00-1.27572E-02 3.74819E-01 1.63101E-14 8.13784E-14
 -1      3837 1.75426E+01 1.44173E+00 1.89885E-02-4.15580E-02-1.74960E-14 6.21391E-14
 -1      3838 1.82557E+01 1.24492E+00 1.40167E-02 1.35835E-01 3.10915E-14-1.25049E-13
 -1      3839 2.28435E+01-2.28294E+00-7.32364E-02 1.83195E+00 1.10145E-13 1.85077E-13
 -1      3840 2.18348E+01-1.68238E+00 6.25357E-02 2.55332E+00 1.56341E-13 1.40084E-13
 -1      3841 2.47812E+01-2.29961E+00-2.53666E-03 1.99254E-01 1.18687E-13-1.50756E-13
 -1      3842 2.46932E+01-1.55058E+00-2.49868E-02 9.78032E-01 7.01123E-14-2.02158E-13
 -1      3843 2.19346E+01-5.47811E-01 8.82951E-03 3.22927E-01-9.95037E-15-4.14965E-14
 -1      3844 2.21590E+01-8.04611E-01-1.33603E-04 3.22336E-01-2.00215E-14-2.39163E-14
 -1      3845 2.23280E+01-1.06919E+00-7.16281E-03 6.21512E-01-9.87925E-16 3.27060E-14
 -1      3846 2.17330E+01-5.21953E-01-1.24110E-02 6.41106E-01 2.55847E-14-3.75201E-14
 -1      3847 2.44091E+01-2.27201E-02-5.57601E-02-1.70270E+00-4.82340E-14 6.10102E-14
 -1      3848 2.45822E+01-8.92501E-01-2.23513E-04-1.15923E+00-1.97620E-14 1.33138E-13
 -1      3849 2.43903E+01-1.39919E+00-2.37430E-03-8.26301E-01-2.27231E-14 1.25866E-13
 -1      3850 2.17382E+01-2.62091E+00 4.30971E-02-2.76028E+00 6.99516E-14-1.30011E-13
 -1      3851 2.23474E+01-2.62659E+00 2.63290E-03-2.00418E+00 1.63825E-13-7.65880E-14
 -1      3852 2.07079E+01-2.04891E+00 5.58628E-03-2.80725E+00 2.07777E-14-1.86485E-13
 -1      3853 2.08719E+01-9.24926E-01 1.37148E-02 2.50183E+00 1.67176E-13 8.24837E-14
 -1      3854 2.42865E+01-8.22001E-01 8.97346E-03 1.43653E+00 4.13627E-14-1.48019E-13
 -1      3855 2.00029E+01-1.32269E-03-1.77517E-07 8.15948E-04 1.63836E-13-6.80176E-13
 -1      3856 2.00028E+01-1.43496E-03-8.31297E-06 4.79173E-04 1.80152E-13-8.81770E-13
 -1      3857 1.86669E+01 5.60083E-01 9.93815E-03 2.84130E+00 2.25887E-13-2.48131E-15
 -1      3858 1.95021E+01 1.40001E-01-7.61954E-03 2.64424E+00 1.76250E-13 3.28498E-14
 -1      3859 1.48934E+01 8.20260E-01 2.30352E-03-2.41326E+00-1.33791E-14 9.33802E-14
 -1      3860 1.53504E+01 3.39553E-01 2.55187E-02-3.14598E+00 8.71109E-14 1.50038E-13
 -1      3861 1.66881E+01 8.06443E-02 2.46667E-02-2.95573E+00 1.43983E-13-3.74206E-14
 -1      3862 2.00014E+01-1.26128E-03 4.46378E-06-2.27104E-03 4.05218E-13 3.25632E-13
 -1      3863 2.00033E+01-1.18260E-03 6.79089E-06 8.98146E-05 1.25714E-13-6.03891E-13
 -1      3864 2.00029E+01-1.43859E-03 2.95965E-06 5.76849E-05 2.30982E-13-5.24650E-13
 -1      3865 2.00028E+01-1.45473E-03-6.57884E-06-3.48067E-04 4.04894E-13-3.37588E-13
 -1      3866 2.00019E+01-1.23261E-03-9.38898E-06-2.05442E-03 4.19614E-13 2.85665E-13
 -1      3867 1.41651E+01 2.74462E+00 7.67409E-02 3.84085E-01 2.03919E-13-1.51750E-13
 -1      3868 2.33181E+01-2.63485E+00-1.46531E-02-9.22121E-01 1.60510E-13-4.40986E-14
 -1      3869 2.42194E+01-2.60128E+00-4.50541E-03-3.34890E-01 1.75535E-13-6.87263E-14
 -1      3870 2.00024E+01-1.29654E-03 5.35366E-06-1.59769E-03 3.40286E-13 1.29018E-13
 -1      3871 1.77198E+01 6.17688E-01 2.95989E-02 3.37067E+00 2.50460E-13-4.72803E-14
 -1      3872 1.51221E+01 1.70135E+00 4.42285E-02-5.30647E-01 6.53559E-14 2.09443E-13
 -1      3873 2.14764E+01-4.51584E-01 6.59300E-03 1.09466E+00 4.86156E-14-1.26484E-14
 -1      3874 2.31403E+01-1.80465E+00 1.03762E-02 9.45216E-01 5.65758E-14 1.53233E-13
 -1      3875 1.94085E+01 6.79474E-01 5.07258E-03 2.54930E-01 1.39946E-13-1.39486E-14
 -1      3876 2.14169E+01-8.54796E-01-3.06396E-02 1.68233E+00 8.69862E-14 5.26541E-14
 -1      3877 2.21740E+01-1.18906E+00 1.07406E-02 1.19542E+00 5.72923E-14 4.98872E-14
 -1      3878 1.43156E+01 2.33239E+00-2.73714E-03 1.63004E+00 2.26060E-13-1.54326E-13
 -1      3879 1.95861E+01 5.05258E-01-1.35806E-03 1.55962E-01 1.80091E-13 1.38982E-13
 -1      3880 1.95056E+01 5.64316E-01-2.70800E-03 1.65991E-01 2.09986E-13 1.61449E-13
 -1      3881 2.00028E+01-1.19238E-03-4.53626E-06 1.16409E-03 1.93513E-13-6.35516E-13
 -1      3882 2.00032E+01-1.04401E-03 6.23417E-06 8.54698E-04 1.92367E-13-7.15533E-13
 -1      3883 2.00028E+01-1.07701E-03-1.88074E-07 1.47900E-03 9.97866E-14-6.13364E-13
 -1      3884 2.28138E+01-2.48053E+00 8.48651E-03-1.19788E+00 1.55554E-13 5.42318E-15
 -1      3885 2.18977E+01-1.98452E+00 3.54898E-03-1.33512E+00 6.32261E-14 8.10334E-14
 -1      3886 2.14308E+01-1.67700E+00 1.72704E-02-1.43987E+00 1.73121E-14 1.06488E-13
 -1      3887 2.09830E+01-1.34698E+00 4.03029E-03-1.40181E+00 4.20089E-14 1.74018E-13
 -1      3888 2.06532E+01-1.04693E+00 1.33397E-02-1.38512E+00 8.51023E-14 1.17250E-13
 -1      3889 2.08787E+01-1.52956E+00-2.21778E-02-1.76472E+00 8.70432E-14-4.29368E-14
 -1      3890 2.03896E+01-7.82428E-01 6.85690E-03-1.27394E+00 2.18766E-14 1.46317E-13
 -1      3891 2.01614E+01-5.48598E-01 6.03163E-03-1.20730E+00-5.23949E-14 8.92167E-14
 -1      3892 2.02039E+01-8.86798E-01-1.80194E-02-1.57050E+00 1.80715E-15 3.98739E-14
 -1      3893 2.00237E+01-3.49207E-01 6.69447E-03-1.07601E+00-4.41479E-15 1.19425E-13
 -1      3894 1.98823E+01-1.85779E-01 2.41372E-03-9.91574E-01-1.82419E-14 8.11583E-14
 -1      3895 1.98302E+01-3.82382E-01-1.10640E-02-1.27978E+00-2.03595E-14 7.21455E-14
 -1      3896 1.98241E+01-5.15878E-02 5.51736E-03-8.70258E-01-1.30155E-14 2.18506E-13
 -1      3897 1.97448E+01 5.26325E-02 2.73186E-04-7.87007E-01 5.56746E-14 2.44568E-13
 -1      3898 1.96512E+01-4.48531E-02-6.05466E-03-1.00230E+00 7.32433E-14 1.40373E-13
 -1      3899 1.97341E+01 1.35288E-01 4.30487E-03-6.83952E-01 1.28613E-14 2.58486E-13
 -1      3900 1.96963E+01 1.94210E-01-8.19979E-04-6.10024E-01-1.76321E-14 1.55495E-13
 -1      3901 1.95872E+01 1.63661E-01-3.12574E-03-7.64268E-01 1.60097E-14 1.96892E-13
 -1      3902 1.97118E+01 2.38378E-01 3.16602E-03-5.27085E-01 7.48944E-15 1.73078E-13
 -1      3903 1.97001E+01 2.65141E-01-1.28585E-03-4.65027E-01 2.43344E-14 2.32776E-13
 -1      3904 1.95918E+01 2.76872E-01-1.32088E-03-5.71591E-01-3.35504E-14 2.21178E-13
 -1      3905 1.97282E+01 2.82519E-01 2.22837E-03-4.00499E-01 6.11230E-14 2.23792E-13
 -1      3906 1.97316E+01 2.87908E-01-1.39816E-03-3.50147E-01 7.46135E-14 2.92431E-13
 -1      3907 1.96326E+01 3.24032E-01-2.67476E-04-4.21732E-01 8.26378E-14 2.62793E-13
 -1      3908 1.97637E+01 2.87910E-01 1.51639E-03-3.01048E-01-1.42388E-14 3.36987E-13
 -1      3909 1.97747E+01 2.80174E-01-1.32691E-03-2.61065E-01 6.25102E-15 3.04614E-13
 -1      3910 1.96891E+01 3.28315E-01 3.03822E-04-3.08099E-01 4.44298E-14 2.76478E-13
 -1      3911 1.98060E+01 2.69864E-01 1.00500E-03-2.24252E-01-1.62884E-14 1.37526E-13
 -1      3912 1.98199E+01 2.54956E-01-1.17174E-03-1.92958E-01-1.37855E-14 1.31242E-13
 -1      3913 1.97487E+01 3.06936E-01 5.76563E-04-2.23374E-01-1.26948E-13 2.29090E-13
 -1      3914 1.98480E+01 2.39346E-01 6.52587E-04-1.65626E-01-2.09364E-14 7.52572E-14
 -1      3915 1.98620E+01 2.21336E-01-9.89173E-04-1.41386E-01-1.97601E-14 1.83438E-13
 -1      3916 1.98046E+01 2.72034E-01 6.66139E-04-1.60894E-01-1.72776E-14 2.40572E-14
 -1      3917 1.98858E+01 2.03792E-01 4.17295E-04-1.21234E-01 5.16930E-14 2.27641E-13
 -1      3918 1.98984E+01 1.85308E-01-8.09084E-04-1.02615E-01 1.08586E-13 2.49783E-13
 -1      3919 1.98534E+01 2.31768E-01 6.49610E-04-1.15145E-01 6.97652E-15 1.59382E-13
 -1      3920 1.99177E+01 1.67955E-01 2.64590E-04-8.78395E-02 1.07294E-13 1.84550E-13
 -1      3921 1.99283E+01 1.50574E-01-6.45513E-04-7.36450E-02 1.61289E-13 1.88706E-13
 -1      3922 1.98939E+01 1.91328E-01 5.79918E-04-8.18076E-02 1.11694E-13 1.81598E-13
 -1      3923 1.99433E+01 1.34635E-01 1.68284E-04-6.28622E-02 1.37952E-13 1.59074E-13
 -1      3924 1.99517E+01 1.19189E-01-5.04374E-04-5.21250E-02 7.62453E-14 2.10698E-13
 -1      3925 1.99262E+01 1.53762E-01 4.88290E-04-5.75984E-02 9.42069E-14 1.26112E-13
 -1      3926 1.99632E+01 1.05265E-01 1.08759E-04-4.42966E-02-8.28933E-14 2.21311E-13
 -1      3927 1.99695E+01 9.20913E-02-3.86601E-04-3.62451E-02-6.39000E-14 2.09483E-13
 -1      3928 1.99511E+01 1.20626E-01 3.93350E-04-4.00710E-02 2.85418E-14 2.05684E-13
 -1      3929 1.99779E+01 8.03762E-02 7.25598E-05-3.05976E-02 4.38652E-14 3.04367E-13
 -1      3930 1.99825E+01 6.94985E-02-2.90887E-04-2.46216E-02-4.45119E-14 3.50714E-13
 -1      3931 1.99696E+01 9.24953E-02 3.05421E-04-2.74280E-02 5.73553E-15 1.87078E-13
 -1      3932 1.99885E+01 5.99393E-02 5.04569E-05-2.05840E-02-1.08919E-13 2.83228E-13
 -1      3933 1.99916E+01 5.12029E-02-2.14489E-04-1.62027E-02 1.49461E-14 3.20379E-13
 -1      3934 1.99829E+01 6.93341E-02 2.29586E-04-1.83584E-02-9.23643E-14 2.81543E-13
 -1      3935 1.99957E+01 4.36061E-02 3.69440E-05-1.33455E-02-3.18629E-14 3.17166E-13
 -1      3936 1.99978E+01 3.67563E-02-1.55097E-04-1.01805E-02-1.06647E-13 2.59050E-13
 -1      3937 1.99922E+01 5.07570E-02 1.65433E-04-1.19003E-02-7.54021E-14 3.35614E-13
 -1      3938 2.00004E+01 3.08621E-02 2.82081E-05-8.19122E-03-4.86988E-14 2.61511E-13
 -1      3939 2.00016E+01 2.56154E-02-1.09481E-04-5.94614E-03-4.48561E-14 2.61262E-13
 -1      3940 1.99984E+01 3.62051E-02 1.15362E-04-7.34944E-03-7.40739E-14 2.34808E-13
 -1      3941 2.00032E+01 2.11474E-02 2.23488E-05-4.58856E-03-1.94482E-13 2.42379E-13
 -1      3942 2.00039E+01 1.72196E-02-7.51018E-05-3.03190E-03-2.35567E-13 1.50807E-13
 -1      3943 2.00022E+01 2.50590E-02 7.70794E-05-4.19181E-03-1.12863E-13 1.14062E-13
 -1      3944 2.00047E+01 1.39112E-02 1.80662E-05-2.13080E-03-3.09230E-13 1.11564E-13
 -1      3945 2.00049E+01 1.10399E-02-4.96867E-05-1.08285E-03-2.02879E-13 7.80859E-15
 -1      3946 2.00043E+01 1.67096E-02 4.86473E-05-2.04452E-03-2.87575E-13 1.72771E-13
 -1      3947 2.00053E+01 8.65016E-03 1.46810E-05-5.07945E-04 3.98058E-16-8.22367E-14
 -1      3948 2.00052E+01 6.60476E-03-3.12811E-05 1.69731E-04 8.02988E-14-1.80877E-14
 -1      3949 2.00053E+01 1.05986E-02 2.81624E-05-6.25286E-04-1.07012E-13 5.08735E-14
 -1      3950 2.00052E+01 4.92512E-03 1.18511E-05 5.15145E-04 1.73551E-15-9.25274E-14
 -1      3951 2.00050E+01 3.50991E-03-1.81511E-05 9.28018E-04 6.43281E-14-1.23898E-13
 -1      3952 2.00055E+01 6.23720E-03 1.39158E-05 2.74692E-04 4.68849E-14-1.10510E-13
 -1      3953 2.00048E+01 2.36486E-03 9.57787E-06 1.11577E-03 1.54945E-13-1.20724E-13
 -1      3954 2.00045E+01 1.41657E-03-9.12308E-06 1.34311E-03 2.17205E-13-1.75064E-13
 -1      3955 2.00052E+01 3.21059E-03 4.32710E-06 8.10494E-04 1.43507E-13-1.23754E-13
 -1      3956 2.00042E+01 6.65947E-04 8.00383E-06 1.42331E-03 2.31101E-13-2.81936E-13
 -1      3957 2.00038E+01 6.15607E-05-2.49191E-06 1.52265E-03 3.14203E-13-4.33824E-13
 -1      3958 2.00046E+01 1.17603E-03-2.20661E-06 1.09384E-03 7.64100E-14-1.48924E-13
 -1      3959 1.98699E+01 2.40545E-01-8.45879E-04 9.71970E-02 2.20696E-14-9.53974E-14
 -1      3960 1.98418E+01 2.75580E-01-5.97821E-04 1.11826E-01-4.93266E-14-5.78947E-14
 -1      3961 1.88426E+01 9.31586E-01-1.26796E-03 6.81559E-02 7.19761E-14-1.24249E-13
 -1      3962 1.86048E+01 1.01363E+00-9.29177E-03 2.46848E-02 9.19204E-14-6.55749E-14
 -1      3963 1.98041E+01 3.12617E-01-1.02070E-03 1.19950E-01-4.68708E-14 6.84946E-14
 -1      3964 1.97651E+01 3.53711E-01-1.06417E-03 1.34770E-01-4.58380E-14 1.19470E-13
 -1      3965 1.98061E+01 3.06454E-01 1.57489E-03 8.52806E-02-4.08756E-14-2.57315E-14
 -1      3966 1.97123E+01 4.00435E-01-1.17846E-03 1.41016E-01-8.01051E-15 2.60582E-13
 -1      3967 1.96560E+01 4.50179E-01-1.72181E-03 1.54905E-01 9.63849E-14 1.68585E-13
 -1      3968 1.95975E+01 4.89313E-01 2.92172E-03 9.58578E-02 9.54167E-14 2.94139E-13
 -1      3969 1.99151E+01 1.84112E-01-6.88213E-04 7.64252E-02 1.86805E-13 4.16275E-14
 -1      3970 1.98972E+01 2.10852E-01-3.04298E-04 8.87650E-02 1.29830E-13 3.64340E-14
 -1      3971 1.98688E+01 2.38437E-01 1.11724E-03 7.19314E-02-2.39596E-14-4.61269E-14
 -1      3972 1.99467E+01 1.39224E-01-5.46598E-04 5.82192E-02-6.08869E-15 8.04227E-14
 -1      3973 1.99347E+01 1.60524E-01-1.23219E-04 6.86075E-02 1.58045E-13 4.69598E-14
 -1      3974 1.99137E+01 1.83145E-01 7.86536E-04 5.78566E-02 1.31829E-13 1.54722E-13
 -1      3975 1.99685E+01 1.03895E-01-4.23193E-04 4.30193E-02 3.00269E-14-1.30038E-13
 -1      3976 1.99606E+01 1.20640E-01-2.99182E-05 5.14550E-02 2.36928E-14-1.24487E-13
 -1      3977 1.99455E+01 1.38840E-01 5.55021E-04 4.47689E-02 1.36063E-13 7.75840E-14
 -1      3978 1.99832E+01 7.63836E-02-3.20752E-04 3.07931E-02 2.69271E-14-9.85055E-14
 -1      3979 1.99781E+01 8.93985E-02 1.95644E-05 3.74433E-02-3.44627E-14-1.02912E-13
 -1      3980 1.99676E+01 1.03753E-01 3.87853E-04 3.34441E-02 4.29897E-14-1.25181E-13
 -1      3981 1.99929E+01 5.51770E-02-2.43733E-04 2.12532E-02 5.88403E-14 3.65297E-14
 -1      3982 1.99898E+01 6.51851E-02 3.88801E-05 2.63657E-02 2.12066E-15-2.56794E-15
 -1      3983 1.99826E+01 7.63157E-02 2.69213E-04 2.41187E-02-6.72297E-14-9.73728E-14
 -1      3984 1.99993E+01 3.83685E-02-1.77570E-04 1.37212E-02-2.44241E-14-2.94348E-14
 -1      3985 1.99974E+01 4.62480E-02 4.72335E-05 1.76859E-02 9.16244E-14 5.13796E-14
 -1      3986 1.99928E+01 5.46871E-02 1.85423E-04 1.65832E-02 1.02440E-14 6.37389E-14
 -1      3987 2.00028E+01 2.64653E-02-1.22972E-04 8.49104E-03-9.00075E-14 4.80051E-14
 -1      3988 2.00019E+01 3.20497E-02 4.71466E-05 1.12382E-02-9.34429E-14 1.05071E-13
 -1      3989 1.99992E+01 3.82679E-02 1.17109E-04 1.08435E-02-7.48436E-14 1.87252E-13
 -1      3990 2.00047E+01 1.76645E-02-8.55027E-05 4.74460E-03-2.13067E-13 7.15733E-14
 -1      3991 2.00044E+01 2.17758E-02 4.38873E-05 6.69243E-03-1.59822E-13 7.27271E-14
 -1      3992 2.00029E+01 2.63115E-02 7.24023E-05 6.71458E-03-2.03635E-13 1.74715E-13
 -1      3993 2.00055E+01 1.12807E-02-5.73401E-05 2.15151E-03-1.75079E-13 1.04274E-13
 -1      3994 2.00055E+01 1.42485E-02 3.70586E-05 3.48975E-03-1.96471E-13 7.57799E-15
 -1      3995 2.00049E+01 1.74889E-02 4.27917E-05 3.74679E-03-1.84558E-13 3.01167E-13
 -1      3996 2.00056E+01 6.74541E-03-3.66666E-05 4.26269E-04-1.43533E-13 1.00096E-13
 -1      3997 2.00058E+01 8.84129E-03 3.00339E-05 1.30988E-03-8.51858E-14 3.77321E-14
 -1      3998 2.00057E+01 1.10965E-02 2.28325E-05 1.68643E-03-1.09951E-13 8.03985E-14
 -1      3999 2.00052E+01 3.59788E-03-2.26012E-05-6.63825E-04-3.93533E-13 3.04260E-13
 -1      4000 2.00055E+01 5.04265E-03 2.32409E-05-1.10180E-04-3.62631E-13 2.13274E-13
 -1      4001 2.00058E+01 6.56399E-03 9.91343E-06 3.12785E-04-3.24300E-13 8.53411E-15
 -1      4002 2.00045E+01 1.39839E-03-1.18791E-05-1.32037E-03-1.52753E-13 4.26323E-13
 -1      4003 2.00050E+01 2.39238E-03 1.74338E-05-9.94923E-04-2.05493E-13 3.36230E-13
 -1      4004 2.00054E+01 3.37439E-03 2.87542E-06-5.67003E-04-3.56683E-13 3.31576E-13
 -1      4005 2.00038E+01 5.78660E-05-4.28902E-06-1.62286E-03-1.79356E-13 2.77817E-13
 -1      4006 2.00042E+01 6.59707E-04 1.23407E-05-1.47623E-03-1.60932E-13 3.29891E-13
 -1      4007 2.00047E+01 1.24850E-03-1.89418E-06-1.07584E-03-1.64010E-13 1.88518E-13
 -1      4008 2.00031E+01-7.92627E-04-3.47304E-06-1.71563E-03-1.04175E-13 1.71197E-13
 -1      4009 2.00034E+01-4.12537E-04 8.33453E-06-1.68256E-03-1.23156E-13 2.68113E-13
 -1      4010 2.00040E+01-8.21643E-05-2.14947E-06-1.31633E-03-1.50210E-13 2.41660E-13
 -1      4011 1.49071E+01 1.44190E+00-2.75295E-03-1.09136E+00 8.83885E-14 2.73032E-13
 -1      4012 1.48064E+01 1.22706E+00 4.62132E-02-1.84578E+00 2.71855E-14 2.29744E-13
 -1      4013 1.58758E+01 9.00489E-01 9.99906E-03-2.06731E+00 1.03257E-13 8.91600E-14
 -1      4014 1.57358E+01 1.41306E+00-5.34098E-03-1.03883E+00 8.19319E-14 2.75577E-13
 -1      4015 2.00027E+01-1.43626E-03 2.68803E-06-7.43467E-04 3.95093E-13-1.82681E-13
 -1      4016 2.02240E+01-7.01021E-02 2.03136E-02 2.22690E+00 1.43295E-13 2.74386E-14
 -1      4017 1.69446E+01 1.40185E+00-3.34365E-03-5.05893E-01 1.32102E-14 1.71739E-13
 -1      4018 1.63315E+01 1.42777E+00-1.54187E-02-7.15182E-01 6.36740E-14 2.03912E-13
 -1      4019 1.63175E+01 1.26989E+00 1.28232E-02-1.21667E+00 9.56695E-14 1.66375E-13
 -1      4020 1.80658E+01-5.01495E-01 2.51158E-02-2.99840E+00 1.61446E-13-4.95693E-14
 -1      4021 1.92346E+01-1.20866E+00-1.94903E-02-2.93077E+00 1.06452E-13-5.03486E-14
 -1      4022 1.94117E+01 6.29390E-01-1.47676E-03 1.57571E-01 8.21970E-14 8.26233E-14
 -1      4023 1.92976E+01 6.97506E-01-4.16889E-03 1.59017E-01 4.01641E-14 2.71851E-14
 -1      4024 1.94355E+01 6.03306E-01 3.94790E-03 7.94315E-02 9.32194E-14 2.12581E-13
 -1      4025 1.46292E+01 2.17896E+00 3.90096E-02 2.25497E+00 2.31602E-13-1.55147E-13
 -1      4026 1.91727E+01 7.72191E-01-1.49627E-03 1.34350E-01 1.21317E-13-2.51893E-14
 -1      4027 1.90118E+01 8.47215E-01-6.42194E-03 1.20074E-01 1.00649E-13-7.26633E-14
 -1      4028 1.92177E+01 7.31029E-01 5.30929E-03 3.35946E-02 8.22085E-15 2.99670E-14
 -1      4029 2.25688E+01-1.46090E+00 3.15071E-02 1.17669E+00 5.15048E-14 8.50559E-14
 -1      4030 2.00036E+01-7.01322E-04-1.06352E-06 8.99992E-04 1.91975E-13-7.43773E-13
 -1      4031 2.00036E+01-8.42406E-04-6.92973E-06 5.58438E-04 1.66483E-13-7.56572E-13
 -1      4032 1.89229E+01 8.68565E-01 7.11564E-03-6.11639E-02 7.57864E-14 2.23804E-14
 -1      4033 2.00030E+01-8.44565E-04 6.94461E-06 1.51324E-03 3.81464E-13-5.73700E-13
 -1      4034 2.00035E+01-2.80991E-04 7.81931E-06 1.52765E-03 3.00704E-13-6.03478E-13
 -1      4035 2.00033E+01-5.96056E-04 3.43470E-07 1.52699E-03 3.56388E-13-5.61941E-13
 -1      4036 2.00035E+01-6.62840E-04-8.49335E-06 1.22092E-03 2.22736E-13-8.11234E-13
 -1      4037 2.00040E+01-7.52351E-07-7.96045E-06 1.20696E-03 1.59739E-13-6.41400E-13
 -1      4038 1.85322E+01 1.00102E+00 9.25087E-03-2.30860E-01 6.25312E-14-3.91000E-14
 -1      4039 1.83870E+01 1.09693E+00-1.01487E-03-6.69308E-02 6.19073E-14-5.00543E-14
 -1      4040 1.80697E+01 1.16873E+00-1.29477E-02-1.49977E-01 3.55980E-14-5.27890E-14
 -1      4041 1.69424E+01 3.16988E-01-5.53852E-03-2.45488E+00 1.57607E-13-9.37046E-14
 -1      4042 1.74928E+01-1.36765E-01-1.71919E-03-2.83543E+00 1.79719E-13-5.38597E-14
 -1      4043 1.82931E+01-2.24203E-01 1.72007E-02-2.45832E+00 1.53582E-13 7.37565E-14
 -1      4044 2.00037E+01-8.59403E-04 6.89155E-07 1.34405E-04 6.85191E-14-5.74593E-13
 -1      4045 2.00037E+01-8.79029E-04-1.12344E-05-2.81566E-04 8.49587E-14-3.28407E-13
 -1      4046 2.00041E+01-4.46103E-04 7.89751E-06 1.75097E-04 3.86342E-14-4.13521E-13
 -1      4047 1.97181E+01 3.89824E-01 2.11722E-03 9.50769E-02 6.54860E-14 2.51419E-13
 -1      4048 1.97131E+01-9.42307E-01-6.43764E-03-2.19728E+00 8.25297E-14-1.13229E-13
 -1      4049 2.03236E+01-1.44804E+00 1.88417E-02-2.37137E+00 5.88210E-14-1.70936E-13
 -1      4050 2.00027E+01-1.36719E-03-1.32413E-05-1.12013E-03 3.96110E-13-1.39075E-13
 -1      4051 2.00029E+01-9.82548E-04 6.87372E-06-1.59054E-03 1.47368E-13 3.54256E-14
 -1      4052 2.00033E+01-1.12439E-03 5.44255E-06-6.94436E-04 2.21101E-13-1.86495E-13
 -1      4053 2.00034E+01-8.20741E-04 2.25747E-06-1.24758E-03 8.12413E-14-3.21162E-14
 -1      4054 1.77862E+01 1.23880E+00-1.07875E-03-2.97761E-01 1.17081E-13-1.35658E-14
 -1      4055 1.73670E+01 1.29194E+00-1.17690E-02-4.44245E-01 6.17523E-14 1.38380E-13
 -1      4056 1.80242E+01 1.10841E+00 1.23623E-02-5.07303E-01 8.92015E-14-2.47998E-14
 -1      4057 2.19502E+01-2.18355E+00-9.10971E-03-1.56644E+00 1.00817E-13-4.71151E-15
 -1      4058 1.73244E+01 1.22423E+00 1.50680E-02-7.84904E-01 9.61790E-14 1.42694E-14
 -1      4059 2.00039E+01-3.92528E-04 5.96964E-06 8.91900E-04 2.77975E-14-7.51604E-13
 -1      4060 1.90358E+01 7.63690E-01 1.31639E-03-1.55845E-01 1.94404E-14-9.66833E-14
 -1      4061 1.88480E+01 8.10193E-01-9.59096E-03-2.31031E-01 8.15318E-14-4.27143E-14
 -1      4062 2.14143E+01-2.12042E+00-2.01959E-02-2.06977E+00 7.18067E-14-1.47065E-13
 -1      4063 1.96174E+01 4.49668E-01-5.62689E-04 4.01008E-02 4.44896E-14 2.19118E-13
 -1      4064 1.95436E+01 4.96517E-01-3.10889E-03 3.25922E-02 6.76327E-14 1.67481E-13
 -1      4065 1.96345E+01-2.92292E-01 1.13719E-02-1.43605E+00 6.03533E-14 4.86402E-14
 -1      4066 1.94790E+01-1.09413E-01-3.17937E-03-1.28269E+00 6.55390E-14 8.19389E-14
 -1      4067 1.94828E+01 4.70719E-02 9.46443E-03-1.09053E+00 7.82861E-14 7.37781E-14
 -1      4068 1.94050E+01 1.55284E-01-4.64874E-03-9.58756E-01 1.15552E-13 9.54132E-14
 -1      4069 1.92097E+01 1.07046E-01-1.75264E-04-1.24162E+00 1.24283E-13-5.73662E-15
 -1      4070 1.94495E+01 2.48516E-01 7.22455E-03-8.06259E-01 9.01857E-14 1.35525E-13
 -1      4071 1.94215E+01 3.03645E-01-4.49856E-03-6.99410E-01-4.92723E-14 1.13098E-13
 -1      4072 1.92375E+01 3.23010E-01 3.28625E-03-8.89618E-01 9.97513E-14-5.29880E-14
 -1      4073 1.94816E+01 3.49893E-01 4.93098E-03-5.85123E-01-7.53194E-14 1.08651E-13
 -1      4074 1.94833E+01 3.69744E-01-3.97831E-03-5.02168E-01-1.62527E-14 6.59561E-14
 -1      4075 1.93226E+01 4.23741E-01 4.33708E-03-6.23624E-01-2.47547E-14-2.11410E-14
 -1      4076 1.95460E+01 3.84963E-01 3.24473E-03-4.18852E-01 1.60663E-14 1.12891E-14
 -1      4077 1.95635E+01 3.82437E-01-3.28364E-03-3.56173E-01 1.13573E-13 1.78592E-14
 -1      4078 1.94282E+01 4.52413E-01 4.40630E-03-4.29986E-01-2.87137E-14-1.62362E-13
 -1      4079 1.96220E+01 3.78112E-01 2.03114E-03-2.96860E-01 9.57490E-14-2.93162E-14
 -1      4080 1.96463E+01 3.62620E-01-2.61135E-03-2.50364E-01-6.66440E-14-3.85688E-14
 -1      4081 1.95355E+01 4.36749E-01 3.95101E-03-2.92487E-01 5.17631E-14-2.71820E-13
 -1      4082 1.96973E+01 3.47108E-01 1.20349E-03-2.08823E-01-1.40669E-13 1.14039E-14
 -1      4083 1.97230E+01 3.25087E-01-2.02764E-03-1.74763E-01-1.29138E-13-5.65367E-14
 -1      4084 1.96343E+01 3.96745E-01 3.36809E-03-1.96714E-01-8.66033E-14-4.07339E-13
 -1      4085 1.97657E+01 3.04172E-01 6.68276E-04-1.46045E-01-8.93815E-14-2.16250E-14
 -1      4086 1.97898E+01 2.79874E-01-1.53781E-03-1.21264E-01-4.52366E-14-7.74612E-14
 -1      4087 1.97201E+01 3.45399E-01 2.78085E-03-1.31035E-01-1.19727E-13-2.43499E-13
 -1      4088 1.98244E+01 2.57305E-01 3.35397E-04-1.01650E-01 7.67547E-14-1.20629E-13
 -1      4089 1.98453E+01 2.33404E-01-1.14499E-03-8.36786E-02 1.49291E-13-2.17016E-14
 -1      4090 1.97916E+01 2.90959E-01 2.21356E-03-8.65991E-02 7.95766E-14-2.15564E-13
 -1      4091 1.98725E+01 2.11479E-01 1.36209E-04-7.04029E-02 1.00293E-13 7.36163E-14
 -1      4092 1.98898E+01 1.89514E-01-8.44738E-04-5.74022E-02 5.85528E-14 9.49722E-14
 -1      4093 1.98491E+01 2.38599E-01 1.71652E-03-5.68520E-02 2.24893E-13-7.05849E-14
 -1      4094 1.99107E+01 1.69563E-01 2.83985E-05-4.84657E-02-4.90738E-14 6.94822E-14
 -1      4095 1.99244E+01 1.50286E-01-6.16079E-04-3.90693E-02 1.15443E-14 2.22322E-14
 -1      4096 1.98941E+01 1.91181E-01 1.30785E-03-3.70762E-02-2.82118E-14 6.34826E-14
 -1      4097 1.99400E+01 1.32923E-01-2.46107E-05-3.30864E-02 4.29115E-14-1.18935E-14
 -1      4098 1.99505E+01 1.16587E-01-4.44366E-04-2.63016E-02 2.47253E-14 7.26048E-14
 -1      4099 1.99285E+01 1.49967E-01 9.78071E-04-2.39933E-02 1.35386E-14-9.61688E-14
 -1      4100 1.99619E+01 1.01985E-01-4.50077E-05-2.23166E-02-1.26677E-14 1.05025E-13
 -1      4101 1.99697E+01 8.85292E-02-3.15134E-04-1.74270E-02-4.72017E-14 1.30186E-13
 -1      4102 1.99540E+01 1.15269E-01 7.17778E-04-1.53687E-02-8.70455E-15-3.30261E-15
 -1      4103 1.99778E+01 7.65780E-02-5.02417E-05-1.47801E-02-4.94371E-14 2.16353E-13
 -1      4104 1.99833E+01 6.57601E-02-2.20472E-04-1.12749E-02-5.77204E-14 1.81753E-13
 -1      4105 1.99725E+01 8.68307E-02 5.19441E-04-9.69255E-03 1.94007E-14 2.23563E-13
 -1      4106 1.99889E+01 5.62374E-02-4.24179E-05-9.53968E-03-6.49875E-14 2.24142E-13
 -1      4107 1.99927E+01 4.77333E-02-1.47877E-04-7.02719E-03-8.46735E-14 2.20385E-13
 -1      4108 1.99855E+01 6.39974E-02 3.55071E-04-5.95827E-03-2.25158E-15 1.13922E-13
 -1      4109 1.99964E+01 4.02852E-02-3.43741E-05-5.90686E-03-2.27585E-13 1.29413E-13
 -1      4110 1.99988E+01 3.37404E-02-9.91952E-05-4.13108E-03-1.68768E-13-7.33285E-15
 -1      4111 1.99942E+01 4.60863E-02 2.36385E-04-3.51948E-03-2.24683E-13-3.46983E-14
 -1      4112 2.00011E+01 2.80520E-02-2.41976E-05-3.41547E-03-1.67984E-13-1.12959E-13
 -1      4113 2.00026E+01 2.31170E-02-6.42800E-05-2.17770E-03-2.10777E-13-1.20484E-13
 -1      4114 1.99999E+01 3.23241E-02 1.53230E-04-1.93708E-03-2.26908E-13-1.70330E-13
 -1      4115 2.00039E+01 1.88643E-02-1.55335E-05-1.73392E-03-2.20366E-13-5.65987E-14
 -1      4116 2.00046E+01 1.52233E-02-3.97369E-05-8.87888E-04-2.52522E-13 2.94371E-14
 -1      4117 2.00033E+01 2.19514E-02 9.40160E-05-9.17594E-04-1.57208E-13-2.25264E-13
 -1      4118 2.00053E+01 1.21156E-02-8.68618E-06-6.25186E-04-2.23487E-13-2.02896E-14
 -1      4119 2.00055E+01 9.49185E-03-2.26961E-05-6.26292E-05-1.29131E-13-1.49492E-13
 -1      4120 2.00051E+01 1.42968E-02 5.27212E-05-2.73370E-04-2.28783E-13-2.65837E-13
 -1      4121 2.00057E+01 7.27615E-03-3.75819E-06 8.13478E-05-1.91227E-14-2.04756E-13
 -1      4122 2.00057E+01 5.43443E-03-1.08125E-05 4.41109E-04 5.18627E-14-1.71765E-13
 -1      4123 2.00058E+01 8.77677E-03 2.47265E-05 1.20893E-04-2.07448E-13-4.14189E-13
 -1      4124 2.00056E+01 3.89987E-03-1.87771E-07 5.05106E-04 1.41687E-13-2.52074E-13
 -1      4125 2.00053E+01 2.64637E-03-1.67470E-06 7.23920E-04 1.01938E-13-2.41867E-13
 -1      4126 2.00058E+01 4.88931E-03 5.07804E-06 3.48728E-04-2.49500E-14-3.59864E-13
 -1      4127 2.00050E+01 1.60979E-03 1.19546E-07 7.35479E-04-4.34425E-14-2.53949E-13
 -1      4128 2.00047E+01 7.99994E-04-9.75211E-07 8.42842E-04-8.16435E-14-3.97786E-13
 -1      4129 2.00053E+01 2.20916E-03-7.29355E-06 4.69351E-04-2.57800E-14-5.53023E-13
 -1      4130 1.99136E+01 1.72455E-01-5.26031E-04 3.75690E-02 8.45378E-14-1.95314E-14
 -1      4131 1.98945E+01 1.96859E-01-4.93145E-04 4.33243E-02 4.18981E-14-3.12907E-14
 -1      4132 1.98102E+01 2.86047E-01-6.74819E-04 5.05822E-02 4.50123E-15-5.11143E-14
 -1      4133 1.97720E+01 3.21481E-01-1.32087E-03 5.43924E-02 9.82020E-14 8.24864E-14
 -1      4134 1.68953E+01 1.10431E+00 3.85459E-03-1.24809E+00 8.56550E-14-4.85077E-14
 -1      4135 1.63062E+01 1.03043E+00-1.33576E-02-1.59201E+00 1.41411E-13 2.58474E-15
 -1      4136 1.65524E+01 7.23355E-01 9.46636E-03-2.10468E+00 1.37979E-13-1.18843E-13
 -1      4137 1.90032E+01-5.10727E-01 3.14056E-04-2.29011E+00 1.61307E-13-1.11081E-13
 -1      4138 1.98857E+01-7.85355E-01 5.50069E-03-1.86427E+00 1.08522E-13-1.35252E-13
 -1      4139 1.96152E+01-4.88302E-01-4.95439E-04-1.68997E+00 8.55470E-14-5.73916E-14
 -1      4140 1.84877E+01-1.48594E-01-9.17164E-03-2.15691E+00 2.01706E-13 1.16476E-14
 -1      4141 1.99448E+01 1.30991E-01-4.32603E-04 2.96952E-02 6.56978E-14-5.34129E-15
 -1      4142 1.99316E+01 1.50710E-01-2.86441E-04 3.50595E-02 1.05621E-13 1.64606E-14
 -1      4143 1.99187E+01 1.68011E-01 1.26162E-03 2.19982E-02 3.47499E-14-6.55058E-14
 -1      4144 1.99668E+01 9.79448E-02-3.44566E-04 2.24675E-02 7.94182E-14-5.07811E-14
 -1      4145 1.99578E+01 1.13634E-01-1.56514E-04 2.71128E-02 8.88540E-14 1.28471E-14
 -1      4146 1.99483E+01 1.27790E-01 9.09439E-04 1.83279E-02 9.94042E-14 9.13275E-15
 -1      4147 1.99820E+01 7.19763E-02-2.67308E-04 1.62981E-02-1.36100E-13 1.01417E-14
 -1      4148 1.99760E+01 8.42813E-02-7.77511E-05 2.01380E-02-6.94205E-14-2.93437E-14
 -1      4149 1.99692E+01 9.55725E-02 6.43862E-04 1.43582E-02-3.25687E-14 1.51845E-13
 -1      4150 1.99925E+01 5.10026E-02-2.00045E-04 1.11061E-02 2.12366E-14 9.52616E-14
 -1      4151 1.99886E+01 6.08736E-02-2.91448E-05 1.42488E-02-9.21009E-14-4.61550E-15
 -1      4152 1.99839E+01 6.96357E-02 4.37861E-04 1.06062E-02-1.18167E-13 1.44280E-14
 -1      4153 1.99989E+01 3.58900E-02-1.45331E-04 7.30662E-03-2.03389E-13 2.41816E-13
 -1      4154 1.99967E+01 4.30043E-02-1.79669E-06 9.59506E-03-9.84616E-14 1.48631E-13
 -1      4155 1.99936E+01 4.96302E-02 2.92069E-04 7.42856E-03-1.31973E-13-1.33740E-14
 -1      4156 2.00028E+01 2.45457E-02-1.03386E-04 4.46689E-03-1.71031E-13 2.38619E-13
 -1      4157 2.00015E+01 2.98698E-02 1.42521E-05 6.16192E-03-1.59224E-13 2.16333E-13
 -1      4158 1.99997E+01 3.48025E-02 1.87894E-04 4.95893E-03-1.25121E-13 2.15846E-13
 -1      4159 2.00048E+01 1.61850E-02-7.07970E-05 2.42312E-03-2.58466E-13 1.81626E-13
 -1      4160 2.00043E+01 2.00911E-02 1.93081E-05 3.63991E-03-2.67877E-13 1.97686E-13
 -1      4161 2.00033E+01 2.36904E-02 1.15153E-04 3.07621E-03-2.20974E-13 2.19029E-13
 -1      4162 2.00057E+01 1.01436E-02-4.64846E-05 1.00686E-03 7.49431E-14 5.97621E-14
 -1      4163 2.00056E+01 1.29506E-02 2.01529E-05 1.85101E-03-3.79004E-14 1.43515E-13
 -1      4164 2.00052E+01 1.55137E-02 6.49574E-05 1.70083E-03-1.46329E-13 3.39761E-14
 -1      4165 2.00058E+01 5.87461E-03-2.90731E-05 6.59885E-05-4.92288E-13 1.74071E-13
 -1      4166 2.00060E+01 7.84680E-03 1.88409E-05 6.31419E-04-1.69965E-13 8.07204E-14
 -1      4167 2.00059E+01 9.62014E-03 3.12358E-05 7.37532E-04-9.49693E-14 7.75191E-14
 -1      4168 2.00054E+01 2.82356E-03-1.56846E-05-5.40122E-04-3.12837E-13 1.44263E-13
 -1      4169 2.00058E+01 4.21009E-03 1.60287E-05-1.76003E-04-5.02498E-13 8.44367E-14
 -1      4170 2.00059E+01 5.39242E-03 9.07545E-06 8.15697E-05-3.45132E-13 1.18583E-14
 -1      4171 2.00048E+01 9.11978E-04-6.72587E-06-8.54791E-04-1.78458E-13 1.89619E-14
 -1      4172 2.00052E+01 1.77084E-03 1.19314E-05-6.60300E-04-7.41600E-14-2.07317E-14
 -1      4173 2.00055E+01 2.51906E-03-2.68798E-06-3.33502E-04-1.50066E-13-1.09225E-13
 -1      4174 2.00039E+01-3.76327E-04-2.51148E-06-1.11745E-03-3.19581E-15-1.15698E-13
 -1      4175 2.00043E+01 1.47849E-04 5.24103E-06-1.02670E-03-1.68018E-13 7.78309E-15
 -1      4176 2.00047E+01 6.06237E-04-6.21088E-07-6.50260E-04-9.41959E-14-1.69948E-13
 -1      4177 2.00037E+01-6.27616E-04-5.83984E-06-9.70169E-04 1.00656E-13-2.51355E-13
 -1      4178 1.94724E+01 5.48226E-01-3.05857E-04 1.10776E-02 1.00961E-13 1.46135E-13
 -1      4179 1.93717E+01 5.98937E-01-4.60279E-03-9.21393E-03 1.76741E-14 8.80886E-14
 -1      4180 1.95155E+01 5.16994E-01 5.03642E-03-4.62200E-02 5.42612E-14-1.10412E-13
 -1      4181 2.00037E+01-7.87175E-04 1.85763E-06-6.74800E-04-2.11469E-15-1.19491E-13
 -1      4182 1.98701E+01 2.23722E-01-6.08548E-04 4.51361E-02 1.64410E-14 1.96229E-15
 -1      4183 1.98428E+01 2.53385E-01-8.24000E-04 5.05551E-02-7.23812E-14-1.09669E-13
 -1      4184 1.98220E+01 2.76805E-01 2.31867E-03 2.30014E-02 1.63193E-13 1.99020E-14
 -1      4185 1.77342E+01 9.84061E-01-2.25300E-03-9.49800E-01 1.02586E-13-1.45352E-13
 -1      4186 1.73162E+01 1.03993E+00-7.98367E-03-1.07017E+00 5.83327E-14-6.86710E-14
 -1      4187 1.74246E+01 8.52453E-01 7.87893E-03-1.42390E+00 7.50750E-14-1.40320E-13
 -1      4188 1.92826E+01 6.54991E-01 2.35895E-04-4.82784E-02-5.09262E-14 6.83516E-15
 -1      4189 1.91462E+01 7.05999E-01-6.77399E-03-8.91560E-02-4.69915E-14-1.02606E-13
 -1      4190 1.93489E+01 6.08602E-01 6.25407E-03-1.18571E-01-5.74817E-14-1.67839E-13
 -1      4191 1.97286E+01 3.61014E-01-6.57519E-04 5.06773E-02 3.49288E-14 1.32467E-13
 -1      4192 1.96739E+01 4.03464E-01-2.04828E-03 5.06356E-02 7.09110E-14 2.01199E-13
 -1      4193 1.96460E+01 4.28214E-01 3.94668E-03-5.57087E-03 7.92134E-14 1.00735E-13
 -1      4194 1.97466E+01 3.47193E-01 3.05380E-03 1.49157E-02 7.81513E-14 3.44236E-14
 -1      4195 1.91369E+01 6.95193E-01 7.47488E-03-2.40518E-01-2.33312E-14-1.94484E-13
 -1      4196 2.00044E+01 3.52857E-04 8.68144E-06 8.55562E-04-1.29476E-13-5.29587E-13
 -1      4197 2.00042E+01-6.37661E-05 1.15995E-06 8.85607E-04-1.43545E-13-8.12721E-13
 -1      4198 2.00043E+01-1.09052E-04-6.54106E-06 5.65393E-04-1.17812E-13-7.64679E-13
 -1      4199 2.00048E+01 7.46107E-04-1.59098E-06 5.41486E-04-2.66510E-13-6.72074E-13
 -1      4200 1.98778E+01 2.17374E-01 1.72362E-03 2.42227E-02 2.39399E-14-1.65667E-13
 -1      4201 1.73779E+01 5.35304E-01 1.57569E-02-1.97851E+00 1.71812E-13-5.21922E-14
 -1      4202 2.00043E+01-1.25872E-04 3.61246E-07 1.58656E-04-1.39005E-13-4.15020E-13
 -1      4203 2.07035E+01-1.84461E+00 4.98772E-03-2.52332E+00 4.72534E-14-2.14335E-13
 -1      4204 2.00042E+01-3.16042E-04 6.18667E-06-5.29381E-04-6.27558E-14-2.65505E-13
 -1      4205 1.92132E+01-2.16586E-01-3.54838E-03-1.69945E+00 1.81299E-13-3.35842E-15
 -1      4206 1.88741E+01 7.60629E-01 8.40404E-03-4.35116E-01 7.07138E-14-1.92831E-13
 -1      4207 1.87172E+01 8.60766E-01 2.89303E-03-3.36585E-01 5.65072E-14-1.88659E-14
 -1      4208 1.84736E+01 8.89952E-01-1.29122E-02-4.57813E-01 6.93520E-14-9.12270E-14
 -1      4209 1.83224E+01 9.17264E-01 4.27092E-03-6.18682E-01 5.26879E-14-4.75523E-14
 -1      4210 1.80213E+01 9.17371E-01-1.24266E-02-8.08625E-01 8.69692E-14-1.01219E-13
 -1      4211 1.85563E+01 7.80186E-01 8.37030E-03-7.30707E-01 1.07432E-13-2.08878E-13
 -1      4212 1.81089E+01 8.04548E-01 7.91688E-03-1.04666E+00 5.90420E-14-1.23903E-13
 -1      4213 2.00045E+01 1.38539E-04-6.22165E-06-1.19664E-04-5.60537E-14-3.49052E-13
 -1      4214 2.00046E+01 3.09187E-04-3.20753E-06-4.17692E-04-1.99826E-14-3.12175E-13
 -1      4215 2.00051E+01 1.10528E-03-6.93748E-08-2.09435E-04-8.52336E-14-1.90922E-13
 -1      4216 2.00048E+01 5.23508E-04-1.03976E-06 2.84867E-04-2.55239E-13-6.67995E-13
 -1      4217 1.99686E+01 8.96885E-02-4.28904E-04 6.42020E-04-1.02042E-13 6.28625E-14
 -1      4218 1.99594E+01 1.04027E-01-4.25532E-04 1.94300E-03 4.76491E-14 9.65820E-14
 -1      4219 1.98806E+01 2.00248E-01-9.42140E-04-1.03384E-02 8.68918E-14-1.33736E-13
 -1      4220 1.98553E+01 2.26174E-01-1.31933E-03-1.14808E-02 1.24912E-13-2.31213E-14
 -1      4221 1.89310E+01 5.23682E-01 2.70403E-03-8.23201E-01 8.07694E-14-1.42107E-13
 -1      4222 1.89626E+01 5.60665E-01-1.00463E-02-6.68245E-01 8.07259E-14-7.59262E-14
 -1      4223 1.91091E+01 5.67365E-01 3.15567E-04-5.42935E-01 2.19282E-14-1.60630E-13
 -1      4224 1.91596E+01 5.70631E-01-8.20734E-03-4.30754E-01-5.10503E-14-9.22800E-14
 -1      4225 1.92822E+01 5.52702E-01-8.91965E-04-3.47765E-01-3.52091E-14-4.48707E-14
 -1      4226 1.93380E+01 5.36144E-01-6.42336E-03-2.68623E-01-2.99264E-14-1.41605E-13
 -1      4227 1.94356E+01 5.05854E-01-1.46334E-03-2.17078E-01 7.95157E-15-1.69723E-13
 -1      4228 1.94893E+01 4.79186E-01-4.85176E-03-1.62371E-01-1.18232E-14-2.32990E-13
 -1      4229 1.95665E+01 4.43770E-01-1.59668E-03-1.31226E-01 3.13818E-14-2.03672E-13
 -1      4230 1.96144E+01 4.12963E-01-3.59197E-03-9.41417E-02 2.15537E-14-1.24144E-13
 -1      4231 1.96748E+01 3.76591E-01-1.53468E-03-7.61875E-02-5.66176E-14-1.67853E-13
 -1      4232 1.97154E+01 3.45468E-01-2.62246E-03-5.15164E-02-6.77485E-14-9.66713E-14
 -1      4233 1.97614E+01 3.11393E-01-1.37018E-03-4.21977E-02 8.86422E-14-5.52143E-14
 -1      4234 1.97947E+01 2.82246E-01-1.87417E-03-2.60156E-02 3.10952E-13 1.97526E-14
 -1      4235 1.98289E+01 2.52179E-01-1.16354E-03-2.19745E-02 2.38398E-13-4.69864E-14
 -1      4236 1.99010E+01 1.77818E-01-9.18555E-04-3.59969E-03-5.54050E-15-1.26025E-13
 -1      4237 1.99195E+01 1.56073E-01-7.41062E-04-3.99048E-03-6.55558E-14-5.93450E-14
 -1      4238 1.99349E+01 1.37262E-01-6.30462E-04 3.04726E-04 3.60679E-14-1.16501E-13
 -1      4239 1.99481E+01 1.19434E-01-5.68144E-04-7.80745E-04 1.19060E-13 8.28188E-15
 -1      4240 1.99767E+01 7.73523E-02-2.71976E-04 2.37207E-03-7.16413E-14-2.14186E-14
 -1      4241 1.99833E+01 6.55270E-02-3.09704E-04 1.09949E-03 2.26875E-14-8.52572E-14
 -1      4242 1.99889E+01 5.58698E-02-1.66502E-04 2.18323E-03-5.93987E-14-1.45342E-13
 -1      4243 1.99929E+01 4.71757E-02-2.17883E-04 1.11015E-03-1.95474E-13-1.49633E-13
 -1      4244 1.99966E+01 3.97240E-02-9.64806E-05 1.78270E-03-2.80952E-13-1.36105E-13
 -1      4245 1.99991E+01 3.31016E-02-1.49518E-04 9.16419E-04-2.47194E-13-5.08164E-14
 -1      4246 2.00015E+01 2.74574E-02-5.29434E-05 1.34034E-03-1.24960E-13-9.09434E-14
 -1      4247 2.00029E+01 2.25157E-02-9.78277E-05 6.72378E-04-1.84501E-13-6.94019E-14
 -1      4248 2.00043E+01 1.83232E-02-2.46200E-05 9.37609E-04-3.15749E-13-1.50679E-13
 -1      4249 2.00050E+01 1.47097E-02-6.04469E-05 4.44216E-04-1.33450E-13-1.58646E-13
 -1      4250 2.00056E+01 1.16618E-02-6.81435E-06 6.08106E-04-1.06698E-13-1.71204E-13
 -1      4251 2.00058E+01 9.07780E-03-3.43462E-05 2.58364E-04-2.00910E-13-1.48839E-13
 -1      4252 2.00060E+01 6.91499E-03 4.68151E-06 3.57994E-04-2.50288E-13-1.85296E-13
 -1      4253 2.00059E+01 5.03836E-03-1.63638E-05 1.16702E-04-1.71299E-13-3.23944E-13
 -1      4254 2.00058E+01 3.55509E-03 9.39724E-06 1.75404E-04-7.29573E-14-3.76234E-13
 -1      4255 1.80217E+01 2.79678E-01 3.24715E-03-1.94760E+00 1.31558E-13 5.37838E-14
 -1      4256 1.87216E+01 4.04032E-02 1.23923E-02-1.79453E+00 1.79570E-13-5.08123E-14
 -1      4257 2.00055E+01 2.35572E-03-4.39399E-06 2.00166E-05-6.77010E-14-4.25849E-13
 -1      4258 1.82844E+01 5.99436E-01-1.95200E-03-1.24589E+00 1.33685E-13-1.76023E-13
 -1      4259 1.80314E+01 6.23449E-01 4.02308E-03-1.40599E+00 9.83927E-14-5.75617E-14
 -1      4260 1.87236E+01 1.66964E-01-9.34088E-03-1.53097E+00 1.74535E-13-1.60177E-14
 -1      4261 1.76106E+01 6.24461E-01-8.20224E-03-1.63783E+00 1.18689E-13-3.02642E-14
 -1      4262 1.87637E+01 3.86990E-01 5.68858E-03-1.21393E+00 1.72733E-13-1.13163E-13
 -1      4263 1.87605E+01 4.78305E-01-1.04907E-02-1.01010E+00 1.05752E-13-1.44914E-13
 -1      4264 2.00050E+01 1.04627E-03 1.51835E-05 2.69859E-04-1.66267E-13-5.58269E-13
 -1      4265 2.00053E+01 2.01304E-03-1.81983E-06 2.58682E-04-1.45506E-14-5.16969E-13
 -3
    1PSTEP                         3           1           1          
  100CL  101 1.000000000        4265                     0    1           1
 -4  TOSTRAIN    6    1
 -5  EXX         1    4    1    1
 -5  EYY         1    4    2    2
 -5  EZZ         1    4    3    3
 -5  EXY         1    4    1    2
 -5  EYZ         1    4    2    3
 -5  EZX         1    4    3    1
 -1         1 3.19198E-04-9.89073E-05-8.18926E-05 4.02996E-07-1.13899E-19 5.68622E-18
 -1         2 3.87914E-05-1.18652E-04 2.19700E-05-5.29268E-07-1.32296E-19-6.88108E-19
 -1         3 9.52373E-05-2.85709E-05-2.85716E-05 2.03680E-10 2.93695E-18 2.53360E-18
 -1         4 9.52373E-05-2.85710E-05-2.85716E-05-1.73023E-10 4.67314E-19 8.47575E-19
 -1         5 1.47614E-04-2.15413E-05-4.48769E-05 3.77989E-05-1.69512E-19 1.03330E-17
 -1         6 1.48603E-04 2.68188E-10-4.55914E-05-5.39027E-05-6.70427E-19 6.83354E-18
 -1         7 9.43613E-05-6.59564E-07-4.04782E-05-2.84377E-05-9.91029E-20 2.21287E-20
 -1         8 8.82983E-05 3.71270E-08-3.75992E-05-1.84775E-05-7.26595E-20-1.61387E-18
 -1         9 8.52412E-05 4.60386E-08-3.63112E-05-1.30784E-05-6.14364E-20-2.34833E-18
 -1        10 8.32350E-05 1.56016E-08-3.54345E-05-8.80275E-06 1.41613E-21-2.56801E-18
 -1        11 8.15154E-05 2.82549E-09-3.47044E-05-5.10251E-06 6.65715E-21-2.52483E-18
 -1        12 7.98460E-05 5.63624E-09-3.40210E-05-1.95117E-06 2.52257E-20-2.40361E-18
 -1        13 7.81410E-05 2.35410E-08-3.33492E-05 6.85975E-07 5.03455E-20-2.27868E-18
 -1        14 7.65697E-05 5.17597E-08-3.27550E-05 2.64809E-06 5.09146E-20-2.07960E-18
 -1        15 7.54061E-05 8.38977E-08-3.23413E-05 3.89181E-06 5.32440E-20-1.86579E-18
 -1        16 7.49970E-05 1.10948E-07-3.22341E-05 4.51847E-06 8.62385E-20-1.66886E-18
 -1        17 7.56693E-05 1.22873E-07-3.25484E-05 4.82679E-06 8.69532E-20-1.42058E-18
 -1        18 7.75682E-05 1.15413E-07-3.33307E-05 5.29205E-06 9.78852E-20-9.58013E-19
 -1        19 8.07717E-05 8.62027E-08-3.46077E-05 6.55116E-06 1.42937E-19-3.04321E-19
 -1        20 8.50998E-05 4.33557E-08-3.63149E-05 9.30447E-06 1.52678E-19 7.10699E-19
 -1        21 9.05082E-05-1.31166E-08-3.84270E-05 1.44427E-05 1.50560E-19 2.39149E-18
 -1        22 9.87397E-05-5.22762E-07-4.12853E-05 2.41325E-05 2.12817E-20 5.24291E-18
 -1        23 1.17835E-04-3.97664E-05-3.68900E-05-4.08259E-06-4.40245E-19 4.61453E-18
 -1        24 9.87493E-05-2.94776E-05-3.07531E-05 4.81090E-07-9.77926E-20 2.66146E-18
 -1        25 9.56723E-05-2.88086E-05-2.88475E-05 4.06042E-07-7.90752E-20 1.15486E-18
 -1        26 9.44303E-05-2.83985E-05-2.82628E-05 1.95104E-07 2.43270E-20 6.42951E-20
 -1        27 9.34336E-05-2.80681E-05-2.79406E-05 8.50712E-08-9.70575E-20-5.84777E-19
 -1        28 9.19338E-05-2.75964E-05-2.74963E-05-1.03493E-08 1.15640E-20-9.90145E-19
 -1        29 8.96234E-05-2.68950E-05-2.68179E-05-9.68965E-08 6.49271E-20-1.29633E-18
 -1        30 8.65405E-05-2.59706E-05-2.59230E-05-1.64723E-07-7.32362E-20-1.91186E-18
 -1        31 8.30704E-05-2.49345E-05-2.49289E-05-1.94847E-07 5.07051E-20-2.73748E-18
 -1        32 7.98887E-05-2.39858E-05-2.40287E-05-1.70437E-07-4.57183E-20-3.25028E-18
 -1        33 7.77830E-05-2.33582E-05-2.34407E-05-9.00758E-08 2.07500E-19-4.09826E-18
 -1        34 7.73802E-05-2.32383E-05-2.33354E-05 2.52783E-08-7.44702E-20-4.08215E-18
 -1        35 7.88962E-05-2.36903E-05-2.37712E-05 1.38827E-07-2.49554E-19-4.87396E-18
 -1        36 8.20437E-05-2.46282E-05-2.46705E-05 2.15442E-07 3.34159E-19-4.36894E-18
 -1        37 8.61513E-05-2.58519E-05-2.58506E-05 2.38153E-07-1.56141E-19-3.37197E-18
 -1        38 9.04216E-05-2.71240E-05-2.70897E-05 2.12437E-07 4.06882E-20-3.47524E-18
 -1        39 9.41847E-05-2.82456E-05-2.81960E-05 1.58016E-07 6.21399E-20-2.60821E-18
 -1        40 9.70430E-05-2.90985E-05-2.90497E-05 9.65982E-08 1.66898E-19-2.59617E-18
 -1        41 9.88826E-05-2.96490E-05-2.96107E-05 4.35156E-08-6.77192E-20-2.48522E-18
 -1        42 9.97998E-05-2.99254E-05-2.99006E-05 5.59182E-09-1.99400E-20-3.02993E-18
 -1        43 1.00001E-04-2.99885E-05-2.99758E-05-1.68845E-08-4.15418E-19-3.54926E-18
 -1        44 9.97178E-05-2.99072E-05-2.99032E-05-2.70347E-08 3.93579E-19-3.45060E-18
 -1        45 9.91592E-05-2.97429E-05-2.97443E-05-2.89008E-08-1.94310E-19-2.60438E-18
 -1        46 9.84843E-05-2.95433E-05-2.95472E-05-2.60639E-08 5.75950E-20-4.50985E-18
 -1        47 9.78022E-05-2.93407E-05-2.93453E-05-2.11419E-08 4.74781E-19-3.52630E-18
 -1        48 9.71780E-05-2.91548E-05-2.91590E-05-1.57919E-08 2.19120E-19-1.24070E-18
 -1        49 9.66439E-05-2.89952E-05-2.89987E-05-1.09170E-08 1.69724E-19-4.84471E-19
 -1        50 9.62097E-05-2.88653E-05-2.88678E-05-6.90869E-09-1.45198E-20-2.06743E-18
 -1        51 9.58716E-05-2.87638E-05-2.87655E-05-3.85028E-09 1.47807E-19-2.61545E-18
 -1        52 9.56186E-05-2.86877E-05-2.86888E-05-1.66250E-09 3.08234E-19-1.04944E-18
 -1        53 9.54366E-05-2.86329E-05-2.86334E-05-1.96978E-10-2.63126E-19-5.00190E-19
 -1        54 9.53114E-05-2.85950E-05-2.85951E-05 7.09510E-10-1.27617E-19-1.06556E-18
 -1        55 9.52296E-05-2.85701E-05-2.85700E-05 1.20717E-09-4.70398E-20-2.60679E-18
 -1        56 9.51801E-05-2.85550E-05-2.85548E-05 1.42147E-09 1.56604E-19-3.01682E-18
 -1        57 9.51538E-05-2.85469E-05-2.85466E-05 1.45061E-09 1.94224E-19-2.07549E-18
 -1        58 9.51432E-05-2.85435E-05-2.85432E-05 1.36765E-09 2.89078E-19-1.75552E-18
 -1        59 9.51431E-05-2.85433E-05-2.85430E-05 1.22452E-09-3.93497E-19-1.92166E-18
 -1        60 9.51493E-05-2.85451E-05-2.85448E-05 1.05653E-09 3.23828E-20-3.46992E-20
 -1        61 9.51591E-05-2.85479E-05-2.85477E-05 8.86452E-10 4.66273E-20-5.74263E-19
 -1        62 9.51704E-05-2.85512E-05-2.85510E-05 7.28018E-10-7.18640E-19-4.44697E-18
 -1        63 9.51820E-05-2.85547E-05-2.85545E-05 5.88645E-10 5.17362E-19-6.27312E-18
 -1        64 9.51932E-05-2.85580E-05-2.85579E-05 4.71479E-10-2.12682E-19-3.58779E-18
 -1        65 9.52034E-05-2.85610E-05-2.85609E-05 3.76778E-10-1.65179E-19-5.11409E-18
 -1        66 9.52126E-05-2.85638E-05-2.85637E-05 3.02645E-10 1.23972E-19-3.66327E-18
 -1        67 9.52205E-05-2.85661E-05-2.85661E-05 2.44946E-10 3.20367E-19-2.54729E-18
 -1        68 9.52271E-05-2.85681E-05-2.85681E-05 1.96065E-10 2.78300E-19-8.41799E-19
 -1        69 9.52323E-05-2.85697E-05-2.85696E-05 1.39914E-10 1.86999E-19 7.78483E-19
 -1        70 9.52359E-05-2.85707E-05-2.85706E-05 3.09362E-11 1.93332E-19 1.64195E-18
 -1        71 9.52374E-05-2.85713E-05-2.85712E-05-1.27050E-10 2.22481E-19 2.26008E-18
 -1        72 1.12227E-04-3.36276E-05-3.72967E-05-2.41811E-06 1.20835E-19 1.02226E-17
 -1        73 1.08227E-04-3.22493E-05-3.35975E-05-4.11442E-07 1.48628E-20 9.12247E-18
 -1        74 1.10559E-04-3.31468E-05-3.34920E-05-1.89950E-07 4.27752E-20 8.00661E-18
 -1        75 1.16716E-04-3.50127E-05-3.51971E-05-2.51778E-07 2.34258E-21 7.03008E-18
 -1        76 1.25906E-04-3.77283E-05-3.79187E-05-4.26625E-07 5.08476E-20 6.64129E-18
 -1        77 1.37153E-04-4.10682E-05-4.11237E-05-7.09858E-07 1.70135E-20 6.60111E-18
 -1        78 1.48264E-04-4.44736E-05-4.39679E-05-9.21784E-07 6.31966E-21 6.93897E-18
 -1        79 1.52735E-04-4.60115E-05-4.46327E-05-6.05281E-07 5.67181E-20 7.52118E-18
 -1        80 1.43766E-04-4.35674E-05-4.17848E-05 8.86268E-07-1.91046E-20 9.01328E-18
 -1        81 1.18532E-04-3.58053E-05-3.56560E-05 3.14935E-06-5.91558E-20 9.81034E-18
 -1        82 8.92063E-05-2.60750E-05-2.94950E-05 3.59425E-06-3.54166E-20 9.12720E-18
 -1        83 8.02787E-05-2.27989E-05-2.77310E-05 2.28290E-07 5.42895E-20 6.45180E-18
 -1        84 9.61396E-05-2.79319E-05-3.10535E-05-2.50341E-06 3.02530E-19 3.12460E-18
 -1        85 1.22093E-04-3.63734E-05-3.67043E-05-3.40732E-06 2.21989E-19 2.64380E-19
 -1        86 1.47807E-04-4.46638E-05-4.30388E-05-2.29829E-06-1.75200E-19-1.57792E-18
 -1        87 1.57041E-04-4.74469E-05-4.59214E-05-5.84024E-07-3.18494E-19-6.96076E-19
 -1        88 1.52707E-04-4.59766E-05-4.52555E-05 3.35275E-07 1.18105E-20 1.08689E-18
 -1        89 1.42298E-04-4.27234E-05-4.26186E-05 5.77865E-07 2.13734E-19 5.78338E-19
 -1        90 1.31055E-04-3.92944E-05-3.94594E-05 5.24388E-07-8.75480E-20 1.27169E-18
 -1        91 1.21004E-04-3.62718E-05-3.64803E-05 3.77796E-07-3.86447E-19 1.96432E-18
 -1        92 1.13588E-04-3.40571E-05-3.42267E-05 2.55815E-07 3.07162E-19 1.86710E-18
 -1        93 1.08114E-04-3.24239E-05-3.25438E-05 1.67896E-07-2.78747E-20 1.52631E-19
 -1        94 1.04174E-04-3.12481E-05-3.13280E-05 1.08062E-07-1.90549E-19 1.88087E-18
 -1        95 1.01378E-04-3.04127E-05-3.04644E-05 6.90856E-08-4.82155E-20 2.80480E-18
 -1        96 9.94033E-05-2.98217E-05-2.98556E-05 4.61057E-08 1.72612E-21 4.11596E-18
 -1        97 9.79675E-05-2.93914E-05-2.94128E-05 2.62754E-08 2.35558E-19 3.34423E-18
 -1        98 9.70216E-05-2.91080E-05-2.91218E-05 1.68326E-08-2.00721E-19 1.55842E-18
 -1        99 9.63654E-05-2.89110E-05-2.89201E-05 1.03503E-08-2.72870E-19 1.29959E-18
 -1       100 9.59150E-05-2.87756E-05-2.87816E-05 6.10874E-09 4.23215E-19 1.44733E-19
 -1       101 9.56104E-05-2.86841E-05-2.86879E-05 3.38612E-09-6.42011E-19-2.19131E-18
 -1       102 9.54084E-05-2.86233E-05-2.86258E-05 1.93981E-09 5.47788E-20 1.50624E-18
 -1       103 9.52741E-05-2.85828E-05-2.85844E-05 3.17730E-10 7.85112E-20-3.01773E-19
 -1       104 9.51974E-05-2.85597E-05-2.85606E-05-2.06016E-10-2.35385E-19-5.50204E-19
 -1       105 9.51543E-05-2.85466E-05-2.85472E-05-5.75039E-10-3.57289E-19-3.38920E-18
 -1       106 9.51341E-05-2.85405E-05-2.85407E-05-7.62896E-10 2.79586E-20-3.76418E-18
 -1       107 9.51287E-05-2.85388E-05-2.85389E-05-8.26083E-10-1.29762E-18-1.61188E-18
 -1       108 9.51325E-05-2.85399E-05-2.85398E-05-7.86480E-10-2.87604E-20-2.01541E-18
 -1       109 9.51422E-05-2.85428E-05-2.85426E-05-7.78774E-10 6.57696E-19-4.22314E-18
 -1       110 9.51541E-05-2.85463E-05-2.85462E-05-6.79070E-10-1.84686E-19-7.30103E-18
 -1       111 9.51670E-05-2.85501E-05-2.85500E-05-5.91686E-10-4.93753E-19-2.04051E-18
 -1       112 9.51796E-05-2.85539E-05-2.85538E-05-5.05354E-10-1.55640E-19 2.52128E-18
 -1       113 9.51915E-05-2.85575E-05-2.85573E-05-4.26313E-10-2.23818E-20 2.33915E-18
 -1       114 9.52022E-05-2.85607E-05-2.85606E-05-3.62253E-10 5.32695E-19 2.07337E-18
 -1       115 9.52121E-05-2.85636E-05-2.85635E-05-3.02199E-10 2.82785E-19-3.14255E-18
 -1       116 9.52202E-05-2.85661E-05-2.85660E-05-2.60458E-10 1.61320E-19-2.26228E-18
 -1       117 9.52269E-05-2.85681E-05-2.85680E-05-2.30798E-10 6.48108E-19-2.63567E-18
 -1       118 9.52322E-05-2.85697E-05-2.85696E-05-2.02366E-10-7.30784E-20-2.80541E-18
 -1       119 9.52358E-05-2.85708E-05-2.85706E-05-1.36501E-10 3.06884E-19 1.41792E-18
 -1       120 9.52374E-05-2.85713E-05-2.85712E-05 5.32106E-11-7.39752E-19 4.49314E-18
 -1       121 9.52371E-05-2.85710E-05-2.85712E-05 1.31896E-10 3.90765E-18-6.27489E-19
 -1       122 9.52375E-05-2.85725E-05-2.85706E-05-7.36909E-11 2.90007E-18 1.40013E-19
 -1       123 9.52385E-05-2.85758E-05-2.85697E-05-1.82554E-10 7.09654E-18 3.89014E-19
 -1       124 9.52398E-05-2.85801E-05-2.85684E-05-2.14579E-10 3.98651E-18-3.32065E-19
 -1       125 9.52412E-05-2.85845E-05-2.85672E-05-1.99094E-10 6.01363E-18-6.76683E-19
 -1       126 9.52423E-05-2.85884E-05-2.85660E-05-1.59164E-10-2.16659E-18-7.29115E-19
 -1       127 9.52432E-05-2.85913E-05-2.85652E-05-1.00869E-10-2.60933E-19 2.84108E-18
 -1       128 9.52436E-05-2.85928E-05-2.85647E-05-3.37253E-11-9.88407E-19 2.11707E-19
 -1       129 9.52436E-05-2.85928E-05-2.85647E-05 3.59731E-11 2.13935E-19 1.23837E-18
 -1       130 9.52431E-05-2.85912E-05-2.85652E-05 1.02410E-10-4.17951E-19-8.83276E-19
 -1       131 9.52423E-05-2.85883E-05-2.85661E-05 1.61293E-10-3.49527E-18-4.04178E-19
 -1       132 9.52411E-05-2.85844E-05-2.85672E-05 1.98598E-10-9.50784E-18 2.39616E-18
 -1       133 9.52398E-05-2.85800E-05-2.85685E-05 2.12159E-10-9.91988E-18-7.18731E-19
 -1       134 9.52385E-05-2.85757E-05-2.85697E-05 1.96120E-10-6.78191E-18 1.06302E-18
 -1       135 9.52375E-05-2.85725E-05-2.85706E-05 1.03180E-10-2.43123E-18 2.68701E-19
 -1       136 9.52372E-05-2.85711E-05-2.85712E-05-2.51033E-10-2.34121E-18-1.73779E-18
 -1       137 2.93880E-05-1.02668E-04 1.92977E-05-2.88901E-05 4.74868E-18 1.22997E-18
 -1       138 9.61145E-06-4.89362E-05 6.88250E-06-2.76868E-05 1.10428E-17 6.05967E-18
 -1       139 9.07785E-06 2.94827E-06-1.13776E-05 9.86168E-06 1.46524E-17 1.11652E-17
 -1       140 5.36308E-05 2.22020E-05-3.34407E-05 6.83610E-05 1.15277E-17 1.27220E-17
 -1       141 1.50575E-04-5.15009E-06-5.64809E-05 1.12310E-04 5.88222E-18 9.26654E-18
 -1       142 2.73075E-04-6.42995E-05-7.66860E-05 1.03693E-04 1.03486E-18 4.55407E-18
 -1       143 3.46915E-04-1.06309E-04-8.63392E-05 3.38225E-05 2.13532E-19-1.07467E-19
 -1       144 3.31623E-04-9.64362E-05-8.46715E-05-6.12630E-05 1.92067E-18-7.98223E-18
 -1       145 2.34690E-04-4.32555E-05-7.11722E-05-1.15218E-04 5.25097E-18-1.35665E-17
 -1       146 1.15429E-04 9.10745E-06-4.97352E-05-1.04070E-04 8.71978E-18-1.34903E-17
 -1       147 3.10451E-05 2.06323E-05-2.51756E-05-4.64438E-05 9.20174E-18-9.16066E-18
 -1       148 4.36837E-06-1.51677E-05-3.40102E-06 1.00490E-05 6.23459E-18-4.02722E-18
 -1       149 1.69218E-05-7.09814E-05 1.21410E-05 3.22890E-05 2.01806E-18-8.97326E-19
 -1       150 3.53079E-05-1.13176E-04 2.09480E-05 2.03258E-05-2.47927E-18 3.37344E-19
 -1       151 3.71130E-05-1.13731E-04 2.07730E-05-9.82024E-06-6.92809E-18-6.57271E-19
 -1       152 1.85724E-05-6.80452E-05 1.14347E-05-2.54075E-05-1.00344E-17-3.02952E-18
 -1       153 5.21615E-06-9.52254E-06-4.19471E-06-3.07642E-06-1.12422E-17-6.29854E-18
 -1       154 2.54274E-05 2.81631E-05-2.43778E-05 4.94323E-05-1.04185E-17-9.07426E-18
 -1       155 8.88520E-05 2.38288E-05-4.48163E-05 1.01030E-04-7.35098E-18-9.54987E-18
 -1       156 1.92381E-04-2.27546E-05-6.44520E-05 1.19087E-04-3.13000E-18-6.56705E-18
 -1       157 2.82425E-04-7.56846E-05-7.72259E-05 7.94372E-05-2.24914E-19-3.12343E-19
 -1       158 2.81038E-04-7.42401E-05-7.72380E-05-8.23250E-05-2.79897E-18 1.15332E-17
 -1       159 1.81490E-04-1.67432E-05-6.27325E-05-1.19738E-04-6.44656E-18 1.29511E-17
 -1       160 8.15477E-05 2.59495E-05-4.30175E-05-9.69450E-05-9.58757E-18 1.22917E-17
 -1       161 1.98080E-05 2.49584E-05-2.11790E-05-4.07710E-05-1.20863E-17 9.18946E-18
 -1       162 6.14219E-06-2.04022E-05-6.99470E-07 1.00173E-05-1.04244E-17 5.54277E-18
 -1       163 2.47671E-05-8.48811E-05 1.52275E-05 2.35865E-05-5.87968E-18 2.00307E-18
 -1       164 9.91884E-05-1.35979E-05-3.68857E-05-2.09422E-05-1.16466E-18-6.21457E-19
 -1       165 9.28753E-05-9.61061E-06-3.58523E-05-1.54442E-05-8.38285E-19-1.56113E-18
 -1       166 8.93079E-05-7.63875E-06-3.51204E-05-1.10127E-05-4.22521E-19-2.00645E-18
 -1       167 8.68178E-05-6.55686E-06-3.44876E-05-7.12207E-06-1.49144E-19-2.12415E-18
 -1       168 8.45666E-05-5.67474E-06-3.38828E-05-3.70723E-06 1.34402E-19-2.04518E-18
 -1       169 8.22068E-05-4.72300E-06-3.32678E-05-6.96588E-07 3.47050E-19-1.91323E-18
 -1       170 7.97823E-05-3.63427E-06-3.26873E-05 1.73606E-06 5.95026E-19-1.68634E-18
 -1       171 7.75666E-05-2.49285E-06-3.22217E-05 3.48032E-06 7.91354E-19-1.53976E-18
 -1       172 7.60390E-05-1.52122E-06-3.19814E-05 4.52315E-06 9.95866E-19-1.41929E-18
 -1       173 7.57712E-05-1.02962E-06-3.20795E-05 5.02812E-06 1.13336E-18-1.25227E-18
 -1       174 7.72119E-05-1.31419E-06-3.25830E-05 5.36492E-06 1.25439E-18-9.13465E-19
 -1       175 8.06714E-05-2.61040E-06-3.35267E-05 6.08493E-06 1.46241E-18-3.78161E-19
 -1       176 8.61476E-05-5.07586E-06-3.48459E-05 7.82156E-06 1.55984E-18 3.17717E-19
 -1       177 9.36101E-05-8.99511E-06-3.64025E-05 1.11682E-05 1.49616E-18 1.52699E-18
 -1       178 1.04116E-04-1.59885E-05-3.79304E-05 1.61892E-05 1.16478E-18 3.37601E-18
 -1       179 1.15878E-04-2.96178E-05-3.81224E-05 1.44574E-05 6.47146E-19 5.59201E-18
 -1       180 1.08367E-04-2.89200E-05-3.40528E-05-1.11808E-05-1.10353E-18 8.12993E-19
 -1       181 1.02444E-04-3.00703E-05-3.10560E-05-4.20548E-06-8.55014E-19 4.31911E-19
 -1       182 9.89366E-05-2.94784E-05-2.97257E-05-1.91929E-06-6.33554E-19 1.21503E-19
 -1       183 9.70294E-05-2.91765E-05-2.90517E-05-1.41334E-06-4.69684E-19-3.29516E-19
 -1       184 9.54872E-05-2.88392E-05-2.85521E-05-1.72004E-06-2.22102E-19-3.90649E-19
 -1       185 9.38170E-05-2.83749E-05-2.80430E-05-2.38587E-06-3.35774E-19-4.05574E-19
 -1       186 9.18127E-05-2.77189E-05-2.74664E-05-3.05557E-06-4.27172E-19-5.58825E-19
 -1       187 8.95330E-05-2.68881E-05-2.68435E-05-3.38186E-06-4.42570E-19-5.55799E-19
 -1       188 8.72748E-05-2.60004E-05-2.62534E-05-3.07722E-06-5.01391E-19-7.97060E-19
 -1       189 8.54937E-05-2.52581E-05-2.58059E-05-2.02770E-06-4.91195E-19-1.07949E-18
 -1       190 8.46495E-05-2.48793E-05-2.56052E-05-3.82976E-07-2.21039E-19-1.75090E-18
 -1       191 8.50187E-05-2.50010E-05-2.57116E-05 1.46478E-06-2.99729E-19-2.01571E-18
 -1       192 8.65685E-05-2.56088E-05-2.61171E-05 3.03341E-06 2.56360E-20-1.90993E-18
 -1       193 8.89658E-05-2.65433E-05-2.67472E-05 3.95559E-06 3.72130E-19-1.74147E-18
 -1       194 9.17124E-05-2.75766E-05-2.74853E-05 4.11167E-06-6.76216E-20-1.03525E-18
 -1       195 9.43232E-05-2.85059E-05-2.82097E-05 3.62519E-06 5.83745E-19-1.09527E-18
 -1       196 9.64548E-05-2.92095E-05-2.88247E-05 2.75595E-06 1.05197E-19-1.38478E-18
 -1       197 9.79488E-05-2.96527E-05-2.92765E-05 1.77473E-06 5.87679E-20-1.46285E-18
 -1       198 9.88039E-05-2.98623E-05-2.95533E-05 8.82011E-07-4.93900E-19-1.56418E-18
 -1       199 9.91187E-05-2.98939E-05-2.96738E-05 1.84254E-07-2.26292E-19-1.46374E-18
 -1       200 9.90342E-05-2.98078E-05-2.96730E-05-2.91007E-07-4.26968E-19-1.07632E-18
 -1       201 9.86928E-05-2.96560E-05-2.95902E-05-5.65817E-07-5.82480E-20-2.45434E-18
 -1       202 9.82152E-05-2.94774E-05-2.94607E-05-6.84628E-07-3.69357E-19-1.38974E-18
 -1       203 9.76918E-05-2.92981E-05-2.93122E-05-6.95687E-07 3.93463E-19-1.11068E-18
 -1       204 9.71834E-05-2.91334E-05-2.91641E-05-6.41063E-07 9.08373E-19-1.77142E-18
 -1       205 9.67254E-05-2.89911E-05-2.90283E-05-5.52938E-07 5.37557E-19-1.23399E-18
 -1       206 9.63350E-05-2.88736E-05-2.89111E-05-4.53534E-07-8.52054E-19-1.10926E-18
 -1       207 9.60164E-05-2.87803E-05-2.88145E-05-3.56726E-07 2.25994E-19-8.85271E-19
 -1       208 9.57658E-05-2.87087E-05-2.87378E-05-2.70131E-07 5.48630E-19-9.96947E-19
 -1       209 9.55754E-05-2.86555E-05-2.86792E-05-1.97064E-07 3.35897E-19-1.88169E-18
 -1       210 9.54356E-05-2.86173E-05-2.86357E-05-1.38117E-07-7.75198E-20-8.86224E-19
 -1       211 9.53366E-05-2.85909E-05-2.86048E-05-9.23249E-08-8.82270E-19 9.45974E-20
 -1       212 9.52695E-05-2.85735E-05-2.85836E-05-5.79558E-08-3.30148E-19-1.09061E-18
 -1       213 9.52264E-05-2.85628E-05-2.85698E-05-3.30237E-08 4.80089E-19-2.00968E-18
 -1       214 9.52008E-05-2.85568E-05-2.85615E-05-1.55854E-08-1.57032E-19-1.92025E-18
 -1       215 9.51877E-05-2.85541E-05-2.85571E-05-3.89847E-09 1.29815E-19-2.40547E-18
 -1       216 9.51831E-05-2.85536E-05-2.85554E-05 3.51276E-09 3.34864E-19-2.01907E-18
 -1       217 9.51840E-05-2.85545E-05-2.85554E-05 7.84617E-09 8.43106E-20-6.01407E-19
 -1       218 9.51882E-05-2.85562E-05-2.85565E-05 1.00404E-08-1.99921E-18-7.96506E-19
 -1       219 9.51942E-05-2.85583E-05-2.85582E-05 1.08076E-08-1.36830E-18-1.57882E-19
 -1       220 9.52010E-05-2.85605E-05-2.85602E-05 1.06699E-08 5.35857E-19-1.76724E-18
 -1       221 9.52079E-05-2.85626E-05-2.85623E-05 9.99412E-09 7.10434E-20-8.26639E-19
 -1       222 9.52145E-05-2.85646E-05-2.85642E-05 9.02122E-09 4.65504E-19 2.73191E-19
 -1       223 9.52204E-05-2.85665E-05-2.85660E-05 7.88903E-09 1.34025E-18 1.48520E-19
 -1       224 9.52256E-05-2.85680E-05-2.85676E-05 6.64843E-09 1.53633E-18 1.19122E-18
 -1       225 9.52300E-05-2.85694E-05-2.85688E-05 5.27450E-09 1.02084E-18 3.88804E-19
 -1       226 9.52334E-05-2.85705E-05-2.85698E-05 3.68495E-09 1.19046E-18 6.53339E-19
 -1       227 9.52358E-05-2.85714E-05-2.85705E-05 1.83557E-09 4.92800E-19 1.05227E-18
 -1       228 1.12409E-04-3.23818E-05-3.44491E-05 2.81234E-06 6.66363E-19 4.91133E-18
 -1       229 1.11299E-04-3.25923E-05-3.36977E-05-2.43468E-06 7.10707E-19 4.17020E-18
 -1       230 1.14004E-04-3.35784E-05-3.44366E-05-5.62081E-06 4.07886E-19 3.63964E-18
 -1       231 1.19243E-04-3.52812E-05-3.59813E-05-8.03247E-06 2.19464E-19 3.13765E-18
 -1       232 1.26162E-04-3.77123E-05-3.79109E-05-9.35276E-06-1.16384E-19 3.25901E-18
 -1       233 1.33859E-04-4.09951E-05-3.97563E-05-7.99725E-06-3.02616E-19 3.52443E-18
 -1       234 1.39235E-04-4.41520E-05-4.06238E-05-1.92973E-06-5.00305E-19 4.23994E-18
 -1       235 1.39480E-04-4.54244E-05-4.02046E-05 9.45502E-06-5.60094E-19 4.78632E-18
 -1       236 1.31992E-04-4.14711E-05-3.90066E-05 2.04753E-05-1.41455E-19 4.85723E-18
 -1       237 1.20044E-04-3.24639E-05-3.82608E-05 1.84320E-05 1.05006E-18 4.49563E-18
 -1       238 1.15411E-04-2.80389E-05-3.83351E-05-1.01987E-06 1.84399E-18 2.28990E-18
 -1       239 1.22116E-04-3.27438E-05-3.88948E-05-1.79549E-05 2.29742E-18 1.06689E-18
 -1       240 1.32662E-04-4.03450E-05-3.97365E-05-2.25832E-05 1.43867E-18-1.68057E-19
 -1       241 1.41975E-04-4.60197E-05-4.10057E-05-1.39502E-05 4.55300E-19-7.48261E-19
 -1       242 1.42839E-04-4.57018E-05-4.15268E-05-1.51696E-06-2.40538E-19-1.69009E-18
 -1       243 1.37871E-04-4.26641E-05-4.07851E-05 6.41223E-06-9.66398E-19-1.69591E-18
 -1       244 1.30477E-04-3.93444E-05-3.90866E-05 9.18734E-06 1.92766E-20-9.00065E-19
 -1       245 1.22895E-04-3.65754E-05-3.70260E-05 8.91045E-06-1.02605E-18 8.55371E-19
 -1       246 1.15913E-04-3.43523E-05-3.49707E-05 7.33853E-06 7.59865E-20 2.25570E-18
 -1       247 1.10557E-04-3.27842E-05-3.33343E-05 5.65300E-06 1.77305E-19 1.32055E-18
 -1       248 1.06398E-04-3.16142E-05-3.20464E-05 4.19000E-06 3.30737E-19 1.18587E-18
 -1       249 1.03268E-04-3.07523E-05-3.10720E-05 3.04042E-06-7.34285E-19 1.01827E-18
 -1       250 1.00953E-04-3.01206E-05-3.03507E-05 2.18014E-06-7.71669E-19 1.92460E-18
 -1       251 9.92583E-05-2.96589E-05-2.98232E-05 1.55202E-06-4.89062E-20 2.96324E-18
 -1       252 9.79800E-05-2.93113E-05-2.94251E-05 1.08072E-06 3.27661E-19 2.15877E-18
 -1       253 9.71124E-05-2.90750E-05-2.91557E-05 7.60517E-07 1.22961E-18 1.33556E-18
 -1       254 9.64909E-05-2.89055E-05-2.89628E-05 5.31417E-07-1.48599E-19 1.72458E-19
 -1       255 9.60506E-05-2.87855E-05-2.88261E-05 3.67480E-07 9.25101E-19 1.18193E-18
 -1       256 9.57422E-05-2.87016E-05-2.87303E-05 2.50344E-07-3.64850E-19 1.65914E-18
 -1       257 9.55292E-05-2.86439E-05-2.86642E-05 1.66909E-07-7.22573E-19 4.90962E-19
 -1       258 9.53799E-05-2.86038E-05-2.86176E-05 1.05550E-07 1.08483E-18 1.38313E-18
 -1       259 9.52879E-05-2.85793E-05-2.85889E-05 6.48795E-08-5.95701E-19 1.83508E-18
 -1       260 9.52302E-05-2.85643E-05-2.85707E-05 3.68593E-08 1.07668E-18 1.28680E-18
 -1       261 9.51964E-05-2.85558E-05-2.85600E-05 1.79269E-08 5.22379E-19 5.82736E-19
 -1       262 9.51789E-05-2.85517E-05-2.85543E-05 5.50938E-09-1.22034E-18-1.01269E-18
 -1       263 9.51724E-05-2.85505E-05-2.85521E-05-2.29876E-09 8.04085E-19-1.70491E-18
 -1       264 9.51729E-05-2.85513E-05-2.85520E-05-7.02585E-09 2.29513E-19-3.01385E-18
 -1       265 9.51777E-05-2.85531E-05-2.85533E-05-9.31482E-09-7.72036E-19-9.25397E-19
 -1       266 9.51846E-05-2.85554E-05-2.85554E-05-1.01736E-08-2.14210E-18-1.11484E-18
 -1       267 9.51925E-05-2.85579E-05-2.85577E-05-1.01311E-08 4.93531E-19-2.57061E-18
 -1       268 9.52006E-05-2.85604E-05-2.85601E-05-9.55248E-09 9.60101E-20-3.16774E-18
 -1       269 9.52083E-05-2.85627E-05-2.85624E-05-8.68562E-09 4.11102E-19-2.54375E-18
 -1       270 9.52156E-05-2.85649E-05-2.85646E-05-7.62390E-09 1.28941E-18-3.46643E-20
 -1       271 9.52218E-05-2.85668E-05-2.85664E-05-6.54324E-09-5.38814E-19 6.64534E-19
 -1       272 9.52271E-05-2.85684E-05-2.85680E-05-5.40211E-09 8.40194E-19 1.24092E-18
 -1       273 9.52313E-05-2.85697E-05-2.85693E-05-4.14553E-09-1.63345E-18 1.51504E-18
 -1       274 9.52344E-05-2.85707E-05-2.85702E-05-2.67192E-09 9.42441E-21 6.45861E-19
 -1       275 9.52364E-05-2.85713E-05-2.85708E-05-9.92215E-10-6.46144E-19-1.70014E-18
 -1       276 9.52370E-05-2.85725E-05-2.85705E-05-1.90363E-09 6.85967E-19 1.42204E-18
 -1       277 9.52379E-05-2.85748E-05-2.85699E-05-3.47043E-09 2.32802E-18 1.08960E-18
 -1       278 9.52390E-05-2.85778E-05-2.85691E-05-4.36529E-09 4.49050E-19-1.23903E-18
 -1       279 9.52401E-05-2.85809E-05-2.85682E-05-4.48816E-09 1.22019E-18 3.29547E-19
 -1       280 9.52412E-05-2.85839E-05-2.85674E-05-3.96074E-09 5.46323E-19-4.37160E-18
 -1       281 9.52420E-05-2.85863E-05-2.85667E-05-2.91680E-09 7.57839E-19 1.29111E-19
 -1       282 9.52426E-05-2.85879E-05-2.85663E-05-1.52882E-09 3.27964E-19 6.49572E-19
 -1       283 9.52428E-05-2.85884E-05-2.85661E-05 2.79962E-11-4.30220E-19 1.06680E-18
 -1       284 9.52426E-05-2.85878E-05-2.85663E-05 1.57899E-09 6.12476E-19-1.25192E-19
 -1       285 9.52420E-05-2.85862E-05-2.85668E-05 2.95150E-09-3.86673E-19-1.07597E-18
 -1       286 9.52412E-05-2.85838E-05-2.85674E-05 3.96053E-09-2.03896E-18-3.25623E-18
 -1       287 9.52401E-05-2.85808E-05-2.85683E-05 4.47623E-09-2.51204E-18-6.68621E-19
 -1       288 9.52390E-05-2.85777E-05-2.85691E-05 4.33654E-09-2.52417E-18 2.31771E-18
 -1       289 9.52378E-05-2.85748E-05-2.85699E-05 3.40994E-09-2.02673E-18 2.89395E-18
 -1       290 9.52368E-05-2.85729E-05-2.85702E-05 2.98272E-09-1.34682E-18 1.37666E-18
 -1       291 1.14014E-05-5.07378E-05 1.35550E-05 6.62413E-07 5.04567E-19 3.42424E-18
 -1       292 2.60674E-05-4.63205E-05 6.11006E-06 1.91891E-05 2.42971E-18 3.65696E-18
 -1       293 5.46919E-05-4.48039E-05-6.55927E-06 2.96223E-05 3.65050E-18 5.69778E-18
 -1       294 9.66171E-05-4.33374E-05-2.39315E-05 3.84694E-05 5.51715E-18 3.87454E-18
 -1       295 1.45923E-04-4.40098E-05-4.30981E-05 3.86105E-05 5.01295E-18 2.49451E-18
 -1       296 1.91154E-04-4.44473E-05-6.06980E-05 2.17313E-05 4.08831E-18 1.66844E-18
 -1       297 2.26979E-04-4.33032E-05-7.42126E-05 1.45838E-05 2.59033E-18 3.17214E-19
 -1       298 2.27207E-04-3.82271E-05-7.66216E-05-2.67194E-06 3.55203E-18-2.06104E-18
 -1       299 2.10009E-04-3.99306E-05-6.97596E-05-1.43536E-05 4.06279E-18-3.47432E-18
 -1       300 1.79182E-04-4.46958E-05-5.59040E-05-3.08673E-05 3.24768E-18-4.42554E-18
 -1       301 1.35979E-04-5.05748E-05-3.65961E-05-3.61395E-05 1.61677E-18-4.49372E-18
 -1       302 7.51627E-05-4.04090E-05-1.66941E-05-3.70206E-05 1.86072E-18-4.61432E-18
 -1       303 3.93572E-05-4.52544E-05-4.61968E-07-2.35795E-05 9.13102E-19-3.24418E-18
 -1       304 1.83461E-05-4.73292E-05 9.40058E-06-1.24906E-05-2.64274E-19-2.23574E-18
 -1       305 1.13739E-05-5.30509E-05 1.41523E-05 3.37955E-06-1.60519E-18-2.00599E-18
 -1       306 1.71493E-05-4.93127E-05 1.03447E-05 1.59534E-05-2.94386E-18-2.30382E-18
 -1       307 3.61227E-05-4.00100E-05-7.30861E-07 2.98666E-05-4.08990E-18-3.03679E-18
 -1       308 7.21235E-05-3.53660E-05-1.66875E-05 4.41461E-05-3.99524E-18-3.49825E-18
 -1       309 1.08095E-04-2.80370E-05-3.40452E-05 5.07191E-05-4.58541E-18-3.52154E-18
 -1       310 1.53526E-04-2.86427E-05-5.16981E-05 5.05243E-05-3.89021E-18-2.30711E-18
 -1       311 1.94252E-04-3.36463E-05-6.58312E-05 3.70321E-05-3.45828E-18-5.15631E-19
 -1       312 2.13242E-04-3.51883E-05-7.29734E-05 1.21400E-05-3.08849E-18 1.53281E-18
 -1       313 2.17305E-04-3.73104E-05-7.35258E-05-1.42551E-05-3.46966E-18 4.32347E-18
 -1       314 1.87900E-04-3.17843E-05-6.44482E-05-3.32741E-05-3.03905E-18 5.56014E-18
 -1       315 1.49377E-04-2.98308E-05-4.97884E-05-4.83728E-05-3.75490E-18 5.30751E-18
 -1       316 1.08950E-04-3.46235E-05-3.17502E-05-4.78500E-05-4.13606E-18 4.42659E-18
 -1       317 6.27433E-05-3.41551E-05-1.34598E-05-4.19818E-05-3.88005E-18 4.37821E-18
 -1       318 3.07796E-05-4.23166E-05 2.47073E-06-2.80480E-05-3.48512E-18 3.38564E-18
 -1       319 1.36892E-05-4.94666E-05 1.21197E-05-1.36885E-05-2.24093E-18 3.17436E-18
 -1       320 9.54973E-05-1.63620E-05-3.39878E-05-1.11847E-05-7.26321E-19-1.21603E-18
 -1       321 1.00179E-04-2.09166E-05-3.40415E-05-1.32429E-05-1.04504E-18-6.82523E-19
 -1       322 8.96371E-05-1.21487E-05-3.32698E-05-4.70633E-06-2.11791E-20-1.44233E-18
 -1       323 8.68892E-05-1.05071E-05-3.27850E-05-1.42356E-06 2.38024E-19-1.40324E-18
 -1       324 8.38934E-05-8.68696E-06-3.22721E-05 1.48411E-06 6.42040E-19-1.23927E-18
 -1       325 8.08050E-05-6.67952E-06-3.18007E-05 3.73259E-06 9.60613E-19-1.18546E-18
 -1       326 7.81066E-05-4.73975E-06-3.14691E-05 5.09597E-06 1.19444E-18-1.12297E-18
 -1       327 7.65361E-05-3.35166E-06-3.13876E-05 5.52560E-06 1.34775E-18-9.94493E-19
 -1       328 7.68529E-05-3.08540E-06-3.16395E-05 5.26900E-06 1.45059E-18-7.40057E-19
 -1       329 7.96417E-05-4.42267E-06-3.22711E-05 4.82472E-06 1.67247E-18-2.94931E-19
 -1       330 8.51061E-05-7.68341E-06-3.32326E-05 4.82221E-06 1.78402E-18 2.37517E-19
 -1       331 9.30439E-05-1.30381E-05-3.43548E-05 5.73772E-06 1.76858E-18 9.92842E-19
 -1       332 1.02760E-04-2.07236E-05-3.52443E-05 6.96027E-06 1.47859E-18 2.16170E-18
 -1       333 1.08969E-04-2.71993E-05-3.51027E-05 5.42902E-06 1.15726E-18 3.15623E-18
 -1       334 1.08741E-04-2.96790E-05-3.38402E-05-2.20416E-06 1.01081E-18 2.43122E-18
 -1       335 1.01462E-04-2.82380E-05-3.13439E-05-6.01700E-06-8.54547E-19-3.90378E-19
 -1       336 1.00076E-04-2.94578E-05-3.02472E-05-3.63606E-06-7.71289E-19-3.93094E-19
 -1       337 9.89694E-05-2.99690E-05-2.95653E-05-3.14295E-06-3.95896E-19-3.60397E-19
 -1       338 9.79084E-05-3.00553E-05-2.90808E-05-3.67727E-06-2.47983E-19-5.09822E-19
 -1       339 9.66575E-05-2.97084E-05-2.86947E-05-4.62799E-06-2.13817E-19-1.39379E-19
 -1       340 9.50830E-05-2.88841E-05-2.83708E-05-5.40453E-06-4.54719E-19-1.03177E-19
 -1       341 9.32534E-05-2.76584E-05-2.81075E-05-5.43881E-06-5.10885E-19-2.93765E-19
 -1       342 9.14754E-05-2.63097E-05-2.79190E-05-4.33646E-06-7.84513E-19-4.64236E-19
 -1       343 9.02165E-05-2.52734E-05-2.78205E-05-2.08155E-06-8.36428E-19-9.24931E-19
 -1       344 8.98982E-05-2.49532E-05-2.78204E-05 8.71489E-07-2.58097E-19-1.20997E-18
 -1       345 9.06658E-05-2.54968E-05-2.79179E-05 3.74706E-06-1.22857E-19-9.42826E-19
 -1       346 9.22957E-05-2.67044E-05-2.81025E-05 5.79318E-06 3.97817E-19-4.71210E-19
 -1       347 9.43141E-05-2.81513E-05-2.83523E-05 6.60624E-06 2.22945E-19-7.25183E-19
 -1       348 9.62290E-05-2.94196E-05-2.86344E-05 6.23272E-06 1.75861E-19-8.85371E-19
 -1       349 9.77104E-05-3.02666E-05-2.89101E-05 5.03751E-06 2.05690E-19-9.24291E-19
 -1       350 9.86378E-05-3.06526E-05-2.91440E-05 3.48120E-06-2.07474E-19-1.04086E-18
 -1       351 9.90492E-05-3.06709E-05-2.93126E-05 1.94712E-06-6.71588E-21-1.26930E-18
 -1       352 9.90610E-05-3.04599E-05-2.94071E-05 6.69639E-07-1.66387E-19-1.62605E-18
 -1       353 9.88057E-05-3.01433E-05-2.94317E-05-2.58487E-07-5.09570E-19-1.51197E-18
 -1       354 9.83987E-05-2.98070E-05-2.93997E-05-8.43118E-07-1.80614E-19-7.98297E-19
 -1       355 9.79271E-05-2.94998E-05-2.93277E-05-1.14241E-06 4.28418E-19-5.87325E-19
 -1       356 9.74504E-05-2.92427E-05-2.92325E-05-1.23189E-06-8.09917E-20-5.55333E-19
 -1       357 9.70053E-05-2.90399E-05-2.91279E-05-1.18365E-06 1.89830E-19-1.12312E-18
 -1       358 9.66115E-05-2.88865E-05-2.90244E-05-1.05656E-06 1.10859E-18-1.06338E-18
 -1       359 9.62770E-05-2.87745E-05-2.89288E-05-8.93874E-07 2.40966E-19-1.53014E-18
 -1       360 9.60023E-05-2.86951E-05-2.88451E-05-7.24494E-07 4.73839E-20-6.25181E-19
 -1       361 9.57831E-05-2.86405E-05-2.87746E-05-5.65839E-07 3.54207E-19-7.37566E-19
 -1       362 9.56129E-05-2.86040E-05-2.87174E-05-4.26947E-07-1.06498E-19-1.83168E-18
 -1       363 9.54842E-05-2.85807E-05-2.86723E-05-3.11200E-07-2.00045E-19-1.69641E-18
 -1       364 9.53894E-05-2.85665E-05-2.86379E-05-2.18472E-07 3.79913E-19-1.18055E-18
 -1       365 9.53217E-05-2.85586E-05-2.86124E-05-1.46679E-07-5.62036E-19 3.58648E-19
 -1       366 9.52750E-05-2.85549E-05-2.85941E-05-9.28346E-08-5.33663E-19-1.46917E-19
 -1       367 9.52442E-05-2.85538E-05-2.85814E-05-5.37177E-08 3.86853E-19-1.43923E-19
 -1       368 9.52250E-05-2.85544E-05-2.85730E-05-2.62593E-08 3.09831E-19-8.13121E-19
 -1       369 9.52143E-05-2.85559E-05-2.85678E-05-7.74380E-09 3.32505E-19-5.49526E-19
 -1       370 9.52093E-05-2.85578E-05-2.85649E-05 4.11415E-09 3.03811E-19-4.92648E-19
 -1       371 9.52083E-05-2.85599E-05-2.85636E-05 1.11637E-08-2.46724E-19-1.65327E-18
 -1       372 9.52097E-05-2.85619E-05-2.85633E-05 1.48522E-08 4.12464E-19 8.47139E-19
 -1       373 9.52125E-05-2.85638E-05-2.85637E-05 1.62772E-08-1.29142E-18 3.14564E-18
 -1       374 9.52161E-05-2.85655E-05-2.85646E-05 1.62424E-08 2.16686E-19 1.75530E-18
 -1       375 9.52199E-05-2.85670E-05-2.85656E-05 1.53106E-08 1.28781E-18 1.48798E-18
 -1       376 9.52237E-05-2.85683E-05-2.85666E-05 1.38493E-08 6.16594E-19 2.52706E-18
 -1       377 9.52272E-05-2.85695E-05-2.85676E-05 1.20679E-08 6.14591E-19 8.45475E-19
 -1       378 9.52303E-05-2.85705E-05-2.85685E-05 1.00497E-08 6.38389E-19-1.77548E-19
 -1       379 9.52331E-05-2.85716E-05-2.85692E-05 7.79546E-09 9.77666E-19 7.18092E-19
 -1       380 9.52351E-05-2.85723E-05-2.85698E-05 5.45491E-09 1.50507E-18 2.00731E-18
 -1       381 1.09745E-04-3.07649E-05-3.38050E-05-7.55676E-06 8.35310E-19 2.21955E-18
 -1       382 1.12506E-04-3.21198E-05-3.44316E-05-1.15890E-05 4.39213E-19 1.89430E-18
 -1       383 1.17043E-04-3.45732E-05-3.53484E-05-1.40745E-05-1.66657E-19 1.64514E-18
 -1       384 1.23845E-04-3.92229E-05-3.62794E-05-1.33929E-05-4.84893E-19 2.08458E-18
 -1       385 1.32245E-04-4.58877E-05-3.70209E-05-6.94285E-06-9.00747E-19 2.29031E-18
 -1       386 1.40771E-04-5.20392E-05-3.81051E-05 6.60800E-06-6.43738E-19 2.42337E-18
 -1       387 1.44618E-04-4.98530E-05-4.08970E-05 2.25331E-05-2.85702E-19 2.89967E-18
 -1       388 1.39378E-04-3.42420E-05-4.57473E-05 2.50140E-05 1.18680E-18 3.01669E-18
 -1       389 1.33869E-04-2.22955E-05-4.86374E-05 1.39729E-06 3.20909E-18 1.39811E-18
 -1       390 1.38073E-04-2.96923E-05-4.70476E-05-2.10612E-05 2.67080E-18-9.27700E-20
 -1       391 1.44588E-04-4.41068E-05-4.35249E-05-2.75942E-05 2.06861E-18-2.68423E-19
 -1       392 1.45791E-04-5.35329E-05-3.96867E-05-1.60622E-05 1.10407E-18-8.45842E-19
 -1       393 1.38278E-04-5.00385E-05-3.78898E-05 6.55933E-07-1.20252E-19-9.71970E-19
 -1       394 1.29083E-04-4.28657E-05-3.69855E-05 1.09731E-05-1.36052E-18-8.10994E-19
 -1       395 1.21249E-04-3.71545E-05-3.60684E-05 1.44439E-05-6.72488E-19 2.53858E-19
 -1       396 1.15220E-04-3.37416E-05-3.49296E-05 1.39111E-05-1.21497E-18 6.99322E-19
 -1       397 1.10351E-04-3.17939E-05-3.36603E-05 1.16069E-05-6.55326E-19 1.08288E-18
 -1       398 1.06747E-04-3.07755E-05-3.25444E-05 9.10580E-06 1.12256E-18 1.99945E-18
 -1       399 1.03910E-04-3.01491E-05-3.15958E-05 6.87834E-06 6.80073E-19 6.50459E-19
 -1       400 1.01700E-04-2.97265E-05-3.08318E-05 5.08201E-06-8.00023E-19-8.29910E-20
 -1       401 9.99978E-05-2.94203E-05-3.02364E-05 3.70534E-06-1.16460E-18 7.66225E-19
 -1       402 9.86999E-05-2.91893E-05-2.97821E-05 2.67859E-06-8.77092E-19 4.33276E-19
 -1       403 9.76823E-05-2.90065E-05-2.94264E-05 1.89180E-06 1.04939E-18 3.84870E-19
 -1       404 9.69669E-05-2.88759E-05-2.91775E-05 1.35042E-06 1.49620E-18 6.19793E-19
 -1       405 9.64374E-05-2.87776E-05-2.89940E-05 9.56518E-07-3.75512E-19 2.34878E-19
 -1       406 9.60508E-05-2.87051E-05-2.88602E-05 6.70928E-07 6.61163E-20 1.44435E-18
 -1       407 9.57718E-05-2.86528E-05-2.87637E-05 4.64373E-07 6.11111E-21 1.87837E-18
 -1       408 9.55731E-05-2.86159E-05-2.86948E-05 3.15604E-07-1.29524E-19 6.00465E-19
 -1       409 9.54288E-05-2.85898E-05-2.86445E-05 2.04549E-07-4.41368E-21 1.40260E-18
 -1       410 9.53362E-05-2.85738E-05-2.86119E-05 1.30325E-07-6.79857E-19 2.51539E-18
 -1       411 9.52748E-05-2.85639E-05-2.85900E-05 7.83206E-08 1.48826E-18 2.55257E-18
 -1       412 9.52359E-05-2.85583E-05-2.85758E-05 4.25666E-08 6.06239E-19 1.16992E-18
 -1       413 9.52129E-05-2.85558E-05-2.85671E-05 1.85809E-08 2.12564E-19 5.66363E-20
 -1       414 9.52008E-05-2.85553E-05-2.85623E-05 3.04453E-09-2.91802E-19-2.09678E-18
 -1       415 9.51960E-05-2.85561E-05-2.85599E-05-6.89041E-09 6.20504E-20-4.05164E-19
 -1       416 9.51961E-05-2.85575E-05-2.85594E-05-1.21336E-08-1.11815E-18 4.27287E-19
 -1       417 9.51991E-05-2.85594E-05-2.85599E-05-1.46356E-08-9.37088E-19-3.13743E-19
 -1       418 9.52036E-05-2.85613E-05-2.85610E-05-1.53434E-08 1.03192E-18-5.00103E-19
 -1       419 9.52088E-05-2.85632E-05-2.85624E-05-1.49333E-08 7.02216E-19-5.77679E-19
 -1       420 9.52141E-05-2.85649E-05-2.85639E-05-1.38675E-08-6.84485E-19-3.01298E-18
 -1       421 9.52194E-05-2.85666E-05-2.85655E-05-1.23632E-08-1.50112E-18-1.88790E-18
 -1       422 9.52241E-05-2.85681E-05-2.85669E-05-1.07313E-08-1.10918E-19 3.75026E-19
 -1       423 9.52282E-05-2.85693E-05-2.85681E-05-8.95740E-09-5.33429E-19 4.84996E-19
 -1       424 9.52316E-05-2.85705E-05-2.85691E-05-7.00524E-09 1.45286E-19 8.14379E-19
 -1       425 9.52344E-05-2.85715E-05-2.85698E-05-4.83703E-09 2.57179E-19-1.29219E-19
 -1       426 9.52359E-05-2.85721E-05-2.85702E-05-3.40947E-09 9.09899E-19 8.81683E-19
 -1       427 9.52393E-05-2.85785E-05-2.85689E-05-7.65868E-09-1.00854E-18 8.97400E-20
 -1       428 9.52376E-05-2.85758E-05-2.85694E-05-6.99998E-09-1.75106E-18-9.71541E-19
 -1       429 9.52366E-05-2.85738E-05-2.85698E-05-5.44111E-09-8.65285E-20 6.45860E-21
 -1       430 9.52407E-05-2.85810E-05-2.85684E-05-7.21902E-09-1.35388E-20-3.62227E-18
 -1       431 9.52419E-05-2.85832E-05-2.85680E-05-5.83923E-09 9.54223E-19-1.17144E-18
 -1       432 9.52428E-05-2.85848E-05-2.85677E-05-3.76272E-09 1.61273E-18 1.14100E-18
 -1       433 9.52432E-05-2.85856E-05-2.85675E-05-1.26562E-09-3.90462E-19-3.14060E-19
 -1       434 9.52432E-05-2.85856E-05-2.85675E-05 1.36552E-09-3.26122E-19-2.92004E-19
 -1       435 9.52427E-05-2.85847E-05-2.85677E-05 3.84289E-09-1.45565E-18-7.70311E-19
 -1       436 9.52419E-05-2.85832E-05-2.85680E-05 5.85635E-09-1.11815E-18-3.36166E-18
 -1       437 9.52407E-05-2.85810E-05-2.85684E-05 7.20950E-09 7.27926E-19-3.47564E-19
 -1       438 9.52392E-05-2.85784E-05-2.85689E-05 7.62749E-09 1.92552E-18 7.44329E-19
 -1       439 9.52376E-05-2.85757E-05-2.85694E-05 6.99259E-09 9.37450E-19 1.73199E-18
 -1       440 6.09170E-05-4.45954E-05-7.12418E-06 3.90996E-05-1.33196E-19 3.50317E-18
 -1       441 1.13774E-05-2.21098E-05 4.51544E-06-8.40892E-06-1.32598E-18 3.58538E-18
 -1       442 2.32573E-05-2.41380E-05 6.33256E-07 2.03647E-05-1.31280E-18 3.84733E-18
 -1       443 1.02141E-04-5.89915E-05-1.87762E-05 3.70951E-05 4.00647E-19 1.24990E-18
 -1       444 1.44286E-04-6.63213E-05-3.35366E-05 1.93702E-05 1.85892E-18-8.49574E-19
 -1       445 9.24179E-05-1.39710E-05-3.36889E-05-8.15166E-06-3.32780E-19-1.50316E-18
 -1       446 1.74702E-04-3.62610E-05-5.92469E-05-1.42906E-05 3.40115E-18 1.78936E-20
 -1       447 1.69770E-04-2.08321E-05-6.35595E-05-8.23380E-06 3.76316E-18-5.61689E-20
 -1       448 1.70230E-04-2.32519E-05-6.28290E-05 8.75942E-06 3.88110E-18-5.06102E-20
 -1       449 1.72630E-04-4.36777E-05-5.52942E-05 1.23386E-05 2.00498E-18 1.76924E-19
 -1       450 1.63602E-04-5.89531E-05-4.49464E-05-2.84145E-06 3.19953E-19-2.50616E-19
 -1       451 1.23149E-04-6.22963E-05-2.64046E-05-3.19787E-05-8.49680E-19-2.61389E-18
 -1       452 8.27843E-05-5.26533E-05-1.32250E-05-4.08372E-05-7.37342E-19-3.07386E-18
 -1       453 4.34099E-05-3.75100E-05-2.80023E-06-3.52165E-05-2.30287E-19-2.88595E-18
 -1       454 1.42082E-05-2.41566E-05 4.02373E-06-1.02074E-05 4.37281E-20-2.41669E-18
 -1       455 1.36920E-05-2.19146E-05 3.42584E-06 1.73592E-05 2.83147E-19-2.44983E-18
 -1       456 3.60616E-05-3.29072E-05-1.57096E-06 4.01385E-05-2.99956E-19-2.24379E-18
 -1       457 7.29381E-05-4.51356E-05-1.20448E-05 4.87416E-05-6.48192E-19-1.98910E-18
 -1       458 1.19132E-04-5.51247E-05-2.73402E-05 3.93095E-05-1.01750E-18-5.29396E-20
 -1       459 1.42087E-04-5.04750E-05-3.93037E-05 2.53808E-05-2.19254E-18 5.28866E-19
 -1       460 1.58290E-04-3.51261E-05-5.27856E-05 6.35254E-06-2.80760E-18 1.23900E-18
 -1       461 1.63531E-04-1.90958E-05-6.18084E-05 3.50943E-07-3.87285E-18 1.49342E-18
 -1       462 1.59780E-04-1.01573E-05-6.41645E-05-2.42563E-07-4.23347E-18 1.08392E-18
 -1       463 1.61621E-04-1.70024E-05-6.19000E-05 3.11767E-07-2.98621E-18 1.14836E-18
 -1       464 1.56783E-04-3.69330E-05-5.14408E-05-7.72279E-06-1.22632E-18 2.04453E-18
 -1       465 1.43575E-04-5.19590E-05-3.92405E-05-2.26975E-05-1.38074E-18 1.83446E-18
 -1       466 1.07139E-04-5.31154E-05-2.32141E-05-4.40930E-05-6.33581E-19 2.40187E-18
 -1       467 6.49774E-05-4.33627E-05-9.45313E-06-4.82262E-05-1.06006E-18 3.06351E-18
 -1       468 2.73599E-05-3.08397E-05 1.17806E-06-3.49356E-05-1.30443E-18 2.93857E-18
 -1       469 1.68132E-04-5.69628E-05-4.76077E-05-1.08330E-07 3.08716E-18-4.05623E-19
 -1       470 1.52293E-04-6.89229E-05-3.58102E-05-8.51434E-06-1.36341E-18 4.89162E-20
 -1       471 1.01686E-04-2.44034E-05-3.30999E-05-5.21461E-06 1.09921E-18 1.15039E-18
 -1       472 8.88179E-05-1.47141E-05-3.17769E-05 1.53233E-06 4.06952E-19-1.03257E-18
 -1       473 9.19975E-05-1.68918E-05-3.22098E-05-1.76191E-06 2.05834E-19-1.26294E-18
 -1       474 8.12734E-05-9.31653E-06-3.08503E-05 6.32605E-06 1.09134E-18-1.04072E-18
 -1       475 7.80561E-05-6.74272E-06-3.05722E-05 6.88694E-06 1.25458E-18-9.78155E-19
 -1       476 7.65725E-05-5.24706E-06-3.05768E-05 6.06962E-06 1.40992E-18-7.64188E-19
 -1       477 7.77856E-05-5.60043E-06-3.09471E-05 4.26627E-06 1.56689E-18-4.59638E-19
 -1       478 8.22718E-05-8.37339E-06-3.16871E-05 2.27283E-06 1.61596E-18-1.55866E-20
 -1       479 8.97879E-05-1.36048E-05-3.26677E-05 8.43409E-07 1.63719E-18 5.48752E-19
 -1       480 1.01799E-04-2.57216E-05-3.25789E-05-1.12442E-05 8.44014E-19 9.29650E-19
 -1       481 1.00632E-04-2.75030E-05-3.13357E-05-5.73388E-06-6.45164E-19-6.09862E-19
 -1       482 1.56628E-04-6.51999E-05-3.93838E-05-6.89792E-06 1.79423E-18-1.10686E-18
 -1       483 1.00997E-04-2.98559E-05-3.04849E-05-4.25518E-06-5.84293E-19-5.35029E-19
 -1       484 1.01058E-04-3.11740E-05-2.99504E-05-4.22750E-06-3.22407E-19-5.90005E-19
 -1       485 1.00824E-04-3.16438E-05-2.96501E-05-5.14555E-06-2.02564E-19-4.79347E-19
 -1       486 1.00099E-04-3.11858E-05-2.95345E-05-6.36579E-06-4.33133E-19-6.24189E-19
 -1       487 9.87493E-05-2.97573E-05-2.95662E-05-7.11939E-06-6.37827E-19-5.29609E-19
 -1       488 9.69155E-05-2.76165E-05-2.96956E-05-6.64867E-06-6.77563E-19-6.48072E-19
 -1       489 9.51062E-05-2.54414E-05-2.98515E-05-4.52292E-06-8.05429E-19-4.98173E-19
 -1       490 9.40255E-05-2.41202E-05-2.99546E-05-9.80198E-07-5.84679E-19-1.87926E-19
 -1       491 9.41661E-05-2.42701E-05-2.99507E-05 3.04768E-06-7.52267E-20-2.19258E-20
 -1       492 9.54699E-05-2.58384E-05-2.98375E-05 6.35322E-06 1.73448E-19 5.34834E-20
 -1       493 9.73575E-05-2.81388E-05-2.96617E-05 8.07787E-06 1.26117E-19-5.91012E-19
 -1       494 9.91098E-05-3.03076E-05-2.94856E-05 8.06531E-06 2.13971E-20-3.98921E-19
 -1       495 1.00246E-04-3.17596E-05-2.93528E-05 6.74792E-06 2.30627E-19-1.24003E-19
 -1       496 1.00647E-04-3.23429E-05-2.92762E-05 4.78625E-06-3.53046E-19-6.72968E-19
 -1       497 1.00450E-04-3.22228E-05-2.92437E-05 2.75788E-06-1.73708E-19 2.20472E-20
 -1       498 9.98860E-05-3.16828E-05-2.92333E-05 1.02433E-06-2.58860E-19-4.51255E-19
 -1       499 9.91655E-05-3.09813E-05-2.92244E-05-2.62556E-07-1.31978E-19 4.97161E-21
 -1       500 9.84319E-05-3.02934E-05-2.92040E-05-1.09541E-06 3.27493E-19-3.91506E-19
 -1       501 9.77643E-05-2.97101E-05-2.91672E-05-1.54325E-06-2.29652E-19-6.07871E-19
 -1       502 9.71951E-05-2.92612E-05-2.91150E-05-1.70204E-06 2.23986E-20-9.45089E-19
 -1       503 9.67292E-05-2.89413E-05-2.90520E-05-1.66577E-06 1.38050E-19-6.99955E-19
 -1       504 9.63578E-05-2.87286E-05-2.89837E-05-1.51294E-06 2.15449E-19-1.02231E-18
 -1       505 9.60672E-05-2.85973E-05-2.89153E-05-1.30255E-06 5.88088E-19-1.85586E-18
 -1       506 9.58428E-05-2.85238E-05-2.88506E-05-1.07527E-06 4.63263E-19-8.28167E-19
 -1       507 9.56717E-05-2.84886E-05-2.87924E-05-8.56624E-07 3.51250E-19-7.49555E-19
 -1       508 9.55426E-05-2.84774E-05-2.87419E-05-6.60839E-07-4.48388E-19-1.08550E-18
 -1       509 9.54464E-05-2.84801E-05-2.86995E-05-4.94209E-07 1.62567E-19-7.66768E-19
 -1       510 9.53756E-05-2.84899E-05-2.86651E-05-3.57915E-07 4.98542E-19-3.52819E-19
 -1       511 9.53245E-05-2.85026E-05-2.86378E-05-2.50104E-07 6.89393E-20-3.19908E-19
 -1       512 9.52883E-05-2.85157E-05-2.86167E-05-1.67358E-07-7.48652E-19-1.62567E-19
 -1       513 9.52632E-05-2.85277E-05-2.86008E-05-1.05668E-07-7.32089E-20 5.39684E-19
 -1       514 9.52465E-05-2.85381E-05-2.85893E-05-6.10267E-08-9.95110E-20 4.61827E-19
 -1       515 9.52359E-05-2.85467E-05-2.85810E-05-2.97644E-08 8.66842E-19 7.94625E-19
 -1       516 9.52296E-05-2.85535E-05-2.85754E-05-8.70598E-09 4.97447E-19-1.68657E-20
 -1       517 9.52263E-05-2.85589E-05-2.85718E-05 4.78276E-09-4.31481E-19 4.40596E-19
 -1       518 9.52251E-05-2.85629E-05-2.85695E-05 1.28138E-08 1.81588E-18 2.02515E-18
 -1       519 9.52253E-05-2.85659E-05-2.85683E-05 1.70294E-08 7.44123E-19 3.11992E-18
 -1       520 9.52263E-05-2.85681E-05-2.85678E-05 1.86682E-08-1.02441E-18 4.46132E-18
 -1       521 9.52277E-05-2.85696E-05-2.85677E-05 1.86324E-08-7.82680E-19 3.26142E-18
 -1       522 9.52294E-05-2.85708E-05-2.85680E-05 1.75503E-08-6.52966E-20 1.20329E-18
 -1       523 9.52311E-05-2.85717E-05-2.85683E-05 1.58301E-08-6.47576E-19 2.91238E-19
 -1       524 9.52328E-05-2.85725E-05-2.85687E-05 1.37086E-08 2.93331E-19 4.81674E-19
 -1       525 9.52344E-05-2.85733E-05-2.85690E-05 1.12866E-08 1.27753E-18 1.93181E-18
 -1       526 1.06255E-04-3.20543E-05-3.17825E-05-1.97241E-05-3.64957E-19 4.53050E-19
 -1       527 1.14120E-04-4.09090E-05-3.13199E-05-2.00637E-05-6.23466E-19 2.59427E-19
 -1       528 1.29019E-04-5.46823E-05-3.17836E-05-1.45295E-05-1.23857E-18 1.79753E-19
 -1       529 1.48579E-04-6.21450E-05-3.71554E-05 5.13351E-06-9.90320E-19 1.57935E-18
 -1       530 1.59366E-04-4.08033E-05-5.14011E-05-2.45992E-05 2.82888E-18-1.04863E-18
 -1       531 1.36640E-04-6.14146E-05-3.21320E-05 1.10192E-05 1.61995E-19-3.06593E-19
 -1       532 1.17642E-04-4.60629E-05-3.06296E-05 1.95880E-05-1.28134E-18-5.23083E-19
 -1       533 1.07310E-04-3.49710E-05-3.09590E-05 2.10143E-05-1.77974E-18 5.12663E-19
 -1       534 1.02442E-04-2.92844E-05-3.13474E-05 1.91903E-05-1.21973E-18 1.73357E-18
 -1       535 1.00254E-04-2.70347E-05-3.13741E-05 1.59957E-05-1.38684E-18 1.91283E-18
 -1       536 9.93204E-05-2.66484E-05-3.11353E-05 1.28045E-05 5.32523E-19 1.00975E-18
 -1       537 9.87120E-05-2.68913E-05-3.07699E-05 9.94947E-06 7.51213E-19 1.45606E-18
 -1       538 9.81854E-05-2.72881E-05-3.03755E-05 7.57534E-06 8.40191E-19 1.78552E-18
 -1       539 9.76837E-05-2.76518E-05-3.00065E-05 5.68702E-06-1.15232E-18-3.86439E-19
 -1       540 9.72121E-05-2.79313E-05-2.96865E-05 4.22485E-06-3.66599E-19-8.54719E-19
 -1       541 9.67711E-05-2.81379E-05-2.94103E-05 3.06649E-06 6.98309E-19-1.90283E-18
 -1       542 9.64142E-05-2.82709E-05-2.92015E-05 2.24233E-06 3.89053E-19-8.42392E-19
 -1       543 9.61179E-05-2.83590E-05-2.90376E-05 1.62652E-06 1.98501E-19 1.31122E-18
 -1       544 9.58804E-05-2.84176E-05-2.89112E-05 1.16876E-06-6.66564E-20 1.16820E-18
 -1       545 9.56948E-05-2.84572E-05-2.88151E-05 8.30064E-07-2.10973E-20 2.32657E-19
 -1       546 9.55529E-05-2.84844E-05-2.87429E-05 5.80676E-07 4.23166E-19 3.89562E-19
 -1       547 9.54427E-05-2.85048E-05-2.86872E-05 3.90785E-07-6.52994E-19 1.21325E-18
 -1       548 9.53671E-05-2.85193E-05-2.86487E-05 2.60757E-07-1.60105E-19 6.70233E-19
 -1       549 9.53132E-05-2.85303E-05-2.86210E-05 1.67579E-07 8.62632E-19 1.43824E-19
 -1       550 9.52759E-05-2.85390E-05-2.86014E-05 1.01760E-07 1.71437E-18 4.15698E-20
 -1       551 9.52511E-05-2.85460E-05-2.85878E-05 5.61472E-08 1.17547E-18-1.81115E-18
 -1       552 9.52354E-05-2.85516E-05-2.85787E-05 2.53168E-08 9.30451E-19-1.27892E-18
 -1       553 9.52259E-05-2.85564E-05-2.85726E-05 4.41026E-09-1.13379E-18-1.24171E-18
 -1       554 9.52213E-05-2.85600E-05-2.85691E-05-7.77837E-09-1.27727E-18-4.97360E-19
 -1       555 9.52198E-05-2.85629E-05-2.85672E-05-1.47479E-08-2.63637E-19 4.66954E-19
 -1       556 9.52201E-05-2.85652E-05-2.85664E-05-1.81688E-08-2.37252E-19 9.25211E-20
 -1       557 9.52216E-05-2.85670E-05-2.85662E-05-1.92506E-08 3.33791E-19 6.10553E-19
 -1       558 9.52237E-05-2.85685E-05-2.85665E-05-1.88509E-08 4.05902E-19 8.75283E-19
 -1       559 9.52262E-05-2.85697E-05-2.85671E-05-1.74754E-08 5.07994E-20 1.13951E-18
 -1       560 9.52286E-05-2.85706E-05-2.85677E-05-1.56315E-08-9.71376E-19-1.25178E-19
 -1       561 9.52309E-05-2.85715E-05-2.85683E-05-1.34811E-08-4.77572E-19 1.62234E-19
 -1       562 9.52330E-05-2.85723E-05-2.85689E-05-1.11011E-08 1.88034E-19-2.53404E-19
 -1       563 9.52421E-05-2.85812E-05-2.85689E-05-8.68152E-09 2.78664E-18-2.71990E-18
 -1       564 9.52435E-05-2.85829E-05-2.85688E-05-6.33485E-09 2.62726E-18 2.31824E-19
 -1       565 9.52379E-05-2.85764E-05-2.85692E-05-1.01624E-08 7.91707E-19 8.56229E-20
 -1       566 9.52401E-05-2.85790E-05-2.85691E-05-1.00209E-08 8.64327E-19 6.08735E-19
 -1       567 9.52444E-05-2.85839E-05-2.85688E-05-3.30049E-09 8.28629E-19-2.93141E-18
 -1       568 9.52447E-05-2.85843E-05-2.85688E-05 7.75330E-11 6.45911E-20 1.12204E-18
 -1       569 9.52444E-05-2.85839E-05-2.85688E-05 3.43975E-09-2.33628E-19-1.83588E-18
 -1       570 9.52435E-05-2.85828E-05-2.85689E-05 6.38657E-09-1.19186E-18-1.92653E-18
 -1       571 9.52420E-05-2.85811E-05-2.85690E-05 8.68899E-09-5.16338E-19-1.72871E-18
 -1       572 9.52401E-05-2.85789E-05-2.85691E-05 9.96879E-09 6.55716E-19 1.16047E-18
 -1       573 9.52378E-05-2.85763E-05-2.85692E-05 1.00338E-08 1.95823E-19 1.22779E-18
 -1       574 2.50569E-05-1.16326E-05-5.03429E-06 3.86677E-06-1.11610E-18 3.84659E-18
 -1       575 9.61546E-05-5.31344E-05-1.82576E-05 3.78368E-05-1.17759E-18 1.01607E-18
 -1       576 1.02844E-04-2.76180E-05-3.22259E-05-1.62083E-05 2.11367E-19 8.31799E-19
 -1       577 2.87273E-05-1.56578E-05-4.96470E-06-2.56294E-05-6.56662E-19 2.16279E-18
 -1       578 5.52285E-05-2.91939E-05-1.05578E-05 3.37691E-05-1.80884E-18 2.91792E-18
 -1       579 9.92051E-05-2.33950E-05-3.25166E-05-8.35885E-06-7.00768E-19-9.08363E-19
 -1       580 5.66273E-05-3.33967E-05-9.49373E-06-4.58010E-05-2.04664E-19 2.39202E-18
 -1       581 1.36763E-04-8.16309E-06-5.57483E-05-5.87333E-06-3.25991E-18 9.45606E-19
 -1       582 1.05213E-04-5.42044E-05-2.16607E-05 4.25672E-05 9.81023E-19 2.13856E-19
 -1       583 8.51279E-05-1.21477E-05-3.12919E-05 4.40554E-06 8.45706E-19-9.12617E-19
 -1       584 1.13572E-04-6.05900E-05-2.25766E-05-3.37638E-05-1.70222E-18-1.78710E-18
 -1       585 1.59303E-04-5.39957E-05-4.55435E-05 1.83680E-05-6.11717E-20 1.92054E-18
 -1       586 1.42282E-04-2.41368E-05-5.11582E-05-9.91734E-06-2.74386E-18 2.29398E-18
 -1       587 7.68897E-05-4.41665E-05-1.36430E-05-4.05390E-05-8.89861E-19-2.25290E-18
 -1       588 3.87708E-05-2.03216E-05-7.25741E-06-2.68021E-05 1.19167E-19-2.26338E-18
 -1       589 2.03493E-05-1.14756E-05-3.20297E-06 2.42215E-06 8.17441E-19-2.18916E-18
 -1       590 3.83146E-05-1.73946E-05-8.27237E-06 3.34063E-05 1.43379E-18-2.11938E-18
 -1       591 6.79055E-05-3.67680E-05-1.28609E-05 4.70091E-05 1.17981E-18-1.60222E-18
 -1       592 1.36761E-04-5.90785E-05-3.33271E-05 2.04483E-05-2.76186E-19 1.71392E-18
 -1       593 1.43745E-04-4.81581E-05-4.12919E-05 1.02317E-06 2.19898E-19-6.22093E-19
 -1       594 1.46346E-04-4.67542E-05-4.30284E-05 6.73368E-07-1.45185E-18 2.46942E-18
 -1       595 1.37583E-04-7.86825E-06-5.62017E-05 5.00042E-06-3.21661E-18-2.76371E-19
 -1       596 1.40935E-04-2.56539E-05-4.99862E-05 1.02103E-05-1.07695E-18-8.90443E-19
 -1       597 1.31174E-04-6.05175E-05-3.03065E-05-2.64660E-05 5.94379E-19 3.00670E-19
 -1       598 9.66446E-05-5.18516E-05-1.89372E-05-4.56412E-05 1.00103E-18 1.02674E-18
 -1       599 1.02703E-04-2.35126E-05-3.39293E-05 4.63274E-07 1.42923E-18 1.64845E-18
 -1       600 1.31435E-04-6.67115E-05-2.75629E-05 2.26229E-05 7.62859E-20-8.60771E-19
 -1       601 9.46655E-05-1.88705E-05-3.25226E-05-4.87989E-06-1.48728E-19-1.21948E-18
 -1       602 9.52355E-05-2.85739E-05-2.85692E-05 9.45052E-09 1.94530E-18 3.58867E-18
 -1       603 9.52350E-05-2.85730E-05-2.85694E-05-7.80071E-09-6.74088E-19-8.78714E-19
 -1       604 4.57844E-05-1.58359E-05-1.22221E-05 2.09105E-05-1.62303E-18 2.78134E-18
 -1       605 7.69046E-05-8.25522E-06-2.94238E-05 8.35486E-06 1.45875E-18-7.67280E-19
 -1       606 8.08545E-05-1.14871E-05-2.97327E-05 9.22717E-06 1.20171E-18-8.45783E-19
 -1       607 7.81334E-05-8.08849E-06-3.00232E-05 1.39842E-06 1.46260E-18-2.75455E-19
 -1       608 8.47764E-05-1.24631E-05-3.09930E-05-2.44143E-06 1.44186E-18 2.00232E-19
 -1       609 5.36740E-05-2.18687E-05-1.31206E-05-3.50821E-05 6.86097E-19 1.71545E-18
 -1       610 9.52374E-05-2.85759E-05-2.85692E-05 1.19406E-08 2.54221E-18 1.92199E-18
 -1       611 1.02436E-04-3.10286E-05-3.06037E-05-3.88014E-06-4.94151E-19-3.35930E-19
 -1       612 1.03689E-04-3.29589E-05-3.03141E-05-4.48971E-06-3.31805E-19-4.00676E-19
 -1       613 1.04318E-04-3.35679E-05-3.03222E-05-5.99524E-06-2.32914E-19-3.20367E-19
 -1       614 1.03986E-04-3.25803E-05-3.06018E-05-7.65860E-06-5.38586E-19-3.10392E-19
 -1       615 1.02511E-04-2.99699E-05-3.10872E-05-8.44790E-06-5.77984E-19-2.26567E-19
 -1       616 1.00230E-04-2.63921E-05-3.16435E-05-7.31541E-06-5.59011E-19-7.66300E-21
 -1       617 9.81395E-05-2.32986E-05-3.20765E-05-3.86116E-06-8.14847E-19 2.24936E-19
 -1       618 9.73531E-05-2.22087E-05-3.22088E-05 1.12842E-06-3.50298E-19-8.75612E-20
 -1       619 9.83230E-05-2.37402E-05-3.19658E-05 5.93007E-06-2.33409E-19-5.14795E-19
 -1       620 1.00434E-04-2.71003E-05-3.14275E-05 8.89571E-06 2.62223E-20-5.37731E-19
 -1       621 1.02521E-04-3.07285E-05-3.07662E-05 9.41611E-06 4.11045E-19 1.47087E-19
 -1       622 1.03691E-04-3.33476E-05-3.01464E-05 7.98138E-06 1.47660E-19 1.83297E-19
 -1       623 1.03706E-04-3.44893E-05-2.96646E-05 5.56752E-06-4.07816E-19-4.55416E-19
 -1       624 1.02831E-04-3.43673E-05-2.93426E-05 3.04264E-06-3.72823E-20 9.18057E-20
 -1       625 1.01500E-04-3.34739E-05-2.91552E-05 9.18707E-07 1.52971E-19 8.51067E-19
 -1       626 1.00082E-04-3.22802E-05-2.90591E-05-6.17109E-07-3.36759E-19 1.00334E-18
 -1       627 9.88044E-05-3.11076E-05-2.90137E-05-1.57923E-06-6.47527E-19 6.30798E-19
 -1       628 9.77634E-05-3.01225E-05-2.89894E-05-2.07257E-06-2.26785E-19-2.80451E-19
 -1       629 9.69719E-05-2.93791E-05-2.89686E-05-2.22452E-06-8.67928E-20-4.13600E-19
 -1       630 9.63999E-05-2.88665E-05-2.89429E-05-2.15161E-06-6.87761E-20-1.43469E-19
 -1       631 9.60019E-05-2.85440E-05-2.89105E-05-1.94703E-06-4.58074E-20-5.21100E-20
 -1       632 9.57332E-05-2.83639E-05-2.88725E-05-1.67897E-06-1.57580E-19 4.39661E-19
 -1       633 9.55560E-05-2.82820E-05-2.88316E-05-1.39374E-06 1.04962E-18-1.31034E-19
 -1       634 9.54411E-05-2.82631E-05-2.87904E-05-1.12030E-06 5.73384E-19 1.10692E-19
 -1       635 9.53674E-05-2.82808E-05-2.87513E-05-8.74791E-07 1.35154E-19 7.02215E-19
 -1       636 9.53206E-05-2.83171E-05-2.87157E-05-6.64493E-07-8.75564E-20 9.44616E-19
 -1       637 9.52908E-05-2.83601E-05-2.86845E-05-4.90868E-07 5.50995E-19 3.95857E-19
 -1       638 9.52718E-05-2.84029E-05-2.86581E-05-3.51897E-07-1.97544E-19 2.63357E-20
 -1       639 9.52595E-05-2.84416E-05-2.86362E-05-2.43705E-07 5.95305E-19 9.12596E-19
 -1       640 9.52515E-05-2.84746E-05-2.86187E-05-1.61659E-07-6.46544E-19 1.18464E-18
 -1       641 9.52462E-05-2.85015E-05-2.86049E-05-1.01059E-07 3.84572E-19 1.18927E-18
 -1       642 9.52427E-05-2.85226E-05-2.85943E-05-5.75348E-08 1.91406E-19 1.62927E-18
 -1       643 9.52403E-05-2.85387E-05-2.85864E-05-2.72495E-08 7.53186E-20 1.46521E-18
 -1       644 9.52387E-05-2.85506E-05-2.85806E-05-6.97101E-09 4.39936E-19 5.08140E-19
 -1       645 9.52377E-05-2.85592E-05-2.85765E-05 5.93415E-09 1.78085E-18 1.16176E-18
 -1       646 9.52370E-05-2.85651E-05-2.85737E-05 1.35500E-08 1.76036E-18 1.55694E-18
 -1       647 9.52366E-05-2.85691E-05-2.85718E-05 1.74812E-08-7.75245E-19 2.10912E-19
 -1       648 9.52364E-05-2.85716E-05-2.85706E-05 1.89282E-08-1.44620E-18 4.84676E-19
 -1       649 9.52364E-05-2.85732E-05-2.85700E-05 1.87595E-08-7.31302E-19 2.68499E-20
 -1       650 9.52365E-05-2.85742E-05-2.85696E-05 1.75736E-08-7.86274E-19 3.44066E-19
 -1       651 9.52368E-05-2.85748E-05-2.85694E-05 1.57597E-08-1.22112E-19 1.52561E-19
 -1       652 9.52370E-05-2.85753E-05-2.85693E-05 1.39415E-08 1.77786E-18 1.88164E-18
 -1       653 9.87387E-05-4.11962E-05-2.44524E-05-2.99948E-05-5.91864E-19-1.14923E-18
 -1       654 9.10399E-05-2.83477E-05-2.67785E-05-2.45413E-05-5.46138E-20-6.17580E-19
 -1       655 1.36250E-04-6.35132E-05-3.10960E-05-1.50742E-05-1.39612E-18-3.55396E-19
 -1       656 7.01375E-05-2.95266E-05-1.69379E-05-3.33272E-05-2.92438E-19-1.48644E-18
 -1       657 8.74942E-05-2.44211E-05-2.69941E-05 2.18572E-05-1.96223E-18 1.77101E-18
 -1       658 8.84507E-05-2.18070E-05-2.85547E-05 1.72712E-05-1.25405E-18 9.97931E-19
 -1       659 9.03376E-05-2.19451E-05-2.93071E-05 1.37945E-05 4.73792E-19-5.01640E-19
 -1       660 9.21133E-05-2.29859E-05-2.96224E-05 1.09412E-05 2.19724E-19-2.40697E-19
 -1       661 9.34661E-05-2.42075E-05-2.96790E-05 8.58892E-06 6.15513E-19 6.43409E-19
 -1       662 9.43776E-05-2.53018E-05-2.96011E-05 6.66660E-06 7.62503E-19 1.74273E-18
 -1       663 9.49349E-05-2.61779E-05-2.94652E-05 5.11688E-06 1.50825E-19 5.23108E-19
 -1       664 9.52550E-05-2.68688E-05-2.93069E-05 3.83549E-06 4.12549E-19-9.58219E-19
 -1       665 9.53991E-05-2.73465E-05-2.91643E-05 2.88642E-06 7.20063E-21-1.03339E-18
 -1       666 9.54494E-05-2.76908E-05-2.90386E-05 2.15050E-06-1.18718E-18-8.77910E-19
 -1       667 9.54487E-05-2.79374E-05-2.89329E-05 1.58554E-06-5.87718E-19-2.11225E-20
 -1       668 9.54236E-05-2.81141E-05-2.88465E-05 1.15525E-06 4.25607E-19-8.26198E-20
 -1       669 9.53893E-05-2.82410E-05-2.87775E-05 8.29904E-07 6.62405E-19 5.39804E-19
 -1       670 9.53532E-05-2.83368E-05-2.87211E-05 5.76011E-07-8.64910E-19 2.31794E-19
 -1       671 9.53227E-05-2.84026E-05-2.86799E-05 3.98075E-07-1.64127E-19 2.24077E-19
 -1       672 9.52975E-05-2.84507E-05-2.86485E-05 2.67472E-07 3.46961E-19-1.13997E-18
 -1       673 9.52776E-05-2.84860E-05-2.86249E-05 1.72954E-07 1.13747E-18 2.43152E-19
 -1       674 9.52627E-05-2.85118E-05-2.86075E-05 1.05667E-07 2.67192E-18 7.99900E-19
 -1       675 9.52519E-05-2.85307E-05-2.85948E-05 5.87070E-08 9.76243E-19 1.03541E-18
 -1       676 9.52441E-05-2.85449E-05-2.85853E-05 2.55439E-08-4.50710E-19 6.94330E-19
 -1       677 9.52392E-05-2.85545E-05-2.85792E-05 5.08519E-09-1.93158E-18-1.37221E-19
 -1       678 9.52362E-05-2.85613E-05-2.85750E-05-7.67489E-09-2.12131E-18-7.19070E-19
 -1       679 9.52345E-05-2.85659E-05-2.85722E-05-1.50277E-08 2.82934E-19-5.19760E-19
 -1       680 9.52337E-05-2.85691E-05-2.85706E-05-1.86821E-08 2.34570E-19-1.36179E-18
 -1       681 9.52336E-05-2.85711E-05-2.85696E-05-1.98846E-08 1.06463E-18-9.15748E-19
 -1       682 9.52338E-05-2.85725E-05-2.85691E-05-1.94697E-08-8.77017E-19 6.07473E-19
 -1       683 9.52343E-05-2.85733E-05-2.85690E-05-1.80956E-08-3.14989E-19 2.10965E-18
 -1       684 9.52349E-05-2.85739E-05-2.85690E-05-1.61554E-08-2.66430E-20 1.44053E-18
 -1       685 9.52357E-05-2.85745E-05-2.85691E-05-1.38754E-08 1.64223E-19 1.84188E-19
 -1       686 9.52467E-05-2.85835E-05-2.85699E-05-1.90808E-09 1.66971E-18-2.08700E-18
 -1       687 9.52443E-05-2.85815E-05-2.85698E-05-9.05609E-09 1.31652E-18-1.73406E-18
 -1       688 9.52467E-05-2.85835E-05-2.85699E-05 2.12859E-09 1.30464E-19-1.35546E-18
 -1       689 9.52459E-05-2.85829E-05-2.85699E-05-5.76770E-09 6.78438E-19-1.70439E-18
 -1       690 8.15748E-05-3.96371E-05-1.76522E-05-4.23700E-05 8.56165E-19 2.00879E-19
 -1       691 9.52458E-05-2.85828E-05-2.85699E-05 5.88248E-09-2.24553E-19-1.93229E-18
 -1       692 9.52442E-05-2.85814E-05-2.85698E-05 9.11593E-09-1.75313E-19-1.99188E-18
 -1       693 9.52418E-05-2.85794E-05-2.85696E-05 1.14308E-08 1.48104E-18 9.71009E-19
 -1       694 1.30513E-04-3.48034E-05-4.13678E-05 1.20354E-05 1.80047E-19-1.71417E-18
 -1       695 9.07342E-05-1.97857E-05-3.03956E-05-1.28447E-05 8.17074E-19 2.05819E-19
 -1       696 1.35004E-04-3.59606E-05-4.28237E-05-1.12564E-05-1.24487E-18 2.65000E-18
 -1       697 8.80954E-05-3.92341E-05-2.05979E-05 3.31381E-05-1.79047E-18 2.14289E-18
 -1       698 9.90063E-05-2.45353E-05-3.19203E-05-5.81359E-06-4.70500E-19-9.34795E-19
 -1       699 1.25088E-04-1.52729E-05-4.75415E-05-1.15413E-05-2.13108E-18 1.77852E-18
 -1       700 1.01015E-04-2.83648E-05-3.11375E-05-4.35763E-06-4.91236E-19-6.26533E-19
 -1       701 1.22517E-04-5.65306E-05-2.82758E-05 2.49149E-05 9.13075E-19 1.51573E-18
 -1       702 3.63591E-05-9.33295E-06-1.10081E-05-1.09627E-05 2.87263E-20 2.72146E-18
 -1       703 8.96116E-05-2.22144E-05-2.88630E-05-1.86142E-05 1.65901E-19-1.30026E-19
 -1       704 7.55756E-05-6.77604E-06-2.94898E-05 5.42723E-06 1.45535E-18-5.26790E-19
 -1       705 1.21667E-04-6.18524E-06-5.00389E-05 5.99613E-08-2.49282E-18 7.55348E-20
 -1       706 9.41929E-05-2.11472E-05-3.13096E-05 1.49732E-06 2.40825E-19-9.47724E-19
 -1       707 1.04328E-04-5.10940E-05-2.25691E-05-3.32743E-05-1.26565E-18-1.29570E-18
 -1       708 1.34686E-04-5.61237E-05-3.37300E-05-8.09996E-06 8.23759E-19-1.36579E-18
 -1       709 1.25104E-04-1.69232E-05-4.68555E-05 1.21118E-05-1.27984E-18-1.84995E-18
 -1       710 3.72271E-05-9.56247E-06-1.12625E-05-1.04656E-05 7.64149E-19-1.79243E-18
 -1       711 1.37587E-04-5.32488E-05-3.63083E-05 3.09576E-06-5.14577E-19 3.05392E-18
 -1       712 1.16183E-04-5.64599E-05-2.54852E-05-3.16304E-05 1.90500E-18 6.75530E-19
 -1       713 3.62014E-05-7.97524E-06-1.15111E-05 1.31898E-05 1.14635E-18-1.83774E-18
 -1       714 9.23616E-05-1.87633E-05-3.15375E-05-7.43452E-06 1.14538E-18 4.86895E-19
 -1       715 9.69858E-05-2.31526E-05-3.16469E-05-1.99968E-06 2.77240E-21-9.57802E-19
 -1       716 8.58327E-05-1.52453E-05-3.02558E-05 7.92715E-06 9.19944E-19-7.63374E-19
 -1       717 5.88247E-05-1.64715E-05-1.77555E-05-2.28272E-05 3.75302E-19-1.39914E-18
 -1       718 4.53546E-05-9.54510E-06-1.49236E-05 6.57585E-06-6.71542E-19 2.60010E-18
 -1       719 1.29636E-04-4.59777E-05-3.59750E-05 5.79899E-06 7.46289E-19-1.47202E-18
 -1       720 9.93354E-05-4.57382E-05-2.27467E-05 3.72924E-05 1.64694E-18 4.20089E-19
 -1       721 9.52420E-05-2.85796E-05-2.85696E-05-1.13799E-08 1.49985E-19 2.97115E-19
 -1       722 9.52393E-05-2.85772E-05-2.85695E-05-1.31739E-08 5.81700E-20 2.90110E-19
 -1       723 7.19156E-05-2.52477E-05-1.96675E-05 2.79014E-05-1.72785E-18 2.81750E-18
 -1       724 9.29666E-05-3.20097E-05-2.59676E-05 2.60669E-05-2.44551E-18 1.55033E-18
 -1       725 9.04832E-05-1.85746E-05-3.08227E-05 5.05440E-06 5.03757E-19-5.29113E-19
 -1       726 5.32387E-05-1.57489E-05-1.56518E-05 2.86515E-05 1.56120E-18-1.81678E-18
 -1       727 7.34985E-05-3.03940E-05-1.80974E-05 3.93844E-05 1.74804E-18-1.04492E-18
 -1       728 9.52488E-05-2.85829E-05-2.85711E-05 4.60594E-09 8.02840E-19-2.66059E-18
 -1       729 7.80065E-05-1.04677E-05-2.89482E-05-3.67500E-06 1.23452E-18-3.55293E-20
 -1       730 1.07010E-04-3.53902E-05-3.06957E-05-3.90992E-06-1.96523E-19-3.64118E-19
 -1       731 1.08498E-04-3.58478E-05-3.11382E-05-6.31159E-06-4.88114E-19-2.60983E-19
 -1       732 1.08379E-04-3.37897E-05-3.19680E-05-8.74644E-06-5.27935E-19-1.04233E-19
 -1       733 1.06321E-04-2.91925E-05-3.30609E-05-9.68338E-06-3.81559E-19 9.46836E-20
 -1       734 1.03214E-04-2.36585E-05-3.41030E-05-7.50735E-06-5.85023E-19-1.61614E-19
 -1       735 1.00894E-04-1.99348E-05-3.47151E-05-2.16814E-06-6.74394E-19 1.21585E-19
 -1       736 1.01034E-04-2.03384E-05-3.46029E-05 4.39820E-06-3.32047E-19 3.00103E-19
 -1       737 1.03437E-04-2.46349E-05-3.37808E-05 9.21550E-06-4.26181E-20 1.07900E-18
 -1       738 1.06318E-04-3.03413E-05-3.25637E-05 1.05975E-05 3.76919E-19 4.63325E-19
 -1       739 1.07931E-04-3.48521E-05-3.13192E-05 8.95613E-06-1.12127E-19-2.29436E-19
 -1       740 1.07698E-04-3.70107E-05-3.02945E-05 5.82438E-06-1.98627E-19-4.27987E-19
 -1       741 1.06051E-04-3.70384E-05-2.95766E-05 2.61967E-06-6.99981E-21 2.09353E-19
 -1       742 1.03745E-04-3.57498E-05-2.91410E-05 7.79565E-08 3.02231E-19 1.12001E-19
 -1       743 1.01410E-04-3.39466E-05-2.89135E-05-1.60798E-06 2.01129E-19 1.34192E-19
 -1       744 9.94032E-05-3.21648E-05-2.88167E-05-2.54270E-06-3.36250E-19 1.62191E-19
 -1       745 9.78501E-05-3.06727E-05-2.87905E-05-2.92095E-06-8.04900E-19 7.84124E-20
 -1       746 9.67411E-05-2.95552E-05-2.87940E-05-2.93085E-06-4.03238E-19 3.43438E-19
 -1       747 9.60027E-05-2.87941E-05-2.88037E-05-2.72171E-06 6.69466E-19 7.28527E-19
 -1       748 9.55447E-05-2.83256E-05-2.88082E-05-2.40003E-06 1.54250E-19 1.45200E-18
 -1       749 9.52836E-05-2.80753E-05-2.88035E-05-2.03659E-06-3.68669E-19 1.33102E-18
 -1       750 9.51522E-05-2.79752E-05-2.87901E-05-1.67557E-06 9.96646E-20 1.50951E-18
 -1       751 9.51007E-05-2.79703E-05-2.87701E-05-1.34238E-06 6.94294E-19 1.33128E-18
 -1       752 9.50944E-05-2.80198E-05-2.87462E-05-1.04970E-06 6.13728E-19 1.31139E-18
 -1       753 9.51110E-05-2.80956E-05-2.87208E-05-8.01949E-07-4.79570E-19 1.44098E-18
 -1       754 9.51365E-05-2.81794E-05-2.86959E-05-5.98407E-07-5.97661E-19 1.85346E-18
 -1       755 9.51631E-05-2.82603E-05-2.86726E-05-4.35450E-07-4.75855E-19 1.56320E-18
 -1       756 9.51869E-05-2.83324E-05-2.86519E-05-3.08022E-07-1.19608E-19 7.40940E-19
 -1       757 9.52063E-05-2.83934E-05-2.86341E-05-2.10597E-07-6.16006E-20-8.40631E-19
 -1       758 9.52210E-05-2.84430E-05-2.86191E-05-1.37779E-07 1.11638E-18 6.86098E-19
 -1       759 9.52315E-05-2.84819E-05-2.86069E-05-8.46380E-08 6.92354E-19 1.28138E-18
 -1       760 9.52384E-05-2.85116E-05-2.85972E-05-4.68711E-08-4.91038E-19 1.31267E-18
 -1       761 9.52426E-05-2.85335E-05-2.85896E-05-2.08524E-08-7.62902E-19-4.34278E-20
 -1       762 9.52448E-05-2.85492E-05-2.85839E-05-3.61230E-09 8.38521E-19-9.38504E-19
 -1       763 9.52456E-05-2.85601E-05-2.85795E-05 7.21944E-09 1.88819E-18-9.96016E-19
 -1       764 9.52455E-05-2.85673E-05-2.85764E-05 1.34901E-08 9.01099E-19-7.18450E-19
 -1       765 9.52448E-05-2.85719E-05-2.85741E-05 1.66045E-08 2.29281E-19 1.04000E-18
 -1       766 9.52438E-05-2.85747E-05-2.85725E-05 1.76046E-08-1.43675E-18 1.10828E-18
 -1       767 9.52427E-05-2.85762E-05-2.85713E-05 1.72393E-08 4.00457E-19 1.68425E-18
 -1       768 9.52417E-05-2.85771E-05-2.85705E-05 1.59938E-08 3.43583E-19 1.73341E-18
 -1       769 1.13697E-04-1.14132E-05-4.41335E-05-5.74915E-06-1.32121E-18-2.11490E-19
 -1       770 5.20831E-05-1.38753E-05-1.60553E-05-2.10739E-05 1.05361E-18 1.11689E-18
 -1       771 8.45514E-05-1.89351E-05-2.81201E-05 9.30462E-06 2.60925E-19-9.27502E-20
 -1       772 8.00976E-05-1.70429E-05-2.70172E-05 1.14336E-05 4.70301E-19-8.31916E-19
 -1       773 7.41762E-05-1.58724E-05-2.49511E-05 1.46889E-05-5.93603E-19 3.08696E-19
 -1       774 8.79074E-05-2.09221E-05-2.87075E-05 7.64156E-06-3.44291E-19-1.85113E-19
 -1       775 9.03252E-05-2.26913E-05-2.89854E-05 6.23703E-06-7.97128E-20 1.68958E-19
 -1       776 9.20121E-05-2.41434E-05-2.90860E-05 5.02527E-06-6.74246E-21 5.54570E-19
 -1       777 9.32028E-05-2.53277E-05-2.90890E-05 3.94609E-06 9.23390E-19 8.65014E-19
 -1       778 9.39487E-05-2.61781E-05-2.90442E-05 3.08963E-06 9.13734E-19 8.38110E-19
 -1       779 9.44351E-05-2.68135E-05-2.89805E-05 2.38441E-06-5.60979E-19-6.45750E-19
 -1       780 9.47475E-05-2.72838E-05-2.89129E-05 1.81484E-06-1.05185E-18-1.39144E-18
 -1       781 9.49453E-05-2.76306E-05-2.88490E-05 1.36177E-06 5.91181E-19-1.35913E-18
 -1       782 9.50688E-05-2.78862E-05-2.87925E-05 1.00607E-06-3.76230E-19-5.76062E-19
 -1       783 9.51478E-05-2.80827E-05-2.87422E-05 7.19220E-07-6.46406E-20 5.51984E-19
 -1       784 9.51928E-05-2.82195E-05-2.87028E-05 5.12222E-07-3.71538E-19-5.05957E-19
 -1       785 9.52193E-05-2.83205E-05-2.86709E-05 3.56156E-07 1.45651E-18-1.11085E-18
 -1       786 9.52344E-05-2.83949E-05-2.86455E-05 2.40329E-07 1.06687E-19-1.01214E-18
 -1       787 9.52426E-05-2.84494E-05-2.86256E-05 1.55752E-07 8.54734E-19-1.67839E-19
 -1       788 9.52465E-05-2.84891E-05-2.86103E-05 9.50936E-08 2.18129E-19 1.44209E-18
 -1       789 9.52480E-05-2.85189E-05-2.85982E-05 5.08963E-08 3.24192E-19 2.84922E-18
 -1       790 9.52479E-05-2.85388E-05-2.85896E-05 2.25495E-08-6.92162E-19 2.74654E-18
 -1       791 9.52471E-05-2.85527E-05-2.85833E-05 3.92639E-09-7.64543E-19 9.52615E-19
 -1       792 9.52460E-05-2.85621E-05-2.85788E-05-7.68219E-09-8.96891E-19-1.52978E-18
 -1       793 9.52446E-05-2.85683E-05-2.85756E-05-1.43556E-08 1.99264E-19-1.07134E-18
 -1       794 9.52434E-05-2.85722E-05-2.85734E-05-1.76489E-08 1.68392E-19 1.15782E-19
 -1       795 9.52421E-05-2.85746E-05-2.85718E-05-1.86974E-08-2.68962E-18 3.00074E-18
 -1       796 9.52411E-05-2.85758E-05-2.85708E-05-1.82326E-08 1.60545E-19 1.57273E-18
 -1       797 9.52402E-05-2.85764E-05-2.85702E-05-1.68918E-08-2.91383E-19 1.24333E-18
 -1       798 9.52397E-05-2.85768E-05-2.85698E-05-1.51897E-08 1.72773E-19 1.48296E-18
 -1       799 1.11426E-04-4.83137E-05-2.69966E-05 2.51371E-05 1.59166E-18 1.10143E-18
 -1       800 1.20809E-04-2.59843E-05-4.08763E-05-1.35582E-05-1.09065E-18 1.14074E-18
 -1       801 9.52494E-05-2.85832E-05-2.85712E-05 1.26480E-10 1.60742E-18-1.53591E-18
 -1       802 9.52445E-05-2.85801E-05-2.85705E-05 1.18845E-08 3.54943E-19 2.37547E-18
 -1       803 1.00455E-04-4.56534E-05-2.33565E-05-3.25477E-05 1.40134E-18-5.97833E-19
 -1       804 1.22334E-04-5.40642E-05-2.92169E-05-1.55932E-05 2.24184E-18-8.85917E-19
 -1       805 1.29891E-04-4.36386E-05-3.71139E-05-7.48167E-06-5.49619E-19 2.37547E-18
 -1       806 1.13785E-04-1.19722E-05-4.39429E-05 6.87950E-06-9.63897E-19-1.67291E-18
 -1       807 9.52410E-05-2.85779E-05-2.85699E-05 1.36947E-08 1.35564E-18 1.69755E-18
 -1       808 9.52471E-05-2.85818E-05-2.85708E-05 8.66180E-09-9.78185E-19-1.83833E-18
 -1       809 1.27112E-04-5.24469E-05-3.20194E-05 7.78330E-06 3.04037E-19 2.49662E-18
 -1       810 4.99844E-05-8.06098E-06-1.77259E-05 1.38689E-05 1.38813E-18-1.41942E-18
 -1       811 1.17429E-04-2.44142E-05-4.00835E-05 1.31485E-05-5.49711E-19-2.43098E-18
 -1       812 7.35523E-05-2.89565E-05-1.88687E-05-3.42224E-05 8.82502E-19 8.80504E-19
 -1       813 1.04517E-04-3.29689E-05-3.06655E-05-2.52139E-06-3.21420E-19-5.04270E-19
 -1       814 4.76937E-05-6.92652E-06-1.71037E-05-3.25049E-06 9.88064E-19-1.41277E-18
 -1       815 7.12855E-05-1.81493E-05-2.26128E-05 2.02771E-05-1.64547E-18 1.15920E-18
 -1       816 8.33403E-05-1.45728E-05-2.94705E-05-8.62827E-06 1.06306E-18 8.59594E-20
 -1       817 7.88485E-05-1.28795E-05-2.82744E-05 1.22106E-05 1.39861E-18-5.11739E-19
 -1       818 7.65620E-05-2.33051E-05-2.25841E-05-2.57589E-05 7.84300E-20-9.69052E-19
 -1       819 8.55607E-05-1.78697E-05-2.90112E-05 1.20672E-05 1.13487E-18-5.76230E-19
 -1       820 7.32551E-05-7.72702E-06-2.80640E-05 2.85874E-06 1.33408E-18-5.84528E-19
 -1       821 7.07643E-05-2.17851E-05-2.08138E-05 2.96410E-05 1.95815E-18-9.32927E-19
 -1       822 1.23869E-04-4.98367E-05-3.17597E-05-2.33441E-06 1.21064E-18-6.52708E-19
 -1       823 9.52447E-05-2.85803E-05-2.85705E-05-1.17879E-08-7.44111E-19 6.82741E-19
 -1       824 7.38827E-05-8.82503E-06-2.78718E-05 8.98892E-06 1.55807E-18-7.59525E-19
 -1       825 9.52489E-05-2.85830E-05-2.85711E-05-4.38930E-09 1.42681E-18-1.16959E-18
 -1       826 9.52474E-05-2.85820E-05-2.85709E-05-8.44878E-09 1.59406E-18-6.98462E-19
 -1       827 1.01998E-04-2.97624E-05-3.09536E-05-2.30508E-06-3.34184E-19-6.76872E-19
 -1       828 5.16907E-05-9.73830E-06-1.77250E-05-6.20308E-06 7.93900E-19 1.43613E-18
 -1       829 9.24995E-05-3.61044E-05-2.40539E-05 3.08826E-05 1.75917E-18 4.65412E-19
 -1       830 9.65344E-05-2.53642E-05-3.04980E-05 5.08762E-06 2.81132E-19-4.72180E-19
 -1       831 6.29751E-05-1.24916E-05-2.15123E-05 1.99595E-05 1.57573E-18-1.15468E-18
 -1       832 1.20242E-04-3.49314E-05-3.66570E-05 1.18955E-05 4.94654E-21-1.87812E-18
 -1       833 7.87677E-05-1.74769E-05-2.62030E-05-1.79421E-05 4.05870E-19-6.03392E-19
 -1       834 8.10021E-05-1.55985E-05-2.80127E-05-1.30131E-05 8.66395E-19-1.04530E-19
 -1       835 9.94214E-05-2.72311E-05-3.09408E-05 9.70883E-07-3.64412E-20-8.00654E-19
 -1       836 6.17093E-05-1.66821E-05-1.89841E-05 2.01304E-05-1.15496E-18 1.60027E-18
 -1       837 1.13671E-04-3.86329E-05-3.21593E-05-6.27979E-06-3.62452E-19-3.06030E-19
 -1       838 1.13451E-04-3.45977E-05-3.38372E-05-1.00210E-05-2.05776E-19 1.15978E-19
 -1       839 1.10471E-04-2.70647E-05-3.57643E-05-1.10258E-05-6.27095E-19-6.62526E-20
 -1       840 1.06006E-04-1.89214E-05-3.73913E-05-6.94759E-06-6.68723E-19-4.08789E-19
 -1       841 1.04205E-04-1.59962E-05-3.78828E-05 1.18588E-06-4.21498E-19-4.41709E-19
 -1       842 1.06467E-04-2.02654E-05-3.69960E-05 8.82207E-06 9.40107E-20-3.37503E-19
 -1       843 1.10533E-04-2.86736E-05-3.50992E-05 1.18034E-05-3.31720E-19-7.33467E-19
 -1       844 1.13077E-04-3.61493E-05-3.29717E-05 9.90692E-06 6.16585E-20-4.85421E-19
 -1       845 1.12718E-04-3.99931E-05-3.11713E-05 5.56933E-06-2.10458E-19 4.33364E-20
 -1       846 1.10038E-04-4.02814E-05-2.98936E-05 1.28614E-06 2.95038E-19 7.76855E-19
 -1       847 1.06428E-04-3.84664E-05-2.91251E-05-1.79060E-06 8.58466E-20 6.64024E-19
 -1       848 1.02897E-04-3.58535E-05-2.87333E-05-3.51831E-06 9.94255E-20 4.57616E-19
 -1       849 9.99905E-05-3.33137E-05-2.85757E-05-4.21732E-06-1.86256E-20 5.63654E-19
 -1       850 9.78348E-05-3.12215E-05-2.85485E-05-4.25945E-06-1.08443E-18 6.65614E-19
 -1       851 9.63697E-05-2.96806E-05-2.85810E-05-3.93664E-06-1.98142E-19 8.67523E-19
 -1       852 9.54554E-05-2.86490E-05-2.86313E-05-3.44691E-06 4.91347E-19 1.04579E-18
 -1       853 9.49419E-05-2.80274E-05-2.86776E-05-2.90922E-06 6.62230E-19 8.28357E-19
 -1       854 9.46997E-05-2.77076E-05-2.87109E-05-2.38897E-06-3.82616E-19 1.06698E-19
 -1       855 9.46281E-05-2.75936E-05-2.87291E-05-1.91867E-06 2.46372E-19 6.22390E-19
 -1       856 9.46548E-05-2.76091E-05-2.87339E-05-1.51139E-06 4.84145E-19 1.12800E-18
 -1       857 9.47308E-05-2.76977E-05-2.87285E-05-1.16928E-06 2.88392E-19 3.92601E-19
 -1       858 9.48249E-05-2.78207E-05-2.87161E-05-8.88633E-07-3.70660E-19 3.26370E-20
 -1       859 9.49188E-05-2.79528E-05-2.86997E-05-6.62985E-07 4.63997E-19 1.79100E-19
 -1       860 9.50029E-05-2.80790E-05-2.86817E-05-4.84808E-07-4.61187E-19 1.33035E-18
 -1       861 9.50732E-05-2.81912E-05-2.86637E-05-3.46522E-07-1.79457E-20 2.02713E-18
 -1       862 9.51288E-05-2.82863E-05-2.86468E-05-2.41032E-07-1.25033E-18 2.40558E-18
 -1       863 9.51710E-05-2.83638E-05-2.86317E-05-1.61992E-07 5.81088E-19 1.46374E-18
 -1       864 9.52016E-05-2.84249E-05-2.86186E-05-1.03905E-07 9.17913E-19 7.99214E-19
 -1       865 9.52228E-05-2.84719E-05-2.86076E-05-6.21341E-08 5.09713E-19 8.63450E-19
 -1       866 9.52367E-05-2.85069E-05-2.85985E-05-3.28509E-08-1.32231E-18 8.00985E-19
 -1       867 9.52452E-05-2.85322E-05-2.85913E-05-1.29519E-08-1.17533E-18 1.63056E-18
 -1       868 9.52498E-05-2.85500E-05-2.85856E-05 3.06985E-11 8.91011E-19-6.11944E-20
 -1       869 9.52516E-05-2.85621E-05-2.85812E-05 8.02394E-09 1.65035E-18-1.24953E-18
 -1       870 9.52516E-05-2.85699E-05-2.85778E-05 1.25033E-08 1.74119E-18-1.92815E-18
 -1       871 9.52505E-05-2.85747E-05-2.85753E-05 1.45733E-08 1.76214E-18 1.74424E-19
 -1       872 9.52488E-05-2.85774E-05-2.85734E-05 1.50495E-08 8.04897E-19 3.79638E-18
 -1       873 9.52469E-05-2.85788E-05-2.85720E-05 1.45546E-08-1.13729E-19 2.98825E-18
 -1       874 7.47213E-05-1.09331E-05-2.72747E-05-6.76931E-06 1.08376E-18-9.20166E-20
 -1       875 8.26295E-05-1.82463E-05-2.75934E-05 4.40954E-06-9.96394E-20 1.30800E-18
 -1       876 7.03764E-05-1.31237E-05-2.45321E-05 4.63322E-06 7.29419E-19-8.06236E-20
 -1       877 8.89910E-05-2.22673E-05-2.85958E-05 3.71920E-06 1.65935E-20 7.12736E-20
 -1       878 9.09717E-05-2.38149E-05-2.87816E-05 3.20126E-06 9.78248E-19-2.12440E-19
 -1       879 9.22936E-05-2.49678E-05-2.88539E-05 2.68767E-06 6.83002E-19 2.48988E-19
 -1       880 9.32205E-05-2.58600E-05-2.88688E-05 2.19551E-06 1.27897E-18 5.65878E-19
 -1       881 9.38660E-05-2.65424E-05-2.88530E-05 1.75191E-06 1.49938E-19 2.15601E-19
 -1       882 9.43130E-05-2.70607E-05-2.88224E-05 1.36860E-06-8.04731E-20-7.20461E-19
 -1       883 9.46215E-05-2.74529E-05-2.87865E-05 1.04733E-06-6.12745E-19 3.05527E-19
 -1       884 9.48419E-05-2.77613E-05-2.87488E-05 7.74404E-07 8.09906E-19 1.29683E-19
 -1       885 9.49840E-05-2.79805E-05-2.87157E-05 5.68807E-07 4.59614E-19-3.93114E-19
 -1       886 9.50805E-05-2.81450E-05-2.86866E-05 4.08156E-07 4.85216E-19-6.57272E-19
 -1       887 9.51454E-05-2.82679E-05-2.86618E-05 2.85186E-07 5.35341E-19 4.69798E-19
 -1       888 9.51884E-05-2.83590E-05-2.86412E-05 1.92819E-07-5.68992E-19 1.45415E-19
 -1       889 9.52163E-05-2.84261E-05-2.86244E-05 1.24730E-07 5.58412E-19 3.69878E-19
 -1       890 9.52345E-05-2.84770E-05-2.86103E-05 7.36940E-08-8.87928E-19 7.57680E-19
 -1       891 9.52445E-05-2.85115E-05-2.85999E-05 3.99133E-08-1.10436E-18 1.07521E-18
 -1       892 9.52499E-05-2.85357E-05-2.85918E-05 1.68685E-08 4.08221E-19 9.20489E-19
 -1       893 9.52522E-05-2.85524E-05-2.85856E-05 1.77248E-09 1.90220E-19 1.13376E-18
 -1       894 9.52524E-05-2.85635E-05-2.85810E-05-7.58932E-09-7.66411E-19 2.46181E-18
 -1       895 9.52515E-05-2.85706E-05-2.85775E-05-1.29175E-08-1.69895E-18 3.17342E-18
 -1       896 9.52498E-05-2.85750E-05-2.85749E-05-1.55413E-08-1.99069E-18 3.78146E-18
 -1       897 9.52479E-05-2.85773E-05-2.85731E-05-1.61752E-08-6.65863E-19 3.11354E-18
 -1       898 9.52460E-05-2.85785E-05-2.85718E-05-1.56520E-08 1.05554E-18 3.78281E-18
 -1       899 9.52425E-05-2.85787E-05-2.85702E-05-1.37886E-08-5.26907E-19-1.15791E-18
 -1       900 9.19097E-05-2.23165E-05-2.98230E-05 9.19715E-06 7.05347E-19-1.77971E-19
 -1       901 5.90729E-05-1.08622E-05-2.04475E-05-1.34966E-05 6.54062E-19-1.21046E-18
 -1       902 1.23253E-04-4.50220E-05-3.35468E-05-3.55939E-06-5.82211E-20 1.80517E-18
 -1       903 1.03442E-04-3.93298E-05-2.74364E-05 2.10833E-05 1.23722E-18 8.28710E-19
 -1       904 5.73775E-05-1.08719E-05-1.97407E-05 8.58138E-06-5.51246E-19 1.15060E-18
 -1       905 9.52520E-05-2.85828E-05-2.85725E-05 2.63255E-09 1.30345E-18-3.86288E-18
 -1       906 8.87897E-05-3.46496E-05-2.31212E-05-2.82471E-05 6.70767E-19-1.04692E-18
 -1       907 7.75405E-05-1.57688E-05-2.64705E-05 4.53164E-06 1.25613E-20 9.91135E-19
 -1       908 1.08650E-04-4.60617E-05-2.67745E-05-2.01129E-05 8.22400E-19-8.37611E-19
 -1       909 1.07151E-04-3.56189E-05-3.06557E-05-9.87557E-08-1.69047E-19-2.33011E-19
 -1       910 5.65728E-05-6.89050E-06-2.10850E-05 3.08178E-06 1.21433E-18-1.07052E-18
 -1       911 1.19609E-04-3.47004E-05-3.64425E-05-1.13438E-05-4.67602E-19 7.92528E-19
 -1       912 8.63238E-05-2.04317E-05-2.82398E-05 4.13401E-06-3.82699E-19 1.59121E-18
 -1       913 1.11144E-04-3.86141E-05-3.10889E-05-2.44257E-06-3.22418E-19-3.79170E-19
 -1       914 1.17287E-04-4.70067E-05-3.01359E-05 1.05500E-05 6.33388E-19 1.51980E-18
 -1       915 6.86276E-05-2.01160E-05-2.06741E-05-2.29539E-05 7.23591E-19 1.71336E-18
 -1       916 8.27482E-05-2.51027E-05-2.46137E-05 2.54015E-05 1.67817E-18-2.53987E-19
 -1       917 6.85092E-05-7.42772E-06-2.61743E-05 2.17466E-06 1.24317E-18-8.16133E-19
 -1       918 6.35230E-05-1.40153E-05-2.11119E-05-1.31123E-05-2.41530E-19 1.16556E-18
 -1       919 9.52508E-05-2.85805E-05-2.85730E-05 1.08723E-08-8.53284E-20-1.49731E-18
 -1       920 1.15066E-04-4.74955E-05-2.89636E-05-1.00995E-05 1.40482E-18-2.89071E-19
 -1       921 8.38672E-05-2.00412E-05-2.73544E-05 1.69152E-05 1.44094E-18-3.16647E-19
 -1       922 7.43074E-05-1.29882E-05-2.62577E-05 1.47917E-05 1.43001E-18-6.13976E-19
 -1       923 9.52440E-05-2.85786E-05-2.85709E-05-1.48859E-08 1.30215E-18 1.13440E-19
 -1       924 9.52467E-05-2.85803E-05-2.85713E-05-1.26603E-08 2.89401E-18 1.88924E-18
 -1       925 9.52520E-05-2.85827E-05-2.85725E-05-2.28866E-09 3.19666E-18-1.74844E-18
 -1       926 9.92337E-05-2.98549E-05-2.97200E-05 9.11955E-06 4.49779E-19 2.00203E-20
 -1       927 1.02485E-04-3.15460E-05-3.04135E-05 3.81269E-06 1.93169E-19-4.12950E-19
 -1       928 9.52520E-05-2.85819E-05-2.85729E-05 6.84621E-09 1.01636E-18-3.66409E-18
 -1       929 9.25584E-05-2.84019E-05-2.75063E-05 1.86848E-05 1.37103E-18 3.08763E-19
 -1       930 8.65717E-05-2.10772E-05-2.80696E-05 1.21263E-06 4.86820E-19-4.01065E-19
 -1       931 6.96058E-05-9.20983E-06-2.59120E-05 9.80546E-06 1.33492E-18-8.81032E-19
 -1       932 9.27751E-05-2.59540E-05-2.86415E-05 1.42598E-05 8.39188E-19-5.80557E-20
 -1       933 1.18865E-04-4.34552E-05-3.23544E-05 4.57236E-06 3.99029E-19-1.21034E-18
 -1       934 1.14696E-04-4.42898E-05-3.01825E-05-1.35249E-06 7.22078E-19-5.11289E-20
 -1       935 1.09334E-04-4.16355E-05-2.90131E-05-5.04155E-06 3.53635E-19 6.40638E-19
 -1       936 1.04136E-04-3.78177E-05-2.84227E-05-6.67230E-06 2.40282E-19 8.53643E-19
 -1       937 1.00172E-04-3.43193E-05-2.82215E-05-6.81726E-06 5.15399E-19 9.92565E-19
 -1       938 9.73975E-05-3.15483E-05-2.82209E-05-6.21708E-06-4.50402E-20 7.33304E-19
 -1       939 9.56258E-05-2.95770E-05-2.83067E-05-5.31043E-06-3.82375E-19 1.37578E-18
 -1       940 9.46062E-05-2.83034E-05-2.84155E-05-4.35871E-06 1.85770E-19 2.19801E-18
 -1       941 9.41035E-05-2.75659E-05-2.85161E-05-3.48384E-06 1.77652E-19 1.29233E-18
 -1       942 9.39345E-05-2.72113E-05-2.85957E-05-2.73197E-06-9.77879E-20 1.40289E-18
 -1       943 9.39648E-05-2.71121E-05-2.86512E-05-2.11109E-06 7.33584E-19 2.34547E-18
 -1       944 9.41013E-05-2.71700E-05-2.86848E-05-1.61126E-06 2.85383E-19 1.74662E-18
 -1       945 9.42828E-05-2.73144E-05-2.87008E-05-1.21576E-06-1.11273E-20 1.36900E-18
 -1       946 9.44721E-05-2.74970E-05-2.87036E-05-9.06762E-07-2.63946E-19 8.69752E-19
 -1       947 9.46480E-05-2.76869E-05-2.86976E-05-6.67866E-07 2.64294E-19 1.21705E-18
 -1       948 9.48002E-05-2.78657E-05-2.86862E-05-4.84919E-07 8.60204E-19 9.82465E-19
 -1       949 9.49254E-05-2.80240E-05-2.86720E-05-3.46150E-07-1.48916E-19 1.83625E-18
 -1       950 9.50243E-05-2.81579E-05-2.86570E-05-2.41975E-07-1.52046E-19 1.49737E-18
 -1       951 9.50997E-05-2.82674E-05-2.86424E-05-1.64689E-07-8.48240E-19 1.76252E-18
 -1       952 9.51551E-05-2.83542E-05-2.86290E-05-1.08129E-07 4.75998E-19 2.31532E-18
 -1       953 9.51945E-05-2.84212E-05-2.86171E-05-6.74036E-08-8.37947E-20 1.63279E-18
 -1       954 9.52213E-05-2.84717E-05-2.86070E-05-3.86580E-08-7.83798E-19 1.55556E-18
 -1       955 9.52385E-05-2.85087E-05-2.85985E-05-1.88632E-08-1.13438E-18 5.37923E-19
 -1       956 9.52488E-05-2.85350E-05-2.85916E-05-5.66329E-09-6.54218E-19-4.04798E-19
 -1       957 9.52541E-05-2.85532E-05-2.85861E-05 2.75749E-09 2.53946E-19-1.22319E-19
 -1       958 9.52560E-05-2.85652E-05-2.85817E-05 7.78312E-09 7.26286E-19-1.03395E-18
 -1       959 9.52557E-05-2.85728E-05-2.85784E-05 1.04461E-08 2.16038E-18-1.84720E-18
 -1       960 9.52541E-05-2.85773E-05-2.85758E-05 1.15153E-08 2.87722E-18-2.43686E-18
 -1       961 9.52526E-05-2.85793E-05-2.85743E-05 1.13757E-08 2.26716E-18-1.51482E-18
 -1       962 6.97062E-05-9.94647E-06-2.55727E-05-7.53804E-06 1.08388E-18-4.09977E-19
 -1       963 1.20951E-04-4.17415E-05-3.39777E-05 7.75415E-06 3.55760E-19-1.42988E-18
 -1       964 1.04276E-04-3.27225E-05-3.06689E-05 1.54577E-07-2.21378E-19-4.85465E-19
 -1       965 1.16205E-04-4.28608E-05-3.14268E-05 2.99188E-07-1.90636E-20 1.07203E-18
 -1       966 8.90358E-05-2.27005E-05-2.84295E-05 1.56966E-06 4.63215E-19-5.54720E-19
 -1       967 9.29497E-05-2.58390E-05-2.87618E-05 1.33597E-06 6.27284E-19 1.89532E-19
 -1       968 9.36221E-05-2.64894E-05-2.87712E-05 1.12079E-06-3.77926E-19 9.80558E-19
 -1       969 9.41087E-05-2.69981E-05-2.87618E-05 9.07326E-07-3.02055E-19 3.73503E-19
 -1       970 9.44734E-05-2.74095E-05-2.87417E-05 7.04075E-07 9.54299E-19-1.06822E-19
 -1       971 9.47197E-05-2.77094E-05-2.87187E-05 5.37786E-07 9.67002E-19-4.62290E-19
 -1       972 9.48949E-05-2.79393E-05-2.86953E-05 3.99890E-07-1.18207E-19-6.94778E-19
 -1       973 9.50183E-05-2.81142E-05-2.86732E-05 2.89310E-07 1.21378E-19-6.37030E-19
 -1       974 9.51041E-05-2.82462E-05-2.86534E-05 2.02996E-07 4.22020E-19-2.72725E-19
 -1       975 9.51628E-05-2.83448E-05-2.86363E-05 1.37204E-07 7.87697E-19-5.82873E-19
 -1       976 9.52035E-05-2.84208E-05-2.86212E-05 8.63414E-08-3.87422E-19-3.47482E-19
 -1       977 9.52283E-05-2.84729E-05-2.86094E-05 5.16361E-08-4.92343E-19-5.74765E-19
 -1       978 9.52434E-05-2.85102E-05-2.85999E-05 2.71788E-08-1.11410E-18-9.50573E-19
 -1       979 9.52519E-05-2.85363E-05-2.85924E-05 1.05417E-08-5.05846E-19 2.13043E-19
 -1       980 9.52558E-05-2.85541E-05-2.85865E-05-3.05026E-10-1.10348E-18 1.45380E-18
 -1       981 9.52568E-05-2.85657E-05-2.85819E-05-6.97280E-09-1.65208E-18 1.35412E-18
 -1       982 9.52559E-05-2.85733E-05-2.85783E-05-1.08074E-08-1.27742E-18 2.18984E-18
 -1       983 9.52539E-05-2.85774E-05-2.85756E-05-1.24176E-08-1.21328E-18 1.99269E-18
 -1       984 9.52515E-05-2.85796E-05-2.85737E-05-1.27503E-08 1.33464E-19 1.92935E-18
 -1       985 9.52510E-05-2.85824E-05-2.85723E-05-7.08795E-09 3.27580E-18-2.59091E-19
 -1       986 6.49961E-05-1.20035E-05-2.26575E-05-3.21732E-06 6.40576E-19 9.84371E-19
 -1       987 7.91443E-05-1.72290E-05-2.65379E-05-9.96836E-07-3.60995E-19 1.00336E-18
 -1       988 9.20245E-05-2.50135E-05-2.87191E-05 1.52126E-06 1.03303E-18 4.10443E-19
 -1       989 9.07583E-05-2.39784E-05-2.86200E-05 1.62559E-06 6.59525E-19-2.91280E-19
 -1       990 9.72921E-05-3.68689E-05-2.58587E-05-1.99191E-05 1.39923E-19-8.66069E-19
 -1       991 7.32010E-05-1.49711E-05-2.49446E-05-3.27655E-06 1.72849E-19 1.26091E-18
 -1       992 8.26394E-05-2.66693E-05-2.39663E-05-2.09482E-05 1.08904E-18-4.05471E-19
 -1       993 1.09936E-04-3.88833E-05-3.04705E-05 3.74967E-06-8.81336E-20 4.58510E-19
 -1       994 8.33849E-05-1.92502E-05-2.74863E-05 4.25219E-07 1.19108E-19-5.62985E-19
 -1       995 1.08387E-04-3.96233E-05-2.94380E-05 1.13323E-05 6.67441E-19 7.34529E-19
 -1       996 1.06178E-04-3.53809E-05-3.03355E-05 4.03902E-06 8.77622E-20-5.77198E-20
 -1       997 1.05691E-04-4.16158E-05-2.74404E-05-1.44539E-05 4.79883E-19-9.92825E-19
 -1       998 9.52551E-05-2.85817E-05-2.85743E-05 3.18609E-09 9.54925E-19-5.52767E-18
 -1       999 7.59571E-05-2.04434E-05-2.37514E-05-1.61242E-05 5.19541E-19-2.10993E-19
 -1      1000 9.52554E-05-2.85819E-05-2.85743E-05-1.98316E-09 1.57079E-18-1.90490E-18
 -1      1001 9.21786E-05-2.53183E-05-2.86546E-05 5.71170E-07 9.83804E-19 1.82214E-18
 -1      1002 9.52548E-05-2.85805E-05-2.85747E-05 7.48106E-09 1.58431E-18-4.85697E-18
 -1      1003 1.04424E-04-3.95632E-05-2.78423E-05-1.13534E-05 3.76904E-19-4.70597E-19
 -1      1004 9.95131E-05-3.49290E-05-2.76849E-05-1.05117E-05 3.50469E-19-1.07571E-19
 -1      1005 9.60381E-05-3.13151E-05-2.77421E-05-8.84176E-06-1.40721E-19 3.29000E-19
 -1      1006 9.41696E-05-2.89866E-05-2.79357E-05-7.02480E-06 1.62453E-19 5.42865E-19
 -1      1007 9.32407E-05-2.75800E-05-2.81401E-05-5.41344E-06 5.46023E-19 1.40593E-18
 -1      1008 9.29021E-05-2.68251E-05-2.83185E-05-4.07806E-06-4.60159E-19 1.26931E-18
 -1      1009 9.29206E-05-2.65168E-05-2.84587E-05-3.02440E-06 1.54152E-19 1.59420E-18
 -1      1010 9.31333E-05-2.64934E-05-2.85599E-05-2.21785E-06 8.79255E-19 1.63919E-18
 -1      1011 9.34340E-05-2.66374E-05-2.86271E-05-1.61280E-06-5.39807E-19 1.95077E-18
 -1      1012 9.37572E-05-2.68673E-05-2.86671E-05-1.16488E-06-5.58204E-19 5.86875E-19
 -1      1013 9.40650E-05-2.71292E-05-2.86868E-05-8.36082E-07-1.18598E-19 9.21103E-20
 -1      1014 9.43379E-05-2.73897E-05-2.86921E-05-5.96051E-07 6.26126E-19 1.34869E-18
 -1      1015 9.45682E-05-2.76296E-05-2.86880E-05-4.21532E-07 5.80325E-19 1.01684E-18
 -1      1016 9.47551E-05-2.78394E-05-2.86782E-05-2.95008E-07 6.59401E-19 7.30967E-19
 -1      1017 9.49019E-05-2.80159E-05-2.86655E-05-2.03579E-07-2.74954E-19 1.28501E-18
 -1      1018 9.50140E-05-2.81599E-05-2.86518E-05-1.37792E-07-7.65422E-20 1.58477E-18
 -1      1019 9.50970E-05-2.82744E-05-2.86383E-05-9.07978E-08-4.99800E-19 1.63562E-18
 -1      1020 9.51567E-05-2.83632E-05-2.86258E-05-5.74760E-08-8.13979E-19 1.96960E-18
 -1      1021 9.51982E-05-2.84304E-05-2.86148E-05-3.41907E-08-3.77520E-20 8.56802E-19
 -1      1022 9.52258E-05-2.84801E-05-2.86053E-05-1.81931E-08-1.42078E-18 7.86767E-19
 -1      1023 9.52431E-05-2.85160E-05-2.85973E-05-7.46714E-09-1.80836E-18 1.15651E-18
 -1      1024 9.52530E-05-2.85411E-05-2.85908E-05-5.20539E-10 2.22258E-19-2.66927E-19
 -1      1025 9.52577E-05-2.85581E-05-2.85856E-05 3.75001E-09 6.13292E-19-7.16487E-19
 -1      1026 9.52590E-05-2.85691E-05-2.85814E-05 6.17066E-09 6.45961E-19-4.70237E-19
 -1      1027 9.52581E-05-2.85757E-05-2.85781E-05 7.29532E-09 6.41263E-19-1.98127E-18
 -1      1028 9.40894E-05-2.70668E-05-2.87240E-05 4.89073E-07-6.89464E-19-8.73757E-19
 -1      1029 8.78544E-05-2.23253E-05-2.80838E-05-7.94051E-07 5.09996E-19 6.64121E-20
 -1      1030 9.36294E-05-2.66073E-05-2.87239E-05 5.65501E-07 1.68943E-19 7.99625E-19
 -1      1031 9.29977E-05-2.60207E-05-2.87046E-05 6.07250E-07 3.87172E-19 1.90174E-18
 -1      1032 9.44312E-05-2.74328E-05-2.87137E-05 4.01377E-07 5.50458E-19 6.82039E-19
 -1      1033 9.46826E-05-2.77208E-05-2.86980E-05 3.15790E-07 8.68874E-19 9.38266E-19
 -1      1034 9.48656E-05-2.79450E-05-2.86803E-05 2.39636E-07 6.79798E-19-3.54966E-19
 -1      1035 9.49972E-05-2.81178E-05-2.86626E-05 1.75658E-07 8.30024E-20-1.07170E-18
 -1      1036 9.50903E-05-2.82493E-05-2.86462E-05 1.24046E-07-5.37063E-19-1.46831E-19
 -1      1037 9.51574E-05-2.83523E-05-2.86308E-05 8.23186E-08 3.07496E-19 5.29514E-19
 -1      1038 9.52000E-05-2.84242E-05-2.86182E-05 5.27151E-08-1.02435E-18 1.38512E-18
 -1      1039 9.52276E-05-2.84765E-05-2.86076E-05 3.10798E-08-1.34608E-18 1.56214E-18
 -1      1040 9.52446E-05-2.85138E-05-2.85989E-05 1.58181E-08-1.19881E-18 1.25327E-18
 -1      1041 9.52541E-05-2.85397E-05-2.85919E-05 5.44507E-09-2.82652E-19 5.22061E-20
 -1      1042 9.52585E-05-2.85572E-05-2.85863E-05-1.29713E-09-3.48293E-18 1.31290E-18
 -1      1043 9.52596E-05-2.85689E-05-2.85817E-05-5.52714E-09-9.76100E-19 1.90539E-18
 -1      1044 9.52584E-05-2.85756E-05-2.85783E-05-7.66677E-09-1.46877E-18 1.36471E-18
 -1      1045 9.52561E-05-2.85794E-05-2.85757E-05-8.57711E-09-5.22657E-19 7.91301E-19
 -1      1046 7.30087E-05-1.65918E-05-2.41532E-05-9.72915E-06 7.81340E-19 1.42850E-18
 -1      1047 7.83876E-05-1.78998E-05-2.59258E-05-5.45832E-06 4.09295E-19 6.65227E-19
 -1      1048 9.02570E-05-2.97781E-05-2.59138E-05-1.62512E-05 8.28413E-19-1.54286E-20
 -1      1049 9.11035E-05-2.44739E-05-2.85558E-05 3.97305E-07-2.16210E-20 9.82700E-19
 -1      1050 8.97057E-05-2.34825E-05-2.83816E-05-5.14037E-09 2.65751E-19-1.71633E-19
 -1      1051 9.52578E-05-2.85793E-05-2.85765E-05 3.62383E-09 5.20548E-19-4.44519E-18
 -1      1052 9.52566E-05-2.85786E-05-2.85763E-05 7.54072E-09 8.51766E-19-5.10430E-18
 -1      1053 8.55521E-05-2.11064E-05-2.76189E-05-2.12322E-06 2.50714E-19-5.89247E-20
 -1      1054 8.44923E-05-2.47556E-05-2.55862E-05-1.43496E-05 1.11473E-18 2.38886E-19
 -1      1055 9.52584E-05-2.85797E-05-2.85766E-05-1.48649E-09-2.71228E-19-1.32499E-18
 -1      1056 9.52549E-05-2.85811E-05-2.85745E-05-6.80418E-09 1.25506E-18-7.97261E-19
 -1      1057 8.26898E-05-1.99109E-05-2.69036E-05-4.25437E-06 9.81207E-19-1.79427E-19
 -1      1058 8.94150E-05-2.36790E-05-2.81736E-05-2.00440E-06 1.41599E-19-1.46743E-18
 -1      1059 9.25573E-05-2.57470E-05-2.86332E-05-1.35023E-07 4.68153E-19 1.36217E-19
 -1      1060 9.16052E-05-2.76337E-05-2.74145E-05-8.96076E-06 1.05005E-18 2.62782E-19
 -1      1061 9.10811E-05-2.62783E-05-2.77735E-05-6.51054E-06 5.88563E-19-2.77121E-19
 -1      1062 9.11729E-05-2.56736E-05-2.80708E-05-4.59972E-06 2.69324E-19-9.42249E-20
 -1      1063 9.15674E-05-2.55441E-05-2.82954E-05-3.19289E-06-2.90663E-19-1.33436E-19
 -1      1064 9.20897E-05-2.56930E-05-2.84556E-05-2.18340E-06 1.85111E-19-1.27399E-18
 -1      1065 9.26377E-05-2.59897E-05-2.85634E-05-1.47503E-06-9.41534E-20-2.40213E-18
 -1      1066 9.31547E-05-2.63491E-05-2.86309E-05-9.86108E-07-7.49943E-19-2.08281E-18
 -1      1067 9.36128E-05-2.67187E-05-2.86689E-05-6.53469E-07-6.04631E-19-1.10508E-18
 -1      1068 9.40014E-05-2.70674E-05-2.86860E-05-4.29941E-07 1.72264E-18-1.08465E-18
 -1      1069 9.43200E-05-2.73785E-05-2.86892E-05-2.81040E-07 7.07327E-19 5.60454E-20
 -1      1070 9.45742E-05-2.76455E-05-2.86837E-05-1.82363E-07-5.75924E-19-3.05476E-20
 -1      1071 9.47719E-05-2.78676E-05-2.86733E-05-1.17268E-07 3.28652E-19-6.18826E-19
 -1      1072 9.49221E-05-2.80478E-05-2.86604E-05-7.44577E-08-2.13911E-19 5.20400E-19
 -1      1073 9.50335E-05-2.81907E-05-2.86469E-05-4.62347E-08 2.68722E-19 8.34271E-19
 -1      1074 9.51141E-05-2.83016E-05-2.86339E-05-2.77606E-08-5.12297E-19 1.30527E-19
 -1      1075 9.51707E-05-2.83859E-05-2.86220E-05-1.58126E-08-1.98793E-18-8.47102E-19
 -1      1076 9.52091E-05-2.84487E-05-2.86116E-05-8.07183E-09-9.28163E-19-1.68855E-18
 -1      1077 9.52339E-05-2.84944E-05-2.86027E-05-3.14382E-09-1.44967E-18-1.45740E-18
 -1      1078 9.52489E-05-2.85267E-05-2.85952E-05-8.77570E-11-1.38031E-18-2.02476E-18
 -1      1079 9.52570E-05-2.85490E-05-2.85892E-05 1.74038E-09-7.14750E-19-2.30386E-18
 -1      1080 9.52604E-05-2.85638E-05-2.85843E-05 2.78724E-09 3.63481E-19-3.41594E-18
 -1      1081 9.52603E-05-2.85728E-05-2.85804E-05 3.10582E-09-1.15995E-18-3.57740E-18
 -1      1082 9.44819E-05-2.75266E-05-2.86951E-05 1.45246E-07 2.67786E-19-1.29861E-18
 -1      1083 9.37678E-05-2.68033E-05-2.86991E-05 1.26741E-07 1.34192E-18 4.96197E-19
 -1      1084 7.95300E-05-2.00204E-05-2.54993E-05-1.01229E-05 8.68901E-19-8.84081E-19
 -1      1085 9.20429E-05-2.92889E-05-2.68852E-05-1.22249E-05 1.27839E-18-8.27468E-19
 -1      1086 9.47141E-05-2.77873E-05-2.86829E-05 1.25510E-07 1.27988E-19-7.48839E-20
 -1      1087 9.48859E-05-2.79931E-05-2.86683E-05 1.01059E-07 8.40091E-19 5.67555E-19
 -1      1088 9.50109E-05-2.81532E-05-2.86533E-05 7.69892E-08-1.00885E-18 3.22919E-19
 -1      1089 9.51037E-05-2.82809E-05-2.86383E-05 5.50055E-08-2.23910E-19-2.73657E-19
 -1      1090 9.51645E-05-2.83717E-05-2.86254E-05 3.78230E-08-1.38547E-18 3.80286E-19
 -1      1091 9.52055E-05-2.84390E-05-2.86142E-05 2.44106E-08-8.18136E-19 1.36721E-18
 -1      1092 9.52320E-05-2.84877E-05-2.86047E-05 1.44174E-08-2.04646E-18 4.97586E-19
 -1      1093 9.52480E-05-2.85222E-05-2.85968E-05 7.26699E-09 3.01920E-19 3.76782E-19
 -1      1094 9.52567E-05-2.85459E-05-2.85903E-05 2.36502E-09-1.96478E-18 8.87661E-19
 -1      1095 9.52606E-05-2.85624E-05-2.85849E-05-9.33496E-10-1.88682E-18-7.16729E-19
 -1      1096 9.52609E-05-2.85722E-05-2.85809E-05-2.83916E-09-5.37704E-19-9.82031E-19
 -1      1097 9.52585E-05-2.85783E-05-2.85773E-05-5.14954E-09 1.30593E-20-1.91350E-18
 -1      1098 9.17147E-05-2.51041E-05-2.85477E-05-4.69737E-07 6.94071E-20-7.62508E-19
 -1      1099 9.41730E-05-2.72016E-05-2.87020E-05 1.50890E-07 2.90616E-19-4.76383E-19
 -1      1100 8.36269E-05-2.14908E-05-2.66156E-05-7.51343E-06 3.08514E-19-8.78013E-19
 -1      1101 9.06780E-05-2.44032E-05-2.84042E-05-1.04711E-06-3.85721E-19-1.02822E-18
 -1      1102 9.32365E-05-2.63180E-05-2.86795E-05 4.51224E-08 9.71843E-20 3.11267E-19
 -1      1103 9.52595E-05-2.85767E-05-2.85783E-05 3.43057E-09-1.96481E-18-4.64088E-18
 -1      1104 8.79569E-05-2.30314E-05-2.78266E-05-3.48608E-06 4.74998E-19-1.00599E-18
 -1      1105 8.63279E-05-2.25860E-05-2.73181E-05-5.67443E-06 5.64155E-19-1.13576E-18
 -1      1106 9.52607E-05-2.85747E-05-2.85797E-05 1.32580E-10-6.01405E-19-2.75957E-18
 -1      1107 8.62656E-05-2.40964E-05-2.66549E-05-9.91924E-06 7.90980E-19-3.26856E-19
 -1      1108 1.20368E-04 2.68188E-10-4.32583E-05-4.13446E-05-2.08370E-19 3.34642E-18
 -1      1109 9.20797E-05 7.89687E-11-3.85968E-05-2.28146E-05-8.42798E-20-5.73971E-19
 -1      1110 8.68796E-05 4.76035E-11-3.68778E-05-1.56916E-05-5.56924E-20-1.94563E-18
 -1      1111 8.42748E-05 3.79269E-11-3.58288E-05-1.09141E-05-2.20229E-20-2.39050E-18
 -1      1112 8.23846E-05 3.26786E-11-3.50404E-05-6.93200E-06-1.05879E-21-2.50451E-18
 -1      1113 8.06784E-05 2.83032E-11-3.43403E-05-3.50172E-06 9.21148E-21-2.42592E-18
 -1      1114 7.89883E-05 2.34705E-11-3.36656E-05-5.99099E-07 1.05350E-20-2.27954E-18
 -1      1115 7.73535E-05 1.78543E-11-3.30335E-05 1.70702E-06 1.64113E-20-2.14434E-18
 -1      1116 7.59953E-05 1.19320E-11-3.25287E-05 3.30998E-06 1.94818E-20-1.93318E-18
 -1      1117 7.52220E-05 6.87398E-12-3.22664E-05 4.23479E-06 3.35240E-20-1.71817E-18
 -1      1118 7.53649E-05 4.29344E-12-3.23671E-05 4.67986E-06 4.29869E-20-1.50993E-18
 -1      1119 7.66640E-05 5.72836E-12-3.29135E-05 5.03760E-06 4.57927E-20-1.13712E-18
 -1      1120 7.92197E-05 1.23437E-11-3.39378E-05 5.86156E-06 5.62218E-20-5.74580E-19
 -1      1121 8.29962E-05 2.49066E-11-3.54200E-05 7.82963E-06 6.27863E-20 2.51767E-19
 -1      1122 8.79134E-05 4.49120E-11-3.73019E-05 1.17197E-05 6.64921E-20 1.57916E-18
 -1      1123 9.46235E-05 8.17253E-11-3.96648E-05 1.89319E-05 5.84453E-20 3.84365E-18
 -1      1124 1.12752E-04 1.86393E-10-4.31041E-05 3.36155E-05 4.76456E-20 7.68111E-18
 -1      1125 1.34245E-04-2.68187E-05-4.17057E-05-2.60533E-05-7.31836E-19 5.76575E-18
 -1      1126 1.02782E-04-3.04533E-05-3.32013E-05-4.91709E-07-2.55619E-19 3.95236E-18
 -1      1127 9.65054E-05-2.89144E-05-2.97364E-05 4.42591E-07-6.74450E-20 1.86112E-18
 -1      1128 9.48515E-05-2.85275E-05-2.85464E-05 2.59669E-07-6.03809E-20 5.36066E-19
 -1      1129 9.39327E-05-2.82252E-05-2.81101E-05 1.31633E-07-5.22782E-20-2.89685E-19
 -1      1130 9.27734E-05-2.78428E-05-2.77313E-05 3.24677E-08-1.13956E-19-8.74350E-19
 -1      1131 9.08946E-05-2.72609E-05-2.71701E-05-5.65685E-08 4.18280E-20-1.10356E-18
 -1      1132 8.81679E-05-2.64423E-05-2.63799E-05-1.32374E-07-2.15530E-20-1.59214E-18
 -1      1133 8.48098E-05-2.54488E-05-2.54280E-05-1.80250E-07-3.11703E-20-2.39747E-18
 -1      1134 8.13697E-05-2.44398E-05-2.44709E-05-1.82363E-07 7.40476E-20-2.96917E-18
 -1      1135 7.86150E-05-2.36369E-05-2.37171E-05-1.29674E-07 1.89987E-20-3.91238E-18
 -1      1136 7.72947E-05-2.32548E-05-2.33647E-05-3.18836E-08 2.64532E-20-4.09162E-18
 -1      1137 7.78573E-05-2.34216E-05-2.35303E-05 8.23669E-08-8.25394E-20-4.45027E-18
 -1      1138 8.02651E-05-2.41262E-05-2.42043E-05 1.77400E-07 1.50497E-20-5.15549E-18
 -1      1139 8.40089E-05-2.52228E-05-2.52538E-05 2.27358E-07 1.07726E-19-3.56611E-18
 -1      1140 8.83138E-05-2.64881E-05-2.64730E-05 2.26492E-07-1.16575E-19-3.51450E-18
 -1      1141 9.24148E-05-2.76994E-05-2.76524E-05 1.87190E-07 9.82591E-20-3.10985E-18
 -1      1142 9.57660E-05-2.86952E-05-2.86354E-05 1.29874E-07 7.61784E-20-2.31020E-18
 -1      1143 9.81166E-05-2.93993E-05-2.93424E-05 7.28573E-08-4.00620E-20-2.91408E-18
 -1      1144 9.94714E-05-2.98103E-05-2.97656E-05 2.71816E-08 1.24640E-20-2.62773E-18
 -1      1145 9.99959E-05-2.99750E-05-2.99452E-05-3.48753E-09-1.66326E-19-3.28566E-18
 -1      1146 9.99201E-05-2.99601E-05-2.99438E-05-2.04025E-08 1.08245E-20-3.86597E-18
 -1      1147 9.94702E-05-2.98321E-05-2.98258E-05-2.70012E-08 3.75267E-20-2.64916E-18
 -1      1148 9.88320E-05-2.96461E-05-2.96462E-05-2.70067E-08-2.93630E-19-3.68529E-18
 -1      1149 9.81395E-05-2.94421E-05-2.94457E-05-2.34848E-08 3.92292E-19-4.45244E-18
 -1      1150 9.74784E-05-2.92462E-05-2.92512E-05-1.85773E-08 1.03512E-19-2.25102E-18
 -1      1151 9.68957E-05-2.90726E-05-2.90777E-05-1.35879E-08 2.63031E-19-4.14515E-19
 -1      1152 9.64109E-05-2.89276E-05-2.89321E-05-9.19342E-09-5.72000E-20-1.43046E-18
 -1      1153 9.60259E-05-2.88120E-05-2.88156E-05-5.65819E-09 7.16549E-20-2.35579E-18
 -1      1154 9.57323E-05-2.87235E-05-2.87263E-05-3.00566E-09 1.20717E-19-2.35552E-18
 -1      1155 9.55171E-05-2.86584E-05-2.86604E-05-1.13726E-09 7.30322E-20-2.92448E-19
 -1      1156 9.53657E-05-2.86124E-05-2.86137E-05 9.30170E-11-1.00625E-19-7.94410E-19
 -1      1157 9.52641E-05-2.85814E-05-2.85822E-05 8.36240E-10-9.81559E-20-2.31041E-18
 -1      1158 9.52002E-05-2.85617E-05-2.85622E-05 1.22750E-09 1.37272E-19-2.64549E-18
 -1      1159 9.51636E-05-2.85503E-05-2.85505E-05 1.37775E-09 2.49936E-19-2.49532E-18
 -1      1160 9.51462E-05-2.85447E-05-2.85448E-05 1.37284E-09 7.92850E-20-2.51633E-18
 -1      1161 9.51417E-05-2.85431E-05-2.85431E-05 1.27604E-09 1.87772E-20-1.10388E-18
 -1      1162 9.51453E-05-2.85440E-05-2.85439E-05 1.13196E-09-1.54234E-19-1.74306E-18
 -1      1163 9.51537E-05-2.85464E-05-2.85462E-05 9.70636E-10-3.95047E-20 6.95370E-19
 -1      1164 9.51645E-05-2.85495E-05-2.85494E-05 8.11242E-10-2.45173E-19-2.78362E-18
 -1      1165 9.51762E-05-2.85529E-05-2.85528E-05 6.65111E-10-3.74692E-19-5.66908E-18
 -1      1166 9.51877E-05-2.85563E-05-2.85562E-05 5.38127E-10 5.86070E-19-4.38618E-18
 -1      1167 9.51984E-05-2.85595E-05-2.85594E-05 4.32439E-10-4.36434E-19-4.44761E-18
 -1      1168 9.52082E-05-2.85624E-05-2.85623E-05 3.47538E-10 2.02403E-19-4.22478E-18
 -1      1169 9.52167E-05-2.85650E-05-2.85649E-05 2.80592E-10-1.09813E-19-2.83126E-18
 -1      1170 9.52240E-05-2.85672E-05-2.85671E-05 2.25883E-10 1.26915E-19-1.89043E-18
 -1      1171 9.52300E-05-2.85689E-05-2.85689E-05 1.72135E-10 2.63023E-19-2.76762E-19
 -1      1172 9.52344E-05-2.85703E-05-2.85701E-05 9.43664E-11 4.37293E-19 1.22702E-18
 -1      1173 9.52369E-05-2.85710E-05-2.85709E-05-5.70736E-11-5.52788E-20 1.70719E-18
 -1      1174 9.52375E-05-2.85712E-05-2.85714E-05-1.11749E-10 3.41323E-19 1.68805E-18
 -1      1175 1.37279E-04-3.93078E-05-4.13361E-05 1.18526E-05-9.56353E-20 1.05303E-17
 -1      1176 1.09347E-04-3.20945E-05-3.52366E-05 6.48961E-07-1.31290E-20 9.73569E-18
 -1      1177 1.08699E-04-3.25128E-05-3.34570E-05 9.79479E-08-2.13082E-21 8.71819E-18
 -1      1178 1.13045E-04-3.39738E-05-3.42833E-05-1.76229E-08 4.66596E-20 7.55019E-18
 -1      1179 1.20765E-04-3.62749E-05-3.64998E-05-1.60652E-07-4.66927E-20 6.96663E-18
 -1      1180 1.31123E-04-3.92980E-05-3.94702E-05-4.01670E-07 5.50803E-20 6.54386E-18
 -1      1181 1.42821E-04-4.26672E-05-4.25636E-05-7.40001E-07 3.39243E-20 6.89040E-18
 -1      1182 1.51642E-04-4.52228E-05-4.44383E-05-9.11748E-07 1.88200E-20 7.17633E-18
 -1      1183 1.50623E-04-4.50077E-05-4.34893E-05-3.83379E-07-4.30134E-20 8.25412E-18
 -1      1184 1.33761E-04-4.02961E-05-3.89925E-05 1.21876E-06-1.43069E-20 9.53420E-18
 -1      1185 1.04374E-04-3.16200E-05-3.25749E-05 2.84949E-06-2.46447E-19 9.72224E-18
 -1      1186 8.18635E-05-2.40986E-05-2.83283E-05 2.33478E-06 4.46810E-20 7.90186E-18
 -1      1187 8.52209E-05-2.46664E-05-2.91699E-05-4.16717E-07 2.12552E-20 4.93820E-18
 -1      1188 1.07299E-04-3.15500E-05-3.36997E-05-2.23910E-06 6.71406E-20 1.67585E-18
 -1      1189 1.35054E-04-4.03270E-05-3.98883E-05-2.60512E-06 1.83601E-19-8.88961E-19
 -1      1190 1.53720E-04-4.63952E-05-4.46167E-05-1.62469E-06 2.88388E-20-1.36118E-18
 -1      1191 1.55944E-04-4.70645E-05-4.57086E-05-4.53878E-07-1.39277E-19 3.99932E-19
 -1      1192 1.48056E-04-4.45497E-05-4.40022E-05 2.10477E-07-1.09982E-20 8.45868E-19
 -1      1193 1.36871E-04-4.10809E-05-4.10657E-05 4.24267E-07 8.25244E-20 1.05689E-18
 -1      1194 1.26015E-04-3.77851E-05-3.79680E-05 4.15940E-07-1.38573E-19 1.70555E-18
 -1      1195 1.17210E-04-3.51381E-05-3.53465E-05 3.21939E-07-1.15506E-19 2.20128E-18
 -1      1196 1.10756E-04-3.32098E-05-3.33769E-05 2.32576E-07 3.55353E-19 9.95078E-19
 -1      1197 1.06059E-04-3.18086E-05-3.19285E-05 1.61045E-07-2.87675E-19 1.16775E-18
 -1      1198 1.02706E-04-3.08085E-05-3.08903E-05 1.09242E-07-1.76628E-20 2.18602E-18
 -1      1199 1.00338E-04-3.01013E-05-3.01561E-05 7.34700E-08-4.07494E-20 3.56647E-18
 -1      1200 9.86427E-05-2.95931E-05-2.96301E-05 5.07101E-08-1.15130E-19 4.21264E-18
 -1      1201 9.74640E-05-2.92410E-05-2.92650E-05 3.19717E-08 1.17782E-19 2.36986E-18
 -1      1202 9.66703E-05-2.90030E-05-2.90191E-05 2.12583E-08-2.81417E-19 1.31816E-18
 -1      1203 9.61228E-05-2.88386E-05-2.88495E-05 1.40144E-08 2.17712E-20 8.73880E-19
 -1      1204 9.57497E-05-2.87264E-05-2.87338E-05 9.11749E-09 4.20628E-19-1.85586E-18
 -1      1205 9.54998E-05-2.86513E-05-2.86562E-05 5.82832E-09-4.18071E-19 1.48492E-19
 -1      1206 9.53338E-05-2.86010E-05-2.86044E-05 3.80145E-09 1.65007E-19 9.78146E-19
 -1      1207 9.52305E-05-2.85700E-05-2.85721E-05 1.95712E-09-2.22400E-19-1.00260E-18
 -1      1208 9.51720E-05-2.85522E-05-2.85536E-05 9.78901E-10-1.14878E-19-1.78068E-18
 -1      1209 9.51414E-05-2.85429E-05-2.85437E-05 3.42224E-10-2.36840E-19-4.21291E-18
 -1      1210 9.51293E-05-2.85392E-05-2.85396E-05-5.44074E-11-3.94888E-19-2.58756E-18
 -1      1211 9.51291E-05-2.85390E-05-2.85392E-05-2.79796E-10-5.10924E-19-1.59999E-18
 -1      1212 9.51363E-05-2.85411E-05-2.85412E-05-3.81823E-10 2.80926E-20-3.46570E-18
 -1      1213 9.51475E-05-2.85444E-05-2.85444E-05-4.58869E-10 7.16722E-19-5.76316E-18
 -1      1214 9.51601E-05-2.85481E-05-2.85480E-05-4.58464E-10-2.57416E-19-5.77996E-18
 -1      1215 9.51730E-05-2.85520E-05-2.85519E-05-4.31596E-10-2.57833E-19 2.53288E-19
 -1      1216 9.51854E-05-2.85557E-05-2.85555E-05-3.91319E-10-3.70953E-21 2.94498E-18
 -1      1217 9.51968E-05-2.85591E-05-2.85589E-05-3.46062E-10 2.14442E-20 2.13662E-18
 -1      1218 9.52071E-05-2.85622E-05-2.85620E-05-3.08063E-10 3.63938E-19-1.74197E-19
 -1      1219 9.52162E-05-2.85649E-05-2.85648E-05-2.69867E-10 9.29587E-20-2.89395E-18
 -1      1220 9.52236E-05-2.85671E-05-2.85670E-05-2.45831E-10 7.53825E-20-2.42186E-18
 -1      1221 9.52297E-05-2.85689E-05-2.85688E-05-2.28886E-10 7.82591E-19-2.77873E-18
 -1      1222 9.52342E-05-2.85702E-05-2.85701E-05-2.03089E-10 2.64465E-19-1.31378E-18
 -1      1223 9.52369E-05-2.85710E-05-2.85709E-05-1.11192E-10 1.90758E-19 2.77059E-18
 -1      1224 9.52374E-05-2.85712E-05-2.85713E-05 9.10122E-11 2.41064E-19 3.97131E-18
 -1      1225 9.52371E-05-2.85709E-05-2.85713E-05 1.02444E-10 4.33837E-18 4.28545E-19
 -1      1226 9.52373E-05-2.85714E-05-2.85709E-05 4.89994E-11 2.25298E-18-5.87929E-19
 -1      1227 9.52380E-05-2.85739E-05-2.85702E-05-1.30134E-10 5.74414E-18 1.28846E-18
 -1      1228 9.52392E-05-2.85778E-05-2.85691E-05-1.98426E-10 5.95538E-18-1.35597E-18
 -1      1229 9.52405E-05-2.85823E-05-2.85678E-05-2.06426E-10 6.42217E-18 7.58790E-21
 -1      1230 9.52417E-05-2.85866E-05-2.85666E-05-1.77206E-10 1.48733E-18-1.48322E-18
 -1      1231 9.52428E-05-2.85901E-05-2.85656E-05-1.30050E-10-2.50328E-18 1.12119E-18
 -1      1232 9.52434E-05-2.85923E-05-2.85649E-05-6.73041E-11 1.45220E-19-6.89705E-21
 -1      1233 9.52437E-05-2.85931E-05-2.85647E-05 1.09283E-12-4.81221E-19 1.08172E-18
 -1      1234 9.52434E-05-2.85923E-05-2.85649E-05 6.92594E-11-1.82813E-19-1.44884E-19
 -1      1235 9.52427E-05-2.85900E-05-2.85656E-05 1.31142E-10-9.91446E-19-7.93064E-19
 -1      1236 9.52417E-05-2.85865E-05-2.85666E-05 1.79832E-10-7.78337E-18 5.97254E-19
 -1      1237 9.52405E-05-2.85822E-05-2.85678E-05 2.05204E-10-9.67854E-18 2.70721E-19
 -1      1238 9.52391E-05-2.85778E-05-2.85691E-05 1.99689E-10-8.33623E-18 1.22284E-19
 -1      1239 9.52380E-05-2.85738E-05-2.85702E-05 1.54949E-10-5.17768E-18 2.44996E-19
 -1      1240 9.52373E-05-2.85715E-05-2.85709E-05-1.13744E-10-8.44374E-19-7.53029E-19
 -1      1241 9.52370E-05-2.85708E-05-2.85714E-05-1.01861E-10-1.59591E-18 9.31993E-20
 -1      1242 3.77401E-05-1.19581E-04 2.08949E-05-1.65086E-05 1.81223E-18 4.81353E-19
 -1      1243 2.01741E-05-8.11725E-05 1.34111E-05-3.29378E-05 7.82997E-18 3.73393E-18
 -1      1244 7.01224E-06-2.39547E-05-2.11573E-06-1.36090E-05 1.37931E-17 9.19285E-18
 -1      1245 2.76378E-05 1.53360E-05-2.23185E-05 3.75232E-05 1.35898E-17 1.26428E-17
 -1      1246 1.00204E-04 1.24606E-05-4.49426E-05 9.35695E-05 8.77696E-18 1.14790E-17
 -1      1247 2.15825E-04-3.34417E-05-6.68746E-05 1.14076E-04 3.46860E-18 6.67970E-18
 -1      1248 3.22615E-04-8.96834E-05-8.18034E-05 7.39957E-05 5.75029E-19 2.70034E-18
 -1      1249 3.54614E-04-1.07218E-04-8.60016E-05-1.47077E-05 7.31572E-19-4.27752E-18
 -1      1250 2.93207E-04-7.17444E-05-7.82609E-05-9.45135E-05 3.68989E-18-1.13130E-17
 -1      1251 1.77429E-04-1.46590E-05-6.06416E-05-1.16388E-04 7.24467E-18-1.44927E-17
 -1      1252 7.01703E-05 1.90476E-05-3.74264E-05-7.65305E-05 9.35633E-18-1.18076E-17
 -1      1253 1.43057E-05 4.72604E-06-1.40909E-05-1.52495E-05 8.18911E-18-6.96939E-18
 -1      1254 9.88038E-06-4.59477E-05 4.53168E-06 2.60091E-05 3.96750E-18-2.37508E-18
 -1      1255 2.77253E-05-9.82714E-05 1.68456E-05 2.97202E-05-1.46537E-19-3.68248E-19
 -1      1256 3.97652E-05-1.21821E-04 2.10814E-05 5.69828E-06-4.93757E-18-2.02547E-19
 -1      1257 3.03091E-05-9.73738E-05 1.64051E-05-2.07558E-05-8.76849E-18-1.87279E-18
 -1      1258 1.12760E-05-4.07878E-05 3.77776E-06-1.83823E-05-1.09013E-17-4.80734E-18
 -1      1259 1.25766E-05 1.11544E-05-1.42043E-05 2.10115E-05-1.12825E-17-8.07307E-18
 -1      1260 5.45222E-05 2.95126E-05-3.46219E-05 7.62988E-05-9.14457E-18-9.79339E-18
 -1      1261 1.41541E-04 2.90068E-06-5.47824E-05 1.14891E-04-5.33885E-18-8.49066E-18
 -1      1262 2.43947E-04-5.04967E-05-7.10542E-05 1.04407E-04-1.47341E-18-3.65918E-18
 -1      1263 3.10260E-04-9.04447E-05-7.98377E-05 4.20315E-05-8.08387E-20 2.67027E-18
 -1      1264 3.11302E-04-9.13288E-05-7.98620E-05-4.32879E-05-1.30345E-18 8.86124E-18
 -1      1265 2.37391E-04-4.61492E-05-7.02888E-05-1.06679E-04-4.72560E-18 1.27758E-17
 -1      1266 1.31955E-04 7.62764E-06-5.29934E-05-1.13408E-04-8.27975E-18 1.30884E-17
 -1      1267 4.79451E-05 2.93682E-05-3.21134E-05-6.96098E-05-1.10148E-17 1.10165E-17
 -1      1268 1.02129E-05 3.97512E-06-1.08347E-05-1.25973E-05-1.22735E-17 8.43984E-18
 -1      1269 1.57402E-05-5.62649E-05 7.51571E-06 2.15168E-05-8.14507E-18 3.42710E-18
 -1      1270 3.50476E-05-1.09714E-04 1.88992E-05 1.37086E-05-2.64994E-18 6.94329E-19
 -1      1271 1.08753E-04-2.30396E-05-3.93278E-05-1.67289E-05-2.85238E-19 2.29355E-18
 -1      1272 9.40603E-05-7.36933E-06-3.73057E-05-1.89161E-05-5.67671E-19-1.24667E-18
 -1      1273 9.67013E-05-7.50678E-06-3.85906E-05-2.45810E-05-8.10822E-19-5.42578E-19
 -1      1274 8.89306E-05-4.70678E-06-3.61443E-05-1.41895E-05-4.39610E-19-2.15573E-18
 -1      1275 9.05616E-05-4.71580E-06-3.67645E-05-1.69614E-05-5.38289E-19-1.79552E-18
 -1      1276 9.61047E-05-1.16243E-05-3.62878E-05-1.73802E-05-9.39836E-19-9.98070E-19
 -1      1277 8.62084E-05-3.78352E-06-3.53179E-05-9.89539E-06-1.91377E-19-2.48673E-18
 -1      1278 8.73023E-05-3.75925E-06-3.57457E-05-1.20481E-05-2.95879E-19-2.36092E-18
 -1      1279 9.10568E-05-8.51705E-06-3.54596E-05-1.31562E-05-6.14919E-19-1.75961E-18
 -1      1280 8.41199E-05-3.26589E-06-3.46266E-05-6.10723E-06-4.94455E-20-2.51237E-18
 -1      1281 8.50500E-05-3.25577E-06-3.49859E-05-7.96261E-06-1.01750E-19-2.52890E-18
 -1      1282 8.80588E-05-7.06475E-06-3.47868E-05-9.04958E-06-2.81493E-19-2.05398E-18
 -1      1283 8.21625E-05-2.82860E-06-3.39774E-05-2.82688E-06 1.09426E-19-2.42069E-18
 -1      1284 8.30716E-05-2.83201E-06-3.43151E-05-4.40842E-06 6.29187E-20-2.47454E-18
 -1      1285 8.56920E-05-6.10603E-06-3.41726E-05-5.39487E-06-5.45939E-21-2.05758E-18
 -1      1286 8.01240E-05-2.33857E-06-3.33301E-05-1.66093E-09 2.46487E-19-2.25618E-18
 -1      1287 8.10666E-05-2.35557E-06-3.36629E-05-1.33563E-06 1.94871E-19-2.34408E-18
 -1      1288 8.33881E-05-5.20782E-06-3.35644E-05-2.17961E-06 2.20123E-19-1.97615E-18
 -1      1289 7.81206E-05-1.76749E-06-3.27396E-05 2.19921E-06 3.58136E-19-2.06430E-18
 -1      1290 7.90102E-05-1.79411E-06-3.30342E-05 1.18707E-06 3.23117E-19-2.15411E-18
 -1      1291 8.09954E-05-4.20346E-06-3.29662E-05 5.48006E-07 4.31987E-19-1.75139E-18
 -1      1292 7.64331E-05-1.16474E-06-3.22971E-05 3.69869E-06 4.62851E-19-1.86605E-18
 -1      1293 7.71175E-05-1.19512E-06-3.25024E-05 3.02793E-06 4.37069E-19-1.98826E-18
 -1      1294 7.86742E-05-3.10184E-06-3.24410E-05 2.64029E-06 6.67912E-19-1.61815E-18
 -1      1295 7.54798E-05-6.50701E-07-3.21214E-05 4.54040E-06 5.92679E-19-1.68910E-18
 -1      1296 7.57597E-05-6.76433E-07-3.21744E-05 4.16294E-06 5.42723E-19-1.79809E-18
 -1      1297 7.68012E-05-2.05341E-06-3.20849E-05 4.03130E-06 8.35492E-19-1.45500E-18
 -1      1298 7.57108E-05-3.90934E-07-3.23265E-05 4.95353E-06 6.72028E-19-1.48737E-18
 -1      1299 7.53930E-05-4.01970E-07-3.21703E-05 4.72814E-06 6.51620E-19-1.61969E-18
 -1      1300 7.59008E-05-1.32143E-06-3.20105E-05 4.79334E-06 1.01875E-18-1.31511E-18
 -1      1301 7.74214E-05-5.37247E-07-3.29702E-05 5.35891E-06 7.51636E-19-1.05398E-18
 -1      1302 7.64109E-05-5.31127E-07-3.25826E-05 5.05852E-06 7.01343E-19-1.30937E-18
 -1      1303 7.64902E-05-1.21055E-06-3.23101E-05 5.19430E-06 1.11402E-18-1.07481E-18
 -1      1304 8.07981E-05-1.20930E-06-3.40837E-05 6.34897E-06 8.95102E-19-4.57398E-19
 -1      1305 7.90358E-05-1.18136E-06-3.34509E-05 5.66680E-06 8.14157E-19-7.93379E-19
 -1      1306 7.89339E-05-1.97621E-06-3.30316E-05 5.69345E-06 1.29214E-18-6.00335E-19
 -1      1307 8.57373E-05-2.47328E-06-3.56027E-05 8.58627E-06 9.48889E-19 4.11234E-19
 -1      1308 8.33140E-05-2.43101E-06-3.47598E-05 7.18236E-06 9.03572E-19-1.31475E-19
 -1      1309 8.33989E-05-3.81415E-06-3.41631E-05 6.88959E-06 1.45948E-18-1.78142E-20
 -1      1310 9.21866E-05-4.46758E-06-3.74473E-05 1.28125E-05 9.28666E-19 1.87705E-18
 -1      1311 8.91243E-05-4.40414E-06-3.64137E-05 1.02377E-05 8.67997E-19 1.03237E-18
 -1      1312 8.98401E-05-6.90297E-06-3.56001E-05 9.39282E-06 1.42675E-18 9.66094E-19
 -1      1313 1.01369E-04-8.43513E-06-3.96452E-05 2.02331E-05 6.59839E-19 4.22606E-18
 -1      1314 9.69698E-05-7.86827E-06-3.83109E-05 1.53723E-05 6.77838E-19 2.83184E-18
 -1      1315 9.86451E-05-1.19685E-05-3.71609E-05 1.35403E-05 1.26782E-18 2.47598E-18
 -1      1316 1.31246E-04-2.69743E-05-4.16060E-05 2.59035E-05 1.79042E-19 7.83717E-18
 -1      1317 1.08675E-04-1.66651E-05-4.00205E-05 2.02056E-05 2.72850E-19 5.41561E-18
 -1      1318 1.10967E-04-2.20736E-05-3.81021E-05 1.63032E-05 9.75544E-19 4.53925E-18
 -1      1319 1.12899E-04-3.10741E-05-3.77508E-05 4.75291E-06 4.35057E-19 7.83082E-18
 -1      1320 1.10098E-04-3.17872E-05-3.50057E-05-7.35156E-06-7.19025E-19 2.57922E-18
 -1      1321 1.03701E-04-2.95527E-05-3.23528E-05-4.47414E-06-6.35381E-19 1.73234E-18
 -1      1322 1.01118E-04-2.96096E-05-3.09017E-05-2.16692E-06-4.25105E-19 1.47116E-18
 -1      1323 9.91551E-05-2.94141E-05-2.99355E-05-1.79257E-06-4.30928E-19 8.30754E-19
 -1      1324 1.04664E-04-2.97614E-05-3.24667E-05-7.12151E-06-1.05921E-18 6.56080E-19
 -1      1325 9.75181E-05-2.90806E-05-2.93131E-05-8.72418E-07-3.64237E-19 6.34322E-19
 -1      1326 9.67213E-05-2.89700E-05-2.89862E-05-8.40939E-07-3.15798E-19 1.59983E-19
 -1      1327 1.00161E-04-2.95739E-05-3.03568E-05-2.92509E-06-7.25140E-19 3.20549E-19
 -1      1328 9.57766E-05-2.87426E-05-2.86754E-05-6.40329E-07-1.99473E-19-1.11226E-19
 -1      1329 9.51977E-05-2.86201E-05-2.84914E-05-6.76311E-07-2.75410E-19-4.49430E-19
 -1      1330 9.78472E-05-2.93052E-05-2.93807E-05-1.61825E-06-5.82176E-19-1.09995E-19
 -1      1331 9.44343E-05-2.84175E-05-2.82532E-05-8.12413E-07-1.40227E-19-5.11171E-19
 -1      1332 9.36577E-05-2.82013E-05-2.80260E-05-8.89849E-07-1.01077E-19-6.45337E-19
 -1      1333 9.62327E-05-2.89934E-05-2.87997E-05-1.54453E-06-3.67748E-19-4.44189E-19
 -1      1334 9.28152E-05-2.79612E-05-2.77671E-05-1.17278E-06-1.48395E-19-6.44336E-19
 -1      1335 9.16761E-05-2.76089E-05-2.74394E-05-1.26360E-06-1.24415E-19-8.70869E-19
 -1      1336 9.46818E-05-2.85964E-05-2.82986E-05-2.04698E-06-2.93350E-19-3.11290E-19
 -1      1337 9.06536E-05-2.72989E-05-2.71321E-05-1.54539E-06-1.05643E-19-9.54103E-19
 -1      1338 8.91653E-05-2.68146E-05-2.67095E-05-1.61598E-06-2.80297E-19-1.19680E-18
 -1      1339 9.28554E-05-2.80371E-05-2.77565E-05-2.73175E-06-3.25998E-19-5.68625E-19
 -1      1340 8.79973E-05-2.64417E-05-2.63683E-05-1.75244E-06-2.23015E-19-1.20223E-18
 -1      1341 8.63406E-05-2.58853E-05-2.59038E-05-1.76708E-06-2.25214E-19-1.53218E-18
 -1      1342 9.06864E-05-2.72952E-05-2.71553E-05-3.24655E-06-4.52289E-19-5.69279E-19
 -1      1343 8.51827E-05-2.54997E-05-2.55749E-05-1.63943E-06-2.04426E-19-1.79081E-18
 -1      1344 8.36748E-05-2.49813E-05-2.51569E-05-1.57262E-06-2.53043E-19-2.03529E-18
 -1      1345 8.83619E-05-2.64402E-05-2.65455E-05-3.26867E-06-4.70767E-19-7.06161E-19
 -1      1346 8.27622E-05-2.46665E-05-2.49044E-05-1.13463E-06-3.47780E-19-2.22611E-18
 -1      1347 8.17704E-05-2.43181E-05-2.46327E-05-9.86271E-07-1.71769E-19-2.64363E-18
 -1      1348 8.62761E-05-2.56320E-05-2.60228E-05-2.59085E-06-5.45099E-19-1.02986E-18
 -1      1349 8.13390E-05-2.41621E-05-2.45178E-05-3.00927E-07 2.92524E-20-2.97021E-18
 -1      1350 8.11545E-05-2.40908E-05-2.44701E-05-1.03015E-07-1.31370E-19-3.01930E-18
 -1      1351 8.49111E-05-2.50779E-05-2.56957E-05-1.22825E-06-3.13574E-19-1.55714E-18
 -1      1352 8.13456E-05-2.41483E-05-2.45283E-05 6.66727E-07-2.13965E-19-2.90407E-18
 -1      1353 8.20682E-05-2.43912E-05-2.47312E-05 8.60357E-07-3.36471E-19-3.39081E-18
 -1      1354 8.46564E-05-2.49517E-05-2.56475E-05 5.43393E-07-2.53296E-19-1.84113E-18
 -1      1355 8.28658E-05-2.46561E-05-2.49584E-05 1.51457E-06-1.15924E-19-3.31412E-18
 -1      1356 8.43615E-05-2.51639E-05-2.53762E-05 1.65192E-06 2.74611E-19-3.24816E-18
 -1      1357 8.56421E-05-2.53134E-05-2.59051E-05 2.27619E-06-2.39995E-19-2.04617E-18
 -1      1358 8.55958E-05-2.55718E-05-2.57293E-05 2.03790E-06 3.63033E-19-2.78195E-18
 -1      1359 8.75515E-05-2.62304E-05-2.62778E-05 2.09114E-06 1.25374E-19-2.52951E-18
 -1      1360 8.76755E-05-2.60781E-05-2.64265E-05 3.53529E-06 3.06037E-19-1.95807E-18
 -1      1361 8.89679E-05-2.66878E-05-2.66900E-05 2.15836E-06-1.05135E-19-2.28484E-18
 -1      1362 9.10091E-05-2.73646E-05-2.72672E-05 2.13100E-06-4.82106E-20-2.30875E-18
 -1      1363 9.03194E-05-2.70560E-05-2.71149E-05 4.07377E-06 1.28772E-19-1.47131E-18
 -1      1364 9.23587E-05-2.77856E-05-2.76694E-05 1.92990E-06 3.36504E-19-2.38690E-18
 -1      1365 9.41676E-05-2.83726E-05-2.81862E-05 1.84769E-06 3.12868E-19-2.09938E-18
 -1      1366 9.30604E-05-2.80344E-05-2.78500E-05 3.89739E-06 2.42756E-19-1.00450E-18
 -1      1367 9.52728E-05-2.87024E-05-2.85251E-05 1.48593E-06 6.02585E-20-1.96091E-18
 -1      1368 9.66569E-05-2.91394E-05-2.89254E-05 1.38107E-06 2.46731E-20-2.02288E-18
 -1      1369 9.54711E-05-2.88510E-05-2.85222E-05 3.20479E-06 3.79888E-19-1.17734E-18
 -1      1370 9.74347E-05-2.93580E-05-2.91723E-05 9.71584E-07 1.29192E-19-2.14491E-18
 -1      1371 9.83348E-05-2.96316E-05-2.94366E-05 8.70370E-07-2.31412E-20-1.97665E-18
 -1      1372 9.72982E-05-2.94265E-05-2.90565E-05 2.26694E-06-5.69067E-20-1.44615E-18
 -1      1373 9.87831E-05-2.97458E-05-2.95864E-05 4.97183E-07-2.22776E-19-1.84617E-18
 -1      1374 9.92404E-05-2.98751E-05-2.97239E-05 4.15008E-07-3.57307E-19-2.42544E-18
 -1      1375 9.84672E-05-2.97555E-05-2.94206E-05 1.32199E-06-1.24160E-19-1.50497E-18
 -1      1376 9.94093E-05-2.99059E-05-2.97880E-05 1.22972E-07-3.55241E-20-2.41673E-18
 -1      1377 9.95193E-05-2.99260E-05-2.98244E-05 6.51380E-08-3.40122E-19-2.71305E-18
 -1      1378 9.90349E-05-2.98780E-05-2.96182E-05 5.23340E-07-5.15793E-19-1.61749E-18
 -1      1379 9.94813E-05-2.98984E-05-2.98230E-05-1.33972E-07-3.86616E-19-2.13594E-18
 -1      1380 9.93540E-05-2.98468E-05-2.97894E-05-1.68863E-07 2.21390E-19-2.40910E-18
 -1      1381 9.91287E-05-2.98519E-05-2.96768E-05-6.33538E-08-3.98456E-19-1.19025E-18
 -1      1382 9.91826E-05-2.97840E-05-2.97443E-05-2.84134E-07 2.21856E-19-2.76233E-18
 -1      1383 9.89178E-05-2.96929E-05-2.96693E-05-3.00725E-07-1.86799E-19-2.43525E-18
 -1      1384 9.88955E-05-2.97335E-05-2.96337E-05-4.36835E-07-8.56215E-20-1.97928E-18
 -1      1385 9.86755E-05-2.96134E-05-2.95999E-05-3.50714E-07-3.77918E-19-2.16723E-18
 -1      1386 9.83508E-05-2.95071E-05-2.95061E-05-3.54434E-07-1.97397E-19-2.84504E-18
 -1      1387 9.84694E-05-2.95683E-05-2.95265E-05-6.31483E-07-3.84104E-19-1.87846E-18
 -1      1388 9.80845E-05-2.94239E-05-2.94273E-05-3.59329E-07 3.08963E-19-2.77083E-18
 -1      1389 9.77534E-05-2.93184E-05-2.93308E-05-3.55043E-07 4.40125E-19-2.27428E-18
 -1      1390 9.79568E-05-2.93890E-05-2.93867E-05-6.94322E-07 1.83548E-20-1.42993E-18
 -1      1391 9.74944E-05-2.92398E-05-2.92527E-05-3.32456E-07 7.61728E-19-2.60872E-18
 -1      1392 9.71895E-05-2.91444E-05-2.91632E-05-3.23934E-07 6.25357E-19-1.56467E-18
 -1      1393 9.74330E-05-2.92167E-05-2.92378E-05-6.70821E-07 5.69816E-19-1.48794E-18
 -1      1394 9.69563E-05-2.90751E-05-2.90922E-05-2.87336E-07 4.89484E-19-1.18751E-18
 -1      1395 9.66940E-05-2.89942E-05-2.90148E-05-2.77202E-07 3.02857E-19-8.36394E-19
 -1      1396 9.69455E-05-2.90628E-05-2.90956E-05-5.98184E-07 7.77938E-19-1.36169E-18
 -1      1397 9.64954E-05-2.89360E-05-2.89539E-05-2.35890E-07-3.04487E-19-9.22685E-19
 -1      1398 9.62811E-05-2.88708E-05-2.88904E-05-2.25794E-07-4.83111E-19-1.56043E-18
 -1      1399 9.65194E-05-2.89327E-05-2.89691E-05-5.03574E-07-1.44723E-19-1.19789E-18
 -1      1400 9.61192E-05-2.88239E-05-2.88405E-05-1.85567E-07 8.76104E-20-1.37267E-18
 -1      1401 9.59515E-05-2.87735E-05-2.87906E-05-1.76432E-07 2.23257E-19-1.66680E-18
 -1      1402 9.61647E-05-2.88272E-05-2.88621E-05-4.04955E-07-3.74128E-19-9.27507E-19
 -1      1403 9.58245E-05-2.87370E-05-2.87513E-05-1.40466E-07 1.50427E-19-1.88707E-18
 -1      1404 9.56984E-05-2.86995E-05-2.87137E-05-1.32709E-07 3.56252E-19-1.31333E-18
 -1      1405 9.58810E-05-2.87446E-05-2.87755E-05-3.12980E-07 2.97704E-19-1.10906E-18
 -1      1406 9.56020E-05-2.86720E-05-2.86838E-05-1.02383E-07 5.03188E-19-1.33656E-18
 -1      1407 9.55108E-05-2.86453E-05-2.86565E-05-9.61034E-08 1.30695E-19-1.24793E-18
 -1      1408 9.56618E-05-2.86821E-05-2.87079E-05-2.33037E-07 5.63611E-19-1.40694E-18
 -1      1409 9.54403E-05-2.86253E-05-2.86345E-05-7.16606E-08-1.14969E-19-5.17733E-19
 -1      1410 9.53771E-05-2.86070E-05-2.86155E-05-6.67730E-08-6.62725E-20-4.29849E-19
 -1      1411 9.54982E-05-2.86364E-05-2.86570E-05-1.67018E-07 6.46014E-20-1.60297E-18
 -1      1412 9.53273E-05-2.85930E-05-2.86000E-05-4.78050E-08-4.51032E-19-2.76740E-19
 -1      1413 9.52857E-05-2.85812E-05-2.85874E-05-4.41338E-08-3.37845E-19-1.18711E-18
 -1      1414 9.53803E-05-2.86040E-05-2.86199E-05-1.14693E-07-5.60940E-19-3.54107E-19
 -1      1415 9.52521E-05-2.85718E-05-2.85769E-05-2.99157E-08-3.31278E-19-1.74085E-18
 -1      1416 9.52266E-05-2.85647E-05-2.85691E-05-2.72525E-08-2.77217E-19-2.36237E-18
 -1      1417 9.52986E-05-2.85821E-05-2.85939E-05-7.46829E-08-4.79701E-19-3.43860E-19
 -1      1418 9.52052E-05-2.85588E-05-2.85624E-05-1.69542E-08 2.69734E-19-2.50892E-18
 -1      1419 9.51913E-05-2.85551E-05-2.85581E-05-1.50924E-08 2.37411E-19-2.08598E-18
 -1      1420 9.52446E-05-2.85681E-05-2.85765E-05-4.51116E-08 4.04968E-20-1.59141E-18
 -1      1421 9.51787E-05-2.85517E-05-2.85542E-05-7.90347E-09-1.05898E-20-2.16026E-18
 -1      1422 9.51728E-05-2.85504E-05-2.85523E-05-6.65711E-09 1.71319E-19-1.92465E-18
 -1      1423 9.52112E-05-2.85597E-05-2.85655E-05-2.40031E-08 1.86609E-19-2.54956E-18
 -1      1424 9.51665E-05-2.85487E-05-2.85503E-05-1.85153E-09 9.77661E-20-2.14327E-18
 -1      1425 9.51658E-05-2.85489E-05-2.85500E-05-1.06260E-09-3.18595E-19-2.05391E-18
 -1      1426 9.51926E-05-2.85554E-05-2.85592E-05-9.50909E-09 1.91206E-20-2.02544E-18
 -1      1427 9.51638E-05-2.85484E-05-2.85493E-05 1.97363E-09 2.20844E-19-1.96831E-18
 -1      1428 9.51664E-05-2.85494E-05-2.85500E-05 2.43351E-09 3.76259E-19-1.11436E-18
 -1      1429 9.51843E-05-2.85538E-05-2.85562E-05-1.80829E-11 4.23528E-20-2.33350E-18
 -1      1430 9.51671E-05-2.85497E-05-2.85502E-05 4.19818E-09 6.00336E-20-9.09294E-20
 -1      1431 9.51716E-05-2.85513E-05-2.85515E-05 4.42968E-09-4.66555E-20-4.12542E-19
 -1      1432 9.51828E-05-2.85541E-05-2.85553E-05 5.80699E-09 3.76636E-19-1.63275E-18
 -1      1433 9.51739E-05-2.85520E-05-2.85522E-05 5.31240E-09-8.88436E-19-1.10945E-18
 -1      1434 9.51792E-05-2.85537E-05-2.85537E-05 5.39199E-09-1.52198E-18-2.78053E-18
 -1      1435 9.51857E-05-2.85554E-05-2.85559E-05 9.03363E-09-1.03812E-18-6.27639E-19
 -1      1436 9.51824E-05-2.85547E-05-2.85547E-05 5.68795E-09-1.08924E-18-2.37973E-18
 -1      1437 9.51880E-05-2.85565E-05-2.85563E-05 5.67186E-09-6.19424E-19-3.41862E-18
 -1      1438 9.51910E-05-2.85572E-05-2.85574E-05 1.04860E-08-1.77856E-18-3.34603E-19
 -1      1439 9.51916E-05-2.85575E-05-2.85574E-05 5.59720E-09 5.11618E-19-4.08196E-18
 -1      1440 9.51970E-05-2.85592E-05-2.85590E-05 5.52524E-09 3.46397E-19-2.95419E-18
 -1      1441 9.51975E-05-2.85594E-05-2.85592E-05 1.07798E-08-4.47221E-19-8.40200E-19
 -1      1442 9.52005E-05-2.85603E-05-2.85601E-05 5.23150E-09-2.89714E-19-2.42534E-18
 -1      1443 9.52055E-05-2.85618E-05-2.85616E-05 5.13036E-09-1.56523E-19-2.79330E-18
 -1      1444 9.52045E-05-2.85616E-05-2.85612E-05 1.03584E-08 2.88902E-19-1.67518E-18
 -1      1445 9.52089E-05-2.85628E-05-2.85626E-05 4.71677E-09 1.60830E-19-2.22823E-18
 -1      1446 9.52134E-05-2.85642E-05-2.85639E-05 4.60253E-09 3.03099E-19-1.76888E-18
 -1      1447 9.52113E-05-2.85636E-05-2.85632E-05 9.52447E-09 3.29881E-19 3.63275E-19
 -1      1448 9.52164E-05-2.85651E-05-2.85649E-05 4.12539E-09 6.56677E-19-2.13379E-18
 -1      1449 9.52203E-05-2.85663E-05-2.85660E-05 4.00518E-09 6.23803E-19-1.14372E-18
 -1      1450 9.52175E-05-2.85655E-05-2.85651E-05 8.46671E-09 9.52466E-19-3.05194E-19
 -1      1451 9.52230E-05-2.85671E-05-2.85668E-05 3.48457E-09 1.01674E-18-5.83257E-19
 -1      1452 9.52262E-05-2.85681E-05-2.85678E-05 3.35752E-09 9.61625E-19 1.95351E-19
 -1      1453 9.52232E-05-2.85672E-05-2.85668E-05 7.27885E-09 1.15721E-18 9.01273E-19
 -1      1454 9.52285E-05-2.85687E-05-2.85685E-05 2.78125E-09 7.01359E-19-2.32875E-19
 -1      1455 9.52310E-05-2.85695E-05-2.85692E-05 2.63766E-09 4.65476E-19 4.47917E-19
 -1      1456 9.52280E-05-2.85687E-05-2.85682E-05 5.97399E-09 1.18749E-18 9.15912E-19
 -1      1457 9.52327E-05-2.85700E-05-2.85697E-05 1.97121E-09 8.81044E-19 1.00840E-18
 -1      1458 9.52345E-05-2.85706E-05-2.85702E-05 1.79201E-09 1.04131E-18 1.26446E-18
 -1      1459 9.52318E-05-2.85699E-05-2.85693E-05 4.49558E-09 1.05511E-18 1.18105E-19
 -1      1460 9.52357E-05-2.85710E-05-2.85706E-05 1.00035E-09 7.06088E-20 1.75406E-18
 -1      1461 9.52365E-05-2.85712E-05-2.85708E-05 7.83513E-10 2.76712E-19 1.91896E-18
 -1      1462 9.52347E-05-2.85709E-05-2.85702E-05 2.78173E-09 9.77870E-19 1.08227E-18
 -1      1463 9.52372E-05-2.85712E-05-2.85712E-05-6.87380E-11-1.38751E-18 5.91626E-19
 -1      1464 9.52367E-05-2.85714E-05-2.85708E-05 7.33831E-10-9.61726E-19-6.02184E-19
 -1      1465 1.10953E-04-3.26668E-05-3.40452E-05 6.60594E-07 3.80609E-19 6.92369E-18
 -1      1466 1.14286E-04-3.28321E-05-3.56913E-05 2.08441E-06 3.62212E-19 7.47274E-18
 -1      1467 1.13531E-04-3.02787E-05-3.60531E-05 8.55691E-06 6.66244E-19 5.41169E-18
 -1      1468 1.11308E-04-3.31027E-05-3.36005E-05-1.59478E-06 3.89225E-19 6.03829E-18
 -1      1469 1.10391E-04-3.23587E-05-3.36324E-05-1.11196E-06 3.32460E-19 6.54158E-18
 -1      1470 1.11195E-04-3.23432E-05-3.40368E-05 1.53213E-07 6.16693E-19 4.55337E-18
 -1      1471 1.15628E-04-3.44715E-05-3.48051E-05-3.16930E-06 1.93944E-19 5.28104E-18
 -1      1472 1.12680E-04-3.33378E-05-3.39983E-05-2.73409E-06 2.24464E-19 5.70111E-18
 -1      1473 1.12220E-04-3.30577E-05-3.40418E-05-3.94457E-06 5.91454E-19 3.93293E-18
 -1      1474 1.22772E-04-3.66738E-05-3.69213E-05-4.40440E-06 1.72199E-19 4.86012E-18
 -1      1475 1.18348E-04-3.51378E-05-3.56406E-05-3.99643E-06 1.39906E-19 5.04218E-18
 -1      1476 1.16247E-04-3.43972E-05-3.51772E-05-6.75152E-06 3.01835E-19 3.46050E-18
 -1      1477 1.31706E-04-3.95409E-05-3.94702E-05-5.05972E-06-7.73629E-20 4.89098E-18
 -1      1478 1.26372E-04-3.77182E-05-3.79792E-05-4.77765E-06-4.16858E-20 4.83068E-18
 -1      1479 1.22418E-04-3.64588E-05-3.69171E-05-8.66647E-06 1.98573E-20 3.14961E-18
 -1      1480 1.40806E-04-4.27402E-05-4.18242E-05-4.18308E-06-1.14707E-19 5.18919E-18
 -1      1481 1.35692E-04-4.09938E-05-4.05273E-05-4.38209E-06-1.50772E-19 5.04260E-18
 -1      1482 1.29947E-04-3.92759E-05-3.88347E-05-8.79265E-06-2.15543E-19 3.48888E-18
 -1      1483 1.45278E-04-4.47287E-05-4.26455E-05-5.87517E-07-2.18124E-19 5.83741E-18
 -1      1484 1.43468E-04-4.42058E-05-4.23672E-05-1.70425E-06-2.40769E-19 5.42395E-18
 -1      1485 1.36924E-04-4.24966E-05-4.02336E-05-5.24852E-06-3.29046E-19 3.81346E-18
 -1      1486 1.40657E-04-4.36324E-05-4.11232E-05 6.01602E-06-2.97123E-19 6.81523E-18
 -1      1487 1.45126E-04-4.55607E-05-4.24051E-05 3.78085E-06-4.14702E-19 6.20134E-18
 -1      1488 1.40329E-04-4.48003E-05-4.05045E-05 3.38804E-06-7.23472E-19 4.75980E-18
 -1      1489 1.24753E-04-3.77140E-05-3.75311E-05 1.21802E-05 2.76609E-20 7.36961E-18
 -1      1490 1.36418E-04-4.25480E-05-4.01754E-05 9.98327E-06-4.78044E-20 6.91497E-18
 -1      1491 1.37071E-04-4.37926E-05-3.96845E-05 1.49140E-05-2.35010E-19 4.76520E-18
 -1      1492 1.05315E-04-2.94545E-05-3.39559E-05 1.05241E-05 5.49036E-19 6.79998E-18
 -1      1493 1.18302E-04-3.45934E-05-3.65147E-05 1.08560E-05 3.24890E-19 7.15785E-18
 -1      1494 1.26906E-04-3.75419E-05-3.86385E-05 2.00274E-05 2.27005E-19 4.87838E-18
 -1      1495 9.92404E-05-2.66282E-05-3.29081E-05-1.08552E-06 1.08071E-18 4.35354E-18
 -1      1496 1.02493E-04-2.72792E-05-3.35805E-05 2.27653E-06 9.08125E-19 5.58936E-18
 -1      1497 1.17202E-04-3.00030E-05-3.83237E-05 9.10367E-06 1.55515E-18 3.44108E-18
 -1      1498 1.10182E-04-3.13720E-05-3.47929E-05-1.05984E-05 1.35774E-18 2.24400E-18
 -1      1499 1.02614E-04-2.76744E-05-3.33470E-05-8.10344E-06 1.12052E-18 3.65590E-18
 -1      1500 1.17703E-04-2.99954E-05-3.86512E-05-9.88354E-06 1.93399E-18 1.76336E-18
 -1      1501 1.27349E-04-3.85304E-05-3.80252E-05-1.30659E-05 6.56927E-19 4.48927E-20
 -1      1502 1.15575E-04-3.38460E-05-3.56160E-05-1.22807E-05 8.17228E-19 1.30761E-18
 -1      1503 1.26440E-04-3.62661E-05-3.92711E-05-2.05894E-05 1.96872E-18 5.10761E-19
 -1      1504 1.44282E-04-4.48195E-05-4.19307E-05-7.96994E-06 2.15067E-21-1.19410E-18
 -1      1505 1.32861E-04-4.10566E-05-3.92131E-05-9.11334E-06 5.27331E-19-2.09005E-19
 -1      1506 1.36877E-04-4.31922E-05-4.03256E-05-1.84465E-05 1.09877E-18-2.50192E-19
 -1      1507 1.49293E-04-4.59515E-05-4.37030E-05-7.87956E-07-3.42426E-19-1.13577E-18
 -1      1508 1.45441E-04-4.52765E-05-4.25207E-05-2.42514E-06-6.45333E-20-1.44589E-18
 -1      1509 1.42438E-04-4.61015E-05-4.12254E-05-7.56808E-06 2.57763E-19-1.35033E-18
 -1      1510 1.44904E-04-4.39385E-05-4.30348E-05 3.57366E-06-4.31252E-19-3.39316E-19
 -1      1511 1.47121E-04-4.51817E-05-4.34218E-05 2.55620E-06-8.17175E-19-1.06166E-18
 -1      1512 1.40598E-04-4.43280E-05-4.11461E-05 2.61807E-06-9.22498E-19-1.67334E-18
 -1      1513 1.36256E-04-4.08909E-05-4.08796E-05 4.98168E-06 1.24163E-19-2.31769E-19
 -1      1514 1.41212E-04-4.27328E-05-4.21367E-05 4.61050E-06 9.51919E-20-1.75442E-19
 -1      1515 1.34421E-04-4.10568E-05-3.99423E-05 7.87380E-06-1.09333E-19-1.36407E-18
 -1      1516 1.26996E-04-3.79312E-05-3.82730E-05 4.74258E-06-5.17228E-19 1.07340E-18
 -1      1517 1.32337E-04-3.96737E-05-3.97551E-05 4.72778E-06-3.39829E-19 5.73600E-19
 -1      1518 1.26854E-04-3.79684E-05-3.80687E-05 9.05739E-06-6.87071E-19 1.25784E-19
 -1      1519 1.18533E-04-3.53617E-05-3.57487E-05 3.84328E-06-1.82522E-19 1.95013E-18
 -1      1520 1.23329E-04-3.68187E-05-3.71454E-05 3.98286E-06-2.01468E-19 1.42365E-18
 -1      1521 1.19484E-04-3.54584E-05-3.60064E-05 8.11048E-06-5.71430E-19 1.50438E-18
 -1      1522 1.12165E-04-3.34844E-05-3.37989E-05 2.92190E-06 9.75875E-20 1.41338E-18
 -1      1523 1.15724E-04-3.45155E-05-3.48585E-05 3.07900E-06-1.91787E-19 1.52376E-18
 -1      1524 1.13257E-04-3.35569E-05-3.41608E-05 6.47923E-06 2.02547E-19 2.06958E-18
 -1      1525 1.07338E-04-3.20766E-05-3.23086E-05 2.14517E-06 1.90721E-19 6.64921E-19
 -1      1526 1.09980E-04-3.28209E-05-3.31032E-05 2.28286E-06 5.30335E-19 1.52983E-18
 -1      1527 1.08463E-04-3.21876E-05-3.26942E-05 4.91043E-06 5.61861E-19 1.46002E-18
 -1      1528 1.03788E-04-3.10464E-05-3.12095E-05 1.54419E-06-5.15380E-19 1.42698E-18
 -1      1529 1.05698E-04-3.15752E-05-3.17863E-05 1.65309E-06-5.88192E-19 8.42546E-19
 -1      1530 1.04806E-04-3.11736E-05-3.15609E-05 3.60918E-06-6.16468E-19 1.20096E-18
 -1      1531 1.01217E-04-3.03016E-05-3.04142E-05 1.09981E-06-1.14677E-19 2.35490E-18
 -1      1532 1.02578E-04-3.06741E-05-3.08258E-05 1.18177E-06-2.19335E-19 1.75501E-18
 -1      1533 1.02081E-04-3.04288E-05-3.07117E-05 2.60774E-06-6.47424E-19 1.21775E-18
 -1      1534 9.93696E-05-2.97668E-05-2.98443E-05 7.78439E-07 8.41557E-20 3.36154E-18
 -1      1535 1.00334E-04-3.00282E-05-3.01357E-05 8.38448E-07-3.32914E-19 2.85621E-18
 -1      1536 1.00080E-04-2.98841E-05-3.00867E-05 1.86583E-06-8.16616E-19 2.43435E-18
 -1      1537 9.80009E-05-2.93702E-05-2.94220E-05 5.38296E-07 4.14254E-19 2.42015E-18
 -1      1538 9.87035E-05-2.95600E-05-2.96346E-05 5.85029E-07 1.70201E-19 2.77599E-18
 -1      1539 9.85951E-05-2.94799E-05-2.96227E-05 1.31698E-06 1.65254E-19 2.82307E-18
 -1      1540 9.70873E-05-2.91049E-05-2.91408E-05 3.77143E-07 3.64705E-19 1.51389E-18
 -1      1541 9.75525E-05-2.92291E-05-2.92814E-05 4.08495E-07 7.13283E-19 2.26515E-18
 -1      1542 9.75281E-05-2.91903E-05-2.92899E-05 9.21668E-07 9.94718E-19 1.84327E-18
 -1      1543 9.64429E-05-2.89179E-05-2.89428E-05 2.62127E-07-2.18509E-19 9.10445E-19
 -1      1544 9.67662E-05-2.90037E-05-2.90406E-05 2.84913E-07-3.47019E-20 8.58813E-19
 -1      1545 9.67865E-05-2.89878E-05-2.90584E-05 6.47226E-07 5.17758E-19 5.18213E-19
 -1      1546 9.59936E-05-2.87876E-05-2.88048E-05 1.80159E-07 3.80534E-19 5.00457E-19
 -1      1547 9.62160E-05-2.88460E-05-2.88721E-05 1.96732E-07 4.35933E-19 9.21617E-19
 -1      1548 9.62588E-05-2.88437E-05-2.88937E-05 4.50661E-07 4.93201E-19 7.90429E-19
 -1      1549 9.56841E-05-2.86979E-05-2.87097E-05 1.21853E-07-3.54677E-19-4.46870E-19
 -1      1550 9.58350E-05-2.87370E-05-2.87555E-05 1.33889E-07 3.56240E-19 6.00453E-19
 -1      1551 9.58871E-05-2.87422E-05-2.87776E-05 3.09992E-07 1.20210E-19 1.36133E-18
 -1      1552 9.54745E-05-2.86373E-05-2.86454E-05 8.04512E-08-5.09969E-19 1.07291E-18
 -1      1553 9.55750E-05-2.86628E-05-2.86759E-05 8.92176E-08-1.18588E-18-5.10508E-19
 -1      1554 9.56286E-05-2.86718E-05-2.86968E-05 2.09575E-07-9.28626E-19 1.09625E-18
 -1      1555 9.53311E-05-2.85960E-05-2.86012E-05 5.01028E-08 5.89776E-19 7.45235E-19
 -1      1556 9.53980E-05-2.86126E-05-2.86216E-05 5.68527E-08 4.79085E-19 1.29734E-18
 -1      1557 9.54488E-05-2.86229E-05-2.86404E-05 1.37055E-07 2.08987E-19 9.45975E-19
 -1      1558 9.52455E-05-2.85713E-05-2.85749E-05 3.02891E-08-4.46090E-19 5.37530E-19
 -1      1559 9.52843E-05-2.85805E-05-2.85867E-05 3.47188E-08-3.07155E-19 5.09993E-19
 -1      1560 9.53298E-05-2.85911E-05-2.86030E-05 8.58081E-08 2.67529E-19 1.58123E-18
 -1      1561 9.51943E-05-2.85568E-05-2.85590E-05 1.66409E-08 1.32559E-19-9.53916E-19
 -1      1562 9.52162E-05-2.85616E-05-2.85658E-05 1.97830E-08 5.18336E-19 4.38448E-19
 -1      1563 9.52559E-05-2.85714E-05-2.85795E-05 5.13568E-08 6.58615E-19 1.69557E-18
 -1      1564 9.51666E-05-2.85490E-05-2.85504E-05 7.49475E-09-6.95702E-20-1.66626E-18
 -1      1565 9.51772E-05-2.85509E-05-2.85537E-05 9.68507E-09-1.29801E-19-1.43683E-18
 -1      1566 9.52109E-05-2.85598E-05-2.85651E-05 2.77749E-08 6.72964E-19 9.50966E-19
 -1      1567 9.51548E-05-2.85459E-05-2.85466E-05 1.56584E-09-1.34533E-18-1.24657E-18
 -1      1568 9.51579E-05-2.85459E-05-2.85477E-05 3.05781E-09-2.50205E-19-2.09165E-18
 -1      1569 9.51859E-05-2.85535E-05-2.85570E-05 1.20135E-08-8.61856E-20-2.38761E-19
 -1      1570 9.51531E-05-2.85456E-05-2.85459E-05-2.11831E-09 2.21894E-19-1.77794E-18
 -1      1571 9.51516E-05-2.85445E-05-2.85456E-05-1.11006E-09-4.65627E-19-1.56648E-18
 -1      1572 9.51744E-05-2.85510E-05-2.85531E-05 1.83510E-09-5.80678E-19-1.35520E-18
 -1      1573 9.51580E-05-2.85473E-05-2.85473E-05-4.28064E-09 2.85549E-19-3.52835E-18
 -1      1574 9.51536E-05-2.85455E-05-2.85461E-05-3.60340E-09 1.54562E-19-2.80797E-18
 -1      1575 9.51717E-05-2.85508E-05-2.85520E-05-4.47655E-09 7.11793E-19-2.56585E-18
 -1      1576 9.51661E-05-2.85498E-05-2.85497E-05-5.23685E-09-6.16820E-19-4.01605E-18
 -1      1577 9.51605E-05-2.85479E-05-2.85481E-05-4.87453E-09 4.49264E-19-2.79305E-18
 -1      1578 9.51747E-05-2.85521E-05-2.85526E-05-8.04707E-09 1.19446E-19-1.93416E-18
 -1      1579 9.51759E-05-2.85528E-05-2.85526E-05-5.53565E-09-1.48523E-18-1.44318E-18
 -1      1580 9.51698E-05-2.85508E-05-2.85509E-05-5.34145E-09-1.30105E-18-3.64175E-18
 -1      1581 9.51807E-05-2.85542E-05-2.85543E-05-9.65175E-09-1.56048E-18-4.99727E-19
 -1      1582 9.51861E-05-2.85559E-05-2.85557E-05-5.40995E-09 5.14833E-20-3.39488E-19
 -1      1583 9.51801E-05-2.85540E-05-2.85539E-05-5.32814E-09-3.21324E-19-1.58901E-18
 -1      1584 9.51883E-05-2.85566E-05-2.85565E-05-1.00855E-08-1.04901E-18-2.08091E-18
 -1      1585 9.51960E-05-2.85589E-05-2.85587E-05-5.03893E-09 4.61589E-19-2.27838E-19
 -1      1586 9.51903E-05-2.85571E-05-2.85570E-05-5.02834E-09 2.49719E-19-1.57232E-19
 -1      1587 9.51964E-05-2.85591E-05-2.85589E-05-9.79398E-09 4.67926E-19-2.89315E-18
 -1      1588 9.52052E-05-2.85617E-05-2.85614E-05-4.54670E-09 7.47568E-19-3.16420E-19
 -1      1589 9.52000E-05-2.85601E-05-2.85599E-05-4.57320E-09-3.78361E-20-2.82089E-19
 -1      1590 9.52043E-05-2.85615E-05-2.85612E-05-9.08537E-09-1.67718E-20-2.85574E-18
 -1      1591 9.52138E-05-2.85643E-05-2.85640E-05-3.96471E-09 1.24278E-18-1.47694E-18
 -1      1592 9.52090E-05-2.85628E-05-2.85626E-05-4.02424E-09 7.19257E-19 9.58952E-19
 -1      1593 9.52119E-05-2.85638E-05-2.85635E-05-8.13085E-09 2.81054E-19-1.41952E-18
 -1      1594 9.52209E-05-2.85664E-05-2.85662E-05-3.38382E-09-2.90193E-20-5.69797E-19
 -1      1595 9.52170E-05-2.85652E-05-2.85650E-05-3.45875E-09-3.86135E-19-1.34621E-18
 -1      1596 9.52187E-05-2.85659E-05-2.85655E-05-7.07201E-09 3.03028E-19 3.18077E-19
 -1      1597 9.52269E-05-2.85682E-05-2.85680E-05-2.78042E-09 2.33165E-19-1.04210E-18
 -1      1598 9.52237E-05-2.85672E-05-2.85670E-05-2.87385E-09 2.00995E-19-7.00566E-19
 -1      1599 9.52244E-05-2.85676E-05-2.85672E-05-5.97166E-09 5.01689E-19 1.17383E-18
 -1      1600 9.52317E-05-2.85696E-05-2.85694E-05-2.11487E-09-1.01087E-18-7.63089E-19
 -1      1601 9.52291E-05-2.85689E-05-2.85687E-05-2.23878E-09-7.25877E-20-1.01175E-18
 -1      1602 9.52292E-05-2.85690E-05-2.85686E-05-4.78482E-09-1.94356E-19 1.25488E-18
 -1      1603 9.52350E-05-2.85707E-05-2.85704E-05-1.32155E-09-1.79839E-19 1.07684E-18
 -1      1604 9.52333E-05-2.85702E-05-2.85699E-05-1.50491E-09-4.99049E-19-5.92196E-19
 -1      1605 9.52330E-05-2.85702E-05-2.85697E-05-3.43738E-09-7.65637E-19 1.37920E-18
 -1      1606 9.52368E-05-2.85712E-05-2.85710E-05-4.23547E-10-3.33620E-19 1.55368E-18
 -1      1607 9.52360E-05-2.85711E-05-2.85707E-05-6.52303E-10-2.17442E-19 4.20959E-19
 -1      1608 9.52355E-05-2.85711E-05-2.85705E-05-1.85712E-09-2.45426E-19-9.96378E-19
 -1      1609 9.52372E-05-2.85712E-05-2.85711E-05 1.42418E-11 1.73207E-18 1.99949E-18
 -1      1610 9.52373E-05-2.85726E-05-2.85706E-05-1.04587E-09 1.46316E-18 6.69596E-19
 -1      1611 9.52371E-05-2.85718E-05-2.85708E-05-8.11403E-10 1.92193E-18 2.54180E-19
 -1      1612 9.52383E-05-2.85754E-05-2.85698E-05-1.85578E-09 4.28074E-18 6.28971E-19
 -1      1613 9.52377E-05-2.85738E-05-2.85702E-05-1.71800E-09 3.79177E-18 9.04701E-19
 -1      1614 9.52374E-05-2.85736E-05-2.85702E-05-2.70438E-09 2.13677E-18 1.88779E-18
 -1      1615 9.52394E-05-2.85789E-05-2.85688E-05-2.28341E-09 2.28744E-18-1.41211E-18
 -1      1616 9.52387E-05-2.85769E-05-2.85694E-05-2.23204E-09 3.82649E-18-3.81575E-19
 -1      1617 9.52384E-05-2.85762E-05-2.85695E-05-3.95776E-09 8.57517E-19-2.88548E-21
 -1      1618 9.52407E-05-2.85827E-05-2.85677E-05-2.31221E-09 3.94220E-18 3.50577E-20
 -1      1619 9.52400E-05-2.85805E-05-2.85683E-05-2.33871E-09 2.64416E-18 5.78362E-19
 -1      1620 9.52396E-05-2.85793E-05-2.85687E-05-4.46504E-09 1.37696E-18-8.18108E-19
 -1      1621 9.52417E-05-2.85860E-05-2.85667E-05-2.00945E-09-1.08264E-19-2.50947E-18
 -1      1622 9.52411E-05-2.85842E-05-2.85673E-05-2.09312E-09 2.90239E-18-2.55467E-18
 -1      1623 9.52407E-05-2.85825E-05-2.85678E-05-4.25348E-09 7.07511E-19-2.36575E-18
 -1      1624 9.52426E-05-2.85887E-05-2.85660E-05-1.44667E-09-1.12155E-19 1.89462E-18
 -1      1625 9.52421E-05-2.85873E-05-2.85664E-05-1.57448E-09-7.72789E-19-3.19233E-19
 -1      1626 9.52416E-05-2.85852E-05-2.85671E-05-3.46157E-09 7.73933E-19-2.65609E-18
 -1      1627 9.52431E-05-2.85902E-05-2.85655E-05-7.15201E-10-3.98830E-19-5.02372E-19
 -1      1628 9.52428E-05-2.85895E-05-2.85657E-05-8.67857E-10 1.20504E-19 1.72170E-18
 -1      1629 9.52423E-05-2.85872E-05-2.85665E-05-2.23625E-09 3.63394E-19 1.52955E-18
 -1      1630 9.52432E-05-2.85905E-05-2.85654E-05 9.46288E-11 1.25391E-19 9.35219E-19
 -1      1631 9.52432E-05-2.85905E-05-2.85654E-05-6.58662E-11-4.48701E-19 8.72809E-19
 -1      1632 9.52427E-05-2.85883E-05-2.85662E-05-7.54695E-10-7.56231E-20 1.00487E-19
 -1      1633 9.52428E-05-2.85894E-05-2.85657E-05 8.92974E-10-1.15803E-19-7.43126E-19
 -1      1634 9.52431E-05-2.85902E-05-2.85655E-05 7.41585E-10 4.19994E-19 8.35381E-19
 -1      1635 9.52426E-05-2.85883E-05-2.85662E-05 8.08397E-10-1.78452E-19 1.04667E-18
 -1      1636 9.52421E-05-2.85872E-05-2.85664E-05 1.59071E-09-1.33851E-18-9.16778E-19
 -1      1637 9.52426E-05-2.85886E-05-2.85660E-05 1.46544E-09-2.71629E-19-2.21556E-19
 -1      1638 9.52423E-05-2.85872E-05-2.85665E-05 2.27919E-09 2.43093E-19-3.08740E-19
 -1      1639 9.52411E-05-2.85841E-05-2.85673E-05 2.09263E-09-5.45975E-18-2.67202E-19
 -1      1640 9.52417E-05-2.85860E-05-2.85668E-05 2.01194E-09-2.59691E-18-2.31439E-18
 -1      1641 9.52416E-05-2.85851E-05-2.85671E-05 3.47803E-09-1.37655E-18-3.38396E-18
 -1      1642 9.52399E-05-2.85804E-05-2.85683E-05 2.33083E-09-6.43747E-18-8.42432E-19
 -1      1643 9.52406E-05-2.85826E-05-2.85677E-05 2.30671E-09-5.84173E-18 1.13174E-18
 -1      1644 9.52406E-05-2.85824E-05-2.85678E-05 4.24900E-09-2.64836E-18-6.55572E-19
 -1      1645 9.52387E-05-2.85768E-05-2.85694E-05 2.22208E-09-4.83605E-18 1.84729E-18
 -1      1646 9.52394E-05-2.85788E-05-2.85688E-05 2.26935E-09-6.08453E-18 8.25816E-19
 -1      1647 9.52395E-05-2.85792E-05-2.85687E-05 4.44399E-09-2.44320E-18 2.91788E-20
 -1      1648 9.52377E-05-2.85738E-05-2.85703E-05 1.70536E-09-2.39701E-18 1.76694E-18
 -1      1649 9.52383E-05-2.85753E-05-2.85698E-05 1.84513E-09-4.19962E-18 2.14722E-18
 -1      1650 9.52384E-05-2.85762E-05-2.85695E-05 3.92534E-09-2.91804E-18 2.63062E-18
 -1      1651 9.52370E-05-2.85721E-05-2.85707E-05 1.22203E-09-1.75670E-18-8.91790E-19
 -1      1652 9.52373E-05-2.85729E-05-2.85704E-05 1.55969E-09-1.83390E-18 9.22487E-19
 -1      1653 9.52373E-05-2.85738E-05-2.85701E-05 3.19935E-09-1.58186E-18 2.44545E-18
 -1      1654 9.52363E-05-2.85721E-05-2.85704E-05 2.42337E-09-2.86690E-19 1.43807E-19
 -1      1655 2.14888E-05-7.47498E-05 1.64892E-05-1.16652E-05 2.57964E-18 2.25120E-18
 -1      1656 2.44859E-05-8.15195E-05 1.77786E-05-1.83214E-06 1.34969E-19 1.30845E-18
 -1      1657 2.08865E-05-4.79758E-05 6.71377E-06-2.73858E-06 6.37138E-18 4.73618E-18
 -1      1658 2.55280E-05-6.97097E-05 1.25882E-05-4.72858E-06 3.84172E-18 2.57074E-18
 -1      1659 3.42756E-05-2.14435E-05-8.73653E-06 1.89787E-05 9.08189E-18 7.93373E-18
 -1      1660 3.00276E-05-4.30412E-05-4.61041E-08 2.97829E-06 7.30905E-18 6.01182E-18
 -1      1661 7.55764E-05-1.06361E-05-2.83771E-05 5.08807E-05 8.69564E-18 8.17217E-18
 -1      1662 5.22736E-05-1.92951E-05-1.79067E-05 2.72919E-05 9.67142E-18 7.75120E-18
 -1      1663 1.44629E-04-2.27480E-05-4.94783E-05 7.26332E-05 5.61498E-18 6.04443E-18
 -1      1664 1.00221E-04-1.25791E-05-3.85477E-05 5.56049E-05 7.76560E-18 7.44373E-18
 -1      1665 2.25692E-04-5.14102E-05-6.84122E-05 6.11716E-05 2.59679E-18 3.24837E-18
 -1      1666 1.73085E-04-2.93087E-05-5.89427E-05 6.63460E-05 4.67943E-18 5.08389E-18
 -1      1667 2.80704E-04-7.27541E-05-8.02113E-05 2.69502E-05 1.49755E-18 1.88888E-19
 -1      1668 2.48577E-04-5.62163E-05-7.56272E-05 5.67869E-05 1.76426E-18 2.36492E-18
 -1      1669 2.75556E-04-6.82862E-05-8.07797E-05-2.77554E-05 2.60463E-18-4.78531E-18
 -1      1670 2.82376E-04-7.19422E-05-8.15705E-05 1.16392E-05 1.86135E-18-1.38013E-18
 -1      1671 2.22080E-04-4.51938E-05-7.07388E-05-6.17607E-05 4.36857E-18-8.00192E-18
 -1      1672 2.62916E-04-6.51577E-05-7.70589E-05-3.89433E-05 3.22254E-18-5.64124E-18
 -1      1673 1.47929E-04-2.05544E-05-5.31258E-05-6.82725E-05 5.53028E-18-8.81253E-18
 -1      1674 2.00698E-04-4.08129E-05-6.32692E-05-7.13153E-05 4.35502E-18-8.82439E-18
 -1      1675 8.50405E-05-1.65839E-05-3.12616E-05-4.48991E-05 5.04747E-18-6.77796E-18
 -1      1676 1.23797E-04-2.04428E-05-4.27326E-05-6.60874E-05 5.20586E-18-8.58298E-18
 -1      1677 3.76855E-05-2.54687E-05-1.02323E-05-1.56931E-05 4.03865E-18-4.44692E-18
 -1      1678 5.33895E-05-9.84738E-06-2.06540E-05-3.94532E-05 5.55315E-18-6.62549E-18
 -1      1679 2.59129E-05-5.40306E-05 5.68062E-06 3.38151E-06 1.51958E-18-1.99307E-18
 -1      1680 2.44416E-05-3.06703E-05-1.73760E-06-6.75356E-06 3.49232E-18-3.45166E-18
 -1      1681 2.50543E-05-7.59186E-05 1.51039E-05 4.49546E-06-1.22523E-18-9.89758E-19
 -1      1682 1.99200E-05-5.87529E-05 1.09254E-05 7.76733E-06 8.02140E-19-1.57225E-18
 -1      1683 2.43272E-05-8.10004E-05 1.74926E-05-9.80371E-07-4.21822E-18-1.28813E-18
 -1      1684 2.37530E-05-8.07580E-05 1.75641E-05 9.73198E-06-2.10159E-18-8.38139E-19
 -1      1685 1.98624E-05-5.85764E-05 1.10465E-05-3.33481E-06-6.43152E-18-2.51563E-18
 -1      1686 2.56715E-05-7.80159E-05 1.55032E-05 1.55793E-06-4.89754E-18-1.56214E-18
 -1      1687 2.27747E-05-2.53764E-05-2.27020E-06 1.30425E-05-7.62160E-18-4.42151E-18
 -1      1688 2.49536E-05-5.04350E-05 5.18880E-06 2.77560E-06-6.93551E-18-3.10840E-18
 -1      1689 5.06694E-05-4.92809E-06-2.02329E-05 4.47814E-05-7.19893E-18-5.93685E-18
 -1      1690 3.79477E-05-2.10797E-05-1.06985E-05 2.34870E-05-7.33869E-18-4.90940E-18
 -1      1691 9.69394E-05-6.92567E-07-3.92104E-05 7.33786E-05-6.07661E-18-6.38832E-18
 -1      1692 6.62757E-05-1.63786E-07-2.94578E-05 5.22957E-05-7.22180E-18-6.16132E-18
 -1      1693 1.68805E-04-2.31451E-05-5.78846E-05 8.36690E-05-3.58464E-18-4.51553E-18
 -1      1694 1.22036E-04-5.15522E-06-4.85022E-05 7.69414E-05-5.27447E-18-5.92838E-18
 -1      1695 2.33301E-04-5.24577E-05-7.14152E-05 5.90258E-05-1.85977E-18-5.47183E-19
 -1      1696 1.93664E-04-3.14568E-05-6.53228E-05 7.65294E-05-3.04805E-18-3.18654E-18
 -1      1697 2.61968E-04-6.61797E-05-7.74050E-05 9.12991E-06-1.45817E-18 3.34959E-18
 -1      1698 2.46148E-04-5.71460E-05-7.51940E-05 4.27422E-05-1.53461E-18 9.01243E-19
 -1      1699 2.47522E-04-5.75393E-05-7.54804E-05-4.55038E-05-2.85175E-18 7.69614E-18
 -1      1700 2.64315E-04-6.73925E-05-7.77091E-05-9.71628E-06-1.86686E-18 5.12434E-18
 -1      1701 1.85600E-04-2.81118E-05-6.38174E-05-7.48438E-05-4.49266E-18 9.11831E-18
 -1      1702 2.28935E-04-5.03356E-05-7.06931E-05-5.81794E-05-3.22145E-18 8.40765E-18
 -1      1703 1.15779E-04-4.22552E-06-4.66463E-05-7.37549E-05-6.40696E-18 8.61771E-18
 -1      1704 1.60994E-04-2.05904E-05-5.60445E-05-8.22603E-05-5.28083E-18 8.81507E-18
 -1      1705 6.53050E-05-6.13106E-06-2.67748E-05-4.72700E-05-7.59619E-18 6.66954E-18
 -1      1706 9.47342E-05-4.58462E-06-3.70532E-05-6.89706E-05-6.96685E-18 7.98837E-18
 -1      1707 3.25228E-05-2.48250E-05-7.31061E-06-1.81580E-05-7.05578E-18 5.34774E-18
 -1      1708 4.24204E-05-5.28739E-06-1.70635E-05-3.94229E-05-8.05698E-18 6.22061E-18
 -1      1709 2.53798E-05-5.94016E-05 8.68946E-06-2.44024E-06-4.87298E-18 2.59483E-18
 -1      1710 2.10532E-05-3.22311E-05 1.10616E-06-9.28854E-06-6.72290E-18 3.90376E-18
 -1      1711 2.51507E-05-8.03585E-05 1.69928E-05-5.29729E-06-1.19008E-18 1.23730E-18
 -1      1712 2.07980E-05-6.62668E-05 1.37977E-05 2.87862E-06-4.03865E-18 2.52553E-18
 -1      1713 1.21719E-04-4.34494E-05-3.34831E-05 3.89658E-05 5.40153E-18 3.07304E-18
 -1      1714 7.49048E-05-4.47242E-05-1.51620E-05 3.37739E-05 4.87976E-18 5.09448E-18
 -1      1715 9.52369E-05-2.85713E-05-2.85709E-05-3.98988E-10 9.02047E-19-6.34928E-19
 -1      1716 9.52367E-05-2.85719E-05-2.85706E-05-1.43058E-09-1.63957E-19-5.47678E-19
 -1      1717 1.77289E-05-5.11830E-05 1.00249E-05 9.47821E-06 1.64960E-18 3.66088E-18
 -1      1718 3.97334E-05-4.82371E-05 2.26738E-08 2.32702E-05 3.05440E-18 5.02502E-18
 -1      1719 1.19833E-05-5.35751E-05 1.30810E-05-6.62530E-06-8.32316E-19 3.19924E-18
 -1      1720 1.72347E-04-4.43822E-05-5.21372E-05 3.19746E-05 4.73280E-18 2.02356E-18
 -1      1721 2.12294E-04-4.22507E-05-6.75585E-05 1.85432E-05 3.30237E-18 1.42556E-18
 -1      1722 2.33749E-04-4.01654E-05-7.57692E-05 5.92886E-06 3.04381E-18-1.06324E-18
 -1      1723 2.24160E-04-3.79691E-05-7.34835E-05-8.81892E-06 3.96496E-18-2.88372E-18
 -1      1724 1.99497E-04-4.19153E-05-6.30857E-05-2.37095E-05 3.70715E-18-4.16571E-18
 -1      1725 1.58161E-04-4.72083E-05-4.61909E-05-3.34525E-05 2.55762E-18-4.83232E-18
 -1      1726 1.06121E-04-4.44058E-05-2.68175E-05-3.93018E-05 1.92276E-18-4.79421E-18
 -1      1727 5.62320E-05-4.38248E-05-8.41638E-06-2.95902E-05 1.40269E-18-4.16147E-18
 -1      1728 2.83241E-05-4.91991E-05 4.71152E-06-1.70551E-05 2.32087E-19-2.70606E-18
 -1      1729 1.41734E-05-5.31251E-05 1.19695E-05-4.15217E-06-8.81973E-19-2.23871E-18
 -1      1730 1.36838E-05-5.43967E-05 1.24857E-05 9.47771E-06-2.43310E-18-2.24972E-18
 -1      1731 2.61496E-05-4.70305E-05 5.01895E-06 2.22802E-05-3.71593E-18-2.74629E-18
 -1      1732 5.35751E-05-3.80363E-05-8.69402E-06 3.73459E-05-4.19790E-18-3.46691E-18
 -1      1733 9.00027E-05-3.20526E-05-2.52467E-05 4.66122E-05-4.50367E-18-3.61852E-18
 -1      1734 1.32016E-04-2.75555E-05-4.29442E-05 5.18369E-05-4.37365E-18-3.27124E-18
 -1      1735 1.76985E-04-3.02262E-05-5.89447E-05 4.49616E-05-3.75373E-18-1.29935E-18
 -1      1736 2.08621E-04-3.41003E-05-6.96431E-05 2.54868E-05-3.24689E-18 3.90906E-19
 -1      1737 2.20205E-04-3.56117E-05-7.34994E-05-9.55247E-07-3.39448E-18 2.89341E-18
 -1      1738 2.06666E-04-3.36775E-05-6.92064E-05-2.46277E-05-3.20602E-18 5.14107E-18
 -1      1739 1.72145E-04-3.02821E-05-5.73430E-05-4.23179E-05-3.47903E-18 5.65818E-18
 -1      1740 1.29838E-04-3.15991E-05-4.07034E-05-4.78650E-05-4.12759E-18 5.12370E-18
 -1      1741 8.62820E-05-3.41490E-05-2.26713E-05-4.59908E-05-4.16910E-18 4.42786E-18
 -1      1742 4.62698E-05-3.94682E-05-5.33467E-06-3.46560E-05-3.61344E-18 4.62131E-18
 -1      1743 2.16244E-05-4.85398E-05 7.53673E-06-2.04447E-05-3.15350E-18 3.35171E-18
 -1      1744 1.10685E-04-2.45308E-05-3.70145E-05-1.59915E-05-8.40839E-19 1.80672E-18
 -1      1745 9.24642E-05-1.21438E-05-3.45521E-05-1.11118E-05-5.53113E-19-1.44152E-18
 -1      1746 9.42108E-05-1.32029E-05-3.48725E-05-1.32191E-05-7.97945E-19-1.23979E-18
 -1      1747 9.65510E-05-1.53754E-05-3.49575E-05-1.43531E-05-8.93388E-19-8.89940E-19
 -1      1748 9.86154E-05-1.73582E-05-3.53319E-05-1.62572E-05-1.08427E-18-4.91491E-19
 -1      1749 9.75661E-05-1.82215E-05-3.40310E-05-1.21513E-05-8.74990E-19-9.33536E-19
 -1      1750 8.70755E-05-8.91472E-06-3.35729E-05-4.21970E-06 4.97036E-20-1.54929E-18
 -1      1751 8.82443E-05-9.37407E-06-3.38619E-05-5.91570E-06-8.40151E-20-1.60100E-18
 -1      1752 8.45077E-05-7.60626E-06-3.30236E-05-1.06866E-06 2.89050E-19-1.48130E-18
 -1      1753 8.57549E-05-8.09232E-06-3.33208E-05-2.58439E-06 1.81622E-19-1.55063E-18
 -1      1754 8.82617E-05-1.13170E-05-3.30278E-05-3.05500E-06 7.51510E-20-1.44101E-18
 -1      1755 8.17851E-05-6.14562E-06-3.24788E-05 1.60486E-06 6.12084E-19-1.28441E-18
 -1      1756 8.30910E-05-6.69399E-06-3.27608E-05 3.61527E-07 4.73481E-19-1.40891E-18
 -1      1757 8.53888E-05-9.61265E-06-3.25269E-05 5.27092E-08 4.26883E-19-1.32833E-18
 -1      1758 7.91268E-05-4.56954E-06-3.20127E-05 3.60308E-06 8.73982E-19-1.19712E-18
 -1      1759 8.03463E-05-5.13882E-06-3.22392E-05 2.69360E-06 7.80141E-19-1.27736E-18
 -1      1760 8.23456E-05-7.71238E-06-3.20314E-05 2.64307E-06 7.93620E-19-1.20628E-18
 -1      1761 7.70212E-05-3.11712E-06-3.17287E-05 4.80792E-06 1.11364E-18-1.09183E-18
 -1      1762 7.78919E-05-3.59663E-06-3.18454E-05 4.24827E-06 1.00021E-18-1.17378E-18
 -1      1763 7.94516E-05-5.73689E-06-3.16260E-05 4.45695E-06 1.04008E-18-1.18184E-18
 -1      1764 7.61266E-05-2.18515E-06-3.17374E-05 5.27929E-06 1.24395E-18-9.57882E-19
 -1      1765 7.63291E-05-2.42049E-06-3.16888E-05 4.99797E-06 1.17621E-18-1.05805E-18
 -1      1766 7.73164E-05-4.05588E-06-3.14156E-05 5.35067E-06 1.24535E-18-1.04209E-18
 -1      1767 7.70445E-05-2.20589E-06-3.21131E-05 5.32518E-06 1.36834E-18-7.09972E-19
 -1      1768 7.63259E-05-2.05211E-06-3.18676E-05 5.14317E-06 1.28832E-18-8.63874E-19
 -1      1769 7.66942E-05-3.20522E-06-3.14993E-05 5.42012E-06 1.37176E-18-8.77311E-19
 -1      1770 8.02159E-05-3.54423E-06-3.28947E-05 5.46940E-06 1.58471E-18-2.04122E-19
 -1      1771 7.83948E-05-2.87627E-06-3.24356E-05 5.12065E-06 1.46992E-18-4.78997E-19
 -1      1772 7.82412E-05-3.70348E-06-3.19406E-05 5.04081E-06 1.52918E-18-5.13408E-19
 -1      1773 8.57290E-05-6.45414E-06-3.40228E-05 6.32788E-06 1.70995E-18 3.73144E-19
 -1      1774 8.28167E-05-5.18252E-06-3.33872E-05 5.51229E-06 1.61271E-18 2.71183E-20
 -1      1775 8.23625E-05-5.95644E-06-3.27414E-05 4.78808E-06 1.68442E-18-1.11702E-20
 -1      1776 9.34168E-05-1.12141E-05-3.53325E-05 8.40020E-06 1.63811E-18 1.30620E-18
 -1      1777 8.95082E-05-9.16424E-06-3.46026E-05 6.87192E-06 1.63859E-18 7.57406E-19
 -1      1778 8.90595E-05-1.01922E-05-3.37917E-05 5.22122E-06 1.75550E-18 6.27215E-19
 -1      1779 1.03587E-04-1.88658E-05-3.64568E-05 1.11739E-05 1.32454E-18 2.77906E-18
 -1      1780 9.83395E-05-1.52013E-05-3.58279E-05 9.29163E-06 1.47667E-18 1.88798E-18
 -1      1781 9.79177E-05-1.66194E-05-3.48294E-05 6.40570E-06 1.59414E-18 1.58348E-18
 -1      1782 1.12113E-04-2.81155E-05-3.63919E-05 9.17836E-06 9.54871E-19 4.42988E-18
 -1      1783 1.07141E-04-2.21703E-05-3.64256E-05 1.09704E-05 1.15016E-18 3.35330E-18
 -1      1784 1.05960E-04-2.38424E-05-3.52151E-05 6.26651E-06 1.30238E-18 2.68589E-18
 -1      1785 1.10390E-04-2.94324E-05-3.48464E-05 3.86919E-06 9.60694E-19 4.07617E-18
 -1      1786 1.04770E-04-2.09969E-05-3.55919E-05-1.77021E-05-1.07549E-18 3.41354E-19
 -1      1787 1.10040E-04-3.11388E-05-3.37933E-05-2.59582E-06 8.85123E-19 3.34808E-18
 -1      1788 1.10462E-04-3.07606E-05-3.41720E-05 3.39693E-07 8.04099E-19 3.63301E-18
 -1      1789 1.08670E-04-2.83988E-05-3.44218E-05 1.61381E-06 1.07880E-18 2.77569E-18
 -1      1790 1.04513E-04-2.42140E-05-3.41368E-05-1.32939E-05-1.06816E-18 5.26219E-20
 -1      1791 1.02123E-04-2.89536E-05-3.12473E-05-5.26050E-06-8.34010E-19 1.33160E-20
 -1      1792 1.00355E-04-2.90805E-05-3.05412E-05-3.83266E-06-7.06531E-19-1.95936E-19
 -1      1793 9.95945E-05-2.93539E-05-3.00140E-05-2.87635E-06-7.07183E-19-2.03248E-19
 -1      1794 9.86343E-05-2.94300E-05-2.96488E-05-2.50141E-06-6.17709E-19-4.06831E-19
 -1      1795 1.00631E-04-2.88605E-05-3.07724E-05-4.69821E-06-8.45445E-19-3.96094E-19
 -1      1796 9.80380E-05-2.95112E-05-2.93194E-05-2.31910E-06-4.16538E-19-3.09418E-19
 -1      1797 9.72531E-05-2.94596E-05-2.90588E-05-2.43707E-06-2.63466E-19-4.66947E-19
 -1      1798 9.94361E-05-2.97050E-05-2.98941E-05-3.32955E-06-6.20741E-19-3.55760E-19
 -1      1799 9.67045E-05-2.94219E-05-2.88158E-05-2.70294E-06-2.68706E-19-4.20611E-19
 -1      1800 9.58600E-05-2.92298E-05-2.85665E-05-3.04858E-06-2.77274E-19-4.06302E-19
 -1      1801 9.84072E-05-3.00046E-05-2.93166E-05-3.37992E-06-3.36180E-19-4.78372E-19
 -1      1802 9.52322E-05-2.90510E-05-2.83601E-05-3.49179E-06-3.10017E-19-2.59344E-19
 -1      1803 9.42252E-05-2.86909E-05-2.80914E-05-3.85437E-06-3.24172E-19-3.45503E-19
 -1      1804 9.72842E-05-2.98740E-05-2.88842E-05-4.14847E-06-2.52675E-19-3.77538E-19
 -1      1805 9.34486E-05-2.83457E-05-2.79048E-05-4.21070E-06-4.67838E-19-3.26298E-19
 -1      1806 9.23072E-05-2.78305E-05-2.76238E-05-4.38645E-06-4.02542E-19-3.73475E-19
 -1      1807 9.58792E-05-2.92886E-05-2.85303E-05-5.03984E-06-3.88023E-19-3.11950E-20
 -1      1808 9.14130E-05-2.73442E-05-2.74606E-05-4.40250E-06-4.28681E-19-4.13036E-19
 -1      1809 9.02845E-05-2.67559E-05-2.72002E-05-4.22220E-06-4.33130E-19-3.55588E-19
 -1      1810 9.41593E-05-2.82652E-05-2.82365E-05-5.47030E-06-4.41559E-19-2.66370E-19
 -1      1811 8.94200E-05-2.62321E-05-2.70750E-05-3.72441E-06-6.12994E-19-5.04908E-19
 -1      1812 8.85308E-05-2.57183E-05-2.68808E-05-3.11840E-06-5.19784E-19-5.46571E-19
 -1      1813 9.23184E-05-2.69824E-05-2.80098E-05-4.94835E-06-6.62259E-19-4.40403E-19
 -1      1814 8.79209E-05-2.53206E-05-2.68099E-05-2.10318E-06-5.99709E-19-8.99915E-19
 -1      1815 8.74994E-05-2.50458E-05-2.67248E-05-1.15503E-06-5.18202E-19-1.17963E-18
 -1      1816 9.07589E-05-2.57963E-05-2.78656E-05-3.25907E-06-8.49376E-19-6.58779E-19
 -1      1817 8.73470E-05-2.49262E-05-2.67197E-05 1.72628E-07-2.91528E-19-1.33210E-18
 -1      1818 8.75303E-05-2.49962E-05-2.67680E-05 1.23701E-06-1.51080E-19-1.60032E-18
 -1      1819 8.99450E-05-2.51227E-05-2.78159E-05-6.22121E-07-5.31196E-19-1.19067E-18
 -1      1820 8.79053E-05-2.52097E-05-2.68311E-05 2.53080E-06-1.86920E-19-1.51995E-18
 -1      1821 8.86769E-05-2.56145E-05-2.70091E-05 3.43222E-06-1.87793E-19-1.32393E-18
 -1      1822 9.01745E-05-2.52341E-05-2.78648E-05 2.33375E-06-1.58342E-19-1.20092E-18
 -1      1823 8.94711E-05-2.60850E-05-2.71319E-05 4.35629E-06 1.64132E-19-1.39581E-18
 -1      1824 9.06653E-05-2.67044E-05-2.74084E-05 4.88308E-06 5.38825E-19-1.17520E-18
 -1      1825 9.14072E-05-2.61048E-05-2.80068E-05 4.82520E-06 7.00953E-21-7.94461E-19
 -1      1826 9.16496E-05-2.72702E-05-2.75726E-05 5.25499E-06 3.58605E-19-1.23316E-18
 -1      1827 9.30184E-05-2.79367E-05-2.78984E-05 5.34030E-06 2.17811E-19-6.62003E-19
 -1      1828 9.32798E-05-2.74263E-05-2.82255E-05 6.26265E-06 4.73675E-19-7.25404E-19
 -1      1829 9.39550E-05-2.84381E-05-2.80793E-05 5.17774E-06 5.05978E-20-7.51953E-19
 -1      1830 9.52564E-05-2.90104E-05-2.84017E-05 4.89492E-06 4.52774E-19-6.70389E-19
 -1      1831 9.52910E-05-2.87806E-05-2.84932E-05 6.46976E-06 1.04451E-19-8.28971E-19
 -1      1832 9.59848E-05-2.93535E-05-2.85735E-05 4.35961E-06 3.95086E-19-7.51149E-19
 -1      1833 9.70476E-05-2.97567E-05-2.88500E-05 3.85882E-06 2.21832E-19-9.85240E-19
 -1      1834 9.70181E-05-2.98379E-05-2.87736E-05 5.66306E-06 2.74788E-19-8.90960E-19
 -1      1835 9.75082E-05-2.99237E-05-2.89919E-05 3.15776E-06 7.84167E-22-1.18301E-18
 -1      1836 9.82530E-05-3.01481E-05-2.91973E-05 2.59387E-06-1.14879E-19-1.20870E-18
 -1      1837 9.82339E-05-3.04557E-05-2.90295E-05 4.26598E-06-3.78385E-20-9.84995E-19
 -1      1838 9.84625E-05-3.01720E-05-2.92971E-05 1.90091E-06 1.32035E-19-1.53213E-18
 -1      1839 9.88888E-05-3.02485E-05-2.94245E-05 1.38797E-06-7.27605E-20-1.47474E-18
 -1      1840 9.89011E-05-3.06595E-05-2.92313E-05 2.70615E-06-8.10654E-20-1.12240E-18
 -1      1841 9.89022E-05-3.01797E-05-2.94793E-05 8.10137E-07-4.18406E-19-1.35904E-18
 -1      1842 9.90593E-05-3.01539E-05-2.95359E-05 4.08639E-07-3.11452E-19-1.19455E-18
 -1      1843 9.91028E-05-3.05646E-05-2.93628E-05 1.29325E-06-1.94935E-19-1.33656E-18
 -1      1844 9.89400E-05-3.00387E-05-2.95501E-05-1.13958E-08-3.47775E-19-1.05998E-18
 -1      1845 9.88983E-05-2.99536E-05-2.95508E-05-2.85614E-07-5.42046E-19-1.21333E-18
 -1      1846 9.89682E-05-3.03017E-05-2.94220E-05 1.89067E-07-3.64360E-19-1.70295E-18
 -1      1847 9.87023E-05-2.98250E-05-2.95331E-05-5.50235E-07-5.76049E-19-9.34687E-19
 -1      1848 9.85326E-05-2.97136E-05-2.94953E-05-7.09434E-07-1.55478E-19-1.57023E-18
 -1      1849 9.86244E-05-2.99757E-05-2.94176E-05-5.65351E-07-3.21920E-19-1.14913E-18
 -1      1850 9.83026E-05-2.95914E-05-2.94559E-05-8.44974E-07-2.04843E-20-1.39157E-18
 -1      1851 9.80650E-05-2.94757E-05-2.93956E-05-9.14250E-07 1.09511E-19-7.71219E-19
 -1      1852 9.81743E-05-2.96542E-05-2.93650E-05-1.00396E-06 1.00775E-19-7.46049E-19
 -1      1853 9.78306E-05-2.93693E-05-2.93440E-05-9.54998E-07-1.73233E-19-7.86533E-19
 -1      1854 9.75700E-05-2.92621E-05-2.92742E-05-9.61784E-07 1.91518E-19-8.95471E-19
 -1      1855 9.76920E-05-2.93720E-05-2.92807E-05-1.19485E-06 2.65593E-19-4.72600E-19
 -1      1856 9.73499E-05-2.91746E-05-2.92181E-05-9.40422E-07 3.43699E-19-1.09881E-18
 -1      1857 9.70966E-05-2.90821E-05-2.91480E-05-9.08805E-07 3.99195E-19-1.34997E-18
 -1      1858 9.72254E-05-2.91420E-05-2.91803E-05-1.21247E-06 1.22095E-19-1.04648E-18
 -1      1859 9.69009E-05-2.90128E-05-2.90930E-05-8.51993E-07 8.34692E-19-1.58511E-18
 -1      1860 9.66726E-05-2.89369E-05-2.90282E-05-8.00534E-07 9.61014E-19-1.20532E-18
 -1      1861 9.68024E-05-2.89637E-05-2.90759E-05-1.12252E-06 4.81954E-19-1.20544E-18
 -1      1862 9.65057E-05-2.88838E-05-2.89779E-05-7.27794E-07 4.22908E-19-1.44382E-18
 -1      1863 9.63110E-05-2.88239E-05-2.89215E-05-6.69418E-07-3.37877E-19-1.33071E-18
 -1      1864 9.64365E-05-2.88309E-05-2.89762E-05-9.76048E-07 9.18118E-19-1.22500E-18
 -1      1865 9.61734E-05-2.87842E-05-2.88778E-05-5.93759E-07-4.84656E-19-9.72024E-19
 -1      1866 9.60144E-05-2.87386E-05-2.88310E-05-5.36617E-07 9.83057E-20-8.11059E-19
 -1      1867 9.61314E-05-2.87350E-05-2.88864E-05-8.09018E-07 7.38776E-20-9.58213E-19
 -1      1868 9.59043E-05-2.87096E-05-2.87945E-05-4.65846E-07 3.46640E-19-9.53475E-19
 -1      1869 9.57791E-05-2.86760E-05-2.87571E-05-4.14477E-07 7.65407E-19-7.53460E-19
 -1      1870 9.58847E-05-2.86679E-05-2.88093E-05-6.44444E-07-9.00295E-20-9.29736E-19
 -1      1871 9.56935E-05-2.86553E-05-2.87277E-05-3.52621E-07 2.95078E-19-1.14807E-18
 -1      1872 9.55982E-05-2.86313E-05-2.86989E-05-3.09056E-07 6.81355E-20-1.55882E-18
 -1      1873 9.56908E-05-2.86223E-05-2.87454E-05-4.95419E-07 1.74187E-19-1.23207E-18
 -1      1874 9.55333E-05-2.86169E-05-2.86760E-05-2.57599E-07-7.19540E-20-1.85860E-18
 -1      1875 9.54633E-05-2.86005E-05-2.86545E-05-2.22267E-07-3.00101E-21-1.50777E-18
 -1      1876 9.55423E-05-2.85924E-05-2.86944E-05-3.68044E-07-2.82367E-20-1.72248E-18
 -1      1877 9.54154E-05-2.85908E-05-2.86371E-05-1.81122E-07-5.49495E-20-1.27675E-18
 -1      1878 9.53658E-05-2.85801E-05-2.86216E-05-1.53518E-07-5.88339E-19-5.14009E-19
 -1      1879 9.54316E-05-2.85736E-05-2.86547E-05-2.63866E-07 1.20263E-19-1.40643E-18
 -1      1880 9.53315E-05-2.85738E-05-2.86089E-05-1.21730E-07-8.20409E-19 1.38472E-19
 -1      1881 9.52977E-05-2.85672E-05-2.85982E-05-1.00881E-07-1.44186E-19 1.60713E-19
 -1      1882 9.53514E-05-2.85626E-05-2.86248E-05-1.81724E-07-3.26590E-19-5.54855E-19
 -1      1883 9.52740E-05-2.85634E-05-2.85891E-05-7.70975E-08-1.91969E-19-4.83013E-19
 -1      1884 9.52523E-05-2.85597E-05-2.85820E-05-6.18629E-08 6.09393E-20-6.19321E-19
 -1      1885 9.52951E-05-2.85567E-05-2.86030E-05-1.19045E-07-4.32056E-19 8.66039E-20
 -1      1886 9.52366E-05-2.85576E-05-2.85758E-05-4.46326E-08 6.29617E-19-1.15986E-18
 -1      1887 9.52237E-05-2.85560E-05-2.85715E-05-3.38827E-08 2.70669E-19-1.13138E-18
 -1      1888 9.52571E-05-2.85543E-05-2.85875E-05-7.27039E-08-2.99254E-19 8.53703E-20
 -1      1889 9.52139E-05-2.85551E-05-2.85675E-05-2.18290E-08-7.55720E-20-1.09511E-18
 -1      1890 9.52072E-05-2.85548E-05-2.85650E-05-1.45424E-08 4.72911E-19-8.12148E-19
 -1      1891 9.52328E-05-2.85541E-05-2.85770E-05-3.95433E-08 4.64634E-19-7.69154E-19
 -1      1892 9.52017E-05-2.85546E-05-2.85626E-05-6.45014E-09 1.77541E-19-1.15133E-18
 -1      1893 9.51993E-05-2.85552E-05-2.85616E-05-1.75551E-09-1.30257E-19-1.09480E-18
 -1      1894 9.52183E-05-2.85551E-05-2.85703E-05-1.66654E-08 2.56361E-19-4.58634E-19
 -1      1895 9.51967E-05-2.85554E-05-2.85603E-05 3.39512E-09 3.99195E-19-1.42243E-18
 -1      1896 9.51970E-05-2.85564E-05-2.85601E-05 6.20966E-09 4.95450E-19-4.90199E-19
 -1      1897 9.52109E-05-2.85568E-05-2.85663E-05-1.56830E-09 3.03063E-19-8.66934E-19
 -1      1898 9.51964E-05-2.85570E-05-2.85596E-05 9.24200E-09 4.49600E-20-1.20996E-18
 -1      1899 9.51985E-05-2.85582E-05-2.85600E-05 1.07377E-08-8.60444E-19-9.26314E-19
 -1      1900 9.52082E-05-2.85588E-05-2.85642E-05 7.81421E-09-1.27625E-19-1.28806E-18
 -1      1901 9.51991E-05-2.85589E-05-2.85600E-05 1.22947E-08-5.77352E-19 3.71689E-19
 -1      1902 9.52021E-05-2.85602E-05-2.85607E-05 1.29000E-08-5.42134E-19 8.95874E-19
 -1      1903 9.52086E-05-2.85608E-05-2.85634E-05 1.31284E-08 2.80383E-19-5.78743E-19
 -1      1904 9.52035E-05-2.85609E-05-2.85611E-05 1.34680E-08-1.48778E-18 1.58709E-18
 -1      1905 9.52068E-05-2.85622E-05-2.85619E-05 1.34992E-08-3.83135E-19 8.60676E-19
 -1      1906 9.52109E-05-2.85628E-05-2.85635E-05 1.56443E-08-8.15380E-19 2.45224E-18
 -1      1907 9.52086E-05-2.85629E-05-2.85624E-05 1.34334E-08 2.77630E-19 4.91526E-19
 -1      1908 9.52120E-05-2.85641E-05-2.85634E-05 1.31145E-08 3.67935E-19 2.72226E-19
 -1      1909 9.52142E-05-2.85646E-05-2.85641E-05 1.63100E-08-3.23791E-19 2.34378E-18
 -1      1910 9.52139E-05-2.85648E-05-2.85639E-05 1.26629E-08 6.08334E-19 6.44194E-19
 -1      1911 9.52172E-05-2.85658E-05-2.85648E-05 1.21429E-08 8.84971E-19 1.05862E-18
 -1      1912 9.52180E-05-2.85662E-05-2.85651E-05 1.58068E-08 6.97120E-19 1.07122E-18
 -1      1913 9.52190E-05-2.85664E-05-2.85654E-05 1.14663E-08 2.73408E-19 1.51601E-18
 -1      1914 9.52220E-05-2.85674E-05-2.85663E-05 1.08332E-08 8.97314E-19 1.70698E-18
 -1      1915 9.52218E-05-2.85676E-05-2.85661E-05 1.45980E-08 1.13399E-18 2.45473E-18
 -1      1916 9.52238E-05-2.85679E-05-2.85668E-05 1.00215E-08 1.08393E-18 1.18538E-18
 -1      1917 9.52264E-05-2.85688E-05-2.85676E-05 9.31186E-09 1.23688E-18 1.10755E-18
 -1      1918 9.52255E-05-2.85689E-05-2.85671E-05 1.29709E-08 3.64747E-19 1.91498E-18
 -1      1919 9.52279E-05-2.85693E-05-2.85680E-05 8.39916E-09 1.34952E-18 1.36914E-19
 -1      1920 9.52301E-05-2.85700E-05-2.85686E-05 7.60898E-09 1.11448E-18 8.09180E-19
 -1      1921 9.52288E-05-2.85700E-05-2.85681E-05 1.10689E-08 9.54639E-19-7.81204E-19
 -1      1922 9.52315E-05-2.85705E-05-2.85690E-05 6.59106E-09 1.11452E-18 3.84569E-19
 -1      1923 9.52332E-05-2.85711E-05-2.85695E-05 5.68218E-09 9.21544E-19 7.90085E-19
 -1      1924 9.52318E-05-2.85710E-05-2.85689E-05 8.93612E-09 8.00683E-19 6.80291E-19
 -1      1925 9.52342E-05-2.85714E-05-2.85698E-05 4.60273E-09 1.23009E-18 1.35021E-18
 -1      1926 9.52354E-05-2.85719E-05-2.85701E-05 3.59314E-09 1.40433E-18 9.01226E-19
 -1      1927 9.52359E-05-2.85725E-05-2.85700E-05 4.22488E-09 4.45638E-19 1.82411E-18
 -1      1928 9.52342E-05-2.85719E-05-2.85695E-05 6.61912E-09 1.23818E-18 1.49908E-18
 -1      1929 1.11974E-04-3.22036E-05-3.41251E-05-6.79034E-06 6.61612E-19 2.92930E-18
 -1      1930 1.10637E-04-3.15877E-05-3.38033E-05-4.80273E-06 8.13774E-19 3.17833E-18
 -1      1931 1.08966E-04-3.01861E-05-3.37969E-05-4.87707E-06 9.22750E-19 2.35784E-18
 -1      1932 1.15973E-04-3.37696E-05-3.51971E-05-9.97903E-06 2.97461E-19 2.54724E-18
 -1      1933 1.13378E-04-3.27642E-05-3.44917E-05-8.40323E-06 4.43078E-19 2.80752E-18
 -1      1934 1.10869E-04-3.14156E-05-3.40980E-05-9.56025E-06 6.42653E-19 2.12523E-18
 -1      1935 1.21613E-04-3.62556E-05-3.66038E-05-1.18302E-05-1.03611E-19 2.44343E-18
 -1      1936 1.18220E-04-3.47812E-05-3.57325E-05-1.08608E-05-2.39684E-20 2.40220E-18
 -1      1937 1.14576E-04-3.33449E-05-3.48756E-05-1.28624E-05 1.06445E-19 1.75144E-18
 -1      1938 1.28668E-04-4.02279E-05-3.79766E-05-1.06685E-05-3.53094E-19 2.80468E-18
 -1      1939 1.24935E-04-3.81714E-05-3.71724E-05-1.12657E-05-2.49200E-19 2.66601E-18
 -1      1940 1.20262E-04-3.68613E-05-3.58116E-05-1.39142E-05-3.09055E-19 1.84850E-18
 -1      1941 1.35287E-04-4.49848E-05-3.87833E-05-4.15882E-06-5.55627E-19 3.23808E-18
 -1      1942 1.32703E-04-4.30430E-05-3.84092E-05-7.53755E-06-5.56659E-19 2.92420E-18
 -1      1943 1.27905E-04-4.25346E-05-3.66457E-05-1.05411E-05-6.60633E-19 2.27774E-18
 -1      1944 1.39603E-04-4.83415E-05-3.91730E-05 8.65406E-06-4.91756E-19 3.49645E-18
 -1      1945 1.39471E-04-4.79160E-05-3.92480E-05 1.92966E-06-6.88611E-19 3.45957E-18
 -1      1946 1.36466E-04-4.89010E-05-3.75528E-05-6.38293E-07-8.11431E-19 2.45949E-18
 -1      1947 1.37866E-04-4.47987E-05-4.00469E-05 2.21191E-05-1.23826E-19 3.68105E-18
 -1      1948 1.41572E-04-4.82401E-05-4.01766E-05 1.52891E-05-2.69264E-19 3.60839E-18
 -1      1949 1.42934E-04-5.11442E-05-3.94197E-05 1.44811E-05-4.39173E-19 2.54881E-18
 -1      1950 1.29737E-04-3.30030E-05-4.20646E-05 2.14596E-05 1.20088E-18 3.59677E-18
 -1      1951 1.35808E-04-3.93510E-05-4.18115E-05 2.20417E-05 3.58930E-19 3.76044E-18
 -1      1952 1.42430E-04-4.24738E-05-4.33088E-05 2.45673E-05 3.51095E-19 2.95614E-18
 -1      1953 1.25048E-04-2.57592E-05-4.34873E-05-1.12331E-07 2.54576E-18 1.80074E-18
 -1      1954 1.27439E-04-2.77345E-05-4.33330E-05 1.02148E-05 2.37148E-18 2.87529E-18
 -1      1955 1.37372E-04-2.80645E-05-4.72788E-05 1.37766E-05 2.43861E-18 2.18201E-18
 -1      1956 1.30195E-04-3.19180E-05-4.29049E-05-1.98799E-05 2.46720E-18 3.51942E-19
 -1      1957 1.26843E-04-2.79225E-05-4.30023E-05-1.10840E-05 2.12986E-18 1.06599E-18
 -1      1958 1.36652E-04-2.58974E-05-4.79393E-05-1.05854E-05 2.69822E-18 7.42054E-19
 -1      1959 1.38779E-04-4.26660E-05-4.14507E-05-2.52372E-05 1.65261E-18-7.37448E-20
 -1      1960 1.33246E-04-3.75203E-05-4.14913E-05-2.26587E-05 2.22198E-18 2.94000E-19
 -1      1961 1.41620E-04-3.70302E-05-4.52073E-05-2.52502E-05 2.55042E-18-4.01335E-19
 -1      1962 1.43976E-04-4.94647E-05-4.02230E-05-1.51507E-05 5.60491E-19-8.34122E-19
 -1      1963 1.39212E-04-4.65606E-05-4.00070E-05-1.93191E-05 1.29484E-18-2.86535E-19
 -1      1964 1.44674E-04-4.86674E-05-4.15114E-05-2.24013E-05 1.63562E-18-3.43935E-19
 -1      1965 1.40781E-04-4.75566E-05-3.96393E-05-4.63661E-07-5.19866E-20-1.64651E-18
 -1      1966 1.40194E-04-4.83656E-05-3.95225E-05-6.32421E-06 3.05567E-19-1.06396E-18
 -1      1967 1.41307E-04-5.18543E-05-3.86944E-05-7.17164E-06 5.49248E-19-9.23352E-19
 -1      1968 1.33587E-04-4.25662E-05-3.88680E-05 8.75058E-06-1.24985E-18-1.42701E-18
 -1      1969 1.35998E-04-4.46244E-05-3.92209E-05 4.94673E-06-9.43939E-19-1.41034E-18
 -1      1970 1.33233E-04-4.65305E-05-3.74015E-05 6.21968E-06-9.00767E-19-9.19084E-19
 -1      1971 1.25865E-04-3.81632E-05-3.75894E-05 1.18833E-05-4.16409E-19-1.64854E-19
 -1      1972 1.29556E-04-4.00956E-05-3.83557E-05 1.04703E-05-5.78550E-19-8.34672E-19
 -1      1973 1.25003E-04-4.00522E-05-3.65255E-05 1.29031E-05-8.07818E-19-3.79788E-19
 -1      1974 1.18992E-04-3.51181E-05-3.60023E-05 1.14527E-05-1.08665E-18 8.01571E-19
 -1      1975 1.22822E-04-3.66064E-05-3.69442E-05 1.14981E-05-7.26582E-19 2.34787E-19
 -1      1976 1.18247E-04-3.54863E-05-3.55083E-05 1.42231E-05-1.04906E-18 6.06290E-19
 -1      1977 1.13051E-04-3.30550E-05-3.43402E-05 9.48100E-06-2.61958E-19 1.55033E-18
 -1      1978 1.16576E-04-3.41789E-05-3.52913E-05 1.01934E-05-9.82916E-19 9.96799E-19
 -1      1979 1.12830E-04-3.27825E-05-3.43003E-05 1.27481E-05-9.76553E-19 7.50862E-19
 -1      1980 1.08581E-04-3.17694E-05-3.29587E-05 7.36397E-06 6.22175E-19 1.14472E-18
 -1      1981 1.11308E-04-3.25372E-05-3.37277E-05 8.16855E-06 7.63402E-19 2.20584E-18
 -1      1982 1.08577E-04-3.12894E-05-3.31060E-05 1.03245E-05 1.82542E-19 1.89386E-18
 -1      1983 1.05099E-04-3.08752E-05-3.18354E-05 5.51116E-06 5.96420E-19 6.99599E-19
 -1      1984 1.07214E-04-3.14318E-05-3.24449E-05 6.23388E-06 7.06545E-19 9.33809E-19
 -1      1985 1.05328E-04-3.04573E-05-3.20702E-05 7.96275E-06 1.02932E-18 1.23902E-18
 -1      1986 1.02444E-04-3.02348E-05-3.09619E-05 4.03751E-06-7.30698E-19 6.19298E-19
 -1      1987 1.04037E-04-3.06389E-05-3.14263E-05 4.61947E-06-7.30735E-19 4.48017E-19
 -1      1988 1.02788E-04-2.99298E-05-3.12123E-05 5.95664E-06-4.02585E-19-7.86028E-21
 -1      1989 1.00448E-04-2.97669E-05-3.03004E-05 2.92144E-06-9.86638E-19 1.29349E-18
 -1      1990 1.01626E-04-3.00604E-05-3.06461E-05 3.36614E-06-8.17380E-19 6.35249E-19
 -1      1991 1.00825E-04-2.95653E-05-3.05319E-05 4.37634E-06-9.69730E-19 2.62684E-19
 -1      1992 9.89602E-05-2.94218E-05-2.98074E-05 2.09812E-06-3.21340E-19 1.40821E-18
 -1      1993 9.98241E-05-2.96351E-05-3.00615E-05 2.42833E-06-1.09154E-18 1.00584E-18
 -1      1994 9.93244E-05-2.92981E-05-3.00072E-05 3.17993E-06-9.56381E-19 9.11310E-19
 -1      1995 9.78183E-05-2.91570E-05-2.94290E-05 1.47210E-06 3.53299E-19 1.81784E-18
 -1      1996 9.84663E-05-2.93167E-05-2.96207E-05 1.72347E-06 6.79039E-19 1.93885E-18
 -1      1997 9.81672E-05-2.90909E-05-2.96016E-05 2.27658E-06 1.10692E-19 2.34036E-19
 -1      1998 9.70314E-05-2.89738E-05-2.91686E-05 1.04428E-06 1.51434E-18 8.47530E-19
 -1      1999 9.74738E-05-2.90825E-05-2.92996E-05 1.21836E-06 8.76649E-19 1.39481E-18
 -1      2000 9.73049E-05-2.89371E-05-2.93004E-05 1.61584E-06 1.22437E-18 5.12828E-19
 -1      2001 9.64588E-05-2.88403E-05-2.89797E-05 7.35318E-07-3.49237E-19 2.71620E-19
 -1      2002 9.67750E-05-2.89179E-05-2.90736E-05 8.61924E-07 6.14227E-19 6.42313E-19
 -1      2003 9.66852E-05-2.88235E-05-2.90842E-05 1.14971E-06 7.72417E-19 1.41566E-19
 -1      2004 9.60472E-05-2.87444E-05-2.88440E-05 5.12564E-07 7.07166E-19 1.74914E-18
 -1      2005 9.62712E-05-2.87991E-05-2.89107E-05 6.04470E-07-2.13510E-19 8.49839E-19
 -1      2006 9.62304E-05-2.87389E-05-2.89258E-05 8.11202E-07-4.64505E-19 6.84337E-19
 -1      2007 9.57548E-05-2.86766E-05-2.87476E-05 3.52288E-07-2.84493E-19 1.52798E-18
 -1      2008 9.59117E-05-2.87146E-05-2.87945E-05 4.18887E-07 2.87879E-19 1.63179E-18
 -1      2009 9.59004E-05-2.86772E-05-2.88110E-05 5.65964E-07 1.37188E-19 2.12857E-18
 -1      2010 9.55498E-05-2.86295E-05-2.86799E-05 2.37402E-07-2.28120E-19 5.56105E-19
 -1      2011 9.56584E-05-2.86554E-05-2.87124E-05 2.85530E-07-5.28911E-19 1.41604E-18
 -1      2012 9.56641E-05-2.86332E-05-2.87285E-05 3.88855E-07-1.87239E-19 1.36265E-18
 -1      2013 9.54036E-05-2.85966E-05-2.86313E-05 1.52124E-07 7.83862E-19 1.64129E-18
 -1      2014 9.54793E-05-2.86143E-05-2.86542E-05 1.87911E-07 2.11402E-19 1.04372E-18
 -1      2015 9.54942E-05-2.86016E-05-2.86690E-05 2.59340E-07-1.29370E-19 8.48609E-19
 -1      2016 9.53117E-05-2.85764E-05-2.86005E-05 9.54768E-08-8.12084E-19 2.19762E-18
 -1      2017 9.53586E-05-2.85870E-05-2.86148E-05 1.19626E-07 3.89557E-19 2.04324E-18
 -1      2018 9.53776E-05-2.85811E-05-2.86278E-05 1.66991E-07-1.19553E-19 1.90080E-18
 -1      2019 9.52523E-05-2.85639E-05-2.85804E-05 5.60258E-08 1.23178E-18 1.82619E-18
 -1      2020 9.52818E-05-2.85703E-05-2.85895E-05 7.29897E-08 4.59174E-19 2.12871E-18
 -1      2021 9.53017E-05-2.85683E-05-2.86006E-05 1.04001E-07 2.32865E-19 2.27214E-18
 -1      2022 9.52161E-05-2.85570E-05-2.85679E-05 2.91057E-08 8.50068E-19 1.11056E-18
 -1      2023 9.52334E-05-2.85604E-05-2.85734E-05 4.08178E-08 8.49984E-19 1.37107E-18
 -1      2024 9.52525E-05-2.85607E-05-2.85827E-05 6.02385E-08 1.07595E-18 2.04324E-18
 -1      2025 9.51960E-05-2.85537E-05-2.85607E-05 1.12229E-08-6.43543E-19-3.27473E-19
 -1      2026 9.52049E-05-2.85552E-05-2.85637E-05 1.91201E-08 5.21835E-19 8.57063E-19
 -1      2027 9.52223E-05-2.85568E-05-2.85713E-05 3.04490E-08 5.45075E-19 7.85824E-19
 -1      2028 9.51867E-05-2.85529E-05-2.85571E-05-2.27173E-10 3.43291E-19-1.84459E-18
 -1      2029 9.51901E-05-2.85530E-05-2.85584E-05 4.95094E-09-7.30839E-19-1.49709E-18
 -1      2030 9.52053E-05-2.85554E-05-2.85646E-05 1.07390E-08-1.53005E-19-1.42658E-18
 -1      2031 9.51846E-05-2.85537E-05-2.85559E-05-7.37615E-09-1.64971E-19-2.02412E-18
 -1      2032 9.51844E-05-2.85530E-05-2.85561E-05-4.06786E-09 8.63836E-19-1.34213E-18
 -1      2033 9.51972E-05-2.85555E-05-2.85610E-05-1.95360E-09-3.85511E-20-1.12574E-18
 -1      2034 9.51870E-05-2.85553E-05-2.85563E-05-1.09900E-08-9.14898E-19-1.73992E-19
 -1      2035 9.51847E-05-2.85542E-05-2.85558E-05-9.19979E-09-4.55378E-19-8.90968E-19
 -1      2036 9.51953E-05-2.85567E-05-2.85596E-05-9.51653E-09-8.02041E-19 2.45981E-19
 -1      2037 9.51920E-05-2.85574E-05-2.85576E-05-1.25762E-08-1.27604E-18-9.86659E-19
 -1      2038 9.51885E-05-2.85561E-05-2.85567E-05-1.16915E-08-7.82730E-19-1.70154E-19
 -1      2039 9.51971E-05-2.85584E-05-2.85596E-05-1.33816E-08-6.94493E-19 2.89368E-19
 -1      2040 9.51982E-05-2.85596E-05-2.85593E-05-1.28429E-08 5.83777E-19-1.51647E-18
 -1      2041 9.51942E-05-2.85583E-05-2.85582E-05-1.25498E-08-9.47195E-19-1.18151E-18
 -1      2042 9.52010E-05-2.85603E-05-2.85604E-05-1.49781E-08-3.97925E-19-6.48310E-19
 -1      2043 9.52048E-05-2.85618E-05-2.85612E-05-1.23027E-08-1.74318E-20-2.16398E-18
 -1      2044 9.52007E-05-2.85605E-05-2.85601E-05-1.23805E-08 1.03122E-18-2.00725E-18
 -1      2045 9.52060E-05-2.85622E-05-2.85617E-05-1.51224E-08 1.17237E-18-6.51965E-19
 -1      2046 9.52113E-05-2.85639E-05-2.85631E-05-1.13100E-08-1.31433E-19-3.11836E-18
 -1      2047 9.52074E-05-2.85626E-05-2.85620E-05-1.16002E-08-9.64582E-19-3.84711E-18
 -1      2048 9.52113E-05-2.85640E-05-2.85632E-05-1.43837E-08-2.89987E-19-1.38595E-18
 -1      2049 9.52176E-05-2.85658E-05-2.85650E-05-1.00032E-08-4.64672E-19-1.22850E-18
 -1      2050 9.52139E-05-2.85647E-05-2.85640E-05-1.04469E-08-7.39122E-19-2.47149E-18
 -1      2051 9.52167E-05-2.85658E-05-2.85647E-05-1.31001E-08-6.13013E-19-2.69097E-18
 -1      2052 9.52230E-05-2.85675E-05-2.85666E-05-8.62616E-09-5.00065E-19 3.45553E-19
 -1      2053 9.52199E-05-2.85665E-05-2.85658E-05-9.12750E-09 6.45873E-19 6.56549E-19
 -1      2054 9.52217E-05-2.85674E-05-2.85662E-05-1.15359E-08-7.21743E-19-4.06900E-20
 -1      2055 9.52277E-05-2.85689E-05-2.85680E-05-7.15484E-09 5.43763E-19 1.03822E-18
 -1      2056 9.52250E-05-2.85681E-05-2.85673E-05-7.72400E-09-4.88992E-19 8.03267E-19
 -1      2057 9.52261E-05-2.85687E-05-2.85675E-05-9.84096E-09-5.90095E-19 2.71781E-19
 -1      2058 9.52315E-05-2.85701E-05-2.85691E-05-5.54229E-09-1.04084E-18 1.52454E-18
 -1      2059 9.52293E-05-2.85694E-05-2.85686E-05-6.20213E-09 1.00892E-18 1.65931E-18
 -1      2060 9.52299E-05-2.85699E-05-2.85686E-05-7.98861E-09 2.24911E-19 6.53511E-19
 -1      2061 9.52344E-05-2.85711E-05-2.85700E-05-3.70921E-09 9.40456E-19 1.17657E-19
 -1      2062 9.52328E-05-2.85706E-05-2.85696E-05-4.50421E-09-6.71320E-19 7.02617E-19
 -1      2063 9.52330E-05-2.85710E-05-2.85694E-05-5.93471E-09-4.33154E-19-2.32674E-19
 -1      2064 9.52361E-05-2.85718E-05-2.85705E-05-2.15148E-09 2.94888E-19-1.06247E-18
 -1      2065 9.52351E-05-2.85714E-05-2.85702E-05-3.05275E-09 8.58726E-19 1.84144E-19
 -1      2066 9.52351E-05-2.85718E-05-2.85700E-05-4.12277E-09 9.04602E-19 4.48457E-19
 -1      2067 9.52364E-05-2.85723E-05-2.85703E-05-2.64265E-09 4.65824E-19 1.30573E-18
 -1      2068 9.52398E-05-2.85797E-05-2.85686E-05-6.05298E-09 4.09302E-19-1.70493E-20
 -1      2069 9.52390E-05-2.85781E-05-2.85690E-05-5.99264E-09-1.15133E-19-1.44155E-19
 -1      2070 9.52384E-05-2.85768E-05-2.85692E-05-5.69627E-09-1.44689E-18-8.63773E-19
 -1      2071 9.52377E-05-2.85753E-05-2.85696E-05-5.18479E-09-4.69354E-19 1.20664E-19
 -1      2072 9.52384E-05-2.85771E-05-2.85691E-05-7.40210E-09-1.59683E-18 3.40740E-19
 -1      2073 9.52373E-05-2.85744E-05-2.85698E-05-4.45979E-09 8.05739E-19 1.73393E-19
 -1      2074 9.52367E-05-2.85732E-05-2.85701E-05-3.60004E-09 3.50769E-19 1.42738E-18
 -1      2075 9.52362E-05-2.85730E-05-2.85700E-05-4.41111E-09 3.78627E-19 1.37132E-18
 -1      2076 9.52371E-05-2.85748E-05-2.85696E-05-6.21737E-09-7.49976E-19-1.84244E-18
 -1      2077 9.52410E-05-2.85824E-05-2.85679E-05-5.54848E-09-4.47230E-19-4.33893E-18
 -1      2078 9.52404E-05-2.85810E-05-2.85683E-05-5.85863E-09 3.55784E-19-1.31795E-18
 -1      2079 9.52400E-05-2.85798E-05-2.85687E-05-7.48519E-09-3.47691E-19-1.35130E-18
 -1      2080 9.52420E-05-2.85847E-05-2.85674E-05-4.32102E-09 6.83061E-19-9.79101E-19
 -1      2081 9.52415E-05-2.85835E-05-2.85677E-05-4.93139E-09 4.89145E-19-2.29580E-18
 -1      2082 9.52413E-05-2.85822E-05-2.85682E-05-6.56825E-09 4.05868E-19-3.08023E-18
 -1      2083 9.52427E-05-2.85863E-05-2.85670E-05-2.57985E-09 9.44699E-19 1.43623E-18
 -1      2084 9.52424E-05-2.85855E-05-2.85672E-05-3.39004E-09 1.29334E-18 1.37841E-18
 -1      2085 9.52423E-05-2.85841E-05-2.85678E-05-4.82710E-09 1.42084E-18-2.43406E-19
 -1      2086 9.52430E-05-2.85869E-05-2.85668E-05-5.51104E-10-4.09887E-19 3.31065E-19
 -1      2087 9.52429E-05-2.85867E-05-2.85669E-05-1.45999E-09 7.68052E-20-2.40421E-20
 -1      2088 9.52430E-05-2.85853E-05-2.85676E-05-2.52711E-09 4.10498E-19-5.57861E-19
 -1      2089 9.52429E-05-2.85866E-05-2.85669E-05 1.53434E-09-1.45723E-19-4.96788E-19
 -1      2090 9.52430E-05-2.85869E-05-2.85668E-05 6.28919E-10-4.69406E-19 1.07675E-18
 -1      2091 9.52432E-05-2.85857E-05-2.85675E-05 5.05028E-11 7.41931E-20 3.16233E-19
 -1      2092 9.52423E-05-2.85854E-05-2.85672E-05 3.44594E-09-1.09685E-18-1.09091E-18
 -1      2093 9.52427E-05-2.85862E-05-2.85670E-05 2.64564E-09-2.57324E-19-4.76759E-19
 -1      2094 9.52430E-05-2.85853E-05-2.85676E-05 2.61816E-09-9.03932E-19-9.55615E-19
 -1      2095 9.52415E-05-2.85834E-05-2.85677E-05 4.93780E-09-1.73618E-18-3.44419E-18
 -1      2096 9.52420E-05-2.85846E-05-2.85674E-05 4.34881E-09-1.04259E-18-2.08164E-18
 -1      2097 9.52423E-05-2.85840E-05-2.85679E-05 4.87532E-09-1.53136E-18-2.09427E-18
 -1      2098 9.52403E-05-2.85809E-05-2.85683E-05 5.84696E-09-5.99194E-19-3.61660E-19
 -1      2099 9.52410E-05-2.85824E-05-2.85680E-05 5.54341E-09-6.74107E-19-1.03048E-18
 -1      2100 9.52413E-05-2.85821E-05-2.85682E-05 6.57166E-09 1.29431E-19-2.16121E-18
 -1      2101 9.52390E-05-2.85780E-05-2.85690E-05 5.96179E-09-7.21690E-20 1.04659E-18
 -1      2102 9.52397E-05-2.85796E-05-2.85686E-05 6.03083E-09 4.27885E-19-5.19788E-19
 -1      2103 9.52399E-05-2.85797E-05-2.85687E-05 7.46492E-09 1.65119E-18 4.68852E-19
 -1      2104 9.52376E-05-2.85752E-05-2.85696E-05 5.17439E-09-9.51700E-19 1.92788E-18
 -1      2105 9.52383E-05-2.85767E-05-2.85693E-05 5.65689E-09-8.74906E-19 2.04853E-18
 -1      2106 9.52384E-05-2.85771E-05-2.85692E-05 7.34882E-09 9.66434E-19 9.86166E-19
 -1      2107 5.92417E-05-4.52371E-05-6.76739E-06 3.53314E-05 1.77242E-18 4.56355E-18
 -1      2108 4.27280E-05-4.39336E-05-7.64495E-07 2.88304E-05 1.09183E-18 3.33562E-18
 -1      2109 1.13583E-05-3.51434E-05 8.89773E-06-2.50454E-06-4.40139E-19 3.49020E-18
 -1      2110 1.24544E-05-3.46341E-05 8.26342E-06-1.26791E-05-1.77517E-18 3.13148E-18
 -1      2111 2.49655E-05-3.45298E-05 3.46316E-06 2.11894E-05 4.63327E-19 3.39576E-18
 -1      2112 1.66955E-05-3.56212E-05 6.89078E-06 9.50391E-06-6.48615E-19 3.81842E-18
 -1      2113 9.97079E-05-5.12745E-05-2.11340E-05 3.78909E-05 3.03915E-18 2.52331E-18
 -1      2114 7.80834E-05-5.13937E-05-1.29618E-05 3.34798E-05 1.85924E-18 3.72070E-18
 -1      2115 1.44570E-04-5.55174E-05-3.79095E-05 2.86825E-05 3.50502E-18 7.19978E-19
 -1      2116 1.21187E-04-5.56989E-05-2.90706E-05 2.87182E-05 3.36018E-18 1.02322E-18
 -1      2117 8.95676E-05-1.02580E-05-3.40830E-05-7.60936E-06-2.35780E-19-1.64293E-18
 -1      2118 9.08301E-05-1.08433E-05-3.43764E-05-9.52259E-06-4.19983E-19-1.56773E-18
 -1      2119 9.39130E-05-1.50772E-05-3.38523E-05-9.69526E-06-5.25753E-19-1.36869E-18
 -1      2120 9.09802E-05-1.29582E-05-3.34779E-05-6.38938E-06-1.51473E-19-1.47535E-18
 -1      2121 1.97358E-04-3.85231E-05-6.62667E-05 1.05602E-06 3.01120E-18 2.93920E-19
 -1      2122 1.81825E-04-4.02870E-05-6.01859E-05 9.66012E-07 3.69158E-18 8.82185E-19
 -1      2123 1.95642E-04-2.93976E-05-6.99984E-05-2.87205E-06 3.61937E-18-8.30992E-19
 -1      2124 1.96650E-04-3.25440E-05-6.88865E-05 2.48055E-09 3.16917E-18 1.25361E-19
 -1      2125 1.73096E-04-2.63248E-05-6.14353E-05-1.08630E-05 3.64097E-18-1.22608E-19
 -1      2126 1.88992E-04-3.18906E-05-6.64009E-05-2.45471E-07 3.81377E-18-1.75717E-18
 -1      2127 1.96387E-04-3.04228E-05-6.95285E-05 6.13880E-07 3.65368E-18-1.12581E-18
 -1      2128 1.76441E-04-4.55262E-05-5.57896E-05-7.75070E-06 2.69685E-18-1.96766E-18
 -1      2129 1.88615E-04-4.12346E-05-6.21307E-05-2.80404E-06 3.04148E-18-1.80714E-18
 -1      2130 1.50386E-04-5.48682E-05-4.11260E-05-1.97038E-05 9.99075E-19-2.47122E-18
 -1      2131 1.70910E-04-5.18510E-05-5.00488E-05-1.76412E-05 1.87671E-18-2.37085E-18
 -1      2132 1.70742E-04-5.20225E-05-5.01906E-05 4.54470E-06 1.22560E-18-1.72795E-19
 -1      2133 1.00672E-04-5.28878E-05-2.18575E-05-3.40866E-05 4.43845E-19-3.57406E-18
 -1      2134 1.27681E-04-5.59209E-05-3.11453E-05-3.31819E-05 3.75659E-19-3.35679E-18
 -1      2135 6.05366E-05-4.80545E-05-7.12154E-06-3.24282E-05 2.87991E-20-3.21460E-18
 -1      2136 7.98762E-05-4.72615E-05-1.47245E-05-3.91820E-05 4.65868E-19-3.64267E-18
 -1      2137 3.02372E-05-4.09505E-05 3.08157E-06-2.32557E-05-2.46910E-19-2.40134E-18
 -1      2138 4.28152E-05-4.17568E-05-1.61384E-06-3.06350E-05 3.27378E-19-3.00252E-18
 -1      2139 1.24531E-05-3.71627E-05 8.90833E-06-2.18469E-06-6.90438E-19-2.12012E-18
 -1      2140 1.65356E-05-3.49254E-05 6.69074E-06-1.25381E-05-4.25634E-20-2.27217E-18
 -1      2141 1.56033E-05-3.45073E-05 6.86351E-06 1.85604E-05-1.24090E-18-2.24506E-18
 -1      2142 1.22737E-05-3.58121E-05 8.62527E-06 9.15692E-06-5.90858E-19-2.17391E-18
 -1      2143 3.68237E-05-3.64633E-05-1.01490E-06 3.59759E-05-2.22346E-18-2.55507E-18
 -1      2144 2.59135E-05-3.94923E-05 4.17423E-06 2.73306E-05-1.56151E-18-2.29546E-18
 -1      2145 7.21954E-05-3.98801E-05-1.41668E-05 4.66404E-05-2.38397E-18-2.63014E-18
 -1      2146 5.43849E-05-4.21492E-05-6.64659E-06 3.91023E-05-2.24294E-18-2.50531E-18
 -1      2147 1.14394E-04-4.25375E-05-3.04136E-05 4.45618E-05-2.74693E-18-1.68390E-18
 -1      2148 9.61208E-05-4.54628E-05-2.23671E-05 4.17794E-05-2.33485E-18-1.89270E-18
 -1      2149 1.46057E-04-3.91177E-05-4.51300E-05 3.72148E-05-3.14482E-18-7.59789E-19
 -1      2150 1.25399E-04-4.05336E-05-3.68441E-05 3.74316E-05-3.11920E-18-1.41920E-18
 -1      2151 1.31227E-04-5.30097E-05-3.32322E-05 3.19358E-05-1.62397E-18 1.97147E-19
 -1      2152 1.73380E-04-3.33711E-05-5.89666E-05 2.16674E-05-3.22688E-18 4.26481E-19
 -1      2153 1.56592E-04-3.38533E-05-5.24270E-05 2.62096E-05-3.34837E-18-1.88888E-19
 -1      2154 1.85398E-04-2.61759E-05-6.72085E-05 7.51588E-06-3.61471E-18 1.55833E-18
 -1      2155 1.77831E-04-2.71246E-05-6.38248E-05 1.61926E-05-3.68417E-18 4.29869E-19
 -1      2156 1.86060E-04-2.34996E-05-6.86826E-05-4.72783E-06-3.97301E-18 2.58133E-18
 -1      2157 1.84003E-04-2.22038E-05-6.84812E-05 3.53101E-06-3.83960E-18 1.35748E-18
 -1      2158 1.73805E-04-2.50622E-05-6.33001E-05-1.41682E-05-2.82062E-18 3.47114E-18
 -1      2159 1.86635E-04-2.62140E-05-6.74563E-05-8.18122E-06-3.27548E-18 2.75032E-18
 -1      2160 1.62641E-04-1.28514E-05-6.31242E-05 5.45925E-08-3.62318E-18 1.04090E-18
 -1      2161 1.53639E-04-3.50510E-05-5.07871E-05-2.64777E-05-2.35210E-18 3.74262E-18
 -1      2162 1.69899E-04-3.32775E-05-5.76678E-05-2.11165E-05-2.20737E-18 3.81122E-18
 -1      2163 1.26748E-04-4.40284E-05-3.58007E-05-3.46753E-05-2.67789E-18 3.03111E-18
 -1      2164 1.45659E-04-4.10084E-05-4.41422E-05-3.50373E-05-2.62834E-18 3.50629E-18
 -1      2165 8.54086E-05-4.40854E-05-1.86096E-05-4.27742E-05-2.18916E-18 3.15816E-18
 -1      2166 1.06879E-04-4.33200E-05-2.72347E-05-4.60102E-05-2.43903E-18 3.33604E-18
 -1      2167 4.74394E-05-4.19547E-05-3.76007E-06-3.76739E-05-2.09132E-18 3.58020E-18
 -1      2168 6.41527E-05-3.89417E-05-1.12645E-05-4.54731E-05-2.47418E-18 3.72716E-18
 -1      2169 2.00574E-05-3.88185E-05 6.44332E-06-2.31948E-05-1.75569E-18 3.01163E-18
 -1      2170 2.96420E-05-3.64151E-05 1.89503E-06-3.27267E-05-2.40642E-18 2.88203E-18
 -1      2171 1.77033E-04-5.01449E-05-5.37649E-05 1.18242E-05 3.77279E-18 4.96785E-19
 -1      2172 1.57553E-04-5.18615E-05-4.54844E-05 1.79189E-05 3.96750E-18 8.84302E-19
 -1      2173 1.24145E-04-6.31890E-05-2.62025E-05 2.91083E-05 1.29596E-18-7.89858E-20
 -1      2174 1.02094E-04-2.61553E-05-3.26332E-05-9.06230E-06-9.79594E-19-1.66204E-19
 -1      2175 1.57719E-04-6.24300E-05-4.04453E-05 9.43005E-06 2.68975E-18-5.26854E-19
 -1      2176 1.74340E-04-4.65449E-05-5.39104E-05-8.40138E-06 3.18918E-18-2.75286E-20
 -1      2177 1.01123E-04-2.51268E-05-3.26323E-05-9.49375E-06-9.62600E-19-4.53057E-19
 -1      2178 4.12138E-05-3.56545E-05-2.77406E-06 2.99938E-05-5.90170E-19 3.60921E-18
 -1      2179 1.65652E-05-2.40184E-05 2.77765E-06 6.13100E-06-1.07298E-18 3.93997E-18
 -1      2180 9.52371E-05-2.85743E-05-2.85698E-05 5.00310E-09-2.31213E-19 2.37867E-18
 -1      2181 8.15381E-05-5.26343E-05-1.28267E-05 3.80564E-05-5.92923E-20 2.93404E-18
 -1      2182 1.86662E-05-2.76375E-05 3.14242E-06-2.17618E-05-1.44483E-18 3.18527E-18
 -1      2183 4.59127E-05-3.80420E-05-3.91180E-06-4.19929E-05-1.32307E-18 3.18611E-18
 -1      2184 8.66289E-05-4.86618E-05-1.62925E-05-4.67795E-05-9.19031E-19 2.58599E-18
 -1      2185 1.27061E-04-5.32283E-05-3.13663E-05-3.44624E-05-1.09225E-18 2.43226E-18
 -1      2186 1.61755E-04-2.68415E-05-5.70372E-05-3.84000E-06-2.12521E-18 1.89312E-18
 -1      2187 1.64412E-04-1.42036E-05-6.33302E-05 9.26267E-08-4.04839E-18 1.44101E-18
 -1      2188 1.52586E-04-4.30113E-05-4.62603E-05 1.64212E-05-2.66754E-18 8.46609E-19
 -1      2189 9.67530E-05-5.07809E-05-1.97022E-05 4.52189E-05-9.09713E-19-1.19072E-18
 -1      2190 5.44176E-05-3.98098E-05-6.67331E-06 4.46039E-05-6.29769E-19-2.17772E-18
 -1      2191 2.45596E-05-2.89060E-05 1.18009E-06 2.87582E-05-5.56924E-20-2.39626E-18
 -1      2192 1.35450E-05-2.42387E-05 3.89857E-06 3.70585E-06 9.39942E-20-2.46952E-18
 -1      2193 2.81577E-05-3.18979E-05 9.42324E-07-2.29565E-05-1.14349E-19-2.66731E-18
 -1      2194 6.29468E-05-4.59504E-05-7.89010E-06-3.79658E-05-4.70950E-19-3.08278E-18
 -1      2195 1.45787E-04-6.14426E-05-3.61475E-05-2.04903E-05-6.77626E-21-2.11081E-18
 -1      2196 1.56691E-04-6.47775E-05-4.02499E-05-5.47875E-06-4.93714E-19 5.75982E-20
 -1      2197 1.39494E-04-6.52583E-05-3.13167E-05-2.03090E-05-1.12888E-18-1.32942E-18
 -1      2198 1.73047E-04-2.14087E-05-6.36275E-05 5.33059E-07 3.94082E-18-9.52383E-20
 -1      2199 1.74200E-04-3.32241E-05-5.93408E-05 1.13808E-05 2.96377E-18 7.11508E-20
 -1      2200 1.04112E-04-5.82422E-05-1.98126E-05-3.66990E-05-7.83505E-19-2.96546E-18
 -1      2201 1.62699E-04-2.64450E-05-5.74009E-05 3.31673E-06-3.27124E-18 1.18923E-18
 -1      2202 1.51405E-04-4.43779E-05-4.53250E-05-1.47544E-05-1.32430E-18 1.89693E-18
 -1      2203 1.05849E-04-2.77071E-05-3.34296E-05-6.51622E-06 9.89586E-19 1.64828E-18
 -1      2204 1.05347E-04-2.69650E-05-3.35309E-05-3.61605E-06 1.07109E-18 1.77338E-18
 -1      2205 8.63136E-05-1.16891E-05-3.20234E-05 1.51013E-06 5.49185E-19-1.11895E-18
 -1      2206 8.78815E-05-1.26074E-05-3.22757E-05 3.73518E-08 3.21214E-19-1.21519E-18
 -1      2207 8.94314E-05-1.37022E-05-3.24968E-05-1.59480E-06 2.42804E-19-1.29758E-18
 -1      2208 9.08183E-05-1.45395E-05-3.27296E-05-3.22897E-06 7.04700E-20-1.35772E-18
 -1      2209 9.04028E-05-1.58027E-05-3.19972E-05-1.07590E-07 3.10044E-19-1.15586E-18
 -1      2210 7.96075E-05-7.02109E-06-3.11601E-05 5.69670E-06 1.15488E-18-1.10454E-18
 -1      2211 8.11202E-05-7.98590E-06-3.13295E-05 4.98748E-06 1.03997E-18-1.13460E-18
 -1      2212 7.72246E-05-5.05572E-06-3.09818E-05 6.17737E-06 1.32459E-18-9.89282E-19
 -1      2213 7.81680E-05-5.73984E-06-3.10284E-05 5.96117E-06 1.23168E-18-1.07131E-18
 -1      2214 7.96568E-05-8.03691E-06-3.07018E-05 6.67571E-06 1.15724E-18-1.01342E-18
 -1      2215 7.66783E-05-4.19431E-06-3.11111E-05 5.63137E-06 1.44836E-18-7.41141E-19
 -1      2216 7.66231E-05-4.31774E-06-3.09922E-05 5.78896E-06 1.39600E-18-8.93707E-19
 -1      2217 7.73151E-05-5.96613E-06-3.05621E-05 6.53773E-06 1.31531E-18-8.71522E-19
 -1      2218 7.87346E-05-5.06299E-06-3.16116E-05 4.50770E-06 1.63034E-18-3.98496E-19
 -1      2219 7.73423E-05-4.38184E-06-3.13024E-05 4.79709E-06 1.49556E-18-5.95828E-19
 -1      2220 7.71768E-05-5.34467E-06-3.07476E-05 5.19725E-06 1.46453E-18-5.94113E-19
 -1      2221 8.37554E-05-8.10913E-06-3.24578E-05 3.51038E-06 1.71647E-18 1.20619E-19
 -1      2222 8.09338E-05-6.46268E-06-3.19850E-05 3.61205E-06 1.63881E-18-1.88409E-19
 -1      2223 8.00261E-05-6.86941E-06-3.13058E-05 3.25717E-06 1.56723E-18-2.45995E-19
 -1      2224 9.14822E-05-1.34049E-05-3.35053E-05 3.19137E-06 1.72603E-18 7.39202E-19
 -1      2225 8.73972E-05-1.07386E-05-3.29516E-05 2.91765E-06 1.70330E-18 3.86062E-19
 -1      2226 8.60109E-05-1.08294E-05-3.21755E-05 1.52018E-06 1.61831E-18 2.91647E-19
 -1      2227 1.07257E-04-2.90499E-05-3.34565E-05-1.15293E-05 6.76356E-19 1.39073E-18
 -1      2228 1.05888E-04-2.81807E-05-3.32406E-05-9.34975E-06 8.22032E-19 1.59213E-18
 -1      2229 1.01619E-04-2.50580E-05-3.28233E-05-8.28423E-06 9.52879E-19 1.04879E-18
 -1      2230 1.00990E-04-2.77060E-05-3.13578E-05-5.98098E-06-7.16368E-19-4.99326E-19
 -1      2231 1.00399E-04-2.86295E-05-3.07970E-05-4.64960E-06-6.85494E-19-4.58518E-19
 -1      2232 1.61547E-04-6.25193E-05-4.30684E-05-2.35495E-06 2.37789E-18-8.06587E-19
 -1      2233 1.50532E-04-6.49713E-05-3.66288E-05 5.51443E-06 1.94595E-18-9.32583E-19
 -1      2234 1.00563E-04-2.95433E-05-3.03767E-05-4.01299E-06-6.37698E-19-3.78547E-19
 -1      2235 1.00029E-04-3.00180E-05-3.00295E-05-3.68755E-06-4.88578E-19-4.32825E-19
 -1      2236 1.00782E-04-2.86991E-05-3.08929E-05-4.91035E-06-6.45504E-19-5.14600E-19
 -1      2237 1.00035E-04-3.05036E-05-2.97614E-05-3.72550E-06-3.89471E-19-4.38442E-19
 -1      2238 9.95031E-05-3.06678E-05-2.95225E-05-3.95419E-06-2.76001E-19-4.98775E-19
 -1      2239 1.00981E-04-3.05240E-05-3.02051E-05-4.18635E-06-4.86500E-19-6.51296E-19
 -1      2240 9.93754E-05-3.08267E-05-2.93622E-05-4.42241E-06-2.07138E-19-4.72624E-19
 -1      2241 9.87429E-05-3.06792E-05-2.91835E-05-4.89131E-06-1.66823E-19-3.32089E-19
 -1      2242 1.00917E-04-3.14079E-05-2.97914E-05-4.65751E-06-2.51097E-19-5.51598E-19
 -1      2243 9.83805E-05-3.04737E-05-2.91054E-05-5.48420E-06-3.14188E-19-4.39519E-19
 -1      2244 9.75851E-05-2.99854E-05-2.89681E-05-5.88218E-06-4.56786E-19-4.22554E-19
 -1      2245 1.00463E-04-3.14113E-05-2.95856E-05-5.75916E-06-3.31296E-19-5.36113E-19
 -1      2246 9.69213E-05-2.93955E-05-2.89550E-05-6.23552E-06-5.74857E-19-3.05178E-19
 -1      2247 9.59997E-05-2.86147E-05-2.88550E-05-6.25822E-06-6.59743E-19-5.52746E-19
 -1      2248 9.94372E-05-3.04657E-05-2.95457E-05-6.78373E-06-5.41647E-19-3.79343E-19
 -1      2249 9.51013E-05-2.77429E-05-2.88869E-05-6.02056E-06-6.57418E-19-4.70384E-19
 -1      2250 9.42086E-05-2.68557E-05-2.88242E-05-5.44859E-06-8.04134E-19-5.93944E-19
 -1      2251 9.78353E-05-2.86807E-05-2.96287E-05-6.95790E-06-5.91070E-19-7.08698E-19
 -1      2252 9.33235E-05-2.59742E-05-2.88739E-05-4.42937E-06-8.58213E-19-5.32670E-19
 -1      2253 9.26928E-05-2.52798E-05-2.88470E-05-3.24376E-06-8.82476E-19-6.15620E-19
 -1      2254 9.59838E-05-2.65275E-05-2.97740E-05-5.66776E-06-7.64692E-19-6.03446E-19
 -1      2255 9.21644E-05-2.47452E-05-2.88836E-05-1.56273E-06-7.09253E-19-5.96474E-19
 -1      2256 9.20045E-05-2.45257E-05-2.88889E-05-2.27056E-09-3.75030E-19-5.99855E-19
 -1      2257 9.45069E-05-2.47861E-05-2.99056E-05-2.80372E-06-7.30184E-19-3.88805E-19
 -1      2258 9.20733E-05-2.45855E-05-2.88915E-05 1.90452E-06-1.78436E-19-6.37988E-19
 -1      2259 9.24559E-05-2.49456E-05-2.89257E-05 3.42148E-06 2.01501E-21-4.59581E-19
 -1      2260 9.40263E-05-2.42040E-05-2.99561E-05 1.03977E-06-3.45606E-19-1.74966E-19
 -1      2261 9.30931E-05-2.55778E-05-2.88926E-05 4.99442E-06 9.72963E-20-3.55821E-19
 -1      2262 9.39076E-05-2.63788E-05-2.89540E-05 6.06259E-06 2.35624E-19 3.60403E-20
 -1      2263 9.47690E-05-2.50589E-05-2.98970E-05 4.76251E-06 1.35866E-19-3.43767E-20
 -1      2264 9.48300E-05-2.73068E-05-2.89022E-05 6.89883E-06 2.39922E-19-3.73496E-19
 -1      2265 9.58409E-05-2.82551E-05-2.89878E-05 7.30768E-06 1.57246E-19-6.83502E-19
 -1      2266 9.64040E-05-2.69865E-05-2.97510E-05 7.30226E-06 1.24633E-19-2.04349E-19
 -1      2267 9.66970E-05-2.91304E-05-2.89394E-05 7.32437E-06-7.71800E-20-5.82578E-19
 -1      2268 9.76585E-05-2.99440E-05-2.90414E-05 7.10856E-06 1.02667E-19-7.17590E-19
 -1      2269 9.82593E-05-2.92179E-05-2.95733E-05 8.14725E-06 1.81301E-20-6.85389E-19
 -1      2270 9.82135E-05-3.05294E-05-2.90109E-05 6.49901E-06 1.29767E-19-6.60677E-19
 -1      2271 9.89588E-05-3.10524E-05-2.91158E-05 5.85927E-06 2.71601E-19-6.63140E-19
 -1      2272 9.97206E-05-3.10293E-05-2.94177E-05 7.45172E-06 1.60863E-19-7.34152E-20
 -1      2273 9.91537E-05-3.12852E-05-2.91055E-05 4.93143E-06-6.61778E-20-8.81645E-19
 -1      2274 9.96209E-05-3.15016E-05-2.91985E-05 4.11202E-06-1.93185E-19-8.30734E-19
 -1      2275 1.00488E-04-3.20495E-05-2.93129E-05 5.78090E-06-9.08542E-20-4.73566E-19
 -1      2276 9.95232E-05-3.14479E-05-2.92012E-05 3.14215E-06-7.73282E-20-6.63750E-19
 -1      2277 9.97305E-05-3.14283E-05-2.92706E-05 2.34149E-06-3.23138E-20-5.75772E-19
 -1      2278 1.00579E-04-3.22829E-05-2.92588E-05 3.76414E-06-2.03984E-19-2.98996E-19
 -1      2279 9.94530E-05-3.12028E-05-2.92762E-05 1.50654E-06-3.57998E-19-9.34362E-19
 -1      2280 9.94588E-05-3.10430E-05-2.93160E-05 8.43482E-07-2.68054E-19-1.03159E-18
 -1      2281 1.00186E-04-3.19535E-05-2.92381E-05 1.87243E-06-2.58870E-19-2.90678E-19
 -1      2282 9.91042E-05-3.07509E-05-2.93161E-05 2.20225E-07-6.40850E-20-1.16926E-18
 -1      2283 9.89755E-05-3.05332E-05-2.93264E-05-2.59592E-07-2.65886E-19-1.00767E-18
 -1      2284 9.95342E-05-3.13327E-05-2.92291E-05 3.59692E-07-2.90496E-19-2.64357E-19
 -1      2285 9.86142E-05-3.02461E-05-2.93166E-05-6.65088E-07-1.44210E-19-1.01273E-18
 -1      2286 9.84093E-05-3.00253E-05-2.93018E-05-9.66081E-07 1.35590E-19-7.45209E-19
 -1      2287 9.88004E-05-3.06378E-05-2.92148E-05-6.98017E-07 8.34834E-20-5.16979E-20
 -1      2288 9.80801E-05-2.97805E-05-2.92814E-05-1.18588E-06-8.04040E-20-7.95995E-19
 -1      2289 9.78431E-05-2.95860E-05-2.92484E-05-1.33871E-06 2.76245E-19-5.53493E-19
 -1      2290 9.80957E-05-3.00021E-05-2.91862E-05-1.33424E-06 4.02295E-20-6.88864E-19
 -1      2291 9.75619E-05-2.93960E-05-2.92193E-05-1.41872E-06 2.62808E-19-8.39383E-19
 -1      2292 9.73227E-05-2.92391E-05-2.91752E-05-1.46264E-06-4.41356E-20-8.16410E-19
 -1      2293 9.74749E-05-2.94859E-05-2.91416E-05-1.63314E-06 1.11918E-20-6.41395E-19
 -1      2294 9.70920E-05-2.91018E-05-2.91404E-05-1.44822E-06 1.79472E-20-7.02020E-19
 -1      2295 9.68689E-05-2.89828E-05-2.90916E-05-1.42055E-06 8.82768E-20-7.24548E-19
 -1      2296 9.69561E-05-2.91014E-05-2.90838E-05-1.69053E-06 8.53734E-20-1.00546E-18
 -1      2297 9.66846E-05-2.88895E-05-2.90543E-05-1.34967E-06 1.50060E-19-9.48704E-19
 -1      2298 9.64874E-05-2.88037E-05-2.90056E-05-1.28094E-06 6.05543E-19-8.35109E-19
 -1      2299 9.65369E-05-2.88351E-05-2.90179E-05-1.59297E-06 1.24778E-19-4.44799E-19
 -1      2300 9.63428E-05-2.87440E-05-2.89688E-05-1.18214E-06 9.22119E-19-1.19050E-18
 -1      2301 9.61754E-05-2.86847E-05-2.89234E-05-1.09484E-06 5.59358E-19-1.60006E-18
 -1      2302 9.62059E-05-2.86631E-05-2.89494E-05-1.40921E-06 4.17090E-19-1.63337E-18
 -1      2303 9.60634E-05-2.86491E-05-2.88890E-05-9.87747E-07 3.68372E-19-1.27292E-18
 -1      2304 9.59260E-05-2.86099E-05-2.88490E-05-8.96965E-07 6.01351E-19-5.23051E-19
 -1      2305 9.59486E-05-2.85606E-05-2.88827E-05-1.18898E-06 4.37928E-19-1.36925E-18
 -1      2306 9.58403E-05-2.85907E-05-2.88183E-05-7.93887E-07 1.46045E-19-6.62122E-19
 -1      2307 9.57307E-05-2.85659E-05-2.87844E-05-7.08771E-07 2.29487E-19-8.02108E-19
 -1      2308 9.57513E-05-2.85062E-05-2.88212E-05-9.65187E-07 2.34796E-19-2.86295E-19
 -1      2309 9.56658E-05-2.85572E-05-2.87581E-05-6.16525E-07-9.90430E-20-8.57345E-19
 -1      2310 9.55807E-05-2.85426E-05-2.87303E-05-5.41859E-07-3.49693E-19-1.50315E-18
 -1      2311 9.56018E-05-2.84830E-05-2.87668E-05-7.57560E-07 1.54690E-19-1.28851E-18
 -1      2312 9.55323E-05-2.85401E-05-2.87084E-05-4.63450E-07-6.24507E-20-1.59332E-18
 -1      2313 9.54679E-05-2.85323E-05-2.86864E-05-4.01057E-07-1.39514E-20-1.48590E-18
 -1      2314 9.54898E-05-2.84788E-05-2.87203E-05-5.76215E-07-3.14975E-19-7.49688E-19
 -1      2315 9.54321E-05-2.85334E-05-2.86688E-05-3.37034E-07-1.19751E-19-1.25737E-18
 -1      2316 9.53847E-05-2.85300E-05-2.86518E-05-2.86885E-07 6.75329E-19-9.97214E-19
 -1      2317 9.54071E-05-2.84850E-05-2.86820E-05-4.24784E-07 3.21023E-19-4.28790E-19
 -1      2318 9.53588E-05-2.85329E-05-2.86380E-05-2.36347E-07 4.32979E-19-8.59039E-19
 -1      2319 9.53249E-05-2.85322E-05-2.86253E-05-1.97372E-07-2.06095E-19 1.52351E-19
 -1      2320 9.53468E-05-2.84963E-05-2.86511E-05-3.02856E-07 3.36707E-19-4.76770E-19
 -1      2321 9.53065E-05-2.85357E-05-2.86147E-05-1.58679E-07-6.39598E-19 1.58222E-19
 -1      2322 9.52830E-05-2.85366E-05-2.86055E-05-1.29319E-07-7.98016E-19-3.88622E-19
 -1      2323 9.53037E-05-2.85091E-05-2.86270E-05-2.07743E-07-2.83008E-19 2.34692E-20
 -1      2324 9.52703E-05-2.85401E-05-2.85976E-05-1.00555E-07-2.54221E-19-2.43316E-20
 -1      2325 9.52548E-05-2.85418E-05-2.85912E-05-7.91119E-08 1.19647E-19 3.22526E-19
 -1      2326 9.52737E-05-2.85217E-05-2.86086E-05-1.35701E-07-4.61821E-19-2.56805E-19
 -1      2327 9.52462E-05-2.85450E-05-2.85855E-05-5.83692E-08 1.22688E-19 1.74859E-20
 -1      2328 9.52366E-05-2.85471E-05-2.85811E-05-4.32191E-08 2.56034E-19-6.10958E-19
 -1      2329 9.52533E-05-2.85329E-05-2.85949E-05-8.27016E-08-1.69651E-19 7.00920E-19
 -1      2330 9.52311E-05-2.85498E-05-2.85772E-05-2.87549E-08 3.96249E-19-3.30386E-19
 -1      2331 9.52257E-05-2.85519E-05-2.85744E-05-1.84529E-08 7.22676E-19-8.08592E-20
 -1      2332 9.52400E-05-2.85424E-05-2.85850E-05-4.48969E-08 4.38529E-19 6.47502E-19
 -1      2333 9.52224E-05-2.85542E-05-2.85717E-05-8.76389E-09 6.59088E-19-4.16850E-19
 -1      2334 9.52199E-05-2.85561E-05-2.85701E-05-2.08861E-09 6.75642E-20-4.03604E-19
 -1      2335 9.52318E-05-2.85501E-05-2.85781E-05-1.88606E-08 7.49461E-19 2.57142E-19
 -1      2336 9.52182E-05-2.85579E-05-2.85684E-05 4.06915E-09-2.91222E-19 1.63947E-19
 -1      2337 9.52176E-05-2.85597E-05-2.85676E-05 8.11015E-09-4.80904E-19-4.65811E-19
 -1      2338 9.52273E-05-2.85562E-05-2.85735E-05-1.68796E-09-2.00443E-19 1.41142E-19
 -1      2339 9.52169E-05-2.85611E-05-2.85666E-05 1.17313E-08 8.56034E-19 1.13547E-19
 -1      2340 9.52176E-05-2.85626E-05-2.85664E-05 1.39182E-08 1.37303E-18 7.50268E-19
 -1      2341 9.52253E-05-2.85609E-05-2.85706E-05 8.99243E-09 8.16177E-19 1.14230E-18
 -1      2342 9.52176E-05-2.85637E-05-2.85659E-05 1.57742E-08 5.32924E-19 1.77883E-18
 -1      2343 9.52190E-05-2.85650E-05-2.85660E-05 1.67013E-08-2.43601E-19 2.96657E-18
 -1      2344 9.52249E-05-2.85644E-05-2.85689E-05 1.50549E-08 1.18608E-18 2.89693E-18
 -1      2345 9.52195E-05-2.85658E-05-2.85658E-05 1.73719E-08-1.01794E-18 3.46153E-18
 -1      2346 9.52212E-05-2.85669E-05-2.85661E-05 1.74767E-08-4.75068E-19 3.09206E-18
 -1      2347 9.52256E-05-2.85670E-05-2.85680E-05 1.79370E-08-2.64548E-19 3.71300E-18
 -1      2348 9.52219E-05-2.85675E-05-2.85662E-05 1.73832E-08-1.60972E-19 2.35261E-18
 -1      2349 9.52238E-05-2.85684E-05-2.85666E-05 1.69743E-08 5.57088E-19 2.23757E-18
 -1      2350 9.52269E-05-2.85688E-05-2.85678E-05 1.87064E-08-9.15754E-19 3.88658E-18
 -1      2351 9.52247E-05-2.85688E-05-2.85668E-05 1.64081E-08 1.00458E-18 1.37064E-18
 -1      2352 9.52265E-05-2.85696E-05-2.85673E-05 1.56893E-08 7.97463E-19 1.44833E-18
 -1      2353 9.52285E-05-2.85702E-05-2.85678E-05 1.81259E-08-3.42369E-19 2.56926E-18
 -1      2354 9.52274E-05-2.85700E-05-2.85675E-05 1.48383E-08-1.49787E-19 5.11460E-19
 -1      2355 9.52291E-05-2.85706E-05-2.85679E-05 1.39296E-08-4.31493E-19 7.01776E-19
 -1      2356 9.52302E-05-2.85713E-05-2.85681E-05 1.67116E-08-5.60455E-19 3.50282E-19
 -1      2357 9.52300E-05-2.85710E-05-2.85682E-05 1.28995E-08 7.51511E-19 4.78249E-19
 -1      2358 9.52315E-05-2.85716E-05-2.85686E-05 1.18483E-08 5.24792E-19 2.24178E-19
 -1      2359 9.52319E-05-2.85721E-05-2.85685E-05 1.47848E-08-1.63356E-19 4.19655E-19
 -1      2360 9.52324E-05-2.85719E-05-2.85688E-05 1.06894E-08 7.17631E-19 9.47440E-19
 -1      2361 9.52337E-05-2.85725E-05-2.85691E-05 9.51196E-09 1.21260E-18 1.56130E-18
 -1      2362 9.52336E-05-2.85729E-05-2.85689E-05 1.25032E-08 8.11105E-19 1.09597E-18
 -1      2363 1.15312E-04-3.60896E-05-3.39532E-05-1.66191E-05-4.83259E-19 1.24968E-18
 -1      2364 1.11733E-04-3.30885E-05-3.36209E-05-1.67982E-05-2.66200E-19 1.14887E-18
 -1      2365 1.23685E-04-4.40725E-05-3.41448E-05-1.35452E-05-7.93511E-19 1.24697E-18
 -1      2366 1.19111E-04-3.97083E-05-3.38565E-05-1.64527E-05-5.93188E-19 1.22357E-18
 -1      2367 1.09684E-04-3.64090E-05-3.15288E-05-2.01026E-05-5.18940E-19 3.44531E-19
 -1      2368 1.35592E-04-5.39080E-05-3.50993E-05-3.68315E-06-8.42004E-19 1.35482E-18
 -1      2369 1.30771E-04-4.98492E-05-3.44762E-05-1.00663E-05-1.14614E-18 1.24069E-18
 -1      2370 1.20463E-04-4.74667E-05-3.14511E-05-1.77118E-05-9.50636E-19 2.82777E-19
 -1      2371 1.46980E-04-5.56106E-05-3.93788E-05 1.36325E-05-5.43028E-19 2.41542E-18
 -1      2372 1.45018E-04-5.73766E-05-3.75893E-05 6.00789E-06-8.01346E-19 2.07062E-18
 -1      2373 1.50163E-04-2.18174E-05-5.56580E-05 5.83622E-06 3.60074E-18 7.76094E-19
 -1      2374 1.52792E-04-2.91826E-05-5.37394E-05 1.63349E-05 2.56439E-18 1.70783E-18
 -1      2375 1.52618E-04-2.63083E-05-5.47643E-05-1.44800E-05 3.10014E-18-1.40607E-19
 -1      2376 1.50612E-04-2.12682E-05-5.59901E-05-4.43926E-06 3.37543E-18 5.88476E-19
 -1      2377 1.52061E-04-4.38994E-05-4.71234E-05-2.51910E-05 2.41584E-18-6.68627E-19
 -1      2378 1.47394E-04-3.36772E-05-4.92560E-05-2.23693E-05 2.87229E-18-5.44748E-19
 -1      2379 1.51597E-04-5.97523E-05-3.93962E-05-1.23861E-05 1.34223E-18-9.28136E-19
 -1      2380 1.51559E-04-5.36974E-05-4.21945E-05-1.84447E-05 1.95299E-18-5.57136E-19
 -1      2381 1.37434E-04-5.47809E-05-3.50816E-05 4.53138E-06-2.21281E-19-6.15978E-19
 -1      2382 1.41561E-04-5.76291E-05-3.60996E-05-2.76008E-06 8.24931E-19-5.44589E-19
 -1      2383 1.44424E-04-6.32838E-05-3.51700E-05 2.51309E-06 9.87376E-19-4.90591E-19
 -1      2384 1.23663E-04-4.40663E-05-3.38865E-05 1.47732E-05-1.45817E-18-5.89091E-19
 -1      2385 1.28726E-04-4.87736E-05-3.42602E-05 1.02751E-05-9.54606E-19-5.50095E-19
 -1      2386 1.25792E-04-5.36652E-05-3.11356E-05 1.60296E-05-6.07058E-19-6.82338E-19
 -1      2387 1.14444E-04-3.58904E-05-3.35827E-05 1.75718E-05-1.11844E-18 4.05745E-19
 -1      2388 1.18553E-04-3.92756E-05-3.39123E-05 1.60495E-05-1.39475E-18-1.20864E-19
 -1      2389 1.11700E-04-4.02373E-05-3.07496E-05 2.05186E-05-1.53901E-18-1.52731E-20
 -1      2390 1.08915E-04-3.14726E-05-3.31897E-05 1.65687E-05-1.20495E-18 1.07624E-18
 -1      2391 1.11986E-04-3.33927E-05-3.36385E-05 1.68527E-05-1.00682E-18 1.03031E-18
 -1      2392 1.04641E-04-3.20750E-05-3.11711E-05 2.01785E-05-1.59595E-18 1.10982E-18
 -1      2393 1.05372E-04-2.94545E-05-3.25593E-05 1.38652E-05-8.25450E-19 1.32045E-18
 -1      2394 1.07775E-04-3.04501E-05-3.30955E-05 1.49885E-05-1.31381E-18 1.16966E-18
 -1      2395 1.01302E-04-2.81216E-05-3.13768E-05 1.76126E-05-1.27432E-18 1.76634E-18
 -1      2396 1.03100E-04-2.87774E-05-3.18735E-05 1.10114E-05 8.37924E-19 1.54031E-18
 -1      2397 1.04871E-04-2.92385E-05-3.23667E-05 1.22404E-05-1.89381E-19 1.26103E-18
 -1      2398 9.98167E-05-2.68388E-05-3.12665E-05 1.43832E-05-6.13479E-19 1.59607E-18
 -1      2399 1.01373E-04-2.85875E-05-3.12085E-05 8.45339E-06 6.07974E-19 1.34336E-18
 -1      2400 1.02756E-04-2.88254E-05-3.16389E-05 9.56687E-06 1.06069E-18 1.59425E-18
 -1      2401 9.90415E-05-2.67700E-05-3.09583E-05 1.13539E-05 9.20129E-19 8.64607E-19
 -1      2402 9.99981E-05-2.85664E-05-3.06226E-05 6.35252E-06-9.33970E-20 7.20192E-19
 -1      2403 1.01075E-04-2.87038E-05-3.09761E-05 7.26388E-06 3.93655E-19 1.29217E-18
 -1      2404 9.84590E-05-2.70910E-05-3.05744E-05 8.73874E-06 7.96484E-19 1.81365E-18
 -1      2405 9.88881E-05-2.85841E-05-3.01351E-05 4.70885E-06-1.16703E-18 3.47355E-19
 -1      2406 9.97196E-05-2.86742E-05-3.04146E-05 5.41672E-06-8.51986E-19 2.65000E-20
 -1      2407 9.79310E-05-2.74709E-05-3.01904E-05 6.61032E-06-2.24757E-19 6.95075E-19
 -1      2408 9.79944E-05-2.85983E-05-2.97442E-05 3.45749E-06-6.40034E-19 2.13579E-19
 -1      2409 9.86317E-05-2.86633E-05-2.99599E-05 3.99213E-06-9.14332E-19 4.91662E-19
 -1      2410 9.74365E-05-2.77920E-05-2.98450E-05 4.93953E-06-1.02119E-18-7.09221E-19
 -1      2411 9.72566E-05-2.86008E-05-2.94252E-05 2.48024E-06 1.10429E-18-1.01169E-18
 -1      2412 9.77552E-05-2.86522E-05-2.95953E-05 2.89273E-06 1.22231E-19-5.52744E-19
 -1      2413 9.69769E-05-2.80334E-05-2.95461E-05 3.63195E-06 3.86411E-19-1.15856E-18
 -1      2414 9.67145E-05-2.85942E-05-2.91942E-05 1.79545E-06 1.09016E-18 3.54435E-19
 -1      2415 9.70682E-05-2.86313E-05-2.93148E-05 2.08343E-06 9.63803E-19-3.93400E-19
 -1      2416 9.65772E-05-2.82045E-05-2.93042E-05 2.64464E-06 3.91060E-19-1.54964E-18
 -1      2417 9.62961E-05-2.85838E-05-2.90190E-05 1.28962E-06 4.24468E-21 8.03337E-19
 -1      2418 9.65580E-05-2.86117E-05-2.91084E-05 1.50090E-06 9.10527E-19 1.25097E-18
 -1      2419 9.62508E-05-2.83145E-05-2.91178E-05 1.92694E-06 3.76280E-19 4.35791E-19
 -1      2420 9.59797E-05-2.85728E-05-2.88879E-05 9.17624E-07-1.87285E-19 9.08457E-19
 -1      2421 9.61714E-05-2.85934E-05-2.89535E-05 1.07207E-06-6.09953E-19 7.98093E-19
 -1      2422 9.59859E-05-2.83879E-05-2.89729E-05 1.39204E-06-7.38207E-20 1.26070E-18
 -1      2423 9.57439E-05-2.85634E-05-2.87909E-05 6.45034E-07 6.11884E-20 1.06921E-18
 -1      2424 9.58826E-05-2.85780E-05-2.88385E-05 7.57586E-07-8.97160E-21 7.50369E-19
 -1      2425 9.57765E-05-2.84370E-05-2.88620E-05 9.95247E-07 7.47550E-20 7.96128E-19
 -1      2426 9.55709E-05-2.85565E-05-2.87199E-05 4.46106E-07 3.19115E-19 3.83611E-19
 -1      2427 9.56701E-05-2.85662E-05-2.87541E-05 5.27878E-07 4.12223E-19 1.25285E-18
 -1      2428 9.56149E-05-2.84705E-05-2.87781E-05 7.02338E-07 3.12355E-19 3.61242E-19
 -1      2429 9.54416E-05-2.85519E-05-2.86665E-05 2.95898E-07-6.73855E-19 1.11370E-18
 -1      2430 9.55134E-05-2.85584E-05-2.86916E-05 3.57088E-07-2.06349E-19 6.18506E-19
 -1      2431 9.54905E-05-2.84940E-05-2.87142E-05 4.83361E-07-1.30718E-19 6.51961E-19
 -1      2432 9.53559E-05-2.85497E-05-2.86307E-05 1.94132E-07-3.04102E-19 1.82486E-18
 -1      2433 9.54024E-05-2.85532E-05-2.86472E-05 2.35488E-07-2.33648E-19 1.43290E-18
 -1      2434 9.53995E-05-2.85119E-05-2.86674E-05 3.24118E-07-6.10716E-19 1.06518E-18
 -1      2435 9.52971E-05-2.85494E-05-2.86057E-05 1.21799E-07 9.45380E-19 1.24256E-18
 -1      2436 9.53279E-05-2.85510E-05-2.86169E-05 1.50994E-07-5.73834E-20 1.27565E-18
 -1      2437 9.53358E-05-2.85246E-05-2.86344E-05 2.12916E-07 5.43775E-19-8.41548E-20
 -1      2438 9.52581E-05-2.85503E-05-2.85887E-05 7.12453E-08 9.60146E-19 6.75912E-19
 -1      2439 9.52778E-05-2.85507E-05-2.85961E-05 9.15016E-08 2.15010E-18 1.46542E-18
 -1      2440 9.52913E-05-2.85345E-05-2.86109E-05 1.33739E-07 1.62501E-18 6.02491E-20
 -1      2441 9.52336E-05-2.85521E-05-2.85775E-05 3.66442E-08 9.83048E-19-7.78357E-19
 -1      2442 9.52453E-05-2.85516E-05-2.85821E-05 5.03860E-08 7.29535E-19-4.57642E-19
 -1      2443 9.52611E-05-2.85424E-05-2.85943E-05 7.82732E-08 1.02367E-18-7.61356E-19
 -1      2444 9.52192E-05-2.85543E-05-2.85705E-05 1.36078E-08 1.98799E-19-2.26764E-18
 -1      2445 9.52254E-05-2.85533E-05-2.85732E-05 2.26680E-08 7.61549E-19-9.81746E-19
 -1      2446 9.52415E-05-2.85487E-05-2.85831E-05 4.02457E-08 1.14523E-18-1.22347E-18
 -1      2447 9.52116E-05-2.85568E-05-2.85662E-05-1.67312E-09-2.36337E-19-1.01936E-18
 -1      2448 9.52142E-05-2.85555E-05-2.85676E-05 4.21091E-09-4.57833E-19-1.66058E-18
 -1      2449 9.52293E-05-2.85539E-05-2.85755E-05 1.44965E-08-1.36074E-19-1.07597E-18
 -1      2450 9.52092E-05-2.85591E-05-2.85642E-05-1.02681E-08-1.24018E-18-4.93139E-19
 -1      2451 9.52092E-05-2.85578E-05-2.85647E-05-7.03215E-09-4.54365E-19-5.24463E-19
 -1      2452 9.52227E-05-2.85582E-05-2.85708E-05-1.91881E-09-1.17941E-18-1.08523E-18
 -1      2453 9.52097E-05-2.85614E-05-2.85635E-05-1.49239E-08-6.69291E-19-3.14664E-19
 -1      2454 9.52083E-05-2.85601E-05-2.85634E-05-1.32609E-08-6.02854E-19-3.75747E-19
 -1      2455 9.52199E-05-2.85614E-05-2.85681E-05-1.14291E-08-8.15606E-19-1.74813E-19
 -1      2456 9.52120E-05-2.85634E-05-2.85636E-05-1.69252E-08 7.59108E-19-5.26236E-19
 -1      2457 9.52098E-05-2.85622E-05-2.85632E-05-1.63046E-08-9.96738E-19-2.84312E-19
 -1      2458 9.52195E-05-2.85640E-05-2.85667E-05-1.65697E-08-5.84309E-19 5.36081E-19
 -1      2459 9.52152E-05-2.85652E-05-2.85643E-05-1.72127E-08 4.88236E-19-2.39659E-19
 -1      2460 9.52127E-05-2.85641E-05-2.85637E-05-1.72547E-08 1.27248E-18-8.92087E-20
 -1      2461 9.52206E-05-2.85661E-05-2.85663E-05-1.87806E-08 4.11996E-19 1.94020E-19
 -1      2462 9.52189E-05-2.85667E-05-2.85652E-05-1.64453E-08 8.50878E-20-7.76681E-19
 -1      2463 9.52163E-05-2.85658E-05-2.85645E-05-1.68849E-08 7.83750E-19 2.32663E-19
 -1      2464 9.52225E-05-2.85677E-05-2.85664E-05-1.90940E-08 1.86993E-19 6.22511E-19
 -1      2465 9.52228E-05-2.85681E-05-2.85663E-05-1.49742E-08-8.26795E-19-7.24560E-19
 -1      2466 9.52202E-05-2.85673E-05-2.85655E-05-1.56856E-08-2.89828E-19-1.04875E-18
 -1      2467 9.52248E-05-2.85690E-05-2.85668E-05-1.81917E-08 2.33853E-19 1.09832E-18
 -1      2468 9.52263E-05-2.85693E-05-2.85673E-05-1.32104E-08-2.53333E-19-1.46196E-19
 -1      2469 9.52240E-05-2.85686E-05-2.85666E-05-1.40255E-08-1.40142E-18-7.62478E-19
 -1      2470 9.52273E-05-2.85701E-05-2.85674E-05-1.65667E-08-6.07562E-19 5.36313E-19
 -1      2471 9.52295E-05-2.85704E-05-2.85682E-05-1.12281E-08-4.60594E-19 1.75032E-19
 -1      2472 9.52274E-05-2.85697E-05-2.85676E-05-1.21396E-08-1.71608E-19 1.23706E-19
 -1      2473 9.52297E-05-2.85710E-05-2.85680E-05-1.45650E-08-6.11287E-19 3.82679E-19
 -1      2474 9.52323E-05-2.85714E-05-2.85689E-05-9.05066E-09 1.23045E-19-3.59838E-19
 -1      2475 9.52305E-05-2.85708E-05-2.85685E-05-1.00596E-08-6.86974E-20-1.15631E-20
 -1      2476 9.52320E-05-2.85719E-05-2.85686E-05-1.23047E-08-6.49828E-20-1.60274E-19
 -1      2477 9.52354E-05-2.85726E-05-2.85698E-05-5.16103E-09-5.82271E-20 5.32973E-19
 -1      2478 9.52421E-05-2.85822E-05-2.85685E-05-7.21527E-09 1.86291E-18-2.00452E-18
 -1      2479 9.52413E-05-2.85811E-05-2.85687E-05-7.95222E-09 1.69582E-18-3.87168E-18
 -1      2480 9.52432E-05-2.85838E-05-2.85683E-05-5.00101E-09 2.30546E-18 1.20297E-18
 -1      2481 9.52427E-05-2.85830E-05-2.85684E-05-6.10571E-09 2.08914E-18 1.80370E-19
 -1      2482 9.52428E-05-2.85821E-05-2.85689E-05-7.54759E-09 2.52134E-18-9.63302E-19
 -1      2483 9.52386E-05-2.85775E-05-2.85691E-05-8.84267E-09-3.01923E-19 4.92904E-20
 -1      2484 9.52376E-05-2.85761E-05-2.85693E-05-8.55425E-09-2.22297E-19-9.13860E-20
 -1      2485 9.52405E-05-2.85800E-05-2.85688E-05-8.57936E-09 5.16595E-19-1.09989E-18
 -1      2486 9.52396E-05-2.85787E-05-2.85690E-05-8.82141E-09-3.31657E-19 2.46950E-20
 -1      2487 9.52390E-05-2.85777E-05-2.85691E-05-1.01369E-08 9.53156E-19 5.91267E-19
 -1      2488 9.52411E-05-2.85801E-05-2.85690E-05-9.40060E-09 1.82518E-18-1.20468E-18
 -1      2489 9.52438E-05-2.85847E-05-2.85682E-05-2.23643E-09-2.00334E-19-1.35001E-18
 -1      2490 9.52436E-05-2.85843E-05-2.85682E-05-3.56342E-09 9.86399E-19-9.84842E-19
 -1      2491 9.52440E-05-2.85835E-05-2.85688E-05-4.84125E-09 1.53344E-18-1.64662E-18
 -1      2492 9.52439E-05-2.85849E-05-2.85681E-05 7.62353E-10-1.33147E-19 4.41938E-19
 -1      2493 9.52439E-05-2.85849E-05-2.85681E-05-6.35565E-10-3.63486E-19 1.14104E-18
 -1      2494 9.52446E-05-2.85842E-05-2.85688E-05-1.61889E-09 5.53742E-19-4.39126E-19
 -1      2495 9.52435E-05-2.85842E-05-2.85682E-05 3.67191E-09-9.61229E-19-1.50633E-18
 -1      2496 9.52438E-05-2.85847E-05-2.85682E-05 2.35621E-09-3.57871E-19-1.58548E-18
 -1      2497 9.52445E-05-2.85841E-05-2.85688E-05 1.76773E-09 2.33512E-19-9.79015E-19
 -1      2498 9.52426E-05-2.85829E-05-2.85684E-05 6.13843E-09-1.49895E-18-2.79214E-18
 -1      2499 9.52431E-05-2.85837E-05-2.85683E-05 5.06829E-09-1.06365E-18-1.25613E-18
 -1      2500 9.52439E-05-2.85834E-05-2.85688E-05 4.93683E-09-4.61757E-19-1.69053E-18
 -1      2501 9.52413E-05-2.85810E-05-2.85687E-05 7.95369E-09 1.49423E-19-8.73986E-19
 -1      2502 9.52420E-05-2.85821E-05-2.85685E-05 7.22983E-09-8.41077E-19-2.89338E-18
 -1      2503 9.52427E-05-2.85820E-05-2.85689E-05 7.57627E-09-1.47625E-18-2.18482E-18
 -1      2504 9.52395E-05-2.85786E-05-2.85690E-05 8.76791E-09 1.68514E-18 1.30517E-18
 -1      2505 9.52404E-05-2.85799E-05-2.85688E-05 8.55782E-09 8.12659E-19 6.05030E-19
 -1      2506 9.52410E-05-2.85800E-05-2.85690E-05 9.40238E-09 2.16818E-19 3.19099E-19
 -1      2507 9.52376E-05-2.85760E-05-2.85693E-05 8.45718E-09 8.25819E-19 1.17953E-18
 -1      2508 9.52386E-05-2.85774E-05-2.85691E-05 8.81795E-09 8.16912E-19 7.64365E-19
 -1      2509 9.52390E-05-2.85776E-05-2.85691E-05 1.00375E-08 4.27647E-19 9.80746E-19
 -1      2510 2.35709E-05-1.74397E-05-2.23063E-06 1.18944E-05-1.14778E-18 3.59650E-18
 -1      2511 1.84737E-05-1.66968E-05-3.56257E-07-2.74999E-06-1.22472E-18 4.08185E-18
 -1      2512 9.85915E-05-5.59759E-05-1.83543E-05 3.78846E-05-5.42948E-19 1.04908E-18
 -1      2513 7.85273E-05-4.84583E-05-1.29008E-05 3.80737E-05-7.67412E-19 2.22611E-18
 -1      2514 1.10078E-04-3.13311E-05-3.37166E-05-1.52242E-05-1.81295E-20 1.22501E-18
 -1      2515 1.07763E-04-2.97652E-05-3.33761E-05-1.38548E-05 3.24000E-19 1.35261E-18
 -1      2516 1.02188E-04-2.66547E-05-3.23995E-05-1.37713E-05 5.80318E-19 8.94897E-19
 -1      2517 9.52363E-05-2.85740E-05-2.85696E-05 6.29715E-09 1.12548E-18 2.45700E-18
 -1      2518 1.98688E-05-1.82594E-05-3.81240E-07-1.67801E-05-1.11951E-18 2.61564E-18
 -1      2519 2.79002E-05-2.28907E-05-1.93604E-06-3.10154E-05-1.02978E-18 2.60590E-18
 -1      2520 5.77049E-05-3.67978E-05-8.67589E-06 3.69642E-05-7.18284E-19 3.01438E-18
 -1      2521 3.91233E-05-2.62221E-05-5.09521E-06 2.73169E-05-1.32751E-18 3.52472E-18
 -1      2522 9.95833E-05-2.22167E-05-3.32092E-05-1.04664E-05-8.18644E-19-8.10081E-19
 -1      2523 1.00262E-04-2.58201E-05-3.19510E-05-7.25217E-06-7.86179E-19-6.57698E-19
 -1      2524 9.99301E-05-2.53683E-05-3.19202E-05-7.02629E-06-6.98759E-19-7.40413E-19
 -1      2525 9.74268E-05-1.98815E-05-3.32420E-05-9.83477E-06-7.06338E-19-1.02840E-18
 -1      2526 4.21865E-05-3.15022E-05-4.38122E-06-4.00181E-05-6.38028E-19 2.81151E-18
 -1      2527 6.01872E-05-3.84094E-05-9.33443E-06-4.75570E-05-8.04470E-19 2.45417E-18
 -1      2528 1.47605E-04-9.21092E-06-5.98803E-05-2.27979E-06-3.69772E-18 8.67309E-19
 -1      2529 1.49767E-04-1.36413E-05-5.87338E-05-3.84068E-06-3.51116E-18 1.20490E-18
 -1      2530 1.10773E-04-5.47049E-05-2.42069E-05 4.14709E-05-8.13152E-20 1.97676E-19
 -1      2531 8.98312E-05-4.94738E-05-1.71192E-05 4.51939E-05 3.19331E-19-9.32974E-19
 -1      2532 8.28972E-05-9.39877E-06-3.15456E-05 4.06683E-06 9.31978E-19-1.04766E-18
 -1      2533 8.45673E-05-1.04040E-05-3.17814E-05 2.90948E-06 7.53589E-19-1.06362E-18
 -1      2534 8.69674E-05-1.34579E-05-3.15344E-05 2.99867E-06 6.20826E-19-9.48280E-19
 -1      2535 8.31925E-05-1.07619E-05-3.10665E-05 5.42015E-06 9.55003E-19-1.00901E-18
 -1      2536 1.55241E-04-3.80022E-05-5.07782E-05 2.06748E-05 1.49078E-18 1.89566E-18
 -1      2537 9.86933E-05-5.63728E-05-1.81435E-05-3.67039E-05-1.15175E-18-2.34522E-18
 -1      2538 1.17717E-04-6.16444E-05-2.43000E-05-3.37084E-05-1.28071E-18-2.14718E-18
 -1      2539 1.62217E-04-5.65384E-05-4.53941E-05 9.33760E-06 1.00585E-19 9.35124E-19
 -1      2540 1.64281E-04-4.87951E-05-5.01366E-05 1.47479E-05 9.03361E-19 1.03253E-18
 -1      2541 1.51740E-04-2.17577E-05-5.62023E-05-3.98987E-06-3.31783E-18 1.76755E-18
 -1      2542 1.49960E-04-2.93061E-05-5.20521E-05-2.75742E-06-2.74545E-18 1.69258E-18
 -1      2543 6.01272E-05-4.03716E-05-8.42370E-06-3.74840E-05-6.08170E-19-2.66900E-18
 -1      2544 7.96213E-05-4.84571E-05-1.33796E-05-4.09864E-05-7.03037E-19-2.64878E-18
 -1      2545 9.57389E-05-5.24924E-05-1.81148E-05-3.73036E-05-1.17886E-18-2.07825E-18
 -1      2546 2.63425E-05-2.15464E-05-1.75351E-06-1.82815E-05 9.94205E-20-2.31155E-18
 -1      2547 4.06651E-05-2.87044E-05-4.91758E-06-3.15820E-05-7.41154E-21-2.59234E-18
 -1      2548 1.67250E-05-1.64140E-05 5.51035E-08 1.03270E-05 5.34795E-19-2.28572E-18
 -1      2549 1.74962E-05-1.76669E-05 3.00519E-07-4.61266E-06 4.76085E-19-2.31155E-18
 -1      2550 3.72052E-05-2.47902E-05-4.94012E-06 3.76207E-05 6.04570E-19-2.03097E-18
 -1      2551 2.63157E-05-1.88841E-05-2.64285E-06 2.51465E-05 9.38830E-19-2.24654E-18
 -1      2552 6.96707E-05-4.06464E-05-1.22879E-05 4.84416E-05 2.46910E-19-1.73864E-18
 -1      2553 5.18874E-05-3.41433E-05-7.44079E-06 4.32042E-05 5.18808E-19-1.87724E-18
 -1      2554 5.26969E-05-2.75963E-05-1.03356E-05 4.02046E-05 1.27235E-18-1.90625E-18
 -1      2555 8.69816E-05-4.58308E-05-1.71707E-05 4.53110E-05 1.06387E-18-8.33851E-19
 -1      2556 1.38822E-04-5.51646E-05-3.61205E-05 2.34806E-05-1.31947E-18 1.01559E-18
 -1      2557 1.28244E-04-5.67121E-05-3.05410E-05 2.89045E-05-6.70427E-19 8.98914E-19
 -1      2558 1.44082E-04-4.97857E-05-4.04870E-05-9.44841E-06-4.02672E-19 3.79894E-19
 -1      2559 1.49062E-04-4.28920E-05-4.60082E-05-3.97860E-06-4.01917E-19 4.27963E-19
 -1      2560 1.51199E-04-4.11196E-05-4.76710E-05 4.26850E-06-2.15501E-18 1.69872E-18
 -1      2561 1.44966E-04-4.86406E-05-4.14495E-05 1.23284E-05-1.86353E-18 1.36859E-18
 -1      2562 1.42539E-04-5.32873E-05-3.82297E-05 1.02383E-05-9.42430E-19 2.03140E-18
 -1      2563 1.48942E-04-1.23866E-05-5.89331E-05 3.63359E-06-3.06075E-18 1.29596E-19
 -1      2564 1.48039E-04-9.17746E-06-6.00471E-05 1.49106E-06-3.65579E-18 2.45587E-19
 -1      2565 1.48696E-04-3.10120E-05-5.08559E-05 2.27390E-06-1.02427E-18 4.53374E-19
 -1      2566 1.50193E-04-2.13832E-05-5.57336E-05 4.51165E-06-2.06358E-18 4.82809E-20
 -1      2567 1.43177E-04-3.70281E-05-4.56989E-05 6.09663E-06-3.22402E-19-6.39086E-19
 -1      2568 1.20284E-04-5.68045E-05-2.70087E-05-3.44503E-05 2.33358E-19 1.60047E-18
 -1      2569 1.35811E-04-5.64146E-05-3.45064E-05-2.50243E-05-4.11129E-19 1.33895E-18
 -1      2570 8.17694E-05-4.74481E-05-1.44967E-05-4.64733E-05 1.14349E-20 1.79693E-18
 -1      2571 1.00688E-04-5.26370E-05-2.08316E-05-4.53224E-05 4.04458E-20 1.67922E-18
 -1      2572 1.66782E-04-4.01750E-05-5.51876E-05-1.89709E-05 3.05821E-18-6.02664E-19
 -1      2573 1.64819E-04-4.75113E-05-5.00491E-05-1.35785E-05 2.85556E-18-8.33057E-19
 -1      2574 1.05845E-04-2.66760E-05-3.39045E-05-9.46597E-07 1.25176E-18 2.02037E-18
 -1      2575 1.05911E-04-2.53498E-05-3.45297E-05 2.97510E-06 1.31123E-18 2.32733E-18
 -1      2576 1.02654E-04-2.20896E-05-3.45607E-05 3.68303E-06 1.45381E-18 1.92356E-18
 -1      2577 1.02090E-04-2.39098E-05-3.35132E-05-2.45703E-06 1.27651E-18 1.45528E-18
 -1      2578 1.36544E-04-6.64528E-05-3.03052E-05 2.17414E-05 9.33854E-19-7.30778E-19
 -1      2579 1.16846E-04-6.24395E-05-2.33840E-05 2.89444E-05 3.02391E-19-2.94556E-19
 -1      2580 1.13748E-04-5.96272E-05-2.29377E-05 3.00038E-05-5.49724E-19-5.29396E-21
 -1      2581 1.50590E-04-4.29484E-05-4.62691E-05 2.20929E-05 6.45439E-19 2.48096E-18
 -1      2582 9.33380E-05-1.78450E-05-3.23722E-05-3.35946E-06 2.21519E-21-1.23826E-18
 -1      2583 9.21881E-05-1.55496E-05-3.28950E-05-4.83736E-06-4.86027E-20-1.32334E-18
 -1      2584 9.35649E-05-1.65140E-05-3.30799E-05-6.43737E-06-2.15694E-19-1.36613E-18
 -1      2585 9.52352E-05-2.85731E-05-2.85695E-05 7.42919E-09 1.75518E-18 2.69499E-18
 -1      2586 9.52366E-05-2.85748E-05-2.85693E-05 8.22767E-09 1.89389E-18 2.55987E-18
 -1      2587 9.52366E-05-2.85751E-05-2.85692E-05 9.76482E-09 1.29331E-18 2.96884E-18
 -1      2588 9.52342E-05-2.85727E-05-2.85692E-05 8.62732E-09 1.30304E-18 2.00683E-18
 -1      2589 9.78920E-05-1.83551E-05-3.41545E-05 3.26576E-06 1.57365E-18 1.32918E-18
 -1      2590 1.44747E-04-6.65508E-05-3.34332E-05 9.66688E-06 1.09903E-18-8.67256E-19
 -1      2591 4.24323E-05-2.48812E-05-6.99481E-06-3.59474E-05-2.60886E-19 2.60526E-18
 -1      2592 9.52350E-05-2.85736E-05-2.85691E-05 1.03525E-08 1.03431E-18 3.22395E-18
 -1      2593 9.61696E-05-1.83205E-05-3.33352E-05 6.76868E-07 1.49401E-18 1.08416E-18
 -1      2594 1.38511E-04-5.89139E-05-3.41783E-05-4.98522E-06-1.12073E-18 9.24378E-19
 -1      2595 1.52570E-04-5.27307E-05-4.31090E-05 2.08102E-05-2.28434E-19 2.60060E-18
 -1      2596 1.53483E-04-5.84767E-05-4.11086E-05 1.20766E-05-5.51207E-19 1.75209E-18
 -1      2597 1.33467E-04-6.54539E-05-2.90453E-05-2.16086E-05-1.68665E-18-1.02205E-18
 -1      2598 9.52358E-05-2.85734E-05-2.85696E-05-6.61888E-09-3.99701E-19-1.05848E-18
 -1      2599 9.52347E-05-2.85723E-05-2.85696E-05-6.27325E-09-7.15856E-19 1.85523E-20
 -1      2600 9.52333E-05-2.85717E-05-2.85693E-05-7.37432E-09-2.95817E-19 2.31237E-19
 -1      2601 9.52364E-05-2.85744E-05-2.85694E-05-7.40599E-09-5.54345E-19-2.02156E-18
 -1      2602 9.52340E-05-2.85727E-05-2.85692E-05-9.46421E-09-2.14736E-19-3.53382E-19
 -1      2603 9.52365E-05-2.85748E-05-2.85693E-05-9.07354E-09-1.44563E-19-9.00302E-19
 -1      2604 7.69917E-05-4.29946E-05-1.41560E-05-4.65830E-05 1.83806E-19 1.41814E-18
 -1      2605 2.63449E-05-1.38720E-05-4.72653E-06-1.07627E-05-7.96529E-19 3.35065E-18
 -1      2606 3.59900E-05-1.98552E-05-6.26218E-06 2.06126E-05-1.40173E-18 3.38623E-18
 -1      2607 3.54326E-05-1.37431E-05-8.66632E-06 1.33085E-05-1.23074E-18 3.16727E-18
 -1      2608 4.97249E-05-2.22094E-05-1.13741E-05 2.65953E-05-1.83049E-18 2.88161E-18
 -1      2609 7.55575E-05-4.17686E-05-1.40280E-05 3.62110E-05-1.44377E-18 2.12944E-18
 -1      2610 1.45658E-04-3.57404E-05-4.72576E-05-4.85828E-06-2.08243E-18 2.36005E-18
 -1      2611 1.38065E-04-7.54373E-06-5.62588E-05-4.07198E-07-3.27421E-18 3.00260E-19
 -1      2612 1.40409E-04-1.59785E-05-5.35618E-05-8.19338E-06-2.99236E-18 1.79264E-18
 -1      2613 1.22013E-04-5.76043E-05-2.74273E-05 3.23564E-05 3.12661E-19 1.00437E-18
 -1      2614 9.59087E-05-1.86676E-05-3.31499E-05-8.48336E-06-5.31467E-19-1.21971E-18
 -1      2615 1.04303E-04-2.97662E-05-3.20066E-05-1.80605E-05-6.18367E-20 6.83359E-19
 -1      2616 2.84139E-05-1.43424E-05-5.48732E-06 1.85386E-05 1.11110E-18-2.21753E-18
 -1      2617 1.64368E-04-3.04850E-05-5.73811E-05-1.64514E-05 3.24498E-18-5.95041E-19
 -1      2618 5.72282E-05-3.26824E-05-1.00821E-05-3.42616E-05-4.93185E-19-2.39499E-18
 -1      2619 1.56737E-04-6.11125E-05-4.10364E-05 4.76496E-06-5.28919E-19 9.80229E-19
 -1      2620 2.88347E-05-1.59366E-05-4.98068E-06-1.25910E-05 4.81856E-19-2.27513E-18
 -1      2621 1.39218E-04-5.49938E-05-3.60545E-05-1.28153E-05 1.82853E-19-1.57760E-19
 -1      2622 1.40178E-04-1.65627E-05-5.32757E-05 7.75213E-06-2.14808E-18-4.46704E-19
 -1      2623 1.15022E-04-5.69106E-05-2.45857E-05-3.66450E-05 8.81550E-19 8.61327E-19
 -1      2624 9.57001E-05-1.90037E-05-3.28718E-05-2.09821E-06 1.35475E-18 9.03337E-19
 -1      2625 7.66381E-05-6.78373E-06-3.00008E-05 7.15489E-06 1.41745E-18-7.95761E-19
 -1      2626 7.76126E-05-7.51727E-06-3.00119E-05 7.59310E-06 1.32380E-18-8.69437E-19
 -1      2627 7.93232E-05-9.11537E-06-3.01488E-05 8.01936E-06 1.24993E-18-9.34668E-19
 -1      2628 8.11929E-05-1.03957E-05-3.03027E-05 7.72445E-06 1.15755E-18-9.31506E-19
 -1      2629 7.88699E-05-9.85768E-06-2.95659E-05 8.89890E-06 1.30695E-18-8.28742E-19
 -1      2630 8.02468E-05-8.30624E-06-3.08627E-05 1.77782E-06 1.55208E-18-1.69383E-19
 -1      2631 7.79820E-05-6.91460E-06-3.04925E-05 2.89384E-06 1.54339E-18-3.87920E-19
 -1      2632 8.73376E-05-1.31318E-05-3.18283E-05-8.10162E-07 1.56592E-18 3.29564E-19
 -1      2633 8.34789E-05-1.04881E-05-3.13358E-05-8.21836E-09 1.52821E-18 7.29540E-20
 -1      2634 8.14176E-05-1.01320E-05-3.04933E-05-5.83280E-07 1.41693E-18-6.53059E-21
 -1      2635 4.13867E-05-1.86009E-05-9.19295E-06-3.03576E-05-2.48657E-19 1.91133E-18
 -1      2636 5.46186E-05-2.75207E-05-1.13131E-05-4.05711E-05 3.72800E-19 2.22748E-18
 -1      2637 9.52359E-05-2.85746E-05-2.85691E-05 1.15853E-08 2.13073E-18 1.85964E-18
 -1      2638 9.52364E-05-2.85749E-05-2.85692E-05 1.06525E-08 2.25548E-18 3.16152E-18
 -1      2639 9.52375E-05-2.85761E-05-2.85692E-05 1.09629E-08 1.30913E-18 1.98392E-18
 -1      2640 1.01733E-04-3.03589E-05-3.05484E-05-4.11764E-06-5.11695E-19-4.46531E-19
 -1      2641 1.01776E-04-3.11905E-05-3.02847E-05-4.04252E-06-3.73079E-19-5.05922E-19
 -1      2642 1.02387E-04-3.20022E-05-3.01328E-05-4.39325E-06-3.11038E-19-4.64462E-19
 -1      2643 1.02267E-04-3.23436E-05-2.99940E-05-4.82065E-06-2.41614E-19-5.79624E-19
 -1      2644 1.03031E-04-3.20093E-05-3.04449E-05-4.12597E-06-4.40173E-19-3.07437E-19
 -1      2645 1.02573E-04-3.25897E-05-2.99812E-05-5.57578E-06-2.15233E-19-4.50625E-19
 -1      2646 1.02201E-04-3.23589E-05-2.99445E-05-6.18601E-06-2.93356E-19-4.54136E-19
 -1      2647 1.03991E-04-3.32669E-05-3.03064E-05-5.21435E-06-2.73368E-19-4.18554E-19
 -1      2648 1.02036E-04-3.19314E-05-3.00570E-05-6.98442E-06-4.27388E-19-2.95766E-19
 -1      2649 1.01350E-04-3.10816E-05-3.01038E-05-7.38732E-06-5.46368E-19-3.00731E-19
 -1      2650 1.04174E-04-3.30734E-05-3.04528E-05-6.84036E-06-3.55730E-19-2.66223E-19
 -1      2651 1.00624E-04-2.99777E-05-3.03101E-05-7.73172E-06-5.87216E-19-4.43318E-19
 -1      2652 9.96989E-05-2.86528E-05-3.04115E-05-7.52622E-06-5.73254E-19-5.05086E-19
 -1      2653 1.03292E-04-3.12671E-05-3.08398E-05-8.12060E-06-6.09081E-19-2.16038E-19
 -1      2654 9.85793E-05-2.71532E-05-3.06508E-05-6.93469E-06-6.75557E-19-4.08047E-19
 -1      2655 9.76710E-05-2.57787E-05-3.07619E-05-5.87139E-06-7.19459E-19-2.68254E-19
 -1      2656 1.01405E-04-2.81721E-05-3.13675E-05-7.99479E-06-5.43386E-19-2.17911E-19
 -1      2657 9.66453E-05-2.44867E-05-3.09491E-05-4.18036E-06-7.40449E-19-2.12660E-19
 -1      2658 9.61049E-05-2.36430E-05-3.10190E-05-2.36758E-06-6.52255E-19-1.31438E-19
 -1      2659 9.91812E-05-2.48434E-05-3.18686E-05-5.69515E-06-6.63181E-19 2.10712E-19
 -1      2660 9.57187E-05-2.31872E-05-3.10766E-05 4.05286E-08-5.31884E-19-1.57603E-19
 -1      2661 9.57882E-05-2.32849E-05-3.10701E-05 2.11289E-06-2.76230E-19-1.47356E-19
 -1      2662 9.77126E-05-2.27633E-05-3.21556E-05-1.40646E-06-6.03242E-19 1.14433E-19
 -1      2663 9.62622E-05-2.39177E-05-3.09660E-05 4.43447E-06-1.65431E-19-6.17999E-20
 -1      2664 9.69132E-05-2.49227E-05-3.08825E-05 6.11799E-06-5.95421E-20-3.31330E-19
 -1      2665 9.78103E-05-2.29826E-05-3.21003E-05 3.58640E-06-2.52203E-19-2.41792E-19
 -1      2666 9.79466E-05-2.63183E-05-3.06504E-05 7.58275E-06-2.20138E-20-3.08777E-19
 -1      2667 9.88931E-05-2.77749E-05-3.05222E-05 8.42822E-06 1.21054E-19-4.52183E-19
 -1      2668 9.93905E-05-2.54171E-05-3.17054E-05 7.53014E-06-1.32770E-19-6.98066E-19
 -1      2669 9.99146E-05-2.92879E-05-3.02361E-05 8.73260E-06 1.90878E-19-4.55784E-19
 -1      2670 1.00798E-04-3.06365E-05-3.01056E-05 8.67908E-06 1.55632E-19-3.29732E-19
 -1      2671 1.01529E-04-2.89053E-05-3.10997E-05 9.26897E-06 2.62799E-19-1.25932E-19
 -1      2672 1.01370E-04-3.17326E-05-2.98369E-05 8.02946E-06 6.91614E-20-3.38557E-20
 -1      2673 1.01948E-04-3.26121E-05-2.97341E-05 7.32292E-06 2.10835E-19 1.18857E-19
 -1      2674 1.03167E-04-3.20320E-05-3.04538E-05 8.76729E-06 2.92658E-19 2.88610E-19
 -1      2675 1.01952E-04-3.30891E-05-2.95252E-05 6.17146E-06-7.74539E-20-2.59148E-19
 -1      2676 1.02161E-04-3.34231E-05-2.94599E-05 5.16062E-06-3.83418E-19-5.18619E-19
 -1      2677 1.03742E-04-3.39185E-05-2.99001E-05 6.79441E-06-1.39041E-19-1.90223E-19
 -1      2678 1.01727E-04-3.33638E-05-2.93206E-05 3.92749E-06-1.78193E-19-1.68217E-19
 -1      2679 1.01633E-04-3.32709E-05-2.92870E-05 2.90312E-06-1.87112E-19 2.26768E-19
 -1      2680 1.03283E-04-3.44314E-05-2.94977E-05 4.29345E-06-1.11143E-19-1.60324E-19
 -1      2681 1.00973E-04-3.28801E-05-2.92060E-05 1.84767E-06-9.32315E-20 3.88647E-19
 -1      2682 1.00692E-04-3.25417E-05-2.91912E-05 9.84335E-07 1.08733E-19 4.79973E-19
 -1      2683 1.02156E-04-3.39240E-05-2.92441E-05 1.95522E-06-6.14231E-20 2.88935E-19
 -1      2684 9.99887E-05-3.20197E-05-2.91491E-05 2.09386E-07-1.14885E-19 5.23400E-19
 -1      2685 9.96269E-05-3.15940E-05-2.91408E-05-4.24201E-07-2.09404E-19 6.73273E-19
 -1      2686 1.00769E-04-3.28793E-05-2.91040E-05 1.23555E-07-1.02594E-20 1.11827E-18
 -1      2687 9.89923E-05-3.10796E-05-2.91196E-05-9.17821E-07-3.69803E-19 5.02954E-19
 -1      2688 9.86228E-05-3.06696E-05-2.91092E-05-1.32285E-06-1.15885E-19 6.51720E-20
 -1      2689 9.94180E-05-3.16948E-05-2.90347E-05-1.12148E-06-5.19193E-19 7.78237E-19
 -1      2690 9.81054E-05-3.02358E-05-2.90958E-05-1.58282E-06 1.30046E-19-4.20151E-19
 -1      2691 9.77687E-05-2.98931E-05-2.90793E-05-1.79617E-06-2.40637E-19-8.73250E-19
 -1      2692 9.82607E-05-3.06152E-05-2.90009E-05-1.84349E-06-4.57894E-19 1.93798E-19
 -1      2693 9.73750E-05-2.95644E-05-2.90663E-05-1.88405E-06-2.86410E-19-5.52058E-19
 -1      2694 9.70880E-05-2.93045E-05-2.90431E-05-1.95446E-06 8.94976E-21-5.75881E-19
 -1      2695 9.73486E-05-2.97505E-05-2.89789E-05-2.16057E-06-1.86583E-19-6.01168E-19
 -1      2696 9.68033E-05-2.90765E-05-2.90273E-05-1.92796E-06 3.37513E-20-3.67006E-19
 -1      2697 9.65685E-05-2.88944E-05-2.89989E-05-1.90237E-06 1.89788E-19-5.34689E-19
 -1      2698 9.66713E-05-2.91224E-05-2.89559E-05-2.19549E-06 2.61192E-20-4.04013E-19
 -1      2699 9.63702E-05-2.87497E-05-2.89797E-05-1.80822E-06 1.01081E-19-6.39141E-19
 -1      2700 9.61834E-05-2.86315E-05-2.89485E-05-1.72556E-06 4.36148E-20-6.92805E-19
 -1      2701 9.61901E-05-2.87049E-05-2.89269E-05-2.05329E-06-6.48657E-20 2.02532E-20
 -1      2702 9.60493E-05-2.85493E-05-2.89269E-05-1.59822E-06-7.46531E-20-9.63876E-19
 -1      2703 9.59033E-05-2.84790E-05-2.88951E-05-1.48770E-06 2.15492E-19-1.08295E-18
 -1      2704 9.58596E-05-2.84537E-05-2.88916E-05-1.81456E-06-3.63072E-19 1.55133E-19
 -1      2705 9.58147E-05-2.84401E-05-2.88725E-05-1.35063E-06 7.84993E-19-1.16738E-18
 -1      2706 9.57021E-05-2.84034E-05-2.88421E-05-1.23237E-06 8.02280E-19-8.10220E-19
 -1      2707 9.56387E-05-2.83228E-05-2.88520E-05-1.53635E-06 5.14379E-19 2.43710E-19
 -1      2708 9.56445E-05-2.83922E-05-2.88199E-05-1.10031E-06 4.39238E-19-3.99229E-19
 -1      2709 9.55587E-05-2.83775E-05-2.87922E-05-9.86955E-07 4.32049E-19-3.50852E-19
 -1      2710 9.54940E-05-2.82725E-05-2.88109E-05-1.25609E-06 8.66072E-19 1.19805E-19
 -1      2711 9.55217E-05-2.83826E-05-2.87714E-05-8.68147E-07 4.06225E-19-4.36829E-19
 -1      2712 9.54571E-05-2.83813E-05-2.87472E-05-7.66727E-07-3.89183E-20-3.59504E-19
 -1      2713 9.54007E-05-2.82719E-05-2.87707E-05-9.96144E-07 4.45684E-19 1.88273E-19
 -1      2714 9.54334E-05-2.83949E-05-2.87286E-05-6.64914E-07-2.11310E-19-5.15629E-20
 -1      2715 9.53853E-05-2.84010E-05-2.87081E-05-5.78544E-07 3.21916E-19 1.50633E-19
 -1      2716 9.53411E-05-2.82989E-05-2.87333E-05-7.68081E-07-2.18830E-19 9.75280E-19
 -1      2717 9.53701E-05-2.84177E-05-2.86919E-05-4.94536E-07 6.78142E-19 7.92057E-20
 -1      2718 9.53347E-05-2.84273E-05-2.86751E-05-4.23779E-07 7.36218E-19 3.56335E-19
 -1      2719 9.53033E-05-2.83386E-05-2.86999E-05-5.76148E-07 3.89600E-19 3.66527E-19
 -1      2720 9.53250E-05-2.84442E-05-2.86616E-05-3.56627E-07 1.66414E-19-7.56573E-20
 -1      2721 9.52994E-05-2.84548E-05-2.86481E-05-3.00527E-07-7.45250E-20-2.55658E-19
 -1      2722 9.52793E-05-2.83815E-05-2.86711E-05-4.19987E-07 4.05360E-20 3.62482E-19
 -1      2723 9.52930E-05-2.84702E-05-2.86371E-05-2.48347E-07 2.17441E-19 7.64860E-20
 -1      2724 9.52749E-05-2.84804E-05-2.86266E-05-2.05162E-07-9.32538E-20 4.05230E-19
 -1      2725 9.52640E-05-2.84222E-05-2.86469E-05-2.96593E-07 3.26760E-19 4.42523E-19
 -1      2726 9.52707E-05-2.84936E-05-2.86178E-05-1.65688E-07-4.00440E-19 6.73363E-19
 -1      2727 9.52582E-05-2.85026E-05-2.86098E-05-1.33374E-07-2.75371E-19 7.48543E-19
 -1      2728 9.52541E-05-2.84581E-05-2.86273E-05-2.01676E-07-4.14961E-20 1.19546E-18
 -1      2729 9.52554E-05-2.85133E-05-2.86030E-05-1.04307E-07 6.71902E-21 7.72204E-19
 -1      2730 9.52470E-05-2.85209E-05-2.85971E-05-8.08171E-08 8.92962E-20 9.79695E-19
 -1      2731 9.52477E-05-2.84880E-05-2.86116E-05-1.30548E-07-9.51648E-20 8.85881E-19
 -1      2732 9.52451E-05-2.85294E-05-2.85919E-05-6.00180E-08 4.04463E-20 1.08627E-18
 -1      2733 9.52398E-05-2.85355E-05-2.85877E-05-4.34749E-08 5.52947E-19 1.31683E-18
 -1      2734 9.52435E-05-2.85120E-05-2.85995E-05-7.86610E-08 5.17116E-19 1.49926E-18
 -1      2735 9.52385E-05-2.85420E-05-2.85838E-05-2.90709E-08 6.07969E-19 9.93551E-19
 -1      2736 9.52353E-05-2.85468E-05-2.85809E-05-1.78442E-08 3.46520E-19 6.60360E-19
 -1      2737 9.52408E-05-2.85307E-05-2.85902E-05-4.19060E-08 3.33746E-21 1.46212E-18
 -1      2738 9.52345E-05-2.85515E-05-2.85781E-05-8.26020E-09 6.29703E-19 3.55447E-19
 -1      2739 9.52328E-05-2.85552E-05-2.85762E-05-9.93789E-10 1.35473E-20 2.51171E-19
 -1      2740 9.52389E-05-2.85447E-05-2.85834E-05-1.67478E-08 1.63543E-19 1.25365E-18
 -1      2741 9.52322E-05-2.85586E-05-2.85742E-05 5.05070E-09 5.60612E-19 4.01220E-19
 -1      2742 9.52316E-05-2.85614E-05-2.85730E-05 9.44766E-09 1.77693E-18 1.43182E-18
 -1      2743 9.52377E-05-2.85549E-05-2.85785E-05-2.55189E-10 9.30276E-19 7.75730E-19
 -1      2744 9.52312E-05-2.85637E-05-2.85717E-05 1.29635E-08 1.56721E-18 2.21436E-18
 -1      2745 9.52313E-05-2.85657E-05-2.85710E-05 1.53421E-08 1.27091E-18 2.54142E-18
 -1      2746 9.52370E-05-2.85621E-05-2.85750E-05 9.92801E-09 1.86765E-18 1.74260E-18
 -1      2747 9.52311E-05-2.85673E-05-2.85701E-05 1.71053E-08 2.93764E-19 1.97945E-18
 -1      2748 9.52315E-05-2.85687E-05-2.85698E-05 1.81100E-08-4.66648E-19 2.37869E-18
 -1      2749 9.52366E-05-2.85671E-05-2.85727E-05 1.56429E-08 3.53291E-19 7.33718E-19
 -1      2750 9.52314E-05-2.85697E-05-2.85693E-05 1.86994E-08-1.03568E-18 2.46240E-18
 -1      2751 9.52321E-05-2.85707E-05-2.85692E-05 1.88022E-08-1.32632E-18 2.07721E-18
 -1      2752 9.52364E-05-2.85703E-05-2.85712E-05 1.82889E-08-9.33428E-19 1.78435E-19
 -1      2753 9.52321E-05-2.85713E-05-2.85689E-05 1.86345E-08-1.17959E-18 1.76683E-18
 -1      2754 9.52329E-05-2.85721E-05-2.85689E-05 1.81660E-08-4.04839E-19 6.84327E-19
 -1      2755 9.52363E-05-2.85724E-05-2.85703E-05 1.88976E-08-1.39089E-18 7.33383E-19
 -1      2756 9.52330E-05-2.85724E-05-2.85688E-05 1.75270E-08-7.75822E-19 9.69009E-19
 -1      2757 9.52338E-05-2.85730E-05-2.85689E-05 1.67046E-08-7.13351E-19 7.41256E-19
 -1      2758 9.52364E-05-2.85737E-05-2.85698E-05 1.81999E-08-3.30575E-19 1.30083E-19
 -1      2759 9.52339E-05-2.85732E-05-2.85689E-05 1.57807E-08-1.23392E-19 5.49028E-19
 -1      2760 9.52348E-05-2.85737E-05-2.85690E-05 1.47356E-08-2.18118E-19-9.12938E-20
 -1      2761 9.52366E-05-2.85745E-05-2.85695E-05 1.66915E-08-7.17591E-19-3.96610E-21
 -1      2762 9.52349E-05-2.85739E-05-2.85690E-05 1.38099E-08 5.87158E-19 3.45650E-19
 -1      2763 9.52357E-05-2.85743E-05-2.85691E-05 1.25840E-08 1.68721E-18 1.35811E-18
 -1      2764 9.52372E-05-2.85756E-05-2.85692E-05 1.29205E-08 2.43772E-18 2.46896E-18
 -1      2765 9.52368E-05-2.85751E-05-2.85693E-05 1.48560E-08 7.67620E-19 7.52071E-19
 -1      2766 1.14836E-04-4.85491E-05-2.81524E-05-2.27613E-05-8.96161E-19-6.65093E-19
 -1      2767 1.07210E-04-4.10667E-05-2.80398E-05-2.45575E-05-5.49486E-19-4.86673E-19
 -1      2768 1.03064E-04-3.50140E-05-2.89925E-05-2.25871E-05-3.55701E-19-2.80600E-19
 -1      2769 9.90242E-05-3.01784E-05-2.93661E-05-2.20230E-05-2.59854E-19-1.22264E-19
 -1      2770 9.42782E-05-3.44950E-05-2.55842E-05-2.73657E-05-2.84365E-19-8.55530E-19
 -1      2771 9.52356E-05-2.85744E-05-2.85691E-05-1.06874E-08 4.15095E-19 7.95029E-20
 -1      2772 1.25705E-04-6.20197E-05-2.70567E-05-2.36990E-05-1.68433E-18-1.05024E-18
 -1      2773 1.42276E-04-6.57533E-05-3.31378E-05-1.23376E-05-1.39633E-18-1.24726E-19
 -1      2774 5.48080E-05-2.49385E-05-1.22751E-05-3.04331E-05-1.03762E-19-1.91980E-18
 -1      2775 7.30307E-05-3.66390E-05-1.51949E-05-3.72859E-05-6.23840E-19-1.86178E-18
 -1      2776 1.60161E-04-5.37001E-05-4.56560E-05-1.71169E-05 2.27767E-18-1.05540E-18
 -1      2777 1.34976E-04-6.43631E-05-2.99452E-05 1.63651E-05 9.04208E-20-2.19593E-19
 -1      2778 9.51135E-05-2.68521E-05-2.92376E-05 2.04890E-05-1.50486E-18 1.68777E-18
 -1      2779 9.75489E-05-2.97882E-05-2.89141E-05 2.15573E-05-2.03746E-18 1.50248E-18
 -1      2780 9.43600E-05-2.44506E-05-2.99966E-05 1.66602E-05-1.37069E-18 1.54733E-18
 -1      2781 9.54783E-05-2.55503E-05-2.98969E-05 1.82048E-05-1.21855E-18 1.61636E-18
 -1      2782 8.79834E-05-2.30405E-05-2.78228E-05 1.95188E-05-1.35665E-18 1.47241E-18
 -1      2783 9.48127E-05-2.43336E-05-3.02462E-05 1.33320E-05 4.39312E-19 5.96250E-19
 -1      2784 9.53004E-05-2.44817E-05-3.03070E-05 1.48384E-05-6.64069E-19 1.16626E-18
 -1      2785 8.95164E-05-2.18679E-05-2.89526E-05 1.55008E-05-4.49083E-19 1.13478E-19
 -1      2786 9.53946E-05-2.49762E-05-3.02146E-05 1.04721E-05 5.65423E-19 8.88096E-19
 -1      2787 9.57011E-05-2.47921E-05-3.03552E-05 1.18325E-05 5.86656E-19 6.93083E-19
 -1      2788 9.13429E-05-2.24635E-05-2.94801E-05 1.23439E-05 3.07436E-19-4.15511E-19
 -1      2789 9.58147E-05-2.57831E-05-3.00407E-05 8.09942E-06 1.08513E-18 1.66066E-18
 -1      2790 9.60758E-05-2.55207E-05-3.02089E-05 9.24558E-06 7.57896E-19 1.48252E-18
 -1      2791 9.28783E-05-2.35993E-05-2.96595E-05 9.74544E-06 4.73388E-19 1.45533E-19
 -1      2792 9.60266E-05-2.65078E-05-2.98135E-05 6.18623E-06 1.07140E-19 7.66988E-19
 -1      2793 9.62744E-05-2.62672E-05-2.99784E-05 7.11032E-06 1.02718E-18 1.81633E-18
 -1      2794 9.39799E-05-2.47582E-05-2.96444E-05 7.61051E-06 6.20597E-19 1.19159E-18
 -1      2795 9.60739E-05-2.70812E-05-2.95829E-05 4.67582E-06-1.69776E-19-5.27893E-19
 -1      2796 9.63080E-05-2.68909E-05-2.97297E-05 5.40028E-06-5.88623E-19-2.28547E-20
 -1      2797 9.46903E-05-2.57424E-05-2.95350E-05 5.87760E-06 4.88867E-19 1.32541E-18
 -1      2798 9.60154E-05-2.75242E-05-2.93635E-05 3.45148E-06 3.50679E-19-1.84033E-18
 -1      2799 9.62328E-05-2.73788E-05-2.94924E-05 4.03001E-06 3.51964E-19-1.23300E-18
 -1      2800 9.51148E-05-2.65258E-05-2.93863E-05 4.46289E-06 4.90600E-19-2.23006E-19
 -1      2801 9.59113E-05-2.78251E-05-2.91863E-05 2.56328E-06 8.87387E-20-1.36179E-18
 -1      2802 9.60898E-05-2.77263E-05-2.92854E-05 2.98122E-06 2.35763E-19-1.65073E-18
 -1      2803 9.53341E-05-2.71090E-05-2.92352E-05 3.35109E-06 1.85988E-19-9.01659E-19
 -1      2804 9.57884E-05-2.80376E-05-2.90404E-05 1.88671E-06-3.06773E-19 1.49873E-19
 -1      2805 9.59362E-05-2.79680E-05-2.91189E-05 2.20155E-06-2.68777E-19-9.35537E-19
 -1      2806 9.54250E-05-2.75196E-05-2.91007E-05 2.51030E-06-5.03676E-19-1.10076E-18
 -1      2807 9.56690E-05-2.81873E-05-2.89236E-05 1.37516E-06-2.51009E-19 7.05598E-19
 -1      2808 9.57877E-05-2.81382E-05-2.89846E-05 1.61101E-06-4.74716E-19 8.34870E-19
 -1      2809 9.54467E-05-2.78146E-05-2.89849E-05 1.86160E-06-1.08047E-18-3.76960E-19
 -1      2810 9.55630E-05-2.82931E-05-2.88319E-05 9.90781E-07 1.80150E-19 5.38563E-19
 -1      2811 9.56559E-05-2.82581E-05-2.88786E-05 1.16649E-06 4.59527E-19 7.85039E-19
 -1      2812 9.54325E-05-2.80260E-05-2.88889E-05 1.36538E-06 5.43795E-20-3.95229E-19
 -1      2813 9.54742E-05-2.83686E-05-2.87609E-05 7.03687E-07 1.57685E-19 7.01502E-19
 -1      2814 9.55455E-05-2.83432E-05-2.87963E-05 8.33940E-07 2.36822E-19 2.95016E-19
 -1      2815 9.54026E-05-2.81777E-05-2.88114E-05 9.88806E-07 6.68301E-19 2.85156E-19
 -1      2816 9.54004E-05-2.84252E-05-2.87046E-05 4.81931E-07-7.74190E-19 1.03209E-18
 -1      2817 9.54554E-05-2.84059E-05-2.87320E-05 5.81286E-07-4.62867E-19 2.19657E-19
 -1      2818 9.53676E-05-2.82887E-05-2.87487E-05 6.99834E-07-2.69385E-19 3.49872E-19
 -1      2819 9.53469E-05-2.84641E-05-2.86646E-05 3.28317E-07-3.59145E-19 1.47441E-19
 -1      2820 9.53850E-05-2.84503E-05-2.86837E-05 3.97028E-07-4.37133E-19 6.33279E-19
 -1      2821 9.53347E-05-2.83698E-05-2.87000E-05 4.84829E-07-4.07617E-19 3.53167E-19
 -1      2822 9.53069E-05-2.84929E-05-2.86349E-05 2.16665E-07 5.97276E-19-4.98112E-19
 -1      2823 9.53340E-05-2.84824E-05-2.86488E-05 2.66144E-07 3.64433E-19-6.82271E-19
 -1      2824 9.53073E-05-2.84267E-05-2.86638E-05 3.31042E-07 4.40967E-19-7.11199E-19
 -1      2825 9.52780E-05-2.85143E-05-2.86132E-05 1.36702E-07 1.75087E-18 2.75685E-19
 -1      2826 9.52967E-05-2.85062E-05-2.86231E-05 1.71848E-07 1.50837E-18 7.41081E-19
 -1      2827 9.52852E-05-2.84683E-05-2.86364E-05 2.18897E-07 5.47392E-19-3.02289E-19
 -1      2828 9.52578E-05-2.85302E-05-2.85977E-05 8.04201E-08 1.94984E-18-4.27221E-19
 -1      2829 9.52703E-05-2.85239E-05-2.86046E-05 1.04933E-07 1.97772E-18 3.88347E-19
 -1      2830 9.52683E-05-2.84989E-05-2.86160E-05 1.38324E-07 2.01297E-18 5.35148E-19
 -1      2831 9.52443E-05-2.85421E-05-2.85867E-05 4.16509E-08 6.27306E-19 2.39881E-19
 -1      2832 9.52523E-05-2.85372E-05-2.85914E-05 5.83715E-08 6.98977E-19-7.30963E-19
 -1      2833 9.52559E-05-2.85212E-05-2.86009E-05 8.14706E-08 1.61656E-18 5.32750E-19
 -1      2834 9.52355E-05-2.85514E-05-2.85789E-05 1.47082E-08-1.03627E-18-4.55071E-21
 -1      2835 9.52403E-05-2.85474E-05-2.85821E-05 2.61049E-08 3.49116E-19-1.62695E-19
 -1      2836 9.52469E-05-2.85377E-05-2.85899E-05 4.15638E-08 2.77584E-19 1.07171E-18
 -1      2837 9.52306E-05-2.85578E-05-2.85741E-05-1.51757E-09-1.74252E-18 1.40764E-19
 -1      2838 9.52329E-05-2.85549E-05-2.85760E-05 5.25872E-09-1.78676E-18-4.00085E-19
 -1      2839 9.52409E-05-2.85497E-05-2.85822E-05 1.49449E-08-1.24192E-18 2.99419E-19
 -1      2840 9.52282E-05-2.85624E-05-2.85710E-05-1.13261E-08-9.25141E-19 6.13812E-19
 -1      2841 9.52290E-05-2.85603E-05-2.85721E-05-7.36446E-09-1.58489E-18 2.12871E-19
 -1      2842 9.52371E-05-2.85579E-05-2.85770E-05-1.56375E-09-2.18578E-18-6.10642E-19
 -1      2843 9.52274E-05-2.85658E-05-2.85693E-05-1.66709E-08 5.57977E-20 8.63272E-20
 -1      2844 9.52273E-05-2.85642E-05-2.85698E-05-1.46328E-08 7.63715E-20 9.17399E-19
 -1      2845 9.52349E-05-2.85636E-05-2.85735E-05-1.15386E-08-7.94965E-19-3.41195E-19
 -1      2846 9.52277E-05-2.85682E-05-2.85684E-05-1.90083E-08 3.70052E-19 6.20949E-19
 -1      2847 9.52270E-05-2.85670E-05-2.85685E-05-1.82498E-08 1.89615E-20 3.39580E-20
 -1      2848 9.52338E-05-2.85675E-05-2.85714E-05-1.69804E-08 2.77338E-19-1.20141E-18
 -1      2849 9.52287E-05-2.85699E-05-2.85680E-05-1.93906E-08 4.76452E-19 2.93131E-19
 -1      2850 9.52276E-05-2.85690E-05-2.85680E-05-1.94489E-08 7.91197E-19-3.54550E-20
 -1      2851 9.52334E-05-2.85701E-05-2.85701E-05-1.93640E-08 1.09679E-18-1.13852E-18
 -1      2852 9.52300E-05-2.85711E-05-2.85681E-05-1.84782E-08-1.24902E-19 1.33912E-18
 -1      2853 9.52288E-05-2.85704E-05-2.85679E-05-1.90838E-08-2.45008E-19 4.44250E-19
 -1      2854 9.52335E-05-2.85718E-05-2.85694E-05-1.97321E-08-8.20354E-20-2.20691E-19
 -1      2855 9.52314E-05-2.85720E-05-2.85683E-05-1.68556E-08-4.33443E-19 1.24652E-18
 -1      2856 9.52302E-05-2.85714E-05-2.85681E-05-1.77408E-08 3.62393E-19 2.27335E-18
 -1      2857 9.52340E-05-2.85729E-05-2.85691E-05-1.88113E-08-7.89697E-19 1.68517E-18
 -1      2858 9.52329E-05-2.85727E-05-2.85686E-05-1.47991E-08-3.11446E-19 7.47648E-19
 -1      2859 9.52317E-05-2.85722E-05-2.85684E-05-1.58690E-08-2.84180E-19 1.18032E-18
 -1      2860 9.52346E-05-2.85736E-05-2.85690E-05-1.71419E-08-2.77801E-19 1.99129E-18
 -1      2861 9.52344E-05-2.85735E-05-2.85690E-05-1.24520E-08 1.93499E-19 7.62955E-20
 -1      2862 9.52333E-05-2.85730E-05-2.85687E-05-1.36447E-08-1.41823E-19 5.03543E-19
 -1      2863 9.52353E-05-2.85742E-05-2.85690E-05-1.50114E-08-1.40109E-19 7.66249E-19
 -1      2864 9.52457E-05-2.85839E-05-2.85694E-05-8.87718E-10 7.43022E-19-6.20624E-19
 -1      2865 9.52456E-05-2.85837E-05-2.85694E-05-2.62487E-09 1.91424E-18-3.05923E-18
 -1      2866 9.52440E-05-2.85822E-05-2.85693E-05-7.65610E-09 1.87565E-18-1.16102E-18
 -1      2867 9.52431E-05-2.85813E-05-2.85693E-05-8.86746E-09 2.38446E-18-2.13837E-18
 -1      2868 9.52455E-05-2.85836E-05-2.85694E-05 2.80264E-09-5.60356E-20-1.48198E-18
 -1      2869 9.52457E-05-2.85838E-05-2.85694E-05 1.07466E-09 1.08866E-19-5.87649E-19
 -1      2870 9.52467E-05-2.85835E-05-2.85699E-05 1.11718E-10 5.51314E-19-1.75956E-18
 -1      2871 9.52452E-05-2.85834E-05-2.85693E-05-4.49995E-09 9.61832E-19-2.52705E-18
 -1      2872 9.52447E-05-2.85828E-05-2.85694E-05-6.06051E-09 1.55051E-18-1.65478E-18
 -1      2873 9.52451E-05-2.85822E-05-2.85698E-05-7.44576E-09 6.38672E-19-1.50954E-18
 -1      2874 9.52463E-05-2.85832E-05-2.85699E-05-3.85564E-09 1.65753E-18-1.96045E-18
 -1      2875 6.99520E-05-3.63215E-05-1.38248E-05-4.35486E-05 4.38551E-19 1.17102E-18
 -1      2876 8.76388E-05-4.56367E-05-1.81326E-05-4.44331E-05 9.41265E-19 5.08432E-19
 -1      2877 6.80438E-05-3.09740E-05-1.53278E-05-3.89362E-05 1.20205E-18 1.07001E-18
 -1      2878 9.52446E-05-2.85828E-05-2.85694E-05 6.14299E-09-6.13341E-19-2.08477E-18
 -1      2879 9.52451E-05-2.85833E-05-2.85693E-05 4.62720E-09 2.17855E-19-1.55687E-18
 -1      2880 9.52463E-05-2.85832E-05-2.85699E-05 4.02182E-09 2.04602E-19-1.50295E-18
 -1      2881 9.52430E-05-2.85812E-05-2.85694E-05 8.89995E-09-4.89878E-19-1.96083E-18
 -1      2882 9.52439E-05-2.85821E-05-2.85693E-05 7.71072E-09-6.60363E-19-1.84685E-18
 -1      2883 9.52450E-05-2.85821E-05-2.85698E-05 7.53001E-09-7.09030E-19-2.04487E-18
 -1      2884 9.52408E-05-2.85792E-05-2.85693E-05 1.07369E-08 6.16327E-19 1.25671E-18
 -1      2885 9.52420E-05-2.85803E-05-2.85693E-05 9.99056E-09 9.11866E-19-2.97220E-19
 -1      2886 9.52430E-05-2.85804E-05-2.85697E-05 1.02920E-08 7.06571E-19-6.76031E-19
 -1      2887 9.52389E-05-2.85774E-05-2.85692E-05 1.09423E-08 1.16456E-18 1.09223E-18
 -1      2888 1.36692E-04-4.05431E-05-4.14771E-05 6.90703E-06 2.89791E-19-1.09468E-18
 -1      2889 1.35485E-04-3.09600E-05-4.54292E-05 1.05089E-05-3.88682E-19-1.26547E-18
 -1      2890 9.67970E-05-2.37490E-05-3.12601E-05-1.45554E-05 5.29955E-19 5.24807E-19
 -1      2891 9.62792E-05-2.26906E-05-3.15187E-05-1.20307E-05 8.23986E-19 6.02814E-19
 -1      2892 1.38000E-04-3.05731E-05-4.67965E-05-1.00511E-05-1.92456E-18 2.45110E-18
 -1      2893 1.40696E-04-4.06726E-05-4.30166E-05-5.90505E-06-1.26324E-18 2.79203E-18
 -1      2894 9.17156E-05-4.63333E-05-1.93042E-05 3.58602E-05-1.32264E-18 1.71048E-18
 -1      2895 7.16691E-05-3.38845E-05-1.57126E-05 3.33278E-05-1.99688E-18 2.37953E-18
 -1      2896 9.90231E-05-2.39312E-05-3.22114E-05-7.03478E-06-5.65808E-19-9.38481E-19
 -1      2897 9.96998E-05-2.59903E-05-3.16364E-05-5.73261E-06-5.84894E-19-8.16206E-19
 -1      2898 1.30426E-04-1.21415E-05-5.14443E-05-8.20927E-06-2.63300E-18 1.43561E-18
 -1      2899 1.33413E-04-1.91295E-05-4.93452E-05-1.12324E-05-2.31621E-18 2.04834E-18
 -1      2900 9.59217E-05-1.94537E-05-3.27861E-05-7.05653E-06-3.91076E-19-1.18749E-18
 -1      2901 1.04200E-04-4.32506E-05-2.57799E-05 2.63984E-05-1.39072E-18 5.87841E-19
 -1      2902 1.13316E-04-5.15528E-05-2.61618E-05 2.42098E-05-6.26487E-19 7.63180E-19
 -1      2903 1.50229E-04-6.47644E-05-3.65566E-05-9.14026E-07-1.19421E-18 7.60212E-19
 -1      2904 1.00798E-04-2.78430E-05-3.12331E-05-5.08698E-06-5.40132E-19-6.28787E-19
 -1      2905 1.00979E-04-2.91610E-05-3.08171E-05-4.30300E-06-5.55070E-19-5.84685E-19
 -1      2906 1.01660E-04-2.96556E-05-3.08570E-05-4.06520E-06-5.49105E-19-4.48096E-19
 -1      2907 9.99637E-05-2.64335E-05-3.15211E-05-4.99389E-06-4.93439E-19-7.68041E-19
 -1      2908 9.52369E-05-2.85755E-05-2.85692E-05-1.20385E-08 5.77353E-19 2.46426E-20
 -1      2909 1.28562E-04-5.82737E-05-3.05337E-05 2.34125E-05 3.81694E-19 1.65833E-18
 -1      2910 1.14386E-04-5.48901E-05-2.52402E-05 3.31506E-05 9.51536E-19 9.40087E-19
 -1      2911 3.04294E-05-1.03996E-05-8.04764E-06-3.61077E-06-5.69001E-19 3.33900E-18
 -1      2912 3.23783E-05-1.23848E-05-8.00572E-06-1.83067E-05-2.45851E-19 2.54915E-18
 -1      2913 9.80760E-05-2.72586E-05-3.02625E-05-1.92572E-05-5.26219E-20 1.09658E-19
 -1      2914 9.63479E-05-2.48667E-05-3.05945E-05-1.73948E-05 1.92938E-19 3.30133E-19
 -1      2915 9.01432E-05-2.09536E-05-2.96521E-05-1.57208E-05 4.76767E-19 2.03648E-20
 -1      2916 9.01574E-05-2.51617E-05-2.78535E-05-2.15254E-05 3.91951E-20-3.37728E-19
 -1      2917 7.66527E-05-6.24864E-06-3.02235E-05 4.78051E-06 1.53917E-18-5.10613E-19
 -1      2918 7.61655E-05-6.05759E-06-3.00458E-05 5.77347E-06 1.43406E-18-6.68029E-19
 -1      2919 7.62384E-05-7.44499E-06-2.94402E-05 6.98087E-06 1.45275E-18-6.57049E-19
 -1      2920 7.68574E-05-7.32370E-06-2.97399E-05 3.43655E-06 1.45032E-18-4.04715E-19
 -1      2921 1.29211E-04-6.76799E-06-5.30604E-05 2.97009E-06-2.91273E-18-3.01491E-20
 -1      2922 1.28863E-04-6.95881E-06-5.28493E-05-3.26639E-06-2.90871E-18 6.00096E-19
 -1      2923 9.14930E-05-1.79255E-05-3.15405E-05 1.52211E-06 3.38957E-19-9.99383E-19
 -1      2924 9.30864E-05-1.90236E-05-3.17547E-05-1.28210E-07 2.39014E-19-1.12385E-18
 -1      2925 9.07850E-05-4.74054E-05-1.82848E-05-3.64950E-05-1.06652E-18-1.58618E-18
 -1      2926 1.07956E-04-5.57307E-05-2.25275E-05-3.39137E-05-1.40629E-18-1.48178E-18
 -1      2927 1.21327E-04-5.76626E-05-2.68709E-05-2.40704E-05-1.46314E-18-9.47671E-19
 -1      2928 8.70843E-05-4.03964E-05-1.95036E-05-3.37782E-05-8.18975E-19-1.38543E-18
 -1      2929 1.33952E-04-5.80067E-05-3.22532E-05-1.63137E-05 6.91377E-19-7.56718E-19
 -1      2930 1.38332E-04-5.23741E-05-3.73236E-05-3.90864E-06 4.42244E-19-8.90020E-19
 -1      2931 1.32687E-04-2.08063E-05-4.84188E-05 1.14628E-05-1.13502E-18-1.36552E-18
 -1      2932 1.30793E-04-1.25448E-05-5.13600E-05 8.22704E-06-2.24125E-18-8.93832E-19
 -1      2933 1.28607E-04-2.62908E-05-4.41374E-05 1.25002E-05-5.36172E-19-1.68681E-18
 -1      2934 2.87802E-05-1.04946E-05-7.32744E-06-4.12465E-06 7.68550E-19-1.97973E-18
 -1      2935 3.74258E-05-1.45735E-05-9.26967E-06-1.82627E-05 4.37069E-19-1.96660E-18
 -1      2936 1.40998E-04-5.04183E-05-3.94518E-05 2.62637E-06-9.66743E-19 2.85503E-18
 -1      2937 1.37358E-04-5.54319E-05-3.49704E-05 1.08069E-05-3.22455E-19 2.39848E-18
 -1      2938 1.07431E-04-5.38315E-05-2.24170E-05-3.78487E-05 1.57686E-18 9.91254E-19
 -1      2939 1.22025E-04-5.86212E-05-2.76617E-05-2.97478E-05 1.19760E-18 2.64645E-19
 -1      2940 3.62266E-05-1.25346E-05-9.75815E-06 2.27384E-05 1.33815E-18-2.05024E-18
 -1      2941 2.88310E-05-9.58321E-06-7.50768E-06 7.96491E-06 9.94642E-19-1.98926E-18
 -1      2942 9.70043E-05-2.15299E-05-3.23396E-05-6.27699E-06 1.06360E-18 8.18406E-19
 -1      2943 9.11089E-05-1.62801E-05-3.20794E-05-3.25743E-06 1.39078E-18 5.80340E-19
 -1      2944 8.85803E-05-1.55931E-05-3.12448E-05-4.88281E-06 1.32801E-18 3.73609E-19
 -1      2945 9.70940E-05-2.22782E-05-3.20334E-05-9.34859E-06 9.74111E-19 6.95814E-19
 -1      2946 9.44802E-05-2.00028E-05-3.19211E-05-1.85247E-06 1.18308E-19-1.10272E-18
 -1      2947 9.57073E-05-2.09515E-05-3.20753E-05-3.39539E-06-1.00827E-19-1.05971E-18
 -1      2948 9.55410E-05-2.20999E-05-3.14803E-05-2.44097E-07 1.20524E-19-9.53097E-19
 -1      2949 8.33343E-05-1.33996E-05-2.99883E-05 8.66993E-06 1.06203E-18-7.82096E-19
 -1      2950 8.34404E-05-1.22641E-05-3.05481E-05 7.11553E-06 9.99293E-19-8.96535E-19
 -1      2951 8.55690E-05-1.36795E-05-3.07798E-05 6.11444E-06 8.54952E-19-8.52814E-19
 -1      2952 4.42641E-05-1.52925E-05-1.18085E-05-2.34622E-05 1.84230E-19 1.95103E-18
 -1      2953 1.42383E-04-6.29198E-05-3.41202E-05-5.48118E-06-1.05921E-18 5.13778E-19
 -1      2954 1.32351E-04-5.92037E-05-3.13657E-05-1.48342E-05-1.26081E-18-5.08948E-20
 -1      2955 4.79164E-05-1.30700E-05-1.45663E-05-1.74611E-05 5.83420E-19-1.69004E-18
 -1      2956 5.04053E-05-1.86978E-05-1.29590E-05-2.45568E-05 2.46910E-19-1.83679E-18
 -1      2957 6.42555E-05-2.27312E-05-1.73836E-05-2.73182E-05 4.84397E-20-1.38723E-18
 -1      2958 1.23664E-04-1.04762E-05-4.89445E-05-6.10605E-06-2.35221E-18 1.09074E-18
 -1      2959 3.64992E-05-1.07525E-05-1.02923E-05 5.19761E-06-1.01755E-18 3.20178E-18
 -1      2960 4.08315E-05-9.46976E-06-1.29798E-05-1.45899E-06-3.59751E-19 2.69293E-18
 -1      2961 4.47560E-05-1.25826E-05-1.34981E-05 1.32708E-05-1.14623E-18 2.84487E-18
 -1      2962 1.37098E-04-4.49347E-05-3.96528E-05-4.31905E-06-8.45974E-19 2.91612E-18
 -1      2963 1.26900E-04-5.72751E-05-2.96893E-05-1.98999E-05 1.45367E-18-4.25528E-19
 -1      2964 1.31941E-04-5.06379E-05-3.49466E-05-1.25415E-06 7.41313E-19-1.21713E-18
 -1      2965 1.36407E-04-4.72419E-05-3.84017E-05 3.52995E-06 5.64627E-19-9.50106E-19
 -1      2966 1.30241E-04-4.05837E-05-3.86037E-05 9.19337E-06 5.41333E-19-1.84619E-18
 -1      2967 9.94604E-05-4.85145E-05-2.14855E-05-3.78796E-05 1.16869E-18 6.74159E-19
 -1      2968 1.11474E-04-5.13924E-05-2.54431E-05 3.13226E-05 1.26827E-18 8.54694E-19
 -1      2969 1.01555E-04-4.98535E-05-2.21644E-05 4.02580E-05 1.31121E-18 3.12661E-19
 -1      2970 9.52432E-05-2.85806E-05-2.85697E-05-1.02774E-08 1.29396E-18-8.74191E-19
 -1      2971 9.52421E-05-2.85804E-05-2.85693E-05-9.99577E-09 1.89369E-18-4.34540E-19
 -1      2972 9.52410E-05-2.85793E-05-2.85693E-05-1.06621E-08 6.05879E-19 4.86159E-19
 -1      2973 9.52398E-05-2.85781E-05-2.85693E-05-1.15711E-08 6.71552E-19 4.86304E-19
 -1      2974 9.52385E-05-2.85768E-05-2.85693E-05-1.16114E-08 8.24952E-19 4.03510E-19
 -1      2975 9.52375E-05-2.85758E-05-2.85693E-05-1.35699E-08 1.68771E-19-1.16659E-19
 -1      2976 9.52407E-05-2.85784E-05-2.85695E-05-1.23106E-08-2.72568E-19 2.65392E-20
 -1      2977 1.30722E-04-2.57925E-05-4.53170E-05-1.17606E-05-1.65161E-18 2.12394E-18
 -1      2978 9.52396E-05-2.85777E-05-2.85694E-05 1.18369E-08 1.30427E-18 1.56355E-18
 -1      2979 8.44261E-05-4.12664E-05-1.81600E-05 4.22684E-05 1.48135E-18-5.48083E-19
 -1      2980 6.47815E-05-2.74214E-05-1.54166E-05 3.05587E-05-1.89450E-18 2.56333E-18
 -1      2981 5.91128E-05-2.08035E-05-1.59549E-05 2.51302E-05-1.77485E-18 2.41997E-18
 -1      2982 7.91707E-05-3.14706E-05-2.00914E-05 2.96782E-05-1.84312E-18 2.61161E-18
 -1      2983 9.15714E-05-1.92897E-05-3.09788E-05-1.01706E-05 9.83387E-19 3.28405E-19
 -1      2984 9.69494E-05-2.17198E-05-3.22364E-05-5.45158E-06-2.97760E-19-1.09846E-18
 -1      2985 1.05496E-04-3.90138E-05-2.82537E-05 2.28054E-05-1.70772E-18 4.74643E-19
 -1      2986 9.07736E-05-3.57447E-05-2.34469E-05 2.92825E-05-2.07025E-18 1.82832E-18
 -1      2987 8.23290E-05-2.86432E-05-2.28411E-05 2.69954E-05-2.04503E-18 2.50626E-18
 -1      2988 1.00309E-04-3.34492E-05-2.84960E-05 2.32132E-05-2.05879E-18 8.38298E-19
 -1      2989 8.77412E-05-1.53425E-05-3.10531E-05 4.73528E-06 6.86918E-19-7.04232E-19
 -1      2990 8.96880E-05-1.66316E-05-3.13001E-05 3.26493E-06 4.57071E-19-7.92111E-19
 -1      2991 9.23360E-05-1.98879E-05-3.10710E-05 3.28521E-06 3.64695E-19-7.48594E-19
 -1      2992 8.81486E-05-1.69558E-05-3.05394E-05 6.54068E-06 6.94681E-19-6.33767E-19
 -1      2993 1.31158E-04-5.58106E-05-3.22174E-05 1.41850E-05 2.15146E-19 2.25327E-18
 -1      2994 1.17743E-04-5.30707E-05-2.74442E-05-2.37841E-05-1.19733E-18-6.91205E-19
 -1      2995 4.69950E-05-1.68977E-05-1.21696E-05 3.07665E-05 1.49591E-18-1.92996E-18
 -1      2996 4.43211E-05-1.17841E-05-1.35176E-05 2.17182E-05 1.31412E-18-1.78417E-18
 -1      2997 7.10058E-05-3.36586E-05-1.55715E-05 4.33470E-05 1.44229E-18-1.31438E-18
 -1      2998 5.62478E-05-2.40737E-05-1.33633E-05 3.70896E-05 1.55653E-18-1.65669E-18
 -1      2999 6.28004E-05-2.29129E-05-1.67203E-05 3.41287E-05 1.71291E-18-1.52000E-18
 -1      3000 8.68852E-05-3.83433E-05-2.04005E-05 3.82360E-05 1.68464E-18-2.91856E-19
 -1      3001 1.01403E-04-4.63866E-05-2.34897E-05-3.16258E-05-8.68526E-19-1.18966E-18
 -1      3002 3.67598E-05-8.90359E-06-1.12551E-05 1.67142E-06 9.09028E-19-1.81350E-18
 -1      3003 8.98887E-05-2.81702E-05-2.64499E-05 2.40041E-05-2.42431E-18 1.69866E-18
 -1      3004 1.23656E-04-1.10920E-05-4.86737E-05 6.41766E-06-1.93060E-18-9.42695E-19
 -1      3005 9.52473E-05-2.85828E-05-2.85705E-05 5.23177E-09-4.18773E-20-1.67954E-18
 -1      3006 9.52477E-05-2.85831E-05-2.85705E-05 3.34610E-09 4.80929E-19-1.69192E-18
 -1      3007 8.15069E-05-1.15716E-05-2.99971E-05-3.05888E-06 1.32373E-18 9.95462E-20
 -1      3008 7.80707E-05-9.30837E-06-2.94864E-05-1.06282E-06 1.31379E-18-1.44206E-19
 -1      3009 1.05356E-04-3.41056E-05-3.05048E-05-4.23584E-06-3.02075E-19-3.41516E-19
 -1      3010 1.05665E-04-3.45148E-05-3.05255E-05-4.96123E-06-2.87462E-19-3.15921E-19
 -1      3011 1.06399E-04-3.46984E-05-3.07231E-05-6.14655E-06-3.73642E-19-2.27602E-19
 -1      3012 1.06217E-04-3.41699E-05-3.08921E-05-6.99982E-06-5.77556E-19-3.76100E-19
 -1      3013 1.07752E-04-3.56272E-05-3.09009E-05-5.07759E-06-3.31017E-19-2.21487E-19
 -1      3014 1.06153E-04-3.32599E-05-3.12691E-05-8.14422E-06-5.47084E-19-1.98636E-19
 -1      3015 1.05398E-04-3.17294E-05-3.15543E-05-8.60855E-06-5.42409E-19-8.26635E-20
 -1      3016 1.08488E-04-3.48170E-05-3.15411E-05-7.55020E-06-4.98911E-19-2.07156E-19
 -1      3017 1.04398E-04-2.97656E-05-3.20481E-05-8.97020E-06-4.64689E-19-1.13211E-19
 -1      3018 1.03242E-04-2.75839E-05-3.23759E-05-8.47912E-06-4.34803E-19 1.17625E-21
 -1      3019 1.07448E-04-3.14827E-05-3.25127E-05-9.33732E-06-5.03909E-19-2.53316E-20
 -1      3020 1.01714E-04-2.52329E-05-3.28450E-05-7.33993E-06-5.07161E-19 5.91302E-20
 -1      3021 1.00669E-04-2.33125E-05-3.31015E-05-5.63079E-06-7.64773E-19 1.40775E-19
 -1      3022 1.04842E-04-2.64006E-05-3.35944E-05-8.77232E-06-4.07575E-19 3.83613E-20
 -1      3023 9.95416E-05-2.17532E-05-3.33743E-05-3.00873E-06-8.54355E-19 1.68646E-19
 -1      3024 9.91489E-05-2.10691E-05-3.34537E-05-4.73021E-07-5.08316E-19 2.07180E-19
 -1      3025 1.02091E-04-2.17999E-05-3.44321E-05-4.98516E-06-6.77153E-19-9.94503E-20
 -1      3026 9.92111E-05-2.12302E-05-3.34028E-05 2.71276E-06-3.69909E-19 4.73646E-20
 -1      3027 9.96951E-05-2.21976E-05-3.32585E-05 5.14303E-06-2.95257E-19-7.83464E-20
 -1      3028 1.00984E-04-2.01566E-05-3.46873E-05 1.13465E-06-5.25131E-19 2.44495E-19
 -1      3029 1.00863E-04-2.39954E-05-3.28897E-05 7.52405E-06-1.80989E-19 4.19869E-20
 -1      3030 1.01922E-04-2.60875E-05-3.25726E-05 8.96820E-06-1.62152E-20 2.91793E-19
 -1      3031 1.02279E-04-2.24859E-05-3.42148E-05 6.96819E-06-1.59080E-19 6.39030E-19
 -1      3032 1.03330E-04-2.85012E-05-3.20222E-05 9.73421E-06 2.82888E-19-4.21631E-20
 -1      3033 1.04386E-04-3.07085E-05-3.16378E-05 9.90440E-06 5.30413E-19 3.81135E-19
 -1      3034 1.04965E-04-2.74722E-05-3.31832E-05 1.00883E-05 1.63095E-19 9.69462E-19
 -1      3035 1.05174E-04-3.26417E-05-3.10698E-05 9.19947E-06 2.45931E-19 1.38252E-19
 -1      3036 1.05778E-04-3.41821E-05-3.07142E-05 8.40330E-06 1.15592E-19-1.60220E-19
 -1      3037 1.07221E-04-3.25840E-05-3.19402E-05 9.88370E-06 1.72453E-19 8.24070E-20
 -1      3038 1.05662E-04-3.51266E-05-3.02423E-05 6.92093E-06-1.10287E-19-2.62743E-19
 -1      3039 1.05684E-04-3.57539E-05-2.99695E-05 5.68017E-06-3.04489E-19-7.21424E-19
 -1      3040 1.07875E-04-3.59342E-05-3.07973E-05 7.41471E-06-2.25990E-19-2.88270E-19
 -1      3041 1.04870E-04-3.57777E-05-2.96359E-05 4.10255E-06-2.36420E-19-2.61063E-19
 -1      3042 1.04442E-04-3.56638E-05-2.94555E-05 2.84879E-06 5.66583E-20 1.95943E-20
 -1      3043 1.06877E-04-3.70325E-05-2.99236E-05 4.19889E-06-1.84463E-20-3.81072E-19
 -1      3044 1.03299E-04-3.51037E-05-2.92510E-05 1.55928E-06 1.61854E-19-6.96755E-21
 -1      3045 1.02636E-04-3.45603E-05-2.91474E-05 5.31028E-07 2.06226E-19 4.73227E-19
 -1      3046 1.04858E-04-3.64015E-05-2.93483E-05 1.30874E-06 1.48005E-19 2.24313E-19
 -1      3047 1.01476E-04-3.37609E-05-2.90391E-05-3.51733E-07 1.51535E-19 5.43053E-19
 -1      3048 1.00765E-04-3.30663E-05-2.89872E-05-1.07860E-06-1.25964E-19 3.91406E-19
 -1      3049 1.02519E-04-3.48530E-05-2.90197E-05-8.02690E-07 2.30337E-19 2.73433E-19
 -1      3050 9.97656E-05-3.22661E-05-2.89396E-05-1.58890E-06-3.46333E-19 5.59391E-19
 -1      3051 9.91221E-05-3.15996E-05-2.89168E-05-2.03228E-06-4.54481E-19 5.42618E-19
 -1      3052 1.00347E-04-3.30573E-05-2.88604E-05-2.10407E-06-7.18925E-20 1.06578E-19
 -1      3053 9.83475E-05-3.09228E-05-2.89020E-05-2.25858E-06-8.18051E-19 6.33755E-19
 -1      3054 9.78221E-05-3.03721E-05-2.88916E-05-2.47523E-06-5.89287E-19 3.77404E-19
 -1      3055 9.85762E-05-3.14188E-05-2.88011E-05-2.75139E-06-5.38843E-19 2.52016E-19
 -1      3056 9.72680E-05-2.98609E-05-2.88906E-05-2.50873E-06-3.98397E-19 2.01288E-19
 -1      3057 9.68682E-05-2.94510E-05-2.88829E-05-2.56285E-06-2.82616E-19-3.52211E-20
 -1      3058 9.72574E-05-3.01132E-05-2.87912E-05-2.93797E-06-6.63740E-19 1.02853E-19
 -1      3059 9.64988E-05-2.91000E-05-2.88847E-05-2.47856E-06 2.80845E-19 1.17914E-19
 -1      3060 9.62096E-05-2.88212E-05-2.88748E-05-2.42715E-06 2.58293E-19 8.98044E-20
 -1      3061 9.63452E-05-2.91736E-05-2.87986E-05-2.83291E-06 6.32872E-20 4.17084E-19
 -1      3062 9.59801E-05-2.86031E-05-2.88740E-05-2.27996E-06-7.01030E-20 7.56960E-19
 -1      3063 9.57790E-05-2.84307E-05-2.88606E-05-2.16784E-06 2.10555E-19 9.88449E-19
 -1      3064 9.57562E-05-2.85589E-05-2.88061E-05-2.56384E-06 3.69720E-19 9.86887E-19
 -1      3065 9.56479E-05-2.83123E-05-2.88557E-05-1.99501E-06-6.71862E-20 8.51436E-19
 -1      3066 9.55122E-05-2.82187E-05-2.88391E-05-1.85464E-06-2.40263E-19 1.57980E-18
 -1      3067 9.54032E-05-2.81998E-05-2.88061E-05-2.21894E-06 9.24107E-20 1.07809E-18
 -1      3068 9.54460E-05-2.81694E-05-2.88302E-05-1.67983E-06 2.13013E-20 1.39274E-18
 -1      3069 9.53566E-05-2.81298E-05-2.88117E-05-1.53311E-06 4.42679E-19 8.65017E-19
 -1      3070 9.52114E-05-2.80248E-05-2.87971E-05-1.85531E-06-1.86833E-19 1.41423E-18
 -1      3071 9.53305E-05-2.81244E-05-2.88000E-05-1.37019E-06 8.62072E-19 7.00012E-19
 -1      3072 9.52726E-05-2.81189E-05-2.87810E-05-1.23072E-06 5.38999E-19 1.02945E-18
 -1      3073 9.51227E-05-2.79724E-05-2.87803E-05-1.50745E-06 4.52960E-19 1.13453E-18
 -1      3074 9.52691E-05-2.81389E-05-2.87677E-05-1.08683E-06 5.48880E-19 7.00311E-19
 -1      3075 9.52322E-05-2.81531E-05-2.87493E-05-9.62124E-07 4.56381E-19 1.08898E-18
 -1      3076 9.50955E-05-2.79949E-05-2.87583E-05-1.19419E-06 5.49052E-19 1.42812E-18
 -1      3077 9.52402E-05-2.81853E-05-2.87357E-05-8.39967E-07-3.04433E-19 1.20822E-18
 -1      3078 9.52167E-05-2.82092E-05-2.87187E-05-7.33328E-07-4.77155E-19 1.68752E-18
 -1      3079 9.51015E-05-2.80576E-05-2.87335E-05-9.23922E-07 1.87224E-19 1.17055E-18
 -1      3080 9.52293E-05-2.82454E-05-2.87056E-05-6.32852E-07-4.90013E-19 1.37727E-18
 -1      3081 9.52144E-05-2.82724E-05-2.86905E-05-5.44822E-07-3.80964E-20 1.19945E-18
 -1      3082 9.51230E-05-2.81375E-05-2.87083E-05-6.98380E-07-7.25054E-19 1.75053E-18
 -1      3083 9.52275E-05-2.83076E-05-2.86785E-05-4.64384E-07-3.58955E-19 9.91156E-19
 -1      3084 9.52181E-05-2.83339E-05-2.86656E-05-3.93856E-07-3.87817E-19 6.12891E-19
 -1      3085 9.51493E-05-2.82198E-05-2.86842E-05-5.15323E-07-3.45368E-19 1.97772E-18
 -1      3086 9.52298E-05-2.83654E-05-2.86550E-05-3.31016E-07 9.31148E-21 2.94532E-19
 -1      3087 9.52238E-05-2.83890E-05-2.86442E-05-2.76010E-07 3.28278E-19 9.37476E-19
 -1      3088 9.51746E-05-2.82963E-05-2.86622E-05-3.70359E-07-1.79024E-19 1.05448E-18
 -1      3089 9.52333E-05-2.84156E-05-2.86352E-05-2.28049E-07 2.21177E-19 2.27506E-19
 -1      3090 9.52294E-05-2.84357E-05-2.86265E-05-1.86229E-07-6.69295E-19-1.01089E-19
 -1      3091 9.51962E-05-2.83629E-05-2.86429E-05-2.58165E-07-2.15816E-19-2.28556E-19
 -1      3092 9.52366E-05-2.84573E-05-2.86190E-05-1.50470E-07-1.42408E-19 6.80502E-19
 -1      3093 9.52340E-05-2.84736E-05-2.86121E-05-1.19477E-07 5.64610E-19 6.00875E-19
 -1      3094 9.52133E-05-2.84182E-05-2.86265E-05-1.73262E-07 3.99147E-19-4.70416E-20
 -1      3095 9.52392E-05-2.84905E-05-2.86060E-05-9.34646E-08 5.74642E-19 1.74996E-18
 -1      3096 9.52374E-05-2.85033E-05-2.86006E-05-7.11099E-08 6.53843E-19 1.61998E-18
 -1      3097 9.52259E-05-2.84625E-05-2.86129E-05-1.10478E-07 9.95094E-19 9.86315E-19
 -1      3098 9.52408E-05-2.85162E-05-2.85958E-05-5.26994E-08-2.28192E-19 1.80021E-18
 -1      3099 9.52396E-05-2.85260E-05-2.85918E-05-3.70587E-08-2.07188E-19 1.58997E-18
 -1      3100 9.52346E-05-2.84967E-05-2.86020E-05-6.51903E-08 2.00764E-19 8.89887E-19
 -1      3101 9.52417E-05-2.85354E-05-2.85881E-05-2.44435E-08-2.84830E-19 8.91715E-19
 -1      3102 9.52409E-05-2.85427E-05-2.85851E-05-1.38938E-08-3.19808E-19-5.50348E-20
 -1      3103 9.52402E-05-2.85225E-05-2.85934E-05-3.34357E-08-6.03201E-19 7.80798E-19
 -1      3104 9.52420E-05-2.85494E-05-2.85823E-05-5.59612E-09 5.73552E-19-3.48009E-19
 -1      3105 9.52414E-05-2.85546E-05-2.85802E-05 1.18782E-09 1.48120E-18-1.28636E-19
 -1      3106 9.52434E-05-2.85413E-05-2.85867E-05-1.19179E-08-1.99924E-19-6.98865E-19
 -1      3107 9.52418E-05-2.85593E-05-2.85781E-05 6.34541E-09 2.02729E-18 4.08923E-19
 -1      3108 9.52415E-05-2.85629E-05-2.85766E-05 1.04152E-08 1.72185E-18 2.72832E-20
 -1      3109 9.52450E-05-2.85546E-05-2.85816E-05 2.03006E-09 1.96149E-18-8.87645E-19
 -1      3110 9.52414E-05-2.85660E-05-2.85751E-05 1.33480E-08 9.70554E-19 3.82564E-20
 -1      3111 9.52412E-05-2.85684E-05-2.85741E-05 1.55156E-08-5.24061E-19-5.54950E-19
 -1      3112 9.52453E-05-2.85637E-05-2.85779E-05 1.05136E-08 1.12456E-18-9.42288E-19
 -1      3113 9.52408E-05-2.85703E-05-2.85730E-05 1.69181E-08-8.28330E-19 4.35458E-19
 -1      3114 9.52407E-05-2.85719E-05-2.85723E-05 1.77934E-08-6.71674E-19 2.34619E-19
 -1      3115 9.52450E-05-2.85696E-05-2.85752E-05 1.51554E-08 4.90799E-19 3.33996E-19
 -1      3116 9.52402E-05-2.85730E-05-2.85716E-05 1.81784E-08-1.66839E-18 4.74673E-19
 -1      3117 9.52402E-05-2.85740E-05-2.85712E-05 1.82047E-08-1.26965E-18 1.87885E-19
 -1      3118 9.52441E-05-2.85733E-05-2.85732E-05 1.71756E-08-6.17026E-19 1.00037E-18
 -1      3119 9.52396E-05-2.85746E-05-2.85707E-05 1.79379E-08-4.03571E-19 5.48851E-19
 -1      3120 9.52396E-05-2.85753E-05-2.85704E-05 1.74240E-08-2.06233E-19 3.57992E-19
 -1      3121 9.52431E-05-2.85755E-05-2.85719E-05 1.74658E-08-4.26369E-19 1.43128E-18
 -1      3122 9.52391E-05-2.85756E-05-2.85701E-05 1.67425E-08-7.88511E-20 3.11170E-19
 -1      3123 9.52393E-05-2.85760E-05-2.85700E-05 1.59038E-08 1.26286E-19 9.79357E-19
 -1      3124 9.52421E-05-2.85767E-05-2.85709E-05 1.66498E-08 2.24432E-19 9.65350E-19
 -1      3125 1.17586E-04-9.04733E-06-4.70161E-05-2.60413E-06-1.79095E-18-1.22379E-19
 -1      3126 1.19330E-04-1.27611E-05-4.58925E-05-8.95258E-06-1.79529E-18 8.79273E-19
 -1      3127 4.42457E-05-1.16408E-05-1.35520E-05-1.62086E-05 4.98399E-19 1.80047E-18
 -1      3128 5.21637E-05-1.77322E-05-1.45087E-05-2.80145E-05 8.20457E-19 1.25541E-18
 -1      3129 8.82545E-05-2.09910E-05-2.88803E-05 1.02029E-05 1.02063E-19-4.38148E-19
 -1      3130 8.73407E-05-2.03927E-05-2.86815E-05 1.14710E-05 3.46500E-19-6.21281E-19
 -1      3131 8.51227E-05-1.95485E-05-2.81716E-05 1.27212E-05 5.59790E-19-1.00290E-18
 -1      3132 8.41719E-05-1.93587E-05-2.77410E-05 1.42512E-05-4.64219E-19-3.75068E-19
 -1      3133 8.25887E-05-1.79960E-05-2.75964E-05 1.03419E-05 1.70920E-19-6.01944E-19
 -1      3134 8.12582E-05-1.89289E-05-2.67704E-05 1.61525E-05-7.78143E-19 5.34183E-19
 -1      3135 8.06652E-05-2.00215E-05-2.58828E-05 1.83089E-05-1.16586E-18 8.09982E-19
 -1      3136 7.74677E-05-1.64757E-05-2.60295E-05 1.29896E-05 2.95287E-20-2.44163E-19
 -1      3137 9.06291E-05-2.25858E-05-2.92008E-05 8.17078E-06-6.13071E-20-6.88330E-20
 -1      3138 8.99331E-05-2.19214E-05-2.91431E-05 9.23620E-06-1.32839E-19-4.21626E-19
 -1      3139 8.64218E-05-1.99362E-05-2.84322E-05 8.46083E-06 4.91325E-20-7.79386E-20
 -1      3140 9.23127E-05-2.40144E-05-2.92995E-05 6.48891E-06 3.98993E-19 7.85012E-19
 -1      3141 9.18423E-05-2.34238E-05-2.93175E-05 7.37760E-06 2.48291E-19-6.30820E-20
 -1      3142 8.92483E-05-2.18127E-05-2.88573E-05 6.93100E-06-2.27000E-19-1.39452E-19
 -1      3143 9.34488E-05-2.51773E-05-2.92806E-05 5.09656E-06 6.22409E-20 7.11456E-19
 -1      3144 9.31598E-05-2.47014E-05-2.93338E-05 5.82600E-06 2.39315E-19 7.89883E-19
 -1      3145 9.12556E-05-2.34207E-05-2.90419E-05 5.62440E-06 4.43888E-20 2.29366E-19
 -1      3146 9.42139E-05-2.61125E-05-2.92018E-05 3.90616E-06 5.33452E-19 4.36023E-19
 -1      3147 9.40453E-05-2.57337E-05-2.92704E-05 4.51745E-06 4.87187E-19 6.18724E-19
 -1      3148 9.26675E-05-2.47409E-05-2.90912E-05 4.47750E-06 5.26541E-19 8.59064E-19
 -1      3149 9.46667E-05-2.67752E-05-2.91071E-05 2.99702E-06 3.59419E-19-2.39984E-19
 -1      3150 9.45901E-05-2.65084E-05-2.91718E-05 3.45889E-06 4.80177E-19 1.40319E-19
 -1      3151 9.36098E-05-2.57545E-05-2.90682E-05 3.51141E-06 8.73483E-19 1.13346E-18
 -1      3152 9.49389E-05-2.72631E-05-2.90117E-05 2.27287E-06-9.86440E-19-8.52746E-19
 -1      3153 9.49105E-05-2.70670E-05-2.90700E-05 2.63473E-06-3.14736E-19-9.99484E-19
 -1      3154 9.42123E-05-2.64973E-05-2.90129E-05 2.73083E-06 2.68942E-19 8.94835E-20
 -1      3155 9.50971E-05-2.76197E-05-2.89244E-05 1.70331E-06-6.59744E-19-8.24056E-19
 -1      3156 9.50952E-05-2.74767E-05-2.89743E-05 1.98386E-06-1.28239E-18-1.03759E-18
 -1      3157 9.46029E-05-2.70496E-05-2.89467E-05 2.09429E-06-8.94487E-19-1.01819E-18
 -1      3158 9.51847E-05-2.78797E-05-2.88489E-05 1.26023E-06 1.64324E-19-1.09393E-18
 -1      3159 9.51958E-05-2.77755E-05-2.88901E-05 1.47570E-06-2.60460E-20-7.96243E-19
 -1      3160 9.48525E-05-2.74578E-05-2.88808E-05 1.58379E-06-2.57161E-19-1.25738E-18
 -1      3161 9.52298E-05-2.80697E-05-2.87858E-05 9.19002E-07 5.56576E-19-1.19439E-19
 -1      3162 9.52462E-05-2.79934E-05-2.88191E-05 1.08311E-06 2.51691E-19-4.90729E-19
 -1      3163 9.50099E-05-2.77587E-05-2.88205E-05 1.18033E-06 1.85640E-19-1.30297E-18
 -1      3164 9.52514E-05-2.82145E-05-2.87322E-05 6.47955E-07-6.60349E-19 3.56648E-19
 -1      3165 9.52687E-05-2.81564E-05-2.87596E-05 7.76337E-07 2.09960E-19 6.67570E-19
 -1      3166 9.51096E-05-2.79847E-05-2.87669E-05 8.59444E-07-2.62672E-19 4.79587E-20
 -1      3167 9.52588E-05-2.83147E-05-2.86917E-05 4.55241E-07-1.09752E-19 1.47409E-19
 -1      3168 9.52738E-05-2.82740E-05-2.87120E-05 5.46209E-07-3.60632E-19-7.62502E-21
 -1      3169 9.51702E-05-2.81512E-05-2.87222E-05 6.13397E-07-3.26851E-19 2.01093E-19
 -1      3170 9.52594E-05-2.83885E-05-2.86599E-05 3.11775E-07 9.18069E-19-8.22157E-19
 -1      3171 9.52718E-05-2.83584E-05-2.86755E-05 3.78819E-07 8.58300E-19-1.47926E-21
 -1      3172 9.52054E-05-2.82701E-05-2.86865E-05 4.32284E-07 6.00243E-19-7.61154E-19
 -1      3173 9.52569E-05-2.84426E-05-2.86353E-05 2.06539E-07 1.62245E-19-7.65886E-19
 -1      3174 9.52667E-05-2.84204E-05-2.86471E-05 2.55310E-07 2.56788E-20-9.21305E-19
 -1      3175 9.52260E-05-2.83578E-05-2.86579E-05 2.96756E-07 8.58322E-19-1.23324E-18
 -1      3176 9.52534E-05-2.84823E-05-2.86166E-05 1.30586E-07 1.69828E-18 4.74867E-19
 -1      3177 9.52608E-05-2.84658E-05-2.86254E-05 1.65492E-07 5.01749E-19-5.42389E-19
 -1      3178 9.52376E-05-2.84222E-05-2.86353E-05 1.96895E-07 1.19918E-19-7.13513E-19
 -1      3179 9.52498E-05-2.85112E-05-2.86026E-05 7.67812E-08 6.00862E-19 1.45002E-18
 -1      3180 9.52552E-05-2.84990E-05-2.86090E-05 1.01308E-07 1.12120E-18 1.08065E-18
 -1      3181 9.52437E-05-2.84693E-05-2.86178E-05 1.24575E-07 8.73077E-19 8.30761E-19
 -1      3182 9.52465E-05-2.85328E-05-2.85918E-05 3.80903E-08 1.07849E-19 1.30788E-18
 -1      3183 9.52503E-05-2.85237E-05-2.85966E-05 5.54477E-08 1.22430E-18 1.67706E-18
 -1      3184 9.52465E-05-2.85039E-05-2.86041E-05 7.23078E-08 1.06247E-19 1.99753E-18
 -1      3185 9.52439E-05-2.85473E-05-2.85844E-05 1.37183E-08-1.52187E-18 7.37540E-19
 -1      3186 9.52464E-05-2.85411E-05-2.85876E-05 2.45902E-08-6.07968E-19 1.29673E-18
 -1      3187 9.52474E-05-2.85288E-05-2.85938E-05 3.62633E-08-2.42434E-19 2.92838E-18
 -1      3188 9.52419E-05-2.85575E-05-2.85791E-05-1.95681E-09-1.83191E-18-4.93801E-19
 -1      3189 9.52435E-05-2.85531E-05-2.85813E-05 4.89879E-09-9.95941E-19 1.50558E-19
 -1      3190 9.52470E-05-2.85457E-05-2.85864E-05 1.28930E-08-7.89240E-19 1.81937E-18
 -1      3191 9.52404E-05-2.85644E-05-2.85755E-05-1.14217E-08-6.09330E-19-1.19035E-18
 -1      3192 9.52413E-05-2.85613E-05-2.85770E-05-7.39080E-09-1.75094E-18-1.41867E-18
 -1      3193 9.52461E-05-2.85574E-05-2.85810E-05-2.12412E-09-8.65134E-19-2.94638E-19
 -1      3194 9.52393E-05-2.85689E-05-2.85730E-05-1.65709E-08 8.34368E-20-1.88806E-18
 -1      3195 9.52397E-05-2.85669E-05-2.85740E-05-1.44847E-08 1.86504E-20-1.57239E-18
 -1      3196 9.52450E-05-2.85652E-05-2.85771E-05-1.11895E-08-5.40741E-19-1.43773E-18
 -1      3197 9.52386E-05-2.85718E-05-2.85715E-05-1.88088E-08 8.69539E-19-1.45390E-18
 -1      3198 9.52387E-05-2.85705E-05-2.85720E-05-1.80175E-08 3.96435E-19-2.16763E-18
 -1      3199 9.52438E-05-2.85702E-05-2.85744E-05-1.61153E-08 3.73864E-19-4.22447E-19
 -1      3200 9.52380E-05-2.85736E-05-2.85705E-05-1.91151E-08-1.39734E-18 1.38560E-18
 -1      3201 9.52379E-05-2.85727E-05-2.85708E-05-1.91926E-08-7.30721E-19 3.41101E-19
 -1      3202 9.52426E-05-2.85734E-05-2.85726E-05-1.82520E-08-1.26187E-18 2.10148E-18
 -1      3203 9.52377E-05-2.85746E-05-2.85699E-05-1.81824E-08-5.61059E-19 1.21789E-18
 -1      3204 9.52375E-05-2.85741E-05-2.85700E-05-1.87854E-08-7.70279E-19 1.36832E-18
 -1      3205 9.52415E-05-2.85752E-05-2.85713E-05-1.85096E-08-1.13593E-18 2.83013E-18
 -1      3206 9.52376E-05-2.85752E-05-2.85696E-05-1.65281E-08-4.31066E-19 1.77787E-18
 -1      3207 9.52373E-05-2.85748E-05-2.85696E-05-1.74548E-08-7.65184E-19 1.04488E-18
 -1      3208 9.52406E-05-2.85761E-05-2.85705E-05-1.75910E-08-2.36906E-19 7.33308E-19
 -1      3209 9.52377E-05-2.85757E-05-2.85694E-05-1.45321E-08-1.82242E-20 5.34003E-19
 -1      3210 9.52373E-05-2.85754E-05-2.85694E-05-1.56587E-08 3.88613E-20 1.22504E-18
 -1      3211 9.52399E-05-2.85766E-05-2.85700E-05-1.60518E-08 3.73917E-19 1.78289E-18
 -1      3212 9.52395E-05-2.85770E-05-2.85696E-05-1.41941E-08 7.79506E-20 1.05044E-18
 -1      3213 1.16014E-04-5.24641E-05-2.75473E-05 2.54684E-05 1.24440E-18 1.26801E-18
 -1      3214 1.05370E-04-4.66808E-05-2.49208E-05 3.07157E-05 1.58586E-18 7.36826E-19
 -1      3215 1.22708E-04-2.12981E-05-4.40730E-05-1.21250E-05-1.75315E-18 1.42368E-18
 -1      3216 1.27904E-04-3.02962E-05-4.19164E-05-1.27660E-05-1.27849E-18 1.84674E-18
 -1      3217 9.52480E-05-2.85833E-05-2.85706E-05 1.13661E-09 1.15865E-18-1.63194E-18
 -1      3218 9.52480E-05-2.85834E-05-2.85706E-05-8.99610E-10 1.51664E-18-1.44099E-18
 -1      3219 9.52491E-05-2.85831E-05-2.85712E-05 2.37556E-09 1.37800E-18-2.66339E-18
 -1      3220 9.52430E-05-2.85797E-05-2.85700E-05 1.15864E-08 1.06730E-18 1.38181E-18
 -1      3221 9.52444E-05-2.85807E-05-2.85701E-05 1.04545E-08-6.34896E-20-9.08330E-20
 -1      3222 8.44684E-05-3.55454E-05-2.07156E-05-3.19856E-05-4.64174E-19-1.21549E-18
 -1      3223 9.18877E-05-4.24264E-05-2.06616E-05-3.69699E-05 7.71038E-19-8.18975E-20
 -1      3224 1.06974E-04-5.11300E-05-2.42721E-05-3.25692E-05 1.62699E-18 2.63110E-19
 -1      3225 1.20298E-04-5.50332E-05-2.75501E-05-2.27452E-05 2.21878E-18-3.39078E-19
 -1      3226 1.27639E-04-5.52916E-05-3.12888E-05-1.21758E-05 1.37818E-18-1.21356E-18
 -1      3227 1.31909E-04-4.03083E-05-3.98210E-05-8.78073E-06-8.97511E-19 2.45748E-18
 -1      3228 1.33712E-04-4.75569E-05-3.68144E-05-2.80630E-06-5.40248E-19 2.76519E-18
 -1      3229 1.19302E-04-1.38819E-05-4.54952E-05 9.60333E-06-1.24524E-18-1.95021E-18
 -1      3230 1.17608E-04-9.12196E-06-4.69622E-05 3.30786E-06-1.72901E-18-9.78522E-19
 -1      3231 1.13876E-04-1.14108E-05-4.42090E-05 6.20864E-07-1.06403E-18-9.35075E-19
 -1      3232 9.80239E-05-2.37610E-05-3.18108E-05-4.05248E-06-2.20482E-19-9.65882E-19
 -1      3233 1.18659E-04-5.79624E-05-2.56915E-05 2.45492E-05-3.10332E-19 1.82476E-19
 -1      3234 9.52390E-05-2.85769E-05-2.85695E-05 1.28529E-08 1.92562E-18 2.05772E-18
 -1      3235 9.52415E-05-2.85787E-05-2.85697E-05 1.25546E-08 1.51096E-18 1.31487E-18
 -1      3236 9.52429E-05-2.85791E-05-2.85702E-05 1.28526E-08 1.19046E-18 2.03362E-18
 -1      3237 9.52389E-05-2.85766E-05-2.85696E-05 1.38525E-08 1.46836E-18 2.28412E-18
 -1      3238 9.52456E-05-2.85816E-05-2.85703E-05 8.84452E-09-7.53302E-19-1.98912E-18
 -1      3239 9.52465E-05-2.85823E-05-2.85704E-05 7.23476E-09-9.73843E-19-1.41183E-18
 -1      3240 9.52480E-05-2.85823E-05-2.85710E-05 6.65882E-09-2.28187E-19-1.86716E-18
 -1      3241 9.52458E-05-2.85809E-05-2.85707E-05 1.03199E-08-9.04164E-19-4.69772E-19
 -1      3242 1.31559E-04-5.33764E-05-3.39673E-05 6.13830E-06-1.20504E-19 2.71583E-18
 -1      3243 1.25305E-04-5.39556E-05-3.03235E-05 1.57679E-05 5.78411E-19 2.12145E-18
 -1      3244 5.11121E-05-1.17485E-05-1.66357E-05 2.08471E-05 1.43937E-18-1.64166E-18
 -1      3245 4.40037E-05-8.14306E-06-1.47671E-05 1.34506E-05 1.30004E-18-1.62292E-18
 -1      3246 1.23889E-04-2.90570E-05-4.08491E-05 1.26467E-05-3.44107E-19-2.01975E-18
 -1      3247 1.21261E-04-2.14356E-05-4.33039E-05 1.23405E-05-9.10137E-19-2.11411E-18
 -1      3248 6.42839E-05-2.54539E-05-1.61310E-05-3.42833E-05 9.63129E-19 1.47781E-18
 -1      3249 7.65737E-05-3.42075E-05-1.82282E-05-3.83568E-05 9.29036E-19 4.93291E-19
 -1      3250 1.03489E-04-3.19249E-05-3.06376E-05-3.23750E-06-4.35796E-19-4.53360E-19
 -1      3251 1.04139E-04-3.30606E-05-3.05004E-05-3.49265E-06-3.53563E-19-4.79415E-19
 -1      3252 1.05736E-04-3.42153E-05-3.06627E-05-3.15078E-06-2.38955E-19-4.09656E-19
 -1      3253 4.15179E-05-7.38158E-06-1.43402E-05 4.43428E-06 1.03425E-18-1.57125E-18
 -1      3254 4.29669E-05-8.16097E-06-1.42737E-05-6.85896E-06 9.06193E-19-1.59073E-18
 -1      3255 4.88972E-05-7.60118E-06-1.73504E-05 5.79403E-06 1.18365E-18-1.39443E-18
 -1      3256 7.93115E-05-2.13293E-05-2.48138E-05 2.10392E-05-2.06372E-18 1.21322E-18
 -1      3257 8.16425E-05-2.48293E-05-2.41487E-05 2.35309E-05-2.33887E-18 1.56843E-18
 -1      3258 7.28292E-05-1.71341E-05-2.38230E-05 1.74971E-05-1.17412E-18 7.50286E-19
 -1      3259 8.78462E-05-1.66640E-05-3.05332E-05-8.06001E-06 1.07079E-18 2.61394E-19
 -1      3260 8.41280E-05-1.35413E-05-3.02460E-05-5.53209E-06 1.24706E-18 1.65351E-19
 -1      3261 8.07678E-05-1.25881E-05-2.91962E-05-6.03234E-06 1.21417E-18 8.19285E-20
 -1      3262 8.70560E-05-1.71921E-05-2.99131E-05-1.06904E-05 9.00918E-19 1.11384E-19
 -1      3263 7.76732E-05-1.05726E-05-2.88419E-05 1.02146E-05 1.46213E-18-6.57957E-19
 -1      3264 8.00520E-05-1.21788E-05-2.90235E-05 1.06454E-05 1.27369E-18-6.77171E-19
 -1      3265 7.40381E-05-2.65603E-05-1.99077E-05-2.91371E-05-7.50683E-20-1.19956E-18
 -1      3266 8.70567E-05-3.18265E-05-2.33578E-05-2.80932E-05-2.93391E-19-1.02634E-18
 -1      3267 8.35203E-05-2.57406E-05-2.46936E-05-2.50269E-05 1.18638E-19-7.85994E-19
 -1      3268 6.75284E-05-2.00730E-05-2.01822E-05-2.44425E-05 2.32616E-19-1.07377E-18
 -1      3269 8.30258E-05-1.46612E-05-2.93609E-05 1.06247E-05 1.14325E-18-7.12707E-19
 -1      3270 8.58560E-05-1.65405E-05-2.96480E-05 9.92136E-06 1.03386E-18-6.76271E-19
 -1      3271 8.21724E-05-1.54107E-05-2.86323E-05 1.22853E-05 1.24156E-18-5.64687E-19
 -1      3272 1.29129E-04-4.85342E-05-3.45266E-05-3.24661E-08-1.39110E-19 2.40997E-18
 -1      3273 5.26242E-05-1.14775E-05-1.72309E-05-1.30260E-05 6.68746E-19-1.50962E-18
 -1      3274 7.54947E-05-8.99221E-06-2.84761E-05-3.42264E-07 1.26770E-18-3.09302E-19
 -1      3275 7.57304E-05-8.03799E-06-2.90589E-05 2.15319E-06 1.38688E-18-4.30551E-19
 -1      3276 7.45274E-05-7.30058E-06-2.87934E-05 4.19381E-06 1.36789E-18-5.31978E-19
 -1      3277 6.25024E-05-2.12078E-05-1.73117E-05-2.82129E-05 9.02037E-19 1.32603E-18
 -1      3278 1.17510E-04-1.83986E-05-4.26580E-05-1.03241E-05-1.38320E-18 5.73574E-19
 -1      3279 9.91896E-05-2.58994E-05-3.14258E-05-3.30299E-06-2.42591E-19-8.34222E-19
 -1      3280 9.52389E-05-2.85763E-05-2.85697E-05 1.46708E-08 5.96131E-19 1.25850E-18
 -1      3281 7.18233E-05-2.60958E-05-1.94124E-05 3.44718E-05 1.84095E-18-9.53124E-19
 -1      3282 6.18031E-05-1.86359E-05-1.83007E-05 2.90474E-05 1.76651E-18-1.41555E-18
 -1      3283 1.29152E-04-5.28610E-05-3.26738E-05-4.92927E-06 1.02511E-18-1.13860E-18
 -1      3284 1.26598E-04-4.80655E-05-3.37907E-05 1.78759E-06 9.45646E-19-9.46983E-19
 -1      3285 1.22997E-04-5.18361E-05-3.05474E-05-9.00238E-06 1.41634E-18-7.70886E-19
 -1      3286 9.52446E-05-2.85809E-05-2.85701E-05-1.04118E-08 6.17227E-20-3.57962E-19
 -1      3287 9.52433E-05-2.85800E-05-2.85700E-05-1.15636E-08-8.16346E-19 1.52791E-19
 -1      3288 7.46027E-05-7.86958E-06-2.86830E-05 7.15499E-06 1.52592E-18-6.14120E-19
 -1      3289 7.56173E-05-8.60067E-06-2.86713E-05 8.64759E-06 1.52851E-18-7.38705E-19
 -1      3290 7.63686E-05-1.08440E-05-2.80562E-05 1.07632E-05 1.46505E-18-6.20562E-19
 -1      3291 7.33685E-05-8.13521E-06-2.79348E-05 6.02054E-06 1.45491E-18-6.56158E-19
 -1      3292 1.20211E-04-5.09028E-05-2.95297E-05 1.66772E-05 9.75491E-19 1.85717E-18
 -1      3293 1.26039E-04-3.50322E-05-3.91319E-05-1.08680E-05-7.38348E-19 1.69237E-18
 -1      3294 9.52491E-05-2.85831E-05-2.85712E-05-2.13437E-09 1.45035E-18-1.98677E-18
 -1      3295 9.52478E-05-2.85832E-05-2.85705E-05-3.12917E-09 1.37172E-18-1.60831E-18
 -1      3296 9.52474E-05-2.85829E-05-2.85705E-05-5.08265E-09 8.54112E-19-1.33097E-18
 -1      3297 9.52467E-05-2.85824E-05-2.85704E-05-7.08658E-09 8.26836E-19-8.07707E-19
 -1      3298 9.52458E-05-2.85818E-05-2.85703E-05-8.74190E-09 8.13460E-19-9.10174E-19
 -1      3299 9.52461E-05-2.85812E-05-2.85707E-05-1.01847E-08 7.70570E-19-1.57172E-19
 -1      3300 9.52481E-05-2.85825E-05-2.85710E-05-6.46228E-09 1.97120E-18-6.63590E-19
 -1      3301 1.02215E-04-3.04573E-05-3.07899E-05-3.08732E-06-4.91870E-19-5.89325E-19
 -1      3302 1.03214E-04-3.13329E-05-3.07966E-05-2.37436E-06-3.48784E-19-6.33537E-19
 -1      3303 1.01516E-04-2.90138E-05-3.10503E-05-3.34763E-06-4.25310E-19-6.55019E-19
 -1      3304 8.74081E-05-3.74997E-05-2.10633E-05-3.38217E-05 1.02989E-18 8.68473E-20
 -1      3305 4.78316E-05-9.56455E-06-1.62619E-05-1.12215E-07-3.13733E-20 1.86612E-18
 -1      3306 4.48864E-05-9.67931E-06-1.45481E-05-8.54715E-06 3.13799E-19 2.02695E-18
 -1      3307 5.17928E-05-1.17289E-05-1.68538E-05-1.30955E-05 1.14948E-18 1.19643E-18
 -1      3308 1.02203E-04-4.22442E-05-2.54443E-05 2.79813E-05 1.72582E-18 7.13771E-19
 -1      3309 9.52097E-05-4.08128E-05-2.33453E-05 3.40774E-05 1.64126E-18 4.98929E-19
 -1      3310 9.34699E-05-2.19428E-05-3.06528E-05 5.08472E-06 4.12358E-19-5.01388E-19
 -1      3311 9.53532E-05-2.32405E-05-3.09023E-05 3.27518E-06 2.28344E-19-7.21579E-19
 -1      3312 6.65672E-05-1.73477E-05-2.11124E-05 2.49620E-05 1.78318E-18-1.05204E-18
 -1      3313 5.91128E-05-1.45188E-05-1.87308E-05 2.42618E-05 1.58279E-18-1.48188E-18
 -1      3314 5.65121E-05-1.01437E-05-1.96317E-05 1.70172E-05 1.45708E-18-1.31311E-18
 -1      3315 1.25361E-04-3.52356E-05-3.89109E-05 1.17808E-05 9.03149E-20-1.83531E-18
 -1      3316 1.19140E-04-2.97447E-05-3.83784E-05 1.28307E-05-2.51516E-19-2.25321E-18
 -1      3317 1.24913E-04-4.01240E-05-3.64509E-05 8.84535E-06 2.95667E-19-1.81332E-18
 -1      3318 9.52413E-05-2.85775E-05-2.85702E-05 1.48412E-08 7.18914E-19 1.98725E-18
 -1      3319 8.47299E-05-2.27212E-05-2.64258E-05-2.11132E-05 1.67855E-19-6.41469E-19
 -1      3320 8.40567E-05-1.99011E-05-2.75287E-05-1.82530E-05 2.49468E-19-3.28741E-19
 -1      3321 7.77508E-05-2.03284E-05-2.44643E-05-2.17602E-05 2.50245E-19-8.17810E-19
 -1      3322 1.15963E-04-1.82446E-05-4.20740E-05 1.06405E-05-7.34854E-19-2.16041E-18
 -1      3323 1.12516E-04-5.07587E-05-2.63313E-05-2.43830E-05 2.16496E-18-7.94972E-19
 -1      3324 8.36085E-05-3.33503E-05-2.12367E-05 3.47490E-05 1.70876E-18-2.21552E-19
 -1      3325 8.53024E-05-1.88551E-05-2.84070E-05-1.56683E-05 4.66912E-19-1.45207E-19
 -1      3326 8.58734E-05-1.76920E-05-2.92371E-05-1.28659E-05 8.09054E-19 6.38054E-20
 -1      3327 8.22576E-05-1.50893E-05-2.87577E-05-1.08349E-05 9.58570E-19-4.52302E-21
 -1      3328 8.00352E-05-1.65341E-05-2.71076E-05-1.53993E-05 6.24259E-19-3.47786E-19
 -1      3329 7.13079E-05-2.15075E-05-2.11323E-05 2.38700E-05-1.55791E-18 2.15993E-18
 -1      3330 9.68415E-05-2.41843E-05-3.11225E-05 1.21660E-06 1.26383E-19-8.42411E-19
 -1      3331 9.81475E-05-2.51874E-05-3.12805E-05-4.60368E-07-5.24660E-21-8.72315E-19
 -1      3332 9.79934E-05-2.63166E-05-3.07319E-05 2.98611E-06 8.69255E-20-6.38514E-19
 -1      3333 5.45540E-05-1.64378E-05-1.57139E-05 2.04127E-05-1.33175E-18 2.02197E-18
 -1      3334 5.32617E-05-1.31751E-05-1.68618E-05 1.40402E-05-8.82079E-19 2.01424E-18
 -1      3335 1.11025E-04-3.72032E-05-3.16353E-05-6.24424E-06-4.76412E-19-3.22895E-19
 -1      3336 1.10933E-04-3.61029E-05-3.20918E-05-7.49439E-06-4.71045E-19-2.96983E-19
 -1      3337 1.10889E-04-3.43736E-05-3.28592E-05-9.21636E-06-3.42167E-19-3.38598E-20
 -1      3338 1.09834E-04-3.16892E-05-3.34740E-05-9.81983E-06-3.25396E-19 1.60804E-19
 -1      3339 1.13621E-04-3.65667E-05-3.29872E-05-8.22883E-06-2.70392E-19-1.50640E-19
 -1      3340 1.08340E-04-2.83936E-05-3.43779E-05-1.01995E-05-4.98809E-19 1.03457E-19
 -1      3341 1.06728E-04-2.49709E-05-3.49762E-05-9.27648E-06-6.28843E-19-2.41816E-19
 -1      3342 1.12218E-04-3.09105E-05-3.48002E-05-1.06930E-05-4.34415E-19 2.40200E-19
 -1      3343 1.04656E-04-2.16773E-05-3.57069E-05-7.05216E-06-6.47519E-19-4.51194E-19
 -1      3344 1.03555E-04-1.93555E-05-3.60643E-05-4.51279E-06-6.09798E-19-2.31413E-19
 -1      3345 1.08309E-04-2.27396E-05-3.66396E-05-9.33519E-06-7.09827E-19-3.27279E-19
 -1      3346 1.02628E-04-1.80772E-05-3.63028E-05-4.66561E-07-5.80132E-19-3.20727E-19
 -1      3347 1.02721E-04-1.83428E-05-3.62394E-05 2.75795E-06-3.79385E-19-9.41613E-20
 -1      3348 1.05419E-04-1.75369E-05-3.76804E-05-3.08347E-06-5.27113E-19-4.29249E-19
 -1      3349 1.03763E-04-2.00767E-05-3.58361E-05 6.57515E-06-1.62399E-19-5.56494E-20
 -1      3350 1.04984E-04-2.27806E-05-3.53615E-05 8.89374E-06 4.63072E-20 3.02702E-19
 -1      3351 1.05569E-04-1.81747E-05-3.74938E-05 5.16874E-06-1.88789E-19-2.78293E-19
 -1      3352 1.06921E-04-2.62896E-05-3.44947E-05 1.05035E-05-1.02481E-19 1.27783E-19
 -1      3353 1.08392E-04-2.97728E-05-3.38048E-05 1.10724E-05-2.96974E-20 3.72604E-20
 -1      3354 1.08716E-04-2.44476E-05-3.61011E-05 1.06127E-05-1.43367E-20-7.13314E-19
 -1      3355 1.09634E-04-3.30067E-05-3.28151E-05 1.02552E-05 9.83849E-20-1.59997E-19
 -1      3356 1.10467E-04-3.56165E-05-3.21278E-05 9.32968E-06-2.17764E-20-3.36612E-19
 -1      3357 1.12028E-04-3.25292E-05-3.40329E-05 1.10226E-05-1.31267E-19-6.11826E-19
 -1      3358 1.10273E-04-3.73476E-05-3.12762E-05 7.28465E-06-2.50974E-19-1.34086E-19
 -1      3359 1.10180E-04-3.84910E-05-3.07219E-05 5.67658E-06-2.02059E-19 4.10695E-20
 -1      3360 1.13008E-04-3.81286E-05-3.20655E-05 7.80161E-06 1.36700E-20-2.45802E-19
 -1      3361 1.08867E-04-3.86803E-05-3.01149E-05 3.56213E-06-1.02686E-19 2.98331E-19
 -1      3362 1.08054E-04-3.85919E-05-2.97341E-05 1.99521E-06 1.43012E-19 4.11165E-19
 -1      3363 1.11364E-04-4.01500E-05-3.05112E-05 3.38019E-06-6.09901E-20 5.33346E-19
 -1      3364 1.06270E-04-3.78260E-05-2.93629E-05 4.02545E-07 1.25260E-19 6.78246E-19
 -1      3365 1.05116E-04-3.70279E-05-2.91366E-05-7.93651E-07 1.43991E-19 4.67681E-19
 -1      3366 1.08146E-04-3.93864E-05-2.94901E-05-3.15268E-07 3.24486E-19 5.80230E-19
 -1      3367 1.03366E-04-3.58750E-05-2.89430E-05-1.74376E-06 7.82381E-20 4.61919E-19
 -1      3368 1.02193E-04-3.48372E-05-2.88277E-05-2.50437E-06 9.52556E-20 3.18610E-19
 -1      3369 1.04548E-04-3.71660E-05-2.89157E-05-2.71033E-06 6.13032E-20 6.52791E-19
 -1      3370 1.00744E-04-3.36856E-05-2.87467E-05-2.93746E-06 1.40084E-19 3.34343E-19
 -1      3371 9.97325E-05-3.26963E-05-2.87001E-05-3.33360E-06-1.53464E-19-1.03890E-20
 -1      3372 1.01338E-04-3.45853E-05-2.86460E-05-3.90365E-06-8.43786E-21 5.55222E-19
 -1      3373 9.86554E-05-3.17302E-05-2.86826E-05-3.42245E-06-8.20469E-19 4.67152E-19
 -1      3374 9.78710E-05-3.09213E-05-2.86726E-05-3.55726E-06-9.60935E-19 2.13671E-20
 -1      3375 9.88279E-05-3.22668E-05-2.85574E-05-4.25918E-06-4.14346E-19 7.59192E-19
 -1      3376 9.71369E-05-3.01986E-05-2.86846E-05-3.44522E-06-3.67583E-19-2.19621E-20
 -1      3377 9.65761E-05-2.96043E-05-2.86899E-05-3.41234E-06-1.45674E-19 6.24323E-19
 -1      3378 9.70411E-05-3.04492E-05-2.85627E-05-4.10822E-06-7.11291E-19 5.77029E-19
 -1      3379 9.61167E-05-2.91134E-05-2.87111E-05-3.20054E-06-4.24033E-20 7.57376E-19
 -1      3380 9.57429E-05-2.87158E-05-2.87193E-05-3.07153E-06 6.66950E-19 8.43241E-19
 -1      3381 9.58719E-05-2.91628E-05-2.86056E-05-3.69549E-06-1.75401E-20 1.17911E-18
 -1      3382 9.54841E-05-2.84151E-05-2.87391E-05-2.82332E-06 7.95587E-19 8.90938E-19
 -1      3383 9.52520E-05-2.81755E-05-2.87442E-05-2.64775E-06 3.17608E-19 1.15921E-18
 -1      3384 9.51736E-05-2.83366E-05-2.86546E-05-3.17821E-06 8.86757E-19 9.34892E-19
 -1      3385 9.51292E-05-2.80168E-05-2.87581E-05-2.39960E-06-1.58378E-19 8.11954E-19
 -1      3386 9.49966E-05-2.78931E-05-2.87582E-05-2.20970E-06-3.57137E-19 6.22384E-19
 -1      3387 9.48066E-05-2.78663E-05-2.86947E-05-2.64739E-06-7.43295E-20 4.61905E-19
 -1      3388 9.49597E-05-2.78323E-05-2.87651E-05-1.98087E-06-1.79796E-19 1.00354E-18
 -1      3389 9.48928E-05-2.77875E-05-2.87603E-05-1.79629E-06 2.01249E-19 9.05695E-19
 -1      3390 9.46568E-05-2.76498E-05-2.87205E-05-2.15130E-06 9.69644E-21 2.74779E-19
 -1      3391 9.49054E-05-2.77889E-05-2.87611E-05-1.59555E-06 3.19194E-19 1.11565E-18
 -1      3392 9.48790E-05-2.77933E-05-2.87526E-05-1.42728E-06 7.62522E-19 9.71934E-19
 -1      3393 9.46387E-05-2.76008E-05-2.87320E-05-1.71227E-06 2.90872E-19 8.83593E-19
 -1      3394 9.49164E-05-2.78303E-05-2.87486E-05-1.25719E-06 5.60974E-19 1.04526E-18
 -1      3395 9.49131E-05-2.78625E-05-2.87378E-05-1.11045E-06 3.64630E-19 7.65126E-19
 -1      3396 9.46924E-05-2.76531E-05-2.87315E-05-1.33766E-06 5.24383E-19 1.04843E-18
 -1      3397 9.49598E-05-2.79166E-05-2.87307E-05-9.70133E-07 3.52554E-20 7.50683E-19
 -1      3398 9.49680E-05-2.79616E-05-2.87188E-05-8.46418E-07-2.88398E-19 1.37943E-19
 -1      3399 9.47786E-05-2.77591E-05-2.87225E-05-1.02651E-06-2.53959E-19 1.43625E-19
 -1      3400 9.50147E-05-2.80209E-05-2.87100E-05-7.33209E-07-1.55533E-19 5.04768E-19
 -1      3401 9.50276E-05-2.80692E-05-2.86980E-05-6.31775E-07-7.39864E-20 9.19390E-19
 -1      3402 9.48731E-05-2.78867E-05-2.87080E-05-7.73668E-07 2.05163E-20-5.59446E-20
 -1      3403 9.50695E-05-2.81262E-05-2.86886E-05-5.42226E-07-5.50487E-19 1.39332E-18
 -1      3404 9.50829E-05-2.81723E-05-2.86773E-05-4.61058E-07-3.75243E-19 1.56083E-18
 -1      3405 9.49621E-05-2.80159E-05-2.86908E-05-5.72076E-07 1.40472E-19 8.10055E-19
 -1      3406 9.51179E-05-2.82232E-05-2.86681E-05-3.91529E-07-3.03724E-19 1.71254E-18
 -1      3407 9.51300E-05-2.82641E-05-2.86579E-05-3.28016E-07-1.95454E-19 1.79972E-18
 -1      3408 9.50391E-05-2.81351E-05-2.86727E-05-4.14154E-07-1.72840E-19 1.41478E-18
 -1      3409 9.51577E-05-2.83073E-05-2.86493E-05-2.75015E-07-7.91695E-19 1.40830E-18
 -1      3410 9.51675E-05-2.83417E-05-2.86405E-05-2.26378E-07-4.47004E-19 9.94637E-19
 -1      3411 9.51018E-05-2.82388E-05-2.86552E-05-2.92547E-07-7.28005E-19 2.18442E-18
 -1      3412 9.51886E-05-2.83769E-05-2.86329E-05-1.86733E-07 5.89941E-19 5.84146E-19
 -1      3413 9.51960E-05-2.84049E-05-2.86255E-05-1.50290E-07 9.68660E-19 1.18329E-18
 -1      3414 9.51504E-05-2.83251E-05-2.86392E-05-2.00530E-07-4.15692E-20 2.27656E-18
 -1      3415 9.52113E-05-2.84327E-05-2.86189E-05-1.21232E-07 1.59654E-18 5.97330E-19
 -1      3416 9.52166E-05-2.84546E-05-2.86128E-05-9.45465E-08 8.92489E-19 1.19299E-18
 -1      3417 9.51866E-05-2.83944E-05-2.86250E-05-1.32177E-07 6.32660E-19 2.65759E-19
 -1      3418 9.52272E-05-2.84759E-05-2.86073E-05-7.37274E-08 3.55692E-19 9.42429E-19
 -1      3419 9.52307E-05-2.84926E-05-2.86024E-05-5.46775E-08 1.98946E-19 1.22098E-18
 -1      3420 9.52123E-05-2.84484E-05-2.86130E-05-8.24236E-08 5.51446E-19 1.41944E-18
 -1      3421 9.52377E-05-2.85084E-05-2.85979E-05-4.01537E-08-7.99061E-19 1.32469E-18
 -1      3422 9.52398E-05-2.85208E-05-2.85941E-05-2.69526E-08-1.02758E-18 1.03111E-18
 -1      3423 9.52298E-05-2.84894E-05-2.86030E-05-4.70407E-08-3.22556E-19 4.28817E-19
 -1      3424 9.52440E-05-2.85323E-05-2.85905E-05-1.71480E-08-9.64770E-19 1.00894E-18
 -1      3425 9.52451E-05-2.85412E-05-2.85876E-05-8.33097E-09-3.14464E-19 5.04788E-19
 -1      3426 9.52409E-05-2.85195E-05-2.85948E-05-2.25652E-08-1.31750E-18 1.33822E-18
 -1      3427 9.52474E-05-2.85492E-05-2.85848E-05-1.99301E-09 1.27494E-18-4.76195E-19
 -1      3428 9.52478E-05-2.85554E-05-2.85825E-05 3.61086E-09 1.81923E-18-6.10082E-19
 -1      3429 9.52474E-05-2.85411E-05-2.85884E-05-6.21554E-09 4.47737E-20 8.62236E-19
 -1      3430 9.52487E-05-2.85608E-05-2.85804E-05 7.45880E-09 1.57407E-18-1.31671E-18
 -1      3431 9.52486E-05-2.85650E-05-2.85788E-05 1.07643E-08 1.67165E-18-5.41496E-19
 -1      3432 9.52505E-05-2.85561E-05-2.85833E-05 4.20190E-09 1.30168E-18-8.15931E-19
 -1      3433 9.52486E-05-2.85684E-05-2.85771E-05 1.28682E-08 1.48591E-18-8.12673E-19
 -1      3434 9.52483E-05-2.85711E-05-2.85759E-05 1.45729E-08 1.15122E-18 1.79898E-19
 -1      3435 9.52514E-05-2.85660E-05-2.85795E-05 1.03849E-08 1.53606E-18-1.25621E-18
 -1      3436 9.52477E-05-2.85732E-05-2.85747E-05 1.54900E-08 1.03169E-18 4.67816E-19
 -1      3437 9.52472E-05-2.85748E-05-2.85739E-05 1.61131E-08 2.73053E-20 1.63306E-18
 -1      3438 9.52509E-05-2.85723E-05-2.85766E-05 1.36204E-08 1.72718E-18-1.39453E-18
 -1      3439 9.52463E-05-2.85760E-05-2.85730E-05 1.62535E-08-1.39721E-19 2.95469E-18
 -1      3440 9.52458E-05-2.85769E-05-2.85724E-05 1.61707E-08 8.60163E-19 3.66740E-18
 -1      3441 9.52495E-05-2.85760E-05-2.85744E-05 1.48611E-08 1.24808E-18 2.50284E-18
 -1      3442 9.52448E-05-2.85774E-05-2.85717E-05 1.58158E-08 5.24911E-19 2.41677E-18
 -1      3443 9.52444E-05-2.85780E-05-2.85713E-05 1.52995E-08 4.48239E-19 2.74149E-18
 -1      3444 9.52477E-05-2.85781E-05-2.85727E-05 1.48283E-08 8.85433E-21 3.23658E-18
 -1      3445 8.20355E-05-2.92004E-05-2.23901E-05 3.08010E-05 1.83028E-18-2.43151E-19
 -1      3446 1.09504E-04-1.55903E-05-4.05547E-05-6.20388E-06-1.06983E-18-2.56224E-19
 -1      3447 1.12793E-04-2.14452E-05-3.92183E-05-1.02216E-05-9.12996E-19 3.85920E-19
 -1      3448 7.88816E-05-1.27222E-05-2.83901E-05-7.70992E-06 1.09839E-18-2.91449E-20
 -1      3449 7.65295E-05-1.07580E-05-2.81348E-05-5.29305E-06 1.14903E-18-9.56717E-20
 -1      3450 7.76253E-05-1.31737E-05-2.76172E-05-9.87115E-06 1.01730E-18-8.04979E-20
 -1      3451 8.51600E-05-1.95805E-05-2.81509E-05 6.11163E-06-3.14607E-19 8.66585E-19
 -1      3452 8.34507E-05-1.85683E-05-2.78333E-05 6.75438E-06 5.30752E-20 8.19460E-19
 -1      3453 7.49580E-05-1.51033E-05-2.57450E-05 8.30112E-06 6.72293E-19 1.20338E-19
 -1      3454 7.21495E-05-1.43902E-05-2.47052E-05 9.40939E-06 1.65171E-20 8.92329E-20
 -1      3455 9.04525E-05-2.32054E-05-2.88433E-05 4.41278E-06 5.54248E-20 4.05495E-19
 -1      3456 8.95956E-05-2.24729E-05-2.87793E-05 4.93196E-06-1.53038E-19 4.28349E-19
 -1      3457 9.20553E-05-2.45739E-05-2.89376E-05 3.60042E-06 1.15318E-18 4.05076E-19
 -1      3458 9.14505E-05-2.39720E-05-2.89261E-05 4.07972E-06 3.69224E-19 3.03461E-19
 -1      3459 9.00763E-05-2.30493E-05-2.86958E-05 3.46161E-06 3.95521E-19-3.33436E-19
 -1      3460 9.31013E-05-2.55781E-05-2.89511E-05 2.90566E-06 5.76840E-19 3.81921E-19
 -1      3461 9.27223E-05-2.51408E-05-2.89665E-05 3.29948E-06 8.38031E-19 4.38038E-19
 -1      3462 9.16913E-05-2.43932E-05-2.88213E-05 2.94450E-06 1.08011E-18 3.92897E-19
 -1      3463 9.38154E-05-2.63427E-05-2.89263E-05 2.30132E-06 5.10419E-19 1.97726E-19
 -1      3464 9.35678E-05-2.60112E-05-2.89532E-05 2.63200E-06 1.03721E-18 9.42291E-19
 -1      3465 9.27963E-05-2.54159E-05-2.88634E-05 2.43982E-06 8.07968E-19 1.52054E-19
 -1      3466 9.42992E-05-2.69191E-05-2.88842E-05 1.79088E-06-5.76267E-19-1.23660E-18
 -1      3467 9.41399E-05-2.66705E-05-2.89146E-05 2.06241E-06-2.30967E-19-2.86804E-19
 -1      3468 9.35688E-05-2.62026E-05-2.88620E-05 1.97130E-06 8.77275E-19 8.91826E-19
 -1      3469 9.46248E-05-2.73512E-05-2.88367E-05 1.37011E-06 6.02450E-19-9.65589E-19
 -1      3470 9.45238E-05-2.71656E-05-2.88663E-05 1.58890E-06-4.77056E-19-1.03694E-18
 -1      3471 9.41059E-05-2.68025E-05-2.88382E-05 1.55756E-06-4.63472E-20-4.87155E-19
 -1      3472 9.48426E-05-2.76746E-05-2.87902E-05 1.03014E-06-8.24789E-19 2.43166E-19
 -1      3473 9.47795E-05-2.75360E-05-2.88170E-05 1.20366E-06 1.46487E-19-5.65120E-19
 -1      3474 9.44774E-05-2.72572E-05-2.88047E-05 1.20548E-06-2.44846E-19-5.36889E-19
 -1      3475 9.49935E-05-2.79262E-05-2.87460E-05 7.48913E-07 5.65451E-19 2.09801E-19
 -1      3476 9.49529E-05-2.78188E-05-2.87701E-05 8.89550E-07 1.58912E-20-1.28578E-19
 -1      3477 9.47386E-05-2.76079E-05-2.87676E-05 9.08294E-07 4.66615E-20 6.84852E-19
 -1      3478 9.50879E-05-2.81035E-05-2.87096E-05 5.41816E-07-1.94499E-19-4.94951E-19
 -1      3479 9.50648E-05-2.80276E-05-2.87288E-05 6.44618E-07 3.93799E-19-5.29869E-20
 -1      3480 9.49165E-05-2.78711E-05-2.87322E-05 6.69614E-07 6.46270E-19-1.08744E-19
 -1      3481 9.51498E-05-2.82356E-05-2.86790E-05 3.82983E-07 1.01001E-18-1.20084E-18
 -1      3482 9.51361E-05-2.81790E-05-2.86946E-05 4.60870E-07 1.24710E-19-1.04179E-18
 -1      3483 9.50342E-05-2.80630E-05-2.87010E-05 4.86725E-07 3.92957E-19-6.86231E-19
 -1      3484 9.51900E-05-2.83337E-05-2.86538E-05 2.63267E-07 6.58603E-19-4.63474E-19
 -1      3485 9.51822E-05-2.82916E-05-2.86663E-05 3.21408E-07 9.73453E-19-8.29592E-19
 -1      3486 9.51140E-05-2.82066E-05-2.86740E-05 3.45237E-07 5.22604E-19-3.19965E-20
 -1      3487 9.52157E-05-2.84060E-05-2.86335E-05 1.74589E-07 1.46306E-19 6.52601E-20
 -1      3488 9.52115E-05-2.83749E-05-2.86434E-05 2.17279E-07-2.00994E-19 2.31311E-19
 -1      3489 9.51673E-05-2.83135E-05-2.86513E-05 2.37852E-07 1.75428E-19 4.93105E-19
 -1      3490 9.52316E-05-2.84590E-05-2.86174E-05 1.10096E-07 5.67617E-19 1.17890E-18
 -1      3491 9.52296E-05-2.84362E-05-2.86251E-05 1.40905E-07 7.72543E-19 5.43424E-19
 -1      3492 9.52024E-05-2.83926E-05-2.86326E-05 1.57902E-07-9.87009E-20 1.11613E-19
 -1      3493 9.52414E-05-2.84990E-05-2.86043E-05 6.23625E-08-8.72515E-19 2.06298E-18
 -1      3494 9.52406E-05-2.84818E-05-2.86104E-05 8.48412E-08-2.91615E-19 1.10601E-18
 -1      3495 9.52253E-05-2.84516E-05-2.86172E-05 9.84770E-08 2.04625E-19 4.87939E-19
 -1      3496 9.52465E-05-2.85259E-05-2.85948E-05 3.12531E-08-8.59437E-19 2.43043E-18
 -1      3497 9.52464E-05-2.85143E-05-2.85991E-05 4.58716E-08-8.47184E-19 2.43652E-18
 -1      3498 9.52393E-05-2.84942E-05-2.86050E-05 5.63031E-08-1.40725E-18 8.23820E-19
 -1      3499 9.52487E-05-2.85448E-05-2.85876E-05 1.03881E-08-4.20205E-19 9.47893E-19
 -1      3500 9.52491E-05-2.85366E-05-2.85908E-05 2.00634E-08-1.08086E-19 1.71659E-18
 -1      3501 9.52470E-05-2.85236E-05-2.85958E-05 2.80034E-08-3.95638E-19 1.19094E-18
 -1      3502 9.52492E-05-2.85576E-05-2.85822E-05-2.98140E-09 6.09320E-20 1.64885E-19
 -1      3503 9.52498E-05-2.85521E-05-2.85845E-05 3.12815E-09-2.41015E-19 1.04942E-18
 -1      3504 9.52508E-05-2.85440E-05-2.85886E-05 9.03791E-09 3.30533E-19 1.35416E-18
 -1      3505 9.52487E-05-2.85662E-05-2.85783E-05-1.10065E-08-5.31047E-19 1.08519E-18
 -1      3506 9.52493E-05-2.85625E-05-2.85799E-05-7.42033E-09-8.39642E-19 1.28807E-19
 -1      3507 9.52521E-05-2.85579E-05-2.85832E-05-3.10948E-09-3.27775E-19 1.22395E-18
 -1      3508 9.52475E-05-2.85716E-05-2.85754E-05-1.53208E-08-1.03990E-18 2.47417E-18
 -1      3509 9.52482E-05-2.85692E-05-2.85766E-05-1.34694E-08-7.06332E-19 1.21874E-18
 -1      3510 9.52518E-05-2.85670E-05-2.85792E-05-1.03898E-08-1.16954E-18 3.32014E-18
 -1      3511 9.52460E-05-2.85749E-05-2.85733E-05-1.71575E-08-2.91748E-18 4.19022E-18
 -1      3512 9.52467E-05-2.85734E-05-2.85742E-05-1.64785E-08-1.49846E-18 2.94143E-18
 -1      3513 9.52505E-05-2.85728E-05-2.85762E-05-1.43267E-08-1.85326E-18 3.25589E-18
 -1      3514 9.52445E-05-2.85766E-05-2.85720E-05-1.72365E-08 1.77461E-19 2.35054E-18
 -1      3515 9.52451E-05-2.85758E-05-2.85725E-05-1.73481E-08-1.98245E-18 2.53724E-18
 -1      3516 9.52487E-05-2.85762E-05-2.85740E-05-1.59166E-08-1.17801E-18 3.61720E-18
 -1      3517 9.52431E-05-2.85775E-05-2.85710E-05-1.62964E-08 6.07489E-19 2.37371E-18
 -1      3518 9.52436E-05-2.85771E-05-2.85713E-05-1.68892E-08 8.67754E-19 2.91479E-18
 -1      3519 9.52468E-05-2.85779E-05-2.85724E-05-1.59658E-08 9.08264E-20 4.28612E-18
 -1      3520 9.95858E-05-2.65578E-05-3.12902E-05-2.10660E-06-1.47079E-19-7.81522E-19
 -1      3521 9.52423E-05-2.85792E-05-2.85699E-05-1.25869E-08-7.04787E-19-1.64903E-19
 -1      3522 9.52409E-05-2.85780E-05-2.85698E-05-1.34642E-08-2.46359E-19-3.29999E-19
 -1      3523 9.52411E-05-2.85778E-05-2.85700E-05-1.44626E-08-4.23493E-21-1.56970E-19
 -1      3524 9.52436E-05-2.85795E-05-2.85703E-05-1.27757E-08-9.22415E-19 2.13784E-19
 -1      3525 9.12499E-05-2.04122E-05-3.03277E-05 7.07200E-06 5.97583E-19-3.39384E-19
 -1      3526 9.42146E-05-2.38809E-05-3.01667E-05 7.15721E-06 4.86668E-19-3.15826E-19
 -1      3527 8.87476E-05-1.87442E-05-3.00284E-05 8.57640E-06 8.72238E-19-4.61128E-19
 -1      3528 5.28939E-05-9.06236E-06-1.87230E-05-8.33841E-06 8.79300E-19-1.36812E-18
 -1      3529 5.89221E-05-1.35817E-05-1.90228E-05-1.80195E-05 5.20105E-19-1.23677E-18
 -1      3530 6.76258E-05-1.69736E-05-2.14009E-05-1.98790E-05 2.69304E-19-1.03492E-18
 -1      3531 1.26104E-04-4.48454E-05-3.51881E-05-4.87383E-06-3.92530E-19 2.05781E-18
 -1      3532 1.25305E-04-4.81790E-05-3.28672E-05 1.69466E-06 8.12556E-20 2.21986E-18
 -1      3533 6.66159E-05-2.10881E-05-1.92736E-05 2.38467E-05-1.42581E-18 2.19869E-18
 -1      3534 1.08555E-04-1.38216E-05-4.07879E-05 3.95326E-06-6.03035E-19-7.91794E-19
 -1      3535 1.08396E-04-1.34456E-05-4.08731E-05-2.07434E-06-8.62174E-19-3.59771E-19
 -1      3536 1.06765E-04-4.37839E-05-2.71914E-05 2.32423E-05 1.40454E-18 8.99853E-19
 -1      3537 9.83196E-05-3.75976E-05-2.58078E-05 2.56459E-05 1.52576E-18 6.25547E-19
 -1      3538 5.87659E-05-1.36810E-05-1.92422E-05 1.44164E-05-9.59033E-19 1.57289E-18
 -1      3539 5.19396E-05-1.02198E-05-1.73418E-05 7.52102E-06-5.41704E-19 1.91578E-18
 -1      3540 5.40811E-05-1.02414E-05-1.86214E-05 1.57182E-06 8.44717E-20 1.27537E-18
 -1      3541 9.52432E-05-2.85786E-05-2.85706E-05 1.38993E-08 6.01555E-19 3.00013E-18
 -1      3542 9.52504E-05-2.85828E-05-2.85718E-05 3.60514E-09 1.19189E-18-3.35181E-18
 -1      3543 9.52507E-05-2.85830E-05-2.85719E-05 1.39161E-09 1.10479E-18-1.99741E-18
 -1      3544 8.18968E-05-3.18087E-05-2.11009E-05-3.08781E-05 7.53303E-19-2.65545E-19
 -1      3545 9.34841E-05-4.00152E-05-2.31617E-05-3.05554E-05 1.00327E-18-1.02335E-18
 -1      3546 8.08824E-05-1.73576E-05-2.72915E-05 7.05087E-06 1.97465E-20 5.09374E-19
 -1      3547 7.86083E-05-1.63438E-05-2.67073E-05 7.82953E-06 2.15079E-19 4.75846E-19
 -1      3548 8.03787E-05-1.70255E-05-2.70589E-05 4.48067E-06-1.90748E-20 8.60145E-19
 -1      3549 1.05448E-04-4.57769E-05-2.52152E-05-2.58398E-05 1.32059E-18-8.98206E-19
 -1      3550 1.14790E-04-5.01598E-05-2.78684E-05-1.81224E-05 1.88348E-18-6.66708E-19
 -1      3551 1.05843E-04-3.42104E-05-3.06655E-05-1.37466E-06-1.76893E-19-3.91137E-19
 -1      3552 1.07125E-04-3.56227E-05-3.06866E-05-1.97685E-06-7.74572E-20-4.22790E-19
 -1      3553 5.29309E-05-7.67916E-06-1.93702E-05 8.74157E-06 1.29666E-18-1.18315E-18
 -1      3554 5.27930E-05-6.99381E-06-1.91448E-05 2.41589E-08 1.10141E-18-1.17971E-18
 -1      3555 1.20215E-04-3.07648E-05-3.85423E-05-1.22952E-05-7.12593E-19 1.01261E-18
 -1      3556 1.24749E-04-3.85996E-05-3.68536E-05-9.79978E-06-5.23969E-19 1.64009E-18
 -1      3557 8.82521E-05-2.15588E-05-2.86146E-05 5.24328E-06-2.96508E-19 1.08895E-18
 -1      3558 8.70235E-05-2.06676E-05-2.84575E-05 5.81745E-06-2.33462E-19 9.58314E-19
 -1      3559 8.77902E-05-2.13543E-05-2.84282E-05 3.93239E-06-8.79326E-20 7.20779E-19
 -1      3560 1.09078E-04-3.69004E-05-3.08936E-05-3.21719E-06-1.88830E-19-4.44318E-19
 -1      3561 1.09803E-04-3.72611E-05-3.11372E-05-4.38694E-06-4.01334E-19-3.51299E-19
 -1      3562 1.12371E-04-3.86549E-05-3.15974E-05-4.30349E-06-4.04875E-19-2.88570E-19
 -1      3563 1.21450E-04-4.99725E-05-3.09943E-05 9.59247E-06 4.44269E-19 1.97980E-18
 -1      3564 1.14817E-04-4.74003E-05-2.87108E-05 1.74110E-05 1.12047E-18 1.45816E-18
 -1      3565 1.10870E-04-4.33710E-05-2.87819E-05 1.57949E-05 1.06301E-18 1.11741E-18
 -1      3566 1.11650E-04-2.17938E-05-3.85583E-05 1.09494E-05-1.82589E-19-1.30066E-18
 -1      3567 1.09861E-04-1.65883E-05-4.02365E-05 7.73903E-06-3.48925E-19-8.73639E-19
 -1      3568 6.06597E-05-1.70128E-05-1.84533E-05-2.20327E-05 9.51628E-19 1.63684E-18
 -1      3569 7.01993E-05-2.43214E-05-1.97050E-05-2.85898E-05 8.57515E-19 1.35022E-18
 -1      3570 8.69050E-05-3.06814E-05-2.42558E-05 2.82295E-05 1.72301E-18 1.50851E-19
 -1      3571 7.75100E-05-2.34214E-05-2.27679E-05 2.74072E-05 1.83950E-18-5.90078E-19
 -1      3572 9.52457E-05-2.85795E-05-2.85712E-05 1.32622E-08 5.95062E-19 2.92423E-18
 -1      3573 9.32452E-05-3.25223E-05-2.59677E-05 2.37877E-05 1.43538E-18 3.10160E-19
 -1      3574 7.31886E-05-8.97203E-06-2.75533E-05-9.67008E-07 1.21747E-18-4.47032E-19
 -1      3575 7.14159E-05-7.64371E-06-2.71360E-05 2.33561E-06 1.28814E-18-7.42200E-19
 -1      3576 7.13089E-05-9.22860E-06-2.66518E-05-2.13839E-06 1.14918E-18-4.78670E-19
 -1      3577 5.82154E-05-1.39111E-05-1.87214E-05-1.70069E-05 5.17034E-19 8.57568E-19
 -1      3578 6.60086E-05-1.70040E-05-2.08584E-05-1.76426E-05 2.68155E-19 1.39044E-18
 -1      3579 5.73764E-05-1.18095E-05-1.94404E-05-9.97590E-06 5.34339E-19 1.29363E-18
 -1      3580 6.66858E-05-1.73652E-05-2.08350E-05 1.99201E-05-1.27664E-18 1.44581E-18
 -1      3581 9.52476E-05-2.85804E-05-2.85716E-05 1.14331E-08 2.60723E-19 4.62769E-19
 -1      3582 9.52490E-05-2.85812E-05-2.85719E-05 9.79822E-09-2.24037E-19-1.76050E-18
 -1      3583 9.52488E-05-2.85796E-05-2.85725E-05 1.27260E-08-2.13995E-19 9.66585E-19
 -1      3584 8.87344E-05-2.01694E-05-2.94178E-05 1.07393E-05 9.50207E-19-3.77048E-19
 -1      3585 1.18694E-04-5.06007E-05-2.90736E-05-1.25906E-05 1.78868E-18-5.26090E-19
 -1      3586 1.19370E-04-4.87312E-05-3.02913E-05-6.28519E-06 1.35978E-18-4.81313E-19
 -1      3587 1.11702E-04-4.68446E-05-2.78847E-05-1.52472E-05 1.18716E-18-3.39382E-19
 -1      3588 8.09922E-05-1.63820E-05-2.77895E-05 1.45664E-05 1.43328E-18-4.59042E-19
 -1      3589 8.49392E-05-1.89248E-05-2.82045E-05 1.43487E-05 1.29354E-18-4.35375E-19
 -1      3590 7.38955E-05-1.09817E-05-2.70478E-05 1.17865E-05 1.48056E-18-6.55235E-19
 -1      3591 7.69068E-05-1.29375E-05-2.72871E-05 1.34332E-05 1.42198E-18-5.20465E-19
 -1      3592 7.87543E-05-1.64169E-05-2.67567E-05 1.62129E-05 1.44989E-18-5.02688E-19
 -1      3593 8.46742E-05-1.93484E-05-2.79336E-05 4.28023E-06-3.76993E-19 1.71615E-18
 -1      3594 6.45712E-05-1.20377E-05-2.23422E-05 6.34932E-06 1.58260E-19 1.92038E-20
 -1      3595 6.58884E-05-1.34060E-05-2.24501E-05 1.18805E-05-7.39314E-19 7.77219E-19
 -1      3596 1.00723E-04-2.85278E-05-3.09599E-05-7.02583E-07-1.62242E-19-6.95692E-19
 -1      3597 6.42501E-05-1.46714E-05-2.10793E-05 1.47308E-05-1.13637E-18 1.26931E-18
 -1      3598 9.52419E-05-2.85778E-05-2.85703E-05-1.50494E-08 5.25832E-20 7.36698E-19
 -1      3599 9.52422E-05-2.85775E-05-2.85706E-05-1.58512E-08 4.02779E-19 1.05889E-18
 -1      3600 9.52449E-05-2.85785E-05-2.85713E-05-1.52237E-08 1.81201E-18 1.46661E-18
 -1      3601 9.52432E-05-2.85787E-05-2.85705E-05-1.43649E-08 5.08022E-19-1.19627E-18
 -1      3602 9.52456E-05-2.85803E-05-2.85709E-05-1.22131E-08 1.12972E-18 1.51138E-18
 -1      3603 9.52446E-05-2.85795E-05-2.85707E-05-1.32321E-08 1.15438E-18 5.21434E-19
 -1      3604 9.52454E-05-2.85794E-05-2.85711E-05-1.37629E-08 2.90411E-18 7.79203E-19
 -1      3605 9.52507E-05-2.85830E-05-2.85719E-05-1.09206E-09 2.42589E-18-1.25539E-18
 -1      3606 9.52504E-05-2.85829E-05-2.85718E-05-3.30858E-09 2.20427E-18-1.60122E-18
 -1      3607 9.52520E-05-2.85828E-05-2.85725E-05 1.46835E-10 2.53727E-18-2.23405E-18
 -1      3608 7.29786E-05-1.91431E-05-2.30095E-05 2.35585E-05 1.62276E-18-7.60583E-19
 -1      3609 5.73174E-05-8.57161E-06-2.06766E-05-4.91549E-06 9.87153E-19-1.16851E-18
 -1      3610 9.52472E-05-2.85811E-05-2.85711E-05-1.05425E-08 1.74508E-18 5.64664E-19
 -1      3611 6.90184E-05-1.42485E-05-2.34343E-05-1.61799E-05 4.94005E-19-8.74482E-19
 -1      3612 9.54192E-05-2.60235E-05-2.97490E-05 9.10301E-06 5.82229E-19-6.34001E-20
 -1      3613 9.77823E-05-2.75448E-05-3.01010E-05 7.10824E-06 4.03934E-19-2.36895E-19
 -1      3614 1.21956E-04-4.01131E-05-3.50298E-05-7.83633E-06-2.21036E-19 1.25492E-18
 -1      3615 7.85836E-05-2.72890E-05-2.17933E-05-2.61573E-05 7.33689E-19 3.22825E-19
 -1      3616 5.87621E-05-9.32418E-06-2.11345E-05 1.20235E-05 1.38839E-18-1.17775E-18
 -1      3617 1.15135E-04-3.13852E-05-3.58955E-05 1.18166E-05-3.28397E-19-1.26287E-18
 -1      3618 1.13876E-04-2.69786E-05-3.74535E-05 1.21397E-05-4.89373E-19-1.42667E-18
 -1      3619 1.00970E-04-3.07403E-05-3.00788E-05 6.46686E-06 3.18048E-19-1.56987E-19
 -1      3620 9.95636E-05-2.84489E-05-3.04465E-05 4.42568E-06 2.47637E-19-4.30738E-19
 -1      3621 1.00908E-04-2.93566E-05-3.06676E-05 2.42507E-06 5.83514E-20-6.44486E-19
 -1      3622 7.43209E-05-1.44467E-05-2.55271E-05 4.58867E-06 4.03093E-19 7.55891E-19
 -1      3623 9.94055E-05-4.09099E-05-2.49654E-05-2.45407E-05 6.58595E-19-1.24026E-18
 -1      3624 1.15283E-04-2.67420E-05-3.81411E-05-1.20003E-05-7.05777E-19 4.75185E-19
 -1      3625 1.09078E-04-3.71710E-05-3.08434E-05-1.15808E-06-1.87408E-19-2.78305E-19
 -1      3626 1.20966E-04-4.64943E-05-3.18158E-05 3.52421E-06 2.41894E-19 1.65966E-18
 -1      3627 9.52496E-05-2.85819E-05-2.85719E-05 7.75844E-09 1.59657E-19-2.98143E-18
 -1      3628 9.52504E-05-2.85824E-05-2.85720E-05 5.73196E-09 9.17172E-19-3.20305E-18
 -1      3629 9.52520E-05-2.85823E-05-2.85727E-05 4.69891E-09 1.09313E-18-3.62740E-18
 -1      3630 9.52514E-05-2.85811E-05-2.85730E-05 8.83094E-09 4.20783E-19-3.18771E-18
 -1      3631 9.73223E-05-3.38775E-05-2.73902E-05 2.01740E-05 1.30404E-18 6.39569E-19
 -1      3632 8.80442E-05-2.68070E-05-2.61375E-05 2.18515E-05 1.50561E-18 1.35327E-20
 -1      3633 8.77133E-05-2.16464E-05-2.83317E-05 2.51404E-06 2.09479E-19-1.86081E-19
 -1      3634 8.63664E-05-2.07719E-05-2.81438E-05 2.60572E-06 9.00394E-20 3.91481E-19
 -1      3635 7.09614E-05-8.33941E-06-2.69634E-05 6.19955E-06 1.36009E-18-7.50838E-19
 -1      3636 7.19876E-05-8.99472E-06-2.69044E-05 9.31336E-06 1.44693E-18-8.59158E-19
 -1      3637 7.23341E-05-1.13457E-05-2.61043E-05 1.24106E-05 1.35341E-18-7.24418E-19
 -1      3638 6.85740E-05-8.13530E-06-2.59942E-05 6.06664E-06 1.27695E-18-8.22668E-19
 -1      3639 8.89322E-05-2.18155E-05-2.88000E-05 1.31617E-05 1.00454E-18-3.42196E-19
 -1      3640 9.24924E-05-2.41063E-05-2.92446E-05 1.16788E-05 7.62177E-19-1.97489E-19
 -1      3641 9.62727E-05-2.80198E-05-2.92218E-05 1.15796E-05 6.42504E-19 3.66127E-20
 -1      3642 8.83043E-05-2.31093E-05-2.79844E-05 1.56570E-05 1.13430E-18-1.47111E-19
 -1      3643 1.16468E-04-3.57749E-05-3.46894E-05 1.05750E-05 5.24093E-20-1.05013E-18
 -1      3644 1.16070E-04-3.97830E-05-3.27409E-05 7.33716E-06 2.39823E-19-7.14383E-19
 -1      3645 1.15826E-04-4.17566E-05-3.17414E-05 5.05632E-06 1.15484E-19-5.71286E-19
 -1      3646 1.13822E-04-4.22526E-05-3.07188E-05 2.12841E-06 1.95140E-19 1.50542E-19
 -1      3647 1.12426E-04-4.21789E-05-3.00560E-05 2.66687E-08 5.85657E-19 5.77441E-19
 -1      3648 1.16852E-04-4.39958E-05-3.12061E-05 1.63214E-06 5.17385E-19-7.83260E-19
 -1      3649 1.09724E-04-4.10676E-05-2.94600E-05-1.91447E-06 3.18092E-19 5.84014E-19
 -1      3650 1.07890E-04-3.99163E-05-2.90703E-05-3.33937E-06-2.34210E-20 6.34500E-19
 -1      3651 1.11827E-04-4.28250E-05-2.95739E-05-3.20921E-06 5.24763E-19 4.14451E-20
 -1      3652 1.05368E-04-3.82522E-05-2.87794E-05-4.27562E-06 2.27492E-19 2.90170E-19
 -1      3653 1.03585E-04-3.67516E-05-2.85877E-05-4.99932E-06 3.29610E-19 3.65802E-19
 -1      3654 1.06472E-04-3.96778E-05-2.86878E-05-5.97181E-06 2.57116E-19 8.26403E-19
 -1      3655 1.01608E-04-3.51587E-05-2.84790E-05-5.21461E-06 3.72530E-19 3.72110E-19
 -1      3656 1.00140E-04-3.37675E-05-2.84066E-05-5.44876E-06 7.10743E-20 7.91927E-19
 -1      3657 1.01984E-04-3.60693E-05-2.83084E-05-6.78919E-06 4.72448E-19 8.29600E-19
 -1      3658 9.87514E-05-3.24714E-05-2.83974E-05-5.25494E-06 3.80751E-20 8.08318E-19
 -1      3659 9.76604E-05-3.13615E-05-2.83903E-05-5.19285E-06-2.40413E-19 7.88134E-19
 -1      3660 9.86570E-05-3.29305E-05-2.82143E-05-6.53615E-06-3.61354E-20 9.88789E-19
 -1      3661 9.67705E-05-3.04177E-05-2.84258E-05-4.81267E-06-5.81673E-19 1.20642E-18
 -1      3662 9.60287E-05-2.96219E-05-2.84475E-05-4.59644E-06-4.05804E-19 1.47040E-18
 -1      3663 9.64249E-05-3.05579E-05-2.82609E-05-5.76890E-06-1.87274E-20 8.32096E-19
 -1      3664 9.55137E-05-2.89972E-05-2.84962E-05-4.16653E-06-1.56770E-19 1.65453E-18
 -1      3665 9.50504E-05-2.84776E-05-2.85257E-05-3.88807E-06 2.71775E-19 1.77088E-18
 -1      3666 9.50626E-05-2.89367E-05-2.83605E-05-4.83228E-06-2.01249E-19 1.85323E-18
 -1      3667 9.47948E-05-2.81058E-05-2.85718E-05-3.47749E-06 5.82371E-19 1.52579E-18
 -1      3668 9.45341E-05-2.78018E-05-2.85983E-05-3.18969E-06 4.57111E-19 1.18610E-18
 -1      3669 9.43243E-05-2.79322E-05-2.84662E-05-3.91623E-06 3.25050E-19 2.01796E-18
 -1      3670 9.44465E-05-2.76145E-05-2.86350E-05-2.82791E-06 2.55215E-20 9.04155E-19
 -1      3671 9.43230E-05-2.74659E-05-2.86542E-05-2.55841E-06-1.88321E-19 1.02783E-18
 -1      3672 9.40035E-05-2.73869E-05-2.85567E-05-3.10215E-06-1.96798E-19 1.04720E-18
 -1      3673 9.43360E-05-2.74038E-05-2.86796E-05-2.25413E-06 6.14002E-19 1.10208E-18
 -1      3674 9.42989E-05-2.73594E-05-2.86907E-05-2.01547E-06 7.62285E-19 1.53098E-18
 -1      3675 9.39435E-05-2.71605E-05-2.86243E-05-2.41607E-06 4.95546E-19 1.77410E-18
 -1      3676 9.43658E-05-2.73758E-05-2.87059E-05-1.76705E-06 1.75098E-19 1.24180E-18
 -1      3677 9.43785E-05-2.73955E-05-2.87098E-05-1.56321E-06 2.50309E-19 1.53318E-18
 -1      3678 9.40322E-05-2.71403E-05-2.86688E-05-1.85640E-06 4.19392E-19 2.19983E-18
 -1      3679 9.44685E-05-2.74562E-05-2.87165E-05-1.36449E-06 2.56213E-19 1.39915E-18
 -1      3680 9.45063E-05-2.75113E-05-2.87149E-05-1.19487E-06 1.56247E-19 1.16553E-18
 -1      3681 9.41941E-05-2.72418E-05-2.86934E-05-1.40952E-06 2.95376E-19 1.52631E-18
 -1      3682 9.46005E-05-2.75926E-05-2.87155E-05-1.03831E-06-1.64975E-19 2.68851E-19
 -1      3683 9.46475E-05-2.76633E-05-2.87101E-05-9.00051E-07-3.72821E-19 1.51303E-19
 -1      3684 9.43807E-05-2.74055E-05-2.87027E-05-1.05802E-06-4.79942E-19 1.28901E-18
 -1      3685 9.47352E-05-2.77497E-05-2.87065E-05-7.78254E-07-2.54044E-19 4.71939E-19
 -1      3686 9.47823E-05-2.78235E-05-2.86988E-05-6.67535E-07 2.40047E-19 5.40103E-19
 -1      3687 9.45635E-05-2.75919E-05-2.87009E-05-7.84717E-07 1.16498E-19 1.00831E-18
 -1      3688 9.48583E-05-2.79059E-05-2.86927E-05-5.73866E-07 6.19389E-19 6.14285E-19
 -1      3689 9.49006E-05-2.79753E-05-2.86841E-05-4.86629E-07 2.48502E-19 1.28681E-18
 -1      3690 9.47273E-05-2.77763E-05-2.86921E-05-5.74336E-07 5.13128E-19 8.07456E-19
 -1      3691 9.49632E-05-2.80487E-05-2.86767E-05-4.15401E-07-2.52638E-19 1.82513E-18
 -1      3692 9.49985E-05-2.81100E-05-2.86680E-05-3.47742E-07 1.46884E-19 1.92221E-18
 -1      3693 9.48655E-05-2.79449E-05-2.86792E-05-4.13919E-07 3.38175E-19 1.44750E-18
 -1      3694 9.50480E-05-2.81724E-05-2.86603E-05-2.94219E-07-3.80008E-21 1.93117E-18
 -1      3695 9.50760E-05-2.82240E-05-2.86520E-05-2.42577E-07-7.34160E-19 1.91768E-18
 -1      3696 9.49770E-05-2.80910E-05-2.86646E-05-2.92803E-07-1.79448E-19 1.39875E-18
 -1      3697 9.51137E-05-2.82751E-05-2.86446E-05-2.02887E-07-8.42856E-19 2.25582E-18
 -1      3698 9.51349E-05-2.83171E-05-2.86371E-05-1.64130E-07-2.49014E-19 1.91280E-18
 -1      3699 9.50636E-05-2.82127E-05-2.86497E-05-2.02356E-07-3.91240E-19 1.49741E-18
 -1      3700 9.51627E-05-2.83576E-05-2.86303E-05-1.35136E-07 2.89380E-19 1.79579E-18
 -1      3701 9.51781E-05-2.83907E-05-2.86238E-05-1.06574E-07 5.40568E-19 1.33725E-18
 -1      3702 9.51285E-05-2.83108E-05-2.86356E-05-1.35661E-07-4.11069E-19 1.85359E-18
 -1      3703 9.51978E-05-2.84221E-05-2.86179E-05-8.57636E-08 5.53019E-19 1.39355E-18
 -1      3704 9.52085E-05-2.84474E-05-2.86124E-05-6.51451E-08 4.59683E-19 1.11087E-18
 -1      3705 9.51756E-05-2.83878E-05-2.86230E-05-8.71962E-08 5.00553E-19 2.00929E-18
 -1      3706 9.52219E-05-2.84710E-05-2.86073E-05-5.05249E-08-1.73311E-19 8.67970E-19
 -1      3707 9.52289E-05-2.84899E-05-2.86028E-05-3.59949E-08-1.06793E-18 1.06013E-18
 -1      3708 9.52083E-05-2.84465E-05-2.86120E-05-5.26020E-08-7.06417E-19 1.51444E-18
 -1      3709 9.52376E-05-2.85072E-05-2.85986E-05-2.59924E-08-1.00874E-18 8.80789E-19
 -1      3710 9.52418E-05-2.85209E-05-2.85949E-05-1.60494E-08-9.50655E-19 8.52094E-19
 -1      3711 9.52301E-05-2.84902E-05-2.86027E-05-2.84423E-08-1.02299E-18 1.24408E-18
 -1      3712 9.52470E-05-2.85332E-05-2.85915E-05-9.43969E-09-1.06696E-18 7.07716E-19
 -1      3713 9.52493E-05-2.85429E-05-2.85886E-05-2.88930E-09-3.84843E-19 3.02891E-19
 -1      3714 9.52437E-05-2.85219E-05-2.85950E-05-1.20305E-08-1.07064E-18-4.22498E-19
 -1      3715 9.52519E-05-2.85513E-05-2.85859E-05 1.27189E-09 1.42684E-19 1.38879E-19
 -1      3716 9.52529E-05-2.85579E-05-2.85836E-05 5.36358E-09 7.66773E-19-6.29351E-19
 -1      3717 9.52514E-05-2.85441E-05-2.85888E-05-1.28585E-09 1.20077E-19-1.63205E-19
 -1      3718 9.52538E-05-2.85635E-05-2.85815E-05 7.79490E-09 8.69677E-19-1.32204E-18
 -1      3719 9.52538E-05-2.85678E-05-2.85798E-05 1.01450E-08 1.47002E-18-2.03500E-18
 -1      3720 9.52550E-05-2.85592E-05-2.85839E-05 5.38740E-09-3.13543E-20-5.70649E-19
 -1      3721 9.52537E-05-2.85712E-05-2.85781E-05 1.13829E-08 2.06304E-18-2.45763E-18
 -1      3722 9.52531E-05-2.85739E-05-2.85768E-05 1.25291E-08 2.21930E-18-1.56182E-18
 -1      3723 9.52557E-05-2.85690E-05-2.85800E-05 9.19604E-09 1.72325E-18-1.00087E-18
 -1      3724 9.52523E-05-2.85759E-05-2.85756E-05 1.29747E-08 3.03416E-18-9.15268E-19
 -1      3725 9.52515E-05-2.85774E-05-2.85746E-05 1.32923E-08 2.08880E-18 3.92270E-19
 -1      3726 9.52548E-05-2.85751E-05-2.85770E-05 1.10390E-08 2.88627E-18-2.16537E-18
 -1      3727 9.52507E-05-2.85783E-05-2.85739E-05 1.31570E-08 1.32489E-18 8.65086E-19
 -1      3728 9.52498E-05-2.85791E-05-2.85731E-05 1.29637E-08 4.71901E-19 8.89090E-19
 -1      3729 9.52517E-05-2.85799E-05-2.85736E-05 1.11509E-08 9.03724E-19-1.39236E-18
 -1      3730 9.52532E-05-2.85783E-05-2.85750E-05 1.14938E-08 2.12439E-18-1.96956E-18
 -1      3731 7.51951E-05-1.29183E-05-2.67494E-05-1.04404E-05 9.97957E-19-2.07152E-19
 -1      3732 7.24945E-05-1.05075E-05-2.64092E-05-7.12574E-06 1.06690E-18-1.97147E-19
 -1      3733 6.88181E-05-8.68585E-06-2.58381E-05-2.11687E-06 1.13197E-18-6.66370E-19
 -1      3734 7.40975E-05-1.36848E-05-2.58272E-05-1.25760E-05 8.08533E-19-4.08971E-19
 -1      3735 1.22640E-04-4.58768E-05-3.29455E-05 2.72509E-06 5.47938E-19-1.10993E-18
 -1      3736 1.25261E-04-4.38012E-05-3.49698E-05 6.72438E-06 4.11956E-19-1.47012E-18
 -1      3737 1.14770E-04-3.06469E-05-3.61143E-05-1.08770E-05-5.55071E-19 3.52994E-19
 -1      3738 1.01870E-04-2.99930E-05-3.07875E-05 6.06375E-07-1.26746E-19-6.93620E-19
 -1      3739 1.03105E-04-3.11966E-05-3.08042E-05-1.07100E-06-2.42854E-19-5.53894E-19
 -1      3740 1.04369E-04-3.28671E-05-3.06767E-05-1.16397E-06-2.67284E-19-4.72306E-19
 -1      3741 1.03416E-04-3.21780E-05-3.05500E-05 1.98261E-06-3.48855E-20-5.31513E-19
 -1      3742 1.13658E-04-4.05081E-05-3.12660E-05-1.17976E-06-1.72507E-19 3.16963E-19
 -1      3743 1.14952E-04-4.07942E-05-3.18199E-05-2.92710E-06-1.48727E-19 3.65070E-19
 -1      3744 8.99591E-05-2.32440E-05-2.86057E-05 2.41849E-06 7.32388E-19-5.33281E-19
 -1      3745 8.89606E-05-2.24969E-05-2.85051E-05 2.59418E-06 1.91033E-19-4.22122E-19
 -1      3746 8.79170E-05-2.18969E-05-2.82593E-05 1.40676E-06 4.60628E-19-3.35245E-19
 -1      3747 9.33943E-05-2.61911E-05-2.88082E-05 1.55480E-06 2.78585E-19 7.64244E-19
 -1      3748 9.30683E-05-2.58484E-05-2.88127E-05 1.75283E-06 7.22377E-19 2.01589E-19
 -1      3749 9.39587E-05-2.67771E-05-2.87975E-05 1.25239E-06-3.16779E-19 7.34054E-20
 -1      3750 9.37327E-05-2.65135E-05-2.88103E-05 1.42832E-06 1.74647E-19 6.20561E-19
 -1      3751 9.33107E-05-2.61651E-05-2.87678E-05 1.22882E-06 2.09320E-19 8.78651E-19
 -1      3752 9.43592E-05-2.72280E-05-2.87747E-05 9.82778E-07-2.41097E-19-2.80690E-19
 -1      3753 9.42032E-05-2.70262E-05-2.87910E-05 1.13328E-06-2.88633E-19 1.88826E-20
 -1      3754 9.38822E-05-2.67444E-05-2.87672E-05 1.01347E-06-5.32761E-19 7.84516E-19
 -1      3755 9.46538E-05-2.75880E-05-2.87457E-05 7.42862E-07 9.17948E-19-1.44257E-19
 -1      3756 9.45424E-05-2.74281E-05-2.87633E-05 8.72129E-07 2.73423E-19 1.39377E-19
 -1      3757 9.43033E-05-2.72050E-05-2.87521E-05 8.04575E-07 3.13413E-19 9.79795E-22
 -1      3758 9.48495E-05-2.78475E-05-2.87176E-05 5.55692E-07 3.79377E-19-4.13437E-19
 -1      3759 9.47777E-05-2.77324E-05-2.87334E-05 6.54743E-07 7.72012E-19-1.37954E-19
 -1      3760 9.46038E-05-2.75596E-05-2.87304E-05 6.19748E-07 1.22992E-18-2.12143E-19
 -1      3761 9.49863E-05-2.80445E-05-2.86912E-05 4.05668E-07 2.91657E-19-5.26165E-19
 -1      3762 9.49375E-05-2.79572E-05-2.87053E-05 4.83645E-07 6.10467E-19-1.80466E-19
 -1      3763 9.48122E-05-2.78246E-05-2.87070E-05 4.67597E-07 2.74412E-19-2.53487E-19
 -1      3764 9.50810E-05-2.81930E-05-2.86677E-05 2.88361E-07 3.67162E-19 3.34751E-19
 -1      3765 9.50482E-05-2.81273E-05-2.86798E-05 3.48510E-07 4.34290E-19-2.97064E-19
 -1      3766 9.49597E-05-2.80269E-05-2.86842E-05 3.43479E-07-2.45968E-20-1.22235E-18
 -1      3767 9.51458E-05-2.83042E-05-2.86474E-05 1.98649E-07 9.94260E-20-2.32592E-19
 -1      3768 9.51240E-05-2.82551E-05-2.86576E-05 2.44136E-07 3.37360E-19 3.85049E-19
 -1      3769 9.50631E-05-2.81803E-05-2.86632E-05 2.45181E-07 1.67427E-19-3.70618E-19
 -1      3770 9.51893E-05-2.83868E-05-2.86304E-05 1.31476E-07 7.04405E-19-7.99034E-19
 -1      3771 9.51752E-05-2.83504E-05-2.86387E-05 1.65234E-07-4.37779E-20-1.08721E-18
 -1      3772 9.51346E-05-2.82955E-05-2.86447E-05 1.69325E-07 7.03883E-19-3.29016E-19
 -1      3773 9.52189E-05-2.84499E-05-2.86158E-05 8.03098E-08-2.48192E-19-4.19019E-20
 -1      3774 9.52097E-05-2.84223E-05-2.86228E-05 1.05653E-07 2.31661E-19-3.88537E-19
 -1      3775 9.51839E-05-2.83829E-05-2.86286E-05 1.11085E-07 1.79034E-19-2.21133E-19
 -1      3776 9.52364E-05-2.84929E-05-2.86047E-05 4.59405E-08-7.73609E-19-2.64848E-19
 -1      3777 9.52313E-05-2.84740E-05-2.86100E-05 6.29544E-08-5.77458E-19 2.33859E-19
 -1      3778 9.52162E-05-2.84468E-05-2.86152E-05 6.85050E-08-4.32215E-19-2.75348E-19
 -1      3779 9.52467E-05-2.85235E-05-2.85959E-05 2.21089E-08-2.05633E-19-3.04392E-20
 -1      3780 9.52440E-05-2.85101E-05-2.86000E-05 3.37874E-08-8.35063E-19 6.42007E-20
 -1      3781 9.52359E-05-2.84916E-05-2.86046E-05 3.90176E-08-8.33978E-19-7.35794E-19
 -1      3782 9.52521E-05-2.85448E-05-2.85890E-05 6.18916E-09-1.63796E-19 5.23595E-19
 -1      3783 9.52509E-05-2.85355E-05-2.85922E-05 1.39200E-08 2.14899E-19 9.03663E-19
 -1      3784 9.52476E-05-2.85233E-05-2.85961E-05 1.85683E-08-8.34112E-19-2.14556E-19
 -1      3785 9.52542E-05-2.85591E-05-2.85837E-05-3.94765E-09-8.57343E-19 1.43427E-18
 -1      3786 9.52541E-05-2.85529E-05-2.85861E-05 9.17869E-10-5.01242E-19 9.88212E-19
 -1      3787 9.52537E-05-2.85452E-05-2.85894E-05 4.90431E-09-5.90805E-19 7.80167E-19
 -1      3788 9.52543E-05-2.85684E-05-2.85797E-05-9.96537E-09-1.55466E-18 2.02702E-18
 -1      3789 9.52547E-05-2.85643E-05-2.85815E-05-7.12342E-09-1.03165E-18 1.83546E-18
 -1      3790 9.52562E-05-2.85599E-05-2.85841E-05-3.78793E-09-1.50060E-18 1.23520E-18
 -1      3791 9.52529E-05-2.85743E-05-2.85766E-05-1.32074E-08-1.63171E-18 2.00646E-18
 -1      3792 9.52538E-05-2.85718E-05-2.85779E-05-1.17485E-08-1.43949E-18 2.20683E-18
 -1      3793 9.52562E-05-2.85695E-05-2.85800E-05-8.99878E-09-1.44005E-18 1.76098E-18
 -1      3794 9.52510E-05-2.85775E-05-2.85744E-05-1.43296E-08-1.14566E-18 2.55143E-18
 -1      3795 9.52519E-05-2.85761E-05-2.85753E-05-1.38761E-08-1.28015E-18 2.53233E-18
 -1      3796 9.52547E-05-2.85753E-05-2.85769E-05-1.16756E-08-1.22590E-18 1.97008E-18
 -1      3797 9.52487E-05-2.85791E-05-2.85727E-05-1.42983E-08 5.16075E-19 2.97295E-18
 -1      3798 9.52497E-05-2.85783E-05-2.85734E-05-1.43719E-08-6.42957E-19 3.11312E-18
 -1      3799 9.52525E-05-2.85785E-05-2.85746E-05-1.25971E-08-1.02381E-18 2.36575E-18
 -1      3800 6.50110E-05-1.03782E-05-2.31806E-05-1.04720E-05 9.08615E-19-7.96264E-19
 -1      3801 1.05610E-04-3.41109E-05-3.06563E-05 3.49920E-08-2.18705E-19-3.07453E-19
 -1      3802 9.52499E-05-2.85826E-05-2.85717E-05-5.71329E-09 2.77937E-18-3.43275E-19
 -1      3803 9.52490E-05-2.85822E-05-2.85716E-05-7.73859E-09 2.83594E-18-4.13604E-19
 -1      3804 9.52515E-05-2.85825E-05-2.85724E-05-4.65603E-09 2.82686E-18-1.45257E-18
 -1      3805 6.28097E-05-8.21852E-06-2.33885E-05-2.84030E-06 1.12673E-18-8.21013E-19
 -1      3806 6.09095E-05-1.12509E-05-2.12167E-05 2.09744E-06 3.30965E-19 3.21873E-19
 -1      3807 5.89469E-05-1.08394E-05-2.03096E-05-4.81317E-06 6.57476E-19 1.10771E-18
 -1      3808 6.39718E-05-1.29931E-05-2.18394E-05-7.74143E-06 1.10439E-19 1.55004E-18
 -1      3809 6.73316E-05-1.25222E-05-2.35799E-05 8.89419E-07 7.35539E-19 6.69884E-20
 -1      3810 1.20712E-04-3.84105E-05-3.53073E-05 9.90360E-06 1.87168E-19-1.59541E-18
 -1      3811 8.07028E-05-1.76651E-05-2.70533E-05 1.82542E-06-7.77632E-20 7.77666E-19
 -1      3812 7.81581E-05-1.65028E-05-2.64797E-05 1.64912E-06-6.75658E-20 8.24544E-19
 -1      3813 9.26022E-05-2.54345E-05-2.87948E-05 1.87388E-06 8.81077E-19 3.34061E-19
 -1      3814 9.21341E-05-2.49922E-05-2.87827E-05 2.08430E-06 8.58041E-19 2.61508E-19
 -1      3815 9.25233E-05-2.54278E-05-2.87426E-05 1.43068E-06 8.52140E-19 1.79200E-19
 -1      3816 9.14957E-05-2.44663E-05-2.87377E-05 2.17873E-06 7.44363E-19 1.08597E-19
 -1      3817 9.08285E-05-2.39032E-05-2.86954E-05 2.38320E-06 8.28144E-19-4.30750E-19
 -1      3818 8.99711E-05-2.33414E-05-2.85300E-05 1.60642E-06 6.55045E-19-1.33334E-19
 -1      3819 9.34918E-05-3.56431E-05-2.45638E-05-2.38874E-05 4.06418E-19-7.53285E-19
 -1      3820 1.02271E-04-4.13920E-05-2.62194E-05-2.01726E-05 1.93114E-19-8.16692E-19
 -1      3821 7.51068E-05-1.52968E-05-2.56836E-05 7.88643E-07 6.57079E-20 8.04092E-19
 -1      3822 7.15592E-05-1.40063E-05-2.46856E-05 4.12844E-07 3.13627E-19 6.63730E-19
 -1      3823 7.64509E-05-1.61310E-05-2.57744E-05-2.09685E-06-8.17883E-20 9.25817E-19
 -1      3824 9.52489E-05-2.85813E-05-2.85718E-05-9.99124E-09 2.72798E-18 9.09003E-19
 -1      3825 7.60134E-05-2.34954E-05-2.23823E-05-2.20529E-05 8.68609E-19 5.41148E-19
 -1      3826 8.50418E-05-3.05556E-05-2.34948E-05-2.46358E-05 8.98437E-19-3.82700E-19
 -1      3827 9.00623E-05-3.19230E-05-2.48609E-05-2.09181E-05 7.07339E-19-3.90280E-19
 -1      3828 1.08652E-04-3.71845E-05-3.05745E-05 1.73873E-06-1.73041E-19 1.64637E-19
 -1      3829 1.10701E-04-3.89925E-05-3.07903E-05 7.39721E-07-2.39166E-19 8.93206E-20
 -1      3830 1.12921E-04-4.10535E-05-3.08947E-05 2.24800E-06-2.72672E-20 7.62045E-19
 -1      3831 1.19274E-04-4.40724E-05-3.23792E-05-1.27058E-06-9.37518E-20 1.42092E-18
 -1      3832 1.17020E-04-4.46512E-05-3.08509E-05 5.01186E-06 2.17489E-19 1.35512E-18
 -1      3833 7.75986E-05-1.85740E-05-2.53610E-05 1.99094E-05 1.58659E-18-5.26788E-19
 -1      3834 6.93462E-05-1.28581E-05-2.40551E-05 1.72952E-05 1.47108E-18-8.57386E-19
 -1      3835 8.47524E-05-1.98046E-05-2.78594E-05 2.34860E-06-2.75375E-19 4.56937E-19
 -1      3836 8.28876E-05-1.87681E-05-2.75249E-05 2.32031E-06 1.00967E-19 5.03773E-19
 -1      3837 8.14494E-05-1.82226E-05-2.70300E-05-2.57264E-07-1.08306E-19 3.84673E-19
 -1      3838 8.51337E-05-2.01715E-05-2.77913E-05 8.40886E-07 1.92473E-19-7.74114E-19
 -1      3839 1.12144E-04-4.34000E-05-2.97209E-05 1.13407E-05 6.81852E-19 1.14572E-18
 -1      3840 1.06289E-04-3.92933E-05-2.84914E-05 1.58063E-05 9.67829E-19 8.67193E-19
 -1      3841 1.21294E-04-4.63486E-05-3.21286E-05 1.23348E-06 7.34722E-19-9.33252E-19
 -1      3842 1.19838E-04-4.26241E-05-3.31799E-05 6.05449E-06 4.34032E-19-1.25146E-18
 -1      3843 1.05221E-04-3.39564E-05-3.05105E-05 1.99907E-06-6.15968E-20-2.56884E-19
 -1      3844 1.06669E-04-3.54870E-05-3.05069E-05 1.99542E-06-1.23943E-19-1.48051E-19
 -1      3845 1.07861E-04-3.69783E-05-3.04038E-05 3.84746E-06-6.11783E-21 2.02467E-19
 -1      3846 1.04254E-04-3.35148E-05-3.03605E-05 3.96875E-06 1.58382E-19-2.32267E-19
 -1      3847 1.16346E-04-3.48987E-05-3.51032E-05-1.05405E-05-2.98606E-19 3.77686E-19
 -1      3848 1.18334E-04-3.93671E-05-3.38435E-05-7.17617E-06-1.22317E-19 8.24187E-19
 -1      3849 1.18147E-04-4.15027E-05-3.28558E-05-5.11519E-06-1.40664E-19 7.79178E-19
 -1      3850 1.07198E-04-4.35967E-05-2.71052E-05-1.70875E-05 4.33035E-19-8.04834E-19
 -1      3851 1.10165E-04-4.44362E-05-2.81600E-05-1.24068E-05 1.01416E-18-4.74120E-19
 -1      3852 1.01528E-04-3.93474E-05-2.66291E-05-1.73782E-05 1.28628E-19-1.15443E-18
 -1      3853 1.00692E-04-3.42410E-05-2.84304E-05 1.54875E-05 1.03490E-18 5.10612E-19
 -1      3854 1.16811E-04-3.86221E-05-3.34779E-05 8.89280E-06 2.56059E-19-9.16304E-19
 -1      3855 9.52536E-05-2.85818E-05-2.85736E-05 5.05111E-09 1.01422E-18-4.21061E-18
 -1      3856 9.52535E-05-2.85822E-05-2.85734E-05 2.96631E-09 1.11522E-18-5.45857E-18
 -1      3857 8.80759E-05-2.40142E-05-2.74199E-05 1.75890E-05 1.39833E-18-1.53591E-20
 -1      3858 9.26781E-05-2.71826E-05-2.80964E-05 1.63691E-05 1.09106E-18 2.03358E-19
 -1      3859 6.97458E-05-1.73736E-05-2.24371E-05-1.49392E-05-8.28173E-20 5.78060E-19
 -1      3860 7.25758E-05-2.03487E-05-2.22928E-05-1.94751E-05 5.39269E-19 9.28811E-19
 -1      3861 7.93169E-05-2.34914E-05-2.38379E-05-1.82974E-05 8.91322E-19-2.31650E-19
 -1      3862 9.52464E-05-2.85794E-05-2.85716E-05-1.40588E-08 2.50849E-18 2.01582E-18
 -1      3863 9.52553E-05-2.85817E-05-2.85744E-05 5.55995E-10 7.78231E-19-3.73837E-18
 -1      3864 9.52538E-05-2.85824E-05-2.85734E-05 3.57097E-10 1.42989E-18-3.24783E-18
 -1      3865 9.52536E-05-2.85824E-05-2.85734E-05-2.15470E-09 2.50649E-18-2.08983E-18
 -1      3866 9.52489E-05-2.85800E-05-2.85724E-05-1.27179E-08 2.59761E-18 1.76841E-18
 -1      3867 6.34222E-05-7.27584E-06-2.37913E-05 2.37767E-06 1.26236E-18-9.39391E-19
 -1      3868 1.14824E-04-4.58376E-05-2.96173E-05-5.70837E-06 9.93636E-19-2.72992E-19
 -1      3869 1.19053E-04-4.69798E-05-3.09045E-05-2.07313E-06 1.08665E-18-4.25449E-19
 -1      3870 9.52514E-05-2.85811E-05-2.85730E-05-9.89047E-09 2.10653E-18 7.98684E-19
 -1      3871 8.34554E-05-2.24149E-05-2.60555E-05 2.08660E-05 1.55048E-18-2.92670E-19
 -1      3872 6.95164E-05-1.35645E-05-2.38229E-05-3.28496E-06 4.04589E-19 1.29654E-18
 -1      3873 1.02904E-04-3.28404E-05-3.00041E-05 6.77647E-06 3.00951E-19-7.82988E-20
 -1      3874 1.12755E-04-4.16660E-05-3.04301E-05 5.85133E-06 3.50232E-19 9.48596E-19
 -1      3875 9.14437E-05-2.44981E-05-2.86730E-05 1.57814E-06 8.66333E-19-8.63486E-20
 -1      3876 1.03250E-04-3.46222E-05-2.95203E-05 1.04144E-05 5.38486E-19 3.25949E-19
 -1      3877 1.07274E-04-3.73548E-05-2.99274E-05 7.40020E-06 3.54662E-19 3.08836E-19
 -1      3878 6.48416E-05-9.34037E-06-2.37959E-05 1.00907E-05 1.39942E-18-9.55334E-19
 -1      3879 9.25471E-05-2.55722E-05-2.87084E-05 9.65480E-07 1.11485E-18 8.60367E-19
 -1      3880 9.20815E-05-2.51741E-05-2.86842E-05 1.02757E-06 1.29991E-18 9.99446E-19
 -1      3881 9.52533E-05-2.85812E-05-2.85738E-05 7.20627E-09 1.19794E-18-3.93415E-18
 -1      3882 9.52550E-05-2.85810E-05-2.85745E-05 5.29099E-09 1.19085E-18-4.42949E-18
 -1      3883 9.52529E-05-2.85805E-05-2.85739E-05 9.15571E-09 6.17727E-19-3.79702E-18
 -1      3884 1.12169E-04-4.44153E-05-2.90071E-05-7.41543E-06 9.62956E-19 3.35703E-20
 -1      3885 1.07105E-04-4.07375E-05-2.84305E-05-8.26502E-06 3.91399E-19 5.01637E-19
 -1      3886 1.04423E-04-3.86259E-05-2.81375E-05-8.91346E-06 1.07166E-19 6.59207E-19
 -1      3887 1.01838E-04-3.63957E-05-2.80323E-05-8.67790E-06 2.60051E-19 1.07726E-18
 -1      3888 9.98249E-05-3.45090E-05-2.79454E-05-8.57453E-06 5.26820E-19 7.25836E-19
 -1      3889 1.01639E-04-3.70786E-05-2.77472E-05-1.09245E-05 5.38839E-19-2.65796E-19
 -1      3890 9.82011E-05-3.28636E-05-2.79775E-05-7.88632E-06 1.35427E-19 9.05774E-19
 -1      3891 9.67818E-05-3.14230E-05-2.79896E-05-7.47376E-06-3.24350E-19 5.52294E-19
 -1      3892 9.75017E-05-3.30598E-05-2.76817E-05-9.72217E-06 1.11868E-20 2.46839E-19
 -1      3893 9.58402E-05-3.02777E-05-2.80745E-05-6.66099E-06-2.73290E-20 7.39299E-19
 -1      3894 9.49396E-05-2.92914E-05-2.81264E-05-6.13832E-06-1.12926E-19 5.02409E-19
 -1      3895 9.49915E-05-3.01339E-05-2.78353E-05-7.92244E-06-1.26035E-19 4.46615E-19
 -1      3896 9.44661E-05-2.85736E-05-2.82201E-05-5.38731E-06-8.05724E-20 1.35265E-18
 -1      3897 9.39474E-05-2.79566E-05-2.82808E-05-4.87195E-06 3.44653E-19 1.51399E-18
 -1      3898 9.36499E-05-2.82781E-05-2.80379E-05-6.20471E-06 4.53410E-19 8.68978E-19
 -1      3899 9.37724E-05-2.75535E-05-2.83643E-05-4.23399E-06 7.96180E-20 1.60015E-18
 -1      3900 9.35157E-05-2.72116E-05-2.84189E-05-3.77634E-06-1.09151E-19 9.62589E-19
 -1      3901 9.30432E-05-2.71980E-05-2.82305E-05-4.73118E-06 9.91077E-20 1.21886E-18
 -1      3902 9.35209E-05-2.70292E-05-2.84852E-05-3.26291E-06 4.63632E-20 1.07144E-18
 -1      3903 9.34333E-05-2.68786E-05-2.85280E-05-2.87874E-06 1.50642E-19 1.44099E-18
 -1      3904 9.29008E-05-2.66680E-05-2.83902E-05-3.53842E-06-2.07692E-19 1.36919E-18
 -1      3905 9.35370E-05-2.68410E-05-2.85761E-05-2.47928E-06 3.78381E-19 1.38538E-18
 -1      3906 9.35505E-05-2.68150E-05-2.86059E-05-2.16758E-06 4.61893E-19 1.81029E-18
 -1      3907 9.30262E-05-2.65032E-05-2.85108E-05-2.61072E-06 5.11568E-19 1.62681E-18
 -1      3908 9.36993E-05-2.68650E-05-2.86379E-05-1.86363E-06-8.81448E-20 2.08611E-18
 -1      3909 9.37668E-05-2.69135E-05-2.86561E-05-1.61612E-06 3.86968E-20 1.88571E-18
 -1      3910 9.32880E-05-2.65643E-05-2.85948E-05-1.90728E-06 2.75041E-19 1.71153E-18
 -1      3911 9.39275E-05-2.70107E-05-2.86751E-05-1.38823E-06-1.00833E-19 8.51349E-19
 -1      3912 9.40181E-05-2.70984E-05-2.86840E-05-1.19450E-06-8.53387E-20 8.12451E-19
 -1      3913 9.36022E-05-2.67517E-05-2.86482E-05-1.38279E-06-7.85867E-19 1.41817E-18
 -1      3914 9.41716E-05-2.72155E-05-2.86931E-05-1.02530E-06-1.29606E-19 4.65878E-19
 -1      3915 9.42663E-05-2.73189E-05-2.86952E-05-8.75247E-07-1.22324E-19 1.13557E-18
 -1      3916 9.39181E-05-2.69979E-05-2.86778E-05-9.96011E-07-1.06956E-19 1.48925E-19
 -1      3917 9.44026E-05-2.74384E-05-2.86974E-05-7.50498E-07 3.20004E-19 1.40921E-18
 -1      3918 9.44908E-05-2.75427E-05-2.86949E-05-6.35235E-07 6.72196E-19 1.54628E-18
 -1      3919 9.42081E-05-2.72593E-05-2.86900E-05-7.12801E-07 4.31879E-20 9.86648E-19
 -1      3920 9.46058E-05-2.76544E-05-2.86925E-05-5.43768E-07 6.64202E-19 1.14246E-18
 -1      3921 9.46822E-05-2.77510E-05-2.86871E-05-4.55897E-07 9.98455E-19 1.16818E-18
 -1      3922 9.44588E-05-2.75096E-05-2.86904E-05-5.06428E-07 6.91436E-19 1.12418E-18
 -1      3923 9.47757E-05-2.78496E-05-2.86820E-05-3.89147E-07 8.53992E-19 9.84743E-19
 -1      3924 9.48387E-05-2.79342E-05-2.86751E-05-3.22678E-07 4.71994E-19 1.30432E-18
 -1      3925 9.46663E-05-2.77345E-05-2.86833E-05-3.56561E-07 5.83186E-19 7.80693E-19
 -1      3926 9.49122E-05-2.80177E-05-2.86687E-05-2.74217E-07-5.13149E-19 1.37002E-18
 -1      3927 9.49619E-05-2.80888E-05-2.86613E-05-2.24374E-07-3.95571E-19 1.29680E-18
 -1      3928 9.48321E-05-2.79277E-05-2.86720E-05-2.48058E-07 1.76688E-19 1.27328E-18
 -1      3929 9.50180E-05-2.81572E-05-2.86544E-05-1.89414E-07 2.71546E-19 1.88418E-18
 -1      3930 9.50559E-05-2.82151E-05-2.86471E-05-1.52419E-07-2.75550E-19 2.17109E-18
 -1      3931 9.49607E-05-2.80880E-05-2.86587E-05-1.69792E-07 3.55056E-20 1.15810E-18
 -1      3932 9.50975E-05-2.82696E-05-2.86404E-05-1.27425E-07-6.74262E-19 1.75332E-18
 -1      3933 9.51254E-05-2.83154E-05-2.86337E-05-1.00303E-07 9.25237E-20 1.98330E-18
 -1      3934 9.50575E-05-2.82172E-05-2.86450E-05-1.13647E-07-5.71779E-19 1.74288E-18
 -1      3935 9.51553E-05-2.83577E-05-2.86274E-05-8.26153E-08-1.97247E-19 1.96341E-18
 -1      3936 9.51752E-05-2.83930E-05-2.86215E-05-6.30224E-08-6.60193E-19 1.60364E-18
 -1      3937 9.51282E-05-2.83188E-05-2.86320E-05-7.36684E-08-4.66775E-19 2.07761E-18
 -1      3938 9.51959E-05-2.84251E-05-2.86160E-05-5.07076E-08-3.01469E-19 1.61888E-18
 -1      3939 9.52094E-05-2.84516E-05-2.86109E-05-3.68095E-08-2.77681E-19 1.61734E-18
 -1      3940 9.51784E-05-2.83968E-05-2.86202E-05-4.54965E-08-4.58553E-19 1.45357E-18
 -1      3941 9.52233E-05-2.84754E-05-2.86062E-05-2.84054E-08-1.20394E-18 1.50044E-18
 -1      3942 9.52320E-05-2.84948E-05-2.86019E-05-1.87689E-08-1.45827E-18 9.33565E-19
 -1      3943 9.52125E-05-2.84553E-05-2.86100E-05-2.59493E-08-6.98678E-19 7.06099E-19
 -1      3944 9.52407E-05-2.85119E-05-2.85980E-05-1.31907E-08-1.91428E-18 6.90633E-19
 -1      3945 9.52458E-05-2.85258E-05-2.85945E-05-6.70335E-09-1.25592E-18 4.83389E-20
 -1      3946 9.52347E-05-2.84981E-05-2.86012E-05-1.26566E-08-1.78022E-18 1.06953E-18
 -1      3947 9.52508E-05-2.85378E-05-2.85912E-05-3.14442E-09 2.46417E-21-5.09085E-19
 -1      3948 9.52535E-05-2.85474E-05-2.85885E-05 1.05072E-09 4.97088E-19-1.11972E-19
 -1      3949 9.52482E-05-2.85286E-05-2.85940E-05-3.87082E-09-6.62457E-19 3.14931E-19
 -1      3950 9.52559E-05-2.85554E-05-2.85859E-05 3.18899E-09 1.07436E-20-5.72789E-19
 -1      3951 9.52569E-05-2.85618E-05-2.85837E-05 5.74487E-09 3.98221E-19-7.66990E-19
 -1      3952 9.52554E-05-2.85496E-05-2.85881E-05 1.70047E-09 2.90240E-19-6.84112E-19
 -1      3953 9.52575E-05-2.85670E-05-2.85816E-05 6.90712E-09 9.59186E-19-7.47342E-19
 -1      3954 9.52574E-05-2.85711E-05-2.85799E-05 8.31447E-09 1.34460E-18-1.08373E-18
 -1      3955 9.52583E-05-2.85636E-05-2.85834E-05 5.01734E-09 8.88378E-19-7.66093E-19
 -1      3956 9.52569E-05-2.85742E-05-2.85783E-05 8.81094E-09 1.43062E-18-1.74532E-18
 -1      3957 9.52561E-05-2.85766E-05-2.85770E-05 9.42594E-09 1.94507E-18-2.68558E-18
 -1      3958 9.52585E-05-2.85724E-05-2.85797E-05 6.77138E-09 4.73014E-19-9.21909E-19
 -1      3959 9.42760E-05-2.72389E-05-2.87332E-05 6.01696E-07 1.36622E-19-5.90555E-19
 -1      3960 9.40921E-05-2.70323E-05-2.87420E-05 6.92255E-07-3.05355E-19-3.58396E-19
 -1      3961 8.83978E-05-2.24801E-05-2.82549E-05 4.21917E-07 4.45566E-19-7.69158E-19
 -1      3962 8.71594E-05-2.17382E-05-2.80705E-05 1.52811E-07 5.69033E-19-4.05939E-19
 -1      3963 9.38602E-05-2.68015E-05-2.87431E-05 7.42550E-07-2.90152E-19 4.24014E-19
 -1      3964 9.36157E-05-2.65500E-05-2.87462E-05 8.34291E-07-2.83759E-19 7.39579E-19
 -1      3965 9.38746E-05-2.68373E-05-2.87247E-05 5.27928E-07-2.53040E-19-1.59290E-19
 -1      3966 9.32979E-05-2.62520E-05-2.87382E-05 8.72953E-07-4.95889E-20 1.61313E-18
 -1      3967 9.29594E-05-2.59338E-05-2.87313E-05 9.58937E-07 5.96668E-19 1.04362E-18
 -1      3968 9.26181E-05-2.56705E-05-2.86815E-05 5.93406E-07 5.90675E-19 1.82086E-18
 -1      3969 9.45718E-05-2.75724E-05-2.87165E-05 4.73109E-07 1.15641E-18 2.57694E-19
 -1      3970 9.44476E-05-2.74200E-05-2.87272E-05 5.49498E-07 8.03712E-19 2.25544E-19
 -1      3971 9.42710E-05-2.72501E-05-2.87193E-05 4.45289E-07-1.48321E-19-2.85547E-19
 -1      3972 9.47863E-05-2.78316E-05-2.86968E-05 3.60404E-07-3.76919E-20 4.97855E-19
 -1      3973 9.46980E-05-2.77136E-05-2.87080E-05 4.24713E-07 9.78372E-19 2.90703E-19
 -1      3974 9.45644E-05-2.75771E-05-2.87060E-05 3.58160E-07 8.16087E-19 9.57802E-19
 -1      3975 9.49404E-05-2.80311E-05-2.86769E-05 2.66310E-07 1.85881E-19-8.04999E-19
 -1      3976 9.48781E-05-2.79406E-05-2.86876E-05 3.18531E-07 1.46670E-19-7.70636E-19
 -1      3977 9.47793E-05-2.78332E-05-2.86892E-05 2.77141E-07 8.42295E-19 4.80282E-19
 -1      3978 9.50496E-05-2.81833E-05-2.86581E-05 1.90624E-07 1.66692E-19-6.09796E-19
 -1      3979 9.50063E-05-2.81145E-05-2.86678E-05 2.31792E-07-2.13341E-19-6.37072E-19
 -1      3980 9.49349E-05-2.80316E-05-2.86715E-05 2.07035E-07 2.66126E-19-7.74930E-19
 -1      3981 9.51259E-05-2.82982E-05-2.86413E-05 1.31567E-07 3.64249E-19 2.26136E-19
 -1      3982 9.50962E-05-2.82465E-05-2.86498E-05 1.63216E-07 1.31279E-20-1.58968E-20
 -1      3983 9.50460E-05-2.81836E-05-2.86544E-05 1.49306E-07-4.16184E-19-6.02784E-19
 -1      3984 9.51801E-05-2.83874E-05-2.86260E-05 8.49407E-08-1.51197E-19-1.82216E-19
 -1      3985 9.51595E-05-2.83475E-05-2.86335E-05 1.09484E-07 5.67199E-19 3.18064E-19
 -1      3986 9.51255E-05-2.83010E-05-2.86384E-05 1.02658E-07 6.34154E-20 3.94574E-19
 -1      3987 9.52139E-05-2.84493E-05-2.86139E-05 5.25636E-08-5.57190E-19 2.97175E-19
 -1      3988 9.52014E-05-2.84216E-05-2.86197E-05 6.95699E-08-5.78456E-19 6.50439E-19
 -1      3989 9.51795E-05-2.83882E-05-2.86244E-05 6.71267E-08-4.63318E-19 1.15918E-18
 -1      3990 9.52354E-05-2.84939E-05-2.86038E-05 2.93713E-08-1.31899E-18 4.43073E-19
 -1      3991 9.52278E-05-2.84741E-05-2.86086E-05 4.14293E-08-9.89376E-19 4.50215E-19
 -1      3992 9.52143E-05-2.84504E-05-2.86128E-05 4.15664E-08-1.26060E-18 1.08157E-18
 -1      3993 9.52482E-05-2.85255E-05-2.85957E-05 1.33189E-08-1.08382E-18 6.45505E-19
 -1      3994 9.52439E-05-2.85115E-05-2.85995E-05 2.16032E-08-1.21625E-18 4.69114E-20
 -1      3995 9.52364E-05-2.84952E-05-2.86032E-05 2.31944E-08-1.14250E-18 1.86437E-18
 -1      3996 9.52550E-05-2.85472E-05-2.85892E-05 2.63881E-09-8.88540E-19 6.19639E-19
 -1      3997 9.52530E-05-2.85376E-05-2.85922E-05 8.10877E-09-5.27341E-19 2.33580E-19
 -1      3998 9.52495E-05-2.85268E-05-2.85953E-05 1.04398E-08-6.80648E-19 4.97705E-19
 -1      3999 9.52577E-05-2.85617E-05-2.85841E-05-4.10939E-09-2.43615E-18 1.88351E-18
 -1      4000 9.52572E-05-2.85554E-05-2.85864E-05-6.82067E-10-2.24486E-18 1.32027E-18
 -1      4001 9.52563E-05-2.85485E-05-2.85890E-05 1.93629E-09-2.00757E-18 5.28302E-20
 -1      4002 9.52578E-05-2.85713E-05-2.85800E-05-8.17371E-09-9.45614E-19 2.63914E-18
 -1      4003 9.52582E-05-2.85671E-05-2.85818E-05-6.15905E-09-1.27210E-18 2.08142E-18
 -1      4004 9.52590E-05-2.85631E-05-2.85840E-05-3.51002E-09-2.20804E-18 2.05261E-18
 -1      4005 9.52562E-05-2.85766E-05-2.85770E-05-1.00463E-08-1.11030E-18 1.71982E-18
 -1      4006 9.52572E-05-2.85743E-05-2.85783E-05-9.13857E-09-9.96248E-19 2.04218E-18
 -1      4007 9.52589E-05-2.85722E-05-2.85800E-05-6.65995E-09-1.01530E-18 1.16702E-18
 -1      4008 9.52538E-05-2.85796E-05-2.85747E-05-1.06206E-08-6.44895E-19 1.05979E-18
 -1      4009 9.52550E-05-2.85783E-05-2.85757E-05-1.04159E-08-7.62396E-19 1.65975E-18
 -1      4010 9.52571E-05-2.85775E-05-2.85770E-05-8.14869E-09-9.29871E-19 1.49599E-18
 -1      4011 6.89301E-05-1.44257E-05-2.33688E-05-6.75601E-06 5.47163E-19 1.69020E-18
 -1      4012 6.86879E-05-1.53749E-05-2.26849E-05-1.14263E-05 1.68287E-19 1.42221E-18
 -1      4013 7.42983E-05-1.84059E-05-2.39185E-05-1.27976E-05 6.39213E-19 5.51941E-19
 -1      4014 7.29215E-05-1.57433E-05-2.45239E-05-6.43084E-06 5.07201E-19 1.70595E-18
 -1      4015 9.52532E-05-2.85822E-05-2.85733E-05-4.60241E-09 2.44582E-18-1.13088E-18
 -1      4016 9.63758E-05-2.92543E-05-2.86945E-05 1.37856E-05 8.87065E-19 1.69852E-19
 -1      4017 7.86906E-05-1.75263E-05-2.62251E-05-3.13172E-06 8.17809E-20 1.06315E-18
 -1      4018 7.57516E-05-1.65099E-05-2.54439E-05-4.42732E-06 3.94172E-19 1.26231E-18
 -1      4019 7.58699E-05-1.72819E-05-2.50638E-05-7.53175E-06 5.92239E-19 1.02994E-18
 -1      4020 8.67080E-05-2.82322E-05-2.49722E-05-1.85615E-05 9.99429E-19-3.06854E-19
 -1      4021 9.33476E-05-3.32056E-05-2.58441E-05-1.81429E-05 6.58992E-19-3.11682E-19
 -1      4022 9.15399E-05-2.47319E-05-2.86372E-05 9.75440E-07 5.08838E-19 5.11477E-19
 -1      4023 9.09028E-05-2.42406E-05-2.85843E-05 9.84392E-07 2.48634E-19 1.68289E-19
 -1      4024 9.16825E-05-2.48978E-05-2.86081E-05 4.91719E-07 5.77073E-19 1.31598E-18
 -1      4025 6.64943E-05-1.05786E-05-2.38259E-05 1.39594E-05 1.43373E-18-9.60429E-19
 -1      4026 9.01976E-05-2.37103E-05-2.84998E-05 8.31690E-07 7.51012E-19-1.55934E-19
 -1      4027 8.93311E-05-2.31161E-05-2.84006E-05 7.43317E-07 6.23066E-19-4.49820E-19
 -1      4028 9.04611E-05-2.39804E-05-2.84729E-05 2.07966E-07 5.08910E-20 1.85510E-19
 -1      4029 1.09512E-04-3.92428E-05-3.00040E-05 7.28429E-06 3.18838E-19 5.26539E-19
 -1      4030 9.52564E-05-2.85800E-05-2.85756E-05 5.57138E-09 1.18842E-18-4.60431E-18
 -1      4031 9.52564E-05-2.85806E-05-2.85754E-05 3.45700E-09 1.03061E-18-4.68354E-18
 -1      4032 8.88581E-05-2.29069E-05-2.82396E-05-3.78634E-07 4.69154E-19 1.38545E-19
 -1      4033 9.52537E-05-2.85798E-05-2.85745E-05 9.36767E-09 2.36145E-18-3.55147E-18
 -1      4034 9.52554E-05-2.85778E-05-2.85761E-05 9.45689E-09 1.86150E-18-3.73581E-18
 -1      4035 9.52546E-05-2.85790E-05-2.85753E-05 9.45279E-09 2.20621E-18-3.47868E-18
 -1      4036 9.52556E-05-2.85795E-05-2.85755E-05 7.55809E-09 1.37884E-18-5.02193E-18
 -1      4037 9.52572E-05-2.85772E-05-2.85772E-05 7.47167E-09 9.88861E-19-3.97057E-18
 -1      4038 8.68054E-05-2.17211E-05-2.78606E-05-1.42913E-06 3.87099E-19-2.42047E-19
 -1      4039 8.59915E-05-2.10422E-05-2.78390E-05-4.14334E-07 3.83235E-19-3.09861E-19
 -1      4040 8.43952E-05-2.02300E-05-2.75452E-05-9.28429E-07 2.20370E-19-3.26791E-19
 -1      4041 8.02332E-05-2.26861E-05-2.46827E-05-1.51968E-05 9.75664E-19-5.80075E-19
 -1      4042 8.34970E-05-2.56386E-05-2.48026E-05-1.75526E-05 1.11255E-18-3.33413E-19
 -1      4043 8.74059E-05-2.72253E-05-2.57309E-05-1.52181E-05 9.50742E-19 4.56590E-19
 -1      4044 9.52568E-05-2.85808E-05-2.85755E-05 8.32029E-10 4.24166E-19-3.55701E-18
 -1      4045 9.52568E-05-2.85808E-05-2.85754E-05-1.74303E-09 5.25935E-19-2.03300E-18
 -1      4046 9.52582E-05-2.85794E-05-2.85766E-05 1.08393E-09 2.39164E-19-2.55989E-18
 -1      4047 9.33358E-05-2.63154E-05-2.87155E-05 5.88571E-07 4.05389E-19 1.55641E-18
 -1      4048 9.52274E-05-3.26396E-05-2.68461E-05-1.36022E-05 5.10900E-19-7.00937E-19
 -1      4049 9.88208E-05-3.59561E-05-2.68754E-05-1.46799E-05 3.64132E-19-1.05818E-18
 -1      4050 9.52528E-05-2.85818E-05-2.85734E-05-6.93415E-09 2.45211E-18-8.60939E-19
 -1      4051 9.52534E-05-2.85803E-05-2.85742E-05-9.84617E-09 9.12275E-19 2.19301E-19
 -1      4052 9.52552E-05-2.85814E-05-2.85744E-05-4.29889E-09 1.36872E-18-1.15449E-18
 -1      4053 9.52555E-05-2.85802E-05-2.85751E-05-7.72314E-09 5.02922E-19-1.98815E-19
 -1      4054 8.29279E-05-1.95082E-05-2.71837E-05-1.84328E-06 7.24784E-19-8.39796E-20
 -1      4055 8.08712E-05-1.86411E-05-2.67117E-05-2.75009E-06 3.82275E-19 8.56639E-19
 -1      4056 8.42283E-05-2.04884E-05-2.72734E-05-3.14045E-06 5.52200E-19-1.53523E-19
 -1      4057 1.07657E-04-4.17423E-05-2.82815E-05-9.69699E-06 6.24108E-19-2.91697E-20
 -1      4058 8.07267E-05-1.89410E-05-2.64263E-05-4.85893E-06 5.95394E-19 8.83330E-20
 -1      4059 9.52572E-05-2.85789E-05-2.85764E-05 5.52128E-09 1.72080E-19-4.65279E-18
 -1      4060 8.95536E-05-2.35592E-05-2.82787E-05-9.64754E-07 1.20345E-19-5.98515E-19
 -1      4061 8.86085E-05-2.30539E-05-2.81288E-05-1.43019E-06 5.04719E-19-2.64422E-19
 -1      4062 1.05031E-04-4.06603E-05-2.76589E-05-1.28129E-05 4.44520E-19-9.10402E-19
 -1      4063 9.27747E-05-2.58828E-05-2.86699E-05 2.48243E-07 2.75412E-19 1.35644E-18
 -1      4064 9.23597E-05-2.55506E-05-2.86435E-05 2.01761E-07 4.18679E-19 1.03679E-18
 -1      4065 9.38988E-05-2.94574E-05-2.75775E-05-8.88984E-06 3.73616E-19 3.01105E-19
 -1      4066 9.29178E-05-2.83436E-05-2.76859E-05-7.94048E-06 4.05718E-19 5.07239E-19
 -1      4067 9.26944E-05-2.76219E-05-2.78547E-05-6.75088E-06 4.84629E-19 4.56722E-19
 -1      4068 9.21898E-05-2.69754E-05-2.79655E-05-5.93516E-06 7.15322E-19 5.90653E-19
 -1      4069 9.13220E-05-2.69324E-05-2.75962E-05-7.68620E-06 7.69371E-19-3.55125E-20
 -1      4070 9.22514E-05-2.66119E-05-2.81056E-05-4.99113E-06 5.58292E-19 8.38967E-19
 -1      4071 9.20558E-05-2.62926E-05-2.82002E-05-4.32968E-06-3.05019E-19 7.00130E-19
 -1      4072 9.11411E-05-2.59487E-05-2.79280E-05-5.50716E-06 6.17507E-19-3.28021E-19
 -1      4073 9.22626E-05-2.61717E-05-2.83072E-05-3.62219E-06-4.66262E-19 6.72602E-19
 -1      4074 9.22553E-05-2.60670E-05-2.83805E-05-3.10866E-06-1.00612E-19 4.08299E-19
 -1      4075 9.14009E-05-2.55921E-05-2.81884E-05-3.86053E-06-1.53244E-19-1.30873E-19
 -1      4076 9.25217E-05-2.60944E-05-2.84574E-05-2.59289E-06 9.94581E-20 6.98848E-20
 -1      4077 9.26181E-05-2.61221E-05-2.85099E-05-2.20488E-06 7.03068E-19 1.10557E-19
 -1      4078 9.18629E-05-2.56066E-05-2.83800E-05-2.66182E-06-1.77752E-19-1.00510E-18
 -1      4079 9.28948E-05-2.62337E-05-2.85619E-05-1.83770E-06 5.92732E-19-1.81482E-19
 -1      4080 9.30394E-05-2.63356E-05-2.85966E-05-1.54987E-06-4.12558E-19-2.38759E-19
 -1      4081 9.23967E-05-2.58338E-05-2.85130E-05-1.81064E-06 3.20438E-19-1.68270E-18
 -1      4082 9.32992E-05-2.64879E-05-2.86292E-05-1.29271E-06-8.70811E-19 7.05956E-20
 -1      4083 9.34577E-05-2.66248E-05-2.86498E-05-1.08186E-06-7.99425E-19-3.49989E-19
 -1      4084 9.29252E-05-2.61646E-05-2.85998E-05-1.21776E-06-5.36116E-19-2.52162E-18
 -1      4085 9.36871E-05-2.67893E-05-2.86681E-05-9.04089E-07-5.53314E-19-1.33869E-19
 -1      4086 9.38397E-05-2.69363E-05-2.86783E-05-7.50684E-07-2.80036E-19-4.79522E-19
 -1      4087 9.34080E-05-2.65308E-05-2.86518E-05-8.11172E-07-7.41169E-19-1.50738E-18
 -1      4088 9.40337E-05-2.70957E-05-2.86865E-05-6.29261E-07 4.75148E-19-7.46750E-19
 -1      4089 9.41698E-05-2.72374E-05-2.86894E-05-5.18010E-07 9.24181E-19-1.34343E-19
 -1      4090 9.38267E-05-2.68913E-05-2.86788E-05-5.36089E-07 4.92617E-19-1.33444E-18
 -1      4091 9.43286E-05-2.73824E-05-2.86907E-05-4.35828E-07 6.20862E-19 4.55720E-19
 -1      4092 9.44440E-05-2.75104E-05-2.86888E-05-3.55347E-07 3.62470E-19 5.87923E-19
 -1      4093 9.41762E-05-2.72221E-05-2.86885E-05-3.51941E-07 1.39219E-18-4.36955E-19
 -1      4094 9.45704E-05-2.76364E-05-2.86859E-05-3.00026E-07-3.03790E-19 4.30128E-19
 -1      4095 9.46644E-05-2.77469E-05-2.86811E-05-2.41858E-07 7.14649E-20 1.37628E-19
 -1      4096 9.44590E-05-2.75117E-05-2.86871E-05-2.29519E-07-1.74644E-19 3.92987E-19
 -1      4097 9.47626E-05-2.78527E-05-2.86758E-05-2.04821E-07 2.65643E-19-7.36265E-20
 -1      4098 9.48366E-05-2.79449E-05-2.86694E-05-1.62819E-07 1.53061E-19 4.49459E-19
 -1      4099 9.46819E-05-2.77565E-05-2.86788E-05-1.48530E-07 8.38100E-20-5.95330E-19
 -1      4100 9.49112E-05-2.80313E-05-2.86630E-05-1.38150E-07-7.84190E-20 6.50156E-19
 -1      4101 9.49677E-05-2.81061E-05-2.86561E-05-1.07882E-07-2.92201E-19 8.05910E-19
 -1      4102 9.48534E-05-2.79579E-05-2.86670E-05-9.51395E-08-5.38854E-20-2.04447E-20
 -1      4103 9.50230E-05-2.81750E-05-2.86493E-05-9.14960E-08-3.06039E-19 1.33933E-18
 -1      4104 9.50651E-05-2.82341E-05-2.86426E-05-6.97973E-08-3.57317E-19 1.12514E-18
 -1      4105 9.49823E-05-2.81194E-05-2.86537E-05-6.00015E-08 1.20100E-19 1.38396E-18
 -1      4106 9.51049E-05-2.82877E-05-2.86361E-05-5.90552E-08-4.02304E-19 1.38755E-18
 -1      4107 9.51352E-05-2.83335E-05-2.86299E-05-4.35017E-08-5.24169E-19 1.36429E-18
 -1      4108 9.50769E-05-2.82464E-05-2.86404E-05-3.68846E-08-1.39383E-20 7.05234E-19
 -1      4109 9.51632E-05-2.83743E-05-2.86239E-05-3.65662E-08-1.40886E-18 8.01129E-19
 -1      4110 9.51843E-05-2.84089E-05-2.86184E-05-2.55734E-08-1.04475E-18-4.53938E-20
 -1      4111 9.51445E-05-2.83441E-05-2.86279E-05-2.17872E-08-1.39089E-18-2.14799E-19
 -1      4112 9.52033E-05-2.84394E-05-2.86132E-05-2.11434E-08-1.03990E-18-6.99271E-19
 -1      4113 9.52173E-05-2.84649E-05-2.86084E-05-1.34810E-08-1.30481E-18-7.45854E-19
 -1      4114 9.51912E-05-2.84176E-05-2.86167E-05-1.19914E-08-1.40467E-18-1.05442E-18
 -1      4115 9.52296E-05-2.84871E-05-2.86040E-05-1.07338E-08-1.36417E-18-3.50373E-19
 -1      4116 9.52385E-05-2.85055E-05-2.86000E-05-5.49645E-09-1.56323E-18 1.82230E-19
 -1      4117 9.52223E-05-2.84717E-05-2.86070E-05-5.68034E-09-9.73194E-19-1.39449E-18
 -1      4118 9.52458E-05-2.85212E-05-2.85963E-05-3.87020E-09-1.38349E-18-1.25602E-19
 -1      4119 9.52509E-05-2.85341E-05-2.85930E-05-3.87704E-10-7.99385E-19-9.25428E-19
 -1      4120 9.52418E-05-2.85107E-05-2.85989E-05-1.69229E-09-1.41628E-18-1.64566E-18
 -1      4121 9.52549E-05-2.85449E-05-2.85900E-05 5.03582E-10-1.18379E-19-1.26754E-18
 -1      4122 9.52574E-05-2.85536E-05-2.85874E-05 2.73067E-09 3.21055E-19-1.06331E-18
 -1      4123 9.52531E-05-2.85379E-05-2.85921E-05 7.48383E-10-1.28420E-18-2.56403E-18
 -1      4124 9.52590E-05-2.85608E-05-2.85849E-05 3.12685E-09 8.77110E-19-1.56046E-18
 -1      4125 9.52597E-05-2.85664E-05-2.85828E-05 4.48141E-09 6.31047E-19-1.49727E-18
 -1      4126 9.52587E-05-2.85564E-05-2.85867E-05 2.15880E-09-1.54452E-19-2.22773E-18
 -1      4127 9.52597E-05-2.85709E-05-2.85809E-05 4.55296E-09-2.68930E-19-1.57207E-18
 -1      4128 9.52593E-05-2.85743E-05-2.85793E-05 5.21759E-09-5.05412E-19-2.46248E-18
 -1      4129 9.52604E-05-2.85685E-05-2.85822E-05 2.90551E-09-1.59591E-19-3.42348E-18
 -1      4130 9.45810E-05-2.76260E-05-2.86969E-05 2.32570E-07 5.23329E-19-1.20909E-19
 -1      4131 9.44550E-05-2.74825E-05-2.87042E-05 2.68198E-07 2.59369E-19-1.93704E-19
 -1      4132 9.39268E-05-2.69373E-05-2.87122E-05 3.13128E-07 2.78647E-20-3.16422E-19
 -1      4133 9.36950E-05-2.67130E-05-2.87113E-05 3.36715E-07 6.07917E-19 5.10630E-19
 -1      4134 7.88708E-05-1.88831E-05-2.56954E-05-7.72628E-06 5.30249E-19-3.00284E-19
 -1      4135 7.61954E-05-1.83686E-05-2.48302E-05-9.85529E-06 8.75402E-19 1.60010E-20
 -1      4136 7.77740E-05-2.02152E-05-2.46346E-05-1.30290E-05 8.54155E-19-7.35693E-19
 -1      4137 9.12206E-05-2.95799E-05-2.64163E-05-1.41769E-05 9.98573E-19-6.87640E-19
 -1      4138 9.58078E-05-3.21558E-05-2.72600E-05-1.15407E-05 6.71800E-19-8.37279E-19
 -1      4139 9.41040E-05-3.03463E-05-2.73265E-05-1.04617E-05 5.29576E-19-3.55281E-19
 -1      4140 8.82620E-05-2.71055E-05-2.62424E-05-1.33523E-05 1.24866E-18 7.21029E-20
 -1      4141 9.47889E-05-2.78682E-05-2.86818E-05 1.83827E-07 4.06701E-19-3.30651E-20
 -1      4142 9.46973E-05-2.77556E-05-2.86903E-05 2.17035E-07 6.53844E-19 1.01899E-19
 -1      4143 9.46093E-05-2.76571E-05-2.86893E-05 1.36179E-07 2.15118E-19-4.05512E-19
 -1      4144 9.49408E-05-2.80572E-05-2.86656E-05 1.39085E-07 4.91637E-19-3.14359E-19
 -1      4145 9.48751E-05-2.79698E-05-2.86742E-05 1.67841E-07 5.50049E-19 7.95298E-20
 -1      4146 9.48080E-05-2.78903E-05-2.86758E-05 1.13459E-07 6.15360E-19 5.65360E-20
 -1      4147 9.50500E-05-2.82026E-05-2.86498E-05 1.00893E-07-8.42524E-19 6.27822E-20
 -1      4148 9.50036E-05-2.81357E-05-2.86579E-05 1.24664E-07-4.29746E-19-1.81651E-19
 -1      4149 9.49539E-05-2.80732E-05-2.86609E-05 8.88843E-08-2.01616E-19 9.39994E-19
 -1      4150 9.51300E-05-2.83176E-05-2.86346E-05 6.87522E-08 1.31465E-19 5.89714E-19
 -1      4151 9.50968E-05-2.82652E-05-2.86422E-05 8.82067E-08-5.70149E-19-2.85721E-20
 -1      4152 9.50612E-05-2.82174E-05-2.86458E-05 6.56576E-08-7.31509E-19 8.93160E-20
 -1      4153 9.51819E-05-2.83988E-05-2.86218E-05 4.52315E-08-1.25908E-18 1.49695E-18
 -1      4154 9.51608E-05-2.83619E-05-2.86281E-05 5.93980E-08-6.09524E-19 9.20100E-19
 -1      4155 9.51364E-05-2.83264E-05-2.86318E-05 4.59863E-08-8.16976E-19-8.27913E-20
 -1      4156 9.52163E-05-2.84583E-05-2.86109E-05 2.76522E-08-1.05876E-18 1.47717E-18
 -1      4157 9.52027E-05-2.84314E-05-2.86162E-05 3.81452E-08-9.85671E-19 1.33921E-18
 -1      4158 9.51864E-05-2.84055E-05-2.86198E-05 3.06981E-08-7.74556E-19 1.33619E-18
 -1      4159 9.52381E-05-2.85012E-05-2.86018E-05 1.50003E-08-1.60003E-18 1.12435E-18
 -1      4160 9.52298E-05-2.84819E-05-2.86062E-05 2.25328E-08-1.65829E-18 1.22377E-18
 -1      4161 9.52196E-05-2.84634E-05-2.86094E-05 1.90432E-08-1.36794E-18 1.35589E-18
 -1      4162 9.52510E-05-2.85312E-05-2.85943E-05 6.23294E-09 4.63934E-19 3.69956E-19
 -1      4163 9.52463E-05-2.85178E-05-2.85979E-05 1.14587E-08-2.34622E-19 8.88429E-19
 -1      4164 9.52404E-05-2.85050E-05-2.86006E-05 1.05289E-08-9.05848E-19 2.10328E-19
 -1      4165 9.52576E-05-2.85518E-05-2.85883E-05 4.08500E-10-3.04750E-18 1.07758E-18
 -1      4166 9.52554E-05-2.85427E-05-2.85911E-05 3.90878E-09-1.05217E-18 4.99698E-19
 -1      4167 9.52525E-05-2.85341E-05-2.85935E-05 4.56568E-09-5.87905E-19 4.79880E-19
 -1      4168 9.52600E-05-2.85657E-05-2.85833E-05-3.34361E-09-1.93661E-18 8.93055E-19
 -1      4169 9.52596E-05-2.85597E-05-2.85856E-05-1.08954E-09-3.11070E-18 5.22703E-19
 -1      4170 9.52586E-05-2.85542E-05-2.85876E-05 5.04956E-10-2.13653E-18 7.34084E-20
 -1      4171 9.52596E-05-2.85739E-05-2.85796E-05-5.29157E-09-1.10474E-18 1.17383E-19
 -1      4172 9.52603E-05-2.85704E-05-2.85813E-05-4.08757E-09-4.59085E-19-1.28339E-19
 -1      4173 9.52606E-05-2.85673E-05-2.85829E-05-2.06454E-09-9.28978E-19-6.76152E-19
 -1      4174 9.52572E-05-2.85788E-05-2.85765E-05-6.91755E-09-1.97836E-20-7.16224E-19
 -1      4175 9.52585E-05-2.85769E-05-2.85778E-05-6.35574E-09-1.04011E-18 4.81810E-20
 -1      4176 9.52596E-05-2.85753E-05-2.85790E-05-4.02542E-09-5.83117E-19-1.05206E-18
 -1      4177 9.52566E-05-2.85797E-05-2.85759E-05-6.00581E-09 6.23109E-19-1.55601E-18
 -1      4178 9.19431E-05-2.52067E-05-2.86024E-05 6.85756E-08 6.24994E-19 9.04646E-19
 -1      4179 9.13970E-05-2.48152E-05-2.85514E-05-5.70386E-08 1.09411E-19 5.45310E-19
 -1      4180 9.21853E-05-2.54246E-05-2.85939E-05-2.86124E-07 3.35903E-19-6.83502E-19
 -1      4181 9.52567E-05-2.85804E-05-2.85756E-05-4.17733E-09-1.30909E-20-7.39707E-19
 -1      4182 9.43006E-05-2.73196E-05-2.87083E-05 2.79414E-07 1.01777E-19 1.21476E-20
 -1      4183 9.41289E-05-2.71391E-05-2.87128E-05 3.12960E-07-4.48074E-19-6.78902E-19
 -1      4184 9.39918E-05-2.70023E-05-2.87016E-05 1.42390E-07 1.01024E-18 1.23203E-19
 -1      4185 8.30462E-05-2.06454E-05-2.67512E-05-5.87971E-06 6.35058E-19-8.99796E-19
 -1      4186 8.09840E-05-1.97740E-05-2.62611E-05-6.62483E-06 3.61107E-19-4.25105E-19
 -1      4187 8.17452E-05-2.08442E-05-2.60726E-05-8.81463E-06 4.64751E-19-8.68646E-19
 -1      4188 9.08860E-05-2.44279E-05-2.84812E-05-2.98866E-07-3.15257E-19 4.23129E-20
 -1      4189 9.01736E-05-2.39802E-05-2.83926E-05-5.51918E-07-2.90900E-19-6.35183E-19
 -1      4190 9.12591E-05-2.47521E-05-2.84809E-05-7.34013E-07-3.55839E-19-1.03900E-18
 -1      4191 9.34310E-05-2.64637E-05-2.87026E-05 3.13716E-07 2.16226E-19 8.20036E-19
 -1      4192 9.31118E-05-2.61814E-05-2.86917E-05 3.13459E-07 4.38973E-19 1.24552E-18
 -1      4193 9.29352E-05-2.60323E-05-2.86587E-05-3.44863E-08 4.90369E-19 6.23597E-19
 -1      4194 9.35311E-05-2.65605E-05-2.86909E-05 9.23353E-08 4.83794E-19 2.13099E-19
 -1      4195 9.01244E-05-2.40387E-05-2.82960E-05-1.48892E-06-1.44432E-19-1.20395E-18
 -1      4196 9.52588E-05-2.85761E-05-2.85782E-05 5.29634E-09-8.01519E-19-3.27839E-18
 -1      4197 9.52581E-05-2.85777E-05-2.85773E-05 5.48233E-09-8.88613E-19-5.03113E-18
 -1      4198 9.52586E-05-2.85780E-05-2.85774E-05 3.50005E-09-7.29311E-19-4.73373E-18
 -1      4199 9.52598E-05-2.85747E-05-2.85793E-05 3.35205E-09-1.64982E-18-4.16046E-18
 -1      4200 9.43431E-05-2.73642E-05-2.86992E-05 1.49950E-07 1.48200E-19-1.02556E-18
 -1      4201 8.19645E-05-2.22990E-05-2.55152E-05-1.22479E-05 1.06360E-18-3.23092E-19
 -1      4202 9.52590E-05-2.85782E-05-2.85775E-05 9.82155E-10-8.60505E-19-2.56917E-18
 -1      4203 1.01216E-04-3.83675E-05-2.69176E-05-1.56206E-05 2.92522E-19-1.32683E-18
 -1      4204 9.52585E-05-2.85789E-05-2.85769E-05-3.27712E-09-3.88488E-19-1.64360E-18
 -1      4205 9.18061E-05-2.84738E-05-2.71550E-05-1.05204E-05 1.12233E-18-2.07920E-20
 -1      4206 8.87780E-05-2.33529E-05-2.80096E-05-2.69357E-06 4.37750E-19-1.19371E-18
 -1      4207 8.78958E-05-2.26441E-05-2.79548E-05-2.08362E-06 3.49807E-19-1.16790E-19
 -1      4208 8.67165E-05-2.21345E-05-2.77237E-05-2.83408E-06 4.29323E-19-5.64739E-19
 -1      4209 8.59329E-05-2.18130E-05-2.74649E-05-3.82994E-06 3.26162E-19-2.94373E-19
 -1      4210 8.45228E-05-2.13585E-05-2.71144E-05-5.00577E-06 5.38380E-19-6.26598E-19
 -1      4211 8.72368E-05-2.28058E-05-2.75837E-05-4.52343E-06 6.65055E-19-1.29305E-18
 -1      4212 8.50724E-05-2.20500E-05-2.69816E-05-6.47934E-06 3.65498E-19-7.67018E-19
 -1      4213 9.52594E-05-2.85772E-05-2.85781E-05-7.40776E-10-3.46999E-19-2.16080E-18
 -1      4214 9.52597E-05-2.85766E-05-2.85785E-05-2.58571E-09-1.23702E-19-1.93251E-18
 -1      4215 9.52608E-05-2.85735E-05-2.85803E-05-1.29650E-09-5.27636E-19-1.18190E-18
 -1      4216 9.52601E-05-2.85758E-05-2.85790E-05 1.76346E-09-1.58005E-18-4.13521E-18
 -1      4217 9.49612E-05-2.80989E-05-2.86568E-05 3.97441E-09-6.31689E-19 3.89149E-19
 -1      4218 9.48967E-05-2.80174E-05-2.86641E-05 1.20281E-08 2.94971E-19 5.97888E-19
 -1      4219 9.43847E-05-2.74459E-05-2.86914E-05-6.39997E-08 5.37902E-19-8.27887E-19
 -1      4220 9.42279E-05-2.72858E-05-2.86941E-05-7.10718E-08 7.73265E-19-1.43132E-19
 -1      4221 8.93956E-05-2.45544E-05-2.77795E-05-5.09601E-06 5.00000E-19-8.79708E-19
 -1      4222 8.95116E-05-2.44053E-05-2.79383E-05-4.13675E-06 4.99731E-19-4.70019E-19
 -1      4223 9.01846E-05-2.45974E-05-2.81077E-05-3.36102E-06 1.35745E-19-9.94378E-19
 -1      4224 9.04328E-05-2.46419E-05-2.82251E-05-2.66657E-06-3.16026E-19-5.71258E-19
 -1      4225 9.10319E-05-2.49129E-05-2.83399E-05-2.15283E-06-2.17961E-19-2.77771E-19
 -1      4226 9.13288E-05-2.50634E-05-2.84222E-05-1.66290E-06-1.85259E-19-8.76602E-19
 -1      4227 9.18301E-05-2.53543E-05-2.84948E-05-1.34382E-06 4.92237E-20-1.05067E-18
 -1      4228 9.21287E-05-2.55531E-05-2.85496E-05-1.00516E-06-7.31916E-20-1.44232E-18
 -1      4229 9.25419E-05-2.58366E-05-2.85936E-05-8.12352E-07 1.94268E-19-1.26083E-18
 -1      4230 9.28169E-05-2.60489E-05-2.86276E-05-5.82782E-07 1.33427E-19-7.68510E-19
 -1      4231 9.31536E-05-2.63113E-05-2.86521E-05-4.71637E-07-3.50491E-19-1.03909E-18
 -1      4232 9.33932E-05-2.65161E-05-2.86709E-05-3.18911E-07-4.19396E-19-5.98441E-19
 -1      4233 9.36592E-05-2.67458E-05-2.86820E-05-2.61224E-07 5.48738E-19-3.41802E-19
 -1      4234 9.38601E-05-2.69315E-05-2.86903E-05-1.61049E-07 1.92494E-18 1.22278E-19
 -1      4235 9.40645E-05-2.71244E-05-2.86927E-05-1.36032E-07 1.47580E-18-2.90868E-19
 -1      4236 9.45142E-05-2.75820E-05-2.86885E-05-2.22838E-08-3.42984E-20-7.80152E-19
 -1      4237 9.46327E-05-2.77121E-05-2.86829E-05-2.47030E-08-4.05822E-19-3.67374E-19
 -1      4238 9.47329E-05-2.78239E-05-2.86775E-05 1.88640E-09 2.23278E-19-7.21197E-19
 -1      4239 9.48210E-05-2.79277E-05-2.86706E-05-4.83318E-09 7.37039E-19 5.12687E-20
 -1      4240 9.50172E-05-2.81695E-05-2.86500E-05 1.46842E-08-4.43494E-19-1.32591E-19
 -1      4241 9.50653E-05-2.82351E-05-2.86426E-05 6.80638E-09 1.40446E-19-5.27782E-19
 -1      4242 9.51055E-05-2.82892E-05-2.86361E-05 1.35152E-08-3.67706E-19-8.99738E-19
 -1      4243 9.51373E-05-2.83364E-05-2.86297E-05 6.87236E-09-1.21008E-18-9.26299E-19
 -1      4244 9.51654E-05-2.83773E-05-2.86238E-05 1.10357E-08-1.73923E-18-8.42556E-19
 -1      4245 9.51870E-05-2.84124E-05-2.86182E-05 5.67307E-09-1.53025E-18-3.14578E-19
 -1      4246 9.52060E-05-2.84427E-05-2.86130E-05 8.29733E-09-7.73562E-19-5.62983E-19
 -1      4247 9.52200E-05-2.84682E-05-2.86082E-05 4.16234E-09-1.14215E-18-4.29631E-19
 -1      4248 9.52322E-05-2.84902E-05-2.86038E-05 5.80424E-09-1.95464E-18-9.32774E-19
 -1      4249 9.52408E-05-2.85084E-05-2.85998E-05 2.74991E-09-8.26121E-19-9.82092E-19
 -1      4250 9.52481E-05-2.85239E-05-2.85961E-05 3.76447E-09-6.60511E-19-1.05984E-18
 -1      4251 9.52529E-05-2.85365E-05-2.85929E-05 1.59939E-09-1.24373E-18-9.21384E-19
 -1      4252 9.52568E-05-2.85471E-05-2.85899E-05 2.21615E-09-1.54940E-18-1.14707E-18
 -1      4253 9.52590E-05-2.85558E-05-2.85871E-05 7.22442E-10-1.06042E-18-2.00537E-18
 -1      4254 9.52605E-05-2.85628E-05-2.85847E-05 1.08583E-09-4.51640E-19-2.32907E-18
 -1      4255 8.54134E-05-2.44181E-05-2.61294E-05-1.20566E-05 8.14406E-19 3.32950E-19
 -1      4256 8.90752E-05-2.65705E-05-2.67439E-05-1.11090E-05 1.11163E-18-3.14553E-19
 -1      4257 9.52608E-05-2.85680E-05-2.85826E-05 1.23912E-10-4.19101E-19-2.63621E-18
 -1      4258 8.62151E-05-2.32633E-05-2.69862E-05-7.71268E-06 8.27577E-19-1.08966E-18
 -1      4259 8.49674E-05-2.27961E-05-2.66306E-05-8.70373E-06 6.09097E-19-3.56335E-19
 -1      4260 8.89347E-05-2.59395E-05-2.70310E-05-9.47743E-06 1.08045E-18-9.91570E-20
 -1      4261 8.29795E-05-2.21726E-05-2.60891E-05-1.01389E-05 7.34743E-19-1.87350E-19
 -1      4262 8.87898E-05-2.49705E-05-2.73310E-05-7.51482E-06 1.06930E-18-7.00534E-19
 -1      4263 8.86674E-05-2.45081E-05-2.75340E-05-6.25300E-06 6.54654E-19-8.97089E-19
 -1      4264 9.52606E-05-2.85737E-05-2.85800E-05 1.67056E-09-1.02927E-18-3.45595E-18
 -1      4265 9.52606E-05-2.85695E-05-2.85819E-05 1.60136E-09-9.00753E-20-3.20028E-18
 -3
    1PSTEP                         4           1           1          
  100CL  101 1.000000000        4265                     0    1           1
 -4  ERROR       1    1
 -5  STR(%)      1    1    0    0
 -1         1 1.19816E+01
 -1         2 2.45650E+01
 -1         3 1.51405E-04
 -1         4 1.72500E-04
 -1         5 1.24971E+01
 -1         6 1.26756E+01
 -1         7 1.26756E+01
 -1         8 3.70775E+00
 -1         9 2.01270E+00
 -1        10 1.57573E+00
 -1        11 1.37312E+00
 -1        12 1.23403E+00
 -1        13 1.09993E+00
 -1        14 9.36351E-01
 -1        15 7.28086E-01
 -1        16 5.05940E-01
 -1        17 9.72233E-01
 -1        18 1.48247E+00
 -1        19 1.96921E+00
 -1        20 2.55387E+00
 -1        21 3.69490E+00
 -1        22 7.86105E+00
 -1        23 1.26756E+01
 -1        24 3.88183E+00
 -1        25 2.75308E+00
 -1        26 1.56826E+00
 -1        27 9.70635E-01
 -1        28 9.55655E-01
 -1        29 1.27503E+00
 -1        30 1.70858E+00
 -1        31 2.19744E+00
 -1        32 2.52241E+00
 -1        33 2.53947E+00
 -1        34 2.61383E+00
 -1        35 2.61383E+00
 -1        36 2.44632E+00
 -1        37 1.98714E+00
 -1        38 1.38782E+00
 -1        39 9.33931E-01
 -1        40 7.20929E-01
 -1        41 4.83163E-01
 -1        42 4.20403E-01
 -1        43 3.48286E-01
 -1        44 3.22678E-01
 -1        45 2.90187E-01
 -1        46 2.37527E-01
 -1        47 1.79999E-01
 -1        48 1.48633E-01
 -1        49 1.31511E-01
 -1        50 1.10006E-01
 -1        51 8.79036E-02
 -1        52 6.74587E-02
 -1        53 5.08987E-02
 -1        54 4.40714E-02
 -1        55 3.68125E-02
 -1        56 2.98435E-02
 -1        57 2.35649E-02
 -1        58 1.81559E-02
 -1        59 1.36531E-02
 -1        60 1.12982E-02
 -1        61 9.27298E-03
 -1        62 7.43557E-03
 -1        63 5.82864E-03
 -1        64 4.45851E-03
 -1        65 3.42340E-03
 -1        66 2.53487E-03
 -1        67 1.94844E-03
 -1        68 1.67254E-03
 -1        69 1.36353E-03
 -1        70 1.02757E-03
 -1        71 7.71621E-04
 -1        72 1.24971E+01
 -1        73 2.73668E+00
 -1        74 1.85196E+00
 -1        75 1.80792E+00
 -1        76 1.86703E+00
 -1        77 2.55216E+00
 -1        78 3.18639E+00
 -1        79 3.52339E+00
 -1        80 3.72396E+00
 -1        81 6.69079E+00
 -1        82 1.01453E+01
 -1        83 1.10711E+01
 -1        84 1.10711E+01
 -1        85 7.75899E+00
 -1        86 3.85284E+00
 -1        87 3.65390E+00
 -1        88 3.82860E+00
 -1        89 3.82860E+00
 -1        90 3.28109E+00
 -1        91 2.70906E+00
 -1        92 2.00770E+00
 -1        93 1.47429E+00
 -1        94 1.04612E+00
 -1        95 7.23320E-01
 -1        96 5.06351E-01
 -1        97 3.78934E-01
 -1        98 2.57288E-01
 -1        99 1.82134E-01
 -1       100 1.27497E-01
 -1       101 8.80460E-02
 -1       102 5.97248E-02
 -1       103 4.13398E-02
 -1       104 3.33891E-02
 -1       105 2.66720E-02
 -1       106 2.10407E-02
 -1       107 1.63821E-02
 -1       108 1.31357E-02
 -1       109 1.14070E-02
 -1       110 9.56110E-03
 -1       111 7.91708E-03
 -1       112 6.43150E-03
 -1       113 5.12799E-03
 -1       114 4.11366E-03
 -1       115 3.30050E-03
 -1       116 2.38736E-03
 -1       117 1.69632E-03
 -1       118 1.38254E-03
 -1       119 9.98723E-04
 -1       120 5.83266E-04
 -1       121 2.59467E-04
 -1       122 2.59467E-04
 -1       123 1.93721E-04
 -1       124 8.29399E-05
 -1       125 1.20821E-04
 -1       126 1.78763E-04
 -1       127 2.11724E-04
 -1       128 2.20470E-04
 -1       129 2.20470E-04
 -1       130 2.10190E-04
 -1       131 1.74634E-04
 -1       132 1.18011E-04
 -1       133 8.43828E-05
 -1       134 1.93688E-04
 -1       135 3.43077E-04
 -1       136 4.03555E-04
 -1       137 2.61613E+01
 -1       138 2.84502E+01
 -1       139 2.84502E+01
 -1       140 2.64851E+01
 -1       141 1.32330E+01
 -1       142 1.29893E+01
 -1       143 1.31455E+01
 -1       144 1.40258E+01
 -1       145 1.40258E+01
 -1       146 1.53731E+01
 -1       147 4.13565E+01
 -1       148 4.13565E+01
 -1       149 2.56911E+01
 -1       150 2.56911E+01
 -1       151 2.41853E+01
 -1       152 2.59419E+01
 -1       153 3.63841E+01
 -1       154 3.63841E+01
 -1       155 1.36592E+01
 -1       156 1.18693E+01
 -1       157 1.19816E+01
 -1       158 1.25678E+01
 -1       159 1.25678E+01
 -1       160 1.55584E+01
 -1       161 4.26294E+01
 -1       162 4.26294E+01
 -1       163 2.45650E+01
 -1       164 6.05084E+00
 -1       165 2.48857E+00
 -1       166 1.78991E+00
 -1       167 1.47973E+00
 -1       168 1.30422E+00
 -1       169 1.15943E+00
 -1       170 9.94213E-01
 -1       171 7.89966E-01
 -1       172 5.83440E-01
 -1       173 6.22474E-01
 -1       174 1.17397E+00
 -1       175 1.65124E+00
 -1       176 2.09527E+00
 -1       177 2.81473E+00
 -1       178 3.88856E+00
 -1       179 1.24971E+01
 -1       180 3.88183E+00
 -1       181 2.75308E+00
 -1       182 1.56826E+00
 -1       183 1.14453E+00
 -1       184 9.54094E-01
 -1       185 1.14060E+00
 -1       186 1.39786E+00
 -1       187 1.73767E+00
 -1       188 2.19744E+00
 -1       189 2.52241E+00
 -1       190 2.53947E+00
 -1       191 2.61383E+00
 -1       192 2.44632E+00
 -1       193 1.98714E+00
 -1       194 1.47477E+00
 -1       195 1.05728E+00
 -1       196 7.42430E-01
 -1       197 4.83163E-01
 -1       198 4.20403E-01
 -1       199 3.48286E-01
 -1       200 3.22678E-01
 -1       201 2.90187E-01
 -1       202 2.37527E-01
 -1       203 1.89636E-01
 -1       204 1.55603E-01
 -1       205 1.31511E-01
 -1       206 1.10006E-01
 -1       207 8.79036E-02
 -1       208 6.87145E-02
 -1       209 5.32228E-02
 -1       210 4.40714E-02
 -1       211 3.68125E-02
 -1       212 2.98435E-02
 -1       213 2.35649E-02
 -1       214 1.81559E-02
 -1       215 1.40165E-02
 -1       216 1.12982E-02
 -1       217 9.27298E-03
 -1       218 7.43557E-03
 -1       219 5.88764E-03
 -1       220 4.68499E-03
 -1       221 3.67127E-03
 -1       222 2.88905E-03
 -1       223 2.18794E-03
 -1       224 1.67254E-03
 -1       225 1.36353E-03
 -1       226 1.02757E-03
 -1       227 7.71621E-04
 -1       228 2.73668E+00
 -1       229 1.85196E+00
 -1       230 1.55492E+00
 -1       231 1.80792E+00
 -1       232 2.07950E+00
 -1       233 2.55216E+00
 -1       234 3.18639E+00
 -1       235 3.52339E+00
 -1       236 3.85617E+00
 -1       237 6.69079E+00
 -1       238 1.01453E+01
 -1       239 1.10711E+01
 -1       240 7.75899E+00
 -1       241 3.85284E+00
 -1       242 2.98395E+00
 -1       243 3.65390E+00
 -1       244 3.82860E+00
 -1       245 3.28109E+00
 -1       246 2.70906E+00
 -1       247 2.06223E+00
 -1       248 1.56390E+00
 -1       249 1.14122E+00
 -1       250 8.09455E-01
 -1       251 5.66641E-01
 -1       252 4.03999E-01
 -1       253 2.63079E-01
 -1       254 1.82735E-01
 -1       255 1.30373E-01
 -1       256 9.19910E-02
 -1       257 6.40384E-02
 -1       258 4.51113E-02
 -1       259 3.33891E-02
 -1       260 2.66720E-02
 -1       261 2.10407E-02
 -1       262 1.63821E-02
 -1       263 1.31357E-02
 -1       264 1.14070E-02
 -1       265 9.56110E-03
 -1       266 7.91708E-03
 -1       267 6.43150E-03
 -1       268 5.12799E-03
 -1       269 4.11366E-03
 -1       270 3.30050E-03
 -1       271 2.40761E-03
 -1       272 1.76632E-03
 -1       273 1.38254E-03
 -1       274 9.98723E-04
 -1       275 5.91273E-04
 -1       276 3.23506E-04
 -1       277 3.23506E-04
 -1       278 2.80738E-04
 -1       279 1.95406E-04
 -1       280 3.11822E-04
 -1       281 3.82233E-04
 -1       282 4.08923E-04
 -1       283 4.08923E-04
 -1       284 4.08363E-04
 -1       285 3.77259E-04
 -1       286 3.07751E-04
 -1       287 1.92240E-04
 -1       288 2.79056E-04
 -1       289 2.79056E-04
 -1       290 4.05682E-04
 -1       291 2.96865E+01
 -1       292 3.18319E+01
 -1       293 3.18319E+01
 -1       294 2.79894E+01
 -1       295 1.32330E+01
 -1       296 1.29893E+01
 -1       297 1.29302E+01
 -1       298 1.31455E+01
 -1       299 1.40258E+01
 -1       300 1.24070E+01
 -1       301 1.68369E+01
 -1       302 4.13565E+01
 -1       303 3.64989E+01
 -1       304 2.87762E+01
 -1       305 2.87762E+01
 -1       306 2.76838E+01
 -1       307 3.49391E+01
 -1       308 3.63841E+01
 -1       309 1.36592E+01
 -1       310 1.10993E+01
 -1       311 1.18693E+01
 -1       312 1.19816E+01
 -1       313 1.16545E+01
 -1       314 1.25678E+01
 -1       315 1.12589E+01
 -1       316 1.69405E+01
 -1       317 4.26294E+01
 -1       318 3.76956E+01
 -1       319 2.96865E+01
 -1       320 1.21517E+00
 -1       321 2.52281E+00
 -1       322 1.09080E+00
 -1       323 1.01560E+00
 -1       324 9.48825E-01
 -1       325 8.76589E-01
 -1       326 7.69612E-01
 -1       327 5.47202E-01
 -1       328 8.74704E-01
 -1       329 1.43575E+00
 -1       330 1.79872E+00
 -1       331 2.40851E+00
 -1       332 2.12907E+00
 -1       333 1.73119E+00
 -1       334 1.60150E+00
 -1       335 1.41323E+00
 -1       336 1.05160E+00
 -1       337 8.78650E-01
 -1       338 9.92687E-01
 -1       339 1.20045E+00
 -1       340 1.40864E+00
 -1       341 1.62028E+00
 -1       342 1.80987E+00
 -1       343 1.84620E+00
 -1       344 1.81350E+00
 -1       345 1.84886E+00
 -1       346 1.70630E+00
 -1       347 1.40839E+00
 -1       348 1.14583E+00
 -1       349 8.34123E-01
 -1       350 5.60445E-01
 -1       351 3.30722E-01
 -1       352 1.77828E-01
 -1       353 1.83551E-01
 -1       354 2.14010E-01
 -1       355 2.08970E-01
 -1       356 1.83862E-01
 -1       357 1.62216E-01
 -1       358 1.39956E-01
 -1       359 1.16993E-01
 -1       360 9.26340E-02
 -1       361 6.97945E-02
 -1       362 5.32228E-02
 -1       363 3.98017E-02
 -1       364 2.87140E-02
 -1       365 2.26216E-02
 -1       366 1.91886E-02
 -1       367 1.58240E-02
 -1       368 1.27269E-02
 -1       369 9.99849E-03
 -1       370 7.86211E-03
 -1       371 6.75429E-03
 -1       372 5.63125E-03
 -1       373 4.56633E-03
 -1       374 3.67350E-03
 -1       375 2.91005E-03
 -1       376 2.24540E-03
 -1       377 1.72498E-03
 -1       378 1.26697E-03
 -1       379 9.45869E-04
 -1       380 6.76495E-04
 -1       381 2.04069E+00
 -1       382 2.51819E+00
 -1       383 2.81621E+00
 -1       384 3.45447E+00
 -1       385 4.05595E+00
 -1       386 4.18037E+00
 -1       387 3.54642E+00
 -1       388 7.95835E+00
 -1       389 1.00184E+01
 -1       390 7.09185E+00
 -1       391 4.03381E+00
 -1       392 4.74073E+00
 -1       393 4.77792E+00
 -1       394 4.32170E+00
 -1       395 3.50818E+00
 -1       396 3.24762E+00
 -1       397 2.86789E+00
 -1       398 2.25586E+00
 -1       399 1.71346E+00
 -1       400 1.25218E+00
 -1       401 8.90963E-01
 -1       402 6.21455E-01
 -1       403 4.34775E-01
 -1       404 2.81823E-01
 -1       405 1.86591E-01
 -1       406 1.30373E-01
 -1       407 9.19910E-02
 -1       408 6.40384E-02
 -1       409 4.51113E-02
 -1       410 2.85269E-02
 -1       411 2.02842E-02
 -1       412 1.75441E-02
 -1       413 1.47800E-02
 -1       414 1.21762E-02
 -1       415 9.74916E-03
 -1       416 7.69222E-03
 -1       417 6.60275E-03
 -1       418 5.55998E-03
 -1       419 4.55458E-03
 -1       420 3.67222E-03
 -1       421 2.94370E-03
 -1       422 2.18442E-03
 -1       423 1.64712E-03
 -1       424 1.19480E-03
 -1       425 9.16412E-04
 -1       426 5.91273E-04
 -1       427 3.42260E-04
 -1       428 5.62554E-04
 -1       429 5.62554E-04
 -1       430 4.17958E-04
 -1       431 5.18500E-04
 -1       432 5.60990E-04
 -1       433 5.60990E-04
 -1       434 5.57745E-04
 -1       435 5.57745E-04
 -1       436 5.12327E-04
 -1       437 4.14078E-04
 -1       438 3.27181E-04
 -1       439 5.36373E-04
 -1       440 3.18319E+01
 -1       441 3.88546E+01
 -1       442 3.88546E+01
 -1       443 1.89876E+01
 -1       444 1.12602E+01
 -1       445 1.16517E+00
 -1       446 1.02819E+01
 -1       447 1.15904E+01
 -1       448 1.12975E+01
 -1       449 8.55004E+00
 -1       450 7.54655E+00
 -1       451 1.39093E+01
 -1       452 2.47131E+01
 -1       453 2.87988E+01
 -1       454 3.88143E+01
 -1       455 3.88143E+01
 -1       456 2.73061E+01
 -1       457 2.23652E+01
 -1       458 1.28747E+01
 -1       459 7.50458E+00
 -1       460 8.92667E+00
 -1       461 1.02962E+01
 -1       462 1.12611E+01
 -1       463 1.07696E+01
 -1       464 8.25373E+00
 -1       465 8.71540E+00
 -1       466 1.41820E+01
 -1       467 2.55724E+01
 -1       468 2.60094E+01
 -1       469 6.57293E+00
 -1       470 8.62679E+00
 -1       471 2.65303E+00
 -1       472 1.01652E+00
 -1       473 9.69239E-01
 -1       474 9.37130E-01
 -1       475 9.21176E-01
 -1       476 9.53475E-01
 -1       477 1.43552E+00
 -1       478 1.77724E+00
 -1       479 2.65303E+00
 -1       480 2.55384E+00
 -1       481 7.12366E-01
 -1       482 7.00628E+00
 -1       483 6.96465E-01
 -1       484 7.83689E-01
 -1       485 9.81931E-01
 -1       486 1.19808E+00
 -1       487 1.34222E+00
 -1       488 1.42937E+00
 -1       489 1.44451E+00
 -1       490 1.35274E+00
 -1       491 1.38268E+00
 -1       492 1.39839E+00
 -1       493 1.29321E+00
 -1       494 1.16863E+00
 -1       495 9.44705E-01
 -1       496 6.98695E-01
 -1       497 4.97523E-01
 -1       498 3.22295E-01
 -1       499 2.68943E-01
 -1       500 2.10282E-01
 -1       501 1.94624E-01
 -1       502 1.88376E-01
 -1       503 1.70747E-01
 -1       504 1.51081E-01
 -1       505 1.29573E-01
 -1       506 1.06756E-01
 -1       507 8.41598E-02
 -1       508 6.36900E-02
 -1       509 4.62553E-02
 -1       510 3.21000E-02
 -1       511 2.10668E-02
 -1       512 1.48767E-02
 -1       513 1.11805E-02
 -1       514 9.99176E-03
 -1       515 8.61767E-03
 -1       516 7.21286E-03
 -1       517 5.87520E-03
 -1       518 4.84837E-03
 -1       519 4.19389E-03
 -1       520 3.50027E-03
 -1       521 2.82131E-03
 -1       522 2.25918E-03
 -1       523 1.74037E-03
 -1       524 1.28615E-03
 -1       525 9.06562E-04
 -1       526 3.88207E+00
 -1       527 4.94909E+00
 -1       528 6.24790E+00
 -1       529 4.29197E+00
 -1       530 7.09185E+00
 -1       531 9.69748E+00
 -1       532 7.59819E+00
 -1       533 4.32170E+00
 -1       534 3.75916E+00
 -1       535 2.97848E+00
 -1       536 2.25820E+00
 -1       537 1.71346E+00
 -1       538 1.25218E+00
 -1       539 9.06114E-01
 -1       540 6.50012E-01
 -1       541 4.64129E-01
 -1       542 3.18339E-01
 -1       543 2.20771E-01
 -1       544 1.51044E-01
 -1       545 1.01484E-01
 -1       546 6.65582E-02
 -1       547 4.32725E-02
 -1       548 2.82387E-02
 -1       549 2.02842E-02
 -1       550 1.75441E-02
 -1       551 1.47800E-02
 -1       552 1.21762E-02
 -1       553 9.74916E-03
 -1       554 7.69222E-03
 -1       555 6.60275E-03
 -1       556 5.55998E-03
 -1       557 4.55458E-03
 -1       558 3.67222E-03
 -1       559 2.94370E-03
 -1       560 2.18442E-03
 -1       561 1.59299E-03
 -1       562 1.14499E-03
 -1       563 6.53779E-04
 -1       564 7.11272E-04
 -1       565 1.06629E-03
 -1       566 5.37899E-04
 -1       567 7.11272E-04
 -1       568 7.06877E-04
 -1       569 7.07331E-04
 -1       570 7.07331E-04
 -1       571 6.40385E-04
 -1       572 7.02412E-04
 -1       573 5.80220E-04
 -1       574 3.88546E+01
 -1       575 1.37937E+01
 -1       576 3.20222E+00
 -1       577 2.60094E+01
 -1       578 2.28446E+01
 -1       579 1.06379E+00
 -1       580 2.00159E+01
 -1       581 7.73162E+00
 -1       582 1.08062E+01
 -1       583 1.01652E+00
 -1       584 1.08957E+01
 -1       585 4.44861E+00
 -1       586 6.22937E+00
 -1       587 1.72291E+01
 -1       588 2.87988E+01
 -1       589 3.88143E+01
 -1       590 2.73061E+01
 -1       591 1.70904E+01
 -1       592 7.86342E+00
 -1       593 5.00811E+00
 -1       594 3.72860E+00
 -1       595 7.36749E+00
 -1       596 6.29572E+00
 -1       597 8.70441E+00
 -1       598 1.25398E+01
 -1       599 2.65303E+00
 -1       600 9.43066E+00
 -1       601 9.01082E-01
 -1       602 5.89877E-04
 -1       603 1.06629E-03
 -1       604 1.78423E+01
 -1       605 1.30838E+00
 -1       606 1.25533E+00
 -1       607 1.98234E+00
 -1       608 2.16677E+00
 -1       609 1.50411E+01
 -1       610 1.11618E-03
 -1       611 6.05345E-01
 -1       612 8.31182E-01
 -1       613 9.90948E-01
 -1       614 1.20204E+00
 -1       615 1.30979E+00
 -1       616 1.45720E+00
 -1       617 1.51863E+00
 -1       618 1.34029E+00
 -1       619 1.49344E+00
 -1       620 1.35876E+00
 -1       621 1.20034E+00
 -1       622 1.08322E+00
 -1       623 9.16541E-01
 -1       624 6.98695E-01
 -1       625 5.34241E-01
 -1       626 4.24341E-01
 -1       627 3.11993E-01
 -1       628 2.55078E-01
 -1       629 2.27783E-01
 -1       630 1.97962E-01
 -1       631 1.69495E-01
 -1       632 1.43539E-01
 -1       633 1.18026E-01
 -1       634 9.40298E-02
 -1       635 7.25030E-02
 -1       636 5.41567E-02
 -1       637 3.91336E-02
 -1       638 2.72403E-02
 -1       639 1.81098E-02
 -1       640 1.13080E-02
 -1       641 7.04341E-03
 -1       642 5.88169E-03
 -1       643 5.63340E-03
 -1       644 5.11023E-03
 -1       645 4.44629E-03
 -1       646 3.73395E-03
 -1       647 3.14968E-03
 -1       648 2.66986E-03
 -1       649 2.17452E-03
 -1       650 1.69840E-03
 -1       651 1.28753E-03
 -1       652 9.65192E-04
 -1       653 8.64618E+00
 -1       654 5.32943E+00
 -1       655 7.16633E+00
 -1       656 1.47758E+01
 -1       657 5.20020E+00
 -1       658 3.74179E+00
 -1       659 2.70460E+00
 -1       660 1.93470E+00
 -1       661 1.36090E+00
 -1       662 9.55478E-01
 -1       663 6.60025E-01
 -1       664 4.64129E-01
 -1       665 3.29968E-01
 -1       666 2.38324E-01
 -1       667 1.70250E-01
 -1       668 1.19993E-01
 -1       669 8.31804E-02
 -1       670 5.67437E-02
 -1       671 3.64132E-02
 -1       672 2.29822E-02
 -1       673 1.37095E-02
 -1       674 9.70401E-03
 -1       675 8.87647E-03
 -1       676 7.75425E-03
 -1       677 6.57192E-03
 -1       678 5.43328E-03
 -1       679 4.41729E-03
 -1       680 3.73870E-03
 -1       681 3.08016E-03
 -1       682 2.49069E-03
 -1       683 1.92375E-03
 -1       684 1.47545E-03
 -1       685 1.08334E-03
 -1       686 8.71213E-04
 -1       687 8.54039E-04
 -1       688 8.57000E-04
 -1       689 8.71213E-04
 -1       690 1.00301E+01
 -1       691 8.57000E-04
 -1       692 8.36716E-04
 -1       693 1.11618E-03
 -1       694 2.88935E+00
 -1       695 2.84236E+00
 -1       696 3.16910E+00
 -1       697 1.23091E+01
 -1       698 9.01082E-01
 -1       699 4.90640E+00
 -1       700 8.10640E-01
 -1       701 5.71602E+00
 -1       702 1.39194E+01
 -1       703 3.49269E+00
 -1       704 1.70509E+00
 -1       705 5.73500E+00
 -1       706 1.15951E+00
 -1       707 9.27205E+00
 -1       708 5.62146E+00
 -1       709 4.79017E+00
 -1       710 1.65780E+01
 -1       711 4.51617E+00
 -1       712 8.56728E+00
 -1       713 1.61223E+01
 -1       714 2.30953E+00
 -1       715 9.42836E-01
 -1       716 1.23565E+00
 -1       717 1.20872E+01
 -1       718 1.39194E+01
 -1       719 3.16253E+00
 -1       720 9.04484E+00
 -1       721 7.80942E-04
 -1       722 8.97049E-04
 -1       723 1.17912E+01
 -1       724 6.41362E+00
 -1       725 1.23565E+00
 -1       726 1.17130E+01
 -1       727 1.41153E+01
 -1       728 1.39248E-03
 -1       729 3.23217E+00
 -1       730 9.90948E-01
 -1       731 1.20765E+00
 -1       732 1.38046E+00
 -1       733 1.46257E+00
 -1       734 1.82633E+00
 -1       735 1.96176E+00
 -1       736 1.92086E+00
 -1       737 1.72530E+00
 -1       738 1.35937E+00
 -1       739 1.36962E+00
 -1       740 1.16042E+00
 -1       741 9.27449E-01
 -1       742 7.99683E-01
 -1       743 6.10947E-01
 -1       744 4.30148E-01
 -1       745 3.61151E-01
 -1       746 2.97427E-01
 -1       747 2.42225E-01
 -1       748 1.99180E-01
 -1       749 1.65210E-01
 -1       750 1.32014E-01
 -1       751 1.02247E-01
 -1       752 7.69914E-02
 -1       753 5.73994E-02
 -1       754 4.18306E-02
 -1       755 2.97068E-02
 -1       756 2.04551E-02
 -1       757 1.35385E-02
 -1       758 8.48110E-03
 -1       759 4.87557E-03
 -1       760 3.16650E-03
 -1       761 3.58139E-03
 -1       762 3.59440E-03
 -1       763 3.35530E-03
 -1       764 2.97322E-03
 -1       765 2.52453E-03
 -1       766 2.21376E-03
 -1       767 1.85411E-03
 -1       768 1.48551E-03
 -1       769 3.83446E+00
 -1       770 1.03178E+01
 -1       771 2.49567E+00
 -1       772 3.74179E+00
 -1       773 5.71282E+00
 -1       774 1.73585E+00
 -1       775 1.21509E+00
 -1       776 8.52566E-01
 -1       777 5.93880E-01
 -1       778 4.09539E-01
 -1       779 2.83794E-01
 -1       780 1.94687E-01
 -1       781 1.32406E-01
 -1       782 9.08951E-02
 -1       783 6.03851E-02
 -1       784 4.11589E-02
 -1       785 2.78922E-02
 -1       786 1.82297E-02
 -1       787 1.13167E-02
 -1       788 6.48759E-03
 -1       789 5.13175E-03
 -1       790 5.07334E-03
 -1       791 4.68694E-03
 -1       792 4.13387E-03
 -1       793 3.51391E-03
 -1       794 2.96329E-03
 -1       795 2.52048E-03
 -1       796 2.05256E-03
 -1       797 1.61494E-03
 -1       798 1.21867E-03
 -1       799 4.37297E+00
 -1       800 3.82491E+00
 -1       801 9.45361E-04
 -1       802 1.76101E-03
 -1       803 6.93421E+00
 -1       804 5.61418E+00
 -1       805 2.49721E+00
 -1       806 3.76478E+00
 -1       807 1.12946E-03
 -1       808 1.76101E-03
 -1       809 4.03178E+00
 -1       810 8.01442E+00
 -1       811 3.07007E+00
 -1       812 7.96989E+00
 -1       813 7.33858E-01
 -1       814 9.66758E+00
 -1       815 6.17638E+00
 -1       816 2.52041E+00
 -1       817 1.87497E+00
 -1       818 6.90161E+00
 -1       819 1.76267E+00
 -1       820 2.64185E+00
 -1       821 7.50391E+00
 -1       822 3.20451E+00
 -1       823 9.86604E-04
 -1       824 1.87497E+00
 -1       825 1.04578E-03
 -1       826 1.04578E-03
 -1       827 8.99679E-01
 -1       828 7.75518E+00
 -1       829 5.84137E+00
 -1       830 1.39993E+00
 -1       831 6.28879E+00
 -1       832 2.47494E+00
 -1       833 6.03531E+00
 -1       834 3.61322E+00
 -1       835 1.11916E+00
 -1       836 8.67228E+00
 -1       837 1.73441E+00
 -1       838 1.93777E+00
 -1       839 2.50828E+00
 -1       840 3.82491E+00
 -1       841 3.70555E+00
 -1       842 3.07007E+00
 -1       843 1.94004E+00
 -1       844 2.01094E+00
 -1       845 1.42985E+00
 -1       846 1.35841E+00
 -1       847 1.12518E+00
 -1       848 8.21181E-01
 -1       849 6.45848E-01
 -1       850 5.18616E-01
 -1       851 3.95885E-01
 -1       852 3.12025E-01
 -1       853 2.47709E-01
 -1       854 1.94579E-01
 -1       855 1.49951E-01
 -1       856 1.19460E-01
 -1       857 9.52634E-02
 -1       858 7.43322E-02
 -1       859 5.59700E-02
 -1       860 4.06656E-02
 -1       861 2.84130E-02
 -1       862 1.94647E-02
 -1       863 1.27620E-02
 -1       864 7.81337E-03
 -1       865 4.27509E-03
 -1       866 2.39218E-03
 -1       867 2.27221E-03
 -1       868 2.55861E-03
 -1       869 2.55352E-03
 -1       870 2.36756E-03
 -1       871 2.07979E-03
 -1       872 1.82089E-03
 -1       873 1.69049E-03
 -1       874 3.23217E+00
 -1       875 1.80401E+00
 -1       876 5.71282E+00
 -1       877 8.96914E-01
 -1       878 6.42646E-01
 -1       879 4.59146E-01
 -1       880 3.30805E-01
 -1       881 2.36833E-01
 -1       882 1.67967E-01
 -1       883 1.17657E-01
 -1       884 8.05792E-02
 -1       885 5.44709E-02
 -1       886 3.68195E-02
 -1       887 2.40988E-02
 -1       888 1.52119E-02
 -1       889 9.02778E-03
 -1       890 4.68264E-03
 -1       891 2.83152E-03
 -1       892 3.20987E-03
 -1       893 3.28826E-03
 -1       894 3.10476E-03
 -1       895 2.77248E-03
 -1       896 2.35795E-03
 -1       897 2.03877E-03
 -1       898 1.70611E-03
 -1       899 1.06790E-03
 -1       900 1.55746E+00
 -1       901 6.14551E+00
 -1       902 2.30482E+00
 -1       903 4.77280E+00
 -1       904 6.74748E+00
 -1       905 1.15073E-03
 -1       906 5.67643E+00
 -1       907 2.81796E+00
 -1       908 4.92886E+00
 -1       909 9.66733E-01
 -1       910 5.84881E+00
 -1       911 2.50828E+00
 -1       912 1.25895E+00
 -1       913 1.48162E+00
 -1       914 3.16996E+00
 -1       915 6.61617E+00
 -1       916 6.28879E+00
 -1       917 4.75270E+00
 -1       918 5.40120E+00
 -1       919 1.76101E-03
 -1       920 3.20534E+00
 -1       921 2.90193E+00
 -1       922 3.97186E+00
 -1       923 1.37602E-03
 -1       924 1.48548E-03
 -1       925 1.25399E-03
 -1       926 2.45519E+00
 -1       927 1.18072E+00
 -1       928 1.39248E-03
 -1       929 3.50243E+00
 -1       930 8.71713E-01
 -1       931 3.97186E+00
 -1       932 2.10064E+00
 -1       933 1.65358E+00
 -1       934 2.13038E+00
 -1       935 2.05659E+00
 -1       936 1.19291E+00
 -1       937 9.59592E-01
 -1       938 7.28042E-01
 -1       939 5.65160E-01
 -1       940 4.29628E-01
 -1       941 3.14852E-01
 -1       942 2.38969E-01
 -1       943 1.87589E-01
 -1       944 1.49951E-01
 -1       945 1.19460E-01
 -1       946 9.24557E-02
 -1       947 6.96759E-02
 -1       948 5.11330E-02
 -1       949 3.64697E-02
 -1       950 2.51651E-02
 -1       951 1.69280E-02
 -1       952 1.11108E-02
 -1       953 6.86967E-03
 -1       954 4.00933E-03
 -1       955 2.39218E-03
 -1       956 1.50771E-03
 -1       957 1.87938E-03
 -1       958 1.97172E-03
 -1       959 1.88502E-03
 -1       960 1.69733E-03
 -1       961 1.69049E-03
 -1       962 5.97061E+00
 -1       963 2.09227E+00
 -1       964 8.99679E-01
 -1       965 2.24296E+00
 -1       966 6.24103E-01
 -1       967 2.36683E-01
 -1       968 1.76396E-01
 -1       969 1.29576E-01
 -1       970 9.32613E-02
 -1       971 6.54699E-02
 -1       972 4.54455E-02
 -1       973 3.11567E-02
 -1       974 2.10001E-02
 -1       975 1.36413E-02
 -1       976 8.30433E-03
 -1       977 4.65487E-03
 -1       978 2.27708E-03
 -1       979 2.00203E-03
 -1       980 2.30539E-03
 -1       981 2.32137E-03
 -1       982 2.15747E-03
 -1       983 1.89643E-03
 -1       984 1.62061E-03
 -1       985 1.48548E-03
 -1       986 5.48562E+00
 -1       987 1.96101E+00
 -1       988 3.13342E-01
 -1       989 4.22032E-01
 -1       990 3.59650E+00
 -1       991 3.11237E+00
 -1       992 4.43044E+00
 -1       993 1.48162E+00
 -1       994 1.27384E+00
 -1       995 3.50243E+00
 -1       996 1.58896E+00
 -1       997 2.73897E+00
 -1       998 1.26445E-03
 -1       999 3.99349E+00
 -1      1000 1.44675E-03
 -1      1001 2.47824E-01
 -1      1002 1.22903E-03
 -1      1003 1.66918E+00
 -1      1004 2.27193E+00
 -1      1005 1.32485E+00
 -1      1006 8.20507E-01
 -1      1007 5.79867E-01
 -1      1008 4.16445E-01
 -1      1009 3.13019E-01
 -1      1010 2.38969E-01
 -1      1011 1.87589E-01
 -1      1012 1.43969E-01
 -1      1013 1.08418E-01
 -1      1014 8.02088E-02
 -1      1015 5.82745E-02
 -1      1016 4.15017E-02
 -1      1017 2.88653E-02
 -1      1018 1.94879E-02
 -1      1019 1.35654E-02
 -1      1020 9.46768E-03
 -1      1021 6.33716E-03
 -1      1022 4.00933E-03
 -1      1023 2.32516E-03
 -1      1024 1.22836E-03
 -1      1025 1.43090E-03
 -1      1026 1.53547E-03
 -1      1027 1.49276E-03
 -1      1028 8.98471E-02
 -1      1029 6.37510E-01
 -1      1030 1.30259E-01
 -1      1031 1.78504E-01
 -1      1032 6.82325E-02
 -1      1033 4.97819E-02
 -1      1034 3.53646E-02
 -1      1035 2.43543E-02
 -1      1036 1.67379E-02
 -1      1037 1.10039E-02
 -1      1038 6.80666E-03
 -1      1039 4.00004E-03
 -1      1040 2.27708E-03
 -1      1041 1.28049E-03
 -1      1042 1.64947E-03
 -1      1043 1.75456E-03
 -1      1044 1.68459E-03
 -1      1045 1.53296E-03
 -1      1046 3.51922E+00
 -1      1047 1.96101E+00
 -1      1048 2.53727E+00
 -1      1049 3.41647E-01
 -1      1050 4.80257E-01
 -1      1051 1.26445E-03
 -1      1052 1.36418E-03
 -1      1053 8.88213E-01
 -1      1054 2.21905E+00
 -1      1055 1.36204E-03
 -1      1056 1.44675E-03
 -1      1057 1.32807E+00
 -1      1058 6.35542E-01
 -1      1059 1.90472E-01
 -1      1060 1.29131E+00
 -1      1061 1.16122E+00
 -1      1062 7.82137E-01
 -1      1063 5.49182E-01
 -1      1064 3.77541E-01
 -1      1065 2.58061E-01
 -1      1066 1.75185E-01
 -1      1067 1.20705E-01
 -1      1068 8.59485E-02
 -1      1069 6.61883E-02
 -1      1070 4.97772E-02
 -1      1071 3.65345E-02
 -1      1072 2.61283E-02
 -1      1073 1.80976E-02
 -1      1074 1.25310E-02
 -1      1075 8.40666E-03
 -1      1076 5.39836E-03
 -1      1077 3.25965E-03
 -1      1078 1.74407E-03
 -1      1079 9.15714E-04
 -1      1080 1.11215E-03
 -1      1081 1.18782E-03
 -1      1082 5.77309E-02
 -1      1083 1.08637E-01
 -1      1084 2.21905E+00
 -1      1085 1.80323E+00
 -1      1086 4.20339E-02
 -1      1087 3.09561E-02
 -1      1088 2.27658E-02
 -1      1089 1.68221E-02
 -1      1090 1.14838E-02
 -1      1091 7.52193E-03
 -1      1092 4.61469E-03
 -1      1093 2.54959E-03
 -1      1094 1.13295E-03
 -1      1095 1.17975E-03
 -1      1096 1.34946E-03
 -1      1097 1.36204E-03
 -1      1098 2.58061E-01
 -1      1099 7.89677E-02
 -1      1100 1.66806E+00
 -1      1101 3.91552E-01
 -1      1102 1.45820E-01
 -1      1103 1.26779E-03
 -1      1104 1.00648E+00
 -1      1105 1.24893E+00
 -1      1106 1.34946E-03
 -1      1107 1.67413E+00
 -1      1108 1.26756E+01
 -1      1109 8.19169E+00
 -1      1110 2.86023E+00
 -1      1111 1.79421E+00
 -1      1112 1.47442E+00
 -1      1113 1.30357E+00
 -1      1114 1.16698E+00
 -1      1115 1.01814E+00
 -1      1116 8.32218E-01
 -1      1117 6.17013E-01
 -1      1118 7.39086E-01
 -1      1119 1.22735E+00
 -1      1120 1.72584E+00
 -1      1121 2.26154E+00
 -1      1122 3.12438E+00
 -1      1123 5.77797E+00
 -1      1124 1.01791E+01
 -1      1125 1.26756E+01
 -1      1126 8.27873E+00
 -1      1127 3.31746E+00
 -1      1128 2.16067E+00
 -1      1129 1.26945E+00
 -1      1130 9.63145E-01
 -1      1131 1.11534E+00
 -1      1132 1.49180E+00
 -1      1133 1.95301E+00
 -1      1134 2.35993E+00
 -1      1135 2.53094E+00
 -1      1136 2.57665E+00
 -1      1137 2.61383E+00
 -1      1138 2.53007E+00
 -1      1139 2.21673E+00
 -1      1140 1.68748E+00
 -1      1141 1.16088E+00
 -1      1142 8.27430E-01
 -1      1143 6.02046E-01
 -1      1144 4.51783E-01
 -1      1145 3.84344E-01
 -1      1146 3.35482E-01
 -1      1147 3.06432E-01
 -1      1148 2.63857E-01
 -1      1149 2.08763E-01
 -1      1150 1.64316E-01
 -1      1151 1.40072E-01
 -1      1152 1.20759E-01
 -1      1153 9.89547E-02
 -1      1154 7.76811E-02
 -1      1155 5.91787E-02
 -1      1156 4.74850E-02
 -1      1157 4.04419E-02
 -1      1158 3.33280E-02
 -1      1159 2.67042E-02
 -1      1160 2.08604E-02
 -1      1161 1.59045E-02
 -1      1162 1.24756E-02
 -1      1163 1.02856E-02
 -1      1164 8.35427E-03
 -1      1165 6.63211E-03
 -1      1166 5.14358E-03
 -1      1167 3.94095E-03
 -1      1168 2.97914E-03
 -1      1169 2.24166E-03
 -1      1170 1.81049E-03
 -1      1171 1.51803E-03
 -1      1172 1.19555E-03
 -1      1173 8.99595E-04
 -1      1174 4.72060E-04
 -1      1175 1.24971E+01
 -1      1176 7.61687E+00
 -1      1177 2.29432E+00
 -1      1178 1.82994E+00
 -1      1179 1.83748E+00
 -1      1180 2.20960E+00
 -1      1181 2.86928E+00
 -1      1182 3.35489E+00
 -1      1183 3.62367E+00
 -1      1184 5.20738E+00
 -1      1185 8.41805E+00
 -1      1186 1.06082E+01
 -1      1187 1.10711E+01
 -1      1188 9.41507E+00
 -1      1189 5.80591E+00
 -1      1190 3.75337E+00
 -1      1191 3.74125E+00
 -1      1192 3.82860E+00
 -1      1193 3.55485E+00
 -1      1194 2.99508E+00
 -1      1195 2.35838E+00
 -1      1196 1.74100E+00
 -1      1197 1.26020E+00
 -1      1198 8.84718E-01
 -1      1199 6.14836E-01
 -1      1200 4.42643E-01
 -1      1201 3.18111E-01
 -1      1202 2.19711E-01
 -1      1203 1.54816E-01
 -1      1204 1.07772E-01
 -1      1205 7.38854E-02
 -1      1206 5.05323E-02
 -1      1207 3.73645E-02
 -1      1208 3.00306E-02
 -1      1209 2.38564E-02
 -1      1210 1.87114E-02
 -1      1211 1.47589E-02
 -1      1212 1.22714E-02
 -1      1213 1.04840E-02
 -1      1214 8.73909E-03
 -1      1215 7.17429E-03
 -1      1216 5.77975E-03
 -1      1217 4.62082E-03
 -1      1218 3.70708E-03
 -1      1219 2.84393E-03
 -1      1220 2.04184E-03
 -1      1221 1.53943E-03
 -1      1222 1.19063E-03
 -1      1223 7.90995E-04
 -1      1224 3.67335E-04
 -1      1225 2.05436E-04
 -1      1226 2.59467E-04
 -1      1227 2.26594E-04
 -1      1228 1.38330E-04
 -1      1229 1.01881E-04
 -1      1230 1.49792E-04
 -1      1231 1.95243E-04
 -1      1232 2.16097E-04
 -1      1233 2.20470E-04
 -1      1234 2.15330E-04
 -1      1235 1.92412E-04
 -1      1236 1.46322E-04
 -1      1237 1.01197E-04
 -1      1238 1.39035E-04
 -1      1239 2.68382E-04
 -1      1240 3.73316E-04
 -1      1241 2.88028E-04
 -1      1242 2.53632E+01
 -1      1243 2.73058E+01
 -1      1244 2.84502E+01
 -1      1245 2.74677E+01
 -1      1246 1.98591E+01
 -1      1247 1.31112E+01
 -1      1248 1.30674E+01
 -1      1249 1.35856E+01
 -1      1250 1.40258E+01
 -1      1251 1.46994E+01
 -1      1252 2.83648E+01
 -1      1253 4.13565E+01
 -1      1254 3.35238E+01
 -1      1255 2.56911E+01
 -1      1256 2.49382E+01
 -1      1257 2.50636E+01
 -1      1258 3.11630E+01
 -1      1259 3.63841E+01
 -1      1260 2.50216E+01
 -1      1261 1.27642E+01
 -1      1262 1.19254E+01
 -1      1263 1.19816E+01
 -1      1264 1.22747E+01
 -1      1265 1.25678E+01
 -1      1266 1.40631E+01
 -1      1267 2.90939E+01
 -1      1268 4.26294E+01
 -1      1269 3.35972E+01
 -1      1270 2.45650E+01
 -1      1271 1.26756E+01
 -1      1272 4.87930E+00
 -1      1273 9.36323E+00
 -1      1274 2.25064E+00
 -1      1275 3.09816E+00
 -1      1276 4.26971E+00
 -1      1277 1.68282E+00
 -1      1278 1.90130E+00
 -1      1279 2.13924E+00
 -1      1280 1.42643E+00
 -1      1281 1.52773E+00
 -1      1282 1.63482E+00
 -1      1283 1.26912E+00
 -1      1284 1.33867E+00
 -1      1285 1.39198E+00
 -1      1286 1.12968E+00
 -1      1287 1.19673E+00
 -1      1288 1.23182E+00
 -1      1289 9.65282E-01
 -1      1290 1.04707E+00
 -1      1291 1.07682E+00
 -1      1292 7.59026E-01
 -1      1293 8.63159E-01
 -1      1294 8.92090E-01
 -1      1295 5.44690E-01
 -1      1296 6.55763E-01
 -1      1297 6.86703E-01
 -1      1298 7.97353E-01
 -1      1299 5.64207E-01
 -1      1300 6.02957E-01
 -1      1301 1.32822E+00
 -1      1302 1.07310E+00
 -1      1303 8.98223E-01
 -1      1304 1.81023E+00
 -1      1305 1.56685E+00
 -1      1306 1.41261E+00
 -1      1307 2.32457E+00
 -1      1308 2.03224E+00
 -1      1309 1.87326E+00
 -1      1310 3.25482E+00
 -1      1311 2.68430E+00
 -1      1312 2.45500E+00
 -1      1313 5.87480E+00
 -1      1314 3.79173E+00
 -1      1315 3.35165E+00
 -1      1316 1.24971E+01
 -1      1317 1.01791E+01
 -1      1318 8.19281E+00
 -1      1319 1.24971E+01
 -1      1320 8.27873E+00
 -1      1321 3.88183E+00
 -1      1322 3.31746E+00
 -1      1323 2.75308E+00
 -1      1324 3.31746E+00
 -1      1325 2.16067E+00
 -1      1326 1.56826E+00
 -1      1327 2.16067E+00
 -1      1328 1.35639E+00
 -1      1329 1.05758E+00
 -1      1330 1.35639E+00
 -1      1331 9.62365E-01
 -1      1332 9.54875E-01
 -1      1333 1.04931E+00
 -1      1334 1.04813E+00
 -1      1335 1.20782E+00
 -1      1336 1.04735E+00
 -1      1337 1.33645E+00
 -1      1338 1.55322E+00
 -1      1339 1.26923E+00
 -1      1340 1.72312E+00
 -1      1341 1.96755E+00
 -1      1342 1.56777E+00
 -1      1343 2.19744E+00
 -1      1344 2.35993E+00
 -1      1345 1.96755E+00
 -1      1346 2.52241E+00
 -1      1347 2.53094E+00
 -1      1348 2.35993E+00
 -1      1349 2.53947E+00
 -1      1350 2.57665E+00
 -1      1351 2.53094E+00
 -1      1352 2.61383E+00
 -1      1353 2.61383E+00
 -1      1354 2.57665E+00
 -1      1355 2.53007E+00
 -1      1356 2.44632E+00
 -1      1357 2.53007E+00
 -1      1358 2.21673E+00
 -1      1359 1.98714E+00
 -1      1360 2.21673E+00
 -1      1361 1.73095E+00
 -1      1362 1.43130E+00
 -1      1363 1.73095E+00
 -1      1364 1.22255E+00
 -1      1365 9.95604E-01
 -1      1366 1.26602E+00
 -1      1367 8.38180E-01
 -1      1368 7.31679E-01
 -1      1369 8.99853E-01
 -1      1370 6.02046E-01
 -1      1371 4.83163E-01
 -1      1372 6.12796E-01
 -1      1373 4.51783E-01
 -1      1374 4.20403E-01
 -1      1375 4.51783E-01
 -1      1376 3.84344E-01
 -1      1377 3.48286E-01
 -1      1378 3.84344E-01
 -1      1379 3.35482E-01
 -1      1380 3.22678E-01
 -1      1381 3.35482E-01
 -1      1382 3.06432E-01
 -1      1383 2.90187E-01
 -1      1384 3.06432E-01
 -1      1385 2.63857E-01
 -1      1386 2.37527E-01
 -1      1387 2.63857E-01
 -1      1388 2.13582E-01
 -1      1389 1.84817E-01
 -1      1390 2.13582E-01
 -1      1391 1.67801E-01
 -1      1392 1.52118E-01
 -1      1393 1.72619E-01
 -1      1394 1.40072E-01
 -1      1395 1.31511E-01
 -1      1396 1.43557E-01
 -1      1397 1.20759E-01
 -1      1398 1.10006E-01
 -1      1399 1.20759E-01
 -1      1400 9.89547E-02
 -1      1401 8.79036E-02
 -1      1402 9.89547E-02
 -1      1403 7.83090E-02
 -1      1404 6.80866E-02
 -1      1405 7.83090E-02
 -1      1406 6.03407E-02
 -1      1407 5.20607E-02
 -1      1408 6.09686E-02
 -1      1409 4.74850E-02
 -1      1410 4.40714E-02
 -1      1411 4.86471E-02
 -1      1412 4.04419E-02
 -1      1413 3.68125E-02
 -1      1414 4.04419E-02
 -1      1415 3.33280E-02
 -1      1416 2.98435E-02
 -1      1417 3.33280E-02
 -1      1418 2.67042E-02
 -1      1419 2.35649E-02
 -1      1420 2.67042E-02
 -1      1421 2.08604E-02
 -1      1422 1.81559E-02
 -1      1423 2.08604E-02
 -1      1424 1.60862E-02
 -1      1425 1.38348E-02
 -1      1426 1.60862E-02
 -1      1427 1.24756E-02
 -1      1428 1.12982E-02
 -1      1429 1.26574E-02
 -1      1430 1.02856E-02
 -1      1431 9.27298E-03
 -1      1432 1.02856E-02
 -1      1433 8.35427E-03
 -1      1434 7.43557E-03
 -1      1435 8.35427E-03
 -1      1436 6.66161E-03
 -1      1437 5.85814E-03
 -1      1438 6.66161E-03
 -1      1439 5.25681E-03
 -1      1440 4.57175E-03
 -1      1441 5.28632E-03
 -1      1442 4.06489E-03
 -1      1443 3.54734E-03
 -1      1444 4.17813E-03
 -1      1445 3.15622E-03
 -1      1446 2.71196E-03
 -1      1447 3.28016E-03
 -1      1448 2.36141E-03
 -1      1449 2.06819E-03
 -1      1450 2.53849E-03
 -1      1451 1.81049E-03
 -1      1452 1.67254E-03
 -1      1453 1.93024E-03
 -1      1454 1.51803E-03
 -1      1455 1.36353E-03
 -1      1456 1.51803E-03
 -1      1457 1.19555E-03
 -1      1458 1.02757E-03
 -1      1459 1.19555E-03
 -1      1460 8.99595E-04
 -1      1461 7.71621E-04
 -1      1462 8.99595E-04
 -1      1463 5.87588E-04
 -1      1464 5.87588E-04
 -1      1465 2.73668E+00
 -1      1466 7.61687E+00
 -1      1467 7.61687E+00
 -1      1468 1.85196E+00
 -1      1469 2.29432E+00
 -1      1470 2.29432E+00
 -1      1471 1.68142E+00
 -1      1472 1.70344E+00
 -1      1473 1.70344E+00
 -1      1474 1.83748E+00
 -1      1475 1.80792E+00
 -1      1476 1.68142E+00
 -1      1477 2.31583E+00
 -1      1478 1.97327E+00
 -1      1479 1.94371E+00
 -1      1480 2.86928E+00
 -1      1481 2.55216E+00
 -1      1482 2.31583E+00
 -1      1483 3.35489E+00
 -1      1484 3.18639E+00
 -1      1485 2.86928E+00
 -1      1486 3.62367E+00
 -1      1487 3.52339E+00
 -1      1488 3.35489E+00
 -1      1489 5.27348E+00
 -1      1490 3.79007E+00
 -1      1491 3.68978E+00
 -1      1492 8.41805E+00
 -1      1493 6.69079E+00
 -1      1494 5.27348E+00
 -1      1495 1.06082E+01
 -1      1496 1.01453E+01
 -1      1497 8.41805E+00
 -1      1498 1.10711E+01
 -1      1499 1.10711E+01
 -1      1500 1.06082E+01
 -1      1501 7.75899E+00
 -1      1502 9.41507E+00
 -1      1503 9.41507E+00
 -1      1504 3.85284E+00
 -1      1505 5.80591E+00
 -1      1506 5.80591E+00
 -1      1507 3.31893E+00
 -1      1508 3.41839E+00
 -1      1509 3.41839E+00
 -1      1510 3.74125E+00
 -1      1511 3.65390E+00
 -1      1512 3.31893E+00
 -1      1513 3.82860E+00
 -1      1514 3.82860E+00
 -1      1515 3.74125E+00
 -1      1516 3.28109E+00
 -1      1517 3.55485E+00
 -1      1518 3.55485E+00
 -1      1519 2.70906E+00
 -1      1520 2.99508E+00
 -1      1521 2.99508E+00
 -1      1522 2.03496E+00
 -1      1523 2.38565E+00
 -1      1524 2.38565E+00
 -1      1525 1.51910E+00
 -1      1526 1.78580E+00
 -1      1527 1.81307E+00
 -1      1528 1.09367E+00
 -1      1529 1.30776E+00
 -1      1530 1.35256E+00
 -1      1531 7.66388E-01
 -1      1532 9.27785E-01
 -1      1533 9.75339E-01
 -1      1534 5.36496E-01
 -1      1535 6.44981E-01
 -1      1536 6.88048E-01
 -1      1537 3.91466E-01
 -1      1538 4.55175E-01
 -1      1539 4.85320E-01
 -1      1540 2.60183E-01
 -1      1541 3.21007E-01
 -1      1542 3.33539E-01
 -1      1543 1.82434E-01
 -1      1544 2.20011E-01
 -1      1545 2.22907E-01
 -1      1546 1.28935E-01
 -1      1547 1.56253E-01
 -1      1548 1.56554E-01
 -1      1549 9.00185E-02
 -1      1550 1.09744E-01
 -1      1551 1.11182E-01
 -1      1552 6.18816E-02
 -1      1553 7.60422E-02
 -1      1554 7.80147E-02
 -1      1555 4.32255E-02
 -1      1556 5.24181E-02
 -1      1557 5.45748E-02
 -1      1558 3.33891E-02
 -1      1559 3.73645E-02
 -1      1560 3.92502E-02
 -1      1561 2.66720E-02
 -1      1562 3.00306E-02
 -1      1563 3.00306E-02
 -1      1564 2.10407E-02
 -1      1565 2.38564E-02
 -1      1566 2.38564E-02
 -1      1567 1.63821E-02
 -1      1568 1.87114E-02
 -1      1569 1.87114E-02
 -1      1570 1.31357E-02
 -1      1571 1.47589E-02
 -1      1572 1.47589E-02
 -1      1573 1.14070E-02
 -1      1574 1.22714E-02
 -1      1575 1.22714E-02
 -1      1576 9.56110E-03
 -1      1577 1.04840E-02
 -1      1578 1.04840E-02
 -1      1579 7.91708E-03
 -1      1580 8.73909E-03
 -1      1581 8.73909E-03
 -1      1582 6.43150E-03
 -1      1583 7.17429E-03
 -1      1584 7.17429E-03
 -1      1585 5.12799E-03
 -1      1586 5.77975E-03
 -1      1587 5.77975E-03
 -1      1588 4.11366E-03
 -1      1589 4.62082E-03
 -1      1590 4.62082E-03
 -1      1591 3.30050E-03
 -1      1592 3.70708E-03
 -1      1593 3.70708E-03
 -1      1594 2.39748E-03
 -1      1595 2.85406E-03
 -1      1596 2.85406E-03
 -1      1597 1.73132E-03
 -1      1598 2.07684E-03
 -1      1599 2.08697E-03
 -1      1600 1.38254E-03
 -1      1601 1.53943E-03
 -1      1602 1.57443E-03
 -1      1603 9.98723E-04
 -1      1604 1.19063E-03
 -1      1605 1.19063E-03
 -1      1606 5.87269E-04
 -1      1607 7.94998E-04
 -1      1608 7.94998E-04
 -1      1609 4.21366E-04
 -1      1610 2.91486E-04
 -1      1611 2.91486E-04
 -1      1612 2.58613E-04
 -1      1613 2.91486E-04
 -1      1614 3.23506E-04
 -1      1615 1.81839E-04
 -1      1616 2.37229E-04
 -1      1617 3.02122E-04
 -1      1618 1.58114E-04
 -1      1619 1.39173E-04
 -1      1620 2.38072E-04
 -1      1621 2.45292E-04
 -1      1622 2.16321E-04
 -1      1623 2.53614E-04
 -1      1624 2.96979E-04
 -1      1625 2.80498E-04
 -1      1626 3.47027E-04
 -1      1627 3.14696E-04
 -1      1628 3.10324E-04
 -1      1629 3.95578E-04
 -1      1630 3.14696E-04
 -1      1631 3.14696E-04
 -1      1632 4.08923E-04
 -1      1633 3.09276E-04
 -1      1634 3.14416E-04
 -1      1635 4.08643E-04
 -1      1636 2.75946E-04
 -1      1637 2.93724E-04
 -1      1638 3.92811E-04
 -1      1639 2.12881E-04
 -1      1640 2.41192E-04
 -1      1641 3.42505E-04
 -1      1642 1.38311E-04
 -1      1643 1.55125E-04
 -1      1644 2.49996E-04
 -1      1645 2.36372E-04
 -1      1646 1.81719E-04
 -1      1647 2.35648E-04
 -1      1648 3.11067E-04
 -1      1649 2.36372E-04
 -1      1650 2.79056E-04
 -1      1651 4.04619E-04
 -1      1652 3.74380E-04
 -1      1653 3.42369E-04
 -1      1654 5.88651E-04
 -1      1655 2.79239E+01
 -1      1656 2.71258E+01
 -1      1657 3.01411E+01
 -1      1658 2.89966E+01
 -1      1659 3.01411E+01
 -1      1660 3.01411E+01
 -1      1661 2.72373E+01
 -1      1662 2.82198E+01
 -1      1663 1.32330E+01
 -1      1664 1.98591E+01
 -1      1665 1.29893E+01
 -1      1666 1.31112E+01
 -1      1667 1.30378E+01
 -1      1668 1.29598E+01
 -1      1669 1.35856E+01
 -1      1670 1.31455E+01
 -1      1671 1.40258E+01
 -1      1672 1.40258E+01
 -1      1673 1.38901E+01
 -1      1674 1.32164E+01
 -1      1675 2.90967E+01
 -1      1676 1.61050E+01
 -1      1677 4.13565E+01
 -1      1678 4.13565E+01
 -1      1679 3.10950E+01
 -1      1680 3.89277E+01
 -1      1681 2.72336E+01
 -1      1682 2.72336E+01
 -1      1683 2.64807E+01
 -1      1684 2.72336E+01
 -1      1685 2.68129E+01
 -1      1686 2.59345E+01
 -1      1687 3.56616E+01
 -1      1688 3.04405E+01
 -1      1689 3.63841E+01
 -1      1690 3.63841E+01
 -1      1691 1.36592E+01
 -1      1692 2.50216E+01
 -1      1693 1.14843E+01
 -1      1694 1.23792E+01
 -1      1695 1.19254E+01
 -1      1696 1.18693E+01
 -1      1697 1.19816E+01
 -1      1698 1.19816E+01
 -1      1699 1.21112E+01
 -1      1700 1.18180E+01
 -1      1701 1.25678E+01
 -1      1702 1.25678E+01
 -1      1703 1.34087E+01
 -1      1704 1.19134E+01
 -1      1705 2.97850E+01
 -1      1706 1.62495E+01
 -1      1707 4.26294E+01
 -1      1708 4.26294E+01
 -1      1709 3.11303E+01
 -1      1710 4.01625E+01
 -1      1711 2.71258E+01
 -1      1712 2.71258E+01
 -1      1713 2.06112E+01
 -1      1714 2.99106E+01
 -1      1715 4.25370E-04
 -1      1716 4.57389E-04
 -1      1717 3.07592E+01
 -1      1718 3.18319E+01
 -1      1719 2.96865E+01
 -1      1720 1.31112E+01
 -1      1721 1.29598E+01
 -1      1722 1.30378E+01
 -1      1723 1.35856E+01
 -1      1724 1.32164E+01
 -1      1725 1.46220E+01
 -1      1726 2.90967E+01
 -1      1727 3.89277E+01
 -1      1728 3.26375E+01
 -1      1729 2.87762E+01
 -1      1730 2.82300E+01
 -1      1731 3.13115E+01
 -1      1732 3.56616E+01
 -1      1733 2.50216E+01
 -1      1734 1.23792E+01
 -1      1735 1.14843E+01
 -1      1736 1.19254E+01
 -1      1737 1.18180E+01
 -1      1738 1.21112E+01
 -1      1739 1.19134E+01
 -1      1740 1.40997E+01
 -1      1741 2.97850E+01
 -1      1742 4.01625E+01
 -1      1743 3.36911E+01
 -1      1744 9.36323E+00
 -1      1745 1.50254E+00
 -1      1746 1.85187E+00
 -1      1747 2.50569E+00
 -1      1748 4.28682E+00
 -1      1749 1.86899E+00
 -1      1750 1.19751E+00
 -1      1751 1.28527E+00
 -1      1752 1.08751E+00
 -1      1753 1.15991E+00
 -1      1754 1.05320E+00
 -1      1755 9.71519E-01
 -1      1756 1.05413E+00
 -1      1757 9.82212E-01
 -1      1758 8.33277E-01
 -1      1759 9.35401E-01
 -1      1760 9.12707E-01
 -1      1761 6.76526E-01
 -1      1762 7.79789E-01
 -1      1763 8.23101E-01
 -1      1764 5.84838E-01
 -1      1765 5.65321E-01
 -1      1766 6.58407E-01
 -1      1767 1.02434E+00
 -1      1768 7.48589E-01
 -1      1769 7.10953E-01
 -1      1770 1.54349E+00
 -1      1771 1.30486E+00
 -1      1772 1.15523E+00
 -1      1773 1.94700E+00
 -1      1774 1.72498E+00
 -1      1775 1.61723E+00
 -1      1776 2.61162E+00
 -1      1777 2.25189E+00
 -1      1778 2.10362E+00
 -1      1779 3.00882E+00
 -1      1780 2.47190E+00
 -1      1781 2.26879E+00
 -1      1782 7.11412E+00
 -1      1783 2.80987E+00
 -1      1784 1.93013E+00
 -1      1785 2.23394E+00
 -1      1786 4.96634E+00
 -1      1787 1.72673E+00
 -1      1788 2.16909E+00
 -1      1789 1.66634E+00
 -1      1790 3.20232E+00
 -1      1791 2.08315E+00
 -1      1792 1.49074E+00
 -1      1793 1.30993E+00
 -1      1794 1.09806E+00
 -1      1795 1.23241E+00
 -1      1796 1.01159E+00
 -1      1797 9.16372E-01
 -1      1798 9.65126E-01
 -1      1799 9.73391E-01
 -1      1800 1.06664E+00
 -1      1801 9.35668E-01
 -1      1802 1.17053E+00
 -1      1803 1.29916E+00
 -1      1804 1.09657E+00
 -1      1805 1.40325E+00
 -1      1806 1.57316E+00
 -1      1807 1.30455E+00
 -1      1808 1.67897E+00
 -1      1809 1.90886E+00
 -1      1810 1.51446E+00
 -1      1811 2.00366E+00
 -1      1812 2.16614E+00
 -1      1813 1.71508E+00
 -1      1814 2.18431E+00
 -1      1815 2.19283E+00
 -1      1816 1.82804E+00
 -1      1817 2.17649E+00
 -1      1818 2.21367E+00
 -1      1819 1.82985E+00
 -1      1820 2.23134E+00
 -1      1821 2.14759E+00
 -1      1822 1.83118E+00
 -1      1823 2.07631E+00
 -1      1824 1.84672E+00
 -1      1825 1.77758E+00
 -1      1826 1.69776E+00
 -1      1827 1.44158E+00
 -1      1828 1.55734E+00
 -1      1829 1.31030E+00
 -1      1830 1.10155E+00
 -1      1831 1.27711E+00
 -1      1832 9.45700E-01
 -1      1833 7.88276E-01
 -1      1834 9.89976E-01
 -1      1835 6.51437E-01
 -1      1836 5.21804E-01
 -1      1837 6.97284E-01
 -1      1838 4.06943E-01
 -1      1839 3.75562E-01
 -1      1840 4.45583E-01
 -1      1841 2.99115E-01
 -1      1842 2.63057E-01
 -1      1843 2.54275E-01
 -1      1844 2.65918E-01
 -1      1845 2.53114E-01
 -1      1846 1.80689E-01
 -1      1847 2.68344E-01
 -1      1848 2.52099E-01
 -1      1849 1.98781E-01
 -1      1850 2.49578E-01
 -1      1851 2.23248E-01
 -1      1852 2.11490E-01
 -1      1853 2.10695E-01
 -1      1854 1.86749E-01
 -1      1855 1.96416E-01
 -1      1856 1.75926E-01
 -1      1857 1.58910E-01
 -1      1858 1.73039E-01
 -1      1859 1.47780E-01
 -1      1860 1.35734E-01
 -1      1861 1.51086E-01
 -1      1862 1.24252E-01
 -1      1863 1.13499E-01
 -1      1864 1.28474E-01
 -1      1865 1.01320E-01
 -1      1866 9.02688E-02
 -1      1867 1.04813E-01
 -1      1868 7.88490E-02
 -1      1869 6.92545E-02
 -1      1870 8.12143E-02
 -1      1871 6.09686E-02
 -1      1872 5.32228E-02
 -1      1873 6.15086E-02
 -1      1874 4.65123E-02
 -1      1875 4.19366E-02
 -1      1876 4.65123E-02
 -1      1877 3.63927E-02
 -1      1878 3.27632E-02
 -1      1879 3.42579E-02
 -1      1880 2.97170E-02
 -1      1881 2.62325E-02
 -1      1882 2.56678E-02
 -1      1883 2.45161E-02
 -1      1884 2.13767E-02
 -1      1885 2.09051E-02
 -1      1886 1.96944E-02
 -1      1887 1.69899E-02
 -1      1888 1.75063E-02
 -1      1889 1.54414E-02
 -1      1890 1.33717E-02
 -1      1891 1.42754E-02
 -1      1892 1.20075E-02
 -1      1893 1.06484E-02
 -1      1894 1.13627E-02
 -1      1895 9.58016E-03
 -1      1896 8.56754E-03
 -1      1897 8.93030E-03
 -1      1898 8.01363E-03
 -1      1899 7.09493E-03
 -1      1900 7.30820E-03
 -1      1901 6.53341E-03
 -1      1902 5.75945E-03
 -1      1903 6.19277E-03
 -1      1904 5.22699E-03
 -1      1905 4.62566E-03
 -1      1906 5.09879E-03
 -1      1907 4.17924E-03
 -1      1908 3.67239E-03
 -1      1909 4.11992E-03
 -1      1910 3.29066E-03
 -1      1911 2.89955E-03
 -1      1912 3.29178E-03
 -1      1913 2.56722E-03
 -1      1914 2.21667E-03
 -1      1915 2.57772E-03
 -1      1916 1.95646E-03
 -1      1917 1.69876E-03
 -1      1918 1.98519E-03
 -1      1919 1.46975E-03
 -1      1920 1.31525E-03
 -1      1921 1.49597E-03
 -1      1922 1.15470E-03
 -1      1923 9.86720E-04
 -1      1924 1.10642E-03
 -1      1925 8.52033E-04
 -1      1926 7.24058E-04
 -1      1927 5.41089E-04
 -1      1928 8.11182E-04
 -1      1929 1.79781E+00
 -1      1930 1.94633E+00
 -1      1931 1.82109E+00
 -1      1932 2.16306E+00
 -1      1933 2.03656E+00
 -1      1934 2.27944E+00
 -1      1935 2.44785E+00
 -1      1936 2.31206E+00
 -1      1937 2.66720E+00
 -1      1938 3.00331E+00
 -1      1939 2.76698E+00
 -1      1940 3.13534E+00
 -1      1941 3.62117E+00
 -1      1942 3.30405E+00
 -1      1943 3.75521E+00
 -1      1944 3.85188E+00
 -1      1945 3.68338E+00
 -1      1946 4.11816E+00
 -1      1947 3.70130E+00
 -1      1948 3.53491E+00
 -1      1949 3.86340E+00
 -1      1950 7.32457E+00
 -1      1951 5.90726E+00
 -1      1952 5.75238E+00
 -1      1953 1.00819E+01
 -1      1954 8.35462E+00
 -1      1955 8.98840E+00
 -1      1956 9.08150E+00
 -1      1957 8.61857E+00
 -1      1958 8.55515E+00
 -1      1959 5.89640E+00
 -1      1960 7.55248E+00
 -1      1961 5.56283E+00
 -1      1962 4.29678E+00
 -1      1963 6.24986E+00
 -1      1964 4.38727E+00
 -1      1965 3.88094E+00
 -1      1966 4.31538E+00
 -1      1967 4.75933E+00
 -1      1968 3.98780E+00
 -1      1969 3.65283E+00
 -1      1970 4.54981E+00
 -1      1971 3.66839E+00
 -1      1972 3.58104E+00
 -1      1973 3.91494E+00
 -1      1974 3.26436E+00
 -1      1975 3.53811E+00
 -1      1976 3.37790E+00
 -1      1977 2.78848E+00
 -1      1978 3.07449E+00
 -1      1979 3.05775E+00
 -1      1980 2.15905E+00
 -1      1981 2.48246E+00
 -1      1982 2.56188E+00
 -1      1983 1.63868E+00
 -1      1984 1.88784E+00
 -1      1985 1.98466E+00
 -1      1986 1.19670E+00
 -1      1987 1.40804E+00
 -1      1988 1.48282E+00
 -1      1989 8.50209E-01
 -1      1990 1.01609E+00
 -1      1991 1.07157E+00
 -1      1992 5.94048E-01
 -1      1993 7.15455E-01
 -1      1994 7.56209E-01
 -1      1995 4.19387E-01
 -1      1996 5.00708E-01
 -1      1997 5.28115E-01
 -1      1998 2.72451E-01
 -1      1999 3.42911E-01
 -1      2000 3.58299E-01
 -1      2001 1.84663E-01
 -1      2002 2.24835E-01
 -1      2003 2.34207E-01
 -1      2004 1.30373E-01
 -1      2005 1.56554E-01
 -1      2006 1.58482E-01
 -1      2007 9.19910E-02
 -1      2008 1.11182E-01
 -1      2009 1.11182E-01
 -1      2010 6.40384E-02
 -1      2011 7.80147E-02
 -1      2012 7.80147E-02
 -1      2013 4.51113E-02
 -1      2014 5.45748E-02
 -1      2015 5.45748E-02
 -1      2016 3.09580E-02
 -1      2017 3.68191E-02
 -1      2018 3.68191E-02
 -1      2019 2.34781E-02
 -1      2020 2.68367E-02
 -1      2021 2.44055E-02
 -1      2022 1.92924E-02
 -1      2023 2.21080E-02
 -1      2024 1.89141E-02
 -1      2025 1.55810E-02
 -1      2026 1.79103E-02
 -1      2027 1.61620E-02
 -1      2028 1.26560E-02
 -1      2029 1.42791E-02
 -1      2030 1.34781E-02
 -1      2031 1.05781E-02
 -1      2032 1.14424E-02
 -1      2033 1.09627E-02
 -1      2034 8.62666E-03
 -1      2035 9.54960E-03
 -1      2036 8.72069E-03
 -1      2037 7.25991E-03
 -1      2038 8.08192E-03
 -1      2039 7.14748E-03
 -1      2040 5.99574E-03
 -1      2041 6.73853E-03
 -1      2042 6.08137E-03
 -1      2043 4.84129E-03
 -1      2044 5.49304E-03
 -1      2045 5.05728E-03
 -1      2046 3.89294E-03
 -1      2047 4.40011E-03
 -1      2048 4.11340E-03
 -1      2049 3.12210E-03
 -1      2050 3.52868E-03
 -1      2051 3.30796E-03
 -1      2052 2.29602E-03
 -1      2053 2.74246E-03
 -1      2054 2.56406E-03
 -1      2055 1.70672E-03
 -1      2056 2.02737E-03
 -1      2057 1.91577E-03
 -1      2058 1.28867E-03
 -1      2059 1.48056E-03
 -1      2060 1.42096E-03
 -1      2061 9.57568E-04
 -1      2062 1.14947E-03
 -1      2063 1.05561E-03
 -1      2064 5.91273E-04
 -1      2065 7.94998E-04
 -1      2066 7.53842E-04
 -1      2067 4.57389E-04
 -1      2068 2.68833E-04
 -1      2069 3.11499E-04
 -1      2070 4.21646E-04
 -1      2071 4.43030E-04
 -1      2072 4.52407E-04
 -1      2073 4.43030E-04
 -1      2074 4.43030E-04
 -1      2075 5.76913E-04
 -1      2076 5.62554E-04
 -1      2077 3.64890E-04
 -1      2078 3.06682E-04
 -1      2079 3.80109E-04
 -1      2080 4.50366E-04
 -1      2081 4.15161E-04
 -1      2082 4.68229E-04
 -1      2083 4.84957E-04
 -1      2084 4.71612E-04
 -1      2085 5.39745E-04
 -1      2086 4.84957E-04
 -1      2087 4.84957E-04
 -1      2088 5.60990E-04
 -1      2089 4.83054E-04
 -1      2090 4.83334E-04
 -1      2091 5.59368E-04
 -1      2092 4.67502E-04
 -1      2093 4.83054E-04
 -1      2094 5.57745E-04
 -1      2095 4.10039E-04
 -1      2096 4.44793E-04
 -1      2097 5.35036E-04
 -1      2098 3.03159E-04
 -1      2099 3.60915E-04
 -1      2100 4.63202E-04
 -1      2101 3.03118E-04
 -1      2102 2.59710E-04
 -1      2103 3.70629E-04
 -1      2104 4.07714E-04
 -1      2105 4.07714E-04
 -1      2106 4.31777E-04
 -1      2107 3.18319E+01
 -1      2108 3.18319E+01
 -1      2109 3.42706E+01
 -1      2110 3.42706E+01
 -1      2111 3.53433E+01
 -1      2112 3.42706E+01
 -1      2113 2.34885E+01
 -1      2114 2.54098E+01
 -1      2115 1.22466E+01
 -1      2116 1.96248E+01
 -1      2117 1.32245E+00
 -1      2118 1.47754E+00
 -1      2119 1.19017E+00
 -1      2120 1.12798E+00
 -1      2121 1.16061E+01
 -1      2122 1.16356E+01
 -1      2123 1.23679E+01
 -1      2124 1.22603E+01
 -1      2125 1.09361E+01
 -1      2126 1.26616E+01
 -1      2127 1.22215E+01
 -1      2128 1.04785E+01
 -1      2129 1.12879E+01
 -1      2130 1.21917E+01
 -1      2131 9.97680E+00
 -1      2132 8.04830E+00
 -1      2133 2.76329E+01
 -1      2134 1.53731E+01
 -1      2135 3.06060E+01
 -1      2136 3.30348E+01
 -1      2137 2.87875E+01
 -1      2138 3.26489E+01
 -1      2139 3.37952E+01
 -1      2140 3.37952E+01
 -1      2141 3.32490E+01
 -1      2142 3.37952E+01
 -1      2143 3.11226E+01
 -1      2144 2.74949E+01
 -1      2145 2.93746E+01
 -1      2146 2.86521E+01
 -1      2147 1.32669E+01
 -1      2148 2.46294E+01
 -1      2149 9.30192E+00
 -1      2150 1.05819E+01
 -1      2151 1.01896E+01
 -1      2152 1.03980E+01
 -1      2153 1.00130E+01
 -1      2154 1.11389E+01
 -1      2155 1.10828E+01
 -1      2156 1.14578E+01
 -1      2157 1.16213E+01
 -1      2158 1.16687E+01
 -1      2159 1.12120E+01
 -1      2160 1.10153E+01
 -1      2161 9.75632E+00
 -1      2162 1.04108E+01
 -1      2163 1.28280E+01
 -1      2164 9.98715E+00
 -1      2165 2.84057E+01
 -1      2166 1.55612E+01
 -1      2167 3.16340E+01
 -1      2168 3.41009E+01
 -1      2169 2.78480E+01
 -1      2170 3.18525E+01
 -1      2171 9.78113E+00
 -1      2172 9.90295E+00
 -1      2173 1.51239E+01
 -1      2174 2.63795E+00
 -1      2175 8.91655E+00
 -1      2176 8.42742E+00
 -1      2177 1.96802E+00
 -1      2178 3.53433E+01
 -1      2179 3.88546E+01
 -1      2180 4.71027E-04
 -1      2181 2.54098E+01
 -1      2182 3.24320E+01
 -1      2183 2.57909E+01
 -1      2184 1.98772E+01
 -1      2185 1.14487E+01
 -1      2186 9.51167E+00
 -1      2187 1.07786E+01
 -1      2188 8.21562E+00
 -1      2189 1.76199E+01
 -1      2190 2.48356E+01
 -1      2191 3.30602E+01
 -1      2192 3.88143E+01
 -1      2193 3.38065E+01
 -1      2194 2.67559E+01
 -1      2195 1.27319E+01
 -1      2196 8.08667E+00
 -1      2197 1.12681E+01
 -1      2198 1.14439E+01
 -1      2199 9.92375E+00
 -1      2200 1.93112E+01
 -1      2201 9.61143E+00
 -1      2202 8.48457E+00
 -1      2203 2.34686E+00
 -1      2204 2.12726E+00
 -1      2205 9.82673E-01
 -1      2206 1.01606E+00
 -1      2207 9.92420E-01
 -1      2208 1.03002E+00
 -1      2209 9.92881E-01
 -1      2210 8.53371E-01
 -1      2211 9.06859E-01
 -1      2212 7.34189E-01
 -1      2213 8.45394E-01
 -1      2214 9.29153E-01
 -1      2215 9.14089E-01
 -1      2216 7.50339E-01
 -1      2217 9.37325E-01
 -1      2218 1.43563E+00
 -1      2219 1.15511E+00
 -1      2220 1.19450E+00
 -1      2221 1.78798E+00
 -1      2222 1.60649E+00
 -1      2223 1.60638E+00
 -1      2224 2.53077E+00
 -1      2225 2.22588E+00
 -1      2226 2.21514E+00
 -1      2227 2.53601E+00
 -1      2228 2.29727E+00
 -1      2229 2.60344E+00
 -1      2230 1.06280E+00
 -1      2231 8.81984E-01
 -1      2232 6.78961E+00
 -1      2233 9.13322E+00
 -1      2234 8.74034E-01
 -1      2235 7.87557E-01
 -1      2236 7.04416E-01
 -1      2237 8.31169E-01
 -1      2238 8.88188E-01
 -1      2239 7.40077E-01
 -1      2240 9.87309E-01
 -1      2241 1.09119E+00
 -1      2242 8.82810E-01
 -1      2243 1.19926E+00
 -1      2244 1.30336E+00
 -1      2245 1.09000E+00
 -1      2246 1.37543E+00
 -1      2247 1.48125E+00
 -1      2248 1.27015E+00
 -1      2249 1.52483E+00
 -1      2250 1.61962E+00
 -1      2251 1.38580E+00
 -1      2252 1.62719E+00
 -1      2253 1.64536E+00
 -1      2254 1.43694E+00
 -1      2255 1.59947E+00
 -1      2256 1.58312E+00
 -1      2257 1.39863E+00
 -1      2258 1.59809E+00
 -1      2259 1.61577E+00
 -1      2260 1.36771E+00
 -1      2261 1.62362E+00
 -1      2262 1.55234E+00
 -1      2263 1.39053E+00
 -1      2264 1.49975E+00
 -1      2265 1.35080E+00
 -1      2266 1.34580E+00
 -1      2267 1.28851E+00
 -1      2268 1.15723E+00
 -1      2269 1.23092E+00
 -1      2270 1.04527E+00
 -1      2271 8.89414E-01
 -1      2272 1.05667E+00
 -1      2273 7.66409E-01
 -1      2274 6.29570E-01
 -1      2275 8.21700E-01
 -1      2276 5.28984E-01
 -1      2277 4.14122E-01
 -1      2278 5.98109E-01
 -1      2279 3.26508E-01
 -1      2280 2.50061E-01
 -1      2281 4.09909E-01
 -1      2282 2.23385E-01
 -1      2283 2.26247E-01
 -1      2284 2.95619E-01
 -1      2285 1.96916E-01
 -1      2286 2.12146E-01
 -1      2287 2.39612E-01
 -1      2288 2.04317E-01
 -1      2289 2.01797E-01
 -1      2290 2.02453E-01
 -1      2291 1.98673E-01
 -1      2292 1.86119E-01
 -1      2293 1.91500E-01
 -1      2294 1.77305E-01
 -1      2295 1.66482E-01
 -1      2296 1.79562E-01
 -1      2297 1.56649E-01
 -1      2298 1.45518E-01
 -1      2299 1.60914E-01
 -1      2300 1.34764E-01
 -1      2301 1.23283E-01
 -1      2302 1.40327E-01
 -1      2303 1.11874E-01
 -1      2304 9.96950E-02
 -1      2305 1.18164E-01
 -1      2306 8.83969E-02
 -1      2307 7.69771E-02
 -1      2308 9.54578E-02
 -1      2309 6.67423E-02
 -1      2310 5.84564E-02
 -1      2311 7.39249E-02
 -1      2312 4.97390E-02
 -1      2313 4.30285E-02
 -1      2314 5.49726E-02
 -1      2315 3.59509E-02
 -1      2316 3.04070E-02
 -1      2317 3.91776E-02
 -1      2318 2.48904E-02
 -1      2319 2.18442E-02
 -1      2320 2.65834E-02
 -1      2321 1.87491E-02
 -1      2322 1.70327E-02
 -1      2323 1.79717E-02
 -1      2324 1.51845E-02
 -1      2325 1.35022E-02
 -1      2326 1.30286E-02
 -1      2327 1.29079E-02
 -1      2328 1.13593E-02
 -1      2329 1.05861E-02
 -1      2330 1.06723E-02
 -1      2331 9.30808E-03
 -1      2332 9.30472E-03
 -1      2333 8.60568E-03
 -1      2334 7.53749E-03
 -1      2335 7.91527E-03
 -1      2336 6.86865E-03
 -1      2337 6.31475E-03
 -1      2338 6.54403E-03
 -1      2339 5.80133E-03
 -1      2340 5.23981E-03
 -1      2341 5.36179E-03
 -1      2342 4.91257E-03
 -1      2343 4.38011E-03
 -1      2344 4.52113E-03
 -1      2345 4.03330E-03
 -1      2346 3.58689E-03
 -1      2347 3.84708E-03
 -1      2348 3.24741E-03
 -1      2349 2.86568E-03
 -1      2350 3.16079E-03
 -1      2351 2.58462E-03
 -1      2352 2.25229E-03
 -1      2353 2.54024E-03
 -1      2354 1.99288E-03
 -1      2355 1.73267E-03
 -1      2356 1.99977E-03
 -1      2357 1.50557E-03
 -1      2358 1.27656E-03
 -1      2359 1.51326E-03
 -1      2360 1.08676E-03
 -1      2361 9.26215E-04
 -1      2362 1.09636E-03
 -1      2363 3.66827E+00
 -1      2364 3.34914E+00
 -1      2365 4.50252E+00
 -1      2366 4.20178E+00
 -1      2367 4.41558E+00
 -1      2368 5.21413E+00
 -1      2369 5.15192E+00
 -1      2370 5.59849E+00
 -1      2371 3.91920E+00
 -1      2372 4.23617E+00
 -1      2373 1.06579E+01
 -1      2374 9.62790E+00
 -1      2375 9.34110E+00
 -1      2376 1.08044E+01
 -1      2377 5.56283E+00
 -1      2378 7.09185E+00
 -1      2379 5.87350E+00
 -1      2380 5.52005E+00
 -1      2381 7.23770E+00
 -1      2382 7.21910E+00
 -1      2383 8.35188E+00
 -1      2384 5.95994E+00
 -1      2385 6.18805E+00
 -1      2386 8.64783E+00
 -1      2387 3.91494E+00
 -1      2388 4.32170E+00
 -1      2389 5.95994E+00
 -1      2390 3.50339E+00
 -1      2391 3.63367E+00
 -1      2392 4.04043E+00
 -1      2393 2.92318E+00
 -1      2394 3.11305E+00
 -1      2395 3.36882E+00
 -1      2396 2.25703E+00
 -1      2397 2.56305E+00
 -1      2398 2.61834E+00
 -1      2399 1.71346E+00
 -1      2400 1.98466E+00
 -1      2401 1.98583E+00
 -1      2402 1.25218E+00
 -1      2403 1.48282E+00
 -1      2404 1.48282E+00
 -1      2405 8.98538E-01
 -1      2406 1.07915E+00
 -1      2407 1.07915E+00
 -1      2408 6.35734E-01
 -1      2409 7.70487E-01
 -1      2410 7.78063E-01
 -1      2411 4.49452E-01
 -1      2412 5.42792E-01
 -1      2413 5.57071E-01
 -1      2414 3.00081E-01
 -1      2415 3.76557E-01
 -1      2416 3.91234E-01
 -1      2417 2.03681E-01
 -1      2418 2.51297E-01
 -1      2419 2.69555E-01
 -1      2420 1.40709E-01
 -1      2421 1.68818E-01
 -1      2422 1.85908E-01
 -1      2423 9.67375E-02
 -1      2424 1.15928E-01
 -1      2425 1.26264E-01
 -1      2426 6.52983E-02
 -1      2427 7.92746E-02
 -1      2428 8.40211E-02
 -1      2429 4.41919E-02
 -1      2430 5.36554E-02
 -1      2431 5.49153E-02
 -1      2432 2.83828E-02
 -1      2433 3.66750E-02
 -1      2434 3.57556E-02
 -1      2435 2.02842E-02
 -1      2436 2.44055E-02
 -1      2437 2.42615E-02
 -1      2438 1.75441E-02
 -1      2439 1.89141E-02
 -1      2440 1.89141E-02
 -1      2441 1.47800E-02
 -1      2442 1.61620E-02
 -1      2443 1.61620E-02
 -1      2444 1.21762E-02
 -1      2445 1.34781E-02
 -1      2446 1.34781E-02
 -1      2447 9.74916E-03
 -1      2448 1.09627E-02
 -1      2449 1.09627E-02
 -1      2450 7.69222E-03
 -1      2451 8.72069E-03
 -1      2452 8.72069E-03
 -1      2453 6.60275E-03
 -1      2454 7.14748E-03
 -1      2455 7.14748E-03
 -1      2456 5.55998E-03
 -1      2457 6.08137E-03
 -1      2458 6.08137E-03
 -1      2459 4.55458E-03
 -1      2460 5.05728E-03
 -1      2461 5.05728E-03
 -1      2462 3.67222E-03
 -1      2463 4.11340E-03
 -1      2464 4.11340E-03
 -1      2465 2.94370E-03
 -1      2466 3.30796E-03
 -1      2467 3.30796E-03
 -1      2468 2.18442E-03
 -1      2469 2.56406E-03
 -1      2470 2.56406E-03
 -1      2471 1.62006E-03
 -1      2472 1.88870E-03
 -1      2473 1.88870E-03
 -1      2474 1.16989E-03
 -1      2475 1.39605E-03
 -1      2476 1.36899E-03
 -1      2477 7.39483E-04
 -1      2478 5.86140E-04
 -1      2479 5.35868E-04
 -1      2480 6.36131E-04
 -1      2481 6.14886E-04
 -1      2482 6.82526E-04
 -1      2483 7.04274E-04
 -1      2484 8.14421E-04
 -1      2485 4.77928E-04
 -1      2486 4.40079E-04
 -1      2487 8.02093E-04
 -1      2488 5.95839E-04
 -1      2489 6.36131E-04
 -1      2490 6.36131E-04
 -1      2491 7.11272E-04
 -1      2492 6.32311E-04
 -1      2493 6.33934E-04
 -1      2494 7.09075E-04
 -1      2495 6.32538E-04
 -1      2496 6.32538E-04
 -1      2497 7.07104E-04
 -1      2498 6.09829E-04
 -1      2499 6.32538E-04
 -1      2500 7.07331E-04
 -1      2501 5.27231E-04
 -1      2502 5.76356E-04
 -1      2503 6.73858E-04
 -1      2504 5.14796E-04
 -1      2505 5.58245E-04
 -1      2506 6.71398E-04
 -1      2507 5.58296E-04
 -1      2508 4.53700E-04
 -1      2509 6.41316E-04
 -1      2510 3.88546E+01
 -1      2511 3.88546E+01
 -1      2512 1.63906E+01
 -1      2513 2.28128E+01
 -1      2514 3.00921E+00
 -1      2515 2.86021E+00
 -1      2516 2.87803E+00
 -1      2517 6.06434E-04
 -1      2518 3.24320E+01
 -1      2519 2.60094E+01
 -1      2520 2.73383E+01
 -1      2521 3.08496E+01
 -1      2522 1.79330E+00
 -1      2523 1.23851E+00
 -1      2524 8.88078E-01
 -1      2525 1.13948E+00
 -1      2526 2.30127E+01
 -1      2527 2.27942E+01
 -1      2528 9.49634E+00
 -1      2529 9.01391E+00
 -1      2530 1.18404E+01
 -1      2531 1.65857E+01
 -1      2532 9.46555E-01
 -1      2533 9.82673E-01
 -1      2534 1.01652E+00
 -1      2535 9.76826E-01
 -1      2536 8.25419E+00
 -1      2537 1.78044E+01
 -1      2538 1.24025E+01
 -1      2539 5.99758E+00
 -1      2540 6.49933E+00
 -1      2541 8.26278E+00
 -1      2542 7.57802E+00
 -1      2543 2.30139E+01
 -1      2544 2.09711E+01
 -1      2545 1.40624E+01
 -1      2546 3.38065E+01
 -1      2547 2.87988E+01
 -1      2548 3.88143E+01
 -1      2549 3.88143E+01
 -1      2550 2.73061E+01
 -1      2551 3.30602E+01
 -1      2552 1.97278E+01
 -1      2553 2.21982E+01
 -1      2554 2.21982E+01
 -1      2555 1.39483E+01
 -1      2556 7.68400E+00
 -1      2557 1.03690E+01
 -1      2558 6.86176E+00
 -1      2559 6.63092E+00
 -1      2560 6.32764E+00
 -1      2561 5.61659E+00
 -1      2562 5.79601E+00
 -1      2563 9.06855E+00
 -1      2564 9.31427E+00
 -1      2565 7.27473E+00
 -1      2566 8.53266E+00
 -1      2567 5.65192E+00
 -1      2568 1.14432E+01
 -1      2569 8.70990E+00
 -1      2570 1.90561E+01
 -1      2571 1.33609E+01
 -1      2572 8.68688E+00
 -1      2573 6.83239E+00
 -1      2574 2.12726E+00
 -1      2575 2.19211E+00
 -1      2576 2.39105E+00
 -1      2577 2.65303E+00
 -1      2578 1.03454E+01
 -1      2579 1.42091E+01
 -1      2580 1.16122E+01
 -1      2581 6.20348E+00
 -1      2582 9.35161E-01
 -1      2583 9.95942E-01
 -1      2584 1.03312E+00
 -1      2585 6.33186E-04
 -1      2586 5.63125E-04
 -1      2587 5.85048E-04
 -1      2588 7.67873E-04
 -1      2589 2.53077E+00
 -1      2590 8.21847E+00
 -1      2591 2.30127E+01
 -1      2592 7.48219E-04
 -1      2593 2.65303E+00
 -1      2594 5.26993E+00
 -1      2595 3.99752E+00
 -1      2596 4.37029E+00
 -1      2597 9.76127E+00
 -1      2598 8.14421E-04
 -1      2599 9.91350E-04
 -1      2600 1.13055E-03
 -1      2601 8.14421E-04
 -1      2602 1.10564E-03
 -1      2603 1.06629E-03
 -1      2604 1.62779E+01
 -1      2605 3.24320E+01
 -1      2606 2.83485E+01
 -1      2607 2.83485E+01
 -1      2608 2.03435E+01
 -1      2609 1.83192E+01
 -1      2610 4.97899E+00
 -1      2611 7.54955E+00
 -1      2612 6.98049E+00
 -1      2613 9.33482E+00
 -1      2614 1.11448E+00
 -1      2615 3.54215E+00
 -1      2616 3.30602E+01
 -1      2617 9.34110E+00
 -1      2618 2.30139E+01
 -1      2619 6.53770E+00
 -1      2620 3.38065E+01
 -1      2621 6.85626E+00
 -1      2622 6.83160E+00
 -1      2623 1.06221E+01
 -1      2624 2.65303E+00
 -1      2625 1.13093E+00
 -1      2626 1.11478E+00
 -1      2627 1.08825E+00
 -1      2628 1.09623E+00
 -1      2629 1.28185E+00
 -1      2630 1.87979E+00
 -1      2631 1.70893E+00
 -1      2632 2.40990E+00
 -1      2633 1.97200E+00
 -1      2634 2.07455E+00
 -1      2635 2.05253E+01
 -1      2636 1.75285E+01
 -1      2637 1.01137E-03
 -1      2638 8.53028E-04
 -1      2639 8.48199E-04
 -1      2640 6.50905E-01
 -1      2641 6.94517E-01
 -1      2642 8.07436E-01
 -1      2643 9.06557E-01
 -1      2644 7.18264E-01
 -1      2645 9.86440E-01
 -1      2646 1.09451E+00
 -1      2647 9.11065E-01
 -1      2648 1.20006E+00
 -1      2649 1.27213E+00
 -1      2650 1.09649E+00
 -1      2651 1.32601E+00
 -1      2652 1.36958E+00
 -1      2653 1.25592E+00
 -1      2654 1.44329E+00
 -1      2655 1.45086E+00
 -1      2656 1.38350E+00
 -1      2657 1.48157E+00
 -1      2658 1.43569E+00
 -1      2659 1.48792E+00
 -1      2660 1.34652E+00
 -1      2661 1.36149E+00
 -1      2662 1.42946E+00
 -1      2663 1.43806E+00
 -1      2664 1.44591E+00
 -1      2665 1.41686E+00
 -1      2666 1.37857E+00
 -1      2667 1.32598E+00
 -1      2668 1.42610E+00
 -1      2669 1.24678E+00
 -1      2670 1.18449E+00
 -1      2671 1.27955E+00
 -1      2672 1.12592E+00
 -1      2673 1.01396E+00
 -1      2674 1.14178E+00
 -1      2675 9.30623E-01
 -1      2676 8.07618E-01
 -1      2677 9.99880E-01
 -1      2678 6.98695E-01
 -1      2679 5.98109E-01
 -1      2680 8.07618E-01
 -1      2681 5.15882E-01
 -1      2682 4.28268E-01
 -1      2683 6.16468E-01
 -1      2684 3.73318E-01
 -1      2685 3.46642E-01
 -1      2686 4.79291E-01
 -1      2687 2.90468E-01
 -1      2688 2.61137E-01
 -1      2689 3.68167E-01
 -1      2690 2.32680E-01
 -1      2691 2.24851E-01
 -1      2692 2.83536E-01
 -1      2693 2.11203E-01
 -1      2694 2.08079E-01
 -1      2695 2.41431E-01
 -1      2696 1.93169E-01
 -1      2697 1.84355E-01
 -1      2698 2.12873E-01
 -1      2699 1.70121E-01
 -1      2700 1.60288E-01
 -1      2701 1.83729E-01
 -1      2702 1.47310E-01
 -1      2703 1.36556E-01
 -1      2704 1.56517E-01
 -1      2705 1.23799E-01
 -1      2706 1.12391E-01
 -1      2707 1.30782E-01
 -1      2708 1.00393E-01
 -1      2709 8.90948E-02
 -1      2710 1.06028E-01
 -1      2711 7.83314E-02
 -1      2712 6.80965E-02
 -1      2713 8.32664E-02
 -1      2714 5.89234E-02
 -1      2715 5.02060E-02
 -1      2716 6.33299E-02
 -1      2717 4.26944E-02
 -1      2718 3.56168E-02
 -1      2719 4.66452E-02
 -1      2720 2.96701E-02
 -1      2721 2.41535E-02
 -1      2722 3.31870E-02
 -1      2723 1.95883E-02
 -1      2724 1.64933E-02
 -1      2725 2.26750E-02
 -1      2726 1.30923E-02
 -1      2727 1.12442E-02
 -1      2728 1.47089E-02
 -1      2729 9.11193E-03
 -1      2730 8.51759E-03
 -1      2731 9.17570E-03
 -1      2732 7.93673E-03
 -1      2733 7.24968E-03
 -1      2734 6.46255E-03
 -1      2735 7.12554E-03
 -1      2736 6.42313E-03
 -1      2737 5.75755E-03
 -1      2738 6.16154E-03
 -1      2739 5.49271E-03
 -1      2740 5.37181E-03
 -1      2741 5.16074E-03
 -1      2742 4.64733E-03
 -1      2743 4.77826E-03
 -1      2744 4.29116E-03
 -1      2745 3.96392E-03
 -1      2746 4.09012E-03
 -1      2747 3.67178E-03
 -1      2748 3.32497E-03
 -1      2749 3.44181E-03
 -1      2750 3.08507E-03
 -1      2751 2.74559E-03
 -1      2752 2.90977E-03
 -1      2753 2.49791E-03
 -1      2754 2.21685E-03
 -1      2755 2.42219E-03
 -1      2756 1.97879E-03
 -1      2757 1.71938E-03
 -1      2758 1.93646E-03
 -1      2759 1.51395E-03
 -1      2760 1.28684E-03
 -1      2761 1.49296E-03
 -1      2762 1.12567E-03
 -1      2763 9.35877E-04
 -1      2764 1.04069E-03
 -1      2765 1.12636E-03
 -1      2766 7.44704E+00
 -1      2767 6.79763E+00
 -1      2768 5.13926E+00
 -1      2769 4.60575E+00
 -1      2770 6.98780E+00
 -1      2771 1.10564E-03
 -1      2772 9.03104E+00
 -1      2773 7.89656E+00
 -1      2774 2.17873E+01
 -1      2775 1.60024E+01
 -1      2776 7.04907E+00
 -1      2777 9.56407E+00
 -1      2778 4.47968E+00
 -1      2779 4.76095E+00
 -1      2780 3.36014E+00
 -1      2781 3.75048E+00
 -1      2782 4.47100E+00
 -1      2783 2.48140E+00
 -1      2784 2.84154E+00
 -1      2785 3.22320E+00
 -1      2786 1.82408E+00
 -1      2787 2.09645E+00
 -1      2788 2.31965E+00
 -1      2789 1.30654E+00
 -1      2790 1.53718E+00
 -1      2791 1.64780E+00
 -1      2792 9.30796E-01
 -1      2793 1.10383E+00
 -1      2794 1.15819E+00
 -1      2795 6.55019E-01
 -1      2796 7.83069E-01
 -1      2797 8.07752E-01
 -1      2798 4.64129E-01
 -1      2799 5.57071E-01
 -1      2800 5.62077E-01
 -1      2801 3.24153E-01
 -1      2802 3.97049E-01
 -1      2803 3.97049E-01
 -1      2804 2.29547E-01
 -1      2805 2.78332E-01
 -1      2806 2.84146E-01
 -1      2807 1.60647E-01
 -1      2808 1.95510E-01
 -1      2809 2.04287E-01
 -1      2810 1.10738E-01
 -1      2811 1.35518E-01
 -1      2812 1.45121E-01
 -1      2813 7.48693E-02
 -1      2814 9.23322E-02
 -1      2815 1.01587E-01
 -1      2816 5.00081E-02
 -1      2817 6.16509E-02
 -1      2818 6.99620E-02
 -1      2819 3.23260E-02
 -1      2820 3.98429E-02
 -1      2821 4.65785E-02
 -1      2822 2.16332E-02
 -1      2823 2.56104E-02
 -1      2824 2.96977E-02
 -1      2825 1.56268E-02
 -1      2826 1.69969E-02
 -1      2827 1.83459E-02
 -1      2828 1.22420E-02
 -1      2829 1.36240E-02
 -1      2830 1.17068E-02
 -1      2831 1.05263E-02
 -1      2832 1.18282E-02
 -1      2833 9.29024E-03
 -1      2834 8.75171E-03
 -1      2835 9.96523E-03
 -1      2836 8.31536E-03
 -1      2837 7.13207E-03
 -1      2838 8.16054E-03
 -1      2839 7.16309E-03
 -1      2840 6.01801E-03
 -1      2841 6.56275E-03
 -1      2842 6.00260E-03
 -1      2843 4.98864E-03
 -1      2844 5.51002E-03
 -1      2845 4.92528E-03
 -1      2846 4.14664E-03
 -1      2847 4.64934E-03
 -1      2848 4.07800E-03
 -1      2849 3.37619E-03
 -1      2850 3.81737E-03
 -1      2851 3.40943E-03
 -1      2852 2.71720E-03
 -1      2853 3.08146E-03
 -1      2854 2.78542E-03
 -1      2855 2.05408E-03
 -1      2856 2.43372E-03
 -1      2857 2.20722E-03
 -1      2858 1.53422E-03
 -1      2859 1.82994E-03
 -1      2860 1.69960E-03
 -1      2861 1.11416E-03
 -1      2862 1.33816E-03
 -1      2863 1.27940E-03
 -1      2864 7.89045E-04
 -1      2865 7.91243E-04
 -1      2866 7.82655E-04
 -1      2867 7.53909E-04
 -1      2868 7.82165E-04
 -1      2869 7.81938E-04
 -1      2870 8.64106E-04
 -1      2871 7.91243E-04
 -1      2872 7.91243E-04
 -1      2873 8.62626E-04
 -1      2874 8.71213E-04
 -1      2875 1.50230E+01
 -1      2876 1.12849E+01
 -1      2877 1.25356E+01
 -1      2878 7.82165E-04
 -1      2879 7.82165E-04
 -1      2880 8.57000E-04
 -1      2881 7.38550E-04
 -1      2882 7.72023E-04
 -1      2883 8.46858E-04
 -1      2884 9.09295E-04
 -1      2885 8.78282E-04
 -1      2886 9.76447E-04
 -1      2887 9.09295E-04
 -1      2888 3.94873E+00
 -1      2889 4.59253E+00
 -1      2890 3.02229E+00
 -1      2891 2.69810E+00
 -1      2892 4.69923E+00
 -1      2893 3.44885E+00
 -1      2894 1.30514E+01
 -1      2895 1.75769E+01
 -1      2896 9.82436E-01
 -1      2897 8.06724E-01
 -1      2898 6.31901E+00
 -1      2899 5.56788E+00
 -1      2900 1.03312E+00
 -1      2901 9.95365E+00
 -1      2902 1.10033E+01
 -1      2903 6.45938E+00
 -1      2904 7.61503E-01
 -1      2905 7.53553E-01
 -1      2906 7.07992E-01
 -1      2907 8.55861E-01
 -1      2908 1.07481E-03
 -1      2909 6.78972E+00
 -1      2910 8.26112E+00
 -1      2911 2.63870E+01
 -1      2912 1.99644E+01
 -1      2913 3.68738E+00
 -1      2914 3.34746E+00
 -1      2915 3.16752E+00
 -1      2916 4.41106E+00
 -1      2917 1.57030E+00
 -1      2918 1.32928E+00
 -1      2919 1.50673E+00
 -1      2920 1.84372E+00
 -1      2921 6.55124E+00
 -1      2922 6.73331E+00
 -1      2923 1.08802E+00
 -1      2924 1.06437E+00
 -1      2925 1.32505E+01
 -1      2926 1.00839E+01
 -1      2927 8.21919E+00
 -1      2928 1.20239E+01
 -1      2929 7.16293E+00
 -1      2930 5.31479E+00
 -1      2931 5.54295E+00
 -1      2932 6.07883E+00
 -1      2933 3.83976E+00
 -1      2934 2.76961E+01
 -1      2935 2.26884E+01
 -1      2936 4.12239E+00
 -1      2937 6.18980E+00
 -1      2938 1.05535E+01
 -1      2939 8.63584E+00
 -1      2940 2.17142E+01
 -1      2941 2.74683E+01
 -1      2942 2.48128E+00
 -1      2943 2.48128E+00
 -1      2944 2.23815E+00
 -1      2945 2.43169E+00
 -1      2946 9.56037E-01
 -1      2947 9.21959E-01
 -1      2948 1.05117E+00
 -1      2949 1.24549E+00
 -1      2950 1.08639E+00
 -1      2951 1.12608E+00
 -1      2952 1.44802E+01
 -1      2953 5.72915E+00
 -1      2954 6.70711E+00
 -1      2955 1.43326E+01
 -1      2956 2.04430E+01
 -1      2957 1.34315E+01
 -1      2958 5.32070E+00
 -1      2959 2.63870E+01
 -1      2960 1.39194E+01
 -1      2961 1.58809E+01
 -1      2962 3.84263E+00
 -1      2963 7.09437E+00
 -1      2964 4.39200E+00
 -1      2965 4.08532E+00
 -1      2966 3.02594E+00
 -1      2967 9.29867E+00
 -1      2968 7.38043E+00
 -1      2969 9.92553E+00
 -1      2970 8.17490E-04
 -1      2971 7.17360E-04
 -1      2972 6.59420E-04
 -1      2973 7.17474E-04
 -1      2974 9.81669E-04
 -1      2975 9.90195E-04
 -1      2976 8.38995E-04
 -1      2977 4.03775E+00
 -1      2978 1.11618E-03
 -1      2979 1.30676E+01
 -1      2980 1.73179E+01
 -1      2981 1.48168E+01
 -1      2982 1.20502E+01
 -1      2983 2.57595E+00
 -1      2984 9.01082E-01
 -1      2985 7.00590E+00
 -1      2986 9.36137E+00
 -1      2987 9.10243E+00
 -1      2988 5.36766E+00
 -1      2989 1.12608E+00
 -1      2990 1.12608E+00
 -1      2991 1.19758E+00
 -1      2992 1.23565E+00
 -1      2993 5.11610E+00
 -1      2994 7.75997E+00
 -1      2995 1.95095E+01
 -1      2996 1.39176E+01
 -1      2997 1.56028E+01
 -1      2998 2.07107E+01
 -1      2999 1.29141E+01
 -1      3000 1.15801E+01
 -1      3001 8.95911E+00
 -1      3002 1.63502E+01
 -1      3003 5.80691E+00
 -1      3004 5.26259E+00
 -1      3005 1.12474E-03
 -1      3006 1.12474E-03
 -1      3007 2.69947E+00
 -1      3008 2.60726E+00
 -1      3009 9.11065E-01
 -1      3010 9.90948E-01
 -1      3011 1.09930E+00
 -1      3012 1.20484E+00
 -1      3013 1.09930E+00
 -1      3014 1.29125E+00
 -1      3015 1.34513E+00
 -1      3016 1.29406E+00
 -1      3017 1.38618E+00
 -1      3018 1.45988E+00
 -1      3019 1.42151E+00
 -1      3020 1.64177E+00
 -1      3021 1.67248E+00
 -1      3022 1.64445E+00
 -1      3023 1.74020E+00
 -1      3024 1.65103E+00
 -1      3025 1.89405E+00
 -1      3026 1.63057E+00
 -1      3027 1.70715E+00
 -1      3028 1.94131E+00
 -1      3029 1.60937E+00
 -1      3030 1.54203E+00
 -1      3031 1.82308E+00
 -1      3032 1.35906E+00
 -1      3033 1.27986E+00
 -1      3034 1.54234E+00
 -1      3035 1.28498E+00
 -1      3036 1.22642E+00
 -1      3037 1.36449E+00
 -1      3038 1.12182E+00
 -1      3039 1.03848E+00
 -1      3040 1.26502E+00
 -1      3041 9.21995E-01
 -1      3042 8.13072E-01
 -1      3043 1.04393E+00
 -1      3044 7.49189E-01
 -1      3045 6.66962E-01
 -1      3046 8.63566E-01
 -1      3047 5.72594E-01
 -1      3048 5.17644E-01
 -1      3049 7.05315E-01
 -1      3050 4.27244E-01
 -1      3051 3.71070E-01
 -1      3052 5.20547E-01
 -1      3053 3.36572E-01
 -1      3054 3.08114E-01
 -1      3055 3.95649E-01
 -1      3056 2.76252E-01
 -1      3057 2.62605E-01
 -1      3058 3.29289E-01
 -1      3059 2.35004E-01
 -1      3060 2.20094E-01
 -1      3061 2.69826E-01
 -1      3062 1.98571E-01
 -1      3063 1.84337E-01
 -1      3064 2.20702E-01
 -1      3065 1.67353E-01
 -1      3066 1.54374E-01
 -1      3067 1.82195E-01
 -1      3068 1.37776E-01
 -1      3069 1.25020E-01
 -1      3070 1.48612E-01
 -1      3071 1.10136E-01
 -1      3072 9.81383E-02
 -1      3073 1.17130E-01
 -1      3074 8.55106E-02
 -1      3075 7.47472E-02
 -1      3076 8.96191E-02
 -1      3077 6.49512E-02
 -1      3078 5.57781E-02
 -1      3079 6.71954E-02
 -1      3080 4.79937E-02
 -1      3081 4.04821E-02
 -1      3082 4.96150E-02
 -1      3083 3.44202E-02
 -1      3084 2.84736E-02
 -1      3085 3.57687E-02
 -1      3086 2.38477E-02
 -1      3087 1.92824E-02
 -1      3088 2.50809E-02
 -1      3089 1.58241E-02
 -1      3090 1.24232E-02
 -1      3091 1.69968E-02
 -1      3092 9.89454E-03
 -1      3093 7.76226E-03
 -1      3094 1.10098E-02
 -1      3095 5.95949E-03
 -1      3096 5.37863E-03
 -1      3097 6.67834E-03
 -1      3098 4.52410E-03
 -1      3099 4.39995E-03
 -1      3100 4.02104E-03
 -1      3101 4.60740E-03
 -1      3102 4.34581E-03
 -1      3103 3.37395E-03
 -1      3104 4.35231E-03
 -1      3105 4.02034E-03
 -1      3106 3.58789E-03
 -1      3107 3.90080E-03
 -1      3108 3.54463E-03
 -1      3109 3.47485E-03
 -1      3110 3.35358E-03
 -1      3111 3.06145E-03
 -1      3112 3.16426E-03
 -1      3113 2.83710E-03
 -1      3114 2.59720E-03
 -1      3115 2.74888E-03
 -1      3116 2.44181E-03
 -1      3117 2.19414E-03
 -1      3118 2.36915E-03
 -1      3119 2.01431E-03
 -1      3120 1.77625E-03
 -1      3121 2.03394E-03
 -1      3122 1.59195E-03
 -1      3123 1.38652E-03
 -1      3124 1.66981E-03
 -1      3125 4.78473E+00
 -1      3126 4.37043E+00
 -1      3127 1.21186E+01
 -1      3128 1.26794E+01
 -1      3129 2.21519E+00
 -1      3130 2.60014E+00
 -1      3131 3.22320E+00
 -1      3132 3.74179E+00
 -1      3133 3.11873E+00
 -1      3134 4.72730E+00
 -1      3135 5.45651E+00
 -1      3136 4.72730E+00
 -1      3137 1.54838E+00
 -1      3138 1.83528E+00
 -1      3139 2.11576E+00
 -1      3140 1.08528E+00
 -1      3141 1.28800E+00
 -1      3142 1.47547E+00
 -1      3143 7.56295E-01
 -1      3144 9.04022E-01
 -1      3145 1.03383E+00
 -1      3146 5.29005E-01
 -1      3147 6.26952E-01
 -1      3148 7.23223E-01
 -1      3149 3.69754E-01
 -1      3150 4.36834E-01
 -1      3151 5.01709E-01
 -1      3152 2.61059E-01
 -1      3153 3.06881E-01
 -1      3154 3.46667E-01
 -1      3155 1.82468E-01
 -1      3156 2.16505E-01
 -1      3157 2.39240E-01
 -1      3158 1.26199E-01
 -1      3159 1.51328E-01
 -1      3160 1.63546E-01
 -1      3161 8.70378E-02
 -1      3162 1.05444E-01
 -1      3163 1.11651E-01
 -1      3164 5.85644E-02
 -1      3165 7.17828E-02
 -1      3166 7.56401E-02
 -1      3167 3.87861E-02
 -1      3168 4.89513E-02
 -1      3169 5.07720E-02
 -1      3170 2.54372E-02
 -1      3171 3.21527E-02
 -1      3172 3.45256E-02
 -1      3173 1.59696E-02
 -1      3174 2.06059E-02
 -1      3175 2.30609E-02
 -1      3176 1.05104E-02
 -1      3177 1.25131E-02
 -1      3178 1.47732E-02
 -1      3179 7.68203E-03
 -1      3180 8.09580E-03
 -1      3181 8.90216E-03
 -1      3182 6.44300E-03
 -1      3183 7.00411E-03
 -1      3184 5.80967E-03
 -1      3185 5.82263E-03
 -1      3186 6.41380E-03
 -1      3187 5.10255E-03
 -1      3188 5.06011E-03
 -1      3189 5.62943E-03
 -1      3190 4.88014E-03
 -1      3191 4.27558E-03
 -1      3192 4.78358E-03
 -1      3193 4.41041E-03
 -1      3194 3.62631E-03
 -1      3195 3.96560E-03
 -1      3196 3.82389E-03
 -1      3197 3.02172E-03
 -1      3198 3.35100E-03
 -1      3199 3.23860E-03
 -1      3200 2.50558E-03
 -1      3201 2.80032E-03
 -1      3202 2.74188E-03
 -1      3203 1.98815E-03
 -1      3204 2.27163E-03
 -1      3205 2.28652E-03
 -1      3206 1.54519E-03
 -1      3207 1.76934E-03
 -1      3208 1.83375E-03
 -1      3209 1.15101E-03
 -1      3210 1.34706E-03
 -1      3211 1.41681E-03
 -1      3212 1.05786E-03
 -1      3213 5.04450E+00
 -1      3214 6.70891E+00
 -1      3215 4.36565E+00
 -1      3216 3.49700E+00
 -1      3217 9.01181E-04
 -1      3218 9.08287E-04
 -1      3219 1.16892E-03
 -1      3220 1.43859E-03
 -1      3221 1.29886E-03
 -1      3222 1.17110E+01
 -1      3223 8.48214E+00
 -1      3224 7.75075E+00
 -1      3225 7.09073E+00
 -1      3226 5.61782E+00
 -1      3227 2.83315E+00
 -1      3228 3.50669E+00
 -1      3229 4.27748E+00
 -1      3230 4.74989E+00
 -1      3231 3.79962E+00
 -1      3232 9.21959E-01
 -1      3233 1.17456E+01
 -1      3234 1.12282E-03
 -1      3235 1.12282E-03
 -1      3236 1.44523E-03
 -1      3237 1.04732E-03
 -1      3238 1.29886E-03
 -1      3239 1.30900E-03
 -1      3240 1.57675E-03
 -1      3241 1.76101E-03
 -1      3242 4.27398E+00
 -1      3243 4.87390E+00
 -1      3244 9.86369E+00
 -1      3245 1.20684E+01
 -1      3246 2.97971E+00
 -1      3247 3.93012E+00
 -1      3248 1.15055E+01
 -1      3249 8.99998E+00
 -1      3250 6.69601E-01
 -1      3251 7.82520E-01
 -1      3252 8.62403E-01
 -1      3253 1.28949E+01
 -1      3254 1.31228E+01
 -1      3255 8.84100E+00
 -1      3256 5.68829E+00
 -1      3257 6.29500E+00
 -1      3258 5.94460E+00
 -1      3259 2.41497E+00
 -1      3260 2.34359E+00
 -1      3261 2.87629E+00
 -1      3262 2.68138E+00
 -1      3263 1.59167E+00
 -1      3264 1.56515E+00
 -1      3265 1.08387E+01
 -1      3266 7.77390E+00
 -1      3267 6.11552E+00
 -1      3268 9.49440E+00
 -1      3269 1.50900E+00
 -1      3270 1.49916E+00
 -1      3271 1.81882E+00
 -1      3272 3.26450E+00
 -1      3273 1.08774E+01
 -1      3274 2.93701E+00
 -1      3275 2.31210E+00
 -1      3276 2.17347E+00
 -1      3277 9.14382E+00
 -1      3278 3.82968E+00
 -1      3279 8.76738E-01
 -1      3280 1.20849E-03
 -1      3281 1.08096E+01
 -1      3282 9.60844E+00
 -1      3283 4.41299E+00
 -1      3284 3.18352E+00
 -1      3285 4.40935E+00
 -1      3286 9.20321E-04
 -1      3287 8.83773E-04
 -1      3288 1.79003E+00
 -1      3289 1.59167E+00
 -1      3290 1.87497E+00
 -1      3291 2.25841E+00
 -1      3292 4.20238E+00
 -1      3293 3.16106E+00
 -1      3294 9.95571E-04
 -1      3295 9.58497E-04
 -1      3296 9.58497E-04
 -1      3297 9.58497E-04
 -1      3298 9.49910E-04
 -1      3299 1.01619E-03
 -1      3300 1.04578E-03
 -1      3301 7.52512E-01
 -1      3302 8.16768E-01
 -1      3303 8.55159E-01
 -1      3304 7.45205E+00
 -1      3305 1.08373E+01
 -1      3306 1.08373E+01
 -1      3307 9.03647E+00
 -1      3308 5.10717E+00
 -1      3309 7.44310E+00
 -1      3310 1.31779E+00
 -1      3311 1.27972E+00
 -1      3312 6.89635E+00
 -1      3313 9.00088E+00
 -1      3314 7.15160E+00
 -1      3315 2.68214E+00
 -1      3316 2.77251E+00
 -1      3317 2.81874E+00
 -1      3318 1.30748E-03
 -1      3319 5.68237E+00
 -1      3320 4.76400E+00
 -1      3321 6.46846E+00
 -1      3322 3.41743E+00
 -1      3323 6.27420E+00
 -1      3324 9.97834E+00
 -1      3325 3.55296E+00
 -1      3326 3.22779E+00
 -1      3327 3.06682E+00
 -1      3328 4.82426E+00
 -1      3329 8.98382E+00
 -1      3330 1.13934E+00
 -1      3331 1.03100E+00
 -1      3332 1.25955E+00
 -1      3333 1.32573E+01
 -1      3334 1.12958E+01
 -1      3335 1.47103E+00
 -1      3336 1.55744E+00
 -1      3337 1.65912E+00
 -1      3338 1.70017E+00
 -1      3339 1.83609E+00
 -1      3340 1.98542E+00
 -1      3341 2.16730E+00
 -1      3342 2.22302E+00
 -1      3343 2.82562E+00
 -1      3344 2.89333E+00
 -1      3345 3.16659E+00
 -1      3346 2.83366E+00
 -1      3347 2.81320E+00
 -1      3348 3.76523E+00
 -1      3349 2.49547E+00
 -1      3350 2.39769E+00
 -1      3351 3.38781E+00
 -1      3352 1.83267E+00
 -1      3353 1.64971E+00
 -1      3354 2.50506E+00
 -1      3355 1.68515E+00
 -1      3356 1.69028E+00
 -1      3357 1.97549E+00
 -1      3358 1.39973E+00
 -1      3359 1.29513E+00
 -1      3360 1.72039E+00
 -1      3361 1.25941E+00
 -1      3362 1.14293E+00
 -1      3363 1.39413E+00
 -1      3364 1.02631E+00
 -1      3365 9.62432E-01
 -1      3366 1.24179E+00
 -1      3367 8.10432E-01
 -1      3368 7.16064E-01
 -1      3369 9.73181E-01
 -1      3370 6.28398E-01
 -1      3371 5.37998E-01
 -1      3372 7.33515E-01
 -1      3373 4.74382E-01
 -1      3374 4.39883E-01
 -1      3375 5.82232E-01
 -1      3376 3.78518E-01
 -1      3377 3.46656E-01
 -1      3378 4.57250E-01
 -1      3379 3.04726E-01
 -1      3380 2.77125E-01
 -1      3381 3.53955E-01
 -1      3382 2.44967E-01
 -1      3383 2.23444E-01
 -1      3384 2.79867E-01
 -1      3385 1.96879E-01
 -1      3386 1.79894E-01
 -1      3387 2.21144E-01
 -1      3388 1.57580E-01
 -1      3389 1.40982E-01
 -1      3390 1.72265E-01
 -1      3391 1.25737E-01
 -1      3392 1.10853E-01
 -1      3393 1.34705E-01
 -1      3394 9.87551E-02
 -1      3395 8.61274E-02
 -1      3396 1.07362E-01
 -1      3397 7.56618E-02
 -1      3398 6.58658E-02
 -1      3399 8.47978E-02
 -1      3400 5.66847E-02
 -1      3401 4.89003E-02
 -1      3402 6.51511E-02
 -1      3403 4.12481E-02
 -1      3404 3.51862E-02
 -1      3405 4.83178E-02
 -1      3406 2.90599E-02
 -1      3407 2.44340E-02
 -1      3408 3.45393E-02
 -1      3409 1.99599E-02
 -1      3410 1.65016E-02
 -1      3411 2.39388E-02
 -1      3412 1.31502E-02
 -1      3413 1.06215E-02
 -1      3414 1.61133E-02
 -1      3415 8.14724E-03
 -1      3416 6.34447E-03
 -1      3417 1.02877E-02
 -1      3418 4.57533E-03
 -1      3419 3.72080E-03
 -1      3420 6.04423E-03
 -1      3421 2.77934E-03
 -1      3422 2.98678E-03
 -1      3423 3.33363E-03
 -1      3424 2.92680E-03
 -1      3425 2.93331E-03
 -1      3426 2.33220E-03
 -1      3427 3.07650E-03
 -1      3428 2.95695E-03
 -1      3429 2.41541E-03
 -1      3430 2.95441E-03
 -1      3431 2.76337E-03
 -1      3432 2.55606E-03
 -1      3433 2.67039E-03
 -1      3434 2.44604E-03
 -1      3435 2.46054E-03
 -1      3436 2.30216E-03
 -1      3437 2.14678E-03
 -1      3438 2.22367E-03
 -1      3439 2.01733E-03
 -1      3440 1.83750E-03
 -1      3441 1.95034E-03
 -1      3442 1.77230E-03
 -1      3443 1.58800E-03
 -1      3444 1.75569E-03
 -1      3445 6.67264E+00
 -1      3446 3.82968E+00
 -1      3447 3.82491E+00
 -1      3448 2.87629E+00
 -1      3449 3.23217E+00
 -1      3450 3.42270E+00
 -1      3451 1.76993E+00
 -1      3452 2.14984E+00
 -1      3453 4.72730E+00
 -1      3454 5.71282E+00
 -1      3455 8.74740E-01
 -1      3456 1.05600E+00
 -1      3457 6.18263E-01
 -1      3458 7.47606E-01
 -1      3459 7.69780E-01
 -1      3460 4.34342E-01
 -1      3461 5.26513E-01
 -1      3462 5.50896E-01
 -1      3463 3.07299E-01
 -1      3464 3.70172E-01
 -1      3465 3.94975E-01
 -1      3466 2.15760E-01
 -1      3467 2.60314E-01
 -1      3468 2.83819E-01
 -1      3469 1.50186E-01
 -1      3470 1.81327E-01
 -1      3471 2.02400E-01
 -1      3472 1.04276E-01
 -1      3473 1.25032E-01
 -1      3474 1.42812E-01
 -1      3475 7.04821E-02
 -1      3476 8.57371E-02
 -1      3477 9.91183E-02
 -1      3478 4.78149E-02
 -1      3479 5.74280E-02
 -1      3480 6.75250E-02
 -1      3481 3.23559E-02
 -1      3482 3.89892E-02
 -1      3483 4.56452E-02
 -1      3484 2.11642E-02
 -1      3485 2.59955E-02
 -1      3486 3.04592E-02
 -1      3487 1.32643E-02
 -1      3488 1.67208E-02
 -1      3489 1.96553E-02
 -1      3490 7.75768E-03
 -1      3491 1.01722E-02
 -1      3492 1.21198E-02
 -1      3493 4.90719E-03
 -1      3494 5.58512E-03
 -1      3495 6.85521E-03
 -1      3496 3.95243E-03
 -1      3497 3.98163E-03
 -1      3498 3.75708E-03
 -1      3499 3.94841E-03
 -1      3500 4.14161E-03
 -1      3501 3.02069E-03
 -1      3502 3.71107E-03
 -1      3503 3.98760E-03
 -1      3504 3.24906E-03
 -1      3505 3.30934E-03
 -1      3506 3.61932E-03
 -1      3507 3.19651E-03
 -1      3508 2.86789E-03
 -1      3509 3.14320E-03
 -1      3510 2.93862E-03
 -1      3511 2.43921E-03
 -1      3512 2.66062E-03
 -1      3513 2.56521E-03
 -1      3514 2.04566E-03
 -1      3515 2.27962E-03
 -1      3516 2.19836E-03
 -1      3517 1.66052E-03
 -1      3518 1.87934E-03
 -1      3519 1.87244E-03
 -1      3520 9.21257E-01
 -1      3521 9.24419E-04
 -1      3522 9.82472E-04
 -1      3523 1.14329E-03
 -1      3524 1.02725E-03
 -1      3525 1.39656E+00
 -1      3526 1.47870E+00
 -1      3527 1.39656E+00
 -1      3528 7.90654E+00
 -1      3529 9.11634E+00
 -1      3530 6.52356E+00
 -1      3531 2.40102E+00
 -1      3532 3.16830E+00
 -1      3533 1.02318E+01
 -1      3534 3.73516E+00
 -1      3535 3.77000E+00
 -1      3536 4.57289E+00
 -1      3537 5.30708E+00
 -1      3538 7.70988E+00
 -1      3539 1.03334E+01
 -1      3540 7.25133E+00
 -1      3541 1.62326E-03
 -1      3542 1.27161E-03
 -1      3543 1.04804E-03
 -1      3544 6.82316E+00
 -1      3545 6.30532E+00
 -1      3546 2.65681E+00
 -1      3547 3.27987E+00
 -1      3548 2.31098E+00
 -1      3549 5.93154E+00
 -1      3550 5.27152E+00
 -1      3551 8.50295E-01
 -1      3552 9.78840E-01
 -1      3553 6.93161E+00
 -1      3554 7.75820E+00
 -1      3555 3.16659E+00
 -1      3556 2.50274E+00
 -1      3557 1.23702E+00
 -1      3558 1.49740E+00
 -1      3559 1.07793E+00
 -1      3560 1.23628E+00
 -1      3561 1.34463E+00
 -1      3562 1.60801E+00
 -1      3563 3.60087E+00
 -1      3564 3.77147E+00
 -1      3565 3.97138E+00
 -1      3566 3.07007E+00
 -1      3567 3.41743E+00
 -1      3568 8.46696E+00
 -1      3569 7.29303E+00
 -1      3570 6.06508E+00
 -1      3571 6.89635E+00
 -1      3572 1.72575E-03
 -1      3573 5.53079E+00
 -1      3574 3.99243E+00
 -1      3575 3.69727E+00
 -1      3576 3.99243E+00
 -1      3577 7.85948E+00
 -1      3578 6.00868E+00
 -1      3579 6.57819E+00
 -1      3580 7.42433E+00
 -1      3581 1.76101E-03
 -1      3582 1.76101E-03
 -1      3583 1.72575E-03
 -1      3584 1.66006E+00
 -1      3585 4.40976E+00
 -1      3586 3.20493E+00
 -1      3587 4.06710E+00
 -1      3588 2.38845E+00
 -1      3589 2.33230E+00
 -1      3590 2.92342E+00
 -1      3591 2.92342E+00
 -1      3592 3.43690E+00
 -1      3593 1.53148E+00
 -1      3594 6.23015E+00
 -1      3595 6.23015E+00
 -1      3596 1.00942E+00
 -1      3597 6.46193E+00
 -1      3598 1.29735E-03
 -1      3599 1.49548E-03
 -1      3600 1.54106E-03
 -1      3601 1.22196E-03
 -1      3602 1.23604E-03
 -1      3603 1.27669E-03
 -1      3604 1.43075E-03
 -1      3605 1.09967E-03
 -1      3606 1.14988E-03
 -1      3607 1.20236E-03
 -1      3608 6.28879E+00
 -1      3609 5.99716E+00
 -1      3610 1.26563E-03
 -1      3611 6.09040E+00
 -1      3612 2.00632E+00
 -1      3613 1.92756E+00
 -1      3614 2.40655E+00
 -1      3615 6.14630E+00
 -1      3616 6.06880E+00
 -1      3617 2.20749E+00
 -1      3618 2.50506E+00
 -1      3619 1.81796E+00
 -1      3620 1.29033E+00
 -1      3621 1.14994E+00
 -1      3622 4.26539E+00
 -1      3623 5.30265E+00
 -1      3624 3.16659E+00
 -1      3625 1.22418E+00
 -1      3626 2.73739E+00
 -1      3627 1.57675E-03
 -1      3628 1.39248E-03
 -1      3629 1.27161E-03
 -1      3630 1.57675E-03
 -1      3631 4.13761E+00
 -1      3632 4.89561E+00
 -1      3633 8.84313E-01
 -1      3634 1.06533E+00
 -1      3635 3.30686E+00
 -1      3636 2.92342E+00
 -1      3637 3.97186E+00
 -1      3638 4.36228E+00
 -1      3639 1.93165E+00
 -1      3640 1.82905E+00
 -1      3641 2.27791E+00
 -1      3642 2.50128E+00
 -1      3643 2.24294E+00
 -1      3644 1.83226E+00
 -1      3645 1.54172E+00
 -1      3646 1.78011E+00
 -1      3647 1.74439E+00
 -1      3648 1.89198E+00
 -1      3649 1.70750E+00
 -1      3650 1.59088E+00
 -1      3651 2.09348E+00
 -1      3652 1.15905E+00
 -1      3653 1.00705E+00
 -1      3654 1.62475E+00
 -1      3655 8.90387E-01
 -1      3656 8.02720E-01
 -1      3657 1.07625E+00
 -1      3658 6.86945E-01
 -1      3659 6.23329E-01
 -1      3660 8.43817E-01
 -1      3661 5.41888E-01
 -1      3662 4.80523E-01
 -1      3663 6.46601E-01
 -1      3664 4.12756E-01
 -1      3665 3.70826E-01
 -1      3666 4.97394E-01
 -1      3667 3.13438E-01
 -1      3668 2.81280E-01
 -1      3669 3.72240E-01
 -1      3670 2.43339E-01
 -1      3671 2.16774E-01
 -1      3672 2.76911E-01
 -1      3673 1.91084E-01
 -1      3674 1.68770E-01
 -1      3675 2.13279E-01
 -1      3676 1.49951E-01
 -1      3677 1.34705E-01
 -1      3678 1.68770E-01
 -1      3679 1.19460E-01
 -1      3680 1.07362E-01
 -1      3681 1.34705E-01
 -1      3682 9.38595E-02
 -1      3683 8.33940E-02
 -1      3684 1.05958E-01
 -1      3685 7.20041E-02
 -1      3686 6.28230E-02
 -1      3687 8.10658E-02
 -1      3688 5.35515E-02
 -1      3689 4.58993E-02
 -1      3690 6.04045E-02
 -1      3691 3.85676E-02
 -1      3692 3.24413E-02
 -1      3693 4.38013E-02
 -1      3694 2.67890E-02
 -1      3695 2.23149E-02
 -1      3696 3.08174E-02
 -1      3697 1.81963E-02
 -1      3698 1.48450E-02
 -1      3699 2.10465E-02
 -1      3700 1.19364E-02
 -1      3701 9.46210E-03
 -1      3702 1.40194E-02
 -1      3703 7.34152E-03
 -1      3704 5.57238E-03
 -1      3705 8.99024E-03
 -1      3706 4.14221E-03
 -1      3707 3.20075E-03
 -1      3708 5.43950E-03
 -1      3709 2.39218E-03
 -1      3710 2.33220E-03
 -1      3711 3.20075E-03
 -1      3712 1.88996E-03
 -1      3713 2.03316E-03
 -1      3714 1.94994E-03
 -1      3715 2.21900E-03
 -1      3716 2.21645E-03
 -1      3717 1.69355E-03
 -1      3718 2.26262E-03
 -1      3719 2.16964E-03
 -1      3720 1.92555E-03
 -1      3721 2.12629E-03
 -1      3722 1.98240E-03
 -1      3723 1.92837E-03
 -1      3724 1.88856E-03
 -1      3725 1.75911E-03
 -1      3726 1.79117E-03
 -1      3727 1.75569E-03
 -1      3728 1.69049E-03
 -1      3729 1.72575E-03
 -1      3730 1.69391E-03
 -1      3731 4.79192E+00
 -1      3732 4.60139E+00
 -1      3733 5.36165E+00
 -1      3734 6.00296E+00
 -1      3735 2.64839E+00
 -1      3736 2.62740E+00
 -1      3737 2.50828E+00
 -1      3738 1.00942E+00
 -1      3739 8.99679E-01
 -1      3740 8.16768E-01
 -1      3741 1.04020E+00
 -1      3742 1.86229E+00
 -1      3743 1.98868E+00
 -1      3744 6.33374E-01
 -1      3745 7.60508E-01
 -1      3746 7.47908E-01
 -1      3747 2.36758E-01
 -1      3748 2.83744E-01
 -1      3749 1.72181E-01
 -1      3750 2.06614E-01
 -1      3751 2.06539E-01
 -1      3752 1.23617E-01
 -1      3753 1.48772E-01
 -1      3754 1.52986E-01
 -1      3755 8.69203E-02
 -1      3756 1.05459E-01
 -1      3757 1.11419E-01
 -1      3758 5.99704E-02
 -1      3759 7.30245E-02
 -1      3760 7.93656E-02
 -1      3761 4.11325E-02
 -1      3762 4.99582E-02
 -1      3763 5.54577E-02
 -1      3764 2.76278E-02
 -1      3765 3.39881E-02
 -1      3766 3.83011E-02
 -1      3767 1.81060E-02
 -1      3768 2.25495E-02
 -1      3769 2.60784E-02
 -1      3770 1.13345E-02
 -1      3771 1.44266E-02
 -1      3772 1.73207E-02
 -1      3773 6.49349E-03
 -1      3774 8.66605E-03
 -1      3775 1.09728E-02
 -1      3776 3.74319E-03
 -1      3777 4.66876E-03
 -1      3778 6.47960E-03
 -1      3779 2.74347E-03
 -1      3780 2.55430E-03
 -1      3781 3.46597E-03
 -1      3782 2.64515E-03
 -1      3783 2.60595E-03
 -1      3784 2.13955E-03
 -1      3785 2.70507E-03
 -1      3786 2.79682E-03
 -1      3787 2.15371E-03
 -1      3788 2.54692E-03
 -1      3789 2.71306E-03
 -1      3790 2.31338E-03
 -1      3791 2.25771E-03
 -1      3792 2.46497E-03
 -1      3793 2.23942E-03
 -1      3794 1.96760E-03
 -1      3795 2.12719E-03
 -1      3796 2.02695E-03
 -1      3797 1.66336E-03
 -1      3798 1.82969E-03
 -1      3799 1.75852E-03
 -1      3800 6.05806E+00
 -1      3801 9.33206E-01
 -1      3802 1.26563E-03
 -1      3803 1.26563E-03
 -1      3804 1.36973E-03
 -1      3805 5.90971E+00
 -1      3806 6.11655E+00
 -1      3807 6.62040E+00
 -1      3808 5.44341E+00
 -1      3809 5.59922E+00
 -1      3810 2.28361E+00
 -1      3811 1.88251E+00
 -1      3812 2.38948E+00
 -1      3813 3.22073E-01
 -1      3814 3.86244E-01
 -1      3815 2.75012E-01
 -1      3816 4.40589E-01
 -1      3817 5.32339E-01
 -1      3818 5.23067E-01
 -1      3819 4.63646E+00
 -1      3820 4.26268E+00
 -1      3821 2.96516E+00
 -1      3822 4.41259E+00
 -1      3823 2.53669E+00
 -1      3824 1.48548E-03
 -1      3825 5.52330E+00
 -1      3826 5.05343E+00
 -1      3827 4.01347E+00
 -1      3828 1.22418E+00
 -1      3829 1.48162E+00
 -1      3830 1.86229E+00
 -1      3831 2.27389E+00
 -1      3832 2.70646E+00
 -1      3833 5.13033E+00
 -1      3834 5.13033E+00
 -1      3835 1.26640E+00
 -1      3836 1.53893E+00
 -1      3837 1.61742E+00
 -1      3838 1.07278E+00
 -1      3839 3.33619E+00
 -1      3840 4.13761E+00
 -1      3841 2.42905E+00
 -1      3842 1.87293E+00
 -1      3843 1.24432E+00
 -1      3844 1.27785E+00
 -1      3845 1.53529E+00
 -1      3846 1.38484E+00
 -1      3847 2.22302E+00
 -1      3848 2.12130E+00
 -1      3849 2.01961E+00
 -1      3850 3.83392E+00
 -1      3851 2.97216E+00
 -1      3852 3.16774E+00
 -1      3853 3.50243E+00
 -1      3854 2.05160E+00
 -1      3855 1.32847E-03
 -1      3856 1.20759E-03
 -1      3857 3.20218E+00
 -1      3858 2.80153E+00
 -1      3859 4.69734E+00
 -1      3860 5.30483E+00
 -1      3861 4.21196E+00
 -1      3862 1.59580E-03
 -1      3863 1.35560E-03
 -1      3864 1.29874E-03
 -1      3865 1.35037E-03
 -1      3866 1.55304E-03
 -1      3867 5.30075E+00
 -1      3868 2.66786E+00
 -1      3869 2.66744E+00
 -1      3870 1.55304E-03
 -1      3871 4.59536E+00
 -1      3872 4.29900E+00
 -1      3873 2.02207E+00
 -1      3874 2.87270E+00
 -1      3875 3.67687E-01
 -1      3876 2.97881E+00
 -1      3877 2.54570E+00
 -1      3878 5.52074E+00
 -1      3879 2.42253E-01
 -1      3880 2.80583E-01
 -1      3881 1.31076E-03
 -1      3882 1.24674E-03
 -1      3883 1.49502E-03
 -1      3884 2.63097E+00
 -1      3885 1.86289E+00
 -1      3886 1.43105E+00
 -1      3887 1.73242E+00
 -1      3888 1.61576E+00
 -1      3889 1.97056E+00
 -1      3890 1.14222E+00
 -1      3891 1.02644E+00
 -1      3892 1.79839E+00
 -1      3893 7.74275E-01
 -1      3894 6.92834E-01
 -1      3895 1.07268E+00
 -1      3896 5.72514E-01
 -1      3897 5.04748E-01
 -1      3898 7.00187E-01
 -1      3899 4.23037E-01
 -1      3900 3.65649E-01
 -1      3901 4.98156E-01
 -1      3902 3.13936E-01
 -1      3903 2.75994E-01
 -1      3904 3.64732E-01
 -1      3905 2.38969E-01
 -1      3906 2.13279E-01
 -1      3907 2.75994E-01
 -1      3908 1.87589E-01
 -1      3909 1.68770E-01
 -1      3910 2.13279E-01
 -1      3911 1.46960E-01
 -1      3912 1.31715E-01
 -1      3913 1.65779E-01
 -1      3914 1.13939E-01
 -1      3915 1.00437E-01
 -1      3916 1.26194E-01
 -1      3917 8.63323E-02
 -1      3918 7.49424E-02
 -1      3919 9.43135E-02
 -1      3920 6.39752E-02
 -1      3921 5.47037E-02
 -1      3922 6.92416E-02
 -1      3923 4.63174E-02
 -1      3924 3.89857E-02
 -1      3925 4.98881E-02
 -1      3926 3.26675E-02
 -1      3927 2.70152E-02
 -1      3928 3.51835E-02
 -1      3929 2.23265E-02
 -1      3930 1.82079E-02
 -1      3931 2.41766E-02
 -1      3932 1.52467E-02
 -1      3933 1.23381E-02
 -1      3934 1.65267E-02
 -1      3935 1.02892E-02
 -1      3936 8.16867E-03
 -1      3937 1.15166E-02
 -1      3938 6.60341E-03
 -1      3939 5.17324E-03
 -1      3940 7.90242E-03
 -1      3941 4.00933E-03
 -1      3942 3.20075E-03
 -1      3943 5.17324E-03
 -1      3944 2.35867E-03
 -1      3945 1.91644E-03
 -1      3946 3.16725E-03
 -1      3947 1.36804E-03
 -1      3948 1.55387E-03
 -1      3949 1.77676E-03
 -1      3950 1.65514E-03
 -1      3951 1.70131E-03
 -1      3952 1.32963E-03
 -1      3953 1.75359E-03
 -1      3954 1.71024E-03
 -1      3955 1.48318E-03
 -1      3956 1.68889E-03
 -1      3957 1.59504E-03
 -1      3958 1.51411E-03
 -1      3959 9.15542E-02
 -1      3960 1.09712E-01
 -1      3961 6.30806E-01
 -1      3962 7.54611E-01
 -1      3963 1.29918E-01
 -1      3964 1.53327E-01
 -1      3965 1.10053E-01
 -1      3966 1.77450E-01
 -1      3967 2.07593E-01
 -1      3968 2.13164E-01
 -1      3969 6.68512E-02
 -1      3970 8.07469E-02
 -1      3971 7.90398E-02
 -1      3972 4.76137E-02
 -1      3973 5.76259E-02
 -1      3974 5.90072E-02
 -1      3975 3.32607E-02
 -1      3976 4.04051E-02
 -1      3977 4.25733E-02
 -1      3978 2.26772E-02
 -1      3979 2.77555E-02
 -1      3980 2.98595E-02
 -1      3981 1.51896E-02
 -1      3982 1.88690E-02
 -1      3983 2.05461E-02
 -1      3984 9.65410E-03
 -1      3985 1.23226E-02
 -1      3986 1.38709E-02
 -1      3987 5.73076E-03
 -1      3988 7.55550E-03
 -1      3989 8.90526E-03
 -1      3990 3.13856E-03
 -1      3991 4.32746E-03
 -1      3992 5.40335E-03
 -1      3993 2.13955E-03
 -1      3994 2.27708E-03
 -1      3995 3.13856E-03
 -1      3996 1.79294E-03
 -1      3997 1.64126E-03
 -1      3998 1.77879E-03
 -1      3999 1.98542E-03
 -1      4000 1.97743E-03
 -1      4001 1.46498E-03
 -1      4002 1.95602E-03
 -1      4003 2.03797E-03
 -1      4004 1.70202E-03
 -1      4005 1.79051E-03
 -1      4006 1.92103E-03
 -1      4007 1.71958E-03
 -1      4008 1.57678E-03
 -1      4009 1.71470E-03
 -1      4010 1.60878E-03
 -1      4011 4.50242E+00
 -1      4012 4.46021E+00
 -1      4013 3.75635E+00
 -1      4014 3.31579E+00
 -1      4015 1.46611E-03
 -1      4016 2.97881E+00
 -1      4017 1.96101E+00
 -1      4018 2.53669E+00
 -1      4019 2.74011E+00
 -1      4020 3.48385E+00
 -1      4021 3.06689E+00
 -1      4022 3.27494E-01
 -1      4023 3.81839E-01
 -1      4024 2.94736E-01
 -1      4025 5.13033E+00
 -1      4026 4.51144E-01
 -1      4027 5.52180E-01
 -1      4028 4.10952E-01
 -1      4029 2.49202E+00
 -1      4030 1.24674E-03
 -1      4031 1.26445E-03
 -1      4032 5.58883E-01
 -1      4033 1.45976E-03
 -1      4034 1.53075E-03
 -1      4035 1.52734E-03
 -1      4036 1.29660E-03
 -1      4037 1.42847E-03
 -1      4038 7.62861E-01
 -1      4039 8.79963E-01
 -1      4040 1.08103E+00
 -1      4041 3.10627E+00
 -1      4042 3.32474E+00
 -1      4043 2.37816E+00
 -1      4044 1.31325E-03
 -1      4045 1.40440E-03
 -1      4046 1.31325E-03
 -1      4047 1.54382E-01
 -1      4048 2.40460E+00
 -1      4049 2.93422E+00
 -1      4050 1.46611E-03
 -1      4051 1.53368E-03
 -1      4052 1.44675E-03
 -1      4053 1.48985E-03
 -1      4054 1.30095E+00
 -1      4055 1.64454E+00
 -1      4056 1.10814E+00
 -1      4057 2.39778E+00
 -1      4058 1.64454E+00
 -1      4059 1.31432E-03
 -1      4060 5.57900E-01
 -1      4061 6.36526E-01
 -1      4062 2.20408E+00
 -1      4063 1.84488E-01
 -1      4064 2.19148E-01
 -1      4065 1.30808E+00
 -1      4066 1.05591E+00
 -1      4067 9.90863E-01
 -1      4068 8.70543E-01
 -1      4069 1.22627E+00
 -1      4070 6.81002E-01
 -1      4071 5.99291E-01
 -1      4072 9.71678E-01
 -1      4073 4.82813E-01
 -1      4074 4.31100E-01
 -1      4075 6.65659E-01
 -1      4076 3.45280E-01
 -1      4077 3.08255E-01
 -1      4078 4.63361E-01
 -1      4079 2.48515E-01
 -1      4080 2.22825E-01
 -1      4081 3.17801E-01
 -1      4082 1.81387E-01
 -1      4083 1.59577E-01
 -1      4084 2.16623E-01
 -1      4085 1.32337E-01
 -1      4086 1.14561E-01
 -1      4087 1.47945E-01
 -1      4088 9.71833E-02
 -1      4089 8.30787E-02
 -1      4090 1.03327E-01
 -1      4091 7.31986E-02
 -1      4092 6.22314E-02
 -1      4093 7.60684E-02
 -1      4094 5.40258E-02
 -1      4095 4.56395E-02
 -1      4096 5.79828E-02
 -1      4097 3.90181E-02
 -1      4098 3.26999E-02
 -1      4099 4.31558E-02
 -1      4100 2.74968E-02
 -1      4101 2.28081E-02
 -1      4102 3.13314E-02
 -1      4103 1.87927E-02
 -1      4104 1.58315E-02
 -1      4105 2.21130E-02
 -1      4106 1.30482E-02
 -1      4107 1.09993E-02
 -1      4108 1.53143E-02
 -1      4109 8.93717E-03
 -1      4110 7.37191E-03
 -1      4111 1.04688E-02
 -1      4112 5.86776E-03
 -1      4113 4.70384E-03
 -1      4114 6.90251E-03
 -1      4115 3.63449E-03
 -1      4116 2.79240E-03
 -1      4117 4.32900E-03
 -1      4118 2.03462E-03
 -1      4119 1.48622E-03
 -1      4120 2.50186E-03
 -1      4121 1.07204E-03
 -1      4122 1.17331E-03
 -1      4123 1.32989E-03
 -1      4124 1.27153E-03
 -1      4125 1.32381E-03
 -1      4126 1.01393E-03
 -1      4127 1.36164E-03
 -1      4128 1.34029E-03
 -1      4129 1.14999E-03
 -1      4130 5.37564E-02
 -1      4131 6.29817E-02
 -1      4132 9.92422E-02
 -1      4133 1.19448E-01
 -1      4134 2.09003E+00
 -1      4135 2.86913E+00
 -1      4136 3.10627E+00
 -1      4137 2.17025E+00
 -1      4138 2.03758E+00
 -1      4139 1.56404E+00
 -1      4140 2.01114E+00
 -1      4141 3.86992E-02
 -1      4142 4.59079E-02
 -1      4143 4.98824E-02
 -1      4144 2.76552E-02
 -1      4145 3.31603E-02
 -1      4146 3.64950E-02
 -1      4147 1.97518E-02
 -1      4148 2.35601E-02
 -1      4149 2.68609E-02
 -1      4150 1.39130E-02
 -1      4151 1.67800E-02
 -1      4152 1.97939E-02
 -1      4153 9.14522E-03
 -1      4154 1.12438E-02
 -1      4155 1.41529E-02
 -1      4156 5.76099E-03
 -1      4157 7.16430E-03
 -1      4158 9.50286E-03
 -1      4159 3.44588E-03
 -1      4160 4.30736E-03
 -1      4161 6.06831E-03
 -1      4162 1.91504E-03
 -1      4163 2.41333E-03
 -1      4164 3.58214E-03
 -1      4165 1.39121E-03
 -1      4166 1.20672E-03
 -1      4167 1.84127E-03
 -1      4168 1.46716E-03
 -1      4169 1.41461E-03
 -1      4170 1.15635E-03
 -1      4171 1.51703E-03
 -1      4172 1.55201E-03
 -1      4173 1.26461E-03
 -1      4174 1.44750E-03
 -1      4175 1.52332E-03
 -1      4176 1.35575E-03
 -1      4177 1.40440E-03
 -1      4178 2.52942E-01
 -1      4179 2.99854E-01
 -1      4180 2.24266E-01
 -1      4181 1.40440E-03
 -1      4182 7.36001E-02
 -1      4183 8.44074E-02
 -1      4184 9.38025E-02
 -1      4185 1.49806E+00
 -1      4186 1.81453E+00
 -1      4187 1.94356E+00
 -1      4188 3.66600E-01
 -1      4189 4.35905E-01
 -1      4190 3.24806E-01
 -1      4191 1.38039E-01
 -1      4192 1.62162E-01
 -1      4193 1.68146E-01
 -1      4194 1.27229E-01
 -1      4195 5.13547E-01
 -1      4196 1.38027E-03
 -1      4197 1.31598E-03
 -1      4198 1.26612E-03
 -1      4199 1.22781E-03
 -1      4200 6.83493E-02
 -1      4201 2.21905E+00
 -1      4202 1.31492E-03
 -1      4203 2.63284E+00
 -1      4204 1.36204E-03
 -1      4205 1.54727E+00
 -1      4206 8.21012E-01
 -1      4207 8.21996E-01
 -1      4208 9.47347E-01
 -1      4209 1.06857E+00
 -1      4210 1.28850E+00
 -1      4211 1.12771E+00
 -1      4212 1.45850E+00
 -1      4213 1.35575E-03
 -1      4214 1.35575E-03
 -1      4215 1.34946E-03
 -1      4216 1.30862E-03
 -1      4217 2.44471E-02
 -1      4218 2.85422E-02
 -1      4219 6.19596E-02
 -1      4220 7.25780E-02
 -1      4221 1.08385E+00
 -1      4222 8.94309E-01
 -1      4223 7.08840E-01
 -1      4224 5.92362E-01
 -1      4225 4.70367E-01
 -1      4226 3.84547E-01
 -1      4227 3.17801E-01
 -1      4228 2.58061E-01
 -1      4229 2.24266E-01
 -1      4230 1.82828E-01
 -1      4231 1.60502E-01
 -1      4232 1.33262E-01
 -1      4233 1.14671E-01
 -1      4234 9.72929E-02
 -1      4235 8.24581E-02
 -1      4236 5.37540E-02
 -1      4237 4.59055E-02
 -1      4238 3.92842E-02
 -1      4239 3.37453E-02
 -1      4240 2.04317E-02
 -1      4241 1.74598E-02
 -1      4242 1.46765E-02
 -1      4243 1.20074E-02
 -1      4244 9.94522E-03
 -1      4245 7.96430E-03
 -1      4246 6.46015E-03
 -1      4247 5.00652E-03
 -1      4248 3.93717E-03
 -1      4249 2.90462E-03
 -1      4250 2.14683E-03
 -1      4251 1.43851E-03
 -1      4252 1.02433E-03
 -1      4253 1.04773E-03
 -1      4254 1.14595E-03
 -1      4255 1.94659E+00
 -1      4256 1.73868E+00
 -1      4257 1.23081E-03
 -1      4258 1.46153E+00
 -1      4259 1.67110E+00
 -1      4260 1.48272E+00
 -1      4261 1.94659E+00
 -1      4262 1.27012E+00
 -1      4263 1.20508E+00
 -1      4264 1.26864E-03
 -1      4265 1.23081E-03
 -3
 9999
